    1C
    1UUSER                                                              
    1UDATE              27.october.2022                                 
    1UTIME              01:15:23                                        
    1UHOST                                                              
    1UPGM               CalculiX                                        
    1UVERSION           Version 2.17                             
    1UCOMPILETIME       Thu Jul 23 21:43:50 CEST 2020                    
    1UDIR                                                               
    1UDBN                                                               
    1UMAT    1SOLIDMATERIAL                                             
    2C                          4311                                     1
 -1         1 2.23955E+01 4.09089E+01 0.00000E+00
 -1         2 3.36964E+01 3.53861E+01 0.00000E+00
 -1         3 1.50000E+02 0.00000E+00 0.00000E+00
 -1         4 1.50000E+02 5.00000E+01 0.00000E+00
 -1         5 0.00000E+00 0.00000E+00 0.00000E+00
 -1         6 0.00000E+00 5.00000E+01 0.00000E+00
 -1         7 0.00000E+00 4.70500E+01 0.00000E+00
 -1         8 0.00000E+00 4.41000E+01 0.00000E+00
 -1         9 0.00000E+00 4.11500E+01 0.00000E+00
 -1        10 0.00000E+00 3.82000E+01 0.00000E+00
 -1        11 0.00000E+00 3.52500E+01 0.00000E+00
 -1        12 0.00000E+00 3.23500E+01 0.00000E+00
 -1        13 0.00000E+00 2.94000E+01 0.00000E+00
 -1        14 0.00000E+00 2.64500E+01 0.00000E+00
 -1        15 0.00000E+00 2.35000E+01 0.00000E+00
 -1        16 0.00000E+00 2.05500E+01 0.00000E+00
 -1        17 0.00000E+00 1.76000E+01 0.00000E+00
 -1        18 0.00000E+00 1.47000E+01 0.00000E+00
 -1        19 0.00000E+00 1.17500E+01 0.00000E+00
 -1        20 0.00000E+00 8.80000E+00 0.00000E+00
 -1        21 0.00000E+00 5.85000E+00 0.00000E+00
 -1        22 0.00000E+00 2.90000E+00 0.00000E+00
 -1        23 3.00000E+00 5.00000E+01 0.00000E+00
 -1        24 6.00000E+00 5.00000E+01 0.00000E+00
 -1        25 9.00000E+00 5.00000E+01 0.00000E+00
 -1        26 1.20000E+01 5.00000E+01 0.00000E+00
 -1        27 1.50000E+01 5.00000E+01 0.00000E+00
 -1        28 1.80000E+01 5.00000E+01 0.00000E+00
 -1        29 2.05500E+01 5.00000E+01 0.00000E+00
 -1        30 2.32500E+01 5.00000E+01 0.00000E+00
 -1        31 2.59500E+01 5.00000E+01 0.00000E+00
 -1        32 2.88000E+01 5.00000E+01 0.00000E+00
 -1        33 3.12000E+01 5.00000E+01 0.00000E+00
 -1        34 3.39000E+01 5.00000E+01 0.00000E+00
 -1        35 3.69000E+01 5.00000E+01 0.00000E+00
 -1        36 3.99000E+01 5.00000E+01 0.00000E+00
 -1        37 4.29000E+01 5.00000E+01 0.00000E+00
 -1        38 4.59000E+01 5.00000E+01 0.00000E+00
 -1        39 4.87500E+01 5.00000E+01 0.00000E+00
 -1        40 5.17500E+01 5.00000E+01 0.00000E+00
 -1        41 5.47500E+01 5.00000E+01 0.00000E+00
 -1        42 5.77500E+01 5.00000E+01 0.00000E+00
 -1        43 6.07500E+01 5.00000E+01 0.00000E+00
 -1        44 6.37500E+01 5.00000E+01 0.00000E+00
 -1        45 6.67500E+01 5.00000E+01 0.00000E+00
 -1        46 6.96000E+01 5.00000E+01 0.00000E+00
 -1        47 7.26000E+01 5.00000E+01 0.00000E+00
 -1        48 7.56000E+01 5.00000E+01 0.00000E+00
 -1        49 7.86000E+01 5.00000E+01 0.00000E+00
 -1        50 8.16000E+01 5.00000E+01 0.00000E+00
 -1        51 8.46000E+01 5.00000E+01 0.00000E+00
 -1        52 8.76000E+01 5.00000E+01 0.00000E+00
 -1        53 9.04500E+01 5.00000E+01 0.00000E+00
 -1        54 9.34500E+01 5.00000E+01 0.00000E+00
 -1        55 9.64500E+01 5.00000E+01 0.00000E+00
 -1        56 9.94500E+01 5.00000E+01 0.00000E+00
 -1        57 1.02450E+02 5.00000E+01 0.00000E+00
 -1        58 1.05450E+02 5.00000E+01 0.00000E+00
 -1        59 1.08450E+02 5.00000E+01 0.00000E+00
 -1        60 1.11300E+02 5.00000E+01 0.00000E+00
 -1        61 1.14300E+02 5.00000E+01 0.00000E+00
 -1        62 1.17300E+02 5.00000E+01 0.00000E+00
 -1        63 1.20300E+02 5.00000E+01 0.00000E+00
 -1        64 1.23300E+02 5.00000E+01 0.00000E+00
 -1        65 1.26300E+02 5.00000E+01 0.00000E+00
 -1        66 1.29300E+02 5.00000E+01 0.00000E+00
 -1        67 1.32150E+02 5.00000E+01 0.00000E+00
 -1        68 1.35150E+02 5.00000E+01 0.00000E+00
 -1        69 1.38150E+02 5.00000E+01 0.00000E+00
 -1        70 1.41150E+02 5.00000E+01 0.00000E+00
 -1        71 1.44150E+02 5.00000E+01 0.00000E+00
 -1        72 1.47150E+02 5.00000E+01 0.00000E+00
 -1        73 3.15000E+00 0.00000E+00 0.00000E+00
 -1        74 6.15000E+00 0.00000E+00 0.00000E+00
 -1        75 9.15000E+00 0.00000E+00 0.00000E+00
 -1        76 1.21500E+01 0.00000E+00 0.00000E+00
 -1        77 1.51500E+01 0.00000E+00 0.00000E+00
 -1        78 1.81500E+01 0.00000E+00 0.00000E+00
 -1        79 2.11500E+01 0.00000E+00 0.00000E+00
 -1        80 2.41500E+01 0.00000E+00 0.00000E+00
 -1        81 2.71500E+01 0.00000E+00 0.00000E+00
 -1        82 3.01500E+01 0.00000E+00 0.00000E+00
 -1        83 3.31500E+01 0.00000E+00 0.00000E+00
 -1        84 3.61500E+01 0.00000E+00 0.00000E+00
 -1        85 3.91500E+01 0.00000E+00 0.00000E+00
 -1        86 4.21500E+01 0.00000E+00 0.00000E+00
 -1        87 4.51500E+01 0.00000E+00 0.00000E+00
 -1        88 4.81500E+01 0.00000E+00 0.00000E+00
 -1        89 5.11500E+01 0.00000E+00 0.00000E+00
 -1        90 5.41500E+01 0.00000E+00 0.00000E+00
 -1        91 5.71500E+01 0.00000E+00 0.00000E+00
 -1        92 6.01500E+01 0.00000E+00 0.00000E+00
 -1        93 6.31500E+01 0.00000E+00 0.00000E+00
 -1        94 6.61500E+01 0.00000E+00 0.00000E+00
 -1        95 6.91500E+01 0.00000E+00 0.00000E+00
 -1        96 7.21500E+01 0.00000E+00 0.00000E+00
 -1        97 7.51500E+01 0.00000E+00 0.00000E+00
 -1        98 7.81500E+01 0.00000E+00 0.00000E+00
 -1        99 8.11500E+01 0.00000E+00 0.00000E+00
 -1       100 8.41500E+01 0.00000E+00 0.00000E+00
 -1       101 8.71500E+01 0.00000E+00 0.00000E+00
 -1       102 9.01500E+01 0.00000E+00 0.00000E+00
 -1       103 9.31500E+01 0.00000E+00 0.00000E+00
 -1       104 9.61500E+01 0.00000E+00 0.00000E+00
 -1       105 9.91500E+01 0.00000E+00 0.00000E+00
 -1       106 1.02150E+02 0.00000E+00 0.00000E+00
 -1       107 1.05150E+02 0.00000E+00 0.00000E+00
 -1       108 1.08150E+02 0.00000E+00 0.00000E+00
 -1       109 1.11150E+02 0.00000E+00 0.00000E+00
 -1       110 1.14150E+02 0.00000E+00 0.00000E+00
 -1       111 1.17150E+02 0.00000E+00 0.00000E+00
 -1       112 1.20150E+02 0.00000E+00 0.00000E+00
 -1       113 1.23150E+02 0.00000E+00 0.00000E+00
 -1       114 1.26150E+02 0.00000E+00 0.00000E+00
 -1       115 1.29150E+02 0.00000E+00 0.00000E+00
 -1       116 1.32150E+02 0.00000E+00 0.00000E+00
 -1       117 1.35150E+02 0.00000E+00 0.00000E+00
 -1       118 1.38150E+02 0.00000E+00 0.00000E+00
 -1       119 1.41150E+02 0.00000E+00 0.00000E+00
 -1       120 1.44150E+02 0.00000E+00 0.00000E+00
 -1       121 1.47150E+02 0.00000E+00 0.00000E+00
 -1       122 1.50000E+02 2.95000E+00 0.00000E+00
 -1       123 1.50000E+02 5.90000E+00 0.00000E+00
 -1       124 1.50000E+02 8.85000E+00 0.00000E+00
 -1       125 1.50000E+02 1.18000E+01 0.00000E+00
 -1       126 1.50000E+02 1.47500E+01 0.00000E+00
 -1       127 1.50000E+02 1.76500E+01 0.00000E+00
 -1       128 1.50000E+02 2.06000E+01 0.00000E+00
 -1       129 1.50000E+02 2.35500E+01 0.00000E+00
 -1       130 1.50000E+02 2.65000E+01 0.00000E+00
 -1       131 1.50000E+02 2.94500E+01 0.00000E+00
 -1       132 1.50000E+02 3.24000E+01 0.00000E+00
 -1       133 1.50000E+02 3.53000E+01 0.00000E+00
 -1       134 1.50000E+02 3.82500E+01 0.00000E+00
 -1       135 1.50000E+02 4.12000E+01 0.00000E+00
 -1       136 1.50000E+02 4.41500E+01 0.00000E+00
 -1       137 1.50000E+02 4.71000E+01 0.00000E+00
 -1       138 3.35415E+01 3.39215E+01 0.00000E+00
 -1       139 3.30808E+01 3.25155E+01 0.00000E+00
 -1       140 3.23119E+01 3.12067E+01 0.00000E+00
 -1       141 3.12695E+01 3.00863E+01 0.00000E+00
 -1       142 3.01239E+01 2.92826E+01 0.00000E+00
 -1       143 2.87136E+01 2.86830E+01 0.00000E+00
 -1       144 2.73302E+01 2.84148E+01 0.00000E+00
 -1       145 2.58273E+01 2.84402E+01 0.00000E+00
 -1       146 2.42424E+01 2.88303E+01 0.00000E+00
 -1       147 2.29262E+01 2.94881E+01 0.00000E+00
 -1       148 2.17648E+01 3.04182E+01 0.00000E+00
 -1       149 2.08202E+01 3.15821E+01 0.00000E+00
 -1       150 2.01461E+01 3.29176E+01 0.00000E+00
 -1       151 1.97754E+01 3.43372E+01 0.00000E+00
 -1       152 1.97075E+01 3.57804E+01 0.00000E+00
 -1       153 1.99529E+01 3.72636E+01 0.00000E+00
 -1       154 2.04932E+01 3.86294E+01 0.00000E+00
 -1       155 2.12649E+01 3.98018E+01 0.00000E+00
 -1       156 2.35816E+01 4.16549E+01 0.00000E+00
 -1       157 2.49509E+01 4.21649E+01 0.00000E+00
 -1       158 2.62843E+01 4.23739E+01 0.00000E+00
 -1       159 2.77729E+01 4.23028E+01 0.00000E+00
 -1       160 2.91396E+01 4.19459E+01 0.00000E+00
 -1       161 3.03836E+01 4.13362E+01 0.00000E+00
 -1       162 3.14746E+01 4.05016E+01 0.00000E+00
 -1       163 3.24150E+01 3.94230E+01 0.00000E+00
 -1       164 3.31341E+01 3.81350E+01 0.00000E+00
 -1       165 3.35425E+01 3.68458E+01 0.00000E+00
 -1       166 2.59800E+00 4.55750E+01 0.00000E+00
 -1       167 2.59800E+00 4.26250E+01 0.00000E+00
 -1       168 2.59800E+00 3.96750E+01 0.00000E+00
 -1       169 2.59800E+00 3.67250E+01 0.00000E+00
 -1       170 2.59800E+00 3.38250E+01 0.00000E+00
 -1       171 2.59800E+00 3.08750E+01 0.00000E+00
 -1       172 2.59800E+00 2.79250E+01 0.00000E+00
 -1       173 2.59800E+00 2.49750E+01 0.00000E+00
 -1       174 2.59800E+00 2.20250E+01 0.00000E+00
 -1       175 2.59800E+00 1.90750E+01 0.00000E+00
 -1       176 2.59800E+00 1.61750E+01 0.00000E+00
 -1       177 2.59800E+00 1.32250E+01 0.00000E+00
 -1       178 2.59800E+00 1.02750E+01 0.00000E+00
 -1       179 2.59800E+00 7.32500E+00 0.00000E+00
 -1       180 2.59800E+00 4.37500E+00 0.00000E+00
 -1       181 2.87400E+00 2.18750E+00 0.00000E+00
 -1       182 4.50000E+00 4.74020E+01 0.00000E+00
 -1       183 7.50000E+00 4.74020E+01 0.00000E+00
 -1       184 1.05000E+01 4.74020E+01 0.00000E+00
 -1       185 1.35000E+01 4.74020E+01 0.00000E+00
 -1       186 1.65000E+01 4.74020E+01 0.00000E+00
 -1       187 1.90500E+01 4.74020E+01 0.00000E+00
 -1       188 2.17500E+01 4.74020E+01 0.00000E+00
 -1       189 2.44500E+01 4.74020E+01 0.00000E+00
 -1       190 2.73000E+01 4.74020E+01 0.00000E+00
 -1       191 2.97000E+01 4.74020E+01 0.00000E+00
 -1       192 3.24000E+01 4.74020E+01 0.00000E+00
 -1       193 3.54000E+01 4.74020E+01 0.00000E+00
 -1       194 3.84000E+01 4.74020E+01 0.00000E+00
 -1       195 4.14000E+01 4.74020E+01 0.00000E+00
 -1       196 4.44000E+01 4.74020E+01 0.00000E+00
 -1       197 4.72500E+01 4.74020E+01 0.00000E+00
 -1       198 5.02500E+01 4.74020E+01 0.00000E+00
 -1       199 5.32500E+01 4.74020E+01 0.00000E+00
 -1       200 5.62500E+01 4.74020E+01 0.00000E+00
 -1       201 5.92500E+01 4.74020E+01 0.00000E+00
 -1       202 6.22500E+01 4.74020E+01 0.00000E+00
 -1       203 6.52500E+01 4.74020E+01 0.00000E+00
 -1       204 6.81000E+01 4.74020E+01 0.00000E+00
 -1       205 7.11000E+01 4.74020E+01 0.00000E+00
 -1       206 7.41000E+01 4.74020E+01 0.00000E+00
 -1       207 7.71000E+01 4.74020E+01 0.00000E+00
 -1       208 8.01000E+01 4.74020E+01 0.00000E+00
 -1       209 8.31000E+01 4.74020E+01 0.00000E+00
 -1       210 8.61000E+01 4.74020E+01 0.00000E+00
 -1       211 8.89500E+01 4.74020E+01 0.00000E+00
 -1       212 9.19500E+01 4.74020E+01 0.00000E+00
 -1       213 9.49500E+01 4.74020E+01 0.00000E+00
 -1       214 9.79500E+01 4.74020E+01 0.00000E+00
 -1       215 1.00950E+02 4.74020E+01 0.00000E+00
 -1       216 1.03950E+02 4.74020E+01 0.00000E+00
 -1       217 1.06950E+02 4.74020E+01 0.00000E+00
 -1       218 1.09800E+02 4.74020E+01 0.00000E+00
 -1       219 1.12800E+02 4.74020E+01 0.00000E+00
 -1       220 1.15800E+02 4.74020E+01 0.00000E+00
 -1       221 1.18800E+02 4.74020E+01 0.00000E+00
 -1       222 1.21800E+02 4.74020E+01 0.00000E+00
 -1       223 1.24800E+02 4.74020E+01 0.00000E+00
 -1       224 1.27800E+02 4.74020E+01 0.00000E+00
 -1       225 1.30650E+02 4.74020E+01 0.00000E+00
 -1       226 1.33650E+02 4.74020E+01 0.00000E+00
 -1       227 1.36650E+02 4.74020E+01 0.00000E+00
 -1       228 1.39650E+02 4.74020E+01 0.00000E+00
 -1       229 1.42650E+02 4.74020E+01 0.00000E+00
 -1       230 1.45650E+02 4.74020E+01 0.00000E+00
 -1       231 5.87400E+00 2.18750E+00 0.00000E+00
 -1       232 8.87400E+00 2.18750E+00 0.00000E+00
 -1       233 1.18740E+01 2.18750E+00 0.00000E+00
 -1       234 1.48740E+01 2.18750E+00 0.00000E+00
 -1       235 1.78740E+01 2.18750E+00 0.00000E+00
 -1       236 2.08740E+01 2.18750E+00 0.00000E+00
 -1       237 2.38740E+01 2.18750E+00 0.00000E+00
 -1       238 2.68740E+01 2.18750E+00 0.00000E+00
 -1       239 2.98740E+01 2.18750E+00 0.00000E+00
 -1       240 3.28740E+01 2.18750E+00 0.00000E+00
 -1       241 3.58740E+01 2.18750E+00 0.00000E+00
 -1       242 3.88740E+01 2.18750E+00 0.00000E+00
 -1       243 4.18740E+01 2.18750E+00 0.00000E+00
 -1       244 4.48740E+01 2.18750E+00 0.00000E+00
 -1       245 4.78740E+01 2.18750E+00 0.00000E+00
 -1       246 5.08740E+01 2.18750E+00 0.00000E+00
 -1       247 5.38740E+01 2.18750E+00 0.00000E+00
 -1       248 5.68740E+01 2.18750E+00 0.00000E+00
 -1       249 5.98740E+01 2.18750E+00 0.00000E+00
 -1       250 6.28740E+01 2.18750E+00 0.00000E+00
 -1       251 6.58740E+01 2.18750E+00 0.00000E+00
 -1       252 6.88740E+01 2.18750E+00 0.00000E+00
 -1       253 7.18740E+01 2.18750E+00 0.00000E+00
 -1       254 7.48740E+01 2.18750E+00 0.00000E+00
 -1       255 7.78740E+01 2.18750E+00 0.00000E+00
 -1       256 8.08740E+01 2.18750E+00 0.00000E+00
 -1       257 8.38740E+01 2.18750E+00 0.00000E+00
 -1       258 8.68740E+01 2.18750E+00 0.00000E+00
 -1       259 8.98740E+01 2.18750E+00 0.00000E+00
 -1       260 9.28740E+01 2.18750E+00 0.00000E+00
 -1       261 9.58740E+01 2.18750E+00 0.00000E+00
 -1       262 9.88740E+01 2.18750E+00 0.00000E+00
 -1       263 1.01874E+02 2.18750E+00 0.00000E+00
 -1       264 1.04874E+02 2.18750E+00 0.00000E+00
 -1       265 1.07874E+02 2.18750E+00 0.00000E+00
 -1       266 1.10874E+02 2.18750E+00 0.00000E+00
 -1       267 1.13874E+02 2.18750E+00 0.00000E+00
 -1       268 1.16874E+02 2.18750E+00 0.00000E+00
 -1       269 1.19874E+02 2.18750E+00 0.00000E+00
 -1       270 1.22874E+02 2.18750E+00 0.00000E+00
 -1       271 1.25874E+02 2.18750E+00 0.00000E+00
 -1       272 1.28874E+02 2.18750E+00 0.00000E+00
 -1       273 1.31874E+02 2.18750E+00 0.00000E+00
 -1       274 1.34874E+02 2.18750E+00 0.00000E+00
 -1       275 1.37874E+02 2.18750E+00 0.00000E+00
 -1       276 1.40874E+02 2.18750E+00 0.00000E+00
 -1       277 1.43874E+02 2.18750E+00 0.00000E+00
 -1       278 1.46874E+02 2.18750E+00 0.00000E+00
 -1       279 1.47402E+02 4.42500E+00 0.00000E+00
 -1       280 1.47402E+02 7.37500E+00 0.00000E+00
 -1       281 1.47402E+02 1.03250E+01 0.00000E+00
 -1       282 1.47402E+02 1.32750E+01 0.00000E+00
 -1       283 1.47402E+02 1.61750E+01 0.00000E+00
 -1       284 1.47402E+02 1.91250E+01 0.00000E+00
 -1       285 1.47402E+02 2.20750E+01 0.00000E+00
 -1       286 1.47402E+02 2.50250E+01 0.00000E+00
 -1       287 1.47402E+02 2.79750E+01 0.00000E+00
 -1       288 1.47402E+02 3.09250E+01 0.00000E+00
 -1       289 1.47402E+02 3.38250E+01 0.00000E+00
 -1       290 1.47402E+02 3.67750E+01 0.00000E+00
 -1       291 1.47402E+02 3.97250E+01 0.00000E+00
 -1       292 1.47402E+02 4.26750E+01 0.00000E+00
 -1       293 3.48246E+01 3.45263E+01 0.00000E+00
 -1       294 3.44633E+01 3.28410E+01 0.00000E+00
 -1       295 3.37417E+01 3.12470E+01 0.00000E+00
 -1       296 3.28010E+01 2.97066E+01 0.00000E+00
 -1       297 3.13930E+01 2.86920E+01 0.00000E+00
 -1       298 2.99586E+01 2.77128E+01 0.00000E+00
 -1       299 2.82527E+01 2.73587E+01 0.00000E+00
 -1       300 2.65568E+01 2.71315E+01 0.00000E+00
 -1       301 2.46850E+01 2.72139E+01 0.00000E+00
 -1       302 2.30048E+01 2.79998E+01 0.00000E+00
 -1       303 2.15353E+01 2.89414E+01 0.00000E+00
 -1       304 2.02210E+01 3.01306E+01 0.00000E+00
 -1       305 1.91764E+01 3.15903E+01 0.00000E+00
 -1       306 1.87066E+01 3.32999E+01 0.00000E+00
 -1       307 1.84467E+01 3.49978E+01 0.00000E+00
 -1       308 1.84688E+01 3.67472E+01 0.00000E+00
 -1       309 1.90177E+01 3.84233E+01 0.00000E+00
 -1       310 1.98664E+01 3.98823E+01 0.00000E+00
 -1       311 2.07474E+01 4.14610E+01 0.00000E+00
 -1       312 2.23431E+01 4.23082E+01 0.00000E+00
 -1       313 2.37845E+01 4.32031E+01 0.00000E+00
 -1       314 2.54298E+01 4.34672E+01 0.00000E+00
 -1       315 2.70904E+01 4.36331E+01 0.00000E+00
 -1       316 2.87626E+01 4.32974E+01 0.00000E+00
 -1       317 3.02951E+01 4.27298E+01 0.00000E+00
 -1       318 3.16657E+01 4.18819E+01 0.00000E+00
 -1       319 3.29218E+01 4.08142E+01 0.00000E+00
 -1       320 3.39063E+01 3.94108E+01 0.00000E+00
 -1       321 3.44941E+01 3.78566E+01 0.00000E+00
 -1       322 3.49085E+01 3.62519E+01 0.00000E+00
 -1       323 1.47402E+02 4.56250E+01 0.00000E+00
 -1       324 5.19600E+00 4.11500E+01 0.00000E+00
 -1       325 5.19600E+00 4.41000E+01 0.00000E+00
 -1       326 5.19600E+00 3.52750E+01 0.00000E+00
 -1       327 5.19600E+00 3.23250E+01 0.00000E+00
 -1       328 5.19600E+00 2.93750E+01 0.00000E+00
 -1       329 5.19600E+00 2.64250E+01 0.00000E+00
 -1       330 5.19600E+00 2.34750E+01 0.00000E+00
 -1       331 5.19600E+00 2.05250E+01 0.00000E+00
 -1       332 5.19600E+00 1.76250E+01 0.00000E+00
 -1       333 5.19600E+00 1.46750E+01 0.00000E+00
 -1       334 5.19600E+00 1.17250E+01 0.00000E+00
 -1       335 5.19600E+00 8.77500E+00 0.00000E+00
 -1       336 5.19600E+00 5.82500E+00 0.00000E+00
 -1       337 5.53500E+00 4.00625E+00 0.00000E+00
 -1       338 8.53500E+00 4.00625E+00 0.00000E+00
 -1       339 9.00000E+00 4.48040E+01 0.00000E+00
 -1       340 1.20000E+01 4.48040E+01 0.00000E+00
 -1       341 1.50000E+01 4.48040E+01 0.00000E+00
 -1       342 1.75500E+01 4.48040E+01 0.00000E+00
 -1       343 2.31000E+01 4.51842E+01 0.00000E+00
 -1       344 2.58750E+01 4.53518E+01 0.00000E+00
 -1       345 3.10500E+01 4.55193E+01 0.00000E+00
 -1       346 3.39000E+01 4.50166E+01 0.00000E+00
 -1       347 3.69000E+01 4.50166E+01 0.00000E+00
 -1       348 3.99000E+01 4.50166E+01 0.00000E+00
 -1       349 4.29000E+01 4.50166E+01 0.00000E+00
 -1       350 4.57500E+01 4.50166E+01 0.00000E+00
 -1       351 4.87500E+01 4.50166E+01 0.00000E+00
 -1       352 5.17500E+01 4.50166E+01 0.00000E+00
 -1       353 5.47500E+01 4.50166E+01 0.00000E+00
 -1       354 5.77500E+01 4.50166E+01 0.00000E+00
 -1       355 6.07500E+01 4.50166E+01 0.00000E+00
 -1       356 6.37500E+01 4.50166E+01 0.00000E+00
 -1       357 6.66000E+01 4.50166E+01 0.00000E+00
 -1       358 6.96000E+01 4.50166E+01 0.00000E+00
 -1       359 7.26000E+01 4.50166E+01 0.00000E+00
 -1       360 7.56000E+01 4.50166E+01 0.00000E+00
 -1       361 7.86000E+01 4.50166E+01 0.00000E+00
 -1       362 8.16000E+01 4.50166E+01 0.00000E+00
 -1       363 8.46000E+01 4.50166E+01 0.00000E+00
 -1       364 8.74500E+01 4.50166E+01 0.00000E+00
 -1       365 9.04500E+01 4.50166E+01 0.00000E+00
 -1       366 9.34500E+01 4.50166E+01 0.00000E+00
 -1       367 9.64500E+01 4.50166E+01 0.00000E+00
 -1       368 9.94500E+01 4.50166E+01 0.00000E+00
 -1       369 1.02450E+02 4.50166E+01 0.00000E+00
 -1       370 1.05450E+02 4.50166E+01 0.00000E+00
 -1       371 1.08300E+02 4.50166E+01 0.00000E+00
 -1       372 1.11300E+02 4.50166E+01 0.00000E+00
 -1       373 1.14300E+02 4.50166E+01 0.00000E+00
 -1       374 1.17300E+02 4.50166E+01 0.00000E+00
 -1       375 1.20300E+02 4.50166E+01 0.00000E+00
 -1       376 1.23300E+02 4.50166E+01 0.00000E+00
 -1       377 1.26300E+02 4.50166E+01 0.00000E+00
 -1       378 1.29150E+02 4.50166E+01 0.00000E+00
 -1       379 1.32150E+02 4.50166E+01 0.00000E+00
 -1       380 1.35150E+02 4.50166E+01 0.00000E+00
 -1       381 1.38150E+02 4.50166E+01 0.00000E+00
 -1       382 1.41150E+02 4.50166E+01 0.00000E+00
 -1       383 1.44150E+02 4.50166E+01 0.00000E+00
 -1       384 1.15350E+01 4.00625E+00 0.00000E+00
 -1       385 3.55886E+01 3.13712E+01 0.00000E+00
 -1       386 1.45350E+01 4.00625E+00 0.00000E+00
 -1       387 1.75350E+01 4.00625E+00 0.00000E+00
 -1       388 2.05350E+01 4.00625E+00 0.00000E+00
 -1       389 2.35350E+01 4.00625E+00 0.00000E+00
 -1       390 2.65350E+01 4.00625E+00 0.00000E+00
 -1       391 2.95350E+01 4.00625E+00 0.00000E+00
 -1       392 3.25350E+01 4.00625E+00 0.00000E+00
 -1       393 3.55350E+01 4.00625E+00 0.00000E+00
 -1       394 3.85350E+01 4.00625E+00 0.00000E+00
 -1       395 4.15350E+01 4.00625E+00 0.00000E+00
 -1       396 4.45350E+01 4.00625E+00 0.00000E+00
 -1       397 4.75350E+01 4.00625E+00 0.00000E+00
 -1       398 5.05350E+01 4.00625E+00 0.00000E+00
 -1       399 5.35350E+01 4.00625E+00 0.00000E+00
 -1       400 5.65350E+01 4.00625E+00 0.00000E+00
 -1       401 5.95350E+01 4.00625E+00 0.00000E+00
 -1       402 6.25350E+01 4.00625E+00 0.00000E+00
 -1       403 6.55350E+01 4.00625E+00 0.00000E+00
 -1       404 6.85350E+01 4.00625E+00 0.00000E+00
 -1       405 7.15350E+01 4.00625E+00 0.00000E+00
 -1       406 7.45350E+01 4.00625E+00 0.00000E+00
 -1       407 7.75350E+01 4.00625E+00 0.00000E+00
 -1       408 8.05350E+01 4.00625E+00 0.00000E+00
 -1       409 8.35350E+01 4.00625E+00 0.00000E+00
 -1       410 8.65350E+01 4.00625E+00 0.00000E+00
 -1       411 8.95350E+01 4.00625E+00 0.00000E+00
 -1       412 9.25350E+01 4.00625E+00 0.00000E+00
 -1       413 9.55350E+01 4.00625E+00 0.00000E+00
 -1       414 9.85350E+01 4.00625E+00 0.00000E+00
 -1       415 1.01535E+02 4.00625E+00 0.00000E+00
 -1       416 1.04535E+02 4.00625E+00 0.00000E+00
 -1       417 1.07535E+02 4.00625E+00 0.00000E+00
 -1       418 1.10535E+02 4.00625E+00 0.00000E+00
 -1       419 1.13535E+02 4.00625E+00 0.00000E+00
 -1       420 1.16535E+02 4.00625E+00 0.00000E+00
 -1       421 1.19535E+02 4.00625E+00 0.00000E+00
 -1       422 1.22535E+02 4.00625E+00 0.00000E+00
 -1       423 1.25535E+02 4.00625E+00 0.00000E+00
 -1       424 1.28535E+02 4.00625E+00 0.00000E+00
 -1       425 1.31535E+02 4.00625E+00 0.00000E+00
 -1       426 1.34535E+02 4.00625E+00 0.00000E+00
 -1       427 1.37535E+02 4.00625E+00 0.00000E+00
 -1       428 1.40535E+02 4.00625E+00 0.00000E+00
 -1       429 1.43535E+02 4.00625E+00 0.00000E+00
 -1       430 1.45469E+02 4.21562E+00 0.00000E+00
 -1       431 1.44804E+02 1.18000E+01 0.00000E+00
 -1       432 1.44804E+02 8.85000E+00 0.00000E+00
 -1       433 1.45136E+02 6.53281E+00 0.00000E+00
 -1       434 1.44804E+02 1.47000E+01 0.00000E+00
 -1       435 1.44804E+02 1.76500E+01 0.00000E+00
 -1       436 1.44804E+02 2.06000E+01 0.00000E+00
 -1       437 1.44804E+02 2.35500E+01 0.00000E+00
 -1       438 1.44804E+02 2.65000E+01 0.00000E+00
 -1       439 1.44804E+02 2.94500E+01 0.00000E+00
 -1       440 1.44804E+02 3.23500E+01 0.00000E+00
 -1       441 1.44804E+02 3.53000E+01 0.00000E+00
 -1       442 1.44804E+02 3.82500E+01 0.00000E+00
 -1       443 1.44804E+02 4.12000E+01 0.00000E+00
 -1       444 3.44491E+01 2.97576E+01 0.00000E+00
 -1       445 3.63286E+01 3.53180E+01 0.00000E+00
 -1       446 5.19600E+00 3.82125E+01 0.00000E+00
 -1       447 3.29038E+01 2.80797E+01 0.00000E+00
 -1       448 3.14694E+01 2.71006E+01 0.00000E+00
 -1       449 2.93862E+01 2.61846E+01 0.00000E+00
 -1       450 2.75768E+01 2.59604E+01 0.00000E+00
 -1       451 2.55565E+01 2.57104E+01 0.00000E+00
 -1       452 2.32958E+01 2.64328E+01 0.00000E+00
 -1       453 2.15255E+01 2.73087E+01 0.00000E+00
 -1       454 1.99523E+01 2.85127E+01 0.00000E+00
 -1       455 1.85765E+01 3.00573E+01 0.00000E+00
 -1       456 1.76917E+01 3.21017E+01 0.00000E+00
 -1       457 1.71298E+01 3.39274E+01 0.00000E+00
 -1       458 1.68265E+01 3.58931E+01 0.00000E+00
 -1       459 1.75114E+01 3.79887E+01 0.00000E+00
 -1       460 1.80319E+01 3.99730E+01 0.00000E+00
 -1       461 1.89130E+01 4.15518E+01 0.00000E+00
 -1       462 2.08196E+01 4.32514E+01 0.00000E+00
 -1       463 2.44017E+01 4.46149E+01 0.00000E+00
 -1       464 2.82476E+01 4.50646E+01 0.00000E+00
 -1       465 3.00372E+01 4.43862E+01 0.00000E+00
 -1       466 3.16623E+01 4.34081E+01 0.00000E+00
 -1       467 3.31333E+01 4.23356E+01 0.00000E+00
 -1       468 3.46123E+01 4.09532E+01 0.00000E+00
 -1       469 3.54126E+01 3.90922E+01 0.00000E+00
 -1       470 3.59563E+01 3.73783E+01 0.00000E+00
 -1       471 3.59113E+01 3.34119E+01 0.00000E+00
 -1       472 2.00756E+01 4.50779E+01 0.00000E+00
 -1       473 2.41673E+01 2.49292E+01 0.00000E+00
 -1       474 7.74896E+00 3.08500E+01 0.00000E+00
 -1       475 7.74896E+00 3.38000E+01 0.00000E+00
 -1       476 7.79400E+00 2.49500E+01 0.00000E+00
 -1       477 7.79400E+00 2.20000E+01 0.00000E+00
 -1       478 7.79400E+00 1.91000E+01 0.00000E+00
 -1       479 7.79400E+00 1.61500E+01 0.00000E+00
 -1       480 7.79400E+00 1.32000E+01 0.00000E+00
 -1       481 7.79400E+00 1.02500E+01 0.00000E+00
 -1       482 7.79400E+00 7.30000E+00 0.00000E+00
 -1       483 8.16450E+00 5.65312E+00 0.00000E+00
 -1       484 1.05000E+01 4.22060E+01 0.00000E+00
 -1       485 3.49380E+01 2.77568E+01 0.00000E+00
 -1       486 1.89977E+01 4.32358E+01 0.00000E+00
 -1       487 1.35000E+01 4.22060E+01 0.00000E+00
 -1       488 1.60500E+01 4.22060E+01 0.00000E+00
 -1       489 1.11645E+01 5.65312E+00 0.00000E+00
 -1       490 3.79951E+01 3.66829E+01 0.00000E+00
 -1       491 3.84000E+01 4.26312E+01 0.00000E+00
 -1       492 4.14000E+01 4.26312E+01 0.00000E+00
 -1       493 4.42500E+01 4.26312E+01 0.00000E+00
 -1       494 4.72500E+01 4.26312E+01 0.00000E+00
 -1       495 5.02500E+01 4.26312E+01 0.00000E+00
 -1       496 5.32500E+01 4.26312E+01 0.00000E+00
 -1       497 5.62500E+01 4.26312E+01 0.00000E+00
 -1       498 5.92500E+01 4.26312E+01 0.00000E+00
 -1       499 6.22500E+01 4.26312E+01 0.00000E+00
 -1       500 6.51000E+01 4.26312E+01 0.00000E+00
 -1       501 6.81000E+01 4.26312E+01 0.00000E+00
 -1       502 7.11000E+01 4.26312E+01 0.00000E+00
 -1       503 7.41000E+01 4.26312E+01 0.00000E+00
 -1       504 7.71000E+01 4.26312E+01 0.00000E+00
 -1       505 8.01000E+01 4.26312E+01 0.00000E+00
 -1       506 8.31000E+01 4.26312E+01 0.00000E+00
 -1       507 8.59500E+01 4.26312E+01 0.00000E+00
 -1       508 8.89500E+01 4.26312E+01 0.00000E+00
 -1       509 9.19500E+01 4.26312E+01 0.00000E+00
 -1       510 9.49500E+01 4.26312E+01 0.00000E+00
 -1       511 9.79500E+01 4.26312E+01 0.00000E+00
 -1       512 1.00950E+02 4.26312E+01 0.00000E+00
 -1       513 1.03950E+02 4.26312E+01 0.00000E+00
 -1       514 1.06800E+02 4.26312E+01 0.00000E+00
 -1       515 1.09800E+02 4.26312E+01 0.00000E+00
 -1       516 1.12800E+02 4.26312E+01 0.00000E+00
 -1       517 1.15800E+02 4.26312E+01 0.00000E+00
 -1       518 1.18800E+02 4.26312E+01 0.00000E+00
 -1       519 1.21800E+02 4.26312E+01 0.00000E+00
 -1       520 1.24800E+02 4.26312E+01 0.00000E+00
 -1       521 1.27650E+02 4.26312E+01 0.00000E+00
 -1       522 1.30650E+02 4.26312E+01 0.00000E+00
 -1       523 1.33650E+02 4.26312E+01 0.00000E+00
 -1       524 1.36650E+02 4.26312E+01 0.00000E+00
 -1       525 1.39650E+02 4.26312E+01 0.00000E+00
 -1       526 1.42227E+02 4.19156E+01 0.00000E+00
 -1       527 1.60350E+01 6.60425E+00 0.00000E+00
 -1       528 1.35997E+01 6.12869E+00 0.00000E+00
 -1       529 2.20350E+01 6.60425E+00 0.00000E+00
 -1       530 2.50350E+01 6.60425E+00 0.00000E+00
 -1       531 2.80350E+01 6.60425E+00 0.00000E+00
 -1       532 3.10350E+01 6.60425E+00 0.00000E+00
 -1       533 3.40350E+01 6.60425E+00 0.00000E+00
 -1       534 3.70350E+01 6.60425E+00 0.00000E+00
 -1       535 4.00350E+01 6.60425E+00 0.00000E+00
 -1       536 4.30350E+01 6.60425E+00 0.00000E+00
 -1       537 4.60350E+01 6.60425E+00 0.00000E+00
 -1       538 4.90350E+01 6.60425E+00 0.00000E+00
 -1       539 5.20350E+01 6.60425E+00 0.00000E+00
 -1       540 5.50350E+01 6.60425E+00 0.00000E+00
 -1       541 5.80350E+01 6.60425E+00 0.00000E+00
 -1       542 6.10350E+01 6.60425E+00 0.00000E+00
 -1       543 6.40350E+01 6.60425E+00 0.00000E+00
 -1       544 6.70350E+01 6.60425E+00 0.00000E+00
 -1       545 7.00350E+01 6.60425E+00 0.00000E+00
 -1       546 7.30350E+01 6.60425E+00 0.00000E+00
 -1       547 7.60350E+01 6.60425E+00 0.00000E+00
 -1       548 7.90350E+01 6.60425E+00 0.00000E+00
 -1       549 8.20350E+01 6.60425E+00 0.00000E+00
 -1       550 8.50350E+01 6.60425E+00 0.00000E+00
 -1       551 8.80350E+01 6.60425E+00 0.00000E+00
 -1       552 9.10350E+01 6.60425E+00 0.00000E+00
 -1       553 9.40350E+01 6.60425E+00 0.00000E+00
 -1       554 9.70350E+01 6.60425E+00 0.00000E+00
 -1       555 1.00035E+02 6.60425E+00 0.00000E+00
 -1       556 1.03035E+02 6.60425E+00 0.00000E+00
 -1       557 1.06035E+02 6.60425E+00 0.00000E+00
 -1       558 1.09035E+02 6.60425E+00 0.00000E+00
 -1       559 1.12035E+02 6.60425E+00 0.00000E+00
 -1       560 1.15035E+02 6.60425E+00 0.00000E+00
 -1       561 1.18035E+02 6.60425E+00 0.00000E+00
 -1       562 1.21035E+02 6.60425E+00 0.00000E+00
 -1       563 1.24035E+02 6.60425E+00 0.00000E+00
 -1       564 1.27035E+02 6.60425E+00 0.00000E+00
 -1       565 1.30035E+02 6.60425E+00 0.00000E+00
 -1       566 1.33035E+02 6.60425E+00 0.00000E+00
 -1       567 1.36035E+02 6.60425E+00 0.00000E+00
 -1       568 1.39035E+02 6.60425E+00 0.00000E+00
 -1       569 1.42035E+02 6.60425E+00 0.00000E+00
 -1       570 1.42206E+02 1.61750E+01 0.00000E+00
 -1       571 1.42206E+02 1.91250E+01 0.00000E+00
 -1       572 1.42206E+02 1.03250E+01 0.00000E+00
 -1       573 1.42206E+02 1.32500E+01 0.00000E+00
 -1       574 1.42206E+02 2.20750E+01 0.00000E+00
 -1       575 1.42206E+02 2.50250E+01 0.00000E+00
 -1       576 1.42206E+02 2.79750E+01 0.00000E+00
 -1       577 1.42206E+02 3.08750E+01 0.00000E+00
 -1       578 1.42206E+02 3.38250E+01 0.00000E+00
 -1       579 1.42206E+02 3.67750E+01 0.00000E+00
 -1       580 1.42217E+02 3.93453E+01 0.00000E+00
 -1       581 2.67773E+01 2.41332E+01 0.00000E+00
 -1       582 3.64198E+01 2.95751E+01 0.00000E+00
 -1       583 7.84800E+00 4.16780E+01 0.00000E+00
 -1       584 3.73613E+01 3.21367E+01 0.00000E+00
 -1       585 1.62748E+01 3.93735E+01 0.00000E+00
 -1       586 1.90350E+01 6.60425E+00 0.00000E+00
 -1       587 3.54000E+01 4.27988E+01 0.00000E+00
 -1       588 7.77148E+00 2.79000E+01 0.00000E+00
 -1       589 2.85866E+01 2.43574E+01 0.00000E+00
 -1       590 3.32480E+01 2.60352E+01 0.00000E+00
 -1       591 3.11181E+01 2.50725E+01 0.00000E+00
 -1       592 2.17615E+01 2.55588E+01 0.00000E+00
 -1       593 1.97984E+01 2.66818E+01 0.00000E+00
 -1       594 1.81088E+01 2.82557E+01 0.00000E+00
 -1       595 1.65601E+01 3.03982E+01 0.00000E+00
 -1       596 1.59316E+01 3.25593E+01 0.00000E+00
 -1       597 1.52831E+01 3.46488E+01 0.00000E+00
 -1       598 1.55899E+01 3.72779E+01 0.00000E+00
 -1       599 1.70480E+01 4.15574E+01 0.00000E+00
 -1       600 3.65111E+01 4.06671E+01 0.00000E+00
 -1       601 3.69998E+01 3.86526E+01 0.00000E+00
 -1       602 3.77785E+01 3.40429E+01 0.00000E+00
 -1       603 7.74896E+00 3.67375E+01 0.00000E+00
 -1       604 2.53881E+01 2.33521E+01 0.00000E+00
 -1       605 7.79848E+00 3.92077E+01 0.00000E+00
 -1       606 2.26330E+01 2.40553E+01 0.00000E+00
 -1       607 1.03920E+01 2.05500E+01 0.00000E+00
 -1       608 1.03920E+01 2.35000E+01 0.00000E+00
 -1       609 1.03920E+01 1.46750E+01 0.00000E+00
 -1       610 1.03920E+01 1.17250E+01 0.00000E+00
 -1       611 1.03920E+01 8.77500E+00 0.00000E+00
 -1       612 1.07782E+01 7.21406E+00 0.00000E+00
 -1       613 1.20000E+01 3.99882E+01 0.00000E+00
 -1       614 2.65350E+01 9.20225E+00 0.00000E+00
 -1       615 3.95962E+01 3.52227E+01 0.00000E+00
 -1       616 3.73981E+01 2.72648E+01 0.00000E+00
 -1       617 4.28250E+01 4.00783E+01 0.00000E+00
 -1       618 4.58250E+01 4.00783E+01 0.00000E+00
 -1       619 4.88250E+01 4.00783E+01 0.00000E+00
 -1       620 5.18250E+01 4.00783E+01 0.00000E+00
 -1       621 5.48250E+01 4.00783E+01 0.00000E+00
 -1       622 5.78250E+01 4.00783E+01 0.00000E+00
 -1       623 6.08250E+01 4.00783E+01 0.00000E+00
 -1       624 6.36750E+01 4.00783E+01 0.00000E+00
 -1       625 6.66750E+01 4.00783E+01 0.00000E+00
 -1       626 6.96750E+01 4.00783E+01 0.00000E+00
 -1       627 7.26750E+01 4.00783E+01 0.00000E+00
 -1       628 7.56750E+01 4.00783E+01 0.00000E+00
 -1       629 7.86750E+01 4.00783E+01 0.00000E+00
 -1       630 8.16750E+01 4.00783E+01 0.00000E+00
 -1       631 8.45250E+01 4.00783E+01 0.00000E+00
 -1       632 8.75250E+01 4.00783E+01 0.00000E+00
 -1       633 9.05250E+01 4.00783E+01 0.00000E+00
 -1       634 9.35250E+01 4.00783E+01 0.00000E+00
 -1       635 9.65250E+01 4.00783E+01 0.00000E+00
 -1       636 9.95250E+01 4.00783E+01 0.00000E+00
 -1       637 1.02525E+02 4.00783E+01 0.00000E+00
 -1       638 1.05375E+02 4.00783E+01 0.00000E+00
 -1       639 1.08375E+02 4.00783E+01 0.00000E+00
 -1       640 1.11375E+02 4.00783E+01 0.00000E+00
 -1       641 1.14375E+02 4.00783E+01 0.00000E+00
 -1       642 1.17375E+02 4.00783E+01 0.00000E+00
 -1       643 1.20375E+02 4.00783E+01 0.00000E+00
 -1       644 1.23375E+02 4.00783E+01 0.00000E+00
 -1       645 1.26225E+02 4.00783E+01 0.00000E+00
 -1       646 1.29225E+02 4.00783E+01 0.00000E+00
 -1       647 1.32225E+02 4.00783E+01 0.00000E+00
 -1       648 1.35225E+02 4.00783E+01 0.00000E+00
 -1       649 1.38225E+02 4.00783E+01 0.00000E+00
 -1       650 1.40221E+02 3.97118E+01 0.00000E+00
 -1       651 2.95350E+01 9.20225E+00 0.00000E+00
 -1       652 2.35350E+01 9.20225E+00 0.00000E+00
 -1       653 3.25350E+01 9.20225E+00 0.00000E+00
 -1       654 3.55350E+01 9.20225E+00 0.00000E+00
 -1       655 3.85350E+01 9.20225E+00 0.00000E+00
 -1       656 4.15350E+01 9.20225E+00 0.00000E+00
 -1       657 4.45350E+01 9.20225E+00 0.00000E+00
 -1       658 4.75350E+01 9.20225E+00 0.00000E+00
 -1       659 5.05350E+01 9.20225E+00 0.00000E+00
 -1       660 5.35350E+01 9.20225E+00 0.00000E+00
 -1       661 5.65350E+01 9.20225E+00 0.00000E+00
 -1       662 5.95350E+01 9.20225E+00 0.00000E+00
 -1       663 6.25350E+01 9.20225E+00 0.00000E+00
 -1       664 6.55350E+01 9.20225E+00 0.00000E+00
 -1       665 6.85350E+01 9.20225E+00 0.00000E+00
 -1       666 7.15350E+01 9.20225E+00 0.00000E+00
 -1       667 7.45350E+01 9.20225E+00 0.00000E+00
 -1       668 7.75350E+01 9.20225E+00 0.00000E+00
 -1       669 8.05350E+01 9.20225E+00 0.00000E+00
 -1       670 8.35350E+01 9.20225E+00 0.00000E+00
 -1       671 8.65350E+01 9.20225E+00 0.00000E+00
 -1       672 8.95350E+01 9.20225E+00 0.00000E+00
 -1       673 9.25350E+01 9.20225E+00 0.00000E+00
 -1       674 9.55350E+01 9.20225E+00 0.00000E+00
 -1       675 9.85350E+01 9.20225E+00 0.00000E+00
 -1       676 1.01535E+02 9.20225E+00 0.00000E+00
 -1       677 1.04535E+02 9.20225E+00 0.00000E+00
 -1       678 1.07535E+02 9.20225E+00 0.00000E+00
 -1       679 1.10535E+02 9.20225E+00 0.00000E+00
 -1       680 1.13535E+02 9.20225E+00 0.00000E+00
 -1       681 1.16535E+02 9.20225E+00 0.00000E+00
 -1       682 1.19535E+02 9.20225E+00 0.00000E+00
 -1       683 1.22535E+02 9.20225E+00 0.00000E+00
 -1       684 1.25535E+02 9.20225E+00 0.00000E+00
 -1       685 1.28535E+02 9.20225E+00 0.00000E+00
 -1       686 1.31535E+02 9.20225E+00 0.00000E+00
 -1       687 1.34535E+02 9.20225E+00 0.00000E+00
 -1       688 1.37535E+02 9.20225E+00 0.00000E+00
 -1       689 1.39870E+02 9.76363E+00 0.00000E+00
 -1       690 1.39608E+02 2.35500E+01 0.00000E+00
 -1       691 1.39608E+02 1.76500E+01 0.00000E+00
 -1       692 1.39608E+02 2.65000E+01 0.00000E+00
 -1       693 1.39608E+02 2.06000E+01 0.00000E+00
 -1       694 1.39608E+02 2.94000E+01 0.00000E+00
 -1       695 1.39608E+02 3.23500E+01 0.00000E+00
 -1       696 1.39608E+02 3.53000E+01 0.00000E+00
 -1       697 3.91778E+01 3.85169E+01 0.00000E+00
 -1       698 9.89924E+00 3.95980E+01 0.00000E+00
 -1       699 3.86577E+01 3.02065E+01 0.00000E+00
 -1       700 3.86891E+01 4.05315E+01 0.00000E+00
 -1       701 3.92453E+01 3.27230E+01 0.00000E+00
 -1       702 1.43817E+01 3.88325E+01 0.00000E+00
 -1       703 3.30275E+01 2.36856E+01 0.00000E+00
 -1       704 1.98451E+01 2.44861E+01 0.00000E+00
 -1       705 3.03641E+01 2.29032E+01 0.00000E+00
 -1       706 1.75561E+01 2.59686E+01 0.00000E+00
 -1       707 1.56728E+01 2.81259E+01 0.00000E+00
 -1       708 1.45990E+01 3.09999E+01 0.00000E+00
 -1       709 1.39504E+01 3.30893E+01 0.00000E+00
 -1       710 2.78929E+01 2.25433E+01 0.00000E+00
 -1       711 1.03920E+01 1.76125E+01 0.00000E+00
 -1       712 1.03470E+01 3.23250E+01 0.00000E+00
 -1       713 3.57082E+01 2.55433E+01 0.00000E+00
 -1       714 1.37329E+01 3.61621E+01 0.00000E+00
 -1       715 1.03695E+01 2.64500E+01 0.00000E+00
 -1       716 2.05350E+01 9.20225E+00 0.00000E+00
 -1       717 1.47750E+01 4.03233E+01 0.00000E+00
 -1       718 4.07789E+01 3.70566E+01 0.00000E+00
 -1       719 1.43194E+01 8.91630E+00 0.00000E+00
 -1       720 1.39870E+02 1.26886E+01 0.00000E+00
 -1       721 2.38538E+01 2.24781E+01 0.00000E+00
 -1       722 1.39914E+02 3.75059E+01 0.00000E+00
 -1       723 1.24003E+01 3.46026E+01 0.00000E+00
 -1       724 1.75350E+01 9.20225E+00 0.00000E+00
 -1       725 2.07166E+01 2.29825E+01 0.00000E+00
 -1       726 1.39739E+02 1.51693E+01 0.00000E+00
 -1       727 1.03582E+01 2.93875E+01 0.00000E+00
 -1       728 2.65036E+01 2.17621E+01 0.00000E+00
 -1       729 1.29900E+01 1.02500E+01 0.00000E+00
 -1       730 1.29900E+01 1.32000E+01 0.00000E+00
 -1       731 3.10350E+01 1.18003E+01 0.00000E+00
 -1       732 2.80350E+01 1.18003E+01 0.00000E+00
 -1       733 4.73250E+01 3.75253E+01 0.00000E+00
 -1       734 5.03250E+01 3.75253E+01 0.00000E+00
 -1       735 5.33250E+01 3.75253E+01 0.00000E+00
 -1       736 5.63250E+01 3.75253E+01 0.00000E+00
 -1       737 5.93250E+01 3.75253E+01 0.00000E+00
 -1       738 6.21750E+01 3.75253E+01 0.00000E+00
 -1       739 6.51750E+01 3.75253E+01 0.00000E+00
 -1       740 6.81750E+01 3.75253E+01 0.00000E+00
 -1       741 7.11750E+01 3.75253E+01 0.00000E+00
 -1       742 7.41750E+01 3.75253E+01 0.00000E+00
 -1       743 7.71750E+01 3.75253E+01 0.00000E+00
 -1       744 8.01750E+01 3.75253E+01 0.00000E+00
 -1       745 8.30250E+01 3.75253E+01 0.00000E+00
 -1       746 8.60250E+01 3.75253E+01 0.00000E+00
 -1       747 8.90250E+01 3.75253E+01 0.00000E+00
 -1       748 9.20250E+01 3.75253E+01 0.00000E+00
 -1       749 9.50250E+01 3.75253E+01 0.00000E+00
 -1       750 9.80250E+01 3.75253E+01 0.00000E+00
 -1       751 1.01025E+02 3.75253E+01 0.00000E+00
 -1       752 1.03875E+02 3.75253E+01 0.00000E+00
 -1       753 1.06875E+02 3.75253E+01 0.00000E+00
 -1       754 1.09875E+02 3.75253E+01 0.00000E+00
 -1       755 1.12875E+02 3.75253E+01 0.00000E+00
 -1       756 1.15875E+02 3.75253E+01 0.00000E+00
 -1       757 1.18875E+02 3.75253E+01 0.00000E+00
 -1       758 1.21875E+02 3.75253E+01 0.00000E+00
 -1       759 1.24725E+02 3.75253E+01 0.00000E+00
 -1       760 1.27725E+02 3.75253E+01 0.00000E+00
 -1       761 1.30725E+02 3.75253E+01 0.00000E+00
 -1       762 1.33725E+02 3.75253E+01 0.00000E+00
 -1       763 1.36725E+02 3.75253E+01 0.00000E+00
 -1       764 1.24786E+01 3.01937E+01 0.00000E+00
 -1       765 2.50350E+01 1.18003E+01 0.00000E+00
 -1       766 3.70350E+01 1.18003E+01 0.00000E+00
 -1       767 4.00350E+01 1.18003E+01 0.00000E+00
 -1       768 4.30350E+01 1.18003E+01 0.00000E+00
 -1       769 4.60350E+01 1.18003E+01 0.00000E+00
 -1       770 4.90350E+01 1.18003E+01 0.00000E+00
 -1       771 5.20350E+01 1.18003E+01 0.00000E+00
 -1       772 5.50350E+01 1.18003E+01 0.00000E+00
 -1       773 5.80350E+01 1.18003E+01 0.00000E+00
 -1       774 6.10350E+01 1.18003E+01 0.00000E+00
 -1       775 6.40350E+01 1.18003E+01 0.00000E+00
 -1       776 6.70350E+01 1.18003E+01 0.00000E+00
 -1       777 7.00350E+01 1.18003E+01 0.00000E+00
 -1       778 7.30350E+01 1.18003E+01 0.00000E+00
 -1       779 7.60350E+01 1.18003E+01 0.00000E+00
 -1       780 7.90350E+01 1.18003E+01 0.00000E+00
 -1       781 8.20350E+01 1.18003E+01 0.00000E+00
 -1       782 8.50350E+01 1.18003E+01 0.00000E+00
 -1       783 8.80350E+01 1.18003E+01 0.00000E+00
 -1       784 9.10350E+01 1.18003E+01 0.00000E+00
 -1       785 9.40350E+01 1.18003E+01 0.00000E+00
 -1       786 9.70350E+01 1.18003E+01 0.00000E+00
 -1       787 1.00035E+02 1.18003E+01 0.00000E+00
 -1       788 1.03035E+02 1.18003E+01 0.00000E+00
 -1       789 1.06035E+02 1.18003E+01 0.00000E+00
 -1       790 1.09035E+02 1.18003E+01 0.00000E+00
 -1       791 1.12035E+02 1.18003E+01 0.00000E+00
 -1       792 1.15035E+02 1.18003E+01 0.00000E+00
 -1       793 1.18035E+02 1.18003E+01 0.00000E+00
 -1       794 1.21035E+02 1.18003E+01 0.00000E+00
 -1       795 1.24035E+02 1.18003E+01 0.00000E+00
 -1       796 1.27035E+02 1.18003E+01 0.00000E+00
 -1       797 1.30035E+02 1.18003E+01 0.00000E+00
 -1       798 1.33035E+02 1.18003E+01 0.00000E+00
 -1       799 1.36035E+02 1.18003E+01 0.00000E+00
 -1       800 1.37953E+02 1.22444E+01 0.00000E+00
 -1       801 1.37010E+02 3.08750E+01 0.00000E+00
 -1       802 1.37010E+02 2.50250E+01 0.00000E+00
 -1       803 4.00667E+01 2.78627E+01 0.00000E+00
 -1       804 3.23681E+01 2.10057E+01 0.00000E+00
 -1       805 3.40350E+01 1.18003E+01 0.00000E+00
 -1       806 4.11192E+01 3.37345E+01 0.00000E+00
 -1       807 4.43250E+01 3.75253E+01 0.00000E+00
 -1       808 1.37010E+02 3.38250E+01 0.00000E+00
 -1       809 4.09480E+01 3.09985E+01 0.00000E+00
 -1       810 1.37010E+02 2.79500E+01 0.00000E+00
 -1       811 2.94723E+01 2.03627E+01 0.00000E+00
 -1       812 1.49437E+01 2.55887E+01 0.00000E+00
 -1       813 1.29900E+01 2.20250E+01 0.00000E+00
 -1       814 3.81359E+01 2.48504E+01 0.00000E+00
 -1       815 3.56311E+01 2.27915E+01 0.00000E+00
 -1       816 1.22001E+01 3.72954E+01 0.00000E+00
 -1       817 1.74950E+01 2.33658E+01 0.00000E+00
 -1       818 2.20350E+01 1.18003E+01 0.00000E+00
 -1       819 1.29900E+01 1.61375E+01 0.00000E+00
 -1       820 4.23019E+01 3.55684E+01 0.00000E+00
 -1       821 2.19374E+01 2.14054E+01 0.00000E+00
 -1       822 1.26510E+01 2.74881E+01 0.00000E+00
 -1       823 1.37010E+02 1.91250E+01 0.00000E+00
 -1       824 2.80831E+01 1.95816E+01 0.00000E+00
 -1       825 2.49694E+01 2.08881E+01 0.00000E+00
 -1       826 1.37010E+02 2.20750E+01 0.00000E+00
 -1       827 1.83665E+01 2.18623E+01 0.00000E+00
 -1       828 1.03712E+01 3.79206E+01 0.00000E+00
 -1       829 1.90350E+01 1.18003E+01 0.00000E+00
 -1       830 1.37141E+02 1.66443E+01 0.00000E+00
 -1       831 1.29900E+01 1.90875E+01 0.00000E+00
 -1       832 1.56971E+01 1.16471E+01 0.00000E+00
 -1       833 3.55350E+01 1.43982E+01 0.00000E+00
 -1       834 3.14833E+01 1.81480E+01 0.00000E+00
 -1       835 1.34412E+02 3.23500E+01 0.00000E+00
 -1       836 5.18250E+01 3.49273E+01 0.00000E+00
 -1       837 5.48250E+01 3.49273E+01 0.00000E+00
 -1       838 5.78250E+01 3.49273E+01 0.00000E+00
 -1       839 6.06750E+01 3.49273E+01 0.00000E+00
 -1       840 6.36750E+01 3.49273E+01 0.00000E+00
 -1       841 6.66750E+01 3.49273E+01 0.00000E+00
 -1       842 6.96750E+01 3.49273E+01 0.00000E+00
 -1       843 7.26750E+01 3.49273E+01 0.00000E+00
 -1       844 7.56750E+01 3.49273E+01 0.00000E+00
 -1       845 7.86750E+01 3.49273E+01 0.00000E+00
 -1       846 8.15250E+01 3.49273E+01 0.00000E+00
 -1       847 8.45250E+01 3.49273E+01 0.00000E+00
 -1       848 8.75250E+01 3.49273E+01 0.00000E+00
 -1       849 9.05250E+01 3.49273E+01 0.00000E+00
 -1       850 9.35250E+01 3.49273E+01 0.00000E+00
 -1       851 9.65250E+01 3.49273E+01 0.00000E+00
 -1       852 9.95250E+01 3.49273E+01 0.00000E+00
 -1       853 1.02375E+02 3.49273E+01 0.00000E+00
 -1       854 1.05375E+02 3.49273E+01 0.00000E+00
 -1       855 1.08375E+02 3.49273E+01 0.00000E+00
 -1       856 1.11375E+02 3.49273E+01 0.00000E+00
 -1       857 1.14375E+02 3.49273E+01 0.00000E+00
 -1       858 1.17375E+02 3.49273E+01 0.00000E+00
 -1       859 1.20375E+02 3.49273E+01 0.00000E+00
 -1       860 1.23225E+02 3.49273E+01 0.00000E+00
 -1       861 1.26225E+02 3.49273E+01 0.00000E+00
 -1       862 1.29225E+02 3.49273E+01 0.00000E+00
 -1       863 1.32225E+02 3.49273E+01 0.00000E+00
 -1       864 4.28038E+01 2.87852E+01 0.00000E+00
 -1       865 4.45350E+01 1.43982E+01 0.00000E+00
 -1       866 4.15350E+01 1.43982E+01 0.00000E+00
 -1       867 3.85350E+01 1.43982E+01 0.00000E+00
 -1       868 4.75350E+01 1.43982E+01 0.00000E+00
 -1       869 5.05350E+01 1.43982E+01 0.00000E+00
 -1       870 5.35350E+01 1.43982E+01 0.00000E+00
 -1       871 5.65350E+01 1.43982E+01 0.00000E+00
 -1       872 5.95350E+01 1.43982E+01 0.00000E+00
 -1       873 6.25350E+01 1.43982E+01 0.00000E+00
 -1       874 6.55350E+01 1.43982E+01 0.00000E+00
 -1       875 6.85350E+01 1.43982E+01 0.00000E+00
 -1       876 7.15350E+01 1.43982E+01 0.00000E+00
 -1       877 7.45350E+01 1.43982E+01 0.00000E+00
 -1       878 7.75350E+01 1.43982E+01 0.00000E+00
 -1       879 8.05350E+01 1.43982E+01 0.00000E+00
 -1       880 8.35350E+01 1.43982E+01 0.00000E+00
 -1       881 8.65350E+01 1.43982E+01 0.00000E+00
 -1       882 8.95350E+01 1.43982E+01 0.00000E+00
 -1       883 9.25350E+01 1.43982E+01 0.00000E+00
 -1       884 9.55350E+01 1.43982E+01 0.00000E+00
 -1       885 9.85350E+01 1.43982E+01 0.00000E+00
 -1       886 1.01535E+02 1.43982E+01 0.00000E+00
 -1       887 1.04535E+02 1.43982E+01 0.00000E+00
 -1       888 1.07535E+02 1.43982E+01 0.00000E+00
 -1       889 1.10535E+02 1.43982E+01 0.00000E+00
 -1       890 1.13535E+02 1.43982E+01 0.00000E+00
 -1       891 1.16535E+02 1.43982E+01 0.00000E+00
 -1       892 1.19535E+02 1.43982E+01 0.00000E+00
 -1       893 1.22535E+02 1.43982E+01 0.00000E+00
 -1       894 1.25535E+02 1.43982E+01 0.00000E+00
 -1       895 1.28535E+02 1.43982E+01 0.00000E+00
 -1       896 1.31535E+02 1.43982E+01 0.00000E+00
 -1       897 1.34535E+02 1.43982E+01 0.00000E+00
 -1       898 2.95350E+01 1.43982E+01 0.00000E+00
 -1       899 4.11095E+01 2.50693E+01 0.00000E+00
 -1       900 4.58250E+01 3.49273E+01 0.00000E+00
 -1       901 1.72469E+01 1.43189E+01 0.00000E+00
 -1       902 3.85332E+01 2.18140E+01 0.00000E+00
 -1       903 4.88250E+01 3.49273E+01 0.00000E+00
 -1       904 1.37547E+02 1.44444E+01 0.00000E+00
 -1       905 4.30799E+01 3.22385E+01 0.00000E+00
 -1       906 2.65350E+01 1.43982E+01 0.00000E+00
 -1       907 3.25350E+01 1.43982E+01 0.00000E+00
 -1       908 3.51448E+01 1.98061E+01 0.00000E+00
 -1       909 1.51185E+01 1.52282E+01 0.00000E+00
 -1       910 1.95873E+01 2.02851E+01 0.00000E+00
 -1       911 1.34412E+02 2.64875E+01 0.00000E+00
 -1       912 1.34412E+02 2.06000E+01 0.00000E+00
 -1       913 2.65488E+01 1.87076E+01 0.00000E+00
 -1       914 2.30530E+01 1.98154E+01 0.00000E+00
 -1       915 1.34412E+02 2.35438E+01 0.00000E+00
 -1       916 2.02469E+01 1.43189E+01 0.00000E+00
 -1       917 1.34543E+02 1.81193E+01 0.00000E+00
 -1       918 1.34412E+02 2.94250E+01 0.00000E+00
 -1       919 1.59836E+01 2.02054E+01 0.00000E+00
 -1       920 2.35350E+01 1.43982E+01 0.00000E+00
 -1       921 5.03250E+01 3.23293E+01 0.00000E+00
 -1       922 3.40350E+01 1.69963E+01 0.00000E+00
 -1       923 5.63250E+01 3.23293E+01 0.00000E+00
 -1       924 5.91750E+01 3.23293E+01 0.00000E+00
 -1       925 6.21750E+01 3.23293E+01 0.00000E+00
 -1       926 6.51750E+01 3.23293E+01 0.00000E+00
 -1       927 6.81750E+01 3.23293E+01 0.00000E+00
 -1       928 7.11750E+01 3.23293E+01 0.00000E+00
 -1       929 7.41750E+01 3.23293E+01 0.00000E+00
 -1       930 7.71750E+01 3.23293E+01 0.00000E+00
 -1       931 8.00250E+01 3.23293E+01 0.00000E+00
 -1       932 8.30250E+01 3.23293E+01 0.00000E+00
 -1       933 8.60250E+01 3.23293E+01 0.00000E+00
 -1       934 8.90250E+01 3.23293E+01 0.00000E+00
 -1       935 9.20250E+01 3.23293E+01 0.00000E+00
 -1       936 9.50250E+01 3.23293E+01 0.00000E+00
 -1       937 9.80250E+01 3.23293E+01 0.00000E+00
 -1       938 1.00875E+02 3.23293E+01 0.00000E+00
 -1       939 1.03875E+02 3.23293E+01 0.00000E+00
 -1       940 1.06875E+02 3.23293E+01 0.00000E+00
 -1       941 1.09875E+02 3.23293E+01 0.00000E+00
 -1       942 1.12875E+02 3.23293E+01 0.00000E+00
 -1       943 1.15875E+02 3.23293E+01 0.00000E+00
 -1       944 1.18875E+02 3.23293E+01 0.00000E+00
 -1       945 1.21725E+02 3.23293E+01 0.00000E+00
 -1       946 1.24725E+02 3.23293E+01 0.00000E+00
 -1       947 1.27725E+02 3.23293E+01 0.00000E+00
 -1       948 1.30725E+02 3.23293E+01 0.00000E+00
 -1       949 4.90350E+01 1.69963E+01 0.00000E+00
 -1       950 2.85544E+01 1.75089E+01 0.00000E+00
 -1       951 4.60350E+01 1.69963E+01 0.00000E+00
 -1       952 4.00350E+01 1.69963E+01 0.00000E+00
 -1       953 5.20350E+01 1.69963E+01 0.00000E+00
 -1       954 5.50350E+01 1.69963E+01 0.00000E+00
 -1       955 5.80350E+01 1.69963E+01 0.00000E+00
 -1       956 6.10350E+01 1.69963E+01 0.00000E+00
 -1       957 6.40350E+01 1.69963E+01 0.00000E+00
 -1       958 6.70350E+01 1.69963E+01 0.00000E+00
 -1       959 7.00350E+01 1.69963E+01 0.00000E+00
 -1       960 7.30350E+01 1.69963E+01 0.00000E+00
 -1       961 7.60350E+01 1.69963E+01 0.00000E+00
 -1       962 7.90350E+01 1.69963E+01 0.00000E+00
 -1       963 8.20350E+01 1.69963E+01 0.00000E+00
 -1       964 8.50350E+01 1.69963E+01 0.00000E+00
 -1       965 8.80350E+01 1.69963E+01 0.00000E+00
 -1       966 9.10350E+01 1.69963E+01 0.00000E+00
 -1       967 9.40350E+01 1.69963E+01 0.00000E+00
 -1       968 9.70350E+01 1.69963E+01 0.00000E+00
 -1       969 1.00035E+02 1.69963E+01 0.00000E+00
 -1       970 1.03035E+02 1.69963E+01 0.00000E+00
 -1       971 1.06035E+02 1.69963E+01 0.00000E+00
 -1       972 1.09035E+02 1.69963E+01 0.00000E+00
 -1       973 1.12035E+02 1.69963E+01 0.00000E+00
 -1       974 1.15035E+02 1.69963E+01 0.00000E+00
 -1       975 1.18035E+02 1.69963E+01 0.00000E+00
 -1       976 1.21035E+02 1.69963E+01 0.00000E+00
 -1       977 1.24035E+02 1.69963E+01 0.00000E+00
 -1       978 1.27035E+02 1.69963E+01 0.00000E+00
 -1       979 1.30035E+02 1.69963E+01 0.00000E+00
 -1       980 4.43205E+01 2.58494E+01 0.00000E+00
 -1       981 4.73250E+01 3.23293E+01 0.00000E+00
 -1       982 4.18585E+01 2.18293E+01 0.00000E+00
 -1       983 4.30350E+01 1.69963E+01 0.00000E+00
 -1       984 3.81635E+01 1.85750E+01 0.00000E+00
 -1       985 5.33250E+01 3.23293E+01 0.00000E+00
 -1       986 4.53196E+01 3.03217E+01 0.00000E+00
 -1       987 1.72044E+01 1.86282E+01 0.00000E+00
 -1       988 3.70350E+01 1.69963E+01 0.00000E+00
 -1       989 1.50972E+01 1.73829E+01 0.00000E+00
 -1       990 4.50696E+01 2.26095E+01 0.00000E+00
 -1       991 4.68364E+01 2.73860E+01 0.00000E+00
 -1       992 2.07029E+01 1.86951E+01 0.00000E+00
 -1       993 1.31814E+02 2.50156E+01 0.00000E+00
 -1       994 1.31814E+02 2.79531E+01 0.00000E+00
 -1       995 1.87469E+01 1.69169E+01 0.00000E+00
 -1       996 1.31814E+02 2.20719E+01 0.00000E+00
 -1       997 2.32940E+01 1.71068E+01 0.00000E+00
 -1       998 6.06750E+01 2.97313E+01 0.00000E+00
 -1       999 6.36750E+01 2.97313E+01 0.00000E+00
 -1      1000 6.66750E+01 2.97313E+01 0.00000E+00
 -1      1001 6.96750E+01 2.97313E+01 0.00000E+00
 -1      1002 7.26750E+01 2.97313E+01 0.00000E+00
 -1      1003 7.56750E+01 2.97313E+01 0.00000E+00
 -1      1004 7.85250E+01 2.97313E+01 0.00000E+00
 -1      1005 8.15250E+01 2.97313E+01 0.00000E+00
 -1      1006 8.45250E+01 2.97313E+01 0.00000E+00
 -1      1007 8.75250E+01 2.97313E+01 0.00000E+00
 -1      1008 9.05250E+01 2.97313E+01 0.00000E+00
 -1      1009 9.35250E+01 2.97313E+01 0.00000E+00
 -1      1010 9.65250E+01 2.97313E+01 0.00000E+00
 -1      1011 9.93750E+01 2.97313E+01 0.00000E+00
 -1      1012 1.02375E+02 2.97313E+01 0.00000E+00
 -1      1013 1.05375E+02 2.97313E+01 0.00000E+00
 -1      1014 1.08375E+02 2.97313E+01 0.00000E+00
 -1      1015 1.11375E+02 2.97313E+01 0.00000E+00
 -1      1016 1.14375E+02 2.97313E+01 0.00000E+00
 -1      1017 1.17375E+02 2.97313E+01 0.00000E+00
 -1      1018 1.20225E+02 2.97313E+01 0.00000E+00
 -1      1019 1.23225E+02 2.97313E+01 0.00000E+00
 -1      1020 1.26225E+02 2.97313E+01 0.00000E+00
 -1      1021 1.29225E+02 2.97313E+01 0.00000E+00
 -1      1022 5.35350E+01 1.95942E+01 0.00000E+00
 -1      1023 5.05350E+01 1.95942E+01 0.00000E+00
 -1      1024 5.95350E+01 1.95942E+01 0.00000E+00
 -1      1025 6.25350E+01 1.95942E+01 0.00000E+00
 -1      1026 6.55350E+01 1.95942E+01 0.00000E+00
 -1      1027 6.85350E+01 1.95942E+01 0.00000E+00
 -1      1028 7.15350E+01 1.95942E+01 0.00000E+00
 -1      1029 7.45350E+01 1.95942E+01 0.00000E+00
 -1      1030 7.75350E+01 1.95942E+01 0.00000E+00
 -1      1031 8.05350E+01 1.95942E+01 0.00000E+00
 -1      1032 8.35350E+01 1.95942E+01 0.00000E+00
 -1      1033 8.65350E+01 1.95942E+01 0.00000E+00
 -1      1034 8.95350E+01 1.95942E+01 0.00000E+00
 -1      1035 9.25350E+01 1.95942E+01 0.00000E+00
 -1      1036 9.55350E+01 1.95942E+01 0.00000E+00
 -1      1037 9.85350E+01 1.95942E+01 0.00000E+00
 -1      1038 1.01535E+02 1.95942E+01 0.00000E+00
 -1      1039 1.04535E+02 1.95942E+01 0.00000E+00
 -1      1040 1.07535E+02 1.95942E+01 0.00000E+00
 -1      1041 1.10535E+02 1.95942E+01 0.00000E+00
 -1      1042 1.13535E+02 1.95942E+01 0.00000E+00
 -1      1043 1.16535E+02 1.95942E+01 0.00000E+00
 -1      1044 1.19535E+02 1.95942E+01 0.00000E+00
 -1      1045 1.22535E+02 1.95942E+01 0.00000E+00
 -1      1046 1.25535E+02 1.95942E+01 0.00000E+00
 -1      1047 1.28535E+02 1.95942E+01 0.00000E+00
 -1      1048 1.31832E+02 1.90755E+01 0.00000E+00
 -1      1049 5.65350E+01 1.95942E+01 0.00000E+00
 -1      1050 4.75350E+01 1.95942E+01 0.00000E+00
 -1      1051 5.18250E+01 2.97313E+01 0.00000E+00
 -1      1052 4.85807E+01 2.98576E+01 0.00000E+00
 -1      1053 5.78250E+01 2.97313E+01 0.00000E+00
 -1      1054 5.48250E+01 2.97313E+01 0.00000E+00
 -1      1055 1.29216E+02 2.35438E+01 0.00000E+00
 -1      1056 4.75854E+01 2.41460E+01 0.00000E+00
 -1      1057 1.29216E+02 2.64813E+01 0.00000E+00
 -1      1058 4.55523E+01 1.98029E+01 0.00000E+00
 -1      1059 6.51750E+01 2.71333E+01 0.00000E+00
 -1      1060 6.81750E+01 2.71333E+01 0.00000E+00
 -1      1061 7.11750E+01 2.71333E+01 0.00000E+00
 -1      1062 7.41750E+01 2.71333E+01 0.00000E+00
 -1      1063 7.70250E+01 2.71333E+01 0.00000E+00
 -1      1064 8.00250E+01 2.71333E+01 0.00000E+00
 -1      1065 8.30250E+01 2.71333E+01 0.00000E+00
 -1      1066 8.60250E+01 2.71333E+01 0.00000E+00
 -1      1067 8.90250E+01 2.71333E+01 0.00000E+00
 -1      1068 9.20250E+01 2.71333E+01 0.00000E+00
 -1      1069 9.50250E+01 2.71333E+01 0.00000E+00
 -1      1070 9.78750E+01 2.71333E+01 0.00000E+00
 -1      1071 1.00875E+02 2.71333E+01 0.00000E+00
 -1      1072 1.03875E+02 2.71333E+01 0.00000E+00
 -1      1073 1.06875E+02 2.71333E+01 0.00000E+00
 -1      1074 1.09875E+02 2.71333E+01 0.00000E+00
 -1      1075 1.12875E+02 2.71333E+01 0.00000E+00
 -1      1076 1.15875E+02 2.71333E+01 0.00000E+00
 -1      1077 1.18725E+02 2.71333E+01 0.00000E+00
 -1      1078 1.21725E+02 2.71333E+01 0.00000E+00
 -1      1079 1.24725E+02 2.71333E+01 0.00000E+00
 -1      1080 5.20350E+01 2.21922E+01 0.00000E+00
 -1      1081 6.40350E+01 2.21922E+01 0.00000E+00
 -1      1082 6.10350E+01 2.21922E+01 0.00000E+00
 -1      1083 7.00350E+01 2.21922E+01 0.00000E+00
 -1      1084 7.30350E+01 2.21922E+01 0.00000E+00
 -1      1085 7.60350E+01 2.21922E+01 0.00000E+00
 -1      1086 7.90350E+01 2.21922E+01 0.00000E+00
 -1      1087 8.20350E+01 2.21922E+01 0.00000E+00
 -1      1088 8.50350E+01 2.21922E+01 0.00000E+00
 -1      1089 8.80350E+01 2.21922E+01 0.00000E+00
 -1      1090 9.10350E+01 2.21922E+01 0.00000E+00
 -1      1091 9.40350E+01 2.21922E+01 0.00000E+00
 -1      1092 9.70350E+01 2.21922E+01 0.00000E+00
 -1      1093 1.00035E+02 2.21922E+01 0.00000E+00
 -1      1094 1.03035E+02 2.21922E+01 0.00000E+00
 -1      1095 1.06035E+02 2.21922E+01 0.00000E+00
 -1      1096 1.09035E+02 2.21922E+01 0.00000E+00
 -1      1097 1.12035E+02 2.21922E+01 0.00000E+00
 -1      1098 1.15035E+02 2.21922E+01 0.00000E+00
 -1      1099 1.18035E+02 2.21922E+01 0.00000E+00
 -1      1100 1.21035E+02 2.21922E+01 0.00000E+00
 -1      1101 1.24035E+02 2.21922E+01 0.00000E+00
 -1      1102 1.26626E+02 2.28680E+01 0.00000E+00
 -1      1103 5.50350E+01 2.21922E+01 0.00000E+00
 -1      1104 6.21750E+01 2.71333E+01 0.00000E+00
 -1      1105 5.93250E+01 2.71333E+01 0.00000E+00
 -1      1106 5.63250E+01 2.71333E+01 0.00000E+00
 -1      1107 6.70350E+01 2.21922E+01 0.00000E+00
 -1      1108 5.00807E+01 2.72596E+01 0.00000E+00
 -1      1109 5.33250E+01 2.71333E+01 0.00000E+00
 -1      1110 5.80350E+01 2.21922E+01 0.00000E+00
 -1      1111 4.75602E+01 2.18701E+01 0.00000E+00
 -1      1112 1.26970E+02 2.68073E+01 0.00000E+00
 -1      1113 1.26798E+02 2.48376E+01 0.00000E+00
 -1      1114 5.78250E+01 2.45353E+01 0.00000E+00
 -1      1115 6.96750E+01 2.45353E+01 0.00000E+00
 -1      1116 9.93750E+01 2.45353E+01 0.00000E+00
 -1      1117 1.20225E+02 2.45353E+01 0.00000E+00
 -1      1118 5.16018E+01 2.46004E+01 0.00000E+00
 -1      1119 5.47134E+01 2.45679E+01 0.00000E+00
 -1      1120 0.00000E+00 4.85250E+01 0.00000E+00
 -1      1121 0.00000E+00 4.55750E+01 0.00000E+00
 -1      1122 0.00000E+00 4.26250E+01 0.00000E+00
 -1      1123 0.00000E+00 3.96750E+01 0.00000E+00
 -1      1124 0.00000E+00 3.67250E+01 0.00000E+00
 -1      1125 0.00000E+00 3.38000E+01 0.00000E+00
 -1      1126 0.00000E+00 3.08750E+01 0.00000E+00
 -1      1127 0.00000E+00 2.79250E+01 0.00000E+00
 -1      1128 0.00000E+00 2.49750E+01 0.00000E+00
 -1      1129 0.00000E+00 2.20250E+01 0.00000E+00
 -1      1130 0.00000E+00 1.90750E+01 0.00000E+00
 -1      1131 0.00000E+00 1.61500E+01 0.00000E+00
 -1      1132 0.00000E+00 1.32250E+01 0.00000E+00
 -1      1133 0.00000E+00 1.02750E+01 0.00000E+00
 -1      1134 0.00000E+00 7.32500E+00 0.00000E+00
 -1      1135 0.00000E+00 4.37500E+00 0.00000E+00
 -1      1136 0.00000E+00 1.45000E+00 0.00000E+00
 -1      1137 1.50000E+00 5.00000E+01 0.00000E+00
 -1      1138 4.50000E+00 5.00000E+01 0.00000E+00
 -1      1139 7.50000E+00 5.00000E+01 0.00000E+00
 -1      1140 1.05000E+01 5.00000E+01 0.00000E+00
 -1      1141 1.35000E+01 5.00000E+01 0.00000E+00
 -1      1142 1.65000E+01 5.00000E+01 0.00000E+00
 -1      1143 1.92750E+01 5.00000E+01 0.00000E+00
 -1      1144 2.19000E+01 5.00000E+01 0.00000E+00
 -1      1145 2.46000E+01 5.00000E+01 0.00000E+00
 -1      1146 2.73750E+01 5.00000E+01 0.00000E+00
 -1      1147 3.00000E+01 5.00000E+01 0.00000E+00
 -1      1148 3.25500E+01 5.00000E+01 0.00000E+00
 -1      1149 3.54000E+01 5.00000E+01 0.00000E+00
 -1      1150 3.84000E+01 5.00000E+01 0.00000E+00
 -1      1151 4.14000E+01 5.00000E+01 0.00000E+00
 -1      1152 4.44000E+01 5.00000E+01 0.00000E+00
 -1      1153 4.73250E+01 5.00000E+01 0.00000E+00
 -1      1154 5.02500E+01 5.00000E+01 0.00000E+00
 -1      1155 5.32500E+01 5.00000E+01 0.00000E+00
 -1      1156 5.62500E+01 5.00000E+01 0.00000E+00
 -1      1157 5.92500E+01 5.00000E+01 0.00000E+00
 -1      1158 6.22500E+01 5.00000E+01 0.00000E+00
 -1      1159 6.52500E+01 5.00000E+01 0.00000E+00
 -1      1160 6.81750E+01 5.00000E+01 0.00000E+00
 -1      1161 7.11000E+01 5.00000E+01 0.00000E+00
 -1      1162 7.41000E+01 5.00000E+01 0.00000E+00
 -1      1163 7.71000E+01 5.00000E+01 0.00000E+00
 -1      1164 8.01000E+01 5.00000E+01 0.00000E+00
 -1      1165 8.31000E+01 5.00000E+01 0.00000E+00
 -1      1166 8.61000E+01 5.00000E+01 0.00000E+00
 -1      1167 8.90250E+01 5.00000E+01 0.00000E+00
 -1      1168 9.19500E+01 5.00000E+01 0.00000E+00
 -1      1169 9.49500E+01 5.00000E+01 0.00000E+00
 -1      1170 9.79500E+01 5.00000E+01 0.00000E+00
 -1      1171 1.00950E+02 5.00000E+01 0.00000E+00
 -1      1172 1.03950E+02 5.00000E+01 0.00000E+00
 -1      1173 1.06950E+02 5.00000E+01 0.00000E+00
 -1      1174 1.09875E+02 5.00000E+01 0.00000E+00
 -1      1175 1.12800E+02 5.00000E+01 0.00000E+00
 -1      1176 1.15800E+02 5.00000E+01 0.00000E+00
 -1      1177 1.18800E+02 5.00000E+01 0.00000E+00
 -1      1178 1.21800E+02 5.00000E+01 0.00000E+00
 -1      1179 1.24800E+02 5.00000E+01 0.00000E+00
 -1      1180 1.27800E+02 5.00000E+01 0.00000E+00
 -1      1181 1.30725E+02 5.00000E+01 0.00000E+00
 -1      1182 1.33650E+02 5.00000E+01 0.00000E+00
 -1      1183 1.36650E+02 5.00000E+01 0.00000E+00
 -1      1184 1.39650E+02 5.00000E+01 0.00000E+00
 -1      1185 1.42650E+02 5.00000E+01 0.00000E+00
 -1      1186 1.45650E+02 5.00000E+01 0.00000E+00
 -1      1187 1.48575E+02 5.00000E+01 0.00000E+00
 -1      1188 1.57500E+00 0.00000E+00 0.00000E+00
 -1      1189 4.65000E+00 0.00000E+00 0.00000E+00
 -1      1190 7.65000E+00 0.00000E+00 0.00000E+00
 -1      1191 1.06500E+01 0.00000E+00 0.00000E+00
 -1      1192 1.36500E+01 0.00000E+00 0.00000E+00
 -1      1193 1.66500E+01 0.00000E+00 0.00000E+00
 -1      1194 1.96500E+01 0.00000E+00 0.00000E+00
 -1      1195 2.26500E+01 0.00000E+00 0.00000E+00
 -1      1196 2.56500E+01 0.00000E+00 0.00000E+00
 -1      1197 2.86500E+01 0.00000E+00 0.00000E+00
 -1      1198 3.16500E+01 0.00000E+00 0.00000E+00
 -1      1199 3.46500E+01 0.00000E+00 0.00000E+00
 -1      1200 3.76500E+01 0.00000E+00 0.00000E+00
 -1      1201 4.06500E+01 0.00000E+00 0.00000E+00
 -1      1202 4.36500E+01 0.00000E+00 0.00000E+00
 -1      1203 4.66500E+01 0.00000E+00 0.00000E+00
 -1      1204 4.96500E+01 0.00000E+00 0.00000E+00
 -1      1205 5.26500E+01 0.00000E+00 0.00000E+00
 -1      1206 5.56500E+01 0.00000E+00 0.00000E+00
 -1      1207 5.86500E+01 0.00000E+00 0.00000E+00
 -1      1208 6.16500E+01 0.00000E+00 0.00000E+00
 -1      1209 6.46500E+01 0.00000E+00 0.00000E+00
 -1      1210 6.76500E+01 0.00000E+00 0.00000E+00
 -1      1211 7.06500E+01 0.00000E+00 0.00000E+00
 -1      1212 7.36500E+01 0.00000E+00 0.00000E+00
 -1      1213 7.66500E+01 0.00000E+00 0.00000E+00
 -1      1214 7.96500E+01 0.00000E+00 0.00000E+00
 -1      1215 8.26500E+01 0.00000E+00 0.00000E+00
 -1      1216 8.56500E+01 0.00000E+00 0.00000E+00
 -1      1217 8.86500E+01 0.00000E+00 0.00000E+00
 -1      1218 9.16500E+01 0.00000E+00 0.00000E+00
 -1      1219 9.46500E+01 0.00000E+00 0.00000E+00
 -1      1220 9.76500E+01 0.00000E+00 0.00000E+00
 -1      1221 1.00650E+02 0.00000E+00 0.00000E+00
 -1      1222 1.03650E+02 0.00000E+00 0.00000E+00
 -1      1223 1.06650E+02 0.00000E+00 0.00000E+00
 -1      1224 1.09650E+02 0.00000E+00 0.00000E+00
 -1      1225 1.12650E+02 0.00000E+00 0.00000E+00
 -1      1226 1.15650E+02 0.00000E+00 0.00000E+00
 -1      1227 1.18650E+02 0.00000E+00 0.00000E+00
 -1      1228 1.21650E+02 0.00000E+00 0.00000E+00
 -1      1229 1.24650E+02 0.00000E+00 0.00000E+00
 -1      1230 1.27650E+02 0.00000E+00 0.00000E+00
 -1      1231 1.30650E+02 0.00000E+00 0.00000E+00
 -1      1232 1.33650E+02 0.00000E+00 0.00000E+00
 -1      1233 1.36650E+02 0.00000E+00 0.00000E+00
 -1      1234 1.39650E+02 0.00000E+00 0.00000E+00
 -1      1235 1.42650E+02 0.00000E+00 0.00000E+00
 -1      1236 1.45650E+02 0.00000E+00 0.00000E+00
 -1      1237 1.48575E+02 0.00000E+00 0.00000E+00
 -1      1238 1.50000E+02 1.47500E+00 0.00000E+00
 -1      1239 1.50000E+02 4.42500E+00 0.00000E+00
 -1      1240 1.50000E+02 7.37500E+00 0.00000E+00
 -1      1241 1.50000E+02 1.03250E+01 0.00000E+00
 -1      1242 1.50000E+02 1.32750E+01 0.00000E+00
 -1      1243 1.50000E+02 1.62000E+01 0.00000E+00
 -1      1244 1.50000E+02 1.91250E+01 0.00000E+00
 -1      1245 1.50000E+02 2.20750E+01 0.00000E+00
 -1      1246 1.50000E+02 2.50250E+01 0.00000E+00
 -1      1247 1.50000E+02 2.79750E+01 0.00000E+00
 -1      1248 1.50000E+02 3.09250E+01 0.00000E+00
 -1      1249 1.50000E+02 3.38500E+01 0.00000E+00
 -1      1250 1.50000E+02 3.67750E+01 0.00000E+00
 -1      1251 1.50000E+02 3.97250E+01 0.00000E+00
 -1      1252 1.50000E+02 4.26750E+01 0.00000E+00
 -1      1253 1.50000E+02 4.56250E+01 0.00000E+00
 -1      1254 1.50000E+02 4.85500E+01 0.00000E+00
 -1      1255 3.36576E+01 3.46497E+01 0.00000E+00
 -1      1256 3.33484E+01 3.32063E+01 0.00000E+00
 -1      1257 3.27319E+01 3.18402E+01 0.00000E+00
 -1      1258 3.18214E+01 3.06180E+01 0.00000E+00
 -1      1259 3.07168E+01 2.96558E+01 0.00000E+00
 -1      1260 2.94352E+01 2.89441E+01 0.00000E+00
 -1      1261 2.80287E+01 2.85140E+01 0.00000E+00
 -1      1262 2.65781E+01 2.83871E+01 0.00000E+00
 -1      1263 2.50234E+01 2.85889E+01 0.00000E+00
 -1      1264 2.35670E+01 2.91245E+01 0.00000E+00
 -1      1265 2.23207E+01 2.99222E+01 0.00000E+00
 -1      1266 2.12612E+01 3.09748E+01 0.00000E+00
 -1      1267 2.04474E+01 3.22318E+01 0.00000E+00
 -1      1268 1.99235E+01 3.36176E+01 0.00000E+00
 -1      1269 1.97041E+01 3.50570E+01 0.00000E+00
 -1      1270 1.97903E+01 3.65286E+01 0.00000E+00
 -1      1271 2.01871E+01 3.79608E+01 0.00000E+00
 -1      1272 2.08496E+01 3.92350E+01 0.00000E+00
 -1      1273 2.17988E+01 4.03874E+01 0.00000E+00
 -1      1274 2.29698E+01 4.13116E+01 0.00000E+00
 -1      1275 2.42529E+01 4.19457E+01 0.00000E+00
 -1      1276 2.56125E+01 4.23016E+01 0.00000E+00
 -1      1277 2.70305E+01 4.23781E+01 0.00000E+00
 -1      1278 2.84652E+01 4.21589E+01 0.00000E+00
 -1      1279 2.97767E+01 4.16719E+01 0.00000E+00
 -1      1280 3.09496E+01 4.09458E+01 0.00000E+00
 -1      1281 3.19724E+01 3.99864E+01 0.00000E+00
 -1      1282 3.28086E+01 3.87980E+01 0.00000E+00
 -1      1283 3.33695E+01 3.75003E+01 0.00000E+00
 -1      1284 3.36578E+01 3.61200E+01 0.00000E+00
 -1      1285 1.50000E+00 4.85250E+01 0.00000E+00
 -1      1286 1.29900E+00 4.48375E+01 0.00000E+00
 -1      1287 1.29900E+00 4.63125E+01 0.00000E+00
 -1      1288 1.29900E+00 4.18875E+01 0.00000E+00
 -1      1289 1.29900E+00 4.33625E+01 0.00000E+00
 -1      1290 2.59800E+00 4.41000E+01 0.00000E+00
 -1      1291 1.29900E+00 3.89375E+01 0.00000E+00
 -1      1292 1.29900E+00 4.04125E+01 0.00000E+00
 -1      1293 2.59800E+00 4.11500E+01 0.00000E+00
 -1      1294 1.29900E+00 3.59875E+01 0.00000E+00
 -1      1295 1.29900E+00 3.74625E+01 0.00000E+00
 -1      1296 2.59800E+00 3.82000E+01 0.00000E+00
 -1      1297 1.29900E+00 3.30875E+01 0.00000E+00
 -1      1298 1.29900E+00 3.45375E+01 0.00000E+00
 -1      1299 2.59800E+00 3.52750E+01 0.00000E+00
 -1      1300 1.29900E+00 3.01375E+01 0.00000E+00
 -1      1301 1.29900E+00 3.16125E+01 0.00000E+00
 -1      1302 2.59800E+00 3.23500E+01 0.00000E+00
 -1      1303 1.29900E+00 2.71875E+01 0.00000E+00
 -1      1304 1.29900E+00 2.86625E+01 0.00000E+00
 -1      1305 2.59800E+00 2.94000E+01 0.00000E+00
 -1      1306 1.29900E+00 2.42375E+01 0.00000E+00
 -1      1307 1.29900E+00 2.57125E+01 0.00000E+00
 -1      1308 2.59800E+00 2.64500E+01 0.00000E+00
 -1      1309 1.29900E+00 2.12875E+01 0.00000E+00
 -1      1310 1.29900E+00 2.27625E+01 0.00000E+00
 -1      1311 2.59800E+00 2.35000E+01 0.00000E+00
 -1      1312 1.29900E+00 1.83375E+01 0.00000E+00
 -1      1313 1.29900E+00 1.98125E+01 0.00000E+00
 -1      1314 2.59800E+00 2.05500E+01 0.00000E+00
 -1      1315 1.29900E+00 1.54375E+01 0.00000E+00
 -1      1316 1.29900E+00 1.68875E+01 0.00000E+00
 -1      1317 2.59800E+00 1.76250E+01 0.00000E+00
 -1      1318 1.29900E+00 1.24875E+01 0.00000E+00
 -1      1319 1.29900E+00 1.39625E+01 0.00000E+00
 -1      1320 2.59800E+00 1.47000E+01 0.00000E+00
 -1      1321 1.29900E+00 9.53750E+00 0.00000E+00
 -1      1322 1.29900E+00 1.10125E+01 0.00000E+00
 -1      1323 2.59800E+00 1.17500E+01 0.00000E+00
 -1      1324 1.29900E+00 6.58750E+00 0.00000E+00
 -1      1325 1.29900E+00 8.06250E+00 0.00000E+00
 -1      1326 2.59800E+00 8.80000E+00 0.00000E+00
 -1      1327 1.29900E+00 3.63750E+00 0.00000E+00
 -1      1328 1.29900E+00 5.11250E+00 0.00000E+00
 -1      1329 2.59800E+00 5.85000E+00 0.00000E+00
 -1      1330 1.43700E+00 1.09375E+00 0.00000E+00
 -1      1331 1.43700E+00 2.54375E+00 0.00000E+00
 -1      1332 2.73600E+00 3.28125E+00 0.00000E+00
 -1      1333 3.01200E+00 1.09375E+00 0.00000E+00
 -1      1334 3.75000E+00 4.87010E+01 0.00000E+00
 -1      1335 5.25000E+00 4.87010E+01 0.00000E+00
 -1      1336 6.75000E+00 4.87010E+01 0.00000E+00
 -1      1337 8.25000E+00 4.87010E+01 0.00000E+00
 -1      1338 6.00000E+00 4.74020E+01 0.00000E+00
 -1      1339 9.75000E+00 4.87010E+01 0.00000E+00
 -1      1340 1.12500E+01 4.87010E+01 0.00000E+00
 -1      1341 9.00000E+00 4.74020E+01 0.00000E+00
 -1      1342 1.27500E+01 4.87010E+01 0.00000E+00
 -1      1343 1.42500E+01 4.87010E+01 0.00000E+00
 -1      1344 1.20000E+01 4.74020E+01 0.00000E+00
 -1      1345 1.57500E+01 4.87010E+01 0.00000E+00
 -1      1346 1.72500E+01 4.87010E+01 0.00000E+00
 -1      1347 1.50000E+01 4.74020E+01 0.00000E+00
 -1      1348 1.85250E+01 4.87010E+01 0.00000E+00
 -1      1349 1.98000E+01 4.87010E+01 0.00000E+00
 -1      1350 1.77750E+01 4.74020E+01 0.00000E+00
 -1      1351 2.11500E+01 4.87010E+01 0.00000E+00
 -1      1352 2.25000E+01 4.87010E+01 0.00000E+00
 -1      1353 2.04000E+01 4.74020E+01 0.00000E+00
 -1      1354 2.38500E+01 4.87010E+01 0.00000E+00
 -1      1355 2.52000E+01 4.87010E+01 0.00000E+00
 -1      1356 2.31000E+01 4.74020E+01 0.00000E+00
 -1      1357 2.66250E+01 4.87010E+01 0.00000E+00
 -1      1358 2.80500E+01 4.87010E+01 0.00000E+00
 -1      1359 2.58750E+01 4.74020E+01 0.00000E+00
 -1      1360 2.92500E+01 4.87010E+01 0.00000E+00
 -1      1361 3.04500E+01 4.87010E+01 0.00000E+00
 -1      1362 2.85000E+01 4.74020E+01 0.00000E+00
 -1      1363 3.18000E+01 4.87010E+01 0.00000E+00
 -1      1364 3.31500E+01 4.87010E+01 0.00000E+00
 -1      1365 3.10500E+01 4.74020E+01 0.00000E+00
 -1      1366 3.46500E+01 4.87010E+01 0.00000E+00
 -1      1367 3.61500E+01 4.87010E+01 0.00000E+00
 -1      1368 3.39000E+01 4.74020E+01 0.00000E+00
 -1      1369 3.76500E+01 4.87010E+01 0.00000E+00
 -1      1370 3.91500E+01 4.87010E+01 0.00000E+00
 -1      1371 3.69000E+01 4.74020E+01 0.00000E+00
 -1      1372 4.06500E+01 4.87010E+01 0.00000E+00
 -1      1373 4.21500E+01 4.87010E+01 0.00000E+00
 -1      1374 3.99000E+01 4.74020E+01 0.00000E+00
 -1      1375 4.36500E+01 4.87010E+01 0.00000E+00
 -1      1376 4.51500E+01 4.87010E+01 0.00000E+00
 -1      1377 4.29000E+01 4.74020E+01 0.00000E+00
 -1      1378 4.65750E+01 4.87010E+01 0.00000E+00
 -1      1379 4.80000E+01 4.87010E+01 0.00000E+00
 -1      1380 4.58250E+01 4.74020E+01 0.00000E+00
 -1      1381 4.95000E+01 4.87010E+01 0.00000E+00
 -1      1382 5.10000E+01 4.87010E+01 0.00000E+00
 -1      1383 4.87500E+01 4.74020E+01 0.00000E+00
 -1      1384 5.25000E+01 4.87010E+01 0.00000E+00
 -1      1385 5.40000E+01 4.87010E+01 0.00000E+00
 -1      1386 5.17500E+01 4.74020E+01 0.00000E+00
 -1      1387 5.55000E+01 4.87010E+01 0.00000E+00
 -1      1388 5.70000E+01 4.87010E+01 0.00000E+00
 -1      1389 5.47500E+01 4.74020E+01 0.00000E+00
 -1      1390 5.85000E+01 4.87010E+01 0.00000E+00
 -1      1391 6.00000E+01 4.87010E+01 0.00000E+00
 -1      1392 5.77500E+01 4.74020E+01 0.00000E+00
 -1      1393 6.15000E+01 4.87010E+01 0.00000E+00
 -1      1394 6.30000E+01 4.87010E+01 0.00000E+00
 -1      1395 6.07500E+01 4.74020E+01 0.00000E+00
 -1      1396 6.45000E+01 4.87010E+01 0.00000E+00
 -1      1397 6.60000E+01 4.87010E+01 0.00000E+00
 -1      1398 6.37500E+01 4.74020E+01 0.00000E+00
 -1      1399 6.74250E+01 4.87010E+01 0.00000E+00
 -1      1400 6.88500E+01 4.87010E+01 0.00000E+00
 -1      1401 6.66750E+01 4.74020E+01 0.00000E+00
 -1      1402 7.03500E+01 4.87010E+01 0.00000E+00
 -1      1403 7.18500E+01 4.87010E+01 0.00000E+00
 -1      1404 6.96000E+01 4.74020E+01 0.00000E+00
 -1      1405 7.33500E+01 4.87010E+01 0.00000E+00
 -1      1406 7.48500E+01 4.87010E+01 0.00000E+00
 -1      1407 7.26000E+01 4.74020E+01 0.00000E+00
 -1      1408 7.63500E+01 4.87010E+01 0.00000E+00
 -1      1409 7.78500E+01 4.87010E+01 0.00000E+00
 -1      1410 7.56000E+01 4.74020E+01 0.00000E+00
 -1      1411 7.93500E+01 4.87010E+01 0.00000E+00
 -1      1412 8.08500E+01 4.87010E+01 0.00000E+00
 -1      1413 7.86000E+01 4.74020E+01 0.00000E+00
 -1      1414 8.23500E+01 4.87010E+01 0.00000E+00
 -1      1415 8.38500E+01 4.87010E+01 0.00000E+00
 -1      1416 8.16000E+01 4.74020E+01 0.00000E+00
 -1      1417 8.53500E+01 4.87010E+01 0.00000E+00
 -1      1418 8.68500E+01 4.87010E+01 0.00000E+00
 -1      1419 8.46000E+01 4.74020E+01 0.00000E+00
 -1      1420 8.82750E+01 4.87010E+01 0.00000E+00
 -1      1421 8.97000E+01 4.87010E+01 0.00000E+00
 -1      1422 8.75250E+01 4.74020E+01 0.00000E+00
 -1      1423 9.12000E+01 4.87010E+01 0.00000E+00
 -1      1424 9.27000E+01 4.87010E+01 0.00000E+00
 -1      1425 9.04500E+01 4.74020E+01 0.00000E+00
 -1      1426 9.42000E+01 4.87010E+01 0.00000E+00
 -1      1427 9.57000E+01 4.87010E+01 0.00000E+00
 -1      1428 9.34500E+01 4.74020E+01 0.00000E+00
 -1      1429 9.72000E+01 4.87010E+01 0.00000E+00
 -1      1430 9.87000E+01 4.87010E+01 0.00000E+00
 -1      1431 9.64500E+01 4.74020E+01 0.00000E+00
 -1      1432 1.00200E+02 4.87010E+01 0.00000E+00
 -1      1433 1.01700E+02 4.87010E+01 0.00000E+00
 -1      1434 9.94500E+01 4.74020E+01 0.00000E+00
 -1      1435 1.03200E+02 4.87010E+01 0.00000E+00
 -1      1436 1.04700E+02 4.87010E+01 0.00000E+00
 -1      1437 1.02450E+02 4.74020E+01 0.00000E+00
 -1      1438 1.06200E+02 4.87010E+01 0.00000E+00
 -1      1439 1.07700E+02 4.87010E+01 0.00000E+00
 -1      1440 1.05450E+02 4.74020E+01 0.00000E+00
 -1      1441 1.09125E+02 4.87010E+01 0.00000E+00
 -1      1442 1.10550E+02 4.87010E+01 0.00000E+00
 -1      1443 1.08375E+02 4.74020E+01 0.00000E+00
 -1      1444 1.12050E+02 4.87010E+01 0.00000E+00
 -1      1445 1.13550E+02 4.87010E+01 0.00000E+00
 -1      1446 1.11300E+02 4.74020E+01 0.00000E+00
 -1      1447 1.15050E+02 4.87010E+01 0.00000E+00
 -1      1448 1.16550E+02 4.87010E+01 0.00000E+00
 -1      1449 1.14300E+02 4.74020E+01 0.00000E+00
 -1      1450 1.18050E+02 4.87010E+01 0.00000E+00
 -1      1451 1.19550E+02 4.87010E+01 0.00000E+00
 -1      1452 1.17300E+02 4.74020E+01 0.00000E+00
 -1      1453 1.21050E+02 4.87010E+01 0.00000E+00
 -1      1454 1.22550E+02 4.87010E+01 0.00000E+00
 -1      1455 1.20300E+02 4.74020E+01 0.00000E+00
 -1      1456 1.24050E+02 4.87010E+01 0.00000E+00
 -1      1457 1.25550E+02 4.87010E+01 0.00000E+00
 -1      1458 1.23300E+02 4.74020E+01 0.00000E+00
 -1      1459 1.27050E+02 4.87010E+01 0.00000E+00
 -1      1460 1.28550E+02 4.87010E+01 0.00000E+00
 -1      1461 1.26300E+02 4.74020E+01 0.00000E+00
 -1      1462 1.29975E+02 4.87010E+01 0.00000E+00
 -1      1463 1.31400E+02 4.87010E+01 0.00000E+00
 -1      1464 1.29225E+02 4.74020E+01 0.00000E+00
 -1      1465 1.32900E+02 4.87010E+01 0.00000E+00
 -1      1466 1.34400E+02 4.87010E+01 0.00000E+00
 -1      1467 1.32150E+02 4.74020E+01 0.00000E+00
 -1      1468 1.35900E+02 4.87010E+01 0.00000E+00
 -1      1469 1.37400E+02 4.87010E+01 0.00000E+00
 -1      1470 1.35150E+02 4.74020E+01 0.00000E+00
 -1      1471 1.38900E+02 4.87010E+01 0.00000E+00
 -1      1472 1.40400E+02 4.87010E+01 0.00000E+00
 -1      1473 1.38150E+02 4.74020E+01 0.00000E+00
 -1      1474 1.41900E+02 4.87010E+01 0.00000E+00
 -1      1475 1.43400E+02 4.87010E+01 0.00000E+00
 -1      1476 1.41150E+02 4.74020E+01 0.00000E+00
 -1      1477 1.44900E+02 4.87010E+01 0.00000E+00
 -1      1478 1.46400E+02 4.87010E+01 0.00000E+00
 -1      1479 1.44150E+02 4.74020E+01 0.00000E+00
 -1      1480 1.48575E+02 4.85500E+01 0.00000E+00
 -1      1481 6.01200E+00 1.09375E+00 0.00000E+00
 -1      1482 4.51200E+00 1.09375E+00 0.00000E+00
 -1      1483 4.37400E+00 2.18750E+00 0.00000E+00
 -1      1484 9.01200E+00 1.09375E+00 0.00000E+00
 -1      1485 7.51200E+00 1.09375E+00 0.00000E+00
 -1      1486 7.37400E+00 2.18750E+00 0.00000E+00
 -1      1487 1.20120E+01 1.09375E+00 0.00000E+00
 -1      1488 1.05120E+01 1.09375E+00 0.00000E+00
 -1      1489 1.03740E+01 2.18750E+00 0.00000E+00
 -1      1490 1.50120E+01 1.09375E+00 0.00000E+00
 -1      1491 1.35120E+01 1.09375E+00 0.00000E+00
 -1      1492 1.33740E+01 2.18750E+00 0.00000E+00
 -1      1493 1.80120E+01 1.09375E+00 0.00000E+00
 -1      1494 1.65120E+01 1.09375E+00 0.00000E+00
 -1      1495 1.63740E+01 2.18750E+00 0.00000E+00
 -1      1496 2.10120E+01 1.09375E+00 0.00000E+00
 -1      1497 1.95120E+01 1.09375E+00 0.00000E+00
 -1      1498 1.93740E+01 2.18750E+00 0.00000E+00
 -1      1499 2.40120E+01 1.09375E+00 0.00000E+00
 -1      1500 2.25120E+01 1.09375E+00 0.00000E+00
 -1      1501 2.23740E+01 2.18750E+00 0.00000E+00
 -1      1502 2.70120E+01 1.09375E+00 0.00000E+00
 -1      1503 2.55120E+01 1.09375E+00 0.00000E+00
 -1      1504 2.53740E+01 2.18750E+00 0.00000E+00
 -1      1505 3.00120E+01 1.09375E+00 0.00000E+00
 -1      1506 2.85120E+01 1.09375E+00 0.00000E+00
 -1      1507 2.83740E+01 2.18750E+00 0.00000E+00
 -1      1508 3.30120E+01 1.09375E+00 0.00000E+00
 -1      1509 3.15120E+01 1.09375E+00 0.00000E+00
 -1      1510 3.13740E+01 2.18750E+00 0.00000E+00
 -1      1511 3.60120E+01 1.09375E+00 0.00000E+00
 -1      1512 3.45120E+01 1.09375E+00 0.00000E+00
 -1      1513 3.43740E+01 2.18750E+00 0.00000E+00
 -1      1514 3.90120E+01 1.09375E+00 0.00000E+00
 -1      1515 3.75120E+01 1.09375E+00 0.00000E+00
 -1      1516 3.73740E+01 2.18750E+00 0.00000E+00
 -1      1517 4.20120E+01 1.09375E+00 0.00000E+00
 -1      1518 4.05120E+01 1.09375E+00 0.00000E+00
 -1      1519 4.03740E+01 2.18750E+00 0.00000E+00
 -1      1520 4.50120E+01 1.09375E+00 0.00000E+00
 -1      1521 4.35120E+01 1.09375E+00 0.00000E+00
 -1      1522 4.33740E+01 2.18750E+00 0.00000E+00
 -1      1523 4.80120E+01 1.09375E+00 0.00000E+00
 -1      1524 4.65120E+01 1.09375E+00 0.00000E+00
 -1      1525 4.63740E+01 2.18750E+00 0.00000E+00
 -1      1526 5.10120E+01 1.09375E+00 0.00000E+00
 -1      1527 4.95120E+01 1.09375E+00 0.00000E+00
 -1      1528 4.93740E+01 2.18750E+00 0.00000E+00
 -1      1529 5.40120E+01 1.09375E+00 0.00000E+00
 -1      1530 5.25120E+01 1.09375E+00 0.00000E+00
 -1      1531 5.23740E+01 2.18750E+00 0.00000E+00
 -1      1532 5.70120E+01 1.09375E+00 0.00000E+00
 -1      1533 5.55120E+01 1.09375E+00 0.00000E+00
 -1      1534 5.53740E+01 2.18750E+00 0.00000E+00
 -1      1535 6.00120E+01 1.09375E+00 0.00000E+00
 -1      1536 5.85120E+01 1.09375E+00 0.00000E+00
 -1      1537 5.83740E+01 2.18750E+00 0.00000E+00
 -1      1538 6.30120E+01 1.09375E+00 0.00000E+00
 -1      1539 6.15120E+01 1.09375E+00 0.00000E+00
 -1      1540 6.13740E+01 2.18750E+00 0.00000E+00
 -1      1541 6.60120E+01 1.09375E+00 0.00000E+00
 -1      1542 6.45120E+01 1.09375E+00 0.00000E+00
 -1      1543 6.43740E+01 2.18750E+00 0.00000E+00
 -1      1544 6.90120E+01 1.09375E+00 0.00000E+00
 -1      1545 6.75120E+01 1.09375E+00 0.00000E+00
 -1      1546 6.73740E+01 2.18750E+00 0.00000E+00
 -1      1547 7.20120E+01 1.09375E+00 0.00000E+00
 -1      1548 7.05120E+01 1.09375E+00 0.00000E+00
 -1      1549 7.03740E+01 2.18750E+00 0.00000E+00
 -1      1550 7.50120E+01 1.09375E+00 0.00000E+00
 -1      1551 7.35120E+01 1.09375E+00 0.00000E+00
 -1      1552 7.33740E+01 2.18750E+00 0.00000E+00
 -1      1553 7.80120E+01 1.09375E+00 0.00000E+00
 -1      1554 7.65120E+01 1.09375E+00 0.00000E+00
 -1      1555 7.63740E+01 2.18750E+00 0.00000E+00
 -1      1556 8.10120E+01 1.09375E+00 0.00000E+00
 -1      1557 7.95120E+01 1.09375E+00 0.00000E+00
 -1      1558 7.93740E+01 2.18750E+00 0.00000E+00
 -1      1559 8.40120E+01 1.09375E+00 0.00000E+00
 -1      1560 8.25120E+01 1.09375E+00 0.00000E+00
 -1      1561 8.23740E+01 2.18750E+00 0.00000E+00
 -1      1562 8.70120E+01 1.09375E+00 0.00000E+00
 -1      1563 8.55120E+01 1.09375E+00 0.00000E+00
 -1      1564 8.53740E+01 2.18750E+00 0.00000E+00
 -1      1565 9.00120E+01 1.09375E+00 0.00000E+00
 -1      1566 8.85120E+01 1.09375E+00 0.00000E+00
 -1      1567 8.83740E+01 2.18750E+00 0.00000E+00
 -1      1568 9.30120E+01 1.09375E+00 0.00000E+00
 -1      1569 9.15120E+01 1.09375E+00 0.00000E+00
 -1      1570 9.13740E+01 2.18750E+00 0.00000E+00
 -1      1571 9.60120E+01 1.09375E+00 0.00000E+00
 -1      1572 9.45120E+01 1.09375E+00 0.00000E+00
 -1      1573 9.43740E+01 2.18750E+00 0.00000E+00
 -1      1574 9.90120E+01 1.09375E+00 0.00000E+00
 -1      1575 9.75120E+01 1.09375E+00 0.00000E+00
 -1      1576 9.73740E+01 2.18750E+00 0.00000E+00
 -1      1577 1.02012E+02 1.09375E+00 0.00000E+00
 -1      1578 1.00512E+02 1.09375E+00 0.00000E+00
 -1      1579 1.00374E+02 2.18750E+00 0.00000E+00
 -1      1580 1.05012E+02 1.09375E+00 0.00000E+00
 -1      1581 1.03512E+02 1.09375E+00 0.00000E+00
 -1      1582 1.03374E+02 2.18750E+00 0.00000E+00
 -1      1583 1.08012E+02 1.09375E+00 0.00000E+00
 -1      1584 1.06512E+02 1.09375E+00 0.00000E+00
 -1      1585 1.06374E+02 2.18750E+00 0.00000E+00
 -1      1586 1.11012E+02 1.09375E+00 0.00000E+00
 -1      1587 1.09512E+02 1.09375E+00 0.00000E+00
 -1      1588 1.09374E+02 2.18750E+00 0.00000E+00
 -1      1589 1.14012E+02 1.09375E+00 0.00000E+00
 -1      1590 1.12512E+02 1.09375E+00 0.00000E+00
 -1      1591 1.12374E+02 2.18750E+00 0.00000E+00
 -1      1592 1.17012E+02 1.09375E+00 0.00000E+00
 -1      1593 1.15512E+02 1.09375E+00 0.00000E+00
 -1      1594 1.15374E+02 2.18750E+00 0.00000E+00
 -1      1595 1.20012E+02 1.09375E+00 0.00000E+00
 -1      1596 1.18512E+02 1.09375E+00 0.00000E+00
 -1      1597 1.18374E+02 2.18750E+00 0.00000E+00
 -1      1598 1.23012E+02 1.09375E+00 0.00000E+00
 -1      1599 1.21512E+02 1.09375E+00 0.00000E+00
 -1      1600 1.21374E+02 2.18750E+00 0.00000E+00
 -1      1601 1.26012E+02 1.09375E+00 0.00000E+00
 -1      1602 1.24512E+02 1.09375E+00 0.00000E+00
 -1      1603 1.24374E+02 2.18750E+00 0.00000E+00
 -1      1604 1.29012E+02 1.09375E+00 0.00000E+00
 -1      1605 1.27512E+02 1.09375E+00 0.00000E+00
 -1      1606 1.27374E+02 2.18750E+00 0.00000E+00
 -1      1607 1.32012E+02 1.09375E+00 0.00000E+00
 -1      1608 1.30512E+02 1.09375E+00 0.00000E+00
 -1      1609 1.30374E+02 2.18750E+00 0.00000E+00
 -1      1610 1.35012E+02 1.09375E+00 0.00000E+00
 -1      1611 1.33512E+02 1.09375E+00 0.00000E+00
 -1      1612 1.33374E+02 2.18750E+00 0.00000E+00
 -1      1613 1.38012E+02 1.09375E+00 0.00000E+00
 -1      1614 1.36512E+02 1.09375E+00 0.00000E+00
 -1      1615 1.36374E+02 2.18750E+00 0.00000E+00
 -1      1616 1.41012E+02 1.09375E+00 0.00000E+00
 -1      1617 1.39512E+02 1.09375E+00 0.00000E+00
 -1      1618 1.39374E+02 2.18750E+00 0.00000E+00
 -1      1619 1.44012E+02 1.09375E+00 0.00000E+00
 -1      1620 1.42512E+02 1.09375E+00 0.00000E+00
 -1      1621 1.42374E+02 2.18750E+00 0.00000E+00
 -1      1622 1.47012E+02 1.09375E+00 0.00000E+00
 -1      1623 1.45512E+02 1.09375E+00 0.00000E+00
 -1      1624 1.45374E+02 2.18750E+00 0.00000E+00
 -1      1625 1.48575E+02 1.47500E+00 0.00000E+00
 -1      1626 1.48701E+02 5.16250E+00 0.00000E+00
 -1      1627 1.48701E+02 3.68750E+00 0.00000E+00
 -1      1628 1.48701E+02 8.11250E+00 0.00000E+00
 -1      1629 1.48701E+02 6.63750E+00 0.00000E+00
 -1      1630 1.47402E+02 5.90000E+00 0.00000E+00
 -1      1631 1.48701E+02 1.10625E+01 0.00000E+00
 -1      1632 1.48701E+02 9.58750E+00 0.00000E+00
 -1      1633 1.47402E+02 8.85000E+00 0.00000E+00
 -1      1634 1.48701E+02 1.40125E+01 0.00000E+00
 -1      1635 1.48701E+02 1.25375E+01 0.00000E+00
 -1      1636 1.47402E+02 1.18000E+01 0.00000E+00
 -1      1637 1.48701E+02 1.69125E+01 0.00000E+00
 -1      1638 1.48701E+02 1.54625E+01 0.00000E+00
 -1      1639 1.47402E+02 1.47250E+01 0.00000E+00
 -1      1640 1.48701E+02 1.98625E+01 0.00000E+00
 -1      1641 1.48701E+02 1.83875E+01 0.00000E+00
 -1      1642 1.47402E+02 1.76500E+01 0.00000E+00
 -1      1643 1.48701E+02 2.28125E+01 0.00000E+00
 -1      1644 1.48701E+02 2.13375E+01 0.00000E+00
 -1      1645 1.47402E+02 2.06000E+01 0.00000E+00
 -1      1646 1.48701E+02 2.57625E+01 0.00000E+00
 -1      1647 1.48701E+02 2.42875E+01 0.00000E+00
 -1      1648 1.47402E+02 2.35500E+01 0.00000E+00
 -1      1649 1.48701E+02 2.87125E+01 0.00000E+00
 -1      1650 1.48701E+02 2.72375E+01 0.00000E+00
 -1      1651 1.47402E+02 2.65000E+01 0.00000E+00
 -1      1652 1.48701E+02 3.16625E+01 0.00000E+00
 -1      1653 1.48701E+02 3.01875E+01 0.00000E+00
 -1      1654 1.47402E+02 2.94500E+01 0.00000E+00
 -1      1655 1.48701E+02 3.45625E+01 0.00000E+00
 -1      1656 1.48701E+02 3.31125E+01 0.00000E+00
 -1      1657 1.47402E+02 3.23750E+01 0.00000E+00
 -1      1658 1.48701E+02 3.75125E+01 0.00000E+00
 -1      1659 1.48701E+02 3.60375E+01 0.00000E+00
 -1      1660 1.47402E+02 3.53000E+01 0.00000E+00
 -1      1661 1.48701E+02 4.04625E+01 0.00000E+00
 -1      1662 1.48701E+02 3.89875E+01 0.00000E+00
 -1      1663 1.47402E+02 3.82500E+01 0.00000E+00
 -1      1664 1.48701E+02 4.34125E+01 0.00000E+00
 -1      1665 1.48701E+02 4.19375E+01 0.00000E+00
 -1      1666 1.47402E+02 4.12000E+01 0.00000E+00
 -1      1667 3.41831E+01 3.42239E+01 0.00000E+00
 -1      1668 3.42605E+01 3.49562E+01 0.00000E+00
 -1      1669 3.37720E+01 3.26783E+01 0.00000E+00
 -1      1670 3.40024E+01 3.33813E+01 0.00000E+00
 -1      1671 3.30268E+01 3.12269E+01 0.00000E+00
 -1      1672 3.34112E+01 3.18813E+01 0.00000E+00
 -1      1673 3.20352E+01 2.98965E+01 0.00000E+00
 -1      1674 3.25564E+01 3.04567E+01 0.00000E+00
 -1      1675 3.07584E+01 2.89873E+01 0.00000E+00
 -1      1676 3.13312E+01 2.93891E+01 0.00000E+00
 -1      1677 2.93361E+01 2.81979E+01 0.00000E+00
 -1      1678 3.00413E+01 2.84977E+01 0.00000E+00
 -1      1679 2.77915E+01 2.78867E+01 0.00000E+00
 -1      1680 2.84831E+01 2.80208E+01 0.00000E+00
 -1      1681 2.61921E+01 2.77859E+01 0.00000E+00
 -1      1682 2.69435E+01 2.77732E+01 0.00000E+00
 -1      1683 2.44637E+01 2.80221E+01 0.00000E+00
 -1      1684 2.52561E+01 2.78271E+01 0.00000E+00
 -1      1685 2.29655E+01 2.87439E+01 0.00000E+00
 -1      1686 2.36236E+01 2.84151E+01 0.00000E+00
 -1      1687 2.16500E+01 2.96798E+01 0.00000E+00
 -1      1688 2.22308E+01 2.92148E+01 0.00000E+00
 -1      1689 2.05206E+01 3.08564E+01 0.00000E+00
 -1      1690 2.09929E+01 3.02744E+01 0.00000E+00
 -1      1691 1.96613E+01 3.22539E+01 0.00000E+00
 -1      1692 1.99983E+01 3.15862E+01 0.00000E+00
 -1      1693 1.92410E+01 3.38186E+01 0.00000E+00
 -1      1694 1.94264E+01 3.31087E+01 0.00000E+00
 -1      1695 1.90771E+01 3.53891E+01 0.00000E+00
 -1      1696 1.91111E+01 3.46675E+01 0.00000E+00
 -1      1697 1.92108E+01 3.70054E+01 0.00000E+00
 -1      1698 1.90881E+01 3.62638E+01 0.00000E+00
 -1      1699 1.97554E+01 3.85264E+01 0.00000E+00
 -1      1700 1.94853E+01 3.78435E+01 0.00000E+00
 -1      1701 2.05656E+01 3.98420E+01 0.00000E+00
 -1      1702 2.01798E+01 3.92559E+01 0.00000E+00
 -1      1703 2.15714E+01 4.11850E+01 0.00000E+00
 -1      1704 2.10062E+01 4.06314E+01 0.00000E+00
 -1      1705 2.29623E+01 4.19815E+01 0.00000E+00
 -1      1706 2.23693E+01 4.16085E+01 0.00000E+00
 -1      1707 2.43677E+01 4.26840E+01 0.00000E+00
 -1      1708 2.36831E+01 4.24290E+01 0.00000E+00
 -1      1709 2.58570E+01 4.29206E+01 0.00000E+00
 -1      1710 2.51904E+01 4.28161E+01 0.00000E+00
 -1      1711 2.74316E+01 4.29679E+01 0.00000E+00
 -1      1712 2.66873E+01 4.30035E+01 0.00000E+00
 -1      1713 2.89511E+01 4.26216E+01 0.00000E+00
 -1      1714 2.82677E+01 4.28001E+01 0.00000E+00
 -1      1715 3.03394E+01 4.20330E+01 0.00000E+00
 -1      1716 2.97173E+01 4.23378E+01 0.00000E+00
 -1      1717 3.15702E+01 4.11918E+01 0.00000E+00
 -1      1718 3.10247E+01 4.16091E+01 0.00000E+00
 -1      1719 3.26684E+01 4.01186E+01 0.00000E+00
 -1      1720 3.21982E+01 4.06579E+01 0.00000E+00
 -1      1721 3.35202E+01 3.87729E+01 0.00000E+00
 -1      1722 3.31607E+01 3.94169E+01 0.00000E+00
 -1      1723 3.40183E+01 3.73512E+01 0.00000E+00
 -1      1724 3.38141E+01 3.79958E+01 0.00000E+00
 -1      1725 3.43025E+01 3.58190E+01 0.00000E+00
 -1      1726 3.42255E+01 3.65488E+01 0.00000E+00
 -1      1727 1.47825E+02 4.72510E+01 0.00000E+00
 -1      1728 3.41025E+01 3.20440E+01 0.00000E+00
 -1      1729 1.48437E+02 2.56875E+00 0.00000E+00
 -1      1730 1.47138E+02 3.30625E+00 0.00000E+00
 -1      1731 3.48666E+01 3.53891E+01 0.00000E+00
 -1      1732 3.46439E+01 3.36836E+01 0.00000E+00
 -1      1733 1.48701E+02 4.63625E+01 0.00000E+00
 -1      1734 1.48701E+02 4.48875E+01 0.00000E+00
 -1      1735 1.47402E+02 4.41500E+01 0.00000E+00
 -1      1736 3.32713E+01 3.04768E+01 0.00000E+00
 -1      1737 3.20970E+01 2.91993E+01 0.00000E+00
 -1      1738 3.06758E+01 2.82024E+01 0.00000E+00
 -1      1739 2.91057E+01 2.75357E+01 0.00000E+00
 -1      1740 2.74048E+01 2.72451E+01 0.00000E+00
 -1      1741 2.56209E+01 2.71727E+01 0.00000E+00
 -1      1742 2.38449E+01 2.76069E+01 0.00000E+00
 -1      1743 2.22701E+01 2.84706E+01 0.00000E+00
 -1      1744 2.08781E+01 2.95360E+01 0.00000E+00
 -1      1745 1.96987E+01 3.08604E+01 0.00000E+00
 -1      1746 1.89415E+01 3.24451E+01 0.00000E+00
 -1      1747 1.85767E+01 3.41489E+01 0.00000E+00
 -1      1748 1.84577E+01 3.58725E+01 0.00000E+00
 -1      1749 1.87432E+01 3.75853E+01 0.00000E+00
 -1      1750 1.94420E+01 3.91528E+01 0.00000E+00
 -1      1751 2.03069E+01 4.06716E+01 0.00000E+00
 -1      1752 2.15453E+01 4.18846E+01 0.00000E+00
 -1      1753 2.30638E+01 4.27556E+01 0.00000E+00
 -1      1754 2.46072E+01 4.33351E+01 0.00000E+00
 -1      1755 2.62601E+01 4.35501E+01 0.00000E+00
 -1      1756 2.79265E+01 4.34652E+01 0.00000E+00
 -1      1757 2.95288E+01 4.30136E+01 0.00000E+00
 -1      1758 3.09804E+01 4.23058E+01 0.00000E+00
 -1      1759 3.22938E+01 4.13480E+01 0.00000E+00
 -1      1760 3.34141E+01 4.01125E+01 0.00000E+00
 -1      1761 3.42002E+01 3.86337E+01 0.00000E+00
 -1      1762 3.47013E+01 3.70542E+01 0.00000E+00
 -1      1763 2.79900E+00 4.77875E+01 0.00000E+00
 -1      1764 3.89700E+00 4.04125E+01 0.00000E+00
 -1      1765 3.89700E+00 4.18875E+01 0.00000E+00
 -1      1766 3.89700E+00 4.33625E+01 0.00000E+00
 -1      1767 3.89700E+00 4.48375E+01 0.00000E+00
 -1      1768 5.19600E+00 4.26250E+01 0.00000E+00
 -1      1769 3.89700E+00 3.45500E+01 0.00000E+00
 -1      1770 3.89700E+00 3.60000E+01 0.00000E+00
 -1      1771 3.89700E+00 3.16000E+01 0.00000E+00
 -1      1772 3.89700E+00 3.30750E+01 0.00000E+00
 -1      1773 5.19600E+00 3.38000E+01 0.00000E+00
 -1      1774 3.89700E+00 2.86500E+01 0.00000E+00
 -1      1775 3.89700E+00 3.01250E+01 0.00000E+00
 -1      1776 5.19600E+00 3.08500E+01 0.00000E+00
 -1      1777 3.89700E+00 2.57000E+01 0.00000E+00
 -1      1778 3.89700E+00 2.71750E+01 0.00000E+00
 -1      1779 5.19600E+00 2.79000E+01 0.00000E+00
 -1      1780 3.89700E+00 2.27500E+01 0.00000E+00
 -1      1781 3.89700E+00 2.42250E+01 0.00000E+00
 -1      1782 5.19600E+00 2.49500E+01 0.00000E+00
 -1      1783 3.89700E+00 1.98000E+01 0.00000E+00
 -1      1784 3.89700E+00 2.12750E+01 0.00000E+00
 -1      1785 5.19600E+00 2.20000E+01 0.00000E+00
 -1      1786 3.89700E+00 1.69000E+01 0.00000E+00
 -1      1787 3.89700E+00 1.83500E+01 0.00000E+00
 -1      1788 5.19600E+00 1.90750E+01 0.00000E+00
 -1      1789 3.89700E+00 1.39500E+01 0.00000E+00
 -1      1790 3.89700E+00 1.54250E+01 0.00000E+00
 -1      1791 5.19600E+00 1.61500E+01 0.00000E+00
 -1      1792 3.89700E+00 1.10000E+01 0.00000E+00
 -1      1793 3.89700E+00 1.24750E+01 0.00000E+00
 -1      1794 5.19600E+00 1.32000E+01 0.00000E+00
 -1      1795 3.89700E+00 8.05000E+00 0.00000E+00
 -1      1796 3.89700E+00 9.52500E+00 0.00000E+00
 -1      1797 5.19600E+00 1.02500E+01 0.00000E+00
 -1      1798 3.89700E+00 5.10000E+00 0.00000E+00
 -1      1799 3.89700E+00 6.57500E+00 0.00000E+00
 -1      1800 5.19600E+00 7.30000E+00 0.00000E+00
 -1      1801 4.20450E+00 3.09687E+00 0.00000E+00
 -1      1802 4.06650E+00 4.19063E+00 0.00000E+00
 -1      1803 5.36550E+00 4.91563E+00 0.00000E+00
 -1      1804 5.70450E+00 3.09687E+00 0.00000E+00
 -1      1805 3.54900E+00 4.64885E+01 0.00000E+00
 -1      1806 8.70450E+00 3.09687E+00 0.00000E+00
 -1      1807 7.20450E+00 3.09687E+00 0.00000E+00
 -1      1808 7.03500E+00 4.00625E+00 0.00000E+00
 -1      1809 8.25000E+00 4.61030E+01 0.00000E+00
 -1      1810 9.75000E+00 4.61030E+01 0.00000E+00
 -1      1811 1.12500E+01 4.61030E+01 0.00000E+00
 -1      1812 1.27500E+01 4.61030E+01 0.00000E+00
 -1      1813 1.05000E+01 4.48040E+01 0.00000E+00
 -1      1814 1.42500E+01 4.61030E+01 0.00000E+00
 -1      1815 1.57500E+01 4.61030E+01 0.00000E+00
 -1      1816 1.35000E+01 4.48040E+01 0.00000E+00
 -1      1817 1.70250E+01 4.61030E+01 0.00000E+00
 -1      1818 1.83000E+01 4.61030E+01 0.00000E+00
 -1      1819 1.62750E+01 4.48040E+01 0.00000E+00
 -1      1820 2.24250E+01 4.62931E+01 0.00000E+00
 -1      1821 2.37750E+01 4.62931E+01 0.00000E+00
 -1      1822 2.51625E+01 4.63769E+01 0.00000E+00
 -1      1823 2.65875E+01 4.63769E+01 0.00000E+00
 -1      1824 3.03750E+01 4.64607E+01 0.00000E+00
 -1      1825 3.17250E+01 4.64607E+01 0.00000E+00
 -1      1826 3.31500E+01 4.62093E+01 0.00000E+00
 -1      1827 3.46500E+01 4.62093E+01 0.00000E+00
 -1      1828 3.61500E+01 4.62093E+01 0.00000E+00
 -1      1829 3.76500E+01 4.62093E+01 0.00000E+00
 -1      1830 3.54000E+01 4.50166E+01 0.00000E+00
 -1      1831 3.91500E+01 4.62093E+01 0.00000E+00
 -1      1832 4.06500E+01 4.62093E+01 0.00000E+00
 -1      1833 3.84000E+01 4.50166E+01 0.00000E+00
 -1      1834 4.21500E+01 4.62093E+01 0.00000E+00
 -1      1835 4.36500E+01 4.62093E+01 0.00000E+00
 -1      1836 4.14000E+01 4.50166E+01 0.00000E+00
 -1      1837 4.50750E+01 4.62093E+01 0.00000E+00
 -1      1838 4.65000E+01 4.62093E+01 0.00000E+00
 -1      1839 4.43250E+01 4.50166E+01 0.00000E+00
 -1      1840 4.80000E+01 4.62093E+01 0.00000E+00
 -1      1841 4.95000E+01 4.62093E+01 0.00000E+00
 -1      1842 4.72500E+01 4.50166E+01 0.00000E+00
 -1      1843 5.10000E+01 4.62093E+01 0.00000E+00
 -1      1844 5.25000E+01 4.62093E+01 0.00000E+00
 -1      1845 5.02500E+01 4.50166E+01 0.00000E+00
 -1      1846 5.40000E+01 4.62093E+01 0.00000E+00
 -1      1847 5.55000E+01 4.62093E+01 0.00000E+00
 -1      1848 5.32500E+01 4.50166E+01 0.00000E+00
 -1      1849 5.70000E+01 4.62093E+01 0.00000E+00
 -1      1850 5.85000E+01 4.62093E+01 0.00000E+00
 -1      1851 5.62500E+01 4.50166E+01 0.00000E+00
 -1      1852 6.00000E+01 4.62093E+01 0.00000E+00
 -1      1853 6.15000E+01 4.62093E+01 0.00000E+00
 -1      1854 5.92500E+01 4.50166E+01 0.00000E+00
 -1      1855 6.30000E+01 4.62093E+01 0.00000E+00
 -1      1856 6.45000E+01 4.62093E+01 0.00000E+00
 -1      1857 6.22500E+01 4.50166E+01 0.00000E+00
 -1      1858 6.59250E+01 4.62093E+01 0.00000E+00
 -1      1859 6.73500E+01 4.62093E+01 0.00000E+00
 -1      1860 6.51750E+01 4.50166E+01 0.00000E+00
 -1      1861 6.88500E+01 4.62093E+01 0.00000E+00
 -1      1862 7.03500E+01 4.62093E+01 0.00000E+00
 -1      1863 6.81000E+01 4.50166E+01 0.00000E+00
 -1      1864 7.18500E+01 4.62093E+01 0.00000E+00
 -1      1865 7.33500E+01 4.62093E+01 0.00000E+00
 -1      1866 7.11000E+01 4.50166E+01 0.00000E+00
 -1      1867 7.48500E+01 4.62093E+01 0.00000E+00
 -1      1868 7.63500E+01 4.62093E+01 0.00000E+00
 -1      1869 7.41000E+01 4.50166E+01 0.00000E+00
 -1      1870 7.78500E+01 4.62093E+01 0.00000E+00
 -1      1871 7.93500E+01 4.62093E+01 0.00000E+00
 -1      1872 7.71000E+01 4.50166E+01 0.00000E+00
 -1      1873 8.08500E+01 4.62093E+01 0.00000E+00
 -1      1874 8.23500E+01 4.62093E+01 0.00000E+00
 -1      1875 8.01000E+01 4.50166E+01 0.00000E+00
 -1      1876 8.38500E+01 4.62093E+01 0.00000E+00
 -1      1877 8.53500E+01 4.62093E+01 0.00000E+00
 -1      1878 8.31000E+01 4.50166E+01 0.00000E+00
 -1      1879 8.67750E+01 4.62093E+01 0.00000E+00
 -1      1880 8.82000E+01 4.62093E+01 0.00000E+00
 -1      1881 8.60250E+01 4.50166E+01 0.00000E+00
 -1      1882 8.97000E+01 4.62093E+01 0.00000E+00
 -1      1883 9.12000E+01 4.62093E+01 0.00000E+00
 -1      1884 8.89500E+01 4.50166E+01 0.00000E+00
 -1      1885 9.27000E+01 4.62093E+01 0.00000E+00
 -1      1886 9.42000E+01 4.62093E+01 0.00000E+00
 -1      1887 9.19500E+01 4.50166E+01 0.00000E+00
 -1      1888 9.57000E+01 4.62093E+01 0.00000E+00
 -1      1889 9.72000E+01 4.62093E+01 0.00000E+00
 -1      1890 9.49500E+01 4.50166E+01 0.00000E+00
 -1      1891 9.87000E+01 4.62093E+01 0.00000E+00
 -1      1892 1.00200E+02 4.62093E+01 0.00000E+00
 -1      1893 9.79500E+01 4.50166E+01 0.00000E+00
 -1      1894 1.01700E+02 4.62093E+01 0.00000E+00
 -1      1895 1.03200E+02 4.62093E+01 0.00000E+00
 -1      1896 1.00950E+02 4.50166E+01 0.00000E+00
 -1      1897 1.04700E+02 4.62093E+01 0.00000E+00
 -1      1898 1.06200E+02 4.62093E+01 0.00000E+00
 -1      1899 1.03950E+02 4.50166E+01 0.00000E+00
 -1      1900 1.07625E+02 4.62093E+01 0.00000E+00
 -1      1901 1.09050E+02 4.62093E+01 0.00000E+00
 -1      1902 1.06875E+02 4.50166E+01 0.00000E+00
 -1      1903 1.10550E+02 4.62093E+01 0.00000E+00
 -1      1904 1.12050E+02 4.62093E+01 0.00000E+00
 -1      1905 1.09800E+02 4.50166E+01 0.00000E+00
 -1      1906 1.13550E+02 4.62093E+01 0.00000E+00
 -1      1907 1.15050E+02 4.62093E+01 0.00000E+00
 -1      1908 1.12800E+02 4.50166E+01 0.00000E+00
 -1      1909 1.16550E+02 4.62093E+01 0.00000E+00
 -1      1910 1.18050E+02 4.62093E+01 0.00000E+00
 -1      1911 1.15800E+02 4.50166E+01 0.00000E+00
 -1      1912 1.19550E+02 4.62093E+01 0.00000E+00
 -1      1913 1.21050E+02 4.62093E+01 0.00000E+00
 -1      1914 1.18800E+02 4.50166E+01 0.00000E+00
 -1      1915 1.22550E+02 4.62093E+01 0.00000E+00
 -1      1916 1.24050E+02 4.62093E+01 0.00000E+00
 -1      1917 1.21800E+02 4.50166E+01 0.00000E+00
 -1      1918 1.25550E+02 4.62093E+01 0.00000E+00
 -1      1919 1.27050E+02 4.62093E+01 0.00000E+00
 -1      1920 1.24800E+02 4.50166E+01 0.00000E+00
 -1      1921 1.28475E+02 4.62093E+01 0.00000E+00
 -1      1922 1.29900E+02 4.62093E+01 0.00000E+00
 -1      1923 1.27725E+02 4.50166E+01 0.00000E+00
 -1      1924 1.31400E+02 4.62093E+01 0.00000E+00
 -1      1925 1.32900E+02 4.62093E+01 0.00000E+00
 -1      1926 1.30650E+02 4.50166E+01 0.00000E+00
 -1      1927 1.34400E+02 4.62093E+01 0.00000E+00
 -1      1928 1.35900E+02 4.62093E+01 0.00000E+00
 -1      1929 1.33650E+02 4.50166E+01 0.00000E+00
 -1      1930 1.37400E+02 4.62093E+01 0.00000E+00
 -1      1931 1.38900E+02 4.62093E+01 0.00000E+00
 -1      1932 1.36650E+02 4.50166E+01 0.00000E+00
 -1      1933 1.40400E+02 4.62093E+01 0.00000E+00
 -1      1934 1.41900E+02 4.62093E+01 0.00000E+00
 -1      1935 1.39650E+02 4.50166E+01 0.00000E+00
 -1      1936 1.43400E+02 4.62093E+01 0.00000E+00
 -1      1937 1.44900E+02 4.62093E+01 0.00000E+00
 -1      1938 1.42650E+02 4.50166E+01 0.00000E+00
 -1      1939 1.17045E+01 3.09687E+00 0.00000E+00
 -1      1940 1.02045E+01 3.09687E+00 0.00000E+00
 -1      1941 1.00350E+01 4.00625E+00 0.00000E+00
 -1      1942 3.46651E+01 3.13091E+01 0.00000E+00
 -1      1943 3.50259E+01 3.21061E+01 0.00000E+00
 -1      1944 1.47045E+01 3.09687E+00 0.00000E+00
 -1      1945 1.32045E+01 3.09687E+00 0.00000E+00
 -1      1946 1.30350E+01 4.00625E+00 0.00000E+00
 -1      1947 1.77045E+01 3.09687E+00 0.00000E+00
 -1      1948 1.62045E+01 3.09687E+00 0.00000E+00
 -1      1949 1.60350E+01 4.00625E+00 0.00000E+00
 -1      1950 2.07045E+01 3.09687E+00 0.00000E+00
 -1      1951 1.92045E+01 3.09687E+00 0.00000E+00
 -1      1952 1.90350E+01 4.00625E+00 0.00000E+00
 -1      1953 2.37045E+01 3.09687E+00 0.00000E+00
 -1      1954 2.22045E+01 3.09687E+00 0.00000E+00
 -1      1955 2.20350E+01 4.00625E+00 0.00000E+00
 -1      1956 2.67045E+01 3.09687E+00 0.00000E+00
 -1      1957 2.52045E+01 3.09687E+00 0.00000E+00
 -1      1958 2.50350E+01 4.00625E+00 0.00000E+00
 -1      1959 2.97045E+01 3.09687E+00 0.00000E+00
 -1      1960 2.82045E+01 3.09687E+00 0.00000E+00
 -1      1961 2.80350E+01 4.00625E+00 0.00000E+00
 -1      1962 3.27045E+01 3.09687E+00 0.00000E+00
 -1      1963 3.12045E+01 3.09687E+00 0.00000E+00
 -1      1964 3.10350E+01 4.00625E+00 0.00000E+00
 -1      1965 3.57045E+01 3.09687E+00 0.00000E+00
 -1      1966 3.42045E+01 3.09687E+00 0.00000E+00
 -1      1967 3.40350E+01 4.00625E+00 0.00000E+00
 -1      1968 3.87045E+01 3.09687E+00 0.00000E+00
 -1      1969 3.72045E+01 3.09687E+00 0.00000E+00
 -1      1970 3.70350E+01 4.00625E+00 0.00000E+00
 -1      1971 4.17045E+01 3.09687E+00 0.00000E+00
 -1      1972 4.02045E+01 3.09687E+00 0.00000E+00
 -1      1973 4.00350E+01 4.00625E+00 0.00000E+00
 -1      1974 4.47045E+01 3.09687E+00 0.00000E+00
 -1      1975 4.32045E+01 3.09687E+00 0.00000E+00
 -1      1976 4.30350E+01 4.00625E+00 0.00000E+00
 -1      1977 4.77045E+01 3.09687E+00 0.00000E+00
 -1      1978 4.62045E+01 3.09687E+00 0.00000E+00
 -1      1979 4.60350E+01 4.00625E+00 0.00000E+00
 -1      1980 5.07045E+01 3.09687E+00 0.00000E+00
 -1      1981 4.92045E+01 3.09687E+00 0.00000E+00
 -1      1982 4.90350E+01 4.00625E+00 0.00000E+00
 -1      1983 5.37045E+01 3.09687E+00 0.00000E+00
 -1      1984 5.22045E+01 3.09687E+00 0.00000E+00
 -1      1985 5.20350E+01 4.00625E+00 0.00000E+00
 -1      1986 5.67045E+01 3.09687E+00 0.00000E+00
 -1      1987 5.52045E+01 3.09687E+00 0.00000E+00
 -1      1988 5.50350E+01 4.00625E+00 0.00000E+00
 -1      1989 5.97045E+01 3.09687E+00 0.00000E+00
 -1      1990 5.82045E+01 3.09687E+00 0.00000E+00
 -1      1991 5.80350E+01 4.00625E+00 0.00000E+00
 -1      1992 6.27045E+01 3.09687E+00 0.00000E+00
 -1      1993 6.12045E+01 3.09687E+00 0.00000E+00
 -1      1994 6.10350E+01 4.00625E+00 0.00000E+00
 -1      1995 6.57045E+01 3.09687E+00 0.00000E+00
 -1      1996 6.42045E+01 3.09687E+00 0.00000E+00
 -1      1997 6.40350E+01 4.00625E+00 0.00000E+00
 -1      1998 6.87045E+01 3.09687E+00 0.00000E+00
 -1      1999 6.72045E+01 3.09687E+00 0.00000E+00
 -1      2000 6.70350E+01 4.00625E+00 0.00000E+00
 -1      2001 7.17045E+01 3.09687E+00 0.00000E+00
 -1      2002 7.02045E+01 3.09687E+00 0.00000E+00
 -1      2003 7.00350E+01 4.00625E+00 0.00000E+00
 -1      2004 7.47045E+01 3.09687E+00 0.00000E+00
 -1      2005 7.32045E+01 3.09687E+00 0.00000E+00
 -1      2006 7.30350E+01 4.00625E+00 0.00000E+00
 -1      2007 7.77045E+01 3.09687E+00 0.00000E+00
 -1      2008 7.62045E+01 3.09687E+00 0.00000E+00
 -1      2009 7.60350E+01 4.00625E+00 0.00000E+00
 -1      2010 8.07045E+01 3.09687E+00 0.00000E+00
 -1      2011 7.92045E+01 3.09687E+00 0.00000E+00
 -1      2012 7.90350E+01 4.00625E+00 0.00000E+00
 -1      2013 8.37045E+01 3.09687E+00 0.00000E+00
 -1      2014 8.22045E+01 3.09687E+00 0.00000E+00
 -1      2015 8.20350E+01 4.00625E+00 0.00000E+00
 -1      2016 8.67045E+01 3.09687E+00 0.00000E+00
 -1      2017 8.52045E+01 3.09687E+00 0.00000E+00
 -1      2018 8.50350E+01 4.00625E+00 0.00000E+00
 -1      2019 8.97045E+01 3.09687E+00 0.00000E+00
 -1      2020 8.82045E+01 3.09687E+00 0.00000E+00
 -1      2021 8.80350E+01 4.00625E+00 0.00000E+00
 -1      2022 9.27045E+01 3.09687E+00 0.00000E+00
 -1      2023 9.12045E+01 3.09687E+00 0.00000E+00
 -1      2024 9.10350E+01 4.00625E+00 0.00000E+00
 -1      2025 9.57045E+01 3.09687E+00 0.00000E+00
 -1      2026 9.42045E+01 3.09687E+00 0.00000E+00
 -1      2027 9.40350E+01 4.00625E+00 0.00000E+00
 -1      2028 9.87045E+01 3.09687E+00 0.00000E+00
 -1      2029 9.72045E+01 3.09687E+00 0.00000E+00
 -1      2030 9.70350E+01 4.00625E+00 0.00000E+00
 -1      2031 1.01704E+02 3.09687E+00 0.00000E+00
 -1      2032 1.00204E+02 3.09687E+00 0.00000E+00
 -1      2033 1.00035E+02 4.00625E+00 0.00000E+00
 -1      2034 1.04704E+02 3.09687E+00 0.00000E+00
 -1      2035 1.03204E+02 3.09687E+00 0.00000E+00
 -1      2036 1.03035E+02 4.00625E+00 0.00000E+00
 -1      2037 1.07704E+02 3.09687E+00 0.00000E+00
 -1      2038 1.06204E+02 3.09687E+00 0.00000E+00
 -1      2039 1.06035E+02 4.00625E+00 0.00000E+00
 -1      2040 1.10704E+02 3.09687E+00 0.00000E+00
 -1      2041 1.09204E+02 3.09687E+00 0.00000E+00
 -1      2042 1.09035E+02 4.00625E+00 0.00000E+00
 -1      2043 1.13704E+02 3.09687E+00 0.00000E+00
 -1      2044 1.12204E+02 3.09687E+00 0.00000E+00
 -1      2045 1.12035E+02 4.00625E+00 0.00000E+00
 -1      2046 1.16704E+02 3.09687E+00 0.00000E+00
 -1      2047 1.15204E+02 3.09687E+00 0.00000E+00
 -1      2048 1.15035E+02 4.00625E+00 0.00000E+00
 -1      2049 1.19704E+02 3.09687E+00 0.00000E+00
 -1      2050 1.18204E+02 3.09687E+00 0.00000E+00
 -1      2051 1.18035E+02 4.00625E+00 0.00000E+00
 -1      2052 1.22704E+02 3.09687E+00 0.00000E+00
 -1      2053 1.21204E+02 3.09687E+00 0.00000E+00
 -1      2054 1.21035E+02 4.00625E+00 0.00000E+00
 -1      2055 1.25704E+02 3.09687E+00 0.00000E+00
 -1      2056 1.24204E+02 3.09687E+00 0.00000E+00
 -1      2057 1.24035E+02 4.00625E+00 0.00000E+00
 -1      2058 1.28704E+02 3.09687E+00 0.00000E+00
 -1      2059 1.27204E+02 3.09687E+00 0.00000E+00
 -1      2060 1.27035E+02 4.00625E+00 0.00000E+00
 -1      2061 1.31704E+02 3.09687E+00 0.00000E+00
 -1      2062 1.30204E+02 3.09687E+00 0.00000E+00
 -1      2063 1.30035E+02 4.00625E+00 0.00000E+00
 -1      2064 1.34704E+02 3.09687E+00 0.00000E+00
 -1      2065 1.33204E+02 3.09687E+00 0.00000E+00
 -1      2066 1.33035E+02 4.00625E+00 0.00000E+00
 -1      2067 1.37704E+02 3.09687E+00 0.00000E+00
 -1      2068 1.36204E+02 3.09687E+00 0.00000E+00
 -1      2069 1.36035E+02 4.00625E+00 0.00000E+00
 -1      2070 1.40704E+02 3.09687E+00 0.00000E+00
 -1      2071 1.39204E+02 3.09687E+00 0.00000E+00
 -1      2072 1.39035E+02 4.00625E+00 0.00000E+00
 -1      2073 1.43704E+02 3.09687E+00 0.00000E+00
 -1      2074 1.42204E+02 3.09687E+00 0.00000E+00
 -1      2075 1.42035E+02 4.00625E+00 0.00000E+00
 -1      2076 1.46171E+02 3.20156E+00 0.00000E+00
 -1      2077 1.44671E+02 3.20156E+00 0.00000E+00
 -1      2078 1.44502E+02 4.11094E+00 0.00000E+00
 -1      2079 1.46435E+02 4.32031E+00 0.00000E+00
 -1      2080 1.46103E+02 1.25375E+01 0.00000E+00
 -1      2081 1.46103E+02 1.10625E+01 0.00000E+00
 -1      2082 1.46103E+02 9.58750E+00 0.00000E+00
 -1      2083 1.46103E+02 8.11250E+00 0.00000E+00
 -1      2084 1.44804E+02 1.03250E+01 0.00000E+00
 -1      2085 1.46269E+02 6.95391E+00 0.00000E+00
 -1      2086 1.46269E+02 5.47891E+00 0.00000E+00
 -1      2087 1.45302E+02 5.37422E+00 0.00000E+00
 -1      2088 1.44970E+02 7.69141E+00 0.00000E+00
 -1      2089 1.46103E+02 1.54375E+01 0.00000E+00
 -1      2090 1.46103E+02 1.39875E+01 0.00000E+00
 -1      2091 1.44804E+02 1.32500E+01 0.00000E+00
 -1      2092 1.46103E+02 1.83875E+01 0.00000E+00
 -1      2093 1.46103E+02 1.69125E+01 0.00000E+00
 -1      2094 1.44804E+02 1.61750E+01 0.00000E+00
 -1      2095 1.46103E+02 2.13375E+01 0.00000E+00
 -1      2096 1.46103E+02 1.98625E+01 0.00000E+00
 -1      2097 1.44804E+02 1.91250E+01 0.00000E+00
 -1      2098 1.46103E+02 2.42875E+01 0.00000E+00
 -1      2099 1.46103E+02 2.28125E+01 0.00000E+00
 -1      2100 1.44804E+02 2.20750E+01 0.00000E+00
 -1      2101 1.46103E+02 2.72375E+01 0.00000E+00
 -1      2102 1.46103E+02 2.57625E+01 0.00000E+00
 -1      2103 1.44804E+02 2.50250E+01 0.00000E+00
 -1      2104 1.46103E+02 3.01875E+01 0.00000E+00
 -1      2105 1.46103E+02 2.87125E+01 0.00000E+00
 -1      2106 1.44804E+02 2.79750E+01 0.00000E+00
 -1      2107 1.46103E+02 3.30875E+01 0.00000E+00
 -1      2108 1.46103E+02 3.16375E+01 0.00000E+00
 -1      2109 1.44804E+02 3.09000E+01 0.00000E+00
 -1      2110 1.46103E+02 3.60375E+01 0.00000E+00
 -1      2111 1.46103E+02 3.45625E+01 0.00000E+00
 -1      2112 1.44804E+02 3.38250E+01 0.00000E+00
 -1      2113 1.46103E+02 3.89875E+01 0.00000E+00
 -1      2114 1.46103E+02 3.75125E+01 0.00000E+00
 -1      2115 1.44804E+02 3.67750E+01 0.00000E+00
 -1      2116 1.46103E+02 4.19375E+01 0.00000E+00
 -1      2117 1.46103E+02 4.04625E+01 0.00000E+00
 -1      2118 1.44804E+02 3.97250E+01 0.00000E+00
 -1      2119 3.36250E+01 2.97321E+01 0.00000E+00
 -1      2120 3.40954E+01 3.05023E+01 0.00000E+00
 -1      2121 1.46526E+02 4.65135E+01 0.00000E+00
 -1      2122 4.84800E+00 4.57510E+01 0.00000E+00
 -1      2123 3.55766E+01 3.49221E+01 0.00000E+00
 -1      2124 3.56185E+01 3.57849E+01 0.00000E+00
 -1      2125 3.89700E+00 3.74688E+01 0.00000E+00
 -1      2126 3.89700E+00 3.89437E+01 0.00000E+00
 -1      2127 5.19600E+00 3.96813E+01 0.00000E+00
 -1      2128 5.19600E+00 3.67438E+01 0.00000E+00
 -1      2129 3.21484E+01 2.83858E+01 0.00000E+00
 -1      2130 3.28524E+01 2.88931E+01 0.00000E+00
 -1      2131 3.07140E+01 2.74067E+01 0.00000E+00
 -1      2132 3.14312E+01 2.78963E+01 0.00000E+00
 -1      2133 3.21866E+01 2.75901E+01 0.00000E+00
 -1      2134 2.88194E+01 2.67716E+01 0.00000E+00
 -1      2135 2.96724E+01 2.69487E+01 0.00000E+00
 -1      2136 2.70668E+01 2.65459E+01 0.00000E+00
 -1      2137 2.79148E+01 2.66595E+01 0.00000E+00
 -1      2138 2.51208E+01 2.64622E+01 0.00000E+00
 -1      2139 2.60567E+01 2.64209E+01 0.00000E+00
 -1      2140 2.31503E+01 2.72163E+01 0.00000E+00
 -1      2141 2.39904E+01 2.68233E+01 0.00000E+00
 -1      2142 2.15304E+01 2.81251E+01 0.00000E+00
 -1      2143 2.22652E+01 2.76543E+01 0.00000E+00
 -1      2144 2.00867E+01 2.93216E+01 0.00000E+00
 -1      2145 2.07438E+01 2.87271E+01 0.00000E+00
 -1      2146 1.88765E+01 3.08238E+01 0.00000E+00
 -1      2147 1.93987E+01 3.00940E+01 0.00000E+00
 -1      2148 1.81992E+01 3.27008E+01 0.00000E+00
 -1      2149 1.84340E+01 3.18460E+01 0.00000E+00
 -1      2150 1.77883E+01 3.44626E+01 0.00000E+00
 -1      2151 1.79182E+01 3.36137E+01 0.00000E+00
 -1      2152 1.76476E+01 3.63202E+01 0.00000E+00
 -1      2153 1.76366E+01 3.54455E+01 0.00000E+00
 -1      2154 1.82646E+01 3.82060E+01 0.00000E+00
 -1      2155 1.79901E+01 3.73680E+01 0.00000E+00
 -1      2156 1.89491E+01 3.99276E+01 0.00000E+00
 -1      2157 1.85248E+01 3.91982E+01 0.00000E+00
 -1      2158 1.98302E+01 4.15064E+01 0.00000E+00
 -1      2159 1.93897E+01 4.07170E+01 0.00000E+00
 -1      2160 1.84725E+01 4.07624E+01 0.00000E+00
 -1      2161 2.15813E+01 4.27798E+01 0.00000E+00
 -1      2162 2.07835E+01 4.23562E+01 0.00000E+00
 -1      2163 2.49158E+01 4.40411E+01 0.00000E+00
 -1      2164 2.40931E+01 4.39090E+01 0.00000E+00
 -1      2165 2.64827E+01 4.44924E+01 0.00000E+00
 -1      2166 2.56524E+01 4.44095E+01 0.00000E+00
 -1      2167 2.85051E+01 4.41810E+01 0.00000E+00
 -1      2168 2.76690E+01 4.43488E+01 0.00000E+00
 -1      2169 3.01662E+01 4.35580E+01 0.00000E+00
 -1      2170 2.93999E+01 4.38418E+01 0.00000E+00
 -1      2171 3.16640E+01 4.26450E+01 0.00000E+00
 -1      2172 3.09787E+01 4.30689E+01 0.00000E+00
 -1      2173 3.30275E+01 4.15749E+01 0.00000E+00
 -1      2174 3.23995E+01 4.21087E+01 0.00000E+00
 -1      2175 3.42593E+01 4.01820E+01 0.00000E+00
 -1      2176 3.37670E+01 4.08837E+01 0.00000E+00
 -1      2177 3.49533E+01 3.84744E+01 0.00000E+00
 -1      2178 3.46595E+01 3.92515E+01 0.00000E+00
 -1      2179 3.54324E+01 3.68151E+01 0.00000E+00
 -1      2180 3.52252E+01 3.76175E+01 0.00000E+00
 -1      2181 3.51873E+01 3.31264E+01 0.00000E+00
 -1      2182 3.53680E+01 3.39691E+01 0.00000E+00
 -1      2183 1.45776E+02 4.53208E+01 0.00000E+00
 -1      2184 3.61424E+01 3.63482E+01 0.00000E+00
 -1      2185 3.57500E+01 3.23916E+01 0.00000E+00
 -1      2186 6.34800E+00 4.57510E+01 0.00000E+00
 -1      2187 7.09800E+00 4.44520E+01 0.00000E+00
 -1      2188 3.36764E+01 2.89186E+01 0.00000E+00
 -1      2189 1.88128E+01 4.49409E+01 0.00000E+00
 -1      2190 1.95628E+01 4.62399E+01 0.00000E+00
 -1      2191 2.09128E+01 4.62399E+01 0.00000E+00
 -1      2192 2.70613E+01 4.52082E+01 0.00000E+00
 -1      2193 2.77738E+01 4.62333E+01 0.00000E+00
 -1      2194 3.24750E+01 4.52680E+01 0.00000E+00
 -1      2195 2.89738E+01 4.62333E+01 0.00000E+00
 -1      2196 3.50188E+01 3.05644E+01 0.00000E+00
 -1      2197 2.65667E+01 2.58354E+01 0.00000E+00
 -1      2198 1.45776E+02 4.38458E+01 0.00000E+00
 -1      2199 3.61200E+01 3.43649E+01 0.00000E+00
 -1      2200 3.56844E+01 3.82353E+01 0.00000E+00
 -1      2201 3.50125E+01 4.00227E+01 0.00000E+00
 -1      2202 3.38728E+01 4.16444E+01 0.00000E+00
 -1      2203 3.23978E+01 4.28719E+01 0.00000E+00
 -1      2204 3.08498E+01 4.38972E+01 0.00000E+00
 -1      2205 2.91424E+01 4.47254E+01 0.00000E+00
 -1      2206 2.51384E+01 4.49833E+01 0.00000E+00
 -1      2207 1.98663E+01 4.24016E+01 0.00000E+00
 -1      2208 1.77717E+01 3.89809E+01 0.00000E+00
 -1      2209 1.71690E+01 3.69409E+01 0.00000E+00
 -1      2210 1.69782E+01 3.49102E+01 0.00000E+00
 -1      2211 1.74107E+01 3.30145E+01 0.00000E+00
 -1      2212 1.81341E+01 3.10795E+01 0.00000E+00
 -1      2213 1.92644E+01 2.92850E+01 0.00000E+00
 -1      2214 2.07389E+01 2.79107E+01 0.00000E+00
 -1      2215 2.24106E+01 2.68707E+01 0.00000E+00
 -1      2216 2.44261E+01 2.60716E+01 0.00000E+00
 -1      2217 2.48619E+01 2.53198E+01 0.00000E+00
 -1      2218 2.37315E+01 2.56810E+01 0.00000E+00
 -1      2219 3.04278E+01 2.66426E+01 0.00000E+00
 -1      2220 2.84815E+01 2.60725E+01 0.00000E+00
 -1      2221 1.44477E+02 4.31083E+01 0.00000E+00
 -1      2222 2.27215E+01 4.37462E+01 0.00000E+00
 -1      2223 2.19598E+01 4.42178E+01 0.00000E+00
 -1      2224 2.37509E+01 4.48996E+01 0.00000E+00
 -1      2225 2.34423E+01 4.41936E+01 0.00000E+00
 -1      2226 6.47248E+00 3.01125E+01 0.00000E+00
 -1      2227 6.47248E+00 3.15875E+01 0.00000E+00
 -1      2228 6.47248E+00 3.30625E+01 0.00000E+00
 -1      2229 6.47248E+00 3.45375E+01 0.00000E+00
 -1      2230 7.74896E+00 3.23250E+01 0.00000E+00
 -1      2231 6.49500E+00 2.42125E+01 0.00000E+00
 -1      2232 6.49500E+00 2.56875E+01 0.00000E+00
 -1      2233 6.49500E+00 2.12625E+01 0.00000E+00
 -1      2234 6.49500E+00 2.27375E+01 0.00000E+00
 -1      2235 7.79400E+00 2.34750E+01 0.00000E+00
 -1      2236 6.49500E+00 1.83625E+01 0.00000E+00
 -1      2237 6.49500E+00 1.98125E+01 0.00000E+00
 -1      2238 7.79400E+00 2.05500E+01 0.00000E+00
 -1      2239 6.49500E+00 1.54125E+01 0.00000E+00
 -1      2240 6.49500E+00 1.68875E+01 0.00000E+00
 -1      2241 7.79400E+00 1.76250E+01 0.00000E+00
 -1      2242 6.49500E+00 1.24625E+01 0.00000E+00
 -1      2243 6.49500E+00 1.39375E+01 0.00000E+00
 -1      2244 7.79400E+00 1.46750E+01 0.00000E+00
 -1      2245 6.49500E+00 9.51250E+00 0.00000E+00
 -1      2246 6.49500E+00 1.09875E+01 0.00000E+00
 -1      2247 7.79400E+00 1.17250E+01 0.00000E+00
 -1      2248 6.49500E+00 6.56250E+00 0.00000E+00
 -1      2249 6.49500E+00 8.03750E+00 0.00000E+00
 -1      2250 7.79400E+00 8.77500E+00 0.00000E+00
 -1      2251 6.84975E+00 4.82969E+00 0.00000E+00
 -1      2252 6.68025E+00 5.73906E+00 0.00000E+00
 -1      2253 7.97925E+00 6.47656E+00 0.00000E+00
 -1      2254 8.34975E+00 4.82969E+00 0.00000E+00
 -1      2255 9.75000E+00 4.35050E+01 0.00000E+00
 -1      2256 1.12500E+01 4.35050E+01 0.00000E+00
 -1      2257 2.44875E+01 4.52680E+01 0.00000E+00
 -1      2258 3.39209E+01 2.79182E+01 0.00000E+00
 -1      2259 3.46935E+01 2.87572E+01 0.00000E+00
 -1      2260 1.82738E+01 4.40199E+01 0.00000E+00
 -1      2261 1.95366E+01 4.41568E+01 0.00000E+00
 -1      2262 2.15878E+01 4.51310E+01 0.00000E+00
 -1      2263 1.27500E+01 4.35050E+01 0.00000E+00
 -1      2264 1.42500E+01 4.35050E+01 0.00000E+00
 -1      2265 1.20000E+01 4.22060E+01 0.00000E+00
 -1      2266 1.55250E+01 4.35050E+01 0.00000E+00
 -1      2267 1.68000E+01 4.35050E+01 0.00000E+00
 -1      2268 1.47750E+01 4.22060E+01 0.00000E+00
 -1      2269 1.13497E+01 4.82969E+00 0.00000E+00
 -1      2270 9.84975E+00 4.82969E+00 0.00000E+00
 -1      2271 9.66450E+00 5.65312E+00 0.00000E+00
 -1      2272 3.71618E+01 3.60005E+01 0.00000E+00
 -1      2273 3.69757E+01 3.70306E+01 0.00000E+00
 -1      2274 3.76500E+01 4.38239E+01 0.00000E+00
 -1      2275 3.91500E+01 4.38239E+01 0.00000E+00
 -1      2276 4.06500E+01 4.38239E+01 0.00000E+00
 -1      2277 4.21500E+01 4.38239E+01 0.00000E+00
 -1      2278 3.99000E+01 4.26312E+01 0.00000E+00
 -1      2279 4.35750E+01 4.38239E+01 0.00000E+00
 -1      2280 4.50000E+01 4.38239E+01 0.00000E+00
 -1      2281 4.28250E+01 4.26312E+01 0.00000E+00
 -1      2282 4.65000E+01 4.38239E+01 0.00000E+00
 -1      2283 4.80000E+01 4.38239E+01 0.00000E+00
 -1      2284 4.57500E+01 4.26312E+01 0.00000E+00
 -1      2285 4.95000E+01 4.38239E+01 0.00000E+00
 -1      2286 5.10000E+01 4.38239E+01 0.00000E+00
 -1      2287 4.87500E+01 4.26312E+01 0.00000E+00
 -1      2288 5.25000E+01 4.38239E+01 0.00000E+00
 -1      2289 5.40000E+01 4.38239E+01 0.00000E+00
 -1      2290 5.17500E+01 4.26312E+01 0.00000E+00
 -1      2291 5.55000E+01 4.38239E+01 0.00000E+00
 -1      2292 5.70000E+01 4.38239E+01 0.00000E+00
 -1      2293 5.47500E+01 4.26312E+01 0.00000E+00
 -1      2294 5.85000E+01 4.38239E+01 0.00000E+00
 -1      2295 6.00000E+01 4.38239E+01 0.00000E+00
 -1      2296 5.77500E+01 4.26312E+01 0.00000E+00
 -1      2297 6.15000E+01 4.38239E+01 0.00000E+00
 -1      2298 6.30000E+01 4.38239E+01 0.00000E+00
 -1      2299 6.07500E+01 4.26312E+01 0.00000E+00
 -1      2300 6.44250E+01 4.38239E+01 0.00000E+00
 -1      2301 6.58500E+01 4.38239E+01 0.00000E+00
 -1      2302 6.36750E+01 4.26312E+01 0.00000E+00
 -1      2303 6.73500E+01 4.38239E+01 0.00000E+00
 -1      2304 6.88500E+01 4.38239E+01 0.00000E+00
 -1      2305 6.66000E+01 4.26312E+01 0.00000E+00
 -1      2306 7.03500E+01 4.38239E+01 0.00000E+00
 -1      2307 7.18500E+01 4.38239E+01 0.00000E+00
 -1      2308 6.96000E+01 4.26312E+01 0.00000E+00
 -1      2309 7.33500E+01 4.38239E+01 0.00000E+00
 -1      2310 7.48500E+01 4.38239E+01 0.00000E+00
 -1      2311 7.26000E+01 4.26312E+01 0.00000E+00
 -1      2312 7.63500E+01 4.38239E+01 0.00000E+00
 -1      2313 7.78500E+01 4.38239E+01 0.00000E+00
 -1      2314 7.56000E+01 4.26312E+01 0.00000E+00
 -1      2315 7.93500E+01 4.38239E+01 0.00000E+00
 -1      2316 8.08500E+01 4.38239E+01 0.00000E+00
 -1      2317 7.86000E+01 4.26312E+01 0.00000E+00
 -1      2318 8.23500E+01 4.38239E+01 0.00000E+00
 -1      2319 8.38500E+01 4.38239E+01 0.00000E+00
 -1      2320 8.16000E+01 4.26312E+01 0.00000E+00
 -1      2321 8.52750E+01 4.38239E+01 0.00000E+00
 -1      2322 8.67000E+01 4.38239E+01 0.00000E+00
 -1      2323 8.45250E+01 4.26312E+01 0.00000E+00
 -1      2324 8.82000E+01 4.38239E+01 0.00000E+00
 -1      2325 8.97000E+01 4.38239E+01 0.00000E+00
 -1      2326 8.74500E+01 4.26312E+01 0.00000E+00
 -1      2327 9.12000E+01 4.38239E+01 0.00000E+00
 -1      2328 9.27000E+01 4.38239E+01 0.00000E+00
 -1      2329 9.04500E+01 4.26312E+01 0.00000E+00
 -1      2330 9.42000E+01 4.38239E+01 0.00000E+00
 -1      2331 9.57000E+01 4.38239E+01 0.00000E+00
 -1      2332 9.34500E+01 4.26312E+01 0.00000E+00
 -1      2333 9.72000E+01 4.38239E+01 0.00000E+00
 -1      2334 9.87000E+01 4.38239E+01 0.00000E+00
 -1      2335 9.64500E+01 4.26312E+01 0.00000E+00
 -1      2336 1.00200E+02 4.38239E+01 0.00000E+00
 -1      2337 1.01700E+02 4.38239E+01 0.00000E+00
 -1      2338 9.94500E+01 4.26312E+01 0.00000E+00
 -1      2339 1.03200E+02 4.38239E+01 0.00000E+00
 -1      2340 1.04700E+02 4.38239E+01 0.00000E+00
 -1      2341 1.02450E+02 4.26312E+01 0.00000E+00
 -1      2342 1.06125E+02 4.38239E+01 0.00000E+00
 -1      2343 1.07550E+02 4.38239E+01 0.00000E+00
 -1      2344 1.05375E+02 4.26312E+01 0.00000E+00
 -1      2345 1.09050E+02 4.38239E+01 0.00000E+00
 -1      2346 1.10550E+02 4.38239E+01 0.00000E+00
 -1      2347 1.08300E+02 4.26312E+01 0.00000E+00
 -1      2348 1.12050E+02 4.38239E+01 0.00000E+00
 -1      2349 1.13550E+02 4.38239E+01 0.00000E+00
 -1      2350 1.11300E+02 4.26312E+01 0.00000E+00
 -1      2351 1.15050E+02 4.38239E+01 0.00000E+00
 -1      2352 1.16550E+02 4.38239E+01 0.00000E+00
 -1      2353 1.14300E+02 4.26312E+01 0.00000E+00
 -1      2354 1.18050E+02 4.38239E+01 0.00000E+00
 -1      2355 1.19550E+02 4.38239E+01 0.00000E+00
 -1      2356 1.17300E+02 4.26312E+01 0.00000E+00
 -1      2357 1.21050E+02 4.38239E+01 0.00000E+00
 -1      2358 1.22550E+02 4.38239E+01 0.00000E+00
 -1      2359 1.20300E+02 4.26312E+01 0.00000E+00
 -1      2360 1.24050E+02 4.38239E+01 0.00000E+00
 -1      2361 1.25550E+02 4.38239E+01 0.00000E+00
 -1      2362 1.23300E+02 4.26312E+01 0.00000E+00
 -1      2363 1.26975E+02 4.38239E+01 0.00000E+00
 -1      2364 1.28400E+02 4.38239E+01 0.00000E+00
 -1      2365 1.26225E+02 4.26312E+01 0.00000E+00
 -1      2366 1.29900E+02 4.38239E+01 0.00000E+00
 -1      2367 1.31400E+02 4.38239E+01 0.00000E+00
 -1      2368 1.29150E+02 4.26312E+01 0.00000E+00
 -1      2369 1.32900E+02 4.38239E+01 0.00000E+00
 -1      2370 1.34400E+02 4.38239E+01 0.00000E+00
 -1      2371 1.32150E+02 4.26312E+01 0.00000E+00
 -1      2372 1.35900E+02 4.38239E+01 0.00000E+00
 -1      2373 1.37400E+02 4.38239E+01 0.00000E+00
 -1      2374 1.35150E+02 4.26312E+01 0.00000E+00
 -1      2375 1.38900E+02 4.38239E+01 0.00000E+00
 -1      2376 1.40400E+02 4.38239E+01 0.00000E+00
 -1      2377 1.38150E+02 4.26312E+01 0.00000E+00
 -1      2378 1.41689E+02 4.34661E+01 0.00000E+00
 -1      2379 1.43189E+02 4.34661E+01 0.00000E+00
 -1      2380 1.43516E+02 4.15578E+01 0.00000E+00
 -1      2381 1.40939E+02 4.22734E+01 0.00000E+00
 -1      2382 1.67850E+01 5.30525E+00 0.00000E+00
 -1      2383 1.52850E+01 5.30525E+00 0.00000E+00
 -1      2384 1.40674E+01 5.06747E+00 0.00000E+00
 -1      2385 1.25674E+01 5.06747E+00 0.00000E+00
 -1      2386 1.23821E+01 5.89091E+00 0.00000E+00
 -1      2387 1.48174E+01 6.36647E+00 0.00000E+00
 -1      2388 2.27850E+01 5.30525E+00 0.00000E+00
 -1      2389 2.12850E+01 5.30525E+00 0.00000E+00
 -1      2390 2.57850E+01 5.30525E+00 0.00000E+00
 -1      2391 2.42850E+01 5.30525E+00 0.00000E+00
 -1      2392 2.35350E+01 6.60425E+00 0.00000E+00
 -1      2393 2.87850E+01 5.30525E+00 0.00000E+00
 -1      2394 2.72850E+01 5.30525E+00 0.00000E+00
 -1      2395 2.65350E+01 6.60425E+00 0.00000E+00
 -1      2396 3.17850E+01 5.30525E+00 0.00000E+00
 -1      2397 3.02850E+01 5.30525E+00 0.00000E+00
 -1      2398 2.95350E+01 6.60425E+00 0.00000E+00
 -1      2399 3.47850E+01 5.30525E+00 0.00000E+00
 -1      2400 3.32850E+01 5.30525E+00 0.00000E+00
 -1      2401 3.25350E+01 6.60425E+00 0.00000E+00
 -1      2402 3.77850E+01 5.30525E+00 0.00000E+00
 -1      2403 3.62850E+01 5.30525E+00 0.00000E+00
 -1      2404 3.55350E+01 6.60425E+00 0.00000E+00
 -1      2405 4.07850E+01 5.30525E+00 0.00000E+00
 -1      2406 3.92850E+01 5.30525E+00 0.00000E+00
 -1      2407 3.85350E+01 6.60425E+00 0.00000E+00
 -1      2408 4.37850E+01 5.30525E+00 0.00000E+00
 -1      2409 4.22850E+01 5.30525E+00 0.00000E+00
 -1      2410 4.15350E+01 6.60425E+00 0.00000E+00
 -1      2411 4.67850E+01 5.30525E+00 0.00000E+00
 -1      2412 4.52850E+01 5.30525E+00 0.00000E+00
 -1      2413 4.45350E+01 6.60425E+00 0.00000E+00
 -1      2414 4.97850E+01 5.30525E+00 0.00000E+00
 -1      2415 4.82850E+01 5.30525E+00 0.00000E+00
 -1      2416 4.75350E+01 6.60425E+00 0.00000E+00
 -1      2417 5.27850E+01 5.30525E+00 0.00000E+00
 -1      2418 5.12850E+01 5.30525E+00 0.00000E+00
 -1      2419 5.05350E+01 6.60425E+00 0.00000E+00
 -1      2420 5.57850E+01 5.30525E+00 0.00000E+00
 -1      2421 5.42850E+01 5.30525E+00 0.00000E+00
 -1      2422 5.35350E+01 6.60425E+00 0.00000E+00
 -1      2423 5.87850E+01 5.30525E+00 0.00000E+00
 -1      2424 5.72850E+01 5.30525E+00 0.00000E+00
 -1      2425 5.65350E+01 6.60425E+00 0.00000E+00
 -1      2426 6.17850E+01 5.30525E+00 0.00000E+00
 -1      2427 6.02850E+01 5.30525E+00 0.00000E+00
 -1      2428 5.95350E+01 6.60425E+00 0.00000E+00
 -1      2429 6.47850E+01 5.30525E+00 0.00000E+00
 -1      2430 6.32850E+01 5.30525E+00 0.00000E+00
 -1      2431 6.25350E+01 6.60425E+00 0.00000E+00
 -1      2432 6.77850E+01 5.30525E+00 0.00000E+00
 -1      2433 6.62850E+01 5.30525E+00 0.00000E+00
 -1      2434 6.55350E+01 6.60425E+00 0.00000E+00
 -1      2435 7.07850E+01 5.30525E+00 0.00000E+00
 -1      2436 6.92850E+01 5.30525E+00 0.00000E+00
 -1      2437 6.85350E+01 6.60425E+00 0.00000E+00
 -1      2438 7.37850E+01 5.30525E+00 0.00000E+00
 -1      2439 7.22850E+01 5.30525E+00 0.00000E+00
 -1      2440 7.15350E+01 6.60425E+00 0.00000E+00
 -1      2441 7.67850E+01 5.30525E+00 0.00000E+00
 -1      2442 7.52850E+01 5.30525E+00 0.00000E+00
 -1      2443 7.45350E+01 6.60425E+00 0.00000E+00
 -1      2444 7.97850E+01 5.30525E+00 0.00000E+00
 -1      2445 7.82850E+01 5.30525E+00 0.00000E+00
 -1      2446 7.75350E+01 6.60425E+00 0.00000E+00
 -1      2447 8.27850E+01 5.30525E+00 0.00000E+00
 -1      2448 8.12850E+01 5.30525E+00 0.00000E+00
 -1      2449 8.05350E+01 6.60425E+00 0.00000E+00
 -1      2450 8.57850E+01 5.30525E+00 0.00000E+00
 -1      2451 8.42850E+01 5.30525E+00 0.00000E+00
 -1      2452 8.35350E+01 6.60425E+00 0.00000E+00
 -1      2453 8.87850E+01 5.30525E+00 0.00000E+00
 -1      2454 8.72850E+01 5.30525E+00 0.00000E+00
 -1      2455 8.65350E+01 6.60425E+00 0.00000E+00
 -1      2456 9.17850E+01 5.30525E+00 0.00000E+00
 -1      2457 9.02850E+01 5.30525E+00 0.00000E+00
 -1      2458 8.95350E+01 6.60425E+00 0.00000E+00
 -1      2459 9.47850E+01 5.30525E+00 0.00000E+00
 -1      2460 9.32850E+01 5.30525E+00 0.00000E+00
 -1      2461 9.25350E+01 6.60425E+00 0.00000E+00
 -1      2462 9.77850E+01 5.30525E+00 0.00000E+00
 -1      2463 9.62850E+01 5.30525E+00 0.00000E+00
 -1      2464 9.55350E+01 6.60425E+00 0.00000E+00
 -1      2465 1.00785E+02 5.30525E+00 0.00000E+00
 -1      2466 9.92850E+01 5.30525E+00 0.00000E+00
 -1      2467 9.85350E+01 6.60425E+00 0.00000E+00
 -1      2468 1.03785E+02 5.30525E+00 0.00000E+00
 -1      2469 1.02285E+02 5.30525E+00 0.00000E+00
 -1      2470 1.01535E+02 6.60425E+00 0.00000E+00
 -1      2471 1.06785E+02 5.30525E+00 0.00000E+00
 -1      2472 1.05285E+02 5.30525E+00 0.00000E+00
 -1      2473 1.04535E+02 6.60425E+00 0.00000E+00
 -1      2474 1.09785E+02 5.30525E+00 0.00000E+00
 -1      2475 1.08285E+02 5.30525E+00 0.00000E+00
 -1      2476 1.07535E+02 6.60425E+00 0.00000E+00
 -1      2477 1.12785E+02 5.30525E+00 0.00000E+00
 -1      2478 1.11285E+02 5.30525E+00 0.00000E+00
 -1      2479 1.10535E+02 6.60425E+00 0.00000E+00
 -1      2480 1.15785E+02 5.30525E+00 0.00000E+00
 -1      2481 1.14285E+02 5.30525E+00 0.00000E+00
 -1      2482 1.13535E+02 6.60425E+00 0.00000E+00
 -1      2483 1.18785E+02 5.30525E+00 0.00000E+00
 -1      2484 1.17285E+02 5.30525E+00 0.00000E+00
 -1      2485 1.16535E+02 6.60425E+00 0.00000E+00
 -1      2486 1.21785E+02 5.30525E+00 0.00000E+00
 -1      2487 1.20285E+02 5.30525E+00 0.00000E+00
 -1      2488 1.19535E+02 6.60425E+00 0.00000E+00
 -1      2489 1.24785E+02 5.30525E+00 0.00000E+00
 -1      2490 1.23285E+02 5.30525E+00 0.00000E+00
 -1      2491 1.22535E+02 6.60425E+00 0.00000E+00
 -1      2492 1.27785E+02 5.30525E+00 0.00000E+00
 -1      2493 1.26285E+02 5.30525E+00 0.00000E+00
 -1      2494 1.25535E+02 6.60425E+00 0.00000E+00
 -1      2495 1.30785E+02 5.30525E+00 0.00000E+00
 -1      2496 1.29285E+02 5.30525E+00 0.00000E+00
 -1      2497 1.28535E+02 6.60425E+00 0.00000E+00
 -1      2498 1.33785E+02 5.30525E+00 0.00000E+00
 -1      2499 1.32285E+02 5.30525E+00 0.00000E+00
 -1      2500 1.31535E+02 6.60425E+00 0.00000E+00
 -1      2501 1.36785E+02 5.30525E+00 0.00000E+00
 -1      2502 1.35285E+02 5.30525E+00 0.00000E+00
 -1      2503 1.34535E+02 6.60425E+00 0.00000E+00
 -1      2504 1.39785E+02 5.30525E+00 0.00000E+00
 -1      2505 1.38285E+02 5.30525E+00 0.00000E+00
 -1      2506 1.37535E+02 6.60425E+00 0.00000E+00
 -1      2507 1.42785E+02 5.30525E+00 0.00000E+00
 -1      2508 1.41285E+02 5.30525E+00 0.00000E+00
 -1      2509 1.40535E+02 6.60425E+00 0.00000E+00
 -1      2510 1.44336E+02 5.26953E+00 0.00000E+00
 -1      2511 1.43505E+02 1.69125E+01 0.00000E+00
 -1      2512 1.43505E+02 1.54375E+01 0.00000E+00
 -1      2513 1.43505E+02 1.98625E+01 0.00000E+00
 -1      2514 1.43505E+02 1.83875E+01 0.00000E+00
 -1      2515 1.42206E+02 1.76500E+01 0.00000E+00
 -1      2516 1.43505E+02 1.10625E+01 0.00000E+00
 -1      2517 1.43505E+02 9.58750E+00 0.00000E+00
 -1      2518 1.43505E+02 1.39750E+01 0.00000E+00
 -1      2519 1.43505E+02 1.25250E+01 0.00000E+00
 -1      2520 1.42206E+02 1.17875E+01 0.00000E+00
 -1      2521 1.42206E+02 1.47125E+01 0.00000E+00
 -1      2522 1.43505E+02 2.28125E+01 0.00000E+00
 -1      2523 1.43505E+02 2.13375E+01 0.00000E+00
 -1      2524 1.42206E+02 2.06000E+01 0.00000E+00
 -1      2525 1.43505E+02 2.57625E+01 0.00000E+00
 -1      2526 1.43505E+02 2.42875E+01 0.00000E+00
 -1      2527 1.42206E+02 2.35500E+01 0.00000E+00
 -1      2528 1.43505E+02 2.87125E+01 0.00000E+00
 -1      2529 1.43505E+02 2.72375E+01 0.00000E+00
 -1      2530 1.42206E+02 2.65000E+01 0.00000E+00
 -1      2531 1.43505E+02 3.16125E+01 0.00000E+00
 -1      2532 1.43505E+02 3.01625E+01 0.00000E+00
 -1      2533 1.42206E+02 2.94250E+01 0.00000E+00
 -1      2534 1.43505E+02 3.45625E+01 0.00000E+00
 -1      2535 1.43505E+02 3.30875E+01 0.00000E+00
 -1      2536 1.42206E+02 3.23500E+01 0.00000E+00
 -1      2537 1.43505E+02 3.75125E+01 0.00000E+00
 -1      2538 1.43505E+02 3.60375E+01 0.00000E+00
 -1      2539 1.42206E+02 3.53000E+01 0.00000E+00
 -1      2540 1.43510E+02 4.02727E+01 0.00000E+00
 -1      2541 1.43510E+02 3.87977E+01 0.00000E+00
 -1      2542 1.42211E+02 3.80602E+01 0.00000E+00
 -1      2543 1.42222E+02 4.06305E+01 0.00000E+00
 -1      2544 2.61669E+01 2.49218E+01 0.00000E+00
 -1      2545 2.71771E+01 2.50468E+01 0.00000E+00
 -1      2546 3.54345E+01 2.96663E+01 0.00000E+00
 -1      2547 3.60042E+01 3.04732E+01 0.00000E+00
 -1      2548 6.52200E+00 4.28890E+01 0.00000E+00
 -1      2549 8.42400E+00 4.32410E+01 0.00000E+00
 -1      2550 9.17400E+00 4.19420E+01 0.00000E+00
 -1      2551 6.52200E+00 4.14140E+01 0.00000E+00
 -1      2552 3.64749E+01 3.17540E+01 0.00000E+00
 -1      2553 3.66363E+01 3.27743E+01 0.00000E+00
 -1      2554 1.71533E+01 3.96733E+01 0.00000E+00
 -1      2555 1.68931E+01 3.86811E+01 0.00000E+00
 -1      2556 1.97850E+01 5.30525E+00 0.00000E+00
 -1      2557 1.82850E+01 5.30525E+00 0.00000E+00
 -1      2558 1.75350E+01 6.60425E+00 0.00000E+00
 -1      2559 2.05350E+01 6.60425E+00 0.00000E+00
 -1      2560 3.46500E+01 4.39077E+01 0.00000E+00
 -1      2561 3.61500E+01 4.39077E+01 0.00000E+00
 -1      2562 2.96488E+01 4.52920E+01 0.00000E+00
 -1      2563 6.48374E+00 2.71625E+01 0.00000E+00
 -1      2564 6.48374E+00 2.86375E+01 0.00000E+00
 -1      2565 7.76022E+00 2.93750E+01 0.00000E+00
 -1      2566 7.78274E+00 2.64250E+01 0.00000E+00
 -1      2567 2.80817E+01 2.51589E+01 0.00000E+00
 -1      2568 2.89864E+01 2.52710E+01 0.00000E+00
 -1      2569 2.76820E+01 2.42453E+01 0.00000E+00
 -1      2570 3.23587E+01 2.65679E+01 0.00000E+00
 -1      2571 3.30759E+01 2.70574E+01 0.00000E+00
 -1      2572 3.02521E+01 2.56285E+01 0.00000E+00
 -1      2573 3.12938E+01 2.60865E+01 0.00000E+00
 -1      2574 2.16435E+01 2.64338E+01 0.00000E+00
 -1      2575 2.25286E+01 2.59958E+01 0.00000E+00
 -1      2576 1.98753E+01 2.75972E+01 0.00000E+00
 -1      2577 2.06620E+01 2.69952E+01 0.00000E+00
 -1      2578 1.83426E+01 2.91565E+01 0.00000E+00
 -1      2579 1.90305E+01 2.83842E+01 0.00000E+00
 -1      2580 1.71259E+01 3.12500E+01 0.00000E+00
 -1      2581 1.75683E+01 3.02278E+01 0.00000E+00
 -1      2582 1.65307E+01 3.32434E+01 0.00000E+00
 -1      2583 1.68117E+01 3.23305E+01 0.00000E+00
 -1      2584 1.60548E+01 3.52709E+01 0.00000E+00
 -1      2585 1.62064E+01 3.42881E+01 0.00000E+00
 -1      2586 1.65507E+01 3.76333E+01 0.00000E+00
 -1      2587 1.62082E+01 3.65855E+01 0.00000E+00
 -1      2588 1.59323E+01 3.83257E+01 0.00000E+00
 -1      2589 1.79805E+01 4.15546E+01 0.00000E+00
 -1      2590 1.75399E+01 4.07652E+01 0.00000E+00
 -1      2591 1.99086E+01 4.32436E+01 0.00000E+00
 -1      2592 1.89553E+01 4.23938E+01 0.00000E+00
 -1      2593 3.50062E+01 4.18760E+01 0.00000E+00
 -1      2594 3.42666E+01 4.25672E+01 0.00000E+00
 -1      2595 3.59618E+01 3.98797E+01 0.00000E+00
 -1      2596 3.55617E+01 4.08102E+01 0.00000E+00
 -1      2597 3.64780E+01 3.80154E+01 0.00000E+00
 -1      2598 3.62062E+01 3.88724E+01 0.00000E+00
 -1      2599 3.68449E+01 3.37274E+01 0.00000E+00
 -1      2600 3.70536E+01 3.46804E+01 0.00000E+00
 -1      2601 3.75699E+01 3.30898E+01 0.00000E+00
 -1      2602 7.74896E+00 3.52687E+01 0.00000E+00
 -1      2603 6.47248E+00 3.60062E+01 0.00000E+00
 -1      2604 6.47248E+00 3.74750E+01 0.00000E+00
 -1      2605 3.68905E+01 3.08559E+01 0.00000E+00
 -1      2606 3.74975E+01 3.76678E+01 0.00000E+00
 -1      2607 3.40930E+01 2.68960E+01 0.00000E+00
 -1      2608 3.56789E+01 2.86659E+01 0.00000E+00
 -1      2609 2.04476E+01 4.41646E+01 0.00000E+00
 -1      2610 3.13562E+01 4.44637E+01 0.00000E+00
 -1      2611 3.27812E+01 4.42124E+01 0.00000E+00
 -1      2612 3.78868E+01 3.53629E+01 0.00000E+00
 -1      2613 3.69000E+01 4.27150E+01 0.00000E+00
 -1      2614 1.43586E+02 6.56853E+00 0.00000E+00
 -1      2615 1.43419E+02 7.72713E+00 0.00000E+00
 -1      2616 2.54723E+01 2.45312E+01 0.00000E+00
 -1      2617 2.60827E+01 2.37427E+01 0.00000E+00
 -1      2618 2.47777E+01 2.41406E+01 0.00000E+00
 -1      2619 3.35166E+01 4.36761E+01 0.00000E+00
 -1      2620 1.42120E+02 8.46463E+00 0.00000E+00
 -1      2621 3.05436E+01 4.49528E+01 0.00000E+00
 -1      2622 6.49724E+00 3.87101E+01 0.00000E+00
 -1      2623 6.49724E+00 4.01789E+01 0.00000E+00
 -1      2624 7.82324E+00 4.04429E+01 0.00000E+00
 -1      2625 7.77372E+00 3.79726E+01 0.00000E+00
 -1      2626 1.66614E+01 4.04654E+01 0.00000E+00
 -1      2627 3.67554E+01 3.96598E+01 0.00000E+00
 -1      2628 1.54365E+01 3.59633E+01 0.00000E+00
 -1      2629 1.56074E+01 3.36040E+01 0.00000E+00
 -1      2630 1.62459E+01 3.14788E+01 0.00000E+00
 -1      2631 1.73344E+01 2.93270E+01 0.00000E+00
 -1      2632 1.89536E+01 2.74688E+01 0.00000E+00
 -1      2633 2.29644E+01 2.52440E+01 0.00000E+00
 -1      2634 2.34001E+01 2.44922E+01 0.00000E+00
 -1      2635 2.21972E+01 2.48070E+01 0.00000E+00
 -1      2636 2.07799E+01 2.61203E+01 0.00000E+00
 -1      2637 2.98524E+01 2.47150E+01 0.00000E+00
 -1      2638 3.21831E+01 2.55539E+01 0.00000E+00
 -1      2639 1.80228E+01 4.23966E+01 0.00000E+00
 -1      2640 3.59555E+01 4.17330E+01 0.00000E+00
 -1      2641 9.09300E+00 1.98250E+01 0.00000E+00
 -1      2642 9.09300E+00 2.12750E+01 0.00000E+00
 -1      2643 9.09300E+00 2.27500E+01 0.00000E+00
 -1      2644 9.09300E+00 2.42250E+01 0.00000E+00
 -1      2645 1.03920E+01 2.20250E+01 0.00000E+00
 -1      2646 9.09300E+00 1.39375E+01 0.00000E+00
 -1      2647 9.09300E+00 1.54125E+01 0.00000E+00
 -1      2648 9.09300E+00 1.09875E+01 0.00000E+00
 -1      2649 9.09300E+00 1.24625E+01 0.00000E+00
 -1      2650 1.03920E+01 1.32000E+01 0.00000E+00
 -1      2651 9.09300E+00 8.03750E+00 0.00000E+00
 -1      2652 9.09300E+00 9.51250E+00 0.00000E+00
 -1      2653 1.03920E+01 1.02500E+01 0.00000E+00
 -1      2654 9.47138E+00 6.43359E+00 0.00000E+00
 -1      2655 9.28613E+00 7.25703E+00 0.00000E+00
 -1      2656 1.05851E+01 7.99453E+00 0.00000E+00
 -1      2657 1.09714E+01 6.43359E+00 0.00000E+00
 -1      2658 1.75238E+01 4.27209E+01 0.00000E+00
 -1      2659 1.12500E+01 4.10971E+01 0.00000E+00
 -1      2660 1.27500E+01 4.10971E+01 0.00000E+00
 -1      2661 2.72850E+01 7.90325E+00 0.00000E+00
 -1      2662 2.57850E+01 7.90325E+00 0.00000E+00
 -1      2663 3.86874E+01 3.46328E+01 0.00000E+00
 -1      2664 3.87957E+01 3.59528E+01 0.00000E+00
 -1      2665 3.61681E+01 2.75108E+01 0.00000E+00
 -1      2666 3.69090E+01 2.84200E+01 0.00000E+00
 -1      2667 4.21125E+01 4.13547E+01 0.00000E+00
 -1      2668 4.35375E+01 4.13547E+01 0.00000E+00
 -1      2669 4.50375E+01 4.13547E+01 0.00000E+00
 -1      2670 4.65375E+01 4.13547E+01 0.00000E+00
 -1      2671 4.43250E+01 4.00783E+01 0.00000E+00
 -1      2672 4.80375E+01 4.13547E+01 0.00000E+00
 -1      2673 4.95375E+01 4.13547E+01 0.00000E+00
 -1      2674 4.73250E+01 4.00783E+01 0.00000E+00
 -1      2675 5.10375E+01 4.13547E+01 0.00000E+00
 -1      2676 5.25375E+01 4.13547E+01 0.00000E+00
 -1      2677 5.03250E+01 4.00783E+01 0.00000E+00
 -1      2678 5.40375E+01 4.13547E+01 0.00000E+00
 -1      2679 5.55375E+01 4.13547E+01 0.00000E+00
 -1      2680 5.33250E+01 4.00783E+01 0.00000E+00
 -1      2681 5.70375E+01 4.13547E+01 0.00000E+00
 -1      2682 5.85375E+01 4.13547E+01 0.00000E+00
 -1      2683 5.63250E+01 4.00783E+01 0.00000E+00
 -1      2684 6.00375E+01 4.13547E+01 0.00000E+00
 -1      2685 6.15375E+01 4.13547E+01 0.00000E+00
 -1      2686 5.93250E+01 4.00783E+01 0.00000E+00
 -1      2687 6.29625E+01 4.13547E+01 0.00000E+00
 -1      2688 6.43875E+01 4.13547E+01 0.00000E+00
 -1      2689 6.22500E+01 4.00783E+01 0.00000E+00
 -1      2690 6.58875E+01 4.13547E+01 0.00000E+00
 -1      2691 6.73875E+01 4.13547E+01 0.00000E+00
 -1      2692 6.51750E+01 4.00783E+01 0.00000E+00
 -1      2693 6.88875E+01 4.13547E+01 0.00000E+00
 -1      2694 7.03875E+01 4.13547E+01 0.00000E+00
 -1      2695 6.81750E+01 4.00783E+01 0.00000E+00
 -1      2696 7.18875E+01 4.13547E+01 0.00000E+00
 -1      2697 7.33875E+01 4.13547E+01 0.00000E+00
 -1      2698 7.11750E+01 4.00783E+01 0.00000E+00
 -1      2699 7.48875E+01 4.13547E+01 0.00000E+00
 -1      2700 7.63875E+01 4.13547E+01 0.00000E+00
 -1      2701 7.41750E+01 4.00783E+01 0.00000E+00
 -1      2702 7.78875E+01 4.13547E+01 0.00000E+00
 -1      2703 7.93875E+01 4.13547E+01 0.00000E+00
 -1      2704 7.71750E+01 4.00783E+01 0.00000E+00
 -1      2705 8.08875E+01 4.13547E+01 0.00000E+00
 -1      2706 8.23875E+01 4.13547E+01 0.00000E+00
 -1      2707 8.01750E+01 4.00783E+01 0.00000E+00
 -1      2708 8.38125E+01 4.13547E+01 0.00000E+00
 -1      2709 8.52375E+01 4.13547E+01 0.00000E+00
 -1      2710 8.31000E+01 4.00783E+01 0.00000E+00
 -1      2711 8.67375E+01 4.13547E+01 0.00000E+00
 -1      2712 8.82375E+01 4.13547E+01 0.00000E+00
 -1      2713 8.60250E+01 4.00783E+01 0.00000E+00
 -1      2714 8.97375E+01 4.13547E+01 0.00000E+00
 -1      2715 9.12375E+01 4.13547E+01 0.00000E+00
 -1      2716 8.90250E+01 4.00783E+01 0.00000E+00
 -1      2717 9.27375E+01 4.13547E+01 0.00000E+00
 -1      2718 9.42375E+01 4.13547E+01 0.00000E+00
 -1      2719 9.20250E+01 4.00783E+01 0.00000E+00
 -1      2720 9.57375E+01 4.13547E+01 0.00000E+00
 -1      2721 9.72375E+01 4.13547E+01 0.00000E+00
 -1      2722 9.50250E+01 4.00783E+01 0.00000E+00
 -1      2723 9.87375E+01 4.13547E+01 0.00000E+00
 -1      2724 1.00238E+02 4.13547E+01 0.00000E+00
 -1      2725 9.80250E+01 4.00783E+01 0.00000E+00
 -1      2726 1.01738E+02 4.13547E+01 0.00000E+00
 -1      2727 1.03238E+02 4.13547E+01 0.00000E+00
 -1      2728 1.01025E+02 4.00783E+01 0.00000E+00
 -1      2729 1.04662E+02 4.13547E+01 0.00000E+00
 -1      2730 1.06088E+02 4.13547E+01 0.00000E+00
 -1      2731 1.03950E+02 4.00783E+01 0.00000E+00
 -1      2732 1.07588E+02 4.13547E+01 0.00000E+00
 -1      2733 1.09088E+02 4.13547E+01 0.00000E+00
 -1      2734 1.06875E+02 4.00783E+01 0.00000E+00
 -1      2735 1.10588E+02 4.13547E+01 0.00000E+00
 -1      2736 1.12088E+02 4.13547E+01 0.00000E+00
 -1      2737 1.09875E+02 4.00783E+01 0.00000E+00
 -1      2738 1.13588E+02 4.13547E+01 0.00000E+00
 -1      2739 1.15088E+02 4.13547E+01 0.00000E+00
 -1      2740 1.12875E+02 4.00783E+01 0.00000E+00
 -1      2741 1.16588E+02 4.13547E+01 0.00000E+00
 -1      2742 1.18088E+02 4.13547E+01 0.00000E+00
 -1      2743 1.15875E+02 4.00783E+01 0.00000E+00
 -1      2744 1.19588E+02 4.13547E+01 0.00000E+00
 -1      2745 1.21088E+02 4.13547E+01 0.00000E+00
 -1      2746 1.18875E+02 4.00783E+01 0.00000E+00
 -1      2747 1.22588E+02 4.13547E+01 0.00000E+00
 -1      2748 1.24088E+02 4.13547E+01 0.00000E+00
 -1      2749 1.21875E+02 4.00783E+01 0.00000E+00
 -1      2750 1.25512E+02 4.13547E+01 0.00000E+00
 -1      2751 1.26938E+02 4.13547E+01 0.00000E+00
 -1      2752 1.24800E+02 4.00783E+01 0.00000E+00
 -1      2753 1.28438E+02 4.13547E+01 0.00000E+00
 -1      2754 1.29938E+02 4.13547E+01 0.00000E+00
 -1      2755 1.27725E+02 4.00783E+01 0.00000E+00
 -1      2756 1.31438E+02 4.13547E+01 0.00000E+00
 -1      2757 1.32938E+02 4.13547E+01 0.00000E+00
 -1      2758 1.30725E+02 4.00783E+01 0.00000E+00
 -1      2759 1.34438E+02 4.13547E+01 0.00000E+00
 -1      2760 1.35938E+02 4.13547E+01 0.00000E+00
 -1      2761 1.33725E+02 4.00783E+01 0.00000E+00
 -1      2762 1.37438E+02 4.13547E+01 0.00000E+00
 -1      2763 1.38938E+02 4.13547E+01 0.00000E+00
 -1      2764 1.36725E+02 4.00783E+01 0.00000E+00
 -1      2765 1.39935E+02 4.11715E+01 0.00000E+00
 -1      2766 1.41224E+02 4.08137E+01 0.00000E+00
 -1      2767 1.41219E+02 3.95285E+01 0.00000E+00
 -1      2768 1.39223E+02 3.98950E+01 0.00000E+00
 -1      2769 3.02850E+01 7.90325E+00 0.00000E+00
 -1      2770 2.87850E+01 7.90325E+00 0.00000E+00
 -1      2771 2.80350E+01 9.20225E+00 0.00000E+00
 -1      2772 2.42850E+01 7.90325E+00 0.00000E+00
 -1      2773 2.27850E+01 7.90325E+00 0.00000E+00
 -1      2774 2.50350E+01 9.20225E+00 0.00000E+00
 -1      2775 3.32850E+01 7.90325E+00 0.00000E+00
 -1      2776 3.17850E+01 7.90325E+00 0.00000E+00
 -1      2777 3.10350E+01 9.20225E+00 0.00000E+00
 -1      2778 3.62850E+01 7.90325E+00 0.00000E+00
 -1      2779 3.47850E+01 7.90325E+00 0.00000E+00
 -1      2780 3.40350E+01 9.20225E+00 0.00000E+00
 -1      2781 3.92850E+01 7.90325E+00 0.00000E+00
 -1      2782 3.77850E+01 7.90325E+00 0.00000E+00
 -1      2783 3.70350E+01 9.20225E+00 0.00000E+00
 -1      2784 4.22850E+01 7.90325E+00 0.00000E+00
 -1      2785 4.07850E+01 7.90325E+00 0.00000E+00
 -1      2786 4.00350E+01 9.20225E+00 0.00000E+00
 -1      2787 4.52850E+01 7.90325E+00 0.00000E+00
 -1      2788 4.37850E+01 7.90325E+00 0.00000E+00
 -1      2789 4.30350E+01 9.20225E+00 0.00000E+00
 -1      2790 4.82850E+01 7.90325E+00 0.00000E+00
 -1      2791 4.67850E+01 7.90325E+00 0.00000E+00
 -1      2792 4.60350E+01 9.20225E+00 0.00000E+00
 -1      2793 5.12850E+01 7.90325E+00 0.00000E+00
 -1      2794 4.97850E+01 7.90325E+00 0.00000E+00
 -1      2795 4.90350E+01 9.20225E+00 0.00000E+00
 -1      2796 5.42850E+01 7.90325E+00 0.00000E+00
 -1      2797 5.27850E+01 7.90325E+00 0.00000E+00
 -1      2798 5.20350E+01 9.20225E+00 0.00000E+00
 -1      2799 5.72850E+01 7.90325E+00 0.00000E+00
 -1      2800 5.57850E+01 7.90325E+00 0.00000E+00
 -1      2801 5.50350E+01 9.20225E+00 0.00000E+00
 -1      2802 6.02850E+01 7.90325E+00 0.00000E+00
 -1      2803 5.87850E+01 7.90325E+00 0.00000E+00
 -1      2804 5.80350E+01 9.20225E+00 0.00000E+00
 -1      2805 6.32850E+01 7.90325E+00 0.00000E+00
 -1      2806 6.17850E+01 7.90325E+00 0.00000E+00
 -1      2807 6.10350E+01 9.20225E+00 0.00000E+00
 -1      2808 6.62850E+01 7.90325E+00 0.00000E+00
 -1      2809 6.47850E+01 7.90325E+00 0.00000E+00
 -1      2810 6.40350E+01 9.20225E+00 0.00000E+00
 -1      2811 6.92850E+01 7.90325E+00 0.00000E+00
 -1      2812 6.77850E+01 7.90325E+00 0.00000E+00
 -1      2813 6.70350E+01 9.20225E+00 0.00000E+00
 -1      2814 7.22850E+01 7.90325E+00 0.00000E+00
 -1      2815 7.07850E+01 7.90325E+00 0.00000E+00
 -1      2816 7.00350E+01 9.20225E+00 0.00000E+00
 -1      2817 7.52850E+01 7.90325E+00 0.00000E+00
 -1      2818 7.37850E+01 7.90325E+00 0.00000E+00
 -1      2819 7.30350E+01 9.20225E+00 0.00000E+00
 -1      2820 7.82850E+01 7.90325E+00 0.00000E+00
 -1      2821 7.67850E+01 7.90325E+00 0.00000E+00
 -1      2822 7.60350E+01 9.20225E+00 0.00000E+00
 -1      2823 8.12850E+01 7.90325E+00 0.00000E+00
 -1      2824 7.97850E+01 7.90325E+00 0.00000E+00
 -1      2825 7.90350E+01 9.20225E+00 0.00000E+00
 -1      2826 8.42850E+01 7.90325E+00 0.00000E+00
 -1      2827 8.27850E+01 7.90325E+00 0.00000E+00
 -1      2828 8.20350E+01 9.20225E+00 0.00000E+00
 -1      2829 8.72850E+01 7.90325E+00 0.00000E+00
 -1      2830 8.57850E+01 7.90325E+00 0.00000E+00
 -1      2831 8.50350E+01 9.20225E+00 0.00000E+00
 -1      2832 9.02850E+01 7.90325E+00 0.00000E+00
 -1      2833 8.87850E+01 7.90325E+00 0.00000E+00
 -1      2834 8.80350E+01 9.20225E+00 0.00000E+00
 -1      2835 9.32850E+01 7.90325E+00 0.00000E+00
 -1      2836 9.17850E+01 7.90325E+00 0.00000E+00
 -1      2837 9.10350E+01 9.20225E+00 0.00000E+00
 -1      2838 9.62850E+01 7.90325E+00 0.00000E+00
 -1      2839 9.47850E+01 7.90325E+00 0.00000E+00
 -1      2840 9.40350E+01 9.20225E+00 0.00000E+00
 -1      2841 9.92850E+01 7.90325E+00 0.00000E+00
 -1      2842 9.77850E+01 7.90325E+00 0.00000E+00
 -1      2843 9.70350E+01 9.20225E+00 0.00000E+00
 -1      2844 1.02285E+02 7.90325E+00 0.00000E+00
 -1      2845 1.00785E+02 7.90325E+00 0.00000E+00
 -1      2846 1.00035E+02 9.20225E+00 0.00000E+00
 -1      2847 1.05285E+02 7.90325E+00 0.00000E+00
 -1      2848 1.03785E+02 7.90325E+00 0.00000E+00
 -1      2849 1.03035E+02 9.20225E+00 0.00000E+00
 -1      2850 1.08285E+02 7.90325E+00 0.00000E+00
 -1      2851 1.06785E+02 7.90325E+00 0.00000E+00
 -1      2852 1.06035E+02 9.20225E+00 0.00000E+00
 -1      2853 1.11285E+02 7.90325E+00 0.00000E+00
 -1      2854 1.09785E+02 7.90325E+00 0.00000E+00
 -1      2855 1.09035E+02 9.20225E+00 0.00000E+00
 -1      2856 1.14285E+02 7.90325E+00 0.00000E+00
 -1      2857 1.12785E+02 7.90325E+00 0.00000E+00
 -1      2858 1.12035E+02 9.20225E+00 0.00000E+00
 -1      2859 1.17285E+02 7.90325E+00 0.00000E+00
 -1      2860 1.15785E+02 7.90325E+00 0.00000E+00
 -1      2861 1.15035E+02 9.20225E+00 0.00000E+00
 -1      2862 1.20285E+02 7.90325E+00 0.00000E+00
 -1      2863 1.18785E+02 7.90325E+00 0.00000E+00
 -1      2864 1.18035E+02 9.20225E+00 0.00000E+00
 -1      2865 1.23285E+02 7.90325E+00 0.00000E+00
 -1      2866 1.21785E+02 7.90325E+00 0.00000E+00
 -1      2867 1.21035E+02 9.20225E+00 0.00000E+00
 -1      2868 1.26285E+02 7.90325E+00 0.00000E+00
 -1      2869 1.24785E+02 7.90325E+00 0.00000E+00
 -1      2870 1.24035E+02 9.20225E+00 0.00000E+00
 -1      2871 1.29285E+02 7.90325E+00 0.00000E+00
 -1      2872 1.27785E+02 7.90325E+00 0.00000E+00
 -1      2873 1.27035E+02 9.20225E+00 0.00000E+00
 -1      2874 1.32285E+02 7.90325E+00 0.00000E+00
 -1      2875 1.30785E+02 7.90325E+00 0.00000E+00
 -1      2876 1.30035E+02 9.20225E+00 0.00000E+00
 -1      2877 1.35285E+02 7.90325E+00 0.00000E+00
 -1      2878 1.33785E+02 7.90325E+00 0.00000E+00
 -1      2879 1.33035E+02 9.20225E+00 0.00000E+00
 -1      2880 1.38285E+02 7.90325E+00 0.00000E+00
 -1      2881 1.36785E+02 7.90325E+00 0.00000E+00
 -1      2882 1.36035E+02 9.20225E+00 0.00000E+00
 -1      2883 1.40953E+02 8.18394E+00 0.00000E+00
 -1      2884 1.39453E+02 8.18394E+00 0.00000E+00
 -1      2885 1.38703E+02 9.48294E+00 0.00000E+00
 -1      2886 1.41038E+02 1.00443E+01 0.00000E+00
 -1      2887 1.40907E+02 2.42875E+01 0.00000E+00
 -1      2888 1.40907E+02 2.28125E+01 0.00000E+00
 -1      2889 1.40907E+02 1.83875E+01 0.00000E+00
 -1      2890 1.40907E+02 1.69125E+01 0.00000E+00
 -1      2891 1.40907E+02 2.72375E+01 0.00000E+00
 -1      2892 1.40907E+02 2.57625E+01 0.00000E+00
 -1      2893 1.39608E+02 2.50250E+01 0.00000E+00
 -1      2894 1.40907E+02 2.13375E+01 0.00000E+00
 -1      2895 1.40907E+02 1.98625E+01 0.00000E+00
 -1      2896 1.39608E+02 1.91250E+01 0.00000E+00
 -1      2897 1.39608E+02 2.20750E+01 0.00000E+00
 -1      2898 1.40907E+02 3.01375E+01 0.00000E+00
 -1      2899 1.40907E+02 2.86875E+01 0.00000E+00
 -1      2900 1.39608E+02 2.79500E+01 0.00000E+00
 -1      2901 1.40907E+02 3.30875E+01 0.00000E+00
 -1      2902 1.40907E+02 3.16125E+01 0.00000E+00
 -1      2903 1.39608E+02 3.08750E+01 0.00000E+00
 -1      2904 1.40907E+02 3.60375E+01 0.00000E+00
 -1      2905 1.40907E+02 3.45625E+01 0.00000E+00
 -1      2906 1.39608E+02 3.38250E+01 0.00000E+00
 -1      2907 3.85864E+01 3.75999E+01 0.00000E+00
 -1      2908 3.80888E+01 3.85847E+01 0.00000E+00
 -1      2909 8.87362E+00 4.06380E+01 0.00000E+00
 -1      2910 1.01996E+01 4.09020E+01 0.00000E+00
 -1      2911 1.09496E+01 3.97931E+01 0.00000E+00
 -1      2912 8.84886E+00 3.94029E+01 0.00000E+00
 -1      2913 3.75388E+01 2.98908E+01 0.00000E+00
 -1      2914 3.80095E+01 3.11716E+01 0.00000E+00
 -1      2915 3.78444E+01 3.95920E+01 0.00000E+00
 -1      2916 3.76001E+01 4.05993E+01 0.00000E+00
 -1      2917 3.89334E+01 3.95242E+01 0.00000E+00
 -1      2918 3.83033E+01 3.24299E+01 0.00000E+00
 -1      2919 3.85119E+01 3.33829E+01 0.00000E+00
 -1      2920 1.53282E+01 3.91030E+01 0.00000E+00
 -1      2921 1.49858E+01 3.80552E+01 0.00000E+00
 -1      2922 3.85445E+01 4.15813E+01 0.00000E+00
 -1      2923 4.00445E+01 4.15813E+01 0.00000E+00
 -1      2924 3.20728E+01 2.43790E+01 0.00000E+00
 -1      2925 3.31378E+01 2.48604E+01 0.00000E+00
 -1      2926 1.98217E+01 2.55839E+01 0.00000E+00
 -1      2927 2.08033E+01 2.50225E+01 0.00000E+00
 -1      2928 2.94754E+01 2.36303E+01 0.00000E+00
 -1      2929 3.07411E+01 2.39879E+01 0.00000E+00
 -1      2930 1.78324E+01 2.71121E+01 0.00000E+00
 -1      2931 1.86772E+01 2.63252E+01 0.00000E+00
 -1      2932 1.61165E+01 2.92621E+01 0.00000E+00
 -1      2933 1.68908E+01 2.81908E+01 0.00000E+00
 -1      2934 1.52653E+01 3.17796E+01 0.00000E+00
 -1      2935 1.55795E+01 3.06991E+01 0.00000E+00
 -1      2936 1.46168E+01 3.38690E+01 0.00000E+00
 -1      2937 1.49410E+01 3.28243E+01 0.00000E+00
 -1      2938 1.42747E+01 3.20446E+01 0.00000E+00
 -1      2939 3.74555E+01 4.16492E+01 0.00000E+00
 -1      2940 2.73351E+01 2.33382E+01 0.00000E+00
 -1      2941 2.82398E+01 2.34503E+01 0.00000E+00
 -1      2942 9.09300E+00 1.68813E+01 0.00000E+00
 -1      2943 9.09300E+00 1.83563E+01 0.00000E+00
 -1      2944 1.03920E+01 1.90812E+01 0.00000E+00
 -1      2945 1.03920E+01 1.61437E+01 0.00000E+00
 -1      2946 9.04796E+00 3.15875E+01 0.00000E+00
 -1      2947 9.04796E+00 3.30625E+01 0.00000E+00
 -1      2948 3.44781E+01 2.57892E+01 0.00000E+00
 -1      2949 3.53231E+01 2.66500E+01 0.00000E+00
 -1      2950 3.65532E+01 2.64041E+01 0.00000E+00
 -1      2951 1.46614E+01 3.67200E+01 0.00000E+00
 -1      2952 1.45080E+01 3.54054E+01 0.00000E+00
 -1      2953 1.03807E+01 2.49750E+01 0.00000E+00
 -1      2954 9.08174E+00 2.57000E+01 0.00000E+00
 -1      2955 9.07048E+00 2.71750E+01 0.00000E+00
 -1      2956 2.20350E+01 9.20225E+00 0.00000E+00
 -1      2957 2.12850E+01 7.90325E+00 0.00000E+00
 -1      2958 1.97850E+01 7.90325E+00 0.00000E+00
 -1      2959 3.94208E+01 3.39729E+01 0.00000E+00
 -1      2960 3.80279E+01 2.87357E+01 0.00000E+00
 -1      2961 1.41375E+01 4.12647E+01 0.00000E+00
 -1      2962 1.54125E+01 4.12647E+01 0.00000E+00
 -1      2963 4.01875E+01 3.61396E+01 0.00000E+00
 -1      2964 3.93870E+01 3.68698E+01 0.00000E+00
 -1      2965 3.99783E+01 3.77867E+01 0.00000E+00
 -1      2966 3.16958E+01 2.32944E+01 0.00000E+00
 -1      2967 1.51772E+01 7.76028E+00 0.00000E+00
 -1      2968 1.39596E+01 7.52250E+00 0.00000E+00
 -1      2969 1.41038E+02 1.15068E+01 0.00000E+00
 -1      2970 1.39870E+02 1.12261E+01 0.00000E+00
 -1      2971 1.41038E+02 1.29693E+01 0.00000E+00
 -1      2972 1.55249E+01 3.98484E+01 0.00000E+00
 -1      2973 1.45784E+01 3.95779E+01 0.00000E+00
 -1      2974 2.40105E+01 2.37037E+01 0.00000E+00
 -1      2975 2.46209E+01 2.29151E+01 0.00000E+00
 -1      2976 2.32434E+01 2.32667E+01 0.00000E+00
 -1      2977 1.41065E+02 3.84256E+01 0.00000E+00
 -1      2978 1.41060E+02 3.71404E+01 0.00000E+00
 -1      2979 1.39761E+02 3.64029E+01 0.00000E+00
 -1      2980 1.40068E+02 3.86088E+01 0.00000E+00
 -1      2981 1.38417E+01 3.46257E+01 0.00000E+00
 -1      2982 1.31753E+01 3.38460E+01 0.00000E+00
 -1      2983 1.30666E+01 3.53824E+01 0.00000E+00
 -1      2984 3.89515E+01 3.14648E+01 0.00000E+00
 -1      2985 1.40573E+01 3.74973E+01 0.00000E+00
 -1      2986 4.07570E+01 4.03049E+01 0.00000E+00
 -1      2987 1.82850E+01 7.90325E+00 0.00000E+00
 -1      2988 1.67850E+01 7.90325E+00 0.00000E+00
 -1      2989 1.90350E+01 9.20225E+00 0.00000E+00
 -1      2990 1.51359E+01 2.95629E+01 0.00000E+00
 -1      2991 1.66145E+01 2.70472E+01 0.00000E+00
 -1      2992 2.91285E+01 2.27232E+01 0.00000E+00
 -1      2993 1.87006E+01 2.52273E+01 0.00000E+00
 -1      2994 2.12390E+01 2.42707E+01 0.00000E+00
 -1      2995 2.16748E+01 2.35189E+01 0.00000E+00
 -1      2996 2.02809E+01 2.37343E+01 0.00000E+00
 -1      2997 1.40973E+02 1.56722E+01 0.00000E+00
 -1      2998 1.40973E+02 1.42097E+01 0.00000E+00
 -1      2999 1.39805E+02 1.39290E+01 0.00000E+00
 -1      3000 1.39674E+02 1.64097E+01 0.00000E+00
 -1      3001 3.43678E+01 2.46144E+01 0.00000E+00
 -1      3002 1.59272E+01 9.05928E+00 0.00000E+00
 -1      3003 9.06485E+00 2.86437E+01 0.00000E+00
 -1      3004 9.05359E+00 3.01187E+01 0.00000E+00
 -1      3005 1.03526E+01 3.08563E+01 0.00000E+00
 -1      3006 1.03639E+01 2.79188E+01 0.00000E+00
 -1      3007 1.59115E+01 4.09404E+01 0.00000E+00
 -1      3008 2.59459E+01 2.25571E+01 0.00000E+00
 -1      3009 2.66405E+01 2.29477E+01 0.00000E+00
 -1      3010 2.71983E+01 2.21527E+01 0.00000E+00
 -1      3011 1.33875E+01 4.01558E+01 0.00000E+00
 -1      3012 1.00746E+01 3.42013E+01 0.00000E+00
 -1      3013 1.00746E+01 3.56701E+01 0.00000E+00
 -1      3014 1.16910E+01 9.51250E+00 0.00000E+00
 -1      3015 1.16910E+01 1.09875E+01 0.00000E+00
 -1      3016 1.16910E+01 1.24625E+01 0.00000E+00
 -1      3017 1.16910E+01 1.39375E+01 0.00000E+00
 -1      3018 1.29900E+01 1.17250E+01 0.00000E+00
 -1      3019 1.21890E+01 6.67137E+00 0.00000E+00
 -1      3020 3.17850E+01 1.05013E+01 0.00000E+00
 -1      3021 3.02850E+01 1.05013E+01 0.00000E+00
 -1      3022 1.65490E+01 4.18817E+01 0.00000E+00
 -1      3023 2.87850E+01 1.05013E+01 0.00000E+00
 -1      3024 2.72850E+01 1.05013E+01 0.00000E+00
 -1      3025 2.95350E+01 1.18003E+01 0.00000E+00
 -1      3026 1.13736E+01 3.34638E+01 0.00000E+00
 -1      3027 1.21487E+01 3.27072E+01 0.00000E+00
 -1      3028 4.65750E+01 3.88018E+01 0.00000E+00
 -1      3029 4.80750E+01 3.88018E+01 0.00000E+00
 -1      3030 4.95750E+01 3.88018E+01 0.00000E+00
 -1      3031 5.10750E+01 3.88018E+01 0.00000E+00
 -1      3032 4.88250E+01 3.75253E+01 0.00000E+00
 -1      3033 5.25750E+01 3.88018E+01 0.00000E+00
 -1      3034 5.40750E+01 3.88018E+01 0.00000E+00
 -1      3035 5.18250E+01 3.75253E+01 0.00000E+00
 -1      3036 5.55750E+01 3.88018E+01 0.00000E+00
 -1      3037 5.70750E+01 3.88018E+01 0.00000E+00
 -1      3038 5.48250E+01 3.75253E+01 0.00000E+00
 -1      3039 5.85750E+01 3.88018E+01 0.00000E+00
 -1      3040 6.00750E+01 3.88018E+01 0.00000E+00
 -1      3041 5.78250E+01 3.75253E+01 0.00000E+00
 -1      3042 6.15000E+01 3.88018E+01 0.00000E+00
 -1      3043 6.29250E+01 3.88018E+01 0.00000E+00
 -1      3044 6.07500E+01 3.75253E+01 0.00000E+00
 -1      3045 6.44250E+01 3.88018E+01 0.00000E+00
 -1      3046 6.59250E+01 3.88018E+01 0.00000E+00
 -1      3047 6.36750E+01 3.75253E+01 0.00000E+00
 -1      3048 6.74250E+01 3.88018E+01 0.00000E+00
 -1      3049 6.89250E+01 3.88018E+01 0.00000E+00
 -1      3050 6.66750E+01 3.75253E+01 0.00000E+00
 -1      3051 7.04250E+01 3.88018E+01 0.00000E+00
 -1      3052 7.19250E+01 3.88018E+01 0.00000E+00
 -1      3053 6.96750E+01 3.75253E+01 0.00000E+00
 -1      3054 7.34250E+01 3.88018E+01 0.00000E+00
 -1      3055 7.49250E+01 3.88018E+01 0.00000E+00
 -1      3056 7.26750E+01 3.75253E+01 0.00000E+00
 -1      3057 7.64250E+01 3.88018E+01 0.00000E+00
 -1      3058 7.79250E+01 3.88018E+01 0.00000E+00
 -1      3059 7.56750E+01 3.75253E+01 0.00000E+00
 -1      3060 7.94250E+01 3.88018E+01 0.00000E+00
 -1      3061 8.09250E+01 3.88018E+01 0.00000E+00
 -1      3062 7.86750E+01 3.75253E+01 0.00000E+00
 -1      3063 8.23500E+01 3.88018E+01 0.00000E+00
 -1      3064 8.37750E+01 3.88018E+01 0.00000E+00
 -1      3065 8.16000E+01 3.75253E+01 0.00000E+00
 -1      3066 8.52750E+01 3.88018E+01 0.00000E+00
 -1      3067 8.67750E+01 3.88018E+01 0.00000E+00
 -1      3068 8.45250E+01 3.75253E+01 0.00000E+00
 -1      3069 8.82750E+01 3.88018E+01 0.00000E+00
 -1      3070 8.97750E+01 3.88018E+01 0.00000E+00
 -1      3071 8.75250E+01 3.75253E+01 0.00000E+00
 -1      3072 9.12750E+01 3.88018E+01 0.00000E+00
 -1      3073 9.27750E+01 3.88018E+01 0.00000E+00
 -1      3074 9.05250E+01 3.75253E+01 0.00000E+00
 -1      3075 9.42750E+01 3.88018E+01 0.00000E+00
 -1      3076 9.57750E+01 3.88018E+01 0.00000E+00
 -1      3077 9.35250E+01 3.75253E+01 0.00000E+00
 -1      3078 9.72750E+01 3.88018E+01 0.00000E+00
 -1      3079 9.87750E+01 3.88018E+01 0.00000E+00
 -1      3080 9.65250E+01 3.75253E+01 0.00000E+00
 -1      3081 1.00275E+02 3.88018E+01 0.00000E+00
 -1      3082 1.01775E+02 3.88018E+01 0.00000E+00
 -1      3083 9.95250E+01 3.75253E+01 0.00000E+00
 -1      3084 1.03200E+02 3.88018E+01 0.00000E+00
 -1      3085 1.04625E+02 3.88018E+01 0.00000E+00
 -1      3086 1.02450E+02 3.75253E+01 0.00000E+00
 -1      3087 1.06125E+02 3.88018E+01 0.00000E+00
 -1      3088 1.07625E+02 3.88018E+01 0.00000E+00
 -1      3089 1.05375E+02 3.75253E+01 0.00000E+00
 -1      3090 1.09125E+02 3.88018E+01 0.00000E+00
 -1      3091 1.10625E+02 3.88018E+01 0.00000E+00
 -1      3092 1.08375E+02 3.75253E+01 0.00000E+00
 -1      3093 1.12125E+02 3.88018E+01 0.00000E+00
 -1      3094 1.13625E+02 3.88018E+01 0.00000E+00
 -1      3095 1.11375E+02 3.75253E+01 0.00000E+00
 -1      3096 1.15125E+02 3.88018E+01 0.00000E+00
 -1      3097 1.16625E+02 3.88018E+01 0.00000E+00
 -1      3098 1.14375E+02 3.75253E+01 0.00000E+00
 -1      3099 1.18125E+02 3.88018E+01 0.00000E+00
 -1      3100 1.19625E+02 3.88018E+01 0.00000E+00
 -1      3101 1.17375E+02 3.75253E+01 0.00000E+00
 -1      3102 1.21125E+02 3.88018E+01 0.00000E+00
 -1      3103 1.22625E+02 3.88018E+01 0.00000E+00
 -1      3104 1.20375E+02 3.75253E+01 0.00000E+00
 -1      3105 1.24050E+02 3.88018E+01 0.00000E+00
 -1      3106 1.25475E+02 3.88018E+01 0.00000E+00
 -1      3107 1.23300E+02 3.75253E+01 0.00000E+00
 -1      3108 1.26975E+02 3.88018E+01 0.00000E+00
 -1      3109 1.28475E+02 3.88018E+01 0.00000E+00
 -1      3110 1.26225E+02 3.75253E+01 0.00000E+00
 -1      3111 1.29975E+02 3.88018E+01 0.00000E+00
 -1      3112 1.31475E+02 3.88018E+01 0.00000E+00
 -1      3113 1.29225E+02 3.75253E+01 0.00000E+00
 -1      3114 1.32975E+02 3.88018E+01 0.00000E+00
 -1      3115 1.34475E+02 3.88018E+01 0.00000E+00
 -1      3116 1.32225E+02 3.75253E+01 0.00000E+00
 -1      3117 1.35975E+02 3.88018E+01 0.00000E+00
 -1      3118 1.37475E+02 3.88018E+01 0.00000E+00
 -1      3119 1.35225E+02 3.75253E+01 0.00000E+00
 -1      3120 1.14128E+01 3.12593E+01 0.00000E+00
 -1      3121 1.32145E+01 3.16415E+01 0.00000E+00
 -1      3122 1.35388E+01 3.05968E+01 0.00000E+00
 -1      3123 1.14184E+01 2.97906E+01 0.00000E+00
 -1      3124 2.57850E+01 1.05013E+01 0.00000E+00
 -1      3125 2.42850E+01 1.05013E+01 0.00000E+00
 -1      3126 2.65350E+01 1.18003E+01 0.00000E+00
 -1      3127 3.77850E+01 1.05013E+01 0.00000E+00
 -1      3128 3.62850E+01 1.05013E+01 0.00000E+00
 -1      3129 4.07850E+01 1.05013E+01 0.00000E+00
 -1      3130 3.92850E+01 1.05013E+01 0.00000E+00
 -1      3131 3.85350E+01 1.18003E+01 0.00000E+00
 -1      3132 4.37850E+01 1.05013E+01 0.00000E+00
 -1      3133 4.22850E+01 1.05013E+01 0.00000E+00
 -1      3134 4.15350E+01 1.18003E+01 0.00000E+00
 -1      3135 4.67850E+01 1.05013E+01 0.00000E+00
 -1      3136 4.52850E+01 1.05013E+01 0.00000E+00
 -1      3137 4.45350E+01 1.18003E+01 0.00000E+00
 -1      3138 4.97850E+01 1.05013E+01 0.00000E+00
 -1      3139 4.82850E+01 1.05013E+01 0.00000E+00
 -1      3140 4.75350E+01 1.18003E+01 0.00000E+00
 -1      3141 5.27850E+01 1.05013E+01 0.00000E+00
 -1      3142 5.12850E+01 1.05013E+01 0.00000E+00
 -1      3143 5.05350E+01 1.18003E+01 0.00000E+00
 -1      3144 5.57850E+01 1.05013E+01 0.00000E+00
 -1      3145 5.42850E+01 1.05013E+01 0.00000E+00
 -1      3146 5.35350E+01 1.18003E+01 0.00000E+00
 -1      3147 5.87850E+01 1.05013E+01 0.00000E+00
 -1      3148 5.72850E+01 1.05013E+01 0.00000E+00
 -1      3149 5.65350E+01 1.18003E+01 0.00000E+00
 -1      3150 6.17850E+01 1.05013E+01 0.00000E+00
 -1      3151 6.02850E+01 1.05013E+01 0.00000E+00
 -1      3152 5.95350E+01 1.18003E+01 0.00000E+00
 -1      3153 6.47850E+01 1.05013E+01 0.00000E+00
 -1      3154 6.32850E+01 1.05013E+01 0.00000E+00
 -1      3155 6.25350E+01 1.18003E+01 0.00000E+00
 -1      3156 6.77850E+01 1.05013E+01 0.00000E+00
 -1      3157 6.62850E+01 1.05013E+01 0.00000E+00
 -1      3158 6.55350E+01 1.18003E+01 0.00000E+00
 -1      3159 7.07850E+01 1.05013E+01 0.00000E+00
 -1      3160 6.92850E+01 1.05013E+01 0.00000E+00
 -1      3161 6.85350E+01 1.18003E+01 0.00000E+00
 -1      3162 7.37850E+01 1.05013E+01 0.00000E+00
 -1      3163 7.22850E+01 1.05013E+01 0.00000E+00
 -1      3164 7.15350E+01 1.18003E+01 0.00000E+00
 -1      3165 7.67850E+01 1.05013E+01 0.00000E+00
 -1      3166 7.52850E+01 1.05013E+01 0.00000E+00
 -1      3167 7.45350E+01 1.18003E+01 0.00000E+00
 -1      3168 7.97850E+01 1.05013E+01 0.00000E+00
 -1      3169 7.82850E+01 1.05013E+01 0.00000E+00
 -1      3170 7.75350E+01 1.18003E+01 0.00000E+00
 -1      3171 8.27850E+01 1.05013E+01 0.00000E+00
 -1      3172 8.12850E+01 1.05013E+01 0.00000E+00
 -1      3173 8.05350E+01 1.18003E+01 0.00000E+00
 -1      3174 8.57850E+01 1.05013E+01 0.00000E+00
 -1      3175 8.42850E+01 1.05013E+01 0.00000E+00
 -1      3176 8.35350E+01 1.18003E+01 0.00000E+00
 -1      3177 8.87850E+01 1.05013E+01 0.00000E+00
 -1      3178 8.72850E+01 1.05013E+01 0.00000E+00
 -1      3179 8.65350E+01 1.18003E+01 0.00000E+00
 -1      3180 9.17850E+01 1.05013E+01 0.00000E+00
 -1      3181 9.02850E+01 1.05013E+01 0.00000E+00
 -1      3182 8.95350E+01 1.18003E+01 0.00000E+00
 -1      3183 9.47850E+01 1.05013E+01 0.00000E+00
 -1      3184 9.32850E+01 1.05013E+01 0.00000E+00
 -1      3185 9.25350E+01 1.18003E+01 0.00000E+00
 -1      3186 9.77850E+01 1.05013E+01 0.00000E+00
 -1      3187 9.62850E+01 1.05013E+01 0.00000E+00
 -1      3188 9.55350E+01 1.18003E+01 0.00000E+00
 -1      3189 1.00785E+02 1.05013E+01 0.00000E+00
 -1      3190 9.92850E+01 1.05013E+01 0.00000E+00
 -1      3191 9.85350E+01 1.18003E+01 0.00000E+00
 -1      3192 1.03785E+02 1.05013E+01 0.00000E+00
 -1      3193 1.02285E+02 1.05013E+01 0.00000E+00
 -1      3194 1.01535E+02 1.18003E+01 0.00000E+00
 -1      3195 1.06785E+02 1.05013E+01 0.00000E+00
 -1      3196 1.05285E+02 1.05013E+01 0.00000E+00
 -1      3197 1.04535E+02 1.18003E+01 0.00000E+00
 -1      3198 1.09785E+02 1.05013E+01 0.00000E+00
 -1      3199 1.08285E+02 1.05013E+01 0.00000E+00
 -1      3200 1.07535E+02 1.18003E+01 0.00000E+00
 -1      3201 1.12785E+02 1.05013E+01 0.00000E+00
 -1      3202 1.11285E+02 1.05013E+01 0.00000E+00
 -1      3203 1.10535E+02 1.18003E+01 0.00000E+00
 -1      3204 1.15785E+02 1.05013E+01 0.00000E+00
 -1      3205 1.14285E+02 1.05013E+01 0.00000E+00
 -1      3206 1.13535E+02 1.18003E+01 0.00000E+00
 -1      3207 1.18785E+02 1.05013E+01 0.00000E+00
 -1      3208 1.17285E+02 1.05013E+01 0.00000E+00
 -1      3209 1.16535E+02 1.18003E+01 0.00000E+00
 -1      3210 1.21785E+02 1.05013E+01 0.00000E+00
 -1      3211 1.20285E+02 1.05013E+01 0.00000E+00
 -1      3212 1.19535E+02 1.18003E+01 0.00000E+00
 -1      3213 1.24785E+02 1.05013E+01 0.00000E+00
 -1      3214 1.23285E+02 1.05013E+01 0.00000E+00
 -1      3215 1.22535E+02 1.18003E+01 0.00000E+00
 -1      3216 1.27785E+02 1.05013E+01 0.00000E+00
 -1      3217 1.26285E+02 1.05013E+01 0.00000E+00
 -1      3218 1.25535E+02 1.18003E+01 0.00000E+00
 -1      3219 1.30785E+02 1.05013E+01 0.00000E+00
 -1      3220 1.29285E+02 1.05013E+01 0.00000E+00
 -1      3221 1.28535E+02 1.18003E+01 0.00000E+00
 -1      3222 1.33785E+02 1.05013E+01 0.00000E+00
 -1      3223 1.32285E+02 1.05013E+01 0.00000E+00
 -1      3224 1.31535E+02 1.18003E+01 0.00000E+00
 -1      3225 1.36785E+02 1.05013E+01 0.00000E+00
 -1      3226 1.35285E+02 1.05013E+01 0.00000E+00
 -1      3227 1.34535E+02 1.18003E+01 0.00000E+00
 -1      3228 1.38912E+02 1.10040E+01 0.00000E+00
 -1      3229 1.37744E+02 1.07233E+01 0.00000E+00
 -1      3230 1.36994E+02 1.20223E+01 0.00000E+00
 -1      3231 1.38912E+02 1.24665E+01 0.00000E+00
 -1      3232 1.38309E+02 3.16125E+01 0.00000E+00
 -1      3233 1.38309E+02 3.01375E+01 0.00000E+00
 -1      3234 1.38309E+02 2.57625E+01 0.00000E+00
 -1      3235 1.38309E+02 2.42875E+01 0.00000E+00
 -1      3236 1.31909E+01 3.94103E+01 0.00000E+00
 -1      3237 3.87324E+01 2.75638E+01 0.00000E+00
 -1      3238 3.93622E+01 2.90346E+01 0.00000E+00
 -1      3239 3.13661E+01 2.19544E+01 0.00000E+00
 -1      3240 3.26978E+01 2.23456E+01 0.00000E+00
 -1      3241 3.47850E+01 1.05013E+01 0.00000E+00
 -1      3242 3.32850E+01 1.05013E+01 0.00000E+00
 -1      3243 3.55350E+01 1.18003E+01 0.00000E+00
 -1      3244 4.01823E+01 3.32287E+01 0.00000E+00
 -1      3245 4.03577E+01 3.44786E+01 0.00000E+00
 -1      3246 4.35750E+01 3.88018E+01 0.00000E+00
 -1      3247 4.50750E+01 3.88018E+01 0.00000E+00
 -1      3248 4.58250E+01 3.75253E+01 0.00000E+00
 -1      3249 1.38309E+02 3.45625E+01 0.00000E+00
 -1      3250 1.38309E+02 3.30875E+01 0.00000E+00
 -1      3251 1.37010E+02 3.23500E+01 0.00000E+00
 -1      3252 1.40757E+01 2.91598E+01 0.00000E+00
 -1      3253 3.98029E+01 3.06025E+01 0.00000E+00
 -1      3254 4.00967E+01 3.18608E+01 0.00000E+00
 -1      3255 1.38309E+02 2.86750E+01 0.00000E+00
 -1      3256 1.38309E+02 2.72250E+01 0.00000E+00
 -1      3257 1.37010E+02 2.64875E+01 0.00000E+00
 -1      3258 1.37010E+02 2.94125E+01 0.00000E+00
 -1      3259 1.25488E+01 8.06518E+00 0.00000E+00
 -1      3260 2.86826E+01 2.14530E+01 0.00000E+00
 -1      3261 2.99182E+01 2.16330E+01 0.00000E+00
 -1      3262 1.53083E+01 2.68573E+01 0.00000E+00
 -1      3263 1.62499E+01 2.57786E+01 0.00000E+00
 -1      3264 1.16910E+01 2.12875E+01 0.00000E+00
 -1      3265 1.16910E+01 2.27625E+01 0.00000E+00
 -1      3266 3.69220E+01 2.51968E+01 0.00000E+00
 -1      3267 3.77670E+01 2.60576E+01 0.00000E+00
 -1      3268 3.43293E+01 2.32386E+01 0.00000E+00
 -1      3269 3.56696E+01 2.41674E+01 0.00000E+00
 -1      3270 1.32909E+01 3.80639E+01 0.00000E+00
 -1      3271 1.29665E+01 3.67288E+01 0.00000E+00
 -1      3272 1.23002E+01 3.59490E+01 0.00000E+00
 -1      3273 1.21001E+01 3.86418E+01 0.00000E+00
 -1      3274 1.75255E+01 2.46672E+01 0.00000E+00
 -1      3275 1.86700E+01 2.39260E+01 0.00000E+00
 -1      3276 2.27850E+01 1.05013E+01 0.00000E+00
 -1      3277 2.12850E+01 1.05013E+01 0.00000E+00
 -1      3278 2.35350E+01 1.18003E+01 0.00000E+00
 -1      3279 1.29900E+01 1.46687E+01 0.00000E+00
 -1      3280 1.16910E+01 1.54063E+01 0.00000E+00
 -1      3281 1.16910E+01 1.68750E+01 0.00000E+00
 -1      3282 3.25350E+01 1.18003E+01 0.00000E+00
 -1      3283 4.09490E+01 3.53955E+01 0.00000E+00
 -1      3284 4.15404E+01 3.63125E+01 0.00000E+00
 -1      3285 4.17106E+01 3.46514E+01 0.00000E+00
 -1      3286 3.09202E+01 2.06842E+01 0.00000E+00
 -1      3287 2.22852E+01 2.27303E+01 0.00000E+00
 -1      3288 2.28956E+01 2.19418E+01 0.00000E+00
 -1      3289 2.13270E+01 2.21940E+01 0.00000E+00
 -1      3290 4.10336E+01 3.23665E+01 0.00000E+00
 -1      3291 1.39070E+02 3.87921E+01 0.00000E+00
 -1      3292 1.36547E+01 9.58315E+00 0.00000E+00
 -1      3293 1.18841E+01 8.73203E+00 0.00000E+00
 -1      3294 1.25648E+01 2.88409E+01 0.00000E+00
 -1      3295 1.41619E+01 2.78070E+01 0.00000E+00
 -1      3296 1.37973E+01 2.65384E+01 0.00000E+00
 -1      3297 1.15046E+01 2.84378E+01 0.00000E+00
 -1      3298 1.38309E+02 1.98625E+01 0.00000E+00
 -1      3299 1.38309E+02 1.83875E+01 0.00000E+00
 -1      3300 2.72934E+01 2.06718E+01 0.00000E+00
 -1      3301 2.79880E+01 2.10624E+01 0.00000E+00
 -1      3302 2.87777E+01 1.99721E+01 0.00000E+00
 -1      3303 2.44116E+01 2.16831E+01 0.00000E+00
 -1      3304 2.51787E+01 2.21201E+01 0.00000E+00
 -1      3305 2.57365E+01 2.13251E+01 0.00000E+00
 -1      3306 1.37010E+02 2.35500E+01 0.00000E+00
 -1      3307 1.38309E+02 2.28125E+01 0.00000E+00
 -1      3308 1.38309E+02 2.13375E+01 0.00000E+00
 -1      3309 1.79308E+01 2.26140E+01 0.00000E+00
 -1      3310 1.91058E+01 2.31742E+01 0.00000E+00
 -1      3311 1.95416E+01 2.24224E+01 0.00000E+00
 -1      3312 3.91013E+01 2.63566E+01 0.00000E+00
 -1      3313 3.39996E+01 2.18986E+01 0.00000E+00
 -1      3314 1.62193E+01 2.44773E+01 0.00000E+00
 -1      3315 1.38320E+02 3.75156E+01 0.00000E+00
 -1      3316 9.06008E+00 3.73290E+01 0.00000E+00
 -1      3317 9.08484E+00 3.85642E+01 0.00000E+00
 -1      3318 1.10497E+01 3.84467E+01 0.00000E+00
 -1      3319 1.97850E+01 1.05013E+01 0.00000E+00
 -1      3320 1.82850E+01 1.05013E+01 0.00000E+00
 -1      3321 2.05350E+01 1.18003E+01 0.00000E+00
 -1      3322 1.38375E+02 1.71472E+01 0.00000E+00
 -1      3323 1.38440E+02 1.59068E+01 0.00000E+00
 -1      3324 1.37076E+02 1.78847E+01 0.00000E+00
 -1      3325 4.05074E+01 2.94306E+01 0.00000E+00
 -1      3326 4.18019E+01 3.85674E+01 0.00000E+00
 -1      3327 4.25519E+01 3.72910E+01 0.00000E+00
 -1      3328 3.68835E+01 2.38210E+01 0.00000E+00
 -1      3329 1.16910E+01 1.98188E+01 0.00000E+00
 -1      3330 1.29900E+01 2.05562E+01 0.00000E+00
 -1      3331 1.16910E+01 1.83500E+01 0.00000E+00
 -1      3332 1.38167E+02 3.64127E+01 0.00000E+00
 -1      3333 1.39668E+01 2.38069E+01 0.00000E+00
 -1      3334 1.26678E+01 2.45444E+01 0.00000E+00
 -1      3335 1.36867E+02 3.56752E+01 0.00000E+00
 -1      3336 1.66160E+01 1.04247E+01 0.00000E+00
 -1      3337 1.50083E+01 1.02817E+01 0.00000E+00
 -1      3338 1.43435E+01 1.09485E+01 0.00000E+00
 -1      3339 1.73660E+01 1.17237E+01 0.00000E+00
 -1      3340 3.62850E+01 1.30992E+01 0.00000E+00
 -1      3341 3.47850E+01 1.30992E+01 0.00000E+00
 -1      3342 3.04778E+01 1.92554E+01 0.00000E+00
 -1      3343 3.19257E+01 1.95768E+01 0.00000E+00
 -1      3344 4.10014E+01 3.92976E+01 0.00000E+00
 -1      3345 1.35711E+02 3.30875E+01 0.00000E+00
 -1      3346 1.35711E+02 3.16125E+01 0.00000E+00
 -1      3347 1.01352E+01 3.87593E+01 0.00000E+00
 -1      3348 5.10750E+01 3.62263E+01 0.00000E+00
 -1      3349 5.25750E+01 3.62263E+01 0.00000E+00
 -1      3350 5.40750E+01 3.62263E+01 0.00000E+00
 -1      3351 5.55750E+01 3.62263E+01 0.00000E+00
 -1      3352 5.33250E+01 3.49273E+01 0.00000E+00
 -1      3353 5.70750E+01 3.62263E+01 0.00000E+00
 -1      3354 5.85750E+01 3.62263E+01 0.00000E+00
 -1      3355 5.63250E+01 3.49273E+01 0.00000E+00
 -1      3356 6.00000E+01 3.62263E+01 0.00000E+00
 -1      3357 6.14250E+01 3.62263E+01 0.00000E+00
 -1      3358 5.92500E+01 3.49273E+01 0.00000E+00
 -1      3359 6.29250E+01 3.62263E+01 0.00000E+00
 -1      3360 6.44250E+01 3.62263E+01 0.00000E+00
 -1      3361 6.21750E+01 3.49273E+01 0.00000E+00
 -1      3362 6.59250E+01 3.62263E+01 0.00000E+00
 -1      3363 6.74250E+01 3.62263E+01 0.00000E+00
 -1      3364 6.51750E+01 3.49273E+01 0.00000E+00
 -1      3365 6.89250E+01 3.62263E+01 0.00000E+00
 -1      3366 7.04250E+01 3.62263E+01 0.00000E+00
 -1      3367 6.81750E+01 3.49273E+01 0.00000E+00
 -1      3368 7.19250E+01 3.62263E+01 0.00000E+00
 -1      3369 7.34250E+01 3.62263E+01 0.00000E+00
 -1      3370 7.11750E+01 3.49273E+01 0.00000E+00
 -1      3371 7.49250E+01 3.62263E+01 0.00000E+00
 -1      3372 7.64250E+01 3.62263E+01 0.00000E+00
 -1      3373 7.41750E+01 3.49273E+01 0.00000E+00
 -1      3374 7.79250E+01 3.62263E+01 0.00000E+00
 -1      3375 7.94250E+01 3.62263E+01 0.00000E+00
 -1      3376 7.71750E+01 3.49273E+01 0.00000E+00
 -1      3377 8.08500E+01 3.62263E+01 0.00000E+00
 -1      3378 8.22750E+01 3.62263E+01 0.00000E+00
 -1      3379 8.01000E+01 3.49273E+01 0.00000E+00
 -1      3380 8.37750E+01 3.62263E+01 0.00000E+00
 -1      3381 8.52750E+01 3.62263E+01 0.00000E+00
 -1      3382 8.30250E+01 3.49273E+01 0.00000E+00
 -1      3383 8.67750E+01 3.62263E+01 0.00000E+00
 -1      3384 8.82750E+01 3.62263E+01 0.00000E+00
 -1      3385 8.60250E+01 3.49273E+01 0.00000E+00
 -1      3386 8.97750E+01 3.62263E+01 0.00000E+00
 -1      3387 9.12750E+01 3.62263E+01 0.00000E+00
 -1      3388 8.90250E+01 3.49273E+01 0.00000E+00
 -1      3389 9.27750E+01 3.62263E+01 0.00000E+00
 -1      3390 9.42750E+01 3.62263E+01 0.00000E+00
 -1      3391 9.20250E+01 3.49273E+01 0.00000E+00
 -1      3392 9.57750E+01 3.62263E+01 0.00000E+00
 -1      3393 9.72750E+01 3.62263E+01 0.00000E+00
 -1      3394 9.50250E+01 3.49273E+01 0.00000E+00
 -1      3395 9.87750E+01 3.62263E+01 0.00000E+00
 -1      3396 1.00275E+02 3.62263E+01 0.00000E+00
 -1      3397 9.80250E+01 3.49273E+01 0.00000E+00
 -1      3398 1.01700E+02 3.62263E+01 0.00000E+00
 -1      3399 1.03125E+02 3.62263E+01 0.00000E+00
 -1      3400 1.00950E+02 3.49273E+01 0.00000E+00
 -1      3401 1.04625E+02 3.62263E+01 0.00000E+00
 -1      3402 1.06125E+02 3.62263E+01 0.00000E+00
 -1      3403 1.03875E+02 3.49273E+01 0.00000E+00
 -1      3404 1.07625E+02 3.62263E+01 0.00000E+00
 -1      3405 1.09125E+02 3.62263E+01 0.00000E+00
 -1      3406 1.06875E+02 3.49273E+01 0.00000E+00
 -1      3407 1.10625E+02 3.62263E+01 0.00000E+00
 -1      3408 1.12125E+02 3.62263E+01 0.00000E+00
 -1      3409 1.09875E+02 3.49273E+01 0.00000E+00
 -1      3410 1.13625E+02 3.62263E+01 0.00000E+00
 -1      3411 1.15125E+02 3.62263E+01 0.00000E+00
 -1      3412 1.12875E+02 3.49273E+01 0.00000E+00
 -1      3413 1.16625E+02 3.62263E+01 0.00000E+00
 -1      3414 1.18125E+02 3.62263E+01 0.00000E+00
 -1      3415 1.15875E+02 3.49273E+01 0.00000E+00
 -1      3416 1.19625E+02 3.62263E+01 0.00000E+00
 -1      3417 1.21125E+02 3.62263E+01 0.00000E+00
 -1      3418 1.18875E+02 3.49273E+01 0.00000E+00
 -1      3419 1.22550E+02 3.62263E+01 0.00000E+00
 -1      3420 1.23975E+02 3.62263E+01 0.00000E+00
 -1      3421 1.21800E+02 3.49273E+01 0.00000E+00
 -1      3422 1.25475E+02 3.62263E+01 0.00000E+00
 -1      3423 1.26975E+02 3.62263E+01 0.00000E+00
 -1      3424 1.24725E+02 3.49273E+01 0.00000E+00
 -1      3425 1.28475E+02 3.62263E+01 0.00000E+00
 -1      3426 1.29975E+02 3.62263E+01 0.00000E+00
 -1      3427 1.27725E+02 3.49273E+01 0.00000E+00
 -1      3428 1.31475E+02 3.62263E+01 0.00000E+00
 -1      3429 1.32975E+02 3.62263E+01 0.00000E+00
 -1      3430 1.30725E+02 3.49273E+01 0.00000E+00
 -1      3431 1.35367E+02 3.56752E+01 0.00000E+00
 -1      3432 4.14352E+01 2.83239E+01 0.00000E+00
 -1      3433 4.18759E+01 2.98919E+01 0.00000E+00
 -1      3434 4.52850E+01 1.30992E+01 0.00000E+00
 -1      3435 4.37850E+01 1.30992E+01 0.00000E+00
 -1      3436 4.22850E+01 1.30992E+01 0.00000E+00
 -1      3437 4.07850E+01 1.30992E+01 0.00000E+00
 -1      3438 4.30350E+01 1.43982E+01 0.00000E+00
 -1      3439 3.92850E+01 1.30992E+01 0.00000E+00
 -1      3440 3.77850E+01 1.30992E+01 0.00000E+00
 -1      3441 4.00350E+01 1.43982E+01 0.00000E+00
 -1      3442 4.82850E+01 1.30992E+01 0.00000E+00
 -1      3443 4.67850E+01 1.30992E+01 0.00000E+00
 -1      3444 4.60350E+01 1.43982E+01 0.00000E+00
 -1      3445 5.12850E+01 1.30992E+01 0.00000E+00
 -1      3446 4.97850E+01 1.30992E+01 0.00000E+00
 -1      3447 4.90350E+01 1.43982E+01 0.00000E+00
 -1      3448 5.42850E+01 1.30992E+01 0.00000E+00
 -1      3449 5.27850E+01 1.30992E+01 0.00000E+00
 -1      3450 5.20350E+01 1.43982E+01 0.00000E+00
 -1      3451 5.72850E+01 1.30992E+01 0.00000E+00
 -1      3452 5.57850E+01 1.30992E+01 0.00000E+00
 -1      3453 5.50350E+01 1.43982E+01 0.00000E+00
 -1      3454 6.02850E+01 1.30992E+01 0.00000E+00
 -1      3455 5.87850E+01 1.30992E+01 0.00000E+00
 -1      3456 5.80350E+01 1.43982E+01 0.00000E+00
 -1      3457 6.32850E+01 1.30992E+01 0.00000E+00
 -1      3458 6.17850E+01 1.30992E+01 0.00000E+00
 -1      3459 6.10350E+01 1.43982E+01 0.00000E+00
 -1      3460 6.62850E+01 1.30992E+01 0.00000E+00
 -1      3461 6.47850E+01 1.30992E+01 0.00000E+00
 -1      3462 6.40350E+01 1.43982E+01 0.00000E+00
 -1      3463 6.92850E+01 1.30992E+01 0.00000E+00
 -1      3464 6.77850E+01 1.30992E+01 0.00000E+00
 -1      3465 6.70350E+01 1.43982E+01 0.00000E+00
 -1      3466 7.22850E+01 1.30992E+01 0.00000E+00
 -1      3467 7.07850E+01 1.30992E+01 0.00000E+00
 -1      3468 7.00350E+01 1.43982E+01 0.00000E+00
 -1      3469 7.52850E+01 1.30992E+01 0.00000E+00
 -1      3470 7.37850E+01 1.30992E+01 0.00000E+00
 -1      3471 7.30350E+01 1.43982E+01 0.00000E+00
 -1      3472 7.82850E+01 1.30992E+01 0.00000E+00
 -1      3473 7.67850E+01 1.30992E+01 0.00000E+00
 -1      3474 7.60350E+01 1.43982E+01 0.00000E+00
 -1      3475 8.12850E+01 1.30992E+01 0.00000E+00
 -1      3476 7.97850E+01 1.30992E+01 0.00000E+00
 -1      3477 7.90350E+01 1.43982E+01 0.00000E+00
 -1      3478 8.42850E+01 1.30992E+01 0.00000E+00
 -1      3479 8.27850E+01 1.30992E+01 0.00000E+00
 -1      3480 8.20350E+01 1.43982E+01 0.00000E+00
 -1      3481 8.72850E+01 1.30992E+01 0.00000E+00
 -1      3482 8.57850E+01 1.30992E+01 0.00000E+00
 -1      3483 8.50350E+01 1.43982E+01 0.00000E+00
 -1      3484 9.02850E+01 1.30992E+01 0.00000E+00
 -1      3485 8.87850E+01 1.30992E+01 0.00000E+00
 -1      3486 8.80350E+01 1.43982E+01 0.00000E+00
 -1      3487 9.32850E+01 1.30992E+01 0.00000E+00
 -1      3488 9.17850E+01 1.30992E+01 0.00000E+00
 -1      3489 9.10350E+01 1.43982E+01 0.00000E+00
 -1      3490 9.62850E+01 1.30992E+01 0.00000E+00
 -1      3491 9.47850E+01 1.30992E+01 0.00000E+00
 -1      3492 9.40350E+01 1.43982E+01 0.00000E+00
 -1      3493 9.92850E+01 1.30992E+01 0.00000E+00
 -1      3494 9.77850E+01 1.30992E+01 0.00000E+00
 -1      3495 9.70350E+01 1.43982E+01 0.00000E+00
 -1      3496 1.02285E+02 1.30992E+01 0.00000E+00
 -1      3497 1.00785E+02 1.30992E+01 0.00000E+00
 -1      3498 1.00035E+02 1.43982E+01 0.00000E+00
 -1      3499 1.05285E+02 1.30992E+01 0.00000E+00
 -1      3500 1.03785E+02 1.30992E+01 0.00000E+00
 -1      3501 1.03035E+02 1.43982E+01 0.00000E+00
 -1      3502 1.08285E+02 1.30992E+01 0.00000E+00
 -1      3503 1.06785E+02 1.30992E+01 0.00000E+00
 -1      3504 1.06035E+02 1.43982E+01 0.00000E+00
 -1      3505 1.11285E+02 1.30992E+01 0.00000E+00
 -1      3506 1.09785E+02 1.30992E+01 0.00000E+00
 -1      3507 1.09035E+02 1.43982E+01 0.00000E+00
 -1      3508 1.14285E+02 1.30992E+01 0.00000E+00
 -1      3509 1.12785E+02 1.30992E+01 0.00000E+00
 -1      3510 1.12035E+02 1.43982E+01 0.00000E+00
 -1      3511 1.17285E+02 1.30992E+01 0.00000E+00
 -1      3512 1.15785E+02 1.30992E+01 0.00000E+00
 -1      3513 1.15035E+02 1.43982E+01 0.00000E+00
 -1      3514 1.20285E+02 1.30992E+01 0.00000E+00
 -1      3515 1.18785E+02 1.30992E+01 0.00000E+00
 -1      3516 1.18035E+02 1.43982E+01 0.00000E+00
 -1      3517 1.23285E+02 1.30992E+01 0.00000E+00
 -1      3518 1.21785E+02 1.30992E+01 0.00000E+00
 -1      3519 1.21035E+02 1.43982E+01 0.00000E+00
 -1      3520 1.26285E+02 1.30992E+01 0.00000E+00
 -1      3521 1.24785E+02 1.30992E+01 0.00000E+00
 -1      3522 1.24035E+02 1.43982E+01 0.00000E+00
 -1      3523 1.29285E+02 1.30992E+01 0.00000E+00
 -1      3524 1.27785E+02 1.30992E+01 0.00000E+00
 -1      3525 1.27035E+02 1.43982E+01 0.00000E+00
 -1      3526 1.32285E+02 1.30992E+01 0.00000E+00
 -1      3527 1.30785E+02 1.30992E+01 0.00000E+00
 -1      3528 1.30035E+02 1.43982E+01 0.00000E+00
 -1      3529 1.35285E+02 1.30992E+01 0.00000E+00
 -1      3530 1.33785E+02 1.30992E+01 0.00000E+00
 -1      3531 1.33035E+02 1.43982E+01 0.00000E+00
 -1      3532 1.37010E+02 2.06000E+01 0.00000E+00
 -1      3533 3.02850E+01 1.30992E+01 0.00000E+00
 -1      3534 2.87850E+01 1.30992E+01 0.00000E+00
 -1      3535 1.34617E+02 3.43762E+01 0.00000E+00
 -1      3536 1.26566E+01 2.60194E+01 0.00000E+00
 -1      3537 3.96227E+01 2.49598E+01 0.00000E+00
 -1      3538 4.05881E+01 2.64660E+01 0.00000E+00
 -1      3539 4.50750E+01 3.62263E+01 0.00000E+00
 -1      3540 4.65750E+01 3.62263E+01 0.00000E+00
 -1      3541 1.81410E+01 1.30596E+01 0.00000E+00
 -1      3542 1.64720E+01 1.29830E+01 0.00000E+00
 -1      3543 3.70821E+01 2.23028E+01 0.00000E+00
 -1      3544 3.83345E+01 2.33322E+01 0.00000E+00
 -1      3545 1.52425E+01 2.26954E+01 0.00000E+00
 -1      3546 4.80750E+01 3.62263E+01 0.00000E+00
 -1      3547 4.95750E+01 3.62263E+01 0.00000E+00
 -1      3548 4.73250E+01 3.49273E+01 0.00000E+00
 -1      3549 1.38643E+02 1.48068E+01 0.00000E+00
 -1      3550 1.38709E+02 1.35665E+01 0.00000E+00
 -1      3551 1.37750E+02 1.33444E+01 0.00000E+00
 -1      3552 1.37344E+02 1.55443E+01 0.00000E+00
 -1      3553 4.20140E+01 3.16185E+01 0.00000E+00
 -1      3554 4.20996E+01 3.29865E+01 0.00000E+00
 -1      3555 2.72850E+01 1.30992E+01 0.00000E+00
 -1      3556 2.57850E+01 1.30992E+01 0.00000E+00
 -1      3557 2.80350E+01 1.43982E+01 0.00000E+00
 -1      3558 3.32850E+01 1.30992E+01 0.00000E+00
 -1      3559 3.17850E+01 1.30992E+01 0.00000E+00
 -1      3560 3.10350E+01 1.43982E+01 0.00000E+00
 -1      3561 3.37565E+01 2.04059E+01 0.00000E+00
 -1      3562 3.53880E+01 2.12988E+01 0.00000E+00
 -1      3563 4.33134E+01 3.65468E+01 0.00000E+00
 -1      3564 1.43435E+01 1.24235E+01 0.00000E+00
 -1      3565 9.97455E+00 3.70165E+01 0.00000E+00
 -1      3566 1.54078E+01 1.34376E+01 0.00000E+00
 -1      3567 1.40542E+01 1.42141E+01 0.00000E+00
 -1      3568 1.40542E+01 1.56829E+01 0.00000E+00
 -1      3569 1.61827E+01 1.47736E+01 0.00000E+00
 -1      3570 3.33141E+01 1.89770E+01 0.00000E+00
 -1      3571 4.26909E+01 3.39034E+01 0.00000E+00
 -1      3572 4.40634E+01 3.52478E+01 0.00000E+00
 -1      3573 2.01520E+01 2.16338E+01 0.00000E+00
 -1      3574 2.07624E+01 2.08453E+01 0.00000E+00
 -1      3575 1.89769E+01 2.10737E+01 0.00000E+00
 -1      3576 1.35711E+02 2.72188E+01 0.00000E+00
 -1      3577 1.35711E+02 2.57563E+01 0.00000E+00
 -1      3578 5.03250E+01 3.49273E+01 0.00000E+00
 -1      3579 3.68390E+01 2.08100E+01 0.00000E+00
 -1      3580 4.19567E+01 2.69272E+01 0.00000E+00
 -1      3581 3.70350E+01 1.43982E+01 0.00000E+00
 -1      3582 1.29900E+01 1.76125E+01 0.00000E+00
 -1      3583 1.35711E+02 2.13375E+01 0.00000E+00
 -1      3584 1.35711E+02 1.98625E+01 0.00000E+00
 -1      3585 1.36791E+02 1.31223E+01 0.00000E+00
 -1      3586 2.65262E+01 2.02348E+01 0.00000E+00
 -1      3587 2.73159E+01 1.91446E+01 0.00000E+00
 -1      3588 2.57591E+01 1.97979E+01 0.00000E+00
 -1      3589 4.29418E+01 3.05118E+01 0.00000E+00
 -1      3590 2.34534E+01 2.11468E+01 0.00000E+00
 -1      3591 2.40112E+01 2.03518E+01 0.00000E+00
 -1      3592 2.24952E+01 2.06104E+01 0.00000E+00
 -1      3593 1.35711E+02 2.42844E+01 0.00000E+00
 -1      3594 1.35711E+02 2.28094E+01 0.00000E+00
 -1      3595 1.34412E+02 2.20719E+01 0.00000E+00
 -1      3596 1.34412E+02 2.50156E+01 0.00000E+00
 -1      3597 2.11410E+01 1.30596E+01 0.00000E+00
 -1      3598 1.96410E+01 1.30596E+01 0.00000E+00
 -1      3599 1.87469E+01 1.43189E+01 0.00000E+00
 -1      3600 3.98214E+01 2.34416E+01 0.00000E+00
 -1      3601 1.35777E+02 1.86222E+01 0.00000E+00
 -1      3602 1.35842E+02 1.73818E+01 0.00000E+00
 -1      3603 1.34478E+02 1.93597E+01 0.00000E+00
 -1      3604 1.15102E+01 2.69691E+01 0.00000E+00
 -1      3605 3.40350E+01 1.43982E+01 0.00000E+00
 -1      3606 1.34412E+02 3.08875E+01 0.00000E+00
 -1      3607 1.35711E+02 3.01500E+01 0.00000E+00
 -1      3608 1.35711E+02 2.86875E+01 0.00000E+00
 -1      3609 1.44868E+01 2.11152E+01 0.00000E+00
 -1      3610 1.67393E+01 2.17856E+01 0.00000E+00
 -1      3611 2.50350E+01 1.43982E+01 0.00000E+00
 -1      3612 2.42850E+01 1.30992E+01 0.00000E+00
 -1      3613 2.27850E+01 1.30992E+01 0.00000E+00
 -1      3614 1.44868E+01 1.96464E+01 0.00000E+00
 -1      3615 1.36041E+02 1.44213E+01 0.00000E+00
 -1      3616 1.33318E+02 3.36386E+01 0.00000E+00
 -1      3617 1.34412E+02 2.79562E+01 0.00000E+00
 -1      3618 4.95750E+01 3.36283E+01 0.00000E+00
 -1      3619 5.10750E+01 3.36283E+01 0.00000E+00
 -1      3620 3.47850E+01 1.56973E+01 0.00000E+00
 -1      3621 3.32850E+01 1.56973E+01 0.00000E+00
 -1      3622 5.55750E+01 3.36283E+01 0.00000E+00
 -1      3623 5.70750E+01 3.36283E+01 0.00000E+00
 -1      3624 5.85000E+01 3.36283E+01 0.00000E+00
 -1      3625 5.99250E+01 3.36283E+01 0.00000E+00
 -1      3626 5.77500E+01 3.23293E+01 0.00000E+00
 -1      3627 6.14250E+01 3.36283E+01 0.00000E+00
 -1      3628 6.29250E+01 3.36283E+01 0.00000E+00
 -1      3629 6.06750E+01 3.23293E+01 0.00000E+00
 -1      3630 6.44250E+01 3.36283E+01 0.00000E+00
 -1      3631 6.59250E+01 3.36283E+01 0.00000E+00
 -1      3632 6.36750E+01 3.23293E+01 0.00000E+00
 -1      3633 6.74250E+01 3.36283E+01 0.00000E+00
 -1      3634 6.89250E+01 3.36283E+01 0.00000E+00
 -1      3635 6.66750E+01 3.23293E+01 0.00000E+00
 -1      3636 7.04250E+01 3.36283E+01 0.00000E+00
 -1      3637 7.19250E+01 3.36283E+01 0.00000E+00
 -1      3638 6.96750E+01 3.23293E+01 0.00000E+00
 -1      3639 7.34250E+01 3.36283E+01 0.00000E+00
 -1      3640 7.49250E+01 3.36283E+01 0.00000E+00
 -1      3641 7.26750E+01 3.23293E+01 0.00000E+00
 -1      3642 7.64250E+01 3.36283E+01 0.00000E+00
 -1      3643 7.79250E+01 3.36283E+01 0.00000E+00
 -1      3644 7.56750E+01 3.23293E+01 0.00000E+00
 -1      3645 7.93500E+01 3.36283E+01 0.00000E+00
 -1      3646 8.07750E+01 3.36283E+01 0.00000E+00
 -1      3647 7.86000E+01 3.23293E+01 0.00000E+00
 -1      3648 8.22750E+01 3.36283E+01 0.00000E+00
 -1      3649 8.37750E+01 3.36283E+01 0.00000E+00
 -1      3650 8.15250E+01 3.23293E+01 0.00000E+00
 -1      3651 8.52750E+01 3.36283E+01 0.00000E+00
 -1      3652 8.67750E+01 3.36283E+01 0.00000E+00
 -1      3653 8.45250E+01 3.23293E+01 0.00000E+00
 -1      3654 8.82750E+01 3.36283E+01 0.00000E+00
 -1      3655 8.97750E+01 3.36283E+01 0.00000E+00
 -1      3656 8.75250E+01 3.23293E+01 0.00000E+00
 -1      3657 9.12750E+01 3.36283E+01 0.00000E+00
 -1      3658 9.27750E+01 3.36283E+01 0.00000E+00
 -1      3659 9.05250E+01 3.23293E+01 0.00000E+00
 -1      3660 9.42750E+01 3.36283E+01 0.00000E+00
 -1      3661 9.57750E+01 3.36283E+01 0.00000E+00
 -1      3662 9.35250E+01 3.23293E+01 0.00000E+00
 -1      3663 9.72750E+01 3.36283E+01 0.00000E+00
 -1      3664 9.87750E+01 3.36283E+01 0.00000E+00
 -1      3665 9.65250E+01 3.23293E+01 0.00000E+00
 -1      3666 1.00200E+02 3.36283E+01 0.00000E+00
 -1      3667 1.01625E+02 3.36283E+01 0.00000E+00
 -1      3668 9.94500E+01 3.23293E+01 0.00000E+00
 -1      3669 1.03125E+02 3.36283E+01 0.00000E+00
 -1      3670 1.04625E+02 3.36283E+01 0.00000E+00
 -1      3671 1.02375E+02 3.23293E+01 0.00000E+00
 -1      3672 1.06125E+02 3.36283E+01 0.00000E+00
 -1      3673 1.07625E+02 3.36283E+01 0.00000E+00
 -1      3674 1.05375E+02 3.23293E+01 0.00000E+00
 -1      3675 1.09125E+02 3.36283E+01 0.00000E+00
 -1      3676 1.10625E+02 3.36283E+01 0.00000E+00
 -1      3677 1.08375E+02 3.23293E+01 0.00000E+00
 -1      3678 1.12125E+02 3.36283E+01 0.00000E+00
 -1      3679 1.13625E+02 3.36283E+01 0.00000E+00
 -1      3680 1.11375E+02 3.23293E+01 0.00000E+00
 -1      3681 1.15125E+02 3.36283E+01 0.00000E+00
 -1      3682 1.16625E+02 3.36283E+01 0.00000E+00
 -1      3683 1.14375E+02 3.23293E+01 0.00000E+00
 -1      3684 1.18125E+02 3.36283E+01 0.00000E+00
 -1      3685 1.19625E+02 3.36283E+01 0.00000E+00
 -1      3686 1.17375E+02 3.23293E+01 0.00000E+00
 -1      3687 1.21050E+02 3.36283E+01 0.00000E+00
 -1      3688 1.22475E+02 3.36283E+01 0.00000E+00
 -1      3689 1.20300E+02 3.23293E+01 0.00000E+00
 -1      3690 1.23975E+02 3.36283E+01 0.00000E+00
 -1      3691 1.25475E+02 3.36283E+01 0.00000E+00
 -1      3692 1.23225E+02 3.23293E+01 0.00000E+00
 -1      3693 1.26975E+02 3.36283E+01 0.00000E+00
 -1      3694 1.28475E+02 3.36283E+01 0.00000E+00
 -1      3695 1.26225E+02 3.23293E+01 0.00000E+00
 -1      3696 1.29975E+02 3.36283E+01 0.00000E+00
 -1      3697 1.31475E+02 3.36283E+01 0.00000E+00
 -1      3698 1.29225E+02 3.23293E+01 0.00000E+00
 -1      3699 4.97850E+01 1.56973E+01 0.00000E+00
 -1      3700 4.82850E+01 1.56973E+01 0.00000E+00
 -1      3701 2.90134E+01 1.89358E+01 0.00000E+00
 -1      3702 3.00189E+01 1.78284E+01 0.00000E+00
 -1      3703 4.67850E+01 1.56973E+01 0.00000E+00
 -1      3704 4.52850E+01 1.56973E+01 0.00000E+00
 -1      3705 4.75350E+01 1.69963E+01 0.00000E+00
 -1      3706 4.07850E+01 1.56973E+01 0.00000E+00
 -1      3707 3.92850E+01 1.56973E+01 0.00000E+00
 -1      3708 5.27850E+01 1.56973E+01 0.00000E+00
 -1      3709 5.12850E+01 1.56973E+01 0.00000E+00
 -1      3710 5.05350E+01 1.69963E+01 0.00000E+00
 -1      3711 5.57850E+01 1.56973E+01 0.00000E+00
 -1      3712 5.42850E+01 1.56973E+01 0.00000E+00
 -1      3713 5.35350E+01 1.69963E+01 0.00000E+00
 -1      3714 5.87850E+01 1.56973E+01 0.00000E+00
 -1      3715 5.72850E+01 1.56973E+01 0.00000E+00
 -1      3716 5.65350E+01 1.69963E+01 0.00000E+00
 -1      3717 6.17850E+01 1.56973E+01 0.00000E+00
 -1      3718 6.02850E+01 1.56973E+01 0.00000E+00
 -1      3719 5.95350E+01 1.69963E+01 0.00000E+00
 -1      3720 6.47850E+01 1.56973E+01 0.00000E+00
 -1      3721 6.32850E+01 1.56973E+01 0.00000E+00
 -1      3722 6.25350E+01 1.69963E+01 0.00000E+00
 -1      3723 6.77850E+01 1.56973E+01 0.00000E+00
 -1      3724 6.62850E+01 1.56973E+01 0.00000E+00
 -1      3725 6.55350E+01 1.69963E+01 0.00000E+00
 -1      3726 7.07850E+01 1.56973E+01 0.00000E+00
 -1      3727 6.92850E+01 1.56973E+01 0.00000E+00
 -1      3728 6.85350E+01 1.69963E+01 0.00000E+00
 -1      3729 7.37850E+01 1.56973E+01 0.00000E+00
 -1      3730 7.22850E+01 1.56973E+01 0.00000E+00
 -1      3731 7.15350E+01 1.69963E+01 0.00000E+00
 -1      3732 7.67850E+01 1.56973E+01 0.00000E+00
 -1      3733 7.52850E+01 1.56973E+01 0.00000E+00
 -1      3734 7.45350E+01 1.69963E+01 0.00000E+00
 -1      3735 7.97850E+01 1.56973E+01 0.00000E+00
 -1      3736 7.82850E+01 1.56973E+01 0.00000E+00
 -1      3737 7.75350E+01 1.69963E+01 0.00000E+00
 -1      3738 8.27850E+01 1.56973E+01 0.00000E+00
 -1      3739 8.12850E+01 1.56973E+01 0.00000E+00
 -1      3740 8.05350E+01 1.69963E+01 0.00000E+00
 -1      3741 8.57850E+01 1.56973E+01 0.00000E+00
 -1      3742 8.42850E+01 1.56973E+01 0.00000E+00
 -1      3743 8.35350E+01 1.69963E+01 0.00000E+00
 -1      3744 8.87850E+01 1.56973E+01 0.00000E+00
 -1      3745 8.72850E+01 1.56973E+01 0.00000E+00
 -1      3746 8.65350E+01 1.69963E+01 0.00000E+00
 -1      3747 9.17850E+01 1.56973E+01 0.00000E+00
 -1      3748 9.02850E+01 1.56973E+01 0.00000E+00
 -1      3749 8.95350E+01 1.69963E+01 0.00000E+00
 -1      3750 9.47850E+01 1.56973E+01 0.00000E+00
 -1      3751 9.32850E+01 1.56973E+01 0.00000E+00
 -1      3752 9.25350E+01 1.69963E+01 0.00000E+00
 -1      3753 9.77850E+01 1.56973E+01 0.00000E+00
 -1      3754 9.62850E+01 1.56973E+01 0.00000E+00
 -1      3755 9.55350E+01 1.69963E+01 0.00000E+00
 -1      3756 1.00785E+02 1.56973E+01 0.00000E+00
 -1      3757 9.92850E+01 1.56973E+01 0.00000E+00
 -1      3758 9.85350E+01 1.69963E+01 0.00000E+00
 -1      3759 1.03785E+02 1.56973E+01 0.00000E+00
 -1      3760 1.02285E+02 1.56973E+01 0.00000E+00
 -1      3761 1.01535E+02 1.69963E+01 0.00000E+00
 -1      3762 1.06785E+02 1.56973E+01 0.00000E+00
 -1      3763 1.05285E+02 1.56973E+01 0.00000E+00
 -1      3764 1.04535E+02 1.69963E+01 0.00000E+00
 -1      3765 1.09785E+02 1.56973E+01 0.00000E+00
 -1      3766 1.08285E+02 1.56973E+01 0.00000E+00
 -1      3767 1.07535E+02 1.69963E+01 0.00000E+00
 -1      3768 1.12785E+02 1.56973E+01 0.00000E+00
 -1      3769 1.11285E+02 1.56973E+01 0.00000E+00
 -1      3770 1.10535E+02 1.69963E+01 0.00000E+00
 -1      3771 1.15785E+02 1.56973E+01 0.00000E+00
 -1      3772 1.14285E+02 1.56973E+01 0.00000E+00
 -1      3773 1.13535E+02 1.69963E+01 0.00000E+00
 -1      3774 1.18785E+02 1.56973E+01 0.00000E+00
 -1      3775 1.17285E+02 1.56973E+01 0.00000E+00
 -1      3776 1.16535E+02 1.69963E+01 0.00000E+00
 -1      3777 1.21785E+02 1.56973E+01 0.00000E+00
 -1      3778 1.20285E+02 1.56973E+01 0.00000E+00
 -1      3779 1.19535E+02 1.69963E+01 0.00000E+00
 -1      3780 1.24785E+02 1.56973E+01 0.00000E+00
 -1      3781 1.23285E+02 1.56973E+01 0.00000E+00
 -1      3782 1.22535E+02 1.69963E+01 0.00000E+00
 -1      3783 1.27785E+02 1.56973E+01 0.00000E+00
 -1      3784 1.26285E+02 1.56973E+01 0.00000E+00
 -1      3785 1.25535E+02 1.69963E+01 0.00000E+00
 -1      3786 1.30785E+02 1.56973E+01 0.00000E+00
 -1      3787 1.29285E+02 1.56973E+01 0.00000E+00
 -1      3788 1.28535E+02 1.69963E+01 0.00000E+00
 -1      3789 1.32568E+02 3.23396E+01 0.00000E+00
 -1      3790 4.27150E+01 2.54594E+01 0.00000E+00
 -1      3791 4.35622E+01 2.73173E+01 0.00000E+00
 -1      3792 2.83188E+01 1.85452E+01 0.00000E+00
 -1      3793 1.71751E+01 2.10338E+01 0.00000E+00
 -1      3794 4.65750E+01 3.36283E+01 0.00000E+00
 -1      3795 4.80750E+01 3.36283E+01 0.00000E+00
 -1      3796 4.88250E+01 3.23293E+01 0.00000E+00
 -1      3797 4.01959E+01 2.18217E+01 0.00000E+00
 -1      3798 4.14840E+01 2.34493E+01 0.00000E+00
 -1      3799 4.37850E+01 1.56973E+01 0.00000E+00
 -1      3800 4.22850E+01 1.56973E+01 0.00000E+00
 -1      3801 4.15350E+01 1.69963E+01 0.00000E+00
 -1      3802 4.45350E+01 1.69963E+01 0.00000E+00
 -1      3803 3.27592E+01 1.75721E+01 0.00000E+00
 -1      3804 3.45899E+01 1.84012E+01 0.00000E+00
 -1      3805 1.35838E+02 1.55213E+01 0.00000E+00
 -1      3806 3.66542E+01 1.91906E+01 0.00000E+00
 -1      3807 3.83483E+01 2.01945E+01 0.00000E+00
 -1      3808 5.25750E+01 3.36283E+01 0.00000E+00
 -1      3809 5.40750E+01 3.36283E+01 0.00000E+00
 -1      3810 5.18250E+01 3.23293E+01 0.00000E+00
 -1      3811 2.90447E+01 1.59536E+01 0.00000E+00
 -1      3812 2.75447E+01 1.59536E+01 0.00000E+00
 -1      3813 4.40617E+01 2.95535E+01 0.00000E+00
 -1      3814 4.41998E+01 3.12801E+01 0.00000E+00
 -1      3815 1.65940E+01 1.94168E+01 0.00000E+00
 -1      3816 1.77855E+01 2.02452E+01 0.00000E+00
 -1      3817 1.83958E+01 1.94567E+01 0.00000E+00
 -1      3818 3.77850E+01 1.56973E+01 0.00000E+00
 -1      3819 3.62850E+01 1.56973E+01 0.00000E+00
 -1      3820 3.55350E+01 1.69963E+01 0.00000E+00
 -1      3821 3.85350E+01 1.69963E+01 0.00000E+00
 -1      3822 4.44524E+01 3.35829E+01 0.00000E+00
 -1      3823 1.40436E+01 1.82352E+01 0.00000E+00
 -1      3824 1.55404E+01 1.87941E+01 0.00000E+00
 -1      3825 1.61508E+01 1.80055E+01 0.00000E+00
 -1      3826 1.40436E+01 1.67602E+01 0.00000E+00
 -1      3827 4.52024E+01 3.22839E+01 0.00000E+00
 -1      3828 3.05092E+01 1.62731E+01 0.00000E+00
 -1      3829 2.75516E+01 1.81083E+01 0.00000E+00
 -1      3830 3.20092E+01 1.62731E+01 0.00000E+00
 -1      3831 1.34539E+02 1.62588E+01 0.00000E+00
 -1      3832 4.34641E+01 2.22194E+01 0.00000E+00
 -1      3833 4.30895E+01 2.38394E+01 0.00000E+00
 -1      3834 4.46950E+01 2.42295E+01 0.00000E+00
 -1      3835 1.12857E+01 3.76080E+01 0.00000E+00
 -1      3836 4.55785E+01 2.66177E+01 0.00000E+00
 -1      3837 4.48201E+01 2.80856E+01 0.00000E+00
 -1      3838 4.60780E+01 2.88538E+01 0.00000E+00
 -1      3839 2.18910E+01 1.43586E+01 0.00000E+00
 -1      3840 1.51078E+01 1.63055E+01 0.00000E+00
 -1      3841 1.33039E+02 1.62588E+01 0.00000E+00
 -1      3842 1.32568E+02 3.08771E+01 0.00000E+00
 -1      3843 1.32289E+02 1.75578E+01 0.00000E+00
 -1      3844 5.48250E+01 3.23293E+01 0.00000E+00
 -1      3845 2.48009E+01 1.92615E+01 0.00000E+00
 -1      3846 2.13201E+01 2.00503E+01 0.00000E+00
 -1      3847 2.18779E+01 1.92553E+01 0.00000E+00
 -1      3848 2.01451E+01 1.94901E+01 0.00000E+00
 -1      3849 1.33113E+02 2.57516E+01 0.00000E+00
 -1      3850 1.33113E+02 2.42797E+01 0.00000E+00
 -1      3851 1.33113E+02 2.86891E+01 0.00000E+00
 -1      3852 1.33113E+02 2.72203E+01 0.00000E+00
 -1      3853 1.31814E+02 2.64844E+01 0.00000E+00
 -1      3854 1.94969E+01 1.56179E+01 0.00000E+00
 -1      3855 1.79969E+01 1.56179E+01 0.00000E+00
 -1      3856 4.00110E+01 2.02022E+01 0.00000E+00
 -1      3857 2.65419E+01 1.65529E+01 0.00000E+00
 -1      3858 4.63223E+01 3.13255E+01 0.00000E+00
 -1      3859 1.69327E+01 1.60726E+01 0.00000E+00
 -1      3860 1.33113E+02 2.28078E+01 0.00000E+00
 -1      3861 1.33113E+02 2.13359E+01 0.00000E+00
 -1      3862 1.31814E+02 2.35438E+01 0.00000E+00
 -1      3863 2.49214E+01 1.79072E+01 0.00000E+00
 -1      3864 2.49145E+01 1.57525E+01 0.00000E+00
 -1      3865 2.34145E+01 1.57525E+01 0.00000E+00
 -1      3866 2.31735E+01 1.84611E+01 0.00000E+00
 -1      3867 5.99250E+01 3.10303E+01 0.00000E+00
 -1      3868 6.14250E+01 3.10303E+01 0.00000E+00
 -1      3869 6.29250E+01 3.10303E+01 0.00000E+00
 -1      3870 6.44250E+01 3.10303E+01 0.00000E+00
 -1      3871 6.21750E+01 2.97313E+01 0.00000E+00
 -1      3872 6.59250E+01 3.10303E+01 0.00000E+00
 -1      3873 6.74250E+01 3.10303E+01 0.00000E+00
 -1      3874 6.51750E+01 2.97313E+01 0.00000E+00
 -1      3875 6.89250E+01 3.10303E+01 0.00000E+00
 -1      3876 7.04250E+01 3.10303E+01 0.00000E+00
 -1      3877 6.81750E+01 2.97313E+01 0.00000E+00
 -1      3878 7.19250E+01 3.10303E+01 0.00000E+00
 -1      3879 7.34250E+01 3.10303E+01 0.00000E+00
 -1      3880 7.11750E+01 2.97313E+01 0.00000E+00
 -1      3881 7.49250E+01 3.10303E+01 0.00000E+00
 -1      3882 7.64250E+01 3.10303E+01 0.00000E+00
 -1      3883 7.41750E+01 2.97313E+01 0.00000E+00
 -1      3884 7.78500E+01 3.10303E+01 0.00000E+00
 -1      3885 7.92750E+01 3.10303E+01 0.00000E+00
 -1      3886 7.71000E+01 2.97313E+01 0.00000E+00
 -1      3887 8.07750E+01 3.10303E+01 0.00000E+00
 -1      3888 8.22750E+01 3.10303E+01 0.00000E+00
 -1      3889 8.00250E+01 2.97313E+01 0.00000E+00
 -1      3890 8.37750E+01 3.10303E+01 0.00000E+00
 -1      3891 8.52750E+01 3.10303E+01 0.00000E+00
 -1      3892 8.30250E+01 2.97313E+01 0.00000E+00
 -1      3893 8.67750E+01 3.10303E+01 0.00000E+00
 -1      3894 8.82750E+01 3.10303E+01 0.00000E+00
 -1      3895 8.60250E+01 2.97313E+01 0.00000E+00
 -1      3896 8.97750E+01 3.10303E+01 0.00000E+00
 -1      3897 9.12750E+01 3.10303E+01 0.00000E+00
 -1      3898 8.90250E+01 2.97313E+01 0.00000E+00
 -1      3899 9.27750E+01 3.10303E+01 0.00000E+00
 -1      3900 9.42750E+01 3.10303E+01 0.00000E+00
 -1      3901 9.20250E+01 2.97313E+01 0.00000E+00
 -1      3902 9.57750E+01 3.10303E+01 0.00000E+00
 -1      3903 9.72750E+01 3.10303E+01 0.00000E+00
 -1      3904 9.50250E+01 2.97313E+01 0.00000E+00
 -1      3905 9.87000E+01 3.10303E+01 0.00000E+00
 -1      3906 1.00125E+02 3.10303E+01 0.00000E+00
 -1      3907 9.79500E+01 2.97313E+01 0.00000E+00
 -1      3908 1.01625E+02 3.10303E+01 0.00000E+00
 -1      3909 1.03125E+02 3.10303E+01 0.00000E+00
 -1      3910 1.00875E+02 2.97313E+01 0.00000E+00
 -1      3911 1.04625E+02 3.10303E+01 0.00000E+00
 -1      3912 1.06125E+02 3.10303E+01 0.00000E+00
 -1      3913 1.03875E+02 2.97313E+01 0.00000E+00
 -1      3914 1.07625E+02 3.10303E+01 0.00000E+00
 -1      3915 1.09125E+02 3.10303E+01 0.00000E+00
 -1      3916 1.06875E+02 2.97313E+01 0.00000E+00
 -1      3917 1.10625E+02 3.10303E+01 0.00000E+00
 -1      3918 1.12125E+02 3.10303E+01 0.00000E+00
 -1      3919 1.09875E+02 2.97313E+01 0.00000E+00
 -1      3920 1.13625E+02 3.10303E+01 0.00000E+00
 -1      3921 1.15125E+02 3.10303E+01 0.00000E+00
 -1      3922 1.12875E+02 2.97313E+01 0.00000E+00
 -1      3923 1.16625E+02 3.10303E+01 0.00000E+00
 -1      3924 1.18125E+02 3.10303E+01 0.00000E+00
 -1      3925 1.15875E+02 2.97313E+01 0.00000E+00
 -1      3926 1.19550E+02 3.10303E+01 0.00000E+00
 -1      3927 1.20975E+02 3.10303E+01 0.00000E+00
 -1      3928 1.18800E+02 2.97313E+01 0.00000E+00
 -1      3929 1.22475E+02 3.10303E+01 0.00000E+00
 -1      3930 1.23975E+02 3.10303E+01 0.00000E+00
 -1      3931 1.21725E+02 2.97313E+01 0.00000E+00
 -1      3932 1.25475E+02 3.10303E+01 0.00000E+00
 -1      3933 1.26975E+02 3.10303E+01 0.00000E+00
 -1      3934 1.24725E+02 2.97313E+01 0.00000E+00
 -1      3935 1.28475E+02 3.10303E+01 0.00000E+00
 -1      3936 1.29975E+02 3.10303E+01 0.00000E+00
 -1      3937 1.27725E+02 2.97313E+01 0.00000E+00
 -1      3938 5.42850E+01 1.82952E+01 0.00000E+00
 -1      3939 5.27850E+01 1.82952E+01 0.00000E+00
 -1      3940 3.60899E+01 1.84012E+01 0.00000E+00
 -1      3941 5.12850E+01 1.82952E+01 0.00000E+00
 -1      3942 4.97850E+01 1.82952E+01 0.00000E+00
 -1      3943 5.20350E+01 1.95942E+01 0.00000E+00
 -1      3944 6.02850E+01 1.82952E+01 0.00000E+00
 -1      3945 5.87850E+01 1.82952E+01 0.00000E+00
 -1      3946 6.32850E+01 1.82952E+01 0.00000E+00
 -1      3947 6.17850E+01 1.82952E+01 0.00000E+00
 -1      3948 6.10350E+01 1.95942E+01 0.00000E+00
 -1      3949 6.62850E+01 1.82952E+01 0.00000E+00
 -1      3950 6.47850E+01 1.82952E+01 0.00000E+00
 -1      3951 6.40350E+01 1.95942E+01 0.00000E+00
 -1      3952 6.92850E+01 1.82952E+01 0.00000E+00
 -1      3953 6.77850E+01 1.82952E+01 0.00000E+00
 -1      3954 6.70350E+01 1.95942E+01 0.00000E+00
 -1      3955 7.22850E+01 1.82952E+01 0.00000E+00
 -1      3956 7.07850E+01 1.82952E+01 0.00000E+00
 -1      3957 7.00350E+01 1.95942E+01 0.00000E+00
 -1      3958 7.52850E+01 1.82952E+01 0.00000E+00
 -1      3959 7.37850E+01 1.82952E+01 0.00000E+00
 -1      3960 7.30350E+01 1.95942E+01 0.00000E+00
 -1      3961 7.82850E+01 1.82952E+01 0.00000E+00
 -1      3962 7.67850E+01 1.82952E+01 0.00000E+00
 -1      3963 7.60350E+01 1.95942E+01 0.00000E+00
 -1      3964 8.12850E+01 1.82952E+01 0.00000E+00
 -1      3965 7.97850E+01 1.82952E+01 0.00000E+00
 -1      3966 7.90350E+01 1.95942E+01 0.00000E+00
 -1      3967 8.42850E+01 1.82952E+01 0.00000E+00
 -1      3968 8.27850E+01 1.82952E+01 0.00000E+00
 -1      3969 8.20350E+01 1.95942E+01 0.00000E+00
 -1      3970 8.72850E+01 1.82952E+01 0.00000E+00
 -1      3971 8.57850E+01 1.82952E+01 0.00000E+00
 -1      3972 8.50350E+01 1.95942E+01 0.00000E+00
 -1      3973 9.02850E+01 1.82952E+01 0.00000E+00
 -1      3974 8.87850E+01 1.82952E+01 0.00000E+00
 -1      3975 8.80350E+01 1.95942E+01 0.00000E+00
 -1      3976 9.32850E+01 1.82952E+01 0.00000E+00
 -1      3977 9.17850E+01 1.82952E+01 0.00000E+00
 -1      3978 9.10350E+01 1.95942E+01 0.00000E+00
 -1      3979 9.62850E+01 1.82952E+01 0.00000E+00
 -1      3980 9.47850E+01 1.82952E+01 0.00000E+00
 -1      3981 9.40350E+01 1.95942E+01 0.00000E+00
 -1      3982 9.92850E+01 1.82952E+01 0.00000E+00
 -1      3983 9.77850E+01 1.82952E+01 0.00000E+00
 -1      3984 9.70350E+01 1.95942E+01 0.00000E+00
 -1      3985 1.02285E+02 1.82952E+01 0.00000E+00
 -1      3986 1.00785E+02 1.82952E+01 0.00000E+00
 -1      3987 1.00035E+02 1.95942E+01 0.00000E+00
 -1      3988 1.05285E+02 1.82952E+01 0.00000E+00
 -1      3989 1.03785E+02 1.82952E+01 0.00000E+00
 -1      3990 1.03035E+02 1.95942E+01 0.00000E+00
 -1      3991 1.08285E+02 1.82952E+01 0.00000E+00
 -1      3992 1.06785E+02 1.82952E+01 0.00000E+00
 -1      3993 1.06035E+02 1.95942E+01 0.00000E+00
 -1      3994 1.11285E+02 1.82952E+01 0.00000E+00
 -1      3995 1.09785E+02 1.82952E+01 0.00000E+00
 -1      3996 1.09035E+02 1.95942E+01 0.00000E+00
 -1      3997 1.14285E+02 1.82952E+01 0.00000E+00
 -1      3998 1.12785E+02 1.82952E+01 0.00000E+00
 -1      3999 1.12035E+02 1.95942E+01 0.00000E+00
 -1      4000 1.17285E+02 1.82952E+01 0.00000E+00
 -1      4001 1.15785E+02 1.82952E+01 0.00000E+00
 -1      4002 1.15035E+02 1.95942E+01 0.00000E+00
 -1      4003 1.20285E+02 1.82952E+01 0.00000E+00
 -1      4004 1.18785E+02 1.82952E+01 0.00000E+00
 -1      4005 1.18035E+02 1.95942E+01 0.00000E+00
 -1      4006 1.23285E+02 1.82952E+01 0.00000E+00
 -1      4007 1.21785E+02 1.82952E+01 0.00000E+00
 -1      4008 1.21035E+02 1.95942E+01 0.00000E+00
 -1      4009 1.26285E+02 1.82952E+01 0.00000E+00
 -1      4010 1.24785E+02 1.82952E+01 0.00000E+00
 -1      4011 1.24035E+02 1.95942E+01 0.00000E+00
 -1      4012 1.29285E+02 1.82952E+01 0.00000E+00
 -1      4013 1.27785E+02 1.82952E+01 0.00000E+00
 -1      4014 1.27035E+02 1.95942E+01 0.00000E+00
 -1      4015 2.17705E+01 1.57129E+01 0.00000E+00
 -1      4016 1.31270E+02 3.01412E+01 0.00000E+00
 -1      4017 1.31823E+02 2.05737E+01 0.00000E+00
 -1      4018 1.33122E+02 1.98377E+01 0.00000E+00
 -1      4019 2.10205E+01 1.70119E+01 0.00000E+00
 -1      4020 5.72850E+01 1.82952E+01 0.00000E+00
 -1      4021 5.57850E+01 1.82952E+01 0.00000E+00
 -1      4022 5.50350E+01 1.95942E+01 0.00000E+00
 -1      4023 1.33188E+02 1.85974E+01 0.00000E+00
 -1      4024 4.82850E+01 1.82952E+01 0.00000E+00
 -1      4025 4.67850E+01 1.82952E+01 0.00000E+00
 -1      4026 4.90350E+01 1.95942E+01 0.00000E+00
 -1      4027 5.10750E+01 3.10303E+01 0.00000E+00
 -1      4028 5.25750E+01 3.10303E+01 0.00000E+00
 -1      4029 3.75992E+01 1.77856E+01 0.00000E+00
 -1      4030 1.69221E+01 1.71499E+01 0.00000E+00
 -1      4031 1.89536E+01 1.86617E+01 0.00000E+00
 -1      4032 3.90992E+01 1.77856E+01 0.00000E+00
 -1      4033 4.69502E+01 3.00897E+01 0.00000E+00
 -1      4034 4.79528E+01 3.10935E+01 0.00000E+00
 -1      4035 4.94528E+01 3.10935E+01 0.00000E+00
 -1      4036 4.77085E+01 2.86218E+01 0.00000E+00
 -1      4037 5.70750E+01 3.10303E+01 0.00000E+00
 -1      4038 5.85000E+01 3.10303E+01 0.00000E+00
 -1      4039 5.92500E+01 2.97313E+01 0.00000E+00
 -1      4040 5.40750E+01 3.10303E+01 0.00000E+00
 -1      4041 5.55750E+01 3.10303E+01 0.00000E+00
 -1      4042 5.33250E+01 2.97313E+01 0.00000E+00
 -1      4043 1.30515E+02 2.42797E+01 0.00000E+00
 -1      4044 1.30515E+02 2.28078E+01 0.00000E+00
 -1      4045 1.28876E+02 2.15690E+01 0.00000E+00
 -1      4046 1.30174E+02 2.08331E+01 0.00000E+00
 -1      4047 4.59530E+01 2.49977E+01 0.00000E+00
 -1      4048 4.72109E+01 2.57660E+01 0.00000E+00
 -1      4049 4.63275E+01 2.33778E+01 0.00000E+00
 -1      4050 1.30520E+02 2.88422E+01 0.00000E+00
 -1      4051 1.79757E+01 1.77726E+01 0.00000E+00
 -1      4052 1.30184E+02 1.93349E+01 0.00000E+00
 -1      4053 4.09468E+01 1.94128E+01 0.00000E+00
 -1      4054 1.30515E+02 2.72172E+01 0.00000E+00
 -1      4055 1.30515E+02 2.57484E+01 0.00000E+00
 -1      4056 1.29216E+02 2.50125E+01 0.00000E+00
 -1      4057 5.80350E+01 1.95942E+01 0.00000E+00
 -1      4058 4.24468E+01 1.94128E+01 0.00000E+00
 -1      4059 5.02028E+01 2.97945E+01 0.00000E+00
 -1      4060 5.63250E+01 2.97313E+01 0.00000E+00
 -1      4061 4.42936E+01 1.83996E+01 0.00000E+00
 -1      4062 4.37054E+01 2.08161E+01 0.00000E+00
 -1      4063 4.53109E+01 2.12062E+01 0.00000E+00
 -1      4064 4.57936E+01 1.83996E+01 0.00000E+00
 -1      4065 1.97249E+01 1.78060E+01 0.00000E+00
 -1      4066 4.65436E+01 1.96986E+01 0.00000E+00
 -1      4067 6.44250E+01 2.84323E+01 0.00000E+00
 -1      4068 6.59250E+01 2.84323E+01 0.00000E+00
 -1      4069 6.74250E+01 2.84323E+01 0.00000E+00
 -1      4070 6.89250E+01 2.84323E+01 0.00000E+00
 -1      4071 6.66750E+01 2.71333E+01 0.00000E+00
 -1      4072 7.04250E+01 2.84323E+01 0.00000E+00
 -1      4073 7.19250E+01 2.84323E+01 0.00000E+00
 -1      4074 6.96750E+01 2.71333E+01 0.00000E+00
 -1      4075 7.34250E+01 2.84323E+01 0.00000E+00
 -1      4076 7.49250E+01 2.84323E+01 0.00000E+00
 -1      4077 7.26750E+01 2.71333E+01 0.00000E+00
 -1      4078 7.63500E+01 2.84323E+01 0.00000E+00
 -1      4079 7.77750E+01 2.84323E+01 0.00000E+00
 -1      4080 7.56000E+01 2.71333E+01 0.00000E+00
 -1      4081 7.92750E+01 2.84323E+01 0.00000E+00
 -1      4082 8.07750E+01 2.84323E+01 0.00000E+00
 -1      4083 7.85250E+01 2.71333E+01 0.00000E+00
 -1      4084 8.22750E+01 2.84323E+01 0.00000E+00
 -1      4085 8.37750E+01 2.84323E+01 0.00000E+00
 -1      4086 8.15250E+01 2.71333E+01 0.00000E+00
 -1      4087 8.52750E+01 2.84323E+01 0.00000E+00
 -1      4088 8.67750E+01 2.84323E+01 0.00000E+00
 -1      4089 8.45250E+01 2.71333E+01 0.00000E+00
 -1      4090 8.82750E+01 2.84323E+01 0.00000E+00
 -1      4091 8.97750E+01 2.84323E+01 0.00000E+00
 -1      4092 8.75250E+01 2.71333E+01 0.00000E+00
 -1      4093 9.12750E+01 2.84323E+01 0.00000E+00
 -1      4094 9.27750E+01 2.84323E+01 0.00000E+00
 -1      4095 9.05250E+01 2.71333E+01 0.00000E+00
 -1      4096 9.42750E+01 2.84323E+01 0.00000E+00
 -1      4097 9.57750E+01 2.84323E+01 0.00000E+00
 -1      4098 9.35250E+01 2.71333E+01 0.00000E+00
 -1      4099 9.72000E+01 2.84323E+01 0.00000E+00
 -1      4100 9.86250E+01 2.84323E+01 0.00000E+00
 -1      4101 9.64500E+01 2.71333E+01 0.00000E+00
 -1      4102 1.00125E+02 2.84323E+01 0.00000E+00
 -1      4103 1.01625E+02 2.84323E+01 0.00000E+00
 -1      4104 9.93750E+01 2.71333E+01 0.00000E+00
 -1      4105 1.03125E+02 2.84323E+01 0.00000E+00
 -1      4106 1.04625E+02 2.84323E+01 0.00000E+00
 -1      4107 1.02375E+02 2.71333E+01 0.00000E+00
 -1      4108 1.06125E+02 2.84323E+01 0.00000E+00
 -1      4109 1.07625E+02 2.84323E+01 0.00000E+00
 -1      4110 1.05375E+02 2.71333E+01 0.00000E+00
 -1      4111 1.09125E+02 2.84323E+01 0.00000E+00
 -1      4112 1.10625E+02 2.84323E+01 0.00000E+00
 -1      4113 1.08375E+02 2.71333E+01 0.00000E+00
 -1      4114 1.12125E+02 2.84323E+01 0.00000E+00
 -1      4115 1.13625E+02 2.84323E+01 0.00000E+00
 -1      4116 1.11375E+02 2.71333E+01 0.00000E+00
 -1      4117 1.15125E+02 2.84323E+01 0.00000E+00
 -1      4118 1.16625E+02 2.84323E+01 0.00000E+00
 -1      4119 1.14375E+02 2.71333E+01 0.00000E+00
 -1      4120 1.18050E+02 2.84323E+01 0.00000E+00
 -1      4121 1.19475E+02 2.84323E+01 0.00000E+00
 -1      4122 1.17300E+02 2.71333E+01 0.00000E+00
 -1      4123 1.20975E+02 2.84323E+01 0.00000E+00
 -1      4124 1.22475E+02 2.84323E+01 0.00000E+00
 -1      4125 1.20225E+02 2.71333E+01 0.00000E+00
 -1      4126 1.23975E+02 2.84323E+01 0.00000E+00
 -1      4127 1.25475E+02 2.84323E+01 0.00000E+00
 -1      4128 1.23225E+02 2.71333E+01 0.00000E+00
 -1      4129 1.30934E+02 1.80359E+01 0.00000E+00
 -1      4130 5.27850E+01 2.08932E+01 0.00000E+00
 -1      4131 5.12850E+01 2.08932E+01 0.00000E+00
 -1      4132 6.47850E+01 2.08932E+01 0.00000E+00
 -1      4133 6.32850E+01 2.08932E+01 0.00000E+00
 -1      4134 6.17850E+01 2.08932E+01 0.00000E+00
 -1      4135 6.02850E+01 2.08932E+01 0.00000E+00
 -1      4136 6.25350E+01 2.21922E+01 0.00000E+00
 -1      4137 7.07850E+01 2.08932E+01 0.00000E+00
 -1      4138 6.92850E+01 2.08932E+01 0.00000E+00
 -1      4139 7.37850E+01 2.08932E+01 0.00000E+00
 -1      4140 7.22850E+01 2.08932E+01 0.00000E+00
 -1      4141 7.15350E+01 2.21922E+01 0.00000E+00
 -1      4142 7.67850E+01 2.08932E+01 0.00000E+00
 -1      4143 7.52850E+01 2.08932E+01 0.00000E+00
 -1      4144 7.45350E+01 2.21922E+01 0.00000E+00
 -1      4145 7.97850E+01 2.08932E+01 0.00000E+00
 -1      4146 7.82850E+01 2.08932E+01 0.00000E+00
 -1      4147 7.75350E+01 2.21922E+01 0.00000E+00
 -1      4148 8.27850E+01 2.08932E+01 0.00000E+00
 -1      4149 8.12850E+01 2.08932E+01 0.00000E+00
 -1      4150 8.05350E+01 2.21922E+01 0.00000E+00
 -1      4151 8.57850E+01 2.08932E+01 0.00000E+00
 -1      4152 8.42850E+01 2.08932E+01 0.00000E+00
 -1      4153 8.35350E+01 2.21922E+01 0.00000E+00
 -1      4154 8.87850E+01 2.08932E+01 0.00000E+00
 -1      4155 8.72850E+01 2.08932E+01 0.00000E+00
 -1      4156 8.65350E+01 2.21922E+01 0.00000E+00
 -1      4157 9.17850E+01 2.08932E+01 0.00000E+00
 -1      4158 9.02850E+01 2.08932E+01 0.00000E+00
 -1      4159 8.95350E+01 2.21922E+01 0.00000E+00
 -1      4160 9.47850E+01 2.08932E+01 0.00000E+00
 -1      4161 9.32850E+01 2.08932E+01 0.00000E+00
 -1      4162 9.25350E+01 2.21922E+01 0.00000E+00
 -1      4163 9.77850E+01 2.08932E+01 0.00000E+00
 -1      4164 9.62850E+01 2.08932E+01 0.00000E+00
 -1      4165 9.55350E+01 2.21922E+01 0.00000E+00
 -1      4166 1.00785E+02 2.08932E+01 0.00000E+00
 -1      4167 9.92850E+01 2.08932E+01 0.00000E+00
 -1      4168 9.85350E+01 2.21922E+01 0.00000E+00
 -1      4169 1.03785E+02 2.08932E+01 0.00000E+00
 -1      4170 1.02285E+02 2.08932E+01 0.00000E+00
 -1      4171 1.01535E+02 2.21922E+01 0.00000E+00
 -1      4172 1.06785E+02 2.08932E+01 0.00000E+00
 -1      4173 1.05285E+02 2.08932E+01 0.00000E+00
 -1      4174 1.04535E+02 2.21922E+01 0.00000E+00
 -1      4175 1.09785E+02 2.08932E+01 0.00000E+00
 -1      4176 1.08285E+02 2.08932E+01 0.00000E+00
 -1      4177 1.07535E+02 2.21922E+01 0.00000E+00
 -1      4178 1.12785E+02 2.08932E+01 0.00000E+00
 -1      4179 1.11285E+02 2.08932E+01 0.00000E+00
 -1      4180 1.10535E+02 2.21922E+01 0.00000E+00
 -1      4181 1.15785E+02 2.08932E+01 0.00000E+00
 -1      4182 1.14285E+02 2.08932E+01 0.00000E+00
 -1      4183 1.13535E+02 2.21922E+01 0.00000E+00
 -1      4184 1.18785E+02 2.08932E+01 0.00000E+00
 -1      4185 1.17285E+02 2.08932E+01 0.00000E+00
 -1      4186 1.16535E+02 2.21922E+01 0.00000E+00
 -1      4187 1.21785E+02 2.08932E+01 0.00000E+00
 -1      4188 1.20285E+02 2.08932E+01 0.00000E+00
 -1      4189 1.19535E+02 2.21922E+01 0.00000E+00
 -1      4190 1.24785E+02 2.08932E+01 0.00000E+00
 -1      4191 1.23285E+02 2.08932E+01 0.00000E+00
 -1      4192 1.22535E+02 2.21922E+01 0.00000E+00
 -1      4193 1.27580E+02 2.12311E+01 0.00000E+00
 -1      4194 1.26080E+02 2.12311E+01 0.00000E+00
 -1      4195 1.25330E+02 2.25301E+01 0.00000E+00
 -1      4196 1.27921E+02 2.32059E+01 0.00000E+00
 -1      4197 5.57850E+01 2.08932E+01 0.00000E+00
 -1      4198 5.42850E+01 2.08932E+01 0.00000E+00
 -1      4199 5.35350E+01 2.21922E+01 0.00000E+00
 -1      4200 6.14250E+01 2.84323E+01 0.00000E+00
 -1      4201 6.29250E+01 2.84323E+01 0.00000E+00
 -1      4202 6.36750E+01 2.71333E+01 0.00000E+00
 -1      4203 2.19984E+01 1.79010E+01 0.00000E+00
 -1      4204 5.85750E+01 2.84323E+01 0.00000E+00
 -1      4205 6.00000E+01 2.84323E+01 0.00000E+00
 -1      4206 6.07500E+01 2.71333E+01 0.00000E+00
 -1      4207 5.55750E+01 2.84323E+01 0.00000E+00
 -1      4208 5.70750E+01 2.84323E+01 0.00000E+00
 -1      4209 5.78250E+01 2.71333E+01 0.00000E+00
 -1      4210 1.29221E+02 2.81063E+01 0.00000E+00
 -1      4211 6.77850E+01 2.08932E+01 0.00000E+00
 -1      4212 6.62850E+01 2.08932E+01 0.00000E+00
 -1      4213 6.55350E+01 2.21922E+01 0.00000E+00
 -1      4214 4.84585E+01 2.73228E+01 0.00000E+00
 -1      4215 4.93307E+01 2.85586E+01 0.00000E+00
 -1      4216 5.09528E+01 2.84955E+01 0.00000E+00
 -1      4217 5.25750E+01 2.84323E+01 0.00000E+00
 -1      4218 5.40750E+01 2.84323E+01 0.00000E+00
 -1      4219 5.48250E+01 2.71333E+01 0.00000E+00
 -1      4220 5.87850E+01 2.08932E+01 0.00000E+00
 -1      4221 5.72850E+01 2.08932E+01 0.00000E+00
 -1      4222 5.65350E+01 2.21922E+01 0.00000E+00
 -1      4223 5.95350E+01 2.21922E+01 0.00000E+00
 -1      4224 4.65562E+01 2.08365E+01 0.00000E+00
 -1      4225 4.63149E+01 2.22398E+01 0.00000E+00
 -1      4226 4.75728E+01 2.30081E+01 0.00000E+00
 -1      4227 4.75476E+01 2.07322E+01 0.00000E+00
 -1      4228 4.88331E+01 2.57028E+01 0.00000E+00
 -1      4229 5.17028E+01 2.71965E+01 0.00000E+00
 -1      4230 1.26598E+02 2.82693E+01 0.00000E+00
 -1      4231 1.28098E+02 2.82693E+01 0.00000E+00
 -1      4232 1.28093E+02 2.66443E+01 0.00000E+00
 -1      4233 1.25848E+02 2.69703E+01 0.00000E+00
 -1      4234 6.85350E+01 2.21922E+01 0.00000E+00
 -1      4235 4.90476E+01 2.07322E+01 0.00000E+00
 -1      4236 1.28007E+02 2.56594E+01 0.00000E+00
 -1      4237 1.28007E+02 2.41907E+01 0.00000E+00
 -1      4238 1.26712E+02 2.38528E+01 0.00000E+00
 -1      4239 1.26884E+02 2.58225E+01 0.00000E+00
 -1      4240 4.97976E+01 2.20312E+01 0.00000E+00
 -1      4241 5.70750E+01 2.58343E+01 0.00000E+00
 -1      4242 5.85750E+01 2.58343E+01 0.00000E+00
 -1      4243 6.89250E+01 2.58343E+01 0.00000E+00
 -1      4244 7.04250E+01 2.58343E+01 0.00000E+00
 -1      4245 7.21050E+01 2.46628E+01 0.00000E+00
 -1      4246 7.36050E+01 2.46628E+01 0.00000E+00
 -1      4247 7.51050E+01 2.46628E+01 0.00000E+00
 -1      4248 7.65300E+01 2.46628E+01 0.00000E+00
 -1      4249 7.80300E+01 2.46628E+01 0.00000E+00
 -1      4250 7.95300E+01 2.46628E+01 0.00000E+00
 -1      4251 8.10300E+01 2.46628E+01 0.00000E+00
 -1      4252 8.25300E+01 2.46628E+01 0.00000E+00
 -1      4253 8.40300E+01 2.46628E+01 0.00000E+00
 -1      4254 8.55300E+01 2.46628E+01 0.00000E+00
 -1      4255 8.70300E+01 2.46628E+01 0.00000E+00
 -1      4256 8.85300E+01 2.46628E+01 0.00000E+00
 -1      4257 9.00300E+01 2.46628E+01 0.00000E+00
 -1      4258 9.15300E+01 2.46628E+01 0.00000E+00
 -1      4259 9.30300E+01 2.46628E+01 0.00000E+00
 -1      4260 9.45300E+01 2.46628E+01 0.00000E+00
 -1      4261 9.86250E+01 2.58343E+01 0.00000E+00
 -1      4262 1.00125E+02 2.58343E+01 0.00000E+00
 -1      4263 1.01955E+02 2.46628E+01 0.00000E+00
 -1      4264 1.03455E+02 2.46628E+01 0.00000E+00
 -1      4265 1.04955E+02 2.46628E+01 0.00000E+00
 -1      4266 1.06455E+02 2.46628E+01 0.00000E+00
 -1      4267 1.07955E+02 2.46628E+01 0.00000E+00
 -1      4268 1.09455E+02 2.46628E+01 0.00000E+00
 -1      4269 1.10955E+02 2.46628E+01 0.00000E+00
 -1      4270 1.12455E+02 2.46628E+01 0.00000E+00
 -1      4271 1.13955E+02 2.46628E+01 0.00000E+00
 -1      4272 1.15455E+02 2.46628E+01 0.00000E+00
 -1      4273 1.19475E+02 2.58343E+01 0.00000E+00
 -1      4274 1.20975E+02 2.58343E+01 0.00000E+00
 -1      4275 1.22880E+02 2.46628E+01 0.00000E+00
 -1      4276 1.24380E+02 2.46628E+01 0.00000E+00
 -1      4277 7.13550E+01 2.33638E+01 0.00000E+00
 -1      4278 6.98550E+01 2.33638E+01 0.00000E+00
 -1      4279 9.60300E+01 2.46628E+01 0.00000E+00
 -1      4280 9.97050E+01 2.33638E+01 0.00000E+00
 -1      4281 9.82050E+01 2.33638E+01 0.00000E+00
 -1      4282 1.16955E+02 2.46628E+01 0.00000E+00
 -1      4283 1.20630E+02 2.33638E+01 0.00000E+00
 -1      4284 1.19130E+02 2.33638E+01 0.00000E+00
 -1      4285 1.25675E+02 2.50007E+01 0.00000E+00
 -1      4286 6.83550E+01 2.33638E+01 0.00000E+00
 -1      4287 6.01800E+01 2.46628E+01 0.00000E+00
 -1      4288 6.16050E+01 2.46628E+01 0.00000E+00
 -1      4289 6.31050E+01 2.46628E+01 0.00000E+00
 -1      4290 6.46050E+01 2.46628E+01 0.00000E+00
 -1      4291 5.08412E+01 2.59300E+01 0.00000E+00
 -1      4292 5.24634E+01 2.58669E+01 0.00000E+00
 -1      4293 6.61050E+01 2.46628E+01 0.00000E+00
 -1      4294 4.95936E+01 2.43732E+01 0.00000E+00
 -1      4295 5.40192E+01 2.58506E+01 0.00000E+00
 -1      4296 5.55192E+01 2.58506E+01 0.00000E+00
 -1      4297 5.62692E+01 2.45516E+01 0.00000E+00
 -1      4298 5.31576E+01 2.45841E+01 0.00000E+00
 -1      4299 5.94300E+01 2.33638E+01 0.00000E+00
 -1      4300 9.72000E+01 2.58343E+01 0.00000E+00
 -1      4301 1.18050E+02 2.58343E+01 0.00000E+00
 -1      4302 4.98102E+01 2.31691E+01 0.00000E+00
 -1      4303 1.00455E+02 2.46628E+01 0.00000E+00
 -1      4304 1.21380E+02 2.46628E+01 0.00000E+00
 -1      4305 5.79300E+01 2.33638E+01 0.00000E+00
 -1      4306 5.18184E+01 2.33963E+01 0.00000E+00
 -1      4307 5.64300E+01 2.33638E+01 0.00000E+00
 -1      4308 5.48742E+01 2.33801E+01 0.00000E+00
 -1      4309 6.74250E+01 2.58343E+01 0.00000E+00
 -1      4310 5.33742E+01 2.33801E+01 0.00000E+00
 -1      4311 1.25761E+02 2.59855E+01 0.00000E+00
 -3
    3C                          2073                                     1
 -1       166    8    0    1
 -2         6         7        23      1120      1285      1137
 -1       167    8    0    1
 -2         7         8       166      1121      1286      1287
 -1       168    8    0    1
 -2         8         9       167      1122      1288      1289
 -1       169    8    0    1
 -2         8       167       166      1289      1290      1286
 -1       170    8    0    1
 -2         9        10       168      1123      1291      1292
 -1       171    8    0    1
 -2         9       168       167      1292      1293      1288
 -1       172    8    0    1
 -2        10        11       169      1124      1294      1295
 -1       173    8    0    1
 -2        10       169       168      1295      1296      1291
 -1       174    8    0    1
 -2        11        12       170      1125      1297      1298
 -1       175    8    0    1
 -2        11       170       169      1298      1299      1294
 -1       176    8    0    1
 -2        12        13       171      1126      1300      1301
 -1       177    8    0    1
 -2        12       171       170      1301      1302      1297
 -1       178    8    0    1
 -2        13        14       172      1127      1303      1304
 -1       179    8    0    1
 -2        13       172       171      1304      1305      1300
 -1       180    8    0    1
 -2        14        15       173      1128      1306      1307
 -1       181    8    0    1
 -2        14       173       172      1307      1308      1303
 -1       182    8    0    1
 -2        15        16       174      1129      1309      1310
 -1       183    8    0    1
 -2        15       174       173      1310      1311      1306
 -1       184    8    0    1
 -2        16        17       175      1130      1312      1313
 -1       185    8    0    1
 -2        16       175       174      1313      1314      1309
 -1       186    8    0    1
 -2        17        18       176      1131      1315      1316
 -1       187    8    0    1
 -2        17       176       175      1316      1317      1312
 -1       188    8    0    1
 -2        18        19       177      1132      1318      1319
 -1       189    8    0    1
 -2        18       177       176      1319      1320      1315
 -1       190    8    0    1
 -2        19        20       178      1133      1321      1322
 -1       191    8    0    1
 -2        19       178       177      1322      1323      1318
 -1       192    8    0    1
 -2        20        21       179      1134      1324      1325
 -1       193    8    0    1
 -2        20       179       178      1325      1326      1321
 -1       194    8    0    1
 -2        21        22       180      1135      1327      1328
 -1       195    8    0    1
 -2        21       180       179      1328      1329      1324
 -1       196    8    0    1
 -2        22         5       181      1136      1330      1331
 -1       197    8    0    1
 -2       180        22       181      1327      1331      1332
 -1       198    8    0    1
 -2         5        73       181      1188      1333      1330
 -1       199    8    0    1
 -2        24        23       182      1138      1334      1335
 -1       200    8    0    1
 -2        25        24       183      1139      1336      1337
 -1       201    8    0    1
 -2        24       182       183      1335      1338      1336
 -1       202    8    0    1
 -2        26        25       184      1140      1339      1340
 -1       203    8    0    1
 -2        25       183       184      1337      1341      1339
 -1       204    8    0    1
 -2        27        26       185      1141      1342      1343
 -1       205    8    0    1
 -2        26       184       185      1340      1344      1342
 -1       206    8    0    1
 -2        28        27       186      1142      1345      1346
 -1       207    8    0    1
 -2        27       185       186      1343      1347      1345
 -1       208    8    0    1
 -2        29        28       187      1143      1348      1349
 -1       209    8    0    1
 -2        28       186       187      1346      1350      1348
 -1       210    8    0    1
 -2        30        29       188      1144      1351      1352
 -1       211    8    0    1
 -2        29       187       188      1349      1353      1351
 -1       212    8    0    1
 -2        31        30       189      1145      1354      1355
 -1       213    8    0    1
 -2        30       188       189      1352      1356      1354
 -1       214    8    0    1
 -2        32        31       190      1146      1357      1358
 -1       215    8    0    1
 -2        31       189       190      1355      1359      1357
 -1       216    8    0    1
 -2        33        32       191      1147      1360      1361
 -1       217    8    0    1
 -2        32       190       191      1358      1362      1360
 -1       218    8    0    1
 -2        34        33       192      1148      1363      1364
 -1       219    8    0    1
 -2        33       191       192      1361      1365      1363
 -1       220    8    0    1
 -2        35        34       193      1149      1366      1367
 -1       221    8    0    1
 -2        34       192       193      1364      1368      1366
 -1       222    8    0    1
 -2        36        35       194      1150      1369      1370
 -1       223    8    0    1
 -2        35       193       194      1367      1371      1369
 -1       224    8    0    1
 -2        37        36       195      1151      1372      1373
 -1       225    8    0    1
 -2        36       194       195      1370      1374      1372
 -1       226    8    0    1
 -2        38        37       196      1152      1375      1376
 -1       227    8    0    1
 -2        37       195       196      1373      1377      1375
 -1       228    8    0    1
 -2        39        38       197      1153      1378      1379
 -1       229    8    0    1
 -2        38       196       197      1376      1380      1378
 -1       230    8    0    1
 -2        40        39       198      1154      1381      1382
 -1       231    8    0    1
 -2        39       197       198      1379      1383      1381
 -1       232    8    0    1
 -2        41        40       199      1155      1384      1385
 -1       233    8    0    1
 -2        40       198       199      1382      1386      1384
 -1       234    8    0    1
 -2        42        41       200      1156      1387      1388
 -1       235    8    0    1
 -2        41       199       200      1385      1389      1387
 -1       236    8    0    1
 -2        43        42       201      1157      1390      1391
 -1       237    8    0    1
 -2        42       200       201      1388      1392      1390
 -1       238    8    0    1
 -2        44        43       202      1158      1393      1394
 -1       239    8    0    1
 -2        43       201       202      1391      1395      1393
 -1       240    8    0    1
 -2        45        44       203      1159      1396      1397
 -1       241    8    0    1
 -2        44       202       203      1394      1398      1396
 -1       242    8    0    1
 -2        46        45       204      1160      1399      1400
 -1       243    8    0    1
 -2        45       203       204      1397      1401      1399
 -1       244    8    0    1
 -2        47        46       205      1161      1402      1403
 -1       245    8    0    1
 -2        46       204       205      1400      1404      1402
 -1       246    8    0    1
 -2        48        47       206      1162      1405      1406
 -1       247    8    0    1
 -2        47       205       206      1403      1407      1405
 -1       248    8    0    1
 -2        49        48       207      1163      1408      1409
 -1       249    8    0    1
 -2        48       206       207      1406      1410      1408
 -1       250    8    0    1
 -2        50        49       208      1164      1411      1412
 -1       251    8    0    1
 -2        49       207       208      1409      1413      1411
 -1       252    8    0    1
 -2        51        50       209      1165      1414      1415
 -1       253    8    0    1
 -2        50       208       209      1412      1416      1414
 -1       254    8    0    1
 -2        52        51       210      1166      1417      1418
 -1       255    8    0    1
 -2        51       209       210      1415      1419      1417
 -1       256    8    0    1
 -2        53        52       211      1167      1420      1421
 -1       257    8    0    1
 -2        52       210       211      1418      1422      1420
 -1       258    8    0    1
 -2        54        53       212      1168      1423      1424
 -1       259    8    0    1
 -2        53       211       212      1421      1425      1423
 -1       260    8    0    1
 -2        55        54       213      1169      1426      1427
 -1       261    8    0    1
 -2        54       212       213      1424      1428      1426
 -1       262    8    0    1
 -2        56        55       214      1170      1429      1430
 -1       263    8    0    1
 -2        55       213       214      1427      1431      1429
 -1       264    8    0    1
 -2        57        56       215      1171      1432      1433
 -1       265    8    0    1
 -2        56       214       215      1430      1434      1432
 -1       266    8    0    1
 -2        58        57       216      1172      1435      1436
 -1       267    8    0    1
 -2        57       215       216      1433      1437      1435
 -1       268    8    0    1
 -2        59        58       217      1173      1438      1439
 -1       269    8    0    1
 -2        58       216       217      1436      1440      1438
 -1       270    8    0    1
 -2        60        59       218      1174      1441      1442
 -1       271    8    0    1
 -2        59       217       218      1439      1443      1441
 -1       272    8    0    1
 -2        61        60       219      1175      1444      1445
 -1       273    8    0    1
 -2        60       218       219      1442      1446      1444
 -1       274    8    0    1
 -2        62        61       220      1176      1447      1448
 -1       275    8    0    1
 -2        61       219       220      1445      1449      1447
 -1       276    8    0    1
 -2        63        62       221      1177      1450      1451
 -1       277    8    0    1
 -2        62       220       221      1448      1452      1450
 -1       278    8    0    1
 -2        64        63       222      1178      1453      1454
 -1       279    8    0    1
 -2        63       221       222      1451      1455      1453
 -1       280    8    0    1
 -2        65        64       223      1179      1456      1457
 -1       281    8    0    1
 -2        64       222       223      1454      1458      1456
 -1       282    8    0    1
 -2        66        65       224      1180      1459      1460
 -1       283    8    0    1
 -2        65       223       224      1457      1461      1459
 -1       284    8    0    1
 -2        67        66       225      1181      1462      1463
 -1       285    8    0    1
 -2        66       224       225      1460      1464      1462
 -1       286    8    0    1
 -2        68        67       226      1182      1465      1466
 -1       287    8    0    1
 -2        67       225       226      1463      1467      1465
 -1       288    8    0    1
 -2        69        68       227      1183      1468      1469
 -1       289    8    0    1
 -2        68       226       227      1466      1470      1468
 -1       290    8    0    1
 -2        70        69       228      1184      1471      1472
 -1       291    8    0    1
 -2        69       227       228      1469      1473      1471
 -1       292    8    0    1
 -2        71        70       229      1185      1474      1475
 -1       293    8    0    1
 -2        70       228       229      1472      1476      1474
 -1       294    8    0    1
 -2        72        71       230      1186      1477      1478
 -1       295    8    0    1
 -2        71       229       230      1475      1479      1477
 -1       296    8    0    1
 -2         4        72       137      1187      1480      1254
 -1       297    8    0    1
 -2        73        74       231      1189      1481      1482
 -1       298    8    0    1
 -2        73       231       181      1482      1483      1333
 -1       299    8    0    1
 -2        74        75       232      1190      1484      1485
 -1       300    8    0    1
 -2        74       232       231      1485      1486      1481
 -1       301    8    0    1
 -2        75        76       233      1191      1487      1488
 -1       302    8    0    1
 -2        75       233       232      1488      1489      1484
 -1       303    8    0    1
 -2        76        77       234      1192      1490      1491
 -1       304    8    0    1
 -2        76       234       233      1491      1492      1487
 -1       305    8    0    1
 -2        77        78       235      1193      1493      1494
 -1       306    8    0    1
 -2        77       235       234      1494      1495      1490
 -1       307    8    0    1
 -2        78        79       236      1194      1496      1497
 -1       308    8    0    1
 -2        78       236       235      1497      1498      1493
 -1       309    8    0    1
 -2        79        80       237      1195      1499      1500
 -1       310    8    0    1
 -2        79       237       236      1500      1501      1496
 -1       311    8    0    1
 -2        80        81       238      1196      1502      1503
 -1       312    8    0    1
 -2        80       238       237      1503      1504      1499
 -1       313    8    0    1
 -2        81        82       239      1197      1505      1506
 -1       314    8    0    1
 -2        81       239       238      1506      1507      1502
 -1       315    8    0    1
 -2        82        83       240      1198      1508      1509
 -1       316    8    0    1
 -2        82       240       239      1509      1510      1505
 -1       317    8    0    1
 -2        83        84       241      1199      1511      1512
 -1       318    8    0    1
 -2        83       241       240      1512      1513      1508
 -1       319    8    0    1
 -2        84        85       242      1200      1514      1515
 -1       320    8    0    1
 -2        84       242       241      1515      1516      1511
 -1       321    8    0    1
 -2        85        86       243      1201      1517      1518
 -1       322    8    0    1
 -2        85       243       242      1518      1519      1514
 -1       323    8    0    1
 -2        86        87       244      1202      1520      1521
 -1       324    8    0    1
 -2        86       244       243      1521      1522      1517
 -1       325    8    0    1
 -2        87        88       245      1203      1523      1524
 -1       326    8    0    1
 -2        87       245       244      1524      1525      1520
 -1       327    8    0    1
 -2        88        89       246      1204      1526      1527
 -1       328    8    0    1
 -2        88       246       245      1527      1528      1523
 -1       329    8    0    1
 -2        89        90       247      1205      1529      1530
 -1       330    8    0    1
 -2        89       247       246      1530      1531      1526
 -1       331    8    0    1
 -2        90        91       248      1206      1532      1533
 -1       332    8    0    1
 -2        90       248       247      1533      1534      1529
 -1       333    8    0    1
 -2        91        92       249      1207      1535      1536
 -1       334    8    0    1
 -2        91       249       248      1536      1537      1532
 -1       335    8    0    1
 -2        92        93       250      1208      1538      1539
 -1       336    8    0    1
 -2        92       250       249      1539      1540      1535
 -1       337    8    0    1
 -2        93        94       251      1209      1541      1542
 -1       338    8    0    1
 -2        93       251       250      1542      1543      1538
 -1       339    8    0    1
 -2        94        95       252      1210      1544      1545
 -1       340    8    0    1
 -2        94       252       251      1545      1546      1541
 -1       341    8    0    1
 -2        95        96       253      1211      1547      1548
 -1       342    8    0    1
 -2        95       253       252      1548      1549      1544
 -1       343    8    0    1
 -2        96        97       254      1212      1550      1551
 -1       344    8    0    1
 -2        96       254       253      1551      1552      1547
 -1       345    8    0    1
 -2        97        98       255      1213      1553      1554
 -1       346    8    0    1
 -2        97       255       254      1554      1555      1550
 -1       347    8    0    1
 -2        98        99       256      1214      1556      1557
 -1       348    8    0    1
 -2        98       256       255      1557      1558      1553
 -1       349    8    0    1
 -2        99       100       257      1215      1559      1560
 -1       350    8    0    1
 -2        99       257       256      1560      1561      1556
 -1       351    8    0    1
 -2       100       101       258      1216      1562      1563
 -1       352    8    0    1
 -2       100       258       257      1563      1564      1559
 -1       353    8    0    1
 -2       101       102       259      1217      1565      1566
 -1       354    8    0    1
 -2       101       259       258      1566      1567      1562
 -1       355    8    0    1
 -2       102       103       260      1218      1568      1569
 -1       356    8    0    1
 -2       102       260       259      1569      1570      1565
 -1       357    8    0    1
 -2       103       104       261      1219      1571      1572
 -1       358    8    0    1
 -2       103       261       260      1572      1573      1568
 -1       359    8    0    1
 -2       104       105       262      1220      1574      1575
 -1       360    8    0    1
 -2       104       262       261      1575      1576      1571
 -1       361    8    0    1
 -2       105       106       263      1221      1577      1578
 -1       362    8    0    1
 -2       105       263       262      1578      1579      1574
 -1       363    8    0    1
 -2       106       107       264      1222      1580      1581
 -1       364    8    0    1
 -2       106       264       263      1581      1582      1577
 -1       365    8    0    1
 -2       107       108       265      1223      1583      1584
 -1       366    8    0    1
 -2       107       265       264      1584      1585      1580
 -1       367    8    0    1
 -2       108       109       266      1224      1586      1587
 -1       368    8    0    1
 -2       108       266       265      1587      1588      1583
 -1       369    8    0    1
 -2       109       110       267      1225      1589      1590
 -1       370    8    0    1
 -2       109       267       266      1590      1591      1586
 -1       371    8    0    1
 -2       110       111       268      1226      1592      1593
 -1       372    8    0    1
 -2       110       268       267      1593      1594      1589
 -1       373    8    0    1
 -2       111       112       269      1227      1595      1596
 -1       374    8    0    1
 -2       111       269       268      1596      1597      1592
 -1       375    8    0    1
 -2       112       113       270      1228      1598      1599
 -1       376    8    0    1
 -2       112       270       269      1599      1600      1595
 -1       377    8    0    1
 -2       113       114       271      1229      1601      1602
 -1       378    8    0    1
 -2       113       271       270      1602      1603      1598
 -1       379    8    0    1
 -2       114       115       272      1230      1604      1605
 -1       380    8    0    1
 -2       114       272       271      1605      1606      1601
 -1       381    8    0    1
 -2       115       116       273      1231      1607      1608
 -1       382    8    0    1
 -2       115       273       272      1608      1609      1604
 -1       383    8    0    1
 -2       116       117       274      1232      1610      1611
 -1       384    8    0    1
 -2       116       274       273      1611      1612      1607
 -1       385    8    0    1
 -2       117       118       275      1233      1613      1614
 -1       386    8    0    1
 -2       117       275       274      1614      1615      1610
 -1       387    8    0    1
 -2       118       119       276      1234      1616      1617
 -1       388    8    0    1
 -2       118       276       275      1617      1618      1613
 -1       389    8    0    1
 -2       119       120       277      1235      1619      1620
 -1       390    8    0    1
 -2       119       277       276      1620      1621      1616
 -1       391    8    0    1
 -2       120       121       278      1236      1622      1623
 -1       392    8    0    1
 -2       120       278       277      1623      1624      1619
 -1       393    8    0    1
 -2       121         3       122      1237      1238      1625
 -1       394    8    0    1
 -2       122       123       279      1239      1626      1627
 -1       395    8    0    1
 -2       123       124       280      1240      1628      1629
 -1       396    8    0    1
 -2       123       280       279      1629      1630      1626
 -1       397    8    0    1
 -2       124       125       281      1241      1631      1632
 -1       398    8    0    1
 -2       124       281       280      1632      1633      1628
 -1       399    8    0    1
 -2       125       126       282      1242      1634      1635
 -1       400    8    0    1
 -2       125       282       281      1635      1636      1631
 -1       401    8    0    1
 -2       126       127       283      1243      1637      1638
 -1       402    8    0    1
 -2       126       283       282      1638      1639      1634
 -1       403    8    0    1
 -2       127       128       284      1244      1640      1641
 -1       404    8    0    1
 -2       127       284       283      1641      1642      1637
 -1       405    8    0    1
 -2       128       129       285      1245      1643      1644
 -1       406    8    0    1
 -2       128       285       284      1644      1645      1640
 -1       407    8    0    1
 -2       129       130       286      1246      1646      1647
 -1       408    8    0    1
 -2       129       286       285      1647      1648      1643
 -1       409    8    0    1
 -2       130       131       287      1247      1649      1650
 -1       410    8    0    1
 -2       130       287       286      1650      1651      1646
 -1       411    8    0    1
 -2       131       132       288      1248      1652      1653
 -1       412    8    0    1
 -2       131       288       287      1653      1654      1649
 -1       413    8    0    1
 -2       132       133       289      1249      1655      1656
 -1       414    8    0    1
 -2       132       289       288      1656      1657      1652
 -1       415    8    0    1
 -2       133       134       290      1250      1658      1659
 -1       416    8    0    1
 -2       133       290       289      1659      1660      1655
 -1       417    8    0    1
 -2       134       135       291      1251      1661      1662
 -1       418    8    0    1
 -2       134       291       290      1662      1663      1658
 -1       419    8    0    1
 -2       135       136       292      1252      1664      1665
 -1       420    8    0    1
 -2       135       292       291      1665      1666      1661
 -1       421    8    0    1
 -2         2       138       293      1255      1667      1668
 -1       422    8    0    1
 -2       138       139       294      1256      1669      1670
 -1       423    8    0    1
 -2       139       140       295      1257      1671      1672
 -1       424    8    0    1
 -2       140       141       296      1258      1673      1674
 -1       425    8    0    1
 -2       141       142       297      1259      1675      1676
 -1       426    8    0    1
 -2       142       143       298      1260      1677      1678
 -1       427    8    0    1
 -2       143       144       299      1261      1679      1680
 -1       428    8    0    1
 -2       144       145       300      1262      1681      1682
 -1       429    8    0    1
 -2       145       146       301      1263      1683      1684
 -1       430    8    0    1
 -2       146       147       302      1264      1685      1686
 -1       431    8    0    1
 -2       147       148       303      1265      1687      1688
 -1       432    8    0    1
 -2       148       149       304      1266      1689      1690
 -1       433    8    0    1
 -2       149       150       305      1267      1691      1692
 -1       434    8    0    1
 -2       150       151       306      1268      1693      1694
 -1       435    8    0    1
 -2       151       152       307      1269      1695      1696
 -1       436    8    0    1
 -2       152       153       308      1270      1697      1698
 -1       437    8    0    1
 -2       153       154       309      1271      1699      1700
 -1       438    8    0    1
 -2       154       155       310      1272      1701      1702
 -1       439    8    0    1
 -2       155         1       311      1273      1703      1704
 -1       440    8    0    1
 -2         1       156       312      1274      1705      1706
 -1       441    8    0    1
 -2       156       157       313      1275      1707      1708
 -1       442    8    0    1
 -2       157       158       314      1276      1709      1710
 -1       443    8    0    1
 -2       158       159       315      1277      1711      1712
 -1       444    8    0    1
 -2       159       160       316      1278      1713      1714
 -1       445    8    0    1
 -2       160       161       317      1279      1715      1716
 -1       446    8    0    1
 -2       161       162       318      1280      1717      1718
 -1       447    8    0    1
 -2       162       163       319      1281      1719      1720
 -1       448    8    0    1
 -2       163       164       320      1282      1721      1722
 -1       449    8    0    1
 -2       164       165       321      1283      1723      1724
 -1       450    8    0    1
 -2       165         2       322      1284      1725      1726
 -1       451    8    0    1
 -2       137        72       230      1480      1478      1727
 -1       452    8    0    1
 -2       294       139       295      1669      1672      1728
 -1       453    8    0    1
 -2       121       122       278      1625      1729      1622
 -1       454    8    0    1
 -2       122       279       278      1627      1730      1729
 -1       455    8    0    1
 -2         2       293       322      1668      1731      1725
 -1       456    8    0    1
 -2       293       138       294      1667      1670      1732
 -1       457    8    0    1
 -2       136       137       323      1253      1733      1734
 -1       458    8    0    1
 -2       136       323       292      1734      1735      1664
 -1       459    8    0    1
 -2       140       296       295      1674      1736      1671
 -1       460    8    0    1
 -2       141       297       296      1676      1737      1673
 -1       461    8    0    1
 -2       142       298       297      1678      1738      1675
 -1       462    8    0    1
 -2       143       299       298      1680      1739      1677
 -1       463    8    0    1
 -2       144       300       299      1682      1740      1679
 -1       464    8    0    1
 -2       145       301       300      1684      1741      1681
 -1       465    8    0    1
 -2       146       302       301      1686      1742      1683
 -1       466    8    0    1
 -2       147       303       302      1688      1743      1685
 -1       467    8    0    1
 -2       148       304       303      1690      1744      1687
 -1       468    8    0    1
 -2       149       305       304      1692      1745      1689
 -1       469    8    0    1
 -2       150       306       305      1694      1746      1691
 -1       470    8    0    1
 -2       151       307       306      1696      1747      1693
 -1       471    8    0    1
 -2       152       308       307      1698      1748      1695
 -1       472    8    0    1
 -2       153       309       308      1700      1749      1697
 -1       473    8    0    1
 -2       154       310       309      1702      1750      1699
 -1       474    8    0    1
 -2       155       311       310      1704      1751      1701
 -1       475    8    0    1
 -2         1       312       311      1706      1752      1703
 -1       476    8    0    1
 -2       156       313       312      1708      1753      1705
 -1       477    8    0    1
 -2       157       314       313      1710      1754      1707
 -1       478    8    0    1
 -2       158       315       314      1712      1755      1709
 -1       479    8    0    1
 -2       159       316       315      1714      1756      1711
 -1       480    8    0    1
 -2       160       317       316      1716      1757      1713
 -1       481    8    0    1
 -2       161       318       317      1718      1758      1715
 -1       482    8    0    1
 -2       162       319       318      1720      1759      1717
 -1       483    8    0    1
 -2       163       320       319      1722      1760      1719
 -1       484    8    0    1
 -2       164       321       320      1724      1761      1721
 -1       485    8    0    1
 -2       165       322       321      1726      1762      1723
 -1       486    8    0    1
 -2        23         7       166      1285      1287      1763
 -1       487    8    0    1
 -2       167       168       324      1293      1764      1765
 -1       488    8    0    1
 -2       166       167       325      1290      1766      1767
 -1       489    8    0    1
 -2       167       324       325      1765      1768      1766
 -1       490    8    0    1
 -2       169       170       326      1299      1769      1770
 -1       491    8    0    1
 -2       170       171       327      1302      1771      1772
 -1       492    8    0    1
 -2       170       327       326      1772      1773      1769
 -1       493    8    0    1
 -2       171       172       328      1305      1774      1775
 -1       494    8    0    1
 -2       171       328       327      1775      1776      1771
 -1       495    8    0    1
 -2       172       173       329      1308      1777      1778
 -1       496    8    0    1
 -2       172       329       328      1778      1779      1774
 -1       497    8    0    1
 -2       173       174       330      1311      1780      1781
 -1       498    8    0    1
 -2       173       330       329      1781      1782      1777
 -1       499    8    0    1
 -2       174       175       331      1314      1783      1784
 -1       500    8    0    1
 -2       174       331       330      1784      1785      1780
 -1       501    8    0    1
 -2       175       176       332      1317      1786      1787
 -1       502    8    0    1
 -2       175       332       331      1787      1788      1783
 -1       503    8    0    1
 -2       176       177       333      1320      1789      1790
 -1       504    8    0    1
 -2       176       333       332      1790      1791      1786
 -1       505    8    0    1
 -2       177       178       334      1323      1792      1793
 -1       506    8    0    1
 -2       177       334       333      1793      1794      1789
 -1       507    8    0    1
 -2       178       179       335      1326      1795      1796
 -1       508    8    0    1
 -2       178       335       334      1796      1797      1792
 -1       509    8    0    1
 -2       179       180       336      1329      1798      1799
 -1       510    8    0    1
 -2       179       336       335      1799      1800      1795
 -1       511    8    0    1
 -2       180       181       337      1332      1801      1802
 -1       512    8    0    1
 -2       336       180       337      1798      1802      1803
 -1       513    8    0    1
 -2       181       231       337      1483      1804      1801
 -1       514    8    0    1
 -2       182        23       166      1334      1763      1805
 -1       515    8    0    1
 -2       231       232       338      1486      1806      1807
 -1       516    8    0    1
 -2       231       338       337      1807      1808      1804
 -1       517    8    0    1
 -2       184       183       339      1341      1809      1810
 -1       518    8    0    1
 -2       185       184       340      1344      1811      1812
 -1       519    8    0    1
 -2       184       339       340      1810      1813      1811
 -1       520    8    0    1
 -2       186       185       341      1347      1814      1815
 -1       521    8    0    1
 -2       185       340       341      1812      1816      1814
 -1       522    8    0    1
 -2       187       186       342      1350      1817      1818
 -1       523    8    0    1
 -2       186       341       342      1815      1819      1817
 -1       524    8    0    1
 -2       189       188       343      1356      1820      1821
 -1       525    8    0    1
 -2       190       189       344      1359      1822      1823
 -1       526    8    0    1
 -2       192       191       345      1365      1824      1825
 -1       527    8    0    1
 -2       193       192       346      1368      1826      1827
 -1       528    8    0    1
 -2       194       193       347      1371      1828      1829
 -1       529    8    0    1
 -2       193       346       347      1827      1830      1828
 -1       530    8    0    1
 -2       195       194       348      1374      1831      1832
 -1       531    8    0    1
 -2       194       347       348      1829      1833      1831
 -1       532    8    0    1
 -2       196       195       349      1377      1834      1835
 -1       533    8    0    1
 -2       195       348       349      1832      1836      1834
 -1       534    8    0    1
 -2       197       196       350      1380      1837      1838
 -1       535    8    0    1
 -2       196       349       350      1835      1839      1837
 -1       536    8    0    1
 -2       198       197       351      1383      1840      1841
 -1       537    8    0    1
 -2       197       350       351      1838      1842      1840
 -1       538    8    0    1
 -2       199       198       352      1386      1843      1844
 -1       539    8    0    1
 -2       198       351       352      1841      1845      1843
 -1       540    8    0    1
 -2       200       199       353      1389      1846      1847
 -1       541    8    0    1
 -2       199       352       353      1844      1848      1846
 -1       542    8    0    1
 -2       201       200       354      1392      1849      1850
 -1       543    8    0    1
 -2       200       353       354      1847      1851      1849
 -1       544    8    0    1
 -2       202       201       355      1395      1852      1853
 -1       545    8    0    1
 -2       201       354       355      1850      1854      1852
 -1       546    8    0    1
 -2       203       202       356      1398      1855      1856
 -1       547    8    0    1
 -2       202       355       356      1853      1857      1855
 -1       548    8    0    1
 -2       204       203       357      1401      1858      1859
 -1       549    8    0    1
 -2       203       356       357      1856      1860      1858
 -1       550    8    0    1
 -2       205       204       358      1404      1861      1862
 -1       551    8    0    1
 -2       204       357       358      1859      1863      1861
 -1       552    8    0    1
 -2       206       205       359      1407      1864      1865
 -1       553    8    0    1
 -2       205       358       359      1862      1866      1864
 -1       554    8    0    1
 -2       207       206       360      1410      1867      1868
 -1       555    8    0    1
 -2       206       359       360      1865      1869      1867
 -1       556    8    0    1
 -2       208       207       361      1413      1870      1871
 -1       557    8    0    1
 -2       207       360       361      1868      1872      1870
 -1       558    8    0    1
 -2       209       208       362      1416      1873      1874
 -1       559    8    0    1
 -2       208       361       362      1871      1875      1873
 -1       560    8    0    1
 -2       210       209       363      1419      1876      1877
 -1       561    8    0    1
 -2       209       362       363      1874      1878      1876
 -1       562    8    0    1
 -2       211       210       364      1422      1879      1880
 -1       563    8    0    1
 -2       210       363       364      1877      1881      1879
 -1       564    8    0    1
 -2       212       211       365      1425      1882      1883
 -1       565    8    0    1
 -2       211       364       365      1880      1884      1882
 -1       566    8    0    1
 -2       213       212       366      1428      1885      1886
 -1       567    8    0    1
 -2       212       365       366      1883      1887      1885
 -1       568    8    0    1
 -2       214       213       367      1431      1888      1889
 -1       569    8    0    1
 -2       213       366       367      1886      1890      1888
 -1       570    8    0    1
 -2       215       214       368      1434      1891      1892
 -1       571    8    0    1
 -2       214       367       368      1889      1893      1891
 -1       572    8    0    1
 -2       216       215       369      1437      1894      1895
 -1       573    8    0    1
 -2       215       368       369      1892      1896      1894
 -1       574    8    0    1
 -2       217       216       370      1440      1897      1898
 -1       575    8    0    1
 -2       216       369       370      1895      1899      1897
 -1       576    8    0    1
 -2       218       217       371      1443      1900      1901
 -1       577    8    0    1
 -2       217       370       371      1898      1902      1900
 -1       578    8    0    1
 -2       219       218       372      1446      1903      1904
 -1       579    8    0    1
 -2       218       371       372      1901      1905      1903
 -1       580    8    0    1
 -2       220       219       373      1449      1906      1907
 -1       581    8    0    1
 -2       219       372       373      1904      1908      1906
 -1       582    8    0    1
 -2       221       220       374      1452      1909      1910
 -1       583    8    0    1
 -2       220       373       374      1907      1911      1909
 -1       584    8    0    1
 -2       222       221       375      1455      1912      1913
 -1       585    8    0    1
 -2       221       374       375      1910      1914      1912
 -1       586    8    0    1
 -2       223       222       376      1458      1915      1916
 -1       587    8    0    1
 -2       222       375       376      1913      1917      1915
 -1       588    8    0    1
 -2       224       223       377      1461      1918      1919
 -1       589    8    0    1
 -2       223       376       377      1916      1920      1918
 -1       590    8    0    1
 -2       225       224       378      1464      1921      1922
 -1       591    8    0    1
 -2       224       377       378      1919      1923      1921
 -1       592    8    0    1
 -2       226       225       379      1467      1924      1925
 -1       593    8    0    1
 -2       225       378       379      1922      1926      1924
 -1       594    8    0    1
 -2       227       226       380      1470      1927      1928
 -1       595    8    0    1
 -2       226       379       380      1925      1929      1927
 -1       596    8    0    1
 -2       228       227       381      1473      1930      1931
 -1       597    8    0    1
 -2       227       380       381      1928      1932      1930
 -1       598    8    0    1
 -2       229       228       382      1476      1933      1934
 -1       599    8    0    1
 -2       228       381       382      1931      1935      1933
 -1       600    8    0    1
 -2       230       229       383      1479      1936      1937
 -1       601    8    0    1
 -2       229       382       383      1934      1938      1936
 -1       602    8    0    1
 -2       232       233       384      1489      1939      1940
 -1       603    8    0    1
 -2       232       384       338      1940      1941      1806
 -1       604    8    0    1
 -2       294       295       385      1728      1942      1943
 -1       605    8    0    1
 -2       233       234       386      1492      1944      1945
 -1       606    8    0    1
 -2       233       386       384      1945      1946      1939
 -1       607    8    0    1
 -2       234       235       387      1495      1947      1948
 -1       608    8    0    1
 -2       234       387       386      1948      1949      1944
 -1       609    8    0    1
 -2       235       236       388      1498      1950      1951
 -1       610    8    0    1
 -2       235       388       387      1951      1952      1947
 -1       611    8    0    1
 -2       236       237       389      1501      1953      1954
 -1       612    8    0    1
 -2       236       389       388      1954      1955      1950
 -1       613    8    0    1
 -2       237       238       390      1504      1956      1957
 -1       614    8    0    1
 -2       237       390       389      1957      1958      1953
 -1       615    8    0    1
 -2       238       239       391      1507      1959      1960
 -1       616    8    0    1
 -2       238       391       390      1960      1961      1956
 -1       617    8    0    1
 -2       239       240       392      1510      1962      1963
 -1       618    8    0    1
 -2       239       392       391      1963      1964      1959
 -1       619    8    0    1
 -2       240       241       393      1513      1965      1966
 -1       620    8    0    1
 -2       240       393       392      1966      1967      1962
 -1       621    8    0    1
 -2       241       242       394      1516      1968      1969
 -1       622    8    0    1
 -2       241       394       393      1969      1970      1965
 -1       623    8    0    1
 -2       242       243       395      1519      1971      1972
 -1       624    8    0    1
 -2       242       395       394      1972      1973      1968
 -1       625    8    0    1
 -2       243       244       396      1522      1974      1975
 -1       626    8    0    1
 -2       243       396       395      1975      1976      1971
 -1       627    8    0    1
 -2       244       245       397      1525      1977      1978
 -1       628    8    0    1
 -2       244       397       396      1978      1979      1974
 -1       629    8    0    1
 -2       245       246       398      1528      1980      1981
 -1       630    8    0    1
 -2       245       398       397      1981      1982      1977
 -1       631    8    0    1
 -2       246       247       399      1531      1983      1984
 -1       632    8    0    1
 -2       246       399       398      1984      1985      1980
 -1       633    8    0    1
 -2       247       248       400      1534      1986      1987
 -1       634    8    0    1
 -2       247       400       399      1987      1988      1983
 -1       635    8    0    1
 -2       248       249       401      1537      1989      1990
 -1       636    8    0    1
 -2       248       401       400      1990      1991      1986
 -1       637    8    0    1
 -2       249       250       402      1540      1992      1993
 -1       638    8    0    1
 -2       249       402       401      1993      1994      1989
 -1       639    8    0    1
 -2       250       251       403      1543      1995      1996
 -1       640    8    0    1
 -2       250       403       402      1996      1997      1992
 -1       641    8    0    1
 -2       251       252       404      1546      1998      1999
 -1       642    8    0    1
 -2       251       404       403      1999      2000      1995
 -1       643    8    0    1
 -2       252       253       405      1549      2001      2002
 -1       644    8    0    1
 -2       252       405       404      2002      2003      1998
 -1       645    8    0    1
 -2       253       254       406      1552      2004      2005
 -1       646    8    0    1
 -2       253       406       405      2005      2006      2001
 -1       647    8    0    1
 -2       254       255       407      1555      2007      2008
 -1       648    8    0    1
 -2       254       407       406      2008      2009      2004
 -1       649    8    0    1
 -2       255       256       408      1558      2010      2011
 -1       650    8    0    1
 -2       255       408       407      2011      2012      2007
 -1       651    8    0    1
 -2       256       257       409      1561      2013      2014
 -1       652    8    0    1
 -2       256       409       408      2014      2015      2010
 -1       653    8    0    1
 -2       257       258       410      1564      2016      2017
 -1       654    8    0    1
 -2       257       410       409      2017      2018      2013
 -1       655    8    0    1
 -2       258       259       411      1567      2019      2020
 -1       656    8    0    1
 -2       258       411       410      2020      2021      2016
 -1       657    8    0    1
 -2       259       260       412      1570      2022      2023
 -1       658    8    0    1
 -2       259       412       411      2023      2024      2019
 -1       659    8    0    1
 -2       260       261       413      1573      2025      2026
 -1       660    8    0    1
 -2       260       413       412      2026      2027      2022
 -1       661    8    0    1
 -2       261       262       414      1576      2028      2029
 -1       662    8    0    1
 -2       261       414       413      2029      2030      2025
 -1       663    8    0    1
 -2       262       263       415      1579      2031      2032
 -1       664    8    0    1
 -2       262       415       414      2032      2033      2028
 -1       665    8    0    1
 -2       263       264       416      1582      2034      2035
 -1       666    8    0    1
 -2       263       416       415      2035      2036      2031
 -1       667    8    0    1
 -2       264       265       417      1585      2037      2038
 -1       668    8    0    1
 -2       264       417       416      2038      2039      2034
 -1       669    8    0    1
 -2       265       266       418      1588      2040      2041
 -1       670    8    0    1
 -2       265       418       417      2041      2042      2037
 -1       671    8    0    1
 -2       266       267       419      1591      2043      2044
 -1       672    8    0    1
 -2       266       419       418      2044      2045      2040
 -1       673    8    0    1
 -2       267       268       420      1594      2046      2047
 -1       674    8    0    1
 -2       267       420       419      2047      2048      2043
 -1       675    8    0    1
 -2       268       269       421      1597      2049      2050
 -1       676    8    0    1
 -2       268       421       420      2050      2051      2046
 -1       677    8    0    1
 -2       269       270       422      1600      2052      2053
 -1       678    8    0    1
 -2       269       422       421      2053      2054      2049
 -1       679    8    0    1
 -2       270       271       423      1603      2055      2056
 -1       680    8    0    1
 -2       270       423       422      2056      2057      2052
 -1       681    8    0    1
 -2       271       272       424      1606      2058      2059
 -1       682    8    0    1
 -2       271       424       423      2059      2060      2055
 -1       683    8    0    1
 -2       272       273       425      1609      2061      2062
 -1       684    8    0    1
 -2       272       425       424      2062      2063      2058
 -1       685    8    0    1
 -2       273       274       426      1612      2064      2065
 -1       686    8    0    1
 -2       273       426       425      2065      2066      2061
 -1       687    8    0    1
 -2       274       275       427      1615      2067      2068
 -1       688    8    0    1
 -2       274       427       426      2068      2069      2064
 -1       689    8    0    1
 -2       275       276       428      1618      2070      2071
 -1       690    8    0    1
 -2       275       428       427      2071      2072      2067
 -1       691    8    0    1
 -2       276       277       429      1621      2073      2074
 -1       692    8    0    1
 -2       276       429       428      2074      2075      2070
 -1       693    8    0    1
 -2       277       278       430      1624      2076      2077
 -1       694    8    0    1
 -2       429       277       430      2073      2077      2078
 -1       695    8    0    1
 -2       278       279       430      1730      2079      2076
 -1       696    8    0    1
 -2       281       282       431      1636      2080      2081
 -1       697    8    0    1
 -2       280       281       432      1633      2082      2083
 -1       698    8    0    1
 -2       281       431       432      2081      2084      2082
 -1       699    8    0    1
 -2       279       280       433      1630      2085      2086
 -1       700    8    0    1
 -2       430       279       433      2079      2086      2087
 -1       701    8    0    1
 -2       280       432       433      2083      2088      2085
 -1       702    8    0    1
 -2       282       283       434      1639      2089      2090
 -1       703    8    0    1
 -2       282       434       431      2090      2091      2080
 -1       704    8    0    1
 -2       283       284       435      1642      2092      2093
 -1       705    8    0    1
 -2       283       435       434      2093      2094      2089
 -1       706    8    0    1
 -2       284       285       436      1645      2095      2096
 -1       707    8    0    1
 -2       284       436       435      2096      2097      2092
 -1       708    8    0    1
 -2       285       286       437      1648      2098      2099
 -1       709    8    0    1
 -2       285       437       436      2099      2100      2095
 -1       710    8    0    1
 -2       286       287       438      1651      2101      2102
 -1       711    8    0    1
 -2       286       438       437      2102      2103      2098
 -1       712    8    0    1
 -2       287       288       439      1654      2104      2105
 -1       713    8    0    1
 -2       287       439       438      2105      2106      2101
 -1       714    8    0    1
 -2       288       289       440      1657      2107      2108
 -1       715    8    0    1
 -2       288       440       439      2108      2109      2104
 -1       716    8    0    1
 -2       289       290       441      1660      2110      2111
 -1       717    8    0    1
 -2       289       441       440      2111      2112      2107
 -1       718    8    0    1
 -2       290       291       442      1663      2113      2114
 -1       719    8    0    1
 -2       290       442       441      2114      2115      2110
 -1       720    8    0    1
 -2       291       292       443      1666      2116      2117
 -1       721    8    0    1
 -2       291       443       442      2117      2118      2113
 -1       722    8    0    1
 -2       295       296       444      1736      2119      2120
 -1       723    8    0    1
 -2       323       137       230      1733      1727      2121
 -1       724    8    0    1
 -2       182       166       325      1805      1767      2122
 -1       725    8    0    1
 -2       322       293       445      1731      2123      2124
 -1       726    8    0    1
 -2       168       169       446      1296      2125      2126
 -1       727    8    0    1
 -2       324       168       446      1764      2126      2127
 -1       728    8    0    1
 -2       169       326       446      1770      2128      2125
 -1       729    8    0    1
 -2       296       297       447      1737      2129      2130
 -1       730    8    0    1
 -2       297       298       448      1738      2131      2132
 -1       731    8    0    1
 -2       297       448       447      2132      2133      2129
 -1       732    8    0    1
 -2       298       299       449      1739      2134      2135
 -1       733    8    0    1
 -2       299       300       450      1740      2136      2137
 -1       734    8    0    1
 -2       300       301       451      1741      2138      2139
 -1       735    8    0    1
 -2       301       302       452      1742      2140      2141
 -1       736    8    0    1
 -2       302       303       453      1743      2142      2143
 -1       737    8    0    1
 -2       303       304       454      1744      2144      2145
 -1       738    8    0    1
 -2       304       305       455      1745      2146      2147
 -1       739    8    0    1
 -2       305       306       456      1746      2148      2149
 -1       740    8    0    1
 -2       306       307       457      1747      2150      2151
 -1       741    8    0    1
 -2       307       308       458      1748      2152      2153
 -1       742    8    0    1
 -2       308       309       459      1749      2154      2155
 -1       743    8    0    1
 -2       309       310       460      1750      2156      2157
 -1       744    8    0    1
 -2       310       311       461      1751      2158      2159
 -1       745    8    0    1
 -2       310       461       460      2159      2160      2156
 -1       746    8    0    1
 -2       311       312       462      1752      2161      2162
 -1       747    8    0    1
 -2       313       314       463      1754      2163      2164
 -1       748    8    0    1
 -2       314       315       344      1755      2165      2166
 -1       749    8    0    1
 -2       315       316       464      1756      2167      2168
 -1       750    8    0    1
 -2       316       317       465      1757      2169      2170
 -1       751    8    0    1
 -2       317       318       466      1758      2171      2172
 -1       752    8    0    1
 -2       318       319       467      1759      2173      2174
 -1       753    8    0    1
 -2       319       320       468      1760      2175      2176
 -1       754    8    0    1
 -2       320       321       469      1761      2177      2178
 -1       755    8    0    1
 -2       321       322       470      1762      2179      2180
 -1       756    8    0    1
 -2       293       294       471      1732      2181      2182
 -1       757    8    0    1
 -2       323       230       383      2121      1937      2183
 -1       758    8    0    1
 -2       322       445       470      2124      2184      2179
 -1       759    8    0    1
 -2       294       385       471      1943      2185      2181
 -1       760    8    0    1
 -2       339       183       325      1809      2186      2187
 -1       761    8    0    1
 -2       183       182       325      1338      2122      2186
 -1       762    8    0    1
 -2       296       447       444      2130      2188      2119
 -1       763    8    0    1
 -2       187       342       472      1818      2189      2190
 -1       764    8    0    1
 -2       188       187       472      1353      2190      2191
 -1       765    8    0    1
 -2       190       344       464      1823      2192      2193
 -1       766    8    0    1
 -2       192       345       346      1825      2194      1826
 -1       767    8    0    1
 -2       191       190       464      1362      2193      2195
 -1       768    8    0    1
 -2       385       295       444      1942      2120      2196
 -1       769    8    0    1
 -2       450       300       451      2136      2139      2197
 -1       770    8    0    1
 -2       292       323       383      1735      2183      2198
 -1       771    8    0    1
 -2       445       293       471      2123      2182      2199
 -1       772    8    0    1
 -2       469       321       470      2177      2180      2200
 -1       773    8    0    1
 -2       468       320       469      2175      2178      2201
 -1       774    8    0    1
 -2       467       319       468      2173      2176      2202
 -1       775    8    0    1
 -2       466       318       467      2171      2174      2203
 -1       776    8    0    1
 -2       465       317       466      2169      2172      2204
 -1       777    8    0    1
 -2       464       316       465      2167      2170      2205
 -1       778    8    0    1
 -2       344       315       464      2165      2168      2192
 -1       779    8    0    1
 -2       463       314       344      2163      2166      2206
 -1       780    8    0    1
 -2       461       311       462      2158      2162      2207
 -1       781    8    0    1
 -2       459       309       460      2154      2157      2208
 -1       782    8    0    1
 -2       458       308       459      2152      2155      2209
 -1       783    8    0    1
 -2       457       307       458      2150      2153      2210
 -1       784    8    0    1
 -2       456       306       457      2148      2151      2211
 -1       785    8    0    1
 -2       455       305       456      2146      2149      2212
 -1       786    8    0    1
 -2       454       304       455      2144      2147      2213
 -1       787    8    0    1
 -2       453       303       454      2142      2145      2214
 -1       788    8    0    1
 -2       452       302       453      2140      2143      2215
 -1       789    8    0    1
 -2       451       301       473      2138      2216      2217
 -1       790    8    0    1
 -2       301       452       473      2141      2218      2216
 -1       791    8    0    1
 -2       298       449       448      2135      2219      2131
 -1       792    8    0    1
 -2       449       299       450      2134      2137      2220
 -1       793    8    0    1
 -2       292       383       443      2198      2221      2116
 -1       794    8    0    1
 -2       462       312       343      2161      2222      2223
 -1       795    8    0    1
 -2       313       463       343      2164      2224      2225
 -1       796    8    0    1
 -2       312       313       343      1753      2225      2222
 -1       797    8    0    1
 -2       327       328       474      1776      2226      2227
 -1       798    8    0    1
 -2       326       327       475      1773      2228      2229
 -1       799    8    0    1
 -2       327       474       475      2227      2230      2228
 -1       800    8    0    1
 -2       329       330       476      1782      2231      2232
 -1       801    8    0    1
 -2       330       331       477      1785      2233      2234
 -1       802    8    0    1
 -2       330       477       476      2234      2235      2231
 -1       803    8    0    1
 -2       331       332       478      1788      2236      2237
 -1       804    8    0    1
 -2       331       478       477      2237      2238      2233
 -1       805    8    0    1
 -2       332       333       479      1791      2239      2240
 -1       806    8    0    1
 -2       332       479       478      2240      2241      2236
 -1       807    8    0    1
 -2       333       334       480      1794      2242      2243
 -1       808    8    0    1
 -2       333       480       479      2243      2244      2239
 -1       809    8    0    1
 -2       334       335       481      1797      2245      2246
 -1       810    8    0    1
 -2       334       481       480      2246      2247      2242
 -1       811    8    0    1
 -2       335       336       482      1800      2248      2249
 -1       812    8    0    1
 -2       335       482       481      2249      2250      2245
 -1       813    8    0    1
 -2       336       337       483      1803      2251      2252
 -1       814    8    0    1
 -2       482       336       483      2248      2252      2253
 -1       815    8    0    1
 -2       337       338       483      1808      2254      2251
 -1       816    8    0    1
 -2       340       339       484      1813      2255      2256
 -1       817    8    0    1
 -2       189       343       344      1821      2257      1822
 -1       818    8    0    1
 -2       444       447       485      2188      2258      2259
 -1       819    8    0    1
 -2       472       342       486      2189      2260      2261
 -1       820    8    0    1
 -2       188       472       343      2191      2262      1820
 -1       821    8    0    1
 -2       341       340       487      1816      2263      2264
 -1       822    8    0    1
 -2       340       484       487      2256      2265      2263
 -1       823    8    0    1
 -2       342       341       488      1819      2266      2267
 -1       824    8    0    1
 -2       341       487       488      2264      2268      2266
 -1       825    8    0    1
 -2       338       384       489      1941      2269      2270
 -1       826    8    0    1
 -2       338       489       483      2270      2271      2254
 -1       827    8    0    1
 -2       470       445       490      2184      2272      2273
 -1       828    8    0    1
 -2       348       347       491      1833      2274      2275
 -1       829    8    0    1
 -2       349       348       492      1836      2276      2277
 -1       830    8    0    1
 -2       348       491       492      2275      2278      2276
 -1       831    8    0    1
 -2       350       349       493      1839      2279      2280
 -1       832    8    0    1
 -2       349       492       493      2277      2281      2279
 -1       833    8    0    1
 -2       351       350       494      1842      2282      2283
 -1       834    8    0    1
 -2       350       493       494      2280      2284      2282
 -1       835    8    0    1
 -2       352       351       495      1845      2285      2286
 -1       836    8    0    1
 -2       351       494       495      2283      2287      2285
 -1       837    8    0    1
 -2       353       352       496      1848      2288      2289
 -1       838    8    0    1
 -2       352       495       496      2286      2290      2288
 -1       839    8    0    1
 -2       354       353       497      1851      2291      2292
 -1       840    8    0    1
 -2       353       496       497      2289      2293      2291
 -1       841    8    0    1
 -2       355       354       498      1854      2294      2295
 -1       842    8    0    1
 -2       354       497       498      2292      2296      2294
 -1       843    8    0    1
 -2       356       355       499      1857      2297      2298
 -1       844    8    0    1
 -2       355       498       499      2295      2299      2297
 -1       845    8    0    1
 -2       357       356       500      1860      2300      2301
 -1       846    8    0    1
 -2       356       499       500      2298      2302      2300
 -1       847    8    0    1
 -2       358       357       501      1863      2303      2304
 -1       848    8    0    1
 -2       357       500       501      2301      2305      2303
 -1       849    8    0    1
 -2       359       358       502      1866      2306      2307
 -1       850    8    0    1
 -2       358       501       502      2304      2308      2306
 -1       851    8    0    1
 -2       360       359       503      1869      2309      2310
 -1       852    8    0    1
 -2       359       502       503      2307      2311      2309
 -1       853    8    0    1
 -2       361       360       504      1872      2312      2313
 -1       854    8    0    1
 -2       360       503       504      2310      2314      2312
 -1       855    8    0    1
 -2       362       361       505      1875      2315      2316
 -1       856    8    0    1
 -2       361       504       505      2313      2317      2315
 -1       857    8    0    1
 -2       363       362       506      1878      2318      2319
 -1       858    8    0    1
 -2       362       505       506      2316      2320      2318
 -1       859    8    0    1
 -2       364       363       507      1881      2321      2322
 -1       860    8    0    1
 -2       363       506       507      2319      2323      2321
 -1       861    8    0    1
 -2       365       364       508      1884      2324      2325
 -1       862    8    0    1
 -2       364       507       508      2322      2326      2324
 -1       863    8    0    1
 -2       366       365       509      1887      2327      2328
 -1       864    8    0    1
 -2       365       508       509      2325      2329      2327
 -1       865    8    0    1
 -2       367       366       510      1890      2330      2331
 -1       866    8    0    1
 -2       366       509       510      2328      2332      2330
 -1       867    8    0    1
 -2       368       367       511      1893      2333      2334
 -1       868    8    0    1
 -2       367       510       511      2331      2335      2333
 -1       869    8    0    1
 -2       369       368       512      1896      2336      2337
 -1       870    8    0    1
 -2       368       511       512      2334      2338      2336
 -1       871    8    0    1
 -2       370       369       513      1899      2339      2340
 -1       872    8    0    1
 -2       369       512       513      2337      2341      2339
 -1       873    8    0    1
 -2       371       370       514      1902      2342      2343
 -1       874    8    0    1
 -2       370       513       514      2340      2344      2342
 -1       875    8    0    1
 -2       372       371       515      1905      2345      2346
 -1       876    8    0    1
 -2       371       514       515      2343      2347      2345
 -1       877    8    0    1
 -2       373       372       516      1908      2348      2349
 -1       878    8    0    1
 -2       372       515       516      2346      2350      2348
 -1       879    8    0    1
 -2       374       373       517      1911      2351      2352
 -1       880    8    0    1
 -2       373       516       517      2349      2353      2351
 -1       881    8    0    1
 -2       375       374       518      1914      2354      2355
 -1       882    8    0    1
 -2       374       517       518      2352      2356      2354
 -1       883    8    0    1
 -2       376       375       519      1917      2357      2358
 -1       884    8    0    1
 -2       375       518       519      2355      2359      2357
 -1       885    8    0    1
 -2       377       376       520      1920      2360      2361
 -1       886    8    0    1
 -2       376       519       520      2358      2362      2360
 -1       887    8    0    1
 -2       378       377       521      1923      2363      2364
 -1       888    8    0    1
 -2       377       520       521      2361      2365      2363
 -1       889    8    0    1
 -2       379       378       522      1926      2366      2367
 -1       890    8    0    1
 -2       378       521       522      2364      2368      2366
 -1       891    8    0    1
 -2       380       379       523      1929      2369      2370
 -1       892    8    0    1
 -2       379       522       523      2367      2371      2369
 -1       893    8    0    1
 -2       381       380       524      1932      2372      2373
 -1       894    8    0    1
 -2       380       523       524      2370      2374      2372
 -1       895    8    0    1
 -2       382       381       525      1935      2375      2376
 -1       896    8    0    1
 -2       381       524       525      2373      2377      2375
 -1       897    8    0    1
 -2       383       382       526      1938      2378      2379
 -1       898    8    0    1
 -2       443       383       526      2221      2379      2380
 -1       899    8    0    1
 -2       382       525       526      2376      2381      2378
 -1       900    8    0    1
 -2       386       387       527      1949      2382      2383
 -1       901    8    0    1
 -2       384       386       528      1946      2384      2385
 -1       902    8    0    1
 -2       489       384       528      2269      2385      2386
 -1       903    8    0    1
 -2       386       527       528      2383      2387      2384
 -1       904    8    0    1
 -2       388       389       529      1955      2388      2389
 -1       905    8    0    1
 -2       389       390       530      1958      2390      2391
 -1       906    8    0    1
 -2       389       530       529      2391      2392      2388
 -1       907    8    0    1
 -2       390       391       531      1961      2393      2394
 -1       908    8    0    1
 -2       390       531       530      2394      2395      2390
 -1       909    8    0    1
 -2       391       392       532      1964      2396      2397
 -1       910    8    0    1
 -2       391       532       531      2397      2398      2393
 -1       911    8    0    1
 -2       392       393       533      1967      2399      2400
 -1       912    8    0    1
 -2       392       533       532      2400      2401      2396
 -1       913    8    0    1
 -2       393       394       534      1970      2402      2403
 -1       914    8    0    1
 -2       393       534       533      2403      2404      2399
 -1       915    8    0    1
 -2       394       395       535      1973      2405      2406
 -1       916    8    0    1
 -2       394       535       534      2406      2407      2402
 -1       917    8    0    1
 -2       395       396       536      1976      2408      2409
 -1       918    8    0    1
 -2       395       536       535      2409      2410      2405
 -1       919    8    0    1
 -2       396       397       537      1979      2411      2412
 -1       920    8    0    1
 -2       396       537       536      2412      2413      2408
 -1       921    8    0    1
 -2       397       398       538      1982      2414      2415
 -1       922    8    0    1
 -2       397       538       537      2415      2416      2411
 -1       923    8    0    1
 -2       398       399       539      1985      2417      2418
 -1       924    8    0    1
 -2       398       539       538      2418      2419      2414
 -1       925    8    0    1
 -2       399       400       540      1988      2420      2421
 -1       926    8    0    1
 -2       399       540       539      2421      2422      2417
 -1       927    8    0    1
 -2       400       401       541      1991      2423      2424
 -1       928    8    0    1
 -2       400       541       540      2424      2425      2420
 -1       929    8    0    1
 -2       401       402       542      1994      2426      2427
 -1       930    8    0    1
 -2       401       542       541      2427      2428      2423
 -1       931    8    0    1
 -2       402       403       543      1997      2429      2430
 -1       932    8    0    1
 -2       402       543       542      2430      2431      2426
 -1       933    8    0    1
 -2       403       404       544      2000      2432      2433
 -1       934    8    0    1
 -2       403       544       543      2433      2434      2429
 -1       935    8    0    1
 -2       404       405       545      2003      2435      2436
 -1       936    8    0    1
 -2       404       545       544      2436      2437      2432
 -1       937    8    0    1
 -2       405       406       546      2006      2438      2439
 -1       938    8    0    1
 -2       405       546       545      2439      2440      2435
 -1       939    8    0    1
 -2       406       407       547      2009      2441      2442
 -1       940    8    0    1
 -2       406       547       546      2442      2443      2438
 -1       941    8    0    1
 -2       407       408       548      2012      2444      2445
 -1       942    8    0    1
 -2       407       548       547      2445      2446      2441
 -1       943    8    0    1
 -2       408       409       549      2015      2447      2448
 -1       944    8    0    1
 -2       408       549       548      2448      2449      2444
 -1       945    8    0    1
 -2       409       410       550      2018      2450      2451
 -1       946    8    0    1
 -2       409       550       549      2451      2452      2447
 -1       947    8    0    1
 -2       410       411       551      2021      2453      2454
 -1       948    8    0    1
 -2       410       551       550      2454      2455      2450
 -1       949    8    0    1
 -2       411       412       552      2024      2456      2457
 -1       950    8    0    1
 -2       411       552       551      2457      2458      2453
 -1       951    8    0    1
 -2       412       413       553      2027      2459      2460
 -1       952    8    0    1
 -2       412       553       552      2460      2461      2456
 -1       953    8    0    1
 -2       413       414       554      2030      2462      2463
 -1       954    8    0    1
 -2       413       554       553      2463      2464      2459
 -1       955    8    0    1
 -2       414       415       555      2033      2465      2466
 -1       956    8    0    1
 -2       414       555       554      2466      2467      2462
 -1       957    8    0    1
 -2       415       416       556      2036      2468      2469
 -1       958    8    0    1
 -2       415       556       555      2469      2470      2465
 -1       959    8    0    1
 -2       416       417       557      2039      2471      2472
 -1       960    8    0    1
 -2       416       557       556      2472      2473      2468
 -1       961    8    0    1
 -2       417       418       558      2042      2474      2475
 -1       962    8    0    1
 -2       417       558       557      2475      2476      2471
 -1       963    8    0    1
 -2       418       419       559      2045      2477      2478
 -1       964    8    0    1
 -2       418       559       558      2478      2479      2474
 -1       965    8    0    1
 -2       419       420       560      2048      2480      2481
 -1       966    8    0    1
 -2       419       560       559      2481      2482      2477
 -1       967    8    0    1
 -2       420       421       561      2051      2483      2484
 -1       968    8    0    1
 -2       420       561       560      2484      2485      2480
 -1       969    8    0    1
 -2       421       422       562      2054      2486      2487
 -1       970    8    0    1
 -2       421       562       561      2487      2488      2483
 -1       971    8    0    1
 -2       422       423       563      2057      2489      2490
 -1       972    8    0    1
 -2       422       563       562      2490      2491      2486
 -1       973    8    0    1
 -2       423       424       564      2060      2492      2493
 -1       974    8    0    1
 -2       423       564       563      2493      2494      2489
 -1       975    8    0    1
 -2       424       425       565      2063      2495      2496
 -1       976    8    0    1
 -2       424       565       564      2496      2497      2492
 -1       977    8    0    1
 -2       425       426       566      2066      2498      2499
 -1       978    8    0    1
 -2       425       566       565      2499      2500      2495
 -1       979    8    0    1
 -2       426       427       567      2069      2501      2502
 -1       980    8    0    1
 -2       426       567       566      2502      2503      2498
 -1       981    8    0    1
 -2       427       428       568      2072      2504      2505
 -1       982    8    0    1
 -2       427       568       567      2505      2506      2501
 -1       983    8    0    1
 -2       428       429       569      2075      2507      2508
 -1       984    8    0    1
 -2       428       569       568      2508      2509      2504
 -1       985    8    0    1
 -2       429       430       433      2078      2087      2510
 -1       986    8    0    1
 -2       434       435       570      2094      2511      2512
 -1       987    8    0    1
 -2       435       436       571      2097      2513      2514
 -1       988    8    0    1
 -2       435       571       570      2514      2515      2511
 -1       989    8    0    1
 -2       432       431       572      2084      2516      2517
 -1       990    8    0    1
 -2       431       434       573      2091      2518      2519
 -1       991    8    0    1
 -2       572       431       573      2516      2519      2520
 -1       992    8    0    1
 -2       434       570       573      2512      2521      2518
 -1       993    8    0    1
 -2       436       437       574      2100      2522      2523
 -1       994    8    0    1
 -2       436       574       571      2523      2524      2513
 -1       995    8    0    1
 -2       437       438       575      2103      2525      2526
 -1       996    8    0    1
 -2       437       575       574      2526      2527      2522
 -1       997    8    0    1
 -2       438       439       576      2106      2528      2529
 -1       998    8    0    1
 -2       438       576       575      2529      2530      2525
 -1       999    8    0    1
 -2       439       440       577      2109      2531      2532
 -1      1000    8    0    1
 -2       439       577       576      2532      2533      2528
 -1      1001    8    0    1
 -2       440       441       578      2112      2534      2535
 -1      1002    8    0    1
 -2       440       578       577      2535      2536      2531
 -1      1003    8    0    1
 -2       441       442       579      2115      2537      2538
 -1      1004    8    0    1
 -2       441       579       578      2538      2539      2534
 -1      1005    8    0    1
 -2       442       443       580      2118      2540      2541
 -1      1006    8    0    1
 -2       579       442       580      2537      2541      2542
 -1      1007    8    0    1
 -2       443       526       580      2380      2543      2540
 -1      1008    8    0    1
 -2       450       451       581      2197      2544      2545
 -1      1009    8    0    1
 -2       385       444       582      2196      2546      2547
 -1      1010    8    0    1
 -2       339       325       583      2187      2548      2549
 -1      1011    8    0    1
 -2       484       339       583      2255      2549      2550
 -1      1012    8    0    1
 -2       325       324       583      1768      2551      2548
 -1      1013    8    0    1
 -2       471       385       584      2185      2552      2553
 -1      1014    8    0    1
 -2       459       460       585      2208      2554      2555
 -1      1015    8    0    1
 -2       387       388       586      1952      2556      2557
 -1      1016    8    0    1
 -2       527       387       586      2382      2557      2558
 -1      1017    8    0    1
 -2       388       529       586      2389      2559      2556
 -1      1018    8    0    1
 -2       347       346       587      1830      2560      2561
 -1      1019    8    0    1
 -2       191       464       345      2195      2562      1824
 -1      1020    8    0    1
 -2       328       329       588      1779      2563      2564
 -1      1021    8    0    1
 -2       474       328       588      2226      2564      2565
 -1      1022    8    0    1
 -2       329       476       588      2232      2566      2563
 -1      1023    8    0    1
 -2       449       450       589      2220      2567      2568
 -1      1024    8    0    1
 -2       450       581       589      2545      2569      2567
 -1      1025    8    0    1
 -2       447       448       590      2133      2570      2571
 -1      1026    8    0    1
 -2       448       449       591      2219      2572      2573
 -1      1027    8    0    1
 -2       452       453       592      2215      2574      2575
 -1      1028    8    0    1
 -2       453       454       593      2214      2576      2577
 -1      1029    8    0    1
 -2       454       455       594      2213      2578      2579
 -1      1030    8    0    1
 -2       455       456       595      2212      2580      2581
 -1      1031    8    0    1
 -2       456       457       596      2211      2582      2583
 -1      1032    8    0    1
 -2       457       458       597      2210      2584      2585
 -1      1033    8    0    1
 -2       458       459       598      2209      2586      2587
 -1      1034    8    0    1
 -2       459       585       598      2555      2588      2586
 -1      1035    8    0    1
 -2       460       461       599      2160      2589      2590
 -1      1036    8    0    1
 -2       461       462       486      2207      2591      2592
 -1      1037    8    0    1
 -2       467       468       587      2202      2593      2594
 -1      1038    8    0    1
 -2       468       469       600      2201      2595      2596
 -1      1039    8    0    1
 -2       469       470       601      2200      2597      2598
 -1      1040    8    0    1
 -2       445       471       602      2199      2599      2600
 -1      1041    8    0    1
 -2       471       584       602      2553      2601      2599
 -1      1042    8    0    1
 -2       326       475       603      2229      2602      2603
 -1      1043    8    0    1
 -2       326       603       446      2603      2604      2128
 -1      1044    8    0    1
 -2       584       385       582      2552      2547      2605
 -1      1045    8    0    1
 -2       470       490       601      2273      2606      2597
 -1      1046    8    0    1
 -2       485       447       590      2258      2571      2607
 -1      1047    8    0    1
 -2       444       485       582      2259      2608      2546
 -1      1048    8    0    1
 -2       472       486       462      2261      2591      2609
 -1      1049    8    0    1
 -2       343       472       462      2262      2609      2223
 -1      1050    8    0    1
 -2       346       345       466      2194      2610      2611
 -1      1051    8    0    1
 -2       490       445       602      2272      2600      2612
 -1      1052    8    0    1
 -2       347       587       491      2561      2613      2274
 -1      1053    8    0    1
 -2       429       433       569      2510      2614      2507
 -1      1054    8    0    1
 -2       433       432       569      2088      2615      2614
 -1      1055    8    0    1
 -2       581       451       604      2544      2616      2617
 -1      1056    8    0    1
 -2       451       473       604      2217      2618      2616
 -1      1057    8    0    1
 -2       346       466       467      2611      2203      2619
 -1      1058    8    0    1
 -2       346       467       587      2619      2594      2560
 -1      1059    8    0    1
 -2       569       432       572      2615      2517      2620
 -1      1060    8    0    1
 -2       466       345       465      2610      2621      2204
 -1      1061    8    0    1
 -2       324       446       605      2127      2622      2623
 -1      1062    8    0    1
 -2       583       324       605      2551      2623      2624
 -1      1063    8    0    1
 -2       446       603       605      2604      2625      2622
 -1      1064    8    0    1
 -2       585       460       599      2554      2590      2626
 -1      1065    8    0    1
 -2       600       469       601      2595      2598      2627
 -1      1066    8    0    1
 -2       597       458       598      2584      2587      2628
 -1      1067    8    0    1
 -2       596       457       597      2582      2585      2629
 -1      1068    8    0    1
 -2       595       456       596      2580      2583      2630
 -1      1069    8    0    1
 -2       594       455       595      2578      2581      2631
 -1      1070    8    0    1
 -2       593       454       594      2576      2579      2632
 -1      1071    8    0    1
 -2       473       452       606      2218      2633      2634
 -1      1072    8    0    1
 -2       452       592       606      2575      2635      2633
 -1      1073    8    0    1
 -2       592       453       593      2574      2577      2636
 -1      1074    8    0    1
 -2       591       449       589      2572      2568      2637
 -1      1075    8    0    1
 -2       590       448       591      2570      2573      2638
 -1      1076    8    0    1
 -2       599       461       486      2589      2592      2639
 -1      1077    8    0    1
 -2       587       468       600      2593      2596      2640
 -1      1078    8    0    1
 -2       477       478       607      2238      2641      2642
 -1      1079    8    0    1
 -2       476       477       608      2235      2643      2644
 -1      1080    8    0    1
 -2       477       607       608      2642      2645      2643
 -1      1081    8    0    1
 -2       479       480       609      2244      2646      2647
 -1      1082    8    0    1
 -2       480       481       610      2247      2648      2649
 -1      1083    8    0    1
 -2       480       610       609      2649      2650      2646
 -1      1084    8    0    1
 -2       481       482       611      2250      2651      2652
 -1      1085    8    0    1
 -2       481       611       610      2652      2653      2648
 -1      1086    8    0    1
 -2       482       483       612      2253      2654      2655
 -1      1087    8    0    1
 -2       611       482       612      2651      2655      2656
 -1      1088    8    0    1
 -2       483       489       612      2271      2657      2654
 -1      1089    8    0    1
 -2       486       342       488      2260      2267      2658
 -1      1090    8    0    1
 -2       487       484       613      2265      2659      2660
 -1      1091    8    0    1
 -2       530       531       614      2395      2661      2662
 -1      1092    8    0    1
 -2       490       602       615      2612      2663      2664
 -1      1093    8    0    1
 -2       582       485       616      2608      2665      2666
 -1      1094    8    0    1
 -2       493       492       617      2281      2667      2668
 -1      1095    8    0    1
 -2       494       493       618      2284      2669      2670
 -1      1096    8    0    1
 -2       493       617       618      2668      2671      2669
 -1      1097    8    0    1
 -2       495       494       619      2287      2672      2673
 -1      1098    8    0    1
 -2       494       618       619      2670      2674      2672
 -1      1099    8    0    1
 -2       496       495       620      2290      2675      2676
 -1      1100    8    0    1
 -2       495       619       620      2673      2677      2675
 -1      1101    8    0    1
 -2       497       496       621      2293      2678      2679
 -1      1102    8    0    1
 -2       496       620       621      2676      2680      2678
 -1      1103    8    0    1
 -2       498       497       622      2296      2681      2682
 -1      1104    8    0    1
 -2       497       621       622      2679      2683      2681
 -1      1105    8    0    1
 -2       499       498       623      2299      2684      2685
 -1      1106    8    0    1
 -2       498       622       623      2682      2686      2684
 -1      1107    8    0    1
 -2       500       499       624      2302      2687      2688
 -1      1108    8    0    1
 -2       499       623       624      2685      2689      2687
 -1      1109    8    0    1
 -2       501       500       625      2305      2690      2691
 -1      1110    8    0    1
 -2       500       624       625      2688      2692      2690
 -1      1111    8    0    1
 -2       502       501       626      2308      2693      2694
 -1      1112    8    0    1
 -2       501       625       626      2691      2695      2693
 -1      1113    8    0    1
 -2       503       502       627      2311      2696      2697
 -1      1114    8    0    1
 -2       502       626       627      2694      2698      2696
 -1      1115    8    0    1
 -2       504       503       628      2314      2699      2700
 -1      1116    8    0    1
 -2       503       627       628      2697      2701      2699
 -1      1117    8    0    1
 -2       505       504       629      2317      2702      2703
 -1      1118    8    0    1
 -2       504       628       629      2700      2704      2702
 -1      1119    8    0    1
 -2       506       505       630      2320      2705      2706
 -1      1120    8    0    1
 -2       505       629       630      2703      2707      2705
 -1      1121    8    0    1
 -2       507       506       631      2323      2708      2709
 -1      1122    8    0    1
 -2       506       630       631      2706      2710      2708
 -1      1123    8    0    1
 -2       508       507       632      2326      2711      2712
 -1      1124    8    0    1
 -2       507       631       632      2709      2713      2711
 -1      1125    8    0    1
 -2       509       508       633      2329      2714      2715
 -1      1126    8    0    1
 -2       508       632       633      2712      2716      2714
 -1      1127    8    0    1
 -2       510       509       634      2332      2717      2718
 -1      1128    8    0    1
 -2       509       633       634      2715      2719      2717
 -1      1129    8    0    1
 -2       511       510       635      2335      2720      2721
 -1      1130    8    0    1
 -2       510       634       635      2718      2722      2720
 -1      1131    8    0    1
 -2       512       511       636      2338      2723      2724
 -1      1132    8    0    1
 -2       511       635       636      2721      2725      2723
 -1      1133    8    0    1
 -2       513       512       637      2341      2726      2727
 -1      1134    8    0    1
 -2       512       636       637      2724      2728      2726
 -1      1135    8    0    1
 -2       514       513       638      2344      2729      2730
 -1      1136    8    0    1
 -2       513       637       638      2727      2731      2729
 -1      1137    8    0    1
 -2       515       514       639      2347      2732      2733
 -1      1138    8    0    1
 -2       514       638       639      2730      2734      2732
 -1      1139    8    0    1
 -2       516       515       640      2350      2735      2736
 -1      1140    8    0    1
 -2       515       639       640      2733      2737      2735
 -1      1141    8    0    1
 -2       517       516       641      2353      2738      2739
 -1      1142    8    0    1
 -2       516       640       641      2736      2740      2738
 -1      1143    8    0    1
 -2       518       517       642      2356      2741      2742
 -1      1144    8    0    1
 -2       517       641       642      2739      2743      2741
 -1      1145    8    0    1
 -2       519       518       643      2359      2744      2745
 -1      1146    8    0    1
 -2       518       642       643      2742      2746      2744
 -1      1147    8    0    1
 -2       520       519       644      2362      2747      2748
 -1      1148    8    0    1
 -2       519       643       644      2745      2749      2747
 -1      1149    8    0    1
 -2       521       520       645      2365      2750      2751
 -1      1150    8    0    1
 -2       520       644       645      2748      2752      2750
 -1      1151    8    0    1
 -2       522       521       646      2368      2753      2754
 -1      1152    8    0    1
 -2       521       645       646      2751      2755      2753
 -1      1153    8    0    1
 -2       523       522       647      2371      2756      2757
 -1      1154    8    0    1
 -2       522       646       647      2754      2758      2756
 -1      1155    8    0    1
 -2       524       523       648      2374      2759      2760
 -1      1156    8    0    1
 -2       523       647       648      2757      2761      2759
 -1      1157    8    0    1
 -2       525       524       649      2377      2762      2763
 -1      1158    8    0    1
 -2       524       648       649      2760      2764      2762
 -1      1159    8    0    1
 -2       526       525       650      2381      2765      2766
 -1      1160    8    0    1
 -2       580       526       650      2543      2766      2767
 -1      1161    8    0    1
 -2       525       649       650      2763      2768      2765
 -1      1162    8    0    1
 -2       531       532       651      2398      2769      2770
 -1      1163    8    0    1
 -2       531       651       614      2770      2771      2661
 -1      1164    8    0    1
 -2       529       530       652      2392      2772      2773
 -1      1165    8    0    1
 -2       530       614       652      2662      2774      2772
 -1      1166    8    0    1
 -2       532       533       653      2401      2775      2776
 -1      1167    8    0    1
 -2       532       653       651      2776      2777      2769
 -1      1168    8    0    1
 -2       533       534       654      2404      2778      2779
 -1      1169    8    0    1
 -2       533       654       653      2779      2780      2775
 -1      1170    8    0    1
 -2       534       535       655      2407      2781      2782
 -1      1171    8    0    1
 -2       534       655       654      2782      2783      2778
 -1      1172    8    0    1
 -2       535       536       656      2410      2784      2785
 -1      1173    8    0    1
 -2       535       656       655      2785      2786      2781
 -1      1174    8    0    1
 -2       536       537       657      2413      2787      2788
 -1      1175    8    0    1
 -2       536       657       656      2788      2789      2784
 -1      1176    8    0    1
 -2       537       538       658      2416      2790      2791
 -1      1177    8    0    1
 -2       537       658       657      2791      2792      2787
 -1      1178    8    0    1
 -2       538       539       659      2419      2793      2794
 -1      1179    8    0    1
 -2       538       659       658      2794      2795      2790
 -1      1180    8    0    1
 -2       539       540       660      2422      2796      2797
 -1      1181    8    0    1
 -2       539       660       659      2797      2798      2793
 -1      1182    8    0    1
 -2       540       541       661      2425      2799      2800
 -1      1183    8    0    1
 -2       540       661       660      2800      2801      2796
 -1      1184    8    0    1
 -2       541       542       662      2428      2802      2803
 -1      1185    8    0    1
 -2       541       662       661      2803      2804      2799
 -1      1186    8    0    1
 -2       542       543       663      2431      2805      2806
 -1      1187    8    0    1
 -2       542       663       662      2806      2807      2802
 -1      1188    8    0    1
 -2       543       544       664      2434      2808      2809
 -1      1189    8    0    1
 -2       543       664       663      2809      2810      2805
 -1      1190    8    0    1
 -2       544       545       665      2437      2811      2812
 -1      1191    8    0    1
 -2       544       665       664      2812      2813      2808
 -1      1192    8    0    1
 -2       545       546       666      2440      2814      2815
 -1      1193    8    0    1
 -2       545       666       665      2815      2816      2811
 -1      1194    8    0    1
 -2       546       547       667      2443      2817      2818
 -1      1195    8    0    1
 -2       546       667       666      2818      2819      2814
 -1      1196    8    0    1
 -2       547       548       668      2446      2820      2821
 -1      1197    8    0    1
 -2       547       668       667      2821      2822      2817
 -1      1198    8    0    1
 -2       548       549       669      2449      2823      2824
 -1      1199    8    0    1
 -2       548       669       668      2824      2825      2820
 -1      1200    8    0    1
 -2       549       550       670      2452      2826      2827
 -1      1201    8    0    1
 -2       549       670       669      2827      2828      2823
 -1      1202    8    0    1
 -2       550       551       671      2455      2829      2830
 -1      1203    8    0    1
 -2       550       671       670      2830      2831      2826
 -1      1204    8    0    1
 -2       551       552       672      2458      2832      2833
 -1      1205    8    0    1
 -2       551       672       671      2833      2834      2829
 -1      1206    8    0    1
 -2       552       553       673      2461      2835      2836
 -1      1207    8    0    1
 -2       552       673       672      2836      2837      2832
 -1      1208    8    0    1
 -2       553       554       674      2464      2838      2839
 -1      1209    8    0    1
 -2       553       674       673      2839      2840      2835
 -1      1210    8    0    1
 -2       554       555       675      2467      2841      2842
 -1      1211    8    0    1
 -2       554       675       674      2842      2843      2838
 -1      1212    8    0    1
 -2       555       556       676      2470      2844      2845
 -1      1213    8    0    1
 -2       555       676       675      2845      2846      2841
 -1      1214    8    0    1
 -2       556       557       677      2473      2847      2848
 -1      1215    8    0    1
 -2       556       677       676      2848      2849      2844
 -1      1216    8    0    1
 -2       557       558       678      2476      2850      2851
 -1      1217    8    0    1
 -2       557       678       677      2851      2852      2847
 -1      1218    8    0    1
 -2       558       559       679      2479      2853      2854
 -1      1219    8    0    1
 -2       558       679       678      2854      2855      2850
 -1      1220    8    0    1
 -2       559       560       680      2482      2856      2857
 -1      1221    8    0    1
 -2       559       680       679      2857      2858      2853
 -1      1222    8    0    1
 -2       560       561       681      2485      2859      2860
 -1      1223    8    0    1
 -2       560       681       680      2860      2861      2856
 -1      1224    8    0    1
 -2       561       562       682      2488      2862      2863
 -1      1225    8    0    1
 -2       561       682       681      2863      2864      2859
 -1      1226    8    0    1
 -2       562       563       683      2491      2865      2866
 -1      1227    8    0    1
 -2       562       683       682      2866      2867      2862
 -1      1228    8    0    1
 -2       563       564       684      2494      2868      2869
 -1      1229    8    0    1
 -2       563       684       683      2869      2870      2865
 -1      1230    8    0    1
 -2       564       565       685      2497      2871      2872
 -1      1231    8    0    1
 -2       564       685       684      2872      2873      2868
 -1      1232    8    0    1
 -2       565       566       686      2500      2874      2875
 -1      1233    8    0    1
 -2       565       686       685      2875      2876      2871
 -1      1234    8    0    1
 -2       566       567       687      2503      2877      2878
 -1      1235    8    0    1
 -2       566       687       686      2878      2879      2874
 -1      1236    8    0    1
 -2       567       568       688      2506      2880      2881
 -1      1237    8    0    1
 -2       567       688       687      2881      2882      2877
 -1      1238    8    0    1
 -2       568       569       689      2509      2883      2884
 -1      1239    8    0    1
 -2       688       568       689      2880      2884      2885
 -1      1240    8    0    1
 -2       569       572       689      2620      2886      2883
 -1      1241    8    0    1
 -2       574       575       690      2527      2887      2888
 -1      1242    8    0    1
 -2       465       345       464      2621      2562      2205
 -1      1243    8    0    1
 -2       570       571       691      2515      2889      2890
 -1      1244    8    0    1
 -2       575       576       692      2530      2891      2892
 -1      1245    8    0    1
 -2       575       692       690      2892      2893      2887
 -1      1246    8    0    1
 -2       571       574       693      2524      2894      2895
 -1      1247    8    0    1
 -2       691       571       693      2889      2895      2896
 -1      1248    8    0    1
 -2       574       690       693      2888      2897      2894
 -1      1249    8    0    1
 -2       576       577       694      2533      2898      2899
 -1      1250    8    0    1
 -2       576       694       692      2899      2900      2891
 -1      1251    8    0    1
 -2       577       578       695      2536      2901      2902
 -1      1252    8    0    1
 -2       577       695       694      2902      2903      2898
 -1      1253    8    0    1
 -2       578       579       696      2539      2904      2905
 -1      1254    8    0    1
 -2       578       696       695      2905      2906      2901
 -1      1255    8    0    1
 -2       601       490       697      2606      2907      2908
 -1      1256    8    0    1
 -2       484       583       698      2550      2909      2910
 -1      1257    8    0    1
 -2       613       484       698      2659      2910      2911
 -1      1258    8    0    1
 -2       583       605       698      2624      2912      2909
 -1      1259    8    0    1
 -2       584       582       699      2605      2913      2914
 -1      1260    8    0    1
 -2       600       601       700      2627      2915      2916
 -1      1261    8    0    1
 -2       601       697       700      2908      2917      2915
 -1      1262    8    0    1
 -2       602       584       701      2601      2918      2919
 -1      1263    8    0    1
 -2       598       585       702      2588      2920      2921
 -1      1264    8    0    1
 -2       492       491       700      2278      2922      2923
 -1      1265    8    0    1
 -2       590       591       703      2638      2924      2925
 -1      1266    8    0    1
 -2       592       593       704      2636      2926      2927
 -1      1267    8    0    1
 -2       591       589       705      2637      2928      2929
 -1      1268    8    0    1
 -2       593       594       706      2632      2930      2931
 -1      1269    8    0    1
 -2       594       595       707      2631      2932      2933
 -1      1270    8    0    1
 -2       595       596       708      2630      2934      2935
 -1      1271    8    0    1
 -2       596       597       709      2629      2936      2937
 -1      1272    8    0    1
 -2       596       709       708      2937      2938      2934
 -1      1273    8    0    1
 -2       587       600       491      2640      2939      2613
 -1      1274    8    0    1
 -2       589       581       710      2569      2940      2941
 -1      1275    8    0    1
 -2       478       479       711      2241      2942      2943
 -1      1276    8    0    1
 -2       607       478       711      2641      2943      2944
 -1      1277    8    0    1
 -2       479       609       711      2647      2945      2942
 -1      1278    8    0    1
 -2       475       474       712      2230      2946      2947
 -1      1279    8    0    1
 -2       485       590       713      2607      2948      2949
 -1      1280    8    0    1
 -2       485       713       616      2949      2950      2665
 -1      1281    8    0    1
 -2       597       598       714      2628      2951      2952
 -1      1282    8    0    1
 -2       491       600       700      2939      2916      2922
 -1      1283    8    0    1
 -2       476       608       715      2644      2953      2954
 -1      1284    8    0    1
 -2       476       715       588      2954      2955      2566
 -1      1285    8    0    1
 -2       529       652       716      2773      2956      2957
 -1      1286    8    0    1
 -2       529       716       586      2957      2958      2559
 -1      1287    8    0    1
 -2       615       602       701      2663      2919      2959
 -1      1288    8    0    1
 -2       699       582       616      2913      2666      2960
 -1      1289    8    0    1
 -2       344       343       463      2257      2224      2206
 -1      1290    8    0    1
 -2       488       487       717      2268      2961      2962
 -1      1291    8    0    1
 -2       490       615       718      2664      2963      2964
 -1      1292    8    0    1
 -2       490       718       697      2964      2965      2907
 -1      1293    8    0    1
 -2       703       591       705      2924      2929      2966
 -1      1294    8    0    1
 -2       528       527       719      2387      2967      2968
 -1      1295    8    0    1
 -2       689       572       720      2886      2969      2970
 -1      1296    8    0    1
 -2       572       573       720      2520      2971      2969
 -1      1297    8    0    1
 -2       702       585       717      2920      2972      2973
 -1      1298    8    0    1
 -2       604       473       721      2618      2974      2975
 -1      1299    8    0    1
 -2       473       606       721      2634      2976      2974
 -1      1300    8    0    1
 -2       579       580       722      2542      2977      2978
 -1      1301    8    0    1
 -2       696       579       722      2904      2978      2979
 -1      1302    8    0    1
 -2       580       650       722      2767      2980      2977
 -1      1303    8    0    1
 -2       709       597       723      2936      2981      2982
 -1      1304    8    0    1
 -2       597       714       723      2952      2983      2981
 -1      1305    8    0    1
 -2       701       584       699      2918      2914      2984
 -1      1306    8    0    1
 -2       598       702       714      2921      2985      2951
 -1      1307    8    0    1
 -2       492       700       617      2923      2986      2667
 -1      1308    8    0    1
 -2       527       586       724      2558      2987      2988
 -1      1309    8    0    1
 -2       586       716       724      2958      2989      2987
 -1      1310    8    0    1
 -2       707       595       708      2932      2935      2990
 -1      1311    8    0    1
 -2       706       594       707      2930      2933      2991
 -1      1312    8    0    1
 -2       705       589       710      2928      2941      2992
 -1      1313    8    0    1
 -2       704       593       706      2926      2931      2993
 -1      1314    8    0    1
 -2       606       592       725      2635      2994      2995
 -1      1315    8    0    1
 -2       592       704       725      2927      2996      2994
 -1      1316    8    0    1
 -2       573       570       726      2521      2997      2998
 -1      1317    8    0    1
 -2       720       573       726      2971      2998      2999
 -1      1318    8    0    1
 -2       570       691       726      2890      3000      2997
 -1      1319    8    0    1
 -2       590       703       713      2925      3001      2948
 -1      1320    8    0    1
 -2       527       724       719      2988      3002      2967
 -1      1321    8    0    1
 -2       474       588       727      2565      3003      3004
 -1      1322    8    0    1
 -2       712       474       727      2946      3004      3005
 -1      1323    8    0    1
 -2       588       715       727      2955      3006      3003
 -1      1324    8    0    1
 -2       585       599       717      2626      3007      2972
 -1      1325    8    0    1
 -2       581       604       728      2617      3008      3009
 -1      1326    8    0    1
 -2       581       728       710      3009      3010      2940
 -1      1327    8    0    1
 -2       717       487       613      2961      2660      3011
 -1      1328    8    0    1
 -2       603       475       723      2602      3012      3013
 -1      1329    8    0    1
 -2       610       611       729      2653      3014      3015
 -1      1330    8    0    1
 -2       609       610       730      2650      3016      3017
 -1      1331    8    0    1
 -2       610       729       730      3015      3018      3016
 -1      1332    8    0    1
 -2       612       489       528      2657      2386      3019
 -1      1333    8    0    1
 -2       651       653       731      2777      3020      3021
 -1      1334    8    0    1
 -2       486       488       599      2658      3022      2639
 -1      1335    8    0    1
 -2       488       717       599      2962      3007      3022
 -1      1336    8    0    1
 -2       614       651       732      2771      3023      3024
 -1      1337    8    0    1
 -2       651       731       732      3021      3025      3023
 -1      1338    8    0    1
 -2       709       723       712      2982      3026      3027
 -1      1339    8    0    1
 -2       619       618       733      2674      3028      3029
 -1      1340    8    0    1
 -2       620       619       734      2677      3030      3031
 -1      1341    8    0    1
 -2       619       733       734      3029      3032      3030
 -1      1342    8    0    1
 -2       621       620       735      2680      3033      3034
 -1      1343    8    0    1
 -2       620       734       735      3031      3035      3033
 -1      1344    8    0    1
 -2       622       621       736      2683      3036      3037
 -1      1345    8    0    1
 -2       621       735       736      3034      3038      3036
 -1      1346    8    0    1
 -2       623       622       737      2686      3039      3040
 -1      1347    8    0    1
 -2       622       736       737      3037      3041      3039
 -1      1348    8    0    1
 -2       624       623       738      2689      3042      3043
 -1      1349    8    0    1
 -2       623       737       738      3040      3044      3042
 -1      1350    8    0    1
 -2       625       624       739      2692      3045      3046
 -1      1351    8    0    1
 -2       624       738       739      3043      3047      3045
 -1      1352    8    0    1
 -2       626       625       740      2695      3048      3049
 -1      1353    8    0    1
 -2       625       739       740      3046      3050      3048
 -1      1354    8    0    1
 -2       627       626       741      2698      3051      3052
 -1      1355    8    0    1
 -2       626       740       741      3049      3053      3051
 -1      1356    8    0    1
 -2       628       627       742      2701      3054      3055
 -1      1357    8    0    1
 -2       627       741       742      3052      3056      3054
 -1      1358    8    0    1
 -2       629       628       743      2704      3057      3058
 -1      1359    8    0    1
 -2       628       742       743      3055      3059      3057
 -1      1360    8    0    1
 -2       630       629       744      2707      3060      3061
 -1      1361    8    0    1
 -2       629       743       744      3058      3062      3060
 -1      1362    8    0    1
 -2       631       630       745      2710      3063      3064
 -1      1363    8    0    1
 -2       630       744       745      3061      3065      3063
 -1      1364    8    0    1
 -2       632       631       746      2713      3066      3067
 -1      1365    8    0    1
 -2       631       745       746      3064      3068      3066
 -1      1366    8    0    1
 -2       633       632       747      2716      3069      3070
 -1      1367    8    0    1
 -2       632       746       747      3067      3071      3069
 -1      1368    8    0    1
 -2       634       633       748      2719      3072      3073
 -1      1369    8    0    1
 -2       633       747       748      3070      3074      3072
 -1      1370    8    0    1
 -2       635       634       749      2722      3075      3076
 -1      1371    8    0    1
 -2       634       748       749      3073      3077      3075
 -1      1372    8    0    1
 -2       636       635       750      2725      3078      3079
 -1      1373    8    0    1
 -2       635       749       750      3076      3080      3078
 -1      1374    8    0    1
 -2       637       636       751      2728      3081      3082
 -1      1375    8    0    1
 -2       636       750       751      3079      3083      3081
 -1      1376    8    0    1
 -2       638       637       752      2731      3084      3085
 -1      1377    8    0    1
 -2       637       751       752      3082      3086      3084
 -1      1378    8    0    1
 -2       639       638       753      2734      3087      3088
 -1      1379    8    0    1
 -2       638       752       753      3085      3089      3087
 -1      1380    8    0    1
 -2       640       639       754      2737      3090      3091
 -1      1381    8    0    1
 -2       639       753       754      3088      3092      3090
 -1      1382    8    0    1
 -2       641       640       755      2740      3093      3094
 -1      1383    8    0    1
 -2       640       754       755      3091      3095      3093
 -1      1384    8    0    1
 -2       642       641       756      2743      3096      3097
 -1      1385    8    0    1
 -2       641       755       756      3094      3098      3096
 -1      1386    8    0    1
 -2       643       642       757      2746      3099      3100
 -1      1387    8    0    1
 -2       642       756       757      3097      3101      3099
 -1      1388    8    0    1
 -2       644       643       758      2749      3102      3103
 -1      1389    8    0    1
 -2       643       757       758      3100      3104      3102
 -1      1390    8    0    1
 -2       645       644       759      2752      3105      3106
 -1      1391    8    0    1
 -2       644       758       759      3103      3107      3105
 -1      1392    8    0    1
 -2       646       645       760      2755      3108      3109
 -1      1393    8    0    1
 -2       645       759       760      3106      3110      3108
 -1      1394    8    0    1
 -2       647       646       761      2758      3111      3112
 -1      1395    8    0    1
 -2       646       760       761      3109      3113      3111
 -1      1396    8    0    1
 -2       648       647       762      2761      3114      3115
 -1      1397    8    0    1
 -2       647       761       762      3112      3116      3114
 -1      1398    8    0    1
 -2       649       648       763      2764      3117      3118
 -1      1399    8    0    1
 -2       648       762       763      3115      3119      3117
 -1      1400    8    0    1
 -2       709       712       764      3027      3120      3121
 -1      1401    8    0    1
 -2       708       709       764      2938      3121      3122
 -1      1402    8    0    1
 -2       712       727       764      3005      3123      3120
 -1      1403    8    0    1
 -2       652       614       765      2774      3124      3125
 -1      1404    8    0    1
 -2       614       732       765      3024      3126      3124
 -1      1405    8    0    1
 -2       654       655       766      2783      3127      3128
 -1      1406    8    0    1
 -2       655       656       767      2786      3129      3130
 -1      1407    8    0    1
 -2       655       767       766      3130      3131      3127
 -1      1408    8    0    1
 -2       656       657       768      2789      3132      3133
 -1      1409    8    0    1
 -2       656       768       767      3133      3134      3129
 -1      1410    8    0    1
 -2       657       658       769      2792      3135      3136
 -1      1411    8    0    1
 -2       657       769       768      3136      3137      3132
 -1      1412    8    0    1
 -2       658       659       770      2795      3138      3139
 -1      1413    8    0    1
 -2       658       770       769      3139      3140      3135
 -1      1414    8    0    1
 -2       659       660       771      2798      3141      3142
 -1      1415    8    0    1
 -2       659       771       770      3142      3143      3138
 -1      1416    8    0    1
 -2       660       661       772      2801      3144      3145
 -1      1417    8    0    1
 -2       660       772       771      3145      3146      3141
 -1      1418    8    0    1
 -2       661       662       773      2804      3147      3148
 -1      1419    8    0    1
 -2       661       773       772      3148      3149      3144
 -1      1420    8    0    1
 -2       662       663       774      2807      3150      3151
 -1      1421    8    0    1
 -2       662       774       773      3151      3152      3147
 -1      1422    8    0    1
 -2       663       664       775      2810      3153      3154
 -1      1423    8    0    1
 -2       663       775       774      3154      3155      3150
 -1      1424    8    0    1
 -2       664       665       776      2813      3156      3157
 -1      1425    8    0    1
 -2       664       776       775      3157      3158      3153
 -1      1426    8    0    1
 -2       665       666       777      2816      3159      3160
 -1      1427    8    0    1
 -2       665       777       776      3160      3161      3156
 -1      1428    8    0    1
 -2       666       667       778      2819      3162      3163
 -1      1429    8    0    1
 -2       666       778       777      3163      3164      3159
 -1      1430    8    0    1
 -2       667       668       779      2822      3165      3166
 -1      1431    8    0    1
 -2       667       779       778      3166      3167      3162
 -1      1432    8    0    1
 -2       668       669       780      2825      3168      3169
 -1      1433    8    0    1
 -2       668       780       779      3169      3170      3165
 -1      1434    8    0    1
 -2       669       670       781      2828      3171      3172
 -1      1435    8    0    1
 -2       669       781       780      3172      3173      3168
 -1      1436    8    0    1
 -2       670       671       782      2831      3174      3175
 -1      1437    8    0    1
 -2       670       782       781      3175      3176      3171
 -1      1438    8    0    1
 -2       671       672       783      2834      3177      3178
 -1      1439    8    0    1
 -2       671       783       782      3178      3179      3174
 -1      1440    8    0    1
 -2       672       673       784      2837      3180      3181
 -1      1441    8    0    1
 -2       672       784       783      3181      3182      3177
 -1      1442    8    0    1
 -2       673       674       785      2840      3183      3184
 -1      1443    8    0    1
 -2       673       785       784      3184      3185      3180
 -1      1444    8    0    1
 -2       674       675       786      2843      3186      3187
 -1      1445    8    0    1
 -2       674       786       785      3187      3188      3183
 -1      1446    8    0    1
 -2       675       676       787      2846      3189      3190
 -1      1447    8    0    1
 -2       675       787       786      3190      3191      3186
 -1      1448    8    0    1
 -2       676       677       788      2849      3192      3193
 -1      1449    8    0    1
 -2       676       788       787      3193      3194      3189
 -1      1450    8    0    1
 -2       677       678       789      2852      3195      3196
 -1      1451    8    0    1
 -2       677       789       788      3196      3197      3192
 -1      1452    8    0    1
 -2       678       679       790      2855      3198      3199
 -1      1453    8    0    1
 -2       678       790       789      3199      3200      3195
 -1      1454    8    0    1
 -2       679       680       791      2858      3201      3202
 -1      1455    8    0    1
 -2       679       791       790      3202      3203      3198
 -1      1456    8    0    1
 -2       680       681       792      2861      3204      3205
 -1      1457    8    0    1
 -2       680       792       791      3205      3206      3201
 -1      1458    8    0    1
 -2       681       682       793      2864      3207      3208
 -1      1459    8    0    1
 -2       681       793       792      3208      3209      3204
 -1      1460    8    0    1
 -2       682       683       794      2867      3210      3211
 -1      1461    8    0    1
 -2       682       794       793      3211      3212      3207
 -1      1462    8    0    1
 -2       683       684       795      2870      3213      3214
 -1      1463    8    0    1
 -2       683       795       794      3214      3215      3210
 -1      1464    8    0    1
 -2       684       685       796      2873      3216      3217
 -1      1465    8    0    1
 -2       684       796       795      3217      3218      3213
 -1      1466    8    0    1
 -2       685       686       797      2876      3219      3220
 -1      1467    8    0    1
 -2       685       797       796      3220      3221      3216
 -1      1468    8    0    1
 -2       686       687       798      2879      3222      3223
 -1      1469    8    0    1
 -2       686       798       797      3223      3224      3219
 -1      1470    8    0    1
 -2       687       688       799      2882      3225      3226
 -1      1471    8    0    1
 -2       687       799       798      3226      3227      3222
 -1      1472    8    0    1
 -2       688       689       800      2885      3228      3229
 -1      1473    8    0    1
 -2       799       688       800      3225      3229      3230
 -1      1474    8    0    1
 -2       689       720       800      2970      3231      3228
 -1      1475    8    0    1
 -2       694       695       801      2903      3232      3233
 -1      1476    8    0    1
 -2       690       692       802      2893      3234      3235
 -1      1477    8    0    1
 -2       702       717       613      2973      3011      3236
 -1      1478    8    0    1
 -2       699       616       803      2960      3237      3238
 -1      1479    8    0    1
 -2       703       705       804      2966      3239      3240
 -1      1480    8    0    1
 -2       653       654       805      2780      3241      3242
 -1      1481    8    0    1
 -2       654       766       805      3128      3243      3241
 -1      1482    8    0    1
 -2       615       701       806      2959      3244      3245
 -1      1483    8    0    1
 -2       618       617       807      2671      3246      3247
 -1      1484    8    0    1
 -2       618       807       733      3247      3248      3028
 -1      1485    8    0    1
 -2       695       696       808      2906      3249      3250
 -1      1486    8    0    1
 -2       695       808       801      3250      3251      3232
 -1      1487    8    0    1
 -2       707       708       764      2990      3122      3252
 -1      1488    8    0    1
 -2       701       699       809      2984      3253      3254
 -1      1489    8    0    1
 -2       723       475       712      3012      2947      3026
 -1      1490    8    0    1
 -2       692       694       810      2900      3255      3256
 -1      1491    8    0    1
 -2       802       692       810      3234      3256      3257
 -1      1492    8    0    1
 -2       694       801       810      3233      3258      3255
 -1      1493    8    0    1
 -2       528       719       612      2968      3259      3019
 -1      1494    8    0    1
 -2       705       710       811      2992      3260      3261
 -1      1495    8    0    1
 -2       706       707       812      2991      3262      3263
 -1      1496    8    0    1
 -2       608       607       813      2645      3264      3265
 -1      1497    8    0    1
 -2       616       713       814      2950      3266      3267
 -1      1498    8    0    1
 -2       713       703       815      3001      3268      3269
 -1      1499    8    0    1
 -2       714       702       816      2985      3270      3271
 -1      1500    8    0    1
 -2       723       714       816      2983      3271      3272
 -1      1501    8    0    1
 -2       702       613       816      3236      3273      3270
 -1      1502    8    0    1
 -2       704       706       817      2993      3274      3275
 -1      1503    8    0    1
 -2       716       652       818      2956      3276      3277
 -1      1504    8    0    1
 -2       652       765       818      3125      3278      3276
 -1      1505    8    0    1
 -2       609       730       819      3017      3279      3280
 -1      1506    8    0    1
 -2       609       819       711      3280      3281      2945
 -1      1507    8    0    1
 -2       731       653       805      3020      3242      3282
 -1      1508    8    0    1
 -2       718       615       820      2963      3283      3284
 -1      1509    8    0    1
 -2       615       806       820      3245      3285      3283
 -1      1510    8    0    1
 -2       804       705       811      3239      3261      3286
 -1      1511    8    0    1
 -2       721       606       821      2976      3287      3288
 -1      1512    8    0    1
 -2       606       725       821      2995      3289      3287
 -1      1513    8    0    1
 -2       701       809       806      3254      3290      3244
 -1      1514    8    0    1
 -2       650       649       722      2768      3291      2980
 -1      1515    8    0    1
 -2       612       719       729      3259      3292      3293
 -1      1516    8    0    1
 -2       707       764       822      3252      3294      3295
 -1      1517    8    0    1
 -2       812       707       822      3262      3295      3296
 -1      1518    8    0    1
 -2       764       727       822      3123      3297      3294
 -1      1519    8    0    1
 -2       691       693       823      2896      3298      3299
 -1      1520    8    0    1
 -2       710       728       824      3010      3300      3301
 -1      1521    8    0    1
 -2       710       824       811      3301      3302      3260
 -1      1522    8    0    1
 -2       604       721       825      2975      3303      3304
 -1      1523    8    0    1
 -2       604       825       728      3304      3305      3008
 -1      1524    8    0    1
 -2       690       802       826      3235      3306      3307
 -1      1525    8    0    1
 -2       690       826       693      3307      3308      2897
 -1      1526    8    0    1
 -2       704       817       827      3275      3309      3310
 -1      1527    8    0    1
 -2       704       827       725      3310      3311      2996
 -1      1528    8    0    1
 -2       803       616       814      3237      3267      3312
 -1      1529    8    0    1
 -2       703       804       815      3240      3313      3268
 -1      1530    8    0    1
 -2       817       706       812      3274      3263      3314
 -1      1531    8    0    1
 -2       722       649       763      3291      3118      3315
 -1      1532    8    0    1
 -2       605       603       828      2625      3316      3317
 -1      1533    8    0    1
 -2       613       698       816      2911      3318      3273
 -1      1534    8    0    1
 -2       724       716       829      2989      3319      3320
 -1      1535    8    0    1
 -2       716       818       829      3277      3321      3319
 -1      1536    8    0    1
 -2       726       691       830      3000      3322      3323
 -1      1537    8    0    1
 -2       691       823       830      3299      3324      3322
 -1      1538    8    0    1
 -2       809       699       803      3253      3238      3325
 -1      1539    8    0    1
 -2       807       617       718      3246      3326      3327
 -1      1540    8    0    1
 -2       814       713       815      3266      3269      3328
 -1      1541    8    0    1
 -2       813       607       831      3264      3329      3330
 -1      1542    8    0    1
 -2       607       711       831      2944      3331      3329
 -1      1543    8    0    1
 -2       696       722       763      2979      3315      3332
 -1      1544    8    0    1
 -2       608       813       812      3265      3333      3334
 -1      1545    8    0    1
 -2       696       763       808      3332      3335      3249
 -1      1546    8    0    1
 -2       719       724       832      3002      3336      3337
 -1      1547    8    0    1
 -2       729       719       832      3292      3337      3338
 -1      1548    8    0    1
 -2       832       724       829      3336      3320      3339
 -1      1549    8    0    1
 -2       805       766       833      3243      3340      3341
 -1      1550    8    0    1
 -2       804       811       834      3286      3342      3343
 -1      1551    8    0    1
 -2       697       718       617      2965      3326      3344
 -1      1552    8    0    1
 -2       801       808       835      3251      3345      3346
 -1      1553    8    0    1
 -2       605       828       698      3317      3347      2912
 -1      1554    8    0    1
 -2       735       734       836      3035      3348      3349
 -1      1555    8    0    1
 -2       736       735       837      3038      3350      3351
 -1      1556    8    0    1
 -2       735       836       837      3349      3352      3350
 -1      1557    8    0    1
 -2       737       736       838      3041      3353      3354
 -1      1558    8    0    1
 -2       736       837       838      3351      3355      3353
 -1      1559    8    0    1
 -2       738       737       839      3044      3356      3357
 -1      1560    8    0    1
 -2       737       838       839      3354      3358      3356
 -1      1561    8    0    1
 -2       739       738       840      3047      3359      3360
 -1      1562    8    0    1
 -2       738       839       840      3357      3361      3359
 -1      1563    8    0    1
 -2       740       739       841      3050      3362      3363
 -1      1564    8    0    1
 -2       739       840       841      3360      3364      3362
 -1      1565    8    0    1
 -2       741       740       842      3053      3365      3366
 -1      1566    8    0    1
 -2       740       841       842      3363      3367      3365
 -1      1567    8    0    1
 -2       742       741       843      3056      3368      3369
 -1      1568    8    0    1
 -2       741       842       843      3366      3370      3368
 -1      1569    8    0    1
 -2       743       742       844      3059      3371      3372
 -1      1570    8    0    1
 -2       742       843       844      3369      3373      3371
 -1      1571    8    0    1
 -2       744       743       845      3062      3374      3375
 -1      1572    8    0    1
 -2       743       844       845      3372      3376      3374
 -1      1573    8    0    1
 -2       745       744       846      3065      3377      3378
 -1      1574    8    0    1
 -2       744       845       846      3375      3379      3377
 -1      1575    8    0    1
 -2       746       745       847      3068      3380      3381
 -1      1576    8    0    1
 -2       745       846       847      3378      3382      3380
 -1      1577    8    0    1
 -2       747       746       848      3071      3383      3384
 -1      1578    8    0    1
 -2       746       847       848      3381      3385      3383
 -1      1579    8    0    1
 -2       748       747       849      3074      3386      3387
 -1      1580    8    0    1
 -2       747       848       849      3384      3388      3386
 -1      1581    8    0    1
 -2       749       748       850      3077      3389      3390
 -1      1582    8    0    1
 -2       748       849       850      3387      3391      3389
 -1      1583    8    0    1
 -2       750       749       851      3080      3392      3393
 -1      1584    8    0    1
 -2       749       850       851      3390      3394      3392
 -1      1585    8    0    1
 -2       751       750       852      3083      3395      3396
 -1      1586    8    0    1
 -2       750       851       852      3393      3397      3395
 -1      1587    8    0    1
 -2       752       751       853      3086      3398      3399
 -1      1588    8    0    1
 -2       751       852       853      3396      3400      3398
 -1      1589    8    0    1
 -2       753       752       854      3089      3401      3402
 -1      1590    8    0    1
 -2       752       853       854      3399      3403      3401
 -1      1591    8    0    1
 -2       754       753       855      3092      3404      3405
 -1      1592    8    0    1
 -2       753       854       855      3402      3406      3404
 -1      1593    8    0    1
 -2       755       754       856      3095      3407      3408
 -1      1594    8    0    1
 -2       754       855       856      3405      3409      3407
 -1      1595    8    0    1
 -2       756       755       857      3098      3410      3411
 -1      1596    8    0    1
 -2       755       856       857      3408      3412      3410
 -1      1597    8    0    1
 -2       757       756       858      3101      3413      3414
 -1      1598    8    0    1
 -2       756       857       858      3411      3415      3413
 -1      1599    8    0    1
 -2       758       757       859      3104      3416      3417
 -1      1600    8    0    1
 -2       757       858       859      3414      3418      3416
 -1      1601    8    0    1
 -2       759       758       860      3107      3419      3420
 -1      1602    8    0    1
 -2       758       859       860      3417      3421      3419
 -1      1603    8    0    1
 -2       760       759       861      3110      3422      3423
 -1      1604    8    0    1
 -2       759       860       861      3420      3424      3422
 -1      1605    8    0    1
 -2       761       760       862      3113      3425      3426
 -1      1606    8    0    1
 -2       760       861       862      3423      3427      3425
 -1      1607    8    0    1
 -2       762       761       863      3116      3428      3429
 -1      1608    8    0    1
 -2       761       862       863      3426      3430      3428
 -1      1609    8    0    1
 -2       763       762       808      3119      3431      3335
 -1      1610    8    0    1
 -2       809       803       864      3325      3432      3433
 -1      1611    8    0    1
 -2       768       769       865      3137      3434      3435
 -1      1612    8    0    1
 -2       767       768       866      3134      3436      3437
 -1      1613    8    0    1
 -2       768       865       866      3435      3438      3436
 -1      1614    8    0    1
 -2       766       767       867      3131      3439      3440
 -1      1615    8    0    1
 -2       767       866       867      3437      3441      3439
 -1      1616    8    0    1
 -2       769       770       868      3140      3442      3443
 -1      1617    8    0    1
 -2       769       868       865      3443      3444      3434
 -1      1618    8    0    1
 -2       770       771       869      3143      3445      3446
 -1      1619    8    0    1
 -2       770       869       868      3446      3447      3442
 -1      1620    8    0    1
 -2       771       772       870      3146      3448      3449
 -1      1621    8    0    1
 -2       771       870       869      3449      3450      3445
 -1      1622    8    0    1
 -2       772       773       871      3149      3451      3452
 -1      1623    8    0    1
 -2       772       871       870      3452      3453      3448
 -1      1624    8    0    1
 -2       773       774       872      3152      3454      3455
 -1      1625    8    0    1
 -2       773       872       871      3455      3456      3451
 -1      1626    8    0    1
 -2       774       775       873      3155      3457      3458
 -1      1627    8    0    1
 -2       774       873       872      3458      3459      3454
 -1      1628    8    0    1
 -2       775       776       874      3158      3460      3461
 -1      1629    8    0    1
 -2       775       874       873      3461      3462      3457
 -1      1630    8    0    1
 -2       776       777       875      3161      3463      3464
 -1      1631    8    0    1
 -2       776       875       874      3464      3465      3460
 -1      1632    8    0    1
 -2       777       778       876      3164      3466      3467
 -1      1633    8    0    1
 -2       777       876       875      3467      3468      3463
 -1      1634    8    0    1
 -2       778       779       877      3167      3469      3470
 -1      1635    8    0    1
 -2       778       877       876      3470      3471      3466
 -1      1636    8    0    1
 -2       779       780       878      3170      3472      3473
 -1      1637    8    0    1
 -2       779       878       877      3473      3474      3469
 -1      1638    8    0    1
 -2       780       781       879      3173      3475      3476
 -1      1639    8    0    1
 -2       780       879       878      3476      3477      3472
 -1      1640    8    0    1
 -2       781       782       880      3176      3478      3479
 -1      1641    8    0    1
 -2       781       880       879      3479      3480      3475
 -1      1642    8    0    1
 -2       782       783       881      3179      3481      3482
 -1      1643    8    0    1
 -2       782       881       880      3482      3483      3478
 -1      1644    8    0    1
 -2       783       784       882      3182      3484      3485
 -1      1645    8    0    1
 -2       783       882       881      3485      3486      3481
 -1      1646    8    0    1
 -2       784       785       883      3185      3487      3488
 -1      1647    8    0    1
 -2       784       883       882      3488      3489      3484
 -1      1648    8    0    1
 -2       785       786       884      3188      3490      3491
 -1      1649    8    0    1
 -2       785       884       883      3491      3492      3487
 -1      1650    8    0    1
 -2       786       787       885      3191      3493      3494
 -1      1651    8    0    1
 -2       786       885       884      3494      3495      3490
 -1      1652    8    0    1
 -2       787       788       886      3194      3496      3497
 -1      1653    8    0    1
 -2       787       886       885      3497      3498      3493
 -1      1654    8    0    1
 -2       788       789       887      3197      3499      3500
 -1      1655    8    0    1
 -2       788       887       886      3500      3501      3496
 -1      1656    8    0    1
 -2       789       790       888      3200      3502      3503
 -1      1657    8    0    1
 -2       789       888       887      3503      3504      3499
 -1      1658    8    0    1
 -2       790       791       889      3203      3505      3506
 -1      1659    8    0    1
 -2       790       889       888      3506      3507      3502
 -1      1660    8    0    1
 -2       791       792       890      3206      3508      3509
 -1      1661    8    0    1
 -2       791       890       889      3509      3510      3505
 -1      1662    8    0    1
 -2       792       793       891      3209      3511      3512
 -1      1663    8    0    1
 -2       792       891       890      3512      3513      3508
 -1      1664    8    0    1
 -2       793       794       892      3212      3514      3515
 -1      1665    8    0    1
 -2       793       892       891      3515      3516      3511
 -1      1666    8    0    1
 -2       794       795       893      3215      3517      3518
 -1      1667    8    0    1
 -2       794       893       892      3518      3519      3514
 -1      1668    8    0    1
 -2       795       796       894      3218      3520      3521
 -1      1669    8    0    1
 -2       795       894       893      3521      3522      3517
 -1      1670    8    0    1
 -2       796       797       895      3221      3523      3524
 -1      1671    8    0    1
 -2       796       895       894      3524      3525      3520
 -1      1672    8    0    1
 -2       797       798       896      3224      3526      3527
 -1      1673    8    0    1
 -2       797       896       895      3527      3528      3523
 -1      1674    8    0    1
 -2       798       799       897      3227      3529      3530
 -1      1675    8    0    1
 -2       798       897       896      3530      3531      3526
 -1      1676    8    0    1
 -2       823       693       826      3298      3308      3532
 -1      1677    8    0    1
 -2       732       731       898      3025      3533      3534
 -1      1678    8    0    1
 -2       808       762       863      3431      3429      3535
 -1      1679    8    0    1
 -2       700       697       617      2917      3344      2986
 -1      1680    8    0    1
 -2       715       608       812      2953      3334      3536
 -1      1681    8    0    1
 -2       803       814       899      3312      3537      3538
 -1      1682    8    0    1
 -2       733       807       900      3248      3539      3540
 -1      1683    8    0    1
 -2       832       829       901      3339      3541      3542
 -1      1684    8    0    1
 -2       814       815       902      3328      3543      3544
 -1      1685    8    0    1
 -2       817       812       813      3314      3333      3545
 -1      1686    8    0    1
 -2       611       612       729      2656      3293      3014
 -1      1687    8    0    1
 -2       734       733       903      3032      3546      3547
 -1      1688    8    0    1
 -2       733       900       903      3540      3548      3546
 -1      1689    8    0    1
 -2       720       726       904      2999      3549      3550
 -1      1690    8    0    1
 -2       800       720       904      3231      3550      3551
 -1      1691    8    0    1
 -2       726       830       904      3323      3552      3549
 -1      1692    8    0    1
 -2       806       809       905      3290      3553      3554
 -1      1693    8    0    1
 -2       765       732       906      3126      3555      3556
 -1      1694    8    0    1
 -2       732       898       906      3534      3557      3555
 -1      1695    8    0    1
 -2       731       805       907      3282      3558      3559
 -1      1696    8    0    1
 -2       731       907       898      3559      3560      3533
 -1      1697    8    0    1
 -2       815       804       908      3313      3561      3562
 -1      1698    8    0    1
 -2       807       718       820      3327      3284      3563
 -1      1699    8    0    1
 -2       729       832       730      3338      3564      3018
 -1      1700    8    0    1
 -2       603       723       816      3013      3272      3565
 -1      1701    8    0    1
 -2       730       832       909      3564      3566      3567
 -1      1702    8    0    1
 -2       819       730       909      3279      3567      3568
 -1      1703    8    0    1
 -2       832       901       909      3542      3569      3566
 -1      1704    8    0    1
 -2       804       834       908      3343      3570      3561
 -1      1705    8    0    1
 -2       820       806       905      3285      3554      3571
 -1      1706    8    0    1
 -2       900       807       820      3539      3563      3572
 -1      1707    8    0    1
 -2       821       725       910      3289      3573      3574
 -1      1708    8    0    1
 -2       725       827       910      3311      3575      3573
 -1      1709    8    0    1
 -2       802       810       911      3257      3576      3577
 -1      1710    8    0    1
 -2       836       734       903      3348      3547      3578
 -1      1711    8    0    1
 -2       902       815       908      3543      3562      3579
 -1      1712    8    0    1
 -2       864       803       899      3432      3538      3580
 -1      1713    8    0    1
 -2       766       867       833      3440      3581      3340
 -1      1714    8    0    1
 -2       711       819       831      3281      3582      3331
 -1      1715    8    0    1
 -2       823       826       912      3532      3583      3584
 -1      1716    8    0    1
 -2       799       800       904      3230      3551      3585
 -1      1717    8    0    1
 -2       824       728       913      3300      3586      3587
 -1      1718    8    0    1
 -2       728       825       913      3305      3588      3586
 -1      1719    8    0    1
 -2       905       809       864      3553      3433      3589
 -1      1720    8    0    1
 -2       825       721       914      3303      3590      3591
 -1      1721    8    0    1
 -2       721       821       914      3288      3592      3590
 -1      1722    8    0    1
 -2       826       802       915      3306      3593      3594
 -1      1723    8    0    1
 -2       912       826       915      3583      3594      3595
 -1      1724    8    0    1
 -2       802       911       915      3577      3596      3593
 -1      1725    8    0    1
 -2       829       818       916      3321      3597      3598
 -1      1726    8    0    1
 -2       829       916       901      3598      3599      3541
 -1      1727    8    0    1
 -2       899       814       902      3537      3544      3600
 -1      1728    8    0    1
 -2       830       823       917      3324      3601      3602
 -1      1729    8    0    1
 -2       823       912       917      3584      3603      3601
 -1      1730    8    0    1
 -2       727       715       822      3006      3604      3297
 -1      1731    8    0    1
 -2       805       833       907      3341      3605      3558
 -1      1732    8    0    1
 -2       801       835       918      3346      3606      3607
 -1      1733    8    0    1
 -2       801       918       810      3607      3608      3258
 -1      1734    8    0    1
 -2       817       813       919      3545      3609      3610
 -1      1735    8    0    1
 -2       765       906       920      3556      3611      3612
 -1      1736    8    0    1
 -2       765       920       818      3612      3613      3278
 -1      1737    8    0    1
 -2       813       831       919      3330      3614      3609
 -1      1738    8    0    1
 -2       799       904       897      3585      3615      3529
 -1      1739    8    0    1
 -2       835       808       863      3345      3535      3616
 -1      1740    8    0    1
 -2       911       810       918      3576      3608      3617
 -1      1741    8    0    1
 -2       836       903       921      3578      3618      3619
 -1      1742    8    0    1
 -2       907       833       922      3605      3620      3621
 -1      1743    8    0    1
 -2       838       837       923      3355      3622      3623
 -1      1744    8    0    1
 -2       839       838       924      3358      3624      3625
 -1      1745    8    0    1
 -2       838       923       924      3623      3626      3624
 -1      1746    8    0    1
 -2       840       839       925      3361      3627      3628
 -1      1747    8    0    1
 -2       839       924       925      3625      3629      3627
 -1      1748    8    0    1
 -2       841       840       926      3364      3630      3631
 -1      1749    8    0    1
 -2       840       925       926      3628      3632      3630
 -1      1750    8    0    1
 -2       842       841       927      3367      3633      3634
 -1      1751    8    0    1
 -2       841       926       927      3631      3635      3633
 -1      1752    8    0    1
 -2       843       842       928      3370      3636      3637
 -1      1753    8    0    1
 -2       842       927       928      3634      3638      3636
 -1      1754    8    0    1
 -2       844       843       929      3373      3639      3640
 -1      1755    8    0    1
 -2       843       928       929      3637      3641      3639
 -1      1756    8    0    1
 -2       845       844       930      3376      3642      3643
 -1      1757    8    0    1
 -2       844       929       930      3640      3644      3642
 -1      1758    8    0    1
 -2       846       845       931      3379      3645      3646
 -1      1759    8    0    1
 -2       845       930       931      3643      3647      3645
 -1      1760    8    0    1
 -2       847       846       932      3382      3648      3649
 -1      1761    8    0    1
 -2       846       931       932      3646      3650      3648
 -1      1762    8    0    1
 -2       848       847       933      3385      3651      3652
 -1      1763    8    0    1
 -2       847       932       933      3649      3653      3651
 -1      1764    8    0    1
 -2       849       848       934      3388      3654      3655
 -1      1765    8    0    1
 -2       848       933       934      3652      3656      3654
 -1      1766    8    0    1
 -2       850       849       935      3391      3657      3658
 -1      1767    8    0    1
 -2       849       934       935      3655      3659      3657
 -1      1768    8    0    1
 -2       851       850       936      3394      3660      3661
 -1      1769    8    0    1
 -2       850       935       936      3658      3662      3660
 -1      1770    8    0    1
 -2       852       851       937      3397      3663      3664
 -1      1771    8    0    1
 -2       851       936       937      3661      3665      3663
 -1      1772    8    0    1
 -2       853       852       938      3400      3666      3667
 -1      1773    8    0    1
 -2       852       937       938      3664      3668      3666
 -1      1774    8    0    1
 -2       854       853       939      3403      3669      3670
 -1      1775    8    0    1
 -2       853       938       939      3667      3671      3669
 -1      1776    8    0    1
 -2       855       854       940      3406      3672      3673
 -1      1777    8    0    1
 -2       854       939       940      3670      3674      3672
 -1      1778    8    0    1
 -2       856       855       941      3409      3675      3676
 -1      1779    8    0    1
 -2       855       940       941      3673      3677      3675
 -1      1780    8    0    1
 -2       857       856       942      3412      3678      3679
 -1      1781    8    0    1
 -2       856       941       942      3676      3680      3678
 -1      1782    8    0    1
 -2       858       857       943      3415      3681      3682
 -1      1783    8    0    1
 -2       857       942       943      3679      3683      3681
 -1      1784    8    0    1
 -2       859       858       944      3418      3684      3685
 -1      1785    8    0    1
 -2       858       943       944      3682      3686      3684
 -1      1786    8    0    1
 -2       860       859       945      3421      3687      3688
 -1      1787    8    0    1
 -2       859       944       945      3685      3689      3687
 -1      1788    8    0    1
 -2       861       860       946      3424      3690      3691
 -1      1789    8    0    1
 -2       860       945       946      3688      3692      3690
 -1      1790    8    0    1
 -2       862       861       947      3427      3693      3694
 -1      1791    8    0    1
 -2       861       946       947      3691      3695      3693
 -1      1792    8    0    1
 -2       863       862       948      3430      3696      3697
 -1      1793    8    0    1
 -2       862       947       948      3694      3698      3696
 -1      1794    8    0    1
 -2       868       869       949      3447      3699      3700
 -1      1795    8    0    1
 -2       834       811       950      3342      3701      3702
 -1      1796    8    0    1
 -2       865       868       951      3444      3703      3704
 -1      1797    8    0    1
 -2       868       949       951      3700      3705      3703
 -1      1798    8    0    1
 -2       867       866       952      3441      3706      3707
 -1      1799    8    0    1
 -2       869       870       953      3450      3708      3709
 -1      1800    8    0    1
 -2       869       953       949      3709      3710      3699
 -1      1801    8    0    1
 -2       870       871       954      3453      3711      3712
 -1      1802    8    0    1
 -2       870       954       953      3712      3713      3708
 -1      1803    8    0    1
 -2       871       872       955      3456      3714      3715
 -1      1804    8    0    1
 -2       871       955       954      3715      3716      3711
 -1      1805    8    0    1
 -2       872       873       956      3459      3717      3718
 -1      1806    8    0    1
 -2       872       956       955      3718      3719      3714
 -1      1807    8    0    1
 -2       873       874       957      3462      3720      3721
 -1      1808    8    0    1
 -2       873       957       956      3721      3722      3717
 -1      1809    8    0    1
 -2       874       875       958      3465      3723      3724
 -1      1810    8    0    1
 -2       874       958       957      3724      3725      3720
 -1      1811    8    0    1
 -2       875       876       959      3468      3726      3727
 -1      1812    8    0    1
 -2       875       959       958      3727      3728      3723
 -1      1813    8    0    1
 -2       876       877       960      3471      3729      3730
 -1      1814    8    0    1
 -2       876       960       959      3730      3731      3726
 -1      1815    8    0    1
 -2       877       878       961      3474      3732      3733
 -1      1816    8    0    1
 -2       877       961       960      3733      3734      3729
 -1      1817    8    0    1
 -2       878       879       962      3477      3735      3736
 -1      1818    8    0    1
 -2       878       962       961      3736      3737      3732
 -1      1819    8    0    1
 -2       879       880       963      3480      3738      3739
 -1      1820    8    0    1
 -2       879       963       962      3739      3740      3735
 -1      1821    8    0    1
 -2       880       881       964      3483      3741      3742
 -1      1822    8    0    1
 -2       880       964       963      3742      3743      3738
 -1      1823    8    0    1
 -2       881       882       965      3486      3744      3745
 -1      1824    8    0    1
 -2       881       965       964      3745      3746      3741
 -1      1825    8    0    1
 -2       882       883       966      3489      3747      3748
 -1      1826    8    0    1
 -2       882       966       965      3748      3749      3744
 -1      1827    8    0    1
 -2       883       884       967      3492      3750      3751
 -1      1828    8    0    1
 -2       883       967       966      3751      3752      3747
 -1      1829    8    0    1
 -2       884       885       968      3495      3753      3754
 -1      1830    8    0    1
 -2       884       968       967      3754      3755      3750
 -1      1831    8    0    1
 -2       885       886       969      3498      3756      3757
 -1      1832    8    0    1
 -2       885       969       968      3757      3758      3753
 -1      1833    8    0    1
 -2       886       887       970      3501      3759      3760
 -1      1834    8    0    1
 -2       886       970       969      3760      3761      3756
 -1      1835    8    0    1
 -2       887       888       971      3504      3762      3763
 -1      1836    8    0    1
 -2       887       971       970      3763      3764      3759
 -1      1837    8    0    1
 -2       888       889       972      3507      3765      3766
 -1      1838    8    0    1
 -2       888       972       971      3766      3767      3762
 -1      1839    8    0    1
 -2       889       890       973      3510      3768      3769
 -1      1840    8    0    1
 -2       889       973       972      3769      3770      3765
 -1      1841    8    0    1
 -2       890       891       974      3513      3771      3772
 -1      1842    8    0    1
 -2       890       974       973      3772      3773      3768
 -1      1843    8    0    1
 -2       891       892       975      3516      3774      3775
 -1      1844    8    0    1
 -2       891       975       974      3775      3776      3771
 -1      1845    8    0    1
 -2       892       893       976      3519      3777      3778
 -1      1846    8    0    1
 -2       892       976       975      3778      3779      3774
 -1      1847    8    0    1
 -2       893       894       977      3522      3780      3781
 -1      1848    8    0    1
 -2       893       977       976      3781      3782      3777
 -1      1849    8    0    1
 -2       894       895       978      3525      3783      3784
 -1      1850    8    0    1
 -2       894       978       977      3784      3785      3780
 -1      1851    8    0    1
 -2       895       896       979      3528      3786      3787
 -1      1852    8    0    1
 -2       895       979       978      3787      3788      3783
 -1      1853    8    0    1
 -2       835       863       948      3616      3697      3789
 -1      1854    8    0    1
 -2       864       899       980      3580      3790      3791
 -1      1855    8    0    1
 -2       811       824       950      3302      3792      3701
 -1      1856    8    0    1
 -2       827       817       919      3309      3610      3793
 -1      1857    8    0    1
 -2       903       900       981      3548      3794      3795
 -1      1858    8    0    1
 -2       903       981       921      3795      3796      3618
 -1      1859    8    0    1
 -2       899       902       982      3600      3797      3798
 -1      1860    8    0    1
 -2       866       865       983      3438      3799      3800
 -1      1861    8    0    1
 -2       952       866       983      3706      3800      3801
 -1      1862    8    0    1
 -2       865       951       983      3704      3802      3799
 -1      1863    8    0    1
 -2       908       834       922      3570      3803      3804
 -1      1864    8    0    1
 -2       897       904       830      3615      3552      3805
 -1      1865    8    0    1
 -2       902       908       984      3579      3806      3807
 -1      1866    8    0    1
 -2       837       836       985      3352      3808      3809
 -1      1867    8    0    1
 -2       836       921       985      3619      3810      3808
 -1      1868    8    0    1
 -2       906       898       950      3557      3811      3812
 -1      1869    8    0    1
 -2       905       864       986      3589      3813      3814
 -1      1870    8    0    1
 -2       827       919       987      3793      3815      3816
 -1      1871    8    0    1
 -2       827       987       910      3816      3817      3575
 -1      1872    8    0    1
 -2       833       867       988      3581      3818      3819
 -1      1873    8    0    1
 -2       922       833       988      3620      3819      3820
 -1      1874    8    0    1
 -2       867       952       988      3707      3821      3818
 -1      1875    8    0    1
 -2       820       905       900      3571      3822      3572
 -1      1876    8    0    1
 -2       715       812       822      3536      3296      3604
 -1      1877    8    0    1
 -2       919       831       989      3614      3823      3824
 -1      1878    8    0    1
 -2       987       919       989      3815      3824      3825
 -1      1879    8    0    1
 -2       831       819       989      3582      3826      3823
 -1      1880    8    0    1
 -2       900       905       981      3822      3827      3794
 -1      1881    8    0    1
 -2       834       950       898      3702      3811      3828
 -1      1882    8    0    1
 -2       950       824       913      3792      3587      3829
 -1      1883    8    0    1
 -2       834       898       907      3828      3560      3830
 -1      1884    8    0    1
 -2       834       907       922      3830      3621      3803
 -1      1885    8    0    1
 -2       897       830       917      3805      3602      3831
 -1      1886    8    0    1
 -2       899       982       990      3798      3832      3833
 -1      1887    8    0    1
 -2       899       990       980      3833      3834      3790
 -1      1888    8    0    1
 -2       698       828       816      3347      3835      3318
 -1      1889    8    0    1
 -2       864       980       991      3791      3836      3837
 -1      1890    8    0    1
 -2       864       991       986      3837      3838      3813
 -1      1891    8    0    1
 -2       916       818       920      3597      3613      3839
 -1      1892    8    0    1
 -2       989       819       909      3826      3568      3840
 -1      1893    8    0    1
 -2       897       917       896      3831      3841      3531
 -1      1894    8    0    1
 -2       835       948       918      3789      3842      3606
 -1      1895    8    0    1
 -2       979       896       917      3786      3841      3843
 -1      1896    8    0    1
 -2       923       837       985      3622      3809      3844
 -1      1897    8    0    1
 -2       913       825       914      3588      3591      3845
 -1      1898    8    0    1
 -2       914       821       992      3592      3846      3847
 -1      1899    8    0    1
 -2       821       910       992      3574      3848      3846
 -1      1900    8    0    1
 -2       915       911       993      3596      3849      3850
 -1      1901    8    0    1
 -2       911       918       994      3617      3851      3852
 -1      1902    8    0    1
 -2       911       994       993      3852      3853      3849
 -1      1903    8    0    1
 -2       901       916       995      3599      3854      3855
 -1      1904    8    0    1
 -2       982       902       984      3797      3807      3856
 -1      1905    8    0    1
 -2       828       603       816      3316      3565      3835
 -1      1906    8    0    1
 -2       950       913       906      3829      3857      3812
 -1      1907    8    0    1
 -2       905       986       981      3814      3858      3827
 -1      1908    8    0    1
 -2       909       901       995      3569      3855      3859
 -1      1909    8    0    1
 -2       912       915       996      3595      3860      3861
 -1      1910    8    0    1
 -2       915       993       996      3850      3862      3860
 -1      1911    8    0    1
 -2       906       913       997      3857      3863      3864
 -1      1912    8    0    1
 -2       920       906       997      3611      3864      3865
 -1      1913    8    0    1
 -2       913       914       997      3845      3866      3863
 -1      1914    8    0    1
 -2       925       924       998      3629      3867      3868
 -1      1915    8    0    1
 -2       926       925       999      3632      3869      3870
 -1      1916    8    0    1
 -2       925       998       999      3868      3871      3869
 -1      1917    8    0    1
 -2       927       926      1000      3635      3872      3873
 -1      1918    8    0    1
 -2       926       999      1000      3870      3874      3872
 -1      1919    8    0    1
 -2       928       927      1001      3638      3875      3876
 -1      1920    8    0    1
 -2       927      1000      1001      3873      3877      3875
 -1      1921    8    0    1
 -2       929       928      1002      3641      3878      3879
 -1      1922    8    0    1
 -2       928      1001      1002      3876      3880      3878
 -1      1923    8    0    1
 -2       930       929      1003      3644      3881      3882
 -1      1924    8    0    1
 -2       929      1002      1003      3879      3883      3881
 -1      1925    8    0    1
 -2       931       930      1004      3647      3884      3885
 -1      1926    8    0    1
 -2       930      1003      1004      3882      3886      3884
 -1      1927    8    0    1
 -2       932       931      1005      3650      3887      3888
 -1      1928    8    0    1
 -2       931      1004      1005      3885      3889      3887
 -1      1929    8    0    1
 -2       933       932      1006      3653      3890      3891
 -1      1930    8    0    1
 -2       932      1005      1006      3888      3892      3890
 -1      1931    8    0    1
 -2       934       933      1007      3656      3893      3894
 -1      1932    8    0    1
 -2       933      1006      1007      3891      3895      3893
 -1      1933    8    0    1
 -2       935       934      1008      3659      3896      3897
 -1      1934    8    0    1
 -2       934      1007      1008      3894      3898      3896
 -1      1935    8    0    1
 -2       936       935      1009      3662      3899      3900
 -1      1936    8    0    1
 -2       935      1008      1009      3897      3901      3899
 -1      1937    8    0    1
 -2       937       936      1010      3665      3902      3903
 -1      1938    8    0    1
 -2       936      1009      1010      3900      3904      3902
 -1      1939    8    0    1
 -2       938       937      1011      3668      3905      3906
 -1      1940    8    0    1
 -2       937      1010      1011      3903      3907      3905
 -1      1941    8    0    1
 -2       939       938      1012      3671      3908      3909
 -1      1942    8    0    1
 -2       938      1011      1012      3906      3910      3908
 -1      1943    8    0    1
 -2       940       939      1013      3674      3911      3912
 -1      1944    8    0    1
 -2       939      1012      1013      3909      3913      3911
 -1      1945    8    0    1
 -2       941       940      1014      3677      3914      3915
 -1      1946    8    0    1
 -2       940      1013      1014      3912      3916      3914
 -1      1947    8    0    1
 -2       942       941      1015      3680      3917      3918
 -1      1948    8    0    1
 -2       941      1014      1015      3915      3919      3917
 -1      1949    8    0    1
 -2       943       942      1016      3683      3920      3921
 -1      1950    8    0    1
 -2       942      1015      1016      3918      3922      3920
 -1      1951    8    0    1
 -2       944       943      1017      3686      3923      3924
 -1      1952    8    0    1
 -2       943      1016      1017      3921      3925      3923
 -1      1953    8    0    1
 -2       945       944      1018      3689      3926      3927
 -1      1954    8    0    1
 -2       944      1017      1018      3924      3928      3926
 -1      1955    8    0    1
 -2       946       945      1019      3692      3929      3930
 -1      1956    8    0    1
 -2       945      1018      1019      3927      3931      3929
 -1      1957    8    0    1
 -2       947       946      1020      3695      3932      3933
 -1      1958    8    0    1
 -2       946      1019      1020      3930      3934      3932
 -1      1959    8    0    1
 -2       948       947      1021      3698      3935      3936
 -1      1960    8    0    1
 -2       947      1020      1021      3933      3937      3935
 -1      1961    8    0    1
 -2       953       954      1022      3713      3938      3939
 -1      1962    8    0    1
 -2       908       922       988      3804      3820      3940
 -1      1963    8    0    1
 -2       949       953      1023      3710      3941      3942
 -1      1964    8    0    1
 -2       953      1022      1023      3939      3943      3941
 -1      1965    8    0    1
 -2       955       956      1024      3719      3944      3945
 -1      1966    8    0    1
 -2       956       957      1025      3722      3946      3947
 -1      1967    8    0    1
 -2       956      1025      1024      3947      3948      3944
 -1      1968    8    0    1
 -2       957       958      1026      3725      3949      3950
 -1      1969    8    0    1
 -2       957      1026      1025      3950      3951      3946
 -1      1970    8    0    1
 -2       958       959      1027      3728      3952      3953
 -1      1971    8    0    1
 -2       958      1027      1026      3953      3954      3949
 -1      1972    8    0    1
 -2       959       960      1028      3731      3955      3956
 -1      1973    8    0    1
 -2       959      1028      1027      3956      3957      3952
 -1      1974    8    0    1
 -2       960       961      1029      3734      3958      3959
 -1      1975    8    0    1
 -2       960      1029      1028      3959      3960      3955
 -1      1976    8    0    1
 -2       961       962      1030      3737      3961      3962
 -1      1977    8    0    1
 -2       961      1030      1029      3962      3963      3958
 -1      1978    8    0    1
 -2       962       963      1031      3740      3964      3965
 -1      1979    8    0    1
 -2       962      1031      1030      3965      3966      3961
 -1      1980    8    0    1
 -2       963       964      1032      3743      3967      3968
 -1      1981    8    0    1
 -2       963      1032      1031      3968      3969      3964
 -1      1982    8    0    1
 -2       964       965      1033      3746      3970      3971
 -1      1983    8    0    1
 -2       964      1033      1032      3971      3972      3967
 -1      1984    8    0    1
 -2       965       966      1034      3749      3973      3974
 -1      1985    8    0    1
 -2       965      1034      1033      3974      3975      3970
 -1      1986    8    0    1
 -2       966       967      1035      3752      3976      3977
 -1      1987    8    0    1
 -2       966      1035      1034      3977      3978      3973
 -1      1988    8    0    1
 -2       967       968      1036      3755      3979      3980
 -1      1989    8    0    1
 -2       967      1036      1035      3980      3981      3976
 -1      1990    8    0    1
 -2       968       969      1037      3758      3982      3983
 -1      1991    8    0    1
 -2       968      1037      1036      3983      3984      3979
 -1      1992    8    0    1
 -2       969       970      1038      3761      3985      3986
 -1      1993    8    0    1
 -2       969      1038      1037      3986      3987      3982
 -1      1994    8    0    1
 -2       970       971      1039      3764      3988      3989
 -1      1995    8    0    1
 -2       970      1039      1038      3989      3990      3985
 -1      1996    8    0    1
 -2       971       972      1040      3767      3991      3992
 -1      1997    8    0    1
 -2       971      1040      1039      3992      3993      3988
 -1      1998    8    0    1
 -2       972       973      1041      3770      3994      3995
 -1      1999    8    0    1
 -2       972      1041      1040      3995      3996      3991
 -1      2000    8    0    1
 -2       973       974      1042      3773      3997      3998
 -1      2001    8    0    1
 -2       973      1042      1041      3998      3999      3994
 -1      2002    8    0    1
 -2       974       975      1043      3776      4000      4001
 -1      2003    8    0    1
 -2       974      1043      1042      4001      4002      3997
 -1      2004    8    0    1
 -2       975       976      1044      3779      4003      4004
 -1      2005    8    0    1
 -2       975      1044      1043      4004      4005      4000
 -1      2006    8    0    1
 -2       976       977      1045      3782      4006      4007
 -1      2007    8    0    1
 -2       976      1045      1044      4007      4008      4003
 -1      2008    8    0    1
 -2       977       978      1046      3785      4009      4010
 -1      2009    8    0    1
 -2       977      1046      1045      4010      4011      4006
 -1      2010    8    0    1
 -2       978       979      1047      3788      4012      4013
 -1      2011    8    0    1
 -2       978      1047      1046      4013      4014      4009
 -1      2012    8    0    1
 -2       916       920       997      3839      3865      4015
 -1      2013    8    0    1
 -2       918       948       994      3842      4016      3851
 -1      2014    8    0    1
 -2       912       996      1048      3861      4017      4018
 -1      2015    8    0    1
 -2       995       916       997      3854      4015      4019
 -1      2016    8    0    1
 -2       954       955      1049      3716      4020      4021
 -1      2017    8    0    1
 -2       954      1049      1022      4021      4022      3938
 -1      2018    8    0    1
 -2       917       912      1048      3603      4018      4023
 -1      2019    8    0    1
 -2       951       949      1050      3705      4024      4025
 -1      2020    8    0    1
 -2       949      1023      1050      3942      4026      4024
 -1      2021    8    0    1
 -2       985       921      1051      3810      4027      4028
 -1      2022    8    0    1
 -2       984       908       988      3806      3940      4029
 -1      2023    8    0    1
 -2       989       909       995      3840      3859      4030
 -1      2024    8    0    1
 -2       910       987       992      3817      4031      3848
 -1      2025    8    0    1
 -2       988       952       984      3821      4032      4029
 -1      2026    8    0    1
 -2       981       986      1052      3858      4033      4034
 -1      2027    8    0    1
 -2       921       981      1052      3796      4034      4035
 -1      2028    8    0    1
 -2       986       991      1052      3838      4036      4033
 -1      2029    8    0    1
 -2       924       923      1053      3626      4037      4038
 -1      2030    8    0    1
 -2       924      1053       998      4038      4039      3867
 -1      2031    8    0    1
 -2       923       985      1054      3844      4040      4041
 -1      2032    8    0    1
 -2       985      1051      1054      4028      4042      4040
 -1      2033    8    0    1
 -2       996       993      1055      3862      4043      4044
 -1      2034    8    0    1
 -2       996      1055      1047      4044      4045      4046
 -1      2035    8    0    1
 -2       991       980      1056      3836      4047      4048
 -1      2036    8    0    1
 -2       980       990      1056      3834      4049      4047
 -1      2037    8    0    1
 -2       948      1021       994      3936      4050      4016
 -1      2038    8    0    1
 -2       989       995       987      4030      4051      3825
 -1      2039    8    0    1
 -2      1048       996      1047      4017      4046      4052
 -1      2040    8    0    1
 -2       984       952       982      4032      4053      3856
 -1      2041    8    0    1
 -2       993       994      1057      3853      4054      4055
 -1      2042    8    0    1
 -2       993      1057      1055      4055      4056      4043
 -1      2043    8    0    1
 -2      1049       955      1024      4020      3945      4057
 -1      2044    8    0    1
 -2       952       983       982      3801      4058      4053
 -1      2045    8    0    1
 -2      1051       921      1052      4027      4035      4059
 -1      2046    8    0    1
 -2       923      1054      1053      4041      4060      4037
 -1      2047    8    0    1
 -2       982       983      1058      4058      4061      4062
 -1      2048    8    0    1
 -2       990       982      1058      3832      4062      4063
 -1      2049    8    0    1
 -2       983       951      1058      3802      4064      4061
 -1      2050    8    0    1
 -2       987       995       992      4051      4065      4031
 -1      2051    8    0    1
 -2      1058       951      1050      4064      4025      4066
 -1      2052    8    0    1
 -2      1000       999      1059      3874      4067      4068
 -1      2053    8    0    1
 -2      1001      1000      1060      3877      4069      4070
 -1      2054    8    0    1
 -2      1000      1059      1060      4068      4071      4069
 -1      2055    8    0    1
 -2      1002      1001      1061      3880      4072      4073
 -1      2056    8    0    1
 -2      1001      1060      1061      4070      4074      4072
 -1      2057    8    0    1
 -2      1003      1002      1062      3883      4075      4076
 -1      2058    8    0    1
 -2      1002      1061      1062      4073      4077      4075
 -1      2059    8    0    1
 -2      1004      1003      1063      3886      4078      4079
 -1      2060    8    0    1
 -2      1003      1062      1063      4076      4080      4078
 -1      2061    8    0    1
 -2      1005      1004      1064      3889      4081      4082
 -1      2062    8    0    1
 -2      1004      1063      1064      4079      4083      4081
 -1      2063    8    0    1
 -2      1006      1005      1065      3892      4084      4085
 -1      2064    8    0    1
 -2      1005      1064      1065      4082      4086      4084
 -1      2065    8    0    1
 -2      1007      1006      1066      3895      4087      4088
 -1      2066    8    0    1
 -2      1006      1065      1066      4085      4089      4087
 -1      2067    8    0    1
 -2      1008      1007      1067      3898      4090      4091
 -1      2068    8    0    1
 -2      1007      1066      1067      4088      4092      4090
 -1      2069    8    0    1
 -2      1009      1008      1068      3901      4093      4094
 -1      2070    8    0    1
 -2      1008      1067      1068      4091      4095      4093
 -1      2071    8    0    1
 -2      1010      1009      1069      3904      4096      4097
 -1      2072    8    0    1
 -2      1009      1068      1069      4094      4098      4096
 -1      2073    8    0    1
 -2      1011      1010      1070      3907      4099      4100
 -1      2074    8    0    1
 -2      1010      1069      1070      4097      4101      4099
 -1      2075    8    0    1
 -2      1012      1011      1071      3910      4102      4103
 -1      2076    8    0    1
 -2      1011      1070      1071      4100      4104      4102
 -1      2077    8    0    1
 -2      1013      1012      1072      3913      4105      4106
 -1      2078    8    0    1
 -2      1012      1071      1072      4103      4107      4105
 -1      2079    8    0    1
 -2      1014      1013      1073      3916      4108      4109
 -1      2080    8    0    1
 -2      1013      1072      1073      4106      4110      4108
 -1      2081    8    0    1
 -2      1015      1014      1074      3919      4111      4112
 -1      2082    8    0    1
 -2      1014      1073      1074      4109      4113      4111
 -1      2083    8    0    1
 -2      1016      1015      1075      3922      4114      4115
 -1      2084    8    0    1
 -2      1015      1074      1075      4112      4116      4114
 -1      2085    8    0    1
 -2      1017      1016      1076      3925      4117      4118
 -1      2086    8    0    1
 -2      1016      1075      1076      4115      4119      4117
 -1      2087    8    0    1
 -2      1018      1017      1077      3928      4120      4121
 -1      2088    8    0    1
 -2      1017      1076      1077      4118      4122      4120
 -1      2089    8    0    1
 -2      1019      1018      1078      3931      4123      4124
 -1      2090    8    0    1
 -2      1018      1077      1078      4121      4125      4123
 -1      2091    8    0    1
 -2      1020      1019      1079      3934      4126      4127
 -1      2092    8    0    1
 -2      1019      1078      1079      4124      4128      4126
 -1      2093    8    0    1
 -2       917      1048       979      4023      4129      3843
 -1      2094    8    0    1
 -2      1023      1022      1080      3943      4130      4131
 -1      2095    8    0    1
 -2      1025      1026      1081      3951      4132      4133
 -1      2096    8    0    1
 -2      1024      1025      1082      3948      4134      4135
 -1      2097    8    0    1
 -2      1025      1081      1082      4133      4136      4134
 -1      2098    8    0    1
 -2      1027      1028      1083      3957      4137      4138
 -1      2099    8    0    1
 -2      1028      1029      1084      3960      4139      4140
 -1      2100    8    0    1
 -2      1028      1084      1083      4140      4141      4137
 -1      2101    8    0    1
 -2      1029      1030      1085      3963      4142      4143
 -1      2102    8    0    1
 -2      1029      1085      1084      4143      4144      4139
 -1      2103    8    0    1
 -2      1030      1031      1086      3966      4145      4146
 -1      2104    8    0    1
 -2      1030      1086      1085      4146      4147      4142
 -1      2105    8    0    1
 -2      1031      1032      1087      3969      4148      4149
 -1      2106    8    0    1
 -2      1031      1087      1086      4149      4150      4145
 -1      2107    8    0    1
 -2      1032      1033      1088      3972      4151      4152
 -1      2108    8    0    1
 -2      1032      1088      1087      4152      4153      4148
 -1      2109    8    0    1
 -2      1033      1034      1089      3975      4154      4155
 -1      2110    8    0    1
 -2      1033      1089      1088      4155      4156      4151
 -1      2111    8    0    1
 -2      1034      1035      1090      3978      4157      4158
 -1      2112    8    0    1
 -2      1034      1090      1089      4158      4159      4154
 -1      2113    8    0    1
 -2      1035      1036      1091      3981      4160      4161
 -1      2114    8    0    1
 -2      1035      1091      1090      4161      4162      4157
 -1      2115    8    0    1
 -2      1036      1037      1092      3984      4163      4164
 -1      2116    8    0    1
 -2      1036      1092      1091      4164      4165      4160
 -1      2117    8    0    1
 -2      1037      1038      1093      3987      4166      4167
 -1      2118    8    0    1
 -2      1037      1093      1092      4167      4168      4163
 -1      2119    8    0    1
 -2      1038      1039      1094      3990      4169      4170
 -1      2120    8    0    1
 -2      1038      1094      1093      4170      4171      4166
 -1      2121    8    0    1
 -2      1039      1040      1095      3993      4172      4173
 -1      2122    8    0    1
 -2      1039      1095      1094      4173      4174      4169
 -1      2123    8    0    1
 -2      1040      1041      1096      3996      4175      4176
 -1      2124    8    0    1
 -2      1040      1096      1095      4176      4177      4172
 -1      2125    8    0    1
 -2      1041      1042      1097      3999      4178      4179
 -1      2126    8    0    1
 -2      1041      1097      1096      4179      4180      4175
 -1      2127    8    0    1
 -2      1042      1043      1098      4002      4181      4182
 -1      2128    8    0    1
 -2      1042      1098      1097      4182      4183      4178
 -1      2129    8    0    1
 -2      1043      1044      1099      4005      4184      4185
 -1      2130    8    0    1
 -2      1043      1099      1098      4185      4186      4181
 -1      2131    8    0    1
 -2      1044      1045      1100      4008      4187      4188
 -1      2132    8    0    1
 -2      1044      1100      1099      4188      4189      4184
 -1      2133    8    0    1
 -2      1045      1046      1101      4011      4190      4191
 -1      2134    8    0    1
 -2      1045      1101      1100      4191      4192      4187
 -1      2135    8    0    1
 -2      1046      1047      1102      4014      4193      4194
 -1      2136    8    0    1
 -2      1101      1046      1102      4190      4194      4195
 -1      2137    8    0    1
 -2      1047      1055      1102      4045      4196      4193
 -1      2138    8    0    1
 -2      1022      1049      1103      4022      4197      4198
 -1      2139    8    0    1
 -2      1022      1103      1080      4198      4199      4130
 -1      2140    8    0    1
 -2      1047       979      1048      4012      4129      4052
 -1      2141    8    0    1
 -2       999       998      1104      3871      4200      4201
 -1      2142    8    0    1
 -2       999      1104      1059      4201      4202      4067
 -1      2143    8    0    1
 -2       995       997       992      4019      4203      4065
 -1      2144    8    0    1
 -2       998      1053      1105      4039      4204      4205
 -1      2145    8    0    1
 -2       998      1105      1104      4205      4206      4200
 -1      2146    8    0    1
 -2      1053      1054      1106      4060      4207      4208
 -1      2147    8    0    1
 -2      1053      1106      1105      4208      4209      4204
 -1      2148    8    0    1
 -2       994      1021      1057      4050      4210      4054
 -1      2149    8    0    1
 -2       992       997       914      4203      3866      3847
 -1      2150    8    0    1
 -2      1026      1027      1107      3954      4211      4212
 -1      2151    8    0    1
 -2      1026      1107      1081      4212      4213      4132
 -1      2152    8    0    1
 -2      1052       991      1108      4036      4214      4215
 -1      2153    8    0    1
 -2      1052      1108      1051      4215      4216      4059
 -1      2154    8    0    1
 -2      1054      1051      1109      4042      4217      4218
 -1      2155    8    0    1
 -2      1054      1109      1106      4218      4219      4207
 -1      2156    8    0    1
 -2      1049      1024      1110      4057      4220      4221
 -1      2157    8    0    1
 -2      1103      1049      1110      4197      4221      4222
 -1      2158    8    0    1
 -2      1024      1082      1110      4135      4223      4220
 -1      2159    8    0    1
 -2       990      1058      1111      4063      4224      4225
 -1      2160    8    0    1
 -2      1056       990      1111      4049      4225      4226
 -1      2161    8    0    1
 -2      1058      1050      1111      4066      4227      4224
 -1      2162    8    0    1
 -2       991      1056      1108      4048      4228      4214
 -1      2163    8    0    1
 -2      1051      1108      1109      4216      4229      4217
 -1      2164    8    0    1
 -2      1021      1020      1112      3937      4230      4231
 -1      2165    8    0    1
 -2      1057      1021      1112      4210      4231      4232
 -1      2166    8    0    1
 -2      1020      1079      1112      4127      4233      4230
 -1      2167    8    0    1
 -2      1027      1083      1107      4138      4234      4211
 -1      2168    8    0    1
 -2      1111      1050      1023      4227      4026      4235
 -1      2169    8    0    1
 -2      1055      1057      1113      4056      4236      4237
 -1      2170    8    0    1
 -2      1102      1055      1113      4196      4237      4238
 -1      2171    8    0    1
 -2      1057      1112      1113      4232      4239      4236
 -1      2172    8    0    1
 -2      1023      1080      1111      4131      4240      4235
 -1      2173    8    0    1
 -2      1105      1106      1114      4209      4241      4242
 -1      2174    8    0    1
 -2      1061      1060      1115      4074      4243      4244
 -1      2175    8    0    1
 -2      1062      1061      1084      4077      4245      4246
 -1      2176    8    0    1
 -2      1063      1062      1085      4080      4247      4248
 -1      2177    8    0    1
 -2      1064      1063      1086      4083      4249      4250
 -1      2178    8    0    1
 -2      1065      1064      1087      4086      4251      4252
 -1      2179    8    0    1
 -2      1066      1065      1088      4089      4253      4254
 -1      2180    8    0    1
 -2      1067      1066      1089      4092      4255      4256
 -1      2181    8    0    1
 -2      1068      1067      1090      4095      4257      4258
 -1      2182    8    0    1
 -2      1069      1068      1091      4098      4259      4260
 -1      2183    8    0    1
 -2      1071      1070      1116      4104      4261      4262
 -1      2184    8    0    1
 -2      1072      1071      1094      4107      4263      4264
 -1      2185    8    0    1
 -2      1073      1072      1095      4110      4265      4266
 -1      2186    8    0    1
 -2      1074      1073      1096      4113      4267      4268
 -1      2187    8    0    1
 -2      1075      1074      1097      4116      4269      4270
 -1      2188    8    0    1
 -2      1076      1075      1098      4119      4271      4272
 -1      2189    8    0    1
 -2      1078      1077      1117      4125      4273      4274
 -1      2190    8    0    1
 -2      1079      1078      1101      4128      4275      4276
 -1      2191    8    0    1
 -2      1087      1064      1086      4251      4250      4150
 -1      2192    8    0    1
 -2      1085      1062      1084      4247      4246      4144
 -1      2193    8    0    1
 -2      1083      1084      1115      4141      4277      4278
 -1      2194    8    0    1
 -2      1087      1088      1065      4153      4253      4252
 -1      2195    8    0    1
 -2      1088      1089      1066      4156      4255      4254
 -1      2196    8    0    1
 -2      1089      1090      1067      4159      4257      4256
 -1      2197    8    0    1
 -2      1090      1091      1068      4162      4259      4258
 -1      2198    8    0    1
 -2      1091      1092      1069      4165      4279      4260
 -1      2199    8    0    1
 -2      1092      1093      1116      4168      4280      4281
 -1      2200    8    0    1
 -2      1094      1095      1072      4174      4265      4264
 -1      2201    8    0    1
 -2      1095      1096      1073      4177      4267      4266
 -1      2202    8    0    1
 -2      1096      1097      1074      4180      4269      4268
 -1      2203    8    0    1
 -2      1097      1098      1075      4183      4271      4270
 -1      2204    8    0    1
 -2      1098      1099      1076      4186      4282      4272
 -1      2205    8    0    1
 -2      1099      1100      1117      4189      4283      4284
 -1      2206    8    0    1
 -2      1101      1102      1079      4195      4285      4276
 -1      2207    8    0    1
 -2      1107      1083      1115      4234      4278      4286
 -1      2208    8    0    1
 -2      1086      1063      1085      4249      4248      4147
 -1      2209    8    0    1
 -2      1104      1105      1082      4206      4287      4288
 -1      2210    8    0    1
 -2      1084      1061      1115      4245      4244      4277
 -1      2211    8    0    1
 -2      1082      1081      1104      4136      4289      4288
 -1      2212    8    0    1
 -2      1059      1104      1081      4202      4289      4290
 -1      2213    8    0    1
 -2      1109      1108      1118      4229      4291      4292
 -1      2214    8    0    1
 -2      1081      1107      1059      4213      4293      4290
 -1      2215    8    0    1
 -2      1108      1056      1118      4228      4294      4291
 -1      2216    8    0    1
 -2      1106      1109      1119      4219      4295      4296
 -1      2217    8    0    1
 -2      1114      1106      1119      4241      4296      4297
 -1      2218    8    0    1
 -2      1109      1118      1119      4292      4298      4295
 -1      2219    8    0    1
 -2      1082      1105      1114      4287      4242      4299
 -1      2220    8    0    1
 -2      1069      1092      1116      4279      4281      4300
 -1      2221    8    0    1
 -2      1076      1099      1117      4282      4284      4301
 -1      2222    8    0    1
 -2      1056      1111      1080      4226      4240      4302
 -1      2223    8    0    1
 -2      1093      1094      1071      4171      4263      4303
 -1      2224    8    0    1
 -2      1100      1101      1078      4192      4275      4304
 -1      2225    8    0    1
 -2      1082      1114      1110      4299      4305      4223
 -1      2226    8    0    1
 -2      1056      1080      1118      4302      4306      4294
 -1      2227    8    0    1
 -2      1103      1110      1114      4222      4305      4307
 -1      2228    8    0    1
 -2      1103      1114      1119      4307      4297      4308
 -1      2229    8    0    1
 -2      1059      1107      1115      4293      4286      4309
 -1      2230    8    0    1
 -2      1080      1103      1119      4199      4308      4310
 -1      2231    8    0    1
 -2      1118      1080      1119      4306      4310      4298
 -1      2232    8    0    1
 -2      1070      1069      1116      4101      4300      4261
 -1      2233    8    0    1
 -2      1077      1076      1117      4122      4301      4273
 -1      2234    8    0    1
 -2      1112      1079      1113      4233      4311      4239
 -1      2235    8    0    1
 -2      1060      1059      1115      4071      4309      4243
 -1      2236    8    0    1
 -2      1100      1078      1117      4304      4274      4283
 -1      2237    8    0    1
 -2      1079      1102      1113      4285      4238      4311
 -1      2238    8    0    1
 -2      1093      1071      1116      4303      4262      4280
 -3
    1PSTEP                         1           1           1          
  100CL  101 1.000000000        4311                     0    1           1
 -4  DISP        4    1
 -5  D1          1    2    1    0
 -5  D2          1    2    2    0
 -5  D3          1    2    3    0
 -5  ALL         1    2    0    0    1ALL
 -1         1 1.86982E-03-1.45890E-03-3.99201E-15
 -1         2 5.70407E-03-9.64551E-04-1.02576E-14
 -1         3 1.39457E-02-5.94921E-03-1.68514E-13
 -1         4 1.66528E-02-7.37794E-03-1.71634E-13
 -1         5 0.00000E+00 0.00000E+00 0.00000E+00
 -1         6 0.00000E+00 0.00000E+00 0.00000E+00
 -1         7 0.00000E+00 0.00000E+00 0.00000E+00
 -1         8 0.00000E+00 0.00000E+00 0.00000E+00
 -1         9 0.00000E+00 0.00000E+00 0.00000E+00
 -1        10 0.00000E+00 0.00000E+00 0.00000E+00
 -1        11 0.00000E+00 0.00000E+00 0.00000E+00
 -1        12 0.00000E+00 0.00000E+00 0.00000E+00
 -1        13 0.00000E+00 0.00000E+00 0.00000E+00
 -1        14 0.00000E+00 0.00000E+00 0.00000E+00
 -1        15 0.00000E+00 0.00000E+00 0.00000E+00
 -1        16 0.00000E+00 0.00000E+00 0.00000E+00
 -1        17 0.00000E+00 0.00000E+00 0.00000E+00
 -1        18 0.00000E+00 0.00000E+00 0.00000E+00
 -1        19 0.00000E+00 0.00000E+00 0.00000E+00
 -1        20 0.00000E+00 0.00000E+00 0.00000E+00
 -1        21 0.00000E+00 0.00000E+00 0.00000E+00
 -1        22 0.00000E+00 0.00000E+00 0.00000E+00
 -1        23 4.65734E-04-2.37120E-04 4.78879E-17
 -1        24 8.66372E-04-3.69192E-04-6.42661E-17
 -1        25 1.28236E-03-4.96197E-04-3.39938E-16
 -1        26 1.73344E-03-6.55576E-04-7.79467E-16
 -1        27 2.22198E-03-8.85742E-04-1.38615E-15
 -1        28 2.72432E-03-1.21845E-03-2.16632E-15
 -1        29 3.11829E-03-1.57405E-03-2.97543E-15
 -1        30 3.45220E-03-1.95355E-03-4.00012E-15
 -1        31 3.69292E-03-2.20939E-03-5.22467E-15
 -1        32 3.91976E-03-2.23916E-03-6.75002E-15
 -1        33 4.16759E-03-2.10073E-03-8.21699E-15
 -1        34 4.54004E-03-1.88298E-03-1.00392E-14
 -1        35 5.03089E-03-1.69487E-03-1.22368E-14
 -1        36 5.53428E-03-1.61837E-03-1.45865E-14
 -1        37 6.00559E-03-1.64168E-03-1.70709E-14
 -1        38 6.43227E-03-1.73243E-03-1.96889E-14
 -1        39 6.80009E-03-1.85563E-03-2.22938E-14
 -1        40 7.15663E-03-2.00646E-03-2.51630E-14
 -1        41 7.49045E-03-2.16830E-03-2.81642E-14
 -1        42 7.80853E-03-2.33515E-03-3.12995E-14
 -1        43 8.11589E-03-2.50391E-03-3.45637E-14
 -1        44 8.41601E-03-2.67299E-03-3.79375E-14
 -1        45 8.71122E-03-2.84166E-03-4.14238E-14
 -1        46 8.98858E-03-3.00126E-03-4.48351E-14
 -1        47 9.27834E-03-3.16847E-03-4.85243E-14
 -1        48 9.56655E-03-3.33491E-03-5.23211E-14
 -1        49 9.85374E-03-3.50064E-03-5.62115E-14
 -1        50 1.01402E-02-3.66575E-03-6.01959E-14
 -1        51 1.04263E-02-3.83032E-03-6.42664E-14
 -1        52 1.07121E-02-3.99444E-03-6.84260E-14
 -1        53 1.09834E-02-4.15001E-03-7.24622E-14
 -1        54 1.12689E-02-4.31347E-03-7.68101E-14
 -1        55 1.15544E-02-4.47668E-03-8.12347E-14
 -1        56 1.18399E-02-4.63970E-03-8.57297E-14
 -1        57 1.21253E-02-4.80256E-03-9.02990E-14
 -1        58 1.24108E-02-4.96530E-03-9.49630E-14
 -1        59 1.26964E-02-5.12794E-03-9.97033E-14
 -1        60 1.29676E-02-5.28240E-03-1.04273E-13
 -1        61 1.32532E-02-5.44492E-03-1.09153E-13
 -1        62 1.35388E-02-5.60742E-03-1.14109E-13
 -1        63 1.38244E-02-5.76988E-03-1.19145E-13
 -1        64 1.41101E-02-5.93233E-03-1.24247E-13
 -1        65 1.43957E-02-6.09476E-03-1.29410E-13
 -1        66 1.46814E-02-6.25719E-03-1.34625E-13
 -1        67 1.49528E-02-6.41149E-03-1.39616E-13
 -1        68 1.52385E-02-6.57392E-03-1.44917E-13
 -1        69 1.55242E-02-6.73634E-03-1.50254E-13
 -1        70 1.58099E-02-6.89876E-03-1.55606E-13
 -1        71 1.60956E-02-7.06119E-03-1.60986E-13
 -1        72 1.63813E-02-7.22362E-03-1.66430E-13
 -1        73 4.31061E-04 2.77534E-04 7.32548E-17
 -1        74 7.28040E-04 4.32564E-04-2.67967E-17
 -1        75 1.00076E-03 5.40310E-04-2.97061E-16
 -1        76 1.26002E-03 6.17853E-04-7.41100E-16
 -1        77 1.50847E-03 6.70438E-04-1.36143E-15
 -1        78 1.74678E-03 6.98442E-04-2.16027E-15
 -1        79 1.97610E-03 6.99637E-04-3.13750E-15
 -1        80 2.19899E-03 6.71078E-04-4.29166E-15
 -1        81 2.41958E-03 6.10820E-04-5.62327E-15
 -1        82 2.64285E-03 5.19183E-04-7.13098E-15
 -1        83 2.87358E-03 3.99203E-04-8.81329E-15
 -1        84 3.11521E-03 2.56191E-04-1.06683E-14
 -1        85 3.36929E-03 9.66370E-05-1.26879E-14
 -1        86 3.63543E-03-7.30314E-05-1.48722E-14
 -1        87 3.91183E-03-2.47416E-04-1.72156E-14
 -1        88 4.19599E-03-4.22625E-04-1.97118E-14
 -1        89 4.48530E-03-5.96293E-04-2.23553E-14
 -1        90 4.77746E-03-7.67315E-04-2.51443E-14
 -1        91 5.07075E-03-9.35463E-04-2.80766E-14
 -1        92 5.36398E-03-1.10103E-03-3.11431E-14
 -1        93 5.65645E-03-1.26453E-03-3.43404E-14
 -1        94 5.94782E-03-1.42657E-03-3.76595E-14
 -1        95 6.23802E-03-1.58765E-03-4.10961E-14
 -1        96 6.52711E-03-1.74822E-03-4.46401E-14
 -1        97 6.81525E-03-1.90858E-03-4.82828E-14
 -1        98 7.10260E-03-2.06895E-03-5.20414E-14
 -1        99 7.38935E-03-2.22947E-03-5.59254E-14
 -1       100 7.67565E-03-2.39022E-03-5.99269E-14
 -1       101 7.96164E-03-2.55121E-03-6.40469E-14
 -1       102 8.24740E-03-2.71245E-03-6.82797E-14
 -1       103 8.53304E-03-2.87392E-03-7.26127E-14
 -1       104 8.81859E-03-3.03560E-03-7.70460E-14
 -1       105 9.10411E-03-3.19745E-03-8.15564E-14
 -1       106 9.38961E-03-3.35944E-03-8.61451E-14
 -1       107 9.67513E-03-3.52155E-03-9.08207E-14
 -1       108 9.96066E-03-3.68375E-03-9.56015E-14
 -1       109 1.02462E-02-3.84602E-03-1.00477E-13
 -1       110 1.05318E-02-4.00834E-03-1.05417E-13
 -1       111 1.08174E-02-4.17070E-03-1.10425E-13
 -1       112 1.11030E-02-4.33309E-03-1.15512E-13
 -1       113 1.13887E-02-4.49549E-03-1.20673E-13
 -1       114 1.16743E-02-4.65791E-03-1.25904E-13
 -1       115 1.19600E-02-4.82034E-03-1.31202E-13
 -1       116 1.22457E-02-4.98277E-03-1.36543E-13
 -1       117 1.25314E-02-5.14520E-03-1.41877E-13
 -1       118 1.28171E-02-5.30763E-03-1.47216E-13
 -1       119 1.31028E-02-5.47006E-03-1.52586E-13
 -1       120 1.33885E-02-5.63249E-03-1.57975E-13
 -1       121 1.36742E-02-5.79491E-03-1.63380E-13
 -1       122 1.41054E-02-6.03350E-03-1.68823E-13
 -1       123 1.42651E-02-6.11778E-03-1.69135E-13
 -1       124 1.44248E-02-6.20207E-03-1.69414E-13
 -1       125 1.45845E-02-6.28636E-03-1.69682E-13
 -1       126 1.47442E-02-6.37066E-03-1.69947E-13
 -1       127 1.49012E-02-6.45353E-03-1.70227E-13
 -1       128 1.50609E-02-6.53783E-03-1.70493E-13
 -1       129 1.52206E-02-6.62214E-03-1.70731E-13
 -1       130 1.53803E-02-6.70644E-03-1.70938E-13
 -1       131 1.55401E-02-6.79075E-03-1.71087E-13
 -1       132 1.56998E-02-6.87505E-03-1.71207E-13
 -1       133 1.58568E-02-6.95792E-03-1.71332E-13
 -1       134 1.60166E-02-7.04222E-03-1.71431E-13
 -1       135 1.61763E-02-7.12651E-03-1.71505E-13
 -1       136 1.63360E-02-7.21079E-03-1.71556E-13
 -1       137 1.64958E-02-7.29508E-03-1.71600E-13
 -1       138 5.57931E-03-7.80563E-04-1.01801E-14
 -1       139 5.35976E-03-6.01065E-04-9.90609E-15
 -1       140 5.04712E-03-4.27204E-04-9.44760E-15
 -1       141 4.65720E-03-2.68827E-04-8.83124E-15
 -1       142 4.24816E-03-1.44893E-04-8.16738E-15
 -1       143 3.76402E-03-3.74819E-05-7.37797E-15
 -1       144 3.29949E-03 2.99094E-05-6.63446E-15
 -1       145 2.80620E-03 6.64325E-05-5.85977E-15
 -1       146 2.29835E-03 6.31942E-05-5.08179E-15
 -1       147 1.88177E-03 2.46947E-05-4.46617E-15
 -1       148 1.52022E-03-4.57839E-05-3.94307E-15
 -1       149 1.23051E-03-1.45105E-04-3.52908E-15
 -1       150 1.02658E-03-2.69018E-04-3.23431E-15
 -1       151 9.17597E-04-4.14958E-04-3.06415E-15
 -1       152 9.04245E-04-5.81059E-04-3.01259E-15
 -1       153 9.93306E-04-7.76225E-04-3.07904E-15
 -1       154 1.18314E-03-9.89032E-04-3.26250E-15
 -1       155 1.45788E-03-1.20778E-03-3.54634E-15
 -1       156 2.31487E-03-1.66824E-03-4.49662E-15
 -1       157 2.83543E-03-1.84557E-03-5.12490E-15
 -1       158 3.34901E-03-1.94828E-03-5.78217E-15
 -1       159 3.91370E-03-1.97599E-03-6.56681E-15
 -1       160 4.41631E-03-1.92200E-03-7.33240E-15
 -1       161 4.84938E-03-1.81203E-03-8.06476E-15
 -1       162 5.20247E-03-1.66839E-03-8.74040E-15
 -1       163 5.47798E-03-1.50030E-03-9.35090E-15
 -1       164 5.65777E-03-1.31870E-03-9.83873E-15
 -1       165 5.72804E-03-1.14867E-03-1.01296E-14
 -1       166 2.80793E-04-8.28128E-05-2.92870E-17
 -1       167 2.35357E-04-4.83022E-05-5.34783E-17
 -1       168 2.00923E-04-3.77117E-05-6.72781E-17
 -1       169 1.78580E-04-4.16144E-05-7.49590E-17
 -1       170 1.70275E-04-5.07971E-05-7.86555E-17
 -1       171 1.74316E-04-5.72638E-05-8.00311E-17
 -1       172 1.86338E-04-5.53361E-05-7.99497E-17
 -1       173 2.00823E-04-4.36176E-05-7.89333E-17
 -1       174 2.13531E-04-2.40114E-05-7.74324E-17
 -1       175 2.22445E-04 2.02901E-07-7.55655E-17
 -1       176 2.27430E-04 2.56460E-05-7.25568E-17
 -1       177 2.29772E-04 5.14969E-05-6.75356E-17
 -1       178 2.31260E-04 7.70941E-05-5.88823E-17
 -1       179 2.34882E-04 1.04069E-04-4.34460E-17
 -1       180 2.47453E-04 1.38018E-04-1.59242E-17
 -1       181 3.07844E-04 1.98535E-04 1.37592E-17
 -1       182 5.57249E-04-2.07148E-04-7.23163E-17
 -1       183 9.45405E-04-3.27546E-04-2.98969E-16
 -1       184 1.34001E-03-4.58859E-04-6.78243E-16
 -1       185 1.75322E-03-6.39686E-04-1.21418E-15
 -1       186 2.18899E-03-9.11497E-04-1.91433E-15
 -1       187 2.57251E-03-1.23400E-03-2.64897E-15
 -1       188 2.97706E-03-1.64110E-03-3.58305E-15
 -1       189 3.36253E-03-2.00857E-03-4.70270E-15
 -1       190 3.74841E-03-2.18335E-03-6.10554E-15
 -1       191 4.07756E-03-2.11241E-03-7.46538E-15
 -1       192 4.46921E-03-1.89050E-03-9.17701E-15
 -1       193 4.92081E-03-1.64915E-03-1.12747E-14
 -1       194 5.36474E-03-1.51832E-03-1.35422E-14
 -1       195 5.78471E-03-1.50517E-03-1.59527E-14
 -1       196 6.17668E-03-1.57645E-03-1.84958E-14
 -1       197 6.52508E-03-1.69145E-03-2.10302E-14
 -1       198 6.87092E-03-1.83958E-03-2.38224E-14
 -1       199 7.20002E-03-2.00160E-03-2.67450E-14
 -1       200 7.51661E-03-2.16980E-03-2.98026E-14
 -1       201 7.82410E-03-2.34018E-03-3.29866E-14
 -1       202 8.12504E-03-2.51083E-03-3.62922E-14
 -1       203 8.42131E-03-2.68088E-03-3.97088E-14
 -1       204 8.69971E-03-2.84156E-03-4.30569E-14
 -1       205 8.99046E-03-3.00971E-03-4.66859E-14
 -1       206 9.27954E-03-3.17690E-03-5.04205E-14
 -1       207 9.56746E-03-3.34323E-03-5.42551E-14
 -1       208 9.85456E-03-3.50881E-03-5.81849E-14
 -1       209 1.01411E-02-3.67375E-03-6.22080E-14
 -1       210 1.04273E-02-3.83816E-03-6.63209E-14
 -1       211 1.06989E-02-3.99394E-03-7.03102E-14
 -1       212 1.09847E-02-4.15757E-03-7.46029E-14
 -1       213 1.12704E-02-4.32092E-03-7.89867E-14
 -1       214 1.15560E-02-4.48403E-03-8.34483E-14
 -1       215 1.18416E-02-4.64696E-03-8.79866E-14
 -1       216 1.21271E-02-4.80976E-03-9.25977E-14
 -1       217 1.24127E-02-4.97244E-03-9.72960E-14
 -1       218 1.26840E-02-5.12692E-03-1.01831E-13
 -1       219 1.29696E-02-5.28947E-03-1.06680E-13
 -1       220 1.32553E-02-5.45197E-03-1.11602E-13
 -1       221 1.35409E-02-5.61444E-03-1.16605E-13
 -1       222 1.38266E-02-5.77689E-03-1.21677E-13
 -1       223 1.41122E-02-5.93933E-03-1.26808E-13
 -1       224 1.43979E-02-6.10176E-03-1.31995E-13
 -1       225 1.46693E-02-6.25606E-03-1.36970E-13
 -1       226 1.49550E-02-6.41848E-03-1.42243E-13
 -1       227 1.52407E-02-6.58090E-03-1.47556E-13
 -1       228 1.55264E-02-6.74332E-03-1.52899E-13
 -1       229 1.58121E-02-6.90575E-03-1.58275E-13
 -1       230 1.60978E-02-7.06818E-03-1.63692E-13
 -1       231 6.23299E-04 3.57470E-04-1.10328E-16
 -1       232 9.16876E-04 4.71662E-04-3.93921E-16
 -1       233 1.19467E-03 5.54205E-04-8.44831E-16
 -1       234 1.46094E-03 6.11307E-04-1.46765E-15
 -1       235 1.71774E-03 6.43742E-04-2.26558E-15
 -1       236 1.96678E-03 6.49248E-04-3.23990E-15
 -1       237 2.21033E-03 6.24571E-04-4.39133E-15
 -1       238 2.45153E-03 5.67356E-04-5.71900E-15
 -1       239 2.69401E-03 4.77604E-04-7.22183E-15
 -1       240 2.94123E-03 3.58269E-04-8.89938E-15
 -1       241 3.19576E-03 2.14829E-04-1.07482E-14
 -1       242 3.45886E-03 5.41183E-05-1.27619E-14
 -1       243 3.73046E-03-1.17042E-04-1.49389E-14
 -1       244 4.00944E-03-2.92921E-04-1.72740E-14
 -1       245 4.29414E-03-4.69407E-04-1.97622E-14
 -1       246 4.58275E-03-6.44034E-04-2.23972E-14
 -1       247 4.87364E-03-8.15684E-04-2.51783E-14
 -1       248 5.16552E-03-9.84174E-04-2.80997E-14
 -1       249 5.45746E-03-1.14986E-03-3.11566E-14
 -1       250 5.74890E-03-1.31334E-03-3.43443E-14
 -1       251 6.03953E-03-1.47526E-03-3.76538E-14
 -1       252 6.32926E-03-1.63618E-03-4.10819E-14
 -1       253 6.61810E-03-1.79657E-03-4.46171E-14
 -1       254 6.90615E-03-1.95676E-03-4.82596E-14
 -1       255 7.19353E-03-2.11698E-03-5.20166E-14
 -1       256 7.48037E-03-2.27738E-03-5.58910E-14
 -1       257 7.76681E-03-2.43802E-03-5.98812E-14
 -1       258 8.05294E-03-2.59894E-03-6.39860E-14
 -1       259 8.33885E-03-2.76012E-03-6.82041E-14
 -1       260 8.62462E-03-2.92154E-03-7.25233E-14
 -1       261 8.91029E-03-3.08319E-03-7.69374E-14
 -1       262 9.19591E-03-3.24502E-03-8.14334E-14
 -1       263 9.48150E-03-3.40700E-03-8.60132E-14
 -1       264 9.76709E-03-3.56910E-03-9.06860E-14
 -1       265 1.00527E-02-3.73129E-03-9.54509E-14
 -1       266 1.03383E-02-3.89356E-03-1.00301E-13
 -1       267 1.06239E-02-4.05588E-03-1.05231E-13
 -1       268 1.09095E-02-4.21824E-03-1.10236E-13
 -1       269 1.11952E-02-4.38063E-03-1.15313E-13
 -1       270 1.14808E-02-4.54304E-03-1.20465E-13
 -1       271 1.17665E-02-4.70546E-03-1.25687E-13
 -1       272 1.20522E-02-4.86789E-03-1.30963E-13
 -1       273 1.23378E-02-5.03032E-03-1.36277E-13
 -1       274 1.26235E-02-5.19276E-03-1.41608E-13
 -1       275 1.29092E-02-5.35519E-03-1.46951E-13
 -1       276 1.31949E-02-5.51762E-03-1.52314E-13
 -1       277 1.34807E-02-5.68005E-03-1.57703E-13
 -1       278 1.37664E-02-5.84247E-03-1.63106E-13
 -1       279 1.39378E-02-5.93499E-03-1.64288E-13
 -1       280 1.40975E-02-6.01927E-03-1.64583E-13
 -1       281 1.42572E-02-6.10356E-03-1.64869E-13
 -1       282 1.44169E-02-6.18786E-03-1.65148E-13
 -1       283 1.45739E-02-6.27072E-03-1.65422E-13
 -1       284 1.47336E-02-6.35502E-03-1.65687E-13
 -1       285 1.48933E-02-6.43932E-03-1.65930E-13
 -1       286 1.50531E-02-6.52363E-03-1.66147E-13
 -1       287 1.52128E-02-6.60793E-03-1.66327E-13
 -1       288 1.53725E-02-6.69223E-03-1.66468E-13
 -1       289 1.55295E-02-6.77510E-03-1.66582E-13
 -1       290 1.56893E-02-6.85940E-03-1.66677E-13
 -1       291 1.58490E-02-6.94369E-03-1.66752E-13
 -1       292 1.60087E-02-7.02798E-03-1.66813E-13
 -1       293 5.67053E-03-9.63926E-04-1.11383E-14
 -1       294 5.44627E-03-8.44767E-04-1.09109E-14
 -1       295 5.10815E-03-6.88731E-04-1.04420E-14
 -1       296 4.67511E-03-5.07446E-04-9.84957E-15
 -1       297 4.26076E-03-2.87936E-04-8.96848E-15
 -1       298 3.81576E-03-9.59375E-05-8.12395E-15
 -1       299 3.41950E-03 5.37038E-05-7.16181E-15
 -1       300 3.02588E-03 1.33820E-04-6.27147E-15
 -1       301 2.62266E-03 1.33489E-04-5.35831E-15
 -1       302 2.21669E-03 4.76370E-05-4.58523E-15
 -1       303 1.83762E-03-7.22501E-05-3.95858E-15
 -1       304 1.48245E-03-2.06894E-04-3.43712E-15
 -1       305 1.17714E-03-3.27349E-04-3.04369E-15
 -1       306 9.61710E-04-4.13866E-04-2.84133E-15
 -1       307 8.72311E-04-4.94399E-04-2.72499E-15
 -1       308 9.21945E-04-5.80537E-04-2.70674E-15
 -1       309 1.11857E-03-7.15650E-04-2.84908E-15
 -1       310 1.42776E-03-9.07858E-04-3.10432E-15
 -1       311 1.88242E-03-1.13410E-03-3.39798E-15
 -1       312 2.32216E-03-1.46979E-03-3.98191E-15
 -1       313 2.80060E-03-1.75638E-03-4.56968E-15
 -1       314 3.22147E-03-1.97302E-03-5.32219E-15
 -1       315 3.64327E-03-2.07004E-03-6.15671E-15
 -1       316 4.06587E-03-2.01267E-03-7.08464E-15
 -1       317 4.47498E-03-1.85586E-03-8.00168E-15
 -1       318 4.86818E-03-1.65611E-03-8.87756E-15
 -1       319 5.22461E-03-1.45315E-03-9.72619E-15
 -1       320 5.52387E-03-1.28417E-03-1.04235E-14
 -1       321 5.70644E-03-1.16289E-03-1.08563E-14
 -1       322 5.76000E-03-1.06411E-03-1.11767E-14
 -1       323 1.61685E-02-7.11227E-03-1.66855E-13
 -1       324 4.37730E-04-1.05958E-04-2.25057E-16
 -1       325 5.26892E-04-1.45377E-04-1.85012E-16
 -1       326 3.38561E-04-1.04068E-04-2.64352E-16
 -1       327 3.37642E-04-1.13127E-04-2.72467E-16
 -1       328 3.61091E-04-1.11075E-04-2.76214E-16
 -1       329 3.95240E-04-9.23218E-05-2.76783E-16
 -1       330 4.27785E-04-5.83543E-05-2.75140E-16
 -1       331 4.51865E-04-1.45156E-05-2.71826E-16
 -1       332 4.65936E-04 3.28535E-05-2.65711E-16
 -1       333 4.72536E-04 8.18294E-05-2.55401E-16
 -1       334 4.75272E-04 1.30499E-04-2.38345E-16
 -1       335 4.79529E-04 1.80406E-04-2.10322E-16
 -1       336 4.93955E-04 2.36533E-04-1.64887E-16
 -1       337 5.49319E-04 2.93305E-04-1.46679E-16
 -1       338 8.49296E-04 4.09823E-04-4.35917E-16
 -1       339 9.77847E-04-3.00972E-04-5.63467E-16
 -1       340 1.32337E-03-4.39470E-04-1.03855E-15
 -1       341 1.68943E-03-6.39083E-04-1.66540E-15
 -1       342 2.03279E-03-8.90432E-04-2.32350E-15
 -1       343 2.96289E-03-1.74487E-03-4.22182E-15
 -1       344 3.45872E-03-2.07684E-03-5.47543E-15
 -1       345 4.33975E-03-1.92141E-03-8.39063E-15
 -1       346 4.83074E-03-1.62242E-03-1.03150E-14
 -1       347 5.26669E-03-1.44317E-03-1.25008E-14
 -1       348 5.65217E-03-1.39610E-03-1.48388E-14
 -1       349 6.00338E-03-1.44535E-03-1.73103E-14
 -1       350 6.31858E-03-1.54759E-03-1.97753E-14
 -1       351 6.63868E-03-1.68834E-03-2.24933E-14
 -1       352 6.95063E-03-1.84695E-03-2.53405E-14
 -1       353 7.25650E-03-2.01402E-03-2.83179E-14
 -1       354 7.55756E-03-2.18448E-03-3.14267E-14
 -1       355 7.85484E-03-2.35576E-03-3.46604E-14
 -1       356 8.14913E-03-2.52662E-03-3.80095E-14
 -1       357 8.42657E-03-2.68809E-03-4.12953E-14
 -1       358 8.71690E-03-2.85700E-03-4.48585E-14
 -1       359 9.00589E-03-3.02486E-03-4.85315E-14
 -1       360 9.29389E-03-3.19175E-03-5.23106E-14
 -1       361 9.58116E-03-3.35779E-03-5.61861E-14
 -1       362 9.86791E-03-3.52311E-03-6.01601E-14
 -1       363 1.01543E-02-3.68782E-03-6.42241E-14
 -1       364 1.04261E-02-3.84383E-03-6.81679E-14
 -1       365 1.07120E-02-4.00766E-03-7.24117E-14
 -1       366 1.09978E-02-4.17115E-03-7.67455E-14
 -1       367 1.12836E-02-4.33438E-03-8.11668E-14
 -1       368 1.15692E-02-4.49739E-03-8.56688E-14
 -1       369 1.18549E-02-4.66025E-03-9.02419E-14
 -1       370 1.21405E-02-4.82299E-03-9.48975E-14
 -1       371 1.24119E-02-4.97749E-03-9.93958E-14
 -1       372 1.26975E-02-5.14007E-03-1.04211E-13
 -1       373 1.29832E-02-5.30259E-03-1.09101E-13
 -1       374 1.32689E-02-5.46507E-03-1.14064E-13
 -1       375 1.35545E-02-5.62753E-03-1.19104E-13
 -1       376 1.38402E-02-5.78997E-03-1.24205E-13
 -1       377 1.41259E-02-5.95240E-03-1.29370E-13
 -1       378 1.43973E-02-6.10670E-03-1.34324E-13
 -1       379 1.46830E-02-6.26912E-03-1.39579E-13
 -1       380 1.49687E-02-6.43154E-03-1.44868E-13
 -1       381 1.52544E-02-6.59396E-03-1.50196E-13
 -1       382 1.55401E-02-6.75638E-03-1.55556E-13
 -1       383 1.58258E-02-6.91881E-03-1.60954E-13
 -1       384 1.13853E-03 4.96209E-04-8.86932E-16
 -1       385 5.24404E-03-8.92306E-04-1.17759E-14
 -1       386 1.41788E-03 5.57532E-04-1.50607E-15
 -1       387 1.68860E-03 5.94517E-04-2.29748E-15
 -1       388 1.95199E-03 6.04826E-04-3.26368E-15
 -1       389 2.20992E-03 5.84848E-04-4.40613E-15
 -1       390 2.46500E-03 5.31716E-04-5.72433E-15
 -1       391 2.72038E-03 4.44981E-04-7.21739E-15
 -1       392 2.97906E-03 3.27391E-04-8.88481E-15
 -1       393 3.24330E-03 1.84525E-04-1.07232E-14
 -1       394 3.51414E-03 2.35324E-05-1.27264E-14
 -1       395 3.79146E-03-1.48384E-04-1.48918E-14
 -1       396 4.07431E-03-3.25166E-04-1.72155E-14
 -1       397 4.36129E-03-5.02488E-04-1.96935E-14
 -1       398 4.65096E-03-6.77775E-04-2.23169E-14
 -1       399 4.94208E-03-8.49880E-04-2.50859E-14
 -1       400 5.23369E-03-1.01864E-03-2.79945E-14
 -1       401 5.52513E-03-1.18444E-03-3.10394E-14
 -1       402 5.81601E-03-1.34793E-03-3.42149E-14
 -1       403 6.10614E-03-1.50978E-03-3.75134E-14
 -1       404 6.39546E-03-1.67059E-03-4.09292E-14
 -1       405 6.68401E-03-1.83086E-03-4.44563E-14
 -1       406 6.97187E-03-1.99093E-03-4.80923E-14
 -1       407 7.25916E-03-2.15104E-03-5.18409E-14
 -1       408 7.54597E-03-2.31134E-03-5.57030E-14
 -1       409 7.83242E-03-2.47189E-03-5.96819E-14
 -1       410 8.11859E-03-2.63274E-03-6.37711E-14
 -1       411 8.40457E-03-2.79386E-03-6.79737E-14
 -1       412 8.69040E-03-2.95525E-03-7.22776E-14
 -1       413 8.97614E-03-3.11686E-03-7.66759E-14
 -1       414 9.26183E-03-3.27867E-03-8.11593E-14
 -1       415 9.54747E-03-3.44063E-03-8.57264E-14
 -1       416 9.83310E-03-3.60272E-03-9.03875E-14
 -1       417 1.01187E-02-3.76491E-03-9.51410E-14
 -1       418 1.04044E-02-3.92717E-03-9.99761E-14
 -1       419 1.06900E-02-4.08949E-03-1.04894E-13
 -1       420 1.09756E-02-4.25185E-03-1.09885E-13
 -1       421 1.12613E-02-4.41423E-03-1.14953E-13
 -1       422 1.15470E-02-4.57664E-03-1.20094E-13
 -1       423 1.18326E-02-4.73907E-03-1.25302E-13
 -1       424 1.21183E-02-4.90149E-03-1.30566E-13
 -1       425 1.24040E-02-5.06393E-03-1.35864E-13
 -1       426 1.26897E-02-5.22636E-03-1.41187E-13
 -1       427 1.29754E-02-5.38880E-03-1.46530E-13
 -1       428 1.32611E-02-5.55123E-03-1.51893E-13
 -1       429 1.35468E-02-5.71366E-03-1.57276E-13
 -1       430 1.37423E-02-5.82432E-03-1.60780E-13
 -1       431 1.40896E-02-6.00505E-03-1.60340E-13
 -1       432 1.39299E-02-5.92076E-03-1.60049E-13
 -1       433 1.38361E-02-5.87254E-03-1.60415E-13
 -1       434 1.42466E-02-6.08792E-03-1.60617E-13
 -1       435 1.44063E-02-6.17221E-03-1.60883E-13
 -1       436 1.45660E-02-6.25651E-03-1.61130E-13
 -1       437 1.47258E-02-6.34081E-03-1.61356E-13
 -1       438 1.48855E-02-6.42512E-03-1.61556E-13
 -1       439 1.50452E-02-6.50942E-03-1.61721E-13
 -1       440 1.52022E-02-6.59229E-03-1.61844E-13
 -1       441 1.53620E-02-6.67658E-03-1.61940E-13
 -1       442 1.55217E-02-6.76088E-03-1.62015E-13
 -1       443 1.56814E-02-6.84517E-03-1.62078E-13
 -1       444 4.84976E-03-7.13979E-04-1.09849E-14
 -1       445 5.74738E-03-1.06043E-03-1.22715E-14
 -1       446 3.72446E-04-9.66040E-05-2.49675E-16
 -1       447 4.34037E-03-4.55444E-04-9.96368E-15
 -1       448 3.96316E-03-2.42494E-04-9.06089E-15
 -1       449 3.50481E-03 1.26367E-06-7.83127E-15
 -1       450 3.17836E-03 1.27910E-04-6.83687E-15
 -1       451 2.82768E-03 1.78319E-04-5.82198E-15
 -1       452 2.42555E-03 1.08684E-04-4.77305E-15
 -1       453 2.06996E-03-1.72776E-05-4.03110E-15
 -1       454 1.70653E-03-1.64819E-04-3.42473E-15
 -1       455 1.35034E-03-3.00646E-04-2.93436E-15
 -1       456 1.04271E-03-3.98653E-04-2.61783E-15
 -1       457 8.85921E-04-4.45904E-04-2.42427E-15
 -1       458 8.61704E-04-4.74085E-04-2.31203E-15
 -1       459 1.01820E-03-5.57032E-04-2.45596E-15
 -1       460 1.32679E-03-6.73261E-04-2.57653E-15
 -1       461 1.69481E-03-8.55859E-04-2.81170E-15
 -1       462 2.28401E-03-1.25162E-03-3.40357E-15
 -1       463 3.13464E-03-1.90605E-03-4.80601E-15
 -1       464 3.87418E-03-2.10706E-03-6.73533E-15
 -1       465 4.22983E-03-1.96230E-03-7.80325E-15
 -1       466 4.61684E-03-1.73830E-03-8.85227E-15
 -1       467 4.99067E-03-1.51351E-03-9.86070E-15
 -1       468 5.36032E-03-1.30954E-03-1.09294E-14
 -1       469 5.63492E-03-1.18133E-03-1.15399E-14
 -1       470 5.76309E-03-1.11115E-03-1.19653E-14
 -1       471 5.56981E-03-9.88242E-04-1.19821E-14
 -1       472 2.44935E-03-1.25193E-03-3.09355E-15
 -1       473 2.61577E-03 1.72161E-04-5.20064E-15
 -1       474 5.16088E-04-1.73727E-04-5.74559E-16
 -1       475 4.88464E-04-1.74934E-04-5.62284E-16
 -1       476 6.36685E-04-1.04601E-04-5.88820E-16
 -1       477 6.83833E-04-4.29130E-05-5.86445E-16
 -1       478 7.12585E-04 2.42778E-05-5.79669E-16
 -1       479 7.26450E-04 9.35837E-05-5.66126E-16
 -1       480 7.30824E-04 1.61572E-04-5.43067E-16
 -1       481 7.33138E-04 2.28960E-04-5.06034E-16
 -1       482 7.42352E-04 2.98803E-04-4.48927E-16
 -1       483 7.91784E-04 3.52901E-04-4.49168E-16
 -1       484 9.57221E-04-2.96114E-04-8.59474E-16
 -1       485 4.55532E-03-6.52770E-04-1.13553E-14
 -1       486 2.00805E-03-9.73552E-04-2.80369E-15
 -1       487 1.23711E-03-4.34875E-04-1.42064E-15
 -1       488 1.49123E-03-6.02628E-04-2.00949E-15
 -1       489 1.08767E-03 4.41068E-04-8.96733E-16
 -1       490 5.81832E-03-1.12631E-03-1.35412E-14
 -1       491 5.59516E-03-1.29504E-03-1.37386E-14
 -1       492 5.89468E-03-1.33065E-03-1.61418E-14
 -1       493 6.16523E-03-1.42115E-03-1.85405E-14
 -1       494 6.44735E-03-1.55191E-03-2.11865E-14
 -1       495 6.73155E-03-1.70336E-03-2.39584E-14
 -1       496 7.01818E-03-1.86592E-03-2.68598E-14
 -1       497 7.30641E-03-2.03387E-03-2.98900E-14
 -1       498 7.59535E-03-2.20394E-03-3.30482E-14
 -1       499 7.88434E-03-2.37439E-03-3.63264E-14
 -1       500 8.15860E-03-2.53588E-03-3.95487E-14
 -1       501 8.44685E-03-2.70504E-03-4.30476E-14
 -1       502 8.73461E-03-2.87324E-03-4.66573E-14
 -1       503 9.02190E-03-3.04049E-03-5.03792E-14
 -1       504 9.30880E-03-3.20687E-03-5.42014E-14
 -1       505 9.59537E-03-3.37250E-03-5.81217E-14
 -1       506 9.88169E-03-3.53747E-03-6.21351E-14
 -1       507 1.01535E-02-3.69369E-03-6.60345E-14
 -1       508 1.04395E-02-3.85770E-03-7.02275E-14
 -1       509 1.07254E-02-4.02134E-03-7.45152E-14
 -1       510 1.10112E-02-4.18468E-03-7.88914E-14
 -1       511 1.12969E-02-4.34779E-03-8.33520E-14
 -1       512 1.15826E-02-4.51072E-03-8.78911E-14
 -1       513 1.18683E-02-4.67350E-03-9.25058E-14
 -1       514 1.21397E-02-4.82805E-03-9.69658E-14
 -1       515 1.24254E-02-4.99065E-03-1.01742E-13
 -1       516 1.27111E-02-5.15319E-03-1.06601E-13
 -1       517 1.29968E-02-5.31569E-03-1.11528E-13
 -1       518 1.32825E-02-5.47815E-03-1.16533E-13
 -1       519 1.35682E-02-5.64060E-03-1.21602E-13
 -1       520 1.38538E-02-5.80303E-03-1.26738E-13
 -1       521 1.41253E-02-5.95734E-03-1.31674E-13
 -1       522 1.44110E-02-6.11976E-03-1.36912E-13
 -1       523 1.46967E-02-6.28217E-03-1.42185E-13
 -1       524 1.49824E-02-6.44459E-03-1.47494E-13
 -1       525 1.52681E-02-6.60702E-03-1.52836E-13
 -1       526 1.54748E-02-6.72609E-03-1.57440E-13
 -1       527 1.55518E-03 5.08399E-04-2.02595E-15
 -1       528 1.32151E-03 4.82107E-04-1.40340E-15
 -1       529 2.11524E-03 5.33659E-04-3.99179E-15
 -1       530 2.38760E-03 4.99053E-04-5.23666E-15
 -1       531 2.65808E-03 4.28910E-04-6.65645E-15
 -1       532 2.92981E-03 3.24304E-04-8.25114E-15
 -1       533 3.20534E-03 1.90122E-04-1.00189E-14
 -1       534 3.48598E-03 3.38520E-05-1.19539E-14
 -1       535 3.77161E-03-1.36340E-04-1.40504E-14
 -1       536 4.06115E-03-3.13285E-04-1.63065E-14
 -1       537 4.35316E-03-4.91719E-04-1.87188E-14
 -1       538 4.64628E-03-6.68425E-04-2.12792E-14
 -1       539 4.93948E-03-8.41879E-04-2.39838E-14
 -1       540 5.23215E-03-1.01174E-03-2.68283E-14
 -1       541 5.52394E-03-1.17833E-03-2.98103E-14
 -1       542 5.81475E-03-1.34232E-03-3.29260E-14
 -1       543 6.10460E-03-1.50443E-03-3.61685E-14
 -1       544 6.39358E-03-1.66532E-03-3.95285E-14
 -1       545 6.68181E-03-1.82552E-03-4.30034E-14
 -1       546 6.96942E-03-1.98545E-03-4.65923E-14
 -1       547 7.25653E-03-2.14538E-03-5.02912E-14
 -1       548 7.54324E-03-2.30548E-03-5.41010E-14
 -1       549 7.82965E-03-2.46584E-03-5.80232E-14
 -1       550 8.11583E-03-2.62650E-03-6.20565E-14
 -1       551 8.40184E-03-2.78747E-03-6.61995E-14
 -1       552 8.68773E-03-2.94872E-03-7.04495E-14
 -1       553 8.97354E-03-3.11022E-03-7.47938E-14
 -1       554 9.25928E-03-3.27193E-03-7.92311E-14
 -1       555 9.54499E-03-3.43382E-03-8.37530E-14
 -1       556 9.83068E-03-3.59586E-03-8.83681E-14
 -1       557 1.01164E-02-3.75800E-03-9.30739E-14
 -1       558 1.04020E-02-3.92024E-03-9.78641E-14
 -1       559 1.06877E-02-4.08253E-03-1.02736E-13
 -1       560 1.09734E-02-4.24488E-03-1.07685E-13
 -1       561 1.12590E-02-4.40726E-03-1.12713E-13
 -1       562 1.15447E-02-4.56966E-03-1.17812E-13
 -1       563 1.18304E-02-4.73208E-03-1.22978E-13
 -1       564 1.21161E-02-4.89450E-03-1.28204E-13
 -1       565 1.24018E-02-5.05694E-03-1.33477E-13
 -1       566 1.26875E-02-5.21937E-03-1.38783E-13
 -1       567 1.29732E-02-5.38181E-03-1.44113E-13
 -1       568 1.32589E-02-5.54424E-03-1.49471E-13
 -1       569 1.35446E-02-5.70667E-03-1.54847E-13
 -1       570 1.40790E-02-5.98940E-03-1.56082E-13
 -1       571 1.42388E-02-6.07370E-03-1.56334E-13
 -1       572 1.37624E-02-5.82224E-03-1.55527E-13
 -1       573 1.39207E-02-5.90582E-03-1.55812E-13
 -1       574 1.43985E-02-6.15800E-03-1.56570E-13
 -1       575 1.45582E-02-6.24230E-03-1.56779E-13
 -1       576 1.47179E-02-6.32660E-03-1.56960E-13
 -1       577 1.48749E-02-6.40948E-03-1.57105E-13
 -1       578 1.50347E-02-6.49377E-03-1.57212E-13
 -1       579 1.51944E-02-6.57807E-03-1.57294E-13
 -1       580 1.53346E-02-6.65208E-03-1.57373E-13
 -1       581 2.98592E-03 1.75866E-04-6.46650E-15
 -1       582 5.00940E-03-8.71060E-04-1.24061E-14
 -1       583 6.87256E-04-1.92211E-04-4.90954E-16
 -1       584 5.46154E-03-1.02581E-03-1.30943E-14
 -1       585 1.13078E-03-5.12921E-04-2.12676E-15
 -1       586 1.83829E-03 5.35260E-04-2.92181E-15
 -1       587 5.23709E-03-1.37683E-03-1.14651E-14
 -1       588 5.74492E-04-1.50663E-04-5.83890E-16
 -1       589 3.24963E-03 9.20671E-05-7.42014E-15
 -1       590 4.08319E-03-3.90556E-04-1.02215E-14
 -1       591 3.66866E-03-1.31796E-04-8.87990E-15
 -1       592 2.23680E-03 6.26823E-05-4.17978E-15
 -1       593 1.87820E-03-8.40029E-05-3.43433E-15
 -1       594 1.51359E-03-2.31020E-04-2.85113E-15
 -1       595 1.14420E-03-3.48732E-04-2.36385E-15
 -1       596 9.26945E-04-4.01594E-04-2.15796E-15
 -1       597 8.25105E-04-4.09678E-04-1.96508E-15
 -1       598 9.03278E-04-4.38710E-04-1.99466E-15
 -1       599 1.49955E-03-6.55257E-04-2.28405E-15
 -1       600 5.56082E-03-1.22456E-03-1.23422E-14
 -1       601 5.74073E-03-1.14945E-03-1.27475E-14
 -1       602 5.68731E-03-1.08485E-03-1.33991E-14
 -1       603 5.12419E-04-1.67009E-04-5.41681E-16
 -1       604 2.78130E-03 2.02089E-04-5.79972E-15
 -1       605 5.81657E-04-1.69705E-04-5.22247E-16
 -1       606 2.40815E-03 1.44268E-04-4.56512E-15
 -1       607 9.66052E-04 4.00348E-06-1.00971E-15
 -1       608 9.14651E-04-8.45004E-05-1.01328E-15
 -1       609 9.97402E-04 1.75256E-04-9.72001E-16
 -1       610 9.96463E-04 2.55913E-04-9.30344E-16
 -1       611 9.97480E-04 3.35389E-04-8.66393E-16
 -1       612 1.04074E-03 3.87871E-04-8.86766E-16
 -1       613 9.18769E-04-3.18068E-04-1.17578E-15
 -1       614 2.58147E-03 4.06753E-04-6.08701E-15
 -1       615 5.82391E-03-1.15540E-03-1.48118E-14
 -1       616 4.78489E-03-8.14357E-04-1.31242E-14
 -1       617 6.05972E-03-1.31438E-03-1.73886E-14
 -1       618 6.29179E-03-1.43491E-03-1.99673E-14
 -1       619 6.53937E-03-1.57609E-03-2.26690E-14
 -1       620 6.79984E-03-1.73023E-03-2.54975E-14
 -1       621 7.06971E-03-1.89210E-03-2.84528E-14
 -1       622 7.34597E-03-2.05814E-03-3.15378E-14
 -1       623 7.62635E-03-2.22609E-03-3.47456E-14
 -1       624 7.89507E-03-2.38618E-03-3.79035E-14
 -1       625 8.17939E-03-2.55453E-03-4.13420E-14
 -1       626 8.46457E-03-2.72235E-03-4.48905E-14
 -1       627 8.75019E-03-2.88948E-03-4.85519E-14
 -1       628 9.03602E-03-3.05588E-03-5.23191E-14
 -1       629 9.32192E-03-3.22158E-03-5.61896E-14
 -1       630 9.60783E-03-3.38667E-03-6.01524E-14
 -1       631 9.87943E-03-3.54301E-03-6.40041E-14
 -1       632 1.01653E-02-3.70713E-03-6.81494E-14
 -1       633 1.04511E-02-3.87087E-03-7.23923E-14
 -1       634 1.07369E-02-4.03429E-03-7.67288E-14
 -1       635 1.10227E-02-4.19747E-03-8.11470E-14
 -1       636 1.13084E-02-4.36046E-03-8.56485E-14
 -1       637 1.15941E-02-4.52329E-03-9.02291E-14
 -1       638 1.18656E-02-4.67787E-03-9.46539E-14
 -1       639 1.21513E-02-4.84049E-03-9.93905E-14
 -1       640 1.24370E-02-5.00306E-03-1.04211E-13
 -1       641 1.27227E-02-5.16557E-03-1.09110E-13
 -1       642 1.30084E-02-5.32804E-03-1.14078E-13
 -1       643 1.32941E-02-5.49050E-03-1.19122E-13
 -1       644 1.35799E-02-5.65294E-03-1.24233E-13
 -1       645 1.38513E-02-5.80724E-03-1.29147E-13
 -1       646 1.41370E-02-5.96966E-03-1.34367E-13
 -1       647 1.44227E-02-6.13208E-03-1.39625E-13
 -1       648 1.47084E-02-6.29450E-03-1.44918E-13
 -1       649 1.49941E-02-6.45692E-03-1.50244E-13
 -1       650 1.51644E-02-6.55450E-03-1.53799E-13
 -1       651 2.86480E-03 3.17316E-04-7.60904E-15
 -1       652 2.29751E-03 4.57543E-04-4.74060E-15
 -1       653 3.15096E-03 1.92847E-04-9.30533E-15
 -1       654 3.44198E-03 4.13144E-05-1.11718E-14
 -1       655 3.73780E-03-1.27557E-04-1.32034E-14
 -1       656 4.03684E-03-3.04940E-04-1.53949E-14
 -1       657 4.33700E-03-4.84381E-04-1.77415E-14
 -1       658 4.63652E-03-6.62037E-04-2.02405E-14
 -1       659 4.93428E-03-8.36169E-04-2.28816E-14
 -1       660 5.22983E-03-1.00642E-03-2.56641E-14
 -1       661 5.52320E-03-1.17320E-03-2.85846E-14
 -1       662 5.81465E-03-1.33722E-03-3.16396E-14
 -1       663 6.10455E-03-1.49926E-03-3.48231E-14
 -1       664 6.39325E-03-1.66002E-03-3.81286E-14
 -1       665 6.68105E-03-1.82006E-03-4.15512E-14
 -1       666 6.96822E-03-1.97982E-03-4.50884E-14
 -1       667 7.25493E-03-2.13956E-03-4.87369E-14
 -1       668 7.54133E-03-2.29948E-03-5.24988E-14
 -1       669 7.82750E-03-2.45968E-03-5.63688E-14
 -1       670 8.11351E-03-2.62019E-03-6.03465E-14
 -1       671 8.39942E-03-2.78102E-03-6.44335E-14
 -1       672 8.68526E-03-2.94216E-03-6.86284E-14
 -1       673 8.97105E-03-3.10356E-03-7.29237E-14
 -1       674 9.25680E-03-3.26520E-03-7.73088E-14
 -1       675 9.54253E-03-3.42703E-03-8.17881E-14
 -1       676 9.82825E-03-3.58901E-03-8.63567E-14
 -1       677 1.01140E-02-3.75112E-03-9.10143E-14
 -1       678 1.03997E-02-3.91332E-03-9.57591E-14
 -1       679 1.06854E-02-4.07559E-03-1.00585E-13
 -1       680 1.09711E-02-4.23792E-03-1.05491E-13
 -1       681 1.12568E-02-4.40029E-03-1.10477E-13
 -1       682 1.15425E-02-4.56268E-03-1.15539E-13
 -1       683 1.18282E-02-4.72509E-03-1.20665E-13
 -1       684 1.21139E-02-4.88752E-03-1.25851E-13
 -1       685 1.23996E-02-5.04995E-03-1.31095E-13
 -1       686 1.26853E-02-5.21239E-03-1.36378E-13
 -1       687 1.29710E-02-5.37482E-03-1.41697E-13
 -1       688 1.32567E-02-5.53726E-03-1.47046E-13
 -1       689 1.35095E-02-5.67975E-03-1.51283E-13
 -1       690 1.42309E-02-6.05949E-03-1.52010E-13
 -1       691 1.39115E-02-5.89089E-03-1.51547E-13
 -1       692 1.43906E-02-6.14379E-03-1.52207E-13
 -1       693 1.40712E-02-5.97519E-03-1.51791E-13
 -1       694 1.45476E-02-6.22666E-03-1.52368E-13
 -1       695 1.47074E-02-6.31096E-03-1.52497E-13
 -1       696 1.48671E-02-6.39526E-03-1.52593E-13
 -1       697 5.84867E-03-1.17953E-03-1.44440E-14
 -1       698 7.47161E-04-2.38077E-04-8.17451E-16
 -1       699 5.29482E-03-1.02027E-03-1.40870E-14
 -1       700 5.74179E-03-1.21795E-03-1.40204E-14
 -1       701 5.62297E-03-1.11240E-03-1.45457E-14
 -1       702 9.74030E-04-4.02370E-04-1.69096E-15
 -1       703 3.82209E-03-2.61282E-04-1.00868E-14
 -1       704 2.00940E-03 2.00944E-05-3.49990E-15
 -1       705 3.41267E-03-9.69655E-06-8.44921E-15
 -1       706 1.62848E-03-1.29012E-04-2.73286E-15
 -1       707 1.25799E-03-2.59570E-04-2.17223E-15
 -1       708 9.56600E-04-3.44847E-04-1.86348E-15
 -1       709 8.16688E-04-3.59476E-04-1.68565E-15
 -1       710 3.08047E-03 1.46152E-04-7.07178E-15
 -1       711 9.90574E-04 9.15491E-05-9.96809E-16
 -1       712 6.51763E-04-2.48592E-04-9.74664E-16
 -1       713 4.36650E-03-5.92414E-04-1.18979E-14
 -1       714 7.95591E-04-3.60282E-04-1.59373E-15
 -1       715 8.31538E-04-1.64192E-04-1.00567E-15
 -1       716 2.00947E-03 4.71417E-04-3.56905E-15
 -1       717 1.14492E-03-4.51088E-04-1.74974E-15
 -1       718 5.92897E-03-1.20675E-03-1.57446E-14
 -1       719 1.39330E-03 4.16573E-04-1.68272E-15
 -1       720 1.36679E-02-5.76333E-03-1.51571E-13
 -1       721 2.57342E-03 2.03150E-04-5.11295E-15
 -1       722 1.50157E-02-6.47488E-03-1.53200E-13
 -1       723 7.26306E-04-3.15076E-04-1.33869E-15
 -1       724 1.71550E-03 4.54037E-04-2.57179E-15
 -1       725 2.16419E-03 1.09666E-04-3.83647E-15
 -1       726 1.37897E-02-5.82711E-03-1.51569E-13
 -1       727 7.33282E-04-2.22438E-04-9.93726E-16
 -1       728 2.88685E-03 1.98247E-04-6.36473E-15
 -1       729 1.26190E-03 3.53167E-04-1.41581E-15
 -1       730 1.27033E-03 2.67328E-04-1.48150E-15
 -1       731 3.08452E-03 1.95180E-04-8.58473E-15
 -1       732 2.78862E-03 3.08036E-04-6.96015E-15
 -1       733 6.35035E-03-1.46417E-03-2.13234E-14
 -1       734 6.58416E-03-1.60588E-03-2.40784E-14
 -1       735 6.83472E-03-1.75795E-03-2.69562E-14
 -1       736 7.09703E-03-1.91684E-03-2.99658E-14
 -1       737 7.36742E-03-2.07984E-03-3.31018E-14
 -1       738 7.62936E-03-2.23678E-03-3.61919E-14
 -1       739 7.90864E-03-2.40299E-03-3.95623E-14
 -1       740 8.19031E-03-2.56948E-03-4.30499E-14
 -1       741 8.47351E-03-2.73581E-03-4.66496E-14
 -1       742 8.75769E-03-2.90177E-03-5.03578E-14
 -1       743 9.04249E-03-3.06724E-03-5.41670E-14
 -1       744 9.32766E-03-3.23223E-03-5.80751E-14
 -1       745 9.59880E-03-3.38854E-03-6.18748E-14
 -1       746 9.88435E-03-3.55267E-03-6.59693E-14
 -1       747 1.01700E-02-3.71644E-03-7.01651E-14
 -1       748 1.04557E-02-3.87991E-03-7.44575E-14
 -1       749 1.07414E-02-4.04313E-03-7.88322E-14
 -1       750 1.10271E-02-4.20615E-03-8.32913E-14
 -1       751 1.13129E-02-4.36902E-03-8.78320E-14
 -1       752 1.15843E-02-4.52362E-03-9.22228E-14
 -1       753 1.18700E-02-4.68627E-03-9.69227E-14
 -1       754 1.21558E-02-4.84885E-03-1.01702E-13
 -1       755 1.24415E-02-5.01138E-03-1.06560E-13
 -1       756 1.27273E-02-5.17386E-03-1.11496E-13
 -1       757 1.30130E-02-5.33633E-03-1.16507E-13
 -1       758 1.32987E-02-5.49877E-03-1.21592E-13
 -1       759 1.35701E-02-5.65308E-03-1.26483E-13
 -1       760 1.38559E-02-5.81550E-03-1.31678E-13
 -1       761 1.41416E-02-5.97792E-03-1.36920E-13
 -1       762 1.44273E-02-6.14034E-03-1.42203E-13
 -1       763 1.47130E-02-6.30276E-03-1.47515E-13
 -1       764 8.56635E-04-2.83026E-04-1.40051E-15
 -1       765 2.49443E-03 3.78477E-04-5.51073E-15
 -1       766 3.69273E-03-1.20997E-04-1.23496E-14
 -1       767 4.00330E-03-3.00347E-04-1.44776E-14
 -1       768 4.31415E-03-4.81593E-04-1.67624E-14
 -1       769 4.62253E-03-6.60160E-04-1.91979E-14
 -1       770 4.92692E-03-8.34326E-04-2.17795E-14
 -1       771 5.22693E-03-1.00406E-03-2.45015E-14
 -1       772 5.52294E-03-1.17008E-03-2.73623E-14
 -1       773 5.81566E-03-1.33333E-03-3.03562E-14
 -1       774 6.10591E-03-1.49469E-03-3.34802E-14
 -1       775 6.39440E-03-1.65491E-03-3.67303E-14
 -1       776 6.68172E-03-1.81453E-03-4.00998E-14
 -1       777 6.96829E-03-1.97397E-03-4.35855E-14
 -1       778 7.25441E-03-2.13348E-03-4.71853E-14
 -1       779 7.54028E-03-2.29323E-03-5.08944E-14
 -1       780 7.82603E-03-2.45328E-03-5.47145E-14
 -1       781 8.11171E-03-2.61369E-03-5.86444E-14
 -1       782 8.39738E-03-2.77443E-03-6.26777E-14
 -1       783 8.68306E-03-2.93549E-03-6.68179E-14
 -1       784 8.96874E-03-3.09683E-03-7.10606E-14
 -1       785 9.25443E-03-3.25842E-03-7.53988E-14
 -1       786 9.54014E-03-3.42020E-03-7.98280E-14
 -1       787 9.82585E-03-3.58215E-03-8.43540E-14
 -1       788 1.01116E-02-3.74422E-03-8.89633E-14
 -1       789 1.03973E-02-3.90640E-03-9.36601E-14
 -1       790 1.06830E-02-4.06866E-03-9.84421E-14
 -1       791 1.09687E-02-4.23097E-03-1.03306E-13
 -1       792 1.12545E-02-4.39333E-03-1.08250E-13
 -1       793 1.15402E-02-4.55571E-03-1.13272E-13
 -1       794 1.18259E-02-4.71812E-03-1.18360E-13
 -1       795 1.21116E-02-4.88054E-03-1.23510E-13
 -1       796 1.23973E-02-5.04297E-03-1.28719E-13
 -1       797 1.26831E-02-5.20540E-03-1.33979E-13
 -1       798 1.29688E-02-5.36784E-03-1.39284E-13
 -1       799 1.32545E-02-5.53027E-03-1.44624E-13
 -1       800 1.34612E-02-5.64680E-03-1.48095E-13
 -1       801 1.43801E-02-6.12816E-03-1.47791E-13
 -1       802 1.40633E-02-5.96098E-03-1.47461E-13
 -1       803 5.14156E-03-9.89798E-04-1.51569E-14
 -1       804 3.56713E-03-1.12476E-04-9.65572E-15
 -1       805 3.38572E-03 4.80728E-05-1.03828E-14
 -1       806 5.80039E-03-1.18799E-03-1.60371E-14
 -1       807 6.14006E-03-1.33700E-03-1.86933E-14
 -1       808 1.45398E-02-6.21246E-03-1.47910E-13
 -1       809 5.55427E-03-1.13300E-03-1.58884E-14
 -1       810 1.42217E-02-6.04457E-03-1.47642E-13
 -1       811 3.19134E-03 9.31046E-05-7.94105E-15
 -1       812 1.33230E-03-1.52719E-04-2.01197E-15
 -1       813 1.22542E-03-2.42756E-05-1.55065E-15
 -1       814 4.60210E-03-7.32574E-04-1.36409E-14
 -1       815 4.09966E-03-4.42211E-04-1.18181E-14
 -1       816 7.72179E-04-3.07435E-04-1.26221E-15
 -1       817 1.73380E-03-6.38746E-06-2.74682E-15
 -1       818 2.19708E-03 4.05777E-04-4.23904E-15
 -1       819 1.27525E-03 1.77665E-04-1.52218E-15
 -1       820 5.96130E-03-1.24428E-03-1.70015E-14
 -1       821 2.32712E-03 1.88706E-04-4.32282E-15
 -1       822 1.00084E-03-2.19323E-04-1.45688E-15
 -1       823 1.37439E-02-5.79237E-03-1.47025E-13
 -1       824 3.00687E-03 1.69042E-04-7.18069E-15
 -1       825 2.68558E-03 2.26722E-04-5.63335E-15
 -1       826 1.39036E-02-5.87667E-03-1.47253E-13
 -1       827 1.87565E-03 7.98029E-05-3.03242E-15
 -1       828 7.01081E-04-2.46280E-04-9.20928E-16
 -1       829 1.89343E-03 3.96837E-04-3.14304E-15
 -1       830 1.36221E-02-5.72859E-03-1.47049E-13
 -1       831 1.26492E-03 8.05389E-05-1.54404E-15
 -1       832 1.54743E-03 3.60920E-04-2.12271E-15
 -1       833 3.63935E-03-1.14276E-04-1.14884E-14
 -1       834 3.33898E-03 2.25336E-05-9.07392E-15
 -1       835 1.42125E-02-6.02965E-03-1.43234E-13
 -1       836 6.59627E-03-1.63461E-03-2.54816E-14
 -1       837 6.84703E-03-1.78381E-03-2.84142E-14
 -1       838 7.10846E-03-1.93964E-03-3.14766E-14
 -1       839 7.36387E-03-2.09167E-03-3.44993E-14
 -1       840 7.63796E-03-2.25426E-03-3.78006E-14
 -1       841 7.91579E-03-2.41831E-03-4.12244E-14
 -1       842 8.19620E-03-2.58302E-03-4.47603E-14
 -1       843 8.47837E-03-2.74791E-03-4.84081E-14
 -1       844 8.76173E-03-2.91272E-03-5.21584E-14
 -1       845 9.04590E-03-3.07728E-03-5.60077E-14
 -1       846 9.31637E-03-3.23334E-03-5.97538E-14
 -1       847 9.60143E-03-3.39732E-03-6.37968E-14
 -1       848 9.88675E-03-3.56100E-03-6.79401E-14
 -1       849 1.01722E-02-3.72442E-03-7.21826E-14
 -1       850 1.04578E-02-3.88762E-03-7.65186E-14
 -1       851 1.07435E-02-4.05064E-03-8.09333E-14
 -1       852 1.10292E-02-4.21350E-03-8.54347E-14
 -1       853 1.13006E-02-4.36811E-03-8.97845E-14
 -1       854 1.15864E-02-4.53077E-03-9.44466E-14
 -1       855 1.18721E-02-4.69336E-03-9.91888E-14
 -1       856 1.21579E-02-4.85590E-03-1.04009E-13
 -1       857 1.24436E-02-5.01839E-03-1.08905E-13
 -1       858 1.27294E-02-5.18086E-03-1.13883E-13
 -1       859 1.30151E-02-5.34331E-03-1.18939E-13
 -1       860 1.32866E-02-5.49762E-03-1.23806E-13
 -1       861 1.35723E-02-5.66005E-03-1.28978E-13
 -1       862 1.38580E-02-5.82247E-03-1.34198E-13
 -1       863 1.41438E-02-5.98489E-03-1.39469E-13
 -1       864 5.48736E-03-1.13882E-03-1.73647E-14
 -1       865 4.60661E-03-6.64019E-04-1.81535E-14
 -1       866 4.28719E-03-4.83890E-04-1.57787E-14
 -1       867 3.96329E-03-2.98697E-04-1.35552E-14
 -1       868 4.91927E-03-8.37767E-04-2.06758E-14
 -1       869 5.22481E-03-1.00594E-03-2.33396E-14
 -1       870 5.52406E-03-1.17001E-03-2.61411E-14
 -1       871 5.81833E-03-1.33138E-03-2.90756E-14
 -1       872 6.10898E-03-1.49119E-03-3.21414E-14
 -1       873 6.39718E-03-1.65023E-03-3.53347E-14
 -1       874 6.68385E-03-1.80902E-03-3.86520E-14
 -1       875 6.96963E-03-1.96791E-03-4.20841E-14
 -1       876 7.25496E-03-2.12707E-03-4.56316E-14
 -1       877 7.54011E-03-2.28661E-03-4.92913E-14
 -1       878 7.82525E-03-2.44654E-03-5.30615E-14
 -1       879 8.11046E-03-2.60688E-03-5.69403E-14
 -1       880 8.39576E-03-2.76759E-03-6.09268E-14
 -1       881 8.68116E-03-2.92863E-03-6.50159E-14
 -1       882 8.96665E-03-3.08995E-03-6.92058E-14
 -1       883 9.25222E-03-3.25153E-03-7.34934E-14
 -1       884 9.53785E-03-3.41330E-03-7.78765E-14
 -1       885 9.82352E-03-3.57524E-03-8.23531E-14
 -1       886 1.01092E-02-3.73730E-03-8.69183E-14
 -1       887 1.03949E-02-3.89947E-03-9.15694E-14
 -1       888 1.06807E-02-4.06172E-03-9.63063E-14
 -1       889 1.09664E-02-4.22402E-03-1.01128E-13
 -1       890 1.12522E-02-4.38637E-03-1.06030E-13
 -1       891 1.15379E-02-4.54875E-03-1.11011E-13
 -1       892 1.18236E-02-4.71115E-03-1.16061E-13
 -1       893 1.21094E-02-4.87357E-03-1.21178E-13
 -1       894 1.23951E-02-5.03599E-03-1.26353E-13
 -1       895 1.26808E-02-5.19842E-03-1.31588E-13
 -1       896 1.29666E-02-5.36086E-03-1.36873E-13
 -1       897 1.32523E-02-5.52329E-03-1.42198E-13
 -1       898 3.00935E-03 1.99666E-04-7.85798E-15
 -1       899 4.96753E-03-9.16685E-04-1.59177E-14
 -1       900 6.14549E-03-1.36777E-03-1.99953E-14
 -1       901 1.73239E-03 3.06000E-04-2.63143E-15
 -1       902 4.38938E-03-6.05230E-04-1.38665E-14
 -1       903 6.36046E-03-1.49496E-03-2.26764E-14
 -1       904 1.35416E-02-5.68769E-03-1.47580E-13
 -1       905 5.80575E-03-1.23142E-03-1.76396E-14
 -1       906 2.70370E-03 2.96419E-04-6.30495E-15
 -1       907 3.32031E-03 5.74826E-05-9.58653E-15
 -1       908 3.84390E-03-2.75790E-04-1.14285E-14
 -1       909 1.50675E-03 2.43922E-04-2.03830E-15
 -1       910 2.03642E-03 1.66248E-04-3.45055E-15
 -1       911 1.38950E-02-5.86211E-03-1.42925E-13
 -1       912 1.35763E-02-5.69386E-03-1.42511E-13
 -1       913 2.81292E-03 2.27916E-04-6.38998E-15
 -1       914 2.44465E-03 2.38320E-04-4.78825E-15
 -1       915 1.37357E-02-5.77798E-03-1.42730E-13
 -1       916 2.05301E-03 3.40228E-04-3.63153E-15
 -1       917 1.34545E-02-5.63007E-03-1.42542E-13
 -1       918 1.40541E-02-5.94606E-03-1.43095E-13
 -1       919 1.60159E-03 8.98902E-05-2.31392E-15
 -1       920 2.39769E-03 3.41149E-04-4.93156E-15
 -1       921 6.34302E-03-1.51880E-03-2.40242E-14
 -1       922 3.58067E-03-1.03326E-04-1.06190E-14
 -1       923 6.84575E-03-1.80553E-03-2.98715E-14
 -1       924 7.09690E-03-1.95163E-03-3.28273E-14
 -1       925 7.36711E-03-2.10958E-03-3.60583E-14
 -1       926 7.64176E-03-2.27027E-03-3.94131E-14
 -1       927 7.91963E-03-2.43261E-03-4.28866E-14
 -1       928 8.19983E-03-2.59586E-03-4.64692E-14
 -1       929 8.48170E-03-2.75953E-03-5.01601E-14
 -1       930 8.76476E-03-2.92332E-03-5.39532E-14
 -1       931 9.03446E-03-3.07888E-03-5.76468E-14
 -1       932 9.31893E-03-3.24250E-03-6.16328E-14
 -1       933 9.60383E-03-3.40594E-03-6.57230E-14
 -1       934 9.88903E-03-3.56920E-03-6.99137E-14
 -1       935 1.01744E-02-3.73230E-03-7.42003E-14
 -1       936 1.04600E-02-3.89525E-03-7.85759E-14
 -1       937 1.07456E-02-4.05808E-03-8.30331E-14
 -1       938 1.10170E-02-4.21266E-03-8.73440E-14
 -1       939 1.13027E-02-4.37531E-03-9.19664E-14
 -1       940 1.15885E-02-4.53789E-03-9.66719E-14
 -1       941 1.18742E-02-4.70042E-03-1.01455E-13
 -1       942 1.21600E-02-4.86292E-03-1.06314E-13
 -1       943 1.24458E-02-5.02539E-03-1.11253E-13
 -1       944 1.27315E-02-5.18784E-03-1.16278E-13
 -1       945 1.30030E-02-5.34216E-03-1.21116E-13
 -1       946 1.32887E-02-5.50459E-03-1.26268E-13
 -1       947 1.35745E-02-5.66702E-03-1.31469E-13
 -1       948 1.38602E-02-5.82944E-03-1.36722E-13
 -1       949 5.22610E-03-1.01315E-03-2.21775E-14
 -1       950 2.99662E-03 1.80786E-04-7.40803E-15
 -1       951 4.91467E-03-8.47700E-04-1.95709E-14
 -1       952 4.25999E-03-4.91475E-04-1.47911E-14
 -1       953 5.52848E-03-1.17382E-03-2.49209E-14
 -1       954 5.82392E-03-1.33195E-03-2.77974E-14
 -1       955 6.11452E-03-1.48910E-03-3.08061E-14
 -1       956 6.40200E-03-1.64615E-03-3.39432E-14
 -1       957 6.68763E-03-1.80358E-03-3.72052E-14
 -1       958 6.97229E-03-1.96160E-03-4.05858E-14
 -1       959 7.25656E-03-2.12025E-03-4.40816E-14
 -1       960 7.54078E-03-2.27951E-03-4.76905E-14
 -1       961 7.82514E-03-2.43934E-03-5.14107E-14
 -1       962 8.10971E-03-2.59965E-03-5.52412E-14
 -1       963 8.39453E-03-2.76039E-03-5.91799E-14
 -1       964 8.67956E-03-2.92147E-03-6.32213E-14
 -1       965 8.96479E-03-3.08285E-03-6.73588E-14
 -1       966 9.25017E-03-3.24446E-03-7.15969E-14
 -1       967 9.53568E-03-3.40627E-03-7.59312E-14
 -1       968 9.82127E-03-3.56824E-03-8.03627E-14
 -1       969 1.01069E-02-3.73032E-03-8.48821E-14
 -1       970 1.03926E-02-3.89250E-03-8.94881E-14
 -1       971 1.06784E-02-4.05475E-03-9.41774E-14
 -1       972 1.09641E-02-4.21706E-03-9.89535E-14
 -1       973 1.12499E-02-4.37941E-03-1.03816E-13
 -1       974 1.15356E-02-4.54179E-03-1.08756E-13
 -1       975 1.18214E-02-4.70419E-03-1.13771E-13
 -1       976 1.21071E-02-4.86660E-03-1.18853E-13
 -1       977 1.23928E-02-5.02902E-03-1.23997E-13
 -1       978 1.26786E-02-5.19145E-03-1.29200E-13
 -1       979 1.29643E-02-5.35388E-03-1.34460E-13
 -1       980 5.36831E-03-1.10177E-03-1.85462E-14
 -1       981 6.11057E-03-1.39112E-03-2.12917E-14
 -1       982 4.78075E-03-8.10451E-04-1.64033E-14
 -1       983 4.59272E-03-6.74341E-04-1.71066E-14
 -1       984 4.13404E-03-4.34570E-04-1.34889E-14
 -1       985 6.58914E-03-1.65783E-03-2.68832E-14
 -1       986 5.82179E-03-1.27428E-03-1.95062E-14
 -1       987 1.75172E-03 1.70621E-04-2.66785E-15
 -1       988 3.92032E-03-2.98176E-04-1.26261E-14
 -1       989 1.50934E-03 1.73533E-04-2.05657E-15
 -1       990 5.18793E-03-1.01412E-03-1.90531E-14
 -1       991 5.72556E-03-1.25962E-03-2.07468E-14
 -1       992 2.15966E-03 2.33898E-04-3.85314E-15
 -1       993 1.35679E-02-5.67939E-03-1.38225E-13
 -1       994 1.37270E-02-5.76334E-03-1.38412E-13
 -1       995 1.92032E-03 2.52085E-04-3.14860E-15
 -1       996 1.34085E-02-5.59526E-03-1.38015E-13
 -1       997 2.42536E-03 2.89047E-04-4.87672E-15
 -1       998 7.09308E-03-1.96793E-03-3.43356E-14
 -1       999 7.36613E-03-2.12489E-03-3.76197E-14
 -1      1000 7.64239E-03-2.28442E-03-4.10255E-14
 -1      1001 7.92115E-03-2.44559E-03-4.45467E-14
 -1      1002 8.20179E-03-2.60775E-03-4.81758E-14
 -1      1003 8.48387E-03-2.77045E-03-5.19092E-14
 -1      1004 8.75282E-03-2.92527E-03-5.55510E-14
 -1      1005 9.03669E-03-3.08831E-03-5.94848E-14
 -1      1006 9.32115E-03-3.25136E-03-6.35199E-14
 -1      1007 9.60602E-03-3.41434E-03-6.76538E-14
 -1      1008 9.89120E-03-3.57723E-03-7.18886E-14
 -1      1009 1.01766E-02-3.74005E-03-7.62230E-14
 -1      1010 1.04621E-02-3.90277E-03-8.06367E-14
 -1      1011 1.07335E-02-4.05730E-03-8.49050E-14
 -1      1012 1.10191E-02-4.21990E-03-8.94837E-14
 -1      1013 1.13049E-02-4.38246E-03-9.41503E-14
 -1      1014 1.15906E-02-4.54497E-03-9.88980E-14
 -1      1015 1.18764E-02-4.70746E-03-1.03719E-13
 -1      1016 1.21622E-02-4.86993E-03-1.08621E-13
 -1      1017 1.24479E-02-5.03238E-03-1.13610E-13
 -1      1018 1.27194E-02-5.18670E-03-1.18416E-13
 -1      1019 1.30052E-02-5.34913E-03-1.23543E-13
 -1      1020 1.32909E-02-5.51156E-03-1.28726E-13
 -1      1021 1.35766E-02-5.67398E-03-1.33958E-13
 -1      1022 5.83442E-03-1.33527E-03-2.65217E-14
 -1      1023 5.53916E-03-1.18200E-03-2.37032E-14
 -1      1024 6.40951E-03-1.64264E-03-3.25550E-14
 -1      1025 6.69336E-03-1.79811E-03-3.57613E-14
 -1      1026 6.97638E-03-1.95490E-03-3.90911E-14
 -1      1027 7.25921E-03-2.11287E-03-4.25358E-14
 -1      1028 7.54223E-03-2.27181E-03-4.60956E-14
 -1      1029 7.82561E-03-2.43154E-03-4.97650E-14
 -1      1030 8.10941E-03-2.59189E-03-5.35455E-14
 -1      1031 8.39363E-03-2.75273E-03-5.74369E-14
 -1      1032 8.67822E-03-2.91394E-03-6.14320E-14
 -1      1033 8.96313E-03-3.07544E-03-6.55203E-14
 -1      1034 9.24828E-03-3.23717E-03-6.97104E-14
 -1      1035 9.53362E-03-3.39907E-03-7.39990E-14
 -1      1036 9.81911E-03-3.56111E-03-7.83802E-14
 -1      1037 1.01047E-02-3.72325E-03-8.28540E-14
 -1      1038 1.03904E-02-3.88547E-03-8.74148E-14
 -1      1039 1.06761E-02-4.04775E-03-9.20616E-14
 -1      1040 1.09618E-02-4.21008E-03-9.67906E-14
 -1      1041 1.12476E-02-4.37244E-03-1.01608E-13
 -1      1042 1.15333E-02-4.53482E-03-1.06506E-13
 -1      1043 1.18191E-02-4.69722E-03-1.11482E-13
 -1      1044 1.21048E-02-4.85963E-03-1.16532E-13
 -1      1045 1.23906E-02-5.02206E-03-1.21645E-13
 -1      1046 1.26763E-02-5.18448E-03-1.26819E-13
 -1      1047 1.29621E-02-5.34691E-03-1.32043E-13
 -1      1048 1.32481E-02-5.51062E-03-1.37810E-13
 -1      1049 6.12374E-03-1.48847E-03-2.94741E-14
 -1      1050 5.23507E-03-1.02669E-03-2.10158E-14
 -1      1051 6.31484E-03-1.53366E-03-2.53712E-14
 -1      1052 6.05109E-03-1.39456E-03-2.23680E-14
 -1      1053 6.83744E-03-1.82235E-03-3.13289E-14
 -1      1054 6.57321E-03-1.67438E-03-2.82865E-14
 -1      1055 1.32408E-02-5.49666E-03-1.33548E-13
 -1      1056 5.55475E-03-1.19111E-03-2.12853E-14
 -1      1057 1.33998E-02-5.58061E-03-1.33749E-13
 -1      1058 5.04125E-03-9.29237E-04-1.93256E-14
 -1      1059 7.36300E-03-2.13775E-03-3.91783E-14
 -1      1060 7.64126E-03-2.29674E-03-4.26362E-14
 -1      1061 7.92128E-03-2.45721E-03-4.62025E-14
 -1      1062 8.20269E-03-2.61862E-03-4.98771E-14
 -1      1063 8.47110E-03-2.77250E-03-5.34645E-14
 -1      1064 8.75448E-03-2.93481E-03-5.73450E-14
 -1      1065 9.03855E-03-3.09730E-03-6.13273E-14
 -1      1066 9.32312E-03-3.25988E-03-6.54095E-14
 -1      1067 9.60807E-03-3.42247E-03-6.95898E-14
 -1      1068 9.89329E-03-3.58507E-03-7.38708E-14
 -1      1069 1.01787E-02-3.74764E-03-7.82409E-14
 -1      1070 1.04500E-02-3.90206E-03-8.24726E-14
 -1      1071 1.07356E-02-4.06458E-03-8.70067E-14
 -1      1072 1.10213E-02-4.22708E-03-9.16297E-14
 -1      1073 1.13071E-02-4.38956E-03-9.63409E-14
 -1      1074 1.15928E-02-4.55202E-03-1.01129E-13
 -1      1075 1.18786E-02-4.71447E-03-1.05991E-13
 -1      1076 1.21644E-02-4.87692E-03-1.10938E-13
 -1      1077 1.24358E-02-5.03123E-03-1.15715E-13
 -1      1078 1.27216E-02-5.19366E-03-1.20815E-13
 -1      1079 1.30074E-02-5.35609E-03-1.25973E-13
 -1      1080 5.85238E-03-1.34105E-03-2.52488E-14
 -1      1081 6.98197E-03-1.94755E-03-3.75975E-14
 -1      1082 6.70138E-03-1.79225E-03-3.43211E-14
 -1      1083 7.54431E-03-2.26331E-03-4.45042E-14
 -1      1084 7.82651E-03-2.42299E-03-4.81257E-14
 -1      1085 8.10942E-03-2.58347E-03-5.18549E-14
 -1      1086 8.39297E-03-2.74451E-03-5.56949E-14
 -1      1087 8.67706E-03-2.90594E-03-5.96399E-14
 -1      1088 8.96160E-03-3.06766E-03-6.36856E-14
 -1      1089 9.24649E-03-3.22959E-03-6.78259E-14
 -1      1090 9.53166E-03-3.39165E-03-7.20683E-14
 -1      1091 9.81702E-03-3.55382E-03-7.64058E-14
 -1      1092 1.01025E-02-3.71606E-03-8.08319E-14
 -1      1093 1.03881E-02-3.87836E-03-8.53474E-14
 -1      1094 1.06738E-02-4.04069E-03-8.99509E-14
 -1      1095 1.09595E-02-4.20306E-03-9.46371E-14
 -1      1096 1.12453E-02-4.36544E-03-9.94058E-14
 -1      1097 1.15311E-02-4.52784E-03-1.04259E-13
 -1      1098 1.18168E-02-4.69025E-03-1.09192E-13
 -1      1099 1.21026E-02-4.85267E-03-1.14205E-13
 -1      1100 1.23884E-02-5.01509E-03-1.19292E-13
 -1      1101 1.26741E-02-5.17752E-03-1.24439E-13
 -1      1102 1.29574E-02-5.33709E-03-1.28974E-13
 -1      1103 6.13813E-03-1.48898E-03-2.81458E-14
 -1      1104 7.08684E-03-1.98095E-03-3.58430E-14
 -1      1105 6.82673E-03-1.83488E-03-3.27859E-14
 -1      1106 6.55537E-03-1.68534E-03-2.96903E-14
 -1      1107 7.26282E-03-2.10472E-03-4.09948E-14
 -1      1108 6.00555E-03-1.39634E-03-2.36574E-14
 -1      1109 6.28637E-03-1.54132E-03-2.67189E-14
 -1      1110 6.42049E-03-1.63932E-03-3.11706E-14
 -1      1111 5.39078E-03-1.11085E-03-2.11592E-14
 -1      1112 1.32036E-02-5.46835E-03-1.29845E-13
 -1      1113 1.30805E-02-5.40272E-03-1.29414E-13
 -1      1114 6.53936E-03-1.69255E-03-3.10927E-14
 -1      1115 7.63938E-03-2.30747E-03-4.42440E-14
 -1      1116 1.04521E-02-3.90936E-03-8.45355E-14
 -1      1117 1.24380E-02-5.03820E-03-1.18083E-13
 -1      1118 5.96773E-03-1.39223E-03-2.49629E-14
 -1      1119 6.25416E-03-1.54004E-03-2.79595E-14
 -1      1120 0.00000E+00 0.00000E+00 0.00000E+00
 -1      1121 0.00000E+00 0.00000E+00 0.00000E+00
 -1      1122 0.00000E+00 0.00000E+00 0.00000E+00
 -1      1123 0.00000E+00 0.00000E+00 0.00000E+00
 -1      1124 0.00000E+00 0.00000E+00 0.00000E+00
 -1      1125 0.00000E+00 0.00000E+00 0.00000E+00
 -1      1126 0.00000E+00 0.00000E+00 0.00000E+00
 -1      1127 0.00000E+00 0.00000E+00 0.00000E+00
 -1      1128 0.00000E+00 0.00000E+00 0.00000E+00
 -1      1129 0.00000E+00 0.00000E+00 0.00000E+00
 -1      1130 0.00000E+00 0.00000E+00 0.00000E+00
 -1      1131 0.00000E+00 0.00000E+00 0.00000E+00
 -1      1132 0.00000E+00 0.00000E+00 0.00000E+00
 -1      1133 0.00000E+00 0.00000E+00 0.00000E+00
 -1      1134 0.00000E+00 0.00000E+00 0.00000E+00
 -1      1135 0.00000E+00 0.00000E+00 0.00000E+00
 -1      1136 0.00000E+00 0.00000E+00 0.00000E+00
 -1      1137 2.34390E-04-1.35964E-04 1.92446E-17
 -1      1138 6.60602E-04-2.96951E-04-3.04254E-17
 -1      1139 1.07051E-03-4.21054E-04-2.21814E-16
 -1      1140 1.50541E-03-5.54424E-04-5.82108E-16
 -1      1141 1.97583E-03-7.40502E-04-1.10778E-15
 -1      1142 2.47428E-03-1.02226E-03-1.80463E-15
 -1      1143 2.92683E-03-1.38689E-03-2.60845E-15
 -1      1144 3.29660E-03-1.78760E-03-3.52351E-15
 -1      1145 3.58130E-03-2.13991E-03-4.64738E-15
 -1      1146 3.80294E-03-2.29519E-03-6.01774E-15
 -1      1147 4.03445E-03-2.21092E-03-7.52327E-15
 -1      1148 4.34363E-03-2.00007E-03-9.16221E-15
 -1      1149 4.78047E-03-1.76552E-03-1.11669E-14
 -1      1150 5.28252E-03-1.62186E-03-1.34384E-14
 -1      1151 5.77027E-03-1.59927E-03-1.58522E-14
 -1      1152 6.21807E-03-1.66512E-03-1.84008E-14
 -1      1153 6.61403E-03-1.78035E-03-2.10133E-14
 -1      1154 6.97639E-03-1.92265E-03-2.37487E-14
 -1      1155 7.32175E-03-2.08271E-03-2.66822E-14
 -1      1156 7.64804E-03-2.24927E-03-2.97502E-14
 -1      1157 7.96110E-03-2.41833E-03-3.29494E-14
 -1      1158 8.26513E-03-2.58794E-03-3.62684E-14
 -1      1159 8.56302E-03-2.75720E-03-3.96991E-14
 -1      1160 8.84944E-03-2.92151E-03-4.31491E-14
 -1      1161 9.13316E-03-3.08501E-03-4.66954E-14
 -1      1162 9.42223E-03-3.25188E-03-5.04377E-14
 -1      1163 9.70999E-03-3.41797E-03-5.42811E-14
 -1      1164 9.99688E-03-3.58337E-03-5.82172E-14
 -1      1165 1.02832E-02-3.74819E-03-6.22468E-14
 -1      1166 1.05691E-02-3.91252E-03-6.63610E-14
 -1      1167 1.08477E-02-4.07234E-03-7.04590E-14
 -1      1168 1.11261E-02-4.23184E-03-7.46498E-14
 -1      1169 1.14117E-02-4.39516E-03-7.90356E-14
 -1      1170 1.16971E-02-4.55826E-03-8.34935E-14
 -1      1171 1.19826E-02-4.72118E-03-8.80262E-14
 -1      1172 1.22681E-02-4.88397E-03-9.26412E-14
 -1      1173 1.25536E-02-5.04665E-03-9.73462E-14
 -1      1174 1.28320E-02-5.20519E-03-1.02004E-13
 -1      1175 1.31104E-02-5.36368E-03-1.06725E-13
 -1      1176 1.33960E-02-5.52618E-03-1.11643E-13
 -1      1177 1.36816E-02-5.68866E-03-1.16636E-13
 -1      1178 1.39673E-02-5.85111E-03-1.21699E-13
 -1      1179 1.42529E-02-6.01355E-03-1.26834E-13
 -1      1180 1.45386E-02-6.17598E-03-1.32029E-13
 -1      1181 1.48171E-02-6.33434E-03-1.37129E-13
 -1      1182 1.50957E-02-6.49270E-03-1.42274E-13
 -1      1183 1.53814E-02-6.65513E-03-1.47593E-13
 -1      1184 1.56671E-02-6.81755E-03-1.52936E-13
 -1      1185 1.59528E-02-6.97998E-03-1.58304E-13
 -1      1186 1.62385E-02-7.14241E-03-1.63713E-13
 -1      1187 1.65171E-02-7.30078E-03-1.69037E-13
 -1      1188 2.38190E-04 1.69586E-04 3.74727E-17
 -1      1189 5.74292E-04 3.64988E-04 3.30682E-18
 -1      1190 8.59485E-04 4.96658E-04-1.82688E-16
 -1      1191 1.12726E-03 5.88961E-04-5.41789E-16
 -1      1192 1.38236E-03 6.53792E-04-1.07566E-15
 -1      1193 1.62650E-03 6.94507E-04-1.78559E-15
 -1      1194 1.86079E-03 7.09926E-04-2.67480E-15
 -1      1195 2.08723E-03 6.96973E-04-3.74069E-15
 -1      1196 2.30924E-03 6.52740E-04-4.98401E-15
 -1      1197 2.53138E-03 5.76144E-04-6.40297E-15
 -1      1198 2.75857E-03 4.68862E-04-7.99686E-15
 -1      1199 2.99489E-03 3.35307E-04-9.76524E-15
 -1      1200 3.24284E-03 1.81754E-04-1.17026E-14
 -1      1201 3.50298E-03 1.50235E-05-1.38039E-14
 -1      1202 3.77422E-03-1.58722E-04-1.60660E-14
 -1      1203 4.05442E-03-3.34734E-04-1.84867E-14
 -1      1204 4.34103E-03-5.09906E-04-2.10556E-14
 -1      1205 4.63164E-03-6.82598E-04-2.37715E-14
 -1      1206 4.92425E-03-8.52262E-04-2.66320E-14
 -1      1207 5.21741E-03-1.01904E-03-2.96304E-14
 -1      1208 5.51019E-03-1.18342E-03-3.27609E-14
 -1      1209 5.80207E-03-1.34601E-03-3.60177E-14
 -1      1210 6.09283E-03-1.50741E-03-3.93937E-14
 -1      1211 6.38247E-03-1.66810E-03-4.28851E-14
 -1      1212 6.67109E-03-1.82846E-03-4.64810E-14
 -1      1213 6.95885E-03-1.98876E-03-5.01792E-14
 -1      1214 7.24591E-03-2.14917E-03-5.39980E-14
 -1      1215 7.53245E-03-2.30978E-03-5.79428E-14
 -1      1216 7.81860E-03-2.47063E-03-6.20045E-14
 -1      1217 8.10449E-03-2.63175E-03-6.61792E-14
 -1      1218 8.39020E-03-2.79311E-03-7.04583E-14
 -1      1219 8.67580E-03-2.95470E-03-7.48422E-14
 -1      1220 8.96134E-03-3.11647E-03-7.93151E-14
 -1      1221 9.24685E-03-3.27840E-03-8.38663E-14
 -1      1222 9.53237E-03-3.44046E-03-8.84960E-14
 -1      1223 9.81789E-03-3.60262E-03-9.32215E-14
 -1      1224 1.01034E-02-3.76486E-03-9.80509E-14
 -1      1225 1.03890E-02-3.92716E-03-1.02964E-13
 -1      1226 1.06746E-02-4.08951E-03-1.07933E-13
 -1      1227 1.09602E-02-4.25188E-03-1.12979E-13
 -1      1228 1.12458E-02-4.41428E-03-1.18103E-13
 -1      1229 1.15315E-02-4.57670E-03-1.23295E-13
 -1      1230 1.18172E-02-4.73912E-03-1.28555E-13
 -1      1231 1.21028E-02-4.90155E-03-1.33872E-13
 -1      1232 1.23885E-02-5.06399E-03-1.39213E-13
 -1      1233 1.26742E-02-5.22642E-03-1.44548E-13
 -1      1234 1.29599E-02-5.38885E-03-1.49905E-13
 -1      1235 1.32457E-02-5.55128E-03-1.55286E-13
 -1      1236 1.35314E-02-5.71370E-03-1.60678E-13
 -1      1237 1.38099E-02-5.87206E-03-1.65953E-13
 -1      1238 1.40255E-02-5.99136E-03-1.68667E-13
 -1      1239 1.41852E-02-6.07564E-03-1.68982E-13
 -1      1240 1.43449E-02-6.15993E-03-1.69277E-13
 -1      1241 1.45046E-02-6.24422E-03-1.69546E-13
 -1      1242 1.46643E-02-6.32851E-03-1.69808E-13
 -1      1243 1.48227E-02-6.41209E-03-1.70081E-13
 -1      1244 1.49811E-02-6.49568E-03-1.70359E-13
 -1      1245 1.51408E-02-6.57998E-03-1.70610E-13
 -1      1246 1.53005E-02-6.66429E-03-1.70836E-13
 -1      1247 1.54602E-02-6.74859E-03-1.71011E-13
 -1      1248 1.56199E-02-6.83290E-03-1.71138E-13
 -1      1249 1.57783E-02-6.91649E-03-1.71263E-13
 -1      1250 1.59367E-02-7.00007E-03-1.71381E-13
 -1      1251 1.60964E-02-7.08436E-03-1.71466E-13
 -1      1252 1.62562E-02-7.16865E-03-1.71529E-13
 -1      1253 1.64159E-02-7.25294E-03-1.71575E-13
 -1      1254 1.65743E-02-7.33651E-03-1.71624E-13
 -1      1255 5.69634E-03-8.88448E-04-1.02530E-14
 -1      1256 5.50441E-03-7.27387E-04-1.00823E-14
 -1      1257 5.20976E-03-5.56485E-04-9.72840E-15
 -1      1258 4.83062E-03-3.78978E-04-9.20469E-15
 -1      1259 4.41434E-03-2.14350E-04-8.57341E-15
 -1      1260 3.96863E-03-7.14573E-05-7.85410E-15
 -1      1261 3.50887E-03 3.70652E-05-7.08944E-15
 -1      1262 3.05380E-03 9.59448E-05-6.32800E-15
 -1      1263 2.57555E-03 1.01817E-04-5.54130E-15
 -1      1264 2.12560E-03 5.64618E-05-4.83386E-15
 -1      1265 1.73165E-03-2.51087E-05-4.24968E-15
 -1      1266 1.38643E-03-1.30202E-04-3.76568E-15
 -1      1267 1.11203E-03-2.47642E-04-3.39703E-15
 -1      1268 9.29578E-04-3.71812E-04-3.15444E-15
 -1      1269 8.53445E-04-5.04601E-04-3.03904E-15
 -1      1270 8.91028E-04-6.56981E-04-3.04585E-15
 -1      1271 1.04737E-03-8.38721E-04-3.17689E-15
 -1      1272 1.30788E-03-1.04781E-03-3.42245E-15
 -1      1273 1.67892E-03-1.29631E-03-3.79865E-15
 -1      1274 2.12834E-03-1.55950E-03-4.29499E-15
 -1      1275 2.61091E-03-1.79009E-03-4.87867E-15
 -1      1276 3.11227E-03-1.95778E-03-5.53724E-15
 -1      1277 3.62648E-03-2.03109E-03-6.26119E-15
 -1      1278 4.13731E-03-1.99962E-03-7.03642E-15
 -1      1279 4.59583E-03-1.88402E-03-7.77530E-15
 -1      1280 4.99672E-03-1.72193E-03-8.46594E-15
 -1      1281 5.33393E-03-1.54166E-03-9.09648E-15
 -1      1282 5.59145E-03-1.36078E-03-9.63644E-15
 -1      1283 5.73886E-03-1.19719E-03-1.00149E-14
 -1      1284 5.77495E-03-1.04452E-03-1.02257E-14
 -1      1285 1.92477E-04-8.84749E-05-3.25261E-18
 -1      1286 1.29176E-04-2.67781E-05-3.15909E-17
 -1      1287 1.40519E-04-4.12176E-05-2.36627E-17
 -1      1288 1.10423E-04-1.25813E-05-4.46962E-17
 -1      1289 1.19347E-04-1.77039E-05-4.06169E-17
 -1      1290 2.52818E-04-5.23495E-05-9.50303E-17
 -1      1291 9.62099E-05-1.13324E-05-5.21095E-17
 -1      1292 1.02828E-04-1.12200E-05-4.98869E-17
 -1      1293 2.14164E-04-3.17138E-05-1.18734E-16
 -1      1294 8.75545E-05-1.74322E-05-5.65954E-17
 -1      1295 9.11975E-05-1.46085E-05-5.54434E-17
 -1      1296 1.85951E-04-3.18569E-05-1.33018E-16
 -1      1297 8.50940E-05-2.52652E-05-5.88451E-17
 -1      1298 8.56581E-05-2.22689E-05-5.84385E-17
 -1      1299 1.70955E-04-4.28132E-05-1.41380E-16
 -1      1300 8.77766E-05-3.03543E-05-6.00241E-17
 -1      1301 8.59453E-05-2.90745E-05-5.99970E-17
 -1      1302 1.69357E-04-5.47670E-05-1.46069E-16
 -1      1303 9.35378E-05-2.97630E-05-6.03765E-17
 -1      1304 9.04613E-05-3.12072E-05-6.06205E-17
 -1      1305 1.78159E-04-5.98485E-05-1.48414E-16
 -1      1306 9.99976E-05-2.32349E-05-6.01461E-17
 -1      1307 9.68137E-05-2.72512E-05-6.05527E-17
 -1      1308 1.92072E-04-5.41143E-05-1.49146E-16
 -1      1309 1.05456E-04-1.22769E-05-5.93872E-17
 -1      1310 1.02902E-04-1.80453E-05-5.97531E-17
 -1      1311 2.06018E-04-3.81427E-05-1.48360E-16
 -1      1312 1.09175E-04 1.01665E-06-5.83301E-17
 -1      1313 1.07508E-04-5.56783E-06-5.88044E-17
 -1      1314 2.16849E-04-1.51629E-05-1.46543E-16
 -1      1315 1.11180E-04 1.46770E-05-5.60397E-17
 -1      1316 1.10306E-04 8.07810E-06-5.67715E-17
 -1      1317 2.23560E-04 1.08883E-05-1.43155E-16
 -1      1318 1.12071E-04 2.82133E-05-5.24483E-17
 -1      1319 1.11639E-04 2.16852E-05-5.37087E-17
 -1      1320 2.26827E-04 3.75069E-05-1.37030E-16
 -1      1321 1.12664E-04 4.12767E-05-4.62277E-17
 -1      1322 1.12178E-04 3.48444E-05-4.86671E-17
 -1      1323 2.28075E-04 6.37171E-05-1.27285E-16
 -1      1324 1.14354E-04 5.48723E-05-3.55076E-17
 -1      1325 1.12911E-04 4.78547E-05-4.02239E-17
 -1      1326 2.29357E-04 8.98173E-05-1.11144E-16
 -1      1327 1.20671E-04 7.28769E-05-1.74828E-17
 -1      1328 1.15926E-04 6.27528E-05-2.63326E-17
 -1      1329 2.34389E-04 1.19052E-04-8.50963E-17
 -1      1330 1.63348E-04 1.16462E-04 1.14519E-17
 -1      1331 1.40019E-04 9.20653E-05-6.78982E-18
 -1      1332 2.64010E-04 1.63745E-04-5.29497E-17
 -1      1333 3.46831E-04 2.35040E-04-5.27193E-18
 -1      1334 5.02870E-04-2.12731E-04-5.06865E-17
 -1      1335 7.05761E-04-2.78860E-04-1.13272E-16
 -1      1336 9.08305E-04-3.38802E-04-2.18792E-16
 -1      1337 1.11336E-03-3.97734E-04-3.64549E-16
 -1      1338 7.48011E-04-2.58647E-04-2.09021E-16
 -1      1339 1.32241E-03-4.61929E-04-5.49121E-16
 -1      1340 1.53674E-03-5.35648E-04-7.74676E-16
 -1      1341 1.14110E-03-3.76547E-04-5.12462E-16
 -1      1342 1.75731E-03-6.25399E-04-1.04016E-15
 -1      1343 1.98363E-03-7.36432E-04-1.34774E-15
 -1      1344 1.54527E-03-5.22390E-04-9.71269E-16
 -1      1345 2.21515E-03-8.74925E-04-1.69800E-15
 -1      1346 2.44832E-03-1.04445E-03-2.09267E-15
 -1      1347 1.96950E-03-7.41262E-04-1.59166E-15
 -1      1348 2.64622E-03-1.21349E-03-2.46319E-15
 -1      1349 2.83884E-03-1.40347E-03-2.86868E-15
 -1      1350 2.38152E-03-1.04687E-03-2.31735E-15
 -1      1351 3.03562E-03-1.61751E-03-3.33980E-15
 -1      1352 3.21897E-03-1.82856E-03-3.85439E-15
 -1      1353 2.78063E-03-1.43533E-03-3.15194E-15
 -1      1354 3.38825E-03-2.01856E-03-4.41774E-15
 -1      1355 3.54560E-03-2.16325E-03-5.02925E-15
 -1      1356 3.17937E-03-1.86615E-03-4.18150E-15
 -1      1357 3.70087E-03-2.25144E-03-5.73146E-15
 -1      1358 3.85792E-03-2.26316E-03-6.49165E-15
 -1      1359 3.55926E-03-2.17500E-03-5.44126E-15
 -1      1360 3.99377E-03-2.21754E-03-7.17530E-15
 -1      1361 4.14137E-03-2.13458E-03-7.89956E-15
 -1      1362 3.90685E-03-2.20958E-03-6.82910E-15
 -1      1363 4.32044E-03-2.01355E-03-8.75720E-15
 -1      1364 4.51246E-03-1.88581E-03-9.65954E-15
 -1      1365 4.26373E-03-2.02849E-03-8.35689E-15
 -1      1366 4.73852E-03-1.75499E-03-1.07081E-14
 -1      1367 4.97003E-03-1.65047E-03-1.18004E-14
 -1      1368 4.69045E-03-1.75406E-03-1.02540E-14
 -1      1369 5.20376E-03-1.57948E-03-1.29331E-14
 -1      1370 5.43409E-03-1.54183E-03-1.41038E-14
 -1      1371 5.14305E-03-1.54780E-03-1.24338E-14
 -1      1372 5.65910E-03-1.53406E-03-1.53091E-14
 -1      1373 5.87655E-03-1.55115E-03-1.65485E-14
 -1      1374 5.57509E-03-1.47680E-03-1.47703E-14
 -1      1375 6.08600E-03-1.58752E-03-1.78226E-14
 -1      1376 6.28723E-03-1.63877E-03-1.91263E-14
 -1      1377 5.97945E-03-1.51470E-03-1.72460E-14
 -1      1378 6.47113E-03-1.69749E-03-2.03972E-14
 -1      1379 6.64847E-03-1.76335E-03-2.16979E-14
 -1      1380 6.34824E-03-1.61710E-03-1.97867E-14
 -1      1381 6.82872E-03-1.83822E-03-2.30972E-14
 -1      1382 7.00319E-03-1.91696E-03-2.45282E-14
 -1      1383 6.69539E-03-1.75485E-03-2.24479E-14
 -1      1384 7.17258E-03-1.99843E-03-2.59934E-14
 -1      1385 7.33766E-03-2.08153E-03-2.74911E-14
 -1      1386 7.03313E-03-1.91444E-03-2.53073E-14
 -1      1387 7.49904E-03-2.16582E-03-2.90205E-14
 -1      1388 7.65730E-03-2.25064E-03-3.05839E-14
 -1      1389 7.35644E-03-2.08231E-03-2.82956E-14
 -1      1390 7.81294E-03-2.33587E-03-3.21797E-14
 -1      1391 7.96638E-03-2.42113E-03-3.38047E-14
 -1      1392 7.66895E-03-2.25322E-03-3.14136E-14
 -1      1393 8.11799E-03-2.50642E-03-3.54598E-14
 -1      1394 8.26806E-03-2.59151E-03-3.71445E-14
 -1      1395 7.97354E-03-2.42466E-03-3.46581E-14
 -1      1396 8.41687E-03-2.67647E-03-3.88573E-14
 -1      1397 8.56460E-03-2.76116E-03-4.05956E-14
 -1      1398 8.27245E-03-2.59552E-03-3.80178E-14
 -1      1399 8.70414E-03-2.84143E-03-4.22731E-14
 -1      1400 8.84300E-03-2.92144E-03-4.39753E-14
 -1      1401 8.55996E-03-2.76114E-03-4.14017E-14
 -1      1402 8.98857E-03-3.00545E-03-4.57908E-14
 -1      1403 9.13363E-03-3.08920E-03-4.76321E-14
 -1      1404 8.84471E-03-2.92571E-03-4.48878E-14
 -1      1405 9.27826E-03-3.17274E-03-4.95021E-14
 -1      1406 9.42254E-03-3.25604E-03-5.13972E-14
 -1      1407 9.13474E-03-3.09345E-03-4.85684E-14
 -1      1408 9.56652E-03-3.33916E-03-5.33155E-14
 -1      1409 9.71026E-03-3.42208E-03-5.52581E-14
 -1      1410 9.42332E-03-3.26024E-03-5.23530E-14
 -1      1411 9.85381E-03-3.50483E-03-5.72249E-14
 -1      1412 9.99719E-03-3.58741E-03-5.92144E-14
 -1      1413 9.71088E-03-3.42619E-03-5.62345E-14
 -1      1414 1.01404E-02-3.66985E-03-6.12268E-14
 -1      1415 1.02836E-02-3.75215E-03-6.32637E-14
 -1      1416 9.99775E-03-3.59144E-03-6.02115E-14
 -1      1417 1.04266E-02-3.83434E-03-6.53208E-14
 -1      1418 1.05696E-02-3.91640E-03-6.73969E-14
 -1      1419 1.02841E-02-3.75610E-03-6.42791E-14
 -1      1420 1.07054E-02-3.99428E-03-6.93944E-14
 -1      1421 1.08411E-02-4.07207E-03-7.14141E-14
 -1      1422 1.05631E-02-3.91617E-03-6.83319E-14
 -1      1423 1.09840E-02-4.15387E-03-7.35600E-14
 -1      1424 1.11268E-02-4.23560E-03-7.57288E-14
 -1      1425 1.08418E-02-4.07586E-03-7.24709E-14
 -1      1426 1.12696E-02-4.31726E-03-7.79206E-14
 -1      1427 1.14124E-02-4.39886E-03-8.01321E-14
 -1      1428 1.11275E-02-4.23933E-03-7.68086E-14
 -1      1429 1.15552E-02-4.48041E-03-8.23618E-14
 -1      1430 1.16979E-02-4.56191E-03-8.46104E-14
 -1      1431 1.14132E-02-4.40255E-03-8.12290E-14
 -1      1432 1.18407E-02-4.64338E-03-8.68772E-14
 -1      1433 1.19835E-02-4.72480E-03-8.91643E-14
 -1      1434 1.16988E-02-4.56556E-03-8.57281E-14
 -1      1435 1.21262E-02-4.80619E-03-9.14722E-14
 -1      1436 1.22690E-02-4.88756E-03-9.38015E-14
 -1      1437 1.19844E-02-4.72841E-03-9.03021E-14
 -1      1438 1.24118E-02-4.96890E-03-9.61527E-14
 -1      1439 1.25546E-02-5.05022E-03-9.85232E-14
 -1      1440 1.22699E-02-4.89114E-03-9.49603E-14
 -1      1441 1.26902E-02-5.12745E-03-1.00790E-13
 -1      1442 1.28258E-02-5.20468E-03-1.03075E-13
 -1      1443 1.25484E-02-5.04971E-03-9.95785E-14
 -1      1444 1.29686E-02-5.28595E-03-1.05497E-13
 -1      1445 1.31114E-02-5.36721E-03-1.07938E-13
 -1      1446 1.28268E-02-5.20821E-03-1.04269E-13
 -1      1447 1.32542E-02-5.44846E-03-1.10400E-13
 -1      1448 1.33971E-02-5.52970E-03-1.12880E-13
 -1      1449 1.31125E-02-5.37073E-03-1.09155E-13
 -1      1450 1.35399E-02-5.61094E-03-1.15378E-13
 -1      1451 1.36827E-02-5.69217E-03-1.17892E-13
 -1      1452 1.33981E-02-5.53322E-03-1.14116E-13
 -1      1453 1.38255E-02-5.77339E-03-1.20424E-13
 -1      1454 1.39683E-02-5.85462E-03-1.22974E-13
 -1      1455 1.36837E-02-5.69568E-03-1.19149E-13
 -1      1456 1.41112E-02-5.93583E-03-1.25541E-13
 -1      1457 1.42540E-02-6.01705E-03-1.28124E-13
 -1      1458 1.39694E-02-5.85812E-03-1.24248E-13
 -1      1459 1.43968E-02-6.09826E-03-1.30719E-13
 -1      1460 1.45397E-02-6.17948E-03-1.33326E-13
 -1      1461 1.42551E-02-6.02055E-03-1.29409E-13
 -1      1462 1.46754E-02-6.25663E-03-1.35810E-13
 -1      1463 1.48111E-02-6.33378E-03-1.38303E-13
 -1      1464 1.45336E-02-6.17891E-03-1.34492E-13
 -1      1465 1.49539E-02-6.41499E-03-1.40941E-13
 -1      1466 1.50968E-02-6.49620E-03-1.43591E-13
 -1      1467 1.48122E-02-6.33727E-03-1.39611E-13
 -1      1468 1.52396E-02-6.57741E-03-1.46250E-13
 -1      1469 1.53825E-02-6.65862E-03-1.48911E-13
 -1      1470 1.50978E-02-6.49969E-03-1.44905E-13
 -1      1471 1.55253E-02-6.73983E-03-1.51583E-13
 -1      1472 1.56682E-02-6.82104E-03-1.54264E-13
 -1      1473 1.53836E-02-6.66211E-03-1.50234E-13
 -1      1474 1.58110E-02-6.90226E-03-1.56951E-13
 -1      1475 1.59539E-02-6.98347E-03-1.59645E-13
 -1      1476 1.56693E-02-6.82454E-03-1.55592E-13
 -1      1477 1.60967E-02-7.06469E-03-1.62350E-13
 -1      1478 1.62396E-02-7.14590E-03-1.65068E-13
 -1      1479 1.59550E-02-6.98696E-03-1.60987E-13
 -1      1480 1.64386E-02-7.25935E-03-1.69022E-13
 -1      1481 6.62740E-04 4.00174E-04-1.14763E-16
 -1      1482 5.09228E-04 3.25103E-04-3.85569E-17
 -1      1483 4.58601E-04 2.85879E-04-7.39290E-17
 -1      1484 9.51136E-04 5.12750E-04-3.94135E-16
 -1      1485 8.09592E-04 4.61121E-04-2.33415E-16
 -1      1486 7.64872E-04 4.24282E-04-2.75320E-16
 -1      1487 1.22229E-03 5.92905E-04-8.43306E-16
 -1      1488 1.08842E-03 5.56276E-04-5.96894E-16
 -1      1489 1.05258E-03 5.22356E-04-6.43799E-16
 -1      1490 1.48096E-03 6.47914E-04-1.46602E-15
 -1      1491 1.35296E-03 6.23477E-04-1.13277E-15
 -1      1492 1.32592E-03 5.92033E-04-1.18166E-15
 -1      1493 1.72949E-03 6.78578E-04-2.26455E-15
 -1      1494 1.60636E-03 6.66434E-04-1.84320E-15
 -1      1495 1.58816E-03 6.37274E-04-1.89254E-15
 -1      1496 1.96975E-03 6.82448E-04-3.24134E-15
 -1      1497 1.85051E-03 6.84067E-04-2.73062E-15
 -1      1498 1.84152E-03 6.57116E-04-2.77901E-15
 -1      1499 2.20431E-03 6.56127E-04-4.39347E-15
 -1      1500 2.08754E-03 6.73208E-04-3.79538E-15
 -1      1501 2.08818E-03 6.48346E-04-3.84217E-15
 -1      1502 2.43667E-03 5.97234E-04-5.72322E-15
 -1      1503 2.32051E-03 6.30753E-04-5.03617E-15
 -1      1504 2.33090E-03 6.07696E-04-5.08128E-15
 -1      1505 2.67089E-03 5.05841E-04-7.22749E-15
 -1      1506 2.55328E-03 5.55416E-04-6.45373E-15
 -1      1507 2.57307E-03 5.33696E-04-6.49640E-15
 -1      1508 2.91083E-03 3.85010E-04-8.90642E-15
 -1      1509 2.78992E-03 4.48758E-04-8.04544E-15
 -1      1510 2.81820E-03 4.27790E-04-8.08622E-15
 -1      1511 3.15936E-03 2.40325E-04-1.07569E-14
 -1      1512 3.03388E-03 3.15210E-04-9.81021E-15
 -1      1513 3.06928E-03 2.94412E-04-9.84870E-15
 -1      1514 3.41786E-03 7.86858E-05-1.27732E-14
 -1      1515 3.28732E-03 1.61179E-04-1.17443E-14
 -1      1516 3.32821E-03 1.40088E-04-1.17793E-14
 -1      1517 3.68623E-03-9.30784E-05-1.49519E-14
 -1      1518 3.55086E-03-6.31150E-06-1.38431E-14
 -1      1519 3.59556E-03-2.79844E-05-1.38745E-14
 -1      1520 3.96319E-03-2.69274E-04-1.72898E-14
 -1      1521 3.82374E-03-1.80900E-04-1.61009E-14
 -1      1522 3.87076E-03-2.03264E-04-1.61296E-14
 -1      1523 4.24683E-03-4.45860E-04-1.97811E-14
 -1      1524 4.10431E-03-3.57689E-04-1.85166E-14
 -1      1525 4.15246E-03-3.80713E-04-1.85414E-14
 -1      1526 4.53507E-03-6.20447E-04-2.24193E-14
 -1      1527 4.39051E-03-5.33484E-04-2.10818E-14
 -1      1528 4.43893E-03-5.57054E-04-2.11024E-14
 -1      1529 4.82602E-03-7.91987E-04-2.52038E-14
 -1      1530 4.68032E-03-7.06616E-04-2.37934E-14
 -1      1531 4.72850E-03-7.30583E-04-2.38097E-14
 -1      1532 5.11819E-03-9.60350E-04-2.81286E-14
 -1      1533 4.97204E-03-8.76548E-04-2.66487E-14
 -1      1534 5.01973E-03-9.00766E-04-2.66602E-14
 -1      1535 5.41051E-03-1.12592E-03-3.11891E-14
 -1      1536 5.26439E-03-1.04345E-03-2.96420E-14
 -1      1537 5.31152E-03-1.06780E-03-2.96489E-14
 -1      1538 5.70233E-03-1.28932E-03-3.43781E-14
 -1      1539 5.55652E-03-1.20786E-03-3.27680E-14
 -1      1540 5.60313E-03-1.23224E-03-3.27700E-14
 -1      1541 5.99328E-03-1.45119E-03-3.76913E-14
 -1      1542 5.84793E-03-1.37041E-03-3.60197E-14
 -1      1543 5.89412E-03-1.39477E-03-3.60173E-14
 -1      1544 6.28325E-03-1.61210E-03-4.11197E-14
 -1      1545 6.13839E-03-1.53173E-03-3.93917E-14
 -1      1546 6.18429E-03-1.55603E-03-3.93842E-14
 -1      1547 6.57226E-03-1.77249E-03-4.46612E-14
 -1      1548 6.42787E-03-1.69234E-03-4.28768E-14
 -1      1549 6.47357E-03-1.71655E-03-4.28660E-14
 -1      1550 6.86041E-03-1.93271E-03-4.83067E-14
 -1      1551 6.71643E-03-1.85261E-03-4.64709E-14
 -1      1552 6.76202E-03-1.87674E-03-4.64560E-14
 -1      1553 7.14783E-03-2.09296E-03-5.20630E-14
 -1      1554 7.00420E-03-2.01282E-03-5.01705E-14
 -1      1555 7.04975E-03-2.03688E-03-5.01556E-14
 -1      1556 7.43468E-03-2.25340E-03-5.59405E-14
 -1      1557 7.29132E-03-2.17315E-03-5.39869E-14
 -1      1558 7.33688E-03-2.19715E-03-5.39705E-14
 -1      1559 7.72110E-03-2.41407E-03-5.99384E-14
 -1      1560 7.57794E-03-2.33370E-03-5.79237E-14
 -1      1561 7.62353E-03-2.35764E-03-5.79022E-14
 -1      1562 8.00719E-03-2.57502E-03-6.40497E-14
 -1      1563 7.86418E-03-2.49451E-03-6.19796E-14
 -1      1564 7.90983E-03-2.51840E-03-6.19500E-14
 -1      1565 8.29307E-03-2.73623E-03-6.82705E-14
 -1      1566 8.15015E-03-2.65560E-03-6.61471E-14
 -1      1567 8.19586E-03-2.67945E-03-6.61104E-14
 -1      1568 8.57879E-03-2.89769E-03-7.25950E-14
 -1      1569 8.43594E-03-2.81693E-03-7.04197E-14
 -1      1570 8.48171E-03-2.84076E-03-7.03759E-14
 -1      1571 8.86442E-03-3.05935E-03-7.70147E-14
 -1      1572 8.72161E-03-2.97849E-03-7.47937E-14
 -1      1573 8.76744E-03-3.00230E-03-7.47422E-14
 -1      1574 9.15000E-03-3.22120E-03-8.15197E-14
 -1      1575 9.00721E-03-3.14025E-03-7.92577E-14
 -1      1576 9.05309E-03-3.16405E-03-7.91977E-14
 -1      1577 9.43556E-03-3.38319E-03-8.61086E-14
 -1      1578 9.29278E-03-3.30218E-03-8.38043E-14
 -1      1579 9.33870E-03-3.32596E-03-8.37377E-14
 -1      1580 9.72111E-03-3.54530E-03-9.07802E-14
 -1      1581 9.57833E-03-3.46423E-03-8.84321E-14
 -1      1582 9.62429E-03-3.48801E-03-8.83642E-14
 -1      1583 1.00067E-02-3.70750E-03-9.55484E-14
 -1      1584 9.86389E-03-3.62639E-03-9.31531E-14
 -1      1585 9.90988E-03-3.65016E-03-9.30806E-14
 -1      1586 1.02923E-02-3.86977E-03-1.00415E-13
 -1      1587 1.01495E-02-3.78863E-03-9.79707E-14
 -1      1588 1.01955E-02-3.81240E-03-9.78885E-14
 -1      1589 1.05778E-02-4.03210E-03-1.05350E-13
 -1      1590 1.04350E-02-3.95093E-03-1.02874E-13
 -1      1591 1.04811E-02-3.97470E-03-1.02782E-13
 -1      1592 1.08635E-02-4.19446E-03-1.10352E-13
 -1      1593 1.07207E-02-4.11328E-03-1.07842E-13
 -1      1594 1.07667E-02-4.13705E-03-1.07747E-13
 -1      1595 1.11491E-02-4.35685E-03-1.15435E-13
 -1      1596 1.10063E-02-4.27566E-03-1.12884E-13
 -1      1597 1.10523E-02-4.29943E-03-1.12786E-13
 -1      1598 1.14347E-02-4.51926E-03-1.20589E-13
 -1      1599 1.12919E-02-4.43806E-03-1.18002E-13
 -1      1600 1.13380E-02-4.46183E-03-1.17899E-13
 -1      1601 1.17204E-02-4.68168E-03-1.25806E-13
 -1      1602 1.15776E-02-4.60047E-03-1.23190E-13
 -1      1603 1.16236E-02-4.62425E-03-1.23082E-13
 -1      1604 1.20061E-02-4.84411E-03-1.31089E-13
 -1      1605 1.18632E-02-4.76290E-03-1.28440E-13
 -1      1606 1.19093E-02-4.78667E-03-1.28325E-13
 -1      1607 1.22918E-02-5.00655E-03-1.36411E-13
 -1      1608 1.21489E-02-4.92533E-03-1.33748E-13
 -1      1609 1.21950E-02-4.94910E-03-1.33620E-13
 -1      1610 1.25775E-02-5.16898E-03-1.41745E-13
 -1      1611 1.24346E-02-5.08776E-03-1.39078E-13
 -1      1612 1.24807E-02-5.11154E-03-1.38945E-13
 -1      1613 1.28632E-02-5.33141E-03-1.47091E-13
 -1      1614 1.27203E-02-5.25020E-03-1.44415E-13
 -1      1615 1.27664E-02-5.27397E-03-1.44282E-13
 -1      1616 1.31489E-02-5.49384E-03-1.52460E-13
 -1      1617 1.30060E-02-5.41263E-03-1.49772E-13
 -1      1618 1.30521E-02-5.43641E-03-1.49637E-13
 -1      1619 1.34346E-02-5.65627E-03-1.57845E-13
 -1      1620 1.32917E-02-5.57506E-03-1.55151E-13
 -1      1621 1.33378E-02-5.59883E-03-1.55015E-13
 -1      1622 1.37203E-02-5.81869E-03-1.63242E-13
 -1      1623 1.35774E-02-5.73748E-03-1.60540E-13
 -1      1624 1.36235E-02-5.76126E-03-1.60406E-13
 -1      1625 1.38898E-02-5.91421E-03-1.66100E-13
 -1      1626 1.41014E-02-6.02639E-03-1.66710E-13
 -1      1627 1.40216E-02-5.98424E-03-1.66559E-13
 -1      1628 1.42611E-02-6.11067E-03-1.66998E-13
 -1      1629 1.41813E-02-6.06853E-03-1.66856E-13
 -1      1630 1.40177E-02-5.97713E-03-1.64437E-13
 -1      1631 1.44209E-02-6.19496E-03-1.67275E-13
 -1      1632 1.43410E-02-6.15282E-03-1.67137E-13
 -1      1633 1.41774E-02-6.06142E-03-1.64726E-13
 -1      1634 1.45806E-02-6.27926E-03-1.67545E-13
 -1      1635 1.45007E-02-6.23711E-03-1.67410E-13
 -1      1636 1.43371E-02-6.14571E-03-1.65007E-13
 -1      1637 1.47376E-02-6.36213E-03-1.67816E-13
 -1      1638 1.46591E-02-6.32069E-03-1.67679E-13
 -1      1639 1.44954E-02-6.22929E-03-1.65280E-13
 -1      1640 1.48973E-02-6.44643E-03-1.68081E-13
 -1      1641 1.48174E-02-6.40428E-03-1.67952E-13
 -1      1642 1.46538E-02-6.31287E-03-1.65548E-13
 -1      1643 1.50570E-02-6.53073E-03-1.68323E-13
 -1      1644 1.49771E-02-6.48858E-03-1.68204E-13
 -1      1645 1.48135E-02-6.39717E-03-1.65801E-13
 -1      1646 1.52167E-02-6.61503E-03-1.68533E-13
 -1      1647 1.51368E-02-6.57288E-03-1.68432E-13
 -1      1648 1.49732E-02-6.48148E-03-1.66031E-13
 -1      1649 1.53764E-02-6.69934E-03-1.68697E-13
 -1      1650 1.52966E-02-6.65719E-03-1.68622E-13
 -1      1651 1.51329E-02-6.56578E-03-1.66230E-13
 -1      1652 1.55362E-02-6.78364E-03-1.68828E-13
 -1      1653 1.54563E-02-6.74149E-03-1.68766E-13
 -1      1654 1.52926E-02-6.65008E-03-1.66389E-13
 -1      1655 1.56932E-02-6.86651E-03-1.68946E-13
 -1      1656 1.56147E-02-6.82507E-03-1.68889E-13
 -1      1657 1.54510E-02-6.73367E-03-1.66517E-13
 -1      1658 1.58529E-02-6.95081E-03-1.69049E-13
 -1      1659 1.57730E-02-6.90866E-03-1.69002E-13
 -1      1660 1.56094E-02-6.81725E-03-1.66626E-13
 -1      1661 1.60126E-02-7.03510E-03-1.69126E-13
 -1      1662 1.59328E-02-6.99295E-03-1.69091E-13
 -1      1663 1.57691E-02-6.90154E-03-1.66717E-13
 -1      1664 1.61724E-02-7.11939E-03-1.69183E-13
 -1      1665 1.60925E-02-7.07724E-03-1.69156E-13
 -1      1666 1.59289E-02-6.98584E-03-1.66785E-13
 -1      1667 5.66712E-03-9.14407E-04-1.06706E-14
 -1      1668 5.73965E-03-9.65229E-04-1.07097E-14
 -1      1669 5.41653E-03-7.84549E-04-1.04249E-14
 -1      1670 5.54759E-03-8.48210E-04-1.05635E-14
 -1      1671 5.05741E-03-6.16629E-04-9.97522E-15
 -1      1672 5.23550E-03-6.99138E-04-1.02057E-14
 -1      1673 4.61746E-03-4.25446E-04-9.38586E-15
 -1      1674 4.82129E-03-5.22464E-04-9.69754E-15
 -1      1675 4.20251E-03-2.17822E-04-8.62930E-15
 -1      1676 4.39517E-03-3.06962E-04-8.96238E-15
 -1      1677 3.75277E-03-3.38134E-05-7.82236E-15
 -1      1678 3.95594E-03-1.18195E-04-8.21974E-15
 -1      1679 3.35361E-03 9.38247E-05-6.97863E-15
 -1      1680 3.53550E-03 4.40684E-05-7.34981E-15
 -1      1681 2.94986E-03 1.51848E-04-6.14805E-15
 -1      1682 3.13542E-03 1.35487E-04-6.53373E-15
 -1      1683 2.52893E-03 1.26588E-04-5.29974E-15
 -1      1684 2.72459E-03 1.51803E-04-5.68439E-15
 -1      1685 2.12049E-03 2.92523E-05-4.59661E-15
 -1      1686 2.29958E-03 7.87908E-05-4.90038E-15
 -1      1687 1.73543E-03-9.75462E-05-4.01053E-15
 -1      1688 1.91080E-03-3.62826E-05-4.26749E-15
 -1      1689 1.38274E-03-2.32825E-04-3.52959E-15
 -1      1690 1.54135E-03-1.72706E-04-3.73193E-15
 -1      1691 1.09096E-03-3.52289E-04-3.17321E-15
 -1      1692 1.21587E-03-3.02268E-04-3.31615E-15
 -1      1693 8.97582E-04-4.41774E-04-2.97559E-15
 -1      1694 9.70753E-04-4.00011E-04-3.05913E-15
 -1      1695 8.34331E-04-5.29520E-04-2.88612E-15
 -1      1696 8.47057E-04-4.89531E-04-2.91218E-15
 -1      1697 9.12499E-04-6.32226E-04-2.90963E-15
 -1      1698 8.57751E-04-5.81247E-04-2.87875E-15
 -1      1699 1.13303E-03-7.83112E-04-3.07614E-15
 -1      1700 1.01492E-03-7.09241E-04-2.98871E-15
 -1      1701 1.45885E-03-9.89871E-04-3.35554E-15
 -1      1702 1.29630E-03-8.90400E-04-3.21708E-15
 -1      1703 1.93083E-03-1.24920E-03-3.73668E-15
 -1      1704 1.70890E-03-1.10740E-03-3.52209E-15
 -1      1705 2.37441E-03-1.57115E-03-4.30000E-15
 -1      1706 2.16223E-03-1.43475E-03-4.04985E-15
 -1      1707 2.85735E-03-1.84795E-03-4.92206E-15
 -1      1708 2.64218E-03-1.72311E-03-4.61103E-15
 -1      1709 3.28462E-03-2.03241E-03-5.63883E-15
 -1      1710 3.08876E-03-1.96306E-03-5.31161E-15
 -1      1711 3.73116E-03-2.08996E-03-6.44913E-15
 -1      1712 3.52347E-03-2.08270E-03-6.05806E-15
 -1      1713 4.16778E-03-2.00229E-03-7.29237E-15
 -1      1714 3.96999E-03-2.05704E-03-6.90772E-15
 -1      1715 4.58611E-03-1.82561E-03-8.10371E-15
 -1      1716 4.39486E-03-1.91506E-03-7.73687E-15
 -1      1717 4.98018E-03-1.61796E-03-8.86350E-15
 -1      1718 4.80241E-03-1.71515E-03-8.52286E-15
 -1      1719 5.33108E-03-1.41389E-03-9.57599E-15
 -1      1720 5.17338E-03-1.50405E-03-9.26855E-15
 -1      1721 5.61093E-03-1.24648E-03-1.01543E-14
 -1      1722 5.49415E-03-1.31891E-03-9.90813E-15
 -1      1723 5.76343E-03-1.12710E-03-1.05057E-14
 -1      1724 5.71013E-03-1.17848E-03-1.03597E-14
 -1      1725 5.78654E-03-1.02324E-03-1.07283E-14
 -1      1726 5.79292E-03-1.06943E-03-1.06635E-14
 -1      1727 1.62968E-02-7.18163E-03-1.67644E-13
 -1      1728 5.29617E-03-8.12357E-04-1.06975E-14
 -1      1729 1.39359E-02-5.93799E-03-1.65965E-13
 -1      1730 1.38521E-02-5.88873E-03-1.63697E-13
 -1      1731 5.77333E-03-1.01789E-03-1.11689E-14
 -1      1732 5.60377E-03-9.34468E-04-1.10377E-14
 -1      1733 1.63321E-02-7.20367E-03-1.69223E-13
 -1      1734 1.62522E-02-7.16153E-03-1.69203E-13
 -1      1735 1.60886E-02-7.07012E-03-1.66834E-13
 -1      1736 4.87918E-03-6.40900E-04-1.01815E-14
 -1      1737 4.43332E-03-4.21193E-04-9.45603E-15
 -1      1738 3.99200E-03-1.88899E-04-8.60656E-15
 -1      1739 3.58668E-03 1.00604E-05-7.70987E-15
 -1      1740 3.20910E-03 1.39814E-04-6.78835E-15
 -1      1741 2.83626E-03 1.79047E-04-5.88299E-15
 -1      1742 2.45949E-03 1.14458E-04-5.03577E-15
 -1      1743 2.06820E-03-1.77130E-05-4.32743E-15
 -1      1744 1.68716E-03-1.71088E-04-3.74176E-15
 -1      1745 1.33138E-03-3.13384E-04-3.27307E-15
 -1      1746 1.04152E-03-4.11711E-04-2.96710E-15
 -1      1747 8.66470E-04-4.77302E-04-2.80075E-15
 -1      1748 8.37868E-04-5.33221E-04-2.73208E-15
 -1      1749 9.69527E-04-6.12104E-04-2.79603E-15
 -1      1750 1.24700E-03-7.57850E-04-3.00103E-15
 -1      1751 1.66115E-03-9.69570E-04-3.28905E-15
 -1      1752 2.13265E-03-1.27304E-03-3.73452E-15
 -1      1753 2.60895E-03-1.62273E-03-4.33808E-15
 -1      1754 3.04048E-03-1.91489E-03-5.01715E-15
 -1      1755 3.44194E-03-2.09113E-03-5.81693E-15
 -1      1756 3.83050E-03-2.10417E-03-6.69622E-15
 -1      1757 4.22896E-03-1.96575E-03-7.61208E-15
 -1      1758 4.62931E-03-1.74798E-03-8.49502E-15
 -1      1759 5.02192E-03-1.51432E-03-9.34126E-15
 -1      1760 5.37892E-03-1.31331E-03-1.01011E-14
 -1      1761 5.64908E-03-1.17524E-03-1.06561E-14
 -1      1762 5.78600E-03-1.08525E-03-1.10280E-14
 -1      1763 3.42652E-04-1.32545E-04-5.04425E-17
 -1      1764 3.09898E-04-5.90205E-05-1.89464E-16
 -1      1765 3.37357E-04-6.65354E-05-1.76251E-16
 -1      1766 3.69421E-04-8.16298E-05-1.60408E-16
 -1      1767 4.04458E-04-1.05531E-04-1.38520E-16
 -1      1768 4.75184E-04-1.11183E-04-2.54828E-16
 -1      1769 2.50780E-04-7.40849E-05-2.18033E-16
 -1      1770 2.56872E-04-6.70038E-05-2.13412E-16
 -1      1771 2.54353E-04-8.57510E-05-2.24064E-16
 -1      1772 2.50256E-04-8.09567E-05-2.21448E-16
 -1      1773 3.29665E-04-1.08140E-04-3.23797E-16
 -1      1774 2.73070E-04-8.58617E-05-2.27059E-16
 -1      1775 2.62651E-04-8.76259E-05-2.25934E-16
 -1      1776 3.43297E-04-1.16039E-04-3.31359E-16
 -1      1777 2.97293E-04-7.10466E-05-2.27669E-16
 -1      1778 2.85251E-04-8.02505E-05-2.27628E-16
 -1      1779 3.74811E-04-1.07627E-04-3.35005E-16
 -1      1780 3.19236E-04-4.35213E-05-2.26192E-16
 -1      1781 3.09032E-04-5.85427E-05-2.27262E-16
 -1      1782 4.10128E-04-8.10951E-05-3.35574E-16
 -1      1783 3.34865E-04-8.16099E-06-2.23251E-16
 -1      1784 3.27986E-04-2.64433E-05-2.25013E-16
 -1      1785 4.39284E-04-4.08058E-05-3.33568E-16
 -1      1786 3.43591E-04 2.96878E-05-2.17125E-16
 -1      1787 3.39967E-04 1.06531E-05-2.20716E-16
 -1      1788 4.58202E-04 6.49280E-06-3.28540E-16
 -1      1789 3.47381E-04 6.84246E-05-2.07462E-16
 -1      1790 3.45916E-04 4.91859E-05-2.13086E-16
 -1      1791 4.67851E-04 5.61102E-05-3.19420E-16
 -1      1792 3.48859E-04 1.06671E-04-1.91172E-16
 -1      1793 3.48116E-04 8.76610E-05-2.00564E-16
 -1      1794 4.71355E-04 1.05924E-04-3.04241E-16
 -1      1795 3.51996E-04 1.46268E-04-1.64731E-16
 -1      1796 3.49820E-04 1.26237E-04-1.79856E-16
 -1      1797 4.73083E-04 1.55671E-04-2.79331E-16
 -1      1798 3.64275E-04 1.93026E-04-1.22542E-16
 -1      1799 3.56190E-04 1.68454E-04-1.46530E-16
 -1      1800 4.79273E-04 2.08616E-04-2.39920E-16
 -1      1801 4.20180E-04 2.52182E-04-9.32278E-17
 -1      1802 3.90123E-04 2.19706E-04-1.12865E-16
 -1      1803 5.12465E-04 2.65989E-04-2.04088E-16
 -1      1804 5.75021E-04 3.27895E-04-1.74787E-16
 -1      1805 4.04678E-04-1.29952E-04-9.45695E-17
 -1      1806 8.75817E-04 4.45957E-04-4.63225E-16
 -1      1807 7.27038E-04 3.91540E-04-2.98711E-16
 -1      1808 6.93758E-04 3.59368E-04-3.17305E-16
 -1      1809 9.66139E-04-2.99777E-04-4.71059E-16
 -1      1810 1.15209E-03-3.60331E-04-6.66703E-16
 -1      1811 1.34017E-03-4.29741E-04-9.00037E-16
 -1      1812 1.53227E-03-5.13413E-04-1.17275E-15
 -1      1813 1.14670E-03-3.48961E-04-8.27490E-16
 -1      1814 1.73174E-03-6.16359E-04-1.48410E-15
 -1      1815 1.93704E-03-7.47223E-04-1.83778E-15
 -1      1816 1.50194E-03-5.07576E-04-1.37816E-15
 -1      1817 2.12243E-03-8.81328E-04-2.17105E-15
 -1      1818 2.31101E-03-1.04307E-03-2.53671E-15
 -1      1819 1.86060E-03-7.29758E-04-2.02666E-15
 -1      1820 2.98605E-03-1.71006E-03-3.96616E-15
 -1      1821 3.19741E-03-1.91780E-03-4.52839E-15
 -1      1822 3.40838E-03-2.09128E-03-5.15676E-15
 -1      1823 3.62189E-03-2.18773E-03-5.85878E-15
 -1      1824 4.18091E-03-2.04723E-03-7.98766E-15
 -1      1825 4.39100E-03-1.91397E-03-8.84054E-15
 -1      1826 4.62901E-03-1.75381E-03-9.79700E-15
 -1      1827 4.86116E-03-1.61942E-03-1.08423E-14
 -1      1828 5.09033E-03-1.52093E-03-1.19317E-14
 -1      1829 5.30393E-03-1.45617E-03-1.30618E-14
 -1      1830 5.04460E-03-1.49396E-03-1.14334E-14
 -1      1831 5.51099E-03-1.42782E-03-1.42294E-14
 -1      1832 5.70650E-03-1.42718E-03-1.54324E-14
 -1      1833 5.46197E-03-1.38071E-03-1.36928E-14
 -1      1834 5.89580E-03-1.45088E-03-1.66684E-14
 -1      1835 6.07815E-03-1.49244E-03-1.79377E-14
 -1      1836 5.83000E-03-1.39098E-03-1.60958E-14
 -1      1837 6.24654E-03-1.54475E-03-1.91739E-14
 -1      1838 6.41107E-03-1.60630E-03-2.04381E-14
 -1      1839 6.16118E-03-1.47652E-03-1.85652E-14
 -1      1840 6.57999E-03-1.67811E-03-2.18001E-14
 -1      1841 6.74592E-03-1.75526E-03-2.31942E-14
 -1      1842 6.47770E-03-1.60473E-03-2.11571E-14
 -1      1843 6.90832E-03-1.83582E-03-2.46203E-14
 -1      1844 7.06848E-03-1.91883E-03-2.60795E-14
 -1      1845 6.79321E-03-1.75956E-03-2.39399E-14
 -1      1846 7.22586E-03-2.00326E-03-2.75720E-14
 -1      1847 7.38149E-03-2.08862E-03-2.90948E-14
 -1      1848 7.10211E-03-1.92573E-03-2.68522E-14
 -1      1849 7.53501E-03-2.17443E-03-3.06510E-14
 -1      1850 7.68718E-03-2.26041E-03-3.22392E-14
 -1      1851 7.40578E-03-2.09656E-03-2.98947E-14
 -1      1852 7.83778E-03-2.34640E-03-3.38572E-14
 -1      1853 7.98735E-03-2.43222E-03-3.55052E-14
 -1      1854 7.70521E-03-2.26866E-03-3.30624E-14
 -1      1855 8.13577E-03-2.51784E-03-3.71814E-14
 -1      1856 8.28341E-03-2.60318E-03-3.88874E-14
 -1      1857 8.00123E-03-2.44046E-03-3.63509E-14
 -1      1858 8.42289E-03-2.68400E-03-4.05338E-14
 -1      1859 8.56185E-03-2.76454E-03-4.22043E-14
 -1      1860 8.28727E-03-2.60702E-03-3.96695E-14
 -1      1861 8.70753E-03-2.84905E-03-4.39890E-14
 -1      1862 8.85278E-03-2.93325E-03-4.57992E-14
 -1      1863 8.57132E-03-2.77245E-03-4.30928E-14
 -1      1864 8.99760E-03-3.01720E-03-4.76388E-14
 -1      1865 9.14210E-03-3.10088E-03-4.95047E-14
 -1      1866 8.86109E-03-2.94097E-03-4.67116E-14
 -1      1867 9.28629E-03-3.18433E-03-5.13947E-14
 -1      1868 9.43025E-03-3.26754E-03-5.33089E-14
 -1      1869 9.14967E-03-3.10841E-03-5.04386E-14
 -1      1870 9.57400E-03-3.35055E-03-5.52483E-14
 -1      1871 9.71758E-03-3.43337E-03-5.72119E-14
 -1      1872 9.43737E-03-3.27490E-03-5.42656E-14
 -1      1873 9.86101E-03-3.51602E-03-5.91983E-14
 -1      1874 1.00043E-02-3.59851E-03-6.12089E-14
 -1      1875 9.72443E-03-3.44058E-03-5.81894E-14
 -1      1876 1.01475E-02-3.68086E-03-6.32406E-14
 -1      1877 1.02907E-02-3.76307E-03-6.52957E-14
 -1      1878 1.00110E-02-3.60559E-03-6.22059E-14
 -1      1879 1.04266E-02-3.84106E-03-6.72702E-14
 -1      1880 1.05624E-02-3.91896E-03-6.92658E-14
 -1      1881 1.02901E-02-3.76594E-03-6.62113E-14
 -1      1882 1.07054E-02-4.00087E-03-7.13876E-14
 -1      1883 1.08483E-02-4.08268E-03-7.35319E-14
 -1      1884 1.05690E-02-3.92585E-03-7.03048E-14
 -1      1885 1.09912E-02-4.16442E-03-7.56979E-14
 -1      1886 1.11341E-02-4.24609E-03-7.78871E-14
 -1      1887 1.08549E-02-4.08949E-03-7.45913E-14
 -1      1888 1.12769E-02-4.32770E-03-8.00995E-14
 -1      1889 1.14198E-02-4.40925E-03-8.23304E-14
 -1      1890 1.11407E-02-4.25283E-03-7.89686E-14
 -1      1891 1.15626E-02-4.49076E-03-8.45788E-14
 -1      1892 1.17054E-02-4.57222E-03-8.68467E-14
 -1      1893 1.14264E-02-4.41594E-03-8.34305E-14
 -1      1894 1.18482E-02-4.65364E-03-8.91349E-14
 -1      1895 1.19910E-02-4.73504E-03-9.14426E-14
 -1      1896 1.17121E-02-4.57887E-03-8.79679E-14
 -1      1897 1.21338E-02-4.81640E-03-9.37702E-14
 -1      1898 1.22766E-02-4.89774E-03-9.61207E-14
 -1      1899 1.19977E-02-4.74166E-03-9.25833E-14
 -1      1900 1.24123E-02-4.97499E-03-9.83709E-14
 -1      1901 1.25480E-02-5.05223E-03-1.00637E-13
 -1      1902 1.22762E-02-4.90027E-03-9.71628E-14
 -1      1903 1.26908E-02-5.13351E-03-1.03041E-13
 -1      1904 1.28336E-02-5.21478E-03-1.05465E-13
 -1      1905 1.25547E-02-5.05880E-03-1.01816E-13
 -1      1906 1.29764E-02-5.29604E-03-1.07910E-13
 -1      1907 1.31192E-02-5.37729E-03-1.10374E-13
 -1      1908 1.28404E-02-5.22134E-03-1.06667E-13
 -1      1909 1.32621E-02-5.45853E-03-1.12854E-13
 -1      1910 1.34049E-02-5.53977E-03-1.15354E-13
 -1      1911 1.31260E-02-5.38384E-03-1.11592E-13
 -1      1912 1.35477E-02-5.62099E-03-1.17872E-13
 -1      1913 1.36905E-02-5.70222E-03-1.20403E-13
 -1      1914 1.34117E-02-5.54631E-03-1.16594E-13
 -1      1915 1.38334E-02-5.78344E-03-1.22955E-13
 -1      1916 1.39762E-02-5.86465E-03-1.25522E-13
 -1      1917 1.36974E-02-5.70876E-03-1.21663E-13
 -1      1918 1.41191E-02-5.94587E-03-1.28102E-13
 -1      1919 1.42619E-02-6.02708E-03-1.30698E-13
 -1      1920 1.39830E-02-5.87119E-03-1.26795E-13
 -1      1921 1.43976E-02-6.10423E-03-1.33172E-13
 -1      1922 1.45333E-02-6.18138E-03-1.35656E-13
 -1      1923 1.42616E-02-6.02955E-03-1.31851E-13
 -1      1924 1.46761E-02-6.26259E-03-1.38284E-13
 -1      1925 1.48190E-02-6.34380E-03-1.40919E-13
 -1      1926 1.45401E-02-6.18791E-03-1.36954E-13
 -1      1927 1.49618E-02-6.42501E-03-1.43567E-13
 -1      1928 1.51047E-02-6.50622E-03-1.46222E-13
 -1      1929 1.48258E-02-6.35033E-03-1.42229E-13
 -1      1930 1.52475E-02-6.58743E-03-1.48885E-13
 -1      1931 1.53904E-02-6.66864E-03-1.51556E-13
 -1      1932 1.51115E-02-6.51275E-03-1.47537E-13
 -1      1933 1.55333E-02-6.74985E-03-1.54237E-13
 -1      1934 1.56761E-02-6.83107E-03-1.56927E-13
 -1      1935 1.53972E-02-6.67517E-03-1.52881E-13
 -1      1936 1.58190E-02-6.91228E-03-1.59624E-13
 -1      1937 1.59618E-02-6.99349E-03-1.62330E-13
 -1      1938 1.56830E-02-6.83760E-03-1.58257E-13
 -1      1939 1.16200E-03 5.31209E-04-9.15568E-16
 -1      1940 1.02038E-03 4.92121E-04-6.68289E-16
 -1      1941 9.90557E-04 4.61401E-04-6.87791E-16
 -1      1942 5.17245E-03-8.49754E-04-1.11345E-14
 -1      1943 5.35390E-03-9.14389E-04-1.13716E-14
 -1      1944 1.43627E-03 5.90869E-04-1.53753E-15
 -1      1945 1.30039E-03 5.64124E-04-1.20496E-15
 -1      1946 1.27629E-03 5.35529E-04-1.22320E-15
 -1      1947 1.70099E-03 6.26089E-04-2.33253E-15
 -1      1948 1.56970E-03 6.11652E-04-1.91321E-15
 -1      1949 1.55216E-03 5.85339E-04-1.92884E-15
 -1      1950 1.95808E-03 6.34497E-04-3.30355E-15
 -1      1951 1.83036E-03 6.33850E-04-2.79587E-15
 -1      1952 1.81973E-03 6.09961E-04-2.80785E-15
 -1      1953 2.20977E-03 6.12452E-04-4.44981E-15
 -1      1954 2.08441E-03 6.27450E-04-3.85446E-15
 -1      1955 2.08071E-03 6.06025E-04-3.86209E-15
 -1      1956 2.45890E-03 5.57165E-04-5.77228E-15
 -1      1957 2.33440E-03 5.88998E-04-5.08912E-15
 -1      1958 2.33741E-03 5.69860E-04-5.09185E-15
 -1      1959 2.70874E-03 4.68339E-04-7.27004E-15
 -1      1960 2.58346E-03 5.16795E-04-6.49933E-15
 -1      1961 2.59277E-03 4.99512E-04-6.49724E-15
 -1      1962 2.96238E-03 3.48874E-04-8.94143E-15
 -1      1963 2.83485E-03 4.12119E-04-8.08382E-15
 -1      1964 2.84992E-03 3.96087E-04-8.07685E-15
 -1      1965 3.22213E-03 2.04449E-04-1.07837E-14
 -1      1966 3.09134E-03 2.79367E-04-9.84167E-15
 -1      1967 3.11150E-03 2.63954E-04-9.82934E-15
 -1      1968 3.48912E-03 4.22518E-05-1.27916E-14
 -1      1969 3.35467E-03 1.25149E-04-1.17670E-14
 -1      1970 3.37915E-03 1.09838E-04-1.17503E-14
 -1      1971 3.76330E-03-1.30529E-04-1.49615E-14
 -1      1972 3.62535E-03-4.31745E-05-1.38564E-14
 -1      1973 3.65333E-03-5.87178E-05-1.38341E-14
 -1      1974 4.04376E-03-3.07878E-04-1.72899E-14
 -1      1975 3.90285E-03-2.18889E-04-1.61063E-14
 -1      1976 3.93344E-03-2.34821E-04-1.60781E-14
 -1      1977 4.32906E-03-4.85525E-04-1.97710E-14
 -1      1978 4.18593E-03-3.96815E-04-1.85117E-14
 -1      1979 4.21831E-03-4.13159E-04-1.84788E-14
 -1      1980 4.61770E-03-6.60960E-04-2.24000E-14
 -1      1981 4.47309E-03-5.73584E-04-2.10675E-14
 -1      1982 4.50655E-03-5.90283E-04-2.10285E-14
 -1      1983 4.90827E-03-8.33096E-04-2.51741E-14
 -1      1984 4.76285E-03-7.47447E-04-2.37692E-14
 -1      1985 4.79682E-03-7.64414E-04-2.37249E-14
 -1      1986 5.19969E-03-1.00182E-03-2.80872E-14
 -1      1987 5.05396E-03-9.17858E-04-2.66131E-14
 -1      1988 5.08807E-03-9.35001E-04-2.65628E-14
 -1      1989 5.49118E-03-1.16756E-03-3.11367E-14
 -1      1990 5.34548E-03-1.08502E-03-2.95951E-14
 -1      1991 5.37949E-03-1.10226E-03-2.95384E-14
 -1      1992 5.78221E-03-1.33099E-03-3.43156E-14
 -1      1993 5.63678E-03-1.24952E-03-3.27104E-14
 -1      1994 5.67058E-03-1.26679E-03-3.26475E-14
 -1      1995 6.07254E-03-1.49279E-03-3.76182E-14
 -1      1996 5.92748E-03-1.41205E-03-3.59522E-14
 -1      1997 5.96103E-03-1.42932E-03-3.58834E-14
 -1      1998 6.36206E-03-1.65357E-03-4.10372E-14
 -1      1999 6.21741E-03-1.57328E-03-3.93135E-14
 -1      2000 6.25073E-03-1.59051E-03-3.92394E-14
 -1      2001 6.65078E-03-1.81383E-03-4.45681E-14
 -1      2002 6.50651E-03-1.73375E-03-4.27884E-14
 -1      2003 6.53965E-03-1.75092E-03-4.27095E-14
 -1      2004 6.93877E-03-1.97390E-03-4.82100E-14
 -1      2005 6.79486E-03-1.89388E-03-4.63749E-14
 -1      2006 6.82785E-03-1.91099E-03-4.62913E-14
 -1      2007 7.22614E-03-2.13403E-03-5.19622E-14
 -1      2008 7.08253E-03-2.05395E-03-5.00717E-14
 -1      2009 7.11543E-03-2.07101E-03-4.99844E-14
 -1      2010 7.51302E-03-2.29435E-03-5.58308E-14
 -1      2011 7.36964E-03-2.21416E-03-5.38825E-14
 -1      2012 7.40249E-03-2.23117E-03-5.37902E-14
 -1      2013 7.79950E-03-2.45493E-03-5.98127E-14
 -1      2014 7.65630E-03-2.37460E-03-5.78062E-14
 -1      2015 7.68914E-03-2.39156E-03-5.77098E-14
 -1      2016 8.08568E-03-2.61580E-03-6.39110E-14
 -1      2017 7.94262E-03-2.53533E-03-6.18482E-14
 -1      2018 7.97546E-03-2.55225E-03-6.17425E-14
 -1      2019 8.37165E-03-2.77695E-03-6.81174E-14
 -1      2020 8.22869E-03-2.69634E-03-6.60011E-14
 -1      2021 8.26155E-03-2.71323E-03-6.58889E-14
 -1      2022 8.65747E-03-2.93836E-03-7.24258E-14
 -1      2023 8.51458E-03-2.85762E-03-7.02581E-14
 -1      2024 8.54746E-03-2.87449E-03-7.01388E-14
 -1      2025 8.94319E-03-3.09999E-03-7.68285E-14
 -1      2026 8.80034E-03-3.01915E-03-7.46169E-14
 -1      2027 8.83326E-03-3.03599E-03-7.44885E-14
 -1      2028 9.22886E-03-3.26181E-03-8.13210E-14
 -1      2029 9.08603E-03-3.18088E-03-7.90654E-14
 -1      2030 9.11897E-03-3.19771E-03-7.89301E-14
 -1      2031 9.51448E-03-3.42379E-03-8.59000E-14
 -1      2032 9.37167E-03-3.34278E-03-8.35988E-14
 -1      2033 9.40464E-03-3.35960E-03-8.34582E-14
 -1      2034 9.80010E-03-3.58588E-03-9.05639E-14
 -1      2035 9.65729E-03-3.50482E-03-8.82206E-14
 -1      2036 9.69029E-03-3.52164E-03-8.80748E-14
 -1      2037 1.00857E-02-3.74808E-03-9.53196E-14
 -1      2038 9.94290E-03-3.66697E-03-9.29313E-14
 -1      2039 9.97592E-03-3.68378E-03-9.27796E-14
 -1      2040 1.03713E-02-3.91035E-03-1.00164E-13
 -1      2041 1.02285E-02-3.82921E-03-9.77305E-14
 -1      2042 1.02615E-02-3.84601E-03-9.75727E-14
 -1      2043 1.06569E-02-4.07267E-03-1.05087E-13
 -1      2044 1.05141E-02-3.99150E-03-1.02616E-13
 -1      2045 1.05472E-02-4.00831E-03-1.02450E-13
 -1      2046 1.09426E-02-4.23504E-03-1.10082E-13
 -1      2047 1.07998E-02-4.15385E-03-1.07575E-13
 -1      2048 1.08328E-02-4.17065E-03-1.07403E-13
 -1      2049 1.12282E-02-4.39743E-03-1.15155E-13
 -1      2050 1.10854E-02-4.31623E-03-1.12610E-13
 -1      2051 1.11185E-02-4.33303E-03-1.12432E-13
 -1      2052 1.15139E-02-4.55984E-03-1.20298E-13
 -1      2053 1.13711E-02-4.47863E-03-1.17717E-13
 -1      2054 1.14041E-02-4.49543E-03-1.17535E-13
 -1      2055 1.17996E-02-4.72226E-03-1.25506E-13
 -1      2056 1.16567E-02-4.64105E-03-1.22895E-13
 -1      2057 1.16898E-02-4.65785E-03-1.22706E-13
 -1      2058 1.20852E-02-4.88469E-03-1.30769E-13
 -1      2059 1.19424E-02-4.80347E-03-1.28131E-13
 -1      2060 1.19755E-02-4.82028E-03-1.27935E-13
 -1      2061 1.23709E-02-5.04712E-03-1.36074E-13
 -1      2062 1.22281E-02-4.96591E-03-1.33419E-13
 -1      2063 1.22612E-02-4.98271E-03-1.33216E-13
 -1      2064 1.26566E-02-5.20956E-03-1.41403E-13
 -1      2065 1.25138E-02-5.12834E-03-1.38738E-13
 -1      2066 1.25469E-02-5.14514E-03-1.38529E-13
 -1      2067 1.29423E-02-5.37199E-03-1.46746E-13
 -1      2068 1.27995E-02-5.29078E-03-1.44071E-13
 -1      2069 1.28326E-02-5.30758E-03-1.43862E-13
 -1      2070 1.32280E-02-5.53442E-03-1.52112E-13
 -1      2071 1.30852E-02-5.45321E-03-1.49426E-13
 -1      2072 1.31183E-02-5.47001E-03-1.49215E-13
 -1      2073 1.35138E-02-5.69685E-03-1.57497E-13
 -1      2074 1.33709E-02-5.61564E-03-1.54803E-13
 -1      2075 1.34040E-02-5.63244E-03-1.54590E-13
 -1      2076 1.37543E-02-5.83340E-03-1.61945E-13
 -1      2077 1.36115E-02-5.75219E-03-1.59247E-13
 -1      2078 1.36446E-02-5.76899E-03-1.59034E-13
 -1      2079 1.38401E-02-5.87966E-03-1.62537E-13
 -1      2080 1.42533E-02-6.09646E-03-1.62744E-13
 -1      2081 1.41734E-02-6.05431E-03-1.62603E-13
 -1      2082 1.40936E-02-6.01216E-03-1.62461E-13
 -1      2083 1.40137E-02-5.97002E-03-1.62315E-13
 -1      2084 1.40098E-02-5.96291E-03-1.60196E-13
 -1      2085 1.39668E-02-5.94591E-03-1.62500E-13
 -1      2086 1.38870E-02-5.90376E-03-1.62353E-13
 -1      2087 1.37892E-02-5.84843E-03-1.60603E-13
 -1      2088 1.38830E-02-5.89665E-03-1.60236E-13
 -1      2089 1.44103E-02-6.17932E-03-1.63012E-13
 -1      2090 1.43318E-02-6.13789E-03-1.62878E-13
 -1      2091 1.41681E-02-6.04649E-03-1.60475E-13
 -1      2092 1.45700E-02-6.26362E-03-1.63279E-13
 -1      2093 1.44901E-02-6.22147E-03-1.63148E-13
 -1      2094 1.43265E-02-6.13007E-03-1.60744E-13
 -1      2095 1.47297E-02-6.34792E-03-1.63521E-13
 -1      2096 1.46498E-02-6.30577E-03-1.63401E-13
 -1      2097 1.44862E-02-6.21436E-03-1.61001E-13
 -1      2098 1.48894E-02-6.43222E-03-1.63743E-13
 -1      2099 1.48095E-02-6.39007E-03-1.63635E-13
 -1      2100 1.46459E-02-6.29866E-03-1.61237E-13
 -1      2101 1.50491E-02-6.51652E-03-1.63931E-13
 -1      2102 1.49693E-02-6.47437E-03-1.63841E-13
 -1      2103 1.48056E-02-6.38297E-03-1.61450E-13
 -1      2104 1.52089E-02-6.60082E-03-1.64084E-13
 -1      2105 1.51290E-02-6.55867E-03-1.64012E-13
 -1      2106 1.49653E-02-6.46727E-03-1.61630E-13
 -1      2107 1.53659E-02-6.68369E-03-1.64203E-13
 -1      2108 1.52874E-02-6.64226E-03-1.64145E-13
 -1      2109 1.51237E-02-6.55085E-03-1.61774E-13
 -1      2110 1.55256E-02-6.76799E-03-1.64305E-13
 -1      2111 1.54457E-02-6.72584E-03-1.64258E-13
 -1      2112 1.52821E-02-6.63444E-03-1.61887E-13
 -1      2113 1.56854E-02-6.85228E-03-1.64383E-13
 -1      2114 1.56055E-02-6.81014E-03-1.64346E-13
 -1      2115 1.54418E-02-6.71873E-03-1.61979E-13
 -1      2116 1.58451E-02-6.93657E-03-1.64446E-13
 -1      2117 1.57652E-02-6.89443E-03-1.64418E-13
 -1      2118 1.56016E-02-6.80302E-03-1.62052E-13
 -1      2119 4.73524E-03-6.57401E-04-1.04550E-14
 -1      2120 4.95666E-03-7.52222E-04-1.07540E-14
 -1      2121 1.61331E-02-7.09022E-03-1.65275E-13
 -1      2122 5.38513E-04-1.61373E-04-1.74204E-16
 -1      2123 5.75052E-03-1.03224E-03-1.17208E-14
 -1      2124 5.79720E-03-1.05024E-03-1.17413E-14
 -1      2125 2.68901E-04-6.08528E-05-2.07652E-16
 -1      2126 2.86599E-04-5.76991E-05-1.99439E-16
 -1      2127 3.96370E-04-8.99444E-05-2.89184E-16
 -1      2128 3.46148E-04-9.40915E-05-3.10732E-16
 -1      2129 4.25330E-03-3.94017E-04-9.51835E-15
 -1      2130 4.45903E-03-5.16637E-04-9.95978E-15
 -1      2131 3.84781E-03-1.62639E-04-8.65310E-15
 -1      2132 4.04875E-03-2.76593E-04-9.07843E-15
 -1      2133 4.11131E-03-3.60020E-04-9.56299E-15
 -1      2134 3.43795E-03 6.10013E-05-7.56841E-15
 -1      2135 3.60534E-03-2.89169E-05-8.04841E-15
 -1      2136 3.10814E-03 1.74486E-04-6.62908E-15
 -1      2137 3.26525E-03 1.30022E-04-7.07434E-15
 -1      2138 2.76242E-03 1.92027E-04-5.66420E-15
 -1      2139 2.92356E-03 1.99087E-04-6.11991E-15
 -1      2140 2.37935E-03 8.78109E-05-4.75000E-15
 -1      2141 2.55165E-03 1.47802E-04-5.13226E-15
 -1      2142 2.01219E-03-6.37680E-05-4.05740E-15
 -1      2143 2.18729E-03 1.37078E-05-4.36649E-15
 -1      2144 1.63404E-03-2.26700E-04-3.48295E-15
 -1      2145 1.81279E-03-1.49367E-04-3.74048E-15
 -1      2146 1.27408E-03-3.62019E-04-3.02992E-15
 -1      2147 1.43702E-03-3.04290E-04-3.22370E-15
 -1      2148 9.82355E-04-4.44391E-04-2.75983E-15
 -1      2149 1.10004E-03-4.15001E-04-2.85901E-15
 -1      2150 8.39734E-04-4.82555E-04-2.59917E-15
 -1      2151 8.91468E-04-4.69405E-04-2.65623E-15
 -1      2152 8.49067E-04-5.06931E-04-2.53135E-15
 -1      2153 8.23901E-04-4.96466E-04-2.54156E-15
 -1      2154 1.03948E-03-5.87464E-04-2.67531E-15
 -1      2155 9.30532E-04-5.47284E-04-2.60662E-15
 -1      2156 1.37733E-03-7.25314E-04-2.86815E-15
 -1      2157 1.20789E-03-6.46552E-04-2.74582E-15
 -1      2158 1.81187E-03-9.39513E-04-3.14007E-15
 -1      2159 1.58176E-03-8.24624E-04-3.00014E-15
 -1      2160 1.50325E-03-7.14501E-04-2.73046E-15
 -1      2161 2.35240E-03-1.33793E-03-3.74486E-15
 -1      2162 2.13045E-03-1.15624E-03-3.45596E-15
 -1      2163 3.19716E-03-1.98906E-03-5.14115E-15
 -1      2164 3.02242E-03-1.86360E-03-4.76426E-15
 -1      2165 3.53201E-03-2.13751E-03-5.89359E-15
 -1      2166 3.37381E-03-2.08148E-03-5.48159E-15
 -1      2167 3.91930E-03-2.10750E-03-6.98939E-15
 -1      2168 3.75809E-03-2.14825E-03-6.52270E-15
 -1      2169 4.28644E-03-1.92264E-03-7.97515E-15
 -1      2170 4.11400E-03-2.02277E-03-7.51423E-15
 -1      2171 4.68218E-03-1.67423E-03-8.92431E-15
 -1      2172 4.49779E-03-1.79438E-03-8.48513E-15
 -1      2173 5.07061E-03-1.43502E-03-9.83871E-15
 -1      2174 4.88736E-03-1.54583E-03-9.41258E-15
 -1      2175 5.43539E-03-1.24086E-03-1.07080E-14
 -1      2176 5.27387E-03-1.31946E-03-1.03565E-14
 -1      2177 5.69541E-03-1.13047E-03-1.12188E-14
 -1      2178 5.59168E-03-1.17237E-03-1.10016E-14
 -1      2179 5.80356E-03-1.07376E-03-1.15892E-14
 -1      2180 5.76896E-03-1.09477E-03-1.14263E-14
 -1      2181 5.53413E-03-9.62041E-04-1.14636E-14
 -1      2182 5.65612E-03-9.96691E-04-1.15796E-14
 -1      2183 1.59971E-02-7.01554E-03-1.63903E-13
 -1      2184 5.81094E-03-1.07223E-03-1.21391E-14
 -1      2185 5.43610E-03-9.76445E-04-1.19050E-14
 -1      2186 7.18105E-04-2.16949E-04-2.87436E-16
 -1      2187 7.42838E-04-2.07755E-04-3.93050E-16
 -1      2188 4.57132E-03-6.18616E-04-1.05132E-14
 -1      2189 2.24910E-03-1.04082E-03-2.74268E-15
 -1      2190 2.52542E-03-1.23297E-03-2.92759E-15
 -1      2191 2.73750E-03-1.45205E-03-3.39233E-15
 -1      2192 3.65802E-03-2.16926E-03-6.16055E-15
 -1      2193 3.78723E-03-2.19703E-03-6.49302E-15
 -1      2194 4.56669E-03-1.76506E-03-9.38506E-15
 -1      2195 3.97134E-03-2.15046E-03-7.16633E-15
 -1      2196 5.04943E-03-8.48024E-04-1.14116E-14
 -1      2197 2.99968E-03 1.97834E-04-6.38920E-15
 -1      2198 1.59173E-02-6.97339E-03-1.63886E-13
 -1      2199 5.70756E-03-1.04252E-03-1.21475E-14
 -1      2200 5.73876E-03-1.10877E-03-1.17746E-14
 -1      2201 5.51578E-03-1.19400E-03-1.12618E-14
 -1      2202 5.16680E-03-1.36120E-03-1.04281E-14
 -1      2203 4.77024E-03-1.59997E-03-9.40243E-15
 -1      2204 4.38106E-03-1.86098E-03-8.38405E-15
 -1      2205 4.01893E-03-2.08075E-03-7.33048E-15
 -1      2206 3.32298E-03-2.04353E-03-5.20916E-15
 -1      2207 2.00237E-03-1.01036E-03-3.14513E-15
 -1      2208 1.13624E-03-5.72649E-04-2.54681E-15
 -1      2209 8.84247E-04-4.92730E-04-2.40985E-15
 -1      2210 8.22312E-04-4.70673E-04-2.39484E-15
 -1      2211 9.27767E-04-4.55018E-04-2.54892E-15
 -1      2212 1.18322E-03-3.93665E-04-2.80915E-15
 -1      2213 1.54385E-03-2.71166E-04-3.21938E-15
 -1      2214 1.92313E-03-1.09524E-04-3.77575E-15
 -1      2215 2.28709E-03 5.35300E-05-4.45669E-15
 -1      2216 2.65725E-03 1.82564E-04-5.35412E-15
 -1      2217 2.73438E-03 2.05213E-04-5.57505E-15
 -1      2218 2.55990E-03 1.62545E-04-5.05414E-15
 -1      2219 3.69399E-03-1.02156E-04-8.49798E-15
 -1      2220 3.32018E-03 1.01118E-04-7.39537E-15
 -1      2221 1.57536E-02-6.88199E-03-1.61527E-13
 -1      2222 2.73633E-03-1.61299E-03-4.17594E-15
 -1      2223 2.67021E-03-1.50601E-03-3.86000E-15
 -1      2224 3.07453E-03-1.85714E-03-4.57934E-15
 -1      2225 2.93874E-03-1.77263E-03-4.46979E-15
 -1      2226 4.36218E-04-1.44742E-04-4.68416E-16
 -1      2227 4.18668E-04-1.46469E-04-4.64459E-16
 -1      2228 4.07695E-04-1.43366E-04-4.59241E-16
 -1      2229 4.06565E-04-1.37393E-04-4.52343E-16
 -1      2230 4.89621E-04-1.78584E-04-6.21749E-16
 -1      2231 5.31344E-04-8.44175E-05-4.76426E-16
 -1      2232 5.09249E-04-1.06774E-04-4.76737E-16
 -1      2233 5.66414E-04-3.04539E-05-4.73458E-16
 -1      2234 5.50785E-04-5.84703E-05-4.75382E-16
 -1      2235 6.61017E-04-7.94916E-05-6.45561E-16
 -1      2236 5.86956E-04 2.83348E-05-4.66383E-16
 -1      2237 5.78346E-04-1.31000E-06-4.70828E-16
 -1      2238 6.99440E-04-1.26815E-05-6.41644E-16
 -1      2239 5.96295E-04 8.90563E-05-4.52749E-16
 -1      2240 5.92776E-04 5.88308E-05-4.60461E-16
 -1      2241 7.19992E-04 5.75656E-05-6.31412E-16
 -1      2242 5.98987E-04 1.48910E-04-4.30198E-16
 -1      2243 5.98068E-04 1.19147E-04-4.42964E-16
 -1      2244 7.27592E-04 1.27649E-04-6.12154E-16
 -1      2245 6.01362E-04 2.09086E-04-3.94338E-16
 -1      2246 5.99759E-04 1.78851E-04-4.14463E-16
 -1      2247 7.28994E-04 1.96261E-04-5.80753E-16
 -1      2248 6.11994E-04 2.73535E-04-3.38786E-16
 -1      2249 6.05021E-04 2.40516E-04-3.69605E-16
 -1      2250 7.32240E-04 2.65478E-04-5.31761E-16
 -1      2251 6.63361E-04 3.29988E-04-3.26521E-16
 -1      2252 6.37031E-04 3.00304E-04-3.36496E-16
 -1      2253 7.61249E-04 3.28575E-04-4.99221E-16
 -1      2254 8.13979E-04 3.85210E-04-4.91604E-16
 -1      2255 9.69243E-04-2.81474E-04-7.52545E-16
 -1      2256 1.12566E-03-3.43205E-04-9.94349E-16
 -1      2257 3.23048E-03-1.97535E-03-4.89295E-15
 -1      2258 4.41881E-03-5.84979E-04-1.07015E-14
 -1      2259 4.66924E-03-7.18227E-04-1.12188E-14
 -1      2260 2.03994E-03-9.03033E-04-2.60985E-15
 -1      2261 2.25251E-03-1.08857E-03-2.99874E-15
 -1      2262 2.72505E-03-1.50152E-03-3.68905E-15
 -1      2263 1.28450E-03-4.14888E-04-1.27155E-15
 -1      2264 1.45035E-03-5.03754E-04-1.58677E-15
 -1      2265 1.08879E-03-3.41183E-04-1.16641E-15
 -1      2266 1.59943E-03-5.93370E-04-1.88364E-15
 -1      2267 1.75849E-03-7.07660E-04-2.21034E-15
 -1      2268 1.35585E-03-4.84105E-04-1.74489E-15
 -1      2269 1.10884E-03 4.73731E-04-9.41887E-16
 -1      2270 9.62394E-04 4.32757E-04-6.96234E-16
 -1      2271 9.36122E-04 4.04129E-04-7.01086E-16
 -1      2272 5.81911E-03-1.09282E-03-1.29286E-14
 -1      2273 5.82311E-03-1.09441E-03-1.27739E-14
 -1      2274 5.43544E-03-1.33295E-03-1.31588E-14
 -1      2275 5.61445E-03-1.31970E-03-1.43253E-14
 -1      2276 5.78266E-03-1.33450E-03-1.55271E-14
 -1      2277 5.94304E-03-1.36745E-03-1.67604E-14
 -1      2278 5.75177E-03-1.27929E-03-1.49615E-14
 -1      2279 6.09071E-03-1.41327E-03-1.79606E-14
 -1      2280 6.23619E-03-1.46907E-03-1.91913E-14
 -1      2281 6.03431E-03-1.35385E-03-1.73625E-14
 -1      2282 6.38711E-03-1.53602E-03-2.05173E-14
 -1      2283 6.53759E-03-1.60935E-03-2.18747E-14
 -1      2284 6.30793E-03-1.47186E-03-1.98827E-14
 -1      2285 6.68693E-03-1.68696E-03-2.32639E-14
 -1      2286 6.83629E-03-1.76788E-03-2.46846E-14
 -1      2287 6.58949E-03-1.61823E-03-2.25927E-14
 -1      2288 6.98483E-03-1.85079E-03-2.61385E-14
 -1      2289 7.13336E-03-1.93522E-03-2.76243E-14
 -1      2290 6.87418E-03-1.77877E-03-2.54302E-14
 -1      2291 7.28118E-03-2.02042E-03-2.91427E-14
 -1      2292 7.42886E-03-2.10616E-03-3.06924E-14
 -1      2293 7.16141E-03-1.94633E-03-2.83955E-14
 -1      2294 7.57590E-03-2.19205E-03-3.22734E-14
 -1      2295 7.72270E-03-2.27797E-03-3.38844E-14
 -1      2296 7.45003E-03-2.11680E-03-3.14893E-14
 -1      2297 7.86896E-03-2.36377E-03-3.55259E-14
 -1      2298 8.01495E-03-2.44937E-03-3.71961E-14
 -1      2299 7.73912E-03-2.28797E-03-3.47058E-14
 -1      2300 8.15322E-03-2.53046E-03-3.88110E-14
 -1      2301 8.29126E-03-2.61130E-03-4.04506E-14
 -1      2302 8.02089E-03-2.45448E-03-3.79566E-14
 -1      2303 8.43620E-03-2.69612E-03-4.22045E-14
 -1      2304 8.58091E-03-2.78064E-03-4.39833E-14
 -1      2305 8.30228E-03-2.62015E-03-4.13185E-14
 -1      2306 8.72533E-03-2.86489E-03-4.57886E-14
 -1      2307 8.86955E-03-2.94885E-03-4.76249E-14
 -1      2308 8.59039E-03-2.78903E-03-4.48727E-14
 -1      2309 9.01356E-03-3.03257E-03-4.94862E-14
 -1      2310 9.15740E-03-3.11603E-03-5.13728E-14
 -1      2311 8.87800E-03-2.95687E-03-4.85372E-14
 -1      2312 9.30108E-03-3.19928E-03-5.32847E-14
 -1      2313 9.44463E-03-3.28231E-03-5.52219E-14
 -1      2314 9.16516E-03-3.12374E-03-5.23078E-14
 -1      2315 9.58806E-03-3.36516E-03-5.71811E-14
 -1      2316 9.73140E-03-3.44782E-03-5.91653E-14
 -1      2317 9.45195E-03-3.28978E-03-5.61774E-14
 -1      2318 9.87464E-03-3.53033E-03-6.11730E-14
 -1      2319 1.00178E-02-3.61268E-03-6.32029E-14
 -1      2320 9.73843E-03-3.45508E-03-6.01417E-14
 -1      2321 1.01538E-02-3.69080E-03-6.51526E-14
 -1      2322 1.02897E-02-3.76881E-03-6.71251E-14
 -1      2323 1.00175E-02-3.61568E-03-6.40987E-14
 -1      2324 1.04327E-02-3.85082E-03-6.92233E-14
 -1      2325 1.05757E-02-3.93272E-03-7.13440E-14
 -1      2326 1.02964E-02-3.77579E-03-6.81428E-14
 -1      2327 1.07186E-02-4.01455E-03-7.34891E-14
 -1      2328 1.08615E-02-4.09629E-03-7.56530E-14
 -1      2329 1.05824E-02-3.93960E-03-7.23846E-14
 -1      2330 1.10044E-02-4.17796E-03-7.78410E-14
 -1      2331 1.11473E-02-4.25957E-03-8.00525E-14
 -1      2332 1.08682E-02-4.10308E-03-7.67178E-14
 -1      2333 1.12902E-02-4.34112E-03-8.22816E-14
 -1      2334 1.14331E-02-4.42263E-03-8.45305E-14
 -1      2335 1.11540E-02-4.26629E-03-8.11350E-14
 -1      2336 1.15759E-02-4.50409E-03-8.68001E-14
 -1      2337 1.17188E-02-4.58551E-03-8.90895E-14
 -1      2338 1.14398E-02-4.42930E-03-8.56333E-14
 -1      2339 1.18616E-02-4.66691E-03-9.13956E-14
 -1      2340 1.20044E-02-4.74827E-03-9.37242E-14
 -1      2341 1.17255E-02-4.59215E-03-9.02109E-14
 -1      2342 1.21401E-02-4.82554E-03-9.59556E-14
 -1      2343 1.22758E-02-4.90279E-03-9.82049E-14
 -1      2344 1.20040E-02-4.75080E-03-9.47500E-14
 -1      2345 1.24187E-02-4.98409E-03-1.00592E-13
 -1      2346 1.25615E-02-5.06537E-03-1.02997E-13
 -1      2347 1.22826E-02-4.90937E-03-9.93658E-14
 -1      2348 1.27043E-02-5.14664E-03-1.05423E-13
 -1      2349 1.28471E-02-5.22790E-03-1.07870E-13
 -1      2350 1.25682E-02-5.07194E-03-1.04182E-13
 -1      2351 1.29900E-02-5.30915E-03-1.10333E-13
 -1      2352 1.31328E-02-5.39039E-03-1.12815E-13
 -1      2353 1.28539E-02-5.23445E-03-1.09073E-13
 -1      2354 1.32757E-02-5.47162E-03-1.15315E-13
 -1      2355 1.34185E-02-5.55285E-03-1.17833E-13
 -1      2356 1.31396E-02-5.39693E-03-1.14037E-13
 -1      2357 1.35613E-02-5.63407E-03-1.20369E-13
 -1      2358 1.37042E-02-5.71529E-03-1.22920E-13
 -1      2359 1.34253E-02-5.55939E-03-1.19074E-13
 -1      2360 1.38470E-02-5.79651E-03-1.25488E-13
 -1      2361 1.39899E-02-5.87772E-03-1.28069E-13
 -1      2362 1.37110E-02-5.72182E-03-1.24178E-13
 -1      2363 1.41256E-02-5.95487E-03-1.30534E-13
 -1      2364 1.42613E-02-6.03202E-03-1.33008E-13
 -1      2365 1.39896E-02-5.88019E-03-1.29215E-13
 -1      2366 1.44041E-02-6.11323E-03-1.35624E-13
 -1      2367 1.45470E-02-6.19444E-03-1.38253E-13
 -1      2368 1.42681E-02-6.03855E-03-1.34297E-13
 -1      2369 1.46898E-02-6.27565E-03-1.40890E-13
 -1      2370 1.48327E-02-6.35686E-03-1.43536E-13
 -1      2371 1.45538E-02-6.20097E-03-1.39550E-13
 -1      2372 1.49755E-02-6.43807E-03-1.46190E-13
 -1      2373 1.51184E-02-6.51928E-03-1.48851E-13
 -1      2374 1.48395E-02-6.36338E-03-1.44842E-13
 -1      2375 1.52612E-02-6.60049E-03-1.51524E-13
 -1      2376 1.54041E-02-6.68170E-03-1.54206E-13
 -1      2377 1.51252E-02-6.52580E-03-1.50168E-13
 -1      2378 1.55074E-02-6.74124E-03-1.56512E-13
 -1      2379 1.56503E-02-6.82245E-03-1.59209E-13
 -1      2380 1.55781E-02-6.78563E-03-1.59767E-13
 -1      2381 1.53714E-02-6.66655E-03-1.55147E-13
 -1      2382 1.62113E-03 5.58926E-04-2.21256E-15
 -1      2383 1.48127E-03 5.39510E-04-1.81201E-15
 -1      2384 1.36712E-03 5.25904E-04-1.50571E-15
 -1      2385 1.22426E-03 4.95808E-04-1.18324E-15
 -1      2386 1.20170E-03 4.68290E-04-1.18460E-15
 -1      2387 1.43639E-03 5.02457E-04-1.74966E-15
 -1      2388 2.16366E-03 5.67783E-04-4.24957E-15
 -1      2389 2.03012E-03 5.77012E-04-3.67501E-15
 -1      2390 2.42808E-03 5.23764E-04-5.53026E-15
 -1      2391 2.29609E-03 5.50148E-04-4.86759E-15
 -1      2392 2.25150E-03 5.27793E-04-4.64194E-15
 -1      2393 2.69160E-03 4.44675E-04-6.98683E-15
 -1      2394 2.55966E-03 4.88579E-04-6.23676E-15
 -1      2395 2.52272E-03 4.75543E-04-5.97366E-15
 -1      2396 2.95724E-03 3.32527E-04-8.61702E-15
 -1      2397 2.82390E-03 3.92482E-04-7.78019E-15
 -1      2398 2.79356E-03 3.87318E-04-7.48114E-15
 -1      2399 3.22735E-03 1.92723E-04-1.04190E-14
 -1      2400 3.09159E-03 2.65665E-04-9.49674E-15
 -1      2401 3.06704E-03 2.66216E-04-9.16186E-15
 -1      2402 3.50304E-03 3.27559E-05-1.23865E-14
 -1      2403 3.36447E-03 1.14783E-04-1.13820E-14
 -1      2404 3.34516E-03 1.18796E-04-1.10122E-14
 -1      2405 3.78422E-03-1.39546E-04-1.45169E-14
 -1      2406 3.64301E-03-5.22901E-05-1.34321E-14
 -1      2407 3.62849E-03-4.66784E-05-1.30276E-14
 -1      2408 4.06992E-03-3.17470E-04-1.68060E-14
 -1      2409 3.92662E-03-2.28140E-04-1.56414E-14
 -1      2410 3.91632E-03-2.22195E-04-1.52043E-14
 -1      2411 4.35884E-03-4.96174E-04-1.92484E-14
 -1      2412 4.21411E-03-4.06942E-04-1.80085E-14
 -1      2413 4.20729E-03-4.01361E-04-1.75375E-14
 -1      2414 4.64966E-03-6.72756E-04-2.18397E-14
 -1      2415 4.50413E-03-5.84844E-04-2.05256E-14
 -1      2416 4.49997E-03-5.79913E-04-2.00232E-14
 -1      2417 4.94133E-03-8.45909E-04-2.45755E-14
 -1      2418 4.79548E-03-7.59800E-04-2.31898E-14
 -1      2419 4.79316E-03-7.55554E-04-2.26549E-14
 -1      2420 5.23308E-03-1.01542E-03-2.74515E-14
 -1      2421 5.08726E-03-9.31111E-04-2.59966E-14
 -1      2422 5.08606E-03-9.27457E-04-2.54298E-14
 -1      2423 5.52444E-03-1.18170E-03-3.04627E-14
 -1      2424 5.37885E-03-1.09893E-03-2.89401E-14
 -1      2425 5.37822E-03-1.09573E-03-2.83431E-14
 -1      2426 5.81512E-03-1.34544E-03-3.36064E-14
 -1      2427 5.66988E-03-1.26384E-03-3.20186E-14
 -1      2428 5.66945E-03-1.26095E-03-3.13902E-14
 -1      2429 6.10503E-03-1.50737E-03-3.68745E-14
 -1      2430 5.96018E-03-1.42659E-03-3.52246E-14
 -1      2431 5.95971E-03-1.42387E-03-3.45670E-14
 -1      2432 6.39416E-03-1.66816E-03-4.02606E-14
 -1      2433 6.24969E-03-1.58788E-03-3.85533E-14
 -1      2434 6.24908E-03-1.58523E-03-3.78676E-14
 -1      2435 6.68257E-03-1.82834E-03-4.37612E-14
 -1      2436 6.53845E-03-1.74831E-03-4.19966E-14
 -1      2437 6.53765E-03-1.74566E-03-4.12843E-14
 -1      2438 6.97035E-03-1.98828E-03-4.73747E-14
 -1      2439 6.82653E-03-1.90832E-03-4.55535E-14
 -1      2440 6.82556E-03-1.90563E-03-4.48158E-14
 -1      2441 7.25759E-03-2.14826E-03-5.10975E-14
 -1      2442 7.11403E-03-2.06826E-03-4.92212E-14
 -1      2443 7.11291E-03-2.06548E-03-4.84579E-14
 -1      2444 7.54441E-03-2.30842E-03-5.49351E-14
 -1      2445 7.40105E-03-2.22831E-03-5.30024E-14
 -1      2446 7.39982E-03-2.22543E-03-5.22136E-14
 -1      2447 7.83088E-03-2.46886E-03-5.88817E-14
 -1      2448 7.68768E-03-2.38860E-03-5.68950E-14
 -1      2449 7.68639E-03-2.38563E-03-5.60801E-14
 -1      2450 8.11710E-03-2.62959E-03-6.29444E-14
 -1      2451 7.97402E-03-2.54919E-03-6.08990E-14
 -1      2452 7.97269E-03-2.54612E-03-6.00571E-14
 -1      2453 8.40313E-03-2.79063E-03-6.71150E-14
 -1      2454 8.26013E-03-2.71008E-03-6.50166E-14
 -1      2455 8.25880E-03-2.70692E-03-6.41449E-14
 -1      2456 8.68901E-03-2.95195E-03-7.13873E-14
 -1      2457 8.54608E-03-2.87126E-03-6.92388E-14
 -1      2458 8.54476E-03-2.86803E-03-6.83407E-14
 -1      2459 8.97481E-03-3.11351E-03-7.57577E-14
 -1      2460 8.83192E-03-3.03270E-03-7.35611E-14
 -1      2461 8.83061E-03-3.02941E-03-7.26368E-14
 -1      2462 9.26053E-03-3.27527E-03-8.02191E-14
 -1      2463 9.11768E-03-3.19436E-03-7.79763E-14
 -1      2464 9.11639E-03-3.19102E-03-7.70267E-14
 -1      2465 9.54622E-03-3.43720E-03-8.47676E-14
 -1      2466 9.40338E-03-3.35621E-03-8.24813E-14
 -1      2467 9.40213E-03-3.35283E-03-8.15073E-14
 -1      2468 9.83189E-03-3.59926E-03-8.94048E-14
 -1      2469 9.68906E-03-3.51822E-03-8.70756E-14
 -1      2470 9.68783E-03-3.51480E-03-8.60764E-14
 -1      2471 1.01175E-02-3.76143E-03-9.41301E-14
 -1      2472 9.97472E-03-3.68034E-03-9.17561E-14
 -1      2473 9.97351E-03-3.67690E-03-9.07356E-14
 -1      2474 1.04032E-02-3.92369E-03-9.89437E-14
 -1      2475 1.02604E-02-3.84255E-03-9.65265E-14
 -1      2476 1.02592E-02-3.83909E-03-9.54829E-14
 -1      2477 1.06889E-02-4.08600E-03-1.03836E-13
 -1      2478 1.05460E-02-4.00483E-03-1.01380E-13
 -1      2479 1.05449E-02-4.00136E-03-1.00314E-13
 -1      2480 1.09745E-02-4.24835E-03-1.08806E-13
 -1      2481 1.08317E-02-4.16717E-03-1.06313E-13
 -1      2482 1.08305E-02-4.16369E-03-1.05222E-13
 -1      2483 1.12602E-02-4.41074E-03-1.13853E-13
 -1      2484 1.11173E-02-4.32954E-03-1.11319E-13
 -1      2485 1.11162E-02-4.32605E-03-1.10209E-13
 -1      2486 1.15459E-02-4.57314E-03-1.18970E-13
 -1      2487 1.14030E-02-4.49194E-03-1.16403E-13
 -1      2488 1.14019E-02-4.48845E-03-1.15272E-13
 -1      2489 1.18315E-02-4.73557E-03-1.24153E-13
 -1      2490 1.16887E-02-4.65435E-03-1.21556E-13
 -1      2491 1.16876E-02-4.65086E-03-1.20404E-13
 -1      2492 1.21172E-02-4.89800E-03-1.29392E-13
 -1      2493 1.19744E-02-4.81678E-03-1.26765E-13
 -1      2494 1.19733E-02-4.81329E-03-1.25597E-13
 -1      2495 1.24029E-02-5.06043E-03-1.34674E-13
 -1      2496 1.22601E-02-4.97921E-03-1.32028E-13
 -1      2497 1.22590E-02-4.97572E-03-1.30844E-13
 -1      2498 1.26886E-02-5.22287E-03-1.39993E-13
 -1      2499 1.25458E-02-5.14165E-03-1.37330E-13
 -1      2500 1.25447E-02-5.13815E-03-1.36134E-13
 -1      2501 1.29743E-02-5.38530E-03-1.45328E-13
 -1      2502 1.28315E-02-5.30409E-03-1.42657E-13
 -1      2503 1.28304E-02-5.30059E-03-1.41452E-13
 -1      2504 1.32600E-02-5.54774E-03-1.50689E-13
 -1      2505 1.31172E-02-5.46652E-03-1.48005E-13
 -1      2506 1.31161E-02-5.46303E-03-1.46796E-13
 -1      2507 1.35457E-02-5.71017E-03-1.56066E-13
 -1      2508 1.34029E-02-5.62895E-03-1.53375E-13
 -1      2509 1.34018E-02-5.62546E-03-1.52161E-13
 -1      2510 1.36915E-02-5.79310E-03-1.58852E-13
 -1      2511 1.42427E-02-6.08081E-03-1.58478E-13
 -1      2512 1.41628E-02-6.03866E-03-1.58345E-13
 -1      2513 1.44024E-02-6.16511E-03-1.58727E-13
 -1      2514 1.43225E-02-6.12296E-03-1.58605E-13
 -1      2515 1.41589E-02-6.03155E-03-1.56210E-13
 -1      2516 1.39260E-02-5.91365E-03-1.57933E-13
 -1      2517 1.38461E-02-5.87150E-03-1.57789E-13
 -1      2518 1.40837E-02-5.99687E-03-1.58208E-13
 -1      2519 1.40052E-02-5.95544E-03-1.58073E-13
 -1      2520 1.38415E-02-5.86403E-03-1.55670E-13
 -1      2521 1.39999E-02-5.94761E-03-1.55948E-13
 -1      2522 1.45621E-02-6.24941E-03-1.58956E-13
 -1      2523 1.44823E-02-6.20726E-03-1.58843E-13
 -1      2524 1.43186E-02-6.11585E-03-1.56452E-13
 -1      2525 1.47218E-02-6.33371E-03-1.59159E-13
 -1      2526 1.46420E-02-6.29156E-03-1.59062E-13
 -1      2527 1.44783E-02-6.20015E-03-1.56674E-13
 -1      2528 1.48816E-02-6.41801E-03-1.59331E-13
 -1      2529 1.48017E-02-6.37586E-03-1.59247E-13
 -1      2530 1.46380E-02-6.28445E-03-1.56869E-13
 -1      2531 1.50386E-02-6.50088E-03-1.59462E-13
 -1      2532 1.49601E-02-6.45945E-03-1.59400E-13
 -1      2533 1.47964E-02-6.36804E-03-1.57028E-13
 -1      2534 1.51983E-02-6.58518E-03-1.59573E-13
 -1      2535 1.51184E-02-6.54303E-03-1.59521E-13
 -1      2536 1.49548E-02-6.45162E-03-1.57156E-13
 -1      2537 1.53581E-02-6.66947E-03-1.59657E-13
 -1      2538 1.52782E-02-6.62733E-03-1.59618E-13
 -1      2539 1.51145E-02-6.53592E-03-1.57258E-13
 -1      2540 1.55080E-02-6.74862E-03-1.59731E-13
 -1      2541 1.54281E-02-6.70648E-03-1.59698E-13
 -1      2542 1.52645E-02-6.61508E-03-1.57344E-13
 -1      2543 1.54047E-02-6.68909E-03-1.57421E-13
 -1      2544 2.92179E-03 2.12210E-04-6.21096E-15
 -1      2545 3.06681E-03 1.86760E-04-6.72054E-15
 -1      2546 4.91752E-03-8.36407E-04-1.17302E-14
 -1      2547 5.11989E-03-9.19776E-04-1.21296E-14
 -1      2548 6.11592E-04-1.56076E-04-3.67978E-16
 -1      2549 8.18049E-04-2.26874E-04-5.76457E-16
 -1      2550 8.12689E-04-2.27859E-04-7.08160E-16
 -1      2551 5.54372E-04-1.36389E-04-3.93010E-16
 -1      2552 5.36867E-03-9.99697E-04-1.24594E-14
 -1      2553 5.53279E-03-1.03519E-03-1.25653E-14
 -1      2554 1.20924E-03-5.46609E-04-2.38103E-15
 -1      2555 1.05315E-03-5.03717E-04-2.32407E-15
 -1      2556 1.89541E-03 5.78229E-04-3.14382E-15
 -1      2557 1.75911E-03 5.72051E-04-2.65623E-15
 -1      2558 1.69637E-03 5.31097E-04-2.50242E-15
 -1      2559 1.97680E-03 5.44994E-04-3.48511E-15
 -1      2560 5.01732E-03-1.46777E-03-1.09321E-14
 -1      2561 5.23202E-03-1.38003E-03-1.20236E-14
 -1      2562 4.09302E-03-2.06277E-03-7.60457E-15
 -1      2563 4.83897E-04-1.24893E-04-4.74582E-16
 -1      2564 4.59790E-04-1.37727E-04-4.72821E-16
 -1      2565 5.38400E-04-1.69970E-04-6.34448E-16
 -1      2566 6.03606E-04-1.35432E-04-6.43366E-16
 -1      2567 3.20393E-03 1.41896E-04-7.19726E-15
 -1      2568 3.34093E-03 7.43503E-05-7.69269E-15
 -1      2569 3.10806E-03 1.68180E-04-6.99969E-15
 -1      2570 3.98483E-03-3.26174E-04-9.69343E-15
 -1      2571 4.16189E-03-4.39836E-04-1.01495E-14
 -1      2572 3.55909E-03-4.89012E-05-8.41449E-15
 -1      2573 3.76312E-03-1.81211E-04-9.03271E-15
 -1      2574 2.20127E-03 2.14282E-05-4.16910E-15
 -1      2575 2.36242E-03 9.43881E-05-4.53592E-15
 -1      2576 1.83449E-03-1.46948E-04-3.48660E-15
 -1      2577 2.00855E-03-6.55126E-05-3.78423E-15
 -1      2578 1.45465E-03-3.01794E-04-2.94118E-15
 -1      2579 1.63347E-03-2.32617E-04-3.18142E-15
 -1      2580 1.09131E-03-4.10250E-04-2.52990E-15
 -1      2581 1.24737E-03-3.69288E-04-2.68282E-15
 -1      2582 8.81908E-04-4.45604E-04-2.32388E-15
 -1      2583 9.65775E-04-4.37314E-04-2.41775E-15
 -1      2584 8.07890E-04-4.40646E-04-2.16836E-15
 -1      2585 8.24089E-04-4.46580E-04-2.22270E-15
 -1      2586 9.28438E-04-4.67792E-04-2.25175E-15
 -1      2587 8.46543E-04-4.49201E-04-2.18365E-15
 -1      2588 9.76292E-04-4.46936E-04-2.09519E-15
 -1      2589 1.60024E-03-7.06940E-04-2.58165E-15
 -1      2590 1.41474E-03-6.22047E-04-2.46989E-15
 -1      2591 2.16799E-03-1.07859E-03-3.14543E-15
 -1      2592 1.87256E-03-8.75761E-04-2.85544E-15
 -1      2593 5.27874E-03-1.29994E-03-1.12363E-14
 -1      2594 5.09430E-03-1.39687E-03-1.06949E-14
 -1      2595 5.60361E-03-1.16061E-03-1.19698E-14
 -1      2596 5.46443E-03-1.21384E-03-1.16607E-14
 -1      2597 5.77935E-03-1.10381E-03-1.23814E-14
 -1      2598 5.70983E-03-1.12205E-03-1.21662E-14
 -1      2599 5.65719E-03-1.06286E-03-1.27116E-14
 -1      2600 5.75048E-03-1.07839E-03-1.28598E-14
 -1      2601 5.60713E-03-1.07783E-03-1.32758E-14
 -1      2602 4.83907E-04-1.68470E-04-6.03901E-16
 -1      2603 4.16755E-04-1.29640E-04-4.43615E-16
 -1      2604 4.38403E-04-1.24238E-04-4.32759E-16
 -1      2605 5.25441E-03-9.85520E-04-1.27833E-14
 -1      2606 5.82198E-03-1.11200E-03-1.31717E-14
 -1      2607 4.28949E-03-5.38492E-04-1.08306E-14
 -1      2608 4.77343E-03-7.95466E-04-1.19183E-14
 -1      2609 2.40482E-03-1.23364E-03-3.30541E-15
 -1      2610 4.42542E-03-1.83419E-03-8.68514E-15
 -1      2611 4.68743E-03-1.65808E-03-9.62747E-15
 -1      2612 5.80565E-03-1.10788E-03-1.34988E-14
 -1      2613 5.42100E-03-1.28715E-03-1.26232E-14
 -1      2614 1.36904E-02-5.78961E-03-1.57632E-13
 -1      2615 1.37373E-02-5.81372E-03-1.57450E-13
 -1      2616 2.81812E-03 2.18852E-04-5.88226E-15
 -1      2617 2.88430E-03 2.18340E-04-6.19310E-15
 -1      2618 2.72089E-03 2.15252E-04-5.56358E-15
 -1      2619 4.86091E-03-1.54003E-03-1.01424E-14
 -1      2620 1.36535E-02-5.76446E-03-1.55190E-13
 -1      2621 4.25408E-03-1.95885E-03-8.16049E-15
 -1      2622 4.67490E-04-1.22917E-04-4.24397E-16
 -1      2623 5.09336E-04-1.26761E-04-4.07457E-16
 -1      2624 6.23118E-04-1.67348E-04-5.55857E-16
 -1      2625 5.33196E-04-1.59086E-04-5.82461E-16
 -1      2626 1.29291E-03-5.42490E-04-2.24383E-15
 -1      2627 5.67600E-03-1.14824E-03-1.25751E-14
 -1      2628 8.10809E-04-4.18185E-04-2.01418E-15
 -1      2629 8.36673E-04-4.24810E-04-2.09545E-15
 -1      2630 1.01364E-03-4.07768E-04-2.29779E-15
 -1      2631 1.32649E-03-3.28278E-04-2.64486E-15
 -1      2632 1.71787E-03-1.81782E-04-3.18657E-15
 -1      2633 2.45744E-03 1.39584E-04-4.73872E-15
 -1      2634 2.53145E-03 1.76147E-04-4.94228E-15
 -1      2635 2.35639E-03 1.15156E-04-4.43420E-15
 -1      2636 2.08947E-03-1.42960E-05-3.85477E-15
 -1      2637 3.43153E-03 1.00414E-05-8.19405E-15
 -1      2638 3.84298E-03-2.56865E-04-9.59427E-15
 -1      2639 1.74993E-03-7.66453E-04-2.57922E-15
 -1      2640 5.40509E-03-1.25607E-03-1.19383E-14
 -1      2641 8.38462E-04 1.29301E-05-8.37506E-16
 -1      2642 8.22020E-04-2.67173E-05-8.41138E-16
 -1      2643 7.99191E-04-6.65519E-05-8.42791E-16
 -1      2644 7.70294E-04-1.04128E-04-8.43292E-16
 -1      2645 9.44638E-04-4.45034E-05-1.06810E-15
 -1      2646 8.61290E-04 1.70865E-04-7.97227E-16
 -1      2647 8.60094E-04 1.32379E-04-8.12040E-16
 -1      2648 8.61005E-04 2.46546E-04-7.55350E-16
 -1      2649 8.61184E-04 2.08870E-04-7.78688E-16
 -1      2650 9.96072E-04 2.17237E-04-1.00760E-15
 -1      2651 8.65133E-04 3.22647E-04-6.91518E-16
 -1      2652 8.61912E-04 2.84350E-04-7.26876E-16
 -1      2653 9.93765E-04 2.98180E-04-9.53935E-16
 -1      2654 9.10945E-04 3.76869E-04-6.99771E-16
 -1      2655 8.87777E-04 3.49018E-04-6.98199E-16
 -1      2656 1.01569E-03 3.64991E-04-9.28457E-16
 -1      2657 1.06035E-03 4.18715E-04-9.42592E-16
 -1      2658 1.74026E-03-7.33377E-04-2.43078E-15
 -1      2659 9.32508E-04-2.89547E-04-1.05794E-15
 -1      2660 1.05462E-03-3.49560E-04-1.33953E-15
 -1      2661 2.62105E-03 4.25676E-04-6.42273E-15
 -1      2662 2.48249E-03 4.60891E-04-5.70887E-15
 -1      2663 5.78343E-03-1.12836E-03-1.41304E-14
 -1      2664 5.85161E-03-1.13358E-03-1.42044E-14
 -1      2665 4.65622E-03-7.62575E-04-1.22758E-14
 -1      2666 4.87885E-03-8.68808E-04-1.28112E-14
 -1      2667 5.99516E-03-1.29934E-03-1.68007E-14
 -1      2668 6.11449E-03-1.35153E-03-1.79973E-14
 -1      2669 6.24065E-03-1.41332E-03-1.92885E-14
 -1      2670 6.36983E-03-1.48173E-03-2.06104E-14
 -1      2671 6.18074E-03-1.36053E-03-1.86968E-14
 -1      2672 6.50070E-03-1.55454E-03-2.19635E-14
 -1      2673 6.63443E-03-1.63142E-03-2.33481E-14
 -1      2674 6.41768E-03-1.49612E-03-2.13372E-14
 -1      2675 6.76982E-03-1.71070E-03-2.47653E-14
 -1      2676 6.90737E-03-1.79229E-03-2.62137E-14
 -1      2677 6.67011E-03-1.64690E-03-2.41033E-14
 -1      2678 7.04611E-03-1.87509E-03-2.76950E-14
 -1      2679 7.18630E-03-1.95904E-03-2.92073E-14
 -1      2680 6.93453E-03-1.80707E-03-2.69969E-14
 -1      2681 7.32722E-03-2.04349E-03-3.07510E-14
 -1      2682 7.46903E-03-2.12841E-03-3.23256E-14
 -1      2683 7.20732E-03-1.97251E-03-3.00168E-14
 -1      2684 7.61124E-03-2.21342E-03-3.39325E-14
 -1      2685 7.75396E-03-2.29851E-03-3.55677E-14
 -1      2686 7.48559E-03-2.14050E-03-3.31631E-14
 -1      2687 7.88970E-03-2.37925E-03-3.71491E-14
 -1      2688 8.02570E-03-2.45989E-03-3.87574E-14
 -1      2689 7.76021E-03-2.30516E-03-3.63468E-14
 -1      2690 8.16890E-03-2.54458E-03-4.04782E-14
 -1      2691 8.31223E-03-2.62907E-03-4.22285E-14
 -1      2692 8.03679E-03-2.46979E-03-3.96434E-14
 -1      2693 8.45554E-03-2.71333E-03-4.40044E-14
 -1      2694 8.59890E-03-2.79735E-03-4.58063E-14
 -1      2695 8.32163E-03-2.63815E-03-4.31380E-14
 -1      2696 8.74222E-03-2.88115E-03-4.76359E-14
 -1      2697 8.88553E-03-2.96472E-03-4.94942E-14
 -1      2698 8.60710E-03-2.80579E-03-4.67414E-14
 -1      2699 9.02879E-03-3.04808E-03-5.13797E-14
 -1      2700 9.17202E-03-3.13123E-03-5.32896E-14
 -1      2701 8.89289E-03-2.97265E-03-5.04541E-14
 -1      2702 9.31521E-03-3.21419E-03-5.52236E-14
 -1      2703 9.45836E-03-3.29697E-03-5.71813E-14
 -1      2704 9.17881E-03-3.13876E-03-5.42713E-14
 -1      2705 9.60147E-03-3.37959E-03-5.91628E-14
 -1      2706 9.74455E-03-3.46205E-03-6.11688E-14
 -1      2707 9.46475E-03-3.30419E-03-5.81857E-14
 -1      2708 9.88044E-03-3.54026E-03-6.30952E-14
 -1      2709 1.00163E-02-3.61835E-03-6.50430E-14
 -1      2710 9.74354E-03-3.46491E-03-6.20932E-14
 -1      2711 1.01593E-02-3.70044E-03-6.71173E-14
 -1      2712 1.03023E-02-3.78243E-03-6.92148E-14
 -1      2713 1.00223E-02-3.62514E-03-6.60912E-14
 -1      2714 1.04452E-02-3.86432E-03-7.13339E-14
 -1      2715 1.05882E-02-3.94612E-03-7.34796E-14
 -1      2716 1.03081E-02-3.78907E-03-7.02864E-14
 -1      2717 1.07311E-02-4.02785E-03-7.56452E-14
 -1      2718 1.08740E-02-4.10951E-03-7.78328E-14
 -1      2719 1.05940E-02-3.95264E-03-7.45739E-14
 -1      2720 1.10169E-02-4.19111E-03-8.00422E-14
 -1      2721 1.11598E-02-4.27266E-03-8.22710E-14
 -1      2722 1.08798E-02-4.11594E-03-7.89486E-14
 -1      2723 1.13026E-02-4.35416E-03-8.45212E-14
 -1      2724 1.14455E-02-4.43561E-03-8.67920E-14
 -1      2725 1.11655E-02-4.27901E-03-8.34092E-14
 -1      2726 1.15884E-02-4.51703E-03-8.90806E-14
 -1      2727 1.17312E-02-4.59842E-03-9.13888E-14
 -1      2728 1.14513E-02-4.44191E-03-8.79493E-14
 -1      2729 1.18669E-02-4.67571E-03-9.36027E-14
 -1      2730 1.20026E-02-4.75298E-03-9.58329E-14
 -1      2731 1.17299E-02-4.60061E-03-9.24545E-14
 -1      2732 1.21455E-02-4.83429E-03-9.81989E-14
 -1      2733 1.22884E-02-4.91559E-03-1.00588E-13
 -1      2734 1.20084E-02-4.75921E-03-9.70330E-14
 -1      2735 1.24312E-02-4.99687E-03-1.02998E-13
 -1      2736 1.25741E-02-5.07814E-03-1.05426E-13
 -1      2737 1.22942E-02-4.92179E-03-1.01812E-13
 -1      2738 1.27169E-02-5.15939E-03-1.07871E-13
 -1      2739 1.28598E-02-5.24064E-03-1.10336E-13
 -1      2740 1.25799E-02-5.08433E-03-1.06670E-13
 -1      2741 1.30026E-02-5.32188E-03-1.12821E-13
 -1      2742 1.31455E-02-5.40311E-03-1.15322E-13
 -1      2743 1.28656E-02-5.24682E-03-1.11602E-13
 -1      2744 1.32883E-02-5.48433E-03-1.17841E-13
 -1      2745 1.34312E-02-5.56556E-03-1.20379E-13
 -1      2746 1.31513E-02-5.40928E-03-1.16609E-13
 -1      2747 1.35740E-02-5.64677E-03-1.22932E-13
 -1      2748 1.37169E-02-5.72799E-03-1.25502E-13
 -1      2749 1.34370E-02-5.57172E-03-1.21684E-13
 -1      2750 1.38526E-02-5.80514E-03-1.27957E-13
 -1      2751 1.39883E-02-5.88229E-03-1.30422E-13
 -1      2752 1.37156E-02-5.73009E-03-1.26697E-13
 -1      2753 1.41311E-02-5.96350E-03-1.33029E-13
 -1      2754 1.42740E-02-6.04471E-03-1.35646E-13
 -1      2755 1.39941E-02-5.88845E-03-1.31760E-13
 -1      2756 1.44168E-02-6.12592E-03-1.38275E-13
 -1      2757 1.45597E-02-6.20713E-03-1.40911E-13
 -1      2758 1.42798E-02-6.05087E-03-1.36997E-13
 -1      2759 1.47025E-02-6.28834E-03-1.43557E-13
 -1      2760 1.48454E-02-6.36955E-03-1.46212E-13
 -1      2761 1.45656E-02-6.21329E-03-1.42272E-13
 -1      2762 1.49883E-02-6.45076E-03-1.48878E-13
 -1      2763 1.51311E-02-6.53197E-03-1.51549E-13
 -1      2764 1.48513E-02-6.37571E-03-1.47585E-13
 -1      2765 1.52162E-02-6.58076E-03-1.53327E-13
 -1      2766 1.53196E-02-6.64030E-03-1.55632E-13
 -1      2767 1.52495E-02-6.60329E-03-1.55594E-13
 -1      2768 1.50792E-02-6.50571E-03-1.52029E-13
 -1      2769 2.89859E-03 3.27715E-04-7.98084E-15
 -1      2770 2.75946E-03 3.81146E-04-7.18001E-15
 -1      2771 2.72248E-03 3.73794E-04-6.87667E-15
 -1      2772 2.34380E-03 4.86602E-04-5.03925E-15
 -1      2773 2.20408E-03 5.03110E-04-4.41403E-15
 -1      2774 2.43965E-03 4.44182E-04-5.44246E-15
 -1      2775 3.17949E-03 1.97200E-04-9.71113E-15
 -1      2776 3.03840E-03 2.66074E-04-8.82436E-15
 -1      2777 3.00654E-03 2.65344E-04-8.48532E-15
 -1      2778 3.46535E-03 4.20572E-05-1.16105E-14
 -1      2779 3.32174E-03 1.22122E-04-1.06405E-14
 -1      2780 3.29487E-03 1.25033E-04-1.02657E-14
 -1      2781 3.75604E-03-1.28644E-04-1.36743E-14
 -1      2782 3.61017E-03-4.19053E-05-1.26218E-14
 -1      2783 3.58847E-03-3.76943E-05-1.22148E-14
 -1      2784 4.05019E-03-3.06829E-04-1.58967E-14
 -1      2785 3.90284E-03-2.17226E-04-1.47657E-14
 -1      2786 3.88636E-03-2.13061E-04-1.43257E-14
 -1      2787 4.34605E-03-4.86605E-04-1.82747E-14
 -1      2788 4.19807E-03-3.96783E-04-1.70666E-14
 -1      2789 4.18646E-03-3.93167E-04-1.65945E-14
 -1      2790 4.64209E-03-6.64432E-04-2.08020E-14
 -1      2791 4.49418E-03-5.75892E-04-1.95199E-14
 -1      2792 4.48670E-03-5.72836E-04-1.90163E-14
 -1      2793 4.93729E-03-8.38687E-04-2.34739E-14
 -1      2794 4.78988E-03-7.52042E-04-2.21200E-14
 -1      2795 4.78557E-03-7.49373E-04-2.15849E-14
 -1      2796 5.23115E-03-1.00904E-03-2.62877E-14
 -1      2797 5.08444E-03-9.24335E-04-2.48634E-14
 -1      2798 5.08232E-03-9.21865E-04-2.42967E-14
 -1      2799 5.52354E-03-1.17590E-03-2.92367E-14
 -1      2800 5.37755E-03-1.09287E-03-2.77457E-14
 -1      2801 5.37678E-03-1.09046E-03-2.71482E-14
 -1      2802 5.81454E-03-1.33999E-03-3.23202E-14
 -1      2803 5.66922E-03-1.25824E-03-3.07625E-14
 -1      2804 5.66914E-03-1.25581E-03-3.01345E-14
 -1      2805 6.10433E-03-1.50208E-03-3.55295E-14
 -1      2806 5.95958E-03-1.42124E-03-3.39090E-14
 -1      2807 5.95975E-03-1.41874E-03-3.32518E-14
 -1      2808 6.39313E-03-1.66288E-03-3.88623E-14
 -1      2809 6.24884E-03-1.58260E-03-3.71811E-14
 -1      2810 6.24898E-03-1.58002E-03-3.64952E-14
 -1      2811 6.68115E-03-1.82297E-03-4.23092E-14
 -1      2812 6.53723E-03-1.74299E-03-4.05712E-14
 -1      2813 6.53718E-03-1.74030E-03-3.98583E-14
 -1      2814 6.96856E-03-1.98277E-03-4.58732E-14
 -1      2815 6.82492E-03-1.90288E-03-4.40778E-14
 -1      2816 6.82463E-03-1.90010E-03-4.33385E-14
 -1      2817 7.25550E-03-2.14256E-03-4.95453E-14
 -1      2818 7.11208E-03-2.06265E-03-4.76951E-14
 -1      2819 7.11154E-03-2.05977E-03-4.69320E-14
 -1      2820 7.54209E-03-2.30253E-03-5.33320E-14
 -1      2821 7.39883E-03-2.22252E-03-5.14242E-14
 -1      2822 7.39808E-03-2.21955E-03-5.06361E-14
 -1      2823 7.82842E-03-2.46278E-03-5.72273E-14
 -1      2824 7.68528E-03-2.38262E-03-5.52655E-14
 -1      2825 7.68436E-03-2.37957E-03-5.44506E-14
 -1      2826 8.11455E-03-2.62335E-03-6.12318E-14
 -1      2827 7.97150E-03-2.54303E-03-5.92155E-14
 -1      2828 7.97046E-03-2.53990E-03-5.83759E-14
 -1      2829 8.40054E-03-2.78424E-03-6.53486E-14
 -1      2830 8.25756E-03-2.70375E-03-6.32774E-14
 -1      2831 8.25642E-03-2.70056E-03-6.24099E-14
 -1      2832 8.68643E-03-2.94542E-03-6.95654E-14
 -1      2833 8.54349E-03-2.86479E-03-6.74439E-14
 -1      2834 8.54230E-03-2.86154E-03-6.65499E-14
 -1      2835 8.97224E-03-3.10687E-03-7.38846E-14
 -1      2836 8.82934E-03-3.02612E-03-7.17146E-14
 -1      2837 8.82812E-03-3.02281E-03-7.07934E-14
 -1      2838 9.25801E-03-3.26854E-03-7.82957E-14
 -1      2839 9.11513E-03-3.18768E-03-7.60784E-14
 -1      2840 9.11390E-03-3.18433E-03-7.51333E-14
 -1      2841 9.54374E-03-3.43040E-03-8.27970E-14
 -1      2842 9.40088E-03-3.34945E-03-8.05347E-14
 -1      2843 9.39965E-03-3.34607E-03-7.95657E-14
 -1      2844 9.82945E-03-3.59241E-03-8.73887E-14
 -1      2845 9.68660E-03-3.51139E-03-8.50810E-14
 -1      2846 9.68538E-03-3.50798E-03-8.40888E-14
 -1      2847 1.01151E-02-3.75454E-03-9.20672E-14
 -1      2848 9.97230E-03-3.67346E-03-8.97179E-14
 -1      2849 9.97109E-03-3.67003E-03-8.87015E-14
 -1      2850 1.04008E-02-3.91676E-03-9.68337E-14
 -1      2851 1.02580E-02-3.83564E-03-9.44393E-14
 -1      2852 1.02568E-02-3.83219E-03-9.34001E-14
 -1      2853 1.06865E-02-4.07905E-03-1.01681E-13
 -1      2854 1.05437E-02-3.99790E-03-9.92476E-14
 -1      2855 1.05425E-02-3.99443E-03-9.81840E-14
 -1      2856 1.09722E-02-4.24139E-03-1.06609E-13
 -1      2857 1.08294E-02-4.16021E-03-1.04135E-13
 -1      2858 1.08282E-02-4.15674E-03-1.03050E-13
 -1      2859 1.12579E-02-4.40376E-03-1.11614E-13
 -1      2860 1.11151E-02-4.32257E-03-1.09102E-13
 -1      2861 1.11139E-02-4.31909E-03-1.07996E-13
 -1      2862 1.15436E-02-4.56616E-03-1.16690E-13
 -1      2863 1.14008E-02-4.48496E-03-1.14143E-13
 -1      2864 1.13996E-02-4.48147E-03-1.13017E-13
 -1      2865 1.18293E-02-4.72858E-03-1.21836E-13
 -1      2866 1.16864E-02-4.64737E-03-1.19255E-13
 -1      2867 1.16853E-02-4.64388E-03-1.18109E-13
 -1      2868 1.21150E-02-4.89101E-03-1.27039E-13
 -1      2869 1.19721E-02-4.80979E-03-1.24431E-13
 -1      2870 1.19710E-02-4.80630E-03-1.23265E-13
 -1      2871 1.24007E-02-5.05344E-03-1.32294E-13
 -1      2872 1.22578E-02-4.97222E-03-1.29662E-13
 -1      2873 1.22567E-02-4.96873E-03-1.28480E-13
 -1      2874 1.26864E-02-5.21588E-03-1.37591E-13
 -1      2875 1.25436E-02-5.13466E-03-1.34937E-13
 -1      2876 1.25424E-02-5.13117E-03-1.33744E-13
 -1      2877 1.29721E-02-5.37831E-03-1.42914E-13
 -1      2878 1.28293E-02-5.29710E-03-1.40250E-13
 -1      2879 1.28281E-02-5.29360E-03-1.39047E-13
 -1      2880 1.32578E-02-5.54075E-03-1.48266E-13
 -1      2881 1.31150E-02-5.45953E-03-1.45587E-13
 -1      2882 1.31139E-02-5.45604E-03-1.44379E-13
 -1      2883 1.35271E-02-5.69321E-03-1.53067E-13
 -1      2884 1.33842E-02-5.61200E-03-1.50380E-13
 -1      2885 1.33831E-02-5.60850E-03-1.49169E-13
 -1      2886 1.36359E-02-5.75100E-03-1.53406E-13
 -1      2887 1.43945E-02-6.15090E-03-1.54391E-13
 -1      2888 1.43147E-02-6.10875E-03-1.54286E-13
 -1      2889 1.40751E-02-5.98230E-03-1.53941E-13
 -1      2890 1.39953E-02-5.94015E-03-1.53816E-13
 -1      2891 1.45543E-02-6.23520E-03-1.54577E-13
 -1      2892 1.44744E-02-6.19305E-03-1.54488E-13
 -1      2893 1.43107E-02-6.10164E-03-1.52108E-13
 -1      2894 1.42348E-02-6.06660E-03-1.54176E-13
 -1      2895 1.41550E-02-6.02445E-03-1.54061E-13
 -1      2896 1.39913E-02-5.93304E-03-1.51671E-13
 -1      2897 1.41510E-02-6.01734E-03-1.51903E-13
 -1      2898 1.47113E-02-6.31807E-03-1.54726E-13
 -1      2899 1.46328E-02-6.27663E-03-1.54656E-13
 -1      2900 1.44691E-02-6.18523E-03-1.52285E-13
 -1      2901 1.48710E-02-6.40237E-03-1.54852E-13
 -1      2902 1.47911E-02-6.36022E-03-1.54792E-13
 -1      2903 1.46275E-02-6.26881E-03-1.52432E-13
 -1      2904 1.50308E-02-6.48666E-03-1.54948E-13
 -1      2905 1.49509E-02-6.44452E-03-1.54902E-13
 -1      2906 1.47872E-02-6.35311E-03-1.52550E-13
 -1      2907 5.86076E-03-1.13778E-03-1.40220E-14
 -1      2908 5.81378E-03-1.13591E-03-1.36188E-14
 -1      2909 7.14483E-04-2.01516E-04-6.91572E-16
 -1      2910 8.35370E-04-2.48731E-04-8.86186E-16
 -1      2911 8.20146E-04-2.62491E-04-1.03322E-15
 -1      2912 6.54379E-04-1.92114E-04-7.09095E-16
 -1      2913 5.15872E-03-9.78587E-04-1.32762E-14
 -1      2914 5.38262E-03-1.04840E-03-1.36265E-14
 -1      2915 5.75021E-03-1.15395E-03-1.34139E-14
 -1      2916 5.66243E-03-1.18218E-03-1.32065E-14
 -1      2917 5.81921E-03-1.17285E-03-1.42670E-14
 -1      2918 5.56122E-03-1.09220E-03-1.38462E-14
 -1      2919 5.67527E-03-1.11212E-03-1.40026E-14
 -1      2920 1.03006E-03-4.27254E-04-1.94065E-15
 -1      2921 9.14321E-04-4.02573E-04-1.87843E-15
 -1      2922 5.67823E-03-1.22607E-03-1.39181E-14
 -1      2923 5.81293E-03-1.24772E-03-1.51058E-14
 -1      2924 3.72016E-03-1.93742E-04-9.53511E-15
 -1      2925 3.91432E-03-3.25691E-04-1.02106E-14
 -1      2926 1.98079E-03-3.82732E-05-3.52718E-15
 -1      2927 2.14838E-03 3.87593E-05-3.89241E-15
 -1      2928 3.31739E-03 6.18310E-05-7.99146E-15
 -1      2929 3.50607E-03-5.38342E-05-8.72395E-15
 -1      2930 1.59940E-03-2.00818E-04-2.84652E-15
 -1      2931 1.77412E-03-1.26547E-04-3.12859E-15
 -1      2932 1.21051E-03-3.31330E-04-2.31491E-15
 -1      2933 1.39253E-03-2.77040E-04-2.54892E-15
 -1      2934 9.31261E-04-3.95425E-04-2.04987E-15
 -1      2935 1.03865E-03-3.77004E-04-2.14857E-15
 -1      2936 7.96103E-04-3.93339E-04-1.86209E-15
 -1      2937 8.51252E-04-4.01063E-04-1.95423E-15
 -1      2938 8.62940E-04-3.72159E-04-1.81523E-15
 -1      2939 5.56982E-03-1.22478E-03-1.30719E-14
 -1      2940 3.03260E-03 1.87498E-04-6.83205E-15
 -1      2941 3.14864E-03 1.44591E-04-7.30977E-15
 -1      2942 8.56693E-04 9.32307E-05-8.23153E-16
 -1      2943 8.49741E-04 5.33475E-05-8.31732E-16
 -1      2944 9.81710E-04 4.63172E-05-1.06058E-15
 -1      2945 9.95388E-04 1.33833E-04-1.04158E-15
 -1      2946 5.78675E-04-2.14121E-04-8.14046E-16
 -1      2947 5.57369E-04-2.14812E-04-8.05007E-16
 -1      2948 4.20339E-03-5.07756E-04-1.10989E-14
 -1      2949 4.42857E-03-6.40777E-04-1.16784E-14
 -1      2950 4.56241E-03-7.22494E-04-1.25505E-14
 -1      2951 8.20023E-04-3.86703E-04-1.82644E-15
 -1      2952 7.79383E-04-3.87737E-04-1.81286E-15
 -1      2953 8.75907E-04-1.32661E-04-1.06473E-15
 -1      2954 7.34297E-04-1.39213E-04-8.39864E-16
 -1      2955 6.94268E-04-1.68447E-04-8.35513E-16
 -1      2956 2.15415E-03 4.75601E-04-4.18403E-15
 -1      2957 2.06338E-03 5.10691E-04-3.83198E-15
 -1      2958 1.92111E-03 5.10162E-04-3.29324E-15
 -1      2959 5.75927E-03-1.14422E-03-1.47131E-14
 -1      2960 5.04321E-03-9.46369E-04-1.36442E-14
 -1      2961 1.18569E-03-4.17716E-04-1.62553E-15
 -1      2962 1.29788E-03-4.89322E-04-1.91869E-15
 -1      2963 5.90252E-03-1.17652E-03-1.53090E-14
 -1      2964 5.88969E-03-1.15435E-03-1.46622E-14
 -1      2965 5.91455E-03-1.17676E-03-1.51238E-14
 -1      2966 3.59369E-03-1.20012E-04-9.30473E-15
 -1      2967 1.47376E-03 4.68792E-04-1.90317E-15
 -1      2968 1.35332E-03 4.54433E-04-1.59508E-15
 -1      2969 1.37151E-02-5.79279E-03-1.53548E-13
 -1      2970 1.35887E-02-5.72154E-03-1.51428E-13
 -1      2971 1.37943E-02-5.83458E-03-1.53687E-13
 -1      2972 1.12650E-03-4.52157E-04-1.97367E-15
 -1      2973 1.03713E-03-4.01175E-04-1.76051E-15
 -1      2974 2.61658E-03 2.06997E-04-5.22566E-15
 -1      2975 2.68558E-03 2.25218E-04-5.51387E-15
 -1      2976 2.51422E-03 1.93630E-04-4.89937E-15
 -1      2977 1.51752E-02-6.56348E-03-1.55295E-13
 -1      2978 1.51051E-02-6.52648E-03-1.55253E-13
 -1      2979 1.49414E-02-6.43507E-03-1.52906E-13
 -1      2980 1.50900E-02-6.51469E-03-1.53511E-13
 -1      2981 7.58649E-04-3.66811E-04-1.67909E-15
 -1      2982 7.46829E-04-3.45763E-04-1.54953E-15
 -1      2983 7.36074E-04-3.35563E-04-1.50552E-15
 -1      2984 5.48144E-03-1.08990E-03-1.43531E-14
 -1      2985 8.42578E-04-3.64310E-04-1.68213E-15
 -1      2986 5.91399E-03-1.23396E-03-1.57104E-14
 -1      2987 1.77735E-03 5.02037E-04-2.79839E-15
 -1      2988 1.63187E-03 4.87321E-04-2.34639E-15
 -1      2989 1.86306E-03 4.72209E-04-3.10036E-15
 -1      2990 1.09634E-03-3.31938E-04-2.06021E-15
 -1      2991 1.45088E-03-2.19293E-04-2.49414E-15
 -1      2992 3.23213E-03 9.66971E-05-7.80322E-15
 -1      2993 1.83923E-03-6.51984E-05-3.15848E-15
 -1      2994 2.23386E-03 8.91637E-05-4.07217E-15
 -1      2995 2.30465E-03 1.34254E-04-4.25440E-15
 -1      2996 2.11154E-03 6.87511E-05-3.72631E-15
 -1      2997 1.39344E-02-5.90826E-03-1.53825E-13
 -1      2998 1.38552E-02-5.86647E-03-1.53689E-13
 -1      2999 1.37288E-02-5.79522E-03-1.51570E-13
 -1      3000 1.38506E-02-5.85900E-03-1.51561E-13
 -1      3001 4.06822E-03-4.30390E-04-1.10237E-14
 -1      3002 1.55387E-03 4.43315E-04-2.15388E-15
 -1      3003 6.52228E-04-1.91625E-04-8.30187E-16
 -1      3004 6.12513E-04-2.06949E-04-8.22530E-16
 -1      3005 6.78645E-04-2.46110E-04-1.03484E-15
 -1      3006 7.78851E-04-2.04861E-04-1.05269E-15
 -1      3007 1.29976E-03-5.08702E-04-2.04712E-15
 -1      3008 2.84150E-03 2.24683E-04-6.14352E-15
 -1      3009 2.93440E-03 2.10625E-04-6.48226E-15
 -1      3010 2.97854E-03 1.96929E-04-6.77399E-15
 -1      3011 1.01586E-03-3.58116E-04-1.49055E-15
 -1      3012 6.03104E-04-2.42576E-04-9.60217E-16
 -1      3013 6.11582E-04-2.36757E-04-9.45268E-16
 -1      3014 1.12632E-03 3.49535E-04-1.17617E-15
 -1      3015 1.12815E-03 3.07659E-04-1.21315E-15
 -1      3016 1.13109E-03 2.65386E-04-1.24350E-15
 -1      3017 1.13378E-03 2.22325E-04-1.26789E-15
 -1      3018 1.26520E-03 3.13570E-04-1.50437E-15
 -1      3019 1.17966E-03 4.41686E-04-1.17912E-15
 -1      3020 3.11762E-03 2.00169E-04-8.99548E-15
 -1      3021 2.97167E-03 2.64580E-04-8.14450E-15
 -1      3022 1.49510E-03-5.94187E-04-2.18715E-15
 -1      3023 2.82706E-03 3.20144E-04-7.33598E-15
 -1      3024 2.68283E-03 3.65781E-04-6.57131E-15
 -1      3025 2.93467E-03 2.63763E-04-7.80140E-15
 -1      3026 6.73286E-04-2.84978E-04-1.19730E-15
 -1      3027 7.27154E-04-3.11119E-04-1.35415E-15
 -1      3028 6.33352E-03-1.44166E-03-2.06814E-14
 -1      3029 6.44910E-03-1.51244E-03-2.20301E-14
 -1      3030 6.56921E-03-1.58580E-03-2.34097E-14
 -1      3031 6.69379E-03-1.66235E-03-2.48216E-14
 -1      3032 6.46921E-03-1.52942E-03-2.27213E-14
 -1      3033 6.82165E-03-1.74062E-03-2.62654E-14
 -1      3034 6.95264E-03-1.82087E-03-2.77413E-14
 -1      3035 6.71006E-03-1.67788E-03-2.55387E-14
 -1      3036 7.08588E-03-1.90214E-03-2.92484E-14
 -1      3037 7.22124E-03-1.98453E-03-3.07867E-14
 -1      3038 6.96584E-03-1.83459E-03-2.84829E-14
 -1      3039 7.35809E-03-2.06744E-03-3.23555E-14
 -1      3040 7.49633E-03-2.15090E-03-3.39564E-14
 -1      3041 7.23192E-03-1.99645E-03-3.15551E-14
 -1      3042 7.62855E-03-2.23037E-03-3.55072E-14
 -1      3043 7.76159E-03-2.31003E-03-3.70819E-14
 -1      3044 7.49805E-03-2.15709E-03-3.46705E-14
 -1      3045 7.90221E-03-2.39390E-03-3.87683E-14
 -1      3046 8.04342E-03-2.47778E-03-4.04851E-14
 -1      3047 7.76861E-03-2.31910E-03-3.78994E-14
 -1      3048 8.18499E-03-2.56157E-03-4.22308E-14
 -1      3049 8.32691E-03-2.64527E-03-4.40045E-14
 -1      3050 8.04913E-03-2.48577E-03-4.13281E-14
 -1      3051 8.46906E-03-2.72882E-03-4.58043E-14
 -1      3052 8.61142E-03-2.81222E-03-4.76308E-14
 -1      3053 8.33162E-03-2.65239E-03-4.48693E-14
 -1      3054 8.75390E-03-2.89547E-03-4.94846E-14
 -1      3055 8.89651E-03-2.97855E-03-5.13664E-14
 -1      3056 8.61537E-03-2.81866E-03-4.85221E-14
 -1      3057 9.03918E-03-3.06148E-03-5.32724E-14
 -1      3058 9.18193E-03-3.14425E-03-5.52029E-14
 -1      3059 8.89991E-03-2.98446E-03-5.22769E-14
 -1      3060 9.32471E-03-3.22688E-03-5.71597E-14
 -1      3061 9.46754E-03-3.30936E-03-5.91386E-14
 -1      3062 9.18493E-03-3.14975E-03-5.61356E-14
 -1      3063 9.60323E-03-3.38760E-03-6.10415E-14
 -1      3064 9.73895E-03-3.46573E-03-6.29646E-14
 -1      3065 9.46312E-03-3.31042E-03-5.99909E-14
 -1      3066 9.88182E-03-3.54786E-03-6.50142E-14
 -1      3067 1.00247E-02-3.62988E-03-6.70872E-14
 -1      3068 9.74149E-03-3.47065E-03-6.39392E-14
 -1      3069 1.01676E-02-3.71181E-03-6.91852E-14
 -1      3070 1.03105E-02-3.79365E-03-7.13066E-14
 -1      3071 1.00271E-02-3.63461E-03-6.80841E-14
 -1      3072 1.04533E-02-3.87542E-03-7.34481E-14
 -1      3073 1.05962E-02-3.95711E-03-7.56139E-14
 -1      3074 1.03128E-02-3.79823E-03-7.23244E-14
 -1      3075 1.07391E-02-4.03874E-03-7.78031E-14
 -1      3076 1.08820E-02-4.12032E-03-8.00117E-14
 -1      3077 1.05985E-02-3.96157E-03-7.66565E-14
 -1      3078 1.10249E-02-4.20184E-03-8.22404E-14
 -1      3079 1.11677E-02-4.28332E-03-8.44916E-14
 -1      3080 1.08842E-02-4.12468E-03-8.10726E-14
 -1      3081 1.13106E-02-4.36476E-03-8.67611E-14
 -1      3082 1.14535E-02-4.44617E-03-8.90506E-14
 -1      3083 1.11700E-02-4.28762E-03-8.55726E-14
 -1      3084 1.15892E-02-4.52347E-03-9.12461E-14
 -1      3085 1.17249E-02-4.60076E-03-9.34613E-14
 -1      3086 1.14486E-02-4.44635E-03-9.00388E-14
 -1      3087 1.18678E-02-4.68209E-03-9.58099E-14
 -1      3088 1.20107E-02-4.76340E-03-9.81767E-14
 -1      3089 1.17272E-02-4.60497E-03-9.45832E-14
 -1      3090 1.21535E-02-4.84469E-03-1.00565E-13
 -1      3091 1.22964E-02-4.92596E-03-1.02975E-13
 -1      3092 1.20129E-02-4.76758E-03-9.93216E-14
 -1      3093 1.24393E-02-5.00723E-03-1.05406E-13
 -1      3094 1.25821E-02-5.08848E-03-1.07853E-13
 -1      3095 1.22986E-02-4.93013E-03-1.04140E-13
 -1      3096 1.27250E-02-5.16973E-03-1.10321E-13
 -1      3097 1.28678E-02-5.25096E-03-1.12808E-13
 -1      3098 1.25844E-02-5.09263E-03-1.09039E-13
 -1      3099 1.30107E-02-5.33219E-03-1.15311E-13
 -1      3100 1.31536E-02-5.41342E-03-1.17833E-13
 -1      3101 1.28701E-02-5.25510E-03-1.14011E-13
 -1      3102 1.32964E-02-5.49464E-03-1.20373E-13
 -1      3103 1.34393E-02-5.57586E-03-1.22930E-13
 -1      3104 1.31558E-02-5.41755E-03-1.19059E-13
 -1      3105 1.35750E-02-5.65301E-03-1.25370E-13
 -1      3106 1.37107E-02-5.73016E-03-1.27825E-13
 -1      3107 1.34344E-02-5.57593E-03-1.24044E-13
 -1      3108 1.38536E-02-5.81138E-03-1.30423E-13
 -1      3109 1.39964E-02-5.89259E-03-1.33030E-13
 -1      3110 1.37130E-02-5.73429E-03-1.29082E-13
 -1      3111 1.41393E-02-5.97380E-03-1.35651E-13
 -1      3112 1.42821E-02-6.05500E-03-1.38282E-13
 -1      3113 1.39987E-02-5.89672E-03-1.34302E-13
 -1      3114 1.44250E-02-6.13621E-03-1.40918E-13
 -1      3115 1.45679E-02-6.21742E-03-1.43566E-13
 -1      3116 1.42844E-02-6.05913E-03-1.39562E-13
 -1      3117 1.47107E-02-6.29863E-03-1.46223E-13
 -1      3118 1.48536E-02-6.37984E-03-1.48888E-13
 -1      3119 1.45702E-02-6.22155E-03-1.44859E-13
 -1      3120 7.33645E-04-2.80277E-04-1.22600E-15
 -1      3121 8.24248E-04-3.35962E-04-1.58655E-15
 -1      3122 9.00730E-04-3.30841E-04-1.67048E-15
 -1      3123 7.90001E-04-2.62793E-04-1.23866E-15
 -1      3124 2.53900E-03 4.01015E-04-5.85087E-15
 -1      3125 2.39439E-03 4.25771E-04-5.17408E-15
 -1      3126 2.64119E-03 3.56528E-04-6.26468E-15
 -1      3127 3.71501E-03-1.20696E-04-1.28248E-14
 -1      3128 3.56370E-03-3.39154E-05-1.18053E-14
 -1      3129 4.01993E-03-3.00077E-04-1.49830E-14
 -1      3130 3.86726E-03-2.09804E-04-1.38838E-14
 -1      3131 3.84584E-03-2.07033E-04-1.34412E-14
 -1      3132 4.32552E-03-4.81247E-04-1.72974E-14
 -1      3133 4.17286E-03-3.90771E-04-1.61211E-14
 -1      3134 4.15742E-03-3.89383E-04-1.56465E-14
 -1      3135 4.62951E-03-6.60013E-04-1.97620E-14
 -1      3136 4.47788E-03-5.71073E-04-1.85113E-14
 -1      3137 4.46780E-03-5.70563E-04-1.80053E-14
 -1      3138 4.93057E-03-8.34652E-04-2.23722E-14
 -1      3139 4.78050E-03-7.47865E-04-2.10496E-14
 -1      3140 4.77471E-03-7.47595E-04-2.05133E-14
 -1      3141 5.22831E-03-1.00500E-03-2.51243E-14
 -1      3142 5.07989E-03-9.20319E-04-2.37305E-14
 -1      3143 5.07718E-03-9.19814E-04-2.31646E-14
 -1      3144 5.52295E-03-1.17162E-03-2.80125E-14
 -1      3145 5.37602E-03-1.08871E-03-2.65512E-14
 -1      3146 5.37528E-03-1.08774E-03-2.59551E-14
 -1      3147 5.81499E-03-1.33539E-03-3.10358E-14
 -1      3148 5.66927E-03-1.25380E-03-2.95080E-14
 -1      3149 5.66963E-03-1.25231E-03-2.88819E-14
 -1      3150 6.10502E-03-1.49715E-03-3.41879E-14
 -1      3151 5.96023E-03-1.41647E-03-3.25968E-14
 -1      3152 5.96105E-03-1.41450E-03-3.19410E-14
 -1      3153 6.39360E-03-1.65766E-03-3.74642E-14
 -1      3154 6.24947E-03-1.57752E-03-3.58109E-14
 -1      3155 6.25033E-03-1.57517E-03-3.51276E-14
 -1      3156 6.68116E-03-1.81748E-03-4.08579E-14
 -1      3157 6.53748E-03-1.73763E-03-3.91463E-14
 -1      3158 6.53816E-03-1.73498E-03-3.84356E-14
 -1      3159 6.96804E-03-1.97705E-03-4.43703E-14
 -1      3160 6.82467E-03-1.89728E-03-4.25990E-14
 -1      3161 6.82505E-03-1.89442E-03-4.18616E-14
 -1      3162 7.25447E-03-2.13664E-03-4.79929E-14
 -1      3163 7.11130E-03-2.05683E-03-4.61684E-14
 -1      3164 7.11135E-03-2.05382E-03-4.54038E-14
 -1      3165 7.54063E-03-2.29644E-03-5.17283E-14
 -1      3166 7.39758E-03-2.21651E-03-4.98462E-14
 -1      3167 7.39732E-03-2.21340E-03-4.90576E-14
 -1      3168 7.82661E-03-2.45654E-03-5.55738E-14
 -1      3169 7.68364E-03-2.37645E-03-5.36380E-14
 -1      3170 7.68311E-03-2.37326E-03-5.28239E-14
 -1      3171 8.11249E-03-2.61697E-03-5.95262E-14
 -1      3172 7.96956E-03-2.53671E-03-5.75363E-14
 -1      3173 7.96882E-03-2.53346E-03-5.66979E-14
 -1      3174 8.39831E-03-2.77774E-03-6.35886E-14
 -1      3175 8.25540E-03-2.69732E-03-6.15428E-14
 -1      3176 8.25450E-03-2.69402E-03-6.06786E-14
 -1      3177 8.68408E-03-2.93883E-03-6.77516E-14
 -1      3178 8.54120E-03-2.85825E-03-6.56583E-14
 -1      3179 8.54018E-03-2.85492E-03-6.47662E-14
 -1      3180 8.96984E-03-3.10019E-03-7.20188E-14
 -1      3181 8.82696E-03-3.01948E-03-6.98721E-14
 -1      3182 8.82586E-03-3.01612E-03-6.89556E-14
 -1      3183 9.25557E-03-3.26180E-03-7.63801E-14
 -1      3184 9.11271E-03-3.18097E-03-7.41886E-14
 -1      3185 9.11156E-03-3.17758E-03-7.32451E-14
 -1      3186 9.54130E-03-3.42360E-03-8.08356E-14
 -1      3187 9.39844E-03-3.34268E-03-7.85967E-14
 -1      3188 9.39726E-03-3.33927E-03-7.76289E-14
 -1      3189 9.82703E-03-3.58556E-03-8.53803E-14
 -1      3190 9.68417E-03-3.50456E-03-8.30963E-14
 -1      3191 9.68298E-03-3.50114E-03-8.21058E-14
 -1      3192 1.01128E-02-3.74766E-03-9.00126E-14
 -1      3193 9.96989E-03-3.66660E-03-8.76854E-14
 -1      3194 9.96870E-03-3.66316E-03-8.66715E-14
 -1      3195 1.03985E-02-3.90985E-03-9.47314E-14
 -1      3196 1.02556E-02-3.82874E-03-9.23619E-14
 -1      3197 1.02544E-02-3.82529E-03-9.13243E-14
 -1      3198 1.06842E-02-4.07211E-03-9.95358E-14
 -1      3199 1.05413E-02-3.99097E-03-9.71234E-14
 -1      3200 1.05401E-02-3.98751E-03-9.60641E-14
 -1      3201 1.09699E-02-4.23444E-03-1.04420E-13
 -1      3202 1.08270E-02-4.15327E-03-1.01968E-13
 -1      3203 1.08259E-02-4.14980E-03-1.00887E-13
 -1      3204 1.12556E-02-4.39680E-03-1.09384E-13
 -1      3205 1.11128E-02-4.31561E-03-1.06892E-13
 -1      3206 1.11116E-02-4.31214E-03-1.05789E-13
 -1      3207 1.15413E-02-4.55919E-03-1.14420E-13
 -1      3208 1.13985E-02-4.47799E-03-1.11893E-13
 -1      3209 1.13973E-02-4.47451E-03-1.10770E-13
 -1      3210 1.18270E-02-4.72160E-03-1.19527E-13
 -1      3211 1.16842E-02-4.64039E-03-1.16965E-13
 -1      3212 1.16830E-02-4.63691E-03-1.15824E-13
 -1      3213 1.21128E-02-4.88402E-03-1.24694E-13
 -1      3214 1.19699E-02-4.80281E-03-1.22103E-13
 -1      3215 1.19688E-02-4.79932E-03-1.20944E-13
 -1      3216 1.23985E-02-5.04646E-03-1.29920E-13
 -1      3217 1.22556E-02-4.96524E-03-1.27302E-13
 -1      3218 1.22545E-02-4.96175E-03-1.26124E-13
 -1      3219 1.26842E-02-5.20889E-03-1.35190E-13
 -1      3220 1.25413E-02-5.12767E-03-1.32548E-13
 -1      3221 1.25402E-02-5.12418E-03-1.31358E-13
 -1      3222 1.29699E-02-5.37133E-03-1.40504E-13
 -1      3223 1.28270E-02-5.29011E-03-1.37841E-13
 -1      3224 1.28259E-02-5.28662E-03-1.36639E-13
 -1      3225 1.32556E-02-5.53376E-03-1.45842E-13
 -1      3226 1.31128E-02-5.45255E-03-1.43169E-13
 -1      3227 1.31116E-02-5.44905E-03-1.41959E-13
 -1      3228 1.34854E-02-5.66328E-03-1.49689E-13
 -1      3229 1.33590E-02-5.59203E-03-1.47575E-13
 -1      3230 1.33578E-02-5.58854E-03-1.46360E-13
 -1      3231 1.35645E-02-5.70507E-03-1.49830E-13
 -1      3232 1.45437E-02-6.21956E-03-1.50143E-13
 -1      3233 1.44638E-02-6.17741E-03-1.50075E-13
 -1      3234 1.42270E-02-6.05239E-03-1.49829E-13
 -1      3235 1.41471E-02-6.01023E-03-1.49733E-13
 -1      3236 9.36965E-04-3.40873E-04-1.46480E-15
 -1      3237 4.96522E-03-9.24757E-04-1.41700E-14
 -1      3238 5.21224E-03-1.02342E-03-1.46637E-14
 -1      3239 3.47572E-03-5.21572E-05-9.10433E-15
 -1      3240 3.66736E-03-1.76665E-04-9.92713E-15
 -1      3241 3.41356E-03 4.95034E-05-1.08270E-14
 -1      3242 3.26479E-03 1.27927E-04-9.89004E-15
 -1      3243 3.53640E-03-3.00091E-05-1.13945E-14
 -1      3244 5.73145E-03-1.16060E-03-1.53194E-14
 -1      3245 5.83200E-03-1.17432E-03-1.54561E-14
 -1      3246 6.12054E-03-1.31306E-03-1.80750E-14
 -1      3247 6.22420E-03-1.37555E-03-1.93621E-14
 -1      3248 6.24964E-03-1.39292E-03-2.00277E-14
 -1      3249 1.47034E-02-6.30386E-03-1.50254E-13
 -1      3250 1.46236E-02-6.26171E-03-1.50200E-13
 -1      3251 1.44599E-02-6.17031E-03-1.47856E-13
 -1      3252 1.03525E-03-3.04258E-04-1.81180E-15
 -1      3253 5.43715E-03-1.09629E-03-1.50159E-14
 -1      3254 5.59786E-03-1.13642E-03-1.52506E-14
 -1      3255 1.43847E-02-6.13562E-03-1.49999E-13
 -1      3256 1.43061E-02-6.09418E-03-1.49919E-13
 -1      3257 1.41425E-02-6.00277E-03-1.47554E-13
 -1      3258 1.43009E-02-6.08636E-03-1.47720E-13
 -1      3259 1.21292E-03 4.10126E-04-1.30448E-15
 -1      3260 3.13055E-03 1.37462E-04-7.56350E-15
 -1      3261 3.28237E-03 6.00327E-05-8.25272E-15
 -1      3262 1.31004E-03-2.21949E-04-2.14405E-15
 -1      3263 1.48763E-03-1.58954E-04-2.41192E-15
 -1      3264 1.09714E-03-1.33933E-05-1.32198E-15
 -1      3265 1.06871E-03-6.42701E-05-1.32260E-15
 -1      3266 4.47283E-03-6.77608E-04-1.28067E-14
 -1      3267 4.67601E-03-7.87005E-04-1.34315E-14
 -1      3268 3.94490E-03-3.55817E-04-1.09914E-14
 -1      3269 4.20519E-03-5.21356E-04-1.19107E-14
 -1      3270 8.44982E-04-3.35997E-04-1.51032E-15
 -1      3271 7.64130E-04-3.27075E-04-1.46493E-15
 -1      3272 7.17534E-04-3.07189E-04-1.34400E-15
 -1      3273 8.20101E-04-2.96774E-04-1.26337E-15
 -1      3274 1.70561E-03-7.50443E-05-2.79728E-15
 -1      3275 1.88713E-03-8.12756E-07-3.16899E-15
 -1      3276 2.24900E-03 4.40198E-04-4.54160E-15
 -1      3277 2.10189E-03 4.45390E-04-3.95320E-15
 -1      3278 2.34690E-03 4.04645E-04-4.90497E-15
 -1      3279 1.27442E-03 2.24860E-04-1.55877E-15
 -1      3280 1.13517E-03 1.78330E-04-1.28706E-15
 -1      3281 1.13357E-03 1.32985E-04-1.30144E-15
 -1      3282 3.23230E-03 1.31218E-04-9.51256E-15
 -1      3283 5.90581E-03-1.19708E-03-1.59284E-14
 -1      3284 5.96536E-03-1.21927E-03-1.64047E-14
 -1      3285 5.90177E-03-1.21744E-03-1.65524E-14
 -1      3286 3.36463E-03 9.96634E-06-8.83111E-15
 -1      3287 2.38964E-03 1.77044E-04-4.50943E-15
 -1      3288 2.46116E-03 2.10458E-04-4.77041E-15
 -1      3289 2.26550E-03 1.60718E-04-4.13702E-15
 -1      3290 5.70054E-03-1.17314E-03-1.60012E-14
 -1      3291 1.50049E-02-6.46590E-03-1.51731E-13
 -1      3292 1.32669E-03 3.89249E-04-1.59814E-15
 -1      3293 1.14581E-03 3.76144E-04-1.19121E-15
 -1      3294 9.23504E-04-2.67907E-04-1.47849E-15
 -1      3295 1.12972E-03-2.58621E-04-1.84827E-15
 -1      3296 1.16315E-03-2.05200E-04-1.77434E-15
 -1      3297 8.54612E-04-2.37567E-04-1.26539E-15
 -1      3298 1.39075E-02-5.88378E-03-1.49404E-13
 -1      3299 1.38277E-02-5.84163E-03-1.49285E-13
 -1      3300 2.94756E-03 2.03046E-04-6.82946E-15
 -1      3301 3.03686E-03 1.74254E-04-7.19185E-15
 -1      3302 3.09171E-03 1.48611E-04-7.61245E-15
 -1      3303 2.64145E-03 2.35020E-04-5.43273E-15
 -1      3304 2.74015E-03 2.33245E-04-5.78227E-15
 -1      3305 2.78739E-03 2.33932E-04-6.05291E-15
 -1      3306 1.39834E-02-5.91883E-03-1.47360E-13
 -1      3307 1.40672E-02-5.96808E-03-1.49631E-13
 -1      3308 1.39874E-02-5.92593E-03-1.49522E-13
 -1      3309 1.82005E-03 3.56874E-05-2.94463E-15
 -1      3310 1.96485E-03 4.80200E-05-3.32340E-15
 -1      3311 2.03306E-03 9.46876E-05-3.48120E-15
 -1      3312 4.86857E-03-8.81185E-04-1.44345E-14
 -1      3313 3.81104E-03-2.68526E-04-1.07602E-14
 -1      3314 1.54371E-03-9.33428E-05-2.41769E-15
 -1      3315 1.48644E-02-6.38882E-03-1.50361E-13
 -1      3316 5.93266E-04-1.97608E-04-7.67778E-16
 -1      3317 6.35189E-04-1.97642E-04-7.55269E-16
 -1      3318 7.49607E-04-2.60629E-04-1.07420E-15
 -1      3319 1.95326E-03 4.41923E-04-3.40837E-15
 -1      3320 1.80279E-03 4.31253E-04-2.90680E-15
 -1      3321 2.04695E-03 4.11683E-04-3.72220E-15
 -1      3322 1.37668E-02-5.80974E-03-1.49297E-13
 -1      3323 1.37059E-02-5.77785E-03-1.49305E-13
 -1      3324 1.36830E-02-5.76048E-03-1.47036E-13
 -1      3325 5.35990E-03-1.08223E-03-1.55628E-14
 -1      3326 6.00850E-03-1.24508E-03-1.65957E-14
 -1      3327 6.04034E-03-1.26025E-03-1.72313E-14
 -1      3328 4.33590E-03-5.96116E-04-1.27613E-14
 -1      3329 1.11614E-03 3.71518E-05-1.31851E-15
 -1      3330 1.25303E-03 2.62089E-05-1.60402E-15
 -1      3331 1.12791E-03 8.56640E-05-1.31172E-15
 -1      3332 1.47901E-02-6.34901E-03-1.50056E-13
 -1      3333 1.29568E-03-9.31011E-05-1.83169E-15
 -1      3334 1.12597E-03-1.27464E-04-1.52798E-15
 -1      3335 1.46264E-02-6.25761E-03-1.47720E-13
 -1      3336 1.63294E-03 4.14043E-04-2.39659E-15
 -1      3337 1.46783E-03 3.93602E-04-1.95231E-15
 -1      3338 1.40281E-03 3.62427E-04-1.80399E-15
 -1      3339 1.72149E-03 3.87002E-04-2.65960E-15
 -1      3340 3.66391E-03-1.13863E-04-1.19695E-14
 -1      3341 3.50665E-03-2.57960E-05-1.09821E-14
 -1      3342 3.25881E-03 6.82728E-05-8.55793E-15
 -1      3343 3.43697E-03-3.24080E-05-9.41985E-15
 -1      3344 5.95455E-03-1.22538E-03-1.59272E-14
 -1      3345 1.43761E-02-6.12105E-03-1.45573E-13
 -1      3346 1.42963E-02-6.07890E-03-1.45512E-13
 -1      3347 7.10064E-04-2.30759E-04-9.14945E-16
 -1      3348 6.59637E-03-1.61813E-03-2.48165E-14
 -1      3349 6.71872E-03-1.69289E-03-2.62548E-14
 -1      3350 6.84464E-03-1.76931E-03-2.77246E-14
 -1      3351 6.97361E-03-1.84766E-03-2.92263E-14
 -1      3352 6.72226E-03-1.70668E-03-2.69704E-14
 -1      3353 7.10504E-03-1.92709E-03-3.07595E-14
 -1      3354 7.23859E-03-2.00771E-03-3.23228E-14
 -1      3355 6.97783E-03-1.85983E-03-2.99680E-14
 -1      3356 7.36702E-03-2.08490E-03-3.38379E-14
 -1      3357 7.49678E-03-2.16271E-03-3.53815E-14
 -1      3358 7.23609E-03-2.01434E-03-3.30130E-14
 -1      3359 7.63449E-03-2.24494E-03-3.70341E-14
 -1      3360 7.77320E-03-2.32753E-03-3.87163E-14
 -1      3361 7.50067E-03-2.17204E-03-3.61723E-14
 -1      3362 7.91268E-03-2.41025E-03-4.04290E-14
 -1      3363 8.05284E-03-2.49312E-03-4.21701E-14
 -1      3364 7.77661E-03-2.33568E-03-3.95337E-14
 -1      3365 8.19350E-03-2.57599E-03-4.39395E-14
 -1      3366 8.33461E-03-2.65888E-03-4.57368E-14
 -1      3367 8.05574E-03-2.50028E-03-4.30130E-14
 -1      3368 8.47605E-03-2.74170E-03-4.75610E-14
 -1      3369 8.61779E-03-2.82447E-03-4.94109E-14
 -1      3370 8.33706E-03-2.66524E-03-4.66029E-14
 -1      3371 8.75975E-03-2.90715E-03-5.12859E-14
 -1      3372 8.90190E-03-2.98974E-03-5.31872E-14
 -1      3373 8.61986E-03-2.83020E-03-5.02991E-14
 -1      3374 9.04418E-03-3.07222E-03-5.51161E-14
 -1      3375 9.18660E-03-3.15460E-03-5.70669E-14
 -1      3376 8.90366E-03-2.99495E-03-5.40987E-14
 -1      3377 9.32198E-03-3.23276E-03-5.89448E-14
 -1      3378 9.45743E-03-3.31084E-03-6.08429E-14
 -1      3379 9.18101E-03-3.15530E-03-5.78996E-14
 -1      3380 9.60007E-03-3.39293E-03-6.28657E-14
 -1      3381 9.74277E-03-3.47493E-03-6.49146E-14
 -1      3382 9.45880E-03-3.31535E-03-6.17954E-14
 -1      3383 9.88550E-03-3.55685E-03-6.69848E-14
 -1      3384 1.00283E-02-3.63869E-03-6.90811E-14
 -1      3385 9.74401E-03-3.47919E-03-6.58875E-14
 -1      3386 1.01711E-02-3.72045E-03-7.12022E-14
 -1      3387 1.03139E-02-3.80215E-03-7.33438E-14
 -1      3388 1.00294E-02-3.64275E-03-7.00780E-14
 -1      3389 1.04567E-02-3.88379E-03-7.55089E-14
 -1      3390 1.05995E-02-3.96537E-03-7.76974E-14
 -1      3391 1.03150E-02-3.80606E-03-7.43653E-14
 -1      3392 1.07424E-02-4.04691E-03-7.99055E-14
 -1      3393 1.08853E-02-4.12840E-03-8.21340E-14
 -1      3394 1.06006E-02-3.96916E-03-7.87374E-14
 -1      3395 1.10281E-02-4.20985E-03-8.43843E-14
 -1      3396 1.11710E-02-4.29127E-03-8.66539E-14
 -1      3397 1.08863E-02-4.13210E-03-8.31963E-14
 -1      3398 1.13067E-02-4.36858E-03-8.88294E-14
 -1      3399 1.14424E-02-4.44588E-03-9.10256E-14
 -1      3400 1.11649E-02-4.29083E-03-8.76218E-14
 -1      3401 1.15853E-02-4.52721E-03-9.33559E-14
 -1      3402 1.17282E-02-4.60853E-03-9.57076E-14
 -1      3403 1.14435E-02-4.44947E-03-9.21273E-14
 -1      3404 1.18711E-02-4.68983E-03-9.80759E-14
 -1      3405 1.20139E-02-4.77111E-03-1.00463E-13
 -1      3406 1.17292E-02-4.61208E-03-9.68283E-14
 -1      3407 1.21568E-02-4.85238E-03-1.02874E-13
 -1      3408 1.22997E-02-4.93364E-03-1.05303E-13
 -1      3409 1.20150E-02-4.77464E-03-1.01607E-13
 -1      3410 1.24426E-02-5.01489E-03-1.07755E-13
 -1      3411 1.25854E-02-5.09613E-03-1.10223E-13
 -1      3412 1.23007E-02-4.93715E-03-1.06469E-13
 -1      3413 1.27283E-02-5.17737E-03-1.12708E-13
 -1      3414 1.28712E-02-5.25860E-03-1.15215E-13
 -1      3415 1.25865E-02-5.09963E-03-1.11407E-13
 -1      3416 1.30140E-02-5.33982E-03-1.17740E-13
 -1      3417 1.31569E-02-5.42104E-03-1.20285E-13
 -1      3418 1.28722E-02-5.26209E-03-1.16422E-13
 -1      3419 1.32926E-02-5.49820E-03-1.22713E-13
 -1      3420 1.34284E-02-5.57535E-03-1.25154E-13
 -1      3421 1.31508E-02-5.42047E-03-1.21378E-13
 -1      3422 1.35712E-02-5.65657E-03-1.27741E-13
 -1      3423 1.37141E-02-5.73778E-03-1.30337E-13
 -1      3424 1.34294E-02-5.57884E-03-1.26396E-13
 -1      3425 1.38569E-02-5.81899E-03-1.32950E-13
 -1      3426 1.39998E-02-5.90020E-03-1.35572E-13
 -1      3427 1.37152E-02-5.74126E-03-1.31593E-13
 -1      3428 1.41427E-02-5.98141E-03-1.38202E-13
 -1      3429 1.42855E-02-6.06262E-03-1.40841E-13
 -1      3430 1.40009E-02-5.90368E-03-1.36838E-13
 -1      3431 1.44835E-02-6.17640E-03-1.45054E-13
 -1      3432 5.32249E-03-1.07893E-03-1.62858E-14
 -1      3433 5.52179E-03-1.14658E-03-1.66623E-14
 -1      3434 4.61349E-03-6.60975E-04-1.87199E-14
 -1      3435 4.45702E-03-5.71622E-04-1.74996E-14
 -1      3436 4.29919E-03-4.80957E-04-1.63168E-14
 -1      3437 4.14063E-03-3.89246E-04-1.51713E-14
 -1      3438 4.44571E-03-5.74083E-04-1.69931E-14
 -1      3439 3.98142E-03-2.96918E-04-1.40643E-14
 -1      3440 3.82241E-03-2.04834E-04-1.29968E-14
 -1      3441 4.12273E-03-3.89957E-04-1.46948E-14
 -1      3442 4.92233E-03-8.35392E-04-2.12699E-14
 -1      3443 4.76871E-03-7.48845E-04-1.99768E-14
 -1      3444 4.76266E-03-7.51671E-04-1.94404E-14
 -1      3445 5.22534E-03-1.00469E-03-2.39625E-14
 -1      3446 5.07458E-03-9.20586E-04-2.25987E-14
 -1      3447 5.07225E-03-9.22749E-04-2.20324E-14
 -1      3448 5.52312E-03-1.16996E-03-2.67903E-14
 -1      3449 5.37485E-03-1.08772E-03-2.53593E-14
 -1      3450 5.37486E-03-1.08879E-03-2.47637E-14
 -1      3451 5.81671E-03-1.33242E-03-2.97547E-14
 -1      3452 5.67039E-03-1.25146E-03-2.82558E-14
 -1      3453 5.67165E-03-1.25135E-03-2.76310E-14
 -1      3454 6.10721E-03-1.49309E-03-3.28493E-14
 -1      3455 5.96229E-03-1.41291E-03-3.12856E-14
 -1      3456 5.96404E-03-1.41178E-03-3.06310E-14
 -1      3457 6.39559E-03-1.65275E-03-3.60683E-14
 -1      3458 6.25162E-03-1.57300E-03-3.44431E-14
 -1      3459 6.25337E-03-1.57106E-03-3.37600E-14
 -1      3460 6.68260E-03-1.81197E-03-3.94099E-14
 -1      3461 6.53922E-03-1.73238E-03-3.77245E-14
 -1      3462 6.54070E-03-1.72986E-03-3.70138E-14
 -1      3463 6.96878E-03-1.97111E-03-4.28683E-14
 -1      3464 6.82576E-03-1.89153E-03-4.11250E-14
 -1      3465 6.82684E-03-1.88862E-03-4.03884E-14
 -1      3466 7.25452E-03-2.13042E-03-4.64406E-14
 -1      3467 7.11169E-03-2.05074E-03-4.46398E-14
 -1      3468 7.11233E-03-2.04757E-03-4.38772E-14
 -1      3469 7.54005E-03-2.29003E-03-5.01249E-14
 -1      3470 7.39730E-03-2.21019E-03-4.82690E-14
 -1      3471 7.39753E-03-2.20688E-03-4.74801E-14
 -1      3472 7.82551E-03-2.45000E-03-5.39205E-14
 -1      3473 7.68278E-03-2.36997E-03-5.20082E-14
 -1      3474 7.68265E-03-2.36658E-03-5.11946E-14
 -1      3475 8.11097E-03-2.61034E-03-5.78234E-14
 -1      3476 7.96824E-03-2.53013E-03-5.58592E-14
 -1      3477 7.96781E-03-2.52669E-03-5.50198E-14
 -1      3478 8.39648E-03-2.77105E-03-6.18335E-14
 -1      3479 8.25372E-03-2.69065E-03-5.98146E-14
 -1      3480 8.25306E-03-2.68720E-03-5.89523E-14
 -1      3481 8.68203E-03-2.93208E-03-6.59464E-14
 -1      3482 8.53925E-03-2.85153E-03-6.38772E-14
 -1      3483 8.53841E-03-2.84807E-03-6.29898E-14
 -1      3484 8.96763E-03-3.09340E-03-7.01586E-14
 -1      3485 8.82483E-03-3.01271E-03-6.80409E-14
 -1      3486 8.82386E-03-3.00925E-03-6.71268E-14
 -1      3487 9.25328E-03-3.25497E-03-7.44734E-14
 -1      3488 9.11045E-03-3.17416E-03-7.23044E-14
 -1      3489 9.10940E-03-3.17070E-03-7.13655E-14
 -1      3490 9.53896E-03-3.41675E-03-7.88798E-14
 -1      3491 9.39611E-03-3.33584E-03-7.66640E-14
 -1      3492 9.39500E-03-3.33238E-03-7.57017E-14
 -1      3493 9.82466E-03-3.57868E-03-8.33780E-14
 -1      3494 9.68181E-03-3.49770E-03-8.11177E-14
 -1      3495 9.68066E-03-3.49424E-03-8.01312E-14
 -1      3496 1.01104E-02-3.74075E-03-8.79643E-14
 -1      3497 9.96752E-03-3.65970E-03-8.56603E-14
 -1      3498 9.96635E-03-3.65624E-03-8.46510E-14
 -1      3499 1.03961E-02-3.90293E-03-9.26371E-14
 -1      3500 1.02532E-02-3.82183E-03-9.02902E-14
 -1      3501 1.02521E-02-3.81836E-03-8.92584E-14
 -1      3502 1.06818E-02-4.06518E-03-9.73969E-14
 -1      3503 1.05390E-02-3.98404E-03-9.50060E-14
 -1      3504 1.05378E-02-3.98057E-03-9.39503E-14
 -1      3505 1.09676E-02-4.22749E-03-1.02240E-13
 -1      3506 1.08247E-02-4.14633E-03-9.98081E-14
 -1      3507 1.08235E-02-4.14285E-03-9.87303E-14
 -1      3508 1.12533E-02-4.38984E-03-1.07160E-13
 -1      3509 1.11104E-02-4.30866E-03-1.04690E-13
 -1      3510 1.11093E-02-4.30518E-03-1.03592E-13
 -1      3511 1.15390E-02-4.55222E-03-1.12157E-13
 -1      3512 1.13962E-02-4.47103E-03-1.09650E-13
 -1      3513 1.13950E-02-4.46755E-03-1.08531E-13
 -1      3514 1.18248E-02-4.71463E-03-1.17228E-13
 -1      3515 1.16819E-02-4.63342E-03-1.14685E-13
 -1      3516 1.16808E-02-4.62994E-03-1.13547E-13
 -1      3517 1.21105E-02-4.87705E-03-1.22360E-13
 -1      3518 1.19676E-02-4.79584E-03-1.19786E-13
 -1      3519 1.19665E-02-4.79235E-03-1.18632E-13
 -1      3520 1.23962E-02-5.03948E-03-1.27552E-13
 -1      3521 1.22534E-02-4.95826E-03-1.24948E-13
 -1      3522 1.22522E-02-4.95478E-03-1.23776E-13
 -1      3523 1.26819E-02-5.20191E-03-1.32797E-13
 -1      3524 1.25391E-02-5.12069E-03-1.30170E-13
 -1      3525 1.25380E-02-5.11720E-03-1.28980E-13
 -1      3526 1.29677E-02-5.36435E-03-1.38090E-13
 -1      3527 1.28248E-02-5.28313E-03-1.35437E-13
 -1      3528 1.28237E-02-5.27964E-03-1.34238E-13
 -1      3529 1.32534E-02-5.52678E-03-1.43416E-13
 -1      3530 1.31105E-02-5.44556E-03-1.40749E-13
 -1      3531 1.31094E-02-5.44207E-03-1.39539E-13
 -1      3532 1.38237E-02-5.83452E-03-1.47143E-13
 -1      3533 3.04573E-03 2.04592E-04-8.27349E-15
 -1      3534 2.89540E-03 2.63521E-04-7.45729E-15
 -1      3535 1.43418E-02-6.09867E-03-1.43682E-13
 -1      3536 1.06902E-03-1.81018E-04-1.51891E-15
 -1      3537 4.78349E-03-8.38348E-04-1.48069E-14
 -1      3538 5.04526E-03-9.64175E-04-1.55833E-14
 -1      3539 6.15899E-03-1.34873E-03-1.93797E-14
 -1      3540 6.25860E-03-1.41136E-03-2.06934E-14
 -1      3541 1.81669E-03 3.58862E-04-2.93771E-15
 -1      3542 1.63961E-03 3.38093E-04-2.42719E-15
 -1      3543 4.23594E-03-5.30590E-04-1.28750E-14
 -1      3544 4.47825E-03-6.73420E-04-1.38044E-14
 -1      3545 1.48037E-03-2.78965E-05-2.16237E-15
 -1      3546 6.36543E-03-1.47677E-03-2.20377E-14
 -1      3547 6.47834E-03-1.54629E-03-2.34117E-14
 -1      3548 6.25637E-03-1.42798E-03-2.13569E-14
 -1      3549 1.36657E-02-5.75740E-03-1.49571E-13
 -1      3550 1.36048E-02-5.72551E-03-1.49571E-13
 -1      3551 1.35014E-02-5.66725E-03-1.47836E-13
 -1      3552 1.35819E-02-5.70814E-03-1.47312E-13
 -1      3553 5.69445E-03-1.19159E-03-1.67922E-14
 -1      3554 5.81358E-03-1.21447E-03-1.68691E-14
 -1      3555 2.74655E-03 3.11096E-04-6.68526E-15
 -1      3556 2.59740E-03 3.46463E-04-5.95749E-15
 -1      3557 2.85471E-03 2.63397E-04-7.11223E-15
 -1      3558 3.35102E-03 5.81480E-05-1.00364E-14
 -1      3559 3.19725E-03 1.35424E-04-9.13310E-15
 -1      3560 3.16073E-03 1.41056E-04-8.75201E-15
 -1      3561 3.69524E-03-1.90904E-04-1.05805E-14
 -1      3562 3.95062E-03-3.54708E-04-1.16767E-14
 -1      3563 6.06400E-03-1.28386E-03-1.78754E-14
 -1      3564 1.41037E-03 3.18723E-04-1.84112E-15
 -1      3565 6.34864E-04-2.26553E-04-9.13244E-16
 -1      3566 1.52957E-03 3.06855E-04-2.13939E-15
 -1      3567 1.38810E-03 2.58932E-04-1.80409E-15
 -1      3568 1.39295E-03 2.12441E-04-1.82551E-15
 -1      3569 1.62240E-03 2.79355E-04-2.37958E-15
 -1      3570 3.57521E-03-1.11696E-04-1.02681E-14
 -1      3571 5.90847E-03-1.24204E-03-1.73600E-14
 -1      3572 6.05872E-03-1.30190E-03-1.85145E-14
 -1      3573 2.11734E-03 1.42128E-04-3.70399E-15
 -1      3574 2.19158E-03 1.84339E-04-3.93273E-15
 -1      3575 1.97022E-03 1.27767E-04-3.29589E-15
 -1      3576 1.40584E-02-5.95334E-03-1.45284E-13
 -1      3577 1.39792E-02-5.91154E-03-1.45193E-13
 -1      3578 6.47998E-03-1.56162E-03-2.41005E-14
 -1      3579 4.10254E-03-4.40790E-04-1.26677E-14
 -1      3580 5.23246E-03-1.04532E-03-1.66772E-14
 -1      3581 3.79744E-03-2.02411E-04-1.25509E-14
 -1      3582 1.27483E-03 1.29934E-04-1.59042E-15
 -1      3583 1.37399E-02-5.78527E-03-1.44884E-13
 -1      3584 1.36601E-02-5.74312E-03-1.44768E-13
 -1      3585 1.33981E-02-5.60898E-03-1.46103E-13
 -1      3586 2.84977E-03 2.28318E-04-6.44229E-15
 -1      3587 2.90668E-03 2.16052E-04-6.83630E-15
 -1      3588 2.75471E-03 2.45994E-04-6.06757E-15
 -1      3589 5.66128E-03-1.19793E-03-1.75423E-14
 -1      3590 2.51960E-03 2.33739E-04-5.01433E-15
 -1      3591 2.57021E-03 2.49291E-04-5.26098E-15
 -1      3592 2.39875E-03 2.27930E-04-4.61346E-15
 -1      3593 1.38995E-02-5.86948E-03-1.45095E-13
 -1      3594 1.38196E-02-5.82733E-03-1.44993E-13
 -1      3595 1.36560E-02-5.73592E-03-1.42627E-13
 -1      3596 1.38154E-02-5.82005E-03-1.42834E-13
 -1      3597 2.12883E-03 3.82377E-04-3.98558E-15
 -1      3598 1.97371E-03 3.74236E-04-3.44004E-15
 -1      3599 1.89570E-03 3.31246E-04-3.16426E-15
 -1      3600 4.66932E-03-7.72073E-04-1.49210E-14
 -1      3601 1.35992E-02-5.71122E-03-1.44782E-13
 -1      3602 1.35383E-02-5.67933E-03-1.44794E-13
 -1      3603 1.35154E-02-5.66197E-03-1.42532E-13
 -1      3604 9.16113E-04-2.01180E-04-1.27433E-15
 -1      3605 3.47519E-03-2.03605E-05-1.05673E-14
 -1      3606 1.41333E-02-5.98785E-03-1.43171E-13
 -1      3607 1.42171E-02-6.03711E-03-1.45444E-13
 -1      3608 1.41379E-02-5.99531E-03-1.45367E-13
 -1      3609 1.41865E-03 2.59589E-05-1.96746E-15
 -1      3610 1.68313E-03 4.10733E-05-2.58528E-15
 -1      3611 2.55176E-03 3.34361E-04-5.64989E-15
 -1      3612 2.44812E-03 3.69502E-04-5.27472E-15
 -1      3613 2.29700E-03 3.80959E-04-4.63625E-15
 -1      3614 1.43532E-03 8.28101E-05-1.96524E-15
 -1      3615 1.33970E-02-5.60549E-03-1.44887E-13
 -1      3616 1.41781E-02-6.00727E-03-1.41354E-13
 -1      3617 1.39746E-02-5.90409E-03-1.43017E-13
 -1      3618 6.35814E-03-1.50695E-03-2.33884E-14
 -1      3619 6.47545E-03-1.57525E-03-2.47881E-14
 -1      3620 3.60538E-03-1.04871E-04-1.11060E-14
 -1      3621 3.44175E-03-1.36597E-05-1.01506E-14
 -1      3622 6.84908E-03-1.79428E-03-2.91812E-14
 -1      3623 6.97904E-03-1.87113E-03-3.07090E-14
 -1      3624 7.10446E-03-1.94523E-03-3.21905E-14
 -1      3625 7.23146E-03-2.02042E-03-3.36988E-14
 -1      3626 6.97158E-03-1.87740E-03-3.13729E-14
 -1      3627 7.36662E-03-2.10031E-03-3.53170E-14
 -1      3628 7.50306E-03-2.18094E-03-3.69658E-14
 -1      3629 7.23197E-03-2.02966E-03-3.44663E-14
 -1      3630 7.64056E-03-2.26202E-03-3.86435E-14
 -1      3631 7.77898E-03-2.34354E-03-4.03519E-14
 -1      3632 7.50429E-03-2.18925E-03-3.77581E-14
 -1      3633 7.91814E-03-2.42528E-03-4.20895E-14
 -1      3634 8.05794E-03-2.50725E-03-4.38556E-14
 -1      3635 7.78051E-03-2.35098E-03-4.11704E-14
 -1      3636 8.19826E-03-2.58932E-03-4.56489E-14
 -1      3637 8.33904E-03-2.67148E-03-4.74687E-14
 -1      3638 8.05954E-03-2.51394E-03-4.46971E-14
 -1      3639 8.48017E-03-2.75365E-03-4.93144E-14
 -1      3640 8.62161E-03-2.83583E-03-5.11860E-14
 -1      3641 8.34059E-03-2.67751E-03-4.83331E-14
 -1      3642 8.76331E-03-2.91798E-03-5.30841E-14
 -1      3643 8.90522E-03-3.00010E-03-5.50075E-14
 -1      3644 8.62308E-03-2.84132E-03-5.20728E-14
 -1      3645 9.04019E-03-3.07806E-03-5.68568E-14
 -1      3646 9.17530E-03-3.15597E-03-5.87303E-14
 -1      3647 8.89949E-03-3.00105E-03-5.58178E-14
 -1      3648 9.31764E-03-3.23792E-03-6.07258E-14
 -1      3649 9.46008E-03-3.31981E-03-6.27460E-14
 -1      3650 9.17658E-03-3.16067E-03-5.96594E-14
 -1      3651 9.60261E-03-3.40164E-03-6.47917E-14
 -1      3652 9.74521E-03-3.48341E-03-6.68621E-14
 -1      3653 9.46129E-03-3.32422E-03-6.36980E-14
 -1      3654 9.88786E-03-3.56512E-03-6.89575E-14
 -1      3655 1.00306E-02-3.64678E-03-7.10769E-14
 -1      3656 9.74636E-03-3.48759E-03-6.78382E-14
 -1      3657 1.01733E-02-3.72838E-03-7.32180E-14
 -1      3658 1.03161E-02-3.80994E-03-7.53824E-14
 -1      3659 1.00317E-02-3.65077E-03-7.20722E-14
 -1      3660 1.04589E-02-3.89146E-03-7.75691E-14
 -1      3661 1.06017E-02-3.97293E-03-7.97778E-14
 -1      3662 1.03172E-02-3.81380E-03-7.64016E-14
 -1      3663 1.07445E-02-4.05438E-03-8.20054E-14
 -1      3664 1.08874E-02-4.13579E-03-8.42543E-14
 -1      3665 1.06027E-02-3.97668E-03-8.08157E-14
 -1      3666 1.10231E-02-4.21310E-03-8.64141E-14
 -1      3667 1.11588E-02-4.29039E-03-8.85882E-14
 -1      3668 1.08813E-02-4.13539E-03-8.52025E-14
 -1      3669 1.13017E-02-4.37173E-03-9.08968E-14
 -1      3670 1.14445E-02-4.45304E-03-9.32301E-14
 -1      3671 1.11598E-02-4.29400E-03-8.96682E-14
 -1      3672 1.15874E-02-4.53435E-03-9.55813E-14
 -1      3673 1.17303E-02-4.61563E-03-9.79502E-14
 -1      3674 1.14456E-02-4.45661E-03-9.43315E-14
 -1      3675 1.18732E-02-4.69690E-03-1.00341E-13
 -1      3676 1.20160E-02-4.77816E-03-1.02751E-13
 -1      3677 1.17313E-02-4.61917E-03-9.90734E-14
 -1      3678 1.21589E-02-4.85942E-03-1.05180E-13
 -1      3679 1.23018E-02-4.94066E-03-1.07632E-13
 -1      3680 1.20171E-02-4.78168E-03-1.03894E-13
 -1      3681 1.24447E-02-5.02190E-03-1.10102E-13
 -1      3682 1.25876E-02-5.10313E-03-1.12591E-13
 -1      3683 1.23029E-02-4.94416E-03-1.08793E-13
 -1      3684 1.27304E-02-5.18436E-03-1.15100E-13
 -1      3685 1.28733E-02-5.26558E-03-1.17627E-13
 -1      3686 1.25886E-02-5.10662E-03-1.13777E-13
 -1      3687 1.30090E-02-5.34274E-03-1.20044E-13
 -1      3688 1.31448E-02-5.41989E-03-1.22473E-13
 -1      3689 1.28672E-02-5.26501E-03-1.18704E-13
 -1      3690 1.32876E-02-5.50111E-03-1.25046E-13
 -1      3691 1.34305E-02-5.58232E-03-1.27633E-13
 -1      3692 1.31459E-02-5.42338E-03-1.23696E-13
 -1      3693 1.35734E-02-5.66354E-03-1.30233E-13
 -1      3694 1.37162E-02-5.74475E-03-1.32847E-13
 -1      3695 1.34316E-02-5.58581E-03-1.28871E-13
 -1      3696 1.38591E-02-5.82596E-03-1.35470E-13
 -1      3697 1.40020E-02-5.90717E-03-1.38103E-13
 -1      3698 1.37173E-02-5.74823E-03-1.34098E-13
 -1      3699 5.22425E-03-1.00938E-03-2.28006E-14
 -1      3700 5.07084E-03-9.26489E-04-2.14661E-14
 -1      3701 3.08490E-03 1.51348E-04-7.73116E-15
 -1      3702 3.16047E-03 1.19666E-04-8.27212E-15
 -1      3703 4.91516E-03-8.42311E-04-2.01661E-14
 -1      3704 4.75735E-03-7.56337E-04-1.89031E-14
 -1      3705 5.07058E-03-9.31949E-04-2.09000E-14
 -1      3706 4.27007E-03-4.86142E-04-1.53317E-14
 -1      3707 4.10425E-03-3.91846E-04-1.42161E-14
 -1      3708 5.52549E-03-1.17192E-03-2.55703E-14
 -1      3709 5.37578E-03-1.09105E-03-2.41687E-14
 -1      3710 5.37783E-03-1.09464E-03-2.35739E-14
 -1      3711 5.82064E-03-1.33178E-03-2.84764E-14
 -1      3712 5.67373E-03-1.25206E-03-2.70072E-14
 -1      3713 5.67680E-03-1.25369E-03-2.63834E-14
 -1      3714 6.11144E-03-1.49032E-03-3.15125E-14
 -1      3715 5.96648E-03-1.41113E-03-2.99778E-14
 -1      3716 5.96975E-03-1.41104E-03-2.93259E-14
 -1      3717 6.39938E-03-1.64839E-03-3.46761E-14
 -1      3718 6.25568E-03-1.56936E-03-3.30791E-14
 -1      3719 6.25866E-03-1.56795E-03-3.23981E-14
 -1      3720 6.68558E-03-1.80650E-03-3.79635E-14
 -1      3721 6.54264E-03-1.72741E-03-3.63043E-14
 -1      3722 6.54508E-03-1.72506E-03-3.55960E-14
 -1      3723 6.97083E-03-1.96494E-03-4.13700E-14
 -1      3724 6.82828E-03-1.88567E-03-3.96522E-14
 -1      3725 6.83012E-03-1.88269E-03-3.89173E-14
 -1      3726 7.25564E-03-2.12382E-03-4.48894E-14
 -1      3727 7.11326E-03-2.04432E-03-4.31157E-14
 -1      3728 7.11450E-03-2.04097E-03-4.23548E-14
 -1      3729 7.54034E-03-2.28319E-03-4.85241E-14
 -1      3730 7.39799E-03-2.20345E-03-4.66928E-14
 -1      3731 7.39869E-03-2.19989E-03-4.59070E-14
 -1      3732 7.82510E-03-2.44305E-03-5.22689E-14
 -1      3733 7.68270E-03-2.36306E-03-5.03829E-14
 -1      3734 7.68294E-03-2.35941E-03-4.95719E-14
 -1      3735 8.11000E-03-2.60335E-03-5.61239E-14
 -1      3736 7.96753E-03-2.52314E-03-5.41823E-14
 -1      3737 7.96739E-03-2.51947E-03-5.33465E-14
 -1      3738 8.39506E-03-2.76404E-03-6.00836E-14
 -1      3739 8.25251E-03-2.68365E-03-5.80897E-14
 -1      3740 8.25207E-03-2.67999E-03-5.72294E-14
 -1      3741 8.68029E-03-2.92509E-03-6.41472E-14
 -1      3742 8.53766E-03-2.84453E-03-6.21037E-14
 -1      3743 8.53699E-03-2.84089E-03-6.12177E-14
 -1      3744 8.96566E-03-3.08643E-03-6.83097E-14
 -1      3745 8.82296E-03-3.00572E-03-6.62164E-14
 -1      3746 8.82212E-03-3.00212E-03-6.53068E-14
 -1      3747 9.25115E-03-3.24801E-03-7.25741E-14
 -1      3748 9.10839E-03-3.16719E-03-7.04293E-14
 -1      3749 9.10744E-03-3.16362E-03-6.94960E-14
 -1      3750 9.53672E-03-3.40979E-03-7.69330E-14
 -1      3751 9.39393E-03-3.32888E-03-7.47410E-14
 -1      3752 9.39289E-03-3.32534E-03-7.37829E-14
 -1      3753 9.82237E-03-3.57174E-03-8.13826E-14
 -1      3754 9.67954E-03-3.49075E-03-7.91454E-14
 -1      3755 9.67844E-03-3.48723E-03-7.81631E-14
 -1      3756 1.01081E-02-3.73381E-03-8.59234E-14
 -1      3757 9.96520E-03-3.65276E-03-8.36419E-14
 -1      3758 9.96407E-03-3.64926E-03-8.26355E-14
 -1      3759 1.03938E-02-3.89598E-03-9.05537E-14
 -1      3760 1.02509E-02-3.81488E-03-8.82287E-14
 -1      3761 1.02498E-02-3.81139E-03-8.72002E-14
 -1      3762 1.06795E-02-4.05823E-03-9.52642E-14
 -1      3763 1.05366E-02-3.97710E-03-9.28974E-14
 -1      3764 1.05355E-02-3.97361E-03-9.18481E-14
 -1      3765 1.09652E-02-4.22054E-03-1.00064E-13
 -1      3766 1.08224E-02-4.13938E-03-9.76535E-14
 -1      3767 1.08212E-02-4.13589E-03-9.65793E-14
 -1      3768 1.12510E-02-4.38288E-03-1.04945E-13
 -1      3769 1.11081E-02-4.30170E-03-1.02495E-13
 -1      3770 1.11070E-02-4.29822E-03-1.01399E-13
 -1      3771 1.15367E-02-4.54526E-03-1.09902E-13
 -1      3772 1.13939E-02-4.46407E-03-1.07415E-13
 -1      3773 1.13927E-02-4.46059E-03-1.06299E-13
 -1      3774 1.18225E-02-4.70766E-03-1.14934E-13
 -1      3775 1.16796E-02-4.62646E-03-1.12409E-13
 -1      3776 1.16785E-02-4.62298E-03-1.11274E-13
 -1      3777 1.21082E-02-4.87008E-03-1.20032E-13
 -1      3778 1.19654E-02-4.78887E-03-1.17474E-13
 -1      3779 1.19642E-02-4.78539E-03-1.16320E-13
 -1      3780 1.23940E-02-5.03250E-03-1.25191E-13
 -1      3781 1.22511E-02-4.95129E-03-1.22606E-13
 -1      3782 1.22500E-02-4.94781E-03-1.21434E-13
 -1      3783 1.26797E-02-5.19493E-03-1.30410E-13
 -1      3784 1.25368E-02-5.11372E-03-1.27793E-13
 -1      3785 1.25357E-02-5.11023E-03-1.26608E-13
 -1      3786 1.29654E-02-5.35737E-03-1.35678E-13
 -1      3787 1.28226E-02-5.27615E-03-1.33036E-13
 -1      3788 1.28215E-02-5.27267E-03-1.31836E-13
 -1      3789 1.40363E-02-5.92954E-03-1.39975E-13
 -1      3790 5.17223E-03-1.02007E-03-1.72537E-14
 -1      3791 5.42374E-03-1.12786E-03-1.79956E-14
 -1      3792 2.99819E-03 1.87392E-04-7.35279E-15
 -1      3793 1.74638E-03 8.31363E-05-2.71830E-15
 -1      3794 6.13786E-03-1.38058E-03-2.06814E-14
 -1      3795 6.24513E-03-1.44227E-03-2.20198E-14
 -1      3796 6.22926E-03-1.45359E-03-2.26805E-14
 -1      3797 4.58264E-03-7.15226E-04-1.51583E-14
 -1      3798 4.86288E-03-8.68243E-04-1.62101E-14
 -1      3799 4.59705E-03-6.68449E-04-1.76761E-14
 -1      3800 4.43480E-03-5.78333E-04-1.64856E-14
 -1      3801 4.42426E-03-5.84268E-04-1.59765E-14
 -1      3802 4.75308E-03-7.62886E-04-1.83655E-14
 -1      3803 3.45393E-03-3.33670E-05-9.88603E-15
 -1      3804 3.69812E-03-1.81407E-04-1.10745E-14
 -1      3805 1.34372E-02-5.62594E-03-1.44626E-13
 -1      3806 3.98297E-03-3.56581E-04-1.24912E-14
 -1      3807 4.24757E-03-5.18720E-04-1.37273E-14
 -1      3808 6.59687E-03-1.64592E-03-2.62206E-14
 -1      3809 6.72150E-03-1.71923E-03-2.76863E-14
 -1      3810 6.46737E-03-1.58665E-03-2.54762E-14
 -1      3811 3.00058E-03 1.98630E-04-7.69141E-15
 -1      3812 2.84520E-03 2.51998E-04-6.90318E-15
 -1      3813 5.66507E-03-1.21494E-03-1.84609E-14
 -1      3814 5.81738E-03-1.25770E-03-1.86044E-14
 -1      3815 1.68484E-03 1.32119E-04-2.54365E-15
 -1      3816 1.82645E-03 1.27808E-04-2.90825E-15
 -1      3817 1.90040E-03 1.70836E-04-3.10430E-15
 -1      3818 3.93755E-03-2.95974E-04-1.31395E-14
 -1      3819 3.77110E-03-1.99928E-04-1.21025E-14
 -1      3820 3.74402E-03-1.96162E-04-1.16518E-14
 -1      3821 4.08572E-03-3.94000E-04-1.37367E-14
 -1      3822 5.99374E-03-1.30081E-03-1.88405E-14
 -1      3823 1.39148E-03 1.26341E-04-1.84641E-15
 -1      3824 1.56258E-03 1.33621E-04-2.24107E-15
 -1      3825 1.63388E-03 1.73815E-04-2.40799E-15
 -1      3826 1.39351E-03 1.76939E-04-1.83466E-15
 -1      3827 5.96078E-03-1.31039E-03-1.94721E-14
 -1      3828 3.16316E-03 1.25697E-04-8.51329E-15
 -1      3829 2.90421E-03 2.20529E-04-6.94608E-15
 -1      3830 3.32392E-03 4.59345E-05-9.39063E-15
 -1      3831 1.33534E-02-5.57668E-03-1.42378E-13
 -1      3832 4.98527E-03-9.18903E-04-1.77514E-14
 -1      3833 5.07257E-03-9.69834E-04-1.75070E-14
 -1      3834 5.27319E-03-1.06303E-03-1.88455E-14
 -1      3835 7.23456E-04-2.67801E-04-1.12932E-15
 -1      3836 5.55234E-03-1.18747E-03-1.96741E-14
 -1      3837 5.60492E-03-1.20297E-03-1.90689E-14
 -1      3838 5.77520E-03-1.27249E-03-2.01664E-14
 -1      3839 2.22830E-03 3.53621E-04-4.30943E-15
 -1      3840 1.51170E-03 2.11334E-04-2.10380E-15
 -1      3841 1.32105E-02-5.49546E-03-1.39714E-13
 -1      3842 1.39571E-02-5.88775E-03-1.39909E-13
 -1      3843 1.32094E-02-5.49198E-03-1.38496E-13
 -1      3844 6.71802E-03-1.73015E-03-2.83999E-14
 -1      3845 2.63682E-03 2.61109E-04-5.61666E-15
 -1      3846 2.25359E-03 2.18474E-04-4.14722E-15
 -1      3847 2.30856E-03 2.46851E-04-4.36542E-15
 -1      3848 2.10904E-03 2.08251E-04-3.70766E-15
 -1      3849 1.37315E-02-5.77075E-03-1.40578E-13
 -1      3850 1.36518E-02-5.72868E-03-1.40479E-13
 -1      3851 1.38905E-02-5.85470E-03-1.40755E-13
 -1      3852 1.38110E-02-5.81272E-03-1.40669E-13
 -1      3853 1.36474E-02-5.72136E-03-1.38328E-13
 -1      3854 1.99333E-03 3.04852E-04-3.44362E-15
 -1      3855 1.82874E-03 2.83661E-04-2.94233E-15
 -1      3856 4.44659E-03-6.27564E-04-1.49604E-14
 -1      3857 2.75744E-03 2.70666E-04-6.41417E-15
 -1      3858 5.97600E-03-1.33578E-03-2.04299E-14
 -1      3859 1.71441E-03 2.52083E-04-2.61870E-15
 -1      3860 1.35721E-02-5.68662E-03-1.40374E-13
 -1      3861 1.34924E-02-5.64456E-03-1.40265E-13
 -1      3862 1.34882E-02-5.63732E-03-1.38129E-13
 -1      3863 2.61896E-03 2.78383E-04-5.66294E-15
 -1      3864 2.57036E-03 3.11595E-04-5.62672E-15
 -1      3865 2.41412E-03 3.23813E-04-4.96449E-15
 -1      3866 2.44175E-03 2.74720E-04-4.89487E-15
 -1      3867 7.09616E-03-1.95982E-03-3.36174E-14
 -1      3868 7.23121E-03-2.03813E-03-3.52319E-14
 -1      3869 7.36741E-03-2.11721E-03-3.68772E-14
 -1      3870 7.50457E-03-2.19702E-03-3.85503E-14
 -1      3871 7.22964E-03-2.04578E-03-3.59985E-14
 -1      3872 7.64259E-03-2.27731E-03-4.02543E-14
 -1      3873 7.78134E-03-2.35805E-03-4.19880E-14
 -1      3874 7.50419E-03-2.20418E-03-3.93429E-14
 -1      3875 7.92072E-03-2.43907E-03-4.37499E-14
 -1      3876 8.06064E-03-2.52035E-03-4.55390E-14
 -1      3877 7.78165E-03-2.36467E-03-4.28052E-14
 -1      3878 8.20101E-03-2.60179E-03-4.73547E-14
 -1      3879 8.34179E-03-2.68335E-03-4.91960E-14
 -1      3880 8.06134E-03-2.52645E-03-4.63789E-14
 -1      3881 8.48290E-03-2.76499E-03-5.10638E-14
 -1      3882 8.62430E-03-2.84667E-03-5.29581E-14
 -1      3883 8.34270E-03-2.68896E-03-5.00588E-14
 -1      3884 8.75885E-03-2.92429E-03-5.47817E-14
 -1      3885 8.89359E-03-3.00191E-03-5.66279E-14
 -1      3886 8.61823E-03-2.84778E-03-5.37484E-14
 -1      3887 9.03559E-03-3.08361E-03-5.85958E-14
 -1      3888 9.17775E-03-3.16529E-03-6.05893E-14
 -1      3889 8.89465E-03-3.00674E-03-5.75349E-14
 -1      3890 9.32004E-03-3.24694E-03-6.26083E-14
 -1      3891 9.46243E-03-3.32857E-03-6.46512E-14
 -1      3892 9.17883E-03-3.16982E-03-6.15215E-14
 -1      3893 9.60491E-03-3.41016E-03-6.67199E-14
 -1      3894 9.74747E-03-3.49172E-03-6.88131E-14
 -1      3895 9.46351E-03-3.33284E-03-6.56051E-14
 -1      3896 9.89009E-03-3.57324E-03-7.09303E-14
 -1      3897 1.00328E-02-3.65473E-03-7.30705E-14
 -1      3898 9.74855E-03-3.49579E-03-6.97881E-14
 -1      3899 1.01755E-02-3.73619E-03-7.52351E-14
 -1      3900 1.03182E-02-3.81763E-03-7.74223E-14
 -1      3901 1.00338E-02-3.65865E-03-7.40710E-14
 -1      3902 1.04610E-02-3.89903E-03-7.96293E-14
 -1      3903 1.06038E-02-3.98041E-03-8.18561E-14
 -1      3904 1.03193E-02-3.82142E-03-7.84427E-14
 -1      3905 1.07395E-02-4.05770E-03-8.39936E-14
 -1      3906 1.08752E-02-4.13498E-03-8.61509E-14
 -1      3907 1.05978E-02-3.98005E-03-8.27873E-14
 -1      3908 1.10181E-02-4.21630E-03-8.84392E-14
 -1      3909 1.11609E-02-4.29760E-03-9.07497E-14
 -1      3910 1.08763E-02-4.13861E-03-8.72094E-14
 -1      3911 1.13038E-02-4.37890E-03-9.30796E-14
 -1      3912 1.14467E-02-4.46017E-03-9.54326E-14
 -1      3913 1.11620E-02-4.30119E-03-9.18297E-14
 -1      3914 1.15895E-02-4.54144E-03-9.78061E-14
 -1      3915 1.17324E-02-4.62270E-03-1.00196E-13
 -1      3916 1.14477E-02-4.46372E-03-9.65357E-14
 -1      3917 1.18753E-02-4.70395E-03-1.02609E-13
 -1      3918 1.20182E-02-4.78519E-03-1.05040E-13
 -1      3919 1.17335E-02-4.62622E-03-1.01323E-13
 -1      3920 1.21611E-02-4.86643E-03-1.07489E-13
 -1      3921 1.23040E-02-4.94766E-03-1.09962E-13
 -1      3922 1.20193E-02-4.78870E-03-1.06185E-13
 -1      3923 1.24468E-02-5.02889E-03-1.12453E-13
 -1      3924 1.25897E-02-5.11011E-03-1.14963E-13
 -1      3925 1.23050E-02-4.95116E-03-1.11129E-13
 -1      3926 1.27255E-02-5.18727E-03-1.17364E-13
 -1      3927 1.28612E-02-5.26443E-03-1.19782E-13
 -1      3928 1.25837E-02-5.10954E-03-1.16024E-13
 -1      3929 1.30041E-02-5.34565E-03-1.22343E-13
 -1      3930 1.31469E-02-5.42686E-03-1.24917E-13
 -1      3931 1.28623E-02-5.26791E-03-1.20986E-13
 -1      3932 1.32898E-02-5.50808E-03-1.27505E-13
 -1      3933 1.34327E-02-5.58929E-03-1.30109E-13
 -1      3934 1.31480E-02-5.43034E-03-1.26140E-13
 -1      3935 1.35756E-02-5.67050E-03-1.32723E-13
 -1      3936 1.37184E-02-5.75171E-03-1.35350E-13
 -1      3937 1.34338E-02-5.59277E-03-1.31344E-13
 -1      3938 5.82843E-03-1.33393E-03-2.72004E-14
 -1      3939 5.68135E-03-1.25620E-03-2.57597E-14
 -1      3940 3.87411E-03-2.85461E-04-1.20773E-14
 -1      3941 5.53257E-03-1.17823E-03-2.43525E-14
 -1      3942 5.38176E-03-1.09956E-03-2.29796E-14
 -1      3943 5.68764E-03-1.25971E-03-2.51370E-14
 -1      3944 6.40552E-03-1.64466E-03-3.32873E-14
 -1      3945 6.26244E-03-1.56676E-03-3.17183E-14
 -1      3946 6.69037E-03-1.80109E-03-3.65198E-14
 -1      3947 6.54811E-03-1.72275E-03-3.48880E-14
 -1      3948 6.55179E-03-1.72049E-03-3.41807E-14
 -1      3949 6.97425E-03-1.95846E-03-3.98738E-14
 -1      3950 6.83238E-03-1.87965E-03-3.81815E-14
 -1      3951 6.83509E-03-1.87653E-03-3.74475E-14
 -1      3952 7.25782E-03-2.11673E-03-4.33439E-14
 -1      3953 7.11605E-03-2.03749E-03-4.15953E-14
 -1      3954 7.11790E-03-2.03387E-03-4.08346E-14
 -1      3955 7.54145E-03-2.27581E-03-4.69268E-14
 -1      3956 7.39961E-03-2.19618E-03-4.51209E-14
 -1      3957 7.40075E-03-2.19230E-03-4.43367E-14
 -1      3958 7.82532E-03-2.43556E-03-5.06223E-14
 -1      3959 7.68334E-03-2.35561E-03-4.87614E-14
 -1      3960 7.68390E-03-2.35163E-03-4.79518E-14
 -1      3961 8.10951E-03-2.59587E-03-5.44274E-14
 -1      3962 7.96737E-03-2.51565E-03-5.25114E-14
 -1      3963 7.96747E-03-2.51167E-03-5.16767E-14
 -1      3964 8.39402E-03-2.75663E-03-5.83372E-14
 -1      3965 8.25172E-03-2.67620E-03-5.63675E-14
 -1      3966 8.25147E-03-2.67227E-03-5.55087E-14
 -1      3967 8.67884E-03-2.91776E-03-6.23537E-14
 -1      3968 8.53640E-03-2.83715E-03-6.03336E-14
 -1      3969 8.53587E-03-2.83329E-03-5.94500E-14
 -1      3970 8.96391E-03-3.07918E-03-6.64683E-14
 -1      3971 8.82134E-03-2.99844E-03-6.43983E-14
 -1      3972 8.82062E-03-2.99466E-03-6.34919E-14
 -1      3973 9.24918E-03-3.24084E-03-7.06818E-14
 -1      3974 9.10652E-03-3.15999E-03-6.85627E-14
 -1      3975 9.10565E-03-3.15628E-03-6.76310E-14
 -1      3976 9.53461E-03-3.40269E-03-7.49935E-14
 -1      3977 9.39188E-03-3.32175E-03-7.28261E-14
 -1      3978 9.39090E-03-3.31810E-03-7.18706E-14
 -1      3979 9.82016E-03-3.56468E-03-7.93956E-14
 -1      3980 9.67737E-03-3.48367E-03-7.71839E-14
 -1      3981 9.67633E-03-3.48007E-03-7.62059E-14
 -1      3982 1.01058E-02-3.72679E-03-8.38913E-14
 -1      3983 9.96296E-03-3.64572E-03-8.16325E-14
 -1      3984 9.96187E-03-3.64216E-03-8.06319E-14
 -1      3985 1.03915E-02-3.88899E-03-8.84756E-14
 -1      3986 1.02486E-02-3.80788E-03-8.61711E-14
 -1      3987 1.02475E-02-3.80435E-03-8.51472E-14
 -1      3988 1.06772E-02-4.05125E-03-9.31427E-14
 -1      3989 1.05343E-02-3.97011E-03-9.08009E-14
 -1      3990 1.05332E-02-3.96660E-03-8.97518E-14
 -1      3991 1.09629E-02-4.21357E-03-9.78968E-14
 -1      3992 1.08201E-02-4.13240E-03-9.55090E-14
 -1      3993 1.08189E-02-4.12890E-03-9.44413E-14
 -1      3994 1.12487E-02-4.37592E-03-1.02735E-13
 -1      3995 1.11058E-02-4.29474E-03-1.00305E-13
 -1      3996 1.11047E-02-4.29125E-03-9.92138E-14
 -1      3997 1.15345E-02-4.53830E-03-1.07653E-13
 -1      3998 1.13916E-02-4.45711E-03-1.05184E-13
 -1      3999 1.13904E-02-4.45362E-03-1.04069E-13
 -1      4000 1.18202E-02-4.70070E-03-1.12645E-13
 -1      4001 1.16773E-02-4.61950E-03-1.10139E-13
 -1      4002 1.16762E-02-4.61602E-03-1.09005E-13
 -1      4003 1.21060E-02-4.86311E-03-1.17708E-13
 -1      4004 1.19631E-02-4.78191E-03-1.15169E-13
 -1      4005 1.19620E-02-4.77842E-03-1.14016E-13
 -1      4006 1.23917E-02-5.02554E-03-1.22835E-13
 -1      4007 1.22488E-02-4.94432E-03-1.20262E-13
 -1      4008 1.22477E-02-4.94084E-03-1.19096E-13
 -1      4009 1.26775E-02-5.18796E-03-1.28023E-13
 -1      4010 1.25346E-02-5.10675E-03-1.25423E-13
 -1      4011 1.25335E-02-5.10327E-03-1.24237E-13
 -1      4012 1.29632E-02-5.35040E-03-1.33264E-13
 -1      4013 1.28203E-02-5.26918E-03-1.30639E-13
 -1      4014 1.28192E-02-5.26570E-03-1.29439E-13
 -1      4015 2.23962E-03 3.23170E-04-4.28923E-15
 -1      4016 1.37936E-02-5.79639E-03-1.37580E-13
 -1      4017 1.33283E-02-5.55294E-03-1.37921E-13
 -1      4018 1.34122E-02-5.60224E-03-1.40164E-13
 -1      4019 2.17908E-03 2.87225E-04-4.01761E-15
 -1      4020 6.11871E-03-1.48908E-03-3.01799E-14
 -1      4021 5.97412E-03-1.41146E-03-2.86740E-14
 -1      4022 5.97978E-03-1.41245E-03-2.80227E-14
 -1      4023 1.33513E-02-5.57035E-03-1.40177E-13
 -1      4024 5.22850E-03-1.02019E-03-2.16394E-14
 -1      4025 5.07245E-03-9.39237E-04-2.03331E-14
 -1      4026 5.38789E-03-1.10599E-03-2.23844E-14
 -1      4027 6.33230E-03-1.52742E-03-2.47361E-14
 -1      4028 6.45666E-03-1.59591E-03-2.61638E-14
 -1      4029 4.01934E-03-3.63977E-04-1.31021E-14
 -1      4030 1.71955E-03 2.17501E-04-2.62735E-15
 -1      4031 1.96240E-03 2.08730E-04-3.28780E-15
 -1      4032 4.19223E-03-4.62976E-04-1.41822E-14
 -1      4033 5.93856E-03-1.33570E-03-2.09575E-14
 -1      4034 6.08586E-03-1.39530E-03-2.18699E-14
 -1      4035 6.20431E-03-1.45787E-03-2.32308E-14
 -1      4036 5.89564E-03-1.33166E-03-2.15928E-14
 -1      4037 6.84326E-03-1.81413E-03-3.06375E-14
 -1      4038 6.96902E-03-1.88645E-03-3.21143E-14
 -1      4039 6.96553E-03-1.89441E-03-3.28546E-14
 -1      4040 6.58357E-03-1.66662E-03-2.76242E-14
 -1      4041 6.71243E-03-1.73955E-03-2.91149E-14
 -1      4042 6.44509E-03-1.60322E-03-2.68515E-14
 -1      4043 1.34043E-02-5.58802E-03-1.35893E-13
 -1      4044 1.33246E-02-5.54596E-03-1.35785E-13
 -1      4045 1.31014E-02-5.42178E-03-1.32814E-13
 -1      4046 1.31853E-02-5.47108E-03-1.35036E-13
 -1      4047 5.45975E-03-1.14919E-03-1.99404E-14
 -1      4048 5.63956E-03-1.22996E-03-2.10607E-14
 -1      4049 5.37374E-03-1.10775E-03-2.01991E-14
 -1      4050 1.36518E-02-5.71866E-03-1.36189E-13
 -1      4051 1.84374E-03 2.16914E-04-2.95972E-15
 -1      4052 1.31051E-02-5.42877E-03-1.34933E-13
 -1      4053 4.50369E-03-6.50449E-04-1.56406E-14
 -1      4054 1.35634E-02-5.67197E-03-1.36086E-13
 -1      4055 1.34839E-02-5.63000E-03-1.35993E-13
 -1      4056 1.33203E-02-5.53863E-03-1.33663E-13
 -1      4057 6.26715E-03-1.56584E-03-3.10392E-14
 -1      4058 4.67384E-03-7.41104E-04-1.68113E-14
 -1      4059 6.18462E-03-1.46364E-03-2.38903E-14
 -1      4060 6.70586E-03-1.74748E-03-2.98311E-14
 -1      4061 4.81288E-03-8.04798E-04-1.82479E-14
 -1      4062 4.90937E-03-8.72310E-04-1.78882E-14
 -1      4063 5.11058E-03-9.73834E-04-1.92360E-14
 -1      4064 4.97422E-03-8.88952E-04-1.94951E-14
 -1      4065 2.04470E-03 2.48760E-04-3.54991E-15
 -1      4066 5.13765E-03-9.79719E-04-2.02062E-14
 -1      4067 7.36506E-03-2.13144E-03-3.84359E-14
 -1      4068 7.50330E-03-2.21082E-03-4.01353E-14
 -1      4069 7.64216E-03-2.29065E-03-4.18639E-14
 -1      4070 7.78156E-03-2.37091E-03-4.36220E-14
 -1      4071 7.50212E-03-2.21693E-03-4.09274E-14
 -1      4072 7.92143E-03-2.45146E-03-4.54074E-14
 -1      4073 8.06172E-03-2.53226E-03-4.72178E-14
 -1      4074 7.78119E-03-2.37675E-03-4.44379E-14
 -1      4075 8.20239E-03-2.61323E-03-4.90568E-14
 -1      4076 8.34337E-03-2.69435E-03-5.09214E-14
 -1      4077 8.06190E-03-2.53776E-03-4.80572E-14
 -1      4078 8.47757E-03-2.77151E-03-5.27182E-14
 -1      4079 8.61199E-03-2.84874E-03-5.45380E-14
 -1      4080 8.33681E-03-2.69546E-03-5.16899E-14
 -1      4081 8.75369E-03-2.93007E-03-5.64768E-14
 -1      4082 8.89558E-03-3.01145E-03-5.84434E-14
 -1      4083 8.61269E-03-2.85359E-03-5.54226E-14
 -1      4084 9.03763E-03-3.09284E-03-6.04362E-14
 -1      4085 9.17982E-03-3.17424E-03-6.24539E-14
 -1      4086 8.89643E-03-3.01602E-03-5.93528E-14
 -1      4087 9.32213E-03-3.25564E-03-6.44947E-14
 -1      4088 9.46454E-03-3.33704E-03-6.65601E-14
 -1      4089 9.18076E-03-3.17857E-03-6.33854E-14
 -1      4090 9.60703E-03-3.41843E-03-6.86522E-14
 -1      4091 9.74959E-03-3.49981E-03-7.07674E-14
 -1      4092 9.46553E-03-3.34116E-03-6.75173E-14
 -1      4093 9.89222E-03-3.58117E-03-7.29073E-14
 -1      4094 1.00349E-02-3.66252E-03-7.50701E-14
 -1      4095 9.75062E-03-3.50377E-03-7.17469E-14
 -1      4096 1.01776E-02-3.74386E-03-7.72566E-14
 -1      4097 1.03204E-02-3.82519E-03-7.94632E-14
 -1      4098 1.00360E-02-3.66635E-03-7.60713E-14
 -1      4099 1.04560E-02-3.90243E-03-8.15779E-14
 -1      4100 1.05917E-02-3.97967E-03-8.37141E-14
 -1      4101 1.03143E-02-3.82485E-03-8.03727E-14
 -1      4102 1.07345E-02-4.06095E-03-8.59831E-14
 -1      4103 1.08774E-02-4.14223E-03-8.82715E-14
 -1      4104 1.05928E-02-3.98332E-03-8.47550E-14
 -1      4105 1.10202E-02-4.22350E-03-9.05833E-14
 -1      4106 1.11631E-02-4.30476E-03-9.29139E-14
 -1      4107 1.08784E-02-4.14583E-03-8.93355E-14
 -1      4108 1.13059E-02-4.38602E-03-9.52666E-14
 -1      4109 1.14488E-02-4.46726E-03-9.76411E-14
 -1      4110 1.11642E-02-4.30832E-03-9.40003E-14
 -1      4111 1.15917E-02-4.54850E-03-1.00034E-13
 -1      4112 1.17346E-02-4.62974E-03-1.02447E-13
 -1      4113 1.14499E-02-4.47079E-03-9.87476E-14
 -1      4114 1.18775E-02-4.71097E-03-1.04880E-13
 -1      4115 1.20204E-02-4.79220E-03-1.07332E-13
 -1      4116 1.17357E-02-4.63325E-03-1.03574E-13
 -1      4117 1.21632E-02-4.87342E-03-1.09805E-13
 -1      4118 1.23061E-02-4.95465E-03-1.12297E-13
 -1      4119 1.20215E-02-4.79570E-03-1.08481E-13
 -1      4120 1.24419E-02-5.03181E-03-1.14683E-13
 -1      4121 1.25776E-02-5.10896E-03-1.17086E-13
 -1      4122 1.23001E-02-4.95407E-03-1.13343E-13
 -1      4123 1.27205E-02-5.19018E-03-1.19631E-13
 -1      4124 1.28634E-02-5.27140E-03-1.22193E-13
 -1      4125 1.25787E-02-5.11245E-03-1.18276E-13
 -1      4126 1.30062E-02-5.35261E-03-1.24771E-13
 -1      4127 1.31491E-02-5.43383E-03-1.27361E-13
 -1      4128 1.28645E-02-5.27488E-03-1.23402E-13
 -1      4129 1.31062E-02-5.43225E-03-1.36143E-13
 -1      4130 5.84250E-03-1.33886E-03-2.59262E-14
 -1      4131 5.69628E-03-1.26404E-03-2.45137E-14
 -1      4132 6.97916E-03-1.95147E-03-3.83805E-14
 -1      4133 6.83826E-03-1.87326E-03-3.67152E-14
 -1      4134 6.69732E-03-1.79550E-03-3.50792E-14
 -1      4135 6.55620E-03-1.71819E-03-3.34754E-14
 -1      4136 6.84192E-03-1.86982E-03-3.59827E-14
 -1      4137 7.54328E-03-2.26771E-03-4.53334E-14
 -1      4138 7.40209E-03-2.18821E-03-4.35527E-14
 -1      4139 7.82606E-03-2.42739E-03-4.89789E-14
 -1      4140 7.68459E-03-2.34746E-03-4.71421E-14
 -1      4141 7.68540E-03-2.34306E-03-4.63346E-14
 -1      4142 8.10940E-03-2.58778E-03-5.27339E-14
 -1      4143 7.96765E-03-2.50751E-03-5.08430E-14
 -1      4144 7.96791E-03-2.50315E-03-5.00099E-14
 -1      4145 8.39327E-03-2.74870E-03-5.65945E-14
 -1      4146 8.25127E-03-2.66818E-03-5.46521E-14
 -1      4147 8.25112E-03-2.66393E-03-5.37939E-14
 -1      4148 8.67761E-03-2.91000E-03-6.05643E-14
 -1      4149 8.53539E-03-2.82931E-03-5.85662E-14
 -1      4150 8.53494E-03-2.82518E-03-5.76852E-14
 -1      4151 8.96233E-03-3.07160E-03-6.46296E-14
 -1      4152 8.81992E-03-2.99077E-03-6.25851E-14
 -1      4153 8.81926E-03-2.98677E-03-6.16786E-14
 -1      4154 9.24735E-03-3.23341E-03-6.87972E-14
 -1      4155 9.10481E-03-3.15248E-03-6.67019E-14
 -1      4156 9.10398E-03-3.14860E-03-6.57716E-14
 -1      4157 9.53261E-03-3.39539E-03-7.30612E-14
 -1      4158 9.38995E-03-3.31438E-03-7.09155E-14
 -1      4159 9.38902E-03-3.31060E-03-6.99635E-14
 -1      4160 9.81803E-03-3.55748E-03-7.74184E-14
 -1      4161 9.67530E-03-3.47642E-03-7.52287E-14
 -1      4162 9.67429E-03-3.47272E-03-7.42517E-14
 -1      4163 1.01036E-02-3.71967E-03-8.18659E-14
 -1      4164 9.96080E-03-3.63856E-03-7.96311E-14
 -1      4165 9.95974E-03-3.63493E-03-7.86322E-14
 -1      4166 1.03892E-02-3.88192E-03-8.64038E-14
 -1      4167 1.02464E-02-3.80079E-03-8.41256E-14
 -1      4168 1.02453E-02-3.79720E-03-8.31038E-14
 -1      4169 1.06749E-02-4.04423E-03-9.10322E-14
 -1      4170 1.05321E-02-3.96307E-03-8.87072E-14
 -1      4171 1.05310E-02-3.95952E-03-8.76643E-14
 -1      4172 1.09607E-02-4.20657E-03-9.57380E-14
 -1      4173 1.08178E-02-4.12539E-03-9.33730E-14
 -1      4174 1.08167E-02-4.12187E-03-9.23096E-14
 -1      4175 1.12464E-02-4.36894E-03-1.00531E-13
 -1      4176 1.11035E-02-4.28775E-03-9.81251E-14
 -1      4177 1.11024E-02-4.28424E-03-9.70359E-14
 -1      4178 1.15322E-02-4.53133E-03-1.05403E-13
 -1      4179 1.13893E-02-4.45013E-03-1.02956E-13
 -1      4180 1.13882E-02-4.44664E-03-1.01848E-13
 -1      4181 1.18179E-02-4.69373E-03-1.10358E-13
 -1      4182 1.16751E-02-4.61253E-03-1.07872E-13
 -1      4183 1.16739E-02-4.60904E-03-1.06738E-13
 -1      4184 1.21037E-02-4.85615E-03-1.15389E-13
 -1      4185 1.19608E-02-4.77494E-03-1.12864E-13
 -1      4186 1.19597E-02-4.77146E-03-1.11710E-13
 -1      4187 1.23895E-02-5.01857E-03-1.20481E-13
 -1      4188 1.22466E-02-4.93736E-03-1.17927E-13
 -1      4189 1.22455E-02-4.93388E-03-1.16756E-13
 -1      4190 1.26752E-02-5.18100E-03-1.25638E-13
 -1      4191 1.25323E-02-5.09979E-03-1.23051E-13
 -1      4192 1.25312E-02-5.09630E-03-1.21866E-13
 -1      4193 1.29598E-02-5.34200E-03-1.30521E-13
 -1      4194 1.28169E-02-5.26078E-03-1.27909E-13
 -1      4195 1.28158E-02-5.25730E-03-1.26709E-13
 -1      4196 1.30991E-02-5.41687E-03-1.31266E-13
 -1      4197 6.13049E-03-1.48923E-03-2.88499E-14
 -1      4198 5.98705E-03-1.41382E-03-2.73714E-14
 -1      4199 5.99621E-03-1.41558E-03-2.67211E-14
 -1      4200 7.09065E-03-1.97466E-03-3.51256E-14
 -1      4201 7.22747E-03-2.05271E-03-3.67660E-14
 -1      4202 7.22503E-03-2.05895E-03-3.75312E-14
 -1      4203 2.30172E-03 2.76365E-04-4.40693E-15
 -1      4204 6.83297E-03-1.82902E-03-3.20949E-14
 -1      4205 6.96139E-03-1.90139E-03-3.35957E-14
 -1      4206 6.95708E-03-1.90751E-03-3.43374E-14
 -1      4207 6.56545E-03-1.68058E-03-2.90272E-14
 -1      4208 6.69867E-03-1.75410E-03-3.05455E-14
 -1      4209 6.69152E-03-1.75965E-03-3.12601E-14
 -1      4210 1.34882E-02-5.62730E-03-1.33867E-13
 -1      4211 7.26103E-03-2.10898E-03-4.18000E-14
 -1      4212 7.12005E-03-2.03006E-03-4.00747E-14
 -1      4213 7.12251E-03-2.02601E-03-3.93177E-14
 -1      4214 5.86772E-03-1.32950E-03-2.22226E-14
 -1      4215 6.03000E-03-1.39791E-03-2.30523E-14
 -1      4216 6.16513E-03-1.46705E-03-2.45494E-14
 -1      4217 6.30202E-03-1.53880E-03-2.60849E-14
 -1      4218 6.43313E-03-1.60878E-03-2.75403E-14
 -1      4219 6.42175E-03-1.61303E-03-2.82275E-14
 -1      4220 6.41482E-03-1.64137E-03-3.19018E-14
 -1      4221 6.27295E-03-1.56502E-03-3.03603E-14
 -1      4222 6.27999E-03-1.56429E-03-2.96821E-14
 -1      4223 6.56140E-03-1.71579E-03-3.27697E-14
 -1      4224 5.21565E-03-1.02373E-03-2.02772E-14
 -1      4225 5.28922E-03-1.06489E-03-2.01380E-14
 -1      4226 5.47200E-03-1.15389E-03-2.12660E-14
 -1      4227 5.31112E-03-1.07071E-03-2.11315E-14
 -1      4228 5.78614E-03-1.29931E-03-2.25010E-14
 -1      4229 6.14726E-03-1.46889E-03-2.52092E-14
 -1      4230 1.32472E-02-5.48995E-03-1.29298E-13
 -1      4231 1.33901E-02-5.57117E-03-1.31912E-13
 -1      4232 1.33017E-02-5.52448E-03-1.31804E-13
 -1      4233 1.31055E-02-5.41222E-03-1.27917E-13
 -1      4234 7.40361E-03-2.18388E-03-4.27693E-14
 -1      4235 5.46359E-03-1.14667E-03-2.24608E-14
 -1      4236 1.32402E-02-5.49167E-03-1.31589E-13
 -1      4237 1.31606E-02-5.44969E-03-1.31488E-13
 -1      4238 1.30190E-02-5.36990E-03-1.29205E-13
 -1      4239 1.31420E-02-5.43554E-03-1.29641E-13
 -1      4240 5.62460E-03-1.22798E-03-2.32085E-14
 -1      4241 6.54775E-03-1.68961E-03-3.04298E-14
 -1      4242 6.68457E-03-1.76428E-03-3.19743E-14
 -1      4243 7.64049E-03-2.30224E-03-4.34715E-14
 -1      4244 7.78062E-03-2.38223E-03-4.52529E-14
 -1      4245 7.87419E-03-2.44051E-03-4.72027E-14
 -1      4246 8.01512E-03-2.52085E-03-4.90393E-14
 -1      4247 8.15629E-03-2.60135E-03-5.09043E-14
 -1      4248 8.29060E-03-2.67798E-03-5.27010E-14
 -1      4249 8.43218E-03-2.75875E-03-5.46161E-14
 -1      4250 8.57394E-03-2.83962E-03-5.65581E-14
 -1      4251 8.71587E-03-2.92057E-03-5.85251E-14
 -1      4252 8.85793E-03-3.00158E-03-6.05195E-14
 -1      4253 9.00012E-03-3.08263E-03-6.25380E-14
 -1      4254 9.14243E-03-3.16372E-03-6.45824E-14
 -1      4255 9.28483E-03-3.24484E-03-6.66524E-14
 -1      4256 9.42731E-03-3.32599E-03-6.87458E-14
 -1      4257 9.56986E-03-3.40715E-03-7.08627E-14
 -1      4258 9.71247E-03-3.48832E-03-7.30032E-14
 -1      4259 9.85514E-03-3.56951E-03-7.51688E-14
 -1      4260 9.99785E-03-3.65070E-03-7.73572E-14
 -1      4261 1.04510E-02-3.90572E-03-8.35269E-14
 -1      4262 1.05939E-02-3.98695E-03-8.57962E-14
 -1      4263 1.07047E-02-4.05266E-03-8.85067E-14
 -1      4264 1.08475E-02-4.13387E-03-9.08237E-14
 -1      4265 1.09904E-02-4.21509E-03-9.31618E-14
 -1      4266 1.11333E-02-4.29630E-03-9.55185E-14
 -1      4267 1.12762E-02-4.37751E-03-9.78986E-14
 -1      4268 1.14190E-02-4.45872E-03-1.00298E-13
 -1      4269 1.15619E-02-4.53994E-03-1.02715E-13
 -1      4270 1.17048E-02-4.62115E-03-1.05157E-13
 -1      4271 1.18477E-02-4.70237E-03-1.07617E-13
 -1      4272 1.19906E-02-4.78358E-03-1.10096E-13
 -1      4273 1.24369E-02-5.03472E-03-1.16919E-13
 -1      4274 1.25798E-02-5.11593E-03-1.19468E-13
 -1      4275 1.26978E-02-5.18559E-03-1.22642E-13
 -1      4276 1.28407E-02-5.26680E-03-1.25223E-13
 -1      4277 7.73279E-03-2.36531E-03-4.62025E-14
 -1      4278 7.59205E-03-2.28550E-03-4.44082E-14
 -1      4279 1.01406E-02-3.73190E-03-7.95663E-14
 -1      4280 1.04201E-02-3.89386E-03-8.49668E-14
 -1      4281 1.02773E-02-3.81268E-03-8.27033E-14
 -1      4282 1.21335E-02-4.86480E-03-1.12596E-13
 -1      4283 1.24132E-02-5.02664E-03-1.18704E-13
 -1      4284 1.22703E-02-4.94543E-03-1.16162E-13
 -1      4285 1.29824E-02-5.34659E-03-1.27488E-13
 -1      4286 7.45155E-03-2.20599E-03-4.26414E-14
 -1      4287 6.76451E-03-1.81493E-03-3.35991E-14
 -1      4288 6.89607E-03-1.88780E-03-3.51260E-14
 -1      4289 7.03487E-03-1.96522E-03-3.67628E-14
 -1      4290 7.17395E-03-2.04331E-03-3.84309E-14
 -1      4291 5.98648E-03-1.39614E-03-2.43501E-14
 -1      4292 6.13008E-03-1.46898E-03-2.58774E-14
 -1      4293 7.31339E-03-2.12193E-03-4.01285E-14
 -1      4294 5.76429E-03-1.29368E-03-2.31352E-14
 -1      4295 6.27066E-03-1.54178E-03-2.73783E-14
 -1      4296 6.40702E-03-1.61386E-03-2.88600E-14
 -1      4297 6.39746E-03-1.61628E-03-2.95473E-14
 -1      4298 6.11202E-03-1.46660E-03-2.64827E-14
 -1      4299 6.61995E-03-1.74234E-03-3.27314E-14
 -1      4300 1.03154E-02-3.82855E-03-8.13938E-14
 -1      4301 1.23012E-02-4.95756E-03-1.14514E-13
 -1      4302 5.70273E-03-1.26590E-03-2.32770E-14
 -1      4303 1.05619E-02-3.97145E-03-8.62103E-14
 -1      4304 1.25550E-02-5.10438E-03-1.20076E-13
 -1      4305 6.48048E-03-1.66665E-03-3.11721E-14
 -1      4306 5.91008E-03-1.36838E-03-2.51488E-14
 -1      4307 6.34077E-03-1.59184E-03-2.96448E-14
 -1      4308 6.19657E-03-1.51564E-03-2.80938E-14
 -1      4309 7.50073E-03-2.22258E-03-4.17193E-14
 -1      4310 6.05588E-03-1.44263E-03-2.66306E-14
 -1      4311 1.30439E-02-5.37941E-03-1.27704E-13
 -3
    1PSTEP                         2           1           1          
  100CL  101 1.000000000        4311                     0    1           1
 -4  STRESS      6    1
 -5  SXX         1    4    1    1
 -5  SYY         1    4    2    2
 -5  SZZ         1    4    3    3
 -5  SXY         1    4    1    2
 -5  SYZ         1    4    2    3
 -5  SZX         1    4    3    1
 -1         1 1.86601E+01 9.24064E+00-5.14851E-02 1.31439E+01-3.65802E-12-4.67304E-12
 -1         2-7.10786E-01-2.63654E+01-3.48362E+00 1.79834E-01 3.99042E-13-3.43649E-14
 -1         3 1.99998E+01 7.71262E-06-2.53090E-05 7.76132E-06-6.97173E-13-8.69999E-13
 -1         4 1.99998E+01 7.21760E-06-2.59937E-05-7.41596E-06 1.90068E-13 1.69996E-13
 -1         5 3.42275E+01 6.41010E+00 2.90615E+00 6.53751E+00-4.76008E-14 3.68601E-12
 -1         6 3.97258E+01 1.34446E+01 5.08919E+00-8.72159E+00-1.88349E-13 3.17391E-12
 -1         7 2.51782E+01 7.32482E+00 1.59775E-01-3.41402E+00-2.68396E-14 6.06393E-13
 -1         8 2.18651E+01 6.56627E+00 1.13997E-01-1.33819E+00-3.76504E-14-2.07561E-13
 -1         9 1.89766E+01 5.72889E+00-2.95067E-02-6.99100E-01-3.41671E-14-6.65137E-13
 -1        10 1.67954E+01 5.08244E+00-1.15337E-01-7.81700E-01-2.34257E-14-9.05286E-13
 -1        11 1.55702E+01 4.71597E+00-1.41259E-01-1.22851E+00-1.92485E-14-1.01929E-12
 -1        12 1.53433E+01 4.64380E+00-1.10286E-01-1.69452E+00-1.44147E-14-1.04670E-12
 -1        13 1.59030E+01 4.80418E+00-4.15219E-02-1.92731E+00-9.64853E-15-1.03232E-12
 -1        14 1.68883E+01 5.09145E+00 3.36707E-02-1.78829E+00-5.48867E-15-9.92525E-13
 -1        15 1.79310E+01 5.39733E+00 9.04260E-02-1.29683E+00-5.06539E-16-9.36475E-13
 -1        16 1.87850E+01 5.64957E+00 1.19554E-01-5.63879E-01 6.51909E-15-8.96491E-13
 -1        17 1.93547E+01 5.81990E+00 1.24472E-01 2.81535E-01 8.51749E-15-8.46061E-13
 -1        18 1.96611E+01 5.91470E+00 1.13975E-01 1.12769E+00 1.69656E-14-7.66979E-13
 -1        19 1.98104E+01 5.96586E+00 9.42428E-02 1.95574E+00 2.86273E-14-6.39510E-13
 -1        20 1.99543E+01 6.02009E+00 6.82560E-02 2.75461E+00 3.76279E-14-3.77997E-13
 -1        21 2.03639E+01 6.16540E+00 4.20354E-02 3.60190E+00 4.74620E-14 1.52121E-13
 -1        22 2.19180E+01 6.60950E+00 1.27878E-01 4.83667E+00 7.84095E-15 1.23404E-12
 -1        23 2.96230E+01-1.64264E+00-1.05690E+00-4.25488E-01-1.23235E-13 2.54619E-12
 -1        24 2.82801E+01-1.28628E-01-3.51086E-01 1.78848E-01-3.94398E-14 1.98574E-12
 -1        25 3.02633E+01-6.03524E-02-9.02730E-02 1.92529E-01-2.18441E-14 1.45449E-12
 -1        26 3.29643E+01 1.61655E-02 8.59709E-02 1.94905E-01-1.03238E-14 1.16837E-12
 -1        27 3.51202E+01 9.92470E-02 3.33730E-01 9.99078E-02-7.63625E-15 1.09933E-12
 -1        28 3.44076E+01 1.14332E-01 4.66884E-01-3.14199E-01 3.47916E-14 1.26162E-12
 -1        29 2.98046E+01 6.37779E-02 2.01450E-01-7.52056E-01 5.70724E-16 1.40299E-12
 -1        30 2.19654E+01-6.67775E-02-6.52693E-01-9.09149E-01-3.52201E-14 9.33059E-13
 -1        31 1.62744E+01-2.04674E-01-1.43236E+00-2.78994E-01-9.65998E-14-4.65530E-14
 -1        32 1.82767E+01-1.77442E-01-1.15085E+00 7.48688E-01-2.00152E-14-1.31686E-12
 -1        33 2.50716E+01-4.42195E-02-3.10271E-01 9.35635E-01 7.89299E-15-2.09399E-12
 -1        34 3.22705E+01 1.18508E-01 3.90076E-01 5.72854E-01 4.61506E-14-2.19064E-12
 -1        35 3.54764E+01 1.25910E-01 4.49450E-01 7.02875E-02-6.90680E-15-1.80123E-12
 -1        36 3.43624E+01 7.23257E-02 2.05365E-01-1.48609E-01 3.66963E-14-1.24842E-12
 -1        37 3.14195E+01 1.24644E-02 1.41171E-02-1.65123E-01-3.74491E-14-9.73555E-13
 -1        38 2.83712E+01-1.78499E-02-5.89670E-02-1.18159E-01-4.87973E-14-9.24594E-13
 -1        39 2.59687E+01-3.13265E-02-6.87132E-02-7.54177E-02 2.58675E-14-8.16000E-13
 -1        40 2.40897E+01-2.79349E-02-5.38142E-02-4.28143E-02-3.91039E-14-8.13198E-13
 -1        41 2.27663E+01-2.26987E-02-3.73691E-02-2.30507E-02-6.04729E-14-8.04395E-13
 -1        42 2.18575E+01-1.70462E-02-2.46125E-02-1.19666E-02-2.40841E-14-1.05024E-12
 -1        43 2.12401E+01-1.23158E-02-1.59368E-02-5.93894E-03 5.32931E-14-1.00502E-12
 -1        44 2.08222E+01-8.76766E-03-1.03166E-02-2.75029E-03-9.56071E-15-9.76217E-13
 -1        45 2.05402E+01-5.90575E-03-6.58384E-03-7.69685E-04-1.33683E-14-9.88800E-13
 -1        46 2.03565E+01-4.52778E-03-4.58418E-03-3.12537E-04-6.44545E-15-6.32456E-13
 -1        47 2.02247E+01-3.05884E-03-2.98804E-03 1.76949E-04 1.05493E-14-6.94263E-13
 -1        48 2.01361E+01-2.15030E-03-1.99444E-03 3.70038E-04 5.09482E-14-6.11556E-13
 -1        49 2.00770E+01-1.51167E-03-1.33917E-03 4.37591E-04-5.89844E-14-7.08751E-13
 -1        50 2.00381E+01-1.06260E-03-8.99948E-04 4.42179E-04 1.23162E-14-8.46043E-13
 -1        51 2.00132E+01-7.49484E-04-6.02151E-04 4.14241E-04 6.88114E-14-4.90965E-13
 -1        52 1.99978E+01-5.02412E-04-3.90157E-04 4.00180E-04-6.36667E-14-7.43531E-13
 -1        53 1.99892E+01-3.73711E-04-2.65241E-04 3.23644E-04 1.02372E-14-6.33095E-13
 -1        54 1.99845E+01-2.48180E-04-1.62995E-04 2.84428E-04 7.17432E-14-5.34274E-13
 -1        55 1.99826E+01-1.65006E-04-9.48777E-05 2.40218E-04-1.99862E-14-2.06082E-13
 -1        56 1.99826E+01-1.05992E-04-4.89062E-05 1.99943E-04-5.89200E-14-6.09075E-14
 -1        57 1.99837E+01-6.46094E-05-1.84978E-05 1.64109E-04-2.36043E-14-1.42557E-13
 -1        58 1.99854E+01-3.64144E-05 8.64133E-07 1.32814E-04-2.99005E-14-7.21994E-13
 -1        59 1.99873E+01-1.70145E-05 1.20812E-05 1.06974E-04-4.55925E-14-3.07533E-13
 -1        60 1.99892E+01-4.00045E-06 1.89869E-05 8.42298E-05 1.33835E-13-3.81879E-14
 -1        61 1.99910E+01 3.11093E-06 2.12223E-05 6.60205E-05-4.02793E-14 3.22598E-13
 -1        62 1.99927E+01 7.70815E-06 2.15534E-05 5.06763E-05-1.45784E-14 4.20582E-13
 -1        63 1.99942E+01 9.95380E-06 2.03642E-05 3.84761E-05-2.11893E-14 3.12811E-13
 -1        64 1.99955E+01 1.06890E-05 1.83466E-05 2.89113E-05-5.60288E-14-4.76725E-13
 -1        65 1.99966E+01 1.05374E-05 1.59899E-05 2.15884E-05-2.79384E-14-8.73478E-13
 -1        66 1.99975E+01 9.32300E-06 1.33490E-05 1.55693E-05-5.33499E-15-4.12830E-14
 -1        67 1.99982E+01 9.50540E-06 1.18940E-05 1.22723E-05-8.20096E-14 1.28701E-13
 -1        68 1.99988E+01 8.35039E-06 1.03103E-05 9.16991E-06-5.77425E-14-1.03826E-13
 -1        69 1.99992E+01 7.91521E-06 1.00018E-05 6.62049E-06 1.31102E-13 6.19926E-13
 -1        70 1.99996E+01 7.76763E-06 1.09972E-05 3.74419E-06 2.80758E-14 6.89651E-13
 -1        71 1.99998E+01 6.60942E-06 1.13266E-05-1.56482E-06-1.78548E-13 7.01053E-13
 -1        72 1.99998E+01-4.21281E-07 1.16459E-07-9.64201E-06 8.64674E-14 4.08190E-13
 -1        73 2.17388E+01-4.17030E-01-1.01452E+00-3.20845E-01 5.33254E-14 3.36287E-12
 -1        74 1.96669E+01-6.30472E-02-2.93407E-01-5.87758E-02 1.85589E-14 2.56410E-12
 -1        75 1.85792E+01-1.57153E-02-5.10924E-02-1.74117E-02 2.26844E-14 1.97642E-12
 -1        76 1.77698E+01-7.36040E-03 4.69643E-03-2.64020E-03-4.64675E-15 1.57649E-12
 -1        77 1.70319E+01-6.88120E-03 6.50669E-03 1.04900E-02 1.32797E-14 1.30786E-12
 -1        78 1.63436E+01-9.37660E-03-5.40487E-03 1.97632E-02-4.08099E-15 9.77286E-13
 -1        79 1.57839E+01-1.21610E-02-1.90072E-02 2.26504E-02 1.39562E-14 8.73534E-13
 -1        80 1.54669E+01-1.33557E-02-2.89137E-02 1.78507E-02 2.14607E-14 7.89380E-13
 -1        81 1.54829E+01-1.20409E-02-3.16179E-02 6.62406E-03-3.78696E-14 7.22283E-13
 -1        82 1.58544E+01-8.44294E-03-2.62119E-02-7.41019E-03 3.15350E-14 7.02320E-13
 -1        83 1.65219E+01-3.66038E-03-1.49219E-02-1.98019E-02 3.61098E-14 4.90847E-13
 -1        84 1.73642E+01 9.57065E-04-1.86877E-03-2.72663E-02 1.54388E-15 3.95479E-13
 -1        85 1.82402E+01 4.38618E-03 8.99047E-03-2.88320E-02-1.50322E-14 2.96084E-13
 -1        86 1.90305E+01 6.20613E-03 1.54315E-02-2.56171E-02-7.61262E-15 1.93350E-13
 -1        87 1.96608E+01 6.54463E-03 1.72781E-02-1.97483E-02-1.36006E-14-1.88434E-14
 -1        88 2.01057E+01 5.84093E-03 1.57133E-02-1.32768E-02-3.67150E-14 1.35192E-13
 -1        89 2.03770E+01 4.59966E-03 1.23431E-02-7.58266E-03 2.35799E-14 7.31125E-14
 -1        90 2.05076E+01 3.23252E-03 8.53168E-03-3.28785E-03 3.67088E-14-1.27551E-13
 -1        91 2.05373E+01 2.00056E-03 5.12929E-03-4.54019E-04-5.03851E-14-9.09373E-14
 -1        92 2.05030E+01 1.02620E-03 2.50848E-03 1.15636E-03 6.56702E-14-1.41573E-13
 -1        93 2.04345E+01 3.33543E-04 7.16549E-04 1.87882E-03-3.27132E-14-1.64241E-13
 -1        94 2.03531E+01-1.08805E-04-3.68378E-04 2.03090E-03-2.42132E-14-1.39760E-13
 -1        95 2.02724E+01-3.55082E-04-9.25546E-04 1.86281E-03 3.64964E-14-3.54623E-13
 -1        96 2.02000E+01-4.62068E-04-1.12834E-03 1.54873E-03-8.71517E-14-7.57680E-14
 -1        97 2.01394E+01-4.78836E-04-1.11700E-03 1.19753E-03 1.43443E-15 4.22421E-13
 -1        98 2.00913E+01-4.43191E-04-9.92765E-04 8.69447E-04 3.58760E-14 1.61230E-13
 -1        99 2.00548E+01-3.81825E-04-8.22302E-04 5.92186E-04 1.34236E-15-1.86193E-13
 -1       100 2.00283E+01-3.12141E-04-6.45717E-04 3.73637E-04-3.56773E-14-2.20946E-13
 -1       101 2.00100E+01-2.44513E-04-4.84539E-04 2.10849E-04-8.32926E-14 8.37792E-14
 -1       102 1.99981E+01-1.84391E-04-3.48263E-04 9.58339E-05 9.70396E-14-1.19175E-13
 -1       103 1.99909E+01-1.34005E-04-2.39152E-04 1.90428E-05 6.04305E-14-4.72978E-13
 -1       104 1.99870E+01-9.36302E-05-1.55530E-04-2.87401E-05-1.51158E-14-6.02278E-13
 -1       105 1.99855E+01-6.24682E-05-9.38877E-05-5.55047E-05-2.38917E-14-1.47007E-13
 -1       106 1.99855E+01-3.92271E-05-5.01574E-05-6.77209E-05 1.90304E-14 2.80431E-13
 -1       107 1.99865E+01-2.24746E-05-2.04117E-05-7.03717E-05 1.73761E-14 2.63170E-13
 -1       108 1.99879E+01-1.08378E-05-1.19802E-06-6.71417E-05 1.01484E-13-4.12798E-13
 -1       109 1.99896E+01-3.10286E-06 1.03472E-05-6.06539E-05 5.29358E-14-4.70137E-13
 -1       110 1.99913E+01 1.74853E-06 1.64991E-05-5.27023E-05-9.31292E-14 4.64291E-13
 -1       111 1.99928E+01 4.53797E-06 1.90041E-05-4.44589E-05 4.32656E-14 2.01511E-13
 -1       112 1.99943E+01 5.90979E-06 1.91649E-05-3.66466E-05-1.13905E-14-3.50413E-13
 -1       113 1.99955E+01 6.35871E-06 1.79311E-05-2.96766E-05-1.08994E-13-1.38511E-13
 -1       114 1.99966E+01 6.26038E-06 1.59881E-05-2.37512E-05 1.76329E-13-5.89770E-13
 -1       115 1.99975E+01 5.90055E-06 1.38415E-05-1.89367E-05-2.60831E-14-1.43960E-12
 -1       116 1.99982E+01 5.49771E-06 1.19044E-05-1.52054E-05 1.24729E-14-1.61694E-12
 -1       117 1.99988E+01 5.20506E-06 1.05884E-05-1.24286E-05-2.48627E-14-7.15834E-13
 -1       118 1.99992E+01 5.11800E-06 1.03629E-05-1.03235E-05 5.96234E-14-1.31850E-12
 -1       119 1.99996E+01 5.15041E-06 1.14195E-05-8.26320E-06-3.26579E-14-1.45211E-12
 -1       120 1.99998E+01 4.23727E-06 1.14653E-05-3.94805E-06 4.38454E-14-1.07946E-12
 -1       121 1.99998E+01-4.50340E-06-1.02819E-06 6.49655E-06 3.10130E-13-1.37951E-12
 -1       122 1.99998E+01 2.03271E-05 6.38935E-08 1.00447E-05-1.21998E-12 2.87091E-13
 -1       123 1.99998E+01-4.36587E-05 1.12194E-05-1.05669E-06-8.66479E-14-6.07185E-15
 -1       124 1.99998E+01-2.44426E-04 8.19724E-06-7.67521E-06 6.80846E-13 3.99690E-14
 -1       125 1.99998E+01-5.25535E-04 2.72224E-06-1.03516E-05 7.59647E-13 1.11668E-13
 -1       126 1.99998E+01-8.30068E-04-2.25313E-06-1.02802E-05-1.13512E-13-3.18600E-13
 -1       127 1.99998E+01-1.10300E-03-6.05582E-06-8.57019E-06-8.60439E-13-3.14385E-14
 -1       128 1.99998E+01-1.31213E-03-8.60801E-06-5.58817E-06-8.51385E-13 2.95116E-13
 -1       129 1.99998E+01-1.42366E-03-9.90772E-06-1.91166E-06-4.56988E-13 2.02934E-13
 -1       130 1.99998E+01-1.42269E-03-9.90381E-06 1.99242E-06 3.07733E-13-1.38429E-13
 -1       131 1.99998E+01-1.30927E-03-8.59449E-06 5.66125E-06 7.27471E-13-2.29082E-13
 -1       132 1.99998E+01-1.09851E-03-5.97324E-06 8.71230E-06-4.69591E-13 4.47985E-14
 -1       133 1.99998E+01-8.24459E-04-2.22125E-06 1.03447E-05-1.19227E-12 2.92680E-13
 -1       134 1.99998E+01-5.19363E-04 2.74746E-06 1.03467E-05-8.85553E-13 1.02442E-14
 -1       135 1.99998E+01-2.38847E-04 8.50911E-06 7.96478E-06-5.22434E-13 1.67518E-13
 -1       136 1.99998E+01-3.94133E-05 1.16169E-05 5.39325E-08-1.35306E-14-1.81908E-13
 -1       137 1.99998E+01 2.01724E-05 5.65613E-08-1.45243E-05-5.40181E-13 4.75576E-14
 -1       138-1.28015E+00-1.95274E+01-2.98817E+00-3.66370E+00 2.08800E-12 4.75203E-13
 -1       139-1.13439E+00-6.67274E+00-2.06879E+00-2.22672E+00 3.81101E-12 1.76548E-12
 -1       140 4.53336E+00 5.97127E+00-7.64947E-01 5.37328E+00 4.06286E-12 3.09408E-12
 -1       141 1.83936E+01 1.23014E+01 6.69139E-01 1.48658E+01 3.13843E-12 3.50420E-12
 -1       142 3.71862E+01 1.10380E+01 1.95661E+00 1.96932E+01 1.70677E-12 2.95708E-12
 -1       143 5.67881E+01 5.62319E+00 2.97263E+00 1.65747E+01 5.17295E-13 1.55675E-12
 -1       144 6.78893E+01 1.28731E+00 3.44839E+00 5.83731E+00 2.59202E-14-2.52007E-13
 -1       145 6.63374E+01 1.91142E+00 3.34091E+00-8.13558E+00 3.99352E-13-2.44557E-12
 -1       146 5.11384E+01 7.14106E+00 2.57188E+00-1.80158E+01 1.55166E-12-4.00319E-12
 -1       147 3.10300E+01 1.18718E+01 1.44044E+00-1.87845E+01 2.83379E-12-4.45927E-12
 -1       148 1.31539E+01 1.11371E+01 1.27373E-01-1.20770E+01 3.89977E-12-3.94290E-12
 -1       149 2.41520E+00 3.09486E+00-1.14130E+00-3.15168E+00 4.10838E-12-2.67342E-12
 -1       150-1.22570E+00-9.25205E+00-2.20575E+00 2.64732E+00 3.18867E-12-1.27537E-12
 -1       151-9.73563E-01-2.05078E+01-2.99735E+00 2.62396E+00 1.31206E-12-2.60680E-13
 -1       152-8.67743E-01-2.51738E+01-3.42912E+00-1.53994E+00-8.73378E-13-1.14336E-13
 -1       153-2.17043E+00-2.11156E+01-3.44871E+00-5.32108E+00-2.89324E-12-8.60555E-13
 -1       154-2.56185E+00-1.03271E+01-2.96929E+00-4.45483E+00-4.23339E-12-2.26835E-12
 -1       155 2.44803E+00 1.48038E+00-1.89968E+00 2.51182E+00-4.47520E-12-3.67284E-12
 -1       156 4.19655E+01 9.40800E+00 2.17373E+00 1.92859E+01-2.39586E-12-4.82814E-12
 -1       157 6.62971E+01 4.95374E+00 4.28801E+00 1.60798E+01-1.00928E-12-3.51857E-12
 -1       158 7.97176E+01 1.41442E+00 5.48857E+00 4.17782E+00-1.20064E-13-1.37218E-12
 -1       159 7.51481E+01 2.72309E+00 5.08901E+00-1.07848E+01-2.53309E-13 1.19504E-12
 -1       160 5.49626E+01 7.46756E+00 3.30607E+00-1.91976E+01-1.43599E-12 3.64453E-12
 -1       161 3.04217E+01 1.04406E+01 1.13910E+00-1.75666E+01-2.76895E-12 4.52005E-12
 -1       162 1.08454E+01 7.45933E+00-7.82547E-01-9.18748E+00-3.68383E-12 3.97304E-12
 -1       163-7.97254E-02-2.09445E+00-2.21459E+00 3.33036E-01-3.52596E-12 2.62990E-12
 -1       164-2.85486E+00-1.48000E+01-3.11073E+00 5.63624E+00-2.79843E-12 1.17792E-12
 -1       165-1.63157E+00-2.40829E+01-3.50343E+00 4.70180E+00-1.42267E-12 4.14236E-13
 -1       166 2.47644E+01 3.90195E+00-2.69652E-02-1.78290E+00-4.19508E-13 1.85615E-13
 -1       167 2.08558E+01 4.78638E+00-3.54535E-02-9.66009E-01-3.89310E-13-3.39699E-13
 -1       168 1.77195E+01 5.25358E+00-2.95040E-02-8.26251E-01-3.22941E-13-6.58231E-13
 -1       169 1.56892E+01 5.38851E+00-2.23853E-02-1.15531E+00-2.73793E-13-8.33644E-13
 -1       170 1.49641E+01 5.23800E+00-1.76656E-02-1.64161E+00-2.31574E-13-8.89521E-13
 -1       171 1.53829E+01 4.88539E+00-1.62060E-02-1.97877E+00-1.93115E-13-8.96997E-13
 -1       172 1.65304E+01 4.49289E+00-1.59208E-02-1.95568E+00-1.37968E-13-8.57074E-13
 -1       173 1.78833E+01 4.20525E+00-1.69696E-02-1.54838E+00-7.52913E-14-8.08663E-13
 -1       174 1.90490E+01 4.08465E+00-1.88889E-02-8.61841E-01 1.29124E-14-7.52991E-13
 -1       175 1.98495E+01 4.10554E+00-2.14600E-02-3.82082E-02 1.01119E-13-7.10217E-13
 -1       176 2.02828E+01 4.19706E+00-2.47444E-02 7.97079E-01 1.92402E-13-6.34904E-13
 -1       177 2.04710E+01 4.29097E+00-2.95232E-02 1.61522E+00 3.07998E-13-5.41522E-13
 -1       178 2.05751E+01 4.32005E+00-3.85272E-02 2.39190E+00 4.08486E-13-3.67177E-13
 -1       179 2.08506E+01 4.19200E+00-5.42586E-02 3.15543E+00 4.76744E-13-3.14991E-14
 -1       180 2.18321E+01 3.56553E+00-6.85314E-02 3.88457E+00 4.79323E-13 6.22079E-13
 -1       181 2.31174E+01 1.19930E+00-3.56126E-01 3.29031E+00 3.68497E-13 1.48832E-12
 -1       182 2.77399E+01 9.30922E-01 8.77298E-03-4.18535E-01-3.55858E-13 8.05123E-13
 -1       183 2.74458E+01 3.21816E-01-9.05305E-03 1.12558E+00-2.86830E-13 6.73947E-13
 -1       184 2.82429E+01 1.10314E-01 1.06162E-02 1.78870E+00-1.32891E-13 6.11969E-13
 -1       185 2.95713E+01-3.90534E-01 1.61688E-02 1.57562E+00 3.32174E-14 6.47267E-13
 -1       186 3.08509E+01-1.15248E+00 2.35261E-02-4.81453E-02 1.15553E-13 8.08056E-13
 -1       187 3.13873E+01-1.52148E+00-1.14627E-02-2.56504E+00 1.17840E-14 8.19615E-13
 -1       188 3.08579E+01-6.43274E-01-1.10964E-01-4.75033E+00-3.40891E-13 6.46051E-13
 -1       189 2.94329E+01 1.71863E+00-2.50151E-01-3.71739E+00-7.76559E-13 2.40082E-13
 -1       190 2.88139E+01 2.67128E+00-2.96771E-01 1.12492E+00-9.24649E-13-4.84536E-13
 -1       191 2.97240E+01 1.01104E+00-2.21654E-01 4.46546E+00-6.07778E-13-9.85343E-13
 -1       192 3.09944E+01-1.06945E+00-9.75804E-02 4.33656E+00-7.45966E-14-1.24627E-12
 -1       193 3.11774E+01-1.52723E+00 8.10760E-03 1.44720E+00 2.29424E-13-1.15921E-12
 -1       194 3.00326E+01-8.20973E-01 1.37033E-02-1.07924E+00 2.68658E-13-9.87621E-13
 -1       195 2.83139E+01-1.83426E-01-1.57387E-03-2.13578E+00 2.34157E-13-9.23504E-13
 -1       196 2.65175E+01 1.15018E-01-5.80855E-03-2.17905E+00 8.47672E-14-6.70307E-13
 -1       197 2.49818E+01 1.93630E-01-1.78709E-03-1.82925E+00 4.58479E-14-5.26806E-13
 -1       198 2.36483E+01 1.81751E-01 2.14837E-03-1.38443E+00-4.87457E-16-4.74929E-13
 -1       199 2.26226E+01 1.41766E-01 4.17324E-03-9.95969E-01-8.64890E-15-4.29863E-13
 -1       200 2.18603E+01 1.02274E-01 4.38446E-03-6.98245E-01-9.44882E-14-2.95744E-13
 -1       201 2.13069E+01 7.11499E-02 3.75020E-03-4.83466E-01-6.84821E-14-2.92286E-13
 -1       202 2.09107E+01 4.87076E-02 2.90887E-03-3.32973E-01-7.83683E-14-5.52048E-13
 -1       203 2.06297E+01 3.31097E-02 2.17075E-03-2.28825E-01 8.30102E-14-4.68398E-13
 -1       204 2.04390E+01 2.29870E-02 1.52156E-03-1.60029E-01 1.84100E-13-2.96649E-13
 -1       205 2.02963E+01 1.57644E-02 1.11926E-03-1.09789E-01-2.10405E-13-4.88154E-13
 -1       206 2.01964E+01 1.08265E-02 7.89024E-04-7.49483E-02-3.78327E-14-6.14903E-13
 -1       207 2.01267E+01 7.46763E-03 5.57183E-04-5.07939E-02 7.93858E-15-6.76076E-13
 -1       208 2.00785E+01 5.16028E-03 3.93365E-04-3.39956E-02-7.15301E-14-5.30329E-13
 -1       209 2.00456E+01 3.56170E-03 2.78205E-04-2.23102E-02 2.84309E-13-4.48786E-13
 -1       210 2.00236E+01 2.44120E-03 1.97309E-04-1.41959E-02-1.34814E-13-3.57760E-13
 -1       211 2.00097E+01 1.68772E-03 1.36088E-04-8.84008E-03 1.52439E-13-8.71986E-14
 -1       212 2.00004E+01 1.13140E-03 9.77468E-05-4.97475E-03 1.23856E-13-1.30563E-14
 -1       213 1.99949E+01 7.35218E-04 6.69611E-05-2.38182E-03 8.73387E-15-1.51903E-13
 -1       214 1.99919E+01 4.58387E-04 4.52668E-05-7.00522E-04 1.30985E-15-1.49941E-13
 -1       215 1.99906E+01 2.66686E-04 2.98055E-05 3.43677E-04-1.54695E-13-2.56238E-13
 -1       216 1.99905E+01 1.36388E-04 1.89655E-05 9.46587E-04-2.58512E-13-1.80593E-13
 -1       217 1.99910E+01 5.00634E-05 1.13106E-05 1.25037E-03 1.43136E-13-1.43596E-13
 -1       218 1.99918E+01-2.67293E-06 6.05296E-06 1.35413E-03 8.32453E-14-3.57263E-14
 -1       219 1.99929E+01-3.58016E-05 2.73252E-06 1.34003E-03 1.35832E-13-2.25088E-13
 -1       220 1.99939E+01-5.35557E-05 4.02580E-07 1.25080E-03 1.12471E-13-1.27043E-13
 -1       221 1.99950E+01-6.07661E-05-9.87216E-07 1.12161E-03 6.79360E-15-4.05429E-14
 -1       222 1.99959E+01-6.12397E-05-1.76712E-06 9.76915E-04-4.34420E-13-8.36430E-14
 -1       223 1.99968E+01-5.77007E-05-2.13822E-06 8.31985E-04-2.80384E-13-9.05391E-14
 -1       224 1.99975E+01-5.21194E-05-2.29516E-06 6.95521E-04 3.88829E-13-2.62368E-13
 -1       225 1.99981E+01-4.63907E-05-2.21982E-06 5.77537E-04 2.08200E-13 1.70850E-13
 -1       226 1.99986E+01-4.12131E-05-2.17823E-06 4.66447E-04-1.45622E-13 4.02702E-13
 -1       227 1.99990E+01-3.77834E-05-2.02321E-06 3.65573E-04 2.63882E-13 3.49109E-13
 -1       228 1.99993E+01-3.71247E-05-1.74403E-06 2.70185E-04-5.15675E-14 1.97870E-13
 -1       229 1.99996E+01-3.95269E-05-1.27075E-06 1.74048E-04 7.15679E-14 8.58684E-14
 -1       230 1.99997E+01-4.51025E-05-1.21686E-06 7.52887E-05-1.01679E-13 1.87042E-13
 -1       231 2.14282E+01 2.61570E-01-5.48995E-02 1.42227E+00 3.74804E-13 1.30026E-12
 -1       232 1.99853E+01 9.40671E-02 9.25911E-03 7.75281E-01 2.90800E-13 1.04205E-12
 -1       233 1.90359E+01 2.46232E-02 1.40106E-02 5.80415E-01 2.02922E-13 8.39900E-13
 -1       234 1.82993E+01 1.08648E-02 8.55585E-03 5.12254E-01 1.77842E-13 6.50831E-13
 -1       235 1.76927E+01 2.40905E-02 4.24803E-03 4.46862E-01 1.41427E-13 5.34448E-13
 -1       236 1.72267E+01 4.81916E-02 1.80350E-03 3.28153E-01 8.00842E-14 4.21240E-13
 -1       237 1.69530E+01 6.97684E-02 6.00999E-04 1.43631E-01 4.97178E-14 3.25717E-13
 -1       238 1.69195E+01 7.80311E-02 2.27137E-04-8.26006E-02 4.34305E-14 2.87973E-13
 -1       239 1.71372E+01 6.83369E-02 4.40269E-04-3.03510E-01 8.37913E-14 1.33357E-13
 -1       240 1.75671E+01 4.38426E-02 8.87294E-04-4.70366E-01 8.69587E-14 1.15202E-13
 -1       241 1.81299E+01 1.32503E-02 1.19749E-03-5.52838E-01 2.96251E-14 9.50546E-14
 -1       242 1.87310E+01-1.40339E-02 1.14639E-03-5.47993E-01 4.37919E-14 5.95635E-14
 -1       243 1.92873E+01-3.19996E-02 7.48246E-04-4.75745E-01 9.04013E-14-4.97237E-14
 -1       244 1.97438E+01-3.92846E-02 1.89109E-04-3.66526E-01 3.11068E-14-9.59510E-14
 -1       245 2.00772E+01-3.79685E-02-3.23559E-04-2.49227E-01-2.51127E-14-9.79564E-14
 -1       246 2.02900E+01-3.15128E-02-6.59768E-04-1.44217E-01 7.51552E-14-2.15180E-13
 -1       247 2.04011E+01-2.31333E-02-7.87817E-04-6.18377E-02 2.58577E-14-1.76775E-13
 -1       248 2.04355E+01-1.50423E-02-7.49370E-04-4.37169E-03-2.30823E-14-1.66591E-13
 -1       249 2.04186E+01-8.38684E-03-6.12247E-04 3.08512E-02 2.89911E-14-9.95447E-14
 -1       250 2.03719E+01-3.51849E-03-4.38932E-04 4.86990E-02-6.79009E-14-8.18273E-14
 -1       251 2.03115E+01-3.19352E-04-2.72643E-04 5.43717E-02 3.18816E-14-1.31037E-13
 -1       252 2.02485E+01 1.53838E-03-1.36165E-04 5.23982E-02 8.02532E-14-2.13225E-13
 -1       253 2.01898E+01 2.42727E-03-3.67347E-05 4.62604E-02-1.30129E-13-3.23534E-13
 -1       254 2.01389E+01 2.67925E-03 2.78272E-05 3.83851E-02-1.69256E-13-3.97726E-13
 -1       255 2.00970E+01 2.55344E-03 6.40894E-05 3.03121E-02 9.78742E-14-1.14468E-13
 -1       256 2.00640E+01 2.23400E-03 7.97255E-05 2.29135E-02 4.34791E-15 4.01936E-14
 -1       257 2.00391E+01 1.84160E-03 8.17204E-05 1.65998E-02-1.11318E-13 2.51212E-13
 -1       258 2.00210E+01 1.44876E-03 7.56325E-05 1.14877E-02-1.28089E-13 6.47953E-14
 -1       259 2.00084E+01 1.09432E-03 6.54870E-05 7.52321E-03 2.63837E-13-7.25145E-14
 -1       260 2.00001E+01 7.95118E-04 5.39703E-05 4.56586E-03 2.63580E-13-2.08399E-13
 -1       261 1.99950E+01 5.54592E-04 4.27242E-05 2.44306E-03-1.06196E-13-1.05983E-13
 -1       262 1.99922E+01 3.68806E-04 3.26391E-05 9.81861E-04-1.42311E-13-4.11086E-14
 -1       263 1.99910E+01 2.30350E-04 2.41011E-05 2.58183E-05-1.67146E-13-4.83366E-14
 -1       264 1.99908E+01 1.30740E-04 1.71809E-05-5.57701E-04 1.59933E-14 1.38868E-13
 -1       265 1.99913E+01 6.17598E-05 1.17702E-05-8.76062E-04 4.60512E-13 3.13621E-14
 -1       266 1.99921E+01 1.61137E-05 7.67394E-06-1.01299E-03-2.38931E-13-1.73787E-13
 -1       267 1.99931E+01-1.23159E-05 4.66769E-06-1.03166E-03-3.04121E-13 2.55257E-13
 -1       268 1.99942E+01-2.84515E-05 2.53055E-06-9.78250E-04 2.41990E-13 1.93963E-13
 -1       269 1.99952E+01-3.61272E-05 1.06250E-06-8.85396E-04 9.57828E-14 4.51384E-13
 -1       270 1.99962E+01-3.82574E-05 9.19676E-08-7.75255E-04 5.60179E-14 4.19412E-13
 -1       271 1.99970E+01-3.70210E-05-5.22381E-07-6.62041E-04 5.12879E-13 3.14693E-14
 -1       272 1.99977E+01-3.40432E-05-8.90700E-07-5.54018E-04 7.23036E-14-2.31582E-13
 -1       273 1.99983E+01-3.05720E-05-1.08701E-06-4.54968E-04 1.61379E-13-2.78439E-13
 -1       274 1.99988E+01-2.76363E-05-1.13364E-06-3.65181E-04-2.09682E-13-7.79494E-13
 -1       275 1.99991E+01-2.60971E-05-9.56138E-07-2.82114E-04 2.36295E-13-5.74287E-13
 -1       276 1.99994E+01-2.67487E-05-4.45474E-07-2.01175E-04-8.05002E-14-3.46314E-13
 -1       277 1.99996E+01-3.05683E-05-4.41641E-07-1.16654E-04-1.06317E-13-1.62531E-13
 -1       278 1.99998E+01-2.74777E-05-1.68773E-06-3.16516E-05 8.75071E-14-1.09414E-13
 -1       279 1.99998E+01-9.54117E-05-9.83375E-07-8.01001E-05 1.16672E-13 6.55425E-13
 -1       280 1.99998E+01-2.38044E-04-3.31196E-07-1.65318E-04-6.63546E-15 4.05679E-13
 -1       281 1.99998E+01-4.29996E-04-1.31524E-07-2.21416E-04-1.49802E-13 8.13926E-14
 -1       282 1.99998E+01-6.45581E-04 1.20620E-07-2.37137E-04-2.85831E-13-3.44069E-13
 -1       283 1.99998E+01-8.50994E-04 5.61247E-07-2.15436E-04-4.03087E-13-5.47446E-13
 -1       284 1.99998E+01-1.02447E-03 9.58312E-07-1.62115E-04-2.20543E-13-6.92176E-14
 -1       285 1.99998E+01-1.13837E-03 1.23882E-06-8.64571E-05-1.12508E-13 3.23539E-13
 -1       286 1.99998E+01-1.17771E-03 1.33715E-06 7.02978E-07 3.71105E-14 4.29998E-13
 -1       287 1.99998E+01-1.13729E-03 1.23972E-06 8.78256E-05 8.67683E-14 6.07763E-14
 -1       288 1.99998E+01-1.02233E-03 9.57691E-07 1.63361E-04-1.31955E-13-8.24770E-13
 -1       289 1.99998E+01-8.51466E-04 5.32448E-07 2.15750E-04-1.51026E-13-1.13975E-13
 -1       290 1.99998E+01-6.42075E-04 1.06577E-07 2.37517E-04-5.42159E-14-6.15089E-14
 -1       291 1.99998E+01-4.26345E-04-2.48879E-07 2.20914E-04-2.35259E-13 1.96027E-13
 -1       292 1.99998E+01-2.35688E-04-4.18548E-07 1.65101E-04-4.96298E-13 3.47631E-13
 -1       293-7.36256E-01-1.13231E+01-9.93877E-01 2.24129E+00 4.20580E-13 8.58591E-13
 -1       294 3.21531E+00-8.25482E+00-7.74918E-01 4.33043E+00 9.41358E-13 1.35469E-12
 -1       295 1.03932E+01-3.89737E+00-4.31832E-01 6.58762E+00 1.44262E-12 1.30003E-12
 -1       296 2.10588E+01-2.64109E-01-9.32555E-03 8.15166E+00 1.34812E-12 1.01463E-12
 -1       297 3.08606E+01 3.75873E+00 3.87240E-01 8.77948E+00 1.38158E-12 9.20541E-13
 -1       298 3.98625E+01 5.64264E+00 6.24363E-01 6.38608E+00 1.07294E-12 3.39645E-13
 -1       299 4.72232E+01 6.83966E+00 9.64577E-01 4.08200E+00 9.34572E-13-1.13770E-13
 -1       300 4.84343E+01 7.29498E+00 9.35434E-01-2.08598E-01 1.08397E-12-7.89584E-13
 -1       301 4.38871E+01 6.85813E+00 6.51008E-01-3.55817E+00 1.21834E-12-1.21717E-12
 -1       302 3.75468E+01 5.21255E+00 5.43472E-01-7.45377E+00 1.41005E-12-1.73994E-12
 -1       303 2.76334E+01 2.87985E+00 2.08498E-01-8.57004E+00 1.59761E-12-1.83070E-12
 -1       304 1.77105E+01-6.94271E-01-1.30812E-01-7.99049E+00 1.40260E-12-1.59772E-12
 -1       305 9.12745E+00-4.15458E+00-3.61716E-01-6.80746E+00 9.72195E-13-1.37436E-12
 -1       306 2.13354E+00-7.59559E+00-6.95968E-01-4.26083E+00 6.15230E-13-1.26626E-12
 -1       307-1.06989E+00-9.79485E+00-8.67657E-01-2.11791E+00-7.24837E-14-1.13048E-12
 -1       308-8.43348E-01-9.69776E+00-8.66045E-01 3.08839E-01-6.99607E-13-1.21375E-12
 -1       309 2.94544E+00-8.84280E+00-9.13271E-01 2.61100E+00-1.26510E-12-1.39885E-12
 -1       310 1.02528E+01-6.23851E+00-7.57299E-01 4.75698E+00-1.68610E-12-1.72748E-12
 -1       311 2.34710E+01-4.14560E+00-2.54648E-01 5.74057E+00-1.38145E-12-1.46355E-12
 -1       312 3.50167E+01 5.83389E-01 3.03101E-01 5.86744E+00-1.54760E-12-1.85985E-12
 -1       313 4.53830E+01 3.45477E+00 9.16255E-01 2.77418E+00-1.42981E-12-1.27665E-12
 -1       314 5.26600E+01 6.43334E+00 1.53873E+00 1.75500E+00-1.27406E-12-9.60843E-13
 -1       315 5.32001E+01 7.38018E+00 1.59451E+00-4.19804E-01-1.28036E-12-1.97134E-13
 -1       316 5.00488E+01 5.45489E+00 1.34778E+00-3.01951E+00-1.39963E-12 4.58078E-13
 -1       317 4.09296E+01 2.48784E+00 6.89100E-01-5.35032E+00-1.30698E-12 1.12477E-12
 -1       318 2.90103E+01-6.94865E-01 1.42419E-02-6.45451E+00-1.27359E-12 1.49386E-12
 -1       319 1.75818E+01-4.41288E+00-4.65195E-01-5.87109E+00-1.09363E-12 1.56569E-12
 -1       320 7.57784E+00-7.63033E+00-7.78414E-01-4.23610E+00-9.61065E-13 1.24931E-12
 -1       321 1.11667E+00-1.06366E+01-1.01492E+00-1.71176E+00-7.01328E-13 1.01334E-12
 -1       322-1.39669E+00-1.14740E+01-9.83268E-01 2.07080E-01-1.78094E-13 9.25066E-13
 -1       323 1.99998E+01-9.61453E-05-2.03391E-06 8.18893E-05 7.75371E-15-1.39410E-13
 -1       324 1.91115E+01 4.16911E+00-1.52329E-02-8.02549E-02-3.69355E-13-3.72829E-13
 -1       325 2.31081E+01 2.75635E+00-8.82821E-03-1.29327E-02-3.97796E-13-1.91080E-14
 -1       326 1.45533E+01 5.26210E+00 1.30450E-04-1.51839E+00-3.12383E-13-7.21289E-13
 -1       327 1.46712E+01 4.85546E+00-1.27906E-03-2.28527E+00-3.01066E-13-7.67555E-13
 -1       328 1.59473E+01 4.11179E+00-4.53804E-03-2.54487E+00-2.55382E-13-7.16480E-13
 -1       329 1.76687E+01 3.37579E+00-1.08704E-02-2.20075E+00-1.75938E-13-6.44425E-13
 -1       330 1.92199E+01 2.89810E+00-1.55656E-02-1.42333E+00-7.54739E-14-5.71218E-13
 -1       331 2.03010E+01 2.71892E+00-1.86216E-02-4.69704E-01 4.54551E-14-5.27620E-13
 -1       332 2.08854E+01 2.73931E+00-2.10037E-02 4.56125E-01 1.65203E-13-4.73257E-13
 -1       333 2.11158E+01 2.82575E+00-2.28638E-02 1.29532E+00 2.96341E-13-3.81012E-13
 -1       334 2.11598E+01 2.84445E+00-2.52997E-02 2.00172E+00 4.18258E-13-2.55103E-13
 -1       335 2.12246E+01 2.65047E+00-2.86542E-02 2.54793E+00 5.21291E-13-6.81582E-14
 -1       336 2.15097E+01 2.00047E+00-3.47839E-02 2.75228E+00 5.52540E-13 3.40386E-13
 -1       337 2.16888E+01 1.14130E+00-2.85576E-02 2.30459E+00 4.93791E-13 7.16371E-13
 -1       338 2.07523E+01 3.81989E-01 6.56775E-03 1.43601E+00 3.97495E-13 6.03901E-13
 -1       339 2.41773E+01 1.09636E+00 1.62486E-02 1.96553E+00-2.26201E-13 1.24328E-13
 -1       340 2.47150E+01-2.92595E-02 1.52294E-02 2.83543E+00 1.12419E-14 1.67927E-13
 -1       341 2.63249E+01-1.98268E+00 1.88721E-02 2.61722E+00 2.13100E-13 2.70535E-13
 -1       342 2.89658E+01-3.95174E+00 1.74367E-02 1.06539E+00 1.72518E-13 3.59972E-13
 -1       343 3.66785E+01 7.63631E-01-1.13281E-01-4.48057E+00-8.14127E-13 2.51979E-13
 -1       344 3.77962E+01 6.28823E+00 7.04567E-02-1.57214E+00-1.37687E-12-1.25060E-13
 -1       345 3.44383E+01-5.89438E-01-1.80810E-01 4.54235E+00-4.89622E-13-9.44439E-13
 -1       346 3.16997E+01-4.39793E+00-6.19467E-02 1.38342E+00 2.68308E-13-1.03530E-12
 -1       347 2.77949E+01-3.23158E+00 1.64061E-02-1.81404E+00 4.05419E-13-7.27671E-13
 -1       348 2.52270E+01-1.17384E+00 9.46505E-03-3.26780E+00 3.30519E-13-4.99941E-13
 -1       349 2.37648E+01 8.18460E-02 1.22586E-03-3.40127E+00 2.01711E-13-4.64309E-13
 -1       350 2.29160E+01 5.50880E-01 2.73323E-03-2.97446E+00 2.10539E-13-2.90843E-13
 -1       351 2.22762E+01 6.27465E-01 4.65637E-03-2.35388E+00 4.25038E-14-1.80726E-13
 -1       352 2.17735E+01 5.37342E-01 5.55692E-03-1.76657E+00 8.07518E-14-5.29511E-14
 -1       353 2.13628E+01 4.11150E-01 5.10748E-03-1.28604E+00-7.45354E-14 8.90349E-14
 -1       354 2.10305E+01 2.98049E-01 4.09737E-03-9.20093E-01-1.65308E-13 7.49884E-14
 -1       355 2.07676E+01 2.10347E-01 3.04213E-03-6.51997E-01-2.08053E-13-4.61704E-14
 -1       356 2.05641E+01 1.46554E-01 2.19504E-03-4.59704E-01 2.02503E-14-1.76388E-13
 -1       357 2.04154E+01 1.03722E-01 1.52691E-03-3.28750E-01 1.73759E-13-2.89649E-13
 -1       358 2.02969E+01 7.19982E-02 1.07932E-03-2.30400E-01-1.10383E-13-5.03362E-13
 -1       359 2.02089E+01 5.01247E-02 7.45277E-04-1.60882E-01-2.18522E-13-4.44814E-13
 -1       360 2.01444E+01 3.49966E-02 5.15697E-04-1.11691E-01 7.72184E-15-3.46526E-13
 -1       361 2.00974E+01 2.44833E-02 3.57483E-04-7.68460E-02 4.47430E-14-2.99430E-13
 -1       362 2.00637E+01 1.71278E-02 2.48534E-04-5.21640E-02 1.40099E-13-8.33564E-14
 -1       363 2.00399E+01 1.19390E-02 1.74106E-04-3.47147E-02 1.31824E-13-2.68783E-13
 -1       364 2.00240E+01 8.43006E-03 1.18903E-04-2.29497E-02 2.57960E-13 3.67400E-14
 -1       365 2.00124E+01 5.77320E-03 8.36625E-05-1.42284E-02 2.06644E-13 1.90222E-13
 -1       366 2.00048E+01 3.88253E-03 5.61647E-05-8.21903E-03-1.00729E-13-4.86555E-15
 -1       367 2.00000E+01 2.54113E-03 3.71391E-05-4.15820E-03-1.08541E-13-1.28913E-13
 -1       368 1.99971E+01 1.59620E-03 2.37591E-05-1.48895E-03-2.80941E-13-2.82806E-13
 -1       369 1.99955E+01 9.38672E-04 1.45312E-05 1.94743E-04-2.25600E-13-1.62511E-13
 -1       370 1.99949E+01 4.89414E-04 8.18293E-06 1.19038E-03-2.40790E-14 6.62865E-14
 -1       371 1.99948E+01 2.03235E-04 3.73750E-06 1.69672E-03 1.11140E-14-7.62008E-14
 -1       372 1.99951E+01 8.76239E-06 1.15027E-06 1.91988E-03 1.91379E-13-2.19029E-13
 -1       373 1.99956E+01-1.08465E-04-6.91091E-07 1.93746E-03 1.68708E-13-3.22291E-13
 -1       374 1.99961E+01-1.71701E-04-1.69676E-06 1.83087E-03-1.60420E-14-2.60075E-13
 -1       375 1.99967E+01-1.98675E-04-2.19562E-06 1.65679E-03-7.86878E-14-2.39152E-13
 -1       376 1.99973E+01-2.02398E-04-2.35512E-06 1.45320E-03-5.01359E-13-2.18751E-13
 -1       377 1.99978E+01-1.92343E-04-2.34728E-06 1.24433E-03 1.20849E-13 2.15149E-13
 -1       378 1.99982E+01-1.76885E-04-2.20402E-06 1.05375E-03 3.28929E-13 5.42844E-13
 -1       379 1.99986E+01-1.59029E-04-2.04563E-06 8.68121E-04 1.34077E-13 2.42843E-13
 -1       380 1.99990E+01-1.44257E-04-1.88348E-06 6.98496E-04-1.51610E-15 5.13197E-13
 -1       381 1.99992E+01-1.35766E-04-1.80233E-06 5.41862E-04 2.12919E-15 5.86216E-13
 -1       382 1.99995E+01-1.35152E-04-1.87916E-06 3.93625E-04-3.53417E-14 5.43025E-13
 -1       383 1.99996E+01-1.38542E-04-1.56521E-06 2.48807E-04-2.13316E-13 5.01646E-13
 -1       384 1.99401E+01 1.27639E-01 1.02090E-02 1.07202E+00 2.99929E-13 5.11705E-13
 -1       385 1.17773E+01-5.09146E+00 1.03695E-02 8.16622E+00-2.37116E-13 8.04148E-13
 -1       386 1.92727E+01 6.37607E-02 6.69184E-03 9.10952E-01 2.52074E-13 4.02321E-13
 -1       387 1.87162E+01 9.23627E-02 3.64528E-03 7.74830E-01 1.93066E-13 3.21983E-13
 -1       388 1.82779E+01 1.64959E-01 3.15247E-03 5.72685E-01 1.48792E-13 2.60193E-13
 -1       389 1.79975E+01 2.33076E-01 3.40720E-03 2.74960E-01 1.26867E-13 1.54675E-13
 -1       390 1.79131E+01 2.60411E-01 3.59575E-03-8.77547E-02 8.97232E-14 5.32309E-14
 -1       391 1.80361E+01 2.29989E-01 3.37416E-03-4.45002E-01 1.32526E-13 2.69722E-14
 -1       392 1.83354E+01 1.50461E-01 2.61023E-03-7.19940E-01 6.40400E-14 1.47086E-14
 -1       393 1.87452E+01 4.94105E-02 1.44254E-03-8.62577E-01 6.77836E-14 5.87512E-14
 -1       394 1.91871E+01-4.22202E-02 1.37848E-04-8.65862E-01 8.25022E-14 2.60998E-14
 -1       395 1.95941E+01-1.03942E-01-9.98200E-04-7.59622E-01 1.69533E-13-1.14756E-13
 -1       396 1.99239E+01-1.30399E-01-1.74072E-03-5.91340E-01 4.34231E-14-7.68614E-14
 -1       397 2.01603E+01-1.27831E-01-2.03379E-03-4.06924E-01 2.77796E-14-1.84580E-13
 -1       398 2.03069E+01-1.07420E-01-1.95255E-03-2.39365E-01 5.66290E-14-1.96471E-13
 -1       399 2.03786E+01-7.98638E-02-1.63115E-03-1.06037E-01 3.64087E-14-1.61188E-13
 -1       400 2.03947E+01-5.27119E-02-1.21200E-03-1.15266E-02-1.36725E-14-1.83496E-13
 -1       401 2.03736E+01-3.00239E-02-7.98742E-04 4.76308E-02-2.32149E-14-1.38675E-13
 -1       402 2.03311E+01-1.31799E-02-4.50618E-04 7.86706E-02 1.56800E-14-1.38113E-13
 -1       403 2.02790E+01-1.92917E-03-1.89892E-04 8.96263E-02-4.03524E-14-1.72923E-13
 -1       404 2.02253E+01 4.74540E-03-1.45817E-05 8.76705E-02 1.37950E-13-1.47918E-13
 -1       405 2.01752E+01 8.06053E-03 8.96503E-05 7.84357E-02 7.32949E-14-2.11838E-13
 -1       406 2.01313E+01 9.12898E-03 1.40988E-04 6.59342E-02-1.76397E-13-3.98526E-13
 -1       407 2.00948E+01 8.83634E-03 1.56566E-04 5.27758E-02-1.47658E-13-2.84138E-13
 -1       408 2.00655E+01 7.82283E-03 1.50331E-04 4.04893E-02-8.46982E-14 6.17706E-14
 -1       409 2.00429E+01 6.51529E-03 1.32533E-04 2.98389E-02-1.53186E-13 1.66838E-13
 -1       410 2.00261E+01 5.17568E-03 1.10082E-04 2.10889E-02 4.63112E-14 1.38829E-13
 -1       411 2.00139E+01 3.94849E-03 8.72499E-05 1.42038E-02 2.66081E-13 1.79817E-13
 -1       412 2.00056E+01 2.90010E-03 6.64041E-05 8.98786E-03 1.78296E-13 3.83162E-13
 -1       413 2.00000E+01 2.04849E-03 4.86306E-05 5.17823E-03-1.55572E-14 2.63780E-13
 -1       414 1.99966E+01 1.38419E-03 3.42162E-05 2.50048E-03-8.57902E-14 1.50974E-13
 -1       415 1.99948E+01 8.84149E-04 2.29916E-05 7.00025E-04-1.90864E-13 1.87993E-14
 -1       416 1.99940E+01 5.20488E-04 1.45610E-05-4.43236E-04 6.87541E-14 4.73028E-14
 -1       417 1.99938E+01 2.65449E-04 8.44691E-06-1.11043E-03 4.17606E-13 1.36776E-13
 -1       418 1.99942E+01 9.39646E-05 4.17504E-06-1.44498E-03-1.69624E-13 3.72540E-13
 -1       419 1.99947E+01-1.52708E-05 1.31746E-06-1.55671E-03-4.73224E-13 1.54734E-13
 -1       420 1.99954E+01-7.95866E-05-4.89847E-07-1.52716E-03 1.68129E-13 1.75139E-13
 -1       421 1.99961E+01-1.12614E-04-1.54381E-06-1.41498E-03-7.21440E-14 3.11430E-13
 -1       422 1.99968E+01-1.24805E-04-2.07940E-06-1.26080E-03 1.21711E-13 3.97481E-13
 -1       423 1.99974E+01-1.24034E-04-2.27828E-06-1.09148E-03 4.90604E-13 4.71282E-13
 -1       424 1.99980E+01-1.16188E-04-2.27870E-06-9.23428E-04 3.29007E-13 4.12696E-13
 -1       425 1.99984E+01-1.05734E-04-2.17939E-06-7.65203E-04 8.85473E-14 2.33344E-14
 -1       426 1.99988E+01-9.61944E-05-2.04434E-06-6.19400E-04 1.00849E-13 1.47589E-13
 -1       427 1.99991E+01-9.03564E-05-1.88158E-06-4.84066E-04-7.91554E-14-4.54630E-14
 -1       428 1.99994E+01-8.97701E-05-1.59538E-06-3.54494E-04-1.35254E-13 1.24918E-13
 -1       429 1.99996E+01-9.37119E-05-1.27787E-06-2.26118E-04-2.37330E-13 3.92718E-13
 -1       430 1.99997E+01-1.00516E-04-9.08484E-07-1.52763E-04-3.43736E-14 6.14496E-13
 -1       431 1.99998E+01-5.31062E-04-3.06309E-07-4.08613E-04-7.11517E-13-4.47076E-14
 -1       432 1.99997E+01-3.49108E-04-9.92665E-07-3.59603E-04-4.77740E-13 2.79317E-14
 -1       433 1.99997E+01-2.15174E-04-1.31032E-06-2.64682E-04-1.96972E-13 1.10337E-13
 -1       434 1.99998E+01-7.06637E-04 3.04718E-07-3.96507E-04-5.46857E-13-6.39035E-13
 -1       435 1.99999E+01-8.62462E-04 7.82256E-07-3.28131E-04-1.98746E-13 2.29657E-13
 -1       436 1.99999E+01-9.77388E-04 1.12883E-06-2.15288E-04 1.24593E-13 3.68972E-13
 -1       437 1.99999E+01-1.03829E-03 1.31716E-06-7.42994E-05-1.26034E-13 3.09007E-13
 -1       438 1.99999E+01-1.03813E-03 1.31962E-06 7.63068E-05-1.22997E-13 2.03553E-13
 -1       439 1.99999E+01-9.76837E-04 1.13356E-06 2.17248E-04-1.68851E-13-4.18986E-13
 -1       440 1.99999E+01-8.63805E-04 7.69961E-07 3.28294E-04-1.04837E-13-4.54108E-13
 -1       441 1.99998E+01-7.08027E-04 3.23339E-07 3.96962E-04 8.39103E-14 4.00226E-13
 -1       442 1.99998E+01-5.29030E-04-2.03732E-07 4.09081E-04 2.31110E-14-1.66744E-13
 -1       443 1.99997E+01-3.46153E-04-6.79089E-07 3.59386E-04-2.97523E-13-1.46267E-13
 -1       444 1.97843E+01-4.79715E+00-2.64396E-02 7.67977E+00 1.48187E-13 2.20067E-13
 -1       445 9.66533E-01-4.23175E+00-4.17969E-02 1.78293E+00-4.22093E-14 9.45161E-13
 -1       446 1.60942E+01 5.02739E+00-5.08360E-03-6.40359E-01-3.42477E-13-6.06002E-13
 -1       447 2.86441E+01-1.99281E+00 3.69012E-02 5.08839E+00 4.93459E-13-2.77972E-13
 -1       448 3.33763E+01 1.55389E+00 3.20478E-02 2.75263E+00 7.40102E-13-3.66679E-13
 -1       449 3.68096E+01 6.31207E+00 8.01051E-02 6.90691E-01 1.05634E-12-4.56968E-13
 -1       450 3.84080E+01 8.54825E+00 1.02082E-01 2.67122E-01 1.16063E-12-4.27099E-13
 -1       451 3.66769E+01 8.44747E+00-2.48577E-02 1.50910E-01 1.18933E-12-3.16587E-13
 -1       452 3.58068E+01 4.87506E+00 2.20665E-02-1.01321E+00 1.01107E-12-4.61381E-13
 -1       453 3.21413E+01 9.80127E-01 2.68252E-02-3.32151E+00 7.37693E-13-5.37348E-13
 -1       454 2.59847E+01-2.27729E+00 7.03271E-03-6.02706E+00 4.11421E-13-6.92460E-13
 -1       455 1.78254E+01-3.83359E+00 6.09081E-03-8.01448E+00 7.58144E-14-8.85968E-13
 -1       456 8.48997E+00-3.84148E+00-3.81808E-02-7.65634E+00-9.90735E-14-1.20580E-12
 -1       457 3.04099E+00-3.05035E+00-5.44159E-04-5.11665E+00-2.07404E-13-1.33460E-12
 -1       458 1.46405E+00-2.29934E+00 4.02968E-02-8.83687E-01-1.94359E-13-1.33923E-12
 -1       459 4.16752E+00-4.41214E+00-8.88680E-02 3.62283E+00-2.70589E-13-1.20716E-12
 -1       460 1.27851E+01-5.42295E+00-2.14522E-02 6.15884E+00-1.41248E-13-9.77524E-13
 -1       461 2.17344E+01-6.46043E+00-7.92957E-02 5.44841E+00-2.04420E-13-5.46833E-13
 -1       462 3.26952E+01-4.75199E+00-4.49721E-02 1.32303E+00-5.16961E-13-2.33591E-13
 -1       463 3.97985E+01 4.52243E+00 8.26087E-02-1.86429E+00-1.21556E-12-1.72695E-13
 -1       464 3.88304E+01 5.60499E+00 1.02880E-01 2.44490E+00-1.30065E-12-4.39371E-13
 -1       465 3.92649E+01 1.60203E+00 9.17648E-02 2.17258E+00-9.94246E-13-5.42982E-13
 -1       466 3.53745E+01-2.57374E+00 4.09236E-02-4.54391E-01-5.30895E-13-1.36502E-13
 -1       467 2.79589E+01-5.73502E+00-6.71319E-02-3.73236E+00-1.44398E-13 2.83579E-13
 -1       468 1.83717E+01-6.67957E+00-7.91742E-02-6.12066E+00 1.70725E-13 7.00514E-13
 -1       469 8.28617E+00-6.13436E+00-1.33502E-01-5.60242E+00 4.83225E-14 7.88078E-13
 -1       470 2.49306E+00-5.28462E+00-1.14116E-01-2.83794E+00-8.04912E-16 1.06501E-12
 -1       471 3.83838E+00-5.12341E+00-8.27908E-02 5.69850E+00-9.83519E-14 1.13082E-12
 -1       472 3.25602E+01-3.80822E+00-5.44705E-02-2.14585E+00-1.83633E-13 4.54470E-13
 -1       473 3.27308E+01 6.58033E+00-1.41232E-01 1.21993E+00 1.02417E-12 9.76927E-14
 -1       474 1.49042E+01 3.74970E+00 6.54720E-03-3.30333E+00-3.44829E-13-7.32021E-13
 -1       475 1.35979E+01 4.65372E+00 8.81573E-03-2.36073E+00-3.34247E-13-7.76253E-13
 -1       476 1.93411E+01 1.80550E+00-4.48660E-03-2.32064E+00-2.01728E-13-5.28716E-13
 -1       477 2.07890E+01 1.47499E+00-6.24241E-03-1.10518E+00-6.29989E-14-4.45246E-13
 -1       478 2.15347E+01 1.46860E+00-8.05457E-03 3.74511E-02 7.62214E-14-4.00988E-13
 -1       479 2.17755E+01 1.59833E+00-9.11729E-03 9.85422E-01 2.05433E-13-3.40640E-13
 -1       480 2.17177E+01 1.68556E+00-9.71798E-03 1.67920E+00 3.28443E-13-2.38378E-13
 -1       481 2.15484E+01 1.59638E+00-9.18132E-03 2.10921E+00 4.33110E-13-9.57789E-14
 -1       482 2.13645E+01 1.21934E+00-6.30189E-03 2.18117E+00 4.78088E-13 1.02239E-13
 -1       483 2.11627E+01 7.85468E-01 2.24029E-03 1.90562E+00 4.58686E-13 3.30738E-13
 -1       484 1.98354E+01 1.65929E+00 2.27808E-02 2.63888E+00-7.15231E-14-2.24686E-13
 -1       485 2.57300E+01-4.85316E+00 5.20939E-03 5.05657E+00-2.27214E-13-5.25198E-13
 -1       486 2.81518E+01-5.81418E+00-1.41921E-02 2.52801E+00-1.21916E-14 2.93932E-14
 -1       487 1.99304E+01-4.43727E-01 5.79647E-02 4.00237E+00 1.87454E-13-2.07431E-13
 -1       488 2.12342E+01-3.41021E+00 1.03652E-01 4.77495E+00 2.89539E-13-1.75217E-13
 -1       489 2.05906E+01 3.05536E-01 6.41704E-03 1.46164E+00 3.42813E-13 3.07274E-13
 -1       490 5.24920E+00-6.11419E-01 2.11549E-01-1.25094E+00 9.00009E-14 8.91176E-13
 -1       491 2.14169E+01-2.66113E+00 7.99336E-02-4.76087E+00 5.52853E-13-7.97973E-15
 -1       492 2.01561E+01-1.82172E-01 3.31606E-02-4.26233E+00 2.15078E-13 3.87338E-14
 -1       493 1.99472E+01 8.70037E-01 9.71227E-03-3.59959E+00 2.44537E-13-1.09019E-14
 -1       494 2.01154E+01 1.16352E+00 4.76200E-03-2.84745E+00 1.61449E-13-1.69382E-13
 -1       495 2.02885E+01 1.07403E+00 3.37301E-03-2.19316E+00 6.95634E-14-1.19427E-13
 -1       496 2.03838E+01 8.64737E-01 2.92199E-03-1.65201E+00 1.26017E-13-1.82656E-13
 -1       497 2.04045E+01 6.51278E-01 2.38228E-03-1.22428E+00-1.18804E-13-8.09933E-14
 -1       498 2.03770E+01 4.73575E-01 1.78672E-03-8.96872E-01-1.83855E-13 1.37439E-14
 -1       499 2.03261E+01 3.38080E-01 1.30036E-03-6.51982E-01-2.06513E-13 1.18005E-13
 -1       500 2.02707E+01 2.43608E-01 9.10022E-04-4.78726E-01-5.76430E-14-1.13482E-13
 -1       501 2.02143E+01 1.71911E-01 6.35361E-04-3.44154E-01-1.43190E-13-4.38944E-13
 -1       502 2.01647E+01 1.21371E-01 4.38490E-04-2.46213E-01-2.73635E-14-1.12695E-13
 -1       503 2.01233E+01 8.58118E-02 3.01527E-04-1.75058E-01-4.25051E-14 4.69740E-15
 -1       504 2.00900E+01 6.07530E-02 2.07593E-04-1.23450E-01-1.02691E-14 6.66030E-14
 -1       505 2.00641E+01 4.30174E-02 1.43315E-04-8.60917E-02 2.16388E-13-8.85656E-15
 -1       506 2.00443E+01 3.03913E-02 1.01104E-04-5.91388E-02 2.02046E-13 5.05939E-14
 -1       507 2.00302E+01 2.17564E-02 6.75412E-05-4.05845E-02 1.89647E-13 5.33941E-15
 -1       508 2.00193E+01 1.51662E-02 4.80121E-05-2.65304E-02 8.96137E-14-3.40218E-13
 -1       509 2.00116E+01 1.04322E-02 3.23106E-05-1.66150E-02 1.21355E-13-5.45099E-13
 -1       510 2.00062E+01 7.03441E-03 2.13877E-05-9.72076E-03-3.19062E-13-4.77578E-13
 -1       511 2.00025E+01 4.60845E-03 1.37390E-05-5.02300E-03-3.47062E-13-6.34720E-13
 -1       512 2.00002E+01 2.89221E-03 8.50549E-06-1.91150E-03-1.12018E-13-4.69857E-13
 -1       513 1.99988E+01 1.69480E-03 4.97532E-06 6.67730E-05-2.55394E-14-2.66062E-13
 -1       514 1.99980E+01 9.10584E-04 2.21702E-06 1.20504E-03 4.88062E-14-3.03595E-13
 -1       515 1.99977E+01 3.55745E-04 8.63371E-07 1.86213E-03 1.73533E-14-2.97907E-13
 -1       516 1.99976E+01 1.81825E-06-2.18617E-07 2.14351E-03 4.41423E-14-2.33414E-13
 -1       517 1.99977E+01-2.10061E-04-8.18527E-07 2.18272E-03 2.65525E-13-3.72585E-13
 -1       518 1.99979E+01-3.23551E-04-1.12240E-06 2.07472E-03-6.86020E-14-5.12654E-13
 -1       519 1.99982E+01-3.71162E-04-1.22351E-06 1.88534E-03-3.25762E-13-3.67499E-13
 -1       520 1.99984E+01-3.76855E-04-1.23999E-06 1.65893E-03 1.03402E-13-1.13050E-13
 -1       521 1.99987E+01-3.60036E-04-1.17399E-06 1.43516E-03 4.06300E-13-7.33144E-14
 -1       522 1.99989E+01-3.31304E-04-1.07438E-06 1.20661E-03 4.83536E-14-9.07918E-14
 -1       523 1.99991E+01-3.01264E-04-9.70161E-07 9.92856E-04 3.18763E-14 1.78500E-13
 -1       524 1.99993E+01-2.78065E-04-9.23635E-07 7.95347E-04 1.99364E-13 1.26584E-13
 -1       525 1.99995E+01-2.66683E-04-1.15496E-06 6.11685E-04-1.59507E-13 2.95772E-13
 -1       526 1.99996E+01-3.05762E-04-9.20825E-07 4.89574E-04-1.59070E-13 9.99119E-14
 -1       527 2.01346E+01 2.15362E-01 1.61501E-03 1.28459E+00 2.89614E-13 1.70535E-13
 -1       528 2.03302E+01 1.89157E-01 3.16305E-03 1.36298E+00 3.06922E-13 2.31611E-13
 -1       529 1.93651E+01 5.22069E-01 2.27055E-03 6.74587E-01 2.27191E-13 5.25147E-14
 -1       530 1.91600E+01 6.40589E-01 2.43456E-03 1.81213E-01 1.76208E-13-5.32531E-14
 -1       531 1.91330E+01 6.29674E-01 2.39666E-03-3.56281E-01 1.06255E-13-7.87621E-14
 -1       532 1.92768E+01 4.79479E-01 1.95992E-03-8.19647E-01 7.88307E-14-3.72290E-14
 -1       533 1.95352E+01 2.41256E-01 1.23898E-03-1.11132E+00 9.28993E-14-7.70228E-14
 -1       534 1.98294E+01-5.64160E-03 3.69998E-04-1.19502E+00 1.18566E-13-1.09585E-13
 -1       535 2.00910E+01-1.95556E-01-4.77321E-04-1.09899E+00 1.67097E-13-1.50125E-13
 -1       536 2.02823E+01-2.99364E-01-1.07266E-03-8.88912E-01 8.87295E-14-8.43146E-14
 -1       537 2.03954E+01-3.22448E-01-1.35805E-03-6.35384E-01 6.58132E-14-2.02726E-13
 -1       538 2.04416E+01-2.89211E-01-1.36821E-03-3.92620E-01 6.15833E-14-1.63814E-13
 -1       539 2.04397E+01-2.27548E-01-1.17621E-03-1.91758E-01 5.82593E-15-2.56948E-13
 -1       540 2.04075E+01-1.59498E-01-8.96918E-04-4.39157E-02 1.06188E-14-7.08226E-14
 -1       541 2.03594E+01-9.84894E-02-6.08741E-04 5.29490E-02-6.04967E-14-4.64660E-14
 -1       542 2.03053E+01-5.05293E-02-3.58985E-04 1.07602E-01 1.47920E-14 1.36416E-14
 -1       543 2.02515E+01-1.66196E-02-1.67695E-04 1.30924E-01 2.63212E-14-2.92568E-14
 -1       544 2.02017E+01 4.94701E-03-3.61811E-05 1.33190E-01 1.12129E-13-1.43068E-13
 -1       545 2.01578E+01 1.69274E-02 4.44039E-05 1.22815E-01 1.05641E-13-1.10728E-13
 -1       546 2.01206E+01 2.21403E-02 8.63964E-05 1.06039E-01 2.92672E-14-9.98639E-14
 -1       547 2.00898E+01 2.29892E-02 1.01753E-04 8.71040E-02-1.10166E-13-2.65461E-13
 -1       548 2.00651E+01 2.13089E-02 1.00470E-04 6.86420E-02-1.86097E-13-3.38455E-13
 -1       549 2.00457E+01 1.83866E-02 9.00564E-05 5.20996E-02-1.71549E-13-2.81912E-13
 -1       550 2.00308E+01 1.50586E-02 7.56372E-05 3.81128E-02-6.72011E-14-3.08036E-13
 -1       551 2.00197E+01 1.18229E-02 6.04327E-05 2.68032E-02-4.06686E-14-1.82746E-13
 -1       552 2.00117E+01 8.94162E-03 4.62806E-05 1.79961E-02 1.38881E-14 4.93880E-14
 -1       553 2.00060E+01 6.52246E-03 3.40670E-05 1.13695E-02 1.72608E-13 1.56040E-13
 -1       554 2.00021E+01 4.57980E-03 2.40778E-05 6.55012E-03-4.07317E-14 1.50987E-13
 -1       555 1.99996E+01 3.07654E-03 1.62515E-05 3.17070E-03-2.15794E-14 1.79868E-13
 -1       556 1.99981E+01 1.95176E-03 1.03460E-05 9.00465E-04-1.10982E-13 1.31618E-13
 -1       557 1.99973E+01 1.13773E-03 6.04590E-06-5.41925E-04 5.76200E-14 2.27012E-13
 -1       558 1.99969E+01 5.69362E-04 3.02947E-06-1.38579E-03 9.39797E-14 3.46756E-13
 -1       559 1.99969E+01 1.88914E-04 1.00342E-06-1.81166E-03-8.07472E-14 2.11961E-13
 -1       560 1.99971E+01-5.21444E-05-2.83404E-07-1.95730E-03-5.32909E-14-1.06485E-13
 -1       561 1.99974E+01-1.93025E-04-1.03728E-06-1.92480E-03-3.29603E-14-4.59303E-14
 -1       562 1.99977E+01-2.64478E-04-1.42170E-06-1.78751E-03-9.65964E-15-1.93747E-13
 -1       563 1.99981E+01-2.90088E-04-1.56341E-06-1.59620E-03 2.15485E-13 1.37243E-13
 -1       564 1.99984E+01-2.87665E-04-1.55760E-06-1.38430E-03 4.36770E-13 2.48514E-13
 -1       565 1.99987E+01-2.70564E-04-1.47499E-06-1.17213E-03 3.77780E-13 3.19731E-13
 -1       566 1.99990E+01-2.48964E-04-1.35862E-06-9.70211E-04-1.00844E-13 2.67660E-13
 -1       567 1.99992E+01-2.30448E-04-1.31130E-06-7.81942E-04 1.71315E-13 3.40908E-13
 -1       568 1.99994E+01-2.20934E-04-1.52794E-06-6.06574E-04-7.36436E-14 3.16911E-13
 -1       569 1.99996E+01-2.19946E-04-1.40736E-06-4.38750E-04-2.87707E-13 3.43270E-13
 -1       570 1.99999E+01-7.67408E-04 3.79910E-07-4.99424E-04-5.89088E-14-9.83704E-14
 -1       571 2.00000E+01-8.91630E-04 4.44426E-07-3.71760E-04-1.38176E-13 3.39670E-13
 -1       572 1.99997E+01-4.38616E-04-1.63706E-07-5.51270E-04-4.56387E-14-2.81677E-13
 -1       573 1.99998E+01-6.12054E-04 1.21164E-07-5.62696E-04-3.20454E-13-1.46358E-13
 -1       574 2.00001E+01-9.71252E-04 5.57288E-07-1.97598E-04-2.41864E-13 3.46547E-13
 -1       575 2.00001E+01-9.98794E-04 6.00221E-07 9.58103E-07 4.99928E-14 3.21227E-13
 -1       576 2.00001E+01-9.71682E-04 5.63345E-07 1.99571E-04 8.59505E-14 1.79940E-14
 -1       577 2.00000E+01-8.94153E-04 4.46678E-07 3.71274E-04 3.16147E-13-5.43401E-13
 -1       578 1.99999E+01-7.70505E-04 2.45411E-07 4.99591E-04 4.20917E-13 2.41152E-13
 -1       579 1.99998E+01-6.12932E-04 2.11867E-07 5.62792E-04 2.74047E-14-2.79214E-13
 -1       580 1.99997E+01-4.60872E-04-2.07161E-07 5.55406E-04-2.08475E-13-3.73989E-13
 -1       581 3.12409E+01 8.30365E+00-2.01075E-01 3.92228E-02 1.10680E-12-1.67258E-13
 -1       582 1.88459E+01-4.94217E+00 8.96892E-02 7.67081E+00-5.86982E-13 1.94064E-14
 -1       583 1.94425E+01 2.99688E+00 5.45661E-03 1.21481E+00-2.68846E-13-3.08919E-13
 -1       584 9.91622E+00-2.96641E+00 1.34017E-01 7.24821E+00-5.66110E-13 8.30822E-13
 -1       585 1.09780E+01-2.26573E+00 1.44068E-01 5.16079E+00 1.49297E-13-8.74106E-13
 -1       586 1.97093E+01 3.46141E-01 2.10760E-03 1.04356E+00 2.22305E-13 1.20710E-13
 -1       587 2.53115E+01-5.80277E+00 4.48051E-02-3.99296E+00 5.13437E-13-1.71486E-13
 -1       588 1.71916E+01 2.62438E+00 1.22971E-03-3.21183E+00-2.89114E-13-6.21107E-13
 -1       589 3.16714E+01 7.21797E+00-1.69836E-01-1.05453E+00 1.02125E-12-3.38309E-13
 -1       590 2.99719E+01-1.97386E+00-7.39667E-02 1.24487E+00 1.85128E-13-6.55455E-13
 -1       591 3.16739E+01 2.71201E+00-1.34884E-01-9.71506E-01 6.44783E-13-5.98209E-13
 -1       592 3.16854E+01 1.82552E+00-1.01263E-01 2.67771E-01 4.64982E-13 1.43996E-13
 -1       593 2.90666E+01-2.04122E+00-4.12944E-02-2.51961E+00 6.06251E-14 1.20182E-14
 -1       594 2.37498E+01-3.89420E+00 3.27639E-02-5.99192E+00-3.10682E-13-3.42663E-13
 -1       595 1.54938E+01-2.95051E+00 9.13618E-02-8.05536E+00-5.41366E-13-7.83859E-13
 -1       596 8.53002E+00-1.06666E+00 1.51932E-01-6.97720E+00-4.60881E-13-1.12693E-12
 -1       597 5.24547E+00 7.90879E-01 1.98681E-01-3.51156E+00-2.91735E-13-1.24982E-12
 -1       598 5.67828E+00 5.96449E-02 1.81063E-01 1.85815E+00-2.40051E-14-1.14699E-12
 -1       599 1.97347E+01-4.53032E+00 9.90478E-02 5.49719E+00 2.61194E-13-3.82080E-13
 -1       600 1.61579E+01-4.61919E+00 1.05085E-01-6.23558E+00 5.41553E-13 4.90337E-13
 -1       601 8.32126E+00-2.95240E+00 1.33019E-01-4.98528E+00 3.52267E-13 6.86617E-13
 -1       602 5.52177E+00-1.28718E+00 1.93666E-01 4.31087E+00-2.65853E-13 7.69315E-13
 -1       603 1.41392E+01 4.83547E+00 1.74601E-02-8.07541E-01-2.83986E-13-6.80296E-13
 -1       604 2.93948E+01 7.29648E+00-1.85363E-01 1.07843E+00 9.10036E-13 6.56003E-14
 -1       605 1.61952E+01 4.12995E+00 7.79301E-03 4.32430E-01-2.54049E-13-5.37191E-13
 -1       606 3.01309E+01 3.87495E+00-1.45230E-01 1.83357E+00 5.95329E-13 3.15428E-13
 -1       607 2.23641E+01 2.93483E-01-1.19484E-03-4.22971E-01-2.90013E-14-2.83401E-13
 -1       608 2.14076E+01 1.90339E-01 2.06780E-03-1.96699E+00-1.99461E-13-3.64326E-13
 -1       609 2.23297E+01 8.15923E-01-3.09867E-03 1.47329E+00 2.39965E-13-1.82933E-13
 -1       610 2.19323E+01 8.79154E-01-2.11889E-03 1.86951E+00 3.36257E-13-9.95652E-14
 -1       611 2.14292E+01 7.33425E-01-2.55141E-04 1.91709E+00 3.62795E-13 1.01832E-14
 -1       612 2.10765E+01 5.03270E-01 5.04122E-03 1.74956E+00 3.65936E-13 1.27617E-13
 -1       613 1.52707E+01 2.00271E+00 8.11551E-02 2.81495E+00 2.65812E-14-5.05327E-13
 -1       614 2.01574E+01 1.19283E+00 9.58272E-04-5.28498E-02 1.84714E-13-8.47215E-14
 -1       615 7.69020E+00 8.49575E-01 1.66266E-01 1.56951E+00-6.74998E-14 6.40897E-13
 -1       616 2.32332E+01-4.65337E+00 4.56322E-02 5.15859E+00-4.53016E-13-3.93743E-13
 -1       617 1.59635E+01 1.36178E+00 5.31283E-02-3.46558E+00 1.49383E-13 2.33667E-13
 -1       618 1.72374E+01 1.72021E+00 9.36702E-03-2.62044E+00 9.19486E-14 1.83668E-14
 -1       619 1.82643E+01 1.64656E+00 2.54261E-03-2.04154E+00 1.43543E-13-1.92671E-13
 -1       620 1.89840E+01 1.37545E+00 1.07505E-03-1.60044E+00 7.01651E-14-5.76709E-14
 -1       621 1.94523E+01 1.07280E+00 8.04675E-04-1.24531E+00-7.73527E-14-8.72358E-14
 -1       622 1.97390E+01 8.04908E-01 6.22496E-04-9.57844E-01-7.59993E-14-1.72290E-13
 -1       623 1.99042E+01 5.90694E-01 4.68469E-04-7.28567E-01-1.68625E-13-1.88097E-13
 -1       624 1.99896E+01 4.35274E-01 3.48381E-04-5.56158E-01-1.38482E-13-2.57238E-13
 -1       625 2.00333E+01 3.13625E-01 2.30636E-04-4.14668E-01-2.48224E-13-1.48813E-13
 -1       626 2.00500E+01 2.25482E-01 1.61782E-04-3.06602E-01 5.83664E-14-3.76402E-14
 -1       627 2.00522E+01 1.62026E-01 1.10845E-04-2.24674E-01 1.73454E-13-1.05187E-15
 -1       628 2.00474E+01 1.16428E-01 7.60438E-05-1.63022E-01 7.31387E-15 2.06449E-13
 -1       629 2.00398E+01 8.36121E-02 5.20171E-05-1.16927E-01 2.77333E-14 3.67117E-13
 -1       630 2.00317E+01 5.99180E-02 3.77223E-05-8.27080E-02 6.97863E-14 1.76330E-13
 -1       631 2.00246E+01 4.34902E-02 2.43067E-05-5.85313E-02 8.27299E-14-1.16477E-13
 -1       632 2.00182E+01 3.08083E-02 1.78411E-05-3.97599E-02-5.98672E-14-4.15212E-13
 -1       633 2.00130E+01 2.15895E-02 1.19961E-05-2.61894E-02 5.24889E-14-3.80367E-13
 -1       634 2.00090E+01 1.48928E-02 7.94020E-06-1.65037E-02-6.85374E-14-4.05605E-13
 -1       635 2.00060E+01 1.00486E-02 5.07709E-06-9.70842E-03-4.01997E-13-2.49785E-13
 -1       636 2.00037E+01 6.57071E-03 3.15300E-06-5.04651E-03-1.88192E-13-1.26388E-13
 -1       637 2.00021E+01 4.10233E-03 1.94064E-06-1.94358E-03 6.52292E-14-1.87670E-13
 -1       638 2.00011E+01 2.45105E-03 7.00846E-07-3.78466E-05 6.57131E-14-1.68351E-13
 -1       639 2.00003E+01 1.25054E-03 3.86557E-07 1.18669E-03 1.32290E-14-3.78790E-14
 -1       640 1.99998E+01 4.55138E-04-6.45910E-08 1.85037E-03 5.79124E-14-2.22211E-13
 -1       641 1.99996E+01-4.92202E-05-2.87460E-07 2.13730E-03 1.75812E-13-2.70015E-13
 -1       642 1.99994E+01-3.47899E-04-4.02985E-07 2.18077E-03 5.75471E-14-2.34925E-13
 -1       643 1.99993E+01-5.04754E-04-4.32763E-07 2.07569E-03 8.54595E-14-1.46183E-13
 -1       644 1.99993E+01-5.67306E-04-4.46606E-07 1.88824E-03-8.00141E-14 5.05377E-14
 -1       645 1.99994E+01-5.72025E-04-4.41039E-07 1.67423E-03 2.09568E-13-9.99048E-14
 -1       646 1.99994E+01-5.44473E-04-3.98258E-07 1.43872E-03 3.71183E-14-2.88456E-13
 -1       647 1.99995E+01-5.02925E-04-3.54286E-07 1.20857E-03 4.02077E-13-5.07995E-13
 -1       648 1.99995E+01-4.62280E-04-3.70101E-07 9.92884E-04 2.62034E-13-5.68786E-13
 -1       649 1.99996E+01-4.32021E-04-3.01425E-07 7.91769E-04 8.83945E-14-4.22242E-13
 -1       650 1.99997E+01-4.43176E-04 5.64194E-10 6.71876E-04-9.81500E-14-5.72489E-13
 -1       651 2.01963E+01 1.02994E+00 7.35166E-04-7.18421E-01 1.07151E-13-1.64106E-13
 -1       652 2.03063E+01 1.08391E+00 8.93320E-04 6.31395E-01 2.90662E-13-2.33565E-14
 -1       653 2.03793E+01 6.44575E-01 6.25250E-04-1.19722E+00 1.29758E-13-2.45331E-13
 -1       654 2.06069E+01 1.77897E-01 4.22918E-04-1.39743E+00 1.43032E-13-2.47759E-13
 -1       655 2.07834E+01-2.22832E-01 9.24727E-05-1.33516E+00 1.17961E-13-2.40342E-13
 -1       656 2.08611E+01-4.74431E-01-1.67014E-04-1.09769E+00 1.36482E-13-1.91794E-13
 -1       657 2.08415E+01-5.67438E-01-3.59695E-04-7.87507E-01 6.26935E-14-1.26859E-13
 -1       658 2.07548E+01-5.39877E-01-4.78388E-04-4.83800E-01 1.00948E-14-5.46686E-14
 -1       659 2.06362E+01-4.43998E-01-4.45340E-04-2.31370E-01 9.02439E-14-4.54971E-14
 -1       660 2.05129E+01-3.24665E-01-3.61567E-04-4.56276E-02-5.17932E-14-5.99282E-14
 -1       661 2.04007E+01-2.10966E-01-2.59904E-04 7.60408E-02-4.70049E-14 8.03379E-16
 -1       662 2.03065E+01-1.17565E-01-1.64203E-04 1.44828E-01 4.23344E-14-1.05327E-13
 -1       663 2.02312E+01-4.88094E-02-8.70542E-05 1.74422E-01 2.18729E-14-8.58885E-14
 -1       664 2.01728E+01-3.04032E-03-3.21973E-05 1.77589E-01 9.69449E-14-1.18815E-13
 -1       665 2.01284E+01 2.40866E-02 3.05786E-06 1.64728E-01 7.86111E-14-2.13126E-14
 -1       666 2.00949E+01 3.75262E-02 2.32362E-05 1.43554E-01 1.20569E-13 6.93067E-14
 -1       667 2.00698E+01 4.17580E-02 3.23975E-05 1.19357E-01-2.71885E-15 9.12809E-14
 -1       668 2.00509E+01 4.03499E-02 3.42933E-05 9.54729E-02-1.09382E-13-4.29229E-15
 -1       669 2.00367E+01 3.59012E-02 3.20243E-05 7.37885E-02-2.28033E-13 1.04018E-13
 -1       670 2.00261E+01 3.01692E-02 2.77048E-05 5.51900E-02-1.26308E-13-1.34734E-15
 -1       671 2.00182E+01 2.42540E-02 2.26641E-05 3.99136E-02-8.23708E-14 2.49781E-14
 -1       672 2.00123E+01 1.87792E-02 1.77238E-05 2.78073E-02 8.45049E-14-1.62292E-13
 -1       673 2.00080E+01 1.40450E-02 1.33138E-05 1.85151E-02-4.33957E-14-6.44444E-14
 -1       674 2.00049E+01 1.01468E-02 9.61290E-06 1.15977E-02-1.44547E-14 1.10405E-13
 -1       675 2.00027E+01 7.05947E-03 6.65175E-06 6.60761E-03-1.52196E-13 2.89763E-13
 -1       676 2.00012E+01 4.69530E-03 4.37998E-06 3.13135E-03-1.01329E-13 3.61011E-13
 -1       677 2.00002E+01 2.94147E-03 2.69901E-06 8.09505E-04 1.06723E-13 2.29109E-13
 -1       678 1.99995E+01 1.68194E-03 1.49520E-06-6.57083E-04 1.38665E-13 2.16157E-13
 -1       679 1.99992E+01 8.09180E-04 6.64727E-07-1.50879E-03 3.42000E-14 8.41527E-14
 -1       680 1.99990E+01 2.29884E-04 1.18771E-07-1.93293E-03 4.37188E-14 1.28429E-13
 -1       681 1.99989E+01-1.33248E-04-2.16755E-07-2.07143E-03-2.44082E-14-3.26764E-14
 -1       682 1.99989E+01-3.42099E-04-4.03334E-07-2.02897E-03-9.78562E-14-3.85961E-14
 -1       683 1.99990E+01-4.44948E-04-4.89243E-07-1.88041E-03-2.05442E-14-1.24185E-13
 -1       684 1.99991E+01-4.78750E-04-5.13154E-07-1.67735E-03 2.36257E-13-2.45682E-13
 -1       685 1.99992E+01-4.71374E-04-4.98629E-07-1.45352E-03 3.53535E-13 4.45245E-14
 -1       686 1.99993E+01-4.43555E-04-4.50592E-07-1.22942E-03 1.18347E-13 2.11149E-13
 -1       687 1.99994E+01-4.11384E-04-4.48672E-07-1.01552E-03 1.32209E-14 5.48390E-15
 -1       688 1.99995E+01-3.86363E-04-5.77179E-07-8.15924E-04-1.09437E-13 1.75690E-13
 -1       689 1.99996E+01-4.08849E-04-4.09245E-07-6.83693E-04-2.75804E-13 2.14505E-13
 -1       690 2.00003E+01-1.00085E-03 1.95331E-07-1.23986E-04-5.54387E-15 6.27318E-13
 -1       691 2.00001E+01-8.45257E-04 7.98227E-08-5.50861E-04-1.48871E-13-4.20117E-14
 -1       692 2.00003E+01-1.00158E-03 1.94260E-07 1.25064E-04-1.04438E-13 1.69708E-13
 -1       693 2.00002E+01-9.47368E-04 1.92012E-07-3.58574E-04-2.30915E-13 3.73765E-13
 -1       694 2.00002E+01-9.50761E-04 1.79663E-07 3.56299E-04 1.00893E-13-3.16461E-14
 -1       695 2.00001E+01-8.50518E-04 1.50383E-07 5.50863E-04 3.37862E-13-6.82894E-14
 -1       696 2.00000E+01-7.09041E-04-3.05898E-07 6.77088E-04 4.04911E-13-3.68718E-14
 -1       697 1.05602E+01-9.42516E-02 1.55576E-01-3.73748E+00 2.67081E-13 5.69364E-13
 -1       698 1.57079E+01 3.24257E+00 2.51739E-02 1.51674E+00-1.27214E-13-5.02418E-13
 -1       699 1.59282E+01-3.00013E+00 9.49597E-02 7.03730E+00-6.00249E-13 3.23106E-13
 -1       700 1.54826E+01-1.59852E+00 1.24256E-01-5.33445E+00 4.10970E-13 1.86857E-13
 -1       701 1.01525E+01-6.56829E-01 1.43421E-01 5.41294E+00-4.01654E-13 6.64385E-13
 -1       702 1.09485E+01 7.34551E-01 1.58883E-01 3.40026E+00 1.08521E-13-8.15320E-13
 -1       703 2.88034E+01-1.79546E-01-8.24098E-02-1.20006E+00 2.62786E-13-6.50910E-13
 -1       704 2.88811E+01-5.82110E-01-6.28675E-02 3.58144E-01 6.58102E-14 2.92374E-13
 -1       705 2.85734E+01 4.21638E+00-1.32116E-01-1.97926E+00 6.32140E-13-4.87981E-13
 -1       706 2.62903E+01-3.05948E+00-1.10260E-02-2.82522E+00-3.04833E-13 4.68774E-14
 -1       707 2.08867E+01-2.86080E+00 5.06168E-02-6.10017E+00-5.56683E-13-3.92474E-13
 -1       708 1.36032E+01-6.30686E-01 1.21440E-01-7.02823E+00-5.85323E-13-8.44096E-13
 -1       709 9.47124E+00 1.47923E+00 1.35471E-01-5.31956E+00-4.43017E-13-1.01306E-12
 -1       710 2.80070E+01 6.76420E+00-1.64557E-01-8.06350E-01 8.74648E-13-2.27932E-13
 -1       711 2.25466E+01 5.82397E-01-2.41081E-03 7.27978E-01 1.14472E-13-2.54742E-13
 -1       712 1.30229E+01 3.30968E+00 3.26078E-02-3.97153E+00-3.91554E-13-7.94007E-13
 -1       713 2.69598E+01-4.05696E+00-3.22725E-02 2.25506E+00-1.97628E-13-5.54310E-13
 -1       714 7.63088E+00 2.49556E+00 1.51621E-01-6.55623E-01-1.36046E-13-1.04496E-12
 -1       715 1.92843E+01 6.73053E-01 2.13139E-02-3.59950E+00-3.54108E-13-4.85118E-13
 -1       716 2.06024E+01 7.89119E-01 9.73446E-04 1.17347E+00 2.71867E-13 2.95362E-14
 -1       717 1.48891E+01-8.17926E-01 1.26951E-01 4.66511E+00 2.29494E-13-5.70315E-13
 -1       718 1.03423E+01 1.46874E+00 1.16512E-01-1.37329E+00 6.81113E-14 4.33681E-13
 -1       719 2.11889E+01 3.44474E-01 2.20018E-03 1.68153E+00 2.94792E-13 1.10031E-14
 -1       720 1.99998E+01-5.87526E-04 1.11352E-07-7.03108E-04-2.83021E-14-5.35597E-13
 -1       721 2.79798E+01 5.38296E+00-1.36629E-01 1.89141E+00 6.71699E-13 2.38315E-13
 -1       722 1.99998E+01-5.79231E-04-9.00180E-08 7.02508E-04 1.46675E-13-7.53729E-13
 -1       723 9.77027E+00 3.25696E+00 1.03046E-01-2.77475E+00-3.07940E-13-9.61120E-13
 -1       724 2.09533E+01 4.81544E-01 7.53610E-04 1.51260E+00 2.76155E-13 3.94859E-14
 -1       725 2.81129E+01 1.28404E+00-8.58026E-02 1.76966E+00 2.40030E-13 3.01146E-13
 -1       726 2.00000E+01-7.26728E-04 1.52758E-07-6.56197E-04 3.10669E-14-1.53615E-13
 -1       727 1.61873E+01 1.81076E+00 2.99203E-02-4.53032E+00-4.15632E-13-6.33962E-13
 -1       728 2.68889E+01 6.58980E+00-1.33541E-01 2.34038E-01 7.57082E-13 3.90005E-14
 -1       729 2.16642E+01 4.60967E-01 2.45931E-04 1.83331E+00 2.84202E-13-3.30551E-14
 -1       730 2.24114E+01 4.64064E-01-1.31558E-03 1.79173E+00 2.30044E-13-9.36032E-14
 -1       731 2.12469E+01 1.31260E+00-1.72487E-04-1.15628E+00 1.75702E-13-2.97783E-13
 -1       732 2.11054E+01 1.80477E+00 2.19953E-04-4.35082E-01 1.86962E-13-2.17397E-13
 -1       733 1.61646E+01 2.04950E+00 5.44212E-03-1.15395E+00-2.38929E-14 6.80178E-14
 -1       734 1.74993E+01 1.77094E+00 4.97853E-04-1.01967E+00 3.37809E-14-1.60592E-13
 -1       735 1.84004E+01 1.43354E+00-1.76525E-05-8.92390E-01-1.36020E-14-2.17072E-13
 -1       736 1.89983E+01 1.11462E+00 1.78510E-05-7.60519E-01-1.67692E-13-1.19616E-13
 -1       737 1.93873E+01 8.45129E-01 5.63418E-05-6.30510E-01-1.77268E-13-1.31049E-13
 -1       738 1.96260E+01 6.40112E-01 1.02234E-04-5.15256E-01-2.08906E-13-9.32718E-14
 -1       739 1.97849E+01 4.73216E-01 4.97700E-05-4.07909E-01-4.54478E-14 4.85990E-14
 -1       740 1.98821E+01 3.48017E-01 4.23693E-05-3.17244E-01-5.94827E-14 2.96693E-13
 -1       741 1.99401E+01 2.55164E-01 3.00366E-05-2.42731E-01 2.76115E-14 3.00972E-13
 -1       742 1.99737E+01 1.86705E-01 2.13938E-05-1.82905E-01 1.53918E-13-2.27661E-14
 -1       743 1.99922E+01 1.36334E-01 1.46234E-05-1.35743E-01 1.19351E-13-1.03886E-13
 -1       744 2.00019E+01 9.92673E-02 1.18828E-05-9.91631E-02 1.80695E-14 3.46342E-14
 -1       745 2.00063E+01 7.31211E-02 7.89990E-06-7.23418E-02-1.72354E-13-1.16296E-13
 -1       746 2.00079E+01 5.26313E-02 5.64662E-06-5.08364E-02-3.42999E-14-2.07046E-13
 -1       747 2.00080E+01 3.75242E-02 4.02876E-06-3.48240E-02-1.60753E-13-9.63204E-14
 -1       748 2.00073E+01 2.63974E-02 2.70121E-06-2.30676E-02-6.66490E-14-3.45047E-13
 -1       749 2.00062E+01 1.82365E-02 1.72249E-06-1.45826E-02-1.19743E-13-1.79058E-13
 -1       750 2.00052E+01 1.22920E-02 1.05000E-06-8.58148E-03-4.40714E-14 1.16536E-13
 -1       751 2.00041E+01 8.00618E-03 7.81674E-07-4.44413E-03-2.63014E-13 2.01044E-13
 -1       752 2.00033E+01 5.08631E-03 1.50391E-07-1.78808E-03-1.46401E-13-1.30827E-13
 -1       753 2.00025E+01 2.91705E-03 1.99255E-07 2.69557E-05 2.10361E-13-1.17960E-13
 -1       754 2.00019E+01 1.43892E-03 1.29988E-08 1.11827E-03 1.10196E-13-1.84829E-13
 -1       755 2.00014E+01 4.64164E-04-6.61901E-08 1.70798E-03 2.14403E-13 2.77447E-14
 -1       756 2.00009E+01-1.48554E-04-1.08666E-07 1.95983E-03 1.67142E-13 1.95441E-13
 -1       757 2.00006E+01-5.05975E-04-1.12545E-07 1.99314E-03 5.36777E-14 7.47884E-14
 -1       758 2.00004E+01-6.88136E-04-1.22893E-07 1.89350E-03 1.26860E-13-4.48388E-14
 -1       759 2.00002E+01-7.54271E-04-1.52387E-07 1.72997E-03-4.03597E-14 3.22525E-14
 -1       760 2.00001E+01-7.54174E-04-1.26453E-07 1.52385E-03-2.23879E-13-1.57827E-13
 -1       761 2.00000E+01-7.14833E-04-2.82329E-07 1.30857E-03-1.21451E-13-1.32510E-13
 -1       762 1.99999E+01-6.63342E-04-1.19788E-07 1.09760E-03 2.27742E-14-5.87206E-13
 -1       763 1.99998E+01-6.12239E-04-4.70479E-07 8.99890E-04 6.06566E-14-9.25320E-13
 -1       764 1.51856E+01 8.41264E-01 7.84653E-02-5.78197E+00-5.16901E-13-6.93926E-13
 -1       765 2.11728E+01 1.84638E+00 1.31998E-03 4.40854E-01 3.10906E-13-9.04887E-14
 -1       766 2.16194E+01-1.36719E-01-2.41287E-04-1.50645E+00 5.44875E-14-3.26104E-13
 -1       767 2.16145E+01-6.25073E-01 9.48746E-05-1.23008E+00 8.78073E-14-3.08225E-13
 -1       768 2.14596E+01-8.43234E-01 1.78913E-04-8.47761E-01 2.45258E-14-2.63240E-13
 -1       769 2.12149E+01-8.45697E-01-1.49527E-04-4.78826E-01 7.94616E-15-1.84589E-13
 -1       770 2.09448E+01-7.17750E-01-1.28893E-04-1.83415E-01 2.55501E-14-1.90484E-13
 -1       771 2.06958E+01-5.38942E-01-1.15938E-04 2.33031E-02-7.43922E-14-7.63771E-14
 -1       772 2.04898E+01-3.60615E-01-8.99611E-05 1.50480E-01-6.28825E-14-8.59765E-14
 -1       773 2.03324E+01-2.09861E-01-5.89375E-05 2.15674E-01 4.92845E-15-9.87760E-14
 -1       774 2.02191E+01-9.61539E-02-3.11213E-05 2.37426E-01-3.59128E-14-6.82749E-14
 -1       775 2.01413E+01-1.84007E-02-1.26159E-05 2.31466E-01 1.90995E-14 8.52185E-14
 -1       776 2.00900E+01 2.94051E-02-1.40902E-06 2.09707E-01-6.78490E-14 1.63507E-13
 -1       777 2.00573E+01 5.46856E-02 6.04747E-06 1.80516E-01 1.34648E-14 1.73508E-13
 -1       778 2.00369E+01 6.44075E-02 9.65013E-06 1.49377E-01 4.84559E-14 1.06985E-13
 -1       779 2.00245E+01 6.42801E-02 1.02960E-05 1.19604E-01-1.07464E-14 9.17692E-14
 -1       780 2.00169E+01 5.85598E-02 9.56122E-06 9.29822E-02-1.87777E-13 1.60903E-13
 -1       781 2.00122E+01 5.01987E-02 8.31301E-06 7.02833E-02-8.41640E-14 4.62540E-14
 -1       782 2.00092E+01 4.11068E-02 6.82056E-06 5.16332E-02-1.21492E-14 5.87382E-14
 -1       783 2.00071E+01 3.24166E-02 5.35009E-06 3.67785E-02 1.51698E-14 2.97943E-14
 -1       784 2.00056E+01 2.47183E-02 4.02839E-06 2.52724E-02 9.56158E-14 1.35823E-13
 -1       785 2.00045E+01 1.82484E-02 2.90366E-06 1.65946E-02-1.65328E-13-2.75586E-14
 -1       786 2.00035E+01 1.30268E-02 1.99206E-06 1.02245E-02-1.70072E-13 7.03184E-14
 -1       787 2.00028E+01 8.95321E-03 1.30090E-06 5.68269E-03-1.03961E-13 1.80113E-13
 -1       788 2.00021E+01 5.87127E-03 8.08834E-07 2.55246E-03 1.26281E-13 3.72471E-14
 -1       789 2.00016E+01 3.60919E-03 4.63622E-07 4.84551E-04 1.21631E-13 6.26138E-14
 -1       790 2.00011E+01 2.00103E-03 2.18261E-07-8.04855E-04 7.57302E-14 7.39117E-14
 -1       791 2.00008E+01 8.98353E-04 5.14046E-08-1.53954E-03-1.18994E-13 2.23202E-13
 -1       792 2.00005E+01 1.75426E-04-5.42957E-08-1.89155E-03-1.28830E-14 4.28935E-13
 -1       793 2.00003E+01-2.70283E-04-1.12497E-07-1.99003E-03 5.65747E-14 1.37903E-13
 -1       794 2.00001E+01-5.20003E-04-1.40563E-07-1.92945E-03 3.44959E-14-2.09339E-13
 -1       795 2.00000E+01-6.36722E-04-1.49768E-07-1.77698E-03 4.71752E-14-2.69140E-13
 -1       796 1.99999E+01-6.68494E-04-1.60197E-07-1.57851E-03-1.31966E-15-3.17768E-14
 -1       797 1.99998E+01-6.51454E-04-1.36489E-07-1.36340E-03 1.17343E-13 1.65183E-14
 -1       798 1.99998E+01-6.12311E-04-1.73316E-07-1.15048E-03 1.99868E-13-8.90828E-15
 -1       799 1.99998E+01-5.70650E-04-8.22138E-08-9.47325E-04-8.39903E-14-1.76106E-14
 -1       800 1.99998E+01-5.76141E-04 1.93875E-07-8.22052E-04-2.71307E-13-1.80172E-13
 -1       801 2.00004E+01-9.49024E-04 1.21742E-07 5.50286E-04 3.15639E-14 9.31071E-14
 -1       802 2.00005E+01-1.05247E-03 7.70677E-08-5.07475E-07-2.89884E-13 3.92861E-13
 -1       803 1.99705E+01-3.15183E+00 3.17073E-02 5.35899E+00-4.37502E-13-1.33672E-13
 -1       804 2.64740E+01 1.57370E+00-4.95149E-02-2.09088E+00 3.32756E-13-5.01231E-13
 -1       805 2.14696E+01 5.71769E-01-8.49913E-05-1.52204E+00 1.09409E-13-3.70350E-13
 -1       806 1.07909E+01 9.57539E-01 8.66672E-02 3.11512E+00-2.00864E-13 4.85299E-13
 -1       807 1.42490E+01 2.10656E+00 2.31262E-02-1.35827E+00-4.27362E-14 2.21843E-13
 -1       808 2.00002E+01-8.23258E-04 2.07823E-07 7.53380E-04 1.53881E-13 1.85011E-13
 -1       809 1.44649E+01-8.26725E-01 6.67742E-02 5.40091E+00-4.23231E-13 4.07004E-13
 -1       810 2.00005E+01-1.02710E-03 3.02689E-08 2.90078E-04-1.13039E-13 2.92570E-13
 -1       811 2.56055E+01 4.45928E+00-6.77553E-02-1.54793E+00 5.37573E-13-3.38496E-13
 -1       812 2.34450E+01-2.31695E+00-1.16305E-02-3.34313E+00-3.92458E-13-1.38392E-13
 -1       813 2.34720E+01-8.41243E-01 1.78873E-03-8.63282E-01-1.34357E-13-1.69389E-13
 -1       814 2.47346E+01-3.94552E+00 3.61244E-03 2.75781E+00-2.32238E-13-3.32866E-13
 -1       815 2.67995E+01-2.29202E+00-2.70270E-02-2.40197E-01-2.77963E-14-5.41523E-13
 -1       816 1.08710E+01 3.21145E+00 1.22345E-01 6.33140E-01-1.16894E-13-8.33028E-13
 -1       817 2.65857E+01-1.57363E+00-8.57545E-03-1.93826E-01-9.10348E-14 1.69097E-13
 -1       818 2.14443E+01 1.45354E+00-5.06328E-04 1.19560E+00 3.39484E-13-2.43051E-14
 -1       819 2.30536E+01 2.40811E-01-3.65882E-03 1.41009E+00 1.79640E-13-1.22949E-13
 -1       820 1.14965E+01 1.86181E+00 5.90614E-02 6.17543E-01-1.13756E-13 4.06404E-13
 -1       821 2.67958E+01 3.01826E+00-7.52975E-02 2.23441E+00 4.20622E-13 2.61518E-13
 -1       822 1.94357E+01-6.72355E-01 2.57098E-02-4.81901E+00-5.00324E-13-4.80808E-13
 -1       823 2.00004E+01-9.41926E-04 3.92667E-08-5.53566E-04 3.49982E-14 5.42000E-14
 -1       824 2.48289E+01 4.82929E+00-6.80205E-02-7.36760E-01 4.78020E-13-1.70229E-13
 -1       825 2.60299E+01 5.61838E+00-7.80097E-02 1.22767E+00 6.45175E-13 1.20161E-13
 -1       826 2.00005E+01-1.02348E-03 6.68755E-08-2.92784E-04-2.01725E-13 5.74509E-13
 -1       827 2.64290E+01-3.57272E-01-3.64416E-02 1.17750E+00 5.33957E-14 1.05948E-13
 -1       828 1.32963E+01 3.71147E+00 2.83472E-02 5.23003E-01-1.54525E-13-6.49435E-13
 -1       829 2.17723E+01 9.06468E-01-1.87095E-04 1.66002E+00 2.56516E-13-4.97177E-15
 -1       830 2.00002E+01-8.34686E-04-2.51323E-07-7.17126E-04 1.31966E-13-2.64797E-13
 -1       831 2.35235E+01-2.20814E-01-1.12245E-03 5.70268E-01 3.90668E-14-1.40965E-13
 -1       832 2.19783E+01 4.76835E-01-1.10742E-03 1.83533E+00 2.56168E-13-3.83892E-14
 -1       833 2.25980E+01 1.15138E-01-2.44614E-03-1.65646E+00 6.66177E-14-3.13400E-13
 -1       834 2.42376E+01 2.32154E+00-2.27479E-02-1.86616E+00 2.81737E-13-3.05301E-13
 -1       835 2.00005E+01-9.45796E-04-2.75388E-07 7.71875E-04-1.54466E-13 1.58960E-13
 -1       836 1.75178E+01 1.57437E+00-4.66408E-05-1.28686E-01-1.01449E-13 6.76449E-14
 -1       837 1.83295E+01 1.28757E+00-2.32520E-04-2.67556E-01-7.24989E-14-1.29252E-13
 -1       838 1.88866E+01 1.02032E+00-1.47859E-04-3.21495E-01-2.96922E-14-9.92238E-14
 -1       839 1.92509E+01 8.01887E-01-6.86218E-07-3.23175E-01-1.43391E-13-1.75043E-14
 -1       840 1.95121E+01 6.13340E-01-2.55430E-05-2.96140E-01-9.35564E-15 1.89278E-13
 -1       841 1.96863E+01 4.64690E-01-6.43974E-06-2.55814E-01-3.99750E-14 1.73271E-13
 -1       842 1.98013E+01 3.49748E-01-4.99892E-06-2.11858E-01 1.36055E-14 7.32759E-14
 -1       843 1.98767E+01 2.61907E-01-2.93346E-06-1.69885E-01-1.36836E-13 2.33568E-13
 -1       844 1.99255E+01 1.95246E-01-1.33234E-06-1.32653E-01-1.90362E-14 8.55871E-14
 -1       845 1.99567E+01 1.44884E-01 1.12367E-07-1.01190E-01 1.43060E-13-3.22453E-13
 -1       846 1.99758E+01 1.08531E-01 1.48932E-06-7.65748E-02-1.44122E-13-2.85840E-13
 -1       847 1.99884E+01 7.94669E-02-3.80117E-07-5.58014E-02-1.73070E-13-7.48794E-14
 -1       848 1.99960E+01 5.76427E-02 1.36565E-07-3.96611E-02 7.06797E-14-7.95705E-14
 -1       849 2.00004E+01 4.12963E-02 7.47272E-08-2.73662E-02-1.86702E-13 1.21407E-13
 -1       850 2.00029E+01 2.91164E-02-3.45615E-09-1.81953E-02 1.05775E-15 1.47894E-13
 -1       851 2.00040E+01 2.01065E-02-1.28261E-07-1.15018E-02-3.66585E-14 5.24766E-14
 -1       852 2.00043E+01 1.35094E-02 6.61308E-08-6.73673E-03-1.47224E-13 1.62980E-13
 -1       853 2.00042E+01 8.93882E-03-1.61108E-07-3.56658E-03-3.69803E-13 8.38672E-14
 -1       854 2.00039E+01 5.47996E-03-1.73309E-08-1.30416E-03-3.44263E-14 1.37301E-13
 -1       855 2.00034E+01 3.06973E-03-4.57293E-08 1.42686E-04 1.42746E-14 3.81744E-14
 -1       856 2.00029E+01 1.43368E-03-5.52533E-08 1.00868E-03 2.74365E-13-1.71196E-13
 -1       857 2.00024E+01 3.63356E-04-4.26111E-08 1.47038E-03 1.20804E-13-2.00031E-13
 -1       858 2.00019E+01-3.00854E-04-1.86173E-08 1.65977E-03 2.32602E-13-1.41716E-13
 -1       859 2.00015E+01-6.79210E-04-7.78410E-09 1.67358E-03 1.59301E-14 1.50556E-13
 -1       860 2.00011E+01-8.58325E-04-5.52132E-08 1.58809E-03-1.47790E-14 1.41583E-13
 -1       861 2.00008E+01-9.23252E-04-1.43371E-08 1.44033E-03-3.34278E-13-7.24782E-14
 -1       862 2.00005E+01-9.11065E-04-9.19532E-08 1.26509E-03-2.35114E-13-1.19837E-14
 -1       863 2.00003E+01-8.59464E-04 3.85004E-07 1.08364E-03-1.80077E-13 6.58093E-14
 -1       864 1.78157E+01-1.23642E+00 2.27291E-02 4.49709E+00-5.02115E-13 6.97537E-14
 -1       865 2.17962E+01-1.20724E+00-5.12188E-04-3.51551E-01-4.69440E-14-1.77133E-13
 -1       866 2.22381E+01-1.15289E+00 8.55845E-04-8.07514E-01 4.92979E-14-1.74970E-13
 -1       867 2.25380E+01-7.31270E-01-3.00535E-04-1.31259E+00 5.92703E-14-2.86971E-13
 -1       868 2.13340E+01-1.04123E+00-8.07916E-06-1.09528E-02-1.91907E-14-1.98533E-13
 -1       869 2.09260E+01-7.89897E-01 4.60942E-05 1.99425E-01-1.29398E-13-9.06619E-14
 -1       870 2.06019E+01-5.33857E-01 3.91936E-06 3.07657E-01-1.32876E-13-6.10672E-14
 -1       871 2.03648E+01-3.15078E-01-7.41169E-06 3.44354E-01 3.26171E-15-1.22669E-14
 -1       872 2.02034E+01-1.49001E-01-2.07313E-06 3.37002E-01-5.75544E-14-2.16094E-14
 -1       873 2.01006E+01-3.44210E-02-2.34438E-06 3.05830E-01-9.70773E-14 1.04813E-14
 -1       874 2.00397E+01 3.70606E-02-3.45301E-06 2.64072E-01-8.52285E-14 5.22786E-14
 -1       875 2.00068E+01 7.58999E-02 9.93985E-07 2.19881E-01-1.12010E-14 4.20397E-14
 -1       876 1.99915E+01 9.19439E-02 3.31664E-06 1.77871E-01 9.48279E-14 6.55395E-14
 -1       877 1.99865E+01 9.33416E-02 2.66022E-06 1.40383E-01-8.20677E-15 5.27188E-14
 -1       878 1.99869E+01 8.62196E-02 1.55983E-06 1.08305E-01-1.44935E-13 4.44569E-14
 -1       879 1.99896E+01 7.48554E-02 1.21454E-06 8.17255E-02-1.22093E-13 2.37991E-14
 -1       880 1.99931E+01 6.20786E-02 9.31284E-07 6.02794E-02-2.16787E-13 1.83223E-13
 -1       881 1.99963E+01 4.96084E-02 6.98785E-07 4.33690E-02 4.09751E-15 4.63189E-13
 -1       882 1.99988E+01 3.83786E-02 5.09507E-07 3.03178E-02 1.18988E-13 2.39353E-13
 -1       883 2.00007E+01 2.88004E-02 3.41569E-07 2.04563E-02 5.67083E-14 2.64879E-13
 -1       884 2.00019E+01 2.09604E-02 1.65782E-07 1.31670E-02-1.84181E-13 2.44918E-14
 -1       885 2.00025E+01 1.47569E-02 4.22963E-08 7.90572E-03-2.60674E-13 6.04278E-14
 -1       886 2.00028E+01 9.99087E-03-7.05607E-09 4.21038E-03 8.31445E-14-1.94062E-14
 -1       887 2.00028E+01 6.43228E-03 1.77508E-08 1.70167E-03 1.77301E-14 6.14566E-14
 -1       888 2.00026E+01 3.85235E-03 1.97029E-08 7.10409E-05 1.40322E-13 4.06114E-14
 -1       889 2.00023E+01 2.04004E-03 3.64456E-09-9.24744E-04-1.00277E-13 2.35416E-13
 -1       890 2.00019E+01 8.13661E-04-1.13215E-08-1.47332E-03-2.07774E-13 1.88028E-13
 -1       891 2.00016E+01 2.26585E-05-2.55648E-08-1.71703E-03 7.21919E-14-5.81199E-14
 -1       892 2.00012E+01-4.53871E-04-2.83205E-08-1.76135E-03 1.13906E-13-2.14412E-14
 -1       893 2.00009E+01-7.10682E-04-3.18255E-08-1.68281E-03 4.78041E-14 6.41369E-14
 -1       894 2.00007E+01-8.20897E-04-2.12095E-08-1.53521E-03-2.56508E-14-1.60522E-13
 -1       895 2.00004E+01-8.39521E-04-1.53553E-07-1.35508E-03-5.70765E-14-1.63764E-13
 -1       896 2.00003E+01-8.10602E-04-1.95424E-07-1.16447E-03 1.05787E-13-2.27793E-14
 -1       897 2.00001E+01-7.56948E-04-3.54394E-07-9.79111E-04 1.02483E-13 5.65342E-14
 -1       898 2.21465E+01 2.30881E+00-6.34767E-03-9.76367E-01 2.37583E-13-2.92052E-13
 -1       899 2.22662E+01-3.08521E+00 1.02581E-02 3.34939E+00-4.24113E-13-1.84070E-13
 -1       900 1.46224E+01 2.00771E+00 1.59107E-02 5.49979E-01-1.40765E-13 2.13423E-13
 -1       901 2.28711E+01 6.68197E-01 1.58495E-03 1.91567E+00 2.33767E-13-2.97979E-14
 -1       902 2.48818E+01-2.82249E+00 1.03724E-04 6.07901E-01-1.10064E-13-4.50208E-13
 -1       903 1.63416E+01 1.83660E+00 2.51983E-03 1.37828E-01-1.54409E-13 1.36743E-13
 -1       904 2.00000E+01-7.10961E-04 4.13610E-09-7.99927E-04-2.16303E-14-1.09799E-14
 -1       905 1.38921E+01 8.37404E-01 4.96091E-02 3.43940E+00-2.74583E-13 3.29193E-13
 -1       906 2.20633E+01 2.76069E+00-1.21108E-03 5.86992E-02 3.39031E-13-1.67134E-13
 -1       907 2.24272E+01 1.24843E+00-1.00297E-03-1.60159E+00 1.58834E-13-3.20950E-13
 -1       908 2.53644E+01-6.28988E-01-1.51169E-02-1.52080E+00 5.88583E-14-4.32475E-13
 -1       909 2.31152E+01 3.38234E-01 4.14001E-03 1.77272E+00 2.04429E-13-8.72225E-14
 -1       910 2.57910E+01 1.02479E+00-3.06918E-02 1.97587E+00 2.64946E-13 1.55792E-13
 -1       911 2.00008E+01-1.10826E-03 9.67572E-08 1.69439E-04-2.74461E-13 5.77536E-13
 -1       912 2.00007E+01-1.04591E-03 1.10035E-07-5.02665E-04 1.37551E-13 1.32286E-13
 -1       913 2.41763E+01 4.73029E+00-4.08311E-02 1.66193E-01 4.66641E-13-8.96926E-14
 -1       914 2.53265E+01 3.85965E+00-4.89653E-02 1.94627E+00 5.01184E-13 1.59156E-13
 -1       915 2.00008E+01-1.10535E-03 2.43890E-08-1.76162E-04-6.25078E-14 3.25481E-13
 -1       916 2.26411E+01 1.46810E+00 6.23670E-05 1.78047E+00 2.94701E-13-6.42225E-14
 -1       917 2.00005E+01-9.54999E-04 2.46153E-07-7.34519E-04 2.44511E-13-2.17624E-13
 -1       918 2.00007E+01-1.05623E-03-1.22337E-07 4.96448E-04-2.18494E-13 1.27100E-13
 -1       919 2.48618E+01-5.66184E-01-8.45912E-03 9.29334E-01 6.34714E-15-3.03997E-14
 -1       920 2.23152E+01 2.38494E+00-2.21802E-03 1.12003E+00 3.58845E-13-8.98331E-14
 -1       921 1.71498E+01 1.34055E+00 1.56243E-03 9.19029E-01-1.14060E-13 1.23403E-13
 -1       922 2.37576E+01 6.48918E-01-6.90505E-03-1.80957E+00 1.47233E-13-4.00786E-13
 -1       923 1.85567E+01 1.03061E+00-5.68296E-05 1.64528E-01-6.42242E-14 1.96516E-13
 -1       924 1.89699E+01 8.56218E-01-8.41850E-05 6.30215E-03-1.38665E-13 1.69676E-13
 -1       925 1.92848E+01 6.88247E-01-1.63076E-05-8.14590E-02 9.71071E-15 1.34534E-13
 -1       926 1.95084E+01 5.43317E-01-6.55761E-06-1.18533E-01 3.98539E-14 1.67394E-13
 -1       927 1.96658E+01 4.23495E-01-1.61777E-05-1.26015E-01-1.58646E-13 1.34499E-13
 -1       928 1.97755E+01 3.26880E-01-1.30711E-05-1.17531E-01-8.64269E-14-7.66543E-15
 -1       929 1.98515E+01 2.50123E-01-6.20629E-06-1.01728E-01-1.18490E-13-2.70645E-14
 -1       930 1.99036E+01 1.89959E-01-5.68304E-06-8.37180E-02-1.50925E-13-1.08123E-15
 -1       931 1.99377E+01 1.45131E-01-2.28253E-06-6.70324E-02-3.07107E-14-3.30782E-14
 -1       932 1.99622E+01 1.08322E-01-5.37984E-06-5.13212E-02-1.32719E-13-1.31412E-13
 -1       933 1.99786E+01 8.00178E-02-3.42754E-06-3.81083E-02-1.63945E-13-7.16650E-14
 -1       934 1.99893E+01 5.83714E-02-2.53099E-06-2.74183E-02-1.34433E-13-2.21498E-13
 -1       935 1.99961E+01 4.19377E-02-1.74227E-06-1.90546E-02-9.59645E-14-1.10768E-13
 -1       936 2.00002E+01 2.95710E-02-9.65120E-07-1.26989E-02 3.02701E-14 1.66892E-14
 -1       937 2.00026E+01 2.03657E-02-5.59400E-07-8.01298E-03 1.96515E-14-9.80896E-14
 -1       938 2.00038E+01 1.38850E-02-5.48664E-07-4.77993E-03-4.08335E-13-1.38621E-13
 -1       939 2.00043E+01 8.89555E-03-3.24686E-07-2.38731E-03-1.85420E-13 1.56699E-13
 -1       940 2.00043E+01 5.35243E-03-1.85302E-07-7.86154E-04 6.28673E-14 1.56051E-13
 -1       941 2.00040E+01 2.89109E-03-1.12504E-07 2.34985E-04-3.07810E-14 1.90772E-13
 -1       942 2.00035E+01 1.23272E-03-8.19562E-08 8.39279E-04 3.11668E-13 6.38372E-14
 -1       943 2.00030E+01 1.60668E-04 3.85790E-08 1.15392E-03 2.42923E-13 3.99803E-14
 -1       944 2.00025E+01-4.92324E-04 3.55637E-08 1.27294E-03 6.34273E-14 5.90695E-14
 -1       945 2.00020E+01-8.38891E-04 1.16119E-08 1.27101E-03-3.60004E-14 5.58262E-14
 -1       946 2.00016E+01-1.01192E-03-7.14478E-10 1.19544E-03-2.61225E-13 1.20021E-13
 -1       947 2.00012E+01-1.05625E-03-4.07022E-08 1.07836E-03-2.43440E-13 2.06360E-13
 -1       948 2.00008E+01-1.02923E-03 9.28866E-11 9.42877E-04-1.96212E-13 8.72897E-14
 -1       949 2.11567E+01-1.06450E+00 7.05645E-04 5.20745E-01-1.70438E-13-8.79792E-14
 -1       950 2.35257E+01 3.69755E+00-3.21827E-02-8.45852E-01 3.80598E-13-1.16185E-13
 -1       951 2.17675E+01-1.41111E+00 2.04304E-03 3.23522E-01-8.04443E-14-1.25091E-13
 -1       952 2.31884E+01-1.54858E+00-1.17277E-02-6.81908E-01-3.83654E-14-2.93030E-13
 -1       953 2.06927E+01-7.11861E-01 6.00450E-05 5.76742E-01-1.02478E-13-4.82562E-14
 -1       954 2.03687E+01-4.13599E-01 1.99944E-05 5.51707E-01-9.19431E-14-1.55951E-13
 -1       955 2.01593E+01-1.90486E-01 2.49742E-05 4.86756E-01-1.06699E-13-4.82965E-14
 -1       956 2.00345E+01-3.83393E-02 2.48896E-06 4.09017E-01-6.88715E-14 2.74193E-14
 -1       957 1.99678E+01 5.59063E-02-2.14464E-05 3.32342E-01-9.60232E-14-5.58578E-16
 -1       958 1.99386E+01 1.06724E-01-6.37439E-06 2.63594E-01-3.09402E-14 5.25384E-15
 -1       959 1.99316E+01 1.27591E-01 4.85330E-06 2.05083E-01-9.16593E-14 3.23168E-14
 -1       960 1.99367E+01 1.29080E-01-1.41483E-06 1.57031E-01-1.71842E-14 4.40848E-14
 -1       961 1.99472E+01 1.19429E-01-5.45191E-06 1.18427E-01 2.41522E-15 1.25412E-13
 -1       962 1.99593E+01 1.04116E-01-5.06160E-06 8.79527E-02-7.15688E-14-1.44386E-14
 -1       963 1.99707E+01 8.68731E-02-4.14605E-06 6.42748E-02-2.97535E-13 4.88563E-14
 -1       964 1.99804E+01 6.99709E-02-3.24549E-06 4.61146E-02-1.86738E-13-2.74094E-14
 -1       965 1.99881E+01 5.46570E-02-2.45106E-06 3.23668E-02-2.46674E-14 1.23714E-13
 -1       966 1.99938E+01 4.14986E-02-1.76715E-06 2.21020E-02 1.22044E-13 2.37222E-13
 -1       967 1.99979E+01 3.06329E-02-1.14625E-06 1.45561E-02-8.24466E-15 3.89028E-13
 -1       968 2.00006E+01 2.19518E-02-9.51375E-07 9.10942E-03-2.08023E-13 3.39727E-13
 -1       969 2.00022E+01 1.52132E-02-5.46113E-07 5.25454E-03 1.33562E-14 8.02872E-14
 -1       970 2.00030E+01 1.01116E-02-2.56652E-07 2.60081E-03-7.68579E-15 1.86700E-14
 -1       971 2.00034E+01 6.35914E-03-6.73612E-08 8.35142E-04 5.10884E-14 1.28693E-14
 -1       972 2.00033E+01 3.67417E-03 2.12550E-08-2.86850E-04-1.96793E-13-4.88578E-14
 -1       973 2.00031E+01 1.81408E-03 7.18302E-08-9.49745E-04-2.18925E-13-1.88839E-14
 -1       974 2.00027E+01 5.75912E-04 9.39033E-08-1.29448E-03 1.15819E-13-5.81448E-14
 -1       975 2.00023E+01-2.06131E-04 4.23651E-08-1.42585E-03 2.32729E-13-2.78649E-13
 -1       976 2.00019E+01-6.62347E-04 2.29505E-08-1.42048E-03 1.26839E-13-4.26765E-13
 -1       977 2.00015E+01-8.94193E-04 8.04861E-08-1.33322E-03 6.79140E-14-5.02417E-13
 -1       978 2.00011E+01-9.80684E-04 3.92559E-08-1.20190E-03-2.24248E-13-1.49848E-13
 -1       979 2.00008E+01-9.78087E-04 6.69961E-07-1.05270E-03-7.35445E-14-9.76699E-14
 -1       980 2.00790E+01-1.60024E+00 2.00789E-03 3.17115E+00-4.60620E-13-1.60660E-13
 -1       981 1.60685E+01 1.34116E+00 3.62484E-03 1.64609E+00-2.62406E-13 6.40136E-14
 -1       982 2.30806E+01-2.59681E+00-3.61898E-03 1.43989E+00-2.31716E-13-2.70100E-13
 -1       983 2.24919E+01-1.63109E+00-1.73218E-03-8.72912E-02-1.89690E-14-1.84012E-13
 -1       984 2.41640E+01-1.56753E+00 1.05298E-02-7.82456E-01 9.23025E-15-3.01038E-13
 -1       985 1.79625E+01 1.20743E+00-5.72055E-05 4.51427E-01-1.01448E-13 2.41981E-13
 -1       986 1.64951E+01 3.66881E-01 8.52980E-03 3.06248E+00-4.37891E-13 5.10664E-14
 -1       987 2.45887E+01 1.85100E-01-1.33835E-02 1.69066E+00 1.41210E-13 5.32577E-14
 -1       988 2.36740E+01-8.04995E-01-1.72836E-03-1.35433E+00 4.33624E-14-3.52002E-13
 -1       989 2.37801E+01 7.89647E-03-8.99618E-03 1.49381E+00 1.34687E-13-2.77868E-14
 -1       990 2.14345E+01-1.83108E+00 1.61558E-03 1.95767E+00-3.43288E-13 2.54753E-14
 -1       991 1.86746E+01-4.19040E-01 1.81691E-03 2.75787E+00-4.32890E-13-5.91958E-14
 -1       992 2.48237E+01 1.92774E+00-2.25179E-02 2.14219E+00 3.66767E-13 7.52462E-14
 -1       993 2.00012E+01-1.17260E-03 1.61794E-07-6.94035E-06-1.63814E-13 2.45758E-13
 -1       994 2.00011E+01-1.15037E-03-3.86449E-07 3.84302E-04-3.46328E-13 4.39826E-13
 -1       995 2.39380E+01 9.83273E-01-5.99078E-03 2.04256E+00 2.43689E-13 6.72189E-14
 -1       996 2.00011E+01-1.14080E-03 1.79779E-08-3.96857E-04 1.04246E-13 3.20975E-13
 -1       997 2.35778E+01 3.18891E+00-9.64101E-03 1.55225E+00 4.44785E-13-1.16537E-14
 -1       998 1.91714E+01 6.59633E-01 1.67850E-04 2.04727E-01-4.03526E-14-9.54214E-15
 -1       999 1.93959E+01 5.55006E-01 2.13148E-05 7.84881E-02-6.06437E-14-2.36370E-14
 -1      1000 1.95661E+01 4.54709E-01-4.92412E-05 7.98601E-03-1.96743E-13-1.95474E-13
 -1      1001 1.96926E+01 3.65952E-01-3.01264E-05-2.79055E-02-1.56434E-13-2.72324E-14
 -1      1002 1.97855E+01 2.89680E-01-1.47632E-05-4.24740E-02-1.65245E-13-4.98954E-14
 -1      1003 1.98525E+01 2.26618E-01-3.58552E-05-4.51173E-02-9.99334E-14-8.00692E-14
 -1      1004 1.98990E+01 1.77345E-01-2.54460E-05-4.16998E-02-6.28613E-14-2.25885E-13
 -1      1005 1.99340E+01 1.35355E-01-2.63569E-05-3.54023E-02-1.98825E-13-2.56765E-13
 -1      1006 1.99585E+01 1.02028E-01-1.99615E-05-2.83777E-02-9.66640E-14-2.75106E-13
 -1      1007 1.99755E+01 7.58507E-02-1.52997E-05-2.17109E-02-1.39910E-13-1.77973E-13
 -1      1008 1.99870E+01 5.55173E-02-1.13777E-05-1.59266E-02 2.16970E-14 3.39584E-14
 -1      1009 1.99945E+01 3.99020E-02-7.32703E-06-1.11985E-02 6.47832E-14-4.90579E-14
 -1      1010 1.99993E+01 2.80449E-02-6.18186E-06-7.50629E-03-1.19921E-13-5.23805E-14
 -1      1011 2.00021E+01 1.96190E-02-8.23195E-07-4.84521E-03-1.24633E-13 1.86699E-13
 -1      1012 2.00037E+01 1.29636E-02-2.62217E-06-2.78854E-03-1.03232E-13 3.14821E-13
 -1      1013 2.00044E+01 8.17791E-03-2.10550E-06-1.34887E-03-1.24794E-13 2.34852E-13
 -1      1014 2.00045E+01 4.78312E-03-1.21112E-06-3.83122E-04 5.61223E-14 1.82075E-13
 -1      1015 2.00043E+01 2.44170E-03-7.34940E-07 2.28191E-04 5.79782E-14 2.87835E-13
 -1      1016 2.00038E+01 8.82170E-04-4.55346E-07 5.84813E-04 2.18928E-13 1.48096E-13
 -1      1017 2.00033E+01-1.10573E-04-3.67554E-07 7.66611E-04 1.74374E-13-5.23118E-14
 -1      1018 2.00028E+01-6.72689E-04 2.01481E-07 8.25320E-04 1.70687E-13 8.80788E-14
 -1      1019 2.00022E+01-9.95096E-04-5.96729E-08 8.17959E-04 6.32623E-14 1.82427E-13
 -1      1020 2.00017E+01-1.12739E-03 5.09789E-07 7.62604E-04-1.52196E-13 5.15118E-13
 -1      1021 2.00013E+01-1.14544E-03 1.12208E-06 6.85284E-04-2.74995E-13 4.98426E-13
 -1      1022 2.02876E+01-4.75598E-01-3.84157E-05 8.52268E-01-7.78181E-14-1.16534E-13
 -1      1023 2.06892E+01-8.61218E-01 8.11511E-04 9.79556E-01-1.18367E-13-8.07412E-14
 -1      1024 1.99178E+01-1.18761E-02 1.38293E-06 5.43022E-01-9.35388E-14-8.80457E-14
 -1      1025 1.98586E+01 9.94558E-02-7.81068E-05 4.14165E-01-1.91531E-14-8.91515E-14
 -1      1026 1.98445E+01 1.55567E-01 1.18943E-05 3.10051E-01-5.62652E-14-4.01662E-14
 -1      1027 1.98532E+01 1.76758E-01 7.43700E-05 2.29396E-01-6.61301E-14 2.83663E-14
 -1      1028 1.98739E+01 1.74181E-01-9.88742E-06 1.67583E-01-2.26311E-14 7.97809E-14
 -1      1029 1.98981E+01 1.59431E-01-3.08006E-05 1.21448E-01-7.95271E-14 7.98720E-14
 -1      1030 1.99220E+01 1.38240E-01-2.41105E-05 8.71616E-02-1.85240E-14 2.64342E-13
 -1      1031 1.99431E+01 1.15226E-01-2.13371E-05 6.20046E-02-1.47570E-13 3.17802E-13
 -1      1032 1.99606E+01 9.30096E-02-1.79396E-05 4.36010E-02-2.29683E-13 4.23784E-14
 -1      1033 1.99742E+01 7.29997E-02-1.45652E-05 3.02098E-02-2.05091E-13 1.20705E-13
 -1      1034 1.99845E+01 5.58252E-02-1.14626E-05 2.05236E-02-4.29767E-14 1.51671E-13
 -1      1035 1.99920E+01 4.16152E-02-9.27775E-06 1.35660E-02-4.13644E-14 3.45763E-13
 -1      1036 1.99971E+01 3.01844E-02-4.83893E-06 8.61621E-03-1.22938E-13 3.61655E-13
 -1      1037 2.00004E+01 2.13036E-02-9.36596E-07 5.17232E-03-8.08780E-14 3.02363E-13
 -1      1038 2.00024E+01 1.44686E-02-2.55781E-06 2.78173E-03 1.72170E-13 1.53896E-13
 -1      1039 2.00035E+01 9.40998E-03-2.11280E-06 1.18696E-03 2.99105E-14 1.11484E-13
 -1      1040 2.00039E+01 5.73721E-03-1.25590E-06 1.52462E-04-1.03575E-13 1.96049E-13
 -1      1041 2.00039E+01 3.14720E-03-7.02688E-07-4.79607E-04-2.97156E-13 3.04687E-13
 -1      1042 2.00036E+01 1.38303E-03-2.92928E-07-8.32269E-04 1.59797E-13 1.85154E-13
 -1      1043 2.00032E+01 2.32967E-04-6.35636E-08-9.96817E-04 4.27168E-13-8.45318E-14
 -1      1044 2.00027E+01-4.72461E-04 8.81176E-08-1.03682E-03 3.03469E-13-1.01494E-13
 -1      1045 2.00022E+01-8.66784E-04 8.74481E-08-9.99439E-04-4.36553E-14-3.51615E-13
 -1      1046 2.00017E+01-1.04901E-03 3.67121E-07-9.20270E-04-2.85089E-13-2.30076E-13
 -1      1047 2.00013E+01-1.10217E-03 1.58829E-07-8.18040E-04-2.47422E-13-2.00058E-13
 -1      1048 2.00008E+01-1.04582E-03-6.38332E-07-7.49073E-04 9.17358E-14-4.39147E-13
 -1      1049 2.00477E+01-1.95411E-01 2.09331E-04 6.93132E-01-1.23853E-13-8.60863E-14
 -1      1050 2.12934E+01-1.35018E+00-3.87710E-03 1.03312E+00-1.40211E-13-3.00310E-14
 -1      1051 1.80817E+01 8.07068E-01-2.36238E-04 1.22479E+00 2.93787E-14-1.64064E-13
 -1      1052 1.74725E+01 6.60616E-01 2.11492E-03 2.00700E+00-2.25652E-13-9.64361E-14
 -1      1053 1.88951E+01 7.51962E-01-9.62201E-06 4.01906E-01-1.19259E-13 3.76619E-14
 -1      1054 1.85285E+01 8.17654E-01-1.66910E-04 7.27467E-01-3.88272E-15-9.73881E-15
 -1      1055 2.00015E+01-1.19572E-03-8.25095E-07-2.37294E-04-2.62953E-13 1.52302E-13
 -1      1056 2.01516E+01-1.00144E+00 1.77716E-03 2.11958E+00-1.75716E-13 1.35308E-14
 -1      1057 2.00015E+01-1.20117E-03-7.80435E-07 2.12533E-04-4.31216E-13 1.66995E-13
 -1      1058 2.18343E+01-1.70383E+00 2.43310E-03 1.04966E+00-1.81927E-13-6.60890E-14
 -1      1059 1.95330E+01 4.26602E-01-5.11077E-05 1.72859E-01-9.37340E-14 2.55329E-14
 -1      1060 1.96506E+01 3.63604E-01-6.20239E-04 8.85148E-02-9.63456E-14-8.53370E-15
 -1      1061 1.97436E+01 3.03563E-01 1.39288E-04 4.08122E-02-1.19263E-13 4.50449E-14
 -1      1062 1.98137E+01 2.47827E-01-5.73540E-06 1.34768E-02-1.86850E-13-3.39054E-14
 -1      1063 1.98666E+01 1.99838E-01-1.17818E-05-6.53131E-04-9.25630E-14-1.14232E-13
 -1      1064 1.99083E+01 1.56794E-01-1.49020E-05-7.48726E-03-6.25893E-14 5.45242E-15
 -1      1065 1.99391E+01 1.21039E-01-7.64471E-06-9.64078E-03-1.70569E-13 2.25189E-14
 -1      1066 1.99612E+01 9.19170E-02-2.58889E-06-9.36190E-03-9.16646E-14 3.29832E-14
 -1      1067 1.99769E+01 6.86146E-02 1.96694E-07-7.99329E-03 3.43234E-14-1.44132E-14
 -1      1068 1.99877E+01 5.02742E-02 2.85180E-07-6.29040E-03 1.19340E-13-1.85446E-13
 -1      1069 1.99950E+01 3.59437E-02-4.78493E-06-4.49448E-03 3.83710E-14-4.01123E-14
 -1      1070 1.99995E+01 2.56152E-02 2.60262E-05-3.29886E-03-3.01342E-14 1.27038E-14
 -1      1071 2.00023E+01 1.74985E-02 1.39562E-05-2.13538E-03-1.19177E-13 7.44050E-15
 -1      1072 2.00038E+01 1.14086E-02 3.54837E-06-1.23037E-03-1.34787E-13 2.05495E-13
 -1      1073 2.00045E+01 7.02862E-03 2.18413E-06-6.17354E-04-3.22245E-14 3.40952E-13
 -1      1074 2.00046E+01 3.95083E-03 1.89140E-06-1.95377E-04-6.89120E-14 3.44545E-14
 -1      1075 2.00043E+01 1.84918E-03 1.46372E-06 7.70682E-05 1.36737E-13 3.09616E-14
 -1      1076 2.00039E+01 4.55354E-04 8.06969E-08 2.45633E-04 1.19751E-13 2.62586E-13
 -1      1077 2.00033E+01-3.45255E-04 5.95769E-07 3.08840E-04 3.21743E-13 3.73810E-13
 -1      1078 2.00028E+01-8.66956E-04-3.61466E-07 3.51512E-04 4.69166E-13 6.57272E-13
 -1      1079 2.00022E+01-1.11369E-03-1.61881E-06 3.44833E-04-8.66485E-14 7.41350E-13
 -1      1080 2.00365E+01-4.52521E-01 1.42847E-03 1.23938E+00-4.89371E-14 5.77728E-14
 -1      1081 1.97117E+01 2.32601E-01 1.18323E-04 3.58579E-01-6.78025E-14 1.21467E-15
 -1      1082 1.96962E+01 1.79664E-01-4.90616E-05 5.06167E-01-8.75822E-14-7.65183E-14
 -1      1083 1.97972E+01 2.31875E-01 7.48804E-05 1.68017E-01-1.27619E-13-2.53245E-14
 -1      1084 1.98393E+01 2.07780E-01-3.30419E-05 1.15453E-01-1.16950E-13 1.23296E-13
 -1      1085 1.98781E+01 1.78014E-01-5.04750E-06 7.80495E-02-1.78170E-13 2.65742E-13
 -1      1086 1.99111E+01 1.47333E-01 8.37940E-06 5.24314E-02-1.25617E-13 2.43482E-13
 -1      1087 1.99376E+01 1.18586E-01 9.05980E-06 3.49571E-02-3.36427E-14 2.13435E-13
 -1      1088 1.99582E+01 9.31086E-02 5.98460E-06 2.31123E-02-1.59404E-13 1.16006E-13
 -1      1089 1.99736E+01 7.14332E-02 3.86410E-06 1.50977E-02-1.23728E-13 3.74053E-14
 -1      1090 1.99848E+01 5.35656E-02 2.37214E-06 9.68696E-03-1.13230E-13 2.37682E-14
 -1      1091 1.99926E+01 3.92487E-02 8.12288E-06 6.06676E-03-1.58318E-13-4.98954E-14
 -1      1092 1.99980E+01 2.78304E-02 1.99919E-05 3.54129E-03-1.51318E-13-1.21950E-13
 -1      1093 2.00012E+01 1.93420E-02 1.74519E-05 1.91336E-03 1.93557E-13-1.44745E-13
 -1      1094 2.00030E+01 1.28888E-02-1.41233E-06 8.86561E-04 2.54496E-13-1.09805E-13
 -1      1095 2.00040E+01 8.15536E-03 3.68681E-07 2.11838E-04-6.76271E-14-6.77710E-14
 -1      1096 2.00043E+01 4.77087E-03 2.83985E-07-2.00341E-04-2.35932E-13 1.09446E-13
 -1      1097 2.00042E+01 2.42434E-03 2.12175E-07-4.35669E-04 1.16010E-14 3.37960E-14
 -1      1098 2.00038E+01 8.57327E-04 6.46238E-07-5.51255E-04 4.28901E-13 1.06363E-13
 -1      1099 2.00033E+01-1.50354E-04-2.03879E-06-5.92719E-04 4.41628E-13 2.59888E-13
 -1      1100 2.00028E+01-7.21169E-04-5.32316E-07-5.77631E-04 3.70274E-13 2.38777E-13
 -1      1101 2.00023E+01-1.04045E-03 5.73621E-07-5.37268E-04-9.21686E-14-2.16747E-13
 -1      1102 2.00019E+01-1.16179E-03-7.08154E-07-3.87090E-04-7.14773E-13-8.81250E-14
 -1      1103 1.98109E+01-1.33294E-01-3.77078E-04 9.49742E-01-1.08634E-13-6.59909E-14
 -1      1104 1.93868E+01 4.80036E-01-1.15646E-04 3.07009E-01-1.34397E-13-3.59148E-14
 -1      1105 1.92302E+01 5.06068E-01-1.83718E-04 4.95562E-01-7.17704E-14-7.15058E-15
 -1      1106 1.90430E+01 4.92776E-01-9.21542E-05 7.86962E-01-6.02356E-14-1.43131E-13
 -1      1107 1.97518E+01 2.44270E-01 3.23516E-04 2.46725E-01-1.57942E-13-2.79117E-15
 -1      1108 1.86818E+01 1.29345E-01 5.13474E-04 1.86896E+00-1.56586E-13 4.83484E-15
 -1      1109 1.88665E+01 3.84758E-01 9.66627E-05 1.21465E+00 3.65391E-14-1.27299E-13
 -1      1110 1.97156E+01 6.76842E-02-6.80981E-04 6.97565E-01-6.08330E-14-5.62892E-15
 -1      1111 2.08701E+01-1.27385E+00-1.85079E-03 1.59720E+00-1.96418E-13 7.91800E-14
 -1      1112 2.00018E+01-1.18082E-03-9.40754E-07 2.79291E-04-2.93509E-13 2.69638E-13
 -1      1113 2.00019E+01-1.17824E-03 3.30085E-06-4.03258E-05-5.12542E-13 2.50804E-13
 -1      1114 1.94470E+01 2.58554E-01 1.12650E-03 7.19316E-01-6.76059E-14-7.32330E-15
 -1      1115 1.97392E+01 2.84691E-01-1.27197E-04 1.28759E-01-1.41523E-13 6.09977E-14
 -1      1116 2.00004E+01 2.14669E-02-5.87703E-05-5.21075E-05-6.69747E-15-4.25028E-13
 -1      1117 2.00031E+01-6.34018E-04 5.82228E-06-1.44701E-04 5.20939E-13 4.17954E-13
 -1      1118 1.94959E+01-2.03302E-01-3.40744E-03 1.50346E+00-8.30021E-14 1.09996E-13
 -1      1119 1.94202E+01 1.01039E-01 9.45383E-05 1.06060E+00-1.72669E-14 1.24313E-13
 -1      1120 3.21677E+01 1.04002E+01 2.49956E+00-6.16445E+00-4.70179E-14 1.85019E-12
 -1      1121 2.38145E+01 7.26102E+00 3.88803E-01-2.21447E+00-2.98095E-14 2.85133E-13
 -1      1122 2.04640E+01 6.16124E+00 7.34857E-02-9.62143E-01-2.29261E-14-4.19170E-13
 -1      1123 1.78938E+01 5.34551E+00-7.54266E-02-7.09253E-01-1.53488E-14-7.66184E-13
 -1      1124 1.61785E+01 4.81026E+00-1.44264E-01-9.94569E-01-1.04639E-14-9.45526E-13
 -1      1125 1.54483E+01 4.59095E+00-1.45131E-01-1.46886E+00-7.23727E-15-1.01842E-12
 -1      1126 1.56074E+01 4.65420E+00-9.34272E-02-1.83156E+00-4.91274E-15-1.02167E-12
 -1      1127 1.63787E+01 4.90912E+00-1.50333E-02-1.88126E+00-2.49800E-15-9.94782E-13
 -1      1128 1.73975E+01 5.23727E+00 6.00081E-02-1.56120E+00-2.91434E-16-9.45633E-13
 -1      1129 1.83548E+01 5.54002E+00 1.11922E-01-9.40873E-01 1.42941E-15-8.97595E-13
 -1      1130 1.90754E+01 5.76323E+00 1.35327E-01-1.44208E-01 4.52416E-15-8.55118E-13
 -1      1131 1.95183E+01 5.89608E+00 1.35307E-01 7.06220E-01 6.80012E-15-7.85573E-13
 -1      1132 1.97488E+01 5.96074E+00 1.20300E-01 1.54578E+00 1.20078E-14-6.81771E-13
 -1      1133 1.98981E+01 5.99874E+00 9.77187E-02 2.35888E+00 1.64729E-14-4.86744E-13
 -1      1134 2.01894E+01 6.08090E+00 8.02188E-02 3.17771E+00 2.38420E-14-8.92030E-14
 -1      1135 2.11569E+01 6.39072E+00 1.45389E-01 4.18642E+00 2.86160E-14 6.99923E-13
 -1      1136 2.61947E+01 8.30645E+00 1.49334E+00 6.19122E+00 6.57252E-14 2.36028E-12
 -1      1137 3.40099E+01 3.77730E+00 1.11834E+00-4.06444E+00-2.15702E-13 2.87792E-12
 -1      1138 2.77926E+01-2.42942E-01-7.29176E-01 7.41426E-02-7.54050E-14 2.41207E-12
 -1      1139 2.90196E+01-1.40932E-01-2.90974E-01 1.83004E-01-3.31714E-14 1.71539E-12
 -1      1140 3.15599E+01-5.10780E-02-2.65936E-02 1.87052E-01-2.36048E-14 1.30559E-12
 -1      1141 3.42925E+01 8.24600E-02 2.65230E-01 1.44671E-01-1.57530E-14 1.13674E-12
 -1      1142 3.53964E+01 2.38459E-01 5.74344E-01-9.43592E-02-2.09208E-15 1.15727E-12
 -1      1143 3.27041E+01 3.25151E-01 5.37228E-01-5.28851E-01 8.62158E-15 1.39089E-12
 -1      1144 2.59625E+01 1.27416E-01-1.72963E-01-8.62383E-01-2.06606E-14 1.24112E-12
 -1      1145 1.82025E+01-3.96490E-01-1.33284E+00-6.16537E-01-2.92474E-14 4.80838E-13
 -1      1146 1.60244E+01-5.67989E-01-1.69392E+00 2.49517E-01-3.13985E-14-6.54393E-13
 -1      1147 2.13383E+01-3.03268E-01-8.67451E-01 8.62878E-01-1.10884E-14-1.80650E-12
 -1      1148 2.90986E+01 2.20518E-01 1.91186E-01 7.72608E-01 1.39697E-14-2.25953E-12
 -1      1149 3.46469E+01 3.43011E-01 6.46762E-01 3.26309E-01 1.14735E-14-1.98791E-12
 -1      1150 3.54148E+01 1.98061E-01 4.58419E-01-4.20806E-02 4.14946E-15-1.55313E-12
 -1      1151 3.30328E+01 4.76744E-02 1.39675E-01-1.56494E-01-2.25228E-14-1.04310E-12
 -1      1152 2.98421E+01-3.12523E-02-4.23458E-02-1.42392E-01-3.96851E-14-9.60315E-13
 -1      1153 2.70595E+01-5.79979E-02-9.92378E-02-9.55662E-02 7.13492E-15-9.21999E-13
 -1      1154 2.49205E+01-5.53657E-02-9.32290E-02-6.13696E-02-2.16441E-14-8.23008E-13
 -1      1155 2.33394E+01-4.55719E-02-7.19182E-02-3.48063E-02 1.66833E-14-7.96564E-13
 -1      1156 2.22466E+01-3.43616E-02-5.05926E-02-1.90123E-02-7.96290E-14-9.11906E-13
 -1      1157 2.15027E+01-2.48152E-02-3.42876E-02-1.00486E-02 3.26518E-14-1.07991E-12
 -1      1158 2.09993E+01-1.75348E-02-2.29338E-02-5.09588E-03 1.52610E-14-9.61943E-13
 -1      1159 2.06590E+01-1.20976E-02-1.52595E-02-2.38688E-03-2.55262E-14-9.47025E-13
 -1      1160 2.04333E+01-9.11900E-03-1.05756E-02-6.20265E-04 3.86555E-14-8.92433E-13
 -1      1161 2.02800E+01-6.09332E-03-7.09324E-03-2.65130E-04 1.39130E-14-5.55682E-13
 -1      1162 2.01731E+01-4.26121E-03-4.81253E-03 1.21944E-04-1.31042E-15-7.66447E-13
 -1      1163 2.01015E+01-2.98817E-03-3.28591E-03 3.04023E-04 6.27355E-15-5.70495E-13
 -1      1164 2.00541E+01-2.09714E-03-2.25029E-03 3.75149E-04-1.95691E-14-8.24396E-13
 -1      1165 2.00232E+01-1.46906E-03-1.53878E-03 3.87826E-04 3.45873E-14-7.43127E-13
 -1      1166 2.00038E+01-1.00598E-03-1.04008E-03 3.70849E-04-2.22786E-14-5.05967E-13
 -1      1167 1.99924E+01-7.48460E-04-7.18494E-04 3.59563E-04 3.91658E-14-7.24152E-13
 -1      1168 1.99861E+01-4.94230E-04-4.74142E-04 2.99041E-04-2.44507E-15-6.31726E-13
 -1      1169 1.99830E+01-3.29791E-04-3.01648E-04 2.56998E-04 6.96868E-14-2.64082E-13
 -1      1170 1.99823E+01-2.13813E-04-1.82690E-04 2.17569E-04-1.59863E-14-2.15942E-13
 -1      1171 1.99830E+01-1.32300E-04-1.01185E-04 1.81293E-04-5.22384E-14-8.04993E-16
 -1      1172 1.99844E+01-7.57526E-05-4.63898E-05 1.48894E-04-8.14190E-14-6.08850E-13
 -1      1173 1.99863E+01-3.60814E-05-1.04027E-05 1.20435E-04-3.79291E-15-4.40289E-13
 -1      1174 1.99882E+01-1.31164E-05 1.18207E-05 9.56102E-05 2.18376E-14-1.77732E-13
 -1      1175 1.99901E+01 2.71197E-06 2.30091E-05 7.69685E-05 3.30299E-14 2.16214E-13
 -1      1176 1.99919E+01 1.24156E-05 2.95141E-05 5.96579E-05-2.20280E-14 3.45355E-13
 -1      1177 1.99935E+01 1.73429E-05 3.14217E-05 4.58080E-05-4.16219E-14 3.77118E-13
 -1      1178 1.99949E+01 1.91967E-05 3.05587E-05 3.47949E-05 8.94396E-15 1.14633E-13
 -1      1179 1.99961E+01 1.91296E-05 2.81157E-05 2.61953E-05-6.40223E-14-8.70282E-13
 -1      1180 1.99971E+01 1.78265E-05 2.49086E-05 1.95604E-05 9.08684E-14-5.27597E-13
 -1      1181 1.99979E+01 1.72373E-05 2.23567E-05 1.39073E-05-1.56142E-13 2.72370E-13
 -1      1182 1.99985E+01 1.49503E-05 1.93056E-05 1.12378E-05-7.17281E-14-1.00084E-13
 -1      1183 1.99990E+01 1.38445E-05 1.78289E-05 8.27928E-06 9.64460E-14 2.19522E-13
 -1      1184 1.99994E+01 1.33638E-05 1.79239E-05 5.44176E-06 3.01793E-14 6.07388E-13
 -1      1185 1.99997E+01 1.33549E-05 1.89188E-05 1.56011E-06-4.47356E-14 9.79921E-13
 -1      1186 1.99998E+01 1.47979E-05 1.45238E-05-6.49844E-06-1.55374E-14 3.58610E-13
 -1      1187 1.99998E+01-6.13158E-06-1.42140E-05-6.61071E-06 1.28643E-13 3.17757E-13
 -1      1188 2.89609E+01 5.59670E-01 4.35541E-01 2.06364E+00-4.51583E-14 3.74323E-12
 -1      1189 2.06161E+01-5.48942E-02-5.82304E-01 1.32560E-01 2.41751E-14 3.00074E-12
 -1      1190 1.90496E+01-2.69826E-02-1.78244E-01 1.63236E-02 1.47417E-14 2.28632E-12
 -1      1191 1.81505E+01-8.71139E-03-2.69006E-02 3.56701E-03 1.51268E-14 1.78574E-12
 -1      1192 1.73973E+01-6.06763E-03 4.36843E-03 7.09248E-03-3.58963E-15 1.47693E-12
 -1      1193 1.66831E+01-1.08722E-02-2.37685E-03 1.53137E-02 7.97170E-15 1.14511E-12
 -1      1194 1.60457E+01-1.84623E-02-1.95041E-02 2.22264E-02 5.75495E-15 9.26634E-13
 -1      1195 1.55896E+01-2.47102E-02-3.61882E-02 2.41668E-02 1.05896E-14 8.79131E-13
 -1      1196 1.54251E+01-2.65653E-02-4.58052E-02 1.95303E-02-4.37020E-15 7.33932E-13
 -1      1197 1.56142E+01-2.30690E-02-4.47841E-02 9.29810E-03-1.58987E-15 7.37460E-13
 -1      1198 1.61399E+01-1.55486E-02-3.37571E-02-3.41979E-03 3.18580E-14 6.26620E-13
 -1      1199 1.69091E+01-6.63289E-03-1.70170E-02-1.48312E-02 2.55532E-14 4.03823E-13
 -1      1200 1.77853E+01 1.15629E-03-1.48937E-04-2.21436E-02-5.16374E-15 3.91041E-13
 -1      1201 1.86336E+01 6.36477E-03 1.25182E-02-2.44554E-02-2.57061E-14 2.54709E-13
 -1      1202 1.93542E+01 8.75298E-03 1.92105E-02-2.25678E-02 2.54521E-14 6.65787E-14
 -1      1203 1.98969E+01 8.89364E-03 2.04605E-02-1.81506E-02-1.91352E-14 3.98050E-14
 -1      1204 2.02559E+01 7.65308E-03 1.80300E-02-1.28918E-02-4.23316E-15 1.44660E-13
 -1      1205 2.04551E+01 5.82083E-03 1.38525E-02-8.00250E-03 1.90390E-14 5.82867E-16
 -1      1206 2.05324E+01 3.94760E-03 9.40840E-03-4.10793E-03 6.70200E-15-1.50014E-13
 -1      1207 2.05270E+01 2.33779E-03 5.55556E-03-1.36706E-03 1.78922E-14-8.70901E-14
 -1      1208 2.04730E+01 1.10795E-03 2.63374E-03 3.37731E-04 1.81948E-14-1.51279E-13
 -1      1209 2.03959E+01 2.57994E-04 6.52027E-04 1.24082E-03-4.05959E-14-1.33960E-13
 -1      1210 2.03134E+01-2.70301E-04-5.43475E-04 1.59073E-03 2.90783E-14-2.10772E-13
 -1      1211 2.02359E+01-5.54202E-04-1.15625E-03 1.59902E-03-1.98716E-14-3.12809E-13
 -1      1212 2.01689E+01-6.68092E-04-1.37753E-03 1.42357E-03-4.87998E-14 1.96495E-13
 -1      1213 2.01143E+01-6.73618E-04-1.36064E-03 1.17085E-03 1.12791E-14 3.94549E-13
 -1      1214 2.00720E+01-6.17142E-04-1.21639E-03 9.05937E-04 3.25208E-14-5.82236E-14
 -1      1215 2.00406E+01-5.30964E-04-1.01835E-03 6.64132E-04-1.59029E-14-2.82968E-13
 -1      1216 2.00183E+01-4.35992E-04-8.11453E-04 4.61088E-04-7.91659E-15-9.53662E-14
 -1      1217 2.00033E+01-3.44654E-04-6.20425E-04 3.00564E-04-1.46802E-14 1.62372E-14
 -1      1218 1.99939E+01-2.63468E-04-4.56688E-04 1.79814E-04 4.58147E-14-2.75937E-13
 -1      1219 1.99885E+01-1.95084E-04-3.23505E-04 9.30903E-05 6.60224E-14-6.00723E-13
 -1      1220 1.99859E+01-1.39797E-04-2.19559E-04 3.37533E-05-2.27816E-14-3.67119E-13
 -1      1221 1.99853E+01-9.65985E-05-1.41284E-04-4.56422E-06-5.02579E-14 3.32257E-14
 -1      1222 1.99859E+01-6.38702E-05-8.43166E-05-2.74043E-05-3.24350E-16 4.06384E-13
 -1      1223 1.99871E+01-3.98075E-05-4.43056E-05-3.92999E-05 3.17255E-14-5.13205E-14
 -1      1224 1.99887E+01-2.26641E-05-1.73314E-05-4.37931E-05 1.32784E-13-6.75398E-13
 -1      1225 1.99904E+01-1.08785E-05-7.11405E-08-4.35493E-05-3.37973E-14-4.52023E-15
 -1      1226 1.99920E+01-3.12368E-06 1.01714E-05-4.05055E-05-2.22797E-14 5.20733E-13
 -1      1227 1.99935E+01 1.68810E-06 1.55126E-05-3.60227E-05-9.35168E-16-2.06030E-13
 -1      1228 1.99949E+01 4.42832E-06 1.75730E-05-3.10250E-05-3.26138E-15-2.47139E-13
 -1      1229 1.99960E+01 5.78700E-06 1.75762E-05-2.61168E-05-9.22922E-15-1.05387E-13
 -1      1230 1.99970E+01 6.31459E-06 1.64517E-05-2.16772E-05 4.19105E-14-1.09573E-12
 -1      1231 1.99978E+01 6.46555E-06 1.49431E-05-1.79287E-05 7.49694E-14-1.65104E-12
 -1      1232 1.99985E+01 6.63010E-06 1.37187E-05-1.49728E-05-1.41999E-13-1.03488E-12
 -1      1233 1.99990E+01 7.12694E-06 1.34497E-05-1.27763E-05 1.01314E-13-9.40821E-13
 -1      1234 1.99994E+01 8.20809E-06 1.47053E-05-1.10759E-05 8.86842E-15-1.46499E-12
 -1      1235 1.99997E+01 9.39100E-06 1.66202E-05-8.75625E-06 3.85629E-14-1.20589E-12
 -1      1236 1.99998E+01 6.75816E-06 1.20212E-05-2.64871E-06 6.47279E-14-1.24683E-12
 -1      1237 1.99998E+01-5.71684E-06-1.44587E-05 5.87423E-06 2.73189E-14-1.24432E-12
 -1      1238 1.99998E+01 1.71017E-05-1.33583E-05 5.74499E-06-1.14197E-12-8.53074E-14
 -1      1239 1.99998E+01 1.38628E-05 1.34212E-05 5.08356E-06-7.89784E-13 5.56479E-14
 -1      1240 1.99998E+01-1.25290E-04 1.53651E-05-4.47151E-06 4.44618E-13 9.75093E-14
 -1      1241 1.99998E+01-3.75580E-04 8.23957E-06-8.98490E-06 6.79887E-13 3.28235E-14
 -1      1242 1.99998E+01-6.78695E-04-1.65022E-07-1.02520E-05 5.52822E-13-1.47561E-13
 -1      1243 1.99998E+01-9.76273E-04-7.34931E-06-9.29138E-06-7.23030E-13-8.65420E-14
 -1      1244 1.99998E+01-1.22413E-03-1.26243E-05-7.04915E-06-8.51543E-13 2.39443E-14
 -1      1245 1.99998E+01-1.38883E-03-1.59380E-05-3.73124E-06-6.37413E-13 1.56035E-13
 -1      1246 1.99998E+01-1.44558E-03-1.70500E-05 4.08347E-08-1.72724E-13 7.85052E-14
 -1      1247 1.99998E+01-1.38690E-03-1.59200E-05 3.81531E-06 6.69878E-13-1.91219E-13
 -1      1248 1.99998E+01-1.22039E-03-1.25606E-05 7.12000E-06 3.69898E-13-1.10836E-13
 -1      1249 1.99998E+01-9.70953E-04-7.23341E-06 9.47943E-06-1.04210E-12 8.45320E-14
 -1      1250 1.99998E+01-6.72603E-04-8.13962E-08 1.02960E-05-9.81907E-13 1.19196E-13
 -1      1251 1.99998E+01-3.69454E-04 8.41865E-06 8.98186E-06-7.63179E-13 1.18497E-13
 -1      1252 1.99998E+01-1.19805E-04 1.61140E-05 4.45150E-06-2.35943E-13 1.77112E-14
 -1      1253 1.99998E+01 1.25659E-05 1.21985E-05-7.80931E-06-3.08448E-13-1.59857E-13
 -1      1254 1.99998E+01 1.85246E-05-1.38310E-05-6.21426E-06-2.81784E-13 2.00939E-13
 -1      1255-1.00539E+00-2.46476E+01-3.69762E+00-2.07221E+00 1.25289E-12 2.54841E-13
 -1      1256-1.47602E+00-1.40491E+01-2.85227E+00-3.59446E+00 2.97673E-12 1.14325E-12
 -1      1257 1.16900E+00-3.64695E-01-1.55073E+00 1.05567E+00 4.18265E-12 2.52864E-12
 -1      1258 1.11139E+01 9.81258E+00 4.67392E-02 1.01870E+01 3.73079E-12 3.48077E-12
 -1      1259 2.81627E+01 1.25374E+01 1.66736E+00 1.79704E+01 2.42140E-12 3.38063E-12
 -1      1260 4.82420E+01 9.01175E+00 2.99784E+00 1.89519E+01 1.12532E-12 2.36056E-12
 -1      1261 6.45954E+01 3.68330E+00 3.91015E+00 1.18114E+01 2.55046E-13 7.11653E-13
 -1      1262 6.97436E+01 1.69670E+00 4.15212E+00-1.20220E+00 1.35850E-13-1.39994E-12
 -1      1263 6.08094E+01 4.93132E+00 3.62908E+00-1.38130E+01 9.62119E-13-3.37785E-12
 -1      1264 4.21656E+01 1.02881E+01 2.53988E+00-1.93082E+01 2.23055E-12-4.40870E-12
 -1      1265 2.21045E+01 1.23318E+01 1.02051E+00-1.59001E+01 3.48388E-12-4.35607E-12
 -1      1266 7.23516E+00 7.53480E+00-5.40840E-01-7.42351E+00 4.13758E-12-3.43037E-12
 -1      1267 6.69709E-02-3.38427E+00-1.89263E+00 3.30648E-01 3.80740E-12-2.08267E-12
 -1      1268-1.32606E+00-1.61050E+01-2.99110E+00 3.26452E+00 2.34879E-12-8.09991E-13
 -1      1269-9.70617E-01-2.46645E+01-3.72825E+00 7.42980E-01 2.22322E-13-1.79447E-13
 -1      1270-1.66015E+00-2.49848E+01-3.97243E+00-3.79564E+00-1.92329E-12-5.13548E-13
 -1      1271-2.82019E+00-1.70477E+01-3.69183E+00-5.68328E+00-3.67184E-12-1.61526E-12
 -1      1272-8.17319E-01-4.86841E+00-2.75054E+00-1.78349E+00-4.54858E-12-3.11817E-12
 -1      1273 9.72443E+00 5.80967E+00-1.06657E+00 7.65725E+00-4.15112E-12-4.27702E-12
 -1      1274 3.04788E+01 1.01758E+01 1.34513E+00 1.68955E+01-3.12661E-12-4.99889E-12
 -1      1275 5.55850E+01 7.91402E+00 3.83064E+00 1.86691E+01-1.73128E-12-4.37783E-12
 -1      1276 7.62372E+01 3.51885E+00 5.89487E+00 1.08706E+01-5.01668E-13-2.58948E-12
 -1      1277 8.08955E+01 2.34436E+00 6.31501E+00-3.50239E+00-1.44509E-13-5.64548E-14
 -1      1278 6.74652E+01 5.56998E+00 5.00458E+00-1.59873E+01-8.36886E-13 2.49911E-12
 -1      1279 4.34404E+01 9.73635E+00 2.65318E+00-1.92263E+01-2.22167E-12 4.37717E-12
 -1      1280 2.02644E+01 9.60029E+00 2.60156E-01-1.36372E+01-3.34799E-12 4.40448E-12
 -1      1281 4.56653E+00 2.81372E+00-1.68312E+00-4.03737E+00-3.71325E-12 3.39462E-12
 -1      1282-2.11083E+00-9.12535E+00-3.00712E+00 3.76983E+00-3.27471E-12 1.95555E-12
 -1      1283-2.54257E+00-2.09141E+01-3.79746E+00 5.83496E+00-2.19247E-12 8.69665E-13
 -1      1284-1.26403E+00-2.69753E+01-3.98928E+00 2.67495E+00-4.45283E-13 1.52503E-13
 -1      1285 2.76145E+01 2.11976E+00-7.03445E-01-2.01471E+00-7.46070E-14 1.54057E-12
 -1      1286 2.32148E+01 5.03195E+00-5.70552E-02-1.48870E+00-2.16327E-13-2.75960E-14
 -1      1287 2.49744E+01 5.45588E+00 3.50570E-02-2.54288E+00-2.85355E-13 3.38618E-13
 -1      1288 1.98206E+01 5.24148E+00-7.69871E-02-8.29122E-01-2.20129E-13-5.64722E-13
 -1      1289 2.14338E+01 5.70076E+00 6.16844E-02-1.15620E+00-2.49911E-13-3.34927E-13
 -1      1290 2.28334E+01 4.39170E+00 2.30932E-03-1.24609E+00-3.72105E-13-3.30846E-14
 -1      1291 1.72134E+01 5.19198E+00-8.48593E-02-7.93250E-01-1.81494E-13-8.51798E-13
 -1      1292 1.84253E+01 5.55101E+00 7.27052E-03-7.78855E-01-2.04892E-13-7.22731E-13
 -1      1293 1.92833E+01 5.03761E+00-1.90443E-02-8.64507E-01-3.36585E-13-4.87721E-13
 -1      1294 1.56328E+01 5.10012E+00-7.07558E-02-1.17317E+00-1.52864E-13-9.93230E-13
 -1      1295 1.62908E+01 5.29892E+00-3.83892E-02-9.86188E-01-1.65035E-13-9.33752E-13
 -1      1296 1.66906E+01 5.29987E+00-2.40967E-02-9.75113E-01-2.81476E-13-7.42848E-13
 -1      1297 1.51942E+01 4.99754E+00-3.82857E-02-1.64389E+00-1.26826E-13-1.03897E-12
 -1      1298 1.52788E+01 5.02676E+00-6.41500E-02-1.44806E+00-1.40554E-13-1.01706E-12
 -1      1299 1.53147E+01 5.27755E+00-2.24979E-02-1.39877E+00-2.44438E-13-8.50355E-13
 -1      1300 1.56993E+01 4.89205E+00-1.05506E-03-1.92939E+00-1.02383E-13-1.03361E-12
 -1      1301 1.53395E+01 4.79118E+00-6.52871E-02-1.84432E+00-1.15550E-13-1.03967E-12
 -1      1302 1.51540E+01 5.02035E+00-2.46131E-02-1.82490E+00-2.04587E-13-8.91870E-13
 -1      1303 1.67589E+01 4.81923E+00 2.82730E-02-1.85556E+00-7.06796E-14-9.96281E-13
 -1      1304 1.61761E+01 4.65183E+00-4.36580E-02-1.94488E+00-8.20594E-14-1.01303E-12
 -1      1305 1.59393E+01 4.64950E+00-2.61942E-02-1.98637E+00-1.59470E-13-8.68864E-13
 -1      1306 1.79368E+01 4.80668E+00 4.30687E-02-1.41631E+00-3.54855E-14-9.42546E-13
 -1      1307 1.73453E+01 4.63524E+00-1.23573E-02-1.66874E+00-4.86139E-14-9.70179E-13
 -1      1308 1.71948E+01 4.32060E+00-2.51867E-02-1.76784E+00-1.04111E-13-8.26200E-13
 -1      1309 1.89254E+01 4.85683E+00 4.49351E-02-7.15302E-01 1.85962E-14-8.95728E-13
 -1      1310 1.84597E+01 4.72021E+00 1.50099E-02-1.07755E+00 1.20043E-15-9.16218E-13
 -1      1311 1.84631E+01 4.13399E+00-2.12176E-02-1.21387E+00-3.33379E-14-7.74485E-13
 -1      1312 1.95958E+01 4.94565E+00 3.89898E-02 1.14503E-01 6.60028E-14-8.52284E-13
 -1      1313 1.92990E+01 4.85614E+00 3.10355E-02-2.97995E-01 5.32421E-14-8.75768E-13
 -1      1314 1.94547E+01 4.10126E+00-1.69113E-02-4.52603E-01 5.65381E-14-7.23078E-13
 -1      1315 1.99586E+01 5.03965E+00 2.98403E-02 9.54451E-01 1.21760E-13-7.72177E-13
 -1      1316 1.98084E+01 4.99080E+00 3.49995E-02 5.42320E-01 1.00038E-13-8.16298E-13
 -1      1317 2.00756E+01 4.16889E+00-1.48413E-02 3.80220E-01 1.36306E-13-6.66731E-13
 -1      1318 2.01280E+01 5.12014E+00 1.96413E-02 1.77950E+00 1.93519E-13-6.55150E-13
 -1      1319 2.00598E+01 5.09162E+00 2.95698E-02 1.37297E+00 1.65951E-13-7.23623E-13
 -1      1320 2.03885E+01 4.26622E+00-1.58919E-02 1.20832E+00 2.36504E-13-5.79176E-13
 -1      1321 2.02583E+01 5.17723E+00 7.87796E-03 2.57123E+00 2.57357E-13-4.36436E-13
 -1      1322 2.01836E+01 5.14046E+00 1.51495E-02 2.17166E+00 2.23630E-13-5.71120E-13
 -1      1323 2.05342E+01 4.32940E+00-2.03336E-02 2.00445E+00 3.39033E-13-4.43666E-13
 -1      1324 2.06096E+01 5.21075E+00-4.42758E-03 3.38307E+00 3.03979E-13-1.86656E-15
 -1      1325 2.03790E+01 5.11565E+00-1.09056E-02 2.94414E+00 2.62689E-13-2.66544E-13
 -1      1326 2.07222E+01 4.28862E+00-2.71939E-02 2.76970E+00 4.23035E-13-1.86143E-13
 -1      1327 2.17973E+01 5.07735E+00-4.48074E-03 4.38817E+00 2.73115E-13 8.51721E-13
 -1      1328 2.10383E+01 4.90518E+00-5.00491E-02 3.73396E+00 2.59862E-13 3.32630E-13
 -1      1329 2.13280E+01 3.97545E+00-2.82881E-02 3.51054E+00 4.59105E-13 3.10946E-13
 -1      1330 2.82489E+01 3.34943E+00 9.83915E-01 4.87466E+00 1.37945E-13 2.48140E-12
 -1      1331 2.27511E+01 3.66906E+00-1.94191E-01 4.17916E+00 1.38084E-13 1.34445E-12
 -1      1332 2.28211E+01 2.64317E+00-4.17735E-02 3.78393E+00 4.52170E-13 1.08347E-12
 -1      1333 2.20979E+01 3.77243E-01-7.99906E-01 1.31854E+00 2.48475E-13 2.39170E-12
 -1      1334 2.83849E+01 1.87400E-01-3.80117E-01-3.98821E-01-2.26180E-13 1.65223E-12
 -1      1335 2.80874E+01 3.22294E-01-1.50144E-01 2.48270E-02-2.11761E-13 1.38190E-12
 -1      1336 2.81045E+01 2.23505E-01-8.44093E-02 5.79511E-01-1.58467E-13 1.29432E-12
 -1      1337 2.88982E+01 1.35588E-01-1.77109E-02 6.80314E-01-1.49731E-13 1.06154E-12
 -1      1338 2.73079E+01 4.69429E-01-1.08031E-01 4.41111E-01-3.49290E-13 7.50382E-13
 -1      1339 2.93628E+01 9.94223E-02-5.07493E-03 9.51483E-01-7.82967E-14 1.02109E-12
 -1      1340 3.05328E+01 4.09328E-04 2.73717E-02 9.84788E-01-7.02910E-14 8.85597E-13
 -1      1341 2.76774E+01 1.78125E-01-5.33630E-02 1.49178E+00-2.12854E-13 6.56523E-13
 -1      1342 3.12397E+01-9.92729E-02 5.11674E-02 8.77199E-01 4.04884E-15 9.08496E-13
 -1      1343 3.21221E+01-2.50696E-01 8.17445E-02 7.84547E-01 3.25781E-15 8.68181E-13
 -1      1344 2.88781E+01-1.55457E-01 2.15044E-03 1.74038E+00-5.85261E-14 6.38073E-13
 -1      1345 3.27524E+01-4.21027E-01 1.41749E-01 7.03642E-02 5.18127E-14 9.48327E-13
 -1      1346 3.23530E+01-5.87165E-01 1.11582E-01-2.57520E-01 4.26326E-14 1.00557E-12
 -1      1347 3.02987E+01-7.31582E-01 6.04181E-02 8.49681E-01 7.89681E-14 7.29833E-13
 -1      1348 3.25111E+01-6.44981E-01 1.68806E-01-1.38275E+00 6.16850E-14 1.03512E-12
 -1      1349 3.04923E+01-6.23423E-01 2.58829E-02-1.72671E+00-2.25809E-14 1.06876E-12
 -1      1350 3.12388E+01-1.26458E+00 7.44858E-02-1.25852E+00 6.78867E-14 8.32522E-13
 -1      1351 3.00344E+01-3.97417E-01 5.74269E-03-2.67923E+00-1.30188E-13 9.74332E-13
 -1      1352 2.67387E+01-1.65996E-02-2.62621E-01-2.80668E+00-2.40502E-13 7.55840E-13
 -1      1353 3.11835E+01-1.01764E+00-1.71685E-02-3.73218E+00-1.59116E-13 7.43506E-13
 -1      1354 2.58388E+01 5.34533E-01-3.86034E-01-2.32369E+00-3.65125E-13 5.33684E-13
 -1      1355 2.35015E+01 9.54549E-01-5.94432E-01-1.84339E+00-4.44478E-13 6.79595E-14
 -1      1356 3.00597E+01 4.91683E-01-2.18543E-01-4.52966E+00-5.62411E-13 4.85400E-13
 -1      1357 2.31030E+01 1.13182E+00-6.72876E-01 2.69751E-01-5.00100E-13-2.90094E-13
 -1      1358 2.39313E+01 1.09584E+00-5.60762E-01 1.02959E+00-4.43146E-13-8.70470E-13
 -1      1359 2.88929E+01 2.10387E+00-3.94934E-01-1.41956E+00-8.81906E-13-1.30843E-13
 -1      1360 2.44784E+01 6.21152E-01-5.14649E-01 2.51317E+00-3.45057E-13-1.15169E-12
 -1      1361 2.72382E+01 2.49370E-01-2.69145E-01 2.69000E+00-2.67689E-13-1.47848E-12
 -1      1362 2.91560E+01 1.69681E+00-3.48655E-01 2.98593E+00-7.65221E-13-7.62657E-13
 -1      1363 2.81311E+01-3.02454E-01-1.67793E-01 2.66500E+00-7.86246E-14-1.65551E-12
 -1      1364 3.11865E+01-5.92907E-01 6.28272E-02 2.35652E+00 1.85581E-14-1.71835E-12
 -1      1365 3.04329E+01 4.05864E-03-1.32028E-01 4.64000E+00-3.49165E-13-1.15088E-12
 -1      1366 3.15206E+01-6.33256E-01 9.41466E-02 1.11603E+00 1.26031E-13-1.64913E-12
 -1      1367 3.29641E+01-6.38936E-01 1.57091E-01 6.80043E-01 1.23353E-13-1.47525E-12
 -1      1368 3.13015E+01-1.17917E+00 6.03016E-02 2.96797E+00 1.26010E-13-1.24655E-12
 -1      1369 3.24710E+01-4.33708E-01 1.06398E-01-4.22452E-01 1.45828E-13-1.38242E-12
 -1      1370 3.20450E+01-2.91515E-01 7.92557E-02-6.36995E-01 1.67321E-13-1.14061E-12
 -1      1371 3.07789E+01-1.07345E+00 9.31004E-02 9.90951E-02 2.38545E-13-1.07164E-12
 -1      1372 3.11714E+01-1.46930E-01 3.84014E-02-1.10754E+00 1.53337E-13-1.06193E-12
 -1      1373 2.98671E+01-3.24864E-02 5.92702E-03-1.14258E+00 7.47128E-14-9.24857E-13
 -1      1374 2.92561E+01-4.66959E-01 3.98007E-02-1.68073E+00 2.54359E-13-9.33788E-13
 -1      1375 2.89212E+01 1.78889E-02-4.09211E-03-1.17091E+00 4.87924E-14-7.94587E-13
 -1      1376 2.75069E+01 7.48860E-02-1.97875E-02-1.13132E+00 3.69871E-14-7.20618E-13
 -1      1377 2.74145E+01-4.21428E-02-6.02519E-03-2.19173E+00 1.22815E-13-8.17266E-13
 -1      1378 2.66996E+01 7.78212E-02-1.25842E-02-9.85535E-01 2.40207E-14-7.25725E-13
 -1      1379 2.55515E+01 9.54277E-02-1.95830E-02-9.34473E-01 3.49026E-14-6.76827E-13
 -1      1380 2.57023E+01 1.27707E-01-2.46734E-02-2.01239E+00 6.78286E-14-5.90909E-13
 -1      1381 2.48471E+01 8.01853E-02-1.01319E-02-7.45913E-01 1.64070E-14-6.38850E-13
 -1      1382 2.39313E+01 8.44484E-02-1.24463E-02-6.98510E-01-3.63086E-14-6.50275E-13
 -1      1383 2.42543E+01 1.59536E-01-2.36238E-02-1.60785E+00 3.34316E-14-5.43817E-13
 -1      1384 2.33954E+01 6.66034E-02-4.28428E-03-5.33577E-01-1.32715E-14-6.16819E-13
 -1      1385 2.27411E+01 6.40918E-02-6.04800E-03-4.98114E-01-3.23847E-14-6.38050E-13
 -1      1386 2.30791E+01 1.37111E-01-1.86871E-02-1.18747E+00-2.63522E-14-4.28512E-13
 -1      1387 2.23457E+01 4.97766E-02-5.75113E-04-3.71869E-01-8.42677E-14-5.45449E-13
 -1      1388 2.18918E+01 4.56826E-02-2.29868E-03-3.46935E-01-4.02222E-14-6.58968E-13
 -1      1389 2.21949E+01 1.02725E-01-1.33627E-02-8.43976E-01-7.05512E-14-3.95856E-13
 -1      1390 2.16067E+01 3.54372E-02 1.08863E-03-2.56038E-01-5.50233E-14-6.34801E-13
 -1      1391 2.12960E+01 3.16106E-02-4.75054E-04-2.38975E-01 2.55629E-14-6.63550E-13
 -1      1392 2.15479E+01 7.24001E-02-9.26336E-03-5.88278E-01-9.23333E-14-2.68317E-13
 -1      1393 2.10931E+01 2.46557E-02 1.55406E-03-1.75429E-01 1.59421E-15-7.54868E-13
 -1      1394 2.08817E+01 2.16185E-02 2.92535E-04-1.63882E-01-4.18658E-14-7.83532E-13
 -1      1395 2.10824E+01 4.95939E-02-6.39604E-03-4.06305E-01-4.32718E-14-4.38424E-13
 -1      1396 2.07383E+01 1.68515E-02 1.44508E-03-1.20027E-01 2.15557E-14-7.30852E-13
 -1      1397 2.05951E+01 1.48450E-02 6.38322E-04-1.12216E-01 8.00380E-15-7.07908E-13
 -1      1398 2.07510E+01 3.36519E-02-4.41098E-03-2.79537E-01-1.36072E-14-5.42520E-13
 -1      1399 2.04987E+01 1.20035E-02 1.30833E-03-8.32649E-02 9.66130E-14-6.31402E-13
 -1      1400 2.04048E+01 1.03443E-02 5.70845E-04-7.82505E-02 1.07991E-13-4.99417E-13
 -1      1401 2.05208E+01 2.23595E-02-3.35686E-03-1.93424E-01 1.24879E-13-3.56695E-13
 -1      1402 2.03326E+01 8.13786E-03 9.43046E-04-5.71580E-02-1.04925E-13-5.32529E-13
 -1      1403 2.02652E+01 6.99468E-03 4.80129E-04-5.34416E-02-1.05589E-13-6.08351E-13
 -1      1404 2.03577E+01 1.57406E-02-2.19542E-03-1.34263E-01 3.84144E-14-3.41785E-13
 -1      1405 2.02150E+01 5.68927E-03 7.37394E-04-3.88732E-02-3.32077E-14-6.62088E-13
 -1      1406 2.01694E+01 4.80313E-03 3.97460E-04-3.63458E-02 2.70743E-14-6.10898E-13
 -1      1407 2.02394E+01 1.06249E-02-1.57093E-03-9.19054E-02-1.81993E-13-6.04476E-13
 -1      1408 2.01345E+01 3.95391E-03 5.48384E-04-2.62603E-02 5.19179E-14-5.87122E-13
 -1      1409 2.01040E+01 3.31039E-03 3.16871E-04-2.45194E-02-4.61478E-14-6.53325E-13
 -1      1410 2.01566E+01 7.25274E-03-1.11597E-03-6.25553E-02 3.42600E-14-5.97782E-13
 -1      1411 2.00800E+01 2.75458E-03 4.02770E-04-1.75186E-02-8.04618E-14-6.38494E-13
 -1      1412 2.00598E+01 2.28324E-03 2.47674E-04-1.63171E-02-2.71083E-14-6.76027E-13
 -1      1413 2.00991E+01 4.96783E-03-7.93415E-04-4.21722E-02-8.22967E-14-6.13592E-13
 -1      1414 2.00434E+01 1.91894E-03 2.94001E-04-1.14555E-02 1.53344E-13-6.29965E-13
 -1      1415 2.00304E+01 1.57359E-03 1.93531E-04-1.06286E-02 1.79868E-13-4.85975E-13
 -1      1416 2.00596E+01 3.40606E-03-5.63064E-04-2.79933E-02 1.16952E-13-5.13223E-13
 -1      1417 2.00195E+01 1.31569E-03 2.08811E-04-7.25944E-03-1.44390E-14-4.07225E-13
 -1      1418 2.00113E+01 1.08649E-03 1.54381E-04-6.69506E-03-1.17721E-13-5.40265E-13
 -1      1419 2.00328E+01 2.33982E-03-3.94457E-04-1.81391E-02 7.63864E-14-4.07908E-13
 -1      1420 2.00045E+01 9.32796E-04 1.56545E-04-4.46537E-03 7.42494E-14-4.59640E-13
 -1      1421 1.99999E+01 7.52340E-04 1.17146E-04-4.10580E-03 1.13172E-13-3.69567E-13
 -1      1422 2.00154E+01 1.55142E-03-2.94051E-04-1.14327E-02-6.33066E-16-2.51447E-13
 -1      1423 1.99954E+01 6.28373E-04 1.11481E-04-2.50478E-03 3.94394E-15-3.26770E-13
 -1      1424 1.99927E+01 4.87587E-04 8.74402E-05-2.24204E-03 7.20386E-14-2.68919E-13
 -1      1425 2.00042E+01 1.08704E-03-1.94418E-04-6.84579E-03 1.18585E-13-8.90440E-14
 -1      1426 1.99900E+01 4.24518E-04 8.23961E-05-1.17275E-03 9.12586E-14-3.06451E-13
 -1      1427 1.99889E+01 3.12031E-04 6.63499E-05-1.00517E-03 3.85922E-15-1.68701E-13
 -1      1428 1.99970E+01 7.03074E-04-1.33852E-04-3.63181E-03 1.08757E-13-6.57305E-14
 -1      1429 1.99875E+01 2.74539E-04 5.90386E-05-3.13109E-04-1.58632E-14-2.48079E-13
 -1      1430 1.99873E+01 1.89954E-04 5.01619E-05-2.09917E-04-5.98289E-15-1.36073E-13
 -1      1431 1.99930E+01 4.43077E-04-8.86544E-05-1.50817E-03-2.67064E-14-1.81163E-13
 -1      1432 1.99868E+01 1.69278E-04 4.18517E-05 2.18127E-04-5.16362E-14-2.15730E-13
 -1      1433 1.99872E+01 1.06063E-04 3.76671E-05 2.76801E-04-4.07013E-14-2.01963E-13
 -1      1434 1.99910E+01 2.63136E-04-5.64017E-05-1.54450E-04-6.84944E-14-2.18580E-13
 -1      1435 1.99872E+01 9.64436E-05 2.92646E-05 5.22320E-04-1.87491E-13-2.12646E-13
 -1      1436 1.99879E+01 4.99389E-05 2.82517E-05 5.50770E-04-1.34216E-13-4.71008E-13
 -1      1437 1.99904E+01 1.40542E-04-3.36980E-05 6.62461E-04-3.19624E-13-2.12326E-13
 -1      1438 1.99883E+01 4.57342E-05 1.96161E-05 6.73032E-04 1.34026E-13-3.82873E-13
 -1      1439 1.99891E+01 1.39282E-05 2.05805E-05 6.81239E-04 9.04422E-14-1.98380E-13
 -1      1440 1.99906E+01 6.00460E-05-1.78342E-05 1.11064E-03 6.06228E-14-2.51413E-13
 -1      1441 1.99896E+01 1.35842E-05 1.25704E-05 7.22031E-04-4.56806E-14-1.41021E-13
 -1      1442 1.99905E+01-7.56944E-06 1.53225E-05 7.18237E-04 1.31442E-13-1.08398E-13
 -1      1443 1.99914E+01 5.45680E-06-7.36741E-06 1.30955E-03 6.58301E-15 4.37606E-14
 -1      1444 1.99910E+01-5.31384E-06 8.78163E-06 7.09493E-04 1.39838E-13-1.38291E-13
 -1      1445 1.99919E+01-2.25557E-05 1.09373E-05 6.98976E-04 1.07491E-14-1.59646E-14
 -1      1446 1.99923E+01-2.35174E-05-1.09517E-06 1.35313E-03 1.96011E-13-1.70796E-13
 -1      1447 1.99925E+01-1.69310E-05 5.45938E-06 6.59481E-04 2.81035E-14 5.51662E-14
 -1      1448 1.99933E+01-2.91690E-05 7.63003E-06 6.45081E-04 4.21332E-14 1.00883E-13
 -1      1449 1.99934E+01-4.23504E-05 3.01399E-06 1.29931E-03 8.11617E-14-2.06256E-13
 -1      1450 1.99938E+01-2.31085E-05 3.05558E-06 5.89588E-04-2.41703E-14 1.41751E-13
 -1      1451 1.99946E+01-3.13013E-05 5.19103E-06 5.73867E-04-1.55352E-14 1.15999E-13
 -1      1452 1.99945E+01-5.04383E-05 5.35126E-06 1.18851E-03 1.67792E-14-1.36957E-13
 -1      1453 1.99951E+01-2.53349E-05 1.40670E-06 5.12331E-04-1.53332E-13 9.13266E-14
 -1      1454 1.99957E+01-3.06186E-05 3.38764E-06 4.96803E-04-2.61350E-13-2.25250E-13
 -1      1455 1.99955E+01-5.20992E-05 6.41191E-06 1.05055E-03-1.51543E-13 2.56598E-14
 -1      1456 1.99961E+01-2.50666E-05 3.00858E-07 4.35505E-04-2.26116E-13-4.09755E-13
 -1      1457 1.99966E+01-2.83406E-05 2.06185E-06 4.21074E-04-1.53354E-13-4.16548E-13
 -1      1458 1.99964E+01-4.98089E-05 6.64147E-06 9.05060E-04-4.56042E-13-1.39375E-13
 -1      1459 1.99970E+01-2.32888E-05-3.99092E-07 3.63652E-04 1.99365E-13-5.90532E-13
 -1      1460 1.99975E+01-2.54537E-05 9.06325E-07 3.50670E-04 2.58245E-13-2.57193E-13
 -1      1461 1.99971E+01-4.54301E-05 6.33667E-06 7.63959E-04 6.14038E-14-1.08821E-13
 -1      1462 1.99978E+01-2.18089E-05-1.11059E-06 3.01047E-04 1.10449E-13 9.79818E-14
 -1      1463 1.99981E+01-2.24946E-05 3.85634E-07 2.90361E-04 8.50415E-15 2.27435E-13
 -1      1464 1.99978E+01-3.97530E-05 6.28893E-06 6.36139E-04 3.89904E-13-4.34220E-14
 -1      1465 1.99984E+01-1.89944E-05-1.03546E-06 2.43690E-04-1.22135E-13 1.79018E-13
 -1      1466 1.99987E+01-1.99570E-05 3.48700E-08 2.33617E-04-1.29709E-13 1.42933E-13
 -1      1467 1.99983E+01-3.57124E-05 5.24476E-06 5.21970E-04-5.35228E-14 2.86973E-13
 -1      1468 1.99989E+01-1.75342E-05-1.03971E-06 1.91314E-04 1.16653E-13 1.69661E-13
 -1      1469 1.99991E+01-1.83833E-05-3.44847E-08 1.82181E-04 2.54456E-13 4.80294E-13
 -1      1470 1.99988E+01-3.19367E-05 4.81845E-06 4.15999E-04 4.91390E-14 3.68193E-13
 -1      1471 1.99993E+01-1.71155E-05-5.88732E-07 1.42126E-04-1.51103E-14 4.14073E-13
 -1      1472 1.99994E+01-1.80840E-05 3.60620E-07 1.33103E-04-1.47981E-13 3.61235E-13
 -1      1473 1.99992E+01-3.03575E-05 4.61524E-06 3.18057E-04 1.55569E-13 2.71065E-13
 -1      1474 1.99995E+01-1.80136E-05 3.81666E-07 9.27466E-05 1.15497E-13 3.86623E-13
 -1      1475 1.99996E+01-1.84788E-05 8.90362E-07 8.26013E-05-6.45169E-14 4.22518E-13
 -1      1476 1.99995E+01-3.13076E-05 4.73489E-06 2.22699E-04 3.48760E-14 1.31155E-13
 -1      1477 1.99997E+01-2.22829E-05 2.71049E-07 4.12565E-05-1.48956E-13 4.40993E-13
 -1      1478 1.99998E+01-1.76781E-05-1.20821E-06 2.87426E-05 3.69549E-14 3.39114E-13
 -1      1479 1.99996E+01-3.41982E-05 4.28246E-06 1.25971E-04-1.00778E-13 2.21984E-13
 -1      1480 1.99998E+01-1.21957E-06-4.66295E-06-6.81151E-06-2.50363E-13 3.45911E-13
 -1      1481 2.06524E+01 6.83361E-02-1.57481E-01 6.14380E-01 2.13399E-13 1.91278E-12
 -1      1482 2.21177E+01 2.08036E-01-2.41533E-01 8.54657E-01 1.91250E-13 2.25356E-12
 -1      1483 2.23371E+01 9.16413E-01-8.33203E-02 2.32583E+00 3.73167E-13 1.49279E-12
 -1      1484 1.93237E+01 2.03173E-02-1.76029E-02 3.60907E-01 1.67151E-13 1.49917E-12
 -1      1485 1.99679E+01 9.45687E-02-6.60216E-02 3.97947E-01 1.50543E-13 1.75231E-12
 -1      1486 2.06102E+01 1.69634E-01-5.07567E-02 1.07600E+00 3.25545E-13 1.19370E-12
 -1      1487 1.84174E+01 4.34619E-03 1.02963E-02 2.82286E-01 1.04046E-13 1.19080E-12
 -1      1488 1.88506E+01 2.93391E-02 1.93452E-03 2.90492E-01 1.14017E-13 1.38094E-12
 -1      1489 1.94732E+01 4.56925E-02-4.41380E-03 6.77005E-01 2.47840E-13 9.70203E-13
 -1      1490 1.76734E+01 3.52642E-03 8.36030E-03 2.57546E-01 1.02116E-13 9.72211E-13
 -1      1491 1.80460E+01 9.61099E-03 1.20887E-02 2.57780E-01 7.41197E-14 1.09320E-12
 -1      1492 1.86510E+01 1.10437E-02 4.26546E-03 5.48081E-01 1.74907E-13 7.55979E-13
 -1      1493 1.70277E+01 1.00541E-02 9.82249E-04 2.27722E-01 6.80558E-14 7.40006E-13
 -1      1494 1.73638E+01 1.11968E-02 7.77285E-03 2.31220E-01 8.69890E-14 8.86555E-13
 -1      1495 1.79851E+01 1.22195E-02 1.93129E-03 4.82479E-01 1.80627E-13 6.02303E-13
 -1      1496 1.65203E+01 1.88449E-02-5.88699E-03 1.66169E-01 5.64904E-14 6.31742E-13
 -1      1497 1.67885E+01 2.25907E-02 2.45080E-03 1.79007E-01 3.95586E-14 6.87500E-13
 -1      1498 1.74449E+01 2.94044E-02-2.66274E-03 3.91747E-01 9.56544E-14 4.93044E-13
 -1      1499 1.62302E+01 2.54966E-02-1.04072E-02 6.81965E-02 3.40309E-14 5.56003E-13
 -1      1500 1.63804E+01 3.57979E-02-1.18973E-03 9.16561E-02 2.93116E-14 5.88165E-13
 -1      1501 1.70668E+01 5.00758E-02-7.06477E-03 2.40932E-01 7.06865E-14 3.77199E-13
 -1      1502 1.62236E+01 2.67720E-02-1.14352E-02-5.18963E-02-3.35409E-15 4.86077E-13
 -1      1503 1.62157E+01 4.40071E-02-2.82711E-03-2.12971E-02 3.77502E-14 5.18199E-13
 -1      1504 1.69057E+01 6.36204E-02-1.00006E-02 3.54283E-02 5.54331E-14 3.25577E-13
 -1      1505 1.65161E+01 2.18216E-02-8.76921E-03-1.68182E-01 6.09920E-14 4.13211E-13
 -1      1506 1.63405E+01 4.31776E-02-2.48087E-03-1.37022E-01 2.26087E-14 4.43191E-13
 -1      1507 1.69946E+01 6.30404E-02-1.06958E-02-1.89183E-01 5.01058E-14 2.20328E-13
 -1      1508 1.70589E+01 1.24068E-02-3.56561E-03-2.54549E-01 6.01823E-14 3.15394E-13
 -1      1509 1.67437E+01 3.33112E-02-6.15946E-04-2.29610E-01 5.21640E-14 3.91416E-13
 -1      1510 1.73208E+01 4.74596E-02-9.20766E-03-3.84546E-01 8.44758E-14 1.06774E-13
 -1      1511 1.77539E+01 1.80533E-03 2.18628E-03-2.95321E-01 9.24315E-15 2.29622E-13
 -1      1512 1.73553E+01 1.79887E-02 1.84293E-03-2.80878E-01 3.90497E-14 2.67435E-13
 -1      1513 1.78240E+01 2.22254E-02-6.35527E-03-5.10553E-01 8.08928E-14 1.20126E-13
 -1      1514 1.84854E+01-6.91849E-03 6.63935E-03-2.89723E-01 2.26326E-14 1.75401E-13
 -1      1515 1.80692E+01 2.20209E-03 3.90098E-03-2.86404E-01 3.13990E-14 2.02872E-13
 -1      1516 1.84150E+01-4.23909E-03-3.22279E-03-5.50241E-01 2.73468E-14 7.28263E-14
 -1      1517 1.91535E+01-1.21110E-02 8.85014E-03-2.49050E-01 1.86838E-14 8.74058E-14
 -1      1518 1.87761E+01-1.00394E-02 4.92137E-03-2.54509E-01 2.61048E-14 1.15942E-13
 -1      1519 1.90026E+01-2.46701E-02-6.48527E-04-5.12095E-01 7.02012E-14 2.25210E-14
 -1      1520 1.96942E+01-1.36927E-02 8.89678E-03-1.89838E-01 3.49547E-16-5.84047E-14
 -1      1521 1.93911E+01-1.69557E-02 4.81206E-03-2.00379E-01 4.32467E-14 1.23946E-14
 -1      1522 1.95159E+01-3.56212E-02 1.00078E-03-4.21455E-01 8.73971E-14-7.67810E-14
 -1      1523 2.00829E+01-1.25976E-02 7.48182E-03-1.27413E-01-4.22696E-14-8.32147E-15
 -1      1524 1.98670E+01-1.88465E-02 3.89818E-03-1.39513E-01-5.12515E-14-5.01404E-14
 -1      1525 1.99152E+01-3.75282E-02 1.76018E-03-3.08160E-01-3.41693E-14-7.50988E-14
 -1      1526 2.03259E+01-1.00587E-02 5.44082E-03-7.23059E-02 7.15109E-14-8.53748E-14
 -1      1527 2.01926E+01-1.71819E-02 2.64698E-03-8.34709E-02 2.69830E-14-2.87739E-14
 -1      1528 2.01903E+01-3.31170E-02 1.87248E-03-1.96946E-01 3.77558E-14-1.45157E-13
 -1      1529 2.04483E+01-7.11524E-03 3.42170E-03-2.96365E-02 3.59671E-14-1.48568E-13
 -1      1530 2.03826E+01-1.36669E-02 1.44846E-03-3.85627E-02 2.30456E-14-8.88857E-14
 -1      1531 2.03524E+01-2.56056E-02 1.61882E-03-1.03202E-01 3.79263E-14-2.23674E-13
 -1      1532 2.04822E+01-4.42794E-03 1.77757E-03-2.89916E-04-5.82588E-14-1.45847E-13
 -1      1533 2.04655E+01-9.66919E-03 5.21526E-04-6.62368E-03 1.23304E-14-1.58352E-13
 -1      1534 2.04243E+01-1.75595E-02 1.22122E-03-3.32415E-02 3.04539E-14-1.25911E-13
 -1      1535 2.04582E+01-2.30309E-03 6.17457E-04 1.73702E-02 6.66719E-14-1.28786E-13
 -1      1536 2.04730E+01-6.03734E-03-7.60120E-05 1.34008E-02-2.65413E-16-1.10470E-13
 -1      1537 2.04317E+01-1.05171E-02 8.18046E-04 1.31370E-02-4.75553E-15-1.80151E-13
 -1      1538 2.04019E+01-8.02105E-04-9.73794E-05 2.60363E-02-7.35847E-14-1.22470E-13
 -1      1539 2.04338E+01-3.16053E-03-3.85388E-04 2.39395E-02-6.39950E-15-1.05689E-13
 -1      1540 2.03984E+01-5.11996E-03 4.77670E-04 3.97063E-02-1.90169E-16-4.67317E-14
 -1      1541 2.03319E+01 1.47577E-04-4.68557E-04 2.84929E-02 2.07517E-14-1.46300E-13
 -1      1542 2.03706E+01-1.11512E-03-4.87743E-04 2.77261E-02 1.66364E-14-1.20809E-13
 -1      1543 2.03436E+01-1.41786E-03 2.21746E-04 5.14998E-02-3.69156E-14-8.21015E-14
 -1      1544 2.02606E+01 6.70686E-04-6.06515E-04 2.71181E-02 4.69710E-14-2.57932E-13
 -1      1545 2.02995E+01 1.93496E-04-4.64862E-04 2.72019E-02 3.77866E-14-1.92154E-13
 -1      1546 2.02809E+01 8.44447E-04 4.65740E-05 5.33795E-02 6.12291E-14-2.14762E-13
 -1      1547 2.01954E+01 8.95476E-04-6.04361E-04 2.37116E-02-1.21355E-13-2.13201E-13
 -1      1548 2.02305E+01 9.27494E-04-3.81005E-04 2.42734E-02-5.24915E-14-3.20786E-13
 -1      1549 2.02194E+01 2.02508E-03-6.22756E-05 4.93484E-02-7.74690E-15-2.40362E-13
 -1      1550 2.01397E+01 9.30586E-04-5.30033E-04 1.95089E-02-8.53012E-14 3.56306E-14
 -1      1551 2.01694E+01 1.25485E-03-2.78915E-04 2.02861E-02-1.29415E-13-1.75099E-13
 -1      1552 2.01641E+01 2.46990E-03-1.21634E-04 4.23595E-02-1.59915E-13-3.87736E-13
 -1      1553 2.00947E+01 8.57930E-04-4.27905E-04 1.52808E-02 5.12023E-14 4.54658E-14
 -1      1554 2.01184E+01 1.31934E-03-1.82875E-04 1.61040E-02 4.20414E-14 1.00598E-13
 -1      1555 2.01174E+01 2.46161E-03-1.46745E-04 3.43963E-02-4.16950E-14-2.60519E-13
 -1      1556 2.00600E+01 7.34037E-04-3.23977E-04 1.14535E-02-9.50946E-15-5.61748E-14
 -1      1557 2.00781E+01 1.23083E-03-1.03976E-04 1.22244E-02 2.55993E-14 2.69533E-14
 -1      1558 2.00799E+01 2.20761E-03-1.49819E-04 2.66653E-02 5.25178E-14-1.02533E-14
 -1      1559 2.00342E+01 5.94874E-04-2.31516E-04 8.21901E-03-8.94749E-14-1.17738E-14
 -1      1560 2.00474E+01 1.06642E-03-4.51198E-05 8.88856E-03-3.80523E-14-1.19825E-14
 -1      1561 2.00509E+01 1.84736E-03-1.39906E-04 1.98093E-02-4.61552E-14 1.45939E-13
 -1      1562 2.00159E+01 4.61296E-04-1.55761E-04 5.62230E-03-1.06532E-13 4.27832E-14
 -1      1563 2.00252E+01 8.76153E-04-4.83062E-06 6.17356E-03-9.90884E-14-2.90437E-14
 -1      1564 2.00295E+01 1.46700E-03-1.23324E-04 1.40933E-02-1.51990E-13 1.90570E-13
 -1      1565 2.00036E+01 3.43848E-04-9.73406E-05 3.62482E-03 1.78415E-13-4.54634E-14
 -1      1566 2.00097E+01 6.89881E-04 2.02378E-05 4.05985E-03 7.94022E-14 6.77583E-14
 -1      1567 2.00142E+01 1.11445E-03-1.04246E-04 9.54992E-03 7.45921E-14-4.50315E-14
 -1      1568 1.99957E+01 2.46512E-04-5.45369E-05 2.14725E-03 1.61073E-13-3.40562E-13
 -1      1569 1.99995E+01 5.23360E-04 3.38415E-05 2.47816E-03 1.77954E-13-1.93027E-13
 -1      1570 2.00038E+01 8.12188E-04-8.52500E-05 6.08289E-03 2.35277E-13-1.64665E-13
 -1      1571 1.99912E+01 1.69402E-04-2.46845E-05 1.09651E-03-4.25601E-14-3.78203E-13
 -1      1572 1.99932E+01 3.83174E-04 3.94076E-05 1.33962E-03 2.52205E-14-3.24131E-13
 -1      1573 1.99972E+01 5.66920E-04-6.77923E-05 3.53652E-03 1.37705E-13-1.66918E-13
 -1      1574 1.99890E+01 1.10593E-04-4.96290E-06 3.81339E-04-7.48797E-14-7.80766E-14
 -1      1575 1.99898E+01 2.70346E-04 3.97364E-05 5.53658E-04-8.27396E-14-2.33441E-13
 -1      1576 1.99933E+01 3.76420E-04-5.25738E-05 1.73853E-03-1.40908E-13 4.26934E-15
 -1      1577 1.99883E+01 6.72914E-05 7.19755E-06-7.96346E-05-3.07933E-14 1.15041E-13
 -1      1578 1.99884E+01 1.82844E-04 3.69489E-05 3.76769E-05-1.12132E-13-7.15504E-14
 -1      1579 1.99914E+01 2.34030E-04-3.98132E-05 5.24496E-04-1.74735E-13-1.28358E-13
 -1      1580 1.99887E+01 3.65246E-05 1.39476E-05-3.54691E-04 1.69442E-14 2.29784E-13
 -1      1581 1.99883E+01 1.17211E-04 3.25536E-05-2.78742E-04-1.36182E-14 2.10794E-13
 -1      1582 1.99907E+01 1.31481E-04-2.94426E-05-2.49958E-04-8.23834E-14 1.03420E-13
 -1      1583 1.99896E+01 1.55180E-05 1.69882E-05-4.98623E-04 2.48096E-13-1.49163E-13
 -1      1584 1.99890E+01 6.95675E-05 2.75606E-05-4.52795E-04 2.17868E-13 1.59798E-13
 -1      1585 1.99909E+01 6.05017E-05-2.12390E-05-7.04797E-04 2.50771E-13 1.60810E-13
 -1      1586 1.99909E+01 1.86363E-06 1.76089E-05-5.53825E-04-8.29767E-14-3.12580E-13
 -1      1587 1.99901E+01 3.61733E-05 2.26025E-05-5.29199E-04 2.78628E-14-2.81744E-13
 -1      1588 1.99916E+01 1.36357E-05-1.49088E-05-9.35601E-04 1.76861E-13-1.47949E-13
 -1      1589 1.99922E+01-6.42604E-06 1.67516E-05-5.52044E-04-1.86270E-13 3.54975E-13
 -1      1590 1.99914E+01 1.37035E-05 1.80411E-05-5.41766E-04-1.67126E-13 1.96699E-14
 -1      1591 1.99926E+01-1.54222E-05-1.01412E-05-1.01589E-03-3.47166E-13 2.41703E-14
 -1      1592 1.99935E+01-1.09302E-05 1.50797E-05-5.16301E-04 1.14562E-13 2.84265E-13
 -1      1593 1.99928E+01-6.40672E-07 1.40532E-05-5.15257E-04 2.61938E-14 3.22079E-13
 -1      1594 1.99936E+01-3.17681E-05-6.63955E-06-1.00044E-03-1.07367E-14 1.57416E-13
 -1      1595 1.99947E+01-1.28671E-05 1.30424E-05-4.62720E-04 1.85727E-14 4.32127E-14
 -1      1596 1.99941E+01-9.12590E-06 1.06944E-05-4.67210E-04 1.10975E-13 2.05976E-13
 -1      1597 1.99947E+01-3.93751E-05-4.13773E-06-9.28755E-04 2.11363E-13 2.92358E-13
 -1      1598 1.99958E+01-1.31561E-05 1.09316E-05-4.02130E-04-1.26345E-14 2.13410E-14
 -1      1599 1.99952E+01-1.35367E-05 7.94645E-06-4.09565E-04 3.25280E-14 1.30501E-14
 -1      1600 1.99957E+01-4.12527E-05-2.40520E-06-8.28319E-04 3.69336E-14 5.20756E-13
 -1      1601 1.99968E+01-1.24817E-05 8.92957E-06-3.41365E-04 3.80611E-13-2.74555E-13
 -1      1602 1.99963E+01-1.52523E-05 5.75068E-06-3.50019E-04 1.42527E-13-3.98063E-14
 -1      1603 1.99966E+01-3.96302E-05-1.24565E-06-7.17409E-04 1.97041E-13 2.14016E-13
 -1      1604 1.99976E+01-1.13555E-05 7.15035E-06-2.84287E-04 2.05233E-14-9.11780E-13
 -1      1605 1.99971E+01-1.53337E-05 4.03172E-06-2.93103E-04 1.30211E-13-5.07809E-13
 -1      1606 1.99973E+01-3.61379E-05-4.90353E-07-6.07347E-04 3.69286E-13-8.01078E-14
 -1      1607 1.99982E+01-1.01744E-05 5.68262E-06-2.32515E-04 8.74831E-14-9.29022E-13
 -1      1608 1.99979E+01-1.46146E-05 2.71886E-06-2.40969E-04 1.27420E-13-7.63692E-13
 -1      1609 1.99980E+01-3.19751E-05 1.64736E-08-5.04236E-04 1.37176E-13-2.22569E-13
 -1      1610 1.99988E+01-9.26926E-06 4.63988E-06-1.85901E-04-1.76228E-13-7.61313E-13
 -1      1611 1.99985E+01-1.37905E-05 1.77198E-06-1.93933E-04-2.15870E-13-1.10746E-12
 -1      1612 1.99985E+01-2.80680E-05 4.38836E-07-4.10192E-04-1.05974E-13-5.34382E-13
 -1      1613 1.99992E+01-8.90281E-06 4.20004E-06-1.42843E-04 1.57033E-13-8.83732E-13
 -1      1614 1.99990E+01-1.34668E-05 1.22234E-06-1.50823E-04 1.68564E-13-7.91331E-13
 -1      1615 1.99990E+01-2.51875E-05 9.76265E-07-3.24168E-04 7.20634E-14-7.89950E-13
 -1      1616 1.99995E+01-9.29683E-06 4.41810E-06-1.00615E-04-8.02973E-14-9.43099E-13
 -1      1617 1.99993E+01-1.41695E-05 1.16017E-06-1.09340E-04-2.20543E-14-9.01125E-13
 -1      1618 1.99993E+01-2.39971E-05 1.83785E-06-2.42652E-04 9.79340E-14-3.64270E-13
 -1      1619 1.99997E+01-1.04821E-05 4.16948E-06-5.56523E-05-6.16966E-14-6.07779E-13
 -1      1620 1.99996E+01-1.62255E-05 1.36063E-06-6.66512E-05-1.35198E-13-8.04542E-13
 -1      1621 1.99995E+01-2.53144E-05 2.80037E-06-1.60735E-04-1.51088E-13-2.92283E-13
 -1      1622 1.99998E+01-1.05218E-05-1.68061E-06-1.09938E-05 8.58125E-14-7.58946E-13
 -1      1623 1.99998E+01-1.65987E-05 4.11246E-07-2.26107E-05 7.32621E-14-6.19501E-13
 -1      1624 1.99997E+01-2.61079E-05 2.81311E-06-7.50096E-05 5.00499E-14-3.93487E-14
 -1      1625 1.99998E+01-1.56600E-06-4.42260E-06 5.06132E-06-4.59304E-13-4.88094E-13
 -1      1626 1.99998E+01-7.89662E-05 2.45559E-06-4.37384E-05 1.38479E-14 2.75900E-13
 -1      1627 1.99998E+01-3.96466E-05-1.43234E-06-3.21267E-05-4.84720E-13 4.69558E-13
 -1      1628 1.99998E+01-2.47385E-04 1.84987E-06-8.84880E-05 3.03733E-13 2.21122E-13
 -1      1629 1.99998E+01-1.51309E-04 1.68070E-06-8.03692E-05 8.19949E-15 2.70049E-13
 -1      1630 1.99998E+01-1.56142E-04 3.20433E-06-1.23127E-04 1.05766E-13 4.44963E-13
 -1      1631 1.99998E+01-4.78210E-04 7.64295E-07-1.15942E-04 2.30905E-13 8.30372E-14
 -1      1632 1.99998E+01-3.45577E-04 1.27826E-06-1.12066E-04 2.08242E-13 3.52701E-14
 -1      1633 1.99998E+01-3.26304E-04 2.93366E-06-1.95339E-04-5.48963E-14 1.73198E-13
 -1      1634 1.99998E+01-7.33393E-04 2.84867E-08-1.22287E-04-1.68073E-13-4.31992E-13
 -1      1635 1.99998E+01-5.89527E-04 5.36870E-07-1.22752E-04 2.95304E-13-1.55527E-13
 -1      1636 1.99998E+01-5.35792E-04 7.56732E-07-2.31348E-04-1.12258E-13-3.38257E-14
 -1      1637 1.99998E+01-9.68780E-04-2.67640E-07-1.09375E-04-6.17489E-13-1.89351E-13
 -1      1638 1.99998E+01-8.39576E-04 1.07126E-07-1.13334E-04-2.44289E-13-4.26651E-13
 -1      1639 1.99998E+01-7.52857E-04-1.43696E-06-2.28007E-04-3.66103E-13-5.78218E-13
 -1      1640 1.99998E+01-1.15785E-03-3.61940E-07-8.04287E-05-4.93475E-13 1.26321E-13
 -1      1641 1.99998E+01-1.05867E-03-1.31183E-07-8.72172E-05-5.02515E-13-4.89941E-14
 -1      1642 1.99998E+01-9.48019E-04-3.19459E-06-1.90196E-04-4.18838E-13-1.74209E-13
 -1      1643 1.99998E+01-1.26977E-03-3.45700E-07-4.04519E-05-2.51436E-13 1.26388E-13
 -1      1644 1.99998E+01-1.21683E-03-2.30127E-07-4.89393E-05-4.73441E-13 3.06448E-13
 -1      1645 1.99998E+01-1.09584E-03-4.44878E-06-1.25165E-04-2.03926E-13 1.81629E-13
 -1      1646 1.99998E+01-1.28967E-03-2.94120E-07 4.90148E-06 9.64746E-14 1.55432E-13
 -1      1647 1.99998E+01-1.29013E-03-2.98012E-07-4.16300E-06-2.07051E-13 3.94523E-13
 -1      1648 1.99998E+01-1.17464E-03-5.09050E-06-4.31749E-05-1.39218E-14 2.95077E-13
 -1      1649 1.99998E+01-1.21489E-03-2.19327E-07 4.96533E-05 3.78600E-13-4.85691E-14
 -1      1650 1.99998E+01-1.26874E-03-3.50398E-07 4.11757E-05 2.71641E-13 4.30832E-14
 -1      1651 1.99998E+01-1.17410E-03-5.08881E-06 4.45705E-05 8.95168E-14 3.02110E-13
 -1      1652 1.99998E+01-1.05540E-03-9.97617E-08 8.78328E-05-2.34557E-13-3.81390E-13
 -1      1653 1.99998E+01-1.15538E-03-3.85719E-07 8.10932E-05 3.03875E-13-4.39531E-13
 -1      1654 1.99998E+01-1.09424E-03-4.43408E-06 1.26486E-04 4.52082E-14-3.86160E-13
 -1      1655 1.99998E+01-8.37266E-04 8.01005E-08 1.13549E-04-6.32098E-13-4.63417E-15
 -1      1656 1.99998E+01-9.66921E-04-2.87373E-07 1.09640E-04-3.55788E-13-1.51845E-13
 -1      1657 1.99998E+01-9.46996E-04-3.21843E-06 1.90927E-04-2.12524E-13-5.62326E-13
 -1      1658 1.99998E+01-5.84768E-04 5.08829E-07 1.22901E-04-4.63270E-13-1.43289E-13
 -1      1659 1.99998E+01-7.28896E-04 1.72554E-08 1.22517E-04-5.91732E-13 2.22346E-13
 -1      1660 1.99998E+01-7.51300E-04-1.41970E-06 2.28464E-04-1.08153E-13 1.60991E-13
 -1      1661 1.99998E+01-3.41185E-04 1.28588E-06 1.11814E-04-4.27128E-13 2.09826E-13
 -1      1662 1.99998E+01-4.73407E-04 7.17554E-07 1.15803E-04-5.86153E-13 1.99056E-13
 -1      1663 1.99998E+01-5.32164E-04 7.46697E-07 2.31355E-04-1.60077E-13-7.98667E-14
 -1      1664 1.99998E+01-1.47747E-04 1.84321E-06 7.85134E-05-2.83644E-13 1.49705E-13
 -1      1665 1.99998E+01-2.42999E-04 1.85300E-06 8.81483E-05-5.04816E-13 2.99161E-13
 -1      1666 1.99998E+01-3.22104E-04 3.16875E-06 1.95266E-04-3.94671E-13 2.04162E-13
 -1      1667-4.86143E-01-1.49817E+01-1.67787E+00-4.21920E-01 1.22613E-12 6.58973E-13
 -1      1668-5.92881E-01-1.79976E+01-1.95652E+00 9.15318E-01 4.22662E-13 4.28990E-13
 -1      1669 1.69791E+00-7.30770E+00-1.13575E+00 1.13113E+00 2.31970E-12 1.49120E-12
 -1      1670 8.04356E-01-1.31163E+01-1.72578E+00 3.32900E-01 1.50313E-12 9.20399E-13
 -1      1671 7.78386E+00 1.07261E+00-4.41522E-01 5.68257E+00 2.75668E-12 2.09632E-12
 -1      1672 4.28470E+00-4.82944E+00-1.25908E+00 2.40697E+00 2.58282E-12 1.56353E-12
 -1      1673 1.97083E+01 5.90343E+00 3.51564E-01 1.09994E+01 2.27907E-12 2.17981E-12
 -1      1674 1.28115E+01 2.66640E+00-5.03119E-01 7.24240E+00 2.56917E-12 2.08300E-12
 -1      1675 3.32580E+01 7.56363E+00 1.03311E+00 1.38889E+01 1.56386E-12 1.89604E-12
 -1      1676 2.44136E+01 7.49771E+00 2.58093E-01 1.20203E+01 2.16116E-12 2.15472E-12
 -1      1677 4.71658E+01 5.71818E+00 1.51325E+00 1.13197E+01 8.50986E-13 9.45688E-13
 -1      1678 3.83841E+01 7.38973E+00 9.13419E-01 1.28378E+01 1.34093E-12 1.54432E-12
 -1      1679 5.63908E+01 3.94778E+00 1.83411E+00 5.23116E+00 4.92967E-13-1.20903E-13
 -1      1680 5.13453E+01 5.47438E+00 1.52097E+00 9.92803E+00 6.85257E-13 6.76570E-13
 -1      1681 5.63460E+01 4.04747E+00 1.65035E+00-3.65106E+00 7.19425E-13-1.52159E-12
 -1      1682 5.71658E+01 3.90843E+00 1.77173E+00 2.37508E+00 5.71848E-13-5.92262E-13
 -1      1683 4.71212E+01 6.12262E+00 1.17512E+00-1.04137E+01 1.29788E-12-2.51577E-12
 -1      1684 5.37854E+01 4.35934E+00 1.59760E+00-6.11312E+00 8.65169E-13-1.83742E-12
 -1      1685 3.40532E+01 7.72993E+00 6.33858E-01-1.30721E+01 2.01528E-12-3.05245E-12
 -1      1686 4.31672E+01 6.25283E+00 1.27055E+00-1.25302E+01 1.54041E-12-2.81442E-12
 -1      1687 2.02945E+01 6.57665E+00-4.51063E-02-1.06234E+01 2.65032E-12-2.85083E-12
 -1      1688 2.88254E+01 7.48899E+00 7.56029E-01-1.32451E+01 2.26308E-12-3.05311E-12
 -1      1689 9.98483E+00 1.32966E+00-6.76918E-01-6.01031E+00 2.65676E-12-2.12930E-12
 -1      1690 1.55971E+01 5.20112E+00 9.93213E-02-9.61525E+00 2.64722E-12-2.65388E-12
 -1      1691 3.84742E+00-6.08115E+00-1.17755E+00-2.47577E+00 2.01195E-12-1.35147E-12
 -1      1692 6.39037E+00-6.23047E-01-5.34675E-01-4.87565E+00 2.47469E-12-1.91425E-12
 -1      1693 4.62602E-01-1.31937E+01-1.64776E+00-7.49673E-01 9.66116E-13-7.84581E-13
 -1      1694 1.04420E+00-8.18364E+00-1.16423E+00-9.30699E-01 1.84686E-12-1.19371E-12
 -1      1695-7.28897E-01-1.66095E+01-1.81942E+00-1.49869E+00-4.40148E-13-5.91666E-13
 -1      1696-5.58659E-01-1.45790E+01-1.60093E+00-4.84572E-02 5.76872E-13-6.64580E-13
 -1      1697-9.01821E-01-1.47564E+01-1.76252E+00-2.12441E+00-1.72923E-12-9.86378E-13
 -1      1698-7.04238E-01-1.64850E+01-1.81730E+00-8.70629E-01-8.09075E-13-6.86395E-13
 -1      1699 9.92378E-01-9.26664E+00-1.56556E+00-7.21660E-01-2.70106E-12-1.73450E-12
 -1      1700 3.23392E-01-1.40032E+01-1.92858E+00-1.29843E+00-2.06379E-12-1.14878E-12
 -1      1701 6.78703E+00-2.17012E+00-1.08017E+00 3.40645E+00-3.08953E-12-2.59370E-12
 -1      1702 3.49078E+00-7.60913E+00-1.79888E+00 4.03278E-01-2.90568E-12-2.01894E-12
 -1      1703 2.13017E+01 2.34896E+00-4.65041E-02 8.84476E+00-2.52287E-12-2.90079E-12
 -1      1704 1.32915E+01-1.37323E+00-1.07007E+00 4.82788E+00-2.79021E-12-2.54974E-12
 -1      1705 3.74051E+01 5.29713E+00 1.09659E+00 1.23800E+01-2.03881E-12-3.28959E-12
 -1      1706 2.65192E+01 4.56445E+00-9.68362E-02 1.00110E+01-2.54885E-12-3.28093E-12
 -1      1707 5.42163E+01 4.34808E+00 2.21582E+00 9.21162E+00-1.32030E-12-2.37010E-12
 -1      1708 4.32685E+01 5.54467E+00 1.09454E+00 1.07765E+01-1.81538E-12-2.95675E-12
 -1      1709 6.45172E+01 3.74453E+00 2.96735E+00 3.47872E+00-6.96609E-13-1.18738E-12
 -1      1710 5.86580E+01 4.83424E+00 2.36950E+00 8.52657E+00-1.06430E-12-2.13740E-12
 -1      1711 6.31120E+01 4.26457E+00 2.75384E+00-4.92741E+00-7.34357E-13 4.32709E-13
 -1      1712 6.50502E+01 3.83336E+00 2.93527E+00 1.19659E+00-6.85008E-13-6.83856E-13
 -1      1713 5.20526E+01 5.51245E+00 1.85667E+00-1.08068E+01-1.31962E-12 1.91402E-12
 -1      1714 6.09293E+01 4.00355E+00 2.72030E+00-7.22279E+00-8.54372E-13 8.44103E-13
 -1      1715 3.56104E+01 5.69102E+00 6.04312E-01-1.15845E+01-1.91713E-12 2.76268E-12
 -1      1716 4.67808E+01 5.14502E+00 1.75408E+00-1.20552E+01-1.43419E-12 2.34412E-12
 -1      1717 1.99193E+01 3.11572E+00-5.25668E-01-8.25689E+00-2.38920E-12 2.71028E-12
 -1      1718 2.93601E+01 5.02660E+00 5.77619E-01-1.15597E+01-2.05103E-12 2.89591E-12
 -1      1719 8.70172E+00-2.95643E+00-1.32377E+00-3.29450E+00-2.23555E-12 2.12741E-12
 -1      1720 1.46029E+01 1.57457E+00-4.28718E-01-7.16099E+00-2.37943E-12 2.68097E-12
 -1      1721 2.21203E+00-1.04754E+01-1.80107E+00 3.89970E-01-1.84175E-12 1.23623E-12
 -1      1722 4.48609E+00-4.74175E+00-1.18365E+00-1.90779E+00-2.21889E-12 1.87517E-12
 -1      1723-2.99354E-01-1.64248E+01-2.00877E+00 1.53999E+00-1.09435E-12 7.29167E-13
 -1      1724-1.67588E-01-1.23144E+01-1.70598E+00 1.72743E+00-1.68821E-12 1.01558E-12
 -1      1725-8.34947E-01-1.80931E+01-1.91551E+00 5.08898E-01 1.01655E-13 4.31211E-13
 -1      1726-1.03823E+00-1.71145E+01-1.89056E+00 2.09348E+00-7.47402E-13 6.37879E-13
 -1      1727 1.99998E+01-2.25429E-05 4.76350E-07 2.61790E-05-1.74282E-13 6.62538E-14
 -1      1728 6.48499E+00-6.52397E+00-8.00570E-01 5.37284E+00 1.23379E-12 1.40973E-12
 -1      1729 1.99998E+01-1.01138E-05-5.38112E-08-9.08162E-06-4.96901E-13-5.07056E-14
 -1      1730 1.99998E+01-5.98844E-05 1.50255E-07-5.46003E-05 5.77130E-15 3.43913E-13
 -1      1731-1.58482E+00-1.23429E+01-1.37980E+00 1.23863E+00 1.29577E-13 8.63365E-13
 -1      1732 8.13167E-01-1.06119E+01-1.21400E+00 3.18937E+00 6.98330E-13 1.13345E-12
 -1      1733 1.99998E+01-3.57744E-05-6.37921E-07 3.03945E-05-2.39542E-13-1.68637E-13
 -1      1734 1.99998E+01-7.49490E-05 2.70905E-06 4.42392E-05 7.13874E-14-2.18615E-13
 -1      1735 1.99998E+01-1.54993E-04 3.69613E-06 1.22971E-04-1.88977E-13 1.20363E-13
 -1      1736 1.57813E+01-1.99846E+00-1.92796E-01 7.53037E+00 1.47082E-12 1.27376E-12
 -1      1737 2.61550E+01 1.98095E+00 3.31950E-01 8.42703E+00 1.45473E-12 1.01830E-12
 -1      1738 3.63001E+01 5.19401E+00 8.89005E-01 7.85897E+00 1.21969E-12 6.60916E-13
 -1      1739 4.45089E+01 6.92501E+00 1.26353E+00 5.38084E+00 1.01222E-12 1.84408E-13
 -1      1740 4.92676E+01 7.70457E+00 1.52317E+00 1.98170E+00 1.00664E-12-4.78284E-13
 -1      1741 4.74022E+01 7.73094E+00 1.30241E+00-2.01505E+00 1.15097E-12-1.05460E-12
 -1      1742 4.20137E+01 6.55404E+00 1.07525E+00-5.79056E+00 1.32178E-12-1.54921E-12
 -1      1743 3.32085E+01 4.50534E+00 6.80695E-01-8.19135E+00 1.54049E-12-1.88283E-12
 -1      1744 2.27891E+01 1.21492E+00 1.17032E-01-8.29977E+00 1.55520E-12-1.78968E-12
 -1      1745 1.32720E+01-2.69876E+00-3.47166E-01-7.32062E+00 1.23712E-12-1.54904E-12
 -1      1746 5.29368E+00-6.25701E+00-7.29620E-01-5.52826E+00 8.66751E-13-1.38387E-12
 -1      1747 5.89755E-02-9.58001E+00-1.14634E+00-3.13124E+00 2.88991E-13-1.24228E-12
 -1      1748-1.51064E+00-1.07117E+01-1.27875E+00-9.49722E-01-4.13294E-13-1.21075E-12
 -1      1749 5.12842E-01-1.02344E+01-1.28742E+00 1.30362E+00-1.01025E-12-1.35225E-12
 -1      1750 6.06161E+00-8.21792E+00-1.14895E+00 3.48784E+00-1.52034E-12-1.65069E-12
 -1      1751 1.68505E+01-5.20474E+00-5.40211E-01 5.54189E+00-1.61293E-12-1.71391E-12
 -1      1752 2.91859E+01-1.81440E+00 8.74048E-02 5.59307E+00-1.52833E-12-1.77769E-12
 -1      1753 4.11484E+01 2.48839E+00 9.60142E-01 4.44655E+00-1.45942E-12-1.65246E-12
 -1      1754 5.03834E+01 5.61260E+00 1.81134E+00 2.49436E+00-1.40854E-12-1.25855E-12
 -1      1755 5.47495E+01 7.97926E+00 2.37257E+00 6.35848E-01-1.26077E-12-5.81452E-13
 -1      1756 5.35493E+01 7.31564E+00 2.25087E+00-1.75092E+00-1.34542E-12 1.55875E-13
 -1      1757 4.67769E+01 4.64932E+00 1.57245E+00-4.34120E+00-1.39539E-12 8.62754E-13
 -1      1758 3.55241E+01 1.20743E+00 5.95464E-01-6.07747E+00-1.32083E-12 1.40843E-12
 -1      1759 2.32317E+01-2.59672E+00-2.42910E-01-6.13683E+00-1.25266E-12 1.60694E-12
 -1      1760 1.22719E+01-6.37540E+00-7.95256E-01-4.99152E+00-1.07403E-12 1.49508E-12
 -1      1761 3.84284E+00-9.75673E+00-1.20276E+00-2.85572E+00-8.57314E-13 1.14725E-12
 -1      1762-6.38304E-01-1.19920E+01-1.38547E+00-6.50852E-01-4.72844E-13 1.03112E-12
 -1      1763 2.81480E+01 2.06312E+00-1.60230E-02-1.61082E+00-2.75072E-13 1.26263E-12
 -1      1764 1.83493E+01 4.67110E+00-5.75309E-02-4.78330E-01-3.40956E-13-4.57974E-13
 -1      1765 2.00390E+01 4.46272E+00-7.66027E-03-5.31154E-01-3.85664E-13-3.04590E-13
 -1      1766 2.18993E+01 3.70446E+00-6.89383E-02-5.35045E-01-3.77047E-13-1.08177E-13
 -1      1767 2.37564E+01 3.22234E+00-8.25959E-02-8.06796E-01-4.07230E-13 1.39257E-13
 -1      1768 2.11299E+01 3.54200E+00 1.24365E-02-3.41023E-02-3.75712E-13-1.82906E-13
 -1      1769 1.47864E+01 5.26403E+00-4.51514E-03-1.57608E+00-2.73417E-13-7.40074E-13
 -1      1770 1.51346E+01 5.32619E+00-1.24045E-02-1.34117E+00-3.00912E-13-7.09454E-13
 -1      1771 1.50876E+01 4.90945E+00 1.50210E-02-2.11303E+00-2.45007E-13-7.62071E-13
 -1      1772 1.47799E+01 5.03945E+00-2.69921E-02-1.96227E+00-2.68751E-13-7.60976E-13
 -1      1773 1.46096E+01 5.05811E+00 9.71781E-03-1.92414E+00-3.03309E-13-7.54523E-13
 -1      1774 1.63057E+01 4.34818E+00 2.08572E-02-2.22450E+00-1.98268E-13-7.15951E-13
 -1      1775 1.56096E+01 4.48946E+00-3.21642E-02-2.25967E+00-2.22770E-13-7.36819E-13
 -1      1776 1.52985E+01 4.46036E+00-5.00286E-03-2.44457E+00-2.69630E-13-7.43691E-13
 -1      1777 1.78240E+01 3.82777E+00 1.26577E-02-1.85350E+00-1.23601E-13-6.55122E-13
 -1      1778 1.70517E+01 3.93077E+00-2.88632E-02-2.07862E+00-1.59327E-13-6.80379E-13
 -1      1779 1.67871E+01 3.70160E+00-2.26624E-02-2.39871E+00-2.15128E-13-6.85585E-13
 -1      1780 1.91558E+01 3.51065E+00-1.33792E-03-1.13222E+00-2.82118E-14-5.88671E-13
 -1      1781 1.85252E+01 3.55353E+00-2.19189E-02-1.48673E+00-7.66574E-14-6.19700E-13
 -1      1782 1.84254E+01 3.09880E+00-3.02133E-02-1.82489E+00-1.26906E-13-6.13096E-13
 -1      1783 2.00762E+01 3.41434E+00-1.42230E-02-2.53278E-01 7.51309E-14-5.47614E-13
 -1      1784 1.96677E+01 3.40416E+00-1.74383E-02-6.64448E-01 2.91286E-14-5.70752E-13
 -1      1785 1.97537E+01 2.79026E+00-2.69260E-02-9.47975E-01-1.16764E-14-5.47958E-13
 -1      1786 2.05738E+01 3.45832E+00-2.36894E-02 6.21352E-01 1.83023E-13-4.79825E-13
 -1      1787 2.03698E+01 3.42207E+00-1.72208E-02 2.12557E-01 1.28557E-13-5.20937E-13
 -1      1788 2.05950E+01 2.73342E+00-2.09964E-02-3.02023E-03 1.03215E-13-5.05890E-13
 -1      1789 2.07785E+01 3.54105E+00-3.05686E-02 1.44723E+00 3.07945E-13-3.97671E-13
 -1      1790 2.07056E+01 3.50741E+00-2.01685E-02 1.05102E+00 2.45109E-13-4.39027E-13
 -1      1791 2.10106E+01 2.80412E+00-1.55466E-02 8.81524E-01 2.27280E-13-4.22062E-13
 -1      1792 2.08498E+01 3.55525E+00-3.92733E-02 2.18747E+00 4.17958E-13-2.53415E-13
 -1      1793 2.08204E+01 3.55875E+00-2.66765E-02 1.81374E+00 3.56261E-13-3.36765E-13
 -1      1794 2.11514E+01 2.87095E+00-1.16090E-02 1.65389E+00 3.49458E-13-3.18578E-13
 -1      1795 2.10063E+01 3.36333E+00-5.83228E-02 2.83648E+00 5.03268E-13-1.05471E-15
 -1      1796 2.09047E+01 3.46440E+00-3.83409E-02 2.47665E+00 4.58209E-13-1.55789E-13
 -1      1797 2.12090E+01 2.80256E+00-7.43536E-03 2.28079E+00 4.66480E-13-1.57638E-13
 -1      1798 2.16309E+01 2.65592E+00-7.48214E-02 3.24541E+00 5.17755E-13 5.14408E-13
 -1      1799 2.12198E+01 3.05353E+00-5.16895E-02 2.99235E+00 5.03613E-13 2.08999E-13
 -1      1800 2.14017E+01 2.41868E+00-1.55383E-03 2.68035E+00 5.34653E-13 1.41380E-13
 -1      1801 2.23687E+01 1.21334E+00-1.35404E-01 2.64963E+00 4.41577E-13 1.14946E-12
 -1      1802 2.19474E+01 2.30400E+00 4.16678E-03 3.10693E+00 4.81771E-13 7.31623E-13
 -1      1803 2.16302E+01 1.61618E+00-1.86619E-02 2.57007E+00 5.35160E-13 5.31224E-13
 -1      1804 2.14781E+01 7.48417E-01-6.85595E-02 1.85433E+00 4.45331E-13 1.01548E-12
 -1      1805 2.64325E+01 2.55272E+00 6.40504E-02-1.34175E+00-3.66127E-13 5.51628E-13
 -1      1806 2.03448E+01 2.24387E-01-1.15146E-02 1.08963E+00 3.48131E-13 8.20526E-13
 -1      1807 2.10571E+01 3.73285E-01-2.04884E-02 1.41500E+00 3.67747E-13 9.44683E-13
 -1      1808 2.12513E+01 7.78916E-01 9.88234E-03 1.85870E+00 4.33646E-13 6.71718E-13
 -1      1809 2.59050E+01 8.07797E-01 3.74683E-02 1.49309E+00-2.42698E-13 4.06068E-13
 -1      1810 2.62676E+01 5.19979E-01 1.96785E-02 1.89188E+00-1.72260E-13 3.52527E-13
 -1      1811 2.65644E+01 1.74431E-01 5.50294E-02 2.27082E+00-5.73482E-14 3.93630E-13
 -1      1812 2.71769E+01-3.57660E-01 1.21038E-03 2.21290E+00 2.45984E-14 3.92518E-13
 -1      1813 2.43320E+01 4.97003E-01-2.72193E-02 2.43775E+00-1.17294E-13 1.42826E-13
 -1      1814 2.80517E+01-9.99355E-01 8.67195E-02 2.03853E+00 1.41026E-13 4.56673E-13
 -1      1815 2.86678E+01-1.77655E+00-1.82737E-02 1.26551E+00 1.77108E-13 5.21352E-13
 -1      1816 2.53181E+01-1.03606E+00-3.96649E-02 2.79991E+00 9.98333E-14 2.27927E-13
 -1      1817 3.00841E+01-2.38359E+00 1.11216E-01 3.78446E-01 1.54959E-13 6.03177E-13
 -1      1818 3.02939E+01-2.82940E+00-4.75901E-02-7.98833E-01 4.13836E-14 6.09511E-13
 -1      1819 2.73871E+01-3.09740E+00-7.05682E-02 1.94128E+00 1.99729E-13 3.26073E-13
 -1      1820 3.34828E+01-3.18065E-01-1.40252E-01-4.46766E+00-5.69850E-13 4.34999E-13
 -1      1821 3.28651E+01 1.92207E+00-1.05009E-01-3.97828E+00-8.44269E-13 2.54130E-13
 -1      1822 3.32694E+01 3.60757E+00-2.36702E-01-2.59672E+00-1.04888E-12 4.71290E-14
 -1      1823 3.29836E+01 4.60462E+00-1.72019E-01-2.17134E-01-1.13548E-12-2.72324E-13
 -1      1824 3.21005E+01 6.92914E-01-1.44677E-01 4.40826E+00-5.84227E-13-9.72333E-13
 -1      1825 3.27865E+01-1.26572E+00-1.74995E-01 4.28794E+00-2.52992E-13-1.06193E-12
 -1      1826 3.14735E+01-2.43854E+00-6.82007E-02 2.89074E+00 5.95409E-14-1.08848E-12
 -1      1827 3.14436E+01-2.93670E+00 1.75980E-02 1.40903E+00 2.75804E-13-1.05990E-12
 -1      1828 2.95153E+01-2.53403E+00-4.52717E-02-1.93487E-01 2.53908E-13-9.31800E-13
 -1      1829 2.90053E+01-1.84539E+00 8.71035E-02-1.40607E+00 3.12091E-13-8.80174E-13
 -1      1830 2.94196E+01-3.87241E+00-7.60319E-02-3.37903E-01 3.40554E-13-8.77895E-13
 -1      1831 2.76268E+01-1.18553E+00-3.05299E-02-2.17502E+00 2.77646E-13-7.67299E-13
 -1      1832 2.68284E+01-5.35399E-01 4.77494E-02-2.67427E+00 2.68330E-13-7.29564E-13
 -1      1833 2.63261E+01-2.24401E+00-3.89814E-02-2.63580E+00 3.77400E-13-5.95260E-13
 -1      1834 2.60381E+01-1.48818E-01-9.83930E-03-2.76779E+00 2.16034E-13-7.45952E-13
 -1      1835 2.51693E+01 1.66095E-01 1.09094E-02-2.77393E+00 1.38057E-13-6.45043E-13
 -1      1836 2.44076E+01-5.59159E-01-2.42630E-02-3.38001E+00 2.27537E-13-4.71619E-13
 -1      1837 2.47324E+01 3.05676E-01 8.42343E-03-2.57994E+00 1.29199E-13-5.23189E-13
 -1      1838 2.39625E+01 3.94396E-01-1.64962E-03-2.38856E+00 1.09518E-13-3.91119E-13
 -1      1839 2.33070E+01 3.07046E-01-1.25393E-02-3.20140E+00 2.07531E-13-3.81048E-13
 -1      1840 2.36452E+01 4.15773E-01 1.75476E-02-2.10071E+00 5.56014E-14-3.14008E-13
 -1      1841 2.29721E+01 4.06739E-01-2.64909E-03-1.85791E+00 3.95526E-14-3.38555E-13
 -1      1842 2.25775E+01 5.83982E-01-4.25371E-03-2.66650E+00 1.22897E-13-1.97705E-13
 -1      1843 2.27317E+01 3.77144E-01 2.03408E-02-1.58586E+00 5.74280E-15-2.45781E-13
 -1      1844 2.22067E+01 3.34268E-01-8.01573E-04-1.37181E+00 3.79479E-14-1.86679E-13
 -1      1845 2.20092E+01 5.75284E-01-1.65209E-03-2.05681E+00 4.05223E-14-1.88598E-13
 -1      1846 2.20121E+01 2.95505E-01 1.86049E-02-1.15093E+00-2.02182E-14-1.64549E-13
 -1      1847 2.16192E+01 2.50225E-01 6.48523E-04-9.84554E-01-1.02472E-13-1.12034E-13
 -1      1848 2.15521E+01 4.66811E-01-9.67713E-04-1.52165E+00 3.43380E-14 1.39585E-14
 -1      1849 2.14617E+01 2.16434E-01 1.50682E-02-8.17574E-01-1.11505E-13-1.42656E-13
 -1      1850 2.11752E+01 1.79109E-01 1.31767E-03-6.95918E-01-1.12781E-13-1.30483E-13
 -1      1851 2.11813E+01 3.47841E-01-1.04790E-03-1.09883E+00-1.25049E-13 5.94013E-14
 -1      1852 2.10501E+01 1.53347E-01 1.13892E-02-5.74363E-01-1.35944E-13-2.49573E-13
 -1      1853 2.08444E+01 1.25465E-01 1.45528E-03-4.88068E-01-1.33665E-13-3.04716E-13
 -1      1854 2.08855E+01 2.48520E-01-1.22881E-03-7.82687E-01-2.12918E-13 7.89180E-15
 -1      1855 2.07469E+01 1.06874E-01 8.24834E-03-4.01325E-01-5.53359E-14-3.65448E-13
 -1      1856 2.06011E+01 8.72110E-02 1.48608E-03-3.41006E-01 8.75088E-14-3.04121E-13
 -1      1857 2.06544E+01 1.73966E-01-1.28524E-03-5.53291E-01-1.26529E-13-9.88960E-14
 -1      1858 2.05303E+01 7.52307E-02 5.98522E-03-2.82547E-01 1.73233E-13-3.99999E-13
 -1      1859 2.04307E+01 6.15348E-02 1.23254E-03-2.42120E-01 1.68571E-13-3.12458E-13
 -1      1860 2.04806E+01 1.21103E-01-1.51959E-03-3.92429E-01 1.53765E-13-2.82163E-13
 -1      1861 2.03731E+01 5.21983E-02 4.15853E-03-1.98014E-01 3.27980E-14-4.28073E-13
 -1      1862 2.02990E+01 4.26119E-02 9.38064E-04-1.68329E-01-1.33559E-13-4.67595E-13
 -1      1863 2.03490E+01 8.52083E-02-1.05999E-03-2.78281E-01 1.91439E-14-3.21848E-13
 -1      1864 2.02565E+01 3.63662E-02 2.95234E-03-1.37354E-01-2.58531E-13-5.23918E-13
 -1      1865 2.02045E+01 2.96153E-02 7.29954E-04-1.16634E-01-1.44250E-13-5.79720E-13
 -1      1866 2.02476E+01 5.90091E-02-9.08471E-04-1.94730E-01-1.93470E-13-5.19390E-13
 -1      1867 2.01732E+01 2.53388E-02 2.06565E-03-9.47895E-02 1.12773E-14-5.12892E-13
 -1      1868 2.01369E+01 2.06598E-02 5.66068E-04-8.03160E-02 6.14765E-14-5.08225E-13
 -1      1869 2.01726E+01 4.10195E-02-7.40985E-04-1.35648E-01-1.16153E-13-3.64321E-13
 -1      1870 2.01141E+01 1.76988E-02 1.44421E-03-6.48851E-02-2.91461E-15-5.13419E-13
 -1      1871 2.00890E+01 1.44366E-02 4.33302E-04-5.47527E-02-2.63725E-14-3.79321E-13
 -1      1872 2.01179E+01 2.85932E-02-5.87785E-04-9.38164E-02 1.74455E-14-3.07379E-13
 -1      1873 2.00726E+01 1.23709E-02 1.00929E-03-4.38500E-02 7.12292E-14-3.06150E-13
 -1      1874 2.00554E+01 1.00839E-02 3.29999E-04-3.67571E-02 2.36091E-13-2.69169E-13
 -1      1875 2.00783E+01 1.99573E-02-4.57039E-04-6.41818E-02 9.99389E-14-2.05105E-13
 -1      1876 2.00438E+01 8.61339E-03 6.98850E-04-2.90651E-02 2.06587E-13-4.37208E-13
 -1      1877 2.00323E+01 7.02793E-03 2.59084E-04-2.41207E-02 7.16948E-15-3.44041E-13
 -1      1878 2.00501E+01 1.39233E-02-3.47094E-04-4.32046E-02 1.36967E-13-2.13276E-13
 -1      1879 2.00245E+01 6.06226E-03 4.92827E-04-1.89625E-02 2.49296E-14-2.21587E-13
 -1      1880 2.00172E+01 4.94537E-03 1.94122E-04-1.56633E-02 1.88538E-13-7.24950E-15
 -1      1881 2.00307E+01 9.67605E-03-2.87917E-04-2.86659E-02 1.39953E-13-1.51297E-13
 -1      1882 2.00116E+01 4.16907E-03 3.37947E-04-1.18250E-02 2.02295E-13 7.68933E-14
 -1      1883 2.00067E+01 3.35888E-03 1.38992E-04-9.42962E-03 2.31266E-13 1.49460E-13
 -1      1884 2.00173E+01 6.77833E-03-1.96663E-04-1.84649E-02 3.03428E-13 1.26549E-13
 -1      1885 2.00030E+01 2.82912E-03 2.34784E-04-6.80117E-03 3.78614E-14 3.39760E-14
 -1      1886 2.00000E+01 2.23731E-03 9.98834E-05-5.18285E-03-7.34953E-14-1.02586E-13
 -1      1887 2.00080E+01 4.58873E-03-1.46348E-04-1.11338E-02 6.21651E-14 1.83168E-13
 -1      1888 1.99977E+01 1.86538E-03 1.57435E-04-3.41298E-03-9.19872E-14-1.48962E-13
 -1      1889 1.99961E+01 1.44648E-03 7.16574E-05-2.35085E-03-1.63450E-14-9.59344E-14
 -1      1890 2.00019E+01 3.04286E-03-1.06159E-04-6.12412E-03-1.40176E-13-1.37531E-13
 -1      1891 1.99947E+01 1.18522E-03 1.02654E-04-1.19245E-03-1.31443E-13-1.46605E-13
 -1      1892 1.99939E+01 8.91526E-04 5.04295E-05-5.22040E-04-2.03236E-13-1.75518E-13
 -1      1893 1.99982E+01 1.95190E-03-7.54526E-05-2.77719E-03-2.00261E-13-2.12275E-13
 -1      1894 1.99932E+01 7.10383E-04 6.42277E-05 2.04237E-04-2.76485E-13-1.59524E-13
 -1      1895 1.99931E+01 5.08010E-04 3.49305E-05 6.01564E-04-2.74132E-13-1.00093E-13
 -1      1896 1.99961E+01 1.18890E-03-5.24209E-05-6.13934E-04-2.91495E-13-2.47361E-13
 -1      1897 1.99928E+01 3.82751E-04 3.70112E-05 1.02733E-03-7.52412E-14 2.63539E-14
 -1      1898 1.99930E+01 2.49714E-04 2.39071E-05 1.23665E-03 5.87768E-14-1.12027E-13
 -1      1899 1.99951E+01 6.64624E-04-3.51250E-05 7.15911E-04-1.21605E-13-1.30225E-16
 -1      1900 1.99930E+01 1.69950E-04 1.88328E-05 1.44971E-03 6.53516E-15-1.34972E-13
 -1      1901 1.99933E+01 8.63383E-05 1.57301E-05 1.53314E-03 1.01273E-13-8.39228E-14
 -1      1902 1.99948E+01 3.11028E-04-2.40044E-05 1.45831E-03-1.79720E-14-1.32196E-14
 -1      1903 1.99935E+01 2.99435E-05 7.59120E-06 1.62311E-03 1.09290E-13-1.14340E-13
 -1      1904 1.99940E+01-2.53423E-05 9.40501E-06 1.63232E-03 1.77878E-13-1.71234E-13
 -1      1905 1.99949E+01 8.88035E-05-1.44746E-05 1.81954E-03 1.14096E-13-7.40708E-14
 -1      1906 1.99942E+01-5.67729E-05 2.40155E-07 1.63238E-03 7.91838E-14-1.91737E-13
 -1      1907 1.99948E+01-8.96905E-05 5.09423E-06 1.59260E-03 1.61332E-13-1.27210E-13
 -1      1908 1.99953E+01-5.87084E-05-8.36023E-06 1.93574E-03 1.48977E-13-3.15584E-13
 -1      1909 1.99950E+01-1.05904E-04-4.43357E-06 1.53947E-03 7.75753E-14-1.65674E-13
 -1      1910 1.99956E+01-1.22270E-04 2.32915E-06 1.47253E-03 6.97952E-15-1.72842E-13
 -1      1911 1.99959E+01-1.42753E-04-4.10036E-06 1.88837E-03 1.29075E-13-2.95994E-13
 -1      1912 1.99958E+01-1.28598E-04-6.97727E-06 1.39097E-03 4.91185E-14-1.13125E-13
 -1      1913 1.99963E+01-1.34057E-04 5.21709E-07 1.31205E-03-2.33416E-13-1.21852E-13
 -1      1914 1.99964E+01-1.83962E-04-1.26815E-06 1.74612E-03 1.24917E-14-2.24461E-13
 -1      1915 1.99966E+01-1.34095E-04-8.08094E-06 1.21858E-03-4.92630E-13-1.68356E-13
 -1      1916 1.99970E+01-1.32777E-04-6.01138E-07 1.13741E-03-3.64218E-13-1.64864E-13
 -1      1917 1.99970E+01-1.97040E-04 5.14692E-07 1.55600E-03-3.46742E-13-2.25827E-13
 -1      1918 1.99973E+01-1.29179E-04-8.25560E-06 1.04257E-03-8.09245E-14-4.07414E-14
 -1      1919 1.99976E+01-1.24095E-04-1.44216E-06 9.64792E-04 2.22638E-13 8.15387E-16
 -1      1920 1.99976E+01-1.92723E-04 1.54882E-06 1.34893E-03-2.08688E-13-8.26541E-14
 -1      1921 1.99979E+01-1.19980E-04-8.13086E-06 8.79265E-04 3.61730E-13 1.42053E-13
 -1      1922 1.99982E+01-1.12928E-04-1.82299E-06 8.10986E-04 2.95986E-13 2.54753E-13
 -1      1923 1.99980E+01-1.79088E-04 2.46990E-06 1.14848E-03 2.55300E-13 5.06139E-13
 -1      1924 1.99983E+01-1.07478E-04-7.18181E-06 7.27501E-04 1.29505E-13 1.47868E-13
 -1      1925 1.99986E+01-1.01556E-04-2.11112E-06 6.62753E-04 4.37757E-14 3.57044E-13
 -1      1926 1.99985E+01-1.62863E-04 2.26377E-06 9.60572E-04 1.64832E-13 3.36170E-13
 -1      1927 1.99988E+01-9.70795E-05-6.39633E-06 5.86785E-04-4.88262E-14 5.56633E-13
 -1      1928 1.99990E+01-9.27644E-05-2.42064E-06 5.27802E-04 7.21955E-14 5.12469E-13
 -1      1929 1.99988E+01-1.46706E-04 2.31037E-06 7.82903E-04 1.45782E-13 3.21332E-13
 -1      1930 1.99991E+01-9.03533E-05-5.46709E-06 4.57710E-04 1.77668E-13 4.66572E-13
 -1      1931 1.99993E+01-8.88480E-05-2.75639E-06 4.02067E-04 4.35660E-14 4.39785E-13
 -1      1932 1.99991E+01-1.35308E-04 2.20956E-06 6.19894E-04 6.81793E-14 5.26508E-13
 -1      1933 1.99994E+01-8.90140E-05-4.39523E-06 3.34912E-04 5.06300E-15 3.28186E-13
 -1      1934 1.99995E+01-9.00038E-05-2.77221E-06 2.79636E-04 1.34767E-14 3.10335E-13
 -1      1935 1.99994E+01-1.30985E-04 2.19763E-06 4.67653E-04-8.09087E-14 5.76066E-13
 -1      1936 1.99996E+01-9.16301E-05-3.37791E-06 2.13826E-04-1.62070E-13 2.55760E-13
 -1      1937 1.99997E+01-8.85582E-05-8.46978E-07 1.59420E-04-1.94607E-13 1.44531E-13
 -1      1938 1.99996E+01-1.31520E-04 2.30499E-06 3.20307E-04-7.68195E-14 5.22488E-13
 -1      1939 1.94834E+01 7.08128E-02 6.18968E-03 8.17086E-01 2.64700E-13 6.75311E-13
 -1      1940 1.99652E+01 1.27613E-01 1.19421E-02 9.27727E-01 2.85801E-13 7.69914E-13
 -1      1941 2.03398E+01 2.57530E-01 8.50195E-03 1.24930E+00 3.42303E-13 5.64697E-13
 -1      1942 1.13703E+01-4.55921E+00-9.71466E-02 7.53013E+00 5.98410E-13 1.00331E-12
 -1      1943 7.53949E+00-6.41827E+00-3.67066E-01 6.31790E+00 2.90823E-13 1.09179E-12
 -1      1944 1.87856E+01 3.98673E-02 6.91327E-03 7.05716E-01 2.14463E-13 5.25403E-13
 -1      1945 1.91548E+01 4.91061E-02 1.20877E-02 7.48667E-01 2.15802E-13 6.18329E-13
 -1      1946 1.95912E+01 9.01389E-02 3.34843E-03 9.91792E-01 2.74225E-13 4.74974E-13
 -1      1947 1.82078E+01 6.50019E-02 5.69766E-03 6.05911E-01 1.69021E-13 4.36416E-13
 -1      1948 1.85085E+01 5.21038E-02 8.64162E-03 6.46723E-01 1.95265E-13 4.87468E-13
 -1      1949 1.89774E+01 7.30337E-02-4.30911E-04 8.45232E-01 2.30828E-13 3.65772E-13
 -1      1950 1.77583E+01 1.13349E-01 4.71985E-03 4.43306E-01 1.16112E-13 3.40563E-13
 -1      1951 1.79882E+01 9.43878E-02 7.07087E-03 5.14916E-01 1.36711E-13 4.07622E-13
 -1      1952 1.84770E+01 1.22338E-01-3.11755E-03 6.78799E-01 1.61709E-13 3.01516E-13
 -1      1953 1.74817E+01 1.56147E-01 3.72099E-03 1.99706E-01 8.99151E-14 2.35855E-13
 -1      1954 1.76186E+01 1.44016E-01 7.40939E-03 3.09606E-01 9.85054E-14 2.94036E-13
 -1      1955 1.81137E+01 1.89010E-01-5.27368E-03 4.28879E-01 1.39084E-13 2.09777E-13
 -1      1956 1.74215E+01 1.70611E-01 2.60227E-03-9.60271E-02 6.46115E-14 1.74592E-13
 -1      1957 1.74434E+01 1.73819E-01 8.10312E-03 3.82586E-02 5.97630E-14 1.94649E-13
 -1      1958 1.79280E+01 2.34236E-01-6.60925E-03 9.65535E-02 1.07980E-13 9.57703E-14
 -1      1959 1.75901E+01 1.47331E-01 1.79433E-03-3.84473E-01 1.04570E-13 6.52364E-14
 -1      1960 1.74906E+01 1.67186E-01 7.96201E-03-2.53005E-01 8.57934E-14 1.43880E-13
 -1      1961 1.79478E+01 2.32963E-01-6.43559E-03-2.66649E-01 1.12244E-13 3.24611E-14
 -1      1962 1.79538E+01 9.34340E-02 1.61604E-03-6.03095E-01 6.87649E-14 4.51011E-14
 -1      1963 1.77492E+01 1.23981E-01 6.47601E-03-5.02358E-01 7.28870E-14 5.46863E-14
 -1      1964 1.81637E+01 1.81042E-01-4.83270E-03-5.85506E-01 9.98680E-14 2.56199E-14
 -1      1965 1.84404E+01 2.74715E-02 1.99033E-03-7.12565E-01 4.13664E-14 8.29397E-14
 -1      1966 1.81670E+01 5.90588E-02 3.85878E-03-6.59678E-01 9.15028E-14 9.24096E-14
 -1      1967 1.85259E+01 9.52400E-02-2.59207E-03-7.95465E-01 7.93150E-14 4.32696E-14
 -1      1968 1.89631E+01-3.08427E-02 2.49959E-03-7.08771E-01 6.62457E-14 6.90268E-14
 -1      1969 1.86661E+01-6.62704E-03 8.17598E-04-7.05289E-01 4.23329E-14 7.63174E-14
 -1      1970 1.89599E+01 3.05221E-03-6.52854E-04-8.67880E-01 4.73552E-14 3.86965E-14
 -1      1971 1.94459E+01-6.90923E-02 2.73879E-03-6.17170E-01 1.30521E-13-1.09700E-13
 -1      1972 1.91667E+01-5.62747E-02-1.86205E-03-6.51984E-01 9.68047E-14 1.25182E-14
 -1      1973 1.93909E+01-7.09005E-02 4.72035E-04-8.14844E-01 1.52281E-13-2.09795E-14
 -1      1974 1.98396E+01-8.46024E-02 2.55692E-03-4.76944E-01 3.88209E-14-9.35309E-14
 -1      1975 1.96069E+01-8.26816E-02-3.65835E-03-5.33248E-01 8.78330E-14-7.96993E-14
 -1      1976 1.97637E+01-1.13823E-01 8.32698E-04-6.75890E-01 1.05482E-13-1.17490E-13
 -1      1977 2.01242E+01-8.18395E-02 2.04050E-03-3.25440E-01-6.04464E-15-1.47619E-13
 -1      1978 1.99514E+01-8.75888E-02-4.43452E-03-3.87322E-01-1.82645E-14-1.35838E-13
 -1      1979 2.00488E+01-1.25734E-01 7.41273E-04-4.98292E-01 2.73006E-14-1.41246E-13
 -1      1980 2.03030E+01-6.81149E-02 1.38657E-03-1.89133E-01 7.32071E-14-1.96242E-13
 -1      1981 2.01904E+01-7.76742E-02-4.35569E-03-2.45311E-01 5.73595E-14-1.67010E-13
 -1      1982 2.02406E+01-1.14808E-01 4.95257E-04-3.21671E-01 5.70555E-14-2.28355E-13
 -1      1983 2.03932E+01-5.02157E-02 7.77776E-04-8.16394E-02-3.52279E-15-1.77939E-13
 -1      1984 2.03324E+01-6.04628E-02-3.72366E-03-1.26244E-01 1.50049E-14-1.93268E-13
 -1      1985 2.03491E+01-9.15711E-02 2.70198E-04-1.71107E-01 4.99739E-14-1.63595E-13
 -1      1986 2.04173E+01-3.28390E-02 3.12889E-04-6.18505E-03-4.99730E-15-1.54638E-13
 -1      1987 2.03960E+01-4.18593E-02-2.84165E-03-3.77074E-02 1.66518E-14-1.66372E-13
 -1      1988 2.03917E+01-6.49286E-02 1.16760E-04-5.73794E-02 1.58239E-14-1.86359E-13
 -1      1989 2.03973E+01-1.84543E-02 1.50978E-05 4.04494E-02-1.94895E-14-1.32767E-13
 -1      1990 2.04030E+01-2.54175E-02-1.93967E-03 2.07989E-02-1.74305E-14-1.56904E-13
 -1      1991 2.03878E+01-4.05938E-02 2.43693E-05 1.91311E-02-1.57512E-14-1.43186E-13
 -1      1992 2.03520E+01-7.85383E-03-1.39447E-04 6.44047E-02-8.03112E-15-1.41819E-13
 -1      1993 2.03738E+01-1.26646E-02-1.15508E-03 5.41609E-02 1.18238E-15-8.41642E-14
 -1      1994 2.03547E+01-2.12657E-02-2.99652E-05 6.38945E-02-5.87719E-15-1.55878E-13
 -1      1995 2.02953E+01-8.24985E-04-1.92285E-04 7.23362E-02-3.00567E-14-1.72055E-13
 -1      1996 2.03247E+01-3.78078E-03-5.47185E-04 6.87850E-02-4.62343E-14-1.80413E-13
 -1      1997 2.03062E+01-7.52157E-03-6.44757E-05 8.46071E-02 2.37137E-15-1.64205E-13
 -1      1998 2.02367E+01 3.30615E-03-1.84059E-04 7.01003E-02 8.08211E-14-1.68273E-13
 -1      1999 2.02680E+01 1.76378E-03-1.21699E-04 7.08322E-02 5.56320E-14-1.61031E-13
 -1      2000 2.02525E+01 1.24798E-03-8.88066E-05 8.88930E-02 4.22429E-14-1.39948E-13
 -1      2001 2.01822E+01 5.32351E-03-1.46249E-04 6.22405E-02-1.78115E-14-2.83572E-13
 -1      2002 2.02117E+01 4.75637E-03 1.45308E-04 6.53730E-02 7.96308E-14-2.31075E-13
 -1      2003 2.02000E+01 6.13383E-03-1.06311E-04 8.31523E-02 1.06300E-13-1.75237E-13
 -1      2004 2.01348E+01 5.93555E-03-9.96633E-05 5.19558E-02-1.67832E-13-4.75872E-13
 -1      2005 2.01606E+01 5.97773E-03 2.89428E-04 5.61541E-02-1.61794E-13-4.33624E-13
 -1      2006 2.01527E+01 8.27721E-03-1.17488E-04 7.21948E-02-5.78192E-14-3.19871E-13
 -1      2007 2.00956E+01 5.70208E-03-5.60991E-05 4.12995E-02-1.31177E-14-1.99355E-13
 -1      2008 2.01169E+01 6.07989E-03 3.46734E-04 4.56995E-02-1.74950E-13-3.72842E-13
 -1      2009 2.01123E+01 8.65776E-03-1.22298E-04 5.93164E-02-1.93904E-13-3.05828E-13
 -1      2010 2.00645E+01 5.02567E-03-2.09198E-05 3.14530E-02-2.68186E-14 6.73973E-14
 -1      2011 2.00814E+01 5.55149E-03 3.48126E-04 3.55515E-02 2.64287E-14 1.08512E-15
 -1      2012 2.00794E+01 8.02314E-03-1.21102E-04 4.65729E-02-8.28653E-14-9.43674E-14
 -1      2013 2.00409E+01 4.17346E-03 4.50625E-06 2.29891E-02-1.50030E-13 2.26298E-13
 -1      2014 2.00536E+01 4.72906E-03 3.17385E-04 2.65364E-02-1.05047E-13 1.23937E-13
 -1      2015 2.00535E+01 6.89555E-03-1.14839E-04 3.51001E-02-1.05954E-13 1.38740E-13
 -1      2016 2.00234E+01 3.30855E-03 2.09430E-05 1.60874E-02-2.22781E-14 1.38239E-13
 -1      2017 2.00328E+01 3.82661E-03 2.71331E-04 1.89991E-02-5.80389E-14 2.60328E-13
 -1      2018 2.00338E+01 5.61130E-03-1.04859E-04 2.54047E-02-7.78817E-14 1.54128E-13
 -1      2019 2.00111E+01 2.52024E-03 3.00687E-05 1.06958E-02 2.55829E-13-3.18811E-14
 -1      2020 2.00176E+01 2.96807E-03 2.20950E-04 1.29862E-02 6.12241E-14 8.66868E-14
 -1      2021 2.00194E+01 4.36822E-03-9.26130E-05 1.75962E-02 1.67853E-13 1.42096E-13
 -1      2022 2.00028E+01 1.84889E-03 3.37660E-05 6.64202E-03 2.22017E-13 6.22357E-14
 -1      2023 2.00071E+01 2.21579E-03 1.72790E-04 8.37741E-03 2.14074E-13 8.36783E-14
 -1      2024 2.00093E+01 3.26841E-03-7.94068E-05 1.15559E-02 1.95625E-13 2.61529E-13
 -1      2025 1.99975E+01 1.30470E-03 3.37534E-05 3.70558E-03-1.24713E-13 5.63208E-14
 -1      2026 2.00002E+01 1.59278E-03 1.30267E-04 4.97403E-03 1.37941E-13 4.76592E-14
 -1      2027 2.00024E+01 2.35221E-03-6.62802E-05 7.05291E-03 1.73920E-13 3.21550E-13
 -1      2028 1.99944E+01 8.80832E-04 3.14356E-05 1.66168E-03-1.35465E-13 5.31981E-14
 -1      2029 1.99959E+01 1.09880E-03 9.47326E-05 2.55457E-03-1.73184E-13 4.27113E-14
 -1      2030 1.99980E+01 1.62311E-03-5.39695E-05 3.81765E-03-1.03207E-13 1.75417E-13
 -1      2031 1.99929E+01 5.62135E-04 2.78736E-05 3.04509E-04-2.15728E-13-3.83421E-14
 -1      2032 1.99935E+01 7.21347E-04 6.62795E-05 9.06389E-04-1.62230E-13-6.63560E-14
 -1      2033 1.99955E+01 1.06476E-03-4.29274E-05 1.58538E-03-1.09071E-13 1.09909E-13
 -1      2034 1.99924E+01 3.30568E-04 2.38150E-05-5.42090E-04 6.65031E-14 3.02563E-14
 -1      2035 1.99925E+01 4.42659E-04 4.43076E-05-1.58251E-04-8.72019E-14 3.43155E-14
 -1      2036 1.99942E+01 6.52016E-04-3.33757E-05 1.18802E-04-1.01050E-13 9.43991E-14
 -1      2037 1.99926E+01 1.68296E-04 1.97492E-05-1.02188E-03 4.60785E-13 6.34027E-14
 -1      2038 1.99924E+01 2.43947E-04 2.78982E-05-7.96094E-04 1.91667E-13 6.61173E-14
 -1      2039 1.99938E+01 3.57594E-04-2.53664E-05-7.82509E-04 1.71757E-13-5.87019E-15
 -1      2040 1.99932E+01 5.92700E-05 1.59700E-05-1.24786E-03-2.77112E-13 1.85899E-14
 -1      2041 1.99927E+01 1.07653E-04 1.60459E-05-1.13264E-03 1.77319E-13 9.90812E-14
 -1      2042 1.99939E+01 1.55705E-04-1.88322E-05-1.28059E-03 2.13873E-13 3.18149E-13
 -1      2043 1.99940E+01-1.01191E-05 1.26313E-05-1.30592E-03-4.18695E-13 1.46650E-13
 -1      2044 1.99934E+01 1.85088E-05 7.78999E-06-1.26490E-03-4.31428E-13-4.32156E-14
 -1      2045 1.99944E+01 2.37959E-05-1.36325E-05-1.50183E-03-3.64113E-13 2.32537E-13
 -1      2046 1.99948E+01-5.09265E-05 9.79048E-06-1.25939E-03 2.92785E-13 1.97620E-13
 -1      2047 1.99943E+01-3.61205E-05 2.28041E-06-1.26556E-03 6.09957E-15 2.20559E-13
 -1      2048 1.99950E+01-5.68648E-05-9.59105E-06-1.54170E-03-1.62109E-13 1.58598E-13
 -1      2049 1.99957E+01-7.18427E-05 7.44137E-06-1.15340E-03 1.15870E-14 4.12942E-13
 -1      2050 1.99952E+01-6.63109E-05-1.19747E-06-1.18732E-03 1.03317E-13 2.70977E-13
 -1      2051 1.99957E+01-1.01241E-04-6.52218E-06-1.47011E-03 4.07106E-14 1.85522E-13
 -1      2052 1.99965E+01-7.95330E-05 5.53801E-06-1.01896E-03 1.03241E-13 5.08453E-13
 -1      2053 1.99960E+01-7.98738E-05-3.22241E-06-1.06713E-03 5.06719E-14 5.49277E-13
 -1      2054 1.99964E+01-1.20934E-04-4.24670E-06-1.33656E-03 7.32390E-15 4.30190E-13
 -1      2055 1.99972E+01-7.90246E-05 4.01122E-06-8.76272E-04 5.13212E-13 2.85350E-13
 -1      2056 1.99968E+01-8.27415E-05-4.25000E-06-9.29774E-04 3.01688E-13 4.68205E-13
 -1      2057 1.99971E+01-1.24745E-04-2.60069E-06-1.17468E-03 3.04198E-13 4.01331E-13
 -1      2058 1.99978E+01-7.40906E-05 2.77933E-06-7.37388E-04 1.54702E-13 1.47023E-13
 -1      2059 1.99975E+01-7.93678E-05-4.63063E-06-7.90797E-04 4.18976E-13 2.73975E-13
 -1      2060 1.99977E+01-1.19253E-04-1.43982E-06-1.00605E-03 4.10829E-13 4.25175E-13
 -1      2061 1.99984E+01-6.76163E-05 1.76080E-06-6.08258E-04 1.34248E-13-2.34926E-13
 -1      2062 1.99981E+01-7.31175E-05-4.62426E-06-6.58822E-04 9.51636E-14-1.09349E-13
 -1      2063 1.99982E+01-1.09400E-04-6.40974E-07-8.43093E-04 2.42211E-13 1.76698E-13
 -1      2064 1.99988E+01-6.19001E-05 8.92141E-07-4.90138E-04-3.55446E-15-3.31254E-13
 -1      2065 1.99986E+01-6.66135E-05-4.41201E-06-5.37222E-04 1.25193E-13-1.70948E-13
 -1      2066 1.99986E+01-9.89742E-05-9.24892E-08-6.91382E-04 8.57031E-14 7.71458E-14
 -1      2067 1.99991E+01-5.87501E-05 1.96386E-07-3.80605E-04 8.97187E-14-3.01619E-13
 -1      2068 1.99990E+01-6.19707E-05-4.08734E-06-4.25332E-04-6.40870E-14-4.36944E-13
 -1      2069 1.99990E+01-9.10009E-05 3.05493E-07-5.51231E-04-1.45975E-14 4.04403E-14
 -1      2070 1.99994E+01-5.92611E-05-2.18556E-07-2.75020E-04-1.05988E-13-5.55269E-14
 -1      2071 1.99993E+01-6.05742E-05-3.60221E-06-3.19638E-04 7.19602E-15-1.39959E-13
 -1      2072 1.99993E+01-8.73888E-05 7.32708E-07-4.19210E-04-9.52922E-14 1.02574E-14
 -1      2073 1.99996E+01-6.34852E-05-1.18907E-06-1.68912E-04-9.77069E-14 9.19682E-14
 -1      2074 1.99995E+01-6.24796E-05-2.74818E-06-2.15577E-04-1.55681E-13 2.52560E-14
 -1      2075 1.99995E+01-8.93098E-05 9.83469E-07-2.90651E-04-2.07517E-13 2.07971E-13
 -1      2076 1.99997E+01-6.50468E-05-2.23850E-06-8.95062E-05 1.42063E-14 3.85077E-13
 -1      2077 1.99997E+01-6.78424E-05-1.95671E-06-1.35573E-04-8.72338E-14 2.28347E-13
 -1      2078 1.99996E+01-9.53649E-05 1.03241E-06-1.89248E-04-1.49741E-13 4.51107E-13
 -1      2079 1.99997E+01-9.63260E-05 3.42069E-09-1.15625E-04 3.77361E-14 7.19459E-13
 -1      2080 1.99998E+01-5.86197E-04 1.27629E-06-3.21963E-04-5.03703E-13-1.36843E-13
 -1      2081 1.99998E+01-4.83215E-04-1.79660E-06-3.13628E-04-4.97767E-13 5.96776E-14
 -1      2082 1.99998E+01-3.89228E-04 2.95516E-07-2.91314E-04-3.68641E-13-7.06662E-14
 -1      2083 1.99997E+01-2.96620E-04-2.34002E-06-2.59400E-04-2.94510E-13 2.96209E-13
 -1      2084 1.99997E+01-4.38611E-04 4.70194E-08-3.87716E-04-5.77421E-13-1.04798E-13
 -1      2085 1.99997E+01-2.28143E-04-4.67519E-07-2.15283E-04-1.10951E-13 2.51528E-13
 -1      2086 1.99997E+01-1.55120E-04-2.08439E-06-1.68488E-04-2.41039E-14 3.73529E-13
 -1      2087 1.99997E+01-1.56881E-04-1.40579E-06-2.07829E-04-5.65020E-14 3.88911E-13
 -1      2088 1.99997E+01-2.80107E-04 8.93623E-07-3.11854E-04-3.45413E-13 1.16502E-13
 -1      2089 1.99998E+01-7.74548E-04 2.30981E-06-3.03745E-04-5.17833E-13-6.98682E-13
 -1      2090 1.99998E+01-6.76172E-04-3.16206E-07-3.16830E-04-5.05223E-13-4.25187E-13
 -1      2091 1.99998E+01-6.21299E-04-9.06233E-07-4.05340E-04-6.54275E-13-2.94737E-13
 -1      2092 1.99999E+01-9.37388E-04 3.18663E-06-2.41864E-04-1.97875E-13-8.21958E-15
 -1      2093 1.99998E+01-8.54308E-04 1.16581E-06-2.73337E-04-3.91159E-13-1.18339E-13
 -1      2094 1.99999E+01-7.90908E-04-1.89828E-06-3.64755E-04-3.53657E-13-2.50358E-13
 -1      2095 1.99999E+01-1.05078E-03 3.70128E-06-1.47013E-04-2.08487E-14 3.95664E-13
 -1      2096 1.99999E+01-9.96123E-04 2.45494E-06-1.91460E-04-2.37726E-14 8.44139E-14
 -1      2097 1.99999E+01-9.29570E-04-2.78645E-06-2.73429E-04 8.99317E-15 2.15653E-13
 -1      2098 1.99999E+01-1.10076E-03 3.77395E-06-3.28170E-05-9.48416E-14 2.48244E-13
 -1      2099 1.99999E+01-1.08189E-03 3.34704E-06-8.39838E-05-1.13992E-13 3.08799E-13
 -1      2100 1.99999E+01-1.01967E-03-3.36385E-06-1.45686E-04-5.04083E-15 3.55341E-13
 -1      2101 1.99999E+01-1.08126E-03 3.36274E-06 8.56733E-05-6.57434E-14 5.54482E-14
 -1      2102 1.99999E+01-1.10069E-03 3.76342E-06 3.45263E-05-6.77484E-14 3.38461E-13
 -1      2103 1.99999E+01-1.05081E-03-3.56119E-06 1.00837E-06-1.48978E-13 3.15080E-13
 -1      2104 1.99999E+01-9.94769E-04 2.49301E-06 1.93037E-04-1.13313E-13-6.21038E-13
 -1      2105 1.99999E+01-1.05000E-03 3.67230E-06 1.48689E-04-1.35787E-13-1.86890E-13
 -1      2106 1.99999E+01-1.01936E-03-3.35610E-06 1.47684E-04-1.85233E-13-1.29664E-13
 -1      2107 1.99998E+01-8.55105E-04 1.18161E-06 2.73504E-04-1.50764E-13-2.63859E-13
 -1      2108 1.99999E+01-9.37009E-04 3.16860E-06 2.42612E-04-1.43148E-13-7.05006E-13
 -1      2109 1.99999E+01-9.29897E-04-2.83722E-06 2.74455E-04-5.47209E-14-5.44756E-13
 -1      2110 1.99998E+01-6.75223E-04-3.44882E-07 3.17273E-04 5.98401E-14 1.64434E-13
 -1      2111 1.99998E+01-7.75417E-04 2.32708E-06 3.04085E-04-3.08593E-14 2.45377E-13
 -1      2112 1.99999E+01-7.92309E-04-1.91350E-06 3.65061E-04-4.28608E-14 1.09400E-14
 -1      2113 1.99998E+01-4.80296E-04-1.85871E-06 3.13790E-04-2.62307E-14-8.07974E-14
 -1      2114 1.99998E+01-5.83536E-04 1.30556E-06 3.22320E-04 3.81873E-14-1.58339E-13
 -1      2115 1.99998E+01-6.21088E-04-8.32441E-07 4.05758E-04 6.28812E-14 1.56086E-13
 -1      2116 1.99997E+01-2.95826E-04-3.10674E-06 2.60945E-04-3.45678E-13 9.19539E-14
 -1      2117 1.99998E+01-3.87196E-04 2.95280E-07 2.89905E-04-2.37692E-13-9.32499E-15
 -1      2118 1.99997E+01-4.37168E-04-3.00456E-07 3.86397E-04-1.90006E-13-2.05747E-13
 -1      2119 2.02993E+01-2.42459E+00 2.94533E-02 7.93212E+00 7.67886E-13 6.05516E-13
 -1      2120 1.51214E+01-4.38225E+00-2.86648E-01 7.15653E+00 7.49845E-13 7.83484E-13
 -1      2121 1.99997E+01-7.57692E-05-2.97796E-06 7.88775E-05-1.09681E-13-2.67417E-14
 -1      2122 2.55412E+01 2.04266E+00 7.29912E-02-3.45889E-01-3.66304E-13 3.91610E-13
 -1      2123 2.68327E-01-7.47684E+00-3.99478E-01 2.28669E+00 1.90459E-13 8.43769E-13
 -1      2124-5.35053E-02-7.52972E+00-3.93897E-01 7.61200E-01-1.29379E-13 9.12215E-13
 -1      2125 1.58606E+01 5.19572E+00-3.28923E-02-9.07051E-01-3.07433E-13-6.62713E-13
 -1      2126 1.69531E+01 5.14743E+00-3.27186E-03-7.48724E-01-3.38261E-13-5.69885E-13
 -1      2127 1.76049E+01 4.63549E+00 1.02301E-02-3.43601E-01-3.51807E-13-4.93766E-13
 -1      2128 1.53254E+01 5.16360E+00 1.58180E-02-1.07003E+00-3.21677E-13-6.67845E-13
 -1      2129 2.96169E+01 8.74704E-01 2.27853E-01 6.89178E+00 9.86766E-13 3.30402E-13
 -1      2130 2.47566E+01-1.27707E+00-1.14202E-01 6.55682E+00 8.81017E-13 3.35398E-13
 -1      2131 3.61566E+01 3.63713E+00 2.52191E-01 4.68190E+00 9.22637E-13-1.11022E-16
 -1      2132 3.21106E+01 2.23705E+00 5.36747E-02 5.57654E+00 1.00350E-12 2.43583E-13
 -1      2133 3.13544E+01-2.64975E-02 1.93015E-01 3.90059E+00 6.31689E-13-2.78333E-13
 -1      2134 4.15640E+01 6.57611E+00 4.40334E-01 2.58659E+00 1.01558E-12-2.92488E-13
 -1      2135 3.81021E+01 5.63157E+00 1.58210E-01 3.27438E+00 1.02332E-12-6.51701E-14
 -1      2136 4.29242E+01 7.72445E+00 3.29543E-01 3.07970E-01 1.08907E-12-5.78992E-13
 -1      2137 4.24915E+01 7.44199E+00 3.65532E-01 1.83164E+00 1.04550E-12-3.19550E-13
 -1      2138 4.00970E+01 7.44119E+00 1.84644E-01-1.40065E+00 1.20393E-12-7.15650E-13
 -1      2139 4.24015E+01 7.92180E+00 4.40571E-01-4.18082E-01 1.17056E-12-5.65645E-13
 -1      2140 3.67505E+01 4.80587E+00 1.93726E-01-3.98105E+00 1.15374E-12-1.10201E-12
 -1      2141 3.92366E+01 5.84356E+00 1.91292E-01-2.43832E+00 1.14650E-12-9.02778E-13
 -1      2142 2.98455E+01 1.59530E+00-3.95505E-02-5.81533E+00 1.10106E-12-1.16362E-12
 -1      2143 3.44878E+01 3.10391E+00 2.43693E-01-5.41830E+00 1.10634E-12-1.12510E-12
 -1      2144 2.17908E+01-1.59854E+00-1.70436E-01-6.98623E+00 8.59202E-13-1.14619E-12
 -1      2145 2.67393E+01 3.20375E-01 1.47908E-01-7.27945E+00 1.03173E-12-1.23263E-12
 -1      2146 1.34354E+01-3.94417E+00-2.34247E-01-7.33360E+00 5.01932E-13-1.12738E-12
 -1      2147 1.78614E+01-2.24905E+00 9.50032E-03-8.04802E+00 7.63944E-13-1.19987E-12
 -1      2148 5.30615E+00-5.56895E+00-3.73943E-01-5.85934E+00 2.31482E-13-1.22108E-12
 -1      2149 8.83067E+00-3.86297E+00-1.22944E-01-7.27831E+00 4.73288E-13-1.23061E-12
 -1      2150 1.04207E+00-6.06902E+00-3.54831E-01-3.47178E+00-1.44301E-13-1.21225E-12
 -1      2151 2.77573E+00-5.13513E+00-2.25549E-01-4.90313E+00 2.03781E-13-1.26626E-12
 -1      2152 5.15980E-01-5.67313E+00-2.82436E-01-6.18522E-02-4.42951E-13-1.23851E-12
 -1      2153 2.92024E-01-5.68317E+00-3.05666E-01-1.73642E+00-1.18849E-13-1.22558E-12
 -1      2154 3.83093E+00-6.48439E+00-3.80749E-01 3.30969E+00-7.85871E-13-1.23734E-12
 -1      2155 1.60180E+00-6.74592E+00-4.31470E-01 1.83565E+00-4.66238E-13-1.18405E-12
 -1      2156 1.19058E+01-5.91744E+00-2.66245E-01 5.59746E+00-8.84182E-13-1.27869E-12
 -1      2157 7.84344E+00-6.83814E+00-4.50163E-01 4.44363E+00-6.58584E-13-1.18663E-12
 -1      2158 2.24198E+01-5.27192E+00-1.52554E-01 5.64427E+00-8.14238E-13-9.58789E-13
 -1      2159 1.62384E+01-6.39019E+00-4.39243E-01 5.17129E+00-8.56315E-13-1.11966E-12
 -1      2160 1.73442E+01-6.04243E+00-5.54778E-02 5.81705E+00-1.84075E-13-8.14772E-13
 -1      2161 3.38227E+01-2.30950E+00 9.59862E-02 3.43157E+00-1.04905E-12-9.76552E-13
 -1      2162 2.77883E+01-4.26857E+00-2.34268E-01 3.38833E+00-9.03166E-13-8.32001E-13
 -1      2163 4.57911E+01 5.46082E+00 7.34708E-01 1.83084E-02-1.29996E-12-5.88196E-13
 -1      2164 4.24122E+01 3.69231E+00 3.33302E-01 3.72544E-01-1.29763E-12-6.93778E-13
 -1      2165 4.44615E+01 6.63113E+00 4.90686E-01-4.01490E-01-1.35736E-12-1.69281E-13
 -1      2166 4.44604E+01 6.04708E+00 5.11347E-01-4.25208E-01-1.33138E-12-4.75620E-13
 -1      2167 4.38816E+01 5.20012E+00 4.29958E-01 2.66100E-01-1.33177E-12-1.77636E-14
 -1      2168 4.50511E+01 6.24886E+00 5.18430E-01 6.19627E-01-1.31395E-12-3.20355E-13
 -1      2169 3.98473E+01 1.73159E+00 1.74250E-01-1.09957E+00-1.11708E-12 2.60569E-13
 -1      2170 4.38263E+01 3.48923E+00 5.46174E-01-4.79137E-01-1.22755E-12-4.05231E-14
 -1      2171 3.20135E+01-1.93892E+00-1.71005E-01-3.32212E+00-8.31168E-13 6.87450E-13
 -1      2172 3.76920E+01-9.72402E-02 2.86098E-01-2.93546E+00-9.33670E-13 5.24025E-13
 -1      2173 2.25958E+01-5.07833E+00-3.83355E-01-4.85557E+00-5.93081E-13 8.78186E-13
 -1      2174 2.84248E+01-3.10262E+00 4.53427E-02-5.14869E+00-7.31859E-13 8.42659E-13
 -1      2175 1.29768E+01-7.05197E+00-4.67246E-01-5.21382E+00-3.39728E-13 9.51975E-13
 -1      2176 1.81946E+01-5.52133E+00-1.51572E-01-6.05684E+00-4.59521E-13 1.06118E-12
 -1      2177 4.61366E+00-8.14952E+00-5.73789E-01-3.58419E+00-3.16414E-13 8.79602E-13
 -1      2178 8.15708E+00-6.75518E+00-3.29299E-01-5.03342E+00-4.72289E-13 9.34711E-13
 -1      2179 5.42417E-01-8.03310E+00-4.73990E-01-1.15629E+00-9.35085E-14 1.00103E-12
 -1      2180 2.09917E+00-7.80472E+00-4.37330E-01-2.49044E+00-3.72480E-13 1.02607E-12
 -1      2181 3.69815E+00-6.50230E+00-3.07407E-01 5.19537E+00 4.49085E-13 1.18278E-12
 -1      2182 1.54806E+00-7.89989E+00-4.78525E-01 3.80093E+00 1.65534E-13 9.75720E-13
 -1      2183 1.99997E+01-1.19051E-04-1.56954E-06 1.60846E-04-1.17485E-13 1.73564E-13
 -1      2184 1.44133E+00-5.14989E+00-2.22127E-01-5.01423E-01-1.88460E-14 1.09834E-12
 -1      2185 7.63804E+00-5.29293E+00-1.27130E-01 7.07287E+00-1.57430E-13 1.01286E-12
 -1      2186 2.53538E+01 1.42970E+00-1.08601E-02 5.72166E-01-3.38833E-13 3.06509E-13
 -1      2187 2.35493E+01 1.82781E+00-3.50591E-02 1.00803E+00-3.24973E-13 6.90767E-14
 -1      2188 2.44459E+01-3.43375E+00 6.08181E-02 6.49923E+00 3.49998E-13 1.58762E-14
 -1      2189 3.05166E+01-4.01648E+00-7.97217E-02-4.66645E-01-2.11497E-14 4.09478E-13
 -1      2190 3.21227E+01-2.73982E+00 1.20604E-02-2.35960E+00-6.82232E-14 6.32355E-13
 -1      2191 3.18076E+01-2.02555E+00-1.01690E-01-3.43829E+00-2.75627E-13 5.53411E-13
 -1      2192 3.91276E+01 6.40648E+00 3.60899E-01 5.23563E-01-1.35869E-12-2.72393E-13
 -1      2193 3.36078E+01 4.33820E+00-1.28531E-01 1.85896E+00-1.07975E-12-4.56579E-13
 -1      2194 3.33355E+01-2.59827E+00-3.44341E-02 3.11361E+00-1.12015E-13-9.84185E-13
 -1      2195 3.39356E+01 2.82091E+00-1.81807E-01 3.44262E+00-9.05442E-13-7.25961E-13
 -1      2196 1.58264E+01-5.16939E+00-2.51932E-02 7.88623E+00 2.88658E-15 5.51628E-13
 -1      2197 3.82815E+01 8.89327E+00 3.07496E-01 2.16907E-01 1.18583E-12-3.83575E-13
 -1      2198 1.99997E+01-1.89198E-04-8.13832E-07 2.10567E-04-3.61974E-13 5.03792E-13
 -1      2199 2.14920E+00-5.10288E+00-2.15671E-01 3.72457E+00-6.14786E-14 1.00731E-12
 -1      2200 5.16557E+00-6.02923E+00-2.50734E-01-4.20527E+00-7.82707E-15 9.28257E-13
 -1      2201 1.32587E+01-6.55949E+00-1.53272E-01-5.98947E+00 9.28146E-14 7.74741E-13
 -1      2202 2.32395E+01-6.38832E+00-6.69876E-02-4.96932E+00-2.97540E-14 5.76927E-13
 -1      2203 3.20354E+01-4.12417E+00 1.05548E-01-2.07754E+00-3.47666E-13 1.35336E-13
 -1      2204 3.80580E+01-1.90059E-01 3.06735E-01 9.71228E-01-7.63674E-13-3.01648E-13
 -1      2205 3.97522E+01 4.28598E+00 4.67364E-01 2.26731E+00-1.16857E-12-4.56191E-13
 -1      2206 3.96740E+01 6.07781E+00 4.99338E-01-1.97483E+00-1.29363E-12-1.62148E-13
 -1      2207 2.72924E+01-5.67311E+00-1.26108E-02 3.48502E+00-3.94462E-13-4.32210E-13
 -1      2208 8.26310E+00-5.17815E+00-1.67224E-01 4.98692E+00-2.60791E-13-1.13981E-12
 -1      2209 2.49992E+00-3.71424E+00-1.56650E-01 1.32537E+00-2.18700E-13-1.31362E-12
 -1      2210 2.04116E+00-3.04876E+00-1.19219E-01-3.00383E+00-2.15883E-13-1.36902E-12
 -1      2211 5.59263E+00-3.74451E+00-1.20042E-01-6.39254E+00-1.45217E-13-1.30679E-12
 -1      2212 1.31350E+01-3.97648E+00-3.90756E-02-7.96973E+00 1.89848E-14-1.08820E-12
 -1      2213 2.20419E+01-3.14902E+00 2.92726E-02-7.03837E+00 2.52298E-13-8.34915E-13
 -1      2214 2.93727E+01-5.63034E-01 1.25219E-01-4.70301E+00 5.92193E-13-6.44873E-13
 -1      2215 3.45270E+01 3.21792E+00 2.33154E-01-2.22719E+00 8.83404E-13-5.59386E-13
 -1      2216 3.78901E+01 6.78219E+00 2.26559E-01-8.58655E-01 1.14486E-12-4.96936E-13
 -1      2217 3.45679E+01 7.47067E+00-1.17748E-01 7.19965E-01 1.10001E-12-1.29258E-13
 -1      2218 3.45375E+01 5.89452E+00 4.65556E-02 1.43033E-01 1.04977E-12-1.58012E-13
 -1      2219 3.57350E+01 4.14912E+00 2.50863E-01 1.79356E+00 9.07580E-13-3.68705E-13
 -1      2220 3.81937E+01 7.85062E+00 3.66561E-01 4.77796E-01 1.11106E-12-4.35818E-13
 -1      2221 1.99997E+01-2.38961E-04-4.94195E-07 3.08502E-04-2.35877E-13 3.20228E-13
 -1      2222 3.70861E+01 4.96067E-01 1.24821E-01 6.33366E-02-1.06543E-12-6.25278E-13
 -1      2223 3.57674E+01-1.82133E+00 9.88768E-02-1.64160E+00-6.85382E-13-1.83187E-14
 -1      2224 3.79245E+01 2.24121E+00-1.61394E-01-3.17055E+00-9.87488E-13-1.74860E-14
 -1      2225 4.07319E+01 1.92723E+00 3.12666E-01-1.05100E+00-1.07447E-12-4.03566E-13
 -1      2226 1.55325E+01 3.98041E+00 3.90581E-02-2.89563E+00-2.97609E-13-7.25348E-13
 -1      2227 1.46960E+01 4.26565E+00-3.54242E-02-2.77996E+00-3.25176E-13-7.53349E-13
 -1      2228 1.41905E+01 4.78154E+00 3.09086E-02-2.31698E+00-3.14055E-13-7.77871E-13
 -1      2229 1.39877E+01 4.90506E+00-2.72920E-02-1.94502E+00-3.20272E-13-7.52461E-13
 -1      2230 1.42117E+01 4.21064E+00 2.13606E-02-2.87739E+00-3.32445E-13-7.68533E-13
 -1      2231 1.93121E+01 2.38535E+00 9.48721E-03-1.85347E+00-1.39097E-13-5.58762E-13
 -1      2232 1.84587E+01 2.59422E+00-1.66183E-02-2.26912E+00-1.96729E-13-5.90438E-13
 -1      2233 2.05437E+01 2.10440E+00-7.90179E-03-7.84136E-01-1.49143E-15-4.89128E-13
 -1      2234 2.00004E+01 2.19786E+00-6.04042E-03-1.27109E+00-7.54197E-14-5.14550E-13
 -1      2235 2.00481E+01 1.60674E+00-2.38937E-02-1.71257E+00-1.34312E-13-4.90316E-13
 -1      2236 2.11896E+01 2.09343E+00-1.97584E-02 2.40113E-01 1.25690E-13-4.50313E-13
 -1      2237 2.09311E+01 2.10255E+00-4.50887E-03-2.18449E-01 5.71806E-14-4.73269E-13
 -1      2238 2.11594E+01 1.46689E+00-1.37771E-02-5.25206E-01 1.08932E-14-4.25113E-13
 -1      2239 2.14176E+01 2.18905E+00-2.65788E-02 1.12808E+00 2.54159E-13-3.64899E-13
 -1      2240 2.13499E+01 2.16943E+00-7.76733E-03 7.23011E-01 1.78287E-13-4.11452E-13
 -1      2241 2.16661E+01 1.55455E+00-3.86731E-03 5.23488E-01 1.41417E-13-3.72181E-13
 -1      2242 2.14057E+01 2.23109E+00-3.22828E-02 1.82424E+00 3.79106E-13-2.54777E-13
 -1      2243 2.14351E+01 2.24737E+00-1.27130E-02 1.49282E+00 3.04394E-13-3.16259E-13
 -1      2244 2.17625E+01 1.68087E+00 2.69975E-03 1.34317E+00 2.65732E-13-2.87206E-13
 -1      2245 2.13384E+01 2.07422E+00-4.10067E-02 2.30442E+00 4.85555E-13-9.32431E-14
 -1      2246 2.13761E+01 2.20319E+00-1.61621E-02 2.06430E+00 4.20754E-13-1.75845E-13
 -1      2247 2.16528E+01 1.69337E+00 8.06992E-03 1.90576E+00 3.79127E-13-1.62456E-13
 -1      2248 2.13867E+01 1.56894E+00-3.84651E-02 2.42883E+00 5.14902E-13 2.17186E-13
 -1      2249 2.13448E+01 1.92001E+00-1.05562E-02 2.38990E+00 4.96741E-13 1.58675E-14
 -1      2250 2.14887E+01 1.47084E+00 1.31502E-02 2.17061E+00 4.63811E-13 6.91114E-15
 -1      2251 2.13939E+01 9.35150E-01-2.55092E-02 2.08705E+00 4.63254E-13 5.15041E-13
 -1      2252 2.13833E+01 1.38909E+00 3.64390E-03 2.31767E+00 4.98279E-13 3.45501E-13
 -1      2253 2.12654E+01 1.02814E+00 2.22711E-03 2.05524E+00 4.77713E-13 2.22606E-13
 -1      2254 2.09408E+01 5.88218E-01-5.96377E-03 1.67834E+00 4.39832E-13 4.71660E-13
 -1      2255 2.20698E+01 1.44444E+00 4.14854E-02 2.27199E+00-1.35807E-13-5.08031E-14
 -1      2256 2.23298E+01 7.60055E-01 3.61562E-02 2.75527E+00-2.40502E-14-4.32085E-14
 -1      2257 3.74936E+01 3.71140E+00 7.03339E-02-3.08756E+00-1.12438E-12-3.88578E-14
 -1      2258 2.68928E+01-3.60879E+00-6.56085E-02 5.11592E+00 1.33005E-13-4.42785E-13
 -1      2259 2.29493E+01-4.71616E+00 1.49188E-02 6.29161E+00-6.02296E-14-2.03199E-13
 -1      2260 2.88831E+01-4.80895E+00 1.21725E-01 1.75502E+00 1.10120E-13 1.84033E-13
 -1      2261 3.06135E+01-4.83184E+00-2.13043E-02 3.52418E-01-1.53294E-13 2.27263E-13
 -1      2262 3.42597E+01-1.75068E+00-1.49518E-01-3.29559E+00-5.04430E-13 3.37924E-13
 -1      2263 2.24845E+01-1.29458E-01 8.79245E-02 3.36468E+00 1.11692E-13 8.30586E-15
 -1      2264 2.32663E+01-1.31148E+00 6.69336E-02 3.38450E+00 1.95045E-13 2.48881E-14
 -1      2265 1.97653E+01 5.95367E-01-3.38840E-03 3.33497E+00 4.24938E-14-2.12969E-13
 -1      2266 2.40973E+01-2.52482E+00 1.47772E-01 3.56695E+00 2.57655E-13 6.77479E-14
 -1      2267 2.52529E+01-3.84789E+00 6.03231E-02 3.09160E+00 2.40974E-13 6.52915E-14
 -1      2268 2.03590E+01-2.00686E+00-1.64346E-02 4.42328E+00 2.24251E-13-1.84006E-13
 -1      2269 2.02632E+01 2.14154E-01 3.51413E-03 1.26339E+00 3.26540E-13 4.05363E-13
 -1      2270 2.06652E+01 3.44461E-01 4.64442E-03 1.44574E+00 3.65584E-13 4.57171E-13
 -1      2271 2.08935E+01 5.51254E-01 1.35153E-02 1.68003E+00 3.87541E-13 3.29797E-13
 -1      2272 3.05648E+00-2.24142E+00 1.13150E-01 3.01307E-01 2.39912E-14 9.34697E-13
 -1      2273 3.97260E+00-2.79926E+00 1.03222E-01-2.15928E+00 5.22082E-14 9.87155E-13
 -1      2274 2.47174E+01-3.11025E+00 4.86736E-02-3.40334E+00 4.71720E-13-3.34392E-13
 -1      2275 2.34856E+01-1.76619E+00 1.11999E-01-3.93928E+00 4.48253E-13-2.24220E-13
 -1      2276 2.27233E+01-7.57866E-01 3.01072E-02-3.81099E+00 2.81997E-13-2.27920E-13
 -1      2277 2.20285E+01 1.91543E-02 4.63148E-02-3.81126E+00 2.16243E-13-1.85512E-13
 -1      2278 2.05442E+01-1.42360E+00-2.40650E-02-4.52316E+00 3.64899E-13-5.83561E-15
 -1      2279 2.18899E+01 4.38077E-01 1.89083E-02-3.50139E+00 2.29030E-13-1.85648E-13
 -1      2280 2.14523E+01 7.24782E-01 4.27305E-03-3.28049E+00 2.36836E-13-1.61178E-13
 -1      2281 2.00109E+01 2.98143E-01-2.38655E-03-3.95321E+00 2.13111E-13 5.04718E-14
 -1      2282 2.15268E+01 8.56770E-01 1.88181E-02-2.90568E+00 2.06559E-13-2.35310E-13
 -1      2283 2.11921E+01 8.88893E-01-7.06569E-03-2.60271E+00 9.15778E-14-1.31290E-13
 -1      2284 2.00508E+01 1.03596E+00 1.27953E-02-3.21626E+00 2.29793E-13-1.33587E-13
 -1      2285 2.12898E+01 8.60730E-01 1.66950E-02-2.26990E+00 4.92141E-14-1.26697E-13
 -1      2286 2.10239E+01 7.92156E-01-7.87314E-03-1.98164E+00 7.67780E-14-5.50268E-14
 -1      2287 2.02292E+01 1.13221E+00 1.25120E-02-2.51615E+00 9.75734E-14-1.45877E-13
 -1      2288 2.10861E+01 7.14999E-01 1.51369E-02-1.70864E+00 1.13122E-13-1.58633E-13
 -1      2289 2.08677E+01 6.24065E-01-6.08149E-03-1.46955E+00 4.66224E-14-4.21343E-14
 -1      2290 2.03566E+01 9.77675E-01 9.90407E-03-1.91796E+00 8.36848E-14-2.03955E-13
 -1      2291 2.08915E+01 5.45048E-01 1.27983E-02-1.25641E+00-1.00813E-13 1.13760E-14
 -1      2292 2.07143E+01 4.62989E-01-4.13999E-03-1.07174E+00-1.45617E-13 7.72558E-14
 -1      2293 2.04058E+01 7.62210E-01 6.74388E-03-1.43387E+00 4.04286E-14-1.50675E-13
 -1      2294 2.07113E+01 3.97757E-01 1.01838E-02-9.10558E-01-1.94644E-13 5.43223E-14
 -1      2295 2.05708E+01 3.33000E-01-2.66212E-03-7.73484E-01-1.88028E-13 3.35911E-14
 -1      2296 2.03957E+01 5.64034E-01 4.04009E-03-1.05698E+00-1.89194E-13-2.34908E-14
 -1      2297 2.05534E+01 2.83831E-01 7.77311E-03-6.54125E-01-2.08694E-13 6.61605E-14
 -1      2298 2.04450E+01 2.36088E-01-1.44735E-03-5.54658E-01-1.03825E-13-6.64149E-14
 -1      2299 2.03523E+01 4.05913E-01 2.08589E-03-7.71468E-01-1.74147E-13 8.17301E-14
 -1      2300 2.04236E+01 2.02534E-01 5.86208E-03-4.71510E-01 8.60705E-15-1.65737E-13
 -1      2301 2.03436E+01 1.69113E-01-8.48607E-04-4.02768E-01 8.60906E-14-2.52957E-13
 -1      2302 2.02967E+01 2.89932E-01 6.17696E-04-5.63263E-01-1.38258E-13 2.87159E-15
 -1      2303 2.03192E+01 1.43337E-01 4.23700E-03-3.38181E-01-8.01854E-15-3.51170E-13
 -1      2304 2.02561E+01 1.18699E-01-5.47589E-04-2.86372E-01-1.33746E-13-4.51312E-13
 -1      2305 2.02404E+01 2.06949E-01 2.59819E-04-4.09770E-01-7.30607E-14-3.28023E-13
 -1      2306 2.02343E+01 1.00833E-01 3.08813E-03-2.39736E-01-9.64972E-14-3.80240E-13
 -1      2307 2.01874E+01 8.34825E-02-2.95439E-04-2.02789E-01-1.03665E-13-2.98114E-13
 -1      2308 2.01872E+01 1.45783E-01-1.06637E-04-2.93988E-01-9.42694E-14-2.74247E-13
 -1      2309 2.01688E+01 7.10195E-02 2.22379E-03-1.69100E-01-6.64756E-14-1.88726E-13
 -1      2310 2.01344E+01 5.88356E-02-1.43423E-04-1.42766E-01-1.76690E-14-1.05993E-13
 -1      2311 2.01418E+01 1.02787E-01-2.71828E-04-2.09764E-01-3.66886E-14-9.16623E-14
 -1      2312 2.01192E+01 5.01112E-02 1.59590E-03-1.18449E-01 2.07375E-15-1.16252E-13
 -1      2313 2.00942E+01 4.15275E-02-5.77238E-05-9.96722E-02 4.82867E-14-8.55966E-14
 -1      2314 2.01047E+01 7.25855E-02-3.22593E-04-1.48620E-01-3.41660E-14 4.52107E-14
 -1      2315 2.00823E+01 3.53881E-02 1.14336E-03-8.21417E-02 1.65758E-13-1.27818E-13
 -1      2316 2.00643E+01 2.93108E-02-1.09512E-05-6.87615E-02 1.39812E-13-2.58724E-14
 -1      2317 2.00754E+01 5.13069E-02-3.14372E-04-1.04308E-01 1.25647E-13 1.14665E-14
 -1      2318 2.00551E+01 2.49494E-02 8.13876E-04-5.61544E-02 1.07385E-13-1.70151E-14
 -1      2319 2.00424E+01 2.06598E-02 2.91749E-05-4.66523E-02 1.54065E-13-5.57784E-14
 -1      2320 2.00529E+01 3.62453E-02-2.78940E-04-7.22691E-02 1.77474E-13-1.07296E-14
 -1      2321 2.00359E+01 1.77250E-02 5.87893E-04-3.80404E-02 1.65786E-13-8.17619E-14
 -1      2322 2.00274E+01 1.47302E-02 3.41005E-05-3.15701E-02 2.13242E-13 2.45442E-14
 -1      2323 2.00363E+01 2.56471E-02-2.68175E-04-4.96202E-02 1.92256E-13-3.23707E-15
 -1      2324 2.00223E+01 1.24339E-02 4.14833E-04-2.50292E-02 2.59263E-13-5.10177E-14
 -1      2325 2.00161E+01 1.01932E-02 2.38013E-05-2.02267E-02 1.04312E-13-1.39112E-13
 -1      2326 2.00240E+01 1.81840E-02-1.90105E-04-3.33683E-02 1.86087E-13-8.70745E-14
 -1      2327 2.00124E+01 8.57768E-03 2.96277E-04-1.56377E-02 1.26945E-13-2.17246E-13
 -1      2328 2.00083E+01 6.95653E-03 2.09042E-05-1.23069E-02 6.69346E-14-1.87505E-13
 -1      2329 2.00148E+01 1.25822E-02-1.51343E-04-2.14362E-02 3.40260E-14-5.54334E-13
 -1      2330 2.00058E+01 5.80300E-03 2.06294E-04-9.12830E-03-1.93564E-13-2.42568E-13
 -1      2331 2.00032E+01 4.64312E-03 1.79392E-05-6.86148E-03-1.38163E-13-3.02194E-13
 -1      2332 2.00084E+01 8.57061E-03-1.17065E-04-1.30685E-02-1.20690E-13-4.87251E-13
 -1      2333 2.00015E+01 3.82232E-03 1.41142E-04-4.70521E-03-2.52027E-13-4.35016E-13
 -1      2334 1.99999E+01 2.99846E-03 1.45845E-05-3.20202E-03-3.39284E-13-5.00738E-13
 -1      2335 2.00040E+01 5.70176E-03-8.86541E-05-7.29949E-03-3.18571E-13-5.69140E-13
 -1      2336 1.99988E+01 2.41981E-03 9.42745E-05-1.78181E-03-2.29528E-13-4.32263E-13
 -1      2337 1.99979E+01 1.84178E-03 1.16477E-05-8.22041E-04-1.55652E-13-2.67161E-13
 -1      2338 2.00011E+01 3.66392E-03-6.58341E-05-3.41486E-03-2.05490E-13-5.55143E-13
 -1      2339 1.99973E+01 1.43735E-03 6.01894E-05 7.46051E-05-5.96774E-14-1.78499E-13
 -1      2340 1.99969E+01 1.04353E-03 1.01530E-05 6.51159E-04-7.99264E-14-8.00821E-14
 -1      2341 1.99993E+01 2.23375E-03-4.77404E-05-8.84498E-04-5.14968E-14-3.29203E-13
 -1      2342 1.99965E+01 7.81397E-04 3.68551E-05 1.15940E-03-5.94944E-15-1.46989E-13
 -1      2343 1.99965E+01 5.24035E-04 7.84236E-06 1.46451E-03 3.03360E-15-1.24787E-13
 -1      2344 1.99983E+01 1.25464E-03-3.65472E-05 6.60624E-04-7.10955E-14-2.40889E-13
 -1      2345 1.99963E+01 3.33999E-04 2.10228E-05 1.75375E-03-8.08727E-14-1.70967E-13
 -1      2346 1.99964E+01 1.57767E-04 4.97102E-06 1.89934E-03 1.34178E-13-2.24430E-13
 -1      2347 1.99978E+01 6.05709E-04-2.40038E-05 1.55238E-03 2.99194E-14-3.37687E-13
 -1      2348 1.99964E+01 4.09849E-05 1.04227E-05 2.01518E-03 1.35591E-13-3.74038E-13
 -1      2349 1.99966E+01-6.94698E-05 3.40934E-06 2.04436E-03 1.29357E-13-3.72232E-13
 -1      2350 1.99976E+01 1.60345E-04-1.63626E-05 2.01505E-03 8.47483E-14-2.72602E-13
 -1      2351 1.99967E+01-1.38123E-04 3.04630E-06 2.05033E-03 3.09653E-13-3.66985E-13
 -1      2352 1.99969E+01-2.00858E-04 2.38559E-06 2.00782E-03 1.10904E-13-3.53647E-13
 -1      2353 1.99976E+01-1.15276E-04-1.06574E-05 2.17080E-03 1.77483E-13-2.10197E-13
 -1      2354 1.99970E+01-2.36542E-04-1.57202E-06 1.94772E-03-5.75200E-14-3.26589E-13
 -1      2355 1.99973E+01-2.66781E-04 1.62952E-06 1.86499E-03-6.06887E-14-3.57119E-13
 -1      2356 1.99978E+01-2.72867E-04-6.54682E-06 2.13329E-03 6.77131E-14-4.60336E-13
 -1      2357 1.99974E+01-2.80537E-04-4.25006E-06 1.76912E-03-2.98359E-13-3.06951E-13
 -1      2358 1.99977E+01-2.89530E-04 1.08521E-06 1.66745E-03-4.34987E-13-3.17057E-13
 -1      2359 1.99980E+01-3.49970E-04-3.66058E-06 1.98246E-03-1.57955E-13-4.13534E-13
 -1      2360 1.99979E+01-2.89641E-04-5.62584E-06 1.55615E-03-2.53083E-13-5.67206E-14
 -1      2361 1.99981E+01-2.85556E-04 5.08017E-07 1.44916E-03 9.94228E-14 9.18139E-14
 -1      2362 1.99983E+01-3.74323E-04-1.68014E-06 1.77311E-03-1.34107E-13-2.10482E-13
 -1      2363 1.99982E+01-2.78975E-04-6.25987E-06 1.34117E-03 3.35287E-13 2.44606E-13
 -1      2364 1.99985E+01-2.68275E-04 1.99777E-07 1.24191E-03 4.02209E-13 3.29703E-13
 -1      2365 1.99986E+01-3.67164E-04-1.08901E-07 1.54696E-03 2.68029E-13-8.45245E-14
 -1      2366 1.99986E+01-2.57518E-04-5.92278E-06 1.13215E-03 1.75667E-13 2.30276E-13
 -1      2367 1.99988E+01-2.44858E-04-1.20562E-07 1.03474E-03 6.36379E-14 1.55864E-13
 -1      2368 1.99988E+01-3.43835E-04 3.56331E-07 1.32060E-03 2.33055E-13-1.00707E-13
 -1      2369 1.99989E+01-2.33847E-04-5.44655E-06 9.32659E-04 9.19188E-14 2.27199E-13
 -1      2370 1.99990E+01-2.22651E-04-5.13092E-07 8.43103E-04 4.88715E-14 2.67731E-13
 -1      2371 1.99990E+01-3.14051E-04 8.37626E-07 1.09920E-03 5.79077E-14 4.23244E-14
 -1      2372 1.99991E+01-2.14478E-04-4.74998E-06 7.49089E-04 1.92956E-13 3.44871E-13
 -1      2373 1.99993E+01-2.07367E-04-1.04546E-06 6.66159E-04 1.40259E-13 3.51019E-13
 -1      2374 1.99992E+01-2.87229E-04 1.04990E-06 8.93598E-04 1.09629E-13 9.95762E-14
 -1      2375 1.99994E+01-2.03348E-04-4.11121E-06 5.77927E-04-1.14414E-13 4.59483E-13
 -1      2376 1.99995E+01-2.01979E-04-2.54785E-06 5.00185E-04-8.19244E-14 4.90709E-13
 -1      2377 1.99994E+01-2.69699E-04 1.18275E-06 7.02978E-04 1.01540E-13 1.36561E-13
 -1      2378 1.99995E+01-2.22202E-04-3.48236E-06 4.44807E-04-1.43509E-13 4.17629E-13
 -1      2379 1.99996E+01-2.23627E-04-3.03226E-06 3.67277E-04-1.04866E-13 4.01662E-13
 -1      2380 1.99997E+01-3.21174E-04 2.50186E-06 4.24203E-04-1.93489E-13-1.49919E-13
 -1      2381 1.99996E+01-2.81640E-04 2.78474E-06 5.49712E-04-3.04320E-13 3.00129E-13
 -1      2382 1.94439E+01 1.65744E-01 7.69470E-03 1.02370E+00 2.36216E-13 2.47697E-13
 -1      2383 1.97162E+01 1.41247E-01 7.63728E-03 1.10345E+00 2.70851E-13 2.90104E-13
 -1      2384 1.98129E+01 1.33578E-01 7.35741E-03 1.13080E+00 2.90730E-13 3.16017E-13
 -1      2385 2.01396E+01 1.67441E-01 9.69366E-03 1.22371E+00 2.96121E-13 3.77905E-13
 -1      2386 2.04451E+01 2.32562E-01-3.83548E-03 1.40770E+00 3.18949E-13 2.69614E-13
 -1      2387 2.02114E+01 1.97994E-01-4.41225E-03 1.32194E+00 3.11630E-13 1.98500E-13
 -1      2388 1.87039E+01 3.91950E-01 1.11937E-02 4.62884E-01 1.69830E-13 1.06179E-13
 -1      2389 1.88369E+01 3.34684E-01 4.42399E-03 6.26562E-01 1.78500E-13 1.50310E-13
 -1      2390 1.85565E+01 4.55195E-01 9.46445E-03 3.50566E-02 1.32665E-13 9.92788E-15
 -1      2391 1.85979E+01 4.34003E-01 6.68311E-03 2.32608E-01 1.49998E-13 5.01712E-14
 -1      2392 1.92352E+01 5.69123E-01-8.51510E-03 4.32719E-01 2.06307E-13 9.18401E-16
 -1      2393 1.85979E+01 4.22320E-01 5.74693E-03-4.09311E-01 1.23466E-13-1.07675E-14
 -1      2394 1.85444E+01 4.52263E-01 9.30830E-03-2.16112E-01 1.14431E-13-7.69694E-15
 -1      2395 1.91182E+01 6.21690E-01-9.39366E-03-8.80858E-02 1.37549E-13-7.14064E-14
 -1      2396 1.88106E+01 2.98220E-01 1.61799E-03-7.73983E-01 7.10621E-14-4.97627E-15
 -1      2397 1.86759E+01 3.70875E-01 1.01996E-02-6.26461E-01 1.11661E-13 1.31033E-14
 -1      2398 1.91820E+01 5.43728E-01-7.41551E-03-5.94203E-01 9.87053E-14-6.05472E-14
 -1      2399 1.91367E+01 1.25705E-01-1.37144E-03-9.87046E-01 6.88360E-14-1.51890E-14
 -1      2400 1.89486E+01 2.15830E-01 8.39173E-03-9.11369E-01 7.87142E-14-2.49941E-14
 -1      2401 1.93934E+01 3.54890E-01-3.42817E-03-9.75067E-01 8.73989E-14-5.73714E-14
 -1      2402 1.94994E+01-4.03494E-02-2.66726E-03-1.02810E+00 7.99328E-14-6.40323E-14
 -1      2403 1.92921E+01 3.97607E-02 4.45306E-03-1.02696E+00 9.72877E-14-3.36953E-14
 -1      2404 1.96806E+01 1.17902E-01 6.32185E-04-1.16268E+00 1.17163E-13-9.09482E-14
 -1      2405 1.98315E+01-1.59666E-01-2.62434E-03-9.26242E-01 1.79521E-13-1.36334E-13
 -1      2406 1.96359E+01-1.06986E-01-1.09344E-04-9.82875E-01 1.43439E-13-8.93432E-14
 -1      2407 1.99666E+01-9.68213E-02 3.15444E-03-1.15391E+00 1.30848E-13-1.43396E-13
 -1      2408 2.00923E+01-2.18081E-01-1.90144E-03-7.37437E-01 5.06984E-14-7.46759E-14
 -1      2409 1.99294E+01-1.96637E-01-3.81896E-03-8.26287E-01 1.30468E-13-9.06593E-14
 -1      2410 2.01968E+01-2.42241E-01 3.86663E-03-9.97419E-01 1.33479E-13-9.45005E-14
 -1      2411 2.02688E+01-2.23326E-01-1.07149E-03-5.19240E-01 6.50339E-14-1.63853E-13
 -1      2412 2.01483E+01-2.27006E-01-5.93760E-03-6.16121E-01 6.60821E-14-1.02086E-13
 -1      2413 2.03494E+01-3.05888E-01 3.34253E-03-7.62673E-01 7.44938E-14-1.53843E-13
 -1      2414 2.03675E+01-1.93754E-01-4.25488E-04-3.14826E-01 4.13857E-14-1.62852E-13
 -1      2415 2.02897E+01-2.12538E-01-6.48040E-03-4.02606E-01 8.27160E-14-1.55640E-13
 -1      2416 2.04276E+01-3.01803E-01 2.32118E-03-5.12640E-01 7.44613E-14-1.97548E-13
 -1      2417 2.04046E+01-1.48298E-01-1.47321E-05-1.48288E-01 3.54437E-14-1.73958E-13
 -1      2418 2.03636E+01-1.72896E-01-5.88552E-03-2.18051E-01-7.10998E-15-1.71488E-13
 -1      2419 2.04475E+01-2.55509E-01 1.33707E-03-2.89980E-01 5.93438E-15-2.10746E-13
 -1      2420 2.03984E+01-1.01067E-01 2.01411E-04-2.74798E-02-1.18750E-14-1.27362E-13
 -1      2421 2.03857E+01-1.25050E-01-4.69547E-03-7.69265E-02 5.41285E-14-1.01808E-13
 -1      2422 2.04282E+01-1.91689E-01 6.00433E-04-1.15516E-01 2.35387E-14-1.82381E-13
 -1      2423 2.03652E+01-6.01746E-02 2.92579E-04 5.03012E-02-3.29131E-14-1.05297E-13
 -1      2424 2.03720E+01-8.01353E-02-3.34830E-03 1.93397E-02-2.72096E-14-8.95417E-14
 -1      2425 2.03863E+01-1.27986E-01 1.19698E-04 6.54261E-03-2.77885E-14-3.48924E-14
 -1      2426 2.03179E+01-2.88749E-02 3.14612E-04 9.30090E-02 6.78266E-15-8.15015E-14
 -1      2427 2.03364E+01-4.36836E-02-2.11561E-03 7.67664E-02-5.91253E-15-7.67419E-14
 -1      2428 2.03337E+01-7.41089E-02-1.60633E-04 8.18418E-02-4.30222E-14-4.70610E-14
 -1      2429 2.02656E+01-7.29583E-03 3.03085E-04 1.10068E-01-1.93699E-14-9.65594E-14
 -1      2430 2.02898E+01-1.71990E-02-1.12701E-03 1.04366E-01 1.36203E-14-6.20437E-14
 -1      2431 2.02787E+01-3.35898E-02-3.06412E-04 1.20359E-01 2.75439E-14-1.66118E-14
 -1      2432 2.02142E+01 6.02890E-03 2.77350E-04 1.10180E-01 1.33449E-13-1.54663E-13
 -1      2433 2.02400E+01 1.40205E-04-4.12618E-04 1.11281E-01 3.05628E-14-1.35198E-13
 -1      2434 2.02262E+01-6.11487E-03-3.69905E-04 1.32749E-01 6.10478E-14-7.21013E-14
 -1      2435 2.01674E+01 1.31021E-02 2.46829E-04 1.00359E-01 9.66397E-14-1.36155E-13
 -1      2436 2.01919E+01 1.01696E-02 5.38651E-05 1.05317E-01 1.29468E-13-1.27958E-13
 -1      2437 2.01790E+01 1.05114E-02-3.85112E-04 1.28385E-01 1.19578E-13-1.26374E-13
 -1      2438 2.01268E+01 1.58616E-02 2.15665E-04 8.57230E-02-5.85819E-14-2.12284E-13
 -1      2439 2.01486E+01 1.49164E-02 3.22816E-04 9.24286E-02 4.72293E-14-1.48960E-13
 -1      2440 2.01382E+01 1.90448E-02-3.72419E-04 1.14591E-01 6.98062E-14-1.25804E-13
 -1      2441 2.00931E+01 1.59089E-02 1.85517E-04 6.96915E-02-1.38341E-13-2.99340E-13
 -1      2442 2.01115E+01 1.61761E-02 4.48639E-04 7.67650E-02-1.59940E-13-2.51445E-13
 -1      2443 2.01041E+01 2.20698E-02-3.44032E-04 9.65951E-02-6.15693E-14-1.66984E-13
 -1      2444 2.00660E+01 1.44381E-02 1.57142E-04 5.43407E-02-1.74725E-13-1.77630E-13
 -1      2445 2.00809E+01 1.53541E-02 4.79469E-04 6.09670E-02-1.59490E-13-3.07535E-13
 -1      2446 2.00764E+01 2.16845E-02-3.07370E-04 7.78146E-02-1.27433E-13-2.94197E-13
 -1      2447 2.00449E+01 1.22700E-02 1.31011E-04 4.07724E-02-1.07490E-13-7.56200E-14
 -1      2448 2.00565E+01 1.34558E-02 4.53195E-04 4.65384E-02-1.27295E-13-1.05773E-13
 -1      2449 2.00544E+01 1.94342E-02-2.67103E-04 6.02718E-02-1.71489E-13-3.17112E-13
 -1      2450 2.00289E+01 9.92624E-03 1.07447E-04 2.94336E-02-2.78151E-14-1.16541E-13
 -1      2451 2.00376E+01 1.11469E-02 3.97171E-04 3.41914E-02-1.05243E-13-1.12385E-13
 -1      2452 2.00374E+01 1.63690E-02-2.26442E-04 4.49935E-02-9.08943E-14-3.21280E-13
 -1      2453 2.00172E+01 7.70882E-03 8.66361E-05 2.03651E-02 1.42244E-13 2.77694E-14
 -1      2454 2.00235E+01 8.83289E-03 3.29710E-04 2.41275E-02 3.77087E-14-5.50788E-14
 -1      2455 2.00246E+01 1.31483E-02-1.87634E-04 3.23479E-02-2.37626E-14-2.46230E-13
 -1      2456 2.00089E+01 5.76915E-03 6.86415E-05 1.33802E-02 4.04956E-14 3.05941E-13
 -1      2457 2.00133E+01 6.73480E-03 2.62124E-04 1.62466E-02 1.24721E-13 2.43767E-13
 -1      2458 2.00151E+01 1.01474E-02-1.52132E-04 2.23010E-02-2.34363E-14-3.33926E-14
 -1      2459 2.00032E+01 4.16227E-03 5.34038E-05 8.18573E-03 1.51128E-13 2.56014E-13
 -1      2460 2.00061E+01 4.95134E-03 2.00675E-04 1.02933E-02 2.03907E-13 3.46345E-13
 -1      2461 2.00084E+01 7.54829E-03-1.20754E-04 1.45992E-02 1.02461E-13 8.03314E-14
 -1      2462 1.99995E+01 2.88619E-03 4.07619E-05 4.45737E-03-5.27012E-14 1.53866E-13
 -1      2463 2.00014E+01 3.50564E-03 1.48227E-04 5.95099E-03-6.67860E-14 2.61354E-13
 -1      2464 2.00037E+01 5.41104E-03-9.38376E-05 8.89198E-03 5.78269E-14 1.43379E-13
 -1      2465 1.99973E+01 1.90863E-03 3.04849E-05 1.88423E-03-7.48024E-14 3.40303E-14
 -1      2466 1.99983E+01 2.37817E-03 1.05512E-04 2.89930E-03-1.39827E-15 1.67803E-13
 -1      2467 2.00006E+01 3.72411E-03-7.13504E-05 4.80728E-03-1.64123E-14 1.73005E-13
 -1      2468 1.99961E+01 1.18439E-03 2.23001E-05 1.91061E-04 1.36751E-14 8.96690E-14
 -1      2469 1.99966E+01 1.52858E-03 7.20274E-05 8.45445E-04-1.23440E-13-1.78787E-14
 -1      2470 1.99986E+01 2.43897E-03-5.30081E-05 1.99527E-03-5.98365E-14 9.16739E-14
 -1      2471 1.99956E+01 6.65728E-04 1.59138E-05-8.53016E-04 1.73590E-13 1.33233E-13
 -1      2472 1.99957E+01 9.09374E-04 4.66545E-05-4.61735E-04 6.74241E-14 1.29949E-13
 -1      2473 1.99975E+01 1.49213E-03-3.83868E-05 1.49611E-04-1.74615E-14 2.68341E-13
 -1      2474 1.99956E+01 3.07945E-04 1.10322E-05-1.43397E-03-1.79759E-14 4.74512E-13
 -1      2475 1.99954E+01 4.73706E-04 2.80486E-05-1.22807E-03 2.51831E-13 3.32818E-13
 -1      2476 1.99970E+01 8.18105E-04-2.69938E-05-9.84990E-04 4.48354E-14 2.15720E-13
 -1      2477 1.99958E+01 7.20860E-05 7.37969E-06-1.69655E-03-2.89837E-13 2.07508E-13
 -1      2478 1.99956E+01 1.79390E-04 1.48662E-05-1.61618E-03-1.87053E-13 3.66809E-13
 -1      2479 1.99969E+01 3.56441E-04-1.83128E-05-1.61325E-03 3.79734E-14 3.01665E-13
 -1      2480 1.99963E+01-7.41834E-05 4.70795E-06-1.75004E-03 1.23407E-14 4.89034E-14
 -1      2481 1.99959E+01-9.40908E-06 5.88497E-06-1.75047E-03-2.17269E-13 3.76925E-14
 -1      2482 1.99970E+01 5.48990E-05-1.18475E-05-1.89403E-03-5.71785E-14-1.45081E-14
 -1      2483 1.99967E+01-1.56732E-04 2.79781E-06-1.67444E-03-9.63917E-14 9.49427E-14
 -1      2484 1.99964E+01-1.21865E-04 5.79796E-08-1.72327E-03 3.84504E-14 5.18119E-14
 -1      2485 1.99972E+01-1.29610E-04-7.14961E-06-1.94696E-03 4.41631E-16-1.25941E-14
 -1      2486 1.99973E+01-1.95694E-04 1.45851E-06-1.52644E-03 9.98424E-14 8.01192E-14
 -1      2487 1.99969E+01-1.80984E-04-3.47177E-06-1.60103E-03-5.13664E-14 1.04687E-13
 -1      2488 1.99976E+01-2.31404E-04-3.82966E-06-1.85950E-03-1.05516E-13-1.07057E-13
 -1      2489 1.99977E+01-2.06422E-04 5.25597E-07-1.34459E-03 3.15612E-13 2.84157E-13
 -1      2490 1.99974E+01-2.04477E-04-5.38212E-06-1.42982E-03 2.18014E-13 1.86585E-13
 -1      2491 1.99979E+01-2.77104E-04-1.55951E-06-1.69345E-03 1.74674E-13-3.70388E-14
 -1      2492 1.99982E+01-2.00474E-04-1.39748E-07-1.15358E-03 4.01891E-13 3.17999E-13
 -1      2493 1.99979E+01-2.05749E-04-6.19292E-06-1.24006E-03 4.57124E-13 3.67205E-13
 -1      2494 1.99982E+01-2.86971E-04-6.98389E-08-1.49073E-03 2.92817E-13 2.26625E-13
 -1      2495 1.99986E+01-1.86559E-04-6.54825E-07-9.67690E-04 2.13998E-13 2.64191E-13
 -1      2496 1.99983E+01-1.94866E-04-6.29002E-06-1.05033E-03 4.61436E-13 3.88829E-13
 -1      2497 1.99986E+01-2.76237E-04 8.54347E-07-1.27805E-03 4.55015E-13 2.55241E-13
 -1      2498 1.99989E+01-1.71345E-04-1.09674E-06-7.93323E-04 4.72886E-15 2.94684E-13
 -1      2499 1.99987E+01-1.79479E-04-5.94209E-06-8.70325E-04-1.25079E-13 2.28592E-13
 -1      2500 1.99988E+01-2.56436E-04 1.36662E-06-1.07073E-03 4.98357E-14 2.25939E-13
 -1      2501 1.99992E+01-1.59967E-04-1.55436E-06-6.31105E-04 5.94465E-14 1.30520E-13
 -1      2502 1.99990E+01-1.65494E-04-5.35264E-06-7.03104E-04 1.67713E-13 3.53693E-13
 -1      2503 1.99991E+01-2.36224E-04 1.59370E-06-8.75559E-04 1.30249E-13 4.38335E-13
 -1      2504 1.99994E+01-1.55433E-04-1.76560E-06-4.77390E-04-2.78442E-14 2.16999E-13
 -1      2505 1.99993E+01-1.57435E-04-4.64313E-06-5.46775E-04-4.23967E-14 1.95843E-13
 -1      2506 1.99993E+01-2.21853E-04 1.77155E-06-6.93844E-04 1.38345E-14 2.10083E-13
 -1      2507 1.99996E+01-1.57689E-04-2.00611E-06-3.29292E-04-3.47423E-13 3.30593E-13
 -1      2508 1.99995E+01-1.55973E-04-3.80022E-06-3.97334E-04-2.07214E-13 2.06492E-13
 -1      2509 1.99995E+01-2.15533E-04 2.42884E-06-5.21503E-04-1.25818E-13 3.14117E-13
 -1      2510 1.99996E+01-1.54921E-04-2.52189E-06-2.46784E-04-2.19189E-13 2.75836E-13
 -1      2511 1.99999E+01-8.09764E-04 3.47750E-06-4.10998E-04-1.03244E-13 8.64437E-14
 -1      2512 1.99999E+01-7.36851E-04-6.66411E-07-4.48087E-04-2.18188E-13-3.40421E-13
 -1      2513 2.00000E+01-9.28698E-04 3.60950E-06-2.90441E-04 3.96358E-15 3.35846E-13
 -1      2514 2.00000E+01-8.75160E-04 5.48460E-07-3.51003E-04-1.51882E-13 3.68379E-13
 -1      2515 2.00000E+01-8.36304E-04-2.21222E-06-4.38075E-04-7.84204E-14 1.49113E-13
 -1      2516 1.99998E+01-4.82119E-04 2.31972E-06-4.77328E-04-3.19872E-13-2.84786E-13
 -1      2517 1.99997E+01-3.96683E-04-3.00235E-06-4.55362E-04-2.40015E-13-1.52937E-13
 -1      2518 1.99998E+01-6.55281E-04 2.95731E-06-4.77018E-04-4.66872E-13-3.40845E-13
 -1      2519 1.99998E+01-5.72763E-04-1.90607E-06-4.84935E-04-5.04170E-13-5.56401E-14
 -1      2520 1.99998E+01-5.28567E-04-1.83597E-06-5.59507E-04-1.23396E-13-3.07103E-13
 -1      2521 1.99999E+01-6.94858E-04-1.90249E-06-5.33921E-04-2.31889E-13-6.23790E-14
 -1      2522 2.00000E+01-9.99099E-04 3.35103E-06-1.32909E-04-1.33345E-13 3.92927E-13
 -1      2523 2.00000E+01-9.70748E-04 1.73584E-06-2.08442E-04-1.43358E-13 3.76854E-13
 -1      2524 2.00000E+01-9.39804E-04-2.88305E-06-2.86340E-04-2.82765E-13 2.36054E-13
 -1      2525 2.00000E+01-1.01355E-03 2.72884E-06 4.13043E-05-2.86128E-14 2.68092E-13
 -1      2526 2.00000E+01-1.01365E-03 2.70606E-06-3.93367E-05-4.86865E-14 3.75116E-13
 -1      2527 2.00001E+01-9.94332E-04-3.18945E-06-9.88749E-05-4.65639E-14 4.87120E-13
 -1      2528 2.00000E+01-9.70628E-04 1.80698E-06 2.10394E-04-6.53496E-14-2.75003E-13
 -1      2529 2.00000E+01-9.99277E-04 3.32102E-06 1.34908E-04-3.33330E-14 1.09409E-13
 -1      2530 2.00001E+01-9.94601E-04-3.18539E-06 1.00833E-04 1.19762E-13 1.89866E-13
 -1      2531 2.00000E+01-8.77073E-04 5.56327E-07 3.50886E-04 7.40232E-14-4.61326E-13
 -1      2532 2.00000E+01-9.29642E-04 3.60445E-06 2.91207E-04 5.41875E-14-5.34265E-13
 -1      2533 2.00000E+01-9.41249E-04-2.93786E-06 2.86995E-04 1.59133E-13-3.25929E-13
 -1      2534 1.99999E+01-7.39210E-04-7.80959E-07 4.48302E-04 1.87162E-13 3.69231E-13
 -1      2535 1.99999E+01-8.11680E-04 3.50856E-06 4.11111E-04 1.14485E-13-9.35819E-14
 -1      2536 2.00000E+01-8.39029E-04-2.36165E-06 4.38067E-04 4.03777E-13-2.28095E-13
 -1      2537 1.99998E+01-5.72083E-04-1.58322E-06 4.84752E-04-3.30737E-14-1.48956E-13
 -1      2538 1.99998E+01-6.56283E-04 2.98405E-06 4.77872E-04 9.68004E-14 2.14276E-13
 -1      2539 1.99999E+01-6.96474E-04-1.44646E-06 5.34702E-04 2.74528E-13 9.19026E-14
 -1      2540 1.99997E+01-4.05346E-04-2.34720E-06 4.55293E-04-2.52775E-13-2.54158E-13
 -1      2541 1.99998E+01-4.91812E-04 2.24280E-06 4.80742E-04-1.16312E-13-2.37894E-13
 -1      2542 1.99998E+01-5.40036E-04-1.57326E-06 5.61701E-04-1.98181E-13-2.73366E-13
 -1      2543 1.99997E+01-3.85962E-04-2.41661E-06 5.24758E-04-1.35776E-13-3.25487E-13
 -1      2544 3.37738E+01 8.32430E+00-1.94759E-01 2.40034E-01 1.12954E-12-2.19214E-13
 -1      2545 3.46614E+01 8.39858E+00-9.18867E-02-4.40666E-03 1.14697E-12-3.20730E-13
 -1      2546 1.91561E+01-4.98420E+00-2.06819E-02 7.76785E+00-2.09499E-13 5.54348E-14
 -1      2547 1.55166E+01-4.86058E+00 1.06294E-01 7.82531E+00-3.91326E-13 3.86510E-13
 -1      2548 2.13094E+01 2.89814E+00 1.07884E-02 6.14229E-01-3.24067E-13-1.69025E-13
 -1      2549 2.18079E+01 2.03010E+00 1.79628E-02 1.61481E+00-2.48414E-13-9.51405E-14
 -1      2550 1.95711E+01 2.30797E+00-1.19501E-02 1.93112E+00-1.76336E-13-2.57572E-13
 -1      2551 1.92489E+01 3.54274E+00-2.86556E-02 5.48638E-01-3.09159E-13-3.34722E-13
 -1      2552 1.05654E+01-4.06813E+00 1.02536E-02 7.75565E+00-4.18721E-13 7.79043E-13
 -1      2553 7.08177E+00-3.87931E+00 7.81863E-02 6.40136E+00-3.80834E-13 9.72111E-13
 -1      2554 1.16835E+01-3.91709E+00 3.92432E-03 5.71289E+00-1.70974E-14-8.92592E-13
 -1      2555 7.71586E+00-3.21314E+00 5.72092E-02 4.32757E+00-3.78031E-14-1.04239E-12
 -1      2556 1.90148E+01 2.72392E-01 1.02638E-02 7.98401E-01 1.72973E-13 1.79290E-13
 -1      2557 1.92263E+01 2.11799E-01 4.68776E-03 9.11870E-01 1.94840E-13 2.10743E-13
 -1      2558 1.99036E+01 2.75306E-01-3.22924E-03 1.16944E+00 2.55582E-13 1.51408E-13
 -1      2559 1.95147E+01 4.25329E-01-5.76586E-03 8.66125E-01 2.27153E-13 8.29445E-14
 -1      2560 2.89492E+01-5.14280E+00 4.69599E-02-1.44900E+00 3.78586E-13-5.90000E-13
 -1      2561 2.68599E+01-4.39496E+00 1.29696E-01-2.73972E+00 5.28549E-13-4.72497E-13
 -1      2562 3.65894E+01 2.53428E+00-2.91315E-04 3.62452E+00-9.16822E-13-6.76625E-13
 -1      2563 1.75116E+01 3.05121E+00 3.00014E-02-2.67697E+00-2.28719E-13-6.39255E-13
 -1      2564 1.64862E+01 3.34951E+00-2.90725E-02-2.87909E+00-2.77213E-13-6.77050E-13
 -1      2565 1.60236E+01 3.13927E+00-1.12561E-02-3.30603E+00-3.16408E-13-6.78132E-13
 -1      2566 1.82402E+01 2.16037E+00-2.51759E-02-2.79513E+00-2.43598E-13-5.75172E-13
 -1      2567 3.46835E+01 7.73996E+00-1.32870E-01-2.62856E-01 1.09401E-12-3.63654E-13
 -1      2568 3.40303E+01 6.76177E+00-1.12995E-01-3.87522E-01 1.03106E-12-4.02678E-13
 -1      2569 3.17757E+01 7.95866E+00-5.58939E-02-4.83093E-01 1.06382E-12-2.57072E-13
 -1      2570 3.13491E+01-3.99305E-01-1.09312E-01 2.03762E+00 4.52586E-13-5.47618E-13
 -1      2571 2.93937E+01-1.98703E+00-3.23262E-02 2.98364E+00 3.04118E-13-5.11424E-13
 -1      2572 3.38832E+01 4.37544E+00-1.30967E-01-5.82506E-02 8.59285E-13-5.31325E-13
 -1      2573 3.25483E+01 2.13034E+00-7.76808E-02 7.23444E-01 6.81830E-13-5.17808E-13
 -1      2574 3.19673E+01 1.46225E+00-4.56467E-02-1.38245E+00 5.85129E-13-2.05058E-13
 -1      2575 3.33491E+01 3.25272E+00-1.54052E-01-4.63366E-01 7.49317E-13-1.47771E-13
 -1      2576 2.76315E+01-2.10071E+00-1.25028E-02-4.15106E+00 2.26180E-13-3.17468E-13
 -1      2577 3.03183E+01-6.80341E-01-8.75465E-02-3.00603E+00 4.23543E-13-2.33702E-13
 -1      2578 2.09479E+01-3.74952E+00 5.27398E-02-6.89628E+00-1.38223E-13-6.05377E-13
 -1      2579 2.46219E+01-3.22289E+00-5.32079E-02-6.08130E+00 6.21725E-14-5.00794E-13
 -1      2580 1.22038E+01-3.23405E+00 7.62276E-02-7.82848E+00-3.41505E-13-9.91984E-13
 -1      2581 1.64062E+01-3.50994E+00-1.70439E-02-8.11548E+00-2.30815E-13-8.08680E-13
 -1      2582 5.84621E+00-1.93877E+00 9.20631E-02-5.97982E+00-3.37924E-13-1.21148E-12
 -1      2583 8.44193E+00-2.44495E+00 4.69759E-02-7.40936E+00-2.72782E-13-1.15419E-12
 -1      2584 3.40269E+00-6.41733E-01 1.47029E-01-2.15377E+00-2.56670E-13-1.26638E-12
 -1      2585 4.15822E+00-1.06771E+00 1.10780E-01-4.40721E+00-2.38087E-13-1.27376E-12
 -1      2586 4.98263E+00-2.13974E+00 5.81443E-02 2.82885E+00-1.40721E-13-1.15952E-12
 -1      2587 3.50528E+00-1.06282E+00 9.32941E-02 4.64294E-01-1.04642E-13-1.23218E-12
 -1      2588 8.29430E+00-1.17383E+00 1.61958E-01 3.52858E+00 5.86475E-14-1.03131E-12
 -1      2589 2.05562E+01-5.61501E+00-6.73420E-02 5.57585E+00 1.16573E-14-4.59757E-13
 -1      2590 1.65212E+01-4.84268E+00 8.63768E-02 5.63165E+00 9.68114E-14-6.68202E-13
 -1      2591 3.00256E+01-5.40125E+00-1.17474E-01 1.97025E+00-2.82219E-13-1.04083E-13
 -1      2592 2.51019E+01-5.89724E+00 1.73955E-02 3.82178E+00-1.05860E-13-2.50217E-13
 -1      2593 2.20014E+01-6.11530E+00 1.87877E-02-4.88658E+00 3.30569E-13 2.39482E-13
 -1      2594 2.63702E+01-6.06245E+00-1.08892E-01-3.83672E+00 1.55598E-13 2.13995E-14
 -1      2595 1.23863E+01-5.25869E+00 2.21024E-02-5.86032E+00 3.11751E-13 6.61998E-13
 -1      2596 1.69947E+01-5.73659E+00-5.52152E-02-6.24765E+00 3.17135E-13 6.04128E-13
 -1      2597 5.37702E+00-3.98763E+00 1.47379E-02-3.84442E+00 1.97842E-13 8.33389E-13
 -1      2598 8.26648E+00-4.53330E+00 2.21892E-03-5.36397E+00 2.00728E-13 7.23643E-13
 -1      2599 4.70014E+00-3.14400E+00 6.52691E-02 5.11600E+00-2.10387E-13 9.30200E-13
 -1      2600 3.27647E+00-2.58953E+00 1.04150E-01 2.99124E+00-1.49811E-13 8.21732E-13
 -1      2601 7.75004E+00-2.21110E+00 1.59735E-01 5.79332E+00-4.16667E-13 8.39773E-13
 -1      2602 1.38295E+01 4.76324E+00 2.78161E-02-1.61339E+00-2.97026E-13-7.41410E-13
 -1      2603 1.43155E+01 5.03363E+00 8.86454E-03-1.16122E+00-2.97838E-13-7.04128E-13
 -1      2604 1.51003E+01 4.88700E+00 6.20680E-04-7.22101E-01-3.25182E-13-6.41271E-13
 -1      2605 1.43531E+01-4.04916E+00 1.17273E-01 7.67247E+00-5.79758E-13 4.90150E-13
 -1      2606 6.58810E+00-1.92362E+00 1.27892E-01-3.09600E+00 2.52270E-13 8.22620E-13
 -1      2607 2.81239E+01-3.46293E+00 1.44972E-02 3.23668E+00 6.42542E-15-5.72237E-13
 -1      2608 2.24783E+01-4.98992E+00 8.40413E-02 6.35332E+00-4.05120E-13-2.36332E-13
 -1      2609 3.29542E+01-4.32679E+00 1.90196E-02-6.89177E-01-3.30638E-13 1.33449E-13
 -1      2610 3.51369E+01-1.30171E+00-1.16918E-02 2.17923E+00-5.28341E-13-6.03906E-13
 -1      2611 3.32029E+01-4.00579E+00-1.32410E-01 4.89686E-01-1.31922E-13-6.51562E-13
 -1      2612 5.07907E+00-1.05399E+00 1.65643E-01 1.55133E+00-9.17599E-14 8.59091E-13
 -1      2613 2.29152E+01-4.33658E+00-3.88152E-02-4.45104E+00 5.68781E-13-9.49865E-14
 -1      2614 1.99996E+01-2.17534E-04-7.06567E-07-3.50716E-04-2.53400E-13 1.16896E-13
 -1      2615 1.99996E+01-2.83135E-04 9.74233E-08-3.99761E-04-3.09794E-13 1.76340E-13
 -1      2616 3.29521E+01 7.82105E+00-8.68266E-02 7.01079E-01 1.03112E-12-1.29757E-13
 -1      2617 3.04186E+01 7.85366E+00-1.51904E-01 6.04542E-01 1.01513E-12-3.66929E-14
 -1      2618 3.10891E+01 6.98092E+00-1.70069E-01 1.08903E+00 9.69003E-13 3.90660E-14
 -1      2619 3.02142E+01-5.09695E+00-3.95091E-02-9.21093E-01 1.15380E-13-4.47586E-13
 -1      2620 1.99996E+01-3.30435E-04-1.93187E-06-5.00557E-04-2.09975E-13 1.80036E-13
 -1      2621 3.66541E+01 1.36064E-01-1.81992E-01 3.29746E+00-7.27418E-13-7.38021E-13
 -1      2622 1.61188E+01 4.54119E+00-2.10786E-02-1.12307E-01-2.95335E-13-5.74180E-13
 -1      2623 1.76730E+01 4.13830E+00-3.63054E-03 1.83638E-01-3.10943E-13-4.65314E-13
 -1      2624 1.78503E+01 3.60312E+00 3.51588E-02 8.26691E-01-2.66753E-13-4.26431E-13
 -1      2625 1.51514E+01 4.48182E+00 3.57189E-02-1.81763E-01-2.81081E-13-6.16307E-13
 -1      2626 1.53066E+01-3.49935E+00 8.79130E-02 5.48236E+00 1.78357E-13-6.30052E-13
 -1      2627 1.22557E+01-3.83092E+00 1.30414E-01-5.70828E+00 4.19137E-13 5.75123E-13
 -1      2628 5.20527E+00 3.84264E-01 1.76531E-01-8.52208E-01-1.55343E-13-1.23906E-12
 -1      2629 6.76389E+00-2.66525E-01 1.46014E-01-5.25667E+00-3.91909E-13-1.21081E-12
 -1      2630 1.20255E+01-2.05952E+00 1.26954E-01-7.61768E+00-4.86361E-13-9.87294E-13
 -1      2631 1.97537E+01-3.54869E+00 9.81099E-02-7.12150E+00-4.23162E-13-6.02133E-13
 -1      2632 2.66317E+01-3.00886E+00 4.51618E-02-4.26286E+00-1.19391E-13-1.89515E-13
 -1      2633 3.30000E+01 4.38697E+00-1.14650E-02 5.17228E-01 7.97196E-13-1.59595E-14
 -1      2634 3.11617E+01 5.07063E+00-2.61163E-01 1.54932E+00 8.00748E-13 2.18756E-13
 -1      2635 3.11455E+01 3.01141E+00-2.85081E-02 1.03632E+00 5.54168E-13 2.26485E-13
 -1      2636 3.06893E+01-3.72332E-02 1.56100E-02-1.09560E+00 2.59268E-13 4.65739E-14
 -1      2637 3.20264E+01 5.15808E+00-4.94260E-02-1.05703E+00 8.33639E-13-4.63601E-13
 -1      2638 3.11186E+01 4.21158E-01-1.01506E-02 6.71318E-02 4.15251E-13-6.04544E-13
 -1      2639 2.38861E+01-5.45268E+00-1.95007E-02 4.12879E+00 1.11355E-13-1.87642E-13
 -1      2640 2.08249E+01-5.30378E+00 8.90618E-02-5.29614E+00 5.13117E-13 2.28081E-13
 -1      2641 2.19089E+01 8.66893E-01-1.69372E-02-2.02614E-01 2.39734E-14-3.45065E-13
 -1      2642 2.16022E+01 9.03397E-01 1.28093E-02-7.69304E-01-5.10885E-14-3.61432E-13
 -1      2643 2.10882E+01 8.54930E-01-7.45521E-04-1.52430E+00-1.28344E-13-4.02674E-13
 -1      2644 2.03616E+01 1.02195E+00 3.60830E-03-2.14254E+00-2.05982E-13-4.44138E-13
 -1      2645 2.18916E+01 2.50244E-01-5.26481E-03-1.17897E+00-1.02744E-13-3.15401E-13
 -1      2646 2.19787E+01 1.21353E+00-2.58210E-02 1.55685E+00 2.87785E-13-2.17370E-13
 -1      2647 2.20844E+01 1.20161E+00 1.68924E-03 1.23480E+00 2.19741E-13-2.56788E-13
 -1      2648 2.16906E+01 1.19533E+00-2.76832E-02 1.96764E+00 3.84751E-13-1.08355E-13
 -1      2649 2.18545E+01 1.27060E+00-1.28075E-03 1.78235E+00 3.30357E-13-1.65582E-13
 -1      2650 2.21515E+01 8.99021E-01 1.43424E-02 1.68547E+00 2.92468E-13-1.38380E-13
 -1      2651 2.13633E+01 9.43784E-01-1.76215E-02 2.02658E+00 4.17916E-13 4.32124E-14
 -1      2652 2.15322E+01 1.15346E+00 2.88713E-03 2.02964E+00 3.93884E-13-3.59560E-14
 -1      2653 2.17078E+01 8.51025E-01 1.47524E-02 1.91399E+00 3.51300E-13-3.23288E-14
 -1      2654 2.11010E+01 6.25850E-01-6.28537E-03 1.81376E+00 4.11545E-13 2.25129E-13
 -1      2655 2.12355E+01 8.54616E-01 5.84544E-03 1.95410E+00 4.11574E-13 1.21573E-13
 -1      2656 2.12526E+01 6.34332E-01 5.32870E-03 1.83173E+00 3.60485E-13 7.14887E-14
 -1      2657 2.08419E+01 4.17693E-01 7.45278E-03 1.61163E+00 3.67809E-13 2.22365E-13
 -1      2658 2.43316E+01-4.81481E+00-1.43938E-02 3.77791E+00 1.65867E-13-5.98029E-14
 -1      2659 1.75647E+01 1.84296E+00 4.94029E-02 2.70684E+00-1.23339E-14-3.55507E-13
 -1      2660 1.75448E+01 7.87915E-01 8.50447E-02 3.42394E+00 1.11196E-13-3.90972E-13
 -1      2661 1.96543E+01 9.08836E-01 4.60848E-03-2.10595E-01 1.29374E-13-9.00146E-14
 -1      2662 1.96696E+01 9.18336E-01 5.29259E-03 7.12396E-02 1.85746E-13-6.70259E-14
 -1      2663 6.50902E+00-2.15062E-01 1.63270E-01 2.93185E+00-1.42365E-13 6.93889E-13
 -1      2664 6.39571E+00 1.34106E-01 1.67051E-01 2.18211E-01 9.02490E-15 7.52981E-13
 -1      2665 2.41420E+01-4.88957E+00-7.58922E-02 5.18052E+00-3.39437E-13-4.44450E-13
 -1      2666 2.13570E+01-4.63348E+00 1.55003E-01 6.27221E+00-5.01835E-13-2.02048E-13
 -1      2667 1.80129E+01 5.11927E-01 4.39299E-02-3.89855E+00 1.86358E-13 1.47372E-13
 -1      2668 1.79254E+01 1.07421E+00 1.69547E-02-3.54043E+00 2.02192E-13 1.23151E-13
 -1      2669 1.85742E+01 1.31020E+00 2.49297E-02-3.09176E+00 1.82280E-13-9.24434E-15
 -1      2670 1.86433E+01 1.40889E+00-1.73611E-02-2.75458E+00 1.35889E-13-5.33358E-14
 -1      2671 1.67014E+01 1.54484E+00 6.28692E-02-3.01516E+00 1.10733E-13 1.59034E-13
 -1      2672 1.91667E+01 1.41410E+00 1.05086E-02-2.43153E+00 1.45200E-13-1.83757E-13
 -1      2673 1.92446E+01 1.33541E+00-1.74458E-02-2.13464E+00 1.26816E-13-1.50589E-13
 -1      2674 1.78386E+01 1.71929E+00 3.40994E-02-2.32222E+00 9.63125E-14-1.09435E-13
 -1      2675 1.96175E+01 1.23184E+00 5.94436E-03-1.88778E+00 7.62576E-14-1.19973E-13
 -1      2676 1.96597E+01 1.10101E+00-1.36743E-02-1.63797E+00 9.63625E-14-7.67943E-14
 -1      2677 1.86892E+01 1.53511E+00 2.32751E-02-1.81688E+00 1.00317E-13-1.65491E-13
 -1      2678 1.99062E+01 9.75827E-01 4.97178E-03-1.44361E+00 5.41047E-14-1.20933E-13
 -1      2679 1.99118E+01 8.47282E-01-9.89400E-03-1.24222E+00-6.68726E-14-1.06744E-13
 -1      2680 1.92619E+01 1.24005E+00 1.59456E-02-1.41991E+00 1.86475E-14-5.48840E-14
 -1      2681 2.00656E+01 7.35144E-01 4.56876E-03-1.08882E+00-9.73535E-14-1.35476E-13
 -1      2682 2.00474E+01 6.27948E-01-6.95604E-03-9.31798E-01-1.03473E-13-8.65277E-14
 -1      2683 1.96233E+01 9.48774E-01 1.05120E-02-1.09906E+00-9.54521E-14-9.16359E-14
 -1      2684 2.01383E+01 5.38821E-01 4.11960E-03-8.12046E-01-1.53858E-13-6.17988E-14
 -1      2685 2.01089E+01 4.56191E-01-4.61539E-03-6.92625E-01-1.61321E-13-3.04922E-14
 -1      2686 1.98381E+01 7.03451E-01 6.53664E-03-8.40893E-01-1.38585E-13-1.75756E-13
 -1      2687 2.01582E+01 3.92461E-01 3.53059E-03-6.04870E-01-1.60471E-13-4.64103E-14
 -1      2688 2.01266E+01 3.33237E-01-3.14888E-03-5.18851E-01-1.09202E-13-1.08861E-13
 -1      2689 1.99555E+01 5.16221E-01 3.74098E-03-6.40649E-01-1.34623E-13-2.47164E-13
 -1      2690 2.01528E+01 2.83406E-01 2.84135E-03-4.47330E-01-1.87355E-13-1.37920E-13
 -1      2691 2.01216E+01 2.38208E-01-2.20001E-03-3.80139E-01-1.73996E-13-2.20589E-13
 -1      2692 2.00164E+01 3.76115E-01 2.28749E-03-4.83855E-01-2.27039E-13-2.43976E-13
 -1      2693 2.01335E+01 2.02527E-01 2.24787E-03-3.26201E-01-4.48308E-14-1.63946E-13
 -1      2694 2.01062E+01 1.70141E-01-1.45999E-03-2.76722E-01 4.17460E-14-3.53622E-14
 -1      2695 2.00440E+01 2.70383E-01 1.23685E-03-3.59454E-01-5.95670E-14 2.93732E-15
 -1      2696 2.01099E+01 1.44708E-01 1.75016E-03-2.36237E-01 6.14456E-14 1.80890E-14
 -1      2697 2.00872E+01 1.21562E-01-9.64259E-04-1.99962E-01 3.71708E-14-1.00771E-14
 -1      2698 2.00520E+01 1.94044E-01 5.96319E-04-2.64714E-01 9.70076E-14-2.21413E-14
 -1      2699 2.00866E+01 1.03450E-01 1.34225E-03-1.69742E-01-5.99874E-14 1.62711E-13
 -1      2700 2.00685E+01 8.68990E-02-6.34800E-04-1.43221E-01-4.42075E-14 1.99046E-13
 -1      2701 2.00498E+01 1.39233E-01 2.31191E-04-1.93138E-01 1.01985E-13 7.24942E-14
 -1      2702 2.00660E+01 7.39688E-02 1.01830E-03-1.20778E-01-5.74946E-15 2.12982E-13
 -1      2703 2.00519E+01 6.20987E-02-4.16993E-04-1.01444E-01 1.34452E-13 2.00051E-13
 -1      2704 2.00432E+01 9.98890E-02 3.46222E-05-1.39433E-01 1.50313E-14 2.52581E-13
 -1      2705 2.00488E+01 5.28242E-02 7.65286E-04-8.48662E-02 1.44736E-13 9.75103E-14
 -1      2706 2.00381E+01 4.43155E-02-2.51699E-04-7.08364E-02 1.84056E-13 1.23321E-13
 -1      2707 2.00352E+01 7.15773E-02-6.45934E-05-9.93938E-02 5.34731E-14 3.16181E-13
 -1      2708 2.00353E+01 3.79723E-02 5.78660E-04-5.92433E-02 1.80327E-13-4.23914E-14
 -1      2709 2.00275E+01 3.20081E-02-1.63638E-04-4.94859E-02 1.28161E-13-9.63478E-14
 -1      2710 2.00276E+01 5.14584E-02-1.40905E-04-7.03202E-02 6.41808E-14 1.85163E-14
 -1      2711 2.00248E+01 2.70572E-02 4.25381E-04-4.04666E-02 6.60655E-14-1.91078E-13
 -1      2712 2.00189E+01 2.25221E-02-1.17475E-04-3.30734E-02 4.73425E-14-3.75481E-13
 -1      2713 2.00209E+01 3.69749E-02-1.10092E-04-4.89002E-02 3.16672E-15-2.34985E-13
 -1      2714 2.00167E+01 1.89672E-02 3.15080E-04-2.65916E-02 2.59761E-15-4.20995E-13
 -1      2715 2.00124E+01 1.56721E-02-7.67337E-05-2.13414E-02 6.80682E-14-4.91365E-13
 -1      2716 2.00152E+01 2.60469E-02-1.03761E-04-3.27953E-02-1.64902E-14-4.05851E-13
 -1      2717 2.00107E+01 1.31010E-02 2.28824E-04-1.67355E-02 5.71293E-14-5.14378E-13
 -1      2718 2.00077E+01 1.07188E-02-4.89284E-05-1.30628E-02-2.29832E-13-4.19685E-13
 -1      2719 2.00107E+01 1.81151E-02-9.08411E-05-2.12128E-02 6.14047E-14-4.46446E-13
 -1      2720 2.00063E+01 8.86486E-03 1.63847E-04-9.84636E-03-4.34781E-13-4.58406E-13
 -1      2721 2.00043E+01 7.15261E-03-3.05114E-05-7.32681E-03-3.32482E-13-4.63186E-13
 -1      2722 2.00072E+01 1.23697E-02-7.56816E-05-1.30067E-02-3.19089E-13-3.03538E-13
 -1      2723 2.00033E+01 5.82538E-03 1.15376E-04-5.13185E-03-2.39815E-13-4.54819E-13
 -1      2724 2.00020E+01 4.60661E-03-1.80799E-05-3.44899E-03-1.45749E-13-3.70808E-13
 -1      2725 2.00046E+01 8.23064E-03-6.09051E-05-7.30423E-03-2.36953E-13-1.58138E-13
 -1      2726 2.00013E+01 3.66508E-03 7.89814E-05-1.99658E-03-5.63341E-14-3.34062E-13
 -1      2727 2.00005E+01 2.81533E-03-8.06797E-06-9.16391E-04 6.39287E-14-2.69893E-13
 -1      2728 2.00028E+01 5.27686E-03-4.76940E-05-3.44078E-03-8.63215E-14-1.47797E-13
 -1      2729 2.00000E+01 2.19123E-03 5.32822E-05-3.67885E-05 2.68124E-15-2.50208E-13
 -1      2730 1.99996E+01 1.62387E-03-3.12884E-06 5.99204E-04 3.79880E-14-1.64897E-13
 -1      2731 2.00015E+01 3.22418E-03-4.03446E-05-9.54466E-04 7.06040E-14-2.30880E-13
 -1      2732 1.99993E+01 1.16287E-03 3.45017E-05 1.16118E-03 4.02017E-14-1.92390E-13
 -1      2733 1.99990E+01 7.62271E-04-1.39484E-06 1.53669E-03 2.38551E-14-1.76694E-13
 -1      2734 2.00006E+01 1.81789E-03-2.76339E-05 6.02545E-04 8.43198E-14-1.61030E-14
 -1      2735 1.99988E+01 4.62071E-04 2.14631E-05 1.83218E-03 5.24025E-14-2.88648E-13
 -1      2736 1.99987E+01 2.01908E-04 5.15108E-07 2.00564E-03 4.06266E-14-2.39141E-13
 -1      2737 2.00000E+01 8.28447E-04-2.04049E-05 1.53726E-03 7.77031E-15-1.29848E-13
 -1      2738 1.99986E+01 1.28409E-05 1.19368E-05 2.12465E-03 7.69542E-14-2.07989E-13
 -1      2739 1.99986E+01-1.45790E-04 1.75871E-06 2.16603E-03 2.21519E-13-3.82295E-13
 -1      2740 1.99996E+01 1.85768E-04-1.47118E-05 2.00616E-03 8.97239E-14-2.83257E-13
 -1      2741 1.99986E+01-2.56764E-04 5.46064E-06 2.17201E-03 7.65006E-14-4.23562E-13
 -1      2742 1.99987E+01-3.44641E-04 2.39046E-06 2.13178E-03-5.47865E-14-4.75650E-13
 -1      2743 1.99994E+01-2.10323E-04-1.03369E-05 2.16683E-03 1.48387E-13-3.06199E-13
 -1      2744 1.99986E+01-4.01909E-04 1.23035E-06 2.06970E-03-3.36676E-14-3.74247E-13
 -1      2745 1.99988E+01-4.41972E-04 2.64543E-06 1.98309E-03-9.38690E-14-3.08144E-13
 -1      2746 1.99993E+01-4.34077E-04-7.04666E-06 2.13284E-03 6.78741E-14-1.53913E-13
 -1      2747 1.99988E+01-4.63938E-04-1.44407E-06 1.88420E-03-2.23596E-13-1.92932E-13
 -1      2748 1.99989E+01-4.72960E-04 2.49799E-06 1.77493E-03 4.08172E-14-1.64959E-13
 -1      2749 1.99993E+01-5.40792E-04-4.60628E-06 1.98435E-03 3.39084E-14-1.08271E-13
 -1      2750 1.99989E+01-4.73509E-04-3.01672E-06 1.66611E-03 1.87154E-13-2.35769E-13
 -1      2751 1.99990E+01-4.65012E-04 2.32369E-06 1.55541E-03 2.75268E-13-1.62575E-13
 -1      2752 1.99993E+01-5.72376E-04-2.71626E-06 1.78206E-03 3.14027E-14-1.20401E-13
 -1      2753 1.99990E+01-4.53527E-04-3.53631E-06 1.43738E-03 2.25519E-13-3.05882E-13
 -1      2754 1.99992E+01-4.36278E-04 1.99006E-06 1.32292E-03 5.82384E-14-2.52712E-13
 -1      2755 1.99994E+01-5.59570E-04-1.69978E-06 1.55662E-03 1.43642E-13-1.07428E-13
 -1      2756 1.99992E+01-4.19470E-04-3.63579E-06 1.20871E-03 2.19000E-13-3.72944E-13
 -1      2757 1.99993E+01-4.00154E-04 1.58472E-06 1.10058E-03 2.24090E-13-1.06108E-13
 -1      2758 1.99994E+01-5.24192E-04-9.10007E-07 1.32337E-03 1.73373E-13-4.53340E-13
 -1      2759 1.99993E+01-3.84358E-04-3.39438E-06 9.94188E-04 1.09115E-13-1.54070E-13
 -1      2760 1.99994E+01-3.68743E-04 1.03556E-06 8.93611E-04 1.01178E-13-1.80496E-13
 -1      2761 1.99995E+01-4.82233E-04-4.06927E-07 1.10009E-03 3.75893E-13-5.88366E-13
 -1      2762 1.99995E+01-3.57150E-04-2.94361E-06 7.94343E-04 1.28418E-13-1.23459E-13
 -1      2763 1.99995E+01-3.49511E-04-5.60722E-07 7.01647E-04 2.34936E-14-7.68583E-14
 -1      2764 1.99996E+01-4.47074E-04-1.40741E-07 8.91611E-04 1.68024E-13-4.40710E-13
 -1      2765 1.99996E+01-3.57461E-04-2.53946E-06 6.45216E-04-1.60544E-13-2.04256E-13
 -1      2766 1.99996E+01-3.75309E-04-1.66681E-06 5.79808E-04-1.31747E-13-2.03300E-13
 -1      2767 1.99997E+01-4.48217E-04 2.67984E-06 6.12070E-04-1.80205E-13-4.86045E-13
 -1      2768 1.99996E+01-4.36851E-04 6.51246E-07 7.31342E-04 1.03351E-14-5.51541E-13
 -1      2769 1.97366E+01 7.35299E-01-1.89919E-03-7.69907E-01 8.86754E-14-1.09698E-13
 -1      2770 1.96803E+01 8.48473E-01 1.00329E-02-5.28370E-01 1.11949E-13-1.17752E-13
 -1      2771 2.01579E+01 1.10156E+00-8.58710E-03-3.90868E-01 1.40849E-13-1.18190E-13
 -1      2772 1.97487E+01 8.76941E-01 9.78967E-03 3.97231E-01 2.35915E-13-1.65908E-14
 -1      2773 1.98405E+01 7.89960E-01 2.73104E-04 6.55946E-01 2.60706E-13 2.47056E-14
 -1      2774 2.02112E+01 1.12795E+00-8.88578E-03 2.93071E-01 2.44424E-13-4.49058E-14
 -1      2775 1.99498E+01 4.14598E-01-6.26786E-03-1.15031E+00 1.09740E-13-1.53634E-13
 -1      2776 1.98433E+01 5.91191E-01 1.14035E-02-1.00056E+00 9.54903E-14-1.29413E-13
 -1      2777 2.02781E+01 8.32666E-01-4.23787E-03-9.69937E-01 1.16333E-13-2.12576E-13
 -1      2778 2.02076E+01 5.94566E-02-7.07205E-03-1.28998E+00 1.29396E-13-1.71353E-13
 -1      2779 2.00815E+01 2.38644E-01 8.72270E-03-1.24981E+00 1.44995E-13-1.56505E-13
 -1      2780 2.04949E+01 4.13063E-01 1.43884E-03-1.31106E+00 1.41457E-13-2.50650E-13
 -1      2781 2.04278E+01-2.27302E-01-5.16008E-03-1.21122E+00 1.28307E-13-1.76791E-13
 -1      2782 2.03102E+01-9.35444E-02 3.68174E-03-1.26388E+00 1.18462E-13-1.43576E-13
 -1      2783 2.07044E+01-1.73477E-02 4.82787E-03-1.37679E+00 1.20525E-13-2.38513E-13
 -1      2784 2.05656E+01-3.94723E-01-2.17352E-03-9.89358E-01 1.00718E-13-1.47474E-13
 -1      2785 2.04744E+01-3.25389E-01-1.24538E-03-1.09945E+00 1.45228E-13-1.71604E-13
 -1      2786 2.08329E+01-3.43151E-01 5.37852E-03-1.22190E+00 1.41587E-13-2.46717E-13
 -1      2787 2.06160E+01-4.44489E-01 4.20984E-04-7.09582E-01 4.56162E-14-1.99566E-13
 -1      2788 2.05571E+01-4.33140E-01-4.51883E-03-8.40332E-01 8.25427E-14-1.33424E-13
 -1      2789 2.08592E+01-5.17271E-01 3.84635E-03-9.43658E-01 9.79752E-14-1.43388E-13
 -1      2790 2.05985E+01-4.09174E-01 1.99407E-03-4.37909E-01 2.36971E-14-1.21052E-13
 -1      2791 2.05694E+01-4.36676E-01-5.86012E-03-5.61890E-01 3.40168E-14-1.44216E-13
 -1      2792 2.08021E+01-5.52058E-01 1.75942E-03-6.33955E-01 4.10196E-14-1.12182E-13
 -1      2793 2.05397E+01-3.28505E-01 2.61209E-03-2.12133E-01 7.69958E-14-1.59694E-13
 -1      2794 2.05337E+01-3.74490E-01-5.70857E-03-3.14007E-01 8.11963E-14-8.91994E-14
 -1      2795 2.06961E+01-4.91852E-01 8.59585E-05-3.54703E-01 3.20274E-14-3.53466E-14
 -1      2796 2.04625E+01-2.34908E-01 2.55310E-03-4.56883E-02-3.21983E-14-8.17974E-14
 -1      2797 2.04722E+01-2.84018E-01-4.73890E-03-1.20276E-01 3.25640E-16-1.71256E-13
 -1      2798 2.05732E+01-3.85050E-01-8.66252E-04-1.35497E-01 4.05541E-14-5.28691E-14
 -1      2799 2.03823E+01-1.48678E-01 2.14458E-03 6.35388E-02-4.40692E-14-2.39589E-14
 -1      2800 2.04012E+01-1.91941E-01-3.50045E-03 1.49339E-02-6.41799E-15-1.38881E-14
 -1      2801 2.04546E+01-2.68849E-01-1.25097E-03 1.78066E-02-6.77758E-14-2.19626E-14
 -1      2802 2.03078E+01-7.94691E-02 1.62503E-03 1.25367E-01 2.61632E-14-3.52881E-14
 -1      2803 2.03311E+01-1.13087E-01-2.31132E-03 9.81716E-02-2.59342E-14-7.27531E-14
 -1      2804 2.03513E+01-1.65322E-01-1.27402E-03 1.12434E-01 1.36523E-14-9.24538E-14
 -1      2805 2.02428E+01-2.95503E-02 1.13416E-03 1.51979E-01 1.91063E-14-9.54581E-14
 -1      2806 2.02673E+01-5.31068E-02-1.32780E-03 1.40634E-01 3.76317E-14-2.04533E-14
 -1      2807 2.02667E+01-8.41320E-02-1.11859E-03 1.61022E-01 4.46775E-14-5.44113E-14
 -1      2808 2.01884E+01 2.94670E-03 7.33821E-04 1.54844E-01 1.10747E-13-1.04681E-13
 -1      2809 2.02118E+01-1.19037E-02-5.95427E-04 1.54138E-01 8.42425E-14-5.16548E-14
 -1      2810 2.02002E+01-2.67225E-02-9.09600E-04 1.76893E-01 3.86511E-14-1.37329E-13
 -1      2811 2.01439E+01 2.16221E-02 4.38010E-04 1.43351E-01 1.04781E-13-8.12798E-14
 -1      2812 2.01652E+01 1.34766E-02-9.77741E-05 1.49025E-01 1.13971E-13-6.79532E-14
 -1      2813 2.01491E+01 9.86445E-03-7.10760E-04 1.71656E-01 1.07709E-13-6.61880E-14
 -1      2814 2.01083E+01 3.03410E-02 2.36145E-04 1.24474E-01 8.43788E-14-6.88798E-14
 -1      2815 2.01268E+01 2.69043E-02 2.07738E-04 1.33369E-01 1.28714E-13-6.43155E-14
 -1      2816 2.01104E+01 3.02648E-02-5.45808E-04 1.54362E-01 1.07805E-13 6.23561E-15
 -1      2817 2.00802E+01 3.24937E-02 1.08045E-04 1.02982E-01-4.33331E-14-1.26882E-13
 -1      2818 2.00957E+01 3.20811E-02 3.69480E-04 1.12948E-01 2.84542E-14-7.45561E-15
 -1      2819 2.00813E+01 3.91950E-02-4.18385E-04 1.31497E-01 4.77832E-14 1.19402E-13
 -1      2820 2.00583E+01 3.07244E-02 3.28915E-05 8.18647E-02-1.50970E-13-1.73014E-13
 -1      2821 2.00709E+01 3.20568E-02 4.31816E-04 9.15632E-02-1.00142E-13-1.12181E-13
 -1      2822 2.00594E+01 4.06828E-02-3.23503E-04 1.07350E-01-4.78035E-14 2.86934E-14
 -1      2823 2.00414E+01 2.69261E-02-6.79207E-06 6.27941E-02-2.13824E-13-1.08183E-13
 -1      2824 2.00515E+01 2.91076E-02 4.30877E-04 7.14874E-02-1.66645E-13-1.56466E-13
 -1      2825 2.00430E+01 3.78169E-02-2.53174E-04 8.45102E-02-1.77678E-13 1.14207E-14
 -1      2826 2.00286E+01 2.23558E-02-2.42664E-05 4.65346E-02-7.73870E-14-1.95774E-13
 -1      2827 2.00364E+01 2.48044E-02 3.93601E-04 5.38967E-02-1.46524E-13-1.17993E-13
 -1      2828 2.00308E+01 3.27793E-02-2.00243E-04 6.43478E-02-1.70454E-13 1.23191E-13
 -1      2829 2.00191E+01 1.77833E-02-2.88942E-05 3.32677E-02-5.16996E-14-3.15421E-14
 -1      2830 2.00250E+01 2.01521E-02 3.38813E-04 3.92351E-02-6.58942E-14-5.68978E-14
 -1      2831 2.00216E+01 2.70009E-02-1.59529E-04 4.74108E-02-9.70076E-14-6.42491E-14
 -1      2832 2.00121E+01 1.36310E-02-2.68376E-05 2.28316E-02 4.63312E-14-1.83371E-13
 -1      2833 2.00164E+01 1.57378E-02 2.78853E-04 2.74933E-02-1.31605E-14-1.05494E-13
 -1      2834 2.00148E+01 2.13448E-02-1.27410E-04 3.37318E-02 3.84933E-14-1.45782E-14
 -1      2835 2.00071E+01 1.00900E-02-2.19013E-05 1.48887E-02 2.47975E-14-5.22395E-15
 -1      2836 2.00102E+01 1.18600E-02 2.21156E-04 1.84099E-02 2.82740E-14-1.46759E-13
 -1      2837 2.00098E+01 1.62739E-02-1.01506E-04 2.30504E-02 1.99454E-14-1.98958E-13
 -1      2838 2.00036E+01 7.20699E-03-1.62678E-05 9.03349E-03 7.43786E-16 1.34305E-13
 -1      2839 2.00057E+01 8.63095E-03 1.69694E-04 1.16066E-02 5.45929E-14 1.40636E-13
 -1      2840 2.00062E+01 1.19864E-02-8.03190E-05 1.49650E-02-2.45281E-14 7.44645E-14
 -1      2841 2.00012E+01 4.94658E-03-1.10648E-05 4.85920E-03-9.51302E-14 2.27169E-13
 -1      2842 2.00026E+01 6.05146E-03 1.26146E-04 6.67438E-03-4.80910E-14 2.07777E-13
 -1      2843 2.00036E+01 8.51779E-03-6.29088E-05 9.02991E-03-8.44598E-14 1.86628E-13
 -1      2844 1.99997E+01 3.23236E-03-6.76306E-06 1.99417E-03-1.30106E-13 2.99872E-13
 -1      2845 2.00005E+01 4.06200E-03 9.07583E-05 3.22330E-03-8.80891E-14 3.28509E-13
 -1      2846 2.00018E+01 5.81203E-03-4.86196E-05 4.81331E-03-1.38207E-13 3.00987E-13
 -1      2847 1.99987E+01 1.97341E-03-3.46853E-06 1.18409E-04 9.78095E-14 2.58705E-13
 -1      2848 1.99992E+01 2.57649E-03 6.29501E-05 9.08232E-04-4.25594E-14 2.69349E-13
 -1      2849 2.00005E+01 3.76936E-03-3.69637E-05 1.92827E-03-5.94338E-14 3.29272E-13
 -1      2850 1.99983E+01 1.07928E-03-1.11193E-06-1.03198E-03 7.52190E-14 1.67213E-13
 -1      2851 1.99985E+01 1.50272E-03 4.17490E-05-5.61389E-04 1.20702E-13 2.00906E-13
 -1      2852 1.99998E+01 2.27574E-03-2.75816E-05 4.54819E-05 1.43099E-13 2.39059E-13
 -1      2853 1.99981E+01 4.67874E-04 4.56568E-07-1.66714E-03 2.61438E-14 1.24387E-13
 -1      2854 1.99981E+01 7.53413E-04 2.60574E-05-1.42090E-03 8.59863E-14 2.26477E-13
 -1      2855 1.99993E+01 1.21983E-03-2.01422E-05-1.10465E-03 4.88131E-14 1.46434E-13
 -1      2856 1.99981E+01 6.89988E-05 1.41039E-06-1.94937E-03-2.48419E-14-1.59501E-14
 -1      2857 1.99980E+01 2.51830E-04 1.47951E-05-1.85476E-03 4.13570E-14 1.67631E-13
 -1      2858 1.99990E+01 5.01699E-04-1.43326E-05-1.73565E-03 7.57321E-14 6.40418E-14
 -1      2859 1.99982E+01-1.74868E-04 1.90997E-06-2.00048E-03 5.17308E-14-9.40597E-14
 -1      2860 1.99980E+01-6.62162E-05 6.98474E-06-2.00337E-03-1.85396E-14-3.50152E-14
 -1      2861 1.99989E+01 3.64395E-05-9.87436E-06-2.01181E-03-3.11115E-14 1.17939E-13
 -1      2862 1.99983E+01-3.09374E-04 2.08611E-06-1.90928E-03-9.34578E-14-2.19988E-13
 -1      2863 1.99982E+01-2.52452E-04 1.79148E-06-1.97057E-03-2.16174E-14-8.00664E-14
 -1      2864 1.99989E+01-2.45154E-04-6.51789E-06-2.05608E-03-1.16931E-14-2.80722E-14
 -1      2865 1.99985E+01-3.69884E-04 2.03555E-06-1.73844E-03 8.58264E-14-4.27129E-16
 -1      2866 1.99984E+01-3.47416E-04-1.46767E-06-1.83089E-03-3.64944E-14-1.78525E-13
 -1      2867 1.99990E+01-3.97835E-04-4.04669E-06-1.95794E-03-1.17214E-13-7.78056E-14
 -1      2868 1.99988E+01-3.83319E-04 1.82517E-06-1.53036E-03 3.20384E-13-1.51110E-15
 -1      2869 1.99986E+01-3.82226E-04-3.33399E-06-1.63587E-03 2.22297E-13 1.15410E-14
 -1      2870 1.99991E+01-4.63937E-04-2.27470E-06-1.78036E-03 1.02517E-13-1.42622E-13
 -1      2871 1.99990E+01-3.69897E-04 1.51152E-06-1.31196E-03 3.17330E-13 1.53117E-13
 -1      2872 1.99988E+01-3.80410E-04-4.22191E-06-1.41938E-03 3.90453E-13 7.42408E-14
 -1      2873 1.99992E+01-4.75652E-04-1.04660E-06-1.56581E-03 3.14544E-13-1.68894E-13
 -1      2874 1.99991E+01-3.44854E-04 1.12633E-06-1.09873E-03 3.40367E-14 1.83549E-13
 -1      2875 1.99990E+01-3.59570E-04-4.43522E-06-1.20201E-03 2.32172E-13 2.02127E-13
 -1      2876 1.99993E+01-4.57054E-04-2.18145E-07-1.34119E-03 2.64100E-13 1.69229E-13
 -1      2877 1.99993E+01-3.19834E-04 5.33316E-07-8.97466E-04 1.20307E-13 1.82908E-13
 -1      2878 1.99992E+01-3.33226E-04-4.20892E-06-9.94417E-04 8.49203E-15 1.35532E-13
 -1      2879 1.99994E+01-4.26423E-04 2.90441E-07-1.12191E-03 2.45702E-14 1.07799E-13
 -1      2880 1.99995E+01-3.03049E-04-1.00340E-06-7.09100E-04-1.15209E-13 2.42649E-13
 -1      2881 1.99994E+01-3.10943E-04-3.87618E-06-7.99367E-04 6.50586E-14 2.13197E-13
 -1      2882 1.99995E+01-3.97026E-04 8.80678E-07-9.14936E-04 2.44025E-14 7.82366E-14
 -1      2883 1.99996E+01-3.15139E-04-1.83034E-06-5.60523E-04-2.45222E-13 2.67642E-13
 -1      2884 1.99995E+01-3.17945E-04-3.81651E-06-6.48392E-04-1.94630E-13 2.83704E-13
 -1      2885 1.99996E+01-3.92725E-04 3.51012E-06-7.48181E-04-2.18772E-13 2.15523E-13
 -1      2886 1.99997E+01-4.17679E-04 3.72513E-06-6.16510E-04-1.89572E-13 6.43314E-16
 -1      2887 2.00002E+01-9.95490E-04 2.32453E-06-5.92558E-05 1.29612E-14 4.26632E-13
 -1      2888 2.00002E+01-9.83035E-04 1.24266E-06-1.62424E-04-2.01961E-14 5.01919E-13
 -1      2889 2.00001E+01-8.63034E-04 3.45495E-06-4.58782E-04-1.83493E-13 1.89685E-13
 -1      2890 2.00000E+01-8.05761E-04-5.86922E-07-5.24867E-04-1.09425E-13-8.92022E-14
 -1      2891 2.00002E+01-9.83540E-04 1.32282E-06 1.63960E-04 6.67485E-14 1.22038E-13
 -1      2892 2.00002E+01-9.95905E-04 2.27771E-06 6.07639E-05 5.89508E-15 2.34602E-13
 -1      2893 2.00003E+01-1.00862E-03-3.05295E-06 5.44497E-07-1.01095E-13 4.30466E-13
 -1      2894 2.00002E+01-9.54128E-04 3.14268E-06-2.75439E-04-1.95732E-13 2.87074E-13
 -1      2895 2.00001E+01-9.18039E-04 8.40288E-08-3.66049E-04-1.77103E-13 2.81327E-13
 -1      2896 2.00002E+01-9.02640E-04-2.46420E-06-4.57496E-04-2.48354E-13 1.75788E-13
 -1      2897 2.00003E+01-9.81168E-04-2.90994E-06-2.42579E-04-7.17534E-14 6.14090E-13
 -1      2898 2.00001E+01-9.20897E-04 1.41601E-07 3.64690E-04 2.65368E-13-3.03581E-13
 -1      2899 2.00002E+01-9.55991E-04 3.11494E-06 2.75346E-04 1.19725E-13-1.17984E-14
 -1      2900 2.00003E+01-9.83200E-04-2.96578E-06 2.41903E-04 1.67282E-14 1.80792E-14
 -1      2901 2.00000E+01-8.10800E-04-1.23411E-06 5.25389E-04 4.19012E-13 8.97906E-14
 -1      2902 2.00001E+01-8.66587E-04 3.71064E-06 4.58184E-04 3.54606E-13-3.32752E-13
 -1      2903 2.00002E+01-9.06980E-04-2.60273E-06 4.55950E-04 1.86947E-13-9.16053E-14
 -1      2904 1.99999E+01-6.61895E-04-1.55571E-06 6.18858E-04 2.30835E-13-2.87660E-13
 -1      2905 2.00000E+01-7.33533E-04 3.61269E-06 5.86239E-04 4.41677E-13 1.85086E-13
 -1      2906 2.00000E+01-7.83853E-04-2.05189E-06 6.18772E-04 4.18210E-13 8.39197E-14
 -1      2907 7.81653E+00-3.60315E-01 1.50214E-01-2.59997E+00 1.86830E-13 7.10376E-13
 -1      2908 9.45600E+00-1.53113E+00 1.39034E-01-4.40633E+00 2.95736E-13 6.34770E-13
 -1      2909 1.76000E+01 3.13038E+00 1.82108E-02 1.36094E+00-1.94220E-13-4.12607E-13
 -1      2910 1.77850E+01 2.45569E+00 4.60669E-02 2.08350E+00-1.03164E-13-3.76709E-13
 -1      2911 1.54537E+01 2.57084E+00 2.83568E-02 2.17144E+00-5.40540E-14-4.86299E-13
 -1      2912 1.59287E+01 3.66980E+00 1.84521E-04 9.67312E-01-1.91987E-13-5.17548E-13
 -1      2913 1.69895E+01-4.14477E+00-4.12440E-02 7.42861E+00-6.04558E-13 1.60261E-13
 -1      2914 1.31825E+01-2.82309E+00 1.95711E-01 7.08646E+00-5.90583E-13 5.41886E-13
 -1      2915 1.20608E+01-2.19187E+00 1.54678E-01-5.16664E+00 3.98251E-13 4.52971E-13
 -1      2916 1.56268E+01-3.15247E+00 5.83175E-02-5.77798E+00 4.88498E-13 3.10932E-13
 -1      2917 1.30421E+01-9.33332E-01 1.40724E-01-4.60469E+00 3.20355E-13 3.89938E-13
 -1      2918 9.84225E+00-1.86106E+00 6.06509E-02 6.35230E+00-4.66599E-13 7.25670E-13
 -1      2919 7.95057E+00-9.24036E-01 1.78716E-01 4.79490E+00-3.39860E-13 6.84564E-13
 -1      2920 1.08962E+01-7.72687E-01 1.22912E-01 4.27224E+00 1.21694E-13-8.28976E-13
 -1      2921 8.34569E+00 4.31028E-01 1.67211E-01 2.64457E+00 5.79398E-14-9.62369E-13
 -1      2922 1.86274E+01-2.23111E+00 1.24162E-01-5.10914E+00 4.62880E-13 1.31922E-13
 -1      2923 1.79763E+01-7.62013E-01 1.11359E-01-4.70074E+00 2.99705E-13 9.31755E-14
 -1      2924 2.99615E+01 1.02778E+00-2.05880E-01-9.58927E-01 4.35693E-13-5.94413E-13
 -1      2925 2.95194E+01-8.48139E-01 1.45486E-03-1.09249E-01 2.11615E-13-6.42944E-13
 -1      2926 2.90677E+01-1.15368E+00-1.85882E-02-9.37557E-01 5.26766E-14 1.64105E-13
 -1      2927 3.00170E+01 4.76351E-01-1.67663E-01 2.72470E-01 2.70534E-13 2.27651E-13
 -1      2928 2.99548E+01 5.60121E+00-2.10458E-01-1.43947E+00 8.17652E-13-4.11476E-13
 -1      2929 3.01484E+01 3.61558E+00-1.01118E-01-1.56902E+00 6.21003E-13-5.56014E-13
 -1      2930 2.52016E+01-3.29881E+00 6.99450E-02-4.26905E+00-3.25823E-13-1.21569E-13
 -1      2931 2.73785E+01-2.74493E+00-1.29145E-01-2.76435E+00-1.20688E-13 2.58682E-14
 -1      2932 1.84978E+01-2.72932E+00 1.56097E-01-6.96707E+00-5.59830E-13-5.71723E-13
 -1      2933 2.20672E+01-3.54985E+00-5.43571E-02-6.10974E+00-4.24827E-13-3.59339E-13
 -1      2934 1.11970E+01-7.71791E-01 1.57511E-01-6.90141E+00-5.35405E-13-9.67421E-13
 -1      2935 1.42812E+01-1.87855E+00 1.47548E-02-7.61982E+00-5.46230E-13-8.07285E-13
 -1      2936 7.34622E+00 1.14887E+00 1.49639E-01-4.41940E+00-3.54120E-13-1.11677E-12
 -1      2937 8.91767E+00 2.33058E-01 1.38696E-01-6.15563E+00-4.38136E-13-1.06271E-12
 -1      2938 1.14446E+01 4.20142E-01 1.25565E-01-6.14925E+00-5.25996E-13-9.38263E-13
 -1      2939 1.90590E+01-3.49793E+00 1.64955E-01-5.37200E+00 6.08860E-13 2.08417E-13
 -1      2940 2.95199E+01 7.47504E+00-2.23700E-01-3.06338E-01 9.95592E-13-2.07615E-13
 -1      2941 2.97955E+01 7.03498E+00-1.61374E-01-9.87578E-01 9.52599E-13-3.23588E-13
 -1      2942 2.21154E+01 1.05975E+00-2.35416E-02 8.39968E-01 1.66014E-13-3.01490E-13
 -1      2943 2.20780E+01 1.03053E+00 8.33969E-03 3.84395E-01 8.66468E-14-3.16644E-13
 -1      2944 2.24718E+01 4.70403E-01 5.71781E-03 1.74859E-01 4.34579E-14-2.67498E-13
 -1      2945 2.24570E+01 7.45082E-01 1.11467E-02 1.11742E+00 1.84551E-13-2.15771E-13
 -1      2946 1.41109E+01 3.58164E+00 7.02097E-02-3.59743E+00-3.74531E-13-7.62649E-13
 -1      2947 1.31869E+01 3.95048E+00-3.31524E-02-3.09579E+00-3.75885E-13-7.79663E-13
 -1      2948 2.81494E+01-3.24949E+00-1.67270E-01 1.86108E+00 7.40553E-15-5.89875E-13
 -1      2949 2.64859E+01-4.27250E+00 5.20018E-02 3.52563E+00-2.02734E-13-5.45980E-13
 -1      2950 2.52321E+01-4.37981E+00 4.67430E-02 3.69971E+00-3.40741E-13-4.61763E-13
 -1      2951 6.66284E+00 1.28231E+00 1.59449E-01 5.80383E-01-9.70474E-14-1.08416E-12
 -1      2952 6.37164E+00 1.65579E+00 1.52439E-01-1.99793E+00-2.19179E-13-1.14381E-12
 -1      2953 2.03225E+01 3.88801E-01-1.24234E-02-2.80174E+00-2.65869E-13-4.27202E-13
 -1      2954 1.93987E+01 1.28706E+00 3.32761E-02-2.91560E+00-2.69968E-13-5.06615E-13
 -1      2955 1.81622E+01 1.63372E+00-1.65167E-02-3.39347E+00-3.22366E-13-5.48051E-13
 -1      2956 2.04402E+01 9.30835E-01-4.91000E-03 9.12095E-01 2.84080E-13-1.06002E-14
 -1      2957 2.00003E+01 6.78598E-01 1.09690E-02 9.15611E-01 2.51625E-13 4.14573E-14
 -1      2958 2.01570E+01 5.50341E-01-1.60004E-03 1.10903E+00 2.51679E-13 7.89923E-14
 -1      2959 8.81529E+00 1.13839E-01 1.78291E-01 3.53389E+00-1.99542E-13 6.59500E-13
 -1      2960 1.97234E+01-3.94981E+00 8.34262E-02 6.26854E+00-5.20695E-13-2.45845E-14
 -1      2961 1.74906E+01-5.07674E-01 1.25709E-01 4.27237E+00 2.25750E-13-3.70884E-13
 -1      2962 1.79464E+01-2.17913E+00 9.40729E-02 4.81268E+00 2.45845E-13-3.93158E-13
 -1      2963 8.98602E+00 1.11532E+00 1.25722E-01-8.91569E-03-1.63029E-14 5.65742E-13
 -1      2964 8.14649E+00 4.97839E-01 2.15128E-01-1.26617E+00 6.87853E-14 6.35908E-13
 -1      2965 1.02475E+01 7.26741E-01 9.90059E-02-2.47709E+00 1.93522E-13 4.65530E-13
 -1      2966 2.88401E+01 2.05763E+00-6.95027E-02-1.68276E+00 4.41619E-13-5.70669E-13
 -1      2967 2.06791E+01 2.88103E-01 4.42182E-03 1.48379E+00 2.98976E-13 7.64592E-14
 -1      2968 2.07679E+01 2.81317E-01 7.19835E-03 1.53283E+00 3.08907E-13 1.20805E-13
 -1      2969 1.99998E+01-5.13981E-04-1.30104E-06-6.26191E-04-1.49457E-14-4.20129E-13
 -1      2970 1.99997E+01-5.03537E-04-3.43595E-06-6.96567E-04-2.13606E-13-1.73564E-13
 -1      2971 1.99998E+01-5.94577E-04 3.57910E-06-6.31122E-04-1.11929E-13-3.49373E-13
 -1      2972 1.31596E+01-1.41566E+00 2.06032E-01 4.82836E+00 2.03698E-13-7.19369E-13
 -1      2973 1.30770E+01-1.38406E-01 1.42752E-01 4.06401E+00 1.48631E-13-6.98802E-13
 -1      2974 3.03683E+01 5.94654E+00-1.19765E-01 1.55512E+00 8.20954E-13 1.47493E-13
 -1      2975 2.86647E+01 6.32947E+00-1.77474E-01 1.52614E+00 7.81292E-13 1.65271E-13
 -1      2976 2.91770E+01 4.72764E+00-1.05304E-01 1.80217E+00 6.47538E-13 2.37171E-13
 -1      2977 1.99998E+01-5.19902E-04-6.65337E-07 6.27613E-04-3.07533E-14-4.35901E-13
 -1      2978 1.99998E+01-5.91890E-04 3.09381E-06 6.30648E-04 4.12537E-14-5.70502E-13
 -1      2979 1.99999E+01-6.47357E-04-2.92694E-07 6.92019E-04 2.20498E-13-4.93501E-13
 -1      2980 1.99997E+01-5.13057E-04-8.52438E-07 6.87360E-04 8.95413E-15-6.16337E-13
 -1      2981 7.81095E+00 2.03541E+00 1.80823E-01-3.12920E+00-3.07050E-13-1.09118E-12
 -1      2982 9.53565E+00 2.33413E+00 1.04676E-01-3.92852E+00-4.00579E-13-9.88654E-13
 -1      2983 8.57068E+00 2.85366E+00 8.90517E-02-1.77867E+00-2.14165E-13-9.98923E-13
 -1      2984 1.31041E+01-1.80671E+00 1.63434E-01 6.31227E+00-5.21486E-13 5.40568E-13
 -1      2985 9.17884E+00 1.63526E+00 1.84471E-01 1.40698E+00-1.62682E-14-9.54958E-13
 -1      2986 1.55132E+01 1.03176E-02 4.83737E-02-4.33519E+00 2.66981E-13 1.36516E-13
 -1      2987 2.03444E+01 4.34315E-01 7.78813E-03 1.27251E+00 2.60477E-13 8.74270E-14
 -1      2988 2.05482E+01 3.40247E-01 1.67058E-03 1.39970E+00 2.81323E-13 1.06643E-13
 -1      2989 2.07704E+01 6.34255E-01-7.50680E-04 1.35309E+00 2.80731E-13 3.43145E-14
 -1      2990 1.71903E+01-1.83870E+00 6.08728E-02-6.78154E+00-5.61495E-13-6.42708E-13
 -1      2991 2.37946E+01-3.07670E+00 4.47236E-02-4.49856E+00-4.33452E-13-1.88780E-13
 -1      2992 2.84473E+01 5.60980E+00-1.05505E-01-1.40685E+00 7.56228E-13-3.54786E-13
 -1      2993 2.78190E+01-1.85262E+00 1.17546E-02-1.17555E+00-1.23077E-13 1.46716E-13
 -1      2994 2.99098E+01 1.54983E+00-6.51624E-02 1.09705E+00 3.29972E-13 2.62165E-13
 -1      2995 2.89068E+01 2.47785E+00-1.90917E-01 1.81997E+00 4.11213E-13 3.10460E-13
 -1      2996 2.86118E+01 4.50111E-01-2.73601E-02 1.03515E+00 1.61163E-13 2.96298E-13
 -1      2997 2.00000E+01-7.41839E-04 3.57016E-06-5.75590E-04-1.92641E-14-1.18726E-13
 -1      2998 1.99999E+01-6.69857E-04-6.90308E-07-6.08978E-04-1.99602E-13-6.47658E-14
 -1      2999 1.99999E+01-6.62150E-04-2.69550E-06-6.81954E-04-8.51909E-14-2.89278E-13
 -1      3000 2.00000E+01-7.91121E-04-2.47585E-06-6.06219E-04 4.97696E-14-1.38492E-13
 -1      3001 2.81367E+01-2.21852E+00-2.96528E-02 5.14311E-01 2.22773E-14-6.13426E-13
 -1      3002 2.10642E+01 4.07409E-01-1.96261E-04 1.60307E+00 2.82867E-13 2.90211E-14
 -1      3003 1.68406E+01 2.28371E+00 6.44993E-02-3.81684E+00-3.56091E-13-6.21121E-13
 -1      3004 1.53974E+01 2.74931E+00-2.93157E-02-3.91196E+00-3.79855E-13-6.78450E-13
 -1      3005 1.44855E+01 2.47828E+00-1.46672E-03-4.32955E+00-4.00881E-13-7.21968E-13
 -1      3006 1.77113E+01 1.12542E+00-2.59534E-02-4.10603E+00-3.85047E-13-5.57769E-13
 -1      3007 1.69686E+01-2.64568E+00 7.55676E-02 5.12394E+00 2.38587E-13-4.78700E-13
 -1      3008 2.80814E+01 6.94940E+00-1.83735E-01 6.28584E-01 8.26672E-13 6.40113E-14
 -1      3009 2.90475E+01 7.35768E+00-1.61792E-01 1.38405E-01 9.29756E-13-6.44580E-14
 -1      3010 2.75507E+01 6.75856E+00-1.03318E-01-2.31167E-01 8.24882E-13-1.00784E-13
 -1      3011 1.49978E+01 6.22749E-01 6.29409E-02 3.71429E+00 1.22090E-13-5.27467E-13
 -1      3012 1.19428E+01 4.00754E+00 6.48671E-02-2.52554E+00-3.20649E-13-8.46875E-13
 -1      3013 1.19285E+01 4.13206E+00 3.08638E-02-1.59375E+00-2.81062E-13-8.02206E-13
 -1      3014 2.15119E+01 5.81414E-01-1.12502E-02 1.86580E+00 3.20923E-13-5.84572E-15
 -1      3015 2.18374E+01 6.62614E-01 5.66338E-03 1.86278E+00 3.01592E-13-5.52366E-14
 -1      3016 2.21229E+01 6.28830E-01-2.32564E-02 1.80805E+00 2.89283E-13-1.00807E-13
 -1      3017 2.24038E+01 6.28312E-01 3.63002E-03 1.63784E+00 2.30717E-13-1.33233E-13
 -1      3018 2.20648E+01 5.05412E-01 1.50024E-02 1.82847E+00 2.61335E-13-6.18757E-14
 -1      3019 2.07267E+01 3.35997E-01 7.25629E-03 1.55092E+00 3.25754E-13 1.80357E-13
 -1      3020 2.07997E+01 9.39483E-01-1.11909E-02-1.17074E+00 1.52604E-13-2.80260E-13
 -1      3021 2.07381E+01 1.20459E+00 1.28699E-02-9.28908E-01 1.42965E-13-2.34132E-13
 -1      3022 2.06264E+01-3.79239E+00 2.07419E-01 5.06232E+00 2.87381E-13-2.80727E-13
 -1      3023 2.06498E+01 1.39514E+00-3.61218E-03-5.78156E-01 1.37754E-13-1.87251E-13
 -1      3024 2.06439E+01 1.50841E+00 7.16258E-03-2.36286E-01 1.85800E-13-1.52847E-13
 -1      3025 2.11718E+01 1.55475E+00-4.92244E-03-8.11012E-01 1.79230E-13-2.46317E-13
 -1      3026 1.14584E+01 3.27785E+00 6.70794E-02-3.53429E+00-3.35180E-13-8.77791E-13
 -1      3027 1.15862E+01 2.50659E+00 1.58357E-01-4.62956E+00-4.13714E-13-8.97872E-13
 -1      3028 1.66373E+01 1.88558E+00 3.15141E-04-1.85275E+00 1.17358E-14 3.48064E-14
 -1      3029 1.71527E+01 1.81331E+00-2.53591E-02-1.62742E+00 5.17143E-14-5.46837E-14
 -1      3030 1.78393E+01 1.70263E+00-5.51117E-03-1.50757E+00 1.12233E-13-1.43202E-13
 -1      3031 1.82012E+01 1.55233E+00-1.85815E-02-1.32992E+00 5.88388E-14-1.46458E-13
 -1      3032 1.69454E+01 1.94912E+00 3.97859E-02-1.08624E+00 2.20119E-14-3.32859E-14
 -1      3033 1.86640E+01 1.39917E+00-4.62136E-03-1.23131E+00-5.72285E-15-1.42337E-13
 -1      3034 1.88994E+01 1.23901E+00-1.30833E-02-1.08176E+00-1.13312E-13-1.69917E-13
 -1      3035 1.80245E+01 1.62867E+00 2.54217E-02-9.56626E-01 1.85752E-14-2.39596E-13
 -1      3036 1.92075E+01 1.09106E+00-2.52779E-03-9.93448E-01-1.69795E-13-9.83066E-14
 -1      3037 1.93508E+01 9.49226E-01-9.26710E-03-8.67456E-01-1.29198E-13-1.12163E-13
 -1      3038 1.87482E+01 1.29155E+00 1.69486E-02-8.26779E-01-1.05975E-13-1.74518E-13
 -1      3039 1.95528E+01 8.24935E-01-7.54847E-04-7.88429E-01-1.61290E-13-1.45365E-13
 -1      3040 1.96343E+01 7.09935E-01-6.48051E-03-6.84514E-01-1.94277E-13-1.90273E-13
 -1      3041 1.92245E+01 9.90839E-01 1.11715E-02-6.95243E-01-1.83761E-13-9.09534E-14
 -1      3042 1.97596E+01 6.16673E-01 2.23719E-04-6.19339E-01-1.95229E-13-1.46787E-13
 -1      3043 1.98004E+01 5.31372E-01-4.61580E-03-5.38917E-01-1.74454E-13-2.26717E-13
 -1      3044 1.95259E+01 7.50208E-01 7.32146E-03-5.72487E-01-1.95025E-13-1.20853E-13
 -1      3045 1.98842E+01 4.56254E-01 7.28813E-04-4.80224E-01-1.34913E-13-1.41389E-13
 -1      3046 1.99042E+01 3.88585E-01-3.32996E-03-4.13327E-01-1.76745E-13-1.12615E-13
 -1      3047 1.97182E+01 5.60995E-01 4.73398E-03-4.60878E-01-1.15482E-13-6.42310E-14
 -1      3048 1.99565E+01 3.32910E-01 8.85324E-04-3.65176E-01-1.48286E-13 5.89554E-14
 -1      3049 1.99630E+01 2.83092E-01-2.32621E-03-3.13136E-01-2.73598E-14 1.25094E-13
 -1      3050 1.98412E+01 4.13377E-01 2.98350E-03-3.61899E-01-2.20854E-14 1.48762E-13
 -1      3051 1.99948E+01 2.42331E-01 9.10598E-04-2.74402E-01 5.66222E-14 9.71369E-14
 -1      3052 1.99943E+01 2.05839E-01-1.62511E-03-2.34413E-01 1.33974E-13 1.35335E-13
 -1      3053 1.99157E+01 3.03211E-01 1.81819E-03-2.79340E-01-1.81648E-14 3.27740E-13
 -1      3054 2.00132E+01 1.76154E-01 8.38066E-04-2.03800E-01 1.97346E-13-4.40390E-14
 -1      3055 2.00093E+01 1.49502E-01-1.13241E-03-1.73368E-01 1.15689E-13 4.91720E-14
 -1      3056 1.99594E+01 2.21850E-01 1.07640E-03-2.12248E-01 6.52816E-14 1.57791E-13
 -1      3057 2.00203E+01 1.27901E-01 7.24224E-04-1.49523E-01 4.31914E-14 1.56804E-14
 -1      3058 2.00153E+01 1.08429E-01-7.89220E-04-1.26554E-01 5.77308E-14 1.01153E-13
 -1      3059 1.99843E+01 1.62006E-01 6.14811E-04-1.58844E-01 1.18227E-13-3.60977E-14
 -1      3060 2.00214E+01 9.26949E-02 6.04874E-04-1.08220E-01 3.26073E-14 2.21308E-13
 -1      3061 2.00164E+01 7.84815E-02-5.25957E-04-9.10350E-02 3.04003E-14 1.13759E-13
 -1      3062 1.99977E+01 1.18013E-01 3.27151E-04-1.17043E-01 9.98260E-14-3.64085E-14
 -1      3063 2.00195E+01 6.75343E-02 4.92703E-04-7.77728E-02-5.96298E-14 1.87925E-14
 -1      3064 2.00152E+01 5.74665E-02-3.66261E-04-6.54946E-02-5.47328E-14-1.05835E-13
 -1      3065 2.00043E+01 8.62509E-02 1.29502E-04-8.54495E-02-8.03061E-14-5.47200E-14
 -1      3066 2.00167E+01 4.88632E-02 3.85517E-04-5.48568E-02-1.78019E-14-1.41541E-13
 -1      3067 2.00129E+01 4.10770E-02-2.67880E-04-4.53182E-02-1.09261E-13-2.43700E-13
 -1      3068 2.00071E+01 6.28816E-02 7.21478E-05-6.13260E-02-7.13604E-14-1.76625E-13
 -1      3069 2.00135E+01 3.47980E-02 2.99650E-04-3.74527E-02-6.74566E-14-2.70594E-13
 -1      3070 2.00104E+01 2.90802E-02-1.85460E-04-3.05079E-02-1.21468E-14-1.63094E-13
 -1      3071 2.00079E+01 4.50511E-02 1.95840E-05-4.26310E-02-8.67115E-14-1.87958E-13
 -1      3072 2.00105E+01 2.44810E-02 2.28379E-04-2.47631E-02 3.28627E-14-4.06691E-13
 -1      3073 2.00081E+01 2.02944E-02-1.27080E-04-1.97778E-02-1.31444E-14-3.96735E-13
 -1      3074 2.00075E+01 3.19164E-02-8.95701E-06-2.87918E-02-1.37271E-13-2.37629E-13
 -1      3075 2.00079E+01 1.69362E-02 1.71160E-04-1.56525E-02-1.25833E-13-3.62039E-13
 -1      3076 2.00061E+01 1.38864E-02-8.60487E-05-1.21340E-02-2.72582E-13-2.13534E-13
 -1      3077 2.00066E+01 2.22678E-02-2.22226E-05-1.87074E-02-5.72606E-14-2.78207E-13
 -1      3078 2.00058E+01 1.14497E-02 1.26130E-04-9.23162E-03-2.04710E-13-2.94200E-14
 -1      3079 2.00044E+01 9.24645E-03-5.70498E-05-6.80151E-03-1.15504E-13 8.73894E-14
 -1      3080 2.00056E+01 1.52170E-02-2.68107E-05-1.14932E-02-7.86329E-14-4.46789E-14
 -1      3081 2.00041E+01 7.49412E-03 9.09991E-05-4.81075E-03-2.63471E-13 1.07529E-13
 -1      3082 2.00031E+01 5.92801E-03-3.41252E-05-3.18204E-03-9.78739E-14 1.71945E-14
 -1      3083 2.00045E+01 1.01063E-02-2.70754E-05-6.44501E-03-2.00734E-13 2.35899E-13
 -1      3084 2.00028E+01 4.74479E-03 6.50096E-05-1.92078E-03-4.00567E-15-1.76504E-13
 -1      3085 2.00022E+01 3.68010E-03-2.06306E-05-9.03813E-04-3.92974E-14-1.98068E-13
 -1      3086 2.00036E+01 6.50328E-03-2.92541E-05-3.06987E-03-1.64232E-13-3.34602E-14
 -1      3087 2.00019E+01 2.79202E-03 4.49224E-05-4.33997E-05 1.76552E-13-1.96538E-13
 -1      3088 2.00014E+01 2.01993E-03-1.31501E-05 6.15718E-04 1.84014E-13-1.19409E-13
 -1      3089 2.00028E+01 3.97211E-03-2.11257E-05-8.43933E-04 2.24010E-14-1.65263E-13
 -1      3090 2.00012E+01 1.42182E-03 3.04766E-05 1.12344E-03 3.98867E-14-9.94372E-14
 -1      3091 2.00009E+01 9.04524E-04-6.68273E-06 1.49167E-03 8.69810E-14-7.82603E-14
 -1      3092 2.00021E+01 2.15400E-03-1.75907E-05 5.97632E-04 1.81519E-13-9.77635E-14
 -1      3093 2.00006E+01 5.12174E-04 1.95406E-05 1.75807E-03 1.28164E-13-4.52812E-14
 -1      3094 2.00005E+01 1.80620E-04-2.27278E-06 1.92862E-03 1.42191E-13 4.40921E-15
 -1      3095 2.00016E+01 9.32615E-04-1.43012E-05 1.43019E-03 1.67105E-13-1.41718E-13
 -1      3096 2.00003E+01-6.44121E-05 1.17277E-05 2.03361E-03 2.41396E-13-4.24675E-14
 -1      3097 2.00002E+01-2.64028E-04 5.01362E-07 2.07505E-03 2.01057E-13 1.05282E-13
 -1      3098 2.00011E+01 1.43151E-04-1.13649E-05 1.84520E-03 1.88863E-13 9.88818E-14
 -1      3099 2.00000E+01-4.05468E-04 6.28751E-06 2.07665E-03 5.72154E-14-1.13752E-14
 -1      3100 2.00000E+01-5.13509E-04 2.16662E-06 2.03814E-03 4.99142E-14 1.88694E-14
 -1      3101 2.00008E+01-3.38391E-04-8.84787E-06 1.98361E-03 6.04608E-14 2.09448E-13
 -1      3102 1.99999E+01-5.84446E-04 2.54832E-06 1.97779E-03 8.54929E-14-7.19777E-14
 -1      3103 1.99999E+01-6.30697E-04 2.97071E-06 1.89350E-03 7.87304E-14 5.58831E-14
 -1      3104 2.00005E+01-6.05317E-04-6.76004E-06 1.94750E-03 6.75607E-14 3.08477E-14
 -1      3105 1.99998E+01-6.54787E-04 1.75742E-07 1.80500E-03-3.59448E-14 2.03294E-13
 -1      3106 1.99998E+01-6.62976E-04 3.28368E-06 1.70407E-03 8.99518E-14 1.02050E-13
 -1      3107 2.00003E+01-7.27363E-04-5.11518E-06 1.81380E-03 7.57649E-14-1.42288E-13
 -1      3108 1.99997E+01-6.61083E-04-1.15970E-06 1.59643E-03 9.95497E-15-1.67728E-15
 -1      3109 1.99997E+01-6.47606E-04 3.22415E-06 1.48282E-03-1.07161E-13-1.26134E-13
 -1      3110 2.00001E+01-7.58551E-04-3.80980E-06 1.62785E-03-1.43325E-13-4.44651E-14
 -1      3111 1.99997E+01-6.29949E-04-1.88249E-06 1.37210E-03-8.70786E-14-1.30161E-13
 -1      3112 1.99997E+01-6.06772E-04 2.83246E-06 1.25971E-03 1.20350E-13-2.29262E-13
 -1      3113 2.00000E+01-7.37573E-04-2.83439E-06 1.41609E-03-1.49681E-13-1.52152E-13
 -1      3114 1.99997E+01-5.82922E-04-1.72750E-06 1.15258E-03 2.68228E-13-4.79487E-13
 -1      3115 1.99997E+01-5.58675E-04 3.42585E-06 1.04734E-03 2.16510E-13-6.37745E-13
 -1      3116 1.99999E+01-6.90977E-04-2.45791E-06 1.20285E-03-4.15313E-14-3.51816E-13
 -1      3117 1.99997E+01-5.39839E-04-2.29636E-06 9.44210E-04 1.67151E-13-7.07608E-13
 -1      3118 1.99997E+01-5.20584E-04 1.33950E-06 8.45842E-04 4.62535E-14-7.14846E-13
 -1      3119 1.99999E+01-6.43383E-04-3.52184E-06 9.97937E-04 6.32801E-14-7.33237E-13
 -1      3120 1.39147E+01 2.04489E+00 8.58674E-03-4.81549E+00-4.57015E-13-7.47583E-13
 -1      3121 1.23799E+01 1.12934E+00 7.30355E-02-5.70583E+00-4.73926E-13-8.44852E-13
 -1      3122 1.45925E+01 2.38748E-01 1.83700E-01-6.40948E+00-5.54640E-13-7.72986E-13
 -1      3123 1.58944E+01 1.44420E+00 1.36154E-01-5.09440E+00-4.55769E-13-6.63575E-13
 -1      3124 2.06756E+01 1.52523E+00 6.52299E-03 1.86644E-01 2.52152E-13-9.42160E-14
 -1      3125 2.07398E+01 1.44830E+00-1.81270E-03 5.39284E-01 3.02719E-13-6.64311E-14
 -1      3126 2.11288E+01 1.81650E+00-7.61661E-03 2.45353E-03 2.46830E-13-1.65209E-13
 -1      3127 2.11867E+01-2.07265E-01-9.03380E-03-1.41206E+00 7.70264E-14-2.94800E-13
 -1      3128 2.11189E+01 5.13982E-02 6.60815E-03-1.45071E+00 1.08301E-13-3.02514E-13
 -1      3129 2.12299E+01-5.61299E-01-3.21273E-03-1.15897E+00 1.24581E-13-2.44843E-13
 -1      3130 2.11983E+01-4.08511E-01 4.49253E-04-1.28374E+00 1.11925E-13-2.78242E-13
 -1      3131 2.16326E+01-3.72976E-01 7.93765E-03-1.37647E+00 7.36236E-14-3.00666E-13
 -1      3132 2.11497E+01-7.04318E-01 1.63074E-03-8.16877E-01 3.29889E-14-1.43553E-13
 -1      3133 2.11564E+01-6.57067E-01-3.80352E-03-9.74263E-01 8.00878E-14-1.92776E-13
 -1      3134 2.15454E+01-7.30145E-01 5.30075E-03-1.04002E+00 6.21149E-14-3.26871E-13
 -1      3135 2.09887E+01-6.84536E-01 4.27128E-03-4.83114E-01 1.35645E-14-1.24651E-13
 -1      3136 2.10241E+01-7.12597E-01-5.48558E-03-6.34226E-01 5.04009E-14-1.33317E-13
 -1      3137 2.13368E+01-8.45224E-01 1.08752E-03-6.60700E-01 2.25582E-14-2.19637E-13
 -1      3138 2.07966E+01-5.70327E-01 5.16011E-03-2.10303E-01 3.29589E-14-1.38678E-13
 -1      3139 2.08468E+01-6.37840E-01-5.25994E-03-3.33953E-01 3.21804E-14-1.15736E-13
 -1      3140 2.10734E+01-7.84891E-01-1.86211E-03-3.27047E-01 1.53304E-14-1.77223E-13
 -1      3141 2.06106E+01-4.21777E-01 4.82393E-03-1.41405E-02-5.12992E-14-6.38018E-14
 -1      3142 2.06643E+01-5.00257E-01-4.12636E-03-1.03965E-01 5.98892E-15-6.47279E-14
 -1      3143 2.08115E+01-6.32331E-01-3.19970E-03-7.62298E-02-4.23763E-14-1.47349E-13
 -1      3144 2.04507E+01-2.77583E-01 3.92003E-03 1.10706E-01-9.31258E-14-7.75311E-14
 -1      3145 2.05007E+01-3.49855E-01-2.86046E-03 5.27119E-02-6.20352E-14-4.78802E-14
 -1      3146 2.05839E+01-4.53609E-01-3.45863E-03 8.99977E-02-5.43555E-14-4.22269E-14
 -1      3147 2.03237E+01-1.57661E-01 2.87755E-03 1.78295E-01 1.36693E-14-1.00367E-13
 -1      3148 2.03666E+01-2.15684E-01-1.74902E-03 1.46218E-01-3.16815E-14-4.29268E-14
 -1      3149 2.04035E+01-2.88429E-01-3.08975E-03 1.85325E-01-3.19820E-14-1.41210E-13
 -1      3150 2.02281E+01-6.83947E-02 1.93485E-03 2.04538E-01-5.53500E-15-3.93667E-14
 -1      3151 2.02632E+01-1.10334E-01-9.00570E-04 1.91482E-01 7.77209E-15-5.74424E-14
 -1      3152 2.02698E+01-1.55414E-01-2.45487E-03 2.28031E-01-2.56204E-14-7.16855E-14
 -1      3153 2.01591E+01-8.20516E-03 1.18568E-03 2.03604E-01 3.87926E-14-2.39203E-14
 -1      3154 2.01868E+01-3.56400E-02-3.14167E-04 2.03269E-01 2.31766E-14-1.54284E-14
 -1      3155 2.01759E+01-5.89851E-02-1.80676E-03 2.35333E-01-9.59905E-16 3.94265E-15
 -1      3156 2.01105E+01 2.81097E-02 6.42924E-04 1.86633E-01 1.05018E-14 8.72315E-14
 -1      3157 2.01321E+01 1.22035E-02 5.95144E-05 1.93943E-01 3.14486E-14 2.34653E-14
 -1      3158 2.01128E+01 4.34434E-03-1.25772E-03 2.21048E-01-1.28435E-14 1.18480E-13
 -1      3159 2.00768E+01 4.66867E-02 2.80415E-04 1.61682E-01 6.17367E-14 1.33885E-13
 -1      3160 2.00935E+01 3.91258E-02 2.76049E-04 1.72891E-01 4.14643E-14 9.97578E-14
 -1      3161 2.00717E+01 4.12847E-02-8.38170E-04 1.95286E-01-2.32658E-14 1.67384E-13
 -1      3162 2.00537E+01 5.31706E-02 5.72258E-05 1.34163E-01-8.15175E-15 1.47942E-13
 -1      3163 2.00665E+01 5.11569E-02 3.82369E-04 1.46714E-01 6.18175E-14 1.29769E-13
 -1      3164 2.00459E+01 5.90553E-02-5.40020E-04 1.64941E-01 4.25188E-14 1.02587E-13
 -1      3165 2.00378E+01 5.21205E-02-6.68553E-05 1.07425E-01-4.37062E-14 5.69020E-14
 -1      3166 2.00477E+01 5.34605E-02 4.15482E-04 1.19711E-01-3.97230E-14 1.36075E-13
 -1      3167 2.00299E+01 6.40260E-02-3.40950E-04 1.34384E-01-2.32751E-14 1.18687E-13
 -1      3168 2.00268E+01 4.68973E-02-1.24875E-04 8.33239E-02-2.38484E-13 1.71608E-13
 -1      3169 2.00344E+01 5.00103E-02 4.03605E-04 9.44386E-02-1.35539E-13 9.63906E-14
 -1      3170 2.00201E+01 6.12094E-02-2.14303E-04 1.06136E-01-6.54973E-14 1.10240E-13
 -1      3171 2.00191E+01 3.98045E-02-1.41765E-04 6.27038E-02-1.53180E-13 9.38869E-14
 -1      3172 2.00249E+01 4.36293E-02 3.66385E-04 7.22263E-02-1.91220E-13 1.12567E-13
 -1      3173 2.00141E+01 5.42344E-02-1.36114E-04 8.14600E-02-1.32879E-13 7.38279E-14
 -1      3174 2.00136E+01 3.23099E-02-1.35378E-04 4.57549E-02-7.31874E-14-2.82600E-14
 -1      3175 2.00180E+01 3.61863E-02 3.17055E-04 5.35801E-02-7.03153E-14 2.96295E-14
 -1      3176 2.00104E+01 4.55471E-02-8.95185E-05 6.07902E-02-2.75857E-14 7.21457E-14
 -1      3177 2.00097E+01 2.52657E-02-1.17567E-04 3.22811E-02 8.32242E-14-4.14248E-14
 -1      3178 2.00130E+01 2.88231E-02 2.64412E-04 3.84920E-02-2.21564E-14-2.25248E-14
 -1      3179 2.00079E+01 3.66800E-02-6.23193E-05 4.40539E-02 2.81804E-14-1.40863E-14
 -1      3180 2.00068E+01 1.91003E-02-9.57179E-05 2.18848E-02 3.35776E-15 1.30164E-14
 -1      3181 2.00092E+01 2.21639E-02 2.13827E-04 2.66636E-02 7.66307E-14 2.73813E-14
 -1      3182 2.00062E+01 2.85013E-02-4.63918E-05 3.08948E-02 4.50501E-14 1.55889E-13
 -1      3183 2.00047E+01 1.39692E-02-7.40622E-05 1.40883E-02-1.26640E-13 4.21018E-14
 -1      3184 2.00065E+01 1.64877E-02 1.68240E-04 1.76576E-02-1.18383E-13 1.45793E-15
 -1      3185 2.00049E+01 2.14283E-02-3.66751E-05 2.08254E-02-2.22704E-14-2.11255E-14
 -1      3186 2.00031E+01 9.86408E-03-5.47784E-05 8.40867E-03-1.37840E-13 2.06004E-13
 -1      3187 2.00044E+01 1.18587E-02 1.28993E-04 1.09945E-02-8.81332E-14 8.73562E-14
 -1      3188 2.00039E+01 1.55913E-02-3.02451E-05 1.33228E-02-1.80389E-13 3.91319E-14
 -1      3189 2.00020E+01 6.68822E-03-3.87388E-05 4.40006E-03-1.07774E-13 1.86113E-13
 -1      3190 2.00029E+01 8.21735E-03 9.64143E-05 6.21158E-03-1.67817E-13 1.93712E-13
 -1      3191 2.00030E+01 1.09510E-02-2.55210E-05 7.88585E-03-1.25922E-13 7.42452E-14
 -1      3192 2.00011E+01 4.30613E-03-2.60279E-05 1.67454E-03 1.04588E-13 9.39120E-14
 -1      3193 2.00018E+01 5.44294E-03 7.01608E-05 2.89370E-03 1.65947E-14 1.52645E-13
 -1      3194 2.00023E+01 7.37972E-03-2.15920E-05 4.06599E-03 2.97338E-15 1.83191E-13
 -1      3195 2.00006E+01 2.57403E-03-1.63717E-05-9.20803E-05 1.21405E-13 1.40419E-13
 -1      3196 2.00010E+01 3.39297E-03 4.95313E-05 6.86539E-04 1.65771E-13 6.35589E-14
 -1      3197 2.00018E+01 4.71353E-03-1.81235E-05 1.48025E-03 1.42063E-13 3.51858E-14
 -1      3198 2.00002E+01 1.35584E-03-9.33357E-06-1.16190E-03 7.87306E-14 1.09169E-13
 -1      3199 2.00004E+01 1.92576E-03 3.37230E-05-7.01480E-04 1.69627E-13 2.01840E-13
 -1      3200 2.00013E+01 2.78350E-03-1.50351E-05-1.87770E-04 6.43868E-14 7.14707E-14
 -1      3201 1.99999E+01 5.31636E-04-4.40854E-06-1.74054E-03-2.97668E-14 1.66919E-13
 -1      3202 2.00000E+01 9.12237E-04 2.19075E-05-1.50270E-03-6.69908E-16 1.65347E-13
 -1      3203 2.00009E+01 1.43255E-03-1.22606E-05-1.19155E-03 2.31994E-14 1.01369E-13
 -1      3204 1.99997E+01 9.00172E-07-1.11848E-06-1.98503E-03-4.51794E-14 2.12022E-13
 -1      3205 1.99998E+01 2.41647E-04 1.32984E-05-1.89705E-03 1.86116E-14 3.11262E-13
 -1      3206 2.00006E+01 5.23569E-04-9.80885E-06-1.72863E-03-1.05547E-13 3.55852E-13
 -1      3207 1.99996E+01-3.17650E-04 9.48889E-07-2.01231E-03-6.35233E-14 1.09278E-13
 -1      3208 1.99996E+01-1.77108E-04 7.20627E-06-2.02034E-03-1.49245E-14 8.10747E-14
 -1      3209 2.00004E+01-5.75576E-05-7.68444E-06-1.94923E-03 6.47802E-14 3.10504E-13
 -1      3210 1.99996E+01-4.87973E-04 2.12614E-06-1.90709E-03 3.06500E-14-1.88650E-13
 -1      3211 1.99995E+01-4.16646E-04 3.04332E-06-1.97242E-03-5.71568E-14-6.07289E-14
 -1      3212 2.00002E+01-4.02653E-04-5.88282E-06-1.96483E-03 1.50058E-14-8.23237E-15
 -1      3213 1.99995E+01-5.59383E-04 2.67160E-06-1.72875E-03 1.20856E-13-2.55577E-13
 -1      3214 1.99995E+01-5.33506E-04 3.32522E-07-1.82452E-03 5.49476E-14-1.73791E-13
 -1      3215 2.00000E+01-5.83779E-04-4.39811E-06-1.85597E-03 5.34002E-14-3.13423E-13
 -1      3216 1.99996E+01-5.69327E-04 2.76963E-06-1.51712E-03 1.71750E-13 3.44307E-14
 -1      3217 1.99995E+01-5.70930E-04-1.31029E-06-1.62561E-03 1.49140E-13-1.67759E-13
 -1      3218 1.99999E+01-6.56359E-04-3.20652E-06-1.67893E-03 4.23890E-14-2.09385E-13
 -1      3219 1.99996E+01-5.45532E-04 2.65237E-06-1.29712E-03 1.35923E-13 1.30501E-13
 -1      3220 1.99995E+01-5.61478E-04-2.16533E-06-1.40747E-03 3.05132E-13 3.18408E-14
 -1      3221 1.99999E+01-6.62525E-04-2.31288E-06-1.47129E-03 7.52004E-14-1.11027E-14
 -1      3222 1.99996E+01-5.09774E-04 2.21348E-06-1.08328E-03 8.31560E-14 4.49902E-14
 -1      3223 1.99996E+01-5.29463E-04-2.48048E-06-1.18968E-03 1.08002E-13 8.63791E-14
 -1      3224 1.99998E+01-6.33271E-04-1.62758E-06-1.25652E-03 1.13844E-13 3.17141E-15
 -1      3225 1.99996E+01-4.77769E-04 4.31083E-07-8.82279E-04-1.29823E-13 7.86855E-14
 -1      3226 1.99996E+01-4.92827E-04-2.52254E-06-9.80902E-04-2.73585E-14-7.22568E-15
 -1      3227 1.99998E+01-5.92571E-04-1.01330E-06-1.04820E-03 8.84724E-14-7.44008E-15
 -1      3228 1.99997E+01-4.92976E-04-1.01715E-06-7.52935E-04-2.72179E-13 3.30220E-14
 -1      3229 1.99997E+01-4.85124E-04-2.95845E-06-8.22711E-04-2.49872E-13 8.15764E-16
 -1      3230 1.99998E+01-5.72954E-04 6.82222E-07-8.83595E-04-1.90322E-13-4.85788E-14
 -1      3231 1.99998E+01-5.77282E-04 3.43994E-06-7.60766E-04-1.47625E-13-3.80514E-13
 -1      3232 2.00002E+01-9.00029E-04-1.15280E-06 5.50531E-04 2.14579E-13-1.04529E-14
 -1      3233 2.00003E+01-9.44559E-04 3.44913E-06 4.50618E-04 2.10086E-14 3.83045E-14
 -1      3234 2.00004E+01-1.02413E-03 1.37289E-06 6.37864E-05-1.93860E-13 2.17366E-13
 -1      3235 2.00004E+01-1.02386E-03 1.27806E-06-6.37102E-05-1.34352E-13 4.69332E-13
 -1      3236 1.33106E+01 1.45460E+00 1.57346E-01 3.02448E+00 7.61648E-14-6.59583E-13
 -1      3237 2.12064E+01-4.10376E+00-1.07024E-01 5.33610E+00-4.54733E-13-2.59716E-13
 -1      3238 1.82836E+01-2.90151E+00 1.72667E-01 6.10645E+00-4.98955E-13 9.64784E-14
 -1      3239 2.73466E+01 2.69854E+00-1.59496E-01-1.94863E+00 4.72095E-13-4.85351E-13
 -1      3240 2.77180E+01 9.73470E-01 2.27780E-02-1.74233E+00 3.12646E-13-5.68733E-13
 -1      3241 2.10208E+01 3.35022E-01-1.25694E-02-1.44978E+00 1.08202E-13-3.17812E-13
 -1      3242 2.09376E+01 6.48355E-01 1.22692E-02-1.35469E+00 1.35585E-13-3.20104E-13
 -1      3243 2.15612E+01 2.25896E-01 7.26966E-03-1.53000E+00 7.04012E-14-3.73309E-13
 -1      3244 1.03127E+01 9.67526E-02 5.61765E-02 4.24679E+00-2.76126E-13 5.53307E-13
 -1      3245 9.23995E+00 9.21317E-01 1.18937E-01 2.36519E+00-1.37779E-13 5.33462E-13
 -1      3246 1.49621E+01 1.67910E+00 1.29971E-02-2.37469E+00 1.56689E-14 2.57259E-13
 -1      3247 1.56121E+01 1.85539E+00-3.15461E-02-2.03405E+00 2.59688E-15 1.02297E-13
 -1      3248 1.53524E+01 2.14068E+00 6.86339E-02-1.24343E+00-3.96276E-14 1.26962E-13
 -1      3249 2.00000E+01-7.69624E-04-3.57746E-06 7.15002E-04 3.49920E-13 1.46951E-13
 -1      3250 2.00002E+01-8.30121E-04 4.30061E-06 6.48980E-04 2.89896E-13 1.07338E-13
 -1      3251 2.00003E+01-8.89138E-04-1.47580E-06 6.55368E-04 1.37026E-13 1.12618E-13
 -1      3252 1.77156E+01-1.10529E+00 2.69865E-02-6.03283E+00-5.54175E-13-5.71286E-13
 -1      3253 1.48389E+01-2.02212E+00-4.51617E-02 6.22165E+00-4.86930E-13 3.97168E-13
 -1      3254 1.25374E+01-6.57309E-01 1.65399E-01 5.36389E+00-4.17791E-13 5.39513E-13
 -1      3255 2.00004E+01-9.87422E-04 9.94976E-08 3.23882E-04-1.63601E-14 1.49430E-13
 -1      3256 2.00004E+01-1.01006E-03 2.42867E-06 2.05484E-04-1.29201E-13 2.43204E-13
 -1      3257 2.00005E+01-1.04543E-03-2.82193E-06 1.45439E-04-2.23841E-13 2.99326E-13
 -1      3258 2.00004E+01-9.93315E-04-2.58898E-06 4.22231E-04-3.67918E-14 1.21023E-13
 -1      3259 2.10982E+01 4.07162E-01-4.19351E-03 1.70361E+00 3.30402E-13 6.89741E-14
 -1      3260 2.66881E+01 5.52681E+00-1.53303E-01-1.15884E+00 7.24434E-13-2.62394E-13
 -1      3261 2.70528E+01 4.45612E+00-7.68334E-02-1.78819E+00 6.15313E-13-4.07153E-13
 -1      3262 2.23567E+01-2.43533E+00 6.39293E-02-4.59610E+00-4.67036E-13-2.42213E-13
 -1      3263 2.46715E+01-2.88999E+00-1.10139E-01-3.15802E+00-3.28682E-13-5.00997E-14
 -1      3264 2.28556E+01-2.99324E-01-2.69887E-02-6.56257E-01-7.62530E-14-2.39168E-13
 -1      3265 2.25141E+01-3.30925E-01 2.00400E-02-1.39394E+00-1.77235E-13-2.70385E-13
 -1      3266 2.55235E+01-4.15789E+00-1.34300E-01 2.61660E+00-2.36623E-13-4.24339E-13
 -1      3267 2.42078E+01-4.08194E+00 1.31205E-01 3.81841E+00-3.64996E-13-3.81185E-13
 -1      3268 2.75601E+01-1.49908E+00-1.69921E-01-6.23160E-01 1.23204E-13-5.89764E-13
 -1      3269 2.70634E+01-2.91277E+00 6.99757E-02 9.00659E-01-9.95905E-14-5.49089E-13
 -1      3270 1.06982E+01 2.00083E+00 1.09591E-01 1.96892E+00 1.68962E-15-8.27685E-13
 -1      3271 9.29261E+00 2.83544E+00 1.50917E-01-6.48536E-02-1.13356E-13-9.49837E-13
 -1      3272 1.01819E+01 3.22787E+00 1.18026E-01-1.11375E+00-2.13836E-13-9.23095E-13
 -1      3273 1.29967E+01 2.59242E+00 1.04526E-01 1.81450E+00-5.13894E-14-6.78430E-13
 -1      3274 2.66111E+01-2.09663E+00 6.67979E-02-1.37971E+00-1.93593E-13 1.39021E-13
 -1      3275 2.75351E+01-1.20845E+00-1.06183E-01 4.77083E-02-1.23304E-14 2.41279E-13
 -1      3276 2.08908E+01 1.29631E+00 1.13652E-02 9.06590E-01 3.17166E-13-2.81465E-14
 -1      3277 2.10156E+01 1.09219E+00-7.62271E-03 1.17978E+00 3.03778E-13 1.06193E-14
 -1      3278 2.13021E+01 1.64669E+00-4.14298E-03 8.33353E-01 3.20243E-13-5.39477E-14
 -1      3279 2.27402E+01 4.05127E-01 1.17734E-02 1.61148E+00 2.17442E-13-1.10584E-13
 -1      3280 2.26395E+01 4.82475E-01-2.62164E-02 1.42073E+00 2.18761E-13-1.61764E-13
 -1      3281 2.28512E+01 3.99968E-01 8.39511E-03 1.07619E+00 1.42346E-13-1.83234E-13
 -1      3282 2.13660E+01 9.48221E-01 2.56578E-03-1.35913E+00 1.52611E-13-3.52250E-13
 -1      3283 9.85953E+00 1.39372E+00 1.58241E-01 1.08041E+00-8.59321E-14 5.16726E-13
 -1      3284 1.08437E+01 1.63600E+00 6.52228E-02-3.04930E-01-2.54614E-14 4.08396E-13
 -1      3285 1.09711E+01 1.34990E+00 1.57953E-02 1.82984E+00-1.47760E-13 4.80352E-13
 -1      3286 2.61008E+01 3.03608E+00-5.55730E-02-1.86468E+00 4.28546E-13-4.31200E-13
 -1      3287 2.84554E+01 3.42311E+00-1.00687E-01 2.03892E+00 4.89997E-13 2.75523E-13
 -1      3288 2.73242E+01 4.17697E+00-1.27940E-01 2.09829E+00 5.47673E-13 2.46685E-13
 -1      3289 2.75631E+01 2.22396E+00-5.19792E-02 1.96488E+00 3.52135E-13 2.47150E-13
 -1      3290 1.26844E+01 1.03691E-01 1.23033E-01 4.34338E+00-3.05835E-13 4.25660E-13
 -1      3291 1.99997E+01-5.05993E-04-8.27004E-07 7.47379E-04 9.30484E-14-5.72895E-13
 -1      3292 2.14284E+01 3.97941E-01 7.51151E-04 1.74246E+00 2.83539E-13-7.33918E-15
 -1      3293 2.13518E+01 4.97852E-01 3.69997E-03 1.79882E+00 3.21377E-13 5.31713E-14
 -1      3294 1.71997E+01-4.20274E-02-1.46081E-02-5.34900E+00-5.00815E-13-5.83901E-13
 -1      3295 2.01265E+01-1.75419E+00 3.50531E-02-5.44950E+00-5.23991E-13-4.46525E-13
 -1      3296 2.14549E+01-1.55869E+00 3.03127E-03-4.15091E+00-4.45047E-13-3.27861E-13
 -1      3297 1.76863E+01 6.10859E-01 1.48360E-02-4.67316E+00-4.63437E-13-5.54803E-13
 -1      3298 2.00003E+01-9.39685E-04 3.20384E-06-4.53653E-04-1.62737E-13 3.25926E-13
 -1      3299 2.00002E+01-8.93410E-04-8.26739E-07-5.52344E-04-5.59084E-14 6.08291E-14
 -1      3300 2.57804E+01 5.71586E+00-1.14331E-01-2.89597E-01 6.28206E-13-6.97090E-14
 -1      3301 2.63587E+01 5.72945E+00-1.11002E-01-7.98573E-01 6.67161E-13-1.83294E-13
 -1      3302 2.52926E+01 4.66878E+00-4.20525E-02-1.11268E+00 5.02071E-13-2.70479E-13
 -1      3303 2.69967E+01 5.53025E+00-1.08240E-01 1.49657E+00 6.60874E-13 1.72660E-13
 -1      3304 2.76995E+01 6.37546E+00-1.28013E-01 1.13104E+00 7.47236E-13 1.16497E-13
 -1      3305 2.65207E+01 6.11939E+00-9.06507E-02 7.88272E-01 6.89421E-13 1.08628E-13
 -1      3306 2.00005E+01-1.04367E-03-2.77917E-06-1.47443E-04-2.78077E-13 5.38332E-13
 -1      3307 2.00004E+01-1.00798E-03 2.48948E-06-2.06344E-04-1.28730E-13 6.22857E-13
 -1      3308 2.00004E+01-9.84101E-04 9.94906E-08-3.26403E-04-1.88145E-13 4.83902E-13
 -1      3309 2.65703E+01-9.51067E-01-1.46414E-02 4.91161E-01-4.99600E-15 1.25511E-13
 -1      3310 2.76551E+01-4.33826E-01-2.23747E-02 8.01895E-01 5.15560E-14 2.33522E-13
 -1      3311 2.71461E+01 3.97293E-01-9.85479E-02 1.47240E+00 1.42067E-13 2.20903E-13
 -1      3312 2.24650E+01-3.65866E+00 2.76862E-02 4.14959E+00-3.59532E-13-2.41836E-13
 -1      3313 2.67726E+01-4.12713E-01-3.84086E-02-1.24161E+00 1.29237E-13-5.23179E-13
 -1      3314 2.52660E+01-2.12821E+00-1.75699E-03-1.77541E+00-2.46889E-13 9.75955E-15
 -1      3315 1.99998E+01-5.95692E-04-1.65310E-06 7.99711E-04 9.87607E-14-9.27990E-13
 -1      3316 1.37396E+01 4.24798E+00 1.31837E-02-2.27913E-01-2.19536E-13-6.70609E-13
 -1      3317 1.47692E+01 3.93520E+00 1.79832E-02 4.79383E-01-2.00387E-13-5.90493E-13
 -1      3318 1.33329E+01 3.24294E+00 7.79739E-02 1.14120E+00-1.09850E-13-6.54962E-13
 -1      3319 2.11985E+01 8.79115E-01 9.45556E-03 1.41040E+00 2.70959E-13 1.98206E-14
 -1      3320 2.13560E+01 6.67008E-01-6.68422E-03 1.58084E+00 2.67181E-13 1.74830E-14
 -1      3321 2.16116E+01 1.18804E+00 2.08359E-03 1.44183E+00 3.08150E-13-8.88341E-15
 -1      3322 2.00002E+01-8.33722E-04 3.37644E-06-6.31654E-04 2.71863E-14-2.53562E-13
 -1      3323 2.00001E+01-7.80932E-04-8.97542E-07-6.85903E-04 1.44424E-13-2.51925E-13
 -1      3324 2.00003E+01-8.91373E-04-2.65288E-06-6.38933E-04 9.49810E-14-2.42451E-13
 -1      3325 1.73169E+01-1.99444E+00 8.79177E-02 5.49005E+00-4.30544E-13 1.86053E-13
 -1      3326 1.31180E+01 1.33438E+00 4.12442E-02-2.58469E+00 1.02036E-13 3.37966E-13
 -1      3327 1.25317E+01 1.85994E+00 1.18428E-01-1.37974E+00-1.07379E-15 3.63286E-13
 -1      3328 2.59207E+01-3.15646E+00 1.93780E-02 1.23234E+00-1.19052E-13-4.27706E-13
 -1      3329 2.30036E+01 3.56768E-02 1.69491E-02 8.75625E-02-5.42318E-15-2.07545E-13
 -1      3330 2.35620E+01-4.39503E-01 2.92928E-02-1.17414E-01-4.22665E-14-1.52854E-13
 -1      3331 2.29659E+01 1.37819E-01-2.88748E-02 6.28919E-01 8.04735E-14-2.08558E-13
 -1      3332 1.99999E+01-6.56051E-04 3.02777E-06 7.87295E-04 1.96938E-13-5.26086E-13
 -1      3333 2.35602E+01-1.44268E+00 3.16629E-02-1.99027E+00-2.60722E-13-1.23730E-13
 -1      3334 2.23320E+01-9.89834E-01 5.83952E-03-2.65700E+00-3.00818E-13-2.53312E-13
 -1      3335 2.00000E+01-7.18879E-04 1.66991E-06 8.34051E-04 1.37619E-13-3.30918E-13
 -1      3336 2.14769E+01 4.97094E-01 4.41373E-03 1.67083E+00 2.56592E-13 4.44230E-15
 -1      3337 2.15827E+01 4.12852E-01 2.74945E-03 1.75733E+00 2.52042E-13-8.46350E-15
 -1      3338 2.17874E+01 4.43545E-01-1.29640E-02 1.81685E+00 2.70249E-13-5.40887E-14
 -1      3339 2.18892E+01 6.92558E-01 7.25636E-03 1.75633E+00 2.59242E-13-6.96491E-15
 -1      3340 2.20851E+01-5.22593E-02-1.58646E-02-1.56670E+00 4.31866E-14-3.34960E-13
 -1      3341 2.20401E+01 3.89002E-01 8.75128E-03-1.58767E+00 9.53059E-14-3.26634E-13
 -1      3342 2.48432E+01 3.27524E+00-8.66065E-02-1.65953E+00 4.06210E-13-2.94318E-13
 -1      3343 2.54003E+01 2.12407E+00 2.34024E-02-2.01569E+00 3.30302E-13-4.14769E-13
 -1      3344 1.35873E+01 7.94061E-01 1.72284E-01-3.53043E+00 1.93120E-13 3.86163E-13
 -1      3345 2.00003E+01-8.84697E-04 1.53457E-07 7.60161E-04-1.73520E-15 2.06512E-13
 -1      3346 2.00004E+01-9.42193E-04 4.07745E-06 6.61497E-04-8.19163E-14 1.17436E-13
 -1      3347 1.45185E+01 3.48703E+00 4.22582E-02 1.02962E+00-1.47795E-13-5.80518E-13
 -1      3348 1.74574E+01 1.64918E+00-1.70104E-02-5.50809E-01-6.16336E-14-5.64785E-14
 -1      3349 1.79227E+01 1.49806E+00-1.17911E-02-5.27223E-01 1.86851E-15-6.08402E-14
 -1      3350 1.83316E+01 1.34431E+00-1.14930E-02-5.64615E-01-5.17316E-15-1.63376E-13
 -1      3351 1.86400E+01 1.19682E+00-8.39666E-03-5.25000E-01-1.06502E-13-1.55588E-13
 -1      3352 1.79863E+01 1.45336E+00 2.11882E-02-2.02753E-01-8.67227E-14-3.67861E-14
 -1      3353 1.89213E+01 1.05755E+00-7.05256E-03-5.30988E-01-9.73817E-14-1.18465E-13
 -1      3354 1.91211E+01 9.28902E-01-6.16445E-03-4.83011E-01-1.02999E-13-7.59561E-14
 -1      3355 1.86503E+01 1.16868E+00 1.43437E-02-2.97377E-01-4.20448E-14-1.25513E-13
 -1      3356 1.93054E+01 8.17828E-01-4.21446E-03-4.71120E-01-1.63501E-13-3.49909E-14
 -1      3357 1.94276E+01 7.17380E-01-4.58865E-03-4.23901E-01-2.07941E-13 5.62874E-15
 -1      3358 1.90962E+01 9.22291E-01 1.01356E-02-3.24046E-01-1.16058E-13-4.50756E-14
 -1      3359 1.95605E+01 6.23986E-01-2.27580E-03-4.01634E-01-1.29643E-13 6.55850E-14
 -1      3360 1.96412E+01 5.40202E-01-3.41892E-03-3.55252E-01-1.08172E-14 1.16562E-13
 -1      3361 1.94006E+01 7.14247E-01 6.77136E-03-3.10482E-01-9.27485E-14 5.90261E-14
 -1      3362 1.97304E+01 4.67811E-01-1.16628E-03-3.29507E-01-2.89102E-14 1.31656E-13
 -1      3363 1.97793E+01 4.03708E-01-2.51855E-03-2.88633E-01-1.62545E-14 2.09771E-13
 -1      3364 1.96116E+01 5.43597E-01 4.58177E-03-2.76295E-01-1.36876E-14 1.75974E-13
 -1      3365 1.98388E+01 3.48796E-01-4.47366E-04-2.63202E-01 2.32686E-14 1.86831E-13
 -1      3366 1.98675E+01 3.00223E-01-1.85954E-03-2.28664E-01 2.84979E-14 1.99143E-13
 -1      3367 1.97519E+01 4.10198E-01 3.03242E-03-2.33824E-01 8.28218E-15 1.05595E-13
 -1      3368 1.99068E+01 2.59001E-01-4.57176E-05-2.05585E-01-1.01857E-13 2.46808E-13
 -1      3369 1.99230E+01 2.22470E-01-1.36477E-03-1.77284E-01-6.98627E-15 8.79498E-14
 -1      3370 1.98442E+01 3.07735E-01 1.97833E-03-1.90698E-01-6.38470E-14 1.35442E-13
 -1      3371 1.99488E+01 1.91680E-01 1.57916E-04-1.57429E-01 4.87748E-14 2.16967E-14
 -1      3372 1.99574E+01 1.64308E-01-9.98380E-04-1.34770E-01 6.68745E-14-8.89935E-14
 -1      3373 1.99043E+01 2.29782E-01 1.27771E-03-1.51031E-01-6.30071E-14 2.46433E-13
 -1      3374 1.99742E+01 1.41383E-01 2.52669E-04-1.18314E-01 1.54313E-13-1.97253E-13
 -1      3375 1.99784E+01 1.20930E-01-7.07952E-04-1.00523E-01 1.09024E-13-1.76303E-13
 -1      3376 1.99431E+01 1.70772E-01 8.03909E-04-1.16654E-01 4.03047E-14-1.73274E-13
 -1      3377 1.99888E+01 1.04639E-01 2.71153E-04-8.79207E-02-7.61532E-14-1.16801E-13
 -1      3378 1.99904E+01 8.99120E-02-5.15554E-04-7.46948E-02-1.99240E-13-1.79605E-13
 -1      3379 1.99674E+01 1.27171E-01 4.86165E-04-8.86571E-02 4.50180E-14-3.54081E-13
 -1      3380 1.99974E+01 7.69434E-02 2.50872E-04-6.40979E-02-1.74219E-13-1.35475E-13
 -1      3381 1.99977E+01 6.53301E-02-3.84746E-04-5.34714E-02-7.42758E-14-1.71700E-13
 -1      3382 1.99828E+01 9.42504E-02 3.18727E-04-6.59690E-02-1.90903E-13-1.81715E-13
 -1      3383 2.00021E+01 5.56859E-02 2.17007E-04-4.53177E-02 6.27587E-14-1.14478E-13
 -1      3384 2.00017E+01 4.70324E-02-2.75808E-04-3.73366E-02-7.00165E-14-7.59696E-14
 -1      3385 1.99926E+01 6.87106E-02 1.95769E-04-4.75537E-02-5.18573E-14-8.68088E-14
 -1      3386 2.00044E+01 3.98613E-02 1.81261E-04-3.11714E-02-2.11306E-13 3.45590E-14
 -1      3387 2.00037E+01 3.34294E-02-1.96110E-04-2.52738E-02-1.45021E-13-6.04127E-14
 -1      3388 1.99984E+01 4.95514E-02 1.14694E-04-3.33673E-02-5.32595E-14 5.83526E-16
 -1      3389 2.00052E+01 2.81185E-02 1.46137E-04-2.07048E-02-2.95769E-14-4.75019E-14
 -1      3390 2.00044E+01 2.33638E-02-1.37897E-04-1.64218E-02-2.23260E-14 8.26103E-14
 -1      3391 2.00017E+01 3.52434E-02 6.36027E-05-2.26637E-02-1.27740E-13 1.24606E-13
 -1      3392 2.00053E+01 1.94553E-02 1.14565E-04-1.31076E-02-6.19698E-14 4.81389E-14
 -1      3393 2.00045E+01 1.59683E-02-9.54589E-05-1.00589E-02 7.01673E-15 5.91330E-14
 -1      3394 2.00034E+01 2.46221E-02 3.19463E-05-1.47568E-02-3.42536E-16 1.48516E-13
 -1      3395 2.00049E+01 1.31181E-02 8.79093E-05-7.71221E-03-6.51231E-14 1.03412E-13
 -1      3396 2.00042E+01 1.05956E-02-6.16338E-05-5.59711E-03-1.79338E-13 2.46098E-13
 -1      3397 2.00042E+01 1.68011E-02 1.20004E-05-9.04678E-03-6.50326E-14 7.12941E-15
 -1      3398 2.00043E+01 8.63821E-03 6.63813E-05-4.05741E-03-2.41076E-13 1.11921E-13
 -1      3399 2.00037E+01 6.89581E-03-4.03082E-05-2.68031E-03-2.57670E-13 1.55649E-14
 -1      3400 2.00043E+01 1.12072E-02-3.87283E-06-5.10082E-03-2.45495E-13 2.08749E-13
 -1      3401 2.00037E+01 5.40544E-03 4.83844E-05-1.58143E-03-1.00057E-13 2.67554E-14
 -1      3402 2.00032E+01 4.11370E-03-2.70964E-05-6.36932E-04 4.97250E-14 2.48571E-14
 -1      3403 2.00040E+01 7.19324E-03-4.65457E-06-2.39417E-03-2.00447E-13 5.72437E-14
 -1      3404 2.00030E+01 3.08345E-03 3.47603E-05 5.54598E-05 8.38620E-14 2.71438E-14
 -1      3405 2.00026E+01 2.19655E-03-1.60663E-05 6.34173E-04 7.14766E-14-7.85746E-14
 -1      3406 2.00036E+01 4.25893E-03-7.59474E-06-5.52005E-04-1.51930E-14 8.17812E-14
 -1      3407 2.00024E+01 1.50020E-03 2.41234E-05 1.04075E-03 1.80376E-13-1.94882E-13
 -1      3408 2.00021E+01 9.11209E-04-8.34896E-06 1.36296E-03 3.15922E-13-1.74925E-13
 -1      3409 2.00031E+01 2.23646E-03-8.85819E-06 5.95912E-04 1.01617E-13 1.12019E-15
 -1      3410 2.00019E+01 4.57854E-04 1.61570E-05 1.57196E-03 2.34943E-13-1.41111E-13
 -1      3411 2.00017E+01 8.40894E-05-3.21204E-06 1.71999E-03 1.39393E-13-6.55837E-14
 -1      3412 2.00026E+01 8.84702E-04-8.96323E-06 1.25337E-03 2.38605E-13-2.07700E-13
 -1      3413 2.00015E+01-1.95314E-04 1.03244E-05 1.79699E-03 1.15001E-13 1.24352E-14
 -1      3414 2.00013E+01-4.16542E-04 1.09656E-07 1.83117E-03 1.20806E-13-2.99138E-14
 -1      3415 2.00021E+01 1.91878E-05-8.40219E-06 1.57423E-03 2.22053E-13-1.78072E-13
 -1      3416 2.00011E+01-5.74333E-04 6.07969E-06 1.82415E-03 7.05984E-14 8.95593E-14
 -1      3417 2.00009E+01-6.89657E-04 2.12711E-06 1.78764E-03 2.55713E-14 1.08901E-13
 -1      3418 2.00017E+01-5.00279E-04-7.48844E-06 1.67242E-03 1.09488E-13 1.54306E-14
 -1      3419 2.00008E+01-7.62019E-04 3.24178E-06 1.73430E-03 5.73250E-14 6.22797E-15
 -1      3420 2.00007E+01-8.07890E-04 3.14940E-06 1.66255E-03 3.12065E-14-4.34237E-14
 -1      3421 2.00013E+01-7.77352E-04-6.69753E-06 1.63411E-03-9.11578E-14 1.54603E-13
 -1      3422 2.00005E+01-8.33004E-04 1.31039E-06 1.58053E-03-2.12669E-13-8.03416E-14
 -1      3423 2.00004E+01-8.37877E-04 3.48752E-06 1.48530E-03-2.93813E-13-1.82115E-13
 -1      3424 2.00009E+01-8.97611E-04-5.47278E-06 1.51601E-03-1.40311E-13 2.97831E-14
 -1      3425 2.00003E+01-8.29969E-04 9.05625E-08 1.39128E-03-2.52406E-13-1.48055E-13
 -1      3426 2.00003E+01-8.10698E-04 3.22432E-06 1.28923E-03-1.97634E-13-2.14286E-13
 -1      3427 2.00007E+01-9.22472E-04-4.53782E-06 1.35337E-03-2.46754E-13 5.52884E-15
 -1      3428 2.00001E+01-7.86599E-04-6.77309E-07 1.19305E-03-1.44428E-13-8.69858E-14
 -1      3429 2.00001E+01-7.59940E-04 3.02896E-06 1.09136E-03-1.53874E-13-1.99818E-13
 -1      3430 2.00004E+01-8.89801E-04-3.31692E-06 1.17432E-03-2.03395E-13-7.30150E-14
 -1      3431 2.00000E+01-7.42875E-04 7.73950E-07 9.24630E-04-2.26275E-14-2.40216E-13
 -1      3432 1.85295E+01-2.31434E+00-9.68303E-02 4.97881E+00-4.62203E-13-6.42542E-15
 -1      3433 1.64013E+01-9.22262E-01 1.32074E-01 4.89075E+00-4.59679E-13 2.72652E-13
 -1      3434 2.15134E+01-1.01193E+00 6.85521E-03-4.18872E-01-3.49716E-14-1.99621E-13
 -1      3435 2.16233E+01-1.03278E+00-6.67546E-03-5.99593E-01-3.23239E-15-2.01391E-13
 -1      3436 2.18486E+01-9.93377E-01 3.22466E-03-8.28413E-01 3.72576E-14-2.36040E-13
 -1      3437 2.19210E+01-8.86243E-01-4.48771E-03-1.02229E+00 6.30170E-14-2.21569E-13
 -1      3438 2.20091E+01-1.18583E+00-1.31790E-03-5.74691E-01-1.90971E-15-1.65102E-13
 -1      3439 2.20642E+01-6.95775E-01-5.73086E-03-1.26365E+00 7.14439E-14-2.80886E-13
 -1      3440 2.20776E+01-4.11075E-01 1.02135E-03-1.41136E+00 6.52416E-14-2.64071E-13
 -1      3441 2.24017E+01-9.34313E-01 9.09930E-03-1.06222E+00 7.31732E-14-2.45136E-13
 -1      3442 2.11507E+01-8.63639E-01 8.03914E-03-1.03025E-01 2.49521E-15-1.91267E-13
 -1      3443 2.12732E+01-9.55278E-01-5.73594E-03-2.43496E-01-1.32760E-14-1.79076E-13
 -1      3444 2.15492E+01-1.13164E+00-5.04267E-03-1.74187E-01-4.09244E-14-1.98782E-13
 -1      3445 2.08219E+01-6.50584E-01 7.21571E-03 1.05833E-01-1.31026E-13-9.17250E-14
 -1      3446 2.09366E+01-7.63974E-01-3.69304E-03 9.95270E-03-5.23614E-14-1.49463E-13
 -1      3447 2.11117E+01-9.23569E-01-6.34725E-03 9.94079E-02-4.30033E-14-1.62519E-13
 -1      3448 2.05550E+01-4.36628E-01 5.63626E-03 2.24551E-01-9.47695E-14-3.15205E-14
 -1      3449 2.06513E+01-5.43839E-01-1.99849E-03 1.67521E-01-1.10314E-13-6.26708E-14
 -1      3450 2.07467E+01-6.69226E-01-6.36666E-03 2.57290E-01-1.45133E-13-7.40718E-14
 -1      3451 2.03554E+01-2.55164E-01 3.97904E-03 2.76711E-01 6.15659E-15-6.00881E-14
 -1      3452 2.04301E+01-3.42632E-01-7.65919E-04 2.49234E-01-3.79854E-14-3.31844E-14
 -1      3453 2.04692E+01-4.30322E-01-5.45870E-03 3.28411E-01-7.75321E-14-2.20848E-14
 -1      3454 2.02159E+01-1.17979E-01 2.57250E-03 2.84994E-01-4.85001E-14-5.15468E-14
 -1      3455 2.02705E+01-1.82110E-01-6.13219E-07 2.77763E-01-9.29342E-15-8.99475E-14
 -1      3456 2.02736E+01-2.36248E-01-4.16837E-03 3.42021E-01-2.13780E-15-3.84079E-14
 -1      3457 2.01239E+01-2.38029E-02 1.50383E-03 2.67260E-01-4.39821E-14 7.67212E-14
 -1      3458 2.01619E+01-6.65227E-02 3.94383E-04 2.72672E-01-5.61530E-14-2.51204E-14
 -1      3459 2.01447E+01-9.45533E-02-2.94721E-03 3.22073E-01-9.05800E-14 7.50832E-15
 -1      3460 2.00666E+01 3.44787E-02 7.56605E-04 2.36091E-01-1.32571E-13 1.45562E-13
 -1      3461 2.00921E+01 9.01764E-03 5.60675E-04 2.48503E-01-6.02084E-14 7.02625E-14
 -1      3462 2.00654E+01-4.89920E-04-1.95906E-03 2.85177E-01-7.73941E-14-5.51890E-15
 -1      3463 2.00330E+01 6.56672E-02 2.74467E-04 1.99786E-01 8.99875E-15 1.06191E-13
 -1      3464 2.00497E+01 5.28875E-02 5.99285E-04 2.15298E-01-3.92768E-14 9.11735E-14
 -1      3465 2.00204E+01 5.54123E-02-1.21618E-03 2.41952E-01-5.25448E-14 5.51748E-14
 -1      3466 2.00146E+01 7.80371E-02-1.35774E-05 1.63451E-01 9.81102E-14 6.17743E-14
 -1      3467 2.00253E+01 7.38460E-02 5.71683E-04 1.79541E-01 5.88838E-14 1.08362E-13
 -1      3468 1.99976E+01 8.33291E-02-7.05665E-04 1.98716E-01 5.41639E-14 6.62090E-14
 -1      3469 2.00055E+01 7.84028E-02-1.67589E-04 1.29955E-01-2.25914E-14 1.37617E-14
 -1      3470 2.00124E+01 7.95351E-02 5.11965E-04 1.45124E-01 3.12553E-14 6.02711E-14
 -1      3471 1.99882E+01 9.23512E-02-3.72569E-04 1.58909E-01 6.11337E-14 3.39685E-14
 -1      3472 2.00018E+01 7.18672E-02-2.34259E-04 1.00673E-01-1.72508E-13 9.27170E-14
 -1      3473 2.00062E+01 7.59387E-02 4.41809E-04 1.14135E-01-6.20655E-14 3.97448E-14
 -1      3474 1.99863E+01 8.96572E-02-1.73433E-04 1.24111E-01-1.01746E-13 5.40168E-14
 -1      3475 2.00007E+01 6.19865E-02-2.46792E-04 7.60616E-02-7.85586E-14 3.42491E-14
 -1      3476 2.00036E+01 6.73664E-02 3.72351E-04 8.74941E-02-1.25351E-13 9.03251E-14
 -1      3477 1.99881E+01 8.05071E-02-5.90168E-05 9.47895E-02-1.01173E-13 4.28770E-14
 -1      3478 2.00009E+01 5.10888E-02-2.29302E-04 5.60184E-02-9.56308E-14 1.61761E-13
 -1      3479 2.00029E+01 5.67338E-02 3.07516E-04 6.53955E-02-9.61589E-14 9.25878E-14
 -1      3480 1.99914E+01 6.84773E-02-9.50350E-07 7.07989E-02-1.77597E-13 5.68080E-14
 -1      3481 2.00015E+01 4.05718E-02-1.97603E-04 4.01294E-02-2.04449E-14 3.08394E-13
 -1      3482 2.00030E+01 4.58744E-02 2.49721E-04 4.75971E-02-1.87831E-14 3.02909E-13
 -1      3483 1.99947E+01 5.58667E-02 2.33581E-05 5.16483E-02-8.35635E-14 3.11346E-13
 -1      3484 2.00021E+01 3.11801E-02-1.61481E-04 2.78398E-02 1.20232E-13 2.03232E-13
 -1      3485 2.00032E+01 3.58328E-02 1.99662E-04 3.36303E-02 1.98881E-14 2.10915E-13
 -1      3486 1.99976E+01 4.40157E-02 2.90643E-05 3.66961E-02 5.11752E-14 3.65423E-13
 -1      3487 2.00025E+01 2.32273E-02-1.26490E-04 1.85585E-02-2.01506E-14 1.02278E-13
 -1      3488 2.00033E+01 2.71166E-02 1.57182E-04 2.29349E-02 8.14685E-14 1.78953E-13
 -1      3489 1.99998E+01 3.36047E-02 2.56359E-05 2.52669E-02 6.64030E-14 2.16981E-13
 -1      3490 2.00026E+01 1.67611E-02-9.54173E-05 1.17184E-02-2.23508E-13 4.83239E-14
 -1      3491 2.00033E+01 1.98908E-02 1.21717E-04 1.49409E-02-1.46286E-13 1.99160E-14
 -1      3492 2.00013E+01 2.48876E-02 1.87949E-05 1.67159E-02-4.73295E-14 1.10952E-13
 -1      3493 2.00026E+01 1.16780E-02-6.94421E-05 6.80829E-03-1.48975E-13 1.15494E-13
 -1      3494 2.00032E+01 1.41166E-02 9.26482E-05 9.11569E-03-2.36959E-13 1.02076E-13
 -1      3495 2.00022E+01 1.78588E-02 1.14528E-05 1.04619E-02-2.30851E-13 4.86703E-14
 -1      3496 2.00024E+01 7.79975E-03-4.86283E-05 3.38916E-03 1.38101E-13 5.97720E-14
 -1      3497 2.00029E+01 9.64495E-03 6.93005E-05 4.98855E-03 4.76444E-14 1.90157E-13
 -1      3498 2.00027E+01 1.23684E-02 4.95656E-06 6.00097E-03-8.84534E-14 4.82605E-15
 -1      3499 2.00022E+01 4.92616E-03-3.24922E-05 1.09623E-03 6.99500E-14 1.07950E-13
 -1      3500 2.00025E+01 6.28195E-03 5.07786E-05 2.16126E-03 9.79906E-14 7.98457E-14
 -1      3501 2.00028E+01 8.20283E-03 2.35865E-07 2.91328E-03 7.52715E-14 2.50573E-15
 -1      3502 2.00018E+01 2.86066E-03-2.04614E-05-3.66859E-04 6.79496E-14 4.35481E-14
 -1      3503 2.00021E+01 3.82652E-03 3.63131E-05 3.05200E-04 1.49149E-13 8.70988E-14
 -1      3504 2.00026E+01 5.13161E-03-3.08600E-06 8.55163E-04 6.05692E-14 7.40086E-14
 -1      3505 2.00015E+01 1.42478E-03-1.17864E-05-1.23396E-03-1.51207E-13 1.58535E-13
 -1      3506 2.00017E+01 2.08928E-03 2.52360E-05-8.43280E-04-3.73238E-14 1.40813E-13
 -1      3507 2.00024E+01 2.93500E-03-5.04791E-06-4.49127E-04 3.24042E-14 1.52797E-13
 -1      3508 2.00012E+01 4.66113E-04-5.74353E-06-1.68526E-03-1.54728E-13 2.06464E-13
 -1      3509 2.00014E+01 9.03946E-04 1.68907E-05-1.48987E-03-2.13636E-13 2.26492E-13
 -1      3510 2.00021E+01 1.41603E-03-5.98626E-06-1.21447E-03-1.96788E-13 2.66425E-13
 -1      3511 2.00009E+01-1.40749E-04-1.70966E-06-1.85675E-03 5.59098E-14 5.10123E-14
 -1      3512 2.00010E+01 1.31296E-04 1.07373E-05-1.79181E-03 4.08596E-14 1.77469E-13
 -1      3513 2.00017E+01 4.08245E-04-6.20208E-06-1.60548E-03-4.10088E-14-2.66552E-14
 -1      3514 2.00007E+01-4.95858E-04 8.38212E-07-1.84862E-03 7.66267E-14-6.66645E-14
 -1      3515 2.00008E+01-3.41390E-04 6.31271E-06-1.86651E-03 1.39273E-13 8.77656E-14
 -1      3516 2.00014E+01-2.24307E-04-5.92512E-06-1.74574E-03 1.06648E-13 4.66244E-14
 -1      3517 2.00005E+01-6.77279E-04 2.30404E-06-1.73287E-03 4.16323E-14-5.72360E-14
 -1      3518 2.00005E+01-6.02967E-04 3.22121E-06-1.79956E-03 8.19055E-14-4.70406E-14
 -1      3519 2.00011E+01-5.89633E-04-5.35240E-06-1.72594E-03 7.30292E-14-2.64743E-14
 -1      3520 2.00003E+01-7.44894E-04 3.02251E-06-1.55944E-03-5.54967E-14-1.11858E-13
 -1      3521 2.00003E+01-7.22188E-04 1.15485E-06-1.65152E-03 4.27934E-14-1.58442E-13
 -1      3522 2.00008E+01-7.71863E-04-4.65314E-06-1.61102E-03 4.81183E-14-7.01162E-15
 -1      3523 2.00001E+01-7.44086E-04 3.17706E-06-1.36153E-03 5.47347E-15 1.59176E-14
 -1      3524 2.00002E+01-7.51297E-04-1.77973E-07-1.46368E-03-4.21163E-14-6.03680E-14
 -1      3525 2.00005E+01-8.35079E-04-3.91673E-06-1.44578E-03-1.11266E-13-2.64777E-13
 -1      3526 2.00000E+01-7.07057E-04 4.03957E-06-1.16077E-03 1.32895E-13-5.90490E-14
 -1      3527 2.00000E+01-7.28793E-04-6.39185E-07-1.26236E-03 5.37898E-14 1.46904E-14
 -1      3528 2.00003E+01-8.28380E-04-3.76276E-06-1.25994E-03 1.02552E-14-7.55483E-14
 -1      3529 1.99999E+01-6.61875E-04 1.98670E-06-9.64279E-04-2.54832E-14-8.65151E-14
 -1      3530 2.00000E+01-6.86257E-04-1.51833E-06-1.06158E-03 1.92947E-13-5.89851E-14
 -1      3531 2.00002E+01-7.90420E-04-4.30695E-06-1.07086E-03 1.38784E-13 4.76457E-15
 -1      3532 2.00004E+01-9.88164E-04-2.41933E-06-4.25383E-04-7.16725E-14 3.63003E-13
 -1      3533 2.16780E+01 1.74940E+00-2.15527E-02-1.05314E+00 2.01343E-13-2.70669E-13
 -1      3534 2.16537E+01 2.08355E+00 1.21876E-02-7.00823E-01 2.12312E-13-2.42393E-13
 -1      3535 2.00002E+01-8.42522E-04-1.41132E-06 9.15299E-04-1.14489E-13 1.34235E-13
 -1      3536 2.11984E+01-8.22847E-01 1.58067E-02-3.56102E+00-3.95453E-13-3.34569E-13
 -1      3537 2.31988E+01-3.71381E+00-1.18335E-01 3.15612E+00-2.93777E-13-2.34235E-13
 -1      3538 2.13858E+01-2.94894E+00 1.28096E-01 4.25228E+00-4.07895E-13-1.73882E-13
 -1      3539 1.43695E+01 2.01542E+00 6.68174E-05-3.19129E-01-6.55613E-14 2.17283E-13
 -1      3540 1.53022E+01 1.97648E+00-2.39845E-02-3.43702E-01-8.29467E-14 1.33895E-13
 -1      3541 2.23207E+01 8.23384E-01 4.05467E-03 1.79283E+00 2.37410E-13-2.74241E-14
 -1      3542 2.23920E+01 5.45131E-01-1.63883E-02 1.86512E+00 2.47646E-13-3.92924E-14
 -1      3543 2.55670E+01-2.74352E+00-1.21889E-01 3.00468E-01-5.76635E-14-4.83004E-13
 -1      3544 2.49967E+01-3.15938E+00 1.03337E-01 1.55682E+00-1.51748E-13-4.19198E-13
 -1      3545 2.48202E+01-1.37571E+00-6.14844E-02-6.22372E-01-1.18561E-13-7.65707E-15
 -1      3546 1.61751E+01 1.91570E+00-1.98140E-02-4.71812E-01-6.08983E-14 7.81888E-14
 -1      3547 1.68620E+01 1.79233E+00-1.67550E-02-4.68035E-01-6.25463E-14-4.32141E-15
 -1      3548 1.56317E+01 1.96642E+00 5.78315E-02 3.34113E-01-1.40131E-13 1.59356E-13
 -1      3549 2.00000E+01-7.14110E-04 3.30402E-06-7.25943E-04 4.25623E-14-7.91798E-14
 -1      3550 1.99999E+01-6.48405E-04-2.83025E-07-7.49996E-04-2.30787E-14-2.36789E-13
 -1      3551 1.99999E+01-6.45415E-04-7.29761E-07-8.11142E-04-1.93374E-13-8.70874E-14
 -1      3552 2.00001E+01-7.76401E-04-2.00921E-07-7.61228E-04 1.06436E-13-4.37650E-14
 -1      3553 1.39065E+01-1.04312E-01-4.49538E-02 4.41097E+00-3.27655E-13 3.45973E-13
 -1      3554 1.25783E+01 9.98284E-01 1.58434E-01 3.29053E+00-2.39022E-13 3.99618E-13
 -1      3555 2.15917E+01 2.25542E+00-6.21425E-03-1.87516E-01 2.57215E-13-2.01017E-13
 -1      3556 2.16218E+01 2.28170E+00-5.85353E-03 2.43490E-01 3.22664E-13-1.31476E-13
 -1      3557 2.21461E+01 2.54406E+00 4.40759E-03-4.74442E-01 2.79242E-13-2.38008E-13
 -1      3558 2.19210E+01 8.54556E-01-2.06819E-02-1.54682E+00 1.39307E-13-3.22291E-13
 -1      3559 2.18521E+01 1.34399E+00 1.67655E-02-1.37766E+00 1.82891E-13-2.92596E-13
 -1      3560 2.23035E+01 1.81223E+00 5.89833E-03-1.32366E+00 2.01393E-13-3.08478E-13
 -1      3561 2.57827E+01 2.83361E-01-1.11661E-01-1.74781E+00 1.97347E-13-4.58494E-13
 -1      3562 2.62099E+01-1.22779E+00 6.55373E-02-9.72207E-01 6.39072E-15-5.00036E-13
 -1      3563 1.27991E+01 1.97350E+00 2.75579E-03-4.86356E-01-7.26311E-14 3.14231E-13
 -1      3564 2.22345E+01 4.71804E-01 7.41008E-03 1.82701E+00 2.39574E-13-6.49016E-14
 -1      3565 1.26634E+01 4.06902E+00 5.94652E-02-1.40343E-01-2.06019E-13-7.35734E-13
 -1      3566 2.25517E+01 4.59880E-01 6.80546E-03 1.81855E+00 2.48797E-13-6.30388E-14
 -1      3567 2.27177E+01 3.67246E-01-2.05592E-02 1.76867E+00 2.17921E-13-1.04762E-13
 -1      3568 2.31236E+01 2.81881E-01 8.18944E-03 1.59804E+00 1.85592E-13-1.09756E-13
 -1      3569 2.30039E+01 4.98040E-01 5.53246E-03 1.84156E+00 2.23108E-13-5.54807E-14
 -1      3570 2.48601E+01 8.60752E-01-2.56150E-02-1.76707E+00 1.76811E-13-3.91881E-13
 -1      3571 1.25561E+01 1.34711E+00 4.84219E-02 2.12893E+00-1.99625E-13 3.65007E-13
 -1      3572 1.32615E+01 2.04705E+00 1.03174E-01 5.75235E-01-1.49700E-13 3.07825E-13
 -1      3573 2.69686E+01 1.15265E+00-4.47487E-02 1.87625E+00 2.41536E-13 2.22572E-13
 -1      3574 2.62552E+01 2.00911E+00-5.83561E-02 2.12649E+00 3.40825E-13 2.27936E-13
 -1      3575 2.61923E+01 3.47916E-01-1.98243E-02 1.56460E+00 1.57645E-13 1.07117E-13
 -1      3576 2.00007E+01-1.06661E-03 3.10545E-07 2.30527E-04-1.95828E-13 4.36809E-13
 -1      3577 2.00007E+01-1.07751E-03 1.71590E-06 8.31110E-05-3.27791E-13 4.72162E-13
 -1      3578 1.70243E+01 1.73844E+00 3.25879E-02-3.25546E-03-1.42036E-13 1.01317E-13
 -1      3579 2.52511E+01-1.74350E+00 1.89857E-02-5.18193E-01-2.77806E-14-4.16223E-13
 -1      3580 2.00758E+01-2.20441E+00 3.00177E-02 4.03533E+00-4.60729E-13-6.93306E-14
 -1      3581 2.25945E+01-2.94534E-01 1.17919E-02-1.49708E+00 4.48736E-14-3.26069E-13
 -1      3582 2.33188E+01 7.12160E-02 1.61229E-02 1.01442E+00 1.08093E-13-1.23585E-13
 -1      3583 2.00006E+01-1.03044E-03 2.79024E-06-3.95741E-04-3.30205E-14 3.81619E-13
 -1      3584 2.00005E+01-9.94118E-04-5.26514E-07-5.27859E-04 1.70087E-13 5.62655E-14
 -1      3585 1.99999E+01-6.41571E-04-6.03377E-07-8.73645E-04-1.06158E-13-6.39424E-14
 -1      3586 2.54830E+01 5.54301E+00-1.01510E-01 1.66553E-01 6.03052E-13-2.57780E-14
 -1      3587 2.45697E+01 4.82493E+00-2.83069E-02-2.68112E-01 4.83433E-13-1.05796E-13
 -1      3588 2.50681E+01 5.19815E+00-7.03285E-02 6.84144E-01 5.57804E-13-3.90703E-15
 -1      3589 1.58578E+01-2.32235E-01 4.40616E-02 4.05260E+00-3.71446E-13 2.35938E-13
 -1      3590 2.66291E+01 4.51742E+00-9.66783E-02 1.89702E+00 5.76275E-13 1.98130E-13
 -1      3591 2.56947E+01 4.75940E+00-5.96148E-02 1.59661E+00 5.94046E-13 1.24678E-13
 -1      3592 2.60739E+01 3.47812E+00-5.16618E-02 2.04677E+00 4.63893E-13 1.99316E-13
 -1      3593 2.00007E+01-1.07591E-03 1.80540E-06-8.69148E-05-2.06546E-13 4.91906E-13
 -1      3594 2.00006E+01-1.06319E-03 2.91807E-07-2.35129E-04-1.65763E-13 4.65094E-13
 -1      3595 2.00007E+01-1.07944E-03-2.35968E-06-3.41440E-04-5.06959E-14 1.92327E-13
 -1      3596 2.00008E+01-1.11093E-03-2.47575E-06-3.46180E-06-2.04110E-13 4.31879E-13
 -1      3597 2.20566E+01 1.51024E+00 1.17535E-02 1.47849E+00 3.33439E-13-5.47414E-14
 -1      3598 2.21836E+01 1.14803E+00-1.69380E-02 1.70832E+00 2.70854E-13-4.35377E-14
 -1      3599 2.27811E+01 1.10127E+00 1.56643E-02 1.87430E+00 2.62842E-13-2.83671E-14
 -1      3600 2.36630E+01-3.06385E+00-3.01737E-03 2.03477E+00-2.89921E-13-3.44416E-13
 -1      3601 2.00004E+01-9.41522E-04 3.68537E-06-6.41804E-04 1.81985E-13-2.54063E-13
 -1      3602 2.00003E+01-8.98261E-04-3.46116E-06-7.25976E-04 2.64007E-13-2.65524E-13
 -1      3603 2.00006E+01-9.99998E-04-8.31998E-07-6.21491E-04 1.93371E-13-9.51567E-14
 -1      3604 1.94659E+01 1.29008E-01 9.48216E-02-4.18270E+00-4.38145E-13-4.80245E-13
 -1      3605 2.25408E+01 6.90901E-01 7.03117E-03-1.65115E+00 1.14862E-13-3.18842E-13
 -1      3606 2.00006E+01-1.00389E-03-3.84254E-10 6.40500E-04-1.91657E-13 1.32503E-13
 -1      3607 2.00005E+01-1.00441E-03-1.87131E-06 5.22701E-04-1.03495E-13 1.00478E-13
 -1      3608 2.00006E+01-1.03598E-03 2.87965E-06 3.91402E-04-1.72854E-13 1.72653E-13
 -1      3609 2.42614E+01-8.25404E-01-3.20192E-03-3.52396E-03-6.03857E-14-1.09966E-13
 -1      3610 2.57209E+01-9.56305E-01 2.31032E-02 4.26213E-01-4.40030E-14 6.30312E-14
 -1      3611 2.22028E+01 2.64155E+00 7.11667E-03 5.94448E-01 3.62347E-13-1.22416E-13
 -1      3612 2.17520E+01 2.16138E+00 1.41015E-02 7.77886E-01 3.40832E-13-7.67966E-14
 -1      3613 2.18606E+01 1.87448E+00-1.48533E-02 1.15334E+00 3.40545E-13-7.23747E-14
 -1      3614 2.41130E+01-5.03502E-01-4.75163E-02 7.09407E-01 2.68349E-14-9.43449E-14
 -1      3615 2.00000E+01-7.35184E-04-2.12719E-06-8.88054E-04-3.53380E-14-3.99610E-14
 -1      3616 2.00004E+01-9.02651E-04-1.09585E-06 9.23901E-04-1.51873E-13 9.62704E-14
 -1      3617 2.00007E+01-1.08457E-03-2.61444E-06 3.35378E-04-2.41974E-13 3.32675E-13
 -1      3618 1.66862E+01 1.54180E+00-2.62391E-02 5.56193E-01-1.54475E-13 1.14574E-13
 -1      3619 1.73006E+01 1.46508E+00-3.74245E-03 3.79820E-01-1.08801E-13 1.09767E-13
 -1      3620 2.31417E+01 3.13810E-01-2.69342E-02-1.71694E+00 1.02755E-13-3.34939E-13
 -1      3621 2.30782E+01 9.70433E-01-3.22556E-03-1.67528E+00 1.43459E-13-3.51926E-13
 -1      3622 1.84156E+01 1.13788E+00-1.28134E-02-3.86674E-02-7.26503E-14 6.51672E-14
 -1      3623 1.87063E+01 1.02881E+00-3.11985E-03-8.55802E-02-4.46725E-14 2.09493E-14
 -1      3624 1.89090E+01 9.24724E-01-8.43855E-03-1.49486E-01-1.04643E-13 1.71662E-14
 -1      3625 1.90993E+01 8.31007E-01-2.61692E-03-1.63418E-01-1.22787E-13 6.12940E-14
 -1      3626 1.87916E+01 9.54418E-01 1.00172E-02 8.15782E-02-1.03445E-13 1.18282E-13
 -1      3627 1.92553E+01 7.36336E-01-5.35541E-03-1.96328E-01-3.64423E-14 1.64836E-14
 -1      3628 1.93908E+01 6.51262E-01-2.18837E-03-1.92389E-01 1.80219E-14 1.41567E-13
 -1      3629 1.91483E+01 7.79851E-01 7.22331E-03-4.03033E-02-7.41525E-14 1.77517E-13
 -1      3630 1.95019E+01 5.72909E-01-3.38715E-03-2.03451E-01 2.00302E-14 1.79539E-13
 -1      3631 1.95920E+01 5.03662E-01-1.83151E-03-1.89665E-01-1.95749E-14 1.57217E-13
 -1      3632 1.94112E+01 6.21232E-01 5.24641E-03-1.01609E-01 4.31715E-14 1.32480E-13
 -1      3633 1.96707E+01 4.41041E-01-2.01567E-03-1.88407E-01-9.12768E-14 1.66227E-13
 -1      3634 1.97297E+01 3.85840E-01-1.51559E-03-1.70659E-01-6.74871E-14 1.19132E-13
 -1      3635 1.95972E+01 4.87211E-01 3.70281E-03-1.23156E-01-8.26777E-14 1.59274E-13
 -1      3636 1.97851E+01 3.36761E-01-1.13560E-03-1.63122E-01-8.40520E-14 3.54453E-14
 -1      3637 1.98234E+01 2.93430E-01-1.22202E-03-1.44897E-01-9.66156E-14 8.17750E-14
 -1      3638 1.97276E+01 3.77809E-01 2.57683E-03-1.22209E-01-1.26065E-13 7.69843E-14
 -1      3639 1.98620E+01 2.55376E-01-5.85935E-04-1.34840E-01-1.52064E-13 1.52321E-13
 -1      3640 1.98866E+01 2.21712E-01-9.64638E-04-1.18007E-01-1.06459E-13 7.49795E-14
 -1      3641 1.98182E+01 2.90297E-01 1.78631E-03-1.09788E-01-7.14427E-14 3.47632E-14
 -1      3642 1.99134E+01 1.92495E-01-2.45337E-04-1.07601E-01-1.27389E-13 4.47253E-14
 -1      3643 1.99289E+01 1.66533E-01-7.42629E-04-9.29902E-02-3.80822E-14-1.29672E-13
 -1      3644 1.98807E+01 2.21181E-01 1.20725E-03-9.27267E-02-1.69595E-13-7.85902E-14
 -1      3645 1.99466E+01 1.45185E-01-6.56032E-05-8.38615E-02 7.65647E-14-1.83165E-13
 -1      3646 1.99558E+01 1.26042E-01-5.73665E-04-7.21829E-02-1.16355E-14-1.75451E-13
 -1      3647 1.99227E+01 1.68412E-01 8.24144E-04-7.53111E-02-8.49874E-14-4.29780E-15
 -1      3648 1.99686E+01 1.08711E-01 2.86294E-05-6.37540E-02-1.58924E-13-1.61451E-13
 -1      3649 1.99746E+01 9.32369E-02-4.42942E-04-5.38290E-02-1.80299E-13-3.51916E-14
 -1      3650 1.99514E+01 1.27229E-01 5.61439E-04-5.90691E-02-7.49474E-14-7.13393E-14
 -1      3651 1.99833E+01 8.00544E-02 6.74892E-05-4.68722E-02-1.58932E-13 1.33075E-14
 -1      3652 1.99868E+01 6.82971E-02-3.30693E-04-3.90646E-02-4.43732E-14-7.45069E-14
 -1      3653 1.99713E+01 9.45231E-02 3.79973E-04-4.46056E-02-1.75368E-13-1.18846E-13
 -1      3654 1.99926E+01 5.83115E-02 8.43030E-05-3.35121E-02-1.48023E-14-1.45625E-13
 -1      3655 1.99945E+01 4.94105E-02-2.44483E-04-2.75122E-02-1.24160E-13-9.20146E-14
 -1      3656 1.99845E+01 6.94214E-02 2.51550E-04-3.26581E-02-1.09217E-13-1.60677E-13
 -1      3657 1.99983E+01 4.18903E-02 8.44141E-05-2.32135E-02-2.22505E-13-1.33293E-14
 -1      3658 1.99993E+01 3.51981E-02-1.78132E-04-1.87033E-02-1.43424E-13-2.15873E-14
 -1      3659 1.99930E+01 5.02961E-02 1.63798E-04-2.31437E-02-1.12053E-13-1.54055E-13
 -1      3660 2.00016E+01 2.95760E-02 7.62858E-05-1.54662E-02-1.26558E-14 6.72854E-14
 -1      3661 2.00020E+01 2.45873E-02-1.27722E-04-1.21502E-02-7.39967E-14-4.95432E-14
 -1      3662 1.99984E+01 3.58388E-02 1.04391E-04-1.57994E-02-2.09959E-14 6.70825E-14
 -1      3663 2.00034E+01 2.04260E-02 6.54713E-05-9.77924E-03-5.75309E-14 7.79014E-14
 -1      3664 2.00034E+01 1.67554E-02-8.67023E-05-7.40256E-03-1.26485E-13 7.19522E-14
 -1      3665 2.00016E+01 2.50129E-02 6.43865E-05-1.02907E-02 1.59551E-14-3.21449E-14
 -1      3666 2.00041E+01 1.38513E-02 5.35888E-05-5.79436E-03-2.92431E-13 4.55658E-14
 -1      3667 2.00040E+01 1.12771E-02-5.95056E-05-4.19119E-03-3.99551E-13 5.12074E-14
 -1      3668 2.00033E+01 1.71466E-02 3.19321E-05-6.34903E-03-2.19274E-13-2.03762E-13
 -1      3669 2.00043E+01 9.03475E-03 4.17820E-05-2.99998E-03-2.99798E-13 4.72813E-14
 -1      3670 2.00041E+01 7.08891E-03-4.12170E-05-1.85394E-03-1.22323E-13 1.54483E-13
 -1      3671 2.00041E+01 1.13968E-02 2.01636E-05-3.54387E-03-2.69789E-13 1.98004E-14
 -1      3672 2.00041E+01 5.50571E-03 3.17182E-05-1.06825E-03 3.91142E-14 1.18450E-13
 -1      3673 2.00038E+01 4.14230E-03-2.61207E-05-3.24043E-04 7.81055E-14 1.38727E-13
 -1      3674 2.00043E+01 7.12312E-03 8.82999E-06-1.55854E-03-9.82804E-14 1.23829E-13
 -1      3675 2.00037E+01 3.04662E-03 2.36058E-05 1.68972E-04-4.21594E-14 8.90222E-14
 -1      3676 2.00034E+01 2.11626E-03-1.53622E-05 6.23114E-04 1.07052E-13 3.69572E-14
 -1      3677 2.00041E+01 4.11568E-03 1.60400E-06-2.54977E-04-1.67507E-14 2.15311E-13
 -1      3678 2.00032E+01 1.38092E-03 1.70574E-05 9.07415E-04 2.80888E-13-7.19020E-14
 -1      3679 2.00030E+01 7.68573E-04-7.91319E-06 1.15818E-03 1.66621E-13-4.75608E-14
 -1      3680 2.00037E+01 2.05302E-03-2.76350E-06 5.51655E-04 1.60178E-13 1.38693E-13
 -1      3681 2.00027E+01 2.95481E-04 1.20228E-05 1.29860E-03 8.91613E-14-6.86556E-15
 -1      3682 2.00025E+01-8.77905E-05-2.92356E-06 1.41125E-03 2.54857E-13-2.16542E-14
 -1      3683 2.00032E+01 6.86741E-04-5.13216E-06 1.00646E-03 2.93624E-13 8.13102E-14
 -1      3684 2.00022E+01-3.74193E-04 8.14544E-06 1.45584E-03 1.27560E-13-5.17170E-15
 -1      3685 2.00020E+01-5.94653E-04 3.98390E-07 1.47778E-03 9.86562E-14 8.59712E-14
 -1      3686 2.00027E+01-1.75972E-04-6.15381E-06 1.22017E-03 1.01817E-13-4.89504E-15
 -1      3687 2.00018E+01-7.43791E-04 5.41065E-06 1.46377E-03 2.11682E-14 1.11935E-13
 -1      3688 2.00016E+01-8.52263E-04 2.21504E-06 1.43379E-03-2.39376E-14 1.46417E-13
 -1      3689 2.00022E+01-6.75017E-04-6.84599E-06 1.27596E-03 3.21833E-14 7.14124E-14
 -1      3690 2.00014E+01-9.26097E-04 3.26623E-06 1.38535E-03-1.87001E-13 1.01739E-13
 -1      3691 2.00012E+01-9.67946E-04 3.09262E-06 1.32206E-03-3.07535E-13-2.05138E-14
 -1      3692 2.00018E+01-9.33629E-04-6.10655E-06 1.23572E-03-1.66572E-13 7.04558E-14
 -1      3693 2.00010E+01-9.84605E-04 1.84818E-06 1.25431E-03-3.13989E-13 9.59156E-14
 -1      3694 2.00009E+01-9.82161E-04 3.41568E-06 1.17539E-03-1.90626E-13 1.92065E-13
 -1      3695 2.00013E+01-1.04121E-03-5.55572E-06 1.13786E-03-2.58617E-13 1.49764E-13
 -1      3696 2.00007E+01-9.65650E-04 9.75281E-07 1.10069E-03-1.83661E-13 1.12356E-13
 -1      3697 2.00006E+01-9.40692E-04 3.83587E-06 1.01856E-03-8.46333E-14 1.36211E-13
 -1      3698 2.00010E+01-1.04693E-03-4.65874E-06 1.01166E-03-2.10550E-13 5.87218E-14
 -1      3699 2.10580E+01-9.07937E-01 1.03171E-02 3.50726E-01-1.43069E-13-8.59792E-14
 -1      3700 2.12502E+01-1.06566E+00-3.12060E-03 2.58927E-01-8.41357E-14-1.38546E-13
 -1      3701 2.45946E+01 4.11660E+00-2.37015E-02-1.19620E+00 4.33271E-13-2.00824E-13
 -1      3702 2.39260E+01 3.05801E+00-1.47952E-02-1.37242E+00 3.38967E-13-1.92122E-13
 -1      3703 2.15653E+01-1.20304E+00 1.19401E-02 1.47773E-01-5.69575E-14-1.72165E-13
 -1      3704 2.17801E+01-1.33039E+00-7.62580E-03-6.18862E-03-4.07272E-14-1.23779E-13
 -1      3705 2.14268E+01-1.25087E+00-1.02973E-02 4.28485E-01-1.28383E-13-1.61398E-13
 -1      3706 2.27220E+01-1.33751E+00 5.67792E-03-7.39091E-01 4.79478E-15-2.49349E-13
 -1      3707 2.28614E+01-1.12656E+00-5.90130E-03-1.00255E+00 6.75523E-15-2.92308E-13
 -1      3708 2.06611E+01-6.09508E-01 7.46776E-03 4.35267E-01-1.17049E-13-6.77374E-14
 -1      3709 2.08159E+01-7.58667E-01-7.80928E-04 3.92336E-01-1.48477E-13-3.02460E-14
 -1      3710 2.08960E+01-8.99988E-01-1.01304E-02 5.53361E-01-1.65633E-13-3.05703E-14
 -1      3711 2.03765E+01-3.56131E-01 4.88639E-03 4.43219E-01-5.41697E-14-9.40599E-14
 -1      3712 2.04918E+01-4.77470E-01 7.42272E-04 4.33390E-01-1.19340E-13-1.08595E-13
 -1      3713 2.05085E+01-5.71988E-01-8.48995E-03 5.66690E-01-8.69530E-14-9.67126E-14
 -1      3714 2.01878E+01-1.65306E-01 2.90992E-03 4.08832E-01-1.04107E-13-6.68146E-15
 -1      3715 2.02676E+01-2.53788E-01 1.44554E-03 4.18354E-01-3.37073E-14-6.47321E-14
 -1      3716 2.02482E+01-3.08193E-01-6.14146E-03 5.20129E-01-7.54012E-14-1.49864E-13
 -1      3717 2.00714E+01-3.43522E-02 1.52673E-03 3.55617E-01-1.15921E-13 3.26313E-14
 -1      3718 2.01232E+01-9.32538E-02 1.55989E-03 3.74972E-01-9.74592E-14 2.28396E-14
 -1      3719 2.00865E+01-1.18371E-01-4.13971E-03 4.48006E-01-9.56407E-14-4.99554E-15
 -1      3720 2.00058E+01 4.70356E-02 6.21155E-04 2.97264E-01-9.65566E-14 3.22865E-14
 -1      3721 2.00373E+01 1.18084E-02 1.40954E-03 3.20412E-01-9.64532E-14 8.54193E-15
 -1      3722 1.99948E+01 6.31616E-03-2.67655E-03 3.70415E-01-7.04320E-14 2.70923E-14
 -1      3723 1.99736E+01 9.10570E-02 9.54497E-05 2.41325E-01-4.46278E-14 4.66615E-14
 -1      3724 1.99912E+01 7.31752E-02 1.17728E-03 2.64660E-01-1.06356E-14 3.22581E-14
 -1      3725 1.99496E+01 8.00200E-02-1.55763E-03 2.97529E-01-6.13936E-14 7.67463E-15
 -1      3726 1.99618E+01 1.09093E-01-1.96159E-04 1.91381E-01-3.37196E-14 8.26686E-14
 -1      3727 1.99706E+01 1.02994E-01 9.34922E-04 2.12997E-01-5.47456E-14 1.25176E-14
 -1      3728 1.99333E+01 1.16508E-01-8.30244E-04 2.33896E-01-6.29507E-14 7.04799E-15
 -1      3729 1.99615E+01 1.10395E-01-3.35913E-04 1.48775E-01-7.46875E-15 8.99138E-14
 -1      3730 1.99650E+01 1.11644E-01 7.20462E-04 1.67743E-01 5.46053E-14 6.44586E-14
 -1      3731 1.99334E+01 1.28113E-01-3.60655E-04 1.80626E-01-5.72562E-14 7.71708E-14
 -1      3732 1.99667E+01 1.01995E-01-3.81490E-04 1.13509E-01-9.36014E-14 8.35791E-14
 -1      3733 1.99674E+01 1.07353E-01 5.43120E-04 1.29577E-01-1.84294E-14 1.27406E-13
 -1      3734 1.99419E+01 1.24236E-01-1.06646E-04 1.37365E-01-1.62428E-14 9.61503E-14
 -1      3735 1.99741E+01 8.87202E-02-3.69465E-04 8.50032E-02-1.25045E-13-3.87096E-14
 -1      3736 1.99734E+01 9.59848E-02 4.10241E-04 9.82240E-02-9.75551E-14-3.93189E-15
 -1      3737 1.99535E+01 1.11883E-01 4.19252E-05 1.02876E-01-3.65090E-14 9.42651E-14
 -1      3738 1.99815E+01 7.38099E-02-3.28582E-04 6.24319E-02-2.82823E-13 6.42391E-14
 -1      3739 1.99804E+01 8.15372E-02 3.08565E-04 7.30566E-02-1.90065E-13 2.79298E-14
 -1      3740 1.99653E+01 9.56413E-02 1.07214E-04 7.58583E-02-1.70567E-13 1.08499E-14
 -1      3741 1.99880E+01 5.92329E-02-2.76548E-04 4.48740E-02-9.14116E-14 1.48430E-13
 -1      3742 1.99869E+01 6.65725E-02 2.33014E-04 5.32351E-02-2.49470E-13 7.19263E-14
 -1      3743 1.99759E+01 7.85673E-02 1.25502E-04 5.49893E-02-2.35469E-13-1.99219E-14
 -1      3744 1.99932E+01 4.60663E-02-2.23341E-04 3.14479E-02 7.87735E-14 1.81715E-13
 -1      3745 1.99923E+01 5.25743E-02 1.76743E-04 3.78981E-02 1.46577E-14 2.60009E-13
 -1      3746 1.99845E+01 6.24393E-02 1.18721E-04 3.90777E-02-1.29473E-13 1.40000E-14
 -1      3747 1.99971E+01 3.47922E-02-1.74435E-04 2.13588E-02 7.60691E-14 2.45820E-13
 -1      3748 1.99964E+01 4.02911E-02 1.34511E-04 2.62373E-02 1.03092E-13 2.62340E-13
 -1      3749 1.99912E+01 4.81767E-02 1.00371E-04 2.71066E-02 4.98695E-14 2.54399E-13
 -1      3750 1.99997E+01 2.55206E-02-1.32073E-04 1.39192E-02-7.25922E-14 1.95702E-13
 -1      3751 1.99994E+01 2.99953E-02 1.02490E-04 1.75326E-02 7.89763E-14 3.40227E-13
 -1      3752 1.99960E+01 3.61372E-02 7.83095E-05 1.82295E-02 8.09953E-14 2.63922E-13
 -1      3753 2.00015E+01 1.81461E-02-9.69016E-05 8.54679E-03-2.72479E-13 1.33299E-13
 -1      3754 2.00013E+01 2.16735E-02 7.76683E-05 1.11633E-02-1.80822E-13 1.58854E-13
 -1      3755 1.99993E+01 2.63423E-02 5.80176E-05 1.17567E-02-8.39684E-14 3.36473E-13
 -1      3756 2.00024E+01 1.24473E-02-6.90726E-05 4.75774E-03 3.49594E-14-3.00333E-14
 -1      3757 2.00024E+01 1.51524E-02 5.86596E-05 6.60455E-03-1.10868E-13 8.59556E-14
 -1      3758 2.00014E+01 1.86119E-02 3.92158E-05 7.12509E-03-1.34419E-13 2.52532E-13
 -1      3759 2.00029E+01 8.16057E-03-4.73548E-05 2.16606E-03 1.07900E-14 3.66257E-14
 -1      3760 2.00030E+01 1.01791E-02 4.40582E-05 3.42782E-03 3.68869E-14-6.87702E-14
 -1      3761 2.00027E+01 1.26786E-02 2.52951E-05 3.88422E-03 1.93301E-14-2.74443E-14
 -1      3762 2.00029E+01 5.02748E-03-3.10268E-05 4.60472E-04 9.09313E-14-2.44109E-14
 -1      3763 2.00031E+01 6.49103E-03 3.25649E-05 1.28854E-03 2.70929E-14 1.83833E-14
 -1      3764 2.00032E+01 8.24101E-03 1.41729E-05 1.68668E-03 1.17264E-14 1.14325E-13
 -1      3765 2.00028E+01 2.80383E-03-1.91252E-05-6.03343E-04-1.01189E-13 5.55375E-14
 -1      3766 2.00030E+01 3.83339E-03 2.37704E-05-9.03633E-05-3.59098E-15-2.98676E-15
 -1      3767 2.00033E+01 5.01592E-03 6.47604E-06 2.51461E-04-5.03367E-14-2.61671E-16
 -1      3768 2.00025E+01 1.27916E-03-1.06561E-05-1.21223E-03-1.91380E-13 1.74527E-13
 -1      3769 2.00027E+01 1.97752E-03 1.69503E-05-9.22349E-04-1.39726E-13 1.99527E-13
 -1      3770 2.00032E+01 2.73932E-03 1.23764E-06-6.34248E-04-2.32188E-13-6.97249E-14
 -1      3771 2.00021E+01 2.77961E-04-4.85211E-06-1.50831E-03 8.74397E-14-8.37579E-14
 -1      3772 2.00023E+01 7.30138E-04 1.17545E-05-1.37153E-03 9.60574E-15 1.29887E-13
 -1      3773 2.00029E+01 1.18802E-03-2.07383E-06-1.13295E-03-3.37889E-14-3.07332E-14
 -1      3774 2.00018E+01-3.41835E-04-1.05177E-06-1.59709E-03 1.25448E-13-1.65589E-13
 -1      3775 2.00019E+01-6.76818E-05 7.84579E-06-1.56144E-03 1.55007E-13-1.77044E-13
 -1      3776 2.00025E+01 1.77090E-04-3.99125E-06-1.36732E-03 1.78851E-13-1.96417E-13
 -1      3777 2.00014E+01-6.91903E-04 1.31373E-06-1.55537E-03 7.15114E-14-2.43181E-13
 -1      3778 2.00016E+01-5.42461E-04 4.97879E-06-1.58296E-03 1.03680E-13-3.25894E-13
 -1      3779 2.00020E+01-4.42247E-04-4.99841E-06-1.42758E-03 1.29692E-13-3.27735E-13
 -1      3780 2.00011E+01-8.58849E-04 2.65564E-06-1.43790E-03 4.40771E-14-3.68312E-13
 -1      3781 2.00012E+01-7.92870E-04 2.93438E-06-1.50185E-03 7.41320E-14-2.84515E-13
 -1      3782 2.00016E+01-7.85441E-04-5.06591E-06-1.37931E-03 1.41786E-13-4.86185E-13
 -1      3783 2.00008E+01-9.09009E-04 3.04559E-06-1.28158E-03-1.10981E-13-2.09007E-13
 -1      3784 2.00009E+01-8.95346E-04 1.52591E-06-1.36389E-03-1.51241E-13-2.24371E-13
 -1      3785 2.00013E+01-9.43813E-04-4.83830E-06-1.26879E-03-1.25089E-13-3.34013E-13
 -1      3786 2.00005E+01-8.93349E-04 3.16212E-06-1.10955E-03 6.04266E-14-2.63062E-15
 -1      3787 2.00006E+01-9.06342E-04 5.87266E-07-1.19900E-03-3.10973E-14-1.41543E-13
 -1      3788 2.00009E+01-9.85453E-04-3.96756E-06-1.12746E-03-1.84447E-13-1.14302E-13
 -1      3789 2.00006E+01-9.91160E-04-3.74958E-06 8.54385E-04-1.04399E-13 1.17870E-13
 -1      3790 2.10043E+01-2.35955E+00-2.76326E-02 3.30155E+00-4.55516E-13-1.38613E-13
 -1      3791 1.90875E+01-1.41411E+00 3.62947E-02 3.82293E+00-4.82376E-13-8.48796E-14
 -1      3792 2.41540E+01 4.19537E+00-8.13142E-02-7.64740E-01 4.13343E-13-1.31732E-13
 -1      3793 2.55041E+01-4.59953E-01-5.75687E-02 1.01817E+00 3.48957E-14 2.96557E-14
 -1      3794 1.52400E+01 1.62715E+00-2.95150E-02 1.14649E+00-1.81170E-13 1.55164E-13
 -1      3795 1.61385E+01 1.59851E+00-4.11890E-03 8.71003E-01-2.17572E-13 1.00828E-13
 -1      3796 1.66798E+01 1.37709E+00 3.17651E-02 1.27079E+00-1.81630E-13 5.04020E-14
 -1      3797 2.37756E+01-2.88386E+00-9.21919E-02 1.13022E+00-1.86060E-13-3.66656E-13
 -1      3798 2.27579E+01-2.72850E+00 4.58378E-02 2.33159E+00-3.50542E-13-2.60888E-13
 -1      3799 2.21455E+01-1.38652E+00 1.24113E-02-2.18367E-01-2.17324E-14-1.74474E-13
 -1      3800 2.23488E+01-1.39822E+00-7.15246E-03-4.24782E-01 1.57048E-14-1.58407E-13
 -1      3801 2.28188E+01-1.59924E+00-1.48807E-02-3.66724E-01-2.57338E-14-2.27893E-13
 -1      3802 2.20704E+01-1.55735E+00-2.09853E-02 1.36546E-01-2.51960E-14-1.42134E-13
 -1      3803 2.39949E+01 1.39701E+00-3.53548E-02-1.85760E+00 1.97804E-13-3.72899E-13
 -1      3804 2.45796E+01 1.42045E-01 1.62156E-02-1.69105E+00 1.23949E-13-4.47238E-13
 -1      3805 2.00002E+01-7.91923E-04 3.05631E-06-8.47078E-04 9.59855E-14 5.08849E-14
 -1      3806 2.46250E+01-1.24050E+00-5.93645E-02-1.07435E+00 2.28602E-14-3.60662E-13
 -1      3807 2.46651E+01-2.05403E+00 7.42784E-02-1.84615E-01-4.16576E-14-3.78612E-13
 -1      3808 1.76993E+01 1.35947E+00-1.90780E-02 1.80346E-01-1.20131E-13 1.13574E-13
 -1      3809 1.81240E+01 1.25437E+00-3.24598E-03 8.12132E-02-8.93373E-14 4.10156E-14
 -1      3810 1.76137E+01 1.29392E+00 1.95278E-02 6.76140E-01-9.62113E-14 2.00092E-13
 -1      3811 2.27921E+01 2.94076E+00-4.12815E-02-8.85266E-01 3.14801E-13-2.18131E-13
 -1      3812 2.27812E+01 3.26655E+00 6.76126E-04-3.45733E-01 3.71384E-13-1.48459E-13
 -1      3813 1.69912E+01-4.28140E-01-1.58549E-02 3.76258E+00-4.75828E-13 5.73951E-14
 -1      3814 1.53097E+01 5.84056E-01 3.81490E-02 3.27335E+00-3.48241E-13 2.23731E-13
 -1      3815 2.47793E+01-1.54690E-01 4.72636E-03 1.29379E+00 7.31993E-14 6.32740E-15
 -1      3816 2.55059E+01-4.42599E-03-5.93039E-03 1.45190E+00 1.03716E-13 7.81337E-14
 -1      3817 2.51145E+01 5.22078E-01-6.02691E-02 1.81384E+00 2.03135E-13 1.03265E-13
 -1      3818 2.30791E+01-7.83983E-01-1.26016E-02-1.32547E+00 1.62776E-14-3.30588E-13
 -1      3819 2.31384E+01-2.99028E-01 1.99413E-03-1.51627E+00 6.42665E-14-3.36735E-13
 -1      3820 2.37610E+01-7.57159E-02 1.10553E-02-1.62683E+00 1.06743E-13-4.03377E-13
 -1      3821 2.34368E+01-1.16753E+00 4.58106E-03-1.02076E+00-2.25189E-14-3.28355E-13
 -1      3822 1.40653E+01 1.45458E+00-1.34403E-03 1.89564E+00-2.15427E-13 2.74933E-13
 -1      3823 2.36988E+01-1.14259E-01 2.99606E-03 1.02609E+00 7.96018E-14-8.92483E-14
 -1      3824 2.43523E+01-1.74179E-01 2.53522E-02 1.23460E+00 6.04985E-14-2.23137E-14
 -1      3825 2.41202E+01 2.82528E-02-4.95080E-02 1.56171E+00 1.35798E-13-1.37043E-16
 -1      3826 2.33556E+01 7.97023E-02-3.47764E-02 1.41988E+00 1.56889E-13-8.33215E-14
 -1      3827 1.51104E+01 1.14731E+00 4.77751E-02 2.47060E+00-2.80926E-13 2.18975E-13
 -1      3828 2.31621E+01 2.42581E+00 3.69489E-03-1.38400E+00 2.60268E-13-2.96812E-13
 -1      3829 2.38862E+01 4.21946E+00-2.50035E-02-3.80435E-01 4.19772E-13-1.03471E-13
 -1      3830 2.32848E+01 1.71498E+00-2.33054E-02-1.70195E+00 1.92201E-13-3.36043E-13
 -1      3831 2.00003E+01-8.56543E-04 2.08348E-06-8.64631E-04 2.09343E-13 6.48992E-14
 -1      3832 2.22179E+01-2.15239E+00 2.03231E-02 1.70322E+00-2.86196E-13-1.03628E-13
 -1      3833 2.18309E+01-2.40830E+00 6.60816E-03 2.60176E+00-4.15319E-13-8.97639E-14
 -1      3834 2.07620E+01-1.75692E+00-1.66405E-02 2.59348E+00-4.16673E-13-5.27078E-14
 -1      3835 1.21377E+01 3.44758E+00 6.01342E-02 6.12235E-01-1.43264E-13-7.22318E-13
 -1      3836 1.93881E+01-9.74342E-01 1.97799E-02 2.93465E+00-4.48672E-13-1.34092E-13
 -1      3837 1.83089E+01-7.97836E-01 1.61459E-02 3.56566E+00-4.87100E-13-9.32392E-15
 -1      3838 1.75665E+01-7.94519E-02-2.26840E-02 2.96063E+00-4.47014E-13-1.52734E-14
 -1      3839 2.24835E+01 1.88796E+00-8.95262E-03 1.45984E+00 3.26642E-13-8.46324E-14
 -1      3840 2.34737E+01 2.12962E-01 1.65345E-02 1.64010E+00 1.75248E-13-4.64091E-14
 -1      3841 2.00004E+01-8.82720E-04 1.29072E-06-9.47787E-04 2.08112E-13 1.04116E-14
 -1      3842 2.00008E+01-1.04286E-03 2.04264E-06 7.13167E-04-2.17822E-13 1.39918E-13
 -1      3843 2.00006E+01-9.70140E-04-1.80810E-06-8.89920E-04 1.01916E-13-9.54918E-14
 -1      3844 1.83006E+01 1.13384E+00 1.37260E-02 3.01313E-01-9.44922E-14 2.70132E-13
 -1      3845 2.47841E+01 4.46204E+00-3.92963E-02 1.07632E+00 5.05783E-13 1.62734E-14
 -1      3846 2.57776E+01 2.40641E+00-5.91740E-02 2.15883E+00 3.85733E-13 1.85612E-13
 -1      3847 2.50534E+01 2.95124E+00-1.71965E-02 2.04908E+00 4.30031E-13 1.23346E-13
 -1      3848 2.53461E+01 1.54258E+00-2.83535E-03 2.06359E+00 3.37556E-13 1.22293E-13
 -1      3849 2.00010E+01-1.13894E-03 1.03354E-06 8.18202E-05-2.15646E-13 4.90116E-13
 -1      3850 2.00010E+01-1.13800E-03 6.83729E-07-9.21704E-05-6.32912E-14 2.28452E-13
 -1      3851 2.00009E+01-1.10414E-03-1.13359E-06 4.41004E-04-2.63799E-13 2.83741E-13
 -1      3852 2.00009E+01-1.12550E-03 2.89583E-06 2.76325E-04-2.78292E-13 5.65968E-13
 -1      3853 2.00011E+01-1.16300E-03-1.93158E-06 1.89337E-04-2.72122E-13 4.12823E-13
 -1      3854 2.32997E+01 1.31315E+00 1.41223E-02 1.93579E+00 2.82726E-13 1.32379E-14
 -1      3855 2.33798E+01 7.91607E-01-1.14147E-02 1.95383E+00 2.49875E-13 2.74927E-14
 -1      3856 2.37776E+01-2.19233E+00 1.10623E-02 3.21037E-01-1.09461E-13-2.92820E-13
 -1      3857 2.30702E+01 3.60930E+00-4.40216E-02 1.20769E-01 3.82234E-13-1.17064E-13
 -1      3858 1.63171E+01 8.80763E-01 2.62887E-02 2.31129E+00-3.45064E-13 8.08169E-14
 -1      3859 2.34899E+01 5.78783E-01-1.49830E-02 1.86541E+00 2.14470E-13-2.28702E-15
 -1      3860 2.00009E+01-1.11899E-03 2.32438E-06-2.85186E-04 7.73310E-14 3.05414E-13
 -1      3861 2.00009E+01-1.09554E-03-1.51086E-06-4.49743E-04 6.34661E-14 2.12392E-13
 -1      3862 2.00011E+01-1.15701E-03-1.92650E-06-2.03219E-04-3.41768E-14 1.84996E-13
 -1      3863 2.38636E+01 4.04636E+00-1.68799E-02 9.00720E-01 4.60965E-13-5.23349E-14
 -1      3864 2.27971E+01 3.07255E+00 3.94353E-03 7.49538E-01 4.00286E-13-1.00886E-13
 -1      3865 2.29200E+01 2.77967E+00-7.59781E-03 1.30521E+00 3.98453E-13-5.79532E-14
 -1      3866 2.44209E+01 3.48057E+00-5.29538E-02 1.75084E+00 4.47862E-13 7.02841E-14
 -1      3867 1.90570E+01 7.44383E-01-7.37451E-03 1.12031E-01-1.07020E-13 1.29671E-13
 -1      3868 1.92227E+01 6.79389E-01 3.51816E-04 5.84843E-02-4.70626E-14 8.25018E-14
 -1      3869 1.93304E+01 6.12057E-01-5.22709E-03 3.19076E-03-8.69774E-15 8.74854E-14
 -1      3870 1.94480E+01 5.52066E-01-2.72849E-04-2.22005E-02 4.26218E-14 9.47719E-14
 -1      3871 1.92965E+01 6.12275E-01 4.53504E-03 1.38362E-01-5.68606E-14-3.25383E-14
 -1      3872 1.95304E+01 4.92920E-01-3.44113E-03-5.20810E-02-8.24896E-14 1.79310E-14
 -1      3873 1.96126E+01 4.40525E-01-5.94730E-04-6.07224E-02-2.20387E-13-1.21389E-14
 -1      3874 1.94907E+01 5.08227E-01 3.35111E-03 4.14116E-02-9.55456E-14-1.44463E-13
 -1      3875 1.96745E+01 3.90892E-01-2.20592E-03-7.47708E-02-1.69679E-13 1.48711E-15
 -1      3876 1.97314E+01 3.46877E-01-6.76400E-04-7.39594E-02-1.12104E-13 2.54179E-15
 -1      3877 1.96367E+01 4.13081E-01 2.60793E-03-1.10878E-02-1.80227E-13-1.08564E-13
 -1      3878 1.97773E+01 3.06093E-01-1.37584E-03-7.85151E-02-1.03765E-13-5.55803E-14
 -1      3879 1.98165E+01 2.69909E-01-6.40525E-04-7.30056E-02-9.86120E-14-2.35919E-14
 -1      3880 1.97443E+01 3.30051E-01 1.99751E-03-3.57592E-02-1.57333E-13-1.22746E-14
 -1      3881 1.98500E+01 2.37120E-01-8.30952E-04-7.24623E-02-1.20862E-13-8.97443E-14
 -1      3882 1.98767E+01 2.07969E-01-5.87730E-04-6.50581E-02-1.17434E-13-3.84705E-14
 -1      3883 1.98228E+01 2.59525E-01 1.37813E-03-4.42104E-02-1.70482E-13-3.31465E-14
 -1      3884 1.99000E+01 1.83059E-01-4.85089E-04-6.21539E-02-7.38057E-14-9.88896E-14
 -1      3885 1.99173E+01 1.60801E-01-5.06064E-04-5.48373E-02-9.86954E-14-5.70919E-14
 -1      3886 1.98784E+01 2.03138E-01 1.02810E-03-4.35757E-02-4.91755E-14-2.13828E-13
 -1      3887 1.99350E+01 1.39990E-01-2.68247E-04-5.08025E-02-1.56728E-13-1.49449E-13
 -1      3888 1.99473E+01 1.21410E-01-4.14938E-04-4.37146E-02-1.26491E-13-2.26987E-13
 -1      3889 1.99184E+01 1.57037E-01 7.18761E-04-3.86203E-02-1.55347E-13-2.35065E-13
 -1      3890 1.99599E+01 1.05116E-01-1.44187E-04-3.96026E-02-9.96755E-14-2.84704E-13
 -1      3891 1.99680E+01 9.06267E-02-3.29121E-04-3.34931E-02-1.51149E-13-1.98530E-13
 -1      3892 1.99476E+01 1.19205E-01 5.13494E-04-3.18958E-02-1.35666E-13-3.02152E-13
 -1      3893 1.99767E+01 7.79897E-02-6.25570E-05-2.97624E-02-1.68087E-13-1.74403E-13
 -1      3894 1.99820E+01 6.67664E-02-2.56080E-04-2.47404E-02-2.07083E-13-2.07815E-13
 -1      3895 1.99679E+01 8.92938E-02 3.59575E-04-2.50147E-02-9.07851E-14-1.97420E-13
 -1      3896 1.99879E+01 5.70526E-02-1.63634E-05-2.15901E-02-1.24370E-13-1.40579E-13
 -1      3897 1.99912E+01 4.84417E-02-1.94554E-04-1.76119E-02-8.62269E-15-1.08906E-13
 -1      3898 1.99818E+01 6.59242E-02 2.48272E-04-1.87760E-02-5.53112E-14-4.56601E-14
 -1      3899 1.99952E+01 4.10463E-02 8.52496E-06-1.50837E-02 8.57517E-14-1.54893E-13
 -1      3900 1.99972E+01 3.45105E-02-1.44431E-04-1.20290E-02 1.23277E-13-2.37759E-16
 -1      3901 1.99911E+01 4.78678E-02 1.68109E-04-1.35163E-02 4.13059E-14-2.80635E-14
 -1      3902 1.99998E+01 2.89355E-02 2.14072E-05-1.00809E-02-2.57597E-14-8.95115E-14
 -1      3903 2.00009E+01 2.40377E-02-1.01447E-04-7.81448E-03-1.29854E-16-1.57727E-13
 -1      3904 1.99972E+01 3.40670E-02 1.07849E-04-9.30639E-03-3.03448E-14-3.26983E-14
 -1      3905 2.00024E+01 2.00996E-02 2.40390E-05-6.44215E-03-6.14885E-14-1.48151E-13
 -1      3906 2.00029E+01 1.66149E-02-7.26819E-05-4.84650E-03-3.16683E-13-4.40849E-14
 -1      3907 2.00008E+01 2.38907E-02 6.73955E-05-6.15120E-03-1.03010E-13 3.23295E-14
 -1      3908 2.00038E+01 1.35174E-02 2.35313E-05-3.78580E-03-2.72932E-13 5.31642E-14
 -1      3909 2.00039E+01 1.08334E-02-5.16189E-05-2.60720E-03-1.26272E-13 2.24451E-13
 -1      3910 2.00030E+01 1.63266E-02 4.85968E-05-3.78012E-03-1.40891E-13 3.00489E-13
 -1      3911 2.00044E+01 8.60992E-03 1.93946E-05-1.87905E-03-1.94452E-13 2.54461E-13
 -1      3912 2.00043E+01 6.69647E-03-3.38547E-05-1.07771E-03-6.03306E-14 1.70261E-13
 -1      3913 2.00041E+01 1.05878E-02 2.49475E-05-2.04799E-03-1.25517E-13 3.16410E-13
 -1      3914 2.00044E+01 5.12564E-03 1.66029E-05-5.96921E-04 3.98000E-14 1.43939E-13
 -1      3915 2.00042E+01 3.79039E-03-2.10414E-05-7.77775E-05 6.45231E-14 1.58575E-13
 -1      3916 2.00044E+01 6.48546E-03 1.24039E-05-8.49108E-04-2.99639E-14 1.06516E-13
 -1      3917 2.00041E+01 2.71044E-03 1.34024E-05 2.19216E-04 2.69611E-14 2.08920E-13
 -1      3918 2.00039E+01 1.80698E-03-1.19755E-05 5.34222E-04 1.27042E-13 2.27032E-13
 -1      3919 2.00044E+01 3.60975E-03 3.91951E-06-6.53781E-05 8.24591E-14 2.15214E-13
 -1      3920 2.00037E+01 1.09010E-03 1.05095E-05 7.00659E-04 2.86884E-13 1.02326E-13
 -1      3921 2.00034E+01 5.03351E-04-5.63888E-06 8.72369E-04 3.24334E-13 4.88319E-14
 -1      3922 2.00040E+01 1.65501E-03-1.40242E-06 4.15047E-04 1.14200E-13 2.87077E-13
 -1      3923 2.00032E+01 4.86968E-05 8.10539E-06 9.50095E-04 2.10129E-13-5.91397E-14
 -1      3924 2.00029E+01-3.11437E-04-1.46611E-06 1.02355E-03 1.48453E-13-2.33050E-14
 -1      3925 2.00035E+01 3.76983E-04-4.63464E-06 6.81455E-04 1.64929E-13-6.68363E-15
 -1      3926 2.00026E+01-5.65628E-04 6.20375E-06 1.03974E-03 1.16676E-13 1.63129E-13
 -1      3927 2.00024E+01-7.60217E-04 1.07032E-06 1.05283E-03 3.26708E-14 9.55950E-14
 -1      3928 2.00030E+01-4.01911E-04-6.40690E-06 7.99386E-04 2.27202E-13 4.22957E-14
 -1      3929 2.00021E+01-9.05919E-04 4.52338E-06 1.03745E-03-8.40420E-14 1.53990E-13
 -1      3930 2.00019E+01-1.00459E-03 2.40334E-06 1.01129E-03-1.47018E-13 2.53284E-13
 -1      3931 2.00025E+01-8.42388E-04-5.95876E-06 8.24322E-04 1.01030E-13 9.28762E-14
 -1      3932 2.00017E+01-1.06321E-03 2.87685E-06 9.73059E-04-1.83512E-13 3.11328E-13
 -1      3933 2.00015E+01-1.09158E-03 2.86983E-06 9.24693E-04-2.41466E-13 3.65668E-13
 -1      3934 2.00020E+01-1.06985E-03-6.16141E-06 7.91424E-04-4.86394E-14 3.40317E-13
 -1      3935 2.00012E+01-1.09649E-03 1.88052E-06 8.74360E-04-2.36858E-13 3.68249E-13
 -1      3936 2.00011E+01-1.08628E-03 2.14499E-06 8.16113E-04-3.26907E-13 2.51359E-13
 -1      3937 2.00015E+01-1.14445E-03-4.93621E-06 7.25582E-04-1.84490E-13 5.24143E-13
 -1      3938 2.03416E+01-4.36857E-01 5.41022E-03 6.95491E-01-6.76461E-14-1.20156E-13
 -1      3939 2.05016E+01-5.96936E-01 2.63843E-03 7.21055E-01-5.86008E-14-7.62136E-14
 -1      3940 2.44550E+01-7.51227E-01-1.73107E-02-1.40262E+00 5.83398E-14-3.84104E-13
 -1      3941 2.07131E+01-7.72789E-01 9.81843E-03 7.69407E-01-1.21500E-13-9.47411E-14
 -1      3942 2.09358E+01-9.70834E-01 1.81650E-03 7.57798E-01-1.75577E-13-7.93369E-14
 -1      3943 2.04597E+01-6.87997E-01-1.26370E-02 9.20982E-01-9.72839E-14-8.11254E-14
 -1      3944 1.99804E+01-2.46187E-02 1.06858E-03 4.73961E-01-8.77352E-14-6.50227E-14
 -1      3945 2.00453E+01-9.80446E-02 3.23627E-03 5.17729E-01-9.97488E-14-5.46059E-14
 -1      3946 1.99152E+01 7.65610E-02 3.54368E-05 3.72383E-01-4.78882E-14-6.93125E-14
 -1      3947 1.99514E+01 3.36366E-02 2.59110E-03 4.13607E-01-2.49314E-14-5.44840E-14
 -1      3948 1.98807E+01 4.05021E-02-3.28647E-03 4.77684E-01-8.11585E-14-9.31030E-14
 -1      3949 1.98921E+01 1.29658E-01-3.92592E-04 2.86638E-01-6.32702E-14-5.64735E-14
 -1      3950 1.99092E+01 1.08746E-01 2.01761E-03 3.22384E-01-5.84404E-14-8.76537E-14
 -1      3951 1.98479E+01 1.26319E-01-1.62931E-03 3.60759E-01-1.23065E-14-7.42211E-14
 -1      3952 1.98923E+01 1.50467E-01-5.55569E-04 2.17266E-01-5.91812E-14-5.86479E-15
 -1      3953 1.98978E+01 1.43975E-01 1.45151E-03 2.47138E-01-3.22908E-14-2.68616E-14
 -1      3954 1.98474E+01 1.66012E-01-5.70532E-04 2.68933E-01-6.26052E-14 2.64762E-15
 -1      3955 1.99048E+01 1.50143E-01-6.32220E-04 1.62560E-01-5.33617E-14-2.22794E-14
 -1      3956 1.99039E+01 1.52787E-01 1.02144E-03 1.86646E-01-4.28459E-14 2.23839E-14
 -1      3957 1.98633E+01 1.75458E-01-1.70046E-04 1.97658E-01-3.49839E-14 6.45313E-14
 -1      3958 1.99220E+01 1.38112E-01-6.21238E-04 1.20246E-01-3.61110E-14 1.07559E-13
 -1      3959 1.99180E+01 1.45636E-01 6.83021E-04 1.39415E-01-5.65837E-14-7.32480E-16
 -1      3960 1.98863E+01 1.66849E-01-2.49520E-06 1.43986E-01-5.93218E-14 7.09109E-14
 -1      3961 1.99400E+01 1.20082E-01-5.48468E-04 8.78601E-02-5.33451E-14 1.99767E-13
 -1      3962 1.99350E+01 1.29907E-01 4.71683E-04 1.02832E-01 6.30053E-15 1.83253E-13
 -1      3963 1.99108E+01 1.49180E-01 2.01231E-04 1.03825E-01-4.80700E-14 1.72247E-13
 -1      3964 1.99563E+01 1.00171E-01-4.58172E-04 6.34047E-02-2.80460E-13 1.46788E-13
 -1      3965 1.99514E+01 1.10463E-01 3.11789E-04 7.49661E-02-1.02185E-13 1.52412E-13
 -1      3966 1.99333E+01 1.27073E-01 2.50345E-04 7.42391E-02-7.10994E-14 3.77525E-13
 -1      3967 1.99700E+01 8.07994E-02-3.69844E-04 4.50767E-02-2.19427E-13 5.38140E-14
 -1      3968 1.99657E+01 9.05308E-02 2.08281E-04 5.39068E-02-3.19068E-13 4.41249E-14
 -1      3969 1.99525E+01 1.04424E-01 2.46625E-04 5.25483E-02-2.08668E-13 1.22136E-13
 -1      3970 1.99808E+01 6.32944E-02-2.90422E-04 3.14606E-02-1.18695E-13 9.36398E-14
 -1      3971 1.99773E+01 7.19262E-02 1.40691E-04 3.81295E-02-1.81915E-13 9.61817E-14
 -1      3972 1.99680E+01 8.32586E-02 2.17759E-04 3.67178E-02-2.18782E-13 1.29268E-13
 -1      3973 1.99889E+01 4.82559E-02-2.22300E-04 2.14431E-02 3.24109E-14 2.44732E-13
 -1      3974 1.99863E+01 5.55728E-02 9.67840E-05 2.64189E-02-7.33733E-14 1.81928E-13
 -1      3975 1.99799E+01 6.46110E-02 1.79043E-04 2.52288E-02-1.36601E-13 9.50594E-14
 -1      3976 1.99947E+01 3.58182E-02-1.66830E-04 1.41549E-02-9.92188E-14 4.24036E-13
 -1      3977 1.99929E+01 4.18078E-02 6.82978E-05 1.78168E-02 3.61366E-14 2.67837E-13
 -1      3978 1.99886E+01 4.88686E-02 1.39379E-04 1.69442E-02-8.54686E-15 2.42612E-13
 -1      3979 1.99987E+01 2.58479E-02-1.20260E-04 8.93246E-03-1.82964E-13 4.59403E-13
 -1      3980 1.99975E+01 3.06045E-02 4.97732E-05 1.15800E-02-1.08260E-13 4.09607E-13
 -1      3981 1.99948E+01 3.60071E-02 1.02229E-04 1.10130E-02-8.43206E-14 3.34532E-13
 -1      3982 2.00012E+01 1.80875E-02-8.49311E-05 5.25420E-03-6.24777E-14 2.32036E-13
 -1      3983 2.00005E+01 2.17618E-02 3.62385E-05 7.13863E-03-1.69045E-13 4.04580E-13
 -1      3984 1.99989E+01 2.58251E-02 8.23456E-05 6.85426E-03-1.03382E-13 3.29656E-13
 -1      3985 2.00027E+01 1.21760E-02-5.95903E-05 2.71970E-03 7.02488E-14 3.75964E-14
 -1      3986 2.00023E+01 1.49545E-02 2.84750E-05 4.02228E-03 1.18867E-13 1.02288E-13
 -1      3987 2.00015E+01 1.79200E-02 5.01127E-05 3.93007E-03 9.66419E-14 2.41184E-13
 -1      3988 2.00034E+01 7.80409E-03-3.98082E-05 1.02716E-03 2.00981E-14 7.28551E-14
 -1      3989 2.00033E+01 9.84403E-03 2.14886E-05 1.90209E-03-8.46808E-15 4.16222E-14
 -1      3990 2.00030E+01 1.19637E-02 3.01757E-05 1.95763E-03 5.57651E-14 4.82795E-14
 -1      3991 2.00036E+01 4.65117E-03-2.52470E-05-5.91407E-05-1.81256E-13 7.99812E-14
 -1      3992 2.00036E+01 6.11109E-03 1.68190E-05 5.03369E-04-4.54886E-14 6.34017E-14
 -1      3993 2.00037E+01 7.58552E-03 1.75857E-05 6.49235E-04-3.81211E-14 2.00218E-13
 -1      3994 2.00035E+01 2.44537E-03-1.48005E-05-7.12117E-04-2.90312E-13 6.38600E-14
 -1      3995 2.00036E+01 3.45726E-03 1.28897E-05-3.73121E-04-2.74438E-13 2.21211E-14
 -1      3996 2.00039E+01 4.44490E-03 8.30237E-06-1.77839E-04-1.64141E-13 1.88907E-13
 -1      3997 2.00031E+01 9.58049E-04-7.51197E-06-1.06424E-03 8.68997E-14 6.44884E-14
 -1      3998 2.00033E+01 1.63241E-03 9.81178E-06-8.81161E-04-3.77521E-14 7.25863E-15
 -1      3999 2.00037E+01 2.26209E-03 2.03412E-06-6.65654E-04-8.74579E-14 2.99060E-13
 -1      4000 2.00027E+01 1.23668E-06-2.68063E-06-1.21402E-03 3.71509E-13-1.10352E-13
 -1      4001 2.00029E+01 4.28372E-04 7.32505E-06-1.13635E-03 2.35484E-13-7.47317E-14
 -1      4002 2.00034E+01 8.01956E-04-1.78806E-06-9.20706E-04 2.97509E-13 3.83144E-14
 -1      4003 2.00023E+01-5.73260E-04 2.49669E-07-1.23284E-03 1.19226E-13-2.44564E-13
 -1      4004 2.00025E+01-3.22898E-04 5.23733E-06-1.22311E-03 2.42454E-13-1.83445E-13
 -1      4005 2.00029E+01-1.26404E-04-3.61946E-06-1.02054E-03 3.57140E-13-4.14151E-14
 -1      4006 2.00018E+01-8.81757E-04 2.26964E-06-1.17057E-03 4.54336E-14-4.12554E-13
 -1      4007 2.00020E+01-7.53857E-04 3.78069E-06-1.20322E-03 1.33512E-13-3.57244E-13
 -1      4008 2.00024E+01-6.78239E-04-5.12175E-06-1.02043E-03 1.42464E-13-2.44309E-13
 -1      4009 2.00014E+01-1.01444E-03 3.27542E-06-1.06585E-03-2.73254E-13-2.44344E-13
 -1      4010 2.00016E+01-9.65002E-04 2.51132E-06-1.12143E-03-1.93003E-13-2.85533E-13
 -1      4011 2.00019E+01-9.64874E-04-5.33094E-06-9.60781E-04-2.28456E-13-2.93542E-13
 -1      4012 2.00010E+01-1.03714E-03 2.54559E-06-9.40708E-04-1.59005E-13-2.09968E-13
 -1      4013 2.00012E+01-1.03504E-03 1.90027E-06-1.00447E-03-2.49586E-13-1.61584E-13
 -1      4014 2.00015E+01-1.08392E-03-5.93942E-06-8.70726E-04-2.81451E-13-2.17432E-13
 -1      4015 2.30829E+01 2.21033E+00-2.46483E-02 1.67236E+00 3.54433E-13-3.65124E-14
 -1      4016 2.00010E+01-1.09309E-03-4.54770E-07 6.67299E-04-3.60281E-13 2.04885E-13
 -1      4017 2.00010E+01-1.09487E-03-5.70351E-07-5.79389E-04 3.37733E-14-8.71647E-14
 -1      4018 2.00008E+01-1.04252E-03 3.11822E-06-6.26302E-04 1.09294E-13-1.86297E-13
 -1      4019 2.38120E+01 2.05906E+00-7.93768E-03 1.87549E+00 3.47869E-13 4.15865E-14
 -1      4020 2.01113E+01-1.90080E-01 2.73476E-03 5.86083E-01-1.24177E-13-8.71635E-14
 -1      4021 2.02177E+01-3.02950E-01 3.65330E-03 6.26731E-01-9.45383E-14-1.38324E-13
 -1      4022 2.01477E+01-3.42835E-01-7.58417E-03 7.72118E-01-7.65974E-14-1.14254E-13
 -1      4023 2.00007E+01-1.00188E-03-5.31584E-07-7.38320E-04 1.61372E-13-3.47176E-13
 -1      4024 2.12597E+01-1.18709E+00 1.29575E-02 7.68155E-01-1.48435E-13-8.17362E-14
 -1      4025 2.15670E+01-1.39167E+00 4.54007E-03 6.76868E-01-1.12880E-13-8.16712E-14
 -1      4026 2.09596E+01-1.09727E+00-6.93699E-03 1.00875E+00-1.50630E-13-6.11284E-14
 -1      4027 1.75794E+01 1.03072E+00-2.25608E-02 1.09011E+00-4.77366E-14 3.89402E-15
 -1      4028 1.80115E+01 1.02658E+00 5.31899E-03 8.32885E-01-8.88460E-15 7.59457E-14
 -1      4029 2.38549E+01-1.15632E+00-1.15147E-03-1.02642E+00 3.60367E-14-3.09117E-13
 -1      4030 2.39144E+01 4.71817E-01 5.69969E-03 1.76781E+00 1.89227E-13 2.07560E-14
 -1      4031 2.47737E+01 1.01184E+00-9.21329E-03 1.95463E+00 2.39981E-13 7.77971E-14
 -1      4032 2.36340E+01-1.59313E+00-2.11959E-02-7.28017E-01-2.36688E-14-2.87524E-13
 -1      4033 1.70495E+01 5.40244E-01 2.48274E-02 2.52146E+00-3.30847E-13-3.09776E-14
 -1      4034 1.67138E+01 9.36773E-01-2.96579E-02 1.85612E+00-2.21555E-13-2.36712E-14
 -1      4035 1.72930E+01 1.02842E+00 1.00450E-02 1.45404E+00-1.58829E-13 2.27244E-14
 -1      4036 1.80701E+01 1.47944E-01 1.77415E-02 2.38709E+00-3.46449E-13-6.61001E-14
 -1      4037 1.87069E+01 8.70911E-01-1.09005E-02 2.92195E-01-9.47386E-14 1.24065E-13
 -1      4038 1.89256E+01 8.12070E-01 1.08366E-03 2.01089E-01-1.27858E-13 1.18525E-13
 -1      4039 1.90490E+01 7.12112E-01 5.59098E-03 2.99614E-01-7.15266E-14 3.61661E-14
 -1      4040 1.82193E+01 9.83155E-01-1.57999E-02 6.01736E-01-6.57531E-14 1.43855E-13
 -1      4041 1.85344E+01 9.37201E-01 2.67052E-03 4.40815E-01-1.49750E-14 1.56141E-13
 -1      4042 1.83294E+01 8.21956E-01 7.75798E-03 9.67828E-01 1.67547E-14-1.01405E-13
 -1      4043 2.00013E+01-1.18333E-03 1.49662E-06-1.22215E-04-2.12609E-13 2.10431E-13
 -1      4044 2.00013E+01-1.16869E-03-7.00849E-07-3.15113E-04-1.13326E-13 2.60050E-13
 -1      4045 2.00014E+01-1.14647E-03 1.17074E-06-5.28427E-04-2.88248E-13-6.26678E-14
 -1      4046 2.00012E+01-1.12260E-03 1.79452E-06-6.03228E-04-4.09356E-14 9.19763E-14
 -1      4047 2.01675E+01-1.29283E+00 1.29837E-02 2.63247E+00-3.35421E-13-9.24174E-14
 -1      4048 1.93982E+01-7.64657E-01-1.88310E-02 2.45937E+00-3.03057E-13-4.47925E-14
 -1      4049 2.07958E+01-1.41000E+00 8.09200E-03 2.04661E+00-2.72126E-13 5.04258E-14
 -1      4050 2.00012E+01-1.14783E-03 2.80254E-07 5.34111E-04-3.36402E-13 4.20577E-13
 -1      4051 2.43225E+01 7.09572E-01 3.46041E-02 1.86608E+00 2.00662E-13 5.78942E-14
 -1      4052 2.00011E+01-1.07758E-03-3.71575E-06-7.82115E-04-5.27817E-14-2.95688E-13
 -1      4053 2.33138E+01-2.06558E+00 1.68217E-02 3.23852E-01-1.06810E-13-2.80698E-13
 -1      4054 2.00013E+01-1.17461E-03 1.51067E-07 2.95773E-04-3.55698E-13 3.61886E-13
 -1      4055 2.00013E+01-1.18637E-03 1.08018E-06 1.02797E-04-2.72675E-13 2.35727E-13
 -1      4056 2.00015E+01-1.19878E-03-1.25430E-06-1.24860E-05-3.29868E-13 1.14150E-13
 -1      4057 1.99700E+01-1.08040E-01-4.86790E-03 6.16977E-01-1.06082E-13-9.47471E-14
 -1      4058 2.28557E+01-2.06554E+00 1.07169E-02 6.01871E-01-1.28153E-13-2.28502E-13
 -1      4059 1.78117E+01 7.48610E-01 1.18024E-02 1.60167E+00-1.15770E-13-1.35031E-13
 -1      4060 1.87324E+01 7.92774E-01 6.64976E-03 5.58363E-01-6.36048E-14 2.37795E-14
 -1      4061 2.22394E+01-1.68589E+00 1.37051E-02 4.68958E-01-1.12501E-13-1.19198E-13
 -1      4062 2.23398E+01-2.13735E+00-2.03249E-02 1.26582E+00-2.14094E-13-1.34741E-13
 -1      4063 2.16003E+01-1.75960E+00-5.40470E-03 1.49315E+00-2.45463E-13-2.88231E-14
 -1      4064 2.18575E+01-1.53470E+00 2.09465E-02 6.67838E-01-1.27013E-13-8.83907E-14
 -1      4065 2.43261E+01 1.34884E+00-6.08728E-02 2.08659E+00 2.74595E-13 5.02354E-14
 -1      4066 2.15263E+01-1.54753E+00-1.68127E-02 1.04835E+00-1.39554E-13-6.37771E-14
 -1      4067 1.94551E+01 4.82943E-01-4.93888E-03 1.26834E-01-1.39013E-13-6.91438E-14
 -1      4068 1.95472E+01 4.45626E-01 7.98208E-04 8.77673E-02-1.42373E-13-1.83050E-13
 -1      4069 1.96033E+01 4.04168E-01-3.00217E-03 5.02001E-02-1.36892E-13-1.07140E-13
 -1      4070 1.96693E+01 3.67649E-01-3.94108E-05 2.87508E-02-1.23705E-13-5.81633E-14
 -1      4071 1.95958E+01 3.95917E-01 4.14081E-04 1.27361E-01-8.61972E-14 2.45984E-15
 -1      4072 1.97149E+01 3.31220E-01-1.82651E-03 7.34432E-03-1.53096E-13 4.85603E-14
 -1      4073 1.97632E+01 2.97811E-01-4.41769E-05-2.78694E-03-1.67477E-13 1.28833E-14
 -1      4074 1.97025E+01 3.37474E-01 2.19589E-03 6.34390E-02-7.84248E-14 2.26394E-14
 -1      4075 1.97971E+01 2.65890E-01-1.57859E-03-1.39817E-02-1.91353E-13-4.46760E-15
 -1      4076 1.98329E+01 2.37483E-01-1.49888E-04-1.71338E-02-1.34817E-13 5.51801E-15
 -1      4077 1.97825E+01 2.77930E-01 1.67678E-03 2.59793E-02-1.85892E-13-1.02055E-14
 -1      4078 1.98579E+01 2.11345E-01-1.08592E-03-2.24533E-02-1.14029E-13-5.82613E-14
 -1      4079 1.98825E+01 1.88484E-01-2.42925E-04-2.20561E-02-1.18146E-13-1.31624E-13
 -1      4080 1.98447E+01 2.25371E-01 1.61477E-03 5.55360E-03-1.36775E-13-3.49502E-14
 -1      4081 1.99026E+01 1.65813E-01-7.04564E-04-2.42189E-02-5.27937E-14-6.61151E-14
 -1      4082 1.99210E+01 1.45793E-01-2.54459E-04-2.20580E-02-1.67142E-13-2.03665E-14
 -1      4083 1.98911E+01 1.79455E-01 1.27191E-03-4.61271E-03-3.81002E-14-7.81743E-14
 -1      4084 1.99359E+01 1.27377E-01-4.60097E-04-2.22500E-02-2.00893E-13-4.55527E-14
 -1      4085 1.99486E+01 1.11171E-01-2.40299E-04-1.94241E-02-1.50563E-13-7.52535E-14
 -1      4086 1.99265E+01 1.39856E-01 1.01203E-03-8.88183E-03-1.58881E-13-1.26396E-14
 -1      4087 1.99595E+01 9.64636E-02-2.86553E-04-1.86760E-02-7.26400E-14-4.59698E-14
 -1      4088 1.99682E+01 8.35155E-02-2.09431E-04-1.58127E-02-5.42085E-14-2.45158E-14
 -1      4089 1.99522E+01 1.07194E-01 7.77132E-04-9.68364E-03-1.20522E-13 2.97666E-14
 -1      4090 1.99759E+01 7.19279E-02-1.73695E-04-1.47197E-02-1.17546E-14-4.94767E-14
 -1      4091 1.99818E+01 6.17348E-02-1.71279E-04-1.21391E-02 9.25827E-14 5.36013E-14
 -1      4092 1.99706E+01 8.07902E-02 5.79679E-04-8.77918E-03-1.23828E-14 3.20019E-14
 -1      4093 1.99872E+01 5.27239E-02-1.01132E-04-1.10190E-02 7.75295E-14-9.06886E-14
 -1      4094 1.99910E+01 4.48125E-02-1.31927E-04-8.84993E-03 2.39444E-14-8.49435E-14
 -1      4095 1.99834E+01 5.98126E-02 4.18035E-04-7.19650E-03 6.76787E-14-1.59838E-13
 -1      4096 1.99946E+01 3.79260E-02-4.41016E-05-7.84521E-03-1.83589E-14 8.65165E-14
 -1      4097 1.99971E+01 3.18490E-02-7.49273E-05-6.07484E-03-5.45481E-14 4.22234E-14
 -1      4098 1.99920E+01 4.33988E-02 2.73899E-04-5.50586E-03 1.16132E-13 1.55000E-15
 -1      4099 1.99993E+01 2.68194E-02-3.44417E-05-5.43228E-03-9.11145E-14 7.44301E-14
 -1      4100 2.00007E+01 2.25235E-02-6.58009E-05-4.12673E-03-3.12535E-14 1.75182E-13
 -1      4101 1.99975E+01 3.04557E-02-7.65102E-06-3.83932E-03-2.68762E-14-4.58476E-14
 -1      4102 2.00022E+01 1.85309E-02-1.25405E-06-3.44975E-03-8.52255E-14 3.00902E-13
 -1      4103 2.00029E+01 1.50639E-02-6.04205E-05-2.47997E-03-1.10781E-13 3.41366E-13
 -1      4104 2.00011E+01 2.15880E-02 9.86358E-05-2.66920E-03-2.64243E-14-2.43539E-14
 -1      4105 2.00037E+01 1.21939E-02-1.79790E-06-2.01905E-03-1.40659E-13 3.09250E-13
 -1      4106 2.00041E+01 9.71026E-03-3.11119E-05-1.30085E-03-1.26834E-13 2.05160E-13
 -1      4107 2.00032E+01 1.44759E-02 6.73047E-05-1.67778E-03-1.83146E-13 2.24134E-13
 -1      4108 2.00044E+01 7.61476E-03 1.69709E-06-9.92871E-04-5.10788E-14 2.64314E-13
 -1      4109 2.00045E+01 5.85040E-03-1.86340E-05-4.99270E-04 2.02799E-14 3.05579E-13
 -1      4110 2.00042E+01 9.22821E-03 4.13489E-05-9.29841E-04-4.92846E-14 2.26603E-13
 -1      4111 2.00045E+01 4.38184E-03 4.86061E-06-3.01290E-04 1.88028E-14 1.43558E-13
 -1      4112 2.00044E+01 3.16151E-03-9.70265E-06 2.28439E-05 8.90434E-14 1.21707E-13
 -1      4113 2.00046E+01 5.48381E-03 1.83800E-05-4.09977E-04-5.37658E-14 1.34342E-13
 -1      4114 2.00043E+01 2.16109E-03 6.09658E-06 1.39770E-04 1.48976E-13 1.34111E-13
 -1      4115 2.00041E+01 1.34549E-03-3.84794E-06 3.40000E-04 1.48230E-13 1.82378E-13
 -1      4116 2.00044E+01 2.88340E-03 2.97105E-06-6.21385E-05 5.75364E-14-3.71795E-14
 -1      4117 2.00039E+01 6.92825E-04 7.08697E-06 3.98391E-04 1.18426E-13 1.71430E-13
 -1      4118 2.00036E+01 1.73097E-04 2.51616E-06 5.12864E-04 1.31779E-13 1.16822E-13
 -1      4119 2.00041E+01 1.13671E-03-6.43716E-06 1.54755E-04 1.13157E-13 1.54058E-13
 -1      4120 2.00033E+01-2.23401E-04 2.74335E-06 5.25660E-04 2.29844E-13 1.57791E-13
 -1      4121 2.00031E+01-5.17178E-04 1.13955E-07 5.74149E-04 2.73124E-13 1.61441E-13
 -1      4122 2.00036E+01 1.52629E-05-9.36970E-06 2.75487E-04 2.52114E-13 3.33546E-13
 -1      4123 2.00028E+01-7.52929E-04 6.15490E-06 5.84213E-04 2.75776E-13 2.60608E-13
 -1      4124 2.00025E+01-9.27964E-04 3.50694E-06 5.95286E-04 3.37520E-13 2.60119E-13
 -1      4125 2.00030E+01-6.09431E-04-4.28308E-06 3.38944E-04 3.75382E-13 4.98040E-13
 -1      4126 2.00022E+01-1.04671E-03 3.94777E-06 5.72344E-04 4.84305E-14 4.05502E-13
 -1      4127 2.00020E+01-1.11511E-03 4.47132E-06 5.57836E-04-1.04312E-13 5.60380E-13
 -1      4128 2.00025E+01-1.00566E-03-9.79082E-06 3.46698E-04 2.10414E-13 7.51825E-13
 -1      4129 2.00008E+01-1.00965E-03 2.39649E-07-8.97664E-04 2.26965E-14-2.09219E-13
 -1      4130 2.01809E+01-4.60830E-01 5.56614E-03 1.04249E+00-7.44887E-14-5.96337E-14
 -1      4131 2.03663E+01-6.72328E-01-9.68168E-04 1.12540E+00-5.83100E-14 6.24500E-17
 -1      4132 1.97767E+01 1.90308E-01-1.92605E-03 3.32058E-01-6.76294E-14 3.87747E-14
 -1      4133 1.97918E+01 1.71977E-01 3.69052E-03 3.84824E-01-3.36054E-14-1.55963E-14
 -1      4134 1.97755E+01 1.37839E-01-1.46383E-03 4.56688E-01-7.51397E-14-1.05687E-13
 -1      4135 1.98101E+01 9.19351E-02 3.62559E-03 5.24609E-01-8.78366E-14-5.38935E-14
 -1      4136 1.97023E+01 2.05627E-01-7.13515E-04 4.29013E-01-7.72563E-14-7.97221E-14
 -1      4137 1.98343E+01 2.00656E-01-1.02241E-03 1.68198E-01-6.96154E-14 7.39398E-14
 -1      4138 1.98258E+01 2.07568E-01 1.38980E-03 1.98626E-01-9.66521E-14 1.91408E-14
 -1      4139 1.98673E+01 1.81592E-01-1.13351E-03 1.18402E-01-5.48748E-14 1.38405E-13
 -1      4140 1.98573E+01 1.92850E-01 7.61164E-04 1.41229E-01-4.70778E-14 1.82396E-13
 -1      4141 1.98189E+01 2.18561E-01-4.52927E-04 1.40925E-01-1.46394E-13 8.61766E-14
 -1      4142 1.98992E+01 1.56146E-01-9.69715E-04 8.25841E-02-7.22280E-14 2.69972E-13
 -1      4143 1.98894E+01 1.70003E-01 6.77398E-04 9.90774E-02-1.11018E-13 2.03056E-13
 -1      4144 1.98616E+01 1.94445E-01 1.13542E-03 9.55562E-02-1.41054E-13 2.22055E-13
 -1      4145 1.99264E+01 1.29723E-01-7.51670E-04 5.72594E-02-1.41189E-13 2.95084E-13
 -1      4146 1.99174E+01 1.43549E-01 4.09247E-04 6.92646E-02-8.65512E-14 2.75391E-13
 -1      4147 1.98975E+01 1.63834E-01 1.05687E-03 6.45063E-02-1.25715E-13 2.74634E-13
 -1      4148 1.99486E+01 1.04607E-01-5.68396E-04 3.93412E-02-7.28921E-14 1.10146E-13
 -1      4149 1.99409E+01 1.17361E-01 2.40686E-04 4.80659E-02-6.60787E-14 3.02024E-13
 -1      4150 1.99268E+01 1.33973E-01 9.25822E-04 4.31903E-02-9.12421E-14 2.30658E-13
 -1      4151 1.99658E+01 8.21583E-02-4.23795E-04 2.67201E-02-2.21138E-13 1.49391E-13
 -1      4152 1.99597E+01 9.33225E-02 1.35837E-04 3.30433E-02-1.71419E-13 1.65814E-13
 -1      4153 1.99498E+01 1.06655E-01 7.59375E-04 2.86952E-02-5.13794E-14 1.74187E-13
 -1      4154 1.99788E+01 6.29645E-02-3.11437E-04 1.78569E-02-5.42866E-14 8.12870E-14
 -1      4155 1.99741E+01 7.23677E-02 7.53034E-05 2.24248E-02-1.78046E-13 1.32611E-13
 -1      4156 1.99674E+01 8.28899E-02 5.95510E-04 1.88740E-02-1.85251E-13 5.77547E-14
 -1      4157 1.99881E+01 4.71047E-02-2.26222E-04 1.16570E-02-2.95638E-14 1.11055E-13
 -1      4158 1.99848E+01 5.47849E-02 4.18282E-05 1.49431E-02-4.39805E-14 8.33285E-14
 -1      4159 1.99803E+01 6.29548E-02 4.49135E-04 1.22332E-02-1.01411E-13 5.36500E-14
 -1      4160 1.99947E+01 3.43864E-02-1.50281E-04 7.34328E-03-1.29814E-13 1.91062E-13
 -1      4161 1.99923E+01 4.04894E-02 2.55790E-05 9.69598E-03-5.45765E-14 1.96216E-13
 -1      4162 1.99894E+01 4.67144E-02 3.23759E-04 7.76079E-03-1.02819E-13-1.68496E-14
 -1      4163 1.99991E+01 2.43756E-02-7.95523E-05 4.37364E-03-1.01141E-13 9.51557E-14
 -1      4164 1.99975E+01 2.90542E-02-1.07693E-05 5.97920E-03-6.38183E-14 2.04982E-13
 -1      4165 1.99956E+01 3.38412E-02 2.02036E-04 4.73466E-03-1.63462E-13-7.08074E-14
 -1      4166 2.00017E+01 1.67477E-02-7.38626E-05 2.37817E-03 1.72332E-13 1.04849E-13
 -1      4167 2.00008E+01 2.03595E-02 6.57261E-06 3.54024E-03 3.77338E-14 1.35515E-13
 -1      4168 1.99999E+01 2.35445E-02 1.13661E-04 2.67764E-03-1.31693E-14-1.54064E-13
 -1      4169 2.00032E+01 1.10399E-02-4.92729E-05 1.03253E-03 1.05224E-13 6.56102E-14
 -1      4170 2.00028E+01 1.37114E-02 1.33582E-05 1.82195E-03 1.61914E-13 4.11993E-14
 -1      4171 2.00022E+01 1.61518E-02 6.39532E-05 1.35798E-03 2.55231E-13-2.01729E-13
 -1      4172 2.00039E+01 6.87224E-03-3.07469E-05 1.71376E-04-8.57846E-14 6.31562E-14
 -1      4173 2.00038E+01 8.80871E-03 1.07765E-05 6.92265E-04-9.86242E-15 4.99641E-14
 -1      4174 2.00036E+01 1.05577E-02 5.07116E-05 5.11997E-04 8.71649E-14-2.65503E-14
 -1      4175 2.00041E+01 3.91307E-03-1.76265E-05-3.52146E-04-2.11205E-13 2.78332E-13
 -1      4176 2.00041E+01 5.27629E-03 9.54101E-06-2.29373E-05-9.72609E-14 1.49661E-13
 -1      4177 2.00042E+01 6.47378E-03 2.62127E-05-2.13025E-05-1.44843E-13-6.26838E-14
 -1      4178 2.00039E+01 1.87754E-03-8.63891E-06-6.45603E-04 1.14623E-13 5.16227E-14
 -1      4179 2.00040E+01 2.80544E-03 8.59564E-06-4.51037E-04-1.51475E-13 2.60278E-13
 -1      4180 2.00043E+01 3.59245E-03 7.98024E-06-3.38419E-04-1.22039E-13 1.29691E-13
 -1      4181 2.00035E+01 5.33125E-04-2.50940E-06-7.83586E-04 4.64026E-13-2.38698E-14
 -1      4182 2.00037E+01 1.13699E-03 7.64094E-06-6.81801E-04 3.26357E-13 1.11294E-13
 -1      4183 2.00040E+01 1.62574E-03-3.51943E-06-5.08959E-04 2.09147E-13-9.72623E-15
 -1      4184 2.00030E+01-3.10191E-04 1.07525E-06-8.15477E-04 4.39892E-13 1.30629E-13
 -1      4185 2.00033E+01 5.65837E-05 5.13449E-06-7.81341E-04 4.21242E-13 9.00198E-14
 -1      4186 2.00036E+01 3.44236E-04-7.20287E-06-5.84558E-04 4.10576E-13 2.58201E-13
 -1      4187 2.00025E+01-7.99253E-04 2.25672E-06-7.98197E-04 1.04894E-13-3.31732E-14
 -1      4188 2.00027E+01-5.90694E-04 2.52133E-06-8.02596E-04 4.27384E-13 8.48480E-14
 -1      4189 2.00030E+01-4.43068E-04-6.21526E-06-5.80804E-04 4.43603E-13 2.53392E-13
 -1      4190 2.00020E+01-1.03814E-03 5.90317E-06-7.30791E-04-1.78795E-13-2.85041E-13
 -1      4191 2.00022E+01-9.44896E-04 4.32031E-06-7.58224E-04-1.54868E-13-3.24571E-13
 -1      4192 2.00025E+01-8.97915E-04-8.94216E-06-5.60939E-04 9.71601E-14 5.27826E-14
 -1      4193 2.00016E+01-1.13119E-03 2.23690E-06-6.05590E-04-4.73216E-13-1.42173E-13
 -1      4194 2.00018E+01-1.09991E-03 2.05218E-06-6.43319E-04-4.38450E-13-2.46174E-13
 -1      4195 2.00021E+01-1.11406E-03-9.69424E-06-4.64694E-04-3.71337E-13-2.19256E-13
 -1      4196 2.00017E+01-1.18337E-03-4.49193E-06-3.16272E-04-4.47003E-13 8.26838E-14
 -1      4197 1.99394E+01-1.67703E-01 7.23886E-04 8.18841E-01-9.98924E-14-7.02024E-14
 -1      4198 2.00660E+01-3.00946E-01 6.01832E-03 9.03426E-01-8.69197E-14-1.15031E-13
 -1      4199 1.99137E+01-2.95775E-01-3.00221E-03 1.09391E+00-6.66355E-14-1.65082E-14
 -1      4200 1.92684E+01 5.57960E-01-6.69552E-03 2.56574E-01-5.05320E-14-1.24142E-13
 -1      4201 1.93927E+01 5.25161E-01 2.59511E-03 1.87764E-01-1.23403E-13-9.11523E-14
 -1      4202 1.94668E+01 4.55289E-01 1.87470E-03 2.35354E-01-1.40563E-13 1.12557E-14
 -1      4203 2.42443E+01 2.68693E+00 1.52032E-02 1.85403E+00 4.28425E-13 1.90247E-14
 -1      4204 1.90520E+01 6.13947E-01-7.62834E-03 4.51280E-01-9.52991E-14-3.63612E-14
 -1      4205 1.92022E+01 5.93378E-01 4.15738E-03 3.46013E-01-6.05437E-14-5.45120E-14
 -1      4206 1.93141E+01 4.95769E-01 1.72415E-03 3.96410E-01-9.95212E-14-3.44398E-14
 -1      4207 1.87728E+01 6.32465E-01-1.07511E-02 7.63865E-01-4.62428E-14-7.09698E-14
 -1      4208 1.89700E+01 6.35762E-01 5.23032E-03 5.93210E-01-9.19088E-14-4.62775E-14
 -1      4209 1.91452E+01 5.05050E-01 3.02859E-03 6.36104E-01-6.64456E-14-6.06027E-14
 -1      4210 2.00014E+01-1.17002E-03 4.72545E-07 4.49745E-04-3.79514E-13 3.56215E-13
 -1      4211 1.98019E+01 2.06890E-01-1.19902E-03 2.38010E-01-1.49347E-13 5.97680E-14
 -1      4212 1.98013E+01 2.03402E-01 2.25323E-03 2.77402E-01-1.14917E-13 2.00283E-14
 -1      4213 1.97307E+01 2.40171E-01 2.02278E-04 2.99755E-01-1.17649E-13-3.43489E-14
 -1      4214 1.86689E+01-1.33207E-01 4.71680E-03 2.30278E+00-2.73007E-13-3.16006E-14
 -1      4215 1.80505E+01 3.53439E-01-2.08495E-02 1.94269E+00-1.89631E-13-6.98313E-14
 -1      4216 1.83899E+01 4.96428E-01 1.35190E-02 1.54290E+00-7.41210E-14-1.02617E-13
 -1      4217 1.84560E+01 5.64701E-01-1.51574E-02 1.22690E+00 3.53790E-14-1.60592E-13
 -1      4218 1.87006E+01 6.21218E-01 8.80589E-03 9.71364E-01 4.05084E-14-9.51071E-14
 -1      4219 1.89601E+01 4.41619E-01 1.41252E-03 9.94336E-01 1.41204E-14-1.46924E-13
 -1      4220 1.98217E+01 2.48924E-02-1.62053E-04 6.18868E-01-5.72572E-14-5.78526E-14
 -1      4221 1.98911E+01-5.60249E-02 5.40170E-03 6.97540E-01-7.43045E-14-2.66172E-14
 -1      4222 1.97564E+01-2.62113E-02-7.41893E-04 8.21681E-01-9.31235E-14-1.63365E-14
 -1      4223 1.96971E+01 1.22888E-01-3.97630E-03 5.96409E-01-6.32996E-14-3.77775E-14
 -1      4224 2.13727E+01-1.48551E+00 8.84156E-03 1.33200E+00-1.97031E-13-4.45954E-15
 -1      4225 2.11338E+01-1.54294E+00-8.25341E-05 1.78101E+00-2.69332E-13 5.87100E-14
 -1      4226 2.04850E+01-1.15714E+00-1.37946E-02 1.86008E+00-1.59166E-13 5.64865E-14
 -1      4227 2.11007E+01-1.32276E+00-1.98012E-03 1.31226E+00-1.78201E-13 1.19719E-14
 -1      4228 1.94084E+01-4.21977E-01 1.17133E-02 2.03579E+00-1.80685E-13 9.13137E-15
 -1      4229 1.87785E+01 2.56997E-01-1.00303E-03 1.53127E+00-8.17686E-14-3.63815E-14
 -1      4230 2.00018E+01-1.15110E-03 2.14232E-06 5.15424E-04-2.17194E-13 4.13668E-13
 -1      4231 2.00016E+01-1.16627E-03 2.13922E-06 4.88626E-04-2.65851E-13 3.70809E-13
 -1      4232 2.00017E+01-1.19372E-03-2.25363E-06 2.48993E-04-3.76267E-13 1.86779E-13
 -1      4233 2.00020E+01-1.15285E-03-6.91377E-06 3.11053E-04-1.96322E-13 4.50708E-13
 -1      4234 1.97767E+01 2.41269E-01 1.46221E-03 2.05920E-01-1.23532E-13-2.10596E-14
 -1      4235 2.07945E+01-1.04320E+00 8.60246E-03 1.27118E+00-1.41627E-13 1.23569E-15
 -1      4236 2.00017E+01-1.19490E-03 5.46172E-07 8.63801E-05-4.39046E-13 1.15184E-13
 -1      4237 2.00017E+01-1.19105E-03 2.13009E-06-1.39320E-04-3.91837E-13 1.68693E-13
 -1      4238 2.00019E+01-1.16477E-03 4.07859E-06-2.14732E-04-6.57275E-13 2.11871E-13
 -1      4239 2.00019E+01-1.17329E-03 1.68869E-06 1.19188E-04-3.59627E-13 2.67131E-13
 -1      4240 2.04063E+01-8.39971E-01-4.09019E-03 1.41488E+00-1.19174E-13 8.77699E-14
 -1      4241 1.92348E+01 3.60068E-01-7.55823E-03 7.55659E-01-5.48515E-14-5.15787E-14
 -1      4242 1.93352E+01 3.88793E-01 1.89956E-03 6.09527E-01-4.16700E-14 5.00009E-14
 -1      4243 1.96972E+01 3.21465E-01-5.57692E-04 1.10483E-01-1.14247E-13 7.64596E-14
 -1      4244 1.97380E+01 2.94757E-01-5.95456E-04 8.58421E-02-1.05712E-13 6.43845E-14
 -1      4245 1.97881E+01 2.52743E-01-1.26036E-03 8.18177E-02-1.51772E-13 5.78273E-15
 -1      4246 1.98221E+01 2.30075E-01-1.26728E-04 6.58467E-02-1.58458E-13-3.07411E-15
 -1      4247 1.98418E+01 2.10490E-01-1.51684E-03 4.84855E-02-1.97884E-13 3.90140E-14
 -1      4248 1.98685E+01 1.90452E-01-3.37728E-04 3.95565E-02-1.13354E-13 9.52739E-15
 -1      4249 1.98854E+01 1.71938E-01-1.20304E-03 2.78242E-02-5.31307E-14 6.00012E-15
 -1      4250 1.99066E+01 1.53136E-01-3.76239E-04 2.28938E-02-6.26525E-14 6.28782E-14
 -1      4251 1.99202E+01 1.36582E-01-9.42494E-04 1.50836E-02-7.95525E-14 2.94960E-14
 -1      4252 1.99359E+01 1.20537E-01-3.63576E-04 1.28532E-02-1.11330E-13 6.69012E-14
 -1      4253 1.99464E+01 1.06352E-01-7.12268E-04 7.67148E-03-9.80278E-14 2.32882E-14
 -1      4254 1.99578E+01 9.30068E-02-3.17021E-04 6.94958E-03-1.48919E-13-9.82827E-15
 -1      4255 1.99658E+01 8.12128E-02-5.26090E-04 3.51377E-03-1.49533E-13-3.27055E-14
 -1      4256 1.99739E+01 7.03661E-02-2.56506E-04 3.56756E-03-6.56547E-14-5.64837E-14
 -1      4257 1.99797E+01 6.08009E-02-3.78547E-04 1.29081E-03-9.58262E-14-4.87720E-15
 -1      4258 1.99853E+01 5.21636E-02-1.93365E-04 1.68587E-03-1.82320E-14-1.07347E-13
 -1      4259 1.99894E+01 4.45830E-02-2.55804E-04 1.89996E-04-6.81269E-15-1.71122E-13
 -1      4260 1.99932E+01 3.78050E-02-1.32845E-04 6.90139E-04-4.15698E-14-2.03450E-13
 -1      4261 2.00002E+01 2.36533E-02 8.18934E-05-1.56699E-03-4.16784E-14-2.44652E-13
 -1      4262 2.00013E+01 1.95427E-02-2.13928E-05-1.27242E-03-3.45434E-14-3.48088E-13
 -1      4263 2.00025E+01 1.51850E-02-5.33919E-05-4.82299E-04 7.29058E-14-1.60427E-13
 -1      4264 2.00033E+01 1.22393E-02-2.80155E-05-1.65648E-04 9.41733E-14 5.72152E-14
 -1      4265 2.00039E+01 9.76228E-03-4.20530E-05-4.41539E-04-4.16587E-14 1.14708E-13
 -1      4266 2.00042E+01 7.66030E-03-1.50790E-05-1.94271E-04-5.78540E-14 1.84617E-13
 -1      4267 2.00044E+01 5.89342E-03-2.25116E-05-3.66990E-04-2.00018E-13 2.16355E-13
 -1      4268 2.00045E+01 4.41287E-03-4.19355E-06-1.87943E-04-2.41063E-13 1.79115E-13
 -1      4269 2.00044E+01 3.18842E-03-8.31736E-06-2.91662E-04-3.03619E-14 1.58731E-13
 -1      4270 2.00043E+01 2.17620E-03 3.04956E-06-1.69262E-04 7.85532E-14 1.07765E-13
 -1      4271 2.00041E+01 1.35771E-03 6.91872E-07-2.25843E-04 2.81664E-13 6.80021E-14
 -1      4272 2.00039E+01 6.87807E-04 4.90349E-06-1.44820E-04 2.91932E-13 2.30936E-13
 -1      4273 2.00032E+01-4.69673E-04 1.02531E-05 8.69127E-05 4.12102E-13 4.47381E-13
 -1      4274 2.00029E+01-7.57959E-04-5.52893E-06 9.90130E-05 5.22735E-13 5.74543E-13
 -1      4275 2.00026E+01-9.51616E-04 4.79701E-06-1.04577E-04 1.65116E-13 3.17320E-13
 -1      4276 2.00023E+01-1.06788E-03 4.57858E-06-8.83451E-05-4.32131E-14 3.50142E-13
 -1      4277 1.97930E+01 2.46812E-01 1.10398E-03 1.21933E-01-1.76995E-13 3.49999E-14
 -1      4278 1.97660E+01 2.57247E-01-8.07855E-04 1.49202E-01-1.60719E-13-1.74476E-14
 -1      4279 1.99961E+01 3.20582E-02-7.50571E-05-2.59431E-04-1.02241E-13-2.60340E-13
 -1      4280 2.00006E+01 2.04461E-02-6.81725E-05 8.99310E-04 1.32856E-13-2.98085E-13
 -1      4281 1.99990E+01 2.45131E-02-1.05583E-04 1.75201E-03-1.21782E-13-2.94470E-13
 -1      4282 2.00037E+01 1.68621E-04 3.44771E-06-1.73651E-04 2.83071E-13 2.43403E-13
 -1      4283 2.00030E+01-6.59967E-04 5.69339E-06-3.66190E-04 4.37251E-13 2.89555E-13
 -1      4284 2.00032E+01-4.05418E-04 5.71372E-08-3.68803E-04 4.84274E-13 2.69958E-13
 -1      4285 2.00021E+01-1.13232E-03 5.23344E-06-2.25068E-05-4.47827E-13 3.78398E-13
 -1      4286 1.97408E+01 2.66879E-01-4.45071E-04 1.87936E-01-1.38840E-13 3.87347E-15
 -1      4287 1.94660E+01 3.26539E-01-3.67399E-03 5.14466E-01-7.91770E-14-3.72808E-15
 -1      4288 1.95375E+01 3.37056E-01 2.96172E-03 4.20053E-01-1.27045E-13-1.04353E-14
 -1      4289 1.95467E+01 3.46560E-01-2.91869E-03 3.42986E-01-1.18040E-13 3.24944E-14
 -1      4290 1.96170E+01 3.36208E-01 1.90306E-03 2.73198E-01-5.56113E-14 4.48403E-14
 -1      4291 1.90990E+01-5.79323E-02-6.35608E-03 1.68774E+00-1.48151E-13 6.46962E-14
 -1      4292 1.92054E+01 1.10500E-01 1.29887E-02 1.35804E+00-6.00806E-14 7.12906E-15
 -1      4293 1.96407E+01 3.28865E-01-1.49098E-03 2.17351E-01-9.87973E-14 5.09478E-14
 -1      4294 1.97860E+01-5.72083E-01 7.83727E-04 1.80746E+00-1.19165E-13 6.27676E-14
 -1      4295 1.91406E+01 2.22062E-01-8.00358E-03 1.14039E+00 2.76872E-14-9.47913E-15
 -1      4296 1.92411E+01 3.10283E-01 7.68506E-03 9.23195E-01-1.84819E-14-3.73525E-14
 -1      4297 1.94353E+01 1.85582E-01 2.13018E-03 8.83555E-01-7.33460E-14 6.88746E-14
 -1      4298 1.94561E+01-4.44180E-02-6.64778E-04 1.27689E+00-2.09394E-14 1.35870E-13
 -1      4299 1.95884E+01 2.17447E-01 3.35971E-03 6.05132E-01-5.00691E-14-5.83678E-14
 -1      4300 1.99980E+01 2.86182E-02 5.85896E-05-2.01426E-03-2.66644E-14-2.95027E-13
 -1      4301 2.00035E+01-1.22278E-04-2.16245E-06 6.19885E-05 3.27217E-13 3.62050E-13
 -1      4302 2.01020E+01-6.97658E-01 7.91811E-03 1.63033E+00-9.63959E-14 7.14819E-14
 -1      4303 2.00016E+01 1.86185E-02-4.46691E-06-1.47574E-04 7.36304E-14-2.43041E-13
 -1      4304 2.00028E+01-7.81773E-04 5.54566E-06-1.10285E-04 4.46400E-13 4.81903E-13
 -1      4305 1.95806E+01 1.57560E-01-1.49137E-03 7.11802E-01-8.67637E-14-3.16765E-14
 -1      4306 1.97634E+01-3.47262E-01-8.99098E-03 1.37787E+00-4.63649E-14 9.04687E-14
 -1      4307 1.96230E+01 7.39819E-02 3.60482E-03 8.40688E-01-1.24316E-13-5.65495E-14
 -1      4308 1.96038E+01-2.78713E-02-6.87769E-03 1.00697E+00-9.13586E-14 2.19048E-14
 -1      4309 1.96467E+01 3.52325E-01 1.16173E-03 1.49066E-01-8.99657E-14 7.22105E-14
 -1      4310 1.97284E+01-1.68645E-01 5.61993E-03 1.16317E+00-4.25085E-14 7.84086E-14
 -1      4311 2.00021E+01-1.15170E-03-4.65285E-06 1.47655E-04-3.33715E-13 5.47522E-13
 -3
    1PSTEP                         3           1           1          
  100CL  101 1.000000000        4311                     0    1           1
 -4  TOSTRAIN    6    1
 -5  EXX         1    4    1    1
 -5  EYY         1    4    2    2
 -5  EZZ         1    4    3    3
 -5  EXY         1    4    1    2
 -5  EYZ         1    4    2    3
 -5  EZX         1    4    3    1
 -1         1 7.57303E-05 1.74193E-05-4.01034E-05 8.13670E-05-2.26488E-17-2.89304E-17
 -1         2 3.92567E-05-1.19557E-04 2.20915E-05 1.11326E-06 2.47016E-18-2.12843E-19
 -1         3 9.52372E-05-2.85711E-05-2.85713E-05 4.80463E-11-4.31583E-18-5.38571E-18
 -1         4 9.52372E-05-2.85711E-05-2.85713E-05-4.59083E-11 1.17661E-18 1.05236E-18
 -1         5 1.49679E-04-2.25238E-05-4.42150E-05 4.04703E-05-2.94503E-19 2.28181E-17
 -1         6 1.62694E-04 3.21962E-10-5.17234E-05-5.39908E-05-1.16636E-18 1.96486E-17
 -1         7 1.09204E-04-1.31696E-06-4.56720E-05-2.11344E-05-1.66018E-19 3.75384E-18
 -1         8 9.45764E-05-1.30771E-07-4.00734E-05-8.28406E-06-2.32828E-19-1.28486E-18
 -1         9 8.22229E-05 2.13128E-07-3.54341E-05-4.32776E-06-2.11546E-19-4.11751E-18
 -1        10 7.28822E-05 3.73468E-07-3.18033E-05-4.83909E-06-1.44949E-19-5.60415E-18
 -1        11 6.76086E-05 4.15634E-07-2.96529E-05-7.60507E-06-1.19273E-19-6.30987E-18
 -1        12 6.65869E-05 3.51884E-07-2.90782E-05-1.04899E-05-8.92396E-20-6.47955E-18
 -1        13 6.89248E-05 2.17803E-07-2.97794E-05-1.19310E-05-5.96629E-20-6.39058E-18
 -1        14 7.30988E-05 7.07867E-08-3.12393E-05-1.10704E-05-3.39872E-20-6.14420E-18
 -1        15 7.75461E-05-4.33188E-08-3.28956E-05-8.02801E-06-3.28225E-21-5.79722E-18
 -1        16 8.12110E-05-1.03863E-07-3.43373E-05-3.49068E-06 4.05252E-20-5.54971E-18
 -1        17 8.36731E-05-1.13516E-07-3.53710E-05 1.74284E-06 5.27675E-20-5.23755E-18
 -1        18 8.50117E-05-8.48265E-08-3.59941E-05 6.98094E-06 1.05019E-19-4.74797E-18
 -1        19 8.56780E-05-2.63580E-08-3.63745E-05 1.21069E-05 1.77268E-19-3.95887E-18
 -1        20 8.63227E-05 6.34800E-08-3.67812E-05 1.70524E-05 2.32974E-19-2.33997E-18
 -1        21 8.81033E-05 2.07664E-07-3.76989E-05 2.22975E-05 2.93735E-19 9.41705E-19
 -1        22 9.47464E-05-2.02235E-08-4.01446E-05 2.99413E-05 4.89162E-20 7.63929E-18
 -1        23 1.44919E-04-4.86309E-05-4.50048E-05-2.63397E-06-7.62938E-19 1.57625E-17
 -1        24 1.35352E-04-4.05111E-05-4.18882E-05 1.10715E-06-2.44157E-19 1.22927E-17
 -1        25 1.44326E-04-4.33917E-05-4.35769E-05 1.19184E-06-1.35211E-19 9.00412E-18
 -1        26 1.56827E-04-4.71377E-05-4.67056E-05 1.20655E-06-6.39080E-20 7.23271E-18
 -1        27 1.66621E-04-5.01759E-05-4.87243E-05 6.18477E-07-4.72552E-20 6.80534E-18
 -1        28 1.63016E-04-4.92763E-05-4.70938E-05-1.94504E-06 2.15391E-19 7.80975E-18
 -1        29 1.41548E-04-4.25620E-05-4.17098E-05-4.65559E-06 3.53372E-21 8.68569E-18
 -1        30 1.05625E-04-3.07647E-05-3.43918E-05-5.62807E-06-2.18065E-19 5.77676E-18
 -1        31 7.98358E-05-2.21775E-05-2.97775E-05-1.72710E-06-5.98191E-19-2.87938E-19
 -1        32 8.89294E-05-2.53104E-05-3.13363E-05 4.63473E-06-1.24090E-19-8.15174E-18
 -1        33 1.19895E-04-3.55838E-05-3.72308E-05 5.79203E-06 4.88698E-20-1.29626E-17
 -1        34 1.52942E-04-4.60936E-05-4.44124E-05 3.54624E-06 2.85688E-19-1.35607E-17
 -1        35 1.68113E-04-5.07231E-05-4.87203E-05 4.35113E-07-4.27685E-20-1.11503E-17
 -1        36 1.63234E-04-4.90381E-05-4.82145E-05-9.19960E-07 2.27164E-19-7.72843E-18
 -1        37 1.49579E-04-4.48458E-05-4.48356E-05-1.02219E-06-2.31831E-19-6.02680E-18
 -1        38 1.35211E-04-4.05310E-05-4.07855E-05-7.31460E-07-3.02081E-19-5.72369E-18
 -1        39 1.23804E-04-3.71492E-05-3.73807E-05-4.66872E-07 1.60127E-19-5.05155E-18
 -1        40 1.14830E-04-3.44700E-05-3.46302E-05-2.65041E-07-2.42078E-19-5.03405E-18
 -1        41 1.08497E-04-3.25780E-05-3.26689E-05-1.42695E-07-3.74352E-19-4.97961E-18
 -1        42 1.04143E-04-3.12710E-05-3.13179E-05-7.40791E-08-1.49090E-19-6.50151E-18
 -1        43 1.01184E-04-3.03789E-05-3.04013E-05-3.67649E-08 3.29911E-19-6.22157E-18
 -1        44 9.91808E-05-2.97731E-05-2.97827E-05-1.70256E-08-5.91873E-20-6.04325E-18
 -1        45 9.78282E-05-2.93618E-05-2.93660E-05-4.76472E-09-8.27553E-20-6.12114E-18
 -1        46 9.69485E-05-2.90957E-05-2.90960E-05-1.93475E-09-3.99005E-20-3.91521E-18
 -1        47 9.63166E-05-2.89027E-05-2.89023E-05 1.09540E-09 6.53053E-20-4.29782E-18
 -1        48 9.58920E-05-2.87732E-05-2.87723E-05 2.29071E-09 3.15394E-19-3.78582E-18
 -1        49 9.56087E-05-2.86867E-05-2.86856E-05 2.70889E-09-3.65141E-19-4.38751E-18
 -1        50 9.54225E-05-2.86297E-05-2.86287E-05 2.73730E-09 7.62433E-20-5.23741E-18
 -1        51 9.53029E-05-2.85930E-05-2.85921E-05 2.56435E-09 4.25976E-19-3.03931E-18
 -1        52 9.52290E-05-2.85701E-05-2.85694E-05 2.47731E-09-3.94127E-19-4.60281E-18
 -1        53 9.51877E-05-2.85574E-05-2.85568E-05 2.00351E-09 6.33728E-20-3.91916E-18
 -1        54 9.51647E-05-2.85502E-05-2.85497E-05 1.76075E-09 4.44125E-19-3.30741E-18
 -1        55 9.51557E-05-2.85473E-05-2.85468E-05 1.48706E-09-1.23724E-19-1.27574E-18
 -1        56 9.51555E-05-2.85470E-05-2.85467E-05 1.23774E-09-3.64743E-19-3.77047E-19
 -1        57 9.51606E-05-2.85484E-05-2.85481E-05 1.01591E-09-1.46122E-19-8.82496E-19
 -1        58 9.51685E-05-2.85507E-05-2.85505E-05 8.22179E-10-1.85098E-19-4.46949E-18
 -1        59 9.51776E-05-2.85534E-05-2.85532E-05 6.62218E-10-2.82239E-19-1.90378E-18
 -1        60 9.51865E-05-2.85560E-05-2.85559E-05 5.21422E-10 8.28500E-19-2.36401E-19
 -1        61 9.51954E-05-2.85586E-05-2.85585E-05 4.08699E-10-2.49348E-19 1.99703E-18
 -1        62 9.52034E-05-2.85610E-05-2.85610E-05 3.13711E-10-9.02473E-20 2.60360E-18
 -1        63 9.52105E-05-2.85632E-05-2.85631E-05 2.38185E-10-1.31172E-19 1.93645E-18
 -1        64 9.52166E-05-2.85650E-05-2.85649E-05 1.78975E-10-3.46845E-19-2.95115E-18
 -1        65 9.52218E-05-2.85665E-05-2.85665E-05 1.33642E-10-1.72952E-19-5.40725E-18
 -1        66 9.52260E-05-2.85678E-05-2.85678E-05 9.63814E-11-3.30261E-20-2.55561E-19
 -1        67 9.52293E-05-2.85688E-05-2.85688E-05 7.59712E-11-5.07679E-19 7.96723E-19
 -1        68 9.52322E-05-2.85696E-05-2.85696E-05 5.67661E-11-3.57454E-19-6.42734E-19
 -1        69 9.52344E-05-2.85703E-05-2.85703E-05 4.09840E-11 8.11584E-19 3.83764E-18
 -1        70 9.52360E-05-2.85708E-05-2.85708E-05 2.31783E-11 1.73803E-19 4.26927E-18
 -1        71 9.52369E-05-2.85711E-05-2.85710E-05-9.68698E-12-1.10530E-18 4.33985E-18
 -1        72 9.52373E-05-2.85712E-05-2.85712E-05-5.96886E-11 5.35274E-19 2.52689E-18
 -1        73 1.05563E-04-3.15920E-05-3.52907E-05-1.98619E-06 3.30025E-19 2.08177E-17
 -1        74 9.41612E-05-2.79767E-05-2.94027E-05-3.63850E-07 1.14899E-19 1.58730E-17
 -1        75 8.85678E-05-2.65436E-05-2.67626E-05-1.07787E-07 1.40433E-19 1.22350E-17
 -1        76 8.46221E-05-2.54272E-05-2.53526E-05-1.63441E-08-2.87673E-20 9.75920E-18
 -1        77 8.11049E-05-2.43734E-05-2.42905E-05 6.49384E-08 8.22096E-20 8.09626E-18
 -1        78 7.78477E-05-2.33849E-05-2.33603E-05 1.22343E-07-2.52617E-20 6.04987E-18
 -1        79 7.52061E-05-2.25792E-05-2.26216E-05 1.40217E-07 8.63932E-20 5.40759E-18
 -1        80 7.37124E-05-2.21179E-05-2.22142E-05 1.10504E-07 1.32845E-19 4.88664E-18
 -1        81 7.37906E-05-2.21306E-05-2.22518E-05 4.10061E-08-2.34430E-19 4.47126E-18
 -1        82 7.55467E-05-2.26519E-05-2.27619E-05-4.58726E-08 1.95218E-19 4.34769E-18
 -1        83 7.87022E-05-2.35988E-05-2.36685E-05-1.22583E-07 2.23538E-19 3.03855E-18
 -1        84 8.26878E-05-2.47987E-05-2.48162E-05-1.68791E-07 9.55724E-21 2.44819E-18
 -1        85 8.68392E-05-2.60495E-05-2.60209E-05-1.78484E-07-9.30566E-20 1.83290E-18
 -1        86 9.05906E-05-2.71789E-05-2.71218E-05-1.58582E-07-4.71263E-20 1.19692E-18
 -1        87 9.35890E-05-2.80804E-05-2.80140E-05-1.22251E-07-8.41954E-20-1.16659E-19
 -1        88 9.57107E-05-2.87171E-05-2.86560E-05-8.21897E-08-2.27282E-19 8.36892E-19
 -1        89 9.70090E-05-2.91057E-05-2.90578E-05-4.69403E-08 1.45970E-19 4.52595E-19
 -1        90 9.76384E-05-2.92934E-05-2.92606E-05-2.03534E-08 2.27245E-19-7.89600E-19
 -1        91 9.77863E-05-2.93367E-05-2.93174E-05-2.81060E-09-3.11908E-19-5.62945E-19
 -1        92 9.76283E-05-2.92887E-05-2.92795E-05 7.15841E-09 4.06530E-19-8.76404E-19
 -1        93 9.73058E-05-2.91916E-05-2.91893E-05 1.16308E-08-2.02510E-19-1.01673E-18
 -1        94 9.69202E-05-2.90759E-05-2.90775E-05 1.25723E-08-1.49891E-19-8.65180E-19
 -1        95 9.65369E-05-2.89609E-05-2.89644E-05 1.15317E-08 2.25930E-19-2.19528E-18
 -1        96 9.61926E-05-2.88577E-05-2.88618E-05 9.58738E-09-5.39511E-19-4.69041E-19
 -1        97 9.59040E-05-2.87712E-05-2.87752E-05 7.41327E-09 8.87976E-21 2.61499E-18
 -1        98 9.56747E-05-2.87025E-05-2.87059E-05 5.38229E-09 2.22090E-19 9.98090E-19
 -1        99 9.55007E-05-2.86503E-05-2.86531E-05 3.66591E-09 8.30993E-21-1.15262E-18
 -1       100 9.53744E-05-2.86125E-05-2.86145E-05 2.31299E-09-2.20859E-19-1.36776E-18
 -1       101 9.52869E-05-2.85862E-05-2.85877E-05 1.30526E-09-5.15620E-19 5.18633E-19
 -1       102 9.52297E-05-2.85691E-05-2.85701E-05 5.93258E-10 6.00721E-19-7.37753E-19
 -1       103 9.51951E-05-2.85587E-05-2.85593E-05 1.17884E-10 3.74093E-19-2.92796E-18
 -1       104 9.51767E-05-2.85531E-05-2.85535E-05-1.77915E-10-9.35740E-20-3.72839E-18
 -1       105 9.51694E-05-2.85509E-05-2.85511E-05-3.43601E-10-1.47901E-19-9.10042E-19
 -1       106 9.51694E-05-2.85509E-05-2.85510E-05-4.19225E-10 1.17807E-19 1.73600E-18
 -1       107 9.51738E-05-2.85522E-05-2.85522E-05-4.35635E-10 1.07566E-19 1.62915E-18
 -1       108 9.51807E-05-2.85542E-05-2.85542E-05-4.15639E-10 6.28232E-19-2.55541E-18
 -1       109 9.51885E-05-2.85566E-05-2.85565E-05-3.75476E-10 3.27698E-19-2.91037E-18
 -1       110 9.51965E-05-2.85590E-05-2.85589E-05-3.26252E-10-5.76514E-19 2.87418E-18
 -1       111 9.52040E-05-2.85612E-05-2.85611E-05-2.75222E-10 2.67835E-19 1.24745E-18
 -1       112 9.52108E-05-2.85632E-05-2.85632E-05-2.26860E-10-7.05126E-20-2.16922E-18
 -1       113 9.52167E-05-2.85650E-05-2.85649E-05-1.83713E-10-6.74722E-19-8.57446E-19
 -1       114 9.52218E-05-2.85665E-05-2.85665E-05-1.47031E-10 1.09156E-18-3.65096E-18
 -1       115 9.52260E-05-2.85678E-05-2.85677E-05-1.17227E-10-1.61467E-19-8.91179E-18
 -1       116 9.52294E-05-2.85688E-05-2.85688E-05-9.41285E-11 7.72130E-20-1.00096E-17
 -1       117 9.52322E-05-2.85697E-05-2.85696E-05-7.69390E-11-1.53912E-19-4.43136E-18
 -1       118 9.52344E-05-2.85703E-05-2.85703E-05-6.39071E-11 3.69097E-19-8.16214E-18
 -1       119 9.52360E-05-2.85708E-05-2.85708E-05-5.11531E-11-2.02168E-19-8.98924E-18
 -1       120 9.52370E-05-2.85711E-05-2.85710E-05-2.44403E-11 2.71424E-19-6.68240E-18
 -1       121 9.52373E-05-2.85712E-05-2.85712E-05 4.02167E-11 1.91985E-18-8.53983E-18
 -1       122 9.52371E-05-2.85710E-05-2.85712E-05 6.21817E-11-7.55223E-18 1.77723E-18
 -1       123 9.52372E-05-2.85714E-05-2.85710E-05-6.54141E-12-5.36392E-19-3.75876E-20
 -1       124 9.52375E-05-2.85723E-05-2.85708E-05-4.75132E-11 4.21476E-18 2.47427E-19
 -1       125 9.52379E-05-2.85737E-05-2.85704E-05-6.40816E-11 4.70258E-18 6.91281E-19
 -1       126 9.52383E-05-2.85751E-05-2.85700E-05-6.36394E-11-7.02694E-19-1.97228E-18
 -1       127 9.52387E-05-2.85764E-05-2.85696E-05-5.30536E-11-5.32653E-18-1.94619E-19
 -1       128 9.52390E-05-2.85774E-05-2.85693E-05-3.45934E-11-5.27048E-18 1.82691E-18
 -1       129 9.52392E-05-2.85779E-05-2.85691E-05-1.18341E-11-2.82898E-18 1.25626E-18
 -1       130 9.52392E-05-2.85779E-05-2.85691E-05 1.23341E-11 1.90501E-18-8.56942E-19
 -1       131 9.52390E-05-2.85774E-05-2.85693E-05 3.50459E-11 4.50339E-18-1.41813E-18
 -1       132 9.52387E-05-2.85764E-05-2.85696E-05 5.39333E-11-2.90699E-18 2.77324E-19
 -1       133 9.52383E-05-2.85751E-05-2.85700E-05 6.40388E-11-7.38071E-18 1.81183E-18
 -1       134 9.52379E-05-2.85736E-05-2.85704E-05 6.40512E-11-5.48200E-18 6.34166E-20
 -1       135 9.52375E-05-2.85723E-05-2.85708E-05 4.93058E-11-3.23412E-18 1.03701E-18
 -1       136 9.52372E-05-2.85714E-05-2.85710E-05 3.33868E-13-8.37608E-20-1.12610E-18
 -1       137 9.52371E-05-2.85711E-05-2.85712E-05-8.99122E-11-3.34398E-18 2.94404E-19
 -1       138 2.60691E-05-8.68898E-05 1.54957E-05-2.26801E-05 1.29266E-17 2.94196E-18
 -1       139 7.08606E-06-2.71990E-05 1.30164E-06-1.37844E-05 2.35937E-17 1.09284E-17
 -1       140 1.41498E-05 2.30512E-05-1.86492E-05 3.32632E-05 2.51501E-17 1.91540E-17
 -1       141 6.90594E-05 3.13455E-05-4.06636E-05 9.20265E-05 1.94263E-17 2.16963E-17
 -1       142 1.58513E-04-3.35631E-06-5.95745E-05 1.21910E-04 1.05663E-17 1.83069E-17
 -1       143 2.58140E-04-5.85954E-05-7.50037E-05 1.02605E-04 3.20279E-18 9.63585E-18
 -1       144 3.16517E-04-9.57810E-05-8.24028E-05 3.61357E-05 1.60447E-19-1.55960E-18
 -1       145 3.08389E-04-9.04385E-05-8.15892E-05-5.03631E-05 2.47213E-18-1.51390E-17
 -1       146 2.29641E-04-4.27239E-05-7.10093E-05-1.11526E-04 9.60641E-18-2.47833E-17
 -1       147 1.28744E-04 1.01460E-05-5.44290E-05-1.16285E-04 1.75427E-17-2.76052E-17
 -1       148 4.65454E-05 3.40605E-05-3.40948E-05-7.47626E-05 2.41426E-17-2.44081E-17
 -1       149 8.71013E-06 1.29176E-05-1.33063E-05-1.95104E-05 2.54326E-17-1.65504E-17
 -1       150 1.05316E-05-3.91553E-05 4.46463E-06 1.63882E-05 1.97388E-17-7.89530E-18
 -1       151 2.89428E-05-9.19836E-05 1.64146E-05 1.62436E-05 8.12199E-18-1.61380E-18
 -1       152 3.67292E-05-1.13737E-04 2.08730E-05-9.53296E-06-5.40664E-18-7.07590E-19
 -1       153 2.47564E-05-9.25230E-05 1.68433E-05-3.29400E-05-1.79114E-17-5.32723E-18
 -1       154 6.79556E-06-4.12751E-05 4.27334E-06-2.75775E-05-2.62072E-17-1.40427E-17
 -1       155 1.22563E-05 6.26607E-06-1.46581E-05 1.55493E-05-2.77031E-17-2.27369E-17
 -1       156 1.83290E-04-1.82560E-05-6.30396E-05 1.19389E-04-1.48303E-17-2.98893E-17
 -1       157 3.02498E-04-7.72467E-05-8.13679E-05 9.95416E-05-6.24782E-18-2.17806E-17
 -1       158 3.69746E-04-1.14988E-04-8.97668E-05 2.58627E-05-7.42980E-19-8.49447E-18
 -1       159 3.46688E-04-1.01657E-04-8.70111E-05-6.67629E-05-1.56820E-18 7.39989E-18
 -1       160 2.46336E-04-4.76812E-05-7.34428E-05-1.18842E-04-8.88940E-18 2.25628E-17
 -1       161 1.28323E-04 4.63023E-06-5.29504E-05-1.08746E-04-1.71410E-17 2.79800E-17
 -1       162 4.21066E-05 2.11451E-05-2.98761E-05-5.68749E-05-2.28030E-17 2.45944E-17
 -1       163 5.77613E-06-6.69596E-06-7.43972E-06 2.06165E-06-2.18251E-17 1.62817E-17
 -1       164 1.19921E-05-6.19537E-05 1.04082E-05 3.48910E-05-1.73218E-17 7.29115E-18
 -1       165 3.16397E-05-1.07345E-04 2.00520E-05 2.91064E-05-8.80681E-18 2.56445E-18
 -1       166 1.12390E-04-1.67585E-05-4.10804E-05-1.10370E-05-2.59704E-18 1.14903E-18
 -1       167 9.25262E-05-6.95103E-06-3.68005E-05-5.98006E-06-2.41009E-18-2.10287E-18
 -1       168 7.69155E-05-2.54355E-07-3.29592E-05-5.11489E-06-1.99914E-18-4.07476E-18
 -1       169 6.70447E-05 3.27840E-06-3.02176E-05-7.15189E-06-1.69493E-18-5.16065E-18
 -1       170 6.38001E-05 3.59080E-06-2.89443E-05-1.01623E-05-1.43357E-18-5.50656E-18
 -1       171 6.62960E-05 1.31130E-06-2.90319E-05-1.22495E-05-1.19548E-18-5.55284E-18
 -1       172 7.23206E-05-2.19742E-06-3.01091E-05-1.21066E-05-8.54074E-19-5.30569E-18
 -1       173 7.91751E-05-5.49828E-06-3.16358E-05-9.58524E-06-4.66106E-19-5.00604E-18
 -1       174 8.49011E-05-7.73511E-06-3.31380E-05-5.33521E-06 7.99420E-20-4.66139E-18
 -1       175 8.86872E-05-8.77566E-06-3.43237E-05-2.36527E-07 6.25981E-19-4.39656E-18
 -1       176 9.06241E-05-8.95399E-06-3.50890E-05 4.93430E-06 1.19105E-18-3.93037E-18
 -1       177 9.13933E-05-8.76895E-06-3.55149E-05 9.99899E-06 1.90665E-18-3.35228E-18
 -1       178 9.18601E-05-8.76624E-06-3.57479E-05 1.48070E-05 2.52873E-18-2.27307E-18
 -1       179 9.33777E-05-9.74718E-06-3.60336E-05 1.95336E-05 2.95124E-18-1.95003E-19
 -1       180 9.89666E-05-1.41121E-05-3.66086E-05 2.40473E-05 2.96724E-18 3.85090E-18
 -1       181 1.08878E-04-2.68051E-05-3.64339E-05 2.03686E-05 2.28112E-18 9.21371E-18
 -1       182 1.30752E-04-3.52080E-05-4.09165E-05-2.59093E-06-2.20297E-18 4.98409E-18
 -1       183 1.30247E-04-3.76629E-05-3.97111E-05 6.96787E-06-1.77557E-18 4.17205E-18
 -1       184 1.34317E-04-3.98368E-05-4.04540E-05 1.10729E-05-8.22658E-19 3.78835E-18
 -1       185 1.41350E-04-4.41275E-05-4.16098E-05 9.75384E-06 2.05630E-19 4.00684E-18
 -1       186 1.48522E-04-4.95943E-05-4.23143E-05-2.98042E-07 7.15333E-19 5.00226E-18
 -1       187 1.51653E-04-5.20678E-05-4.27200E-05-1.58788E-05 7.29358E-20 5.07384E-18
 -1       188 1.48020E-04-4.69873E-05-4.36921E-05-2.94068E-05-2.11033E-18 3.99935E-18
 -1       189 1.38059E-04-3.35057E-05-4.56934E-05-2.30124E-05-4.80723E-18 1.48627E-18
 -1       190 1.33817E-04-2.80184E-05-4.63921E-05 6.96377E-06-5.72404E-18-2.99954E-18
 -1       191 1.40415E-04-3.73317E-05-4.49627E-05 2.76433E-05-3.76263E-18-6.09976E-18
 -1       192 1.49260E-04-4.92309E-05-4.32146E-05 2.68454E-05-4.61739E-19-7.71499E-18
 -1       193 1.50634E-04-5.18232E-05-4.23188E-05 8.95886E-06 1.42024E-18-7.17605E-18
 -1       194 1.44166E-04-4.68327E-05-4.16657E-05-6.68101E-06 1.66316E-18-6.11385E-18
 -1       195 1.35092E-04-4.13197E-05-4.01939E-05-1.32215E-05 1.44955E-18-5.71697E-18
 -1       196 1.26118E-04-3.73261E-05-3.80740E-05-1.34894E-05 5.24748E-19-4.14949E-18
 -1       197 1.18687E-04-3.47638E-05-3.59735E-05-1.13239E-05 2.83819E-19-3.26116E-18
 -1       198 1.12348E-04-3.29209E-05-3.40328E-05-8.57029E-06-3.02086E-21-2.94003E-18
 -1       199 1.07518E-04-3.16489E-05-3.25007E-05-6.16552E-06-5.35417E-20-2.66106E-18
 -1       200 1.03944E-04-3.07483E-05-3.13543E-05-4.32247E-06-5.84929E-19-1.83079E-18
 -1       201 1.01355E-04-3.01050E-05-3.05223E-05-2.99289E-06-4.23940E-19-1.80939E-18
 -1       202 9.95011E-05-2.96447E-05-2.99282E-05-2.06126E-06-4.85137E-19-3.41744E-18
 -1       203 9.81862E-05-2.93164E-05-2.95079E-05-1.41654E-06 5.13874E-19-2.89961E-18
 -1       204 9.72937E-05-2.90913E-05-2.92242E-05-9.90657E-07 1.13967E-18-1.83640E-18
 -1       205 9.66250E-05-2.89213E-05-2.90119E-05-6.79648E-07-1.30251E-18-3.02191E-18
 -1       206 9.61566E-05-2.88015E-05-2.88637E-05-4.63965E-07-2.34203E-19-3.80655E-18
 -1       207 9.58300E-05-2.87177E-05-2.87604E-05-3.14439E-07 4.91440E-20-4.18523E-18
 -1       208 9.56041E-05-2.86596E-05-2.86891E-05-2.10449E-07-4.42806E-19-3.28299E-18
 -1       209 9.54498E-05-2.86200E-05-2.86404E-05-1.38111E-07 1.76001E-18-2.77820E-18
 -1       210 9.53465E-05-2.85937E-05-2.86076E-05-8.78796E-08-8.34564E-19-2.21471E-18
 -1       211 9.52816E-05-2.85774E-05-2.85870E-05-5.47243E-08 9.43669E-19-5.39801E-19
 -1       212 9.52382E-05-2.85667E-05-2.85731E-05-3.07961E-08 7.66727E-19-8.08246E-20
 -1       213 9.52124E-05-2.85607E-05-2.85648E-05-1.47446E-08 5.40668E-20-9.40351E-19
 -1       214 9.51988E-05-2.85577E-05-2.85603E-05-4.33656E-09 8.10858E-21-9.28203E-19
 -1       215 9.51931E-05-2.85568E-05-2.85583E-05 2.12753E-09-9.57638E-19-1.58624E-18
 -1       216 9.51926E-05-2.85572E-05-2.85579E-05 5.85983E-09-1.60031E-18-1.11796E-18
 -1       217 9.51951E-05-2.85583E-05-2.85586E-05 7.74039E-09 8.86080E-19-8.88927E-19
 -1       218 9.51991E-05-2.85598E-05-2.85597E-05 8.38271E-09 5.15328E-19-2.21163E-19
 -1       219 9.52041E-05-2.85614E-05-2.85612E-05 8.29541E-09 8.40862E-19-1.39340E-18
 -1       220 9.52093E-05-2.85630E-05-2.85627E-05 7.74302E-09 6.96247E-19-7.86454E-19
 -1       221 9.52142E-05-2.85645E-05-2.85642E-05 6.94332E-09 4.20556E-20-2.50980E-19
 -1       222 9.52187E-05-2.85659E-05-2.85655E-05 6.04757E-09-2.68926E-18-5.17790E-19
 -1       223 9.52228E-05-2.85671E-05-2.85667E-05 5.15038E-09-1.73571E-18-5.60480E-19
 -1       224 9.52262E-05-2.85681E-05-2.85678E-05 4.30561E-09 2.40704E-18-1.62418E-18
 -1       225 9.52290E-05-2.85689E-05-2.85686E-05 3.57523E-09 1.28886E-18 1.05765E-18
 -1       226 9.52314E-05-2.85696E-05-2.85694E-05 2.88753E-09-9.01468E-19 2.49292E-18
 -1       227 9.52334E-05-2.85702E-05-2.85700E-05 2.26307E-09 1.63356E-18 2.16115E-18
 -1       228 9.52349E-05-2.85706E-05-2.85704E-05 1.67258E-09-3.19227E-19 1.22491E-18
 -1       229 9.52360E-05-2.85710E-05-2.85707E-05 1.07744E-09 4.43039E-19 5.31567E-19
 -1       230 9.52368E-05-2.85712E-05-2.85710E-05 4.66073E-10-6.29439E-19 1.15788E-18
 -1       231 1.01744E-04-2.92876E-05-3.12467E-05 8.80453E-06 2.32018E-18 8.04923E-18
 -1       232 9.50204E-05-2.81157E-05-2.86407E-05 4.79936E-06 1.80020E-18 6.45081E-18
 -1       233 9.05920E-05-2.70969E-05-2.71626E-05 3.59304E-06 1.25619E-18 5.19939E-18
 -1       234 8.71118E-05-2.61024E-05-2.61167E-05 3.17110E-06 1.10093E-18 4.02896E-18
 -1       235 8.42107E-05-2.51667E-05-2.52895E-05 2.76629E-06 8.75499E-19 3.30849E-18
 -1       236 8.19603E-05-2.43826E-05-2.46698E-05 2.03142E-06 4.95759E-19 2.60767E-18
 -1       237 8.06278E-05-2.38871E-05-2.43153E-05 8.89146E-07 3.07777E-19 2.01635E-18
 -1       238 8.04571E-05-2.37994E-05-2.42811E-05-5.11337E-07 2.68857E-19 1.78269E-18
 -1       239 8.15076E-05-2.41570E-05-2.45773E-05-1.87887E-06 5.18705E-19 8.25544E-19
 -1       240 8.35892E-05-2.48884E-05-2.51543E-05-2.91179E-06 5.38316E-19 7.13154E-19
 -1       241 8.63121E-05-2.58384E-05-2.59131E-05-3.42233E-06 1.83393E-19 5.88436E-19
 -1       242 8.92134E-05-2.68270E-05-2.67330E-05-3.39234E-06 2.71094E-19 3.68729E-19
 -1       243 9.18887E-05-2.77067E-05-2.75040E-05-2.94509E-06 5.59626E-19-3.07819E-19
 -1       244 9.40737E-05-2.83927E-05-2.81483E-05-2.26897E-06 1.92568E-19-5.93984E-19
 -1       245 9.56602E-05-2.88620E-05-2.86289E-05-1.54283E-06-1.55459E-19-6.06397E-19
 -1       246 9.66652E-05-2.91349E-05-2.89439E-05-8.92772E-07 4.65245E-19-1.33207E-18
 -1       247 9.71821E-05-2.92534E-05-2.91151E-05-3.82805E-07 1.60069E-19-1.09432E-18
 -1       248 9.73345E-05-2.92641E-05-2.91757E-05-2.70628E-08-1.42891E-19-1.03128E-18
 -1       249 9.72444E-05-2.92085E-05-2.91604E-05 1.90984E-07 1.79468E-19-6.16229E-19
 -1       250 9.70146E-05-2.91188E-05-2.90997E-05 3.01470E-07-4.20339E-19-5.06551E-19
 -1       251 9.67222E-05-2.90175E-05-2.90172E-05 3.36586E-07 1.97362E-19-8.11180E-19
 -1       252 9.64196E-05-2.89190E-05-2.89293E-05 3.24370E-07 4.96805E-19-1.31997E-18
 -1       253 9.61386E-05-2.88310E-05-2.88462E-05 2.86374E-07-8.05558E-19-2.00283E-18
 -1       254 9.58955E-05-2.87571E-05-2.87735E-05 2.37622E-07-1.04777E-18-2.46211E-18
 -1       255 9.56961E-05-2.86979E-05-2.87133E-05 1.87647E-07 6.05888E-19-7.08613E-19
 -1       256 9.55396E-05-2.86523E-05-2.86657E-05 1.41845E-07 2.69157E-20 2.48818E-19
 -1       257 9.54216E-05-2.86186E-05-2.86295E-05 1.02761E-07-6.89111E-19 1.55512E-18
 -1       258 9.53360E-05-2.85947E-05-2.86032E-05 7.11146E-08-7.92934E-19 4.01114E-19
 -1       259 9.52766E-05-2.85784E-05-2.85847E-05 4.65723E-08 1.63328E-18-4.48899E-19
 -1       260 9.52375E-05-2.85679E-05-2.85725E-05 2.82648E-08 1.63169E-18-1.29009E-18
 -1       261 9.52134E-05-2.85617E-05-2.85649E-05 1.51237E-08-6.57403E-19-6.56087E-19
 -1       262 9.52003E-05-2.85585E-05-2.85606E-05 6.07819E-09-8.80973E-19-2.54482E-19
 -1       263 9.51946E-05-2.85574E-05-2.85587E-05 1.59827E-10-1.03471E-18-2.99227E-19
 -1       264 9.51940E-05-2.85577E-05-2.85584E-05-3.45244E-09 9.90062E-20 8.59662E-19
 -1       265 9.51964E-05-2.85587E-05-2.85590E-05-5.42324E-09 2.85079E-18 1.94147E-19
 -1       266 9.52005E-05-2.85601E-05-2.85602E-05-6.27089E-09-1.47910E-18-1.07583E-18
 -1       267 9.52054E-05-2.85617E-05-2.85616E-05-6.38646E-09-1.88266E-18 1.58016E-18
 -1       268 9.52105E-05-2.85633E-05-2.85631E-05-6.05583E-09 1.49804E-18 1.20072E-18
 -1       269 9.52154E-05-2.85648E-05-2.85645E-05-5.48102E-09 5.92941E-19 2.79428E-18
 -1       270 9.52198E-05-2.85661E-05-2.85659E-05-4.79920E-09 3.46777E-19 2.59636E-18
 -1       271 9.52237E-05-2.85673E-05-2.85671E-05-4.09835E-09 3.17496E-18 1.94810E-19
 -1       272 9.52271E-05-2.85683E-05-2.85681E-05-3.42964E-09 4.47594E-19-1.43360E-18
 -1       273 9.52299E-05-2.85691E-05-2.85689E-05-2.81647E-09 9.99015E-19-1.72367E-18
 -1       274 9.52322E-05-2.85698E-05-2.85696E-05-2.26065E-09-1.29803E-18-4.82544E-18
 -1       275 9.52341E-05-2.85703E-05-2.85702E-05-1.74642E-09 1.46278E-18-3.55511E-18
 -1       276 9.52354E-05-2.85708E-05-2.85706E-05-1.24537E-09-4.98334E-19-2.14385E-18
 -1       277 9.52364E-05-2.85711E-05-2.85709E-05-7.22145E-10-6.58155E-19-1.00614E-18
 -1       278 9.52370E-05-2.85712E-05-2.85710E-05-1.95938E-10 5.41711E-19-6.77326E-19
 -1       279 9.52371E-05-2.85715E-05-2.85710E-05-4.95858E-10 7.22252E-19 4.05739E-18
 -1       280 9.52373E-05-2.85722E-05-2.85708E-05-1.02340E-09-4.10767E-20 2.51135E-18
 -1       281 9.52377E-05-2.85732E-05-2.85705E-05-1.37067E-09-9.27343E-19 5.03859E-19
 -1       282 9.52381E-05-2.85742E-05-2.85702E-05-1.46799E-09-1.76943E-18-2.12995E-18
 -1       283 9.52384E-05-2.85752E-05-2.85699E-05-1.33365E-09-2.49530E-18-3.38895E-18
 -1       284 9.52387E-05-2.85761E-05-2.85697E-05-1.00357E-09-1.36527E-18-4.28490E-19
 -1       285 9.52389E-05-2.85766E-05-2.85696E-05-5.35211E-10-6.96481E-19 2.00286E-18
 -1       286 9.52390E-05-2.85768E-05-2.85695E-05 4.35177E-12 2.29731E-19 2.66189E-18
 -1       287 9.52389E-05-2.85766E-05-2.85696E-05 5.43682E-10 5.37137E-19 3.76234E-19
 -1       288 9.52387E-05-2.85761E-05-2.85697E-05 1.01128E-09-8.16866E-19-5.10572E-18
 -1       289 9.52384E-05-2.85752E-05-2.85699E-05 1.33559E-09-9.34926E-19-7.05562E-19
 -1       290 9.52381E-05-2.85742E-05-2.85702E-05 1.47035E-09-3.35622E-19-3.80769E-19
 -1       291 9.52377E-05-2.85731E-05-2.85705E-05 1.36756E-09-1.45637E-18 1.21350E-18
 -1       292 9.52373E-05-2.85722E-05-2.85708E-05 1.02205E-09-3.07232E-18 2.15200E-18
 -1       293 1.40896E-05-5.14477E-05 1.24948E-05 1.38746E-05 2.60378E-18 5.31481E-18
 -1       294 2.82106E-05-4.27949E-05 3.50921E-06 2.68074E-05 5.82737E-18 8.38613E-18
 -1       295 5.56759E-05-3.27894E-05-1.13361E-05 4.07805E-05 8.93006E-18 8.04713E-18
 -1       296 1.00671E-04-3.13284E-05-2.97511E-05 5.04627E-05 8.34497E-18 6.28117E-18
 -1       297 1.41033E-04-2.67411E-05-4.76122E-05 5.43492E-05 8.55260E-18 5.69778E-18
 -1       298 1.80869E-04-3.09687E-05-6.20342E-05 3.95329E-05 6.64209E-18 2.10255E-18
 -1       299 2.13724E-04-3.62699E-05-7.26395E-05 2.52695E-05 5.78524E-18-7.04837E-19
 -1       300 2.18882E-04-3.57901E-05-7.51588E-05-1.29132E-06 6.70988E-18-4.88788E-18
 -1       301 1.98259E-04-3.09680E-05-6.93931E-05-2.20268E-05 7.54198E-18-7.53457E-18
 -1       302 1.70571E-04-2.95930E-05-5.84968E-05-4.61424E-05 8.72891E-18-1.07709E-17
 -1       303 1.27176E-04-2.60606E-05-4.25975E-05-5.30526E-05 9.89017E-18-1.13322E-17
 -1       304 8.55145E-05-2.84199E-05-2.49318E-05-4.94649E-05 8.68336E-18-9.89070E-18
 -1       305 4.99159E-05-3.23062E-05-8.82657E-06-4.21414E-05 6.01796E-18-8.50800E-18
 -1       306 2.20048E-05-3.82232E-05 4.48881E-06-2.63766E-05 3.80847E-18-7.83881E-18
 -1       307 1.01374E-05-4.38742E-05 1.13893E-05-1.31108E-05-4.48822E-19-6.99819E-18
 -1       308 1.10752E-05-4.37378E-05 1.09347E-05 1.91186E-06-4.33088E-18-7.51392E-18
 -1       309 2.79632E-05-4.50117E-05 4.07588E-06 1.61633E-05-7.83209E-18-8.65959E-18
 -1       310 5.88167E-05-4.32721E-05-9.34083E-06 2.94480E-05-1.04380E-17-1.06940E-17
 -1       311 1.18053E-04-5.29072E-05-2.88203E-05 3.55369E-05-8.55228E-18-9.06050E-18
 -1       312 1.65480E-04-4.76788E-05-4.94139E-05 3.63222E-05-9.58058E-18-1.15133E-17
 -1       313 2.09865E-04-4.96905E-05-6.54052E-05 1.71735E-05-8.85118E-18-7.90366E-18
 -1       314 2.39373E-04-4.67918E-05-7.70918E-05 1.08643E-05-7.88704E-18-5.94723E-18
 -1       315 2.40513E-04-4.31343E-05-7.89503E-05-2.59879E-06-7.92653E-18-1.22026E-18
 -1       316 2.28609E-04-4.74479E-05-7.28729E-05-1.86922E-05-8.66430E-18 2.83587E-18
 -1       317 1.90364E-04-4.76084E-05-5.87435E-05-3.31210E-05-8.09102E-18 6.96219E-18
 -1       318 1.39116E-04-4.47725E-05-4.03828E-05-3.99565E-05-7.88355E-18 9.24748E-18
 -1       319 9.06913E-05-4.54660E-05-2.10279E-05-3.63448E-05-6.77033E-18 9.69217E-18
 -1       320 4.80975E-05-4.60484E-05-3.63175E-06-2.62235E-05-5.94998E-18 7.73383E-18
 -1       321 2.19625E-05-5.07959E-05 8.76698E-06-1.05966E-05-4.34189E-18 6.27307E-18
 -1       322 1.11451E-05-5.12379E-05 1.37044E-05 1.28192E-06-1.10244E-18 5.72637E-18
 -1       323 9.52371E-05-2.85715E-05-2.85710E-05 5.06934E-10 4.79992E-20-8.63015E-19
 -1       324 8.50729E-05-7.42744E-06-3.33305E-05-4.96816E-07-2.28648E-18-2.30797E-18
 -1       325 1.06113E-04-1.98734E-05-3.69912E-05-8.00593E-08-2.46256E-18-1.18327E-19
 -1       326 6.17839E-05 4.26701E-06-2.83071E-05-9.39953E-06-1.93380E-18-4.46512E-18
 -1       327 6.29284E-05 2.16421E-06-2.79013E-05-1.41469E-05-1.86374E-18-4.75153E-18
 -1       328 7.00718E-05-3.19538E-06-2.86774E-05-1.57539E-05-1.58093E-18-4.43535E-18
 -1       329 7.93298E-05-9.15034E-06-3.01154E-05-1.36237E-05-1.08915E-18-3.98929E-18
 -1       330 8.74052E-05-1.36342E-05-3.16712E-05-8.81106E-06-4.67222E-19-3.53611E-18
 -1       331 9.28139E-05-1.60276E-05-3.29743E-05-2.90769E-06 2.81387E-19-3.26622E-18
 -1       332 9.55710E-05-1.67619E-05-3.38496E-05 2.82363E-06 1.02269E-18-2.92969E-18
 -1       333 9.65473E-05-1.66768E-05-3.43111E-05 8.01865E-06 1.83449E-18-2.35862E-18
 -1       334 9.67334E-05-1.66471E-05-3.44122E-05 1.23916E-05 2.58922E-18-1.57920E-18
 -1       335 9.73240E-05-1.76586E-05-3.42437E-05 1.57729E-05 3.22704E-18-4.21961E-19
 -1       336 9.96192E-05-2.11524E-05-3.37516E-05 1.70379E-05 3.42048E-18 2.10719E-18
 -1       337 1.01691E-04-2.55085E-05-3.27505E-05 1.42665E-05 3.05677E-18 4.43470E-18
 -1       338 9.82654E-05-2.78365E-05-3.01606E-05 8.88959E-06 2.46066E-18 3.73844E-18
 -1       339 1.13541E-04-2.93415E-05-3.60279E-05 1.21676E-05-1.40029E-18 7.69658E-19
 -1       340 1.17710E-04-3.54682E-05-3.51928E-05 1.75527E-05 6.96023E-20 1.03956E-18
 -1       341 1.28162E-04-4.70753E-05-3.46847E-05 1.62019E-05 1.31923E-18 1.67475E-18
 -1       342 1.43553E-04-6.02224E-05-3.56513E-05 6.59526E-06 1.06806E-18 2.22838E-18
 -1       343 1.73730E-04-4.85997E-05-5.40282E-05-2.77369E-05-5.03963E-18 1.55981E-18
 -1       344 1.70898E-04-2.41512E-05-6.26422E-05-9.73229E-06-8.52390E-18-7.74241E-19
 -1       345 1.65092E-04-5.17461E-05-4.92165E-05 2.81193E-05-3.03100E-18-5.84643E-18
 -1       346 1.57322E-04-6.61393E-05-3.92975E-05 8.56403E-06 1.66098E-18-6.40907E-18
 -1       347 1.36950E-04-5.51189E-05-3.50123E-05-1.12298E-05 2.50969E-18-4.50462E-18
 -1       348 1.21792E-04-4.16419E-05-3.43166E-05-2.02292E-05 2.04606E-18-3.09487E-18
 -1       349 1.13047E-04-3.35617E-05-3.40608E-05-2.10555E-05 1.24869E-18-2.87429E-18
 -1       350 1.08333E-04-3.01178E-05-3.35111E-05-1.84133E-05 1.30334E-18-1.80045E-18
 -1       351 1.05174E-04-2.88419E-05-3.26974E-05-1.45716E-05 2.63118E-19-1.11878E-18
 -1       352 1.02908E-04-2.85542E-05-3.18462E-05-1.09359E-05 4.99898E-19-3.27792E-19
 -1       353 1.01133E-04-2.85677E-05-3.10813E-05-7.96121E-06-4.61413E-19 5.51169E-19
 -1       354 9.97138E-05-2.86302E-05-3.04499E-05-5.69581E-06-1.02333E-18 4.64213E-19
 -1       355 9.85883E-05-2.86706E-05-2.99540E-05-4.03617E-06-1.28795E-18-2.85816E-19
 -1       356 9.77118E-05-2.86826E-05-2.95762E-05-2.84579E-06 1.25360E-19-1.09192E-18
 -1       357 9.70659E-05-2.86732E-05-2.93058E-05-2.03512E-06 1.07565E-18-1.79306E-18
 -1       358 9.65473E-05-2.86542E-05-2.90932E-05-1.42629E-06-6.83324E-19-3.11605E-18
 -1       359 9.61604E-05-2.86323E-05-2.89380E-05-9.95934E-07-1.35275E-18-2.75361E-18
 -1       360 9.58748E-05-2.86117E-05-2.88252E-05-6.91421E-07 4.78021E-20-2.14516E-18
 -1       361 9.56665E-05-2.85945E-05-2.87439E-05-4.75713E-07 2.76981E-19-1.85361E-18
 -1       362 9.55167E-05-2.85812E-05-2.86857E-05-3.22920E-07 8.67280E-19-5.16016E-19
 -1       363 9.54107E-05-2.85718E-05-2.86446E-05-2.14900E-07 8.16052E-19-1.66389E-18
 -1       364 9.53400E-05-2.85657E-05-2.86171E-05-1.42069E-07 1.59689E-18 2.27438E-19
 -1       365 9.52889E-05-2.85618E-05-2.85970E-05-8.80808E-08 1.27922E-18 1.17756E-18
 -1       366 9.52553E-05-2.85599E-05-2.85836E-05-5.08797E-08-6.23561E-19-3.01201E-20
 -1       367 9.52342E-05-2.85593E-05-2.85748E-05-2.57412E-08-6.71923E-19-7.98035E-19
 -1       368 9.52219E-05-2.85597E-05-2.85694E-05-9.21729E-09-1.73916E-18-1.75070E-18
 -1       369 9.52155E-05-2.85606E-05-2.85663E-05 1.20555E-09-1.39657E-18-1.00602E-18
 -1       370 9.52131E-05-2.85618E-05-2.85648E-05 7.36905E-09-1.49061E-19 4.10345E-19
 -1       371 9.52132E-05-2.85631E-05-2.85643E-05 1.05035E-08 6.88010E-20-4.71719E-19
 -1       372 9.52148E-05-2.85644E-05-2.85644E-05 1.18850E-08 1.18473E-18-1.35589E-18
 -1       373 9.52172E-05-2.85656E-05-2.85650E-05 1.19938E-08 1.04438E-18-1.99513E-18
 -1       374 9.52200E-05-2.85667E-05-2.85657E-05 1.13340E-08-9.93079E-20-1.60999E-18
 -1       375 9.52228E-05-2.85677E-05-2.85665E-05 1.02563E-08-4.87115E-19-1.48047E-18
 -1       376 9.52255E-05-2.85685E-05-2.85673E-05 8.99599E-09-3.10365E-18-1.35417E-18
 -1       377 9.52280E-05-2.85692E-05-2.85680E-05 7.70297E-09 7.48111E-19 1.33188E-18
 -1       378 9.52300E-05-2.85698E-05-2.85687E-05 6.52323E-09 2.03623E-18 3.36046E-18
 -1       379 9.52319E-05-2.85702E-05-2.85693E-05 5.37408E-09 8.29999E-19 1.50331E-18
 -1       380 9.52334E-05-2.85706E-05-2.85698E-05 4.32403E-09-9.38541E-21 3.17694E-18
 -1       381 9.52347E-05-2.85710E-05-2.85702E-05 3.35439E-09 1.31807E-20 3.62896E-18
 -1       382 9.52357E-05-2.85713E-05-2.85705E-05 2.43673E-09-2.18782E-19 3.36158E-18
 -1       383 9.52365E-05-2.85716E-05-2.85707E-05 1.54023E-09-1.32053E-18 3.10543E-18
 -1       384 9.47560E-05-2.78926E-05-2.86196E-05 6.63633E-06 1.85670E-18 3.16770E-18
 -1       385 6.33411E-05-4.10846E-05-9.50183E-06 5.05528E-05-1.46780E-18 4.97807E-18
 -1       386 9.16743E-05-2.72384E-05-2.75917E-05 5.63923E-06 1.56046E-18 2.49056E-18
 -1       387 8.89878E-05-2.63029E-05-2.68521E-05 4.79657E-06 1.19517E-18 1.99323E-18
 -1       388 8.67976E-05-2.53303E-05-2.63320E-05 3.54519E-06 9.21087E-19 1.61072E-18
 -1       389 8.53644E-05-2.46056E-05-2.60274E-05 1.70213E-06 7.85365E-19 9.57509E-19
 -1       390 8.49234E-05-2.43552E-05-2.59451E-05-5.43243E-07 5.55437E-19 3.29525E-19
 -1       391 8.55527E-05-2.46755E-05-2.60783E-05-2.75478E-06 8.20399E-19 1.66971E-19
 -1       392 8.70927E-05-2.54807E-05-2.63959E-05-4.45677E-06 3.96436E-19 9.10511E-20
 -1       393 8.91900E-05-2.65456E-05-2.68425E-05-5.33976E-06 4.19613E-19 3.63695E-19
 -1       394 9.14270E-05-2.76113E-05-2.73491E-05-5.36010E-06 5.10727E-19 1.61572E-19
 -1       395 9.34550E-05-2.84851E-05-2.78478E-05-4.70242E-06 1.04949E-18-7.10397E-19
 -1       396 9.50644E-05-2.90811E-05-2.82847E-05-3.66068E-06 2.68810E-19-4.75809E-19
 -1       397 9.61868E-05-2.94062E-05-2.86275E-05-2.51905E-06 1.71969E-19-1.14264E-18
 -1       398 9.68556E-05-2.95185E-05-2.88656E-05-1.48179E-06 3.50562E-19-1.21625E-18
 -1       399 9.71575E-05-2.94903E-05-2.90060E-05-6.56419E-07 2.25389E-19-9.97831E-19
 -1       400 9.71946E-05-2.93845E-05-2.90657E-05-7.13551E-08-8.46379E-20-1.13593E-18
 -1       401 9.70614E-05-2.92470E-05-2.90661E-05 2.94857E-07-1.43712E-19-8.58467E-19
 -1       402 9.68344E-05-2.91066E-05-2.90278E-05 4.87008E-07 9.70665E-20-8.54983E-19
 -1       403 9.65695E-05-2.89789E-05-2.89681E-05 5.54829E-07-2.49800E-19-1.07048E-18
 -1       404 9.63042E-05-2.88707E-05-2.89001E-05 5.42722E-07 8.53975E-19-9.15685E-19
 -1       405 9.60607E-05-2.87834E-05-2.88328E-05 4.85554E-07 4.53731E-19-1.31138E-18
 -1       406 9.58502E-05-2.87158E-05-2.87714E-05 4.08164E-07-1.09198E-18-2.46706E-18
 -1       407 9.56766E-05-2.86650E-05-2.87187E-05 3.26708E-07-9.14073E-19-1.75895E-18
 -1       408 9.55387E-05-2.86280E-05-2.86755E-05 2.50648E-07-5.24322E-19 3.82389E-19
 -1       409 9.54330E-05-2.86019E-05-2.86414E-05 1.84717E-07-9.48296E-19 1.03280E-18
 -1       410 9.53547E-05-2.85842E-05-2.86156E-05 1.30551E-07 2.86688E-19 8.59418E-19
 -1       411 9.52987E-05-2.85727E-05-2.85966E-05 8.79280E-08 1.64717E-18 1.11315E-18
 -1       412 9.52603E-05-2.85657E-05-2.85832E-05 5.56391E-08 1.10373E-18 2.37196E-18
 -1       413 9.52353E-05-2.85618E-05-2.85742E-05 3.20557E-08-9.63067E-20 1.63292E-18
 -1       414 9.52201E-05-2.85601E-05-2.85684E-05 1.54792E-08-5.31082E-19 9.34600E-19
 -1       415 9.52119E-05-2.85598E-05-2.85651E-05 4.33349E-09-1.18154E-18 1.16377E-19
 -1       416 9.52085E-05-2.85603E-05-2.85635E-05-2.74384E-09 4.25620E-19 2.92827E-19
 -1       417 9.52084E-05-2.85614E-05-2.85630E-05-6.87411E-09 2.58518E-18 8.46708E-19
 -1       418 9.52101E-05-2.85626E-05-2.85632E-05-8.94510E-09-1.05005E-18 2.30620E-18
 -1       419 9.52130E-05-2.85640E-05-2.85639E-05-9.63677E-09-2.92948E-18 9.57880E-19
 -1       420 9.52163E-05-2.85652E-05-2.85647E-05-9.45386E-09 1.04080E-18 1.08420E-18
 -1       421 9.52197E-05-2.85664E-05-2.85657E-05-8.75937E-09-4.46605E-19 1.92790E-18
 -1       422 9.52230E-05-2.85674E-05-2.85667E-05-7.80495E-09 7.53449E-19 2.46059E-18
 -1       423 9.52259E-05-2.85683E-05-2.85676E-05-6.75678E-09 3.03707E-18 2.91746E-18
 -1       424 9.52285E-05-2.85691E-05-2.85684E-05-5.71646E-09 2.03671E-18 2.55478E-18
 -1       425 9.52308E-05-2.85697E-05-2.85690E-05-4.73697E-09 5.48150E-19 1.44451E-19
 -1       426 9.52327E-05-2.85702E-05-2.85696E-05-3.83438E-09 6.24305E-19 9.13647E-19
 -1       427 9.52342E-05-2.85706E-05-2.85701E-05-2.99660E-09-4.90010E-19-2.81438E-19
 -1       428 9.52354E-05-2.85710E-05-2.85705E-05-2.19449E-09-8.37288E-19 7.73299E-19
 -1       429 9.52363E-05-2.85713E-05-2.85707E-05-1.39978E-09-1.46919E-18 2.43111E-18
 -1       430 9.52367E-05-2.85715E-05-2.85708E-05-9.45673E-10-2.12789E-19 3.80402E-18
 -1       431 9.52378E-05-2.85736E-05-2.85704E-05-2.52951E-09-4.40463E-18-2.76762E-19
 -1       432 9.52372E-05-2.85727E-05-2.85705E-05-2.22612E-09-2.95744E-18 1.72911E-19
 -1       433 9.52369E-05-2.85720E-05-2.85707E-05-1.63851E-09-1.21935E-18 6.83041E-19
 -1       434 9.52383E-05-2.85746E-05-2.85702E-05-2.45456E-09-3.38531E-18-3.95593E-18
 -1       435 9.52388E-05-2.85754E-05-2.85700E-05-2.03129E-09-1.23033E-18 1.42169E-18
 -1       436 9.52391E-05-2.85760E-05-2.85699E-05-1.33274E-09 7.71288E-19 2.28411E-18
 -1       437 9.52393E-05-2.85763E-05-2.85699E-05-4.59949E-10-7.80208E-19 1.91290E-18
 -1       438 9.52393E-05-2.85763E-05-2.85699E-05 4.72375E-10-7.61407E-19 1.26009E-18
 -1       439 9.52391E-05-2.85760E-05-2.85699E-05 1.34487E-09-1.04527E-18-2.59372E-18
 -1       440 9.52388E-05-2.85754E-05-2.85700E-05 2.03229E-09-6.48989E-19-2.81115E-18
 -1       441 9.52383E-05-2.85746E-05-2.85702E-05 2.45738E-09 5.19445E-19 2.47759E-18
 -1       442 9.52378E-05-2.85736E-05-2.85704E-05 2.53241E-09 1.43068E-19-1.03223E-18
 -1       443 9.52372E-05-2.85727E-05-2.85705E-05 2.22477E-09-1.84181E-18-9.05460E-19
 -1       444 1.01102E-04-5.10691E-05-2.15362E-05 4.75414E-05 9.17972E-19 1.36245E-18
 -1       445 1.07076E-05-2.14722E-05 4.46556E-06 1.10372E-05-2.61283E-19 5.85109E-18
 -1       446 6.94641E-05 9.55540E-07-3.01978E-05-3.96413E-06-2.12008E-18-3.75144E-18
 -1       447 1.39195E-04-5.04624E-05-3.78976E-05 3.14996E-05 3.05493E-18-1.72054E-18
 -1       448 1.56669E-04-4.03268E-05-4.97477E-05 1.70401E-05 4.58164E-18-2.27015E-18
 -1       449 1.66152E-04-2.26421E-05-6.12209E-05 4.27571E-06 6.53920E-18-2.82856E-18
 -1       450 1.70538E-04-1.43084E-05-6.65943E-05 1.65361E-06 7.18485E-18-2.64391E-18
 -1       451 1.62619E-04-1.21340E-05-6.45817E-05 9.34203E-07 7.36252E-18-1.95988E-18
 -1       452 1.63513E-04-2.79696E-05-5.80119E-05-6.27226E-06 6.25899E-18-2.85651E-18
 -1       453 1.51616E-04-4.12873E-05-4.71887E-05-2.05617E-05 4.56673E-18-3.32577E-18
 -1       454 1.26980E-04-4.79753E-05-3.38343E-05-3.73104E-05 2.54671E-18-4.28662E-18
 -1       455 9.03508E-05-4.37288E-05-1.99593E-05-4.96134E-05 4.69680E-19-5.48462E-18
 -1       456 4.59708E-05-3.03667E-05-6.82251E-06-4.73964E-05-6.13569E-19-7.46432E-18
 -1       457 1.88393E-05-1.88690E-05 1.07826E-08-3.16745E-05-1.28373E-18-8.26196E-18
 -1       458 1.01989E-05-1.30983E-05 1.38517E-06-5.47044E-06-1.20319E-18-8.29033E-18
 -1       459 2.62754E-05-2.68369E-05-7.37213E-08 2.24271E-05-1.67480E-18-7.47263E-18
 -1       460 6.86592E-05-4.40573E-05-1.06195E-05 3.81262E-05-8.74773E-19-6.05136E-18
 -1       461 1.12839E-04-6.16998E-05-2.21975E-05 3.37282E-05-1.26547E-18-3.38525E-18
 -1       462 1.62544E-04-6.92716E-05-4.01330E-05 8.19016E-06-3.20020E-18-1.44546E-18
 -1       463 1.82938E-04-3.54377E-05-6.29222E-05-1.15409E-05-7.52504E-18-1.06938E-18
 -1       464 1.76752E-04-2.89285E-05-6.29892E-05 1.51351E-05-8.05190E-18-2.71993E-18
 -1       465 1.84556E-04-4.85952E-05-5.79444E-05 1.34493E-05-6.15481E-18-3.36145E-18
 -1       466 1.72068E-04-6.28494E-05-4.66634E-05-2.81290E-06-3.28654E-18-8.45127E-19
 -1       467 1.41426E-04-6.71549E-05-3.20680E-05-2.31051E-05-8.93937E-19 1.75516E-18
 -1       468 9.71396E-05-5.79396E-05-1.70800E-05-3.78898E-05 1.05720E-18 4.33649E-18
 -1       469 4.84120E-05-4.08579E-05-3.70973E-06-3.46816E-05 2.99320E-19 4.87870E-18
 -1       470 1.95842E-05-2.85633E-05 3.44453E-06-1.75682E-05-5.08220E-21 6.59288E-18
 -1       471 2.57154E-05-2.97623E-05 1.44152E-06 3.52764E-05-6.08805E-19 6.99999E-18
 -1       472 1.60567E-04-6.45711E-05-4.13336E-05-1.32838E-05-1.13676E-18 2.81347E-18
 -1       473 1.46662E-04-1.52216E-05-5.68313E-05 7.55192E-06 6.34004E-18 6.04782E-19
 -1       474 6.56062E-05-3.44529E-06-2.66172E-05-2.04492E-05-2.13465E-18-4.53157E-18
 -1       475 5.80913E-05 2.72237E-06-2.60318E-05-1.46140E-05-2.06913E-18-4.80538E-18
 -1       476 8.95277E-05-1.90261E-05-3.02308E-05-1.43659E-05-1.24880E-18-3.27301E-18
 -1       477 9.68970E-05-2.26659E-05-3.18354E-05-6.84162E-06-3.89993E-19-2.75628E-18
 -1       478 1.00460E-04-2.37591E-05-3.29003E-05 2.31840E-07 4.71847E-19-2.48230E-18
 -1       479 1.01423E-04-2.34838E-05-3.34347E-05 6.10023E-06 1.27173E-18-2.10872E-18
 -1       480 1.01024E-04-2.29850E-05-3.34795E-05 1.03951E-05 2.03322E-18-1.47568E-18
 -1       481 1.00344E-04-2.31685E-05-3.31077E-05 1.30570E-05 2.68116E-18-5.92916E-19
 -1       482 1.00003E-04-2.47053E-05-3.22926E-05 1.35025E-05 2.95959E-18 6.32916E-19
 -1       483 9.96494E-05-2.64953E-05-3.13439E-05 1.17967E-05 2.83950E-18 2.04743E-18
 -1       484 9.20514E-05-2.04675E-05-3.05982E-05 1.63359E-05-4.42760E-19-1.39090E-18
 -1       485 1.29449E-04-5.98749E-05-2.97992E-05 3.13026E-05-1.40658E-18-3.25118E-18
 -1       486 1.42383E-04-6.78832E-05-3.19785E-05 1.56496E-05-7.53859E-20 1.82006E-19
 -1       487 9.54580E-05-3.06679E-05-2.75621E-05 2.47766E-05 1.16042E-18-1.28402E-18
 -1       488 1.05839E-04-4.67218E-05-2.49693E-05 2.95592E-05 1.79243E-18-1.08473E-18
 -1       489 9.76048E-05-2.79694E-05-2.98210E-05 9.04825E-06 2.12217E-18 1.90218E-18
 -1       490 2.55674E-05-1.07126E-05-5.61802E-06-7.74394E-06 5.57162E-19 5.51683E-18
 -1       491 1.05673E-04-4.33818E-05-2.64133E-05-2.94720E-05 3.42233E-18-4.94191E-20
 -1       492 9.61943E-05-2.97093E-05-2.83763E-05-2.63859E-05 1.33145E-18 2.39813E-19
 -1       493 9.37301E-05-2.43669E-05-2.96927E-05-2.22832E-05 1.51380E-18-6.74847E-20
 -1       494 9.41188E-05-2.32026E-05-3.03758E-05-1.76271E-05 9.99445E-19-1.04855E-18
 -1       495 9.50729E-05-2.38740E-05-3.05019E-05-1.35767E-05 4.30631E-19-7.39311E-19
 -1       496 9.58262E-05-2.50061E-05-3.03411E-05-1.02267E-05 7.80102E-19-1.13073E-18
 -1       497 9.62303E-05-2.60513E-05-3.00683E-05-7.57885E-06-7.35454E-19-5.01388E-19
 -1       498 9.63541E-05-2.68574E-05-2.97780E-05-5.55207E-06-1.13815E-18 8.50811E-20
 -1       499 9.63063E-05-2.74293E-05-2.95141E-05-4.03608E-06-1.27841E-18 7.30504E-19
 -1       500 9.61780E-05-2.77995E-05-2.93019E-05-2.96354E-06-3.56838E-19-7.02509E-19
 -1       501 9.60123E-05-2.80599E-05-2.91202E-05-2.13048E-06-8.86412E-19-2.71727E-18
 -1       502 9.58484E-05-2.82294E-05-2.89780E-05-1.52417E-06-1.69393E-19-6.97634E-19
 -1       503 9.57021E-05-2.83393E-05-2.88687E-05-1.08369E-06-2.63127E-19 2.90792E-20
 -1       504 9.55796E-05-2.84110E-05-2.87858E-05-7.64217E-07-6.35706E-20 4.12304E-19
 -1       505 9.54815E-05-2.84583E-05-2.87237E-05-5.32949E-07 1.33954E-18-5.48263E-20
 -1       506 9.54056E-05-2.84902E-05-2.86777E-05-3.66098E-07 1.25076E-18 3.13200E-19
 -1       507 9.53509E-05-2.85111E-05-2.86454E-05-2.51238E-07 1.17401E-18 3.30535E-20
 -1       508 9.53084E-05-2.85269E-05-2.86205E-05-1.64236E-07 5.54752E-19-2.10611E-18
 -1       509 9.52782E-05-2.85383E-05-2.86027E-05-1.02855E-07 7.51248E-19-3.37442E-18
 -1       510 9.52574E-05-2.85468E-05-2.85902E-05-6.01761E-08-1.97515E-18-2.95644E-18
 -1       511 9.52436E-05-2.85531E-05-2.85816E-05-3.10947E-08-2.14848E-18-3.92922E-18
 -1       512 9.52349E-05-2.85580E-05-2.85758E-05-1.18331E-08-6.93442E-19-2.90864E-18
 -1       513 9.52299E-05-2.85616E-05-2.85721E-05 4.13357E-10-1.58101E-19-1.64705E-18
 -1       514 9.52274E-05-2.85643E-05-2.85699E-05 7.45977E-09 3.02134E-19-1.87940E-18
 -1       515 9.52265E-05-2.85664E-05-2.85686E-05 1.15274E-08 1.07425E-19-1.84418E-18
 -1       516 9.52266E-05-2.85680E-05-2.85680E-05 1.32694E-08 2.73262E-19-1.44495E-18
 -1       517 9.52274E-05-2.85691E-05-2.85678E-05 1.35121E-08 1.64372E-18-2.30648E-18
 -1       518 9.52286E-05-2.85700E-05-2.85680E-05 1.28435E-08-4.24679E-19-3.17357E-18
 -1       519 9.52299E-05-2.85706E-05-2.85683E-05 1.16711E-08-2.01662E-18-2.27499E-18
 -1       520 9.52311E-05-2.85710E-05-2.85686E-05 1.02696E-08 6.40108E-19-6.99832E-19
 -1       521 9.52323E-05-2.85712E-05-2.85690E-05 8.88430E-09 2.51519E-18-4.53851E-19
 -1       522 9.52334E-05-2.85715E-05-2.85694E-05 7.46948E-09 2.99332E-19-5.62045E-19
 -1       523 9.52344E-05-2.85716E-05-2.85698E-05 6.14625E-09 1.97330E-19 1.10500E-18
 -1       524 9.52352E-05-2.85718E-05-2.85701E-05 4.92358E-09 1.23416E-18 7.83613E-19
 -1       525 9.52360E-05-2.85719E-05-2.85703E-05 3.78662E-09-9.87427E-19 1.83097E-18
 -1       526 9.52367E-05-2.85723E-05-2.85704E-05 3.03070E-09-9.84718E-19 6.18502E-19
 -1       527 9.55692E-05-2.77405E-05-2.90637E-05 7.95222E-06 1.79285E-18 1.05569E-18
 -1       528 9.65357E-05-2.81469E-05-2.92983E-05 8.43748E-06 1.90000E-18 1.43378E-18
 -1       529 9.14658E-05-2.51817E-05-2.83995E-05 4.17602E-06 1.40642E-18 3.25090E-19
 -1       530 9.03194E-05-2.43244E-05-2.82749E-05 1.12179E-06 1.09081E-18-3.29662E-19
 -1       531 9.02067E-05-2.43379E-05-2.82210E-05-2.20555E-06 6.57771E-19-4.87576E-19
 -1       532 9.11064E-05-2.52578E-05-2.82139E-05-5.07400E-06 4.88000E-19-2.30465E-19
 -1       533 9.26784E-05-2.67604E-05-2.82462E-05-6.87959E-06 5.75090E-19-4.76807E-19
 -1       534 9.44332E-05-2.83551E-05-2.83179E-05-7.39773E-06 7.33978E-19-6.78386E-19
 -1       535 9.59516E-05-2.96320E-05-2.84244E-05-6.80327E-06 1.03441E-18-9.29347E-19
 -1       536 9.70115E-05-3.03987E-05-2.85521E-05-5.50279E-06 5.49278E-19-5.21948E-19
 -1       537 9.75835E-05-3.06698E-05-2.86821E-05-3.93333E-06 4.07414E-19-1.25497E-18
 -1       538 9.77563E-05-3.05776E-05-2.87957E-05-2.43050E-06 3.81230E-19-1.01409E-18
 -1       539 9.76586E-05-3.02814E-05-2.88801E-05-1.18707E-06 3.60657E-20-1.59063E-18
 -1       540 9.74078E-05-2.99118E-05-2.89300E-05-2.71859E-07 6.57358E-20-4.38425E-19
 -1       541 9.70911E-05-2.95530E-05-2.89471E-05 3.27780E-07-3.74503E-19-2.87647E-19
 -1       542 9.67644E-05-2.92476E-05-2.89370E-05 6.66108E-07 9.15694E-20 8.44481E-20
 -1       543 9.64595E-05-2.90096E-05-2.89077E-05 8.10483E-07 1.62941E-19-1.81114E-19
 -1       544 9.61916E-05-2.88360E-05-2.88668E-05 8.24509E-07 6.94132E-19-8.85660E-19
 -1       545 9.59655E-05-2.87164E-05-2.88209E-05 7.60284E-07 6.53967E-19-6.85457E-19
 -1       546 9.57804E-05-2.86383E-05-2.87749E-05 6.56433E-07 1.81178E-19-6.18205E-19
 -1       547 9.56327E-05-2.85904E-05-2.87321E-05 5.39215E-07-6.81979E-19-1.64333E-18
 -1       548 9.55174E-05-2.85631E-05-2.86944E-05 4.24926E-07-1.15203E-18-2.09520E-18
 -1       549 9.54292E-05-2.85493E-05-2.86625E-05 3.22522E-07-1.06197E-18-1.74517E-18
 -1       550 9.53633E-05-2.85439E-05-2.86366E-05 2.35936E-07-4.16007E-19-1.90689E-18
 -1       551 9.53151E-05-2.85434E-05-2.86162E-05 1.65925E-07-2.51758E-19-1.13129E-18
 -1       552 9.52808E-05-2.85456E-05-2.86007E-05 1.11405E-07 8.59739E-20 3.05736E-19
 -1       553 9.52572E-05-2.85490E-05-2.85891E-05 7.03827E-08 1.06853E-18 9.65960E-19
 -1       554 9.52415E-05-2.85527E-05-2.85809E-05 4.05484E-08-2.52149E-19 9.34679E-19
 -1       555 9.52317E-05-2.85562E-05-2.85752E-05 1.96282E-08-1.33587E-19 1.11347E-18
 -1       556 9.52261E-05-2.85594E-05-2.85714E-05 5.57431E-09-6.87032E-19 8.14778E-19
 -1       557 9.52234E-05-2.85621E-05-2.85691E-05-3.35477E-09 3.56695E-19 1.40531E-18
 -1       558 9.52227E-05-2.85643E-05-2.85679E-05-8.57870E-09 5.81779E-19 2.14658E-18
 -1       559 9.52232E-05-2.85661E-05-2.85673E-05-1.12150E-08-4.99863E-19 1.31214E-18
 -1       560 9.52244E-05-2.85675E-05-2.85672E-05-1.21166E-08-3.29896E-19-6.59195E-19
 -1       561 9.52260E-05-2.85686E-05-2.85674E-05-1.19154E-08-2.04040E-19-2.84331E-19
 -1       562 9.52277E-05-2.85694E-05-2.85678E-05-1.10656E-08-5.97978E-20-1.19939E-18
 -1       563 9.52293E-05-2.85701E-05-2.85683E-05-9.88126E-09 1.33395E-18 8.49598E-19
 -1       564 9.52309E-05-2.85705E-05-2.85687E-05-8.56947E-09 2.70382E-18 1.53842E-18
 -1       565 9.52323E-05-2.85709E-05-2.85692E-05-7.25605E-09 2.33864E-18 1.97929E-18
 -1       566 9.52336E-05-2.85711E-05-2.85696E-05-6.00607E-09-6.24271E-19 1.65694E-18
 -1       567 9.52346E-05-2.85714E-05-2.85700E-05-4.84059E-09 1.06052E-18 2.11038E-18
 -1       568 9.52355E-05-2.85716E-05-2.85703E-05-3.75498E-09-4.55889E-19 1.96183E-18
 -1       569 9.52363E-05-2.85718E-05-2.85705E-05-2.71607E-09-1.78104E-18 2.12501E-18
 -1       570 9.52389E-05-2.85750E-05-2.85702E-05-3.09167E-09-3.64674E-19-6.08959E-19
 -1       571 9.52395E-05-2.85757E-05-2.85702E-05-2.30137E-09-8.55374E-19 2.10272E-18
 -1       572 9.52373E-05-2.85731E-05-2.85704E-05-3.41262E-09-2.82525E-19-1.74371E-18
 -1       573 9.52381E-05-2.85741E-05-2.85703E-05-3.48336E-09-1.98376E-18-9.06025E-19
 -1       574 9.52399E-05-2.85762E-05-2.85701E-05-1.22323E-09-1.49726E-18 2.14529E-18
 -1       575 9.52400E-05-2.85763E-05-2.85701E-05 5.93112E-12 3.09479E-19 1.98855E-18
 -1       576 9.52399E-05-2.85762E-05-2.85701E-05 1.23544E-09 5.32075E-19 1.11392E-19
 -1       577 9.52395E-05-2.85757E-05-2.85702E-05 2.29837E-09 1.95710E-18-3.36391E-18
 -1       578 9.52389E-05-2.85750E-05-2.85702E-05 3.09271E-09 2.60567E-18 1.49284E-18
 -1       579 9.52381E-05-2.85741E-05-2.85703E-05 3.48395E-09 1.69648E-19-1.72847E-18
 -1       580 9.52374E-05-2.85732E-05-2.85704E-05 3.43823E-09-1.29056E-18-2.31517E-18
 -1       581 1.37191E-04-4.80144E-06-5.74498E-05 2.42808E-07 6.85186E-18-1.03539E-18
 -1       582 9.66743E-05-5.05849E-05-1.94353E-05 4.74860E-05-3.63361E-18 1.20080E-19
 -1       583 8.82942E-05-1.35119E-05-3.20302E-05 7.52025E-06-1.66428E-18-1.91235E-18
 -1       584 5.12664E-05-2.84832E-05-9.29012E-06 4.48699E-05-3.50423E-18 5.14318E-18
 -1       585 5.53073E-05-2.66779E-05-1.17601E-05 3.19477E-05 9.24325E-19-5.41095E-18
 -1       586 9.33563E-05-2.65109E-05-2.86406E-05 6.46015E-06 1.37617E-18 7.47253E-19
 -1       587 1.28757E-04-6.38555E-05-2.76562E-05-2.47183E-05 3.17876E-18-1.06164E-18
 -1       588 7.81137E-05-1.20641E-05-2.83026E-05-1.98828E-05-1.78976E-18-3.84495E-18
 -1       589 1.40747E-04-1.06309E-05-5.63649E-05-6.52801E-06 6.32194E-18-2.09442E-18
 -1       590 1.45649E-04-5.21107E-05-4.03494E-05 7.70633E-06 1.14600E-18-4.05755E-18
 -1       591 1.47147E-04-3.21415E-05-4.97651E-05-6.01409E-06 3.99143E-18-3.70312E-18
 -1       592 1.48420E-04-3.64272E-05-4.83549E-05 1.65763E-06 2.87846E-18 8.91608E-19
 -1       593 1.41387E-04-5.11847E-05-3.88043E-05-1.55976E-05 3.75341E-19 7.42213E-20
 -1       594 1.18611E-04-5.25189E-05-2.82091E-05-3.70929E-05-1.92319E-18-2.12124E-18
 -1       595 7.78647E-05-3.63146E-05-1.74840E-05-4.98665E-05-3.35139E-18-4.85239E-18
 -1       596 4.19259E-05-1.74821E-05-9.93846E-06-4.31922E-05-2.85286E-18-6.97622E-18
 -1       597 2.35648E-05-4.01127E-06-7.67725E-06-2.17382E-05-1.80595E-18-7.73722E-18
 -1       598 2.66956E-05-8.08647E-06-7.33484E-06 1.15028E-05-1.48495E-19-7.10047E-18
 -1       599 1.00305E-04-4.99069E-05-2.12489E-05 3.40303E-05 1.61693E-18-2.36515E-18
 -1       600 8.33913E-05-4.52291E-05-1.59835E-05-3.86012E-05 3.35245E-18 3.03545E-18
 -1       601 4.36527E-05-2.61366E-05-7.03638E-06-3.08613E-05 2.18058E-18 4.25105E-18
 -1       602 2.78563E-05-1.42943E-05-5.12720E-06 2.66863E-05-1.64573E-18 4.76265E-18
 -1       603 6.03966E-05 2.80228E-06-2.70235E-05-4.99906E-06-1.75801E-18-4.21137E-18
 -1       604 1.29816E-04-6.98258E-06-5.32987E-05 6.67600E-06 5.63362E-18 4.06139E-19
 -1       605 7.12090E-05-3.48075E-06-2.89988E-05 2.67695E-06-1.57268E-18-3.32546E-18
 -1       606 1.38152E-04-2.43846E-05-4.92714E-05 1.13507E-05 3.68533E-18 1.95262E-18
 -1       607 1.06078E-04-3.05495E-05-3.23737E-05-2.61839E-06-1.79538E-19-1.75439E-18
 -1       608 1.01666E-04-2.96789E-05-3.08444E-05-1.21766E-05-1.23477E-18-2.25535E-18
 -1       609 1.05171E-04-2.80098E-05-3.30799E-05 9.12036E-06 1.48550E-18-1.13244E-18
 -1       610 1.03187E-04-2.71424E-05-3.25979E-05 1.15732E-05 2.08159E-18-6.16355E-19
 -1       611 1.00996E-04-2.71203E-05-3.16621E-05 1.18677E-05 2.24587E-18 6.30387E-20
 -1       612 9.96382E-05-2.77200E-05-3.08043E-05 1.08306E-05 2.26532E-18 7.90011E-19
 -1       613 6.97406E-05-1.23945E-05-2.42898E-05 1.74259E-05 1.64556E-19-3.12820E-18
 -1       614 9.42820E-05-2.31174E-05-3.04957E-05-3.27165E-07 1.14347E-18-5.24466E-19
 -1       615 3.51688E-05-7.17792E-06-1.14079E-05 9.71604E-06-4.17862E-19 3.96734E-18
 -1       616 1.17217E-04-5.54143E-05-2.63253E-05 3.19341E-05-2.80441E-18-2.43747E-18
 -1       617 7.39953E-05-1.63962E-05-2.44974E-05-2.14536E-05 9.24735E-19 1.44646E-18
 -1       618 7.96120E-05-1.64467E-05-2.70377E-05-1.62218E-05 5.69203E-19 1.13706E-19
 -1       619 8.46168E-05-1.82547E-05-2.84319E-05-1.26381E-05 8.88601E-19-1.19273E-18
 -1       620 8.84337E-05-2.05718E-05-2.90799E-05-9.90746E-06 4.34355E-19-3.57008E-19
 -1       621 9.10962E-05-2.26816E-05-2.93177E-05-7.70905E-06-4.78850E-19-5.40032E-19
 -1       622 9.28444E-05-2.43666E-05-2.93455E-05-5.92951E-06-4.70471E-19-1.06656E-18
 -1       623 9.39376E-05-2.56225E-05-2.92763E-05-4.51018E-06-1.04387E-18-1.16441E-18
 -1       624 9.45660E-05-2.64843E-05-2.91767E-05-3.44288E-06-8.57268E-19-1.59242E-18
 -1       625 9.49483E-05-2.71259E-05-2.90660E-05-2.56699E-06-1.53663E-18-9.21221E-19
 -1       626 9.51541E-05-2.75694E-05-2.89643E-05-1.89801E-06 3.61316E-19-2.33011E-19
 -1       627 9.52552E-05-2.78747E-05-2.88770E-05-1.39084E-06 1.07376E-18-6.51167E-21
 -1       628 9.52973E-05-2.80848E-05-2.88051E-05-1.00918E-06 4.52763E-20 1.27802E-18
 -1       629 9.53080E-05-2.82302E-05-2.87474E-05-7.23833E-07 1.71682E-19 2.27263E-18
 -1       630 9.53034E-05-2.83315E-05-2.87021E-05-5.12002E-07 4.32011E-19 1.09157E-18
 -1       631 9.52931E-05-2.83995E-05-2.86686E-05-3.62337E-07 5.12137E-19-7.21045E-19
 -1       632 9.52808E-05-2.84508E-05-2.86414E-05-2.46133E-07-3.70606E-19-2.57036E-18
 -1       633 9.52693E-05-2.84873E-05-2.86208E-05-1.62125E-07 3.24931E-19-2.35465E-18
 -1       634 9.52597E-05-2.85134E-05-2.86055E-05-1.02166E-07-4.24279E-19-2.51089E-18
 -1       635 9.52521E-05-2.85321E-05-2.85943E-05-6.00998E-08-2.48855E-18-1.54629E-18
 -1       636 9.52465E-05-2.85455E-05-2.85861E-05-3.12403E-08-1.16500E-18-7.82405E-19
 -1       637 9.52424E-05-2.85549E-05-2.85803E-05-1.20317E-08 4.03800E-19-1.16177E-18
 -1       638 9.52397E-05-2.85613E-05-2.85765E-05-2.34289E-10 4.06796E-19-1.04217E-18
 -1       639 9.52378E-05-2.85659E-05-2.85737E-05 7.34618E-09 8.18940E-20-2.34489E-19
 -1       640 9.52367E-05-2.85690E-05-2.85719E-05 1.14547E-08 3.58506E-19-1.37559E-18
 -1       641 9.52360E-05-2.85710E-05-2.85707E-05 1.32309E-08 1.08836E-18-1.67152E-18
 -1       642 9.52358E-05-2.85722E-05-2.85701E-05 1.35000E-08 3.56244E-19-1.45430E-18
 -1       643 9.52357E-05-2.85729E-05-2.85698E-05 1.28495E-08 5.29035E-19-9.04942E-19
 -1       644 9.52358E-05-2.85732E-05-2.85697E-05 1.16891E-08-4.95326E-19 3.12853E-19
 -1       645 9.52359E-05-2.85732E-05-2.85697E-05 1.03643E-08 1.29733E-18-6.18458E-19
 -1       646 9.52361E-05-2.85732E-05-2.85698E-05 8.90635E-09 2.29780E-19-1.78568E-18
 -1       647 9.52363E-05-2.85731E-05-2.85700E-05 7.48161E-09 2.48905E-18-3.14473E-18
 -1       648 9.52366E-05-2.85730E-05-2.85701E-05 6.14643E-09 1.62211E-18-3.52106E-18
 -1       649 9.52368E-05-2.85729E-05-2.85702E-05 4.90143E-09 5.47204E-19-2.61388E-18
 -1       650 9.52371E-05-2.85731E-05-2.85703E-05 4.15923E-09-6.07595E-19-3.54398E-18
 -1       651 9.47006E-05-2.39485E-05-3.03197E-05-4.44737E-06 6.63318E-19-1.01589E-18
 -1       652 9.51468E-05-2.38488E-05-3.05532E-05 3.90863E-06 1.79934E-18-1.44588E-19
 -1       653 9.61225E-05-2.60447E-05-3.00311E-05-7.41137E-06 8.03262E-19-1.51871E-18
 -1       654 9.78734E-05-2.85919E-05-2.96906E-05-8.65075E-06 8.85439E-19-1.53375E-18
 -1       655 9.92869E-05-3.07519E-05-2.93719E-05-8.26528E-06 7.30237E-19-1.48783E-18
 -1       656 1.00016E-04-3.20605E-05-2.91246E-05-6.79522E-06 8.44891E-19-1.18730E-18
 -1       657 1.00056E-04-3.24751E-05-2.89647E-05-4.87505E-06 3.88102E-19-7.85316E-19
 -1       658 9.96043E-05-3.22199E-05-2.88807E-05-2.99495E-06 6.24916E-20-3.38424E-19
 -1       659 9.89025E-05-3.15939E-05-2.88481E-05-1.43229E-06 5.58653E-19-2.81649E-19
 -1       660 9.81447E-05-3.08496E-05-2.88420E-05-2.82457E-07-3.20624E-19-3.70984E-19
 -1       661 9.74482E-05-3.01481E-05-2.88438E-05 4.70729E-07-2.90983E-19 4.97342E-21
 -1       662 9.68659E-05-2.95689E-05-2.88422E-05 8.96556E-07 2.62070E-19-6.52024E-19
 -1       663 9.64090E-05-2.91340E-05-2.88324E-05 1.07975E-06 1.35404E-19-5.31691E-19
 -1       664 9.60656E-05-2.88328E-05-2.88142E-05 1.09936E-06 6.00135E-19-7.35523E-19
 -1       665 9.58152E-05-2.86402E-05-2.87893E-05 1.01974E-06 4.86640E-19-1.31935E-19
 -1       666 9.56365E-05-2.85284E-05-2.87605E-05 8.88666E-07 7.46382E-19 4.29042E-19
 -1       667 9.55106E-05-2.84723E-05-2.87306E-05 7.38878E-07-1.68310E-20 5.65072E-19
 -1       668 9.54226E-05-2.84520E-05-2.87016E-05 5.91023E-07-6.77126E-19-2.65713E-20
 -1       669 9.53615E-05-2.84529E-05-2.86750E-05 4.56786E-07-1.41164E-18 6.43919E-19
 -1       670 9.53191E-05-2.84651E-05-2.86517E-05 3.41653E-07-7.81907E-19-8.34068E-21
 -1       671 9.52899E-05-2.84819E-05-2.86319E-05 2.47084E-07-5.09914E-19 1.54626E-19
 -1       672 9.52698E-05-2.84996E-05-2.86157E-05 1.72141E-07 5.23126E-19-1.00467E-18
 -1       673 9.52561E-05-2.85160E-05-2.86029E-05 1.14617E-07-2.68640E-19-3.98942E-19
 -1       674 9.52469E-05-2.85301E-05-2.85929E-05 7.17950E-08-8.94812E-20 6.83460E-19
 -1       675 9.52408E-05-2.85417E-05-2.85853E-05 4.09042E-08-9.42164E-19 1.79377E-18
 -1       676 9.52370E-05-2.85508E-05-2.85798E-05 1.93846E-08-6.27277E-19 2.23483E-18
 -1       677 9.52347E-05-2.85577E-05-2.85759E-05 5.01122E-09 6.60669E-19 1.41830E-18
 -1       678 9.52335E-05-2.85628E-05-2.85732E-05-4.06765E-09 8.58400E-19 1.33811E-18
 -1       679 9.52330E-05-2.85664E-05-2.85714E-05-9.34013E-09 2.11714E-19 5.20945E-19
 -1       680 9.52329E-05-2.85689E-05-2.85703E-05-1.19657E-08 2.70640E-19 7.95037E-19
 -1       681 9.52331E-05-2.85705E-05-2.85697E-05-1.28232E-08-1.51098E-19-2.02282E-19
 -1       682 9.52336E-05-2.85715E-05-2.85694E-05-1.25603E-08-6.05777E-19-2.38928E-19
 -1       683 9.52340E-05-2.85721E-05-2.85694E-05-1.16406E-08-1.27178E-19-7.68762E-19
 -1       684 9.52345E-05-2.85724E-05-2.85695E-05-1.03836E-08 1.46254E-18-1.52089E-18
 -1       685 9.52350E-05-2.85726E-05-2.85696E-05-8.99798E-09 2.18855E-18 2.75628E-19
 -1       686 9.52355E-05-2.85726E-05-2.85698E-05-7.61067E-09 7.32625E-19 1.30711E-18
 -1       687 9.52360E-05-2.85726E-05-2.85700E-05-6.28658E-09 8.18436E-20 3.39480E-20
 -1       688 9.52364E-05-2.85726E-05-2.85702E-05-5.05096E-09-6.77468E-19 1.08761E-18
 -1       689 9.52369E-05-2.85728E-05-2.85703E-05-4.23238E-09-1.70736E-18 1.32789E-18
 -1       690 9.52409E-05-2.85766E-05-2.85704E-05-7.67534E-10-3.43192E-20 3.88340E-18
 -1       691 9.52398E-05-2.85756E-05-2.85704E-05-3.41009E-09-9.21583E-19-2.60072E-19
 -1       692 9.52409E-05-2.85766E-05-2.85704E-05 7.74207E-10-6.46520E-19 1.05057E-18
 -1       693 9.52405E-05-2.85763E-05-2.85704E-05-2.21975E-09-1.42947E-18 2.31378E-18
 -1       694 9.52405E-05-2.85763E-05-2.85704E-05 2.20566E-09 6.24573E-19-1.95905E-19
 -1       695 9.52399E-05-2.85756E-05-2.85704E-05 3.41011E-09 2.09152E-18-4.22744E-19
 -1       696 9.52389E-05-2.85747E-05-2.85703E-05 4.19150E-09 2.50659E-18-2.28254E-19
 -1       697 5.01990E-05-1.57571E-05-1.42105E-05-2.31368E-05 1.65343E-18 3.52461E-18
 -1       698 7.01313E-05-7.03500E-06-2.69522E-05 9.38933E-06-7.87513E-19-3.11018E-18
 -1       699 7.99990E-05-3.71766E-05-1.80165E-05 4.35642E-05-3.71596E-18 2.00022E-18
 -1       700 7.58327E-05-2.99075E-05-1.92427E-05-3.30228E-05 2.54401E-18 1.15673E-18
 -1       701 4.90785E-05-1.78362E-05-1.28822E-05 3.35087E-05-2.48640E-18 4.11287E-18
 -1       702 5.08592E-05-1.23698E-05-1.59334E-05 2.10492E-05 6.71790E-19-5.04715E-18
 -1       703 1.37533E-04-4.18850E-05-4.12836E-05-7.42894E-06 1.62678E-18-4.02947E-18
 -1       704 1.38450E-04-4.39408E-05-4.07265E-05 2.21708E-06 4.07396E-19 1.80992E-18
 -1       705 1.30229E-04-2.05524E-05-4.74716E-05-1.22525E-05 3.91329E-18-3.02086E-18
 -1       706 1.29578E-04-5.21107E-05-3.32393E-05-1.74894E-05-1.88708E-18 2.90188E-19
 -1       707 1.03475E-04-4.35333E-05-2.55102E-05-3.77629E-05-3.44615E-18-2.42961E-18
 -1       708 6.55047E-05-2.26099E-05-1.79539E-05-4.35081E-05-3.62345E-18-5.22540E-18
 -1       709 4.27944E-05-6.67993E-06-1.49984E-05-3.29306E-05-2.74255E-18-6.27127E-18
 -1       710 1.23939E-04-7.56447E-06-5.04568E-05-4.99169E-06 5.41429E-18-1.41099E-18
 -1       711 1.06536E-04-2.94327E-05-3.30530E-05 4.50653E-06 7.08633E-19-1.57697E-18
 -1       712 5.72392E-05-2.89039E-06-2.31770E-05-2.45856E-05-2.42392E-18-4.91531E-18
 -1       713 1.34222E-04-5.77867E-05-3.28720E-05 1.39599E-05-1.22338E-18-3.43146E-18
 -1       714 3.25559E-05 7.65758E-07-1.37443E-05-4.05862E-06-8.42182E-19-6.46884E-18
 -1       715 9.08378E-05-2.43744E-05-2.84089E-05-2.22826E-05-2.19210E-18-3.00312E-18
 -1       716 9.69781E-05-2.56757E-05-3.05547E-05 7.26431E-06 1.68298E-18 1.82842E-19
 -1       717 7.18874E-05-2.53463E-05-1.94971E-05 2.88793E-05 1.42069E-18-3.53046E-18
 -1       718 4.69843E-05-7.94714E-06-1.63181E-05-8.50132E-06 4.21627E-19 2.68467E-18
 -1       719 1.00404E-04-2.86327E-05-3.07515E-05 1.04095E-05 1.82490E-18 6.81152E-20
 -1       720 9.52381E-05-2.85740E-05-2.85703E-05-4.35257E-09-1.75203E-19-3.31560E-18
 -1       721 1.25742E-04-1.41428E-05-4.83117E-05 1.17088E-05 4.15814E-18 1.47533E-18
 -1       722 9.52380E-05-2.85739E-05-2.85703E-05 4.34886E-09 9.07986E-19-4.66594E-18
 -1       723 4.17251E-05 1.40459E-06-1.81196E-05-1.71770E-05-1.90632E-18-5.94980E-18
 -1       724 9.90888E-05-2.76414E-05-3.06177E-05 9.36372E-06 1.70953E-18 2.44437E-19
 -1       725 1.32159E-04-3.39242E-05-4.24042E-05 1.09550E-05 1.48584E-18 1.86428E-18
 -1       726 9.52390E-05-2.85748E-05-2.85703E-05-4.06217E-09 1.92319E-19-9.50949E-19
 -1       727 7.44528E-05-1.45448E-05-2.55690E-05-2.80448E-05-2.57297E-18-3.92452E-18
 -1       728 1.18819E-04-6.84192E-06-4.84626E-05 1.44881E-06 4.68677E-18 2.41423E-19
 -1       729 1.02504E-04-2.87541E-05-3.16062E-05 1.13491E-05 1.75935E-18-2.04627E-19
 -1       730 1.06060E-04-2.98045E-05-3.26855E-05 1.10917E-05 1.42408E-18-5.79449E-19
 -1       731 9.93007E-05-2.41019E-05-3.22286E-05-7.15794E-06 1.08768E-18-1.84342E-18
 -1       732 9.79235E-05-2.15568E-05-3.27278E-05-2.69336E-06 1.15738E-18-1.34579E-18
 -1       733 7.40388E-05-1.33406E-05-2.59943E-05-7.14347E-06-1.47912E-19 4.21064E-19
 -1       734 8.07993E-05-1.65666E-05-2.75265E-05-6.31225E-06 2.09123E-19-9.94137E-19
 -1       735 8.55730E-05-1.94598E-05-2.83343E-05-5.52432E-06-8.42024E-20-1.34378E-18
 -1       736 8.88757E-05-2.18327E-05-2.87326E-05-4.70797E-06-1.03810E-18-7.40483E-19
 -1       737 9.11131E-05-2.36718E-05-2.89032E-05-3.90316E-06-1.09737E-18-8.11254E-19
 -1       738 9.25426E-05-2.49891E-05-2.89511E-05-3.18968E-06-1.29323E-18-5.77397E-19
 -1       739 9.35378E-05-2.60108E-05-2.89400E-05-2.52515E-06-2.81343E-19 3.00851E-19
 -1       740 9.41797E-05-2.67459E-05-2.89000E-05-1.96389E-06-3.68227E-19 1.83667E-18
 -1       741 9.45884E-05-2.72709E-05-2.88503E-05-1.50262E-06 1.70928E-19 1.86316E-18
 -1       742 9.48459E-05-2.76448E-05-2.88004E-05-1.13227E-06 9.52826E-19-1.40933E-19
 -1       743 9.50064E-05-2.79112E-05-2.87550E-05-8.40312E-07 7.38842E-19-6.43106E-19
 -1       744 9.51054E-05-2.81015E-05-2.87159E-05-6.13867E-07 1.11859E-19 2.14402E-19
 -1       745 9.51634E-05-2.82322E-05-2.86848E-05-4.47830E-07-1.06695E-18-7.19928E-19
 -1       746 9.52006E-05-2.83321E-05-2.86579E-05-3.14701E-07-2.12333E-19-1.28171E-18
 -1       747 9.52225E-05-2.84042E-05-2.86364E-05-2.15577E-07-9.95135E-19-5.96269E-19
 -1       748 9.52350E-05-2.84561E-05-2.86195E-05-1.42799E-07-4.12589E-19-2.13600E-18
 -1       749 9.52418E-05-2.84935E-05-2.86064E-05-9.02730E-08-7.41268E-19-1.10845E-18
 -1       750 9.52451E-05-2.85203E-05-2.85964E-05-5.31234E-08-2.72823E-19 7.21412E-19
 -1       751 9.52463E-05-2.85392E-05-2.85888E-05-2.75113E-08-1.62818E-18 1.24456E-18
 -1       752 9.52464E-05-2.85519E-05-2.85834E-05-1.10691E-08-9.06290E-19-8.09884E-19
 -1       753 9.52458E-05-2.85611E-05-2.85792E-05 1.66869E-10 1.30223E-18-7.30227E-19
 -1       754 9.52449E-05-2.85672E-05-2.85761E-05 6.92261E-09 6.82165E-19-1.14418E-18
 -1       755 9.52439E-05-2.85712E-05-2.85740E-05 1.05732E-08 1.32726E-18 1.71753E-19
 -1       756 9.52428E-05-2.85735E-05-2.85726E-05 1.21323E-08 1.03469E-18 1.20988E-18
 -1       757 9.52418E-05-2.85747E-05-2.85716E-05 1.23385E-08 3.32290E-19 4.62976E-19
 -1       758 9.52409E-05-2.85753E-05-2.85710E-05 1.17217E-08 7.85321E-19-2.77573E-19
 -1       759 9.52402E-05-2.85753E-05-2.85706E-05 1.07094E-08-2.49846E-19 1.99658E-19
 -1       760 9.52395E-05-2.85751E-05-2.85704E-05 9.43338E-09-1.38592E-18-9.77027E-19
 -1       761 9.52389E-05-2.85748E-05-2.85704E-05 8.10065E-09-7.51838E-19-8.20298E-19
 -1       762 9.52385E-05-2.85744E-05-2.85703E-05 6.79464E-09 1.40983E-19-3.63509E-18
 -1       763 9.52382E-05-2.85741E-05-2.85703E-05 5.57075E-09 3.75493E-19-5.72817E-18
 -1       764 7.09984E-05-1.77998E-05-2.25218E-05-3.57931E-05-3.19988E-18-4.29567E-18
 -1       765 9.81834E-05-2.14565E-05-3.28783E-05 2.72910E-06 1.92466E-18-5.60168E-19
 -1       766 1.03145E-04-3.15356E-05-3.06907E-05-9.32562E-06 3.37304E-19-2.01874E-18
 -1       767 1.03819E-04-3.38545E-05-2.99844E-05-7.61477E-06 5.43568E-19-1.90806E-18
 -1       768 1.03393E-04-3.46722E-05-2.94510E-05-5.24804E-06 1.51826E-19-1.62958E-18
 -1       769 1.02231E-04-3.43339E-05-2.90995E-05-2.96416E-06 4.91912E-20-1.14269E-18
 -1       770 1.00763E-04-3.33388E-05-2.88964E-05-1.13542E-06 1.58167E-19-1.17919E-18
 -1       771 9.93214E-05-3.21316E-05-2.87960E-05 1.44257E-07-4.60523E-19-4.72811E-19
 -1       772 9.80859E-05-3.09883E-05-2.87564E-05 9.31542E-07-3.89273E-19-5.32236E-19
 -1       773 9.71207E-05-3.00455E-05-2.87467E-05 1.33512E-06 3.05094E-20-6.11471E-19
 -1       774 9.64186E-05-2.93422E-05-2.87471E-05 1.46978E-06-2.22317E-19-4.22654E-19
 -1       775 9.59373E-05-2.88609E-05-2.87471E-05 1.43288E-06 1.18235E-19 5.27543E-19
 -1       776 9.56248E-05-2.85600E-05-2.87421E-05 1.29819E-06-4.20018E-19 1.01219E-18
 -1       777 9.54328E-05-2.83929E-05-2.87314E-05 1.11748E-06 8.33537E-20 1.07410E-18
 -1       778 9.53219E-05-2.83175E-05-2.87161E-05 9.24714E-07 2.99965E-19 6.62287E-19
 -1       779 9.52627E-05-2.83003E-05-2.86981E-05 7.40405E-07-6.65252E-20 5.68095E-19
 -1       780 9.52347E-05-2.83167E-05-2.86791E-05 5.75604E-07-1.16243E-18 9.96066E-19
 -1       781 9.52243E-05-2.83498E-05-2.86605E-05 4.35087E-07-5.21015E-19 2.86334E-19
 -1       782 9.52229E-05-2.83888E-05-2.86432E-05 3.19634E-07-7.52091E-20 3.63617E-19
 -1       783 9.52256E-05-2.84272E-05-2.86279E-05 2.27676E-07 9.39086E-20 1.84441E-19
 -1       784 9.52296E-05-2.84618E-05-2.86148E-05 1.56448E-07 5.91907E-19 8.40806E-19
 -1       785 9.52333E-05-2.84909E-05-2.86039E-05 1.02729E-07-1.02346E-18-1.70601E-19
 -1       786 9.52363E-05-2.85145E-05-2.85951E-05 6.32943E-08-1.05283E-18 4.35304E-19
 -1       787 9.52384E-05-2.85327E-05-2.85882E-05 3.51785E-08-6.43569E-19 1.11499E-18
 -1       788 9.52397E-05-2.85465E-05-2.85828E-05 1.58010E-08 7.81742E-19 2.30577E-19
 -1       789 9.52404E-05-2.85565E-05-2.85788E-05 2.99960E-09 7.52956E-19 3.87609E-19
 -1       790 9.52406E-05-2.85635E-05-2.85759E-05-4.98244E-09 4.68806E-19 4.57548E-19
 -1       791 9.52405E-05-2.85682E-05-2.85738E-05-9.53049E-09-7.36629E-19 1.38173E-18
 -1       792 9.52402E-05-2.85713E-05-2.85724E-05-1.17096E-08-7.97522E-20 2.65531E-18
 -1       793 9.52398E-05-2.85731E-05-2.85714E-05-1.23192E-08 3.50225E-19 8.53686E-19
 -1       794 9.52393E-05-2.85741E-05-2.85708E-05-1.19442E-08 2.13546E-19-1.29591E-18
 -1       795 9.52389E-05-2.85744E-05-2.85705E-05-1.10003E-08 2.92037E-19-1.66610E-18
 -1       796 9.52385E-05-2.85745E-05-2.85703E-05-9.77170E-09-8.16930E-21-1.96714E-19
 -1       797 9.52382E-05-2.85743E-05-2.85703E-05-8.44007E-09 7.26409E-19 1.02256E-19
 -1       798 9.52380E-05-2.85740E-05-2.85703E-05-7.12200E-09 1.23728E-18-5.51465E-20
 -1       799 9.52378E-05-2.85738E-05-2.85703E-05-5.86439E-09-5.19940E-19-1.09018E-19
 -1       800 9.52380E-05-2.85739E-05-2.85703E-05-5.08889E-09-1.67952E-18-1.11535E-18
 -1       801 9.52412E-05-2.85765E-05-2.85706E-05 3.40654E-09 1.95395E-19 5.76377E-19
 -1       802 9.52422E-05-2.85772E-05-2.85707E-05-3.14151E-12-1.79452E-18 2.43199E-18
 -1       803 9.95549E-05-4.35833E-05-2.38757E-05 3.31747E-05-2.70837E-18-8.27505E-19
 -1       804 1.23889E-04-3.02555E-05-4.03040E-05-1.29436E-05 2.05997E-18-3.10285E-18
 -1       805 1.01419E-04-2.79480E-05-3.14881E-05-9.42217E-06 6.77294E-19-2.29264E-18
 -1       806 4.98935E-05-1.09797E-05-1.63708E-05 1.92841E-05-1.24345E-18 3.00427E-18
 -1       807 6.48101E-05-1.03576E-05-2.32550E-05-8.40831E-06-2.64552E-19 1.37332E-18
 -1       808 9.52401E-05-2.85756E-05-2.85705E-05 4.66378E-09 9.52596E-19 1.14531E-18
 -1       809 6.99663E-05-2.46964E-05-1.91652E-05 3.34342E-05-2.62000E-18 2.51950E-18
 -1       810 9.52419E-05-2.85770E-05-2.85707E-05 1.79572E-09-6.99766E-19 1.81115E-18
 -1       811 1.15658E-04-1.52479E-05-4.32724E-05-9.58243E-06 3.32783E-18-2.09546E-18
 -1       812 1.14969E-04-4.45093E-05-3.02382E-05-2.06956E-05-2.42949E-18-8.56708E-19
 -1       813 1.12971E-04-3.75399E-05-3.23212E-05-5.34413E-06-8.31737E-19-1.04860E-18
 -1       814 1.23415E-04-5.41285E-05-2.96815E-05 1.70722E-05-1.43765E-18-2.06062E-18
 -1       815 1.30930E-04-4.91608E-05-3.51394E-05-1.48693E-06-1.72063E-19-3.35225E-18
 -1       816 4.70041E-05-4.12175E-07-1.95352E-05 3.91944E-06-7.23631E-19-5.15679E-18
 -1       817 1.28859E-04-4.54608E-05-3.57724E-05-1.19988E-06-5.63518E-19 1.04677E-18
 -1       818 1.00040E-04-2.37124E-05-3.27136E-05 7.40132E-06 2.10157E-18-1.50461E-19
 -1       819 1.09440E-04-3.17818E-05-3.32951E-05 8.72911E-06 1.11206E-18-7.61112E-19
 -1       820 5.20011E-05-7.64218E-06-1.88020E-05 3.82289E-06-7.04195E-19 2.51582E-18
 -1       821 1.23395E-04-2.37994E-05-4.29500E-05 1.38321E-05 2.60386E-18 1.61890E-18
 -1       822 9.34746E-05-3.10037E-05-2.66823E-05-2.98320E-05-3.09727E-18-2.97643E-18
 -1       823 9.52412E-05-2.85764E-05-2.85706E-05-3.42684E-09 2.16655E-19 3.35524E-19
 -1       824 1.11431E-04-1.23761E-05-4.26927E-05-4.56090E-06 2.95922E-18-1.05380E-18
 -1       825 1.16037E-04-1.03200E-05-4.55833E-05 7.59986E-06 3.99403E-18 7.43847E-19
 -1       826 9.52419E-05-2.85770E-05-2.85707E-05-1.81247E-09-1.24877E-18 3.55648E-18
 -1       827 1.26415E-04-3.94049E-05-3.74188E-05 7.28929E-06 3.30531E-19 6.55881E-19
 -1       828 5.79733E-05-1.36160E-06-2.41619E-05 3.23764E-06-9.56582E-19-4.02030E-18
 -1       829 1.02383E-04-2.67865E-05-3.23991E-05 1.02763E-05 1.58795E-18-3.07810E-20
 -1       830 9.52402E-05-2.85757E-05-2.85705E-05-4.43935E-09 8.16935E-19-1.63922E-18
 -1       831 1.12334E-04-3.46549E-05-3.32949E-05 3.53023E-06 2.41835E-19-8.72641E-19
 -1       832 1.03979E-04-2.91253E-05-3.20840E-05 1.13616E-05 1.58580E-18-2.37648E-19
 -1       833 1.07449E-04-3.17311E-05-3.24590E-05-1.02543E-05 4.12399E-19-1.94010E-18
 -1       834 1.12133E-04-2.35377E-05-3.80500E-05-1.15524E-05 1.74409E-18-1.88996E-18
 -1       835 9.52417E-05-2.85766E-05-2.85708E-05 4.77827E-09-9.56217E-19 9.84038E-19
 -1       836 8.11689E-05-1.75283E-05-2.72747E-05-7.96631E-07-6.28015E-19 4.18752E-19
 -1       837 8.54441E-05-2.00533E-05-2.80254E-05-1.65630E-06-4.48802E-19-8.00130E-19
 -1       838 8.84788E-05-2.21220E-05-2.84392E-05-1.99021E-06-1.83809E-19-6.14243E-19
 -1       839 9.05254E-05-2.36828E-05-2.86468E-05-2.00060E-06-8.87657E-19-1.08360E-19
 -1       840 9.20384E-05-2.49537E-05-2.87507E-05-1.83325E-06-5.79161E-20 1.17172E-18
 -1       841 9.30803E-05-2.59104E-05-2.87871E-05-1.58361E-06-2.47464E-19 1.07263E-18
 -1       842 9.37925E-05-2.66222E-05-2.87873E-05-1.31150E-06 8.42240E-20 4.53613E-19
 -1       843 9.42766E-05-2.71480E-05-2.87694E-05-1.05167E-06-8.47083E-19 1.44590E-18
 -1       844 9.46042E-05-2.75352E-05-2.87439E-05-8.21187E-07-1.17843E-19 5.29825E-19
 -1       845 9.48251E-05-2.78197E-05-2.87166E-05-6.26412E-07 8.85610E-19-1.99614E-18
 -1       846 9.49676E-05-2.80200E-05-2.86918E-05-4.74034E-07-8.92182E-19-1.76948E-18
 -1       847 9.50692E-05-2.81764E-05-2.86683E-05-3.45437E-07-1.07139E-18-4.63539E-19
 -1       848 9.51367E-05-2.82912E-05-2.86481E-05-2.45521E-07 4.37541E-19-4.92579E-19
 -1       849 9.51812E-05-2.83754E-05-2.86311E-05-1.69410E-07-1.15577E-18 7.51566E-19
 -1       850 9.52101E-05-2.84369E-05-2.86171E-05-1.12637E-07 6.54794E-21 9.15533E-19
 -1       851 9.52284E-05-2.84814E-05-2.86059E-05-7.12018E-08-2.26933E-19 3.24855E-19
 -1       852 9.52395E-05-2.85133E-05-2.85969E-05-4.17035E-08-9.11384E-19 1.00892E-18
 -1       853 9.52456E-05-2.85349E-05-2.85903E-05-2.20788E-08-2.28926E-18 5.19178E-19
 -1       854 9.52488E-05-2.85509E-05-2.85848E-05-8.07334E-09-2.13115E-19 8.49960E-19
 -1       855 9.52500E-05-2.85617E-05-2.85807E-05 8.83297E-10 8.83666E-20 2.36318E-19
 -1       856 9.52498E-05-2.85687E-05-2.85776E-05 6.24421E-09 1.69845E-18-1.05978E-18
 -1       857 9.52489E-05-2.85731E-05-2.85753E-05 9.10236E-09 7.47836E-19-1.23829E-18
 -1       858 9.52476E-05-2.85756E-05-2.85737E-05 1.02748E-08 1.43992E-18-8.77291E-19
 -1       859 9.52461E-05-2.85768E-05-2.85726E-05 1.03603E-08 9.86151E-20 9.32013E-19
 -1       860 9.52447E-05-2.85771E-05-2.85718E-05 9.83104E-09-9.14893E-20 8.76464E-19
 -1       861 9.52433E-05-2.85770E-05-2.85713E-05 8.91634E-09-2.06934E-18-4.48675E-19
 -1       862 9.52420E-05-2.85765E-05-2.85709E-05 7.83150E-09-1.45547E-18-7.41850E-20
 -1       863 9.52409E-05-2.85760E-05-2.85707E-05 6.70825E-09-1.11476E-18 4.07391E-19
 -1       864 8.65703E-05-3.13711E-05-2.35764E-05 2.78391E-05-3.10834E-18 4.31808E-19
 -1       865 1.05517E-04-3.68855E-05-2.94152E-05-2.17627E-06-2.90606E-19-1.09654E-18
 -1       866 1.07541E-04-3.72599E-05-3.01176E-05-4.99890E-06 3.05177E-19-1.08315E-18
 -1       867 1.08369E-04-3.56790E-05-3.11540E-05-8.12559E-06 3.66912E-19-1.77648E-18
 -1       868 1.03078E-04-3.54354E-05-2.89898E-05-6.78033E-08-1.18800E-19-1.22902E-18
 -1       869 1.00776E-04-3.36558E-05-2.87657E-05 1.23454E-06-8.01034E-19-5.61240E-19
 -1       870 9.88668E-05-3.19734E-05-2.86686E-05 1.90454E-06-8.22567E-19-3.78035E-19
 -1       871 9.74252E-05-3.05929E-05-2.86424E-05 2.13171E-06 2.01914E-20-7.59383E-20
 -1       872 9.64194E-05-2.95715E-05-2.86491E-05 2.08620E-06-3.56290E-19-1.33772E-19
 -1       873 9.57662E-05-2.88790E-05-2.86659E-05 1.89323E-06-6.00955E-19 6.48840E-20
 -1       874 9.53740E-05-2.84516E-05-2.86810E-05 1.63473E-06-5.27605E-19 3.23630E-19
 -1       875 9.51620E-05-2.82197E-05-2.86896E-05 1.36117E-06-6.93395E-20 2.60246E-19
 -1       876 9.50664E-05-2.81215E-05-2.86907E-05 1.10111E-06 5.87030E-19 4.05721E-19
 -1       877 9.50405E-05-2.81077E-05-2.86855E-05 8.69040E-07-5.08038E-20 3.26355E-19
 -1       878 9.50524E-05-2.81421E-05-2.86758E-05 6.70459E-07-8.97219E-19 2.75209E-19
 -1       879 9.50818E-05-2.82002E-05-2.86636E-05 5.05920E-07-7.55814E-19 1.47328E-19
 -1       880 9.51164E-05-2.82659E-05-2.86502E-05 3.73158E-07-1.34202E-18 1.13424E-18
 -1       881 9.51494E-05-2.83299E-05-2.86370E-05 2.68475E-07 2.53655E-20 2.86736E-18
 -1       882 9.51777E-05-2.83870E-05-2.86246E-05 1.87682E-07 7.36595E-19 1.48171E-18
 -1       883 9.52003E-05-2.84353E-05-2.86136E-05 1.26634E-07 3.51051E-19 1.63973E-18
 -1       884 9.52172E-05-2.84743E-05-2.86041E-05 8.15103E-08-1.14017E-18 1.51616E-19
 -1       885 9.52292E-05-2.85048E-05-2.85962E-05 4.89402E-08-1.61370E-18 3.74077E-19
 -1       886 9.52372E-05-2.85279E-05-2.85897E-05 2.60643E-08 5.14704E-19-1.20134E-19
 -1       887 9.52421E-05-2.85448E-05-2.85846E-05 1.05341E-08 1.09758E-19 3.80445E-19
 -1       888 9.52448E-05-2.85568E-05-2.85806E-05 4.39777E-10 8.68662E-19 2.51404E-19
 -1       889 9.52460E-05-2.85649E-05-2.85776E-05-5.72460E-09-6.20763E-19 1.45734E-18
 -1       890 9.52461E-05-2.85703E-05-2.85753E-05-9.12058E-09-1.28622E-18 1.16398E-18
 -1       891 9.52455E-05-2.85736E-05-2.85737E-05-1.06292E-08 4.46902E-19-3.59790E-19
 -1       892 9.52446E-05-2.85753E-05-2.85725E-05-1.09036E-08 7.05134E-19-1.32731E-19
 -1       893 9.52435E-05-2.85761E-05-2.85717E-05-1.04174E-08 2.95930E-19 3.97038E-19
 -1       894 9.52424E-05-2.85763E-05-2.85712E-05-9.50365E-09-1.58791E-19-9.93708E-19
 -1       895 9.52414E-05-2.85761E-05-2.85709E-05-8.38858E-09-3.53331E-19-1.01378E-18
 -1       896 9.52405E-05-2.85757E-05-2.85706E-05-7.20861E-09 6.54872E-19-1.41015E-19
 -1       897 9.52397E-05-2.85752E-05-2.85705E-05-6.06116E-09 6.34421E-19 3.49974E-19
 -1       898 1.02170E-04-2.06345E-05-3.49664E-05-6.04417E-06 1.47075E-18-1.80795E-18
 -1       899 1.10422E-04-4.65150E-05-2.73526E-05 2.07343E-05-2.62545E-18-1.13949E-18
 -1       900 6.67395E-05-1.13513E-05-2.36815E-05 3.40463E-06-8.71420E-19 1.32119E-18
 -1       901 1.07953E-04-2.94934E-05-3.36201E-05 1.18589E-05 1.44713E-18-1.84462E-19
 -1       902 1.22517E-04-4.89859E-05-3.15128E-05 3.76319E-06-6.81347E-19-2.78701E-18
 -1       903 7.51900E-05-1.46031E-05-2.59569E-05 8.53223E-07-9.55865E-19 8.46509E-19
 -1       904 9.52391E-05-2.85748E-05-2.85704E-05-4.95193E-09-1.33902E-19-6.79709E-20
 -1       905 6.48859E-05-1.59292E-05-2.08060E-05 2.12915E-05-1.69980E-18 2.03785E-18
 -1       906 1.01121E-04-1.83711E-05-3.54686E-05 3.63376E-07 2.09877E-18-1.03464E-18
 -1       907 1.05014E-04-2.60926E-05-3.38271E-05-9.91458E-06 9.83260E-19-1.98683E-18
 -1       908 1.21703E-04-3.92084E-05-3.54082E-05-9.41447E-06 3.64357E-19-2.67722E-18
 -1       909 1.09583E-04-3.14170E-05-3.34852E-05 1.09740E-05 1.26552E-18-5.39950E-19
 -1       910 1.21394E-04-3.19205E-05-3.84544E-05 1.22316E-05 1.64014E-18 9.64433E-19
 -1       911 9.52435E-05-2.85779E-05-2.85710E-05 1.04891E-09-1.69904E-18 3.57522E-18
 -1       912 9.52429E-05-2.85774E-05-2.85709E-05-3.11174E-09 8.51503E-19 8.18911E-19
 -1       913 1.08426E-04-1.19540E-05-4.14895E-05 1.02882E-06 2.88873E-18-5.55243E-19
 -1       914 1.15159E-04-1.77315E-05-4.19277E-05 1.20484E-05 3.10258E-18 9.85242E-19
 -1       915 9.52435E-05-2.85778E-05-2.85710E-05-1.09053E-09-3.86953E-19 2.01488E-18
 -1       916 1.05717E-04-2.53535E-05-3.44414E-05 1.10220E-05 1.82434E-18-3.97566E-19
 -1       917 9.52418E-05-2.85767E-05-2.85708E-05-4.54702E-09 1.51364E-18-1.34720E-18
 -1       918 9.52429E-05-2.85775E-05-2.85709E-05 3.07325E-09-1.35258E-18 7.86808E-19
 -1       919 1.19210E-04-3.82009E-05-3.47483E-05 5.75302E-06 3.92803E-20-1.88180E-19
 -1       920 1.02859E-04-2.05189E-05-3.52965E-05 6.93354E-06 2.22143E-18-5.56110E-19
 -1       921 7.97485E-05-1.81184E-05-2.64074E-05 5.68922E-06-7.06086E-19 7.63924E-19
 -1       922 1.12214E-04-3.08394E-05-3.48993E-05-1.12021E-05 9.11444E-19-2.48106E-18
 -1       923 8.68932E-05-2.16019E-05-2.79822E-05 1.01850E-06-3.97579E-19 1.21653E-18
 -1       924 8.91099E-05-2.30225E-05-2.83235E-05 3.90133E-08-8.58400E-19 1.05037E-18
 -1       925 9.08492E-05-2.42723E-05-2.85330E-05-5.04270E-07 6.01136E-20 8.32828E-19
 -1       926 9.21212E-05-2.52820E-05-2.86454E-05-7.33775E-07 2.46714E-19 1.03625E-18
 -1       927 9.30415E-05-2.60773E-05-2.86990E-05-7.80093E-07-9.82093E-19 8.32615E-19
 -1       928 9.37020E-05-2.66941E-05-2.87177E-05-7.27572E-07-5.35023E-19-4.74528E-20
 -1       929 9.41734E-05-2.71682E-05-2.87166E-05-6.29744E-07-7.33512E-19-1.67542E-19
 -1       930 9.45077E-05-2.75291E-05-2.87051E-05-5.18255E-07-9.34298E-19-6.69334E-21
 -1       931 9.47343E-05-2.77914E-05-2.86898E-05-4.14963E-07-1.90114E-19-2.04770E-19
 -1       932 9.49036E-05-2.80017E-05-2.86723E-05-3.17703E-07-8.21595E-19-8.13501E-19
 -1       933 9.50218E-05-2.81598E-05-2.86552E-05-2.35908E-07-1.01490E-18-4.43640E-19
 -1       934 9.51036E-05-2.82781E-05-2.86395E-05-1.69733E-07-8.32207E-19-1.37118E-18
 -1       935 9.51595E-05-2.83661E-05-2.86257E-05-1.17957E-07-5.94066E-19-6.85706E-19
 -1       936 9.51970E-05-2.84310E-05-2.86140E-05-7.86124E-08 1.87386E-19 1.03314E-19
 -1       937 9.52216E-05-2.84782E-05-2.86043E-05-4.96042E-08 1.21652E-19-6.07221E-19
 -1       938 9.52364E-05-2.85108E-05-2.85967E-05-2.95901E-08-2.52779E-18-8.58128E-19
 -1       939 9.52458E-05-2.85352E-05-2.85903E-05-1.47786E-08-1.14784E-18 9.70041E-19
 -1       940 9.52508E-05-2.85520E-05-2.85852E-05-4.86667E-09 3.89178E-19 9.66033E-19
 -1       941 9.52529E-05-2.85633E-05-2.85812E-05 1.45467E-09-1.90549E-19 1.18097E-18
 -1       942 9.52531E-05-2.85706E-05-2.85782E-05 5.19554E-09 1.92938E-18 3.95183E-19
 -1       943 9.52522E-05-2.85750E-05-2.85759E-05 7.14330E-09 1.50381E-18 2.47497E-19
 -1       944 9.52506E-05-2.85773E-05-2.85743E-05 7.88012E-09 3.92645E-19 3.65669E-19
 -1       945 9.52489E-05-2.85783E-05-2.85731E-05 7.86813E-09-2.22860E-19 3.45591E-19
 -1       946 9.52470E-05-2.85785E-05-2.85722E-05 7.40033E-09-1.61711E-18 7.42987E-19
 -1       947 9.52451E-05-2.85781E-05-2.85716E-05 6.67554E-09-1.50701E-18 1.27747E-18
 -1       948 9.52435E-05-2.85775E-05-2.85711E-05 5.83686E-09-1.21464E-18 5.40365E-19
 -1       949 1.02266E-04-3.52939E-05-2.86998E-05 3.22366E-06-1.05509E-18-5.44632E-19
 -1       950 1.06791E-04-1.59547E-05-3.90436E-05-5.23623E-06 2.35609E-18-7.19243E-19
 -1       951 1.05668E-04-3.78189E-05-2.90708E-05 2.00276E-06-4.97988E-19-7.74375E-19
 -1       952 1.12650E-04-4.04838E-05-3.09699E-05-4.22134E-06-2.37501E-19-1.81400E-18
 -1       953 9.95535E-05-3.29509E-05-2.85438E-05 3.57031E-06-6.34391E-19-2.98730E-19
 -1       954 9.75847E-05-3.10677E-05-2.85072E-05 3.41533E-06-5.69172E-19-9.65408E-19
 -1       955 9.62688E-05-2.97061E-05-2.85268E-05 3.01325E-06-6.60515E-19-2.98978E-19
 -1       956 9.54573E-05-2.88033E-05-2.85660E-05 2.53201E-06-4.26347E-19 1.69738E-19
 -1       957 9.50051E-05-2.82592E-05-2.86055E-05 2.05735E-06-5.94429E-19-3.45767E-21
 -1       958 9.47934E-05-2.79755E-05-2.86362E-05 1.63177E-06-1.91535E-19 3.25237E-20
 -1       959 9.47302E-05-2.78662E-05-2.86560E-05 1.26956E-06-5.67415E-19 2.00056E-19
 -1       960 9.47524E-05-2.78664E-05-2.86654E-05 9.72099E-07-1.06378E-19 2.72906E-19
 -1       961 9.48162E-05-2.79273E-05-2.86667E-05 7.33122E-07 1.49514E-20 7.76361E-19
 -1       962 9.48955E-05-2.80175E-05-2.86620E-05 5.44469E-07-4.43045E-19-8.93820E-20
 -1       963 9.49744E-05-2.81159E-05-2.86537E-05 3.97892E-07-1.84188E-18 3.02444E-19
 -1       964 9.50447E-05-2.82102E-05-2.86434E-05 2.85471E-07-1.15600E-18-1.69677E-19
 -1       965 9.51032E-05-2.82941E-05-2.86325E-05 2.00366E-07-1.52703E-19 7.65847E-19
 -1       966 9.51494E-05-2.83650E-05-2.86219E-05 1.36822E-07 7.55509E-19 1.46852E-18
 -1       967 9.51842E-05-2.84225E-05-2.86122E-05 9.01092E-08-5.10383E-20 2.40827E-18
 -1       968 9.52094E-05-2.84677E-05-2.86036E-05 5.63917E-08-1.28776E-18 2.10307E-18
 -1       969 9.52268E-05-2.85021E-05-2.85963E-05 3.25281E-08 8.26811E-20 4.97016E-19
 -1       970 9.52382E-05-2.85276E-05-2.85902E-05 1.61003E-08-4.75787E-20 1.15576E-19
 -1       971 9.52450E-05-2.85459E-05-2.85853E-05 5.16993E-09 3.16261E-19 7.96671E-20
 -1       972 9.52487E-05-2.85587E-05-2.85814E-05-1.77574E-09-1.21824E-18-3.02453E-19
 -1       973 9.52501E-05-2.85672E-05-2.85784E-05-5.87937E-09-1.35525E-18-1.16901E-19
 -1       974 9.52501E-05-2.85725E-05-2.85761E-05-8.01342E-09 7.16973E-19-3.59944E-19
 -1       975 9.52492E-05-2.85757E-05-2.85744E-05-8.82667E-09 1.44070E-18-1.72497E-18
 -1       976 9.52479E-05-2.85772E-05-2.85731E-05-8.79343E-09 7.85192E-19-2.64188E-18
 -1       977 9.52463E-05-2.85778E-05-2.85722E-05-8.25327E-09 4.20420E-19-3.11020E-18
 -1       978 9.52447E-05-2.85777E-05-2.85716E-05-7.44034E-09-1.38820E-18-9.27631E-19
 -1       979 9.52432E-05-2.85772E-05-2.85711E-05-6.51670E-09-4.55276E-19-6.04623E-19
 -1       980 9.78975E-05-3.63073E-05-2.63887E-05 1.96310E-05-2.85144E-18-9.94556E-19
 -1       981 7.45956E-05-1.65737E-05-2.48537E-05 1.01901E-05-1.62442E-18 3.96275E-19
 -1       982 1.13623E-04-4.53329E-05-2.92798E-05 8.91360E-06-1.43442E-18-1.67205E-18
 -1       983 1.09437E-04-3.98959E-05-2.98094E-05-5.40374E-07-1.17428E-19-1.13912E-18
 -1       984 1.17291E-04-4.19995E-05-3.22306E-05-4.84378E-06 5.71350E-20-1.86357E-18
 -1       985 8.38108E-05-1.99109E-05-2.73858E-05 2.79455E-06-6.28008E-19 1.49798E-18
 -1       986 7.80116E-05-2.18295E-05-2.40479E-05 1.89582E-05-2.71077E-18 3.16129E-19
 -1       987 1.16844E-04-3.42261E-05-3.54548E-05 1.04660E-05 8.74154E-19 3.29694E-19
 -1       988 1.13886E-04-3.76508E-05-3.26782E-05-8.38395E-06 2.68436E-19-2.17906E-18
 -1       989 1.13240E-04-3.39211E-05-3.40256E-05 9.24741E-06 8.33779E-19-1.72014E-19
 -1       990 1.04682E-04-3.93424E-05-2.79972E-05 1.21189E-05-2.12511E-18 1.57705E-19
 -1       991 8.95226E-05-2.86760E-05-2.60707E-05 1.70725E-05-2.67979E-18-3.66451E-19
 -1       992 1.15486E-04-2.62505E-05-3.83235E-05 1.32612E-05 2.27046E-18 4.65814E-19
 -1       993 9.52453E-05-2.85787E-05-2.85714E-05-4.29641E-11-1.01409E-18 1.52136E-18
 -1       994 9.52449E-05-2.85785E-05-2.85713E-05 2.37901E-09-2.14393E-18 2.72273E-18
 -1       995 1.12594E-04-2.95063E-05-3.56303E-05 1.26444E-05 1.50855E-18 4.16117E-19
 -1       996 9.52449E-05-2.85784E-05-2.85713E-05-2.45673E-09 6.45332E-19 1.98699E-18
 -1       997 1.07733E-04-1.84835E-05-3.82841E-05 9.60918E-06 2.75343E-18-7.21401E-20
 -1       998 9.03498E-05-2.42468E-05-2.83292E-05 1.26736E-06-2.49802E-19-5.90710E-20
 -1       999 9.15687E-05-2.50656E-05-2.85012E-05 4.85878E-07-3.75413E-19-1.46324E-19
 -1      1000 9.25225E-05-2.57863E-05-2.86014E-05 4.94372E-08-1.21793E-18-1.21008E-18
 -1      1001 9.32514E-05-2.63896E-05-2.86552E-05-1.72749E-07-9.68402E-19-1.68582E-19
 -1      1002 9.38027E-05-2.68855E-05-2.86788E-05-2.62934E-07-1.02294E-18-3.08877E-19
 -1      1003 9.42123E-05-2.72816E-05-2.86847E-05-2.79297E-07-6.18635E-19-4.95667E-19
 -1      1004 9.45036E-05-2.75825E-05-2.86806E-05-2.58142E-07-3.89141E-19-1.39834E-18
 -1      1005 9.47303E-05-2.78325E-05-2.86706E-05-2.19157E-07-1.23082E-18-1.58950E-18
 -1      1006 9.48948E-05-2.80263E-05-2.86580E-05-1.75672E-07-5.98396E-19-1.70304E-18
 -1      1007 9.50130E-05-2.81752E-05-2.86448E-05-1.34401E-07-8.66108E-19-1.10174E-18
 -1      1008 9.50967E-05-2.82884E-05-2.86322E-05-9.85934E-08 1.34315E-19 2.10218E-19
 -1      1009 9.51551E-05-2.83736E-05-2.86207E-05-6.93243E-08 4.01039E-19-3.03692E-19
 -1      1010 9.51949E-05-2.84369E-05-2.86106E-05-4.64675E-08-7.42366E-19-3.24260E-19
 -1      1011 9.52199E-05-2.84810E-05-2.86024E-05-2.99942E-08-7.71536E-19 1.15575E-18
 -1      1012 9.52371E-05-2.85150E-05-2.85952E-05-1.72624E-08-6.39053E-19 1.94889E-18
 -1      1013 9.52473E-05-2.85387E-05-2.85894E-05-8.35014E-09-7.72533E-19 1.45385E-18
 -1      1014 9.52527E-05-2.85551E-05-2.85847E-05-2.37171E-09 3.47424E-19 1.12713E-18
 -1      1015 9.52549E-05-2.85659E-05-2.85810E-05 1.41261E-09 3.58913E-19 1.78183E-18
 -1      1016 9.52551E-05-2.85727E-05-2.85782E-05 3.62027E-09 1.35527E-18 9.16786E-19
 -1      1017 9.52540E-05-2.85767E-05-2.85760E-05 4.74569E-09 1.07946E-18-3.23835E-19
 -1      1018 9.52522E-05-2.85786E-05-2.85744E-05 5.10912E-09 1.05663E-18 5.45250E-19
 -1      1019 9.52502E-05-2.85794E-05-2.85732E-05 5.06355E-09 3.91624E-19 1.12931E-18
 -1      1020 9.52480E-05-2.85793E-05-2.85723E-05 4.72088E-09-9.42163E-19 3.18883E-18
 -1      1021 9.52460E-05-2.85788E-05-2.85717E-05 4.24223E-09-1.70235E-18 3.08550E-18
 -1      1022 9.72869E-05-3.12469E-05-2.83030E-05 5.27594E-06-4.81731E-19-7.21400E-19
 -1      1023 9.97490E-05-3.36581E-05-2.83218E-05 6.06392E-06-7.32749E-19-4.99827E-19
 -1      1024 9.48635E-05-2.85105E-05-2.84370E-05 3.36157E-06-5.79050E-19-5.45045E-19
 -1      1025 9.44229E-05-2.78958E-05-2.85119E-05 2.56388E-06-1.18567E-19-5.51890E-19
 -1      1026 9.42754E-05-2.76085E-05-2.85715E-05 1.91936E-06-3.48309E-19-2.48648E-19
 -1      1027 9.42864E-05-2.75201E-05-2.86139E-05 1.42007E-06-4.09377E-19 1.75601E-19
 -1      1028 9.43888E-05-2.75618E-05-2.86402E-05 1.03742E-06-1.40097E-19 4.93882E-19
 -1      1029 9.45252E-05-2.76666E-05-2.86538E-05 7.51823E-07-4.92311E-19 4.94446E-19
 -1      1030 9.46694E-05-2.78017E-05-2.86577E-05 5.39572E-07-1.14673E-19 1.63640E-18
 -1      1031 9.48027E-05-2.79415E-05-2.86549E-05 3.83838E-07-9.13527E-19 1.96734E-18
 -1      1032 9.49174E-05-2.80721E-05-2.86480E-05 2.69911E-07-1.42184E-18 2.62343E-19
 -1      1033 9.50112E-05-2.81870E-05-2.86390E-05 1.87013E-07-1.26961E-18 7.47223E-19
 -1      1034 9.50848E-05-2.82835E-05-2.86292E-05 1.27051E-07-2.66046E-19 9.38916E-19
 -1      1035 9.51404E-05-2.83618E-05-2.86195E-05 8.39797E-08-2.56065E-19 2.14044E-18
 -1      1036 9.51812E-05-2.84236E-05-2.86104E-05 5.33384E-08-7.61042E-19 2.23882E-18
 -1      1037 9.52097E-05-2.84706E-05-2.86025E-05 3.20191E-08-5.00673E-19 1.87177E-18
 -1      1038 9.52291E-05-2.85060E-05-2.85956E-05 1.72202E-08 1.06581E-18 9.52687E-19
 -1      1039 9.52413E-05-2.85316E-05-2.85899E-05 7.34787E-09 1.85160E-19 6.90142E-19
 -1      1040 9.52484E-05-2.85497E-05-2.85852E-05 9.43810E-10-6.41181E-19 1.21364E-18
 -1      1041 9.52520E-05-2.85620E-05-2.85815E-05-2.96900E-09-1.83954E-18 1.88616E-18
 -1      1042 9.52532E-05-2.85700E-05-2.85785E-05-5.15214E-09 9.89217E-19 1.14619E-18
 -1      1043 9.52528E-05-2.85748E-05-2.85763E-05-6.17077E-09 2.64437E-18-5.23292E-19
 -1      1044 9.52515E-05-2.85775E-05-2.85746E-05-6.41839E-09 1.87862E-18-6.28295E-19
 -1      1045 9.52498E-05-2.85787E-05-2.85733E-05-6.18700E-09-2.70247E-19-2.17666E-18
 -1      1046 9.52478E-05-2.85789E-05-2.85724E-05-5.69691E-09-1.76483E-18-1.42428E-18
 -1      1047 9.52459E-05-2.85785E-05-2.85717E-05-5.06405E-09-1.53166E-18-1.23845E-18
 -1      1048 9.52436E-05-2.85776E-05-2.85711E-05-4.63712E-09 5.67889E-19-2.71853E-18
 -1      1049 9.57440E-05-2.95704E-05-2.83594E-05 4.29082E-06-7.66707E-19-5.32915E-19
 -1      1050 1.03332E-04-3.68431E-05-2.85088E-05 6.39548E-06-8.67976E-19-1.85906E-19
 -1      1051 8.49505E-05-2.19874E-05-2.69850E-05 7.58202E-06 1.81868E-19-1.01563E-18
 -1      1052 8.22557E-05-2.18180E-05-2.58944E-05 1.24243E-05-1.39690E-18-5.96986E-19
 -1      1053 8.89024E-05-2.34122E-05-2.80673E-05 2.48799E-06-7.38268E-19 2.33145E-19
 -1      1054 8.70633E-05-2.25755E-05-2.76382E-05 4.50337E-06-2.40370E-20-6.02878E-20
 -1      1055 9.52469E-05-2.85793E-05-2.85719E-05-1.46896E-09-1.62781E-18 9.42822E-19
 -1      1056 9.73880E-05-3.35593E-05-2.73489E-05 1.31212E-05-1.08776E-18 8.37603E-20
 -1      1057 9.52470E-05-2.85793E-05-2.85719E-05 1.31568E-09-2.66943E-18 1.03378E-18
 -1      1058 1.06404E-04-3.93088E-05-2.87463E-05 6.49789E-06-1.12621E-18-4.09120E-19
 -1      1059 9.24047E-05-2.58727E-05-2.85139E-05 1.07008E-06-5.80258E-19 1.58060E-19
 -1      1060 9.30557E-05-2.63399E-05-2.85947E-05 5.47949E-07-5.96425E-19-5.28278E-20
 -1      1061 9.35834E-05-2.67598E-05-2.86382E-05 2.52647E-07-7.38293E-19 2.78849E-19
 -1      1062 9.39969E-05-2.71251E-05-2.86593E-05 8.34280E-08-1.15669E-18-2.09890E-19
 -1      1063 9.43173E-05-2.74292E-05-2.86664E-05-4.04319E-09-5.73009E-19-7.07151E-19
 -1      1064 9.45777E-05-2.76938E-05-2.86646E-05-4.63497E-08-3.87458E-19 3.37530E-20
 -1      1065 9.47750E-05-2.79080E-05-2.86573E-05-5.96810E-08-1.05591E-18 1.39403E-19
 -1      1066 9.49221E-05-2.80783E-05-2.86473E-05-5.79546E-08-5.67448E-19 2.04182E-19
 -1      1067 9.50300E-05-2.82117E-05-2.86364E-05-4.94823E-08 2.12478E-19-8.92248E-20
 -1      1068 9.51077E-05-2.83145E-05-2.86257E-05-3.89406E-08 7.38772E-19-1.14800E-18
 -1      1069 9.51629E-05-2.83931E-05-2.86157E-05-2.78230E-08 2.37535E-19-2.48314E-19
 -1      1070 9.51992E-05-2.84488E-05-2.86072E-05-2.04215E-08-1.86545E-19 7.86427E-20
 -1      1071 9.52239E-05-2.84914E-05-2.85996E-05-1.32190E-08-7.37762E-19 4.60602E-20
 -1      1072 9.52400E-05-2.85226E-05-2.85932E-05-7.61660E-09-8.34395E-19 1.27211E-18
 -1      1073 9.52494E-05-2.85444E-05-2.85879E-05-3.82172E-09-1.99485E-19 2.11066E-18
 -1      1074 9.52543E-05-2.85592E-05-2.85836E-05-1.20948E-09-4.26598E-19 2.13290E-19
 -1      1075 9.52561E-05-2.85688E-05-2.85802E-05 4.77089E-10 8.46468E-19 1.91667E-19
 -1      1076 9.52559E-05-2.85748E-05-2.85776E-05 1.52058E-09 7.41316E-19 1.62553E-18
 -1      1077 9.52544E-05-2.85778E-05-2.85757E-05 1.91187E-09 1.99174E-18 2.31406E-18
 -1      1078 9.52526E-05-2.85795E-05-2.85742E-05 2.17603E-09 2.90436E-18 4.06883E-18
 -1      1079 9.52503E-05-2.85799E-05-2.85730E-05 2.13468E-09-5.36396E-19 4.58931E-18
 -1      1080 9.60563E-05-3.07805E-05-2.79703E-05 7.67235E-06-3.02944E-19 3.57641E-19
 -1      1081 9.35328E-05-2.70521E-05-2.84913E-05 2.21977E-06-4.19730E-19 7.51943E-21
 -1      1082 9.35349E-05-2.72818E-05-2.83943E-05 3.13341E-06-5.42176E-19-4.73685E-19
 -1      1083 9.39412E-05-2.71777E-05-2.86127E-05 1.04011E-06-7.90022E-19-1.56770E-19
 -1      1084 9.41761E-05-2.73524E-05-2.86388E-05 7.14708E-07-7.23975E-19 7.63261E-19
 -1      1085 9.44033E-05-2.75496E-05-2.86516E-05 4.83164E-07-1.10296E-18 1.64507E-18
 -1      1086 9.46043E-05-2.77429E-05-2.86549E-05 3.24575E-07-7.77628E-19 1.50727E-18
 -1      1087 9.47716E-05-2.79176E-05-2.86517E-05 2.16401E-07-2.08264E-19 1.32127E-18
 -1      1088 9.49059E-05-2.80683E-05-2.86447E-05 1.43076E-07-9.86786E-19 7.18130E-19
 -1      1089 9.50102E-05-2.81935E-05-2.86357E-05 9.34621E-08-7.65936E-19 2.31557E-19
 -1      1090 9.50890E-05-2.82946E-05-2.86262E-05 5.99669E-08-7.00949E-19 1.47136E-19
 -1      1091 9.51466E-05-2.83739E-05-2.86168E-05 3.75561E-08-9.80061E-19-3.08876E-19
 -1      1092 9.51886E-05-2.84360E-05-2.86082E-05 2.19223E-08-9.36730E-19-7.54930E-19
 -1      1093 9.52161E-05-2.84810E-05-2.86007E-05 1.18446E-08 1.19821E-18-8.96042E-19
 -1      1094 9.52342E-05-2.85144E-05-2.85942E-05 5.48823E-09 1.57545E-18-6.79747E-19
 -1      1095 9.52456E-05-2.85383E-05-2.85888E-05 1.31138E-09-4.18644E-19-4.19535E-19
 -1      1096 9.52519E-05-2.85549E-05-2.85844E-05-1.24021E-09-1.46053E-18 6.77523E-19
 -1      1097 9.52547E-05-2.85659E-05-2.85809E-05-2.69700E-09 7.18156E-20 2.09213E-19
 -1      1098 9.52552E-05-2.85728E-05-2.85781E-05-3.41253E-09 2.65510E-18 6.58440E-19
 -1      1099 9.52542E-05-2.85769E-05-2.85760E-05-3.66922E-09 2.73389E-18 1.60883E-18
 -1      1100 9.52524E-05-2.85789E-05-2.85744E-05-3.57581E-09 2.29218E-18 1.47815E-18
 -1      1101 9.52505E-05-2.85797E-05-2.85732E-05-3.32594E-09-5.70567E-19-1.34177E-18
 -1      1102 9.52487E-05-2.85797E-05-2.85725E-05-2.39627E-09-4.42479E-18-5.45536E-19
 -1      1103 9.45287E-05-2.89355E-05-2.81127E-05 5.87935E-06-6.72497E-19-4.08515E-19
 -1      1104 9.16323E-05-2.54093E-05-2.83817E-05 1.90053E-06-8.31983E-19-2.22330E-19
 -1      1105 9.08496E-05-2.50616E-05-2.81955E-05 3.06776E-06-4.44293E-19-4.42656E-20
 -1      1106 8.99773E-05-2.48576E-05-2.79087E-05 4.87167E-06-3.72887E-19-8.86049E-19
 -1      1107 9.37067E-05-2.70541E-05-2.85643E-05 1.52735E-06-9.77735E-19-1.72788E-20
 -1      1108 8.87754E-05-2.60731E-05-2.68706E-05 1.15697E-05-9.69343E-19 2.99286E-20
 -1      1109 8.92906E-05-2.51201E-05-2.75013E-05 7.51924E-06 2.26195E-19-7.88044E-19
 -1      1110 9.37883E-05-2.78419E-05-2.82651E-05 4.31826E-06-3.76585E-19-3.48455E-20
 -1      1111 1.01204E-04-3.58778E-05-2.80035E-05 9.88746E-06-1.21593E-18 4.90163E-19
 -1      1112 9.52485E-05-2.85797E-05-2.85724E-05 1.72894E-09-1.81696E-18 1.66919E-18
 -1      1113 9.52489E-05-2.85798E-05-2.85725E-05-2.49636E-10-3.17288E-18 1.55260E-18
 -1      1114 9.22339E-05-2.65519E-05-2.81455E-05 4.45291E-06-4.18512E-19-4.53345E-20
 -1      1115 9.35894E-05-2.68429E-05-2.86061E-05 7.97079E-07-8.76094E-19 3.77605E-19
 -1      1116 9.52093E-05-2.84697E-05-2.86029E-05-3.22570E-10-4.14605E-20-2.63113E-18
 -1      1117 9.52539E-05-2.85789E-05-2.85750E-05-8.95768E-10 3.22486E-18 2.58733E-18
 -1      1118 9.31329E-05-2.88145E-05-2.75771E-05 9.30714E-06-5.13823E-19 6.80923E-19
 -1      1119 9.23325E-05-2.72621E-05-2.78870E-05 6.56563E-06-1.06890E-19 7.69554E-19
 -1      1120 1.34751E-04 3.21962E-10-4.89087E-05-3.81609E-05-2.90956E-19 1.14538E-17
 -1      1121 1.02474E-04 9.78945E-11-4.25422E-05-1.37086E-05-1.83806E-19 1.76516E-18
 -1      1122 8.85407E-05 3.47298E-11-3.76861E-05-5.95612E-06-1.41878E-19-2.59486E-18
 -1      1123 7.76799E-05-7.62314E-13-3.35582E-05-4.39062E-06-9.48677E-20-4.74304E-18
 -1      1124 7.03746E-05-1.91434E-11-3.06709E-05-6.15685E-06-6.49039E-20-5.85325E-18
 -1      1125 6.72123E-05-2.06643E-11-2.93186E-05-9.09296E-06-4.48927E-20-6.30451E-18
 -1      1126 6.78057E-05-8.67639E-12-2.93901E-05-1.13382E-05-3.04932E-20-6.32463E-18
 -1      1127 7.10025E-05 9.79154E-12-3.04828E-05-1.16459E-05-1.54584E-20-6.15817E-18
 -1      1128 7.52779E-05 2.72296E-11-3.20497E-05-9.66456E-06-1.90582E-21-5.85392E-18
 -1      1129 7.93295E-05 3.91082E-11-3.36025E-05-5.82445E-06 8.78797E-21-5.55654E-18
 -1      1130 8.24088E-05 4.46405E-11-3.48394E-05-8.92717E-07 2.81638E-20-5.29359E-18
 -1      1131 8.43279E-05 4.55098E-11-3.56619E-05 4.37184E-06 4.21399E-20-4.86309E-18
 -1      1132 8.53548E-05 4.42579E-11-3.61551E-05 9.56909E-06 7.43536E-20-4.22047E-18
 -1      1133 8.60434E-05 4.36086E-11-3.65301E-05 1.46026E-05 1.02015E-19-3.01316E-18
 -1      1134 8.73385E-05 4.75769E-11-3.71470E-05 1.96715E-05 1.47648E-19-5.52226E-19
 -1      1135 9.14101E-05 6.86379E-11-3.86615E-05 2.59159E-05 1.77453E-19 4.33289E-18
 -1      1136 1.10737E-04 1.68255E-10-4.21763E-05 3.83266E-05 4.06999E-19 1.46111E-17
 -1      1137 1.54958E-04-3.21961E-05-4.86563E-05-2.51608E-05-1.33567E-18 1.78165E-17
 -1      1138 1.33735E-04-3.98190E-05-4.28290E-05 4.58978E-07-4.66715E-19 1.49319E-17
 -1      1139 1.38806E-04-4.17121E-05-4.26409E-05 1.13288E-06-2.05339E-19 1.06191E-17
 -1      1140 1.50396E-04-4.52908E-05-4.51392E-05 1.15794E-06-1.46123E-19 8.08218E-18
 -1      1141 1.62801E-04-4.89755E-05-4.78440E-05 8.95584E-07-9.75147E-20 7.03704E-18
 -1      1142 1.67393E-04-5.02512E-05-4.81720E-05-5.84128E-07-1.29040E-20 7.16378E-18
 -1      1143 1.54502E-04-4.59393E-05-4.46265E-05-3.27384E-06 5.33895E-20 8.61051E-18
 -1      1144 1.23696E-04-3.62355E-05-3.80950E-05-5.33856E-06-1.27889E-19 7.68344E-18
 -1      1145 8.91490E-05-2.59876E-05-3.17840E-05-3.81666E-06-1.81265E-19 2.97690E-18
 -1      1146 7.95381E-05-2.31769E-05-3.01469E-05 1.54463E-06-1.94447E-19-4.05051E-18
 -1      1147 1.03283E-04-3.06882E-05-3.41807E-05 5.34162E-06-6.86891E-20-1.11825E-17
 -1      1148 1.37977E-04-4.07925E-05-4.09740E-05 4.78281E-06 8.64635E-20-1.39875E-17
 -1      1149 1.63571E-04-4.87862E-05-4.69058E-05 2.02001E-06 7.10714E-20-1.23059E-17
 -1      1150 1.67704E-04-5.03043E-05-4.86926E-05-2.60499E-07 2.56889E-20-9.61451E-18
 -1      1151 1.57031E-04-4.71622E-05-4.65927E-05-9.68774E-07-1.39423E-19-6.45736E-18
 -1      1152 1.42210E-04-4.27199E-05-4.27886E-05-8.81475E-07-2.45669E-19-5.94469E-18
 -1      1153 1.29080E-04-3.87909E-05-3.90462E-05-5.91601E-07 4.41681E-20-5.70773E-18
 -1      1154 1.18881E-04-3.57312E-05-3.59656E-05-3.79907E-07-1.34000E-19-5.09485E-18
 -1      1155 1.11308E-04-3.34563E-05-3.36194E-05-2.15467E-07 1.03278E-19-4.93113E-18
 -1      1156 1.06058E-04-3.18722E-05-3.19727E-05-1.17695E-07-4.92940E-19-5.64512E-18
 -1      1157 1.02478E-04-3.07873E-05-3.08459E-05-6.22059E-08 2.02127E-19-6.68518E-18
 -1      1158 1.00054E-04-3.00497E-05-3.00831E-05-3.15460E-08 9.44740E-20-5.95488E-18
 -1      1159 9.84154E-05-2.95487E-05-2.95683E-05-1.47759E-08-1.58017E-19-5.86253E-18
 -1      1160 9.73298E-05-2.92188E-05-2.92278E-05-3.83973E-09 2.39297E-19-5.52458E-18
 -1      1161 9.65903E-05-2.89903E-05-2.89965E-05-1.64128E-09 8.61289E-20-3.43994E-18
 -1      1162 9.60755E-05-2.88322E-05-2.88356E-05 7.54893E-10-8.11216E-21-4.74467E-18
 -1      1163 9.57304E-05-2.87260E-05-2.87278E-05 1.88205E-09 3.88370E-20-3.53164E-18
 -1      1164 9.55018E-05-2.86554E-05-2.86564E-05 2.32235E-09-1.21142E-19-5.10340E-18
 -1      1165 9.53531E-05-2.86094E-05-2.86099E-05 2.40082E-09 2.14112E-19-4.60031E-18
 -1      1166 9.52593E-05-2.85802E-05-2.85804E-05 2.29573E-09-1.37915E-19-3.13218E-18
 -1      1167 9.52040E-05-2.85631E-05-2.85629E-05 2.22587E-09 2.42455E-19-4.48285E-18
 -1      1168 9.51731E-05-2.85532E-05-2.85531E-05 1.85121E-09-1.51362E-20-3.91069E-18
 -1      1169 9.51582E-05-2.85483E-05-2.85482E-05 1.59094E-09 4.31394E-19-1.63479E-18
 -1      1170 9.51544E-05-2.85469E-05-2.85467E-05 1.34685E-09-9.89629E-20-1.33679E-18
 -1      1171 9.51573E-05-2.85476E-05-2.85474E-05 1.12229E-09-3.23380E-19-4.98314E-21
 -1      1172 9.51642E-05-2.85495E-05-2.85493E-05 9.21725E-10-5.04022E-19-3.76907E-18
 -1      1173 9.51729E-05-2.85520E-05-2.85519E-05 7.45551E-10-2.34799E-20-2.72560E-18
 -1      1174 9.51821E-05-2.85547E-05-2.85545E-05 5.91873E-10 1.35185E-19-1.10024E-18
 -1      1175 9.51910E-05-2.85573E-05-2.85572E-05 4.76472E-10 2.04471E-19 1.33847E-18
 -1      1176 9.51995E-05-2.85599E-05-2.85598E-05 3.69311E-10-1.36364E-19 2.13791E-18
 -1      1177 9.52071E-05-2.85621E-05-2.85620E-05 2.83573E-10-2.57659E-19 2.33454E-18
 -1      1178 9.52137E-05-2.85641E-05-2.85640E-05 2.15397E-10 5.53673E-20 7.09635E-19
 -1      1179 9.52194E-05-2.85658E-05-2.85657E-05 1.62161E-10-3.96329E-19-5.38746E-18
 -1      1180 9.52240E-05-2.85672E-05-2.85671E-05 1.21088E-10 5.62519E-19-3.26608E-18
 -1      1181 9.52278E-05-2.85683E-05-2.85683E-05 8.60930E-11-9.66593E-19 1.68610E-18
 -1      1182 9.52309E-05-2.85692E-05-2.85692E-05 6.95673E-11-4.44031E-19-6.19568E-19
 -1      1183 9.52334E-05-2.85700E-05-2.85700E-05 5.12527E-11 5.97046E-19 1.35894E-18
 -1      1184 9.52353E-05-2.85706E-05-2.85705E-05 3.36871E-11 1.86824E-19 3.76002E-18
 -1      1185 9.52366E-05-2.85709E-05-2.85709E-05 9.65780E-12-2.76934E-19 6.06618E-18
 -1      1186 9.52372E-05-2.85711E-05-2.85711E-05-4.02284E-11-9.61838E-20 2.21997E-18
 -1      1187 9.52373E-05-2.85712E-05-2.85712E-05-4.09234E-11 7.96364E-19 1.96707E-18
 -1      1188 1.36487E-04-3.93298E-05-4.00982E-05 1.27749E-05-2.79547E-19 2.31723E-17
 -1      1189 9.90824E-05-2.88812E-05-3.21461E-05 8.20607E-07 1.49634E-19 1.85756E-17
 -1      1190 9.10055E-05-2.70875E-05-2.80239E-05 1.01051E-07 9.12612E-20 1.41535E-17
 -1      1191 8.64819E-05-2.59324E-05-2.60450E-05 2.20815E-08 9.36418E-20 1.10546E-17
 -1      1192 8.28466E-05-2.48884E-05-2.48238E-05 4.39058E-08-2.22218E-20 9.14291E-18
 -1      1193 7.94624E-05-2.38814E-05-2.38288E-05 9.47994E-08 4.93488E-20 7.08877E-18
 -1      1194 7.64624E-05-2.29825E-05-2.29889E-05 1.37592E-07 3.56283E-20 5.73631E-18
 -1      1195 7.43233E-05-2.23369E-05-2.24079E-05 1.49604E-07 6.55524E-20 5.44223E-18
 -1      1196 7.35561E-05-2.20969E-05-2.22160E-05 1.20902E-07-2.70554E-20 4.54338E-18
 -1      1197 7.44502E-05-2.23518E-05-2.24863E-05 5.75596E-08-9.83683E-21 4.56522E-18
 -1      1198 7.69272E-05-2.30828E-05-2.31956E-05-2.11701E-08 1.97218E-19 3.87904E-18
 -1      1199 8.05531E-05-2.41631E-05-2.42274E-05-9.18124E-08 1.58187E-19 2.49989E-18
 -1      1200 8.46905E-05-2.54019E-05-2.54100E-05-1.37079E-07-3.19661E-20 2.42074E-18
 -1      1201 8.87043E-05-2.66069E-05-2.65689E-05-1.51390E-07-1.59133E-19 1.57678E-18
 -1      1202 9.21228E-05-2.76346E-05-2.75699E-05-1.39705E-07 1.57560E-19 4.12134E-19
 -1      1203 9.47051E-05-2.84110E-05-2.83394E-05-1.12361E-07-1.18456E-19 2.46394E-19
 -1      1204 9.64198E-05-2.89263E-05-2.88620E-05-7.98064E-08-2.62034E-20 8.95506E-19
 -1      1205 9.73772E-05-2.92137E-05-2.91639E-05-4.95393E-08 1.17860E-19 3.60651E-21
 -1      1206 9.77541E-05-2.93266E-05-2.92928E-05-2.54300E-08 4.14885E-20-9.28661E-19
 -1      1207 9.77364E-05-2.93211E-05-2.93012E-05-8.46276E-09 1.10762E-19-5.39128E-19
 -1      1208 9.74849E-05-2.92456E-05-2.92361E-05 2.09071E-09 1.12635E-19-9.36491E-19
 -1      1209 9.71222E-05-2.91367E-05-2.91343E-05 7.68124E-09-2.51308E-19-8.29272E-19
 -1      1210 9.67316E-05-2.90196E-05-2.90213E-05 9.84741E-09 1.80009E-19-1.30478E-18
 -1      1211 9.63639E-05-2.89094E-05-2.89131E-05 9.89870E-09-1.23015E-19-1.93644E-18
 -1      1212 9.60452E-05-2.88139E-05-2.88183E-05 8.81258E-09-3.02094E-19 1.21640E-18
 -1      1213 9.57853E-05-2.87360E-05-2.87402E-05 7.24811E-09 6.98232E-20 2.44245E-18
 -1      1214 9.55834E-05-2.86754E-05-2.86792E-05 5.60818E-09 2.01320E-19-3.60431E-19
 -1      1215 9.54335E-05-2.86305E-05-2.86335E-05 4.11129E-09-9.84465E-20-1.75171E-18
 -1      1216 9.53272E-05-2.85985E-05-2.86009E-05 2.85435E-09-4.90073E-20-5.90362E-19
 -1      1217 9.52554E-05-2.85770E-05-2.85787E-05 1.86063E-09-9.08772E-20 1.00516E-19
 -1      1218 9.52101E-05-2.85633E-05-2.85645E-05 1.11313E-09 2.83615E-19-1.70818E-18
 -1      1219 9.51841E-05-2.85555E-05-2.85563E-05 5.76273E-10 4.08710E-19-3.71876E-18
 -1      1220 9.51717E-05-2.85517E-05-2.85522E-05 2.08949E-10-1.41029E-19-2.27264E-18
 -1      1221 9.51684E-05-2.85507E-05-2.85510E-05-2.82547E-11-3.11120E-19 2.05683E-19
 -1      1222 9.51709E-05-2.85514E-05-2.85515E-05-1.69646E-10-2.00788E-21 2.51571E-18
 -1      1223 9.51768E-05-2.85531E-05-2.85532E-05-2.43285E-10 1.96396E-19-3.17699E-19
 -1      1224 9.51843E-05-2.85554E-05-2.85553E-05-2.71100E-10 8.21999E-19-4.18103E-18
 -1      1225 9.51923E-05-2.85577E-05-2.85577E-05-2.69591E-10-2.09221E-19-2.79824E-20
 -1      1226 9.52001E-05-2.85601E-05-2.85600E-05-2.50748E-10-1.37922E-19 3.22359E-18
 -1      1227 9.52073E-05-2.85622E-05-2.85621E-05-2.22998E-10-5.78913E-21-1.27543E-18
 -1      1228 9.52137E-05-2.85641E-05-2.85641E-05-1.92060E-10-2.01895E-20-1.52991E-18
 -1      1229 9.52192E-05-2.85658E-05-2.85657E-05-1.61676E-10-5.71333E-20-6.52396E-19
 -1      1230 9.52239E-05-2.85672E-05-2.85671E-05-1.34192E-10 2.59446E-19-6.78310E-18
 -1      1231 9.52277E-05-2.85683E-05-2.85683E-05-1.10987E-10 4.64096E-19-1.02207E-17
 -1      1232 9.52309E-05-2.85693E-05-2.85692E-05-9.26886E-11-8.79043E-19-6.40639E-18
 -1      1233 9.52334E-05-2.85700E-05-2.85700E-05-7.90914E-11 6.27182E-19-5.82413E-18
 -1      1234 9.52352E-05-2.85706E-05-2.85705E-05-6.85649E-11 5.48997E-20-9.06901E-18
 -1      1235 9.52365E-05-2.85710E-05-2.85709E-05-5.42053E-11 2.38723E-19-7.46501E-18
 -1      1236 9.52372E-05-2.85712E-05-2.85711E-05-1.63968E-11 4.00697E-19-7.71844E-18
 -1      1237 9.52373E-05-2.85712E-05-2.85712E-05 3.63643E-11 1.69117E-19-7.70292E-18
 -1      1238 9.52371E-05-2.85710E-05-2.85712E-05 3.55642E-11-7.06934E-18-5.28093E-19
 -1      1239 9.52371E-05-2.85711E-05-2.85711E-05 3.14696E-11-4.88914E-18 3.44487E-19
 -1      1240 9.52373E-05-2.85718E-05-2.85709E-05-2.76808E-11 2.75240E-18 6.03629E-19
 -1      1241 9.52377E-05-2.85729E-05-2.85706E-05-5.56208E-11 4.20882E-18 2.03193E-19
 -1      1242 9.52381E-05-2.85744E-05-2.85702E-05-6.34647E-11 3.42223E-18-9.13471E-19
 -1      1243 9.52385E-05-2.85758E-05-2.85698E-05-5.75181E-11-4.47590E-18-5.35736E-19
 -1      1244 9.52389E-05-2.85769E-05-2.85694E-05-4.36376E-11-5.27145E-18 1.48227E-19
 -1      1245 9.52391E-05-2.85777E-05-2.85692E-05-2.30981E-11-3.94589E-18 9.65931E-19
 -1      1246 9.52392E-05-2.85780E-05-2.85691E-05 2.52786E-13-1.06924E-18 4.85985E-19
 -1      1247 9.52391E-05-2.85777E-05-2.85692E-05 2.36186E-11 4.14686E-18-1.18374E-18
 -1      1248 9.52389E-05-2.85769E-05-2.85694E-05 4.40762E-11 2.28985E-18-6.86130E-19
 -1      1249 9.52385E-05-2.85757E-05-2.85698E-05 5.86822E-11-6.45106E-18 5.23293E-19
 -1      1250 9.52381E-05-2.85743E-05-2.85702E-05 6.37372E-11-6.07847E-18 7.37883E-19
 -1      1251 9.52377E-05-2.85729E-05-2.85706E-05 5.56020E-11-4.72444E-18 7.33555E-19
 -1      1252 9.52373E-05-2.85718E-05-2.85709E-05 2.75569E-11-1.46060E-18 1.09641E-19
 -1      1253 9.52371E-05-2.85711E-05-2.85711E-05-4.83434E-11-1.90944E-18-9.89589E-19
 -1      1254 9.52371E-05-2.85710E-05-2.85712E-05-3.84692E-11-1.74438E-18 1.24391E-18
 -1      1255 3.57057E-05-1.10651E-04 1.90395E-05-1.28280E-05 7.75628E-18 1.57760E-18
 -1      1256 1.71162E-05-6.07172E-05 8.59650E-06-2.22514E-05 1.84280E-17 7.07738E-18
 -1      1257 8.30299E-06-1.19131E-06-8.53344E-06 6.53509E-06 2.58921E-17 1.56523E-17
 -1      1258 3.88388E-05 3.07827E-05-2.96725E-05 6.30623E-05 2.30918E-17 2.15502E-17
 -1      1259 1.13816E-04 1.70876E-05-5.02032E-05 1.11246E-04 1.49891E-17 2.09302E-17
 -1      1260 2.12567E-04-3.02867E-05-6.75157E-05 1.17321E-04 6.96769E-18 1.46147E-17
 -1      1261 2.96749E-04-8.03256E-05-7.89213E-05 7.31179E-05 1.57898E-18 4.40457E-18
 -1      1262 3.23757E-04-9.74858E-05-8.22856E-05-7.44217E-06 8.40945E-19-8.66589E-18
 -1      1263 2.77339E-04-6.85724E-05-7.66339E-05-8.55088E-05 5.95612E-18-2.09124E-17
 -1      1264 1.82463E-04-1.48742E-05-6.28392E-05-1.19527E-04 1.38083E-17-2.72914E-17
 -1      1265 8.61850E-05 2.56871E-05-4.43352E-05-9.84293E-05 2.15663E-17-2.69661E-17
 -1      1266 2.44618E-05 2.63167E-05-2.36754E-05-4.59551E-05 2.56143E-17-2.12368E-17
 -1      1267 7.85733E-06-1.35075E-05-4.27353E-06 2.04687E-06 2.35678E-17-1.28927E-17
 -1      1268 2.09656E-05-7.05230E-05 1.06582E-05 2.02089E-05 1.45393E-17-5.01486E-18
 -1      1269 3.59390E-05-1.10737E-04 1.88680E-05 4.59940E-06 1.37643E-18-1.11094E-18
 -1      1270 3.34620E-05-1.10929E-04 1.91479E-05-2.34968E-05-1.19067E-17-3.17897E-18
 -1      1271 1.61984E-05-7.18765E-05 1.08025E-05-3.51822E-05-2.27327E-17-1.00001E-17
 -1      1272 6.99222E-06-1.80860E-05-4.97532E-06-1.10406E-05-2.81554E-17-1.93022E-17
 -1      1273 3.95310E-05 1.52967E-05-2.72705E-05 4.74020E-05-2.57024E-17-2.64799E-17
 -1      1274 1.28678E-04 2.99363E-06-5.16726E-05 1.04591E-04-1.93539E-17-3.09472E-17
 -1      1275 2.47912E-04-4.71937E-05-7.24717E-05 1.15571E-04-1.07171E-17-2.71017E-17
 -1      1276 3.49586E-04-1.00575E-04-8.58664E-05 6.72943E-05-3.10533E-18-1.60293E-17
 -1      1277 3.72846E-04-1.13423E-04-8.88426E-05-2.16815E-05-8.94573E-19-3.48978E-19
 -1      1278 3.06156E-04-7.70045E-05-8.05046E-05-9.89690E-05-5.18088E-18 1.54719E-17
 -1      1279 1.89160E-04-1.94844E-05-6.33325E-05-1.19020E-04-1.37524E-17 2.70983E-17
 -1      1280 8.24108E-05 1.63949E-05-4.14250E-05-8.44207E-05-2.07235E-17 2.72660E-17
 -1      1281 2.01302E-05 9.27951E-06-1.85581E-05-2.49932E-05-2.29834E-17 2.10132E-17
 -1      1282 7.28053E-06-3.61427E-05 1.73207E-06 2.33370E-05-2.02695E-17 1.21049E-17
 -1      1283 2.31948E-05-9.05338E-05 1.54264E-05 3.61212E-05-1.35712E-17 5.38374E-18
 -1      1284 3.82159E-05-1.20949E-04 2.13453E-05 1.65592E-05-2.75625E-18 9.44098E-19
 -1      1285 1.29475E-04-2.83503E-05-4.58273E-05-1.24720E-05-4.61845E-19 9.53717E-18
 -1      1286 1.03440E-04-9.12081E-06-4.06242E-05-9.21576E-06-1.33916E-18-1.70783E-19
 -1      1287 1.11082E-04-9.74741E-06-4.33049E-05-1.57416E-05-1.76649E-18 2.09619E-18
 -1      1288 8.70061E-05-3.24579E-06-3.61696E-05-5.13266E-06-1.36288E-18-3.49586E-18
 -1      1289 9.38338E-05-3.56142E-06-3.84700E-05-7.15742E-06-1.54711E-18-2.07332E-18
 -1      1290 1.02453E-04-1.17096E-05-3.88820E-05-7.71392E-06-2.30361E-18-2.04823E-19
 -1      1291 7.46727E-05 2.54353E-07-3.24118E-05-4.91059E-06-1.12348E-18-5.27302E-18
 -1      1292 7.97989E-05 1.01188E-07-3.42172E-05-4.82148E-06-1.26822E-18-4.47404E-18
 -1      1293 8.46560E-05-3.53180E-06-3.48349E-05-5.35171E-06-2.08360E-18-3.01922E-18
 -1      1294 6.72573E-05 2.05474E-06-2.99554E-05-7.26246E-06-9.46348E-19-6.14856E-18
 -1      1295 7.00603E-05 2.01520E-06-3.10253E-05-6.10498E-06-1.02163E-18-5.78037E-18
 -1      1296 7.19424E-05 1.42813E-06-3.15298E-05-6.03642E-06-1.74251E-18-4.59857E-18
 -1      1297 6.52685E-05 2.14654E-06-2.90276E-05-1.01765E-05-7.85113E-19-6.43174E-18
 -1      1298 6.56668E-05 2.20173E-06-2.93134E-05-8.96416E-06-8.70220E-19-6.29607E-18
 -1      1299 6.54199E-05 3.28523E-06-2.95246E-05-8.65907E-06-1.51320E-18-5.26411E-18
 -1      1300 6.77713E-05 8.69448E-07-2.94212E-05-1.19438E-05-6.33845E-19-6.39854E-18
 -1      1301 6.62939E-05 9.94830E-07-2.90690E-05-1.14172E-05-7.15319E-19-6.43608E-18
 -1      1302 6.50252E-05 2.29300E-06-2.89377E-05-1.12970E-05-1.26651E-18-5.52110E-18
 -1      1303 7.28794E-05-1.03298E-06-3.06913E-05-1.14868E-05-4.37493E-19-6.16745E-18
 -1      1304 7.04460E-05-8.94796E-07-2.99621E-05-1.20397E-05-5.07955E-19-6.27113E-18
 -1      1305 6.92968E-05-5.92578E-07-2.95373E-05-1.22966E-05-9.87177E-19-5.37868E-18
 -1      1306 7.84851E-05-2.79658E-06-3.22856E-05-8.76763E-06-2.19752E-19-5.83481E-18
 -1      1307 7.59926E-05-2.68876E-06-3.14596E-05-1.03303E-05-3.00856E-19-6.00586E-18
 -1      1308 7.57435E-05-3.95367E-06-3.08562E-05-1.09437E-05-6.44486E-19-5.11457E-18
 -1      1309 8.31186E-05-3.97275E-06-3.37607E-05-4.42806E-06 1.15144E-19-5.54494E-18
 -1      1310 8.11386E-05-3.91523E-06-3.30426E-05-6.67053E-06 7.35860E-21-5.67184E-18
 -1      1311 8.20439E-05-6.65981E-06-3.23825E-05-7.51441E-06-2.06385E-19-4.79444E-18
 -1      1312 8.61922E-05-4.49892E-06-3.48735E-05 7.08831E-07 4.08588E-19-5.27606E-18
 -1      1313 8.49181E-05-4.48978E-06-3.43595E-05-1.84473E-06 3.29655E-19-5.42143E-18
 -1      1314 8.68068E-05-8.23853E-06-3.37320E-05-2.80183E-06 3.50010E-19-4.47620E-18
 -1      1315 8.77989E-05-4.55660E-06-3.55697E-05 5.90851E-06 7.53727E-19-4.78012E-18
 -1      1316 8.71462E-05-4.58207E-06-3.52608E-05 3.35722E-06 6.19287E-19-5.05327E-18
 -1      1317 8.96635E-05-8.80632E-06-3.47056E-05 2.35374E-06 8.43790E-19-4.12738E-18
 -1      1318 8.85049E-05-4.40066E-06-3.59752E-05 1.10160E-05 1.19800E-18-4.05570E-18
 -1      1319 8.82068E-05-4.45330E-06-3.57898E-05 8.49935E-06 1.02729E-18-4.47959E-18
 -1      1320 9.10164E-05-8.78845E-06-3.52968E-05 7.48008E-06 1.46407E-18-3.58533E-18
 -1      1321 8.90608E-05-4.29822E-06-3.62990E-05 1.59171E-05 1.59316E-18-2.70177E-18
 -1      1322 8.87471E-05-4.37691E-06-3.61051E-05 1.34436E-05 1.38441E-18-3.53557E-18
 -1      1323 9.16261E-05-8.68933E-06-3.56163E-05 1.24085E-05 2.09878E-18-2.74656E-18
 -1      1324 9.07034E-05-4.62289E-06-3.69073E-05 2.09428E-05 1.88179E-18-1.15144E-20
 -1      1325 8.97502E-05-4.73701E-06-3.64728E-05 1.82256E-05 1.62614E-18-1.65002E-18
 -1      1326 9.25892E-05-9.14225E-06-3.58592E-05 1.71458E-05 2.61879E-18-1.15228E-18
 -1      1327 9.65497E-05-6.95473E-06-3.84137E-05 2.71648E-05 1.69068E-18 5.27246E-18
 -1      1328 9.32463E-05-6.62515E-06-3.73004E-05 2.31150E-05 1.60852E-18 2.05903E-18
 -1      1329 9.59233E-05-1.14975E-05-3.62825E-05 2.17319E-05 2.84209E-18 1.92478E-18
 -1      1330 1.28328E-04-2.58115E-05-4.04551E-05 3.01765E-05 8.54127E-19 1.53614E-17
 -1      1331 1.03374E-04-1.47524E-05-3.86678E-05 2.58710E-05 8.54974E-19 8.32273E-18
 -1      1332 1.04956E-04-1.99554E-05-3.65765E-05 2.34243E-05 2.79914E-18 6.70702E-18
 -1      1333 1.05832E-04-2.86293E-05-3.59164E-05 8.16238E-06 1.53813E-18 1.48057E-17
 -1      1334 1.35441E-04-3.91144E-05-4.26276E-05-2.46889E-06-1.40036E-18 1.02282E-17
 -1      1335 1.33504E-04-3.83757E-05-4.13003E-05 1.53691E-07-1.31094E-18 8.55458E-18
 -1      1336 1.33632E-04-3.89644E-05-4.08706E-05 3.58745E-06-9.80970E-19 8.01246E-18
 -1      1337 1.37442E-04-4.06122E-05-4.15612E-05 4.21147E-06-9.26866E-19 6.57149E-18
 -1      1338 1.29521E-04-3.66216E-05-4.01963E-05 2.73069E-06-2.16226E-18 4.64522E-18
 -1      1339 1.39688E-04-4.14662E-05-4.21131E-05 5.89013E-06-4.84695E-19 6.32098E-18
 -1      1340 1.45355E-04-4.36555E-05-4.34886E-05 6.09631E-06-4.35133E-19 5.48210E-18
 -1      1341 1.31619E-04-3.86146E-05-4.00477E-05 9.23482E-06-1.31764E-18 4.06425E-18
 -1      1342 1.48829E-04-4.51740E-05-4.42427E-05 5.43028E-06 2.50934E-20 5.62388E-18
 -1      1343 1.53204E-04-4.71992E-05-4.51413E-05 4.85672E-06 2.01964E-20 5.37442E-18
 -1      1344 1.37734E-04-4.19978E-05-4.10221E-05 1.07738E-05-3.62292E-19 3.94998E-18
 -1      1345 1.56363E-04-4.89965E-05-4.55127E-05 4.35588E-07 3.20761E-19 5.87058E-18
 -1      1346 1.54741E-04-4.91740E-05-4.48484E-05-1.59417E-06 2.63904E-19 6.22485E-18
 -1      1347 1.45238E-04-4.68539E-05-4.19510E-05 5.25993E-06 4.88844E-19 4.51799E-18
 -1      1348 1.55495E-04-4.97569E-05-4.47192E-05-8.55987E-06 3.81853E-19 6.40791E-18
 -1      1349 1.46055E-04-4.65661E-05-4.25465E-05-1.06892E-05-1.39774E-19 6.61596E-18
 -1      1350 1.50456E-04-5.07551E-05-4.24656E-05-7.79085E-06 4.20234E-19 5.15371E-18
 -1      1351 1.43580E-04-4.48069E-05-4.23112E-05-1.65857E-05-8.06005E-19 6.03172E-18
 -1      1352 1.27726E-04-3.79020E-05-3.94249E-05-1.73747E-05-1.48887E-18 4.67922E-18
 -1      1353 1.49971E-04-4.93692E-05-4.31758E-05-2.31040E-05-9.85046E-19 4.60262E-18
 -1      1354 1.22830E-04-3.38157E-05-3.95145E-05-1.43847E-05-2.26031E-18 3.30428E-18
 -1      1355 1.11398E-04-2.81790E-05-3.77679E-05-1.14115E-05-2.75180E-18 4.20764E-19
 -1      1356 1.42751E-04-4.02889E-05-4.46856E-05-2.80408E-05-3.48173E-18 3.00497E-18
 -1      1357 1.09358E-04-2.66534E-05-3.78253E-05 1.66989E-06-3.09591E-18-1.79576E-18
 -1      1358 1.13194E-04-2.81681E-05-3.84233E-05 6.37365E-06-2.74354E-18-5.38840E-18
 -1      1359 1.35144E-04-3.06929E-05-4.61617E-05-8.78773E-06-5.45913E-18-8.10002E-19
 -1      1360 1.16412E-04-3.12761E-05-3.83073E-05 1.55577E-05-2.13643E-18-7.12948E-18
 -1      1361 1.29734E-04-3.73397E-05-4.05496E-05 1.66524E-05-1.65701E-18-9.15261E-18
 -1      1362 1.36912E-04-3.30733E-05-4.57357E-05 1.84843E-05-4.73724E-18-4.72123E-18
 -1      1363 1.34629E-04-4.13878E-05-4.05542E-05 1.64976E-05-4.86673E-19-1.02483E-17
 -1      1364 1.49265E-04-4.74653E-05-4.34060E-05 1.45880E-05 1.14826E-19-1.06366E-17
 -1      1365 1.45101E-04-4.32676E-05-4.41100E-05 2.87238E-05-2.16120E-18-7.12448E-18
 -1      1366 1.50868E-04-4.81794E-05-4.36764E-05 6.90878E-06 7.80170E-19-1.02091E-17
 -1      1367 1.57660E-04-5.03586E-05-4.54308E-05 4.20979E-06 7.63600E-19-9.13239E-18
 -1      1368 1.50653E-04-5.04176E-05-4.27447E-05 1.83732E-05 7.80011E-19-7.71673E-18
 -1      1369 1.55091E-04-4.86044E-05-4.52609E-05-2.61518E-06 9.02778E-19-8.55784E-18
 -1      1370 1.52898E-04-4.72799E-05-4.49847E-05-3.94330E-06 1.03584E-18-7.06103E-18
 -1      1371 1.47967E-04-4.92145E-05-4.19930E-05 6.13446E-07 1.47670E-18-6.63394E-18
 -1      1372 1.48590E-04-4.52851E-05-4.41378E-05-6.85622E-06 9.49220E-19-6.57388E-18
 -1      1373 1.42262E-04-4.28305E-05-4.25927E-05-7.07308E-06 4.62513E-19-5.72541E-18
 -1      1374 1.39925E-04-4.40749E-05-4.09379E-05-1.04045E-05 1.57463E-18-5.78055E-18
 -1      1375 1.37700E-04-4.12250E-05-4.13611E-05-7.24849E-06 3.02048E-19-4.91883E-18
 -1      1376 1.30907E-04-3.89107E-05-3.94968E-05-7.00343E-06 2.28969E-19-4.46100E-18
 -1      1377 1.30614E-04-3.93557E-05-3.91321E-05-1.35679E-05 7.60278E-19-5.05927E-18
 -1      1378 1.27048E-04-3.77538E-05-3.83135E-05-6.10093E-06 1.48694E-19-4.49277E-18
 -1      1379 1.21565E-04-3.60197E-05-3.67317E-05-5.78483E-06 2.16053E-19-4.18985E-18
 -1      1380 1.22244E-04-3.60741E-05-3.70174E-05-1.24576E-05 4.19900E-19-3.65796E-18
 -1      1381 1.18219E-04-3.50995E-05-3.56586E-05-4.61755E-06 1.01565E-19-3.95469E-18
 -1      1382 1.13856E-04-3.37677E-05-3.43675E-05-4.32411E-06-2.24768E-19-4.02550E-18
 -1      1383 1.15302E-04-3.38555E-05-3.49893E-05-9.95335E-06 2.06961E-19-3.36648E-18
 -1      1384 1.11318E-04-3.30987E-05-3.35375E-05-3.30310E-06-8.21622E-20-3.81837E-18
 -1      1385 1.08208E-04-3.21735E-05-3.26077E-05-3.08356E-06-2.00469E-19-3.94985E-18
 -1      1386 1.09731E-04-3.22905E-05-3.32550E-05-7.35099E-06-1.63140E-19-2.65269E-18
 -1      1387 1.06338E-04-3.16846E-05-3.19963E-05-2.30204E-06-5.21653E-19-3.37658E-18
 -1      1388 1.04184E-04-3.10531E-05-3.13501E-05-2.14769E-06-2.48991E-19-4.07933E-18
 -1      1389 1.05562E-04-3.11987E-05-3.19173E-05-5.22461E-06-4.36751E-19-2.45053E-18
 -1      1390 1.02837E-04-3.06995E-05-3.09121E-05-1.58500E-06-3.40626E-19-3.92972E-18
 -1      1391 1.01365E-04-3.02716E-05-3.04702E-05-1.47937E-06 1.58243E-19-4.10769E-18
 -1      1392 1.02519E-04-3.04247E-05-3.09302E-05-3.64172E-06-5.71582E-19-1.66101E-18
 -1      1393 1.00406E-04-3.00178E-05-3.01608E-05-1.08599E-06 9.86826E-21-4.67299E-18
 -1      1394 9.94051E-05-2.97284E-05-2.98604E-05-1.01451E-06-2.59174E-19-4.85043E-18
 -1      1395 1.00331E-04-2.98725E-05-3.02191E-05-2.51522E-06-2.67874E-19-2.71406E-18
 -1      1396 9.87275E-05-2.95479E-05-2.96433E-05-7.43023E-07 1.33441E-19-4.52432E-18
 -1      1397 9.80496E-05-2.93517E-05-2.94397E-05-6.94670E-07 4.95481E-20-4.38229E-18
 -1      1398 9.87724E-05-2.94777E-05-2.97133E-05-1.73047E-06-8.42401E-20-3.35846E-18
 -1      1399 9.75940E-05-2.92286E-05-2.92948E-05-5.15449E-07 5.98082E-19-3.90868E-18
 -1      1400 9.71502E-05-2.91013E-05-2.91618E-05-4.84408E-07 6.68519E-19-3.09163E-18
 -1      1401 9.76908E-05-2.92041E-05-2.93633E-05-1.19739E-06 7.73058E-19-2.20811E-18
 -1      1402 9.68090E-05-2.90092E-05-2.90537E-05-3.53835E-07-6.49539E-19-3.29661E-18
 -1      1403 9.64905E-05-2.89177E-05-2.89580E-05-3.30829E-07-6.53646E-19-3.76598E-18
 -1      1404 9.69222E-05-2.90044E-05-2.91154E-05-8.31151E-07 2.37804E-19-2.11581E-18
 -1      1405 9.62525E-05-2.88525E-05-2.88831E-05-2.40644E-07-2.05572E-19-4.09864E-18
 -1      1406 9.60376E-05-2.87912E-05-2.88185E-05-2.24998E-07 1.67603E-19-3.78175E-18
 -1      1407 9.63651E-05-2.88606E-05-2.89361E-05-5.68938E-07-1.12662E-18-3.74199E-18
 -1      1408 9.58722E-05-2.87455E-05-2.87666E-05-1.62564E-07 3.21397E-19-3.63457E-18
 -1      1409 9.57283E-05-2.87047E-05-2.87233E-05-1.51787E-07-2.85677E-19-4.04440E-18
 -1      1410 9.59750E-05-2.87590E-05-2.88108E-05-3.87247E-07 2.12084E-19-3.70055E-18
 -1      1411 9.56143E-05-2.86731E-05-2.86877E-05-1.08448E-07-4.98097E-19-3.95258E-18
 -1      1412 9.55193E-05-2.86463E-05-2.86589E-05-1.01010E-07-1.67813E-19-4.18493E-18
 -1      1413 9.57040E-05-2.86882E-05-2.87239E-05-2.61066E-07-5.09455E-19-3.79842E-18
 -1      1414 9.54418E-05-2.86248E-05-2.86348E-05-7.09150E-08 9.49271E-19-3.89978E-18
 -1      1415 9.53804E-05-2.86076E-05-2.86162E-05-6.57961E-08 1.11347E-18-3.00842E-18
 -1      1416 9.55177E-05-2.86395E-05-2.86641E-05-1.73292E-07 7.23989E-19-3.17710E-18
 -1      1417 9.53286E-05-2.85933E-05-2.86001E-05-4.49394E-08-8.93842E-20-2.52092E-18
 -1      1418 9.52904E-05-2.85827E-05-2.85885E-05-4.14456E-08-7.28749E-19-3.34450E-18
 -1      1419 9.53916E-05-2.86066E-05-2.86235E-05-1.12290E-07 4.72868E-19-2.52514E-18
 -1      1420 9.52582E-05-2.85737E-05-2.85785E-05-2.76428E-08 4.59639E-19-2.84539E-18
 -1      1421 9.52364E-05-2.85679E-05-2.85718E-05-2.54168E-08 7.00589E-19-2.28780E-18
 -1      1422 9.53097E-05-2.85856E-05-2.85971E-05-7.07736E-08-3.91897E-21-1.55658E-18
 -1      1423 9.52149E-05-2.85620E-05-2.85652E-05-1.55058E-08 2.44148E-20-2.02286E-18
 -1      1424 9.52025E-05-2.85588E-05-2.85613E-05-1.38793E-08 4.45953E-19-1.66473E-18
 -1      1425 9.52566E-05-2.85719E-05-2.85798E-05-4.23787E-08 7.34098E-19-5.51225E-19
 -1      1426 9.51900E-05-2.85553E-05-2.85574E-05-7.25988E-09 5.64934E-19-1.89708E-18
 -1      1427 9.51847E-05-2.85542E-05-2.85557E-05-6.22247E-09 2.38904E-20-1.04434E-18
 -1      1428 9.52230E-05-2.85636E-05-2.85688E-05-2.24827E-08 6.73257E-19-4.06903E-19
 -1      1429 9.51782E-05-2.85524E-05-2.85537E-05-1.93829E-09-9.82009E-20-1.53572E-18
 -1      1430 9.51775E-05-2.85525E-05-2.85534E-05-1.29949E-09-3.70369E-20-8.42357E-19
 -1      1431 9.52041E-05-2.85591E-05-2.85624E-05-9.33631E-09-1.65325E-19-1.12148E-18
 -1      1432 9.51750E-05-2.85518E-05-2.85526E-05 1.35031E-09-3.19653E-19-1.33547E-18
 -1      1433 9.51770E-05-2.85527E-05-2.85531E-05 1.71353E-09-2.51960E-19-1.25025E-18
 -1      1434 9.51949E-05-2.85572E-05-2.85592E-05-9.56119E-10-4.24013E-19-1.35312E-18
 -1      1435 9.51770E-05-2.85527E-05-2.85531E-05 3.23341E-09-1.16066E-18-1.31638E-18
 -1      1436 9.51806E-05-2.85540E-05-2.85541E-05 3.40953E-09-8.30864E-19-2.91576E-18
 -1      1437 9.51922E-05-2.85570E-05-2.85581E-05 4.10095E-09-1.97863E-18-1.31440E-18
 -1      1438 9.51821E-05-2.85545E-05-2.85546E-05 4.16639E-09 8.29685E-19-2.37017E-18
 -1      1439 9.51863E-05-2.85559E-05-2.85558E-05 4.21719E-09 5.59880E-19-1.22807E-18
 -1      1440 9.51935E-05-2.85577E-05-2.85582E-05 6.87541E-09 3.75284E-19-1.55636E-18
 -1      1441 9.51885E-05-2.85565E-05-2.85565E-05 4.46972E-09-2.82785E-19-8.72988E-19
 -1      1442 9.51927E-05-2.85579E-05-2.85577E-05 4.44623E-09 8.13687E-19-6.71037E-19
 -1      1443 9.51969E-05-2.85590E-05-2.85591E-05 8.10676E-09 4.07520E-20 2.70899E-19
 -1      1444 9.51954E-05-2.85586E-05-2.85586E-05 4.39210E-09 8.65663E-19-8.56085E-19
 -1      1445 9.51996E-05-2.85600E-05-2.85598E-05 4.32699E-09 6.65422E-20-9.88286E-20
 -1      1446 9.52015E-05-2.85606E-05-2.85604E-05 8.37649E-09 1.21340E-18-1.05731E-18
 -1      1447 9.52023E-05-2.85608E-05-2.85606E-05 4.08250E-09 1.73974E-19 3.41505E-19
 -1      1448 9.52062E-05-2.85620E-05-2.85618E-05 3.99336E-09 2.60825E-19 6.24512E-19
 -1      1449 9.52067E-05-2.85622E-05-2.85619E-05 8.04335E-09 5.02430E-19-1.27682E-18
 -1      1450 9.52088E-05-2.85627E-05-2.85626E-05 3.64983E-09-1.49626E-19 8.77503E-19
 -1      1451 9.52123E-05-2.85638E-05-2.85636E-05 3.55251E-09-9.61703E-20 7.18090E-19
 -1      1452 9.52118E-05-2.85638E-05-2.85634E-05 7.35745E-09 1.03871E-19-8.47829E-19
 -1      1453 9.52146E-05-2.85645E-05-2.85643E-05 3.17157E-09-9.49200E-19 5.65355E-19
 -1      1454 9.52176E-05-2.85654E-05-2.85652E-05 3.07545E-09-1.61788E-18-1.39440E-18
 -1      1455 9.52166E-05-2.85652E-05-2.85648E-05 6.50343E-09-9.38125E-19 1.58846E-19
 -1      1456 9.52197E-05-2.85660E-05-2.85658E-05 2.69598E-09-1.39976E-18-2.53658E-18
 -1      1457 9.52222E-05-2.85668E-05-2.85666E-05 2.60665E-09-9.49334E-19-2.57863E-18
 -1      1458 9.52208E-05-2.85665E-05-2.85661E-05 5.60275E-09-2.82312E-18-8.62795E-19
 -1      1459 9.52239E-05-2.85673E-05-2.85671E-05 2.25118E-09 1.23417E-18-3.65568E-18
 -1      1460 9.52260E-05-2.85679E-05-2.85678E-05 2.17081E-09 1.59866E-18-1.59215E-18
 -1      1461 9.52246E-05-2.85676E-05-2.85673E-05 4.72927E-09 3.80119E-19-6.73652E-19
 -1      1462 9.52275E-05-2.85683E-05-2.85682E-05 1.86362E-09 6.83729E-19 6.06554E-19
 -1      1463 9.52291E-05-2.85688E-05-2.85687E-05 1.79747E-09 5.26447E-20 1.40793E-18
 -1      1464 9.52277E-05-2.85685E-05-2.85682E-05 3.93800E-09 2.41369E-18-2.68803E-19
 -1      1465 9.52303E-05-2.85692E-05-2.85691E-05 1.50855E-09-7.56073E-19 1.10821E-18
 -1      1466 9.52317E-05-2.85696E-05-2.85695E-05 1.44620E-09-8.02960E-19 8.84820E-19
 -1      1467 9.52303E-05-2.85692E-05-2.85690E-05 3.23124E-09-3.31331E-19 1.77650E-18
 -1      1468 9.52327E-05-2.85699E-05-2.85698E-05 1.18433E-09 7.22138E-19 1.05028E-18
 -1      1469 9.52338E-05-2.85702E-05-2.85701E-05 1.12779E-09 1.57520E-18 2.97325E-18
 -1      1470 9.52325E-05-2.85699E-05-2.85697E-05 2.57523E-09 3.04194E-19 2.27929E-18
 -1      1471 9.52346E-05-2.85705E-05-2.85703E-05 8.79826E-10-9.35402E-20 2.56331E-18
 -1      1472 9.52354E-05-2.85707E-05-2.85706E-05 8.23969E-10-9.16074E-19 2.23621E-18
 -1      1473 9.52342E-05-2.85704E-05-2.85702E-05 1.96893E-09 9.63045E-19 1.67802E-18
 -1      1474 9.52359E-05-2.85709E-05-2.85707E-05 5.74146E-10 7.14979E-19 2.39338E-18
 -1      1475 9.52364E-05-2.85710E-05-2.85709E-05 5.11342E-10-3.99390E-19 2.61559E-18
 -1      1476 9.52355E-05-2.85708E-05-2.85706E-05 1.37862E-09 2.15899E-19 8.11909E-19
 -1      1477 9.52368E-05-2.85711E-05-2.85710E-05 2.55398E-10-9.22108E-19 2.72995E-18
 -1      1478 9.52370E-05-2.85712E-05-2.85711E-05 1.77930E-10 2.28768E-19 2.09928E-18
 -1      1479 9.52364E-05-2.85711E-05-2.85708E-05 7.79821E-10-6.23863E-19 1.37419E-18
 -1      1480 9.52372E-05-2.85711E-05-2.85712E-05-4.21665E-11-1.54987E-18 2.14135E-18
 -1      1481 9.84720E-05-2.89530E-05-3.03509E-05 3.80331E-06 1.32103E-18 1.18410E-17
 -1      1482 1.05370E-04-3.02610E-05-3.30441E-05 5.29073E-06 1.18389E-18 1.39504E-17
 -1      1483 1.05177E-04-2.74273E-05-3.36161E-05 1.43980E-05 2.31007E-18 9.24113E-18
 -1      1484 9.20136E-05-2.74833E-05-2.77181E-05 2.23418E-06 1.03476E-18 9.28060E-18
 -1      1485 9.50445E-05-2.79809E-05-2.89751E-05 2.46348E-06 9.31948E-19 1.08476E-17
 -1      1486 9.79740E-05-2.85629E-05-2.99272E-05 6.66094E-06 2.01525E-18 7.38958E-18
 -1      1487 8.76811E-05-2.63046E-05-2.62678E-05 1.74748E-06 6.44099E-19 7.37162E-18
 -1      1488 8.97203E-05-2.67925E-05-2.69622E-05 1.79828E-06 7.05823E-19 8.54867E-18
 -1      1489 9.26705E-05-2.75950E-05-2.79051E-05 4.19098E-06 1.53424E-18 6.00602E-18
 -1      1490 8.41420E-05-2.52428E-05-2.52129E-05 1.59433E-06 6.32151E-19 6.01845E-18
 -1      1491 8.59023E-05-2.57515E-05-2.57362E-05 1.59578E-06 4.58840E-19 6.76745E-18
 -1      1492 8.87925E-05-2.65978E-05-2.66398E-05 3.39288E-06 1.08276E-18 4.67987E-18
 -1      1493 8.10685E-05-2.42788E-05-2.43350E-05 1.40970E-06 4.21298E-19 4.58100E-18
 -1      1494 8.26574E-05-2.47632E-05-2.47843E-05 1.43136E-06 5.38506E-19 5.48820E-18
 -1      1495 8.56230E-05-2.56375E-05-2.57012E-05 2.98677E-06 1.11817E-18 3.72854E-18
 -1      1496 7.86496E-05-2.35023E-05-2.36554E-05 1.02866E-06 3.49699E-19 3.91078E-18
 -1      1497 7.99095E-05-2.38795E-05-2.40042E-05 1.10814E-06 2.44885E-19 4.25595E-18
 -1      1498 8.30325E-05-2.47774E-05-2.49759E-05 2.42510E-06 5.92136E-19 3.05217E-18
 -1      1499 7.72651E-05-2.30497E-05-2.32720E-05 4.22169E-07 2.10670E-19 3.44192E-18
 -1      1500 7.79526E-05-2.32285E-05-2.34574E-05 5.67395E-07 1.81457E-19 3.64101E-18
 -1      1501 8.12089E-05-2.41326E-05-2.44863E-05 1.49148E-06 4.37579E-19 2.33504E-18
 -1      1502 7.72334E-05-2.30328E-05-2.32693E-05-3.21263E-07-2.07589E-20 3.00904E-18
 -1      1503 7.71588E-05-2.29517E-05-2.32416E-05-1.31839E-07 2.33692E-19 3.20790E-18
 -1      1504 8.04266E-05-2.38337E-05-2.42895E-05 2.19318E-07 3.43161E-19 2.01548E-18
 -1      1505 7.86294E-05-2.34780E-05-2.36673E-05-1.04113E-06 3.77572E-19 2.55796E-18
 -1      1506 7.77538E-05-2.31344E-05-2.34171E-05-8.48230E-07 1.39952E-19 2.74356E-18
 -1      1507 8.08517E-05-2.39625E-05-2.44189E-05-1.17114E-06 3.10173E-19 1.36393E-18
 -1      1508 8.12204E-05-2.43057E-05-2.44046E-05-1.57578E-06 3.72556E-19 1.95242E-18
 -1      1509 7.96851E-05-2.37600E-05-2.39701E-05-1.42140E-06 3.22921E-19 2.42306E-18
 -1      1510 8.24251E-05-2.45048E-05-2.48556E-05-2.38052E-06 5.22954E-19 6.60977E-19
 -1      1511 8.45366E-05-2.53572E-05-2.53549E-05-1.82818E-06 5.72194E-20 1.42147E-18
 -1      1512 8.26158E-05-2.47102E-05-2.48102E-05-1.73877E-06 2.41736E-19 1.65557E-18
 -1      1513 8.48535E-05-2.53479E-05-2.55249E-05-3.16056E-06 5.00762E-19 7.43642E-19
 -1      1514 8.80259E-05-2.64501E-05-2.63662E-05-1.79352E-06 1.40106E-19 1.08583E-18
 -1      1515 8.60350E-05-2.58082E-05-2.57977E-05-1.77298E-06 1.94375E-19 1.25587E-18
 -1      1516 8.77012E-05-2.63227E-05-2.63165E-05-3.40626E-06 1.69290E-19 4.50827E-19
 -1      1517 9.12118E-05-2.74325E-05-2.73027E-05-1.54174E-06 1.15660E-19 5.41095E-19
 -1      1518 8.94173E-05-2.68778E-05-2.67852E-05-1.57553E-06 1.61600E-19 7.17715E-19
 -1      1519 9.05245E-05-2.72631E-05-2.71143E-05-3.17011E-06 4.34578E-19 1.39410E-19
 -1      1520 9.37890E-05-2.82125E-05-2.80727E-05-1.17519E-06 2.16390E-21-3.61571E-19
 -1      1521 9.23561E-05-2.77892E-05-2.76545E-05-1.24044E-06 2.67722E-19 7.67094E-20
 -1      1522 9.29822E-05-2.80509E-05-2.78242E-05-2.60901E-06 5.41036E-19-4.75318E-19
 -1      1523 9.56399E-05-2.87605E-05-2.86362E-05-7.88745E-07-2.61670E-19-5.15102E-20
 -1      1524 9.46262E-05-2.84768E-05-2.83360E-05-8.63654E-07-3.17268E-19-3.10404E-19
 -1      1525 9.48853E-05-2.86315E-05-2.83883E-05-1.90766E-06-2.11520E-19-4.64900E-19
 -1      1526 9.67964E-05-2.90926E-05-2.89967E-05-4.47608E-07 4.42684E-19-5.28514E-19
 -1      1527 9.61758E-05-2.89321E-05-2.88094E-05-5.16725E-07 1.67034E-19-1.78125E-19
 -1      1528 9.61889E-05-2.90037E-05-2.87871E-05-1.21919E-06 2.33725E-19-8.98593E-19
 -1      1529 9.73782E-05-2.92507E-05-2.91854E-05-1.83464E-07 2.22652E-19-9.19708E-19
 -1      1530 9.70774E-05-2.91851E-05-2.90916E-05-2.38721E-07 1.42664E-19-5.50246E-19
 -1      1531 9.69507E-05-2.91992E-05-2.90306E-05-6.38869E-07 2.34779E-19-1.38465E-18
 -1      1532 9.75380E-05-2.92839E-05-2.92455E-05-1.79472E-09-3.60650E-19-9.02863E-19
 -1      1533 9.74676E-05-2.92832E-05-2.92201E-05-4.10038E-08 7.63297E-20-9.80275E-19
 -1      1534 9.72818E-05-2.92629E-05-2.91466E-05-2.05781E-07 1.88523E-19-7.79450E-19
 -1      1535 9.74225E-05-2.92379E-05-2.92198E-05 1.07530E-07 4.12730E-19-7.97248E-19
 -1      1536 9.74990E-05-2.92757E-05-2.92388E-05 8.29574E-08-1.64319E-21-6.83863E-19
 -1      1537 9.73075E-05-2.92394E-05-2.91692E-05 8.13242E-08-2.94410E-20-1.11522E-18
 -1      1538 9.71531E-05-2.91492E-05-2.91449E-05 1.61177E-07-4.55525E-19-7.58144E-19
 -1      1539 9.73089E-05-2.92056E-05-2.91885E-05 1.48197E-07-3.96164E-20-6.54265E-19
 -1      1540 9.71419E-05-2.91656E-05-2.91310E-05 2.45801E-07-1.17749E-21-2.89292E-19
 -1      1541 9.68188E-05-2.90441E-05-2.90480E-05 1.76384E-07 1.28463E-19-9.05667E-19
 -1      1542 9.70053E-05-2.91055E-05-2.91016E-05 1.71638E-07 1.02987E-19-7.47861E-19
 -1      1543 9.68758E-05-2.90693E-05-2.90591E-05 3.18808E-07-2.28525E-19-5.08249E-19
 -1      1544 9.64789E-05-2.89396E-05-2.89476E-05 1.67874E-07 2.90773E-19-1.59672E-18
 -1      1545 9.66646E-05-2.89977E-05-2.90018E-05 1.68393E-07 2.33917E-19-1.18952E-18
 -1      1546 9.65744E-05-2.89687E-05-2.89737E-05 3.30445E-07 3.79037E-19-1.32948E-18
 -1      1547 9.61680E-05-2.88454E-05-2.88547E-05 1.46786E-07-7.51244E-19-1.31982E-18
 -1      1548 9.63351E-05-2.88958E-05-2.89039E-05 1.50264E-07-3.24947E-19-1.98582E-18
 -1      1549 9.62799E-05-2.88751E-05-2.88880E-05 3.05490E-07-4.79566E-20-1.48796E-18
 -1      1550 9.59029E-05-2.87658E-05-2.87749E-05 1.20770E-07-5.28055E-19 2.20569E-19
 -1      1551 9.60432E-05-2.88070E-05-2.88165E-05 1.25581E-07-8.01141E-19-1.08395E-18
 -1      1552 9.60161E-05-2.87939E-05-2.88099E-05 2.62226E-07-9.89952E-19-2.40027E-18
 -1      1553 9.56886E-05-2.87021E-05-2.87100E-05 9.45954E-08 3.16967E-19 2.81455E-19
 -1      1554 9.58004E-05-2.87341E-05-2.87434E-05 9.96916E-08 2.60256E-19 6.22750E-19
 -1      1555 9.57938E-05-2.87272E-05-2.87434E-05 2.12929E-07-2.58112E-19-1.61274E-18
 -1      1556 9.55231E-05-2.86532E-05-2.86597E-05 7.09027E-08-5.88680E-20-3.47749E-19
 -1      1557 9.56082E-05-2.86769E-05-2.86852E-05 7.56747E-08 1.58472E-19 1.66854E-19
 -1      1558 9.56154E-05-2.86748E-05-2.86894E-05 1.65071E-07 3.25111E-19-6.34728E-20
 -1      1559 9.54006E-05-2.86172E-05-2.86223E-05 5.08796E-08-5.53892E-19-7.28856E-20
 -1      1560 9.54625E-05-2.86340E-05-2.86409E-05 5.50244E-08-2.35562E-19-7.41770E-20
 -1      1561 9.54781E-05-2.86352E-05-2.86475E-05 1.22629E-07-2.85722E-19 9.03431E-19
 -1      1562 9.53136E-05-2.85918E-05-2.85956E-05 3.48047E-08-6.59483E-19 2.64849E-19
 -1      1563 9.53566E-05-2.86032E-05-2.86086E-05 3.82173E-08-6.13405E-19-1.79795E-19
 -1      1564 9.53765E-05-2.86064E-05-2.86162E-05 8.72445E-08-9.40892E-19 1.17972E-18
 -1      1565 9.52548E-05-2.85748E-05-2.85775E-05 2.24394E-08 1.10447E-18-2.81440E-19
 -1      1566 9.52831E-05-2.85820E-05-2.85861E-05 2.51324E-08 4.91537E-19 4.19456E-19
 -1      1567 9.53043E-05-2.85863E-05-2.85938E-05 5.91186E-08 4.61761E-19-2.78766E-19
 -1      1568 9.52175E-05-2.85641E-05-2.85660E-05 1.32925E-08 9.97119E-19-2.10824E-18
 -1      1569 9.52348E-05-2.85682E-05-2.85713E-05 1.53410E-08 1.10162E-18-1.19493E-18
 -1      1570 9.52553E-05-2.85729E-05-2.85785E-05 3.76560E-08 1.45648E-18-1.01935E-18
 -1      1571 9.51960E-05-2.85580E-05-2.85592E-05 6.78792E-09-2.63468E-19-2.34126E-18
 -1      1572 9.52053E-05-2.85600E-05-2.85621E-05 8.29286E-09 1.56127E-19-2.00653E-18
 -1      1573 9.52241E-05-2.85646E-05-2.85686E-05 2.18928E-08 8.52457E-19-1.03330E-18
 -1      1574 9.51855E-05-2.85552E-05-2.85559E-05 2.36067E-09-4.63541E-19-4.83331E-19
 -1      1575 9.51893E-05-2.85557E-05-2.85571E-05 3.42741E-09-5.12198E-19-1.44511E-18
 -1      1576 9.52058E-05-2.85600E-05-2.85627E-05 1.07623E-08-8.72291E-19 2.64292E-20
 -1      1577 9.51825E-05-2.85545E-05-2.85548E-05-4.92976E-10-1.90625E-19 7.12157E-19
 -1      1578 9.51827E-05-2.85541E-05-2.85550E-05 2.33238E-10-6.94151E-19-4.42931E-19
 -1      1579 9.51966E-05-2.85579E-05-2.85596E-05 3.24688E-09-1.08170E-18-7.94599E-19
 -1      1580 9.51842E-05-2.85551E-05-2.85553E-05-2.19571E-09 1.04892E-19 1.42247E-18
 -1      1581 9.51822E-05-2.85542E-05-2.85547E-05-1.72555E-09-8.43029E-20 1.30492E-18
 -1      1582 9.51937E-05-2.85575E-05-2.85585E-05-1.54736E-09-5.09993E-19 6.40221E-19
 -1      1583 9.51887E-05-2.85566E-05-2.85566E-05-3.08671E-09 1.53583E-18-9.23390E-19
 -1      1584 9.51855E-05-2.85554E-05-2.85557E-05-2.80302E-09 1.34871E-18 9.89227E-19
 -1      1585 9.51948E-05-2.85581E-05-2.85586E-05-4.36303E-09 1.55239E-18 9.95493E-19
 -1      1586 9.51946E-05-2.85584E-05-2.85583E-05-3.42844E-09-5.13665E-19-1.93502E-18
 -1      1587 9.51909E-05-2.85572E-05-2.85572E-05-3.27599E-09 1.72484E-19-1.74413E-18
 -1      1588 9.51982E-05-2.85594E-05-2.85595E-05-5.79182E-09 1.09485E-18-9.15876E-19
 -1      1589 9.52010E-05-2.85604E-05-2.85602E-05-3.41742E-09-1.15310E-18 2.19746E-18
 -1      1590 9.51972E-05-2.85591E-05-2.85591E-05-3.35379E-09-1.03459E-18 1.21766E-19
 -1      1591 9.52028E-05-2.85609E-05-2.85608E-05-6.28887E-09-2.14912E-18 1.49625E-19
 -1      1592 9.52073E-05-2.85623E-05-2.85621E-05-3.19615E-09 7.09191E-19 1.75974E-18
 -1      1593 9.52036E-05-2.85611E-05-2.85610E-05-3.18969E-09 1.62152E-19 1.99382E-18
 -1      1594 9.52078E-05-2.85625E-05-2.85623E-05-6.19323E-09-6.64654E-20 9.74479E-19
 -1      1595 9.52131E-05-2.85640E-05-2.85638E-05-2.86446E-09 1.14974E-19 2.67507E-19
 -1      1596 9.52098E-05-2.85630E-05-2.85629E-05-2.89225E-09 6.86987E-19 1.27509E-18
 -1      1597 9.52129E-05-2.85640E-05-2.85638E-05-5.74944E-09 1.30844E-18 1.80984E-18
 -1      1598 9.52182E-05-2.85655E-05-2.85654E-05-2.48938E-09-7.82137E-20 1.32111E-19
 -1      1599 9.52154E-05-2.85647E-05-2.85646E-05-2.53540E-09 2.01364E-19 8.07861E-20
 -1      1600 9.52176E-05-2.85654E-05-2.85652E-05-5.12769E-09 2.28637E-19 3.22373E-18
 -1      1601 9.52227E-05-2.85669E-05-2.85668E-05-2.11321E-09 2.35616E-18-1.69962E-18
 -1      1602 9.52203E-05-2.85662E-05-2.85660E-05-2.16679E-09 8.82313E-19-2.46420E-19
 -1      1603 9.52218E-05-2.85667E-05-2.85665E-05-4.44110E-09 1.21978E-18 1.32486E-18
 -1      1604 9.52265E-05-2.85680E-05-2.85679E-05-1.75988E-09 1.27049E-19-5.64435E-18
 -1      1605 9.52245E-05-2.85674E-05-2.85673E-05-1.81445E-09 8.06071E-19-3.14358E-18
 -1      1606 9.52254E-05-2.85678E-05-2.85676E-05-3.75976E-09 2.28606E-18-4.95906E-19
 -1      1607 9.52296E-05-2.85689E-05-2.85688E-05-1.43938E-09 5.41562E-19-5.75109E-18
 -1      1608 9.52280E-05-2.85685E-05-2.85683E-05-1.49171E-09 7.88793E-19-4.72762E-18
 -1      1609 9.52285E-05-2.85687E-05-2.85685E-05-3.12146E-09 8.49187E-19-1.37781E-18
 -1      1610 9.52322E-05-2.85697E-05-2.85696E-05-1.15082E-09-1.09094E-18-4.71289E-18
 -1      1611 9.52308E-05-2.85693E-05-2.85692E-05-1.20054E-09-1.33634E-18-6.85572E-18
 -1      1612 9.52311E-05-2.85694E-05-2.85693E-05-2.53928E-09-6.56032E-19-3.30808E-18
 -1      1613 9.52342E-05-2.85703E-05-2.85702E-05-8.84267E-10 9.72109E-19-5.47072E-18
 -1      1614 9.52331E-05-2.85700E-05-2.85699E-05-9.33667E-10 1.04349E-18-4.89872E-18
 -1      1615 9.52332E-05-2.85701E-05-2.85699E-05-2.00675E-09 4.46107E-19-4.89017E-18
 -1      1616 9.52357E-05-2.85708E-05-2.85707E-05-6.22852E-10-4.97079E-19-5.83823E-18
 -1      1617 9.52349E-05-2.85705E-05-2.85704E-05-6.76868E-10-1.36527E-19-5.57839E-18
 -1      1618 9.52348E-05-2.85705E-05-2.85704E-05-1.50213E-09 6.06258E-19-2.25500E-18
 -1      1619 9.52366E-05-2.85710E-05-2.85710E-05-3.44514E-10-3.81931E-19-3.76244E-18
 -1      1620 9.52362E-05-2.85709E-05-2.85708E-05-4.12603E-10-8.36941E-19-4.98050E-18
 -1      1621 9.52360E-05-2.85709E-05-2.85707E-05-9.95027E-10-9.35308E-19-1.80937E-18
 -1      1622 9.52371E-05-2.85712E-05-2.85711E-05-6.80566E-11 5.31220E-19-4.69824E-18
 -1      1623 9.52369E-05-2.85712E-05-2.85710E-05-1.39971E-10 4.53527E-19-3.83501E-18
 -1      1624 9.52367E-05-2.85711E-05-2.85710E-05-4.64345E-10 3.09833E-19-2.43587E-19
 -1      1625 9.52372E-05-2.85711E-05-2.85712E-05 3.13320E-11-2.84331E-18-3.02154E-18
 -1      1626 9.52372E-05-2.85715E-05-2.85710E-05-2.70762E-10 8.57251E-20 1.70796E-18
 -1      1627 9.52371E-05-2.85713E-05-2.85711E-05-1.98879E-10-3.00065E-18 2.90678E-18
 -1      1628 9.52374E-05-2.85723E-05-2.85708E-05-5.47783E-10 1.88025E-18 1.36885E-18
 -1      1629 9.52373E-05-2.85718E-05-2.85709E-05-4.97523E-10 5.07588E-20 1.67173E-18
 -1      1630 9.52372E-05-2.85718E-05-2.85709E-05-7.62213E-10 6.54739E-19 2.75453E-18
 -1      1631 9.52378E-05-2.85734E-05-2.85705E-05-7.17736E-10 1.42941E-18 5.14040E-19
 -1      1632 9.52376E-05-2.85728E-05-2.85706E-05-6.93744E-10 1.28912E-18 2.18339E-19
 -1      1633 9.52375E-05-2.85727E-05-2.85706E-05-1.20924E-09-3.39835E-19 1.07218E-18
 -1      1634 9.52382E-05-2.85746E-05-2.85701E-05-7.57017E-10-1.04045E-18-2.67424E-18
 -1      1635 9.52380E-05-2.85739E-05-2.85703E-05-7.59890E-10 1.82807E-18-9.62788E-19
 -1      1636 9.52379E-05-2.85737E-05-2.85704E-05-1.43216E-09-6.94932E-19-2.09397E-19
 -1      1637 9.52386E-05-2.85758E-05-2.85698E-05-6.77080E-10-3.82255E-18-1.17217E-18
 -1      1638 9.52384E-05-2.85751E-05-2.85700E-05-7.01589E-10-1.51227E-18-2.64117E-18
 -1      1639 9.52383E-05-2.85747E-05-2.85701E-05-1.41147E-09-2.26635E-18-3.57944E-18
 -1      1640 9.52389E-05-2.85767E-05-2.85695E-05-4.97892E-10-3.05485E-18 7.81987E-19
 -1      1641 9.52387E-05-2.85762E-05-2.85696E-05-5.39916E-10-3.11081E-18-3.03297E-19
 -1      1642 9.52386E-05-2.85757E-05-2.85698E-05-1.17740E-09-2.59281E-18-1.07844E-18
 -1      1643 9.52390E-05-2.85772E-05-2.85694E-05-2.50416E-10-1.55651E-18 7.82404E-19
 -1      1644 9.52390E-05-2.85770E-05-2.85694E-05-3.02958E-10-2.93083E-18 1.89706E-18
 -1      1645 9.52388E-05-2.85764E-05-2.85696E-05-7.74830E-10-1.26240E-18 1.12437E-18
 -1      1646 9.52391E-05-2.85773E-05-2.85693E-05 3.03425E-11 5.97224E-19 9.62200E-19
 -1      1647 9.52391E-05-2.85773E-05-2.85693E-05-2.57709E-11-1.28175E-18 2.44229E-18
 -1      1648 9.52390E-05-2.85768E-05-2.85695E-05-2.67273E-10-8.61828E-20 1.82666E-18
 -1      1649 9.52390E-05-2.85769E-05-2.85694E-05 3.07378E-10 2.34371E-18-3.00666E-19
 -1      1650 9.52390E-05-2.85772E-05-2.85694E-05 2.54897E-10 1.68159E-18 2.66706E-19
 -1      1651 9.52390E-05-2.85768E-05-2.85695E-05 2.75913E-10 5.54152E-19 1.87020E-18
 -1      1652 9.52387E-05-2.85762E-05-2.85697E-05 5.43727E-10-1.45202E-18-2.36098E-18
 -1      1653 9.52389E-05-2.85767E-05-2.85695E-05 5.02006E-10 1.88113E-18-2.72091E-18
 -1      1654 9.52388E-05-2.85764E-05-2.85696E-05 7.83008E-10 2.79860E-19-2.39052E-18
 -1      1655 9.52384E-05-2.85751E-05-2.85700E-05 7.02922E-10-3.91299E-18-2.86877E-20
 -1      1656 9.52386E-05-2.85758E-05-2.85698E-05 6.78723E-10-2.20250E-18-9.39992E-19
 -1      1657 9.52386E-05-2.85757E-05-2.85698E-05 1.18193E-09-1.31563E-18-3.48107E-18
 -1      1658 9.52380E-05-2.85739E-05-2.85703E-05 7.60815E-10-2.86786E-18-8.87027E-19
 -1      1659 9.52382E-05-2.85746E-05-2.85701E-05 7.58441E-10-3.66310E-18 1.37643E-18
 -1      1660 9.52382E-05-2.85747E-05-2.85701E-05 1.41430E-09-6.69521E-19 9.96612E-19
 -1      1661 9.52376E-05-2.85728E-05-2.85706E-05 6.92183E-10-2.64413E-18 1.29892E-18
 -1      1662 9.52378E-05-2.85734E-05-2.85705E-05 7.16874E-10-3.62857E-18 1.23225E-18
 -1      1663 9.52379E-05-2.85737E-05-2.85704E-05 1.43220E-09-9.90951E-19-4.94413E-19
 -1      1664 9.52373E-05-2.85718E-05-2.85709E-05 4.86035E-10-1.75589E-18 9.26747E-19
 -1      1665 9.52374E-05-2.85723E-05-2.85708E-05 5.45680E-10-3.12505E-18 1.85195E-18
 -1      1666 9.52375E-05-2.85727E-05-2.85706E-05 1.20879E-09-2.44320E-18 1.26386E-18
 -1      1667 2.14844E-05-6.82499E-05 1.41070E-05-2.61188E-06 7.59196E-18 4.07952E-18
 -1      1668 2.56827E-05-8.20610E-05 1.72411E-05 5.66625E-06 2.61648E-18 2.65524E-18
 -1      1669 2.01474E-05-3.56017E-05 2.60563E-06 7.00225E-06 1.43606E-17 9.23097E-18
 -1      1670 2.50332E-05-6.11423E-05 9.37053E-06 2.06081E-06 9.30550E-18 5.69799E-18
 -1      1671 3.61644E-05-5.38139E-06-1.47546E-05 3.51778E-05 1.70660E-17 1.29774E-17
 -1      1672 2.91012E-05-2.73197E-05-5.21741E-06 1.49003E-05 1.59911E-17 9.67862E-18
 -1      1673 8.49134E-05-5.45399E-07-3.49141E-05 6.80914E-05 1.41073E-17 1.34949E-17
 -1      1674 5.79166E-05-4.88620E-06-2.45071E-05 4.48339E-05 1.59030E-17 1.28952E-17
 -1      1675 1.46090E-04-1.29700E-05-5.33971E-05 8.59791E-05 9.68116E-18 1.17373E-17
 -1      1676 1.05176E-04 4.58040E-07-4.43586E-05 7.44112E-05 1.33763E-17 1.33408E-17
 -1      1677 2.14268E-04-4.23120E-05-6.83426E-05 7.00746E-05 5.26823E-18 5.85384E-18
 -1      1678 1.70920E-04-2.09501E-05-6.10416E-05 7.94724E-05 8.30177E-18 9.55961E-18
 -1      1679 2.60268E-04-6.43795E-05-7.74641E-05 3.23834E-05 3.05186E-18-7.48777E-19
 -1      1680 2.34508E-04-4.94548E-05-7.39282E-05 6.14592E-05 4.24221E-18 4.18773E-18
 -1      1681 2.60175E-04-6.35783E-05-7.84176E-05-2.26018E-05 4.45349E-18-9.41943E-18
 -1      1682 2.64103E-04-6.55849E-05-7.88121E-05 1.47029E-05 3.54017E-18-3.66628E-18
 -1      1683 2.13961E-04-3.98394E-05-7.04667E-05-6.44655E-05 8.03464E-18-1.55744E-17
 -1      1684 2.47611E-04-5.83598E-05-7.54563E-05-3.78432E-05 5.35600E-18-1.13748E-17
 -1      1685 1.50210E-04-1.27438E-05-5.66718E-05-8.09226E-05 1.24755E-17-1.88965E-17
 -1      1686 1.94811E-04-3.37072E-05-6.45498E-05-7.75682E-05 9.53632E-18-1.74218E-17
 -1      1687 8.73099E-05 2.38959E-06-3.86022E-05-6.57642E-05 1.64087E-17-1.76471E-17
 -1      1688 1.25485E-04-6.59725E-06-4.82775E-05-8.19933E-05 1.40099E-17-1.89015E-17
 -1      1689 4.66143E-05-6.96529E-06-1.93870E-05-3.72067E-05 1.64477E-17-1.31824E-17
 -1      1690 6.67001E-05 2.34373E-06-2.92389E-05-5.95230E-05 1.63884E-17-1.64282E-17
 -1      1691 2.86906E-05-3.27719E-05-2.41634E-06-1.53262E-05 1.24531E-17-8.36551E-18
 -1      1692 3.20842E-05-1.13322E-05-1.07851E-05-3.01826E-05 1.53177E-17-1.18500E-17
 -1      1693 2.34049E-05-6.11338E-05 1.03407E-05-4.64083E-06 5.98005E-18-4.85689E-18
 -1      1694 1.83265E-05-3.87983E-05 4.65528E-06-5.76147E-06 1.14316E-17-7.38962E-18
 -1      1695 2.28561E-05-7.54525E-05 1.61053E-05-9.27762E-06-2.72469E-18-3.66257E-18
 -1      1696 2.04539E-05-6.63386E-05 1.40017E-05-2.99973E-07 3.57109E-18-4.11383E-18
 -1      1697 1.93041E-05-6.64625E-05 1.39760E-05-1.31511E-05-1.07052E-17-6.10605E-18
 -1      1698 2.27927E-05-7.48980E-05 1.59023E-05-5.38961E-06-5.00861E-18-4.24893E-18
 -1      1699 2.02002E-05-4.33080E-05 4.36532E-06-4.46742E-06-1.67221E-17-1.07376E-17
 -1      1700 2.42996E-05-6.43886E-05 1.03588E-05-8.03789E-06-1.27758E-17-7.11148E-18
 -1      1701 3.69625E-05-1.84866E-05-1.17392E-05 2.10875E-05-1.91260E-17-1.60564E-17
 -1      1702 3.00628E-05-3.86510E-05-2.68274E-06 2.49648E-06-1.79876E-17-1.24988E-17
 -1      1703 9.81475E-05-1.91791E-05-3.40081E-05 5.47533E-05-1.56193E-17-1.79588E-17
 -1      1704 6.67832E-05-2.39984E-05-2.21216E-05 2.98869E-05-1.72744E-17-1.57845E-17
 -1      1705 1.68985E-04-2.97779E-05-5.57812E-05 7.66381E-05-1.26208E-17-2.03627E-17
 -1      1706 1.19900E-04-1.60108E-05-4.48664E-05 6.19730E-05-1.57794E-17-2.03119E-17
 -1      1707 2.48796E-04-5.99121E-05-7.31118E-05 5.70243E-05-8.17334E-18-1.46732E-17
 -1      1708 1.96556E-04-3.69725E-05-6.45209E-05 6.67119E-05-1.12380E-17-1.83027E-17
 -1      1709 2.97636E-04-7.85754E-05-8.33866E-05 2.15349E-05-4.31224E-18-7.35013E-18
 -1      1710 2.69033E-04-6.41620E-05-7.94199E-05 5.27836E-05-6.58854E-18-1.32307E-17
 -1      1711 2.90507E-04-7.37866E-05-8.31387E-05-3.05030E-05-4.54645E-18 2.67917E-18
 -1      1712 3.00093E-04-7.88680E-05-8.44276E-05 7.40746E-06-4.24025E-18-4.23315E-18
 -1      1713 2.37342E-04-5.07635E-05-7.33945E-05-6.68993E-05-8.16953E-18 1.18483E-17
 -1      1714 2.80534E-04-7.18635E-05-7.98075E-05-4.47125E-05-5.28919E-18 5.22704E-18
 -1      1715 1.60580E-04-2.46351E-05-5.61243E-05-7.17134E-05-1.18686E-17 1.70999E-17
 -1      1716 2.12910E-04-4.48354E-05-6.58269E-05-7.46272E-05-8.87775E-18 1.45114E-17
 -1      1717 9.11536E-05-1.28684E-05-3.54103E-05-5.11141E-05-1.47900E-17 1.67797E-17
 -1      1718 1.31804E-04-1.88320E-05-4.63733E-05-7.15601E-05-1.26962E-17 1.79283E-17
 -1      1719 4.75513E-05-2.46181E-05-1.45112E-05-2.03945E-05-1.38405E-17 1.31697E-17
 -1      1720 6.79006E-05-1.27508E-05-2.51522E-05-4.43299E-05-1.47282E-17 1.65968E-17
 -1      1721 2.80712E-05-5.04698E-05 3.22827E-06 2.41410E-06-1.14002E-17 7.65252E-18
 -1      1722 2.98272E-05-2.72976E-05-5.27121E-06-1.18101E-05-1.37338E-17 1.16086E-17
 -1      1723 2.49082E-05-7.49162E-05 1.43261E-05 9.53325E-06-6.77584E-18 4.51384E-18
 -1      1724 1.92311E-05-5.59636E-05 9.70771E-06 1.06936E-05-1.04507E-17 6.28678E-18
 -1      1725 2.46078E-05-8.22284E-05 1.79186E-05 3.15032E-06 6.29028E-19 2.66942E-18
 -1      1726 2.22061E-05-7.73135E-05 1.69297E-05 1.29596E-05-4.62649E-18 3.94887E-18
 -1      1727 9.52370E-05-2.85712E-05-2.85711E-05 1.62060E-10-1.07889E-18 4.10143E-19
 -1      1728 4.13446E-05-3.91872E-05-3.75655E-06 3.32604E-05 7.63770E-18 8.72698E-18
 -1      1729 9.52371E-05-2.85712E-05-2.85711E-05-5.62196E-11-3.07606E-18-3.13892E-19
 -1      1730 9.52370E-05-2.85714E-05-2.85710E-05-3.38002E-10 3.57271E-20 2.12899E-18
 -1      1731 1.20572E-05-5.45408E-05 1.33263E-05 7.66774E-06 8.01928E-19 5.34393E-18
 -1      1732 2.07664E-05-4.99604E-05 8.21727E-06 1.97437E-05 4.32283E-18 7.01640E-18
 -1      1733 9.52371E-05-2.85713E-05-2.85711E-05 1.88156E-10-1.48288E-18-1.04394E-18
 -1      1734 9.52372E-05-2.85715E-05-2.85710E-05 2.73862E-10 4.41922E-19-1.35333E-18
 -1      1735 9.52372E-05-2.85718E-05-2.85709E-05 7.61251E-10-1.16986E-18 7.45103E-19
 -1      1736 7.82796E-05-3.17858E-05-2.06079E-05 4.66166E-05 9.10645E-18 7.88461E-18
 -1      1737 1.21243E-04-2.84054E-05-3.86135E-05 5.21673E-05 9.00438E-18 6.30362E-18
 -1      1738 1.64168E-04-2.83939E-05-5.50439E-05 4.86508E-05 7.55045E-18 4.08948E-18
 -1      1739 2.00249E-04-3.24129E-05-6.74602E-05 3.33099E-05 6.26593E-18 1.14222E-18
 -1      1740 2.21425E-04-3.58698E-05-7.41356E-05 1.22677E-05 6.23120E-18-2.96080E-18
 -1      1741 2.12820E-04-3.27641E-05-7.25597E-05-1.24741E-05 7.12482E-18-6.52808E-18
 -1      1742 1.89166E-04-3.03460E-05-6.42623E-05-3.58464E-05 8.18234E-18-9.59053E-18
 -1      1743 1.50727E-04-2.69591E-05-5.06355E-05-5.07084E-05 9.53590E-18-1.16569E-17
 -1      1744 1.06617E-04-2.69376E-05-3.37341E-05-5.13795E-05 9.62780E-18-1.10783E-17
 -1      1745 6.75515E-05-3.13153E-05-1.67578E-05-4.53181E-05 7.65802E-18-9.58926E-18
 -1      1746 3.51889E-05-3.63154E-05-2.09820E-06-3.42226E-05 5.36595E-18-8.56668E-18
 -1      1747 1.56042E-05-4.40657E-05 8.14274E-06-1.93839E-05 1.78893E-18-7.69000E-18
 -1      1748 9.93574E-06-4.70234E-05 1.13712E-05-5.87923E-06-2.55846E-18-7.49539E-18
 -1      1749 1.89019E-05-4.76288E-05 7.75742E-06 8.07001E-06-6.25449E-18-8.37123E-18
 -1      1750 4.22460E-05-4.61511E-05-2.39073E-06 2.15914E-05-9.41223E-18-1.02186E-17
 -1      1751 8.84477E-05-4.80849E-05-1.92093E-05 3.43070E-05-9.98567E-18-1.06104E-17
 -1      1752 1.41448E-04-5.04590E-05-3.86859E-05 3.46238E-05-9.46136E-18-1.10055E-17
 -1      1753 1.91018E-04-4.83055E-05-5.77661E-05 2.75262E-05-9.03424E-18-1.02288E-17
 -1      1754 2.29315E-04-4.78372E-05-7.13688E-05 1.54412E-05-8.71936E-18-7.79101E-18
 -1      1755 2.45924E-04-4.36065E-05-7.83146E-05 3.93620E-06-7.80499E-18-3.59904E-18
 -1      1756 2.41330E-04-4.48781E-05-7.62315E-05-1.08391E-05-8.32887E-18 9.65194E-19
 -1      1757 2.13859E-04-4.69309E-05-6.59782E-05-2.68741E-05-8.63802E-18 5.33970E-18
 -1      1758 1.66587E-04-4.58498E-05-4.96381E-05-3.76224E-05-8.17641E-18 8.71766E-18
 -1      1759 1.14684E-04-4.52064E-05-3.06352E-05-3.79899E-05-7.75374E-18 9.94840E-18
 -1      1760 6.86815E-05-4.67543E-05-1.22105E-05-3.08999E-05-6.65006E-18 9.25511E-18
 -1      1761 3.39556E-05-5.02322E-05 2.72101E-06-1.76782E-05-5.30751E-18 7.10211E-18
 -1      1762 1.60711E-05-5.42135E-05 1.14458E-05-4.02909E-06-2.92735E-18 6.38282E-18
 -1      1763 1.31113E-04-3.03641E-05-4.32350E-05-9.97173E-06-1.70285E-18 7.81642E-18
 -1      1764 8.07870E-05-3.88782E-06-3.31603E-05-2.96109E-06-2.11066E-18-2.83507E-18
 -1      1765 8.90595E-05-7.36516E-06-3.50389E-05-3.28810E-06-2.38744E-18-1.88552E-18
 -1      1766 9.90887E-05-1.35459E-05-3.69051E-05-3.31218E-06-2.33413E-18-6.69685E-19
 -1      1767 1.08641E-04-1.84753E-05-3.89344E-05-4.99445E-06-2.52100E-18 8.61909E-19
 -1      1768 9.55410E-05-1.33367E-05-3.51864E-05-2.11110E-07-2.32584E-18-1.13227E-18
 -1      1769 6.28980E-05 3.94980E-06-2.86650E-05-9.75672E-06-1.69258E-18-4.58141E-18
 -1      1770 6.44783E-05 3.75972E-06-2.92888E-05-8.30249E-06-1.86280E-18-4.39185E-18
 -1      1771 6.48108E-05 1.80312E-06-2.84957E-05-1.30806E-05-1.51672E-18-4.71758E-18
 -1      1772 6.32198E-05 2.92179E-06-2.84419E-05-1.21474E-05-1.66370E-18-4.71080E-18
 -1      1773 6.23298E-05 3.20147E-06-2.80505E-05-1.19113E-05-1.87763E-18-4.67086E-18
 -1      1774 7.14049E-05-2.61810E-06-2.94063E-05-1.37707E-05-1.22736E-18-4.43208E-18
 -1      1775 6.79636E-05-8.75037E-07-2.88660E-05-1.39884E-05-1.37906E-18-4.56127E-18
 -1      1776 6.64853E-05-6.08080E-07-2.82508E-05-1.51331E-05-1.66913E-18-4.60380E-18
 -1      1777 7.93901E-05-7.25351E-06-3.08709E-05-1.14740E-05-7.65135E-19-4.05554E-18
 -1      1778 7.56244E-05-5.60039E-06-3.01124E-05-1.28677E-05-9.86317E-19-4.21187E-18
 -1      1779 7.46830E-05-6.32254E-06-2.93775E-05-1.48492E-05-1.33175E-18-4.24410E-18
 -1      1780 8.62050E-05-1.06462E-05-3.23871E-05-7.00897E-06-1.74641E-19-3.64413E-18
 -1      1781 8.31700E-05-9.51166E-06-3.16454E-05-9.20354E-06-4.74550E-19-3.83627E-18
 -1      1782 8.33565E-05-1.15227E-05-3.08928E-05-1.12970E-05-7.85610E-19-3.79536E-18
 -1      1783 9.07437E-05-1.24012E-05-3.36257E-05-1.56791E-06 4.65094E-19-3.38996E-18
 -1      1784 8.88177E-05-1.18616E-05-3.30429E-05-4.11325E-06 1.80319E-19-3.53321E-18
 -1      1785 9.01175E-05-1.48941E-05-3.23338E-05-5.86842E-06-7.22890E-20-3.39213E-18
 -1      1786 9.30637E-05-1.28890E-05-3.44444E-05 3.84647E-06 1.13300E-18-2.97036E-18
 -1      1787 9.21349E-05-1.27795E-05-3.40704E-05 1.31583E-06 7.95827E-19-3.22487E-18
 -1      1788 9.41967E-05-1.63752E-05-3.34263E-05-1.86967E-08 6.38951E-19-3.13172E-18
 -1      1789 9.39301E-05-1.27777E-05-3.48877E-05 8.95905E-06 1.90633E-18-2.46174E-18
 -1      1790 9.36165E-05-1.28487E-05-3.46861E-05 6.50631E-06 1.51735E-18-2.71778E-18
 -1      1791 9.60669E-05-1.66400E-05-3.40951E-05 5.45705E-06 1.40697E-18-2.61278E-18
 -1      1792 9.42620E-05-1.27996E-05-3.50514E-05 1.35415E-05 2.58736E-18-1.56878E-18
 -1      1793 9.40989E-05-1.27589E-05-3.49544E-05 1.12279E-05 2.20543E-18-2.08473E-18
 -1      1794 9.66362E-05-1.65285E-05-3.43729E-05 1.02384E-05 2.16331E-18-1.97213E-18
 -1      1795 9.53085E-05-1.39098E-05-3.50915E-05 1.75591E-05 3.11547E-18-6.51157E-21
 -1      1796 9.46517E-05-1.33119E-05-3.49956E-05 1.53316E-05 2.83653E-18-9.64426E-19
 -1      1797 9.70022E-05-1.69424E-05-3.43376E-05 1.41191E-05 2.88774E-18-9.75875E-19
 -1      1798 9.93172E-05-1.81472E-05-3.50518E-05 2.00906E-05 3.20517E-18 3.18437E-18
 -1      1799 9.67583E-05-1.56995E-05-3.49223E-05 1.85241E-05 3.11760E-18 1.29379E-18
 -1      1800 9.84597E-05-1.90541E-05-3.40365E-05 1.65926E-05 3.30976E-18 8.75223E-19
 -1      1801 1.04978E-04-2.59841E-05-3.43335E-05 1.64025E-05 2.73353E-18 7.11592E-18
 -1      1802 1.01214E-04-2.03880E-05-3.46251E-05 1.92334E-05 2.98237E-18 4.52909E-18
 -1      1803 1.00719E-04-2.31775E-05-3.32979E-05 1.59100E-05 3.31290E-18 3.28855E-18
 -1      1804 1.01306E-04-2.70212E-05-3.20787E-05 1.14792E-05 2.75683E-18 6.28627E-18
 -1      1805 1.22131E-04-2.56964E-05-4.11025E-05-8.30607E-06-2.26655E-18 3.41481E-18
 -1      1806 9.65761E-05-2.79791E-05-2.94394E-05 6.74536E-06 2.15509E-18 5.07946E-18
 -1      1807 9.97681E-05-2.82748E-05-3.07125E-05 8.75953E-06 2.27648E-18 5.84805E-18
 -1      1808 1.00070E-04-2.66640E-05-3.14247E-05 1.15062E-05 2.68446E-18 4.15827E-18
 -1      1809 1.22150E-04-3.32141E-05-3.79828E-05 9.24295E-06-1.50242E-18 2.51378E-18
 -1      1810 1.24313E-04-3.50772E-05-3.81743E-05 1.17116E-05-1.06637E-18 2.18230E-18
 -1      1811 1.26170E-04-3.71972E-05-3.79364E-05 1.40574E-05-3.55019E-19 2.43675E-18
 -1      1812 1.29923E-04-4.05290E-05-3.83074E-05 1.36989E-05 1.52294E-19 2.42987E-18
 -1      1813 1.15195E-04-3.23544E-05-3.55996E-05 1.50908E-05-7.26109E-19 8.84164E-19
 -1      1814 1.34883E-04-4.49566E-05-3.82333E-05 1.26195E-05 8.73000E-19 2.82701E-18
 -1      1815 1.39077E-04-4.93876E-05-3.85030E-05 7.83409E-06 1.09643E-18 3.22742E-18
 -1      1816 1.22099E-04-4.10456E-05-3.48775E-05 1.73328E-05 6.17990E-19 1.41100E-18
 -1      1817 1.46504E-04-5.44867E-05-3.90426E-05 2.34276E-06 9.59265E-19 3.73401E-18
 -1      1818 1.48367E-04-5.66824E-05-3.94617E-05-4.94516E-06 2.56069E-19 3.77320E-18
 -1      1819 1.34940E-04-5.37732E-05-3.50356E-05 1.20174E-05 1.23646E-18 2.01853E-18
 -1      1820 1.60096E-04-4.91467E-05-4.80460E-05-2.76569E-05-3.52747E-18 2.69293E-18
 -1      1821 1.53905E-04-3.76474E-05-5.01960E-05-2.46275E-05-5.22641E-18 1.57358E-18
 -1      1822 1.53610E-04-3.00107E-05-5.38086E-05-1.60749E-05-6.49293E-18 2.91856E-19
 -1      1823 1.50733E-04-2.49469E-05-5.45166E-05-1.34417E-06-7.02953E-18-1.68581E-18
 -1      1824 1.52076E-04-4.23515E-05-4.75366E-05 2.72892E-05-3.61683E-18-6.01923E-18
 -1      1825 1.58184E-04-5.26150E-05-4.58630E-05 2.65444E-05-1.56627E-18-6.57393E-18
 -1      1826 1.53455E-04-5.64768E-05-4.18033E-05 1.78950E-05 3.68671E-19-6.73812E-18
 -1      1827 1.53901E-04-5.89288E-05-4.06403E-05 8.72257E-06 1.70735E-18-6.56122E-18
 -1      1828 1.44234E-04-5.41668E-05-3.87602E-05-1.19778E-06 1.57183E-18-5.76829E-18
 -1      1829 1.40632E-04-5.03482E-05-3.83852E-05-8.70427E-06 1.93192E-18-5.44870E-18
 -1      1830 1.45734E-04-6.03595E-05-3.68581E-05-2.09178E-06 2.10821E-18-5.43462E-18
 -1      1831 1.33293E-04-4.50686E-05-3.79186E-05-1.34644E-05 1.71879E-18-4.74996E-18
 -1      1832 1.28451E-04-4.09440E-05-3.73340E-05-1.65550E-05 1.66108E-18-4.51638E-18
 -1      1833 1.28624E-04-4.82387E-05-3.45885E-05-1.63169E-05 2.33622E-18-3.68496E-18
 -1      1834 1.24218E-04-3.78920E-05-3.70316E-05-1.71340E-05 1.33736E-18-4.61786E-18
 -1      1835 1.19601E-04-3.51808E-05-3.61415E-05-1.71719E-05 8.54636E-19-3.99311E-18
 -1      1836 1.17060E-04-3.74961E-05-3.41848E-05-2.09239E-05 1.40858E-18-2.91955E-18
 -1      1837 1.17325E-04-3.38885E-05-3.57286E-05-1.59711E-05 7.99804E-19-3.23879E-18
 -1      1838 1.13546E-04-3.23517E-05-3.48034E-05-1.47863E-05 6.77974E-19-2.42121E-18
 -1      1839 1.10565E-04-3.18156E-05-3.37940E-05-1.98182E-05 1.28472E-18-2.35887E-18
 -1      1840 1.11977E-04-3.18240E-05-3.42892E-05-1.30044E-05 3.44200E-19-1.94385E-18
 -1      1841 1.08814E-04-3.08766E-05-3.34109E-05-1.15014E-05 2.44852E-19-2.09582E-18
 -1      1842 1.06684E-04-2.94666E-05-3.31081E-05-1.65069E-05 7.60791E-19-1.22388E-18
 -1      1843 1.07678E-04-3.07069E-05-3.29157E-05-9.81725E-06 3.55489E-20-1.52150E-18
 -1      1844 1.05270E-04-3.01309E-05-3.22051E-05-8.49218E-06 2.34919E-19-1.15563E-18
 -1      1845 1.03986E-04-2.86999E-05-3.22715E-05-1.27326E-05 2.50861E-19-1.16751E-18
 -1      1846 1.04371E-04-3.00652E-05-3.17794E-05-7.12480E-06-1.25169E-19-1.01864E-18
 -1      1847 1.02590E-04-2.96940E-05-3.12390E-05-6.09486E-06-6.34362E-19-6.93541E-19
 -1      1848 1.01963E-04-2.85644E-05-3.14601E-05-9.41976E-06 2.12572E-19 8.64096E-20
 -1      1849 1.01868E-04-2.96505E-05-3.08971E-05-5.06117E-06-6.90276E-19-8.83105E-19
 -1      1850 1.00577E-04-2.93993E-05-3.04999E-05-4.30806E-06-6.98167E-19-8.07753E-19
 -1      1851 1.00368E-04-2.86011E-05-3.07609E-05-6.80230E-06-7.74115E-19 3.67721E-19
 -1      1852 1.00003E-04-2.93576E-05-3.02364E-05-3.55558E-06-8.41554E-19-1.54498E-18
 -1      1853 9.90778E-05-2.91823E-05-2.99500E-05-3.02138E-06-8.27449E-19-1.88634E-18
 -1      1854 9.91016E-05-2.86513E-05-3.01973E-05-4.84521E-06-1.31806E-18 4.88541E-20
 -1      1855 9.86303E-05-2.91413E-05-2.97518E-05-2.48440E-06-3.42559E-19-2.26229E-18
 -1      1856 9.79739E-05-2.90170E-05-2.95477E-05-2.11099E-06 5.41722E-19-1.88266E-18
 -1      1857 9.81076E-05-2.86761E-05-2.97609E-05-3.42514E-06-7.83274E-19-6.12213E-19
 -1      1858 9.76472E-05-2.89793E-05-2.94079E-05-1.74910E-06 1.07239E-18-2.47618E-18
 -1      1859 9.71992E-05-2.88954E-05-2.92687E-05-1.49884E-06 1.04353E-18-1.93426E-18
 -1      1860 9.73558E-05-2.86791E-05-2.94382E-05-2.42932E-06 9.51880E-19-1.74672E-18
 -1      1861 9.69344E-05-2.88618E-05-2.91592E-05-1.22580E-06 2.03036E-19-2.64998E-18
 -1      1862 9.65998E-05-2.87970E-05-2.90550E-05-1.04204E-06-8.26792E-19-2.89464E-18
 -1      1863 9.67799E-05-2.86628E-05-2.91968E-05-1.72269E-06 1.18509E-19-1.99239E-18
 -1      1864 9.64033E-05-2.87689E-05-2.89757E-05-8.50284E-07-1.60043E-18-3.24330E-18
 -1      1865 9.61684E-05-2.87235E-05-2.89024E-05-7.22022E-07-8.92978E-19-3.58875E-18
 -1      1866 9.63339E-05-2.86428E-05-2.90137E-05-1.20547E-06-1.19767E-18-3.21527E-18
 -1      1867 9.60235E-05-2.87011E-05-2.88452E-05-5.86792E-07 6.98116E-20-3.17504E-18
 -1      1868 9.58595E-05-2.86694E-05-2.87938E-05-4.97194E-07 3.80568E-19-3.14615E-18
 -1      1869 9.60025E-05-2.86216E-05-2.88802E-05-8.39724E-07-7.19040E-19-2.25532E-18
 -1      1870 9.57539E-05-2.86522E-05-2.87528E-05-4.01670E-07-1.80425E-20-3.17831E-18
 -1      1871 9.56405E-05-2.86304E-05-2.87171E-05-3.38945E-07-1.63258E-19-2.34818E-18
 -1      1872 9.57594E-05-2.86028E-05-2.87835E-05-5.80768E-07 1.07996E-19-1.90282E-18
 -1      1873 9.55645E-05-2.86176E-05-2.86880E-05-2.71452E-07 4.40943E-19-1.89521E-18
 -1      1874 9.54870E-05-2.86030E-05-2.86634E-05-2.27544E-07 1.46151E-18-1.66628E-18
 -1      1875 9.55833E-05-2.85876E-05-2.87140E-05-3.97316E-07 6.18669E-19-1.26970E-18
 -1      1876 9.54332E-05-2.85939E-05-2.86429E-05-1.79927E-07 1.27887E-18-2.70653E-18
 -1      1877 9.53813E-05-2.85844E-05-2.86263E-05-1.49319E-07 4.43824E-20-2.12978E-18
 -1      1878 9.54575E-05-2.85763E-05-2.86646E-05-2.67457E-07 8.47893E-19-1.32028E-18
 -1      1879 9.53455E-05-2.85783E-05-2.86128E-05-1.17387E-07 1.54326E-19-1.37173E-18
 -1      1880 9.53128E-05-2.85728E-05-2.86022E-05-9.69632E-08 1.16714E-18-4.48778E-20
 -1      1881 9.53710E-05-2.85688E-05-2.86305E-05-1.77455E-07 8.66376E-19-9.36599E-19
 -1      1882 9.52868E-05-2.85686E-05-2.85923E-05-7.32026E-08 1.25230E-18 4.76006E-19
 -1      1883 9.52649E-05-2.85652E-05-2.85851E-05-5.83738E-08 1.43165E-18 9.25226E-19
 -1      1884 9.53111E-05-2.85636E-05-2.86068E-05-1.14307E-07 1.87836E-18 7.83398E-19
 -1      1885 9.52478E-05-2.85625E-05-2.85786E-05-4.21025E-08 2.34380E-19 2.10327E-19
 -1      1886 9.52348E-05-2.85609E-05-2.85742E-05-3.20843E-08-4.54971E-19-6.35056E-19
 -1      1887 9.52697E-05-2.85608E-05-2.85901E-05-6.89237E-08 3.84832E-19 1.13390E-18
 -1      1888 9.52241E-05-2.85594E-05-2.85700E-05-2.11280E-08-5.69444E-19-9.22145E-19
 -1      1889 9.52172E-05-2.85590E-05-2.85675E-05-1.45529E-08-1.01183E-19-5.93880E-19
 -1      1890 9.52431E-05-2.85595E-05-2.85790E-05-3.79112E-08-8.67756E-19-8.51382E-19
 -1      1891 9.52108E-05-2.85583E-05-2.85650E-05-7.38184E-09-8.13694E-19-9.07554E-19
 -1      1892 9.52079E-05-2.85586E-05-2.85638E-05-3.23168E-09-1.25813E-18-1.08654E-18
 -1      1893 9.52269E-05-2.85595E-05-2.85720E-05-1.71921E-08-1.23971E-18-1.31408E-18
 -1      1894 9.52046E-05-2.85584E-05-2.85624E-05 1.26433E-09-1.71158E-18-9.87529E-19
 -1      1895 9.52043E-05-2.85592E-05-2.85621E-05 3.72397E-09-1.69701E-18-6.19620E-19
 -1      1896 9.52179E-05-2.85601E-05-2.85678E-05-3.80054E-09-1.80449E-18-1.53128E-18
 -1      1897 9.52030E-05-2.85593E-05-2.85615E-05 6.35967E-09-4.65779E-19 1.63143E-19
 -1      1898 9.52043E-05-2.85602E-05-2.85616E-05 7.65547E-09 3.63857E-19-6.93498E-19
 -1      1899 9.52138E-05-2.85612E-05-2.85655E-05 4.43183E-09-7.52796E-19-8.06146E-22
 -1      1900 9.52043E-05-2.85606E-05-2.85615E-05 8.97441E-09 4.04558E-20-8.35541E-19
 -1      1901 9.52062E-05-2.85615E-05-2.85620E-05 9.49088E-09 6.26929E-19-5.19522E-19
 -1      1902 9.52128E-05-2.85625E-05-2.85645E-05 9.02761E-09-1.11255E-19-8.18358E-20
 -1      1903 9.52070E-05-2.85620E-05-2.85621E-05 1.00478E-08 6.76556E-19-7.07816E-19
 -1      1904 9.52095E-05-2.85630E-05-2.85628E-05 1.01048E-08 1.10115E-18-1.06002E-18
 -1      1905 9.52138E-05-2.85637E-05-2.85644E-05 1.12638E-08 7.06307E-19-4.58533E-19
 -1      1906 9.52107E-05-2.85635E-05-2.85631E-05 1.01052E-08 4.90185E-19-1.18695E-18
 -1      1907 9.52133E-05-2.85644E-05-2.85638E-05 9.85898E-09 9.98721E-19-7.87490E-19
 -1      1908 9.52159E-05-2.85650E-05-2.85647E-05 1.19831E-08 9.22237E-19-1.95362E-18
 -1      1909 9.52146E-05-2.85648E-05-2.85642E-05 9.53005E-09 4.80228E-19-1.02560E-18
 -1      1910 9.52171E-05-2.85657E-05-2.85649E-05 9.11564E-09 4.32065E-20-1.06998E-18
 -1      1911 9.52186E-05-2.85662E-05-2.85653E-05 1.16899E-08 7.99036E-19-1.83234E-18
 -1      1912 9.52185E-05-2.85661E-05-2.85653E-05 8.61074E-09 3.04067E-19-7.00296E-19
 -1      1913 9.52208E-05-2.85668E-05-2.85660E-05 8.12220E-09-1.44496E-18-7.54319E-19
 -1      1914 9.52214E-05-2.85672E-05-2.85661E-05 1.08093E-08 7.73293E-20-1.38952E-18
 -1      1915 9.52221E-05-2.85672E-05-2.85664E-05 7.54361E-09-3.04961E-18-1.04220E-18
 -1      1916 9.52241E-05-2.85678E-05-2.85670E-05 7.04109E-09-2.25468E-18-1.02059E-18
 -1      1917 9.52242E-05-2.85681E-05-2.85669E-05 9.63239E-09-2.14650E-18-1.39797E-18
 -1      1918 9.52253E-05-2.85681E-05-2.85674E-05 6.45403E-09-5.00961E-19-2.52209E-19
 -1      1919 9.52270E-05-2.85687E-05-2.85679E-05 5.97252E-09 1.37824E-18 5.04763E-21
 -1      1920 9.52268E-05-2.85689E-05-2.85677E-05 8.35054E-09-1.29188E-18-5.11668E-19
 -1      1921 9.52281E-05-2.85689E-05-2.85682E-05 5.44307E-09 2.23928E-18 8.79379E-19
 -1      1922 9.52295E-05-2.85693E-05-2.85686E-05 5.02039E-09 1.83229E-18 1.57704E-18
 -1      1923 9.52290E-05-2.85695E-05-2.85684E-05 7.10962E-09 1.58043E-18 3.13324E-18
 -1      1924 9.52304E-05-2.85696E-05-2.85689E-05 4.50358E-09 8.01701E-19 9.15372E-19
 -1      1925 9.52316E-05-2.85699E-05-2.85693E-05 4.10276E-09 2.70993E-19 2.21027E-18
 -1      1926 9.52310E-05-2.85700E-05-2.85690E-05 5.94640E-09 1.02039E-18 2.08105E-18
 -1      1927 9.52324E-05-2.85701E-05-2.85696E-05 3.63248E-09-3.02258E-19 3.44582E-18
 -1      1928 9.52334E-05-2.85704E-05-2.85698E-05 3.26735E-09 4.46924E-19 3.17243E-18
 -1      1929 9.52327E-05-2.85704E-05-2.85695E-05 4.84654E-09 9.02460E-19 1.98920E-18
 -1      1930 9.52340E-05-2.85706E-05-2.85701E-05 2.83344E-09 1.09985E-18 2.88830E-18
 -1      1931 9.52348E-05-2.85708E-05-2.85703E-05 2.48898E-09 2.69694E-19 2.72248E-18
 -1      1932 9.52341E-05-2.85708E-05-2.85700E-05 3.83744E-09 4.22062E-19 3.25933E-18
 -1      1933 9.52353E-05-2.85710E-05-2.85704E-05 2.07327E-09 3.13424E-20 2.03163E-18
 -1      1934 9.52359E-05-2.85711E-05-2.85706E-05 1.73108E-09 8.34273E-20 1.92112E-18
 -1      1935 9.52352E-05-2.85711E-05-2.85703E-05 2.89499E-09-5.00863E-19 3.56612E-18
 -1      1936 9.52363E-05-2.85713E-05-2.85707E-05 1.32369E-09-1.00329E-18 1.58328E-18
 -1      1937 9.52366E-05-2.85714E-05-2.85708E-05 9.86883E-10-1.20471E-18 8.94713E-19
 -1      1938 9.52362E-05-2.85714E-05-2.85706E-05 1.98285E-09-4.75549E-19 3.23445E-18
 -1      1939 9.26679E-05-2.75050E-05-2.79050E-05 5.05815E-06 1.63861E-18 4.18048E-18
 -1      1940 9.48731E-05-2.79311E-05-2.86472E-05 5.74307E-06 1.76925E-18 4.76614E-18
 -1      1941 9.64760E-05-2.78426E-05-2.93842E-05 7.73379E-06 2.11901E-18 3.49574E-18
 -1      1942 6.07965E-05-3.78151E-05-1.01928E-05 4.66151E-05 3.70492E-18 6.21092E-18
 -1      1943 4.55957E-05-4.08095E-05-3.34969E-06 3.91108E-05 1.80037E-18 6.75879E-18
 -1      1944 8.93883E-05-2.66566E-05-2.68606E-05 4.36872E-06 1.32763E-18 3.25250E-18
 -1      1945 9.11257E-05-2.71474E-05-2.73765E-05 4.63460E-06 1.33591E-18 3.82775E-18
 -1      1946 9.31580E-05-2.75630E-05-2.81003E-05 6.13966E-06 1.69758E-18 2.94031E-18
 -1      1947 8.66028E-05-2.57098E-05-2.60769E-05 3.75088E-06 1.04632E-18 2.70162E-18
 -1      1948 8.80489E-05-2.62049E-05-2.64740E-05 4.00352E-06 1.20878E-18 3.01766E-18
 -1      1949 9.02649E-05-2.67622E-05-2.72170E-05 5.23239E-06 1.42893E-18 2.26430E-18
 -1      1950 8.43948E-05-2.48360E-05-2.55085E-05 2.74428E-06 7.18787E-19 2.10825E-18
 -1      1951 8.55131E-05-2.52580E-05-2.57986E-05 3.18757E-06 8.46305E-19 2.52338E-18
 -1      1952 8.78153E-05-2.58087E-05-2.65853E-05 4.20209E-06 1.00105E-18 1.86653E-18
 -1      1953 8.30177E-05-2.42356E-05-2.51792E-05 1.23628E-06 5.56610E-19 1.46006E-18
 -1      1954 8.36819E-05-2.44943E-05-2.53399E-05 1.91661E-06 6.09794E-19 1.82022E-18
 -1      1955 8.59934E-05-2.49692E-05-2.61719E-05 2.65497E-06 8.60989E-19 1.29862E-18
 -1      1956 8.27119E-05-2.40791E-05-2.51191E-05-5.94453E-07 3.99978E-19 1.08081E-18
 -1      1957 8.28041E-05-2.41031E-05-2.51289E-05 2.36839E-07 3.69955E-19 1.20497E-18
 -1      1958 8.50465E-05-2.44866E-05-2.59776E-05 5.97712E-07 6.68448E-19 5.92865E-19
 -1      1959 8.35493E-05-2.44297E-05-2.53306E-05-2.38007E-06 6.47338E-19 4.03849E-19
 -1      1960 8.30381E-05-2.42018E-05-2.51874E-05-1.56622E-06 5.31090E-19 8.90690E-19
 -1      1961 8.51419E-05-2.45211E-05-2.60031E-05-1.65068E-06 6.94845E-19 2.00950E-19
 -1      1962 8.53584E-05-2.52056E-05-2.57740E-05-3.73344E-06 4.25690E-19 2.79200E-19
 -1      1963 8.43337E-05-2.47749E-05-2.55023E-05-3.10984E-06 4.51204E-19 3.38532E-19
 -1      1964 8.62420E-05-2.50791E-05-2.62298E-05-3.62456E-06 6.18235E-19 1.58597E-19
 -1      1965 8.77694E-05-2.62155E-05-2.63732E-05-4.41111E-06 2.56076E-19 5.13424E-19
 -1      1966 8.64198E-05-2.56772E-05-2.60189E-05-4.08372E-06 5.66443E-19 5.72058E-19
 -1      1967 8.80862E-05-2.60083E-05-2.66140E-05-4.92431E-06 4.91000E-19 2.67861E-19
 -1      1968 9.03410E-05-2.72406E-05-2.70342E-05-4.38763E-06 4.10094E-19 4.27308E-19
 -1      1969 8.88945E-05-2.66986E-05-2.66525E-05-4.36608E-06 2.62061E-19 4.72439E-19
 -1      1970 9.02816E-05-2.70700E-05-2.70930E-05-5.37259E-06 2.93152E-19 2.39552E-19
 -1      1971 9.26945E-05-2.81128E-05-2.76682E-05-3.82058E-06 8.07987E-19-6.79102E-19
 -1      1972 9.13531E-05-2.76463E-05-2.73095E-05-4.03609E-06 5.99268E-19 7.74903E-20
 -1      1973 9.24384E-05-2.80396E-05-2.75978E-05-5.04427E-06 9.42691E-19-1.29871E-19
 -1      1974 9.45915E-05-2.87488E-05-2.82092E-05-2.95251E-06 2.40321E-19-5.79000E-19
 -1      1975 9.34895E-05-2.83984E-05-2.79092E-05-3.30106E-06 5.43729E-19-4.93375E-19
 -1      1976 9.42741E-05-2.87770E-05-2.80672E-05-4.18408E-06 6.52988E-19-7.27322E-19
 -1      1977 9.59434E-05-2.91414E-05-2.86222E-05-2.01463E-06-3.74183E-20-9.13832E-19
 -1      1978 9.51382E-05-2.89128E-05-2.83980E-05-2.39771E-06-1.13062E-19-8.40900E-19
 -1      1979 9.56491E-05-2.92409E-05-2.84580E-05-3.08466E-06 1.69003E-19-8.74378E-19
 -1      1980 9.67762E-05-2.93306E-05-2.89004E-05-1.17082E-06 4.53189E-19-1.21483E-18
 -1      1981 9.62618E-05-2.92070E-05-2.87532E-05-1.51859E-06 3.55085E-19-1.03387E-18
 -1      1982 9.65473E-05-2.94626E-05-2.87488E-05-1.99129E-06 3.53200E-19-1.41363E-18
 -1      1983 9.71810E-05-2.93733E-05-2.90577E-05-5.05387E-07-2.18061E-20-1.10153E-18
 -1      1984 9.69125E-05-2.93288E-05-2.89776E-05-7.81510E-07 9.28924E-20-1.19642E-18
 -1      1985 9.70307E-05-2.95065E-05-2.89380E-05-1.05923E-06 3.09367E-19-1.01273E-18
 -1      1986 9.72715E-05-2.93243E-05-2.91191E-05-3.82884E-08-3.09349E-20-9.57280E-19
 -1      1987 9.71877E-05-2.93324E-05-2.90909E-05-2.33427E-07 1.03082E-19-1.02992E-18
 -1      1988 9.71959E-05-2.94403E-05-2.90377E-05-3.55206E-07 9.79580E-20-1.15365E-18
 -1      1989 9.71565E-05-2.92270E-05-2.91126E-05 2.50401E-07-1.20650E-19-8.21888E-19
 -1      1990 9.71965E-05-2.92655E-05-2.91201E-05 1.28755E-07-1.07903E-19-9.71309E-19
 -1      1991 9.71426E-05-2.93187E-05-2.90673E-05 1.18431E-07-9.75081E-20-8.86389E-19
 -1      1992 9.69257E-05-2.91115E-05-2.90637E-05 3.98695E-07-4.97169E-20-8.77927E-19
 -1      1993 9.70376E-05-2.91640E-05-2.90928E-05 3.35282E-07 7.31931E-21-5.21017E-19
 -1      1994 9.69574E-05-2.91793E-05-2.90478E-05 3.95537E-07-3.63827E-20-9.64959E-19
 -1      1995 9.66456E-05-2.89969E-05-2.89930E-05 4.47796E-07-1.86065E-19-1.06510E-18
 -1      1996 9.67904E-05-2.90525E-05-2.90325E-05 4.25812E-07-2.86213E-19-1.11684E-18
 -1      1997 9.67071E-05-2.90446E-05-2.89984E-05 5.23758E-07 1.46798E-20-1.01650E-18
 -1      1998 9.63609E-05-2.88936E-05-2.89152E-05 4.33954E-07 5.00321E-19-1.04169E-18
 -1      1999 9.65118E-05-2.89457E-05-2.89573E-05 4.38485E-07 3.44389E-19-9.96862E-19
 -1      2000 9.64387E-05-2.89260E-05-2.89343E-05 5.50290E-07 2.61504E-19-8.66348E-19
 -1      2001 9.60983E-05-2.88062E-05-2.88400E-05 3.85298E-07-1.10261E-19-1.75545E-18
 -1      2002 9.62391E-05-2.88514E-05-2.88799E-05 4.04690E-07 4.92952E-19-1.43046E-18
 -1      2003 9.61819E-05-2.88278E-05-2.88664E-05 5.14752E-07 6.58050E-19-1.08480E-18
 -1      2004 9.58716E-05-2.87356E-05-2.87729E-05 3.21631E-07-1.03896E-18-2.94588E-18
 -1      2005 9.59937E-05-2.87728E-05-2.88080E-05 3.47621E-07-1.00158E-18-2.68434E-18
 -1      2006 9.59535E-05-2.87500E-05-2.88019E-05 4.46920E-07-3.57929E-19-1.98015E-18
 -1      2007 9.56852E-05-2.86808E-05-2.87164E-05 2.55663E-07-8.12054E-20-1.23410E-18
 -1      2008 9.57857E-05-2.87100E-05-2.87455E-05 2.82902E-07-1.08303E-18-2.30807E-18
 -1      2009 9.57607E-05-2.86905E-05-2.87448E-05 3.67197E-07-1.20036E-18-1.89322E-18
 -1      2010 9.55383E-05-2.86397E-05-2.86709E-05 1.94709E-07-1.66019E-19 4.17221E-19
 -1      2011 9.56173E-05-2.86618E-05-2.86940E-05 2.20080E-07 1.63606E-19 6.71742E-21
 -1      2012 9.56047E-05-2.86464E-05-2.86968E-05 2.88308E-07-5.12975E-19-5.84179E-19
 -1      2013 9.54267E-05-2.86099E-05-2.86357E-05 1.42313E-07-9.28760E-19 1.40089E-18
 -1      2014 9.54863E-05-2.86260E-05-2.86533E-05 1.64273E-07-6.50291E-19 7.67231E-19
 -1      2015 9.54830E-05-2.86148E-05-2.86582E-05 2.17286E-07-6.55904E-19 8.58867E-19
 -1      2016 9.53449E-05-2.85892E-05-2.86095E-05 9.95885E-08-1.37912E-19 8.55766E-19
 -1      2017 9.53883E-05-2.86004E-05-2.86224E-05 1.17614E-07-3.59288E-19 1.61156E-18
 -1      2018 9.53913E-05-2.85929E-05-2.86283E-05 1.57267E-07-4.82125E-19 9.54126E-19
 -1      2019 9.52874E-05-2.85754E-05-2.85908E-05 6.62123E-08 1.58370E-18-1.97359E-19
 -1      2020 9.53175E-05-2.85828E-05-2.85998E-05 8.03910E-08 3.79006E-19 5.36633E-19
 -1      2021 9.53245E-05-2.85783E-05-2.86059E-05 1.08929E-07 1.03909E-18 8.79645E-19
 -1      2022 9.52488E-05-2.85667E-05-2.85779E-05 4.11173E-08 1.37439E-18 3.85268E-19
 -1      2023 9.52687E-05-2.85713E-05-2.85840E-05 5.18601E-08 1.32522E-18 5.18009E-19
 -1      2024 9.52777E-05-2.85690E-05-2.85897E-05 7.15367E-08 1.21101E-18 1.61899E-18
 -1      2025 9.52243E-05-2.85617E-05-2.85696E-05 2.29393E-08-7.72034E-19 3.48653E-19
 -1      2026 9.52366E-05-2.85643E-05-2.85734E-05 3.07916E-08 8.53921E-19 2.95033E-19
 -1      2027 9.52463E-05-2.85636E-05-2.85786E-05 4.36609E-08 1.07665E-18 1.99055E-18
 -1      2028 9.52102E-05-2.85593E-05-2.85646E-05 1.02866E-08-8.38595E-19 3.29322E-19
 -1      2029 9.52169E-05-2.85605E-05-2.85667E-05 1.58140E-08-1.07209E-18 2.64403E-19
 -1      2030 9.52265E-05-2.85608E-05-2.85712E-05 2.36330E-08-6.38900E-19 1.08591E-18
 -1      2031 9.52033E-05-2.85586E-05-2.85619E-05 1.88505E-09-1.33546E-18-2.37356E-19
 -1      2032 9.52062E-05-2.85589E-05-2.85629E-05 5.61098E-09-1.00428E-18-4.10775E-19
 -1      2033 9.52151E-05-2.85598E-05-2.85667E-05 9.81424E-09-6.75199E-19 6.80391E-19
 -1      2034 9.52013E-05-2.85590E-05-2.85609E-05-3.35579E-09 4.11686E-19 1.87301E-19
 -1      2035 9.52017E-05-2.85587E-05-2.85612E-05-9.79649E-10-5.39821E-19 2.12429E-19
 -1      2036 9.52096E-05-2.85600E-05-2.85642E-05 7.35441E-10-6.25547E-19 5.84375E-19
 -1      2037 9.52025E-05-2.85600E-05-2.85610E-05-6.32595E-09 2.85248E-18 3.92493E-19
 -1      2038 9.52013E-05-2.85594E-05-2.85607E-05-4.92820E-09 1.18651E-18 4.09297E-19
 -1      2039 9.52080E-05-2.85608E-05-2.85632E-05-4.84411E-09 1.06326E-18-3.63392E-20
 -1      2040 9.52054E-05-2.85614E-05-2.85617E-05-7.72483E-09-1.71545E-18 1.15080E-19
 -1      2041 9.52034E-05-2.85606E-05-2.85611E-05-7.01156E-09 1.09769E-18 6.13360E-19
 -1      2042 9.52090E-05-2.85620E-05-2.85631E-05-7.92748E-09 1.32398E-18 1.96949E-18
 -1      2043 9.52093E-05-2.85629E-05-2.85627E-05-8.08428E-09-2.59192E-18 9.07831E-19
 -1      2044 9.52068E-05-2.85620E-05-2.85621E-05-7.83035E-09-2.67075E-18-2.67525E-19
 -1      2045 9.52114E-05-2.85633E-05-2.85635E-05-9.29707E-09-2.25403E-18 1.43952E-18
 -1      2046 9.52135E-05-2.85643E-05-2.85639E-05-7.79620E-09 1.81248E-18 1.22336E-18
 -1      2047 9.52109E-05-2.85634E-05-2.85632E-05-7.83439E-09 3.77592E-20 1.36536E-18
 -1      2048 9.52145E-05-2.85646E-05-2.85643E-05-9.54388E-09-1.00353E-18 9.81796E-19
 -1      2049 9.52176E-05-2.85656E-05-2.85651E-05-7.14010E-09 7.17292E-20 2.55631E-18
 -1      2050 9.52152E-05-2.85648E-05-2.85644E-05-7.35006E-09 6.39583E-19 1.67748E-18
 -1      2051 9.52180E-05-2.85658E-05-2.85652E-05-9.10069E-09 2.52018E-19 1.14847E-18
 -1      2052 9.52215E-05-2.85668E-05-2.85663E-05-6.30788E-09 6.39112E-19 3.14756E-18
 -1      2053 9.52192E-05-2.85661E-05-2.85656E-05-6.60605E-09 3.13683E-19 3.40028E-18
 -1      2054 9.52213E-05-2.85669E-05-2.85662E-05-8.27391E-09 4.53385E-20 2.66308E-18
 -1      2055 9.52249E-05-2.85678E-05-2.85673E-05-5.42454E-09 3.17703E-18 1.76645E-18
 -1      2056 9.52229E-05-2.85672E-05-2.85667E-05-5.75574E-09 1.86759E-18 2.89841E-18
 -1      2057 9.52245E-05-2.85679E-05-2.85671E-05-7.27184E-09 1.88313E-18 2.48443E-18
 -1      2058 9.52279E-05-2.85687E-05-2.85682E-05-4.56479E-09 9.57677E-19 9.10142E-19
 -1      2059 9.52262E-05-2.85682E-05-2.85677E-05-4.89541E-09 2.59366E-18 1.69603E-18
 -1      2060 9.52273E-05-2.85687E-05-2.85680E-05-6.22791E-09 2.54323E-18 2.63204E-18
 -1      2061 9.52304E-05-2.85694E-05-2.85690E-05-3.76541E-09 8.31058E-19-1.45431E-18
 -1      2062 9.52290E-05-2.85690E-05-2.85686E-05-4.07842E-09 5.89108E-19-6.76919E-19
 -1      2063 9.52297E-05-2.85694E-05-2.85687E-05-5.21915E-09 1.49940E-18 1.09385E-18
 -1      2064 9.52325E-05-2.85700E-05-2.85696E-05-3.03419E-09-2.20038E-20-2.05062E-18
 -1      2065 9.52313E-05-2.85697E-05-2.85693E-05-3.32566E-09 7.75005E-19-1.05825E-18
 -1      2066 9.52317E-05-2.85700E-05-2.85693E-05-4.27998E-09 5.30543E-19 4.77569E-19
 -1      2067 9.52341E-05-2.85705E-05-2.85701E-05-2.35613E-09 5.55401E-19-1.86717E-18
 -1      2068 9.52332E-05-2.85702E-05-2.85699E-05-2.63301E-09-3.96729E-19-2.70489E-18
 -1      2069 9.52334E-05-2.85704E-05-2.85699E-05-3.41238E-09-9.03654E-20 2.50345E-19
 -1      2070 9.52354E-05-2.85709E-05-2.85705E-05-1.70251E-09-6.56117E-19-3.43738E-19
 -1      2071 9.52347E-05-2.85707E-05-2.85703E-05-1.97871E-09 4.45468E-20-8.66413E-19
 -1      2072 9.52348E-05-2.85708E-05-2.85703E-05-2.59511E-09-5.89904E-19 6.34985E-20
 -1      2073 9.52363E-05-2.85712E-05-2.85708E-05-1.04564E-09-6.04852E-19 5.69327E-19
 -1      2074 9.52359E-05-2.85710E-05-2.85707E-05-1.33453E-09-9.63737E-19 1.56347E-19
 -1      2075 9.52359E-05-2.85712E-05-2.85706E-05-1.79927E-09-1.28463E-18 1.28744E-18
 -1      2076 9.52369E-05-2.85713E-05-2.85709E-05-5.54086E-10 8.79437E-20 2.38381E-18
 -1      2077 9.52366E-05-2.85713E-05-2.85709E-05-8.39260E-10-5.40019E-19 1.41357E-18
 -1      2078 9.52365E-05-2.85714E-05-2.85708E-05-1.17153E-09-9.26970E-19 2.79257E-18
 -1      2079 9.52369E-05-2.85715E-05-2.85709E-05-7.15771E-10 2.33605E-19 4.45379E-18
 -1      2080 9.52380E-05-2.85739E-05-2.85703E-05-1.99310E-09-3.11816E-18-8.47122E-19
 -1      2081 9.52377E-05-2.85734E-05-2.85704E-05-1.94150E-09-3.08141E-18 3.69433E-19
 -1      2082 9.52375E-05-2.85729E-05-2.85705E-05-1.80337E-09-2.28206E-18-4.37457E-19
 -1      2083 9.52373E-05-2.85725E-05-2.85706E-05-1.60581E-09-1.82316E-18 1.83368E-18
 -1      2084 9.52375E-05-2.85732E-05-2.85704E-05-2.40015E-09-3.57451E-18-6.48747E-19
 -1      2085 9.52371E-05-2.85721E-05-2.85707E-05-1.33271E-09-6.86839E-19 1.55708E-18
 -1      2086 9.52370E-05-2.85718E-05-2.85708E-05-1.04302E-09-1.49214E-19 2.31232E-18
 -1      2087 9.52368E-05-2.85717E-05-2.85708E-05-1.28656E-09-3.49774E-19 2.40754E-18
 -1      2088 9.52371E-05-2.85723E-05-2.85706E-05-1.93053E-09-2.13827E-18 7.21205E-19
 -1      2089 9.52384E-05-2.85749E-05-2.85701E-05-1.88033E-09-3.20563E-18-4.32517E-18
 -1      2090 9.52382E-05-2.85744E-05-2.85702E-05-1.96133E-09-3.12757E-18-2.63211E-18
 -1      2091 9.52381E-05-2.85741E-05-2.85703E-05-2.50925E-09-4.05027E-18-1.82457E-18
 -1      2092 9.52388E-05-2.85757E-05-2.85699E-05-1.49725E-09-1.22494E-18-5.08831E-20
 -1      2093 9.52386E-05-2.85753E-05-2.85700E-05-1.69208E-09-2.42146E-18-7.32572E-19
 -1      2094 9.52386E-05-2.85750E-05-2.85701E-05-2.25801E-09-2.18930E-18-1.54984E-18
 -1      2095 9.52390E-05-2.85763E-05-2.85697E-05-9.10083E-10-1.29063E-19 2.44935E-18
 -1      2096 9.52389E-05-2.85760E-05-2.85698E-05-1.18523E-09-1.47164E-19 5.22563E-19
 -1      2097 9.52389E-05-2.85757E-05-2.85700E-05-1.69265E-09 5.56720E-20 1.33500E-18
 -1      2098 9.52391E-05-2.85765E-05-2.85697E-05-2.03153E-10-5.87114E-19 1.53675E-18
 -1      2099 9.52391E-05-2.85764E-05-2.85697E-05-5.19899E-10-7.05664E-19 1.91161E-18
 -1      2100 9.52392E-05-2.85762E-05-2.85699E-05-9.01869E-10-3.12051E-20 2.19973E-18
 -1      2101 9.52391E-05-2.85764E-05-2.85697E-05 5.30359E-10-4.06983E-19 3.43250E-19
 -1      2102 9.52391E-05-2.85765E-05-2.85697E-05 2.13734E-10-4.19395E-19 2.09523E-18
 -1      2103 9.52393E-05-2.85763E-05-2.85698E-05 6.24229E-12-9.22247E-19 1.95050E-18
 -1      2104 9.52389E-05-2.85760E-05-2.85698E-05 1.19499E-09-7.01459E-19-3.84452E-18
 -1      2105 9.52390E-05-2.85763E-05-2.85697E-05 9.20454E-10-8.40589E-19-1.15694E-18
 -1      2106 9.52392E-05-2.85762E-05-2.85699E-05 9.14232E-10-1.14668E-18-8.02685E-19
 -1      2107 9.52386E-05-2.85753E-05-2.85700E-05 1.69312E-09-9.33301E-19-1.63341E-18
 -1      2108 9.52388E-05-2.85757E-05-2.85699E-05 1.50189E-09-8.86154E-19-4.36432E-18
 -1      2109 9.52389E-05-2.85757E-05-2.85700E-05 1.69901E-09-3.38748E-19-3.37230E-18
 -1      2110 9.52382E-05-2.85744E-05-2.85702E-05 1.96407E-09 3.70438E-19 1.01792E-18
 -1      2111 9.52384E-05-2.85749E-05-2.85701E-05 1.88243E-09-1.91034E-19 1.51900E-18
 -1      2112 9.52386E-05-2.85750E-05-2.85701E-05 2.25990E-09-2.65329E-19 6.77238E-20
 -1      2113 9.52377E-05-2.85734E-05-2.85704E-05 1.94251E-09-1.62380E-19-5.00174E-19
 -1      2114 9.52379E-05-2.85739E-05-2.85703E-05 1.99532E-09 2.36397E-19-9.80194E-19
 -1      2115 9.52381E-05-2.85741E-05-2.85703E-05 2.51184E-09 3.89264E-19 9.66246E-19
 -1      2116 9.52373E-05-2.85725E-05-2.85706E-05 1.61538E-09-2.13991E-18 5.69239E-19
 -1      2117 9.52375E-05-2.85729E-05-2.85705E-05 1.79465E-09-1.47143E-18-5.77261E-20
 -1      2118 9.52375E-05-2.85731E-05-2.85704E-05 2.39198E-09-1.17623E-18-1.27367E-18
 -1      2119 1.00085E-04-4.05867E-05-2.53950E-05 4.91036E-05 4.75355E-18 3.74854E-18
 -1      2120 7.86766E-05-4.20604E-05-1.67067E-05 4.43023E-05 4.64216E-18 4.84990E-18
 -1      2121 9.52369E-05-2.85714E-05-2.85710E-05 4.88290E-10-6.78977E-19-1.65544E-19
 -1      2122 1.18602E-04-2.68648E-05-3.90580E-05-2.14122E-06-2.26759E-18 2.42426E-18
 -1      2123 1.25296E-05-3.54167E-05 8.39560E-06 1.41557E-05 1.17907E-18 5.22281E-18
 -1      2124 1.10647E-05-3.52167E-05 8.95748E-06 4.71219E-06-8.00989E-19 5.64759E-18
 -1      2125 6.81514E-05 2.13044E-06-3.02371E-05-5.61508E-06-1.90315E-18-4.10251E-18
 -1      2126 7.33801E-05 2.97563E-07-3.15877E-05-4.63496E-06-2.09397E-18-3.52786E-18
 -1      2127 7.71960E-05-3.09067E-06-3.17233E-05-2.12705E-06-2.17785E-18-3.05665E-18
 -1      2128 6.55787E-05 2.67263E-06-2.91946E-05-6.62401E-06-1.99135E-18-4.13428E-18
 -1      2129 1.39458E-04-3.84702E-05-4.24745E-05 4.26634E-05 6.10838E-18 2.04431E-18
 -1      2130 1.19876E-04-4.12847E-05-3.40860E-05 4.05898E-05 5.45320E-18 2.07650E-18
 -1      2131 1.66618E-04-3.46929E-05-5.56473E-05 2.89832E-05 5.71170E-18 0.00000E+00
 -1      2132 1.49635E-04-3.52963E-05-4.88124E-05 3.45215E-05 6.21214E-18 1.50730E-18
 -1      2133 1.49069E-04-4.51938E-05-4.38350E-05 2.41465E-05 3.91043E-18-1.72329E-18
 -1      2134 1.87900E-04-2.86914E-05-6.66748E-05 1.60122E-05 6.28668E-18-1.81011E-18
 -1      2135 1.73167E-04-2.78406E-05-6.17233E-05 2.02700E-05 6.33517E-18-4.02764E-19
 -1      2136 1.92895E-04-2.50079E-05-7.07859E-05 1.90648E-06 6.74196E-18-3.58417E-18
 -1      2137 1.91187E-04-2.57862E-05-6.95929E-05 1.13387E-05 6.47218E-18-1.97803E-18
 -1      2138 1.80044E-04-2.21110E-05-6.70324E-05-8.67067E-06 7.45347E-18-4.43019E-18
 -1      2139 1.89966E-04-2.34800E-05-6.97924E-05-2.58813E-06 7.24637E-18-3.50163E-18
 -1      2140 1.67860E-04-2.98924E-05-5.84437E-05-2.46446E-05 7.14239E-18-6.82200E-18
 -1      2141 1.78220E-04-2.84991E-05-6.34893E-05-1.50943E-05 7.09750E-18-5.58872E-18
 -1      2142 1.39899E-04-3.49833E-05-4.51038E-05-3.59996E-05 6.81586E-18-7.20317E-18
 -1      2143 1.59445E-04-3.48359E-05-5.25420E-05-3.35419E-05 6.84879E-18-6.96473E-18
 -1      2144 1.06293E-04-3.84983E-05-2.96577E-05-4.32481E-05 5.31852E-18-7.09475E-18
 -1      2145 1.26661E-04-3.68848E-05-3.79524E-05-4.50632E-05 6.38663E-18-7.63007E-18
 -1      2146 6.99474E-05-3.76406E-05-1.46744E-05-4.53985E-05 3.10819E-18-6.97913E-18
 -1      2147 8.82536E-05-3.62396E-05-2.22581E-05-4.98211E-05 4.72941E-18-7.42806E-18
 -1      2148 3.37572E-05-3.35648E-05-1.40525E-06-3.62721E-05 1.43360E-18-7.55913E-18
 -1      2149 4.77450E-05-3.08347E-05-7.68216E-06-4.50562E-05 2.92989E-18-7.61821E-18
 -1      2150 1.41392E-05-2.98819E-05 5.49168E-06-2.14920E-05-8.93196E-19-7.50471E-18
 -1      2151 2.08759E-05-2.80961E-05 2.29653E-06-3.03527E-05 1.26081E-18-7.83929E-18
 -1      2152 1.09650E-05-2.73485E-05 6.02243E-06-3.82895E-07-2.74206E-18-7.66692E-18
 -1      2153 9.94607E-06-2.70432E-05 6.24608E-06-1.07493E-05-7.35860E-19-7.58687E-18
 -1      2154 2.80499E-05-3.58069E-05 1.97757E-06 2.04886E-05-4.86493E-18-7.65951E-18
 -1      2155 1.78810E-05-3.37953E-05 5.29413E-06 1.13636E-05-2.88626E-18-7.32938E-18
 -1      2156 6.55283E-05-4.48063E-05-9.82269E-06 3.46509E-05-5.47353E-18-7.91552E-18
 -1      2157 4.77616E-05-4.31244E-05-3.57977E-06 2.75082E-05-4.07804E-18-7.34579E-18
 -1      2158 1.14510E-04-5.69148E-05-2.52235E-05 3.49407E-05-5.04112E-18-5.93558E-18
 -1      2159 8.70822E-05-5.29997E-05-1.61605E-05 3.20128E-05-5.30200E-18-6.93148E-18
 -1      2160 9.13027E-05-5.34717E-05-1.64096E-05 3.60103E-05-1.13968E-18-5.04392E-18
 -1      2161 1.64223E-04-5.94529E-05-4.45618E-05 2.12431E-05-6.49463E-18-6.04443E-18
 -1      2162 1.38758E-04-5.96894E-05-3.47151E-05 2.09754E-05-5.59169E-18-5.15081E-18
 -1      2163 2.09202E-04-4.04615E-05-6.97184E-05 1.13338E-07-8.04766E-18-3.64055E-18
 -1      2164 1.96212E-04-4.34825E-05-6.42764E-05 2.30623E-06-8.03263E-18-4.29573E-18
 -1      2165 2.01547E-04-3.26406E-05-7.06529E-05-2.48541E-06-8.40172E-18-1.04791E-18
 -1      2166 2.02347E-04-3.54498E-05-6.97186E-05-2.63224E-06-8.24163E-18-2.94429E-18
 -1      2167 2.00917E-04-3.85398E-05-6.80693E-05 1.64729E-06-8.24417E-18-1.10538E-19
 -1      2168 2.04862E-04-3.53429E-05-7.08170E-05 3.83578E-06-8.13363E-18-1.98333E-18
 -1      2169 1.87026E-04-4.89279E-05-5.85686E-05-6.80686E-06-6.91534E-18 1.61360E-18
 -1      2170 2.02932E-04-4.67738E-05-6.49928E-05-2.96609E-06-7.59916E-18-2.50298E-19
 -1      2171 1.55460E-04-5.47223E-05-4.37781E-05-2.05655E-05-5.14573E-18 4.25380E-18
 -1      2172 1.79216E-04-5.47174E-05-5.23444E-05-1.81719E-05-5.77973E-18 3.24244E-18
 -1      2173 1.15401E-04-5.59146E-05-2.68505E-05-3.00583E-05-3.67062E-18 5.43626E-18
 -1      2174 1.39724E-04-5.54460E-05-3.59586E-05-3.18728E-05-4.53078E-18 5.21561E-18
 -1      2175 7.25358E-05-5.14516E-05-1.06890E-05-3.22760E-05-2.10318E-18 5.89323E-18
 -1      2176 9.47451E-05-5.20678E-05-1.88264E-05-3.74948E-05-2.84434E-18 6.56916E-18
 -1      2177 3.44317E-05-4.45785E-05 2.31891E-06-2.21879E-05-1.95919E-18 5.44557E-18
 -1      2178 4.89639E-05-4.33501E-05-3.57081E-06-3.11592E-05-2.92396E-18 5.78640E-18
 -1      2179 1.47359E-05-3.83506E-05 8.44389E-06-7.15800E-06-5.78841E-19 6.19647E-18
 -1      2180 2.17704E-05-3.95394E-05 6.06826E-06-1.54170E-05-2.30647E-18 6.35190E-18
 -1      2181 2.73384E-05-3.58072E-05 2.54209E-06 3.21618E-05 2.77954E-18 7.32175E-18
 -1      2182 1.93409E-05-3.91464E-05 6.79536E-06 2.35296E-05 1.02491E-18 6.03934E-18
 -1      2183 9.52368E-05-2.85716E-05-2.85708E-05 9.95715E-10-7.27287E-19 1.07444E-18
 -1      2184 1.45378E-05-2.62650E-05 4.24020E-06-3.10405E-06-1.16679E-19 6.79998E-18
 -1      2185 4.41146E-05-3.59343E-05-3.95553E-06 4.37844E-05-9.74511E-19 6.27016E-18
 -1      2186 1.18706E-04-2.93962E-05-3.83139E-05 3.54198E-06-2.09757E-18 1.89741E-18
 -1      2187 1.09578E-04-2.48879E-05-3.64200E-05 6.24020E-06-2.01174E-18 4.27619E-19
 -1      2188 1.21228E-04-5.13609E-05-2.97278E-05 4.02333E-05 2.16756E-18 9.84676E-20
 -1      2189 1.51169E-04-6.26073E-05-3.82369E-05-2.88876E-06-1.30972E-19 2.53506E-18
 -1      2190 1.56862E-04-5.89536E-05-4.19181E-05-1.46070E-05-4.22378E-19 3.91477E-18
 -1      2191 1.54504E-04-5.49396E-05-4.30301E-05-2.12846E-05-1.70619E-18 3.42582E-18
 -1      2192 1.76654E-04-2.59051E-05-6.33302E-05 3.24110E-06-8.41019E-18-1.68618E-18
 -1      2193 1.54023E-04-2.71694E-05-5.48206E-05 1.15079E-05-6.68394E-18-2.82655E-18
 -1      2194 1.62501E-04-5.99457E-05-4.40743E-05 1.92747E-05-6.93614E-19-6.09292E-18
 -1      2195 1.57828E-04-3.47867E-05-5.33750E-05 2.13114E-05-5.60566E-18-4.49415E-18
 -1      2196 8.27846E-05-4.71893E-05-1.53443E-05 4.88195E-05 1.77877E-20 3.41484E-18
 -1      2197 1.69149E-04-1.27782E-05-6.59282E-05 1.34276E-06 7.34039E-18-2.37458E-18
 -1      2198 9.52370E-05-2.85719E-05-2.85707E-05 1.30351E-09-2.24079E-18 3.11871E-18
 -1      2199 1.78322E-05-2.70616E-05 3.19254E-06 2.30569E-05-3.80530E-19 6.23543E-18
 -1      2200 3.35693E-05-3.57318E-05 3.98256E-08-2.60326E-05-4.84926E-20 5.74648E-18
 -1      2201 7.27264E-05-4.99578E-05-1.03002E-05-3.70777E-05 5.74712E-19 4.79601E-18
 -1      2202 1.19886E-04-6.35242E-05-2.43921E-05-3.07625E-05-1.83806E-19 3.57130E-18
 -1      2203 1.58290E-04-6.55545E-05-3.93705E-05-1.28610E-05-2.15273E-18 8.38139E-19
 -1      2204 1.81062E-04-5.57117E-05-5.26364E-05 6.01236E-06-4.72745E-18-1.86686E-18
 -1      2205 1.82506E-04-3.70471E-05-6.06862E-05 1.40357E-05-7.23408E-18-2.82401E-18
 -1      2206 1.79528E-04-2.84486E-05-6.29820E-05-1.22251E-05-8.00870E-18-1.00395E-18
 -1      2207 1.38086E-04-6.59860E-05-3.09448E-05 2.15739E-05-2.44200E-18-2.67620E-18
 -1      2208 4.69844E-05-3.62234E-05-5.20338E-06 3.08714E-05-1.61444E-18-7.05578E-18
 -1      2209 1.74342E-05-2.10344E-05 9.88799E-07 8.20464E-06-1.35366E-18-8.13152E-18
 -1      2210 1.42455E-05-1.72635E-05 8.71716E-07-1.85951E-05-1.33641E-18-8.47456E-18
 -1      2211 3.21523E-05-2.56490E-05-3.21180E-06-3.95729E-05-8.99549E-19-8.08959E-18
 -1      2212 6.82840E-05-3.76440E-05-1.32696E-05-4.93364E-05 1.17738E-19-6.73635E-18
 -1      2213 1.09418E-04-4.65256E-05-2.68504E-05-4.35709E-05 1.56193E-18-5.16838E-18
 -1      2214 1.40495E-04-4.48210E-05-4.05604E-05-2.91139E-05 3.66585E-18-3.99164E-18
 -1      2215 1.59484E-04-3.43339E-05-5.28110E-05-1.37873E-05 5.46887E-18-3.46267E-18
 -1      2216 1.70417E-04-2.21562E-05-6.27387E-05-5.31548E-06 7.08734E-18-3.07600E-18
 -1      2217 1.54105E-04-1.36399E-05-6.06158E-05 4.45692E-06 6.81014E-18-8.00128E-19
 -1      2218 1.55977E-04-2.13367E-05-5.75383E-05 8.85440E-07 6.49865E-18-9.78111E-19
 -1      2219 1.63881E-04-3.16507E-05-5.57828E-05 1.11030E-05 5.61879E-18-2.28275E-18
 -1      2220 1.70136E-04-1.77022E-05-6.40321E-05 2.95778E-06 6.87791E-18-2.69780E-18
 -1      2221 9.52369E-05-2.85721E-05-2.85706E-05 1.90977E-09-1.46019E-18 1.98236E-18
 -1      2222 1.75713E-04-5.07962E-05-5.30944E-05 3.92084E-07-6.59563E-18-3.87094E-18
 -1      2223 1.72781E-04-5.99105E-05-4.80235E-05-1.01623E-05-4.24263E-18-1.12655E-19
 -1      2224 1.77622E-04-4.32749E-05-5.81481E-05-1.96272E-05-6.11388E-18-1.07997E-19
 -1      2225 1.90762E-04-4.94579E-05-5.94528E-05-6.50616E-06-6.65133E-18-2.49875E-18
 -1      2226 6.82221E-05-3.29071E-06-2.76896E-05-1.79253E-05-1.84234E-18-4.49025E-18
 -1      2227 6.39380E-05-6.31138E-07-2.72568E-05-1.72092E-05-2.01299E-18-4.66357E-18
 -1      2228 6.06991E-05 2.45288E-06-2.69558E-05-1.43432E-05-1.94415E-18-4.81539E-18
 -1      2229 5.96398E-05 3.41399E-06-2.71196E-05-1.20406E-05-1.98264E-18-4.65810E-18
 -1      2230 6.16293E-05-2.82363E-07-2.62160E-05-1.78124E-05-2.05799E-18-4.75759E-18
 -1      2231 8.85411E-05-1.62434E-05-3.09512E-05-1.14739E-05-8.61080E-19-3.45900E-18
 -1      2232 8.42162E-05-1.39924E-05-3.01547E-05-1.40469E-05-1.21785E-18-3.65510E-18
 -1      2233 9.48322E-05-1.93159E-05-3.23921E-05-4.85418E-06-9.23134E-21-3.02794E-18
 -1      2234 9.21088E-05-1.80974E-05-3.17406E-05-7.86867E-06-4.66887E-19-3.18530E-18
 -1      2235 9.32059E-05-2.09548E-05-3.10493E-05-1.06016E-05-8.31455E-19-3.03528E-18
 -1      2236 9.79404E-05-2.02739E-05-3.33555E-05 1.48641E-06 7.78082E-19-2.78768E-18
 -1      2237 9.66748E-05-1.98830E-05-3.29267E-05-1.35231E-06 3.53972E-19-2.92975E-18
 -1      2238 9.86830E-05-2.32228E-05-3.23888E-05-3.25127E-06 6.74318E-20-2.63166E-18
 -1      2239 9.88994E-05-2.01346E-05-3.38504E-05 6.98332E-06 1.57337E-18-2.25890E-18
 -1      2240 9.85781E-05-2.01581E-05-3.36360E-05 4.47578E-06 1.10368E-18-2.54708E-18
 -1      2241 1.00957E-04-2.35435E-05-3.31908E-05 3.24064E-06 8.75441E-19-2.30398E-18
 -1      2242 9.87906E-05-1.99091E-05-3.39205E-05 1.12929E-05 2.34684E-18-1.57716E-18
 -1      2243 9.88794E-05-1.99016E-05-3.38926E-05 9.24129E-06 1.88434E-18-1.95778E-18
 -1      2244 1.01226E-04-2.30889E-05-3.34776E-05 8.31488E-06 1.64501E-18-1.77794E-18
 -1      2245 9.87068E-05-2.05476E-05-3.36419E-05 1.42655E-05 3.00582E-18-5.77226E-19
 -1      2246 9.86668E-05-2.00229E-05-3.37617E-05 1.27790E-05 2.60467E-18-1.08854E-18
 -1      2247 1.00678E-04-2.28804E-05-3.33132E-05 1.17975E-05 2.34697E-18-1.00568E-18
 -1      2248 9.96551E-05-2.30264E-05-3.29770E-05 1.50356E-05 3.18749E-18 1.34451E-18
 -1      2249 9.89142E-05-2.13346E-05-3.32857E-05 1.47946E-05 3.07505E-18 9.82294E-20
 -1      2250 1.00207E-04-2.37130E-05-3.27367E-05 1.34371E-05 2.87121E-18 4.27950E-20
 -1      2251 1.00576E-04-2.60732E-05-3.20201E-05 1.29198E-05 2.86776E-18 3.18836E-18
 -1      2252 9.98355E-05-2.39380E-05-3.25146E-05 1.43475E-05 3.08460E-18 2.13885E-18
 -1      2253 9.97917E-05-2.54864E-05-3.18373E-05 1.27229E-05 2.95726E-18 1.37804E-18
 -1      2254 9.88862E-05-2.71058E-05-3.07841E-05 1.03897E-05 2.72276E-18 2.91980E-18
 -1      2255 1.02971E-04-2.47092E-05-3.33942E-05 1.40647E-05-8.40700E-19-3.14501E-19
 -1      2256 1.05195E-04-2.83321E-05-3.28134E-05 1.70564E-05-1.48879E-19-2.67477E-19
 -1      2257 1.73138E-04-3.59894E-05-5.85293E-05-1.91135E-05-6.96092E-18-2.40557E-19
 -1      2258 1.33310E-04-5.55093E-05-3.35753E-05 3.16700E-05 8.23316E-19-2.74121E-18
 -1      2259 1.15998E-04-5.52639E-05-2.59763E-05 3.89480E-05-3.72694E-19-1.25753E-18
 -1      2260 1.44234E-04-6.43351E-05-3.38119E-05 1.08644E-05 6.81756E-19 1.13926E-18
 -1      2261 1.52711E-04-6.67118E-05-3.69323E-05 2.18163E-06-9.48995E-19 1.40703E-18
 -1      2262 1.65856E-04-5.70654E-05-4.71534E-05-2.04012E-05-3.12269E-18 2.09175E-18
 -1      2263 1.07128E-04-3.28628E-05-3.15171E-05 2.08290E-05 6.91444E-19 5.14308E-20
 -1      2264 1.12570E-04-3.95783E-05-3.10453E-05 2.09517E-05 1.20739E-18 1.54107E-19
 -1      2265 9.32746E-05-2.53962E-05-2.91028E-05 2.06450E-05 2.63083E-19-1.31835E-18
 -1      2266 1.18145E-04-4.66588E-05-3.01142E-05 2.20811E-05 1.59502E-18 4.19387E-19
 -1      2267 1.25663E-04-5.44850E-05-3.02913E-05 1.91385E-05 1.49184E-18 4.04180E-19
 -1      2268 9.98380E-05-3.86173E-05-2.62956E-05 2.73822E-05 1.38818E-18-1.13899E-18
 -1      2269 9.61803E-05-2.79326E-05-2.92366E-05 7.82100E-06 2.02144E-18 2.50939E-18
 -1      2270 9.79069E-05-2.78880E-05-2.99917E-05 8.94984E-06 2.26313E-18 2.83011E-18
 -1      2271 9.86859E-05-2.72421E-05-3.05710E-05 1.04002E-05 2.39907E-18 2.04160E-18
 -1      2272 1.75951E-05-1.52015E-05-6.25559E-07 1.86523E-06 1.48535E-19 5.78693E-18
 -1      2273 2.27686E-05-1.91524E-05-1.18466E-06-1.33670E-05 3.23249E-19 6.11092E-18
 -1      2274 1.22076E-04-5.01909E-05-3.06356E-05-2.10683E-05 2.92004E-18-2.07000E-18
 -1      2275 1.14199E-04-4.21213E-05-3.04944E-05-2.43860E-05 2.77491E-18-1.38802E-18
 -1      2276 1.09246E-04-3.61138E-05-3.12359E-05-2.35918E-05 1.74568E-18-1.41092E-18
 -1      2277 1.04804E-04-3.14442E-05-3.12761E-05-2.35935E-05 1.33864E-18-1.14840E-18
 -1      2278 9.98979E-05-3.60936E-05-2.74298E-05-2.80005E-05 2.25888E-18-3.61577E-20
 -1      2279 1.03585E-04-2.92123E-05-3.18071E-05-2.16753E-05 1.41780E-18-1.14925E-18
 -1      2280 1.01112E-04-2.72009E-05-3.16612E-05-2.03078E-05 1.46613E-18-9.97767E-19
 -1      2281 9.48675E-05-2.71639E-05-2.90243E-05-2.44722E-05 1.31927E-18 3.12449E-19
 -1      2282 1.01258E-04-2.66996E-05-3.18869E-05-1.79876E-05 1.27870E-18-1.45668E-18
 -1      2283 9.96549E-05-2.60315E-05-3.15779E-05-1.61120E-05 5.66912E-19-8.12746E-19
 -1      2284 9.39817E-05-2.37291E-05-3.00630E-05-1.99102E-05 1.42252E-18-8.26961E-19
 -1      2285 1.00127E-04-2.63392E-05-3.15641E-05-1.40518E-05 3.04664E-19-7.84315E-19
 -1      2286 9.89934E-05-2.62507E-05-3.12033E-05-1.22673E-05 4.75298E-19-3.40642E-19
 -1      2287 9.46944E-05-2.35253E-05-3.04568E-05-1.55762E-05 6.04025E-19-9.03048E-19
 -1      2288 9.93670E-05-2.67399E-05-3.10724E-05-1.05773E-05 7.00281E-19-9.82011E-19
 -1      2289 9.84874E-05-2.68306E-05-3.07315E-05-9.09721E-06 2.88617E-19-2.60831E-19
 -1      2290 9.55254E-05-2.44394E-05-3.04304E-05-1.18731E-05 5.18048E-19-1.26258E-18
 -1      2291 9.86862E-05-2.72678E-05-3.05626E-05-7.77777E-06-6.24078E-19 7.04228E-20
 -1      2292 9.79840E-05-2.73812E-05-3.02730E-05-6.63455E-06-9.01442E-19 4.78251E-19
 -1      2293 9.60718E-05-2.55312E-05-3.02079E-05-8.87634E-06 2.50272E-19-9.32747E-19
 -1      2294 9.80425E-05-2.77080E-05-3.01073E-05-5.63679E-06-1.20494E-18 3.36280E-19
 -1      2295 9.74844E-05-2.77974E-05-2.98753E-05-4.78823E-06-1.16398E-18 2.07946E-19
 -1      2296 9.63109E-05-2.64566E-05-2.99232E-05-6.54320E-06-1.17120E-18-1.45420E-19
 -1      2297 9.74567E-05-2.80215E-05-2.97304E-05-4.04935E-06-1.29191E-18 4.09566E-19
 -1      2298 9.70218E-05-2.80808E-05-2.95512E-05-3.43360E-06-6.42725E-19-4.11140E-19
 -1      2299 9.63330E-05-2.71448E-05-2.96447E-05-4.77576E-06-1.07805E-18 5.05949E-19
 -1      2300 9.69574E-05-2.82204E-05-2.94379E-05-2.91887E-06 5.32820E-20-1.02599E-18
 -1      2301 9.66341E-05-2.82558E-05-2.93080E-05-2.49333E-06 5.32943E-19-1.56593E-18
 -1      2302 9.62360E-05-2.76156E-05-2.94066E-05-3.48687E-06-8.55882E-19 1.77767E-20
 -1      2303 9.65474E-05-2.83510E-05-2.92121E-05-2.09350E-06-4.96383E-20-2.17391E-18
 -1      2304 9.62889E-05-2.83713E-05-2.91095E-05-1.77278E-06-8.27951E-19-2.79383E-18
 -1      2305 9.60867E-05-2.79297E-05-2.92092E-05-2.53667E-06-4.52280E-19-2.03062E-18
 -1      2306 9.62052E-05-2.84304E-05-2.90354E-05-1.48408E-06-5.97364E-19-2.35387E-18
 -1      2307 9.60116E-05-2.84412E-05-2.89598E-05-1.25536E-06-6.41733E-19-1.84547E-18
 -1      2308 9.59215E-05-2.81445E-05-2.90476E-05-1.81992E-06-5.83573E-19-1.69772E-18
 -1      2309 9.59372E-05-2.84775E-05-2.89034E-05-1.04681E-06-4.11516E-19-1.16830E-18
 -1      2310 9.57941E-05-2.84830E-05-2.88481E-05-8.83790E-07-1.09379E-19-6.56147E-19
 -1      2311 9.57669E-05-2.82842E-05-2.89221E-05-1.29854E-06-2.27120E-19-5.67433E-19
 -1      2312 9.57319E-05-2.85054E-05-2.88057E-05-7.33253E-07 1.28374E-20-7.19658E-19
 -1      2313 9.56274E-05-2.85081E-05-2.87656E-05-6.17018E-07 2.98917E-19-5.29884E-19
 -1      2314 9.56336E-05-2.83749E-05-2.88263E-05-9.20029E-07-2.11504E-19 2.79876E-19
 -1      2315 9.55776E-05-2.85221E-05-2.87340E-05-5.08496E-07 1.02612E-18-7.91255E-19
 -1      2316 9.55023E-05-2.85237E-05-2.87052E-05-4.25666E-07 8.65504E-19-1.60162E-19
 -1      2317 9.55245E-05-2.84344E-05-2.87540E-05-6.45717E-07 7.77815E-19 7.09828E-20
 -1      2318 9.54639E-05-2.85326E-05-2.86820E-05-3.47623E-07 6.64764E-19-1.05331E-19
 -1      2319 9.54106E-05-2.85337E-05-2.86614E-05-2.88800E-07 9.53733E-19-3.45295E-19
 -1      2320 9.54386E-05-2.84740E-05-2.87001E-05-4.47380E-07 1.09865E-18-6.64216E-20
 -1      2321 9.53831E-05-2.85392E-05-2.86453E-05-2.35488E-07 1.02629E-18-5.06145E-19
 -1      2322 9.53473E-05-2.85404E-05-2.86314E-05-1.95434E-07 1.32007E-18 1.51940E-19
 -1      2323 9.53745E-05-2.85007E-05-2.86611E-05-3.07172E-07 1.19015E-18-2.00390E-20
 -1      2324 9.53257E-05-2.85446E-05-2.86190E-05-1.54943E-07 1.60496E-18-3.15824E-19
 -1      2325 9.53000E-05-2.85459E-05-2.86088E-05-1.25213E-07 6.45743E-19-8.61168E-19
 -1      2326 9.53266E-05-2.85188E-05-2.86326E-05-2.06565E-07 1.15197E-18-5.39033E-19
 -1      2327 9.52847E-05-2.85488E-05-2.86001E-05-9.68047E-08 7.85847E-19-1.34485E-18
 -1      2328 9.52678E-05-2.85502E-05-2.85932E-05-7.61855E-08 4.14357E-19-1.16075E-18
 -1      2329 9.52910E-05-2.85325E-05-2.86113E-05-1.32700E-07 2.10637E-19-3.43159E-18
 -1      2330 9.52572E-05-2.85524E-05-2.85870E-05-5.65085E-08-1.19825E-18-1.50161E-18
 -1      2331 9.52465E-05-2.85539E-05-2.85825E-05-4.24759E-08-8.55296E-19-1.87073E-18
 -1      2332 9.52661E-05-2.85425E-05-2.85963E-05-8.09004E-08-7.47126E-19-3.01631E-18
 -1      2333 9.52395E-05-2.85556E-05-2.85783E-05-2.91275E-08-1.56017E-18-2.69296E-18
 -1      2334 9.52332E-05-2.85570E-05-2.85755E-05-1.98220E-08-2.10033E-18-3.09981E-18
 -1      2335 9.52492E-05-2.85499E-05-2.85857E-05-4.51873E-08-1.97211E-18-3.52325E-18
 -1      2336 9.52288E-05-2.85583E-05-2.85727E-05-1.10303E-08-1.42089E-18-2.67591E-18
 -1      2337 9.52256E-05-2.85597E-05-2.85710E-05-5.08882E-09-9.63559E-19-1.65386E-18
 -1      2338 9.52383E-05-2.85555E-05-2.85786E-05-2.11396E-08-1.27208E-18-3.43660E-18
 -1      2339 9.52230E-05-2.85608E-05-2.85693E-05 4.61841E-10-3.69432E-19-1.10499E-18
 -1      2340 9.52217E-05-2.85620E-05-2.85684E-05 4.03098E-09-4.94783E-19-4.95746E-19
 -1      2341 9.52317E-05-2.85598E-05-2.85739E-05-5.47546E-09-3.18789E-19-2.03792E-18
 -1      2342 9.52205E-05-2.85628E-05-2.85674E-05 7.17724E-09-3.68299E-20-9.09933E-19
 -1      2343 9.52205E-05-2.85639E-05-2.85671E-05 9.06599E-09 1.87794E-20-7.72490E-19
 -1      2344 9.52282E-05-2.85630E-05-2.85710E-05 4.08958E-09-4.40115E-19-1.49122E-18
 -1      2345 9.52200E-05-2.85646E-05-2.85665E-05 1.08566E-08-5.00641E-19-1.05837E-18
 -1      2346 9.52207E-05-2.85655E-05-2.85665E-05 1.17578E-08 8.30629E-19-1.38933E-18
 -1      2347 9.52266E-05-2.85653E-05-2.85692E-05 9.60998E-09 1.85216E-19-2.09044E-18
 -1      2348 9.52208E-05-2.85661E-05-2.85663E-05 1.24749E-08 8.39372E-19-2.31547E-18
 -1      2349 9.52220E-05-2.85669E-05-2.85665E-05 1.26556E-08 8.00782E-19-2.30430E-18
 -1      2350 9.52264E-05-2.85672E-05-2.85683E-05 1.24741E-08 5.24633E-19-1.68754E-18
 -1      2351 9.52224E-05-2.85673E-05-2.85664E-05 1.26925E-08 1.91690E-18-2.27181E-18
 -1      2352 9.52237E-05-2.85680E-05-2.85667E-05 1.24294E-08 6.86546E-19-2.18924E-18
 -1      2353 9.52269E-05-2.85686E-05-2.85679E-05 1.34383E-08 1.09871E-18-1.30122E-18
 -1      2354 9.52243E-05-2.85683E-05-2.85669E-05 1.20573E-08-3.56076E-19-2.02174E-18
 -1      2355 9.52257E-05-2.85689E-05-2.85672E-05 1.15451E-08-3.75692E-19-2.21074E-18
 -1      2356 9.52279E-05-2.85696E-05-2.85679E-05 1.32061E-08 4.19177E-19-2.84970E-18
 -1      2357 9.52263E-05-2.85691E-05-2.85674E-05 1.09517E-08-1.84698E-18-1.90017E-18
 -1      2358 9.52277E-05-2.85696E-05-2.85678E-05 1.03223E-08-2.69278E-18-1.96273E-18
 -1      2359 9.52292E-05-2.85703E-05-2.85681E-05 1.22724E-08-9.77819E-19-2.55997E-18
 -1      2360 9.52283E-05-2.85697E-05-2.85680E-05 9.63334E-09-1.56670E-18-3.51127E-19
 -1      2361 9.52295E-05-2.85701E-05-2.85683E-05 8.97100E-09 6.15474E-19 5.68372E-19
 -1      2362 9.52305E-05-2.85708E-05-2.85685E-05 1.09764E-08-8.30187E-19-1.30299E-18
 -1      2363 9.52301E-05-2.85702E-05-2.85685E-05 8.30247E-09 2.07559E-18 1.51423E-18
 -1      2364 9.52311E-05-2.85705E-05-2.85688E-05 7.68801E-09 2.48987E-18 2.04102E-18
 -1      2365 9.52317E-05-2.85711E-05-2.85688E-05 9.57643E-09 1.65923E-18-5.23247E-19
 -1      2366 9.52317E-05-2.85706E-05-2.85691E-05 7.00856E-09 1.08746E-18 1.42552E-18
 -1      2367 9.52326E-05-2.85708E-05-2.85693E-05 6.40550E-09 3.93949E-19 9.64872E-19
 -1      2368 9.52329E-05-2.85713E-05-2.85692E-05 8.17513E-09 1.44272E-18-6.23425E-19
 -1      2369 9.52331E-05-2.85709E-05-2.85695E-05 5.77361E-09 5.69021E-19 1.40647E-18
 -1      2370 9.52339E-05-2.85711E-05-2.85698E-05 5.21921E-09 3.02538E-19 1.65738E-18
 -1      2371 9.52339E-05-2.85715E-05-2.85696E-05 6.80458E-09 3.58476E-19 2.62008E-19
 -1      2372 9.52343E-05-2.85712E-05-2.85699E-05 4.63722E-09 1.19449E-18 2.13492E-18
 -1      2373 9.52349E-05-2.85714E-05-2.85701E-05 4.12384E-09 8.68272E-19 2.17297E-18
 -1      2374 9.52348E-05-2.85717E-05-2.85699E-05 5.53180E-09 6.78655E-19 6.16424E-19
 -1      2375 9.52353E-05-2.85715E-05-2.85702E-05 3.57764E-09-7.08279E-19 2.84442E-18
 -1      2376 9.52358E-05-2.85716E-05-2.85704E-05 3.09638E-09-5.07151E-19 3.03772E-18
 -1      2377 9.52356E-05-2.85719E-05-2.85702E-05 4.35177E-09 6.28583E-19 8.45375E-19
 -1      2378 9.52362E-05-2.85718E-05-2.85705E-05 2.75357E-09-8.88390E-19 2.58532E-18
 -1      2379 9.52366E-05-2.85719E-05-2.85706E-05 2.27362E-09-6.49171E-19 2.48648E-18
 -1      2380 9.52370E-05-2.85725E-05-2.85705E-05 2.62602E-09-1.19779E-18-9.28072E-19
 -1      2381 9.52364E-05-2.85721E-05-2.85704E-05 3.40298E-09-1.88389E-18 1.85794E-18
 -1      2382 9.23423E-05-2.69988E-05-2.79772E-05 6.33720E-06 1.46229E-18 1.53336E-18
 -1      2383 9.36741E-05-2.75043E-05-2.83315E-05 6.83091E-06 1.67670E-18 1.79588E-18
 -1      2384 9.41456E-05-2.76785E-05-2.84599E-05 7.00017E-06 1.79976E-18 1.95629E-18
 -1      2385 9.56498E-05-2.79874E-05-2.89639E-05 7.57535E-06 1.83313E-18 2.33942E-18
 -1      2386 9.70311E-05-2.80944E-05-2.95578E-05 8.71436E-06 1.97445E-18 1.66904E-18
 -1      2387 9.59680E-05-2.79242E-05-2.91772E-05 8.18345E-06 1.92914E-18 1.22881E-18
 -1      2388 8.84901E-05-2.48694E-05-2.72264E-05 2.86547E-06 1.05133E-18 6.57299E-19
 -1      2389 8.92151E-05-2.53224E-05-2.73669E-05 3.87872E-06 1.10500E-18 9.30487E-19
 -1      2390 8.77007E-05-2.43553E-05-2.71146E-05 2.17017E-07 8.21258E-19 6.14585E-20
 -1      2391 8.79317E-05-2.45112E-05-2.71566E-05 1.43995E-06 9.28557E-19 3.10585E-19
 -1      2392 9.07954E-05-2.47566E-05-2.83325E-05 2.67874E-06 1.27714E-18 5.68521E-21
 -1      2393 8.79497E-05-2.45655E-05-2.71443E-05-2.53383E-06 7.64315E-19-6.66559E-20
 -1      2394 8.76472E-05-2.43516E-05-2.70937E-05-1.33784E-06 7.08384E-19-4.76479E-20
 -1      2395 9.01642E-05-2.43378E-05-2.82445E-05-5.45293E-07 8.51496E-19-4.42040E-19
 -1      2396 8.91460E-05-2.54545E-05-2.72906E-05-4.79132E-06 4.39906E-19-3.08092E-20
 -1      2397 8.83884E-05-2.49283E-05-2.71611E-05-3.87809E-06 6.91235E-19 8.11175E-20
 -1      2398 9.05767E-05-2.48031E-05-2.82149E-05-3.67840E-06 6.11035E-19-3.74815E-19
 -1      2399 9.09494E-05-2.67376E-05-2.75242E-05-6.11029E-06 4.26128E-19-9.40256E-20
 -1      2400 8.99112E-05-2.60537E-05-2.73378E-05-5.64181E-06 4.87277E-19-1.54727E-19
 -1      2401 9.18473E-05-2.60100E-05-2.82281E-05-6.03613E-06 5.41041E-19-3.55157E-19
 -1      2402 9.29155E-05-2.80445E-05-2.78113E-05-6.36443E-06 4.94822E-19-3.96392E-19
 -1      2403 9.18040E-05-2.73772E-05-2.75957E-05-6.35739E-06 6.02257E-19-2.08588E-19
 -1      2404 9.35480E-05-2.75547E-05-2.82806E-05-7.19752E-06 7.25298E-19-5.63012E-19
 -1      2405 9.46675E-05-2.90873E-05-2.81151E-05-5.73388E-06 1.11132E-18-8.43973E-19
 -1      2406 9.36571E-05-2.85605E-05-2.78989E-05-6.08447E-06 8.87957E-19-5.53076E-19
 -1      2407 9.52126E-05-2.89892E-05-2.83703E-05-7.14325E-06 8.10012E-19-8.87691E-19
 -1      2408 9.59919E-05-2.97391E-05-2.84008E-05-4.56508E-06 3.13849E-19-4.62279E-19
 -1      2409 9.51884E-05-2.94015E-05-2.82079E-05-5.11511E-06 8.07661E-19-5.61225E-19
 -1      2410 9.65160E-05-3.00117E-05-2.84882E-05-6.17450E-06 8.26295E-19-5.85003E-19
 -1      2411 9.68386E-05-3.00173E-05-2.86415E-05-3.21435E-06 4.02592E-19-1.01433E-18
 -1      2412 9.62772E-05-2.98558E-05-2.84873E-05-3.81408E-06 4.09081E-19-6.31964E-19
 -1      2413 9.73342E-05-3.05320E-05-2.86177E-05-4.72131E-06 4.61152E-19-9.52359E-19
 -1      2414 9.72654E-05-3.00184E-05-2.88216E-05-1.94892E-06 2.56199E-19-1.00813E-18
 -1      2415 9.69304E-05-2.99881E-05-2.87125E-05-2.49232E-06 5.12048E-19-9.63486E-19
 -1      2416 9.77020E-05-3.06227E-05-2.87400E-05-3.17349E-06 4.60949E-19-1.22292E-18
 -1      2417 9.73766E-05-2.98556E-05-2.89376E-05-9.17970E-07 2.19413E-19-1.07688E-18
 -1      2418 9.72248E-05-2.99057E-05-2.88719E-05-1.34984E-06-4.40143E-20-1.06159E-18
 -1      2419 9.77321E-05-3.04293E-05-2.88393E-05-1.79511E-06 3.67367E-20-1.30462E-18
 -1      2420 9.72794E-05-2.96222E-05-2.89953E-05-1.70113E-07-7.35107E-20-7.88433E-19
 -1      2421 9.72600E-05-2.97112E-05-2.89661E-05-4.76212E-07 3.35082E-19-6.30240E-19
 -1      2422 9.75503E-05-3.00969E-05-2.89065E-05-7.15097E-07 1.45716E-19-1.12903E-18
 -1      2423 9.70629E-05-2.93802E-05-2.90059E-05 3.11388E-07-2.03748E-19-6.51835E-19
 -1      2424 9.71287E-05-2.94797E-05-2.90043E-05 1.19722E-07-1.68440E-19-5.54306E-19
 -1      2425 9.72601E-05-2.97328E-05-2.89398E-05 4.05019E-08-1.72024E-19-2.16001E-19
 -1      2426 9.67928E-05-2.91635E-05-2.89828E-05 5.75770E-07 4.19873E-20-5.04533E-19
 -1      2427 9.69056E-05-2.92570E-05-2.89997E-05 4.75220E-07-3.66015E-20-4.75069E-19
 -1      2428 9.69332E-05-2.94008E-05-2.89430E-05 5.06640E-07-2.66328E-19-2.91330E-19
 -1      2429 9.65127E-05-2.89860E-05-2.89389E-05 6.81371E-07-1.19909E-19-5.97749E-19
 -1      2430 9.66445E-05-2.90658E-05-2.89663E-05 6.46073E-07 8.43159E-20-3.84080E-19
 -1      2431 9.66136E-05-2.91291E-05-2.89230E-05 7.45079E-07 1.70510E-19-1.02835E-19
 -1      2432 9.62491E-05-2.88491E-05-2.88847E-05 6.82068E-07 8.26115E-19-9.57440E-19
 -1      2433 9.63813E-05-2.89130E-05-2.89164E-05 6.88883E-07 1.89198E-19-8.36943E-19
 -1      2434 9.63245E-05-2.89232E-05-2.88876E-05 8.21780E-07 3.77915E-19-4.46341E-19
 -1      2435 9.60160E-05-2.87485E-05-2.88281E-05 6.21272E-07 5.98246E-19-8.42864E-19
 -1      2436 9.61374E-05-2.87973E-05-2.88599E-05 6.51962E-07 8.01468E-19-7.92123E-19
 -1      2437 9.60758E-05-2.87765E-05-2.88439E-05 7.94762E-07 7.40247E-19-7.82314E-19
 -1      2438 9.58190E-05-2.86774E-05-2.87742E-05 5.30666E-07-3.62650E-19-1.31414E-18
 -1      2439 9.59240E-05-2.87132E-05-2.88035E-05 5.72177E-07 2.92372E-19-9.22133E-19
 -1      2440 9.58693E-05-2.86776E-05-2.87978E-05 7.09374E-07 4.32134E-19-7.78785E-19
 -1      2441 9.56584E-05-2.86289E-05-2.87263E-05 4.31423E-07-8.56397E-19-1.85306E-18
 -1      2442 9.57452E-05-2.86543E-05-2.87517E-05 4.75212E-07-9.90104E-19-1.55656E-18
 -1      2443 9.57026E-05-2.86145E-05-2.87533E-05 5.97970E-07-3.81143E-19-1.03371E-18
 -1      2444 9.55316E-05-2.85972E-05-2.86856E-05 3.36395E-07-1.08163E-18-1.09962E-18
 -1      2445 9.56005E-05-2.86145E-05-2.87066E-05 3.77415E-07-9.87317E-19-1.90379E-18
 -1      2446 9.55712E-05-2.85768E-05-2.87130E-05 4.81709E-07-7.88871E-19-1.82122E-18
 -1      2447 9.54342E-05-2.85773E-05-2.86525E-05 2.52401E-07-6.65415E-19-4.68124E-19
 -1      2448 9.54871E-05-2.85887E-05-2.86692E-05 2.88095E-07-7.88016E-19-6.54788E-19
 -1      2449 9.54697E-05-2.85562E-05-2.86782E-05 3.73111E-07-1.06160E-18-1.96307E-18
 -1      2450 9.53616E-05-2.85657E-05-2.86264E-05 1.82208E-07-1.72189E-19-7.21443E-19
 -1      2451 9.54008E-05-2.85727E-05-2.86392E-05 2.11661E-07-6.51506E-19-6.95716E-19
 -1      2452 9.53931E-05-2.85466E-05-2.86493E-05 2.78531E-07-5.62679E-19-1.98888E-18
 -1      2453 9.53090E-05-2.85594E-05-2.86066E-05 1.26069E-07 8.80556E-19 1.71906E-19
 -1      2454 9.53371E-05-2.85635E-05-2.86161E-05 1.49361E-07 2.33435E-19-3.40964E-19
 -1      2455 9.53366E-05-2.85436E-05-2.86262E-05 2.00249E-07-1.47102E-19-1.52428E-18
 -1      2456 9.52721E-05-2.85568E-05-2.85921E-05 8.28301E-08 2.50687E-19 1.89392E-18
 -1      2457 9.52915E-05-2.85587E-05-2.85988E-05 1.00574E-07 7.72081E-19 1.50903E-18
 -1      2458 9.52958E-05-2.85445E-05-2.86083E-05 1.38054E-07-1.45082E-19-2.06716E-19
 -1      2459 9.52474E-05-2.85563E-05-2.85817E-05 5.06736E-08 9.35555E-19 1.58485E-18
 -1      2460 9.52600E-05-2.85569E-05-2.85863E-05 6.37206E-08 1.26228E-18 2.14404E-18
 -1      2461 9.52673E-05-2.85473E-05-2.85947E-05 9.03760E-08 6.34280E-19 4.97289E-19
 -1      2462 9.52316E-05-2.85571E-05-2.85747E-05 2.75933E-08-3.26245E-19 9.52506E-19
 -1      2463 9.52393E-05-2.85569E-05-2.85777E-05 3.68395E-08-4.13437E-19 1.61790E-18
 -1      2464 9.52480E-05-2.85508E-05-2.85849E-05 5.50456E-08 3.57976E-19 8.87585E-19
 -1      2465 9.52224E-05-2.85585E-05-2.85701E-05 1.16643E-08-4.63062E-19 2.10664E-19
 -1      2466 9.52265E-05-2.85579E-05-2.85719E-05 1.79480E-08-8.65593E-21 1.03878E-18
 -1      2467 9.52356E-05-2.85544E-05-2.85779E-05 2.97594E-08-1.01600E-19 1.07098E-18
 -1      2468 9.52177E-05-2.85602E-05-2.85674E-05 1.18276E-09 8.46554E-20 5.55094E-19
 -1      2469 9.52195E-05-2.85593E-05-2.85684E-05 5.23371E-09-7.64150E-19-1.10677E-19
 -1      2470 9.52282E-05-2.85578E-05-2.85732E-05 1.23517E-08-3.70416E-19 5.67505E-19
 -1      2471 9.52161E-05-2.85620E-05-2.85660E-05-5.28057E-09 1.07461E-18 8.24773E-19
 -1      2472 9.52163E-05-2.85610E-05-2.85664E-05-2.85836E-09 4.17387E-19 8.04448E-19
 -1      2473 9.52243E-05-2.85607E-05-2.85702E-05 9.26164E-10-1.08095E-19 1.66116E-18
 -1      2474 9.52165E-05-2.85636E-05-2.85655E-05-8.87693E-09-1.11279E-19 2.93746E-18
 -1      2475 9.52157E-05-2.85627E-05-2.85655E-05-7.60236E-09 1.55895E-18 2.06030E-18
 -1      2476 9.52227E-05-2.85632E-05-2.85684E-05-6.09756E-09 2.77553E-19 1.33541E-18
 -1      2477 9.52181E-05-2.85651E-05-2.85655E-05-1.05025E-08-1.79423E-18 1.28457E-18
 -1      2478 9.52168E-05-2.85643E-05-2.85653E-05-1.00049E-08-1.15795E-18 2.27072E-18
 -1      2479 9.52227E-05-2.85652E-05-2.85676E-05-9.98677E-09 2.35074E-19 1.86745E-18
 -1      2480 9.52204E-05-2.85664E-05-2.85659E-05-1.08336E-08 7.63946E-20 3.02735E-19
 -1      2481 9.52187E-05-2.85657E-05-2.85656E-05-1.08362E-08-1.34500E-18 2.33334E-19
 -1      2482 9.52236E-05-2.85668E-05-2.85672E-05-1.17249E-08-3.53962E-19-8.98123E-20
 -1      2483 9.52228E-05-2.85675E-05-2.85665E-05-1.03656E-08-5.96711E-19 5.87740E-19
 -1      2484 9.52211E-05-2.85669E-05-2.85661E-05-1.06679E-08 2.38027E-19 3.20741E-19
 -1      2485 9.52251E-05-2.85681E-05-2.85673E-05-1.20526E-08 2.73390E-21-7.79636E-20
 -1      2486 9.52253E-05-2.85684E-05-2.85672E-05-9.44939E-09 6.18072E-19 4.95976E-19
 -1      2487 9.52237E-05-2.85679E-05-2.85668E-05-9.91114E-09-3.17982E-19 6.48061E-19
 -1      2488 9.52268E-05-2.85690E-05-2.85676E-05-1.15112E-08-6.53196E-19-6.62732E-19
 -1      2489 9.52276E-05-2.85692E-05-2.85679E-05-8.32362E-09 1.95379E-18 1.75907E-18
 -1      2490 9.52261E-05-2.85687E-05-2.85675E-05-8.85126E-09 1.34961E-18 1.15505E-18
 -1      2491 9.52285E-05-2.85697E-05-2.85680E-05-1.04833E-08 1.08132E-18-2.29288E-19
 -1      2492 9.52297E-05-2.85698E-05-2.85685E-05-7.14120E-09 2.48790E-18 1.96856E-18
 -1      2493 9.52284E-05-2.85694E-05-2.85682E-05-7.67655E-09 2.82981E-18 2.27317E-18
 -1      2494 9.52301E-05-2.85703E-05-2.85685E-05-9.22833E-09 1.81268E-18 1.40291E-18
 -1      2495 9.52315E-05-2.85703E-05-2.85691E-05-5.99046E-09 1.32475E-18 1.63547E-18
 -1      2496 9.52304E-05-2.85700E-05-2.85688E-05-6.50205E-09 2.85651E-18 2.40704E-18
 -1      2497 9.52316E-05-2.85707E-05-2.85690E-05-7.91174E-09 2.81676E-18 1.58006E-18
 -1      2498 9.52331E-05-2.85707E-05-2.85696E-05-4.91105E-09 2.92739E-20 1.82423E-18
 -1      2499 9.52321E-05-2.85704E-05-2.85693E-05-5.38773E-09-7.74300E-19 1.41510E-18
 -1      2500 9.52330E-05-2.85710E-05-2.85694E-05-6.62833E-09 3.08507E-19 1.39867E-18
 -1      2501 9.52344E-05-2.85710E-05-2.85700E-05-3.90684E-09 3.68002E-19 8.07980E-19
 -1      2502 9.52336E-05-2.85708E-05-2.85698E-05-4.35255E-09 1.03823E-18 2.18953E-18
 -1      2503 9.52341E-05-2.85713E-05-2.85698E-05-5.42013E-09 8.06304E-19 2.71350E-18
 -1      2504 9.52354E-05-2.85713E-05-2.85703E-05-2.95527E-09-1.72369E-19 1.34333E-18
 -1      2505 9.52348E-05-2.85711E-05-2.85702E-05-3.38480E-09-2.62455E-19 1.21236E-18
 -1      2506 9.52351E-05-2.85715E-05-2.85701E-05-4.29523E-09 8.56424E-20 1.30052E-18
 -1      2507 9.52363E-05-2.85716E-05-2.85706E-05-2.03848E-09-2.15071E-18 2.04653E-18
 -1      2508 9.52358E-05-2.85714E-05-2.85705E-05-2.45969E-09-1.28275E-18 1.27829E-18
 -1      2509 9.52359E-05-2.85717E-05-2.85704E-05-3.22835E-09-7.78870E-19 1.94453E-18
 -1      2510 9.52366E-05-2.85716E-05-2.85707E-05-1.52771E-09-1.35688E-18 1.70755E-18
 -1      2511 9.52389E-05-2.85752E-05-2.85701E-05-2.54428E-09-6.39132E-19 5.35127E-19
 -1      2512 9.52386E-05-2.85748E-05-2.85702E-05-2.77387E-09-1.35069E-18-2.10737E-18
 -1      2513 9.52393E-05-2.85758E-05-2.85701E-05-1.79797E-09 2.45365E-20 2.07905E-18
 -1      2514 9.52391E-05-2.85755E-05-2.85701E-05-2.17288E-09-9.40220E-19 2.28044E-18
 -1      2515 9.52392E-05-2.85754E-05-2.85702E-05-2.71189E-09-4.85460E-19 9.23079E-19
 -1      2516 9.52376E-05-2.85734E-05-2.85704E-05-2.95489E-09-1.98016E-18-1.76296E-18
 -1      2517 9.52372E-05-2.85729E-05-2.85705E-05-2.81891E-09-1.48581E-18-9.46753E-19
 -1      2518 9.52383E-05-2.85743E-05-2.85702E-05-2.95297E-09-2.89016E-18-2.10999E-18
 -1      2519 9.52379E-05-2.85739E-05-2.85703E-05-3.00198E-09-3.12105E-18-3.44439E-19
 -1      2520 9.52377E-05-2.85736E-05-2.85703E-05-3.46361E-09-7.63878E-19-1.90112E-18
 -1      2521 9.52385E-05-2.85746E-05-2.85703E-05-3.30523E-09-1.43550E-18-3.86156E-19
 -1      2522 9.52396E-05-2.85762E-05-2.85700E-05-8.22771E-10-8.25467E-19 2.43241E-18
 -1      2523 9.52395E-05-2.85761E-05-2.85700E-05-1.29036E-09-8.87456E-19 2.33291E-18
 -1      2524 9.52397E-05-2.85760E-05-2.85702E-05-1.77258E-09-1.75045E-18 1.46128E-18
 -1      2525 9.52396E-05-2.85763E-05-2.85700E-05 2.55694E-10-1.77127E-19 1.65961E-18
 -1      2526 9.52396E-05-2.85763E-05-2.85700E-05-2.43513E-10-3.01393E-19 2.32215E-18
 -1      2527 9.52399E-05-2.85763E-05-2.85701E-05-6.12083E-10-2.88252E-19 3.01550E-18
 -1      2528 9.52395E-05-2.85761E-05-2.85700E-05 1.30244E-09-4.04545E-19-1.70240E-18
 -1      2529 9.52396E-05-2.85762E-05-2.85700E-05 8.35144E-10-2.06347E-19 6.77293E-19
 -1      2530 9.52399E-05-2.85763E-05-2.85701E-05 6.24205E-10 7.41385E-19 1.17536E-18
 -1      2531 9.52391E-05-2.85755E-05-2.85701E-05 2.17215E-09 4.58239E-19-2.85583E-18
 -1      2532 9.52393E-05-2.85758E-05-2.85701E-05 1.80271E-09 3.35447E-19-3.30735E-18
 -1      2533 9.52397E-05-2.85760E-05-2.85702E-05 1.77663E-09 9.85111E-19-2.01766E-18
 -1      2534 9.52386E-05-2.85748E-05-2.85702E-05 2.77520E-09 1.15862E-18 2.28572E-18
 -1      2535 9.52389E-05-2.85752E-05-2.85701E-05 2.54497E-09 7.08720E-19-5.79316E-19
 -1      2536 9.52392E-05-2.85754E-05-2.85702E-05 2.71184E-09 2.49957E-18-1.41201E-18
 -1      2537 9.52379E-05-2.85739E-05-2.85703E-05 3.00085E-09-2.04742E-19-9.22109E-19
 -1      2538 9.52383E-05-2.85743E-05-2.85702E-05 2.95825E-09 5.99241E-19 1.32647E-18
 -1      2539 9.52385E-05-2.85746E-05-2.85703E-05 3.31006E-09 1.69946E-18 5.68921E-19
 -1      2540 9.52373E-05-2.85729E-05-2.85704E-05 2.81848E-09-1.56480E-18-1.57336E-18
 -1      2541 9.52376E-05-2.85734E-05-2.85704E-05 2.97602E-09-7.20028E-19-1.47268E-18
 -1      2542 9.52378E-05-2.85737E-05-2.85703E-05 3.47720E-09-1.22683E-18-1.69226E-18
 -1      2543 9.52370E-05-2.85728E-05-2.85704E-05 3.24850E-09-8.40517E-19-2.01492E-18
 -1      2544 1.49214E-04-8.33055E-06-6.10676E-05 1.48593E-06 6.99226E-18-1.35705E-18
 -1      2545 1.53188E-04-9.39178E-06-6.19518E-05-2.72793E-08 7.10025E-18-1.98534E-18
 -1      2546 9.83696E-05-5.10707E-05-2.03441E-05 4.80867E-05-1.29681E-18 3.43260E-19
 -1      2547 8.06804E-05-4.54640E-05-1.47167E-05 4.84424E-05-2.42230E-18 2.39271E-18
 -1      2548 9.73177E-05-1.66567E-05-3.45308E-05 3.80237E-06-2.00612E-18-1.04635E-18
 -1      2549 1.00921E-04-2.15127E-05-3.39688E-05 9.99647E-06-1.53780E-18-5.88959E-19
 -1      2550 8.99157E-05-1.69513E-05-3.13127E-05 1.19545E-05-1.09161E-18-1.59449E-18
 -1      2551 8.66414E-05-1.05873E-05-3.26960E-05 3.39633E-06-1.91382E-18-2.07208E-18
 -1      2552 5.61086E-05-3.44802E-05-9.23305E-06 4.80112E-05-2.59213E-18 4.82301E-18
 -1      2553 3.91529E-05-2.87014E-05-4.20264E-06 3.96275E-05-2.35772E-18 6.01775E-18
 -1      2554 6.12260E-05-3.53491E-05-1.10762E-05 3.53655E-05-1.05667E-19-5.52541E-18
 -1      2555 4.12507E-05-2.64051E-05-6.16003E-06 2.67897E-05-2.33993E-19-6.45227E-18
 -1      2556 9.01428E-05-2.58815E-05-2.75042E-05 4.94248E-06 1.07079E-18 1.10989E-18
 -1      2557 9.12445E-05-2.64643E-05-2.77464E-05 5.64491E-06 1.20615E-18 1.30460E-18
 -1      2558 9.43904E-05-2.71181E-05-2.88424E-05 7.23937E-06 1.58217E-18 9.37288E-19
 -1      2559 9.23278E-05-2.58445E-05-2.85132E-05 5.36173E-06 1.40619E-18 5.13466E-19
 -1      2560 1.45133E-04-6.59126E-05-3.37855E-05-8.97002E-06 2.34374E-18-3.65262E-18
 -1      2561 1.33998E-04-5.94850E-05-3.14752E-05-1.69602E-05 3.27209E-18-2.92499E-18
 -1      2562 1.70615E-04-4.02022E-05-5.58924E-05 2.24375E-05-5.67597E-18-4.18900E-18
 -1      2563 7.89866E-05-1.05298E-05-2.92325E-05-1.65717E-05-1.41588E-18-3.95729E-18
 -1      2564 7.37621E-05-7.56008E-06-2.84751E-05-1.78230E-05-1.71608E-18-4.19127E-18
 -1      2565 7.18345E-05-7.92596E-06-2.74292E-05-2.04659E-05-1.95872E-18-4.19796E-18
 -1      2566 8.38077E-05-1.57340E-05-2.92635E-05-1.73032E-05-1.50799E-18-3.56060E-18
 -1      2567 1.54292E-04-1.25010E-05-6.12376E-05-1.62720E-06 6.77245E-18-2.25131E-18
 -1      2568 1.52551E-04-1.62545E-05-5.88125E-05-2.39895E-06 6.38218E-18-2.49282E-18
 -1      2569 1.40023E-04-7.41557E-06-5.70295E-05-2.99057E-06 6.58547E-18-1.59147E-18
 -1      2570 1.50008E-04-4.65297E-05-4.47345E-05 1.26138E-05 2.80171E-18-3.39004E-18
 -1      2571 1.42855E-04-5.14069E-05-3.93064E-05 1.84702E-05 1.88274E-18-3.16579E-18
 -1      2572 1.55285E-04-2.73820E-05-5.52788E-05-3.60599E-07 5.31937E-18-3.28882E-18
 -1      2573 1.52059E-04-3.62421E-05-4.99108E-05 4.47847E-06 4.22087E-18-3.20581E-18
 -1      2574 1.50202E-04-3.86393E-05-4.79739E-05-8.55800E-06 3.62234E-18-1.26907E-18
 -1      2575 1.54378E-04-3.19323E-05-5.30218E-05-2.86846E-06 4.63867E-18-9.14796E-19
 -1      2576 1.34597E-04-4.94591E-05-3.65321E-05-2.56970E-05 1.40015E-18-1.96554E-18
 -1      2577 1.45470E-04-4.64265E-05-4.27568E-05-1.86088E-05 2.62204E-18-1.44694E-18
 -1      2578 1.05033E-04-4.78557E-05-2.43179E-05-4.26913E-05-8.55503E-19-3.74749E-18
 -1      2579 1.21927E-04-5.04453E-05-3.08234E-05-3.76462E-05 3.84976E-19-3.09993E-18
 -1      2580 6.26244E-05-3.29431E-05-1.24509E-05-4.84620E-05-2.11419E-18-6.14078E-18
 -1      2581 8.31632E-05-4.01270E-05-1.85043E-05-5.02387E-05-1.42894E-18-5.00607E-18
 -1      2582 3.04772E-05-1.77155E-05-5.14365E-06-3.70179E-05-2.09196E-18-7.49984E-18
 -1      2583 4.36254E-05-2.37696E-05-8.34342E-06-4.58675E-05-1.68898E-18-7.14472E-18
 -1      2584 1.69100E-05-8.12690E-06-3.24409E-06-1.33328E-05-1.58893E-18-7.84014E-18
 -1      2585 2.11681E-05-1.11829E-05-3.88750E-06-2.72827E-05-1.47363E-18-7.88503E-18
 -1      2586 2.67005E-05-1.73903E-05-3.78439E-06 1.75119E-05-8.70962E-19-7.17776E-18
 -1      2587 1.80768E-05-1.02019E-05-3.04497E-06 2.87420E-06-6.47742E-19-7.62753E-18
 -1      2588 4.09422E-05-1.76701E-05-9.40086E-06 2.18436E-05 3.63271E-19-6.38451E-18
 -1      2589 1.06004E-04-5.60079E-05-2.16652E-05 3.45172E-05 7.26331E-20-2.84598E-18
 -1      2590 8.54670E-05-4.67855E-05-1.62723E-05 3.48626E-05 5.99699E-19-4.13649E-18
 -1      2591 1.50863E-04-6.84462E-05-3.57371E-05 1.21968E-05-1.74679E-18-6.43957E-19
 -1      2592 1.27933E-04-6.39669E-05-2.73525E-05 2.36587E-05-6.54968E-19-1.54912E-18
 -1      2593 1.13478E-04-6.05778E-05-2.26049E-05-3.02503E-05 2.04643E-18 1.48252E-18
 -1      2594 1.34389E-04-6.63850E-05-2.95296E-05-2.37511E-05 9.63288E-19 1.32243E-19
 -1      2595 6.64631E-05-4.27676E-05-1.00770E-05-3.62782E-05 1.92996E-18 4.09795E-18
 -1      2596 8.92013E-05-5.15164E-05-1.63460E-05-3.86759E-05 1.96385E-18 3.73976E-18
 -1      2597 3.12804E-05-2.66912E-05-1.91466E-06-2.37988E-05 1.22439E-18 5.15885E-18
 -1      2598 4.58372E-05-3.33996E-05-5.32254E-06-3.32055E-05 1.24217E-18 4.47975E-18
 -1      2599 2.67798E-05-2.17792E-05-1.91225E-06 3.16705E-05-1.30252E-18 5.75834E-18
 -1      2600 1.91528E-05-1.71606E-05-4.85391E-07 1.85172E-05-9.27342E-19 5.08728E-18
 -1      2601 3.98354E-05-2.18287E-05-7.15212E-06 3.58634E-05-2.57943E-18 5.19909E-18
 -1      2602 5.90104E-05 2.88593E-06-2.64286E-05-9.98766E-06-1.83873E-18-4.58967E-18
 -1      2603 6.09653E-05 3.50633E-06-2.75993E-05-7.18848E-06-1.84376E-18-4.35889E-18
 -1      2604 6.49237E-05 1.69873E-06-2.85503E-05-4.47015E-06-2.01303E-18-3.96978E-18
 -1      2605 7.39649E-05-3.99536E-05-1.41614E-05 4.74962E-05-3.58888E-18 3.03418E-18
 -1      2606 3.39372E-05-1.87543E-05-6.05453E-06-1.91657E-05 1.56172E-18 5.09257E-18
 -1      2607 1.38849E-04-5.66878E-05-3.51609E-05 2.00366E-05 3.98105E-20-3.54250E-18
 -1      2608 1.14048E-04-5.59935E-05-2.45833E-05 3.93300E-05-2.50764E-18-1.46298E-18
 -1      2609 1.63079E-04-6.77084E-05-4.08057E-05-4.26633E-06-2.04686E-18 8.25857E-19
 -1      2610 1.69195E-04-5.63774E-05-4.83916E-05 1.34904E-05-3.27071E-18-3.73796E-18
 -1      2611 1.64021E-04-6.63187E-05-4.23407E-05 3.03139E-06-8.16646E-19-4.03399E-18
 -1      2612 2.54551E-05-1.25114E-05-4.96135E-06 9.60344E-06-5.67936E-19 5.31810E-18
 -1      2613 1.15371E-04-5.33309E-05-2.67257E-05-2.75541E-05 3.52122E-18-5.88000E-19
 -1      2614 9.52366E-05-2.85719E-05-2.85706E-05-2.17110E-09-1.56867E-18 7.23641E-19
 -1      2615 9.52368E-05-2.85723E-05-2.85705E-05-2.47471E-09-1.91777E-18 1.09163E-18
 -1      2616 1.45866E-04-9.70735E-06-5.86609E-05 4.34002E-06 6.38282E-18-8.03040E-19
 -1      2617 1.33848E-04-5.83980E-06-5.53980E-05 3.74240E-06 6.28435E-18-2.27111E-19
 -1      2618 1.38314E-04-1.09276E-05-5.51956E-05 6.74160E-06 5.99869E-18 2.41775E-19
 -1      2619 1.51215E-04-6.73779E-05-3.60699E-05-5.70201E-06 7.14155E-19-2.77064E-18
 -1      2620 9.52368E-05-2.85725E-05-2.85704E-05-3.09868E-09-1.29985E-18 1.11451E-18
 -1      2621 1.74609E-04-5.14551E-05-5.34240E-05 2.04128E-05-4.50283E-18-4.56847E-18
 -1      2622 7.02990E-05-1.37205E-06-2.96147E-05-6.95232E-07-1.82827E-18-3.55445E-18
 -1      2623 7.82503E-05-5.53574E-06-3.11762E-05 1.13680E-06-1.92489E-18-2.88051E-18
 -1      2624 7.98039E-05-8.39293E-06-3.04803E-05 5.11761E-06-1.65133E-18-2.63979E-18
 -1      2625 6.56958E-05-3.53855E-07-2.78773E-05-1.12520E-06-1.74002E-18-3.81523E-18
 -1      2626 7.77622E-05-3.86558E-05-1.64489E-05 3.39384E-05 1.10411E-18-3.90037E-18
 -1      2627 6.36468E-05-3.59369E-05-1.14143E-05-3.53370E-05 2.59446E-18 3.56050E-18
 -1      2628 2.39859E-05-5.85847E-06-7.14443E-06-5.27557E-06-9.61541E-19-7.67031E-18
 -1      2629 3.23812E-05-1.11405E-05-8.58665E-06-3.25413E-05-2.42601E-18-7.49539E-18
 -1      2630 6.00249E-05-2.71678E-05-1.36325E-05-4.71571E-05-3.01078E-18-6.11145E-18
 -1      2631 9.89946E-05-4.52583E-05-2.26828E-05-4.40855E-05-2.61945E-18-3.72745E-18
 -1      2632 1.31051E-04-5.24376E-05-3.35318E-05-2.63891E-05-7.39142E-19-1.17325E-18
 -1      2633 1.50892E-04-2.62362E-05-5.34646E-05 3.20189E-06 4.93481E-18-9.88911E-20
 -1      2634 1.41518E-04-1.99978E-05-5.30041E-05 9.59105E-06 4.95705E-18 1.35409E-18
 -1      2635 1.44051E-04-3.01128E-05-4.89313E-05 6.41533E-06 3.43048E-18 1.40205E-18
 -1      2636 1.46170E-04-4.40414E-05-4.37143E-05-6.78230E-06 1.60494E-18 2.88415E-19
 -1      2637 1.45209E-04-2.11192E-05-5.33561E-05-6.54353E-06 5.16055E-18-2.86964E-18
 -1      2638 1.47597E-04-4.24351E-05-4.51051E-05 4.15578E-07 2.57064E-18-3.74262E-18
 -1      2639 1.21561E-04-6.00603E-05-2.64264E-05 2.55592E-05 6.89273E-19-1.16144E-18
 -1      2640 1.06616E-04-5.51332E-05-2.17489E-05-3.27856E-05 3.17659E-18 1.41192E-18
 -1      2641 1.03114E-04-2.71461E-05-3.26174E-05-1.25427E-06 1.48406E-19-2.13611E-18
 -1      2642 1.01559E-04-2.65766E-05-3.20898E-05-4.76236E-06-3.16263E-19-2.23744E-18
 -1      2643 9.91997E-05-2.60538E-05-3.13509E-05-9.43612E-06-7.94504E-19-2.49275E-18
 -1      2644 9.54948E-05-2.42267E-05-3.05307E-05-1.32634E-05-1.27513E-18-2.74943E-18
 -1      2645 1.03896E-04-3.00746E-05-3.16563E-05-7.29840E-06-6.36042E-19-1.95248E-18
 -1      2646 1.02964E-04-2.55825E-05-3.32547E-05 9.63762E-06 1.78152E-18-1.34562E-18
 -1      2647 1.03445E-04-2.58296E-05-3.32577E-05 7.64401E-06 1.36030E-18-1.58964E-18
 -1      2648 1.01621E-04-2.52550E-05-3.28260E-05 1.21806E-05 2.38179E-18-6.70767E-19
 -1      2649 1.02256E-04-2.51684E-05-3.30420E-05 1.10336E-05 2.04507E-18-1.02503E-18
 -1      2650 1.04179E-04-2.73844E-05-3.28610E-05 1.04339E-05 1.81052E-18-8.56640E-19
 -1      2651 1.00407E-04-2.59997E-05-3.19512E-05 1.25455E-05 2.58709E-18 2.67510E-19
 -1      2652 1.00882E-04-2.52718E-05-3.23944E-05 1.25645E-05 2.43832E-18-2.22584E-19
 -1      2653 1.02133E-04-2.69797E-05-3.21566E-05 1.18485E-05 2.17472E-18-2.00131E-19
 -1      2654 9.95958E-05-2.71550E-05-3.10683E-05 1.12280E-05 2.54767E-18 1.39365E-18
 -1      2655 9.98921E-05-2.62752E-05-3.15295E-05 1.20968E-05 2.54784E-18 7.52597E-19
 -1      2656 1.00289E-04-2.73478E-05-3.12416E-05 1.13393E-05 2.23157E-18 4.42549E-19
 -1      2657 9.86396E-05-2.77957E-05-3.03353E-05 9.97675E-06 2.27690E-18 1.37655E-18
 -1      2658 1.22764E-04-5.76666E-05-2.79497E-05 2.33871E-05 1.02703E-18-3.70193E-19
 -1      2659 8.09382E-05-1.63870E-05-2.74900E-05 1.67566E-05-7.63388E-20-2.20072E-18
 -1      2660 8.22998E-05-2.14336E-05-2.57847E-05 2.11958E-05 6.88347E-19-2.42032E-18
 -1      2661 9.22871E-05-2.37564E-05-2.93540E-05-1.30368E-06 8.00887E-19-5.57234E-19
 -1      2662 9.23453E-05-2.37340E-05-2.93861E-05 4.41007E-07 1.14986E-18-4.14922E-19
 -1      2663 3.10693E-05-1.05559E-05-8.21389E-06 1.81496E-05-8.81232E-19 4.29573E-18
 -1      2664 3.00255E-05-8.73678E-06-8.53283E-06 1.35083E-06 5.58645E-20 4.66101E-18
 -1      2665 1.22055E-04-5.76638E-05-2.78648E-05 3.20699E-05-2.10128E-18-2.75131E-18
 -1      2666 1.08098E-04-5.27957E-05-2.31527E-05 3.88279E-05-3.10660E-18-1.25082E-18
 -1      2667 8.49818E-05-2.33578E-05-2.62549E-05-2.41339E-05 1.15367E-18 9.12294E-19
 -1      2668 8.38003E-05-2.05167E-05-2.70616E-05-2.19169E-05 1.25165E-18 7.62330E-19
 -1      2669 8.65410E-05-2.03311E-05-2.82875E-05-1.91395E-05 1.12840E-18-5.72277E-20
 -1      2670 8.67899E-05-1.98995E-05-2.87287E-05-1.70521E-05 8.41216E-19-3.30171E-19
 -1      2671 7.72336E-05-1.65925E-05-2.57666E-05-1.86653E-05 6.85494E-19 9.84504E-19
 -1      2672 8.92347E-05-2.06621E-05-2.93511E-05-1.50523E-05 8.98854E-19-1.13754E-18
 -1      2673 8.97583E-05-2.11083E-05-2.94831E-05-1.32145E-05 7.85054E-19-9.32223E-19
 -1      2674 8.24411E-05-1.73454E-05-2.77775E-05-1.43756E-05 5.96217E-19-6.77453E-19
 -1      2675 9.16483E-05-2.21676E-05-2.97564E-05-1.16862E-05 4.72075E-19-7.42691E-19
 -1      2676 9.20644E-05-2.28229E-05-2.97233E-05-1.01398E-05 5.96530E-19-4.75392E-19
 -1      2677 8.67697E-05-1.94220E-05-2.87810E-05-1.12474E-05 6.21009E-19-1.02446E-18
 -1      2678 9.33902E-05-2.37977E-05-2.98078E-05-8.93664E-06 3.34932E-19-7.48632E-19
 -1      2679 9.36220E-05-2.43967E-05-2.97030E-05-7.68990E-06-4.13973E-19-6.60797E-19
 -1      2680 8.99291E-05-2.16348E-05-2.92126E-05-8.78992E-06 1.15436E-19-3.39759E-19
 -1      2681 9.44937E-05-2.51710E-05-2.96936E-05-6.74029E-06-6.02666E-19-8.38665E-19
 -1      2682 9.45765E-05-2.56389E-05-2.95693E-05-5.76827E-06-6.40548E-19-5.35647E-19
 -1      2683 9.20739E-05-2.35303E-05-2.93386E-05-6.80369E-06-5.90893E-19-5.67271E-19
 -1      2684 9.51210E-05-2.62091E-05-2.95191E-05-5.02695E-06-9.52455E-19-3.82564E-19
 -1      2685 9.51116E-05-2.65481E-05-2.94007E-05-4.28768E-06-9.98655E-19-1.88762E-19
 -1      2686 9.34530E-05-2.49997E-05-2.93140E-05-5.20553E-06-8.57907E-19-1.08801E-18
 -1      2687 9.54258E-05-2.69336E-05-2.93413E-05-3.74443E-06-9.93394E-19-2.87302E-19
 -1      2688 9.53694E-05-2.71610E-05-2.92433E-05-3.21193E-06-6.76014E-19-6.73903E-19
 -1      2689 9.42834E-05-2.60550E-05-2.92275E-05-3.96592E-06-8.33379E-19-1.53006E-18
 -1      2690 9.55568E-05-2.74442E-05-2.91810E-05-2.76919E-06-1.15982E-18-8.53792E-19
 -1      2691 9.54802E-05-2.76077E-05-2.90960E-05-2.35324E-06-1.07712E-18-1.36555E-18
 -1      2692 9.47757E-05-2.68071E-05-2.91213E-05-2.99529E-06-1.40548E-18-1.51033E-18
 -1      2693 9.55813E-05-2.78009E-05-2.90408E-05-2.01934E-06-2.77524E-19-1.01491E-18
 -1      2694 9.55030E-05-2.79109E-05-2.89732E-05-1.71304E-06 2.58428E-19-2.18909E-19
 -1      2695 9.50598E-05-2.73486E-05-2.90147E-05-2.22519E-06-3.68748E-19 1.81834E-20
 -1      2696 9.55521E-05-2.80418E-05-2.89268E-05-1.46242E-06 3.80377E-19 1.11979E-19
 -1      2697 9.54811E-05-2.81158E-05-2.88743E-05-1.23786E-06 2.30105E-19-6.23820E-20
 -1      2698 9.52076E-05-2.77225E-05-2.89201E-05-1.63871E-06 6.00523E-19-1.37065E-19
 -1      2699 9.55010E-05-2.82045E-05-2.88366E-05-1.05078E-06-3.71351E-19 1.00726E-18
 -1      2700 9.54410E-05-2.82545E-05-2.87964E-05-8.86607E-07-2.73666E-19 1.23219E-18
 -1      2701 9.52762E-05-2.79800E-05-2.88404E-05-1.19562E-06 6.31337E-19 4.48774E-19
 -1      2702 9.54454E-05-2.83150E-05-2.87666E-05-7.47673E-07-3.55918E-20 1.31846E-18
 -1      2703 9.53970E-05-2.83492E-05-2.87362E-05-6.27984E-07 8.32325E-19 1.23841E-18
 -1      2704 9.53012E-05-2.81576E-05-2.87757E-05-8.63156E-07 9.30509E-20 1.56360E-18
 -1      2705 9.53940E-05-2.83907E-05-2.87130E-05-5.25363E-07 8.95987E-19 6.03635E-19
 -1      2706 9.53565E-05-2.84145E-05-2.86903E-05-4.38511E-07 1.13940E-18 7.63413E-19
 -1      2707 9.53037E-05-2.82808E-05-2.87243E-05-6.15295E-07 3.31024E-19 1.95731E-18
 -1      2708 9.53510E-05-2.84418E-05-2.86733E-05-3.66744E-07 1.11631E-18-2.62423E-19
 -1      2709 9.53237E-05-2.84581E-05-2.86573E-05-3.06341E-07 7.93380E-19-5.96439E-19
 -1      2710 9.52962E-05-2.83656E-05-2.86850E-05-4.35316E-07 3.97310E-19 1.14625E-19
 -1      2711 9.53170E-05-2.84787E-05-2.86435E-05-2.50507E-07 4.08977E-19-1.18287E-18
 -1      2712 9.52959E-05-2.84910E-05-2.86311E-05-2.04740E-07 2.93073E-19-2.32441E-18
 -1      2713 9.52850E-05-2.84251E-05-2.86547E-05-3.02715E-07 1.96035E-20-1.45467E-18
 -1      2714 9.52899E-05-2.85054E-05-2.86208E-05-1.64614E-07 1.60805E-20-2.60616E-18
 -1      2715 9.52748E-05-2.85144E-05-2.86119E-05-1.32113E-07 4.21375E-19-3.04178E-18
 -1      2716 9.52734E-05-2.84690E-05-2.86309E-05-2.03018E-07-1.02082E-19-2.51241E-18
 -1      2717 9.52698E-05-2.85246E-05-2.86043E-05-1.03601E-07 3.53658E-19-3.18425E-18
 -1      2718 9.52594E-05-2.85313E-05-2.85979E-05-8.08652E-08-1.42277E-18-2.59805E-18
 -1      2719 9.52632E-05-2.85003E-05-2.86130E-05-1.31317E-07 3.80124E-19-2.76371E-18
 -1      2720 9.52554E-05-2.85385E-05-2.85924E-05-6.09537E-08-2.69150E-18-2.83775E-18
 -1      2721 9.52485E-05-2.85435E-05-2.85880E-05-4.53564E-08-2.05822E-18-2.86734E-18
 -1      2722 9.52549E-05-2.85227E-05-2.85998E-05-8.05176E-08-1.97532E-18-1.87905E-18
 -1      2723 9.52455E-05-2.85486E-05-2.85840E-05-3.17686E-08-1.48457E-18-2.81555E-18
 -1      2724 9.52411E-05-2.85523E-05-2.85810E-05-2.13509E-08-9.02253E-19-2.29548E-18
 -1      2725 9.52485E-05-2.85388E-05-2.85901E-05-4.52166E-08-1.46685E-18-9.78949E-19
 -1      2726 9.52390E-05-2.85560E-05-2.85782E-05-1.23598E-08-3.48735E-19-2.06800E-18
 -1      2727 9.52365E-05-2.85587E-05-2.85762E-05-5.67290E-09 3.95749E-19-1.67076E-18
 -1      2728 9.52438E-05-2.85502E-05-2.85831E-05-2.13001E-08-5.34371E-19-9.14935E-19
 -1      2729 9.52351E-05-2.85611E-05-2.85744E-05-2.27738E-10 1.65982E-20-1.54891E-18
 -1      2730 9.52338E-05-2.85631E-05-2.85732E-05 3.70936E-09 2.35164E-19-1.02079E-18
 -1      2731 9.52406E-05-2.85581E-05-2.85783E-05-5.90860E-09 4.37072E-19-1.42926E-18
 -1      2732 9.52328E-05-2.85649E-05-2.85719E-05 7.18827E-09 2.48868E-19-1.19099E-18
 -1      2733 9.52323E-05-2.85664E-05-2.85711E-05 9.51282E-09 1.47675E-19-1.09382E-18
 -1      2734 9.52384E-05-2.85636E-05-2.85750E-05 3.73004E-09 5.21979E-19-9.96851E-20
 -1      2735 9.52317E-05-2.85676E-05-2.85703E-05 1.13420E-08 3.24396E-19-1.78687E-18
 -1      2736 9.52318E-05-2.85687E-05-2.85699E-05 1.24158E-08 2.51498E-19-1.48040E-18
 -1      2737 9.52370E-05-2.85675E-05-2.85727E-05 9.51639E-09 4.81019E-20-8.03823E-19
 -1      2738 9.52314E-05-2.85694E-05-2.85694E-05 1.31526E-08 4.76383E-19-1.28755E-18
 -1      2739 9.52318E-05-2.85702E-05-2.85693E-05 1.34087E-08 1.37131E-18-2.36659E-18
 -1      2740 9.52362E-05-2.85700E-05-2.85713E-05 1.24191E-08 5.55433E-19-1.75350E-18
 -1      2741 9.52317E-05-2.85706E-05-2.85690E-05 1.34458E-08 4.73575E-19-2.62205E-18
 -1      2742 9.52322E-05-2.85712E-05-2.85690E-05 1.31967E-08-3.39155E-19-2.94450E-18
 -1      2743 9.52358E-05-2.85716E-05-2.85704E-05 1.34137E-08 9.18585E-19-1.89552E-18
 -1      2744 9.52322E-05-2.85714E-05-2.85689E-05 1.28124E-08-2.08418E-19-2.31677E-18
 -1      2745 9.52328E-05-2.85718E-05-2.85690E-05 1.22763E-08-5.81094E-19-1.90756E-18
 -1      2746 9.52356E-05-2.85726E-05-2.85699E-05 1.32033E-08 4.20173E-19-9.52793E-19
 -1      2747 9.52328E-05-2.85719E-05-2.85690E-05 1.16641E-08-1.38416E-18-1.19434E-18
 -1      2748 9.52335E-05-2.85721E-05-2.85691E-05 1.09876E-08 2.52678E-19-1.02118E-18
 -1      2749 9.52357E-05-2.85730E-05-2.85697E-05 1.22841E-08 2.09909E-19-6.70247E-19
 -1      2750 9.52335E-05-2.85721E-05-2.85692E-05 1.03140E-08 1.15857E-18-1.45952E-18
 -1      2751 9.52341E-05-2.85722E-05-2.85694E-05 9.62872E-09 1.70404E-18-1.00642E-18
 -1      2752 9.52358E-05-2.85732E-05-2.85697E-05 1.10318E-08 1.94398E-19-7.45342E-19
 -1      2753 9.52342E-05-2.85722E-05-2.85694E-05 8.89807E-09 1.39607E-18-1.89356E-18
 -1      2754 9.52347E-05-2.85723E-05-2.85696E-05 8.18951E-09 3.60524E-19-1.56441E-18
 -1      2755 9.52360E-05-2.85732E-05-2.85698E-05 9.63622E-09 8.89210E-19-6.65028E-19
 -1      2756 9.52349E-05-2.85723E-05-2.85697E-05 7.48250E-09 1.35571E-18-2.30870E-18
 -1      2757 9.52353E-05-2.85723E-05-2.85699E-05 6.81313E-09 1.38722E-18-6.56860E-19
 -1      2758 9.52362E-05-2.85731E-05-2.85699E-05 8.19231E-09 1.07326E-18-2.80639E-18
 -1      2759 9.52355E-05-2.85723E-05-2.85699E-05 6.15450E-09 6.75477E-19-9.53765E-19
 -1      2760 9.52359E-05-2.85724E-05-2.85701E-05 5.53188E-09 6.26338E-19-1.11736E-18
 -1      2761 9.52364E-05-2.85730E-05-2.85700E-05 6.81011E-09 2.32696E-18-3.64227E-18
 -1      2762 9.52360E-05-2.85723E-05-2.85702E-05 4.91736E-09 7.94967E-19-7.64269E-19
 -1      2763 9.52364E-05-2.85724E-05-2.85703E-05 4.34353E-09 1.45437E-19-4.75789E-19
 -1      2764 9.52367E-05-2.85729E-05-2.85702E-05 5.51949E-09 1.04015E-18-2.72820E-18
 -1      2765 9.52365E-05-2.85725E-05-2.85703E-05 3.99419E-09-9.93846E-19-1.26444E-18
 -1      2766 9.52369E-05-2.85727E-05-2.85704E-05 3.58929E-09-8.15576E-19-1.25852E-18
 -1      2767 9.52373E-05-2.85731E-05-2.85703E-05 3.78901E-09-1.11555E-18-3.00885E-18
 -1      2768 9.52370E-05-2.85730E-05-2.85703E-05 4.52735E-09 6.39789E-20-3.41430E-18
 -1      2769 9.29361E-05-2.46910E-05-2.92546E-05-4.76609E-06 5.48941E-19-6.79086E-19
 -1      2770 9.24892E-05-2.40887E-05-2.92790E-05-3.27086E-06 6.93014E-19-7.28942E-19
 -1      2771 9.44286E-05-2.35392E-05-3.04116E-05-2.41966E-06 8.71926E-19-7.31650E-19
 -1      2772 9.27745E-05-2.40505E-05-2.94185E-05 2.45905E-06 1.46043E-18-1.02706E-19
 -1      2773 9.33499E-05-2.45823E-05-2.94708E-05 4.06062E-06 1.61389E-18 1.52938E-19
 -1      2774 9.46452E-05-2.34893E-05-3.05268E-05 1.81425E-06 1.51310E-18-2.77989E-19
 -1      2775 9.44159E-05-2.65165E-05-2.91219E-05-7.12099E-06 6.79343E-19-9.51067E-19
 -1      2776 9.36313E-05-2.55487E-05-2.91379E-05-6.19392E-06 5.91131E-19-8.01126E-19
 -1      2777 9.53789E-05-2.49976E-05-3.01784E-05-6.00437E-06 7.20157E-19-1.31595E-18
 -1      2778 9.61519E-05-2.85748E-05-2.89866E-05-7.98561E-06 8.01021E-19-1.06076E-18
 -1      2779 9.52728E-05-2.75639E-05-2.89872E-05-7.73694E-06 8.97588E-19-9.68839E-19
 -1      2780 9.70027E-05-2.73135E-05-2.98617E-05-8.11607E-06 8.75689E-19-1.55164E-18
 -1      2781 9.76072E-05-3.02576E-05-2.88824E-05-7.49805E-06 7.94284E-19-1.09442E-18
 -1      2782 9.68438E-05-2.94653E-05-2.88635E-05-7.82404E-06 7.33337E-19-8.88804E-19
 -1      2783 9.86101E-05-2.96672E-05-2.95299E-05-8.52299E-06 7.46105E-19-1.47651E-18
 -1      2784 9.84984E-05-3.12560E-05-2.88259E-05-6.12460E-06 6.23495E-19-9.12935E-19
 -1      2785 9.79637E-05-3.07968E-05-2.87902E-05-6.80609E-06 8.99030E-19-1.06231E-18
 -1      2786 9.96869E-05-3.14030E-05-2.92455E-05-7.56417E-06 8.76494E-19-1.52730E-18
 -1      2787 9.88058E-05-3.15686E-05-2.88144E-05-4.39265E-06 2.82386E-19-1.23541E-18
 -1      2788 9.85162E-05-3.14234E-05-2.87700E-05-5.20205E-06 5.10979E-19-8.25955E-19
 -1      2789 1.00063E-04-3.22675E-05-2.90416E-05-5.84169E-06 6.06513E-19-8.87640E-19
 -1      2790 9.86696E-05-3.13777E-05-2.88323E-05-2.71087E-06 1.46697E-19-7.49368E-19
 -1      2791 9.85817E-05-3.14559E-05-2.87889E-05-3.47837E-06 2.10580E-19-8.92764E-19
 -1      2792 9.98436E-05-3.23486E-05-2.89202E-05-3.92449E-06 2.53930E-19-6.94458E-19
 -1      2793 9.82735E-05-3.09104E-05-2.88606E-05-1.31320E-06 4.76639E-19-9.88580E-19
 -1      2794 9.83227E-05-3.11090E-05-2.88261E-05-1.94385E-06 5.02644E-19-5.52187E-19
 -1      2795 9.92554E-05-3.19081E-05-2.88628E-05-2.19578E-06 1.98265E-19-2.18812E-19
 -1      2796 9.77722E-05-3.03543E-05-2.88843E-05-2.82832E-07-1.99323E-19-5.06365E-19
 -1      2797 9.78990E-05-3.05916E-05-2.88628E-05-7.44568E-07 2.01584E-21-1.06015E-18
 -1      2798 9.85188E-05-3.12226E-05-2.88443E-05-8.38793E-07 2.51049E-19-3.27285E-19
 -1      2799 9.72678E-05-2.98286E-05-2.88949E-05 3.93335E-07-2.72809E-19-1.48317E-19
 -1      2800 9.74278E-05-3.00536E-05-2.88871E-05 9.24480E-08-3.97311E-20-8.59738E-20
 -1      2801 9.77887E-05-3.04993E-05-2.88427E-05 1.10232E-07-4.19564E-19-1.35959E-19
 -1      2802 9.68148E-05-2.93918E-05-2.88898E-05 7.76083E-07 1.61963E-19-2.18450E-19
 -1      2803 9.69797E-05-2.95797E-05-2.88939E-05 6.07729E-07-1.60545E-19-4.50376E-19
 -1      2804 9.71488E-05-2.98587E-05-2.88431E-05 6.96019E-07 8.45143E-20-5.72333E-19
 -1      2805 9.64349E-05-2.90606E-05-2.88707E-05 9.40823E-07 1.18277E-19-5.90931E-19
 -1      2806 9.65886E-05-2.92042E-05-2.88837E-05 8.70590E-07 2.32958E-19-1.26615E-19
 -1      2807 9.66299E-05-2.93515E-05-2.88376E-05 9.96805E-07 2.76575E-19-3.36832E-19
 -1      2808 9.61299E-05-2.88276E-05-2.88413E-05 9.58561E-07 6.85576E-19-6.48024E-19
 -1      2809 9.62647E-05-2.89299E-05-2.88599E-05 9.54190E-07 5.21501E-19-3.19768E-19
 -1      2810 9.62308E-05-2.89834E-05-2.88236E-05 1.09505E-06 2.39269E-19-8.50130E-19
 -1      2811 9.58920E-05-2.86747E-05-2.88059E-05 8.87410E-07 6.48645E-19-5.03161E-19
 -1      2812 9.60056E-05-2.87431E-05-2.88271E-05 9.22533E-07 7.05536E-19-4.20662E-19
 -1      2813 9.59350E-05-2.87364E-05-2.88019E-05 1.06263E-06 6.66772E-19-4.09736E-19
 -1      2814 9.57102E-05-2.85820E-05-2.87684E-05 7.70551E-07 5.22345E-19-4.26399E-19
 -1      2815 9.58031E-05-2.86247E-05-2.87900E-05 8.25616E-07 7.96803E-19-3.98143E-19
 -1      2816 9.57214E-05-2.85843E-05-2.87750E-05 9.55575E-07 6.67362E-19 3.86013E-20
 -1      2817 9.55734E-05-2.85314E-05-2.87319E-05 6.37507E-07-2.68253E-19-7.85460E-19
 -1      2818 9.56475E-05-2.85559E-05-2.87522E-05 6.99200E-07 1.76145E-19-4.61538E-20
 -1      2819 9.55698E-05-2.85003E-05-2.87455E-05 8.14030E-07 2.95801E-19 7.39157E-19
 -1      2820 9.54717E-05-2.85084E-05-2.86984E-05 5.06782E-07-9.34575E-19-1.07104E-18
 -1      2821 9.55294E-05-2.85207E-05-2.87165E-05 5.66820E-07-6.19928E-19-6.94455E-19
 -1      2822 9.54634E-05-2.84621E-05-2.87160E-05 6.64547E-07-2.95926E-19 1.77626E-19
 -1      2823 9.53969E-05-2.85024E-05-2.86691E-05 3.88726E-07-1.32367E-18-6.69707E-19
 -1      2824 9.54410E-05-2.85070E-05-2.86845E-05 4.42541E-07-1.03161E-18-9.68601E-19
 -1      2825 9.53894E-05-2.84525E-05-2.86881E-05 5.23158E-07-1.09991E-18 7.06998E-20
 -1      2826 9.53426E-05-2.85059E-05-2.86444E-05 2.88071E-07-4.79062E-19-1.21193E-18
 -1      2827 9.53755E-05-2.85059E-05-2.86570E-05 3.33646E-07-9.07053E-19-7.30431E-19
 -1      2828 9.53381E-05-2.84590E-05-2.86632E-05 3.98344E-07-1.05519E-18 7.62610E-19
 -1      2829 9.53037E-05-2.85140E-05-2.86242E-05 2.05943E-07-3.20045E-19-1.95261E-19
 -1      2830 9.53277E-05-2.85116E-05-2.86343E-05 2.42884E-07-4.07916E-19-3.52224E-19
 -1      2831 9.53026E-05-2.84735E-05-2.86416E-05 2.93495E-07-6.00524E-19-3.97732E-19
 -1      2832 9.52763E-05-2.85238E-05-2.86083E-05 1.41339E-07 2.86812E-19-1.13516E-18
 -1      2833 9.52934E-05-2.85203E-05-2.86160E-05 1.70197E-07-8.14695E-20-6.53060E-19
 -1      2834 9.52783E-05-2.84907E-05-2.86237E-05 2.08816E-07 2.38292E-19-9.02458E-20
 -1      2835 9.52574E-05-2.85335E-05-2.85961E-05 9.21682E-08 1.53508E-19-3.23387E-20
 -1      2836 9.52692E-05-2.85298E-05-2.86018E-05 1.13966E-07 1.75030E-19-9.08507E-19
 -1      2837 9.52617E-05-2.85078E-05-2.86092E-05 1.42693E-07 1.23472E-19-1.23165E-18
 -1      2838 9.52448E-05-2.85422E-05-2.85869E-05 5.59216E-08 4.60440E-21 8.31412E-19
 -1      2839 9.52526E-05-2.85387E-05-2.85911E-05 7.18503E-08 3.37956E-19 8.70604E-19
 -1      2840 9.52504E-05-2.85230E-05-2.85977E-05 9.26406E-08-1.51841E-19 4.60970E-19
 -1      2841 9.52367E-05-2.85496E-05-2.85803E-05 3.00808E-08-5.88901E-19 1.40628E-18
 -1      2842 9.52417E-05-2.85465E-05-2.85832E-05 4.13176E-08-2.97706E-19 1.28624E-18
 -1      2843 9.52430E-05-2.85359E-05-2.85890E-05 5.58994E-08-5.22846E-19 1.15531E-18
 -1      2844 9.52319E-05-2.85556E-05-2.85756E-05 1.23449E-08-8.05421E-19 1.85635E-18
 -1      2845 9.52347E-05-2.85530E-05-2.85776E-05 1.99538E-08-5.45314E-19 2.03363E-18
 -1      2846 9.52383E-05-2.85462E-05-2.85825E-05 2.97967E-08-8.55566E-19 1.86325E-18
 -1      2847 9.52293E-05-2.85602E-05-2.85725E-05 7.33006E-10 6.05487E-19 1.60151E-18
 -1      2848 9.52307E-05-2.85582E-05-2.85737E-05 5.62239E-09-2.63463E-19 1.66740E-18
 -1      2849 9.52354E-05-2.85542E-05-2.85778E-05 1.19369E-08-3.67923E-19 2.03835E-18
 -1      2850 9.52282E-05-2.85638E-05-2.85705E-05-6.38843E-09 4.65642E-19 1.03513E-18
 -1      2851 9.52287E-05-2.85622E-05-2.85712E-05-3.47526E-09 7.47202E-19 1.24371E-18
 -1      2852 9.52337E-05-2.85602E-05-2.85745E-05 2.81555E-10 8.85853E-19 1.47989E-18
 -1      2853 9.52282E-05-2.85664E-05-2.85693E-05-1.03204E-08 1.61843E-19 7.70014E-19
 -1      2854 9.52280E-05-2.85652E-05-2.85697E-05-8.79605E-09 5.32296E-19 1.40200E-18
 -1      2855 9.52330E-05-2.85646E-05-2.85722E-05-6.83828E-09 3.02176E-19 9.06495E-19
 -1      2856 9.52287E-05-2.85683E-05-2.85687E-05-1.20676E-08-1.53783E-19-9.87390E-20
 -1      2857 9.52281E-05-2.85674E-05-2.85688E-05-1.14819E-08 2.56020E-19 1.03772E-18
 -1      2858 9.52327E-05-2.85676E-05-2.85708E-05-1.07445E-08 4.68818E-19 3.96449E-19
 -1      2859 9.52296E-05-2.85696E-05-2.85685E-05-1.23839E-08 3.20238E-19-5.82275E-19
 -1      2860 9.52288E-05-2.85689E-05-2.85685E-05-1.24018E-08-1.14769E-19-2.16761E-19
 -1      2861 9.52329E-05-2.85697E-05-2.85700E-05-1.24541E-08-1.92595E-19 7.30100E-19
 -1      2862 9.52306E-05-2.85705E-05-2.85686E-05-1.18193E-08-5.78548E-19-1.36183E-18
 -1      2863 9.52298E-05-2.85700E-05-2.85685E-05-1.21988E-08-1.33822E-19-4.95649E-19
 -1      2864 9.52333E-05-2.85710E-05-2.85696E-05-1.27281E-08-7.23861E-20-1.73781E-19
 -1      2865 9.52317E-05-2.85711E-05-2.85688E-05-1.07618E-08 5.31306E-19-2.64413E-21
 -1      2866 9.52309E-05-2.85708E-05-2.85686E-05-1.13341E-08-2.25918E-19-1.10515E-18
 -1      2867 9.52337E-05-2.85718E-05-2.85694E-05-1.21206E-08-7.25609E-19-4.81654E-19
 -1      2868 9.52327E-05-2.85715E-05-2.85691E-05-9.47364E-09 1.98333E-18-9.35440E-21
 -1      2869 9.52320E-05-2.85712E-05-2.85689E-05-1.01268E-08 1.37612E-18 7.14445E-20
 -1      2870 9.52343E-05-2.85723E-05-2.85694E-05-1.10213E-08 6.34626E-19-8.82897E-19
 -1      2871 9.52337E-05-2.85717E-05-2.85694E-05-8.12167E-09 1.96442E-18 9.47866E-19
 -1      2872 9.52330E-05-2.85715E-05-2.85692E-05-8.78662E-09 2.41709E-18 4.59586E-19
 -1      2873 9.52348E-05-2.85725E-05-2.85696E-05-9.69311E-09 1.94718E-18-1.04553E-18
 -1      2874 9.52345E-05-2.85719E-05-2.85697E-05-6.80163E-09 2.10703E-19 1.13625E-18
 -1      2875 9.52339E-05-2.85717E-05-2.85695E-05-7.44102E-09 1.43726E-18 1.25126E-18
 -1      2876 9.52353E-05-2.85726E-05-2.85697E-05-8.30259E-09 1.63491E-18 1.04761E-18
 -1      2877 9.52353E-05-2.85720E-05-2.85700E-05-5.55574E-09 7.44756E-19 1.13229E-18
 -1      2878 9.52348E-05-2.85719E-05-2.85698E-05-6.15592E-09 5.25697E-20 8.39005E-19
 -1      2879 9.52357E-05-2.85726E-05-2.85699E-05-6.94513E-09 1.52101E-19 6.67327E-19
 -1      2880 9.52359E-05-2.85721E-05-2.85702E-05-4.38967E-09-7.13198E-19 1.50211E-18
 -1      2881 9.52355E-05-2.85720E-05-2.85701E-05-4.94846E-09 4.02744E-19 1.31979E-18
 -1      2882 9.52362E-05-2.85726E-05-2.85701E-05-5.66389E-09 1.51063E-19 4.84322E-19
 -1      2883 9.52365E-05-2.85723E-05-2.85704E-05-3.46991E-09-1.51804E-18 1.65683E-18
 -1      2884 9.52362E-05-2.85722E-05-2.85703E-05-4.01386E-09-1.20485E-18 1.75626E-18
 -1      2885 9.52367E-05-2.85727E-05-2.85703E-05-4.63159E-09-1.35430E-18 1.33419E-18
 -1      2886 9.52371E-05-2.85730E-05-2.85703E-05-3.81649E-09-1.17354E-18 3.98242E-21
 -1      2887 9.52404E-05-2.85765E-05-2.85703E-05-3.66822E-10 8.02362E-20 2.64106E-18
 -1      2888 9.52404E-05-2.85764E-05-2.85703E-05-1.00548E-09-1.25024E-19 3.10711E-18
 -1      2889 9.52397E-05-2.85757E-05-2.85703E-05-2.84008E-09-1.13591E-18 1.17424E-18
 -1      2890 9.52393E-05-2.85753E-05-2.85703E-05-3.24918E-09-6.77391E-19-5.52204E-19
 -1      2891 9.52404E-05-2.85764E-05-2.85703E-05 1.01499E-09 4.13205E-19 7.55475E-19
 -1      2892 9.52404E-05-2.85765E-05-2.85703E-05 3.76158E-10 3.64933E-20 1.45230E-18
 -1      2893 9.52409E-05-2.85766E-05-2.85704E-05 3.37070E-12-6.25826E-19 2.66479E-18
 -1      2894 9.52402E-05-2.85762E-05-2.85703E-05-1.70510E-09-1.21167E-18 1.77713E-18
 -1      2895 9.52400E-05-2.85760E-05-2.85703E-05-2.26602E-09-1.09635E-18 1.74155E-18
 -1      2896 9.52402E-05-2.85760E-05-2.85704E-05-2.83212E-09-1.53743E-18 1.08821E-18
 -1      2897 9.52407E-05-2.85765E-05-2.85704E-05-1.50168E-09-4.44187E-19 3.80151E-18
 -1      2898 9.52400E-05-2.85760E-05-2.85703E-05 2.25761E-09 1.64276E-18-1.87931E-18
 -1      2899 9.52402E-05-2.85762E-05-2.85703E-05 1.70452E-09 7.41157E-19-7.30377E-20
 -1      2900 9.52407E-05-2.85765E-05-2.85704E-05 1.49750E-09 1.03556E-19 1.11919E-19
 -1      2901 9.52393E-05-2.85753E-05-2.85703E-05 3.25241E-09 2.59388E-18 5.55847E-19
 -1      2902 9.52397E-05-2.85757E-05-2.85703E-05 2.83637E-09 2.19518E-18-2.05989E-18
 -1      2903 9.52402E-05-2.85760E-05-2.85704E-05 2.82255E-09 1.15729E-18-5.67080E-19
 -1      2904 9.52385E-05-2.85744E-05-2.85703E-05 3.83102E-09 1.42898E-18-1.78075E-18
 -1      2905 9.52389E-05-2.85749E-05-2.85703E-05 3.62910E-09 2.73419E-18 1.14577E-18
 -1      2906 9.52394E-05-2.85752E-05-2.85704E-05 3.83049E-09 2.58892E-18 5.19503E-19
 -1      2907 3.75217E-05-1.30969E-05-9.93644E-06-1.60951E-05 1.15646E-18 4.39780E-18
 -1      2908 4.70173E-05-2.09983E-05-1.06592E-05-2.72773E-05 1.83076E-18 3.92981E-18
 -1      2909 7.93117E-05-1.02624E-05-2.95282E-05 8.42488E-06-1.20231E-18-2.55423E-18
 -1      2910 8.11165E-05-1.37792E-05-2.86959E-05 1.28978E-05-6.38636E-19-2.33200E-18
 -1      2911 6.98759E-05-9.87511E-06-2.56143E-05 1.34422E-05-3.34631E-19-3.01043E-18
 -1      2912 7.06083E-05-5.28035E-06-2.79970E-05 5.98812E-06-1.18849E-18-3.20385E-18
 -1      2913 8.68825E-05-4.39488E-05-1.85460E-05 4.59866E-05-3.74262E-18 9.92087E-19
 -1      2914 6.65272E-05-3.25550E-05-1.38672E-05 4.38686E-05-3.65590E-18 3.35436E-18
 -1      2915 6.03425E-05-2.78881E-05-1.33619E-05-3.19839E-05 2.46529E-18 2.80453E-18
 -1      2916 7.88336E-05-3.74191E-05-1.75428E-05-3.57685E-05 3.02412E-18 1.92478E-18
 -1      2917 6.32375E-05-2.32770E-05-1.66281E-05-2.85052E-05 1.98322E-18 2.41373E-18
 -1      2918 4.94399E-05-2.30092E-05-1.11129E-05 3.93238E-05-2.88828E-18 4.49224E-18
 -1      2919 3.89246E-05-1.60134E-05-9.18687E-06 2.96827E-05-2.10392E-18 4.23771E-18
 -1      2920 5.28147E-05-1.94210E-05-1.38768E-05 2.64472E-05 7.53436E-19-5.13133E-18
 -1      2921 3.88867E-05-1.01088E-05-1.17419E-05 1.63711E-05 3.58560E-19-5.95739E-18
 -1      2922 9.17118E-05-3.74122E-05-2.28320E-05-3.16280E-05 2.86551E-18 8.16646E-19
 -1      2923 8.65310E-05-2.94682E-05-2.40616E-05-2.90998E-05 1.85537E-18 5.76776E-19
 -1      2924 1.41500E-04-3.76138E-05-4.52508E-05-5.93622E-06 2.69706E-18-3.67983E-18
 -1      2925 1.41778E-04-4.62114E-05-4.09520E-05-6.76305E-07 1.31004E-18-3.98000E-18
 -1      2926 1.40092E-04-4.69924E-05-3.99657E-05-5.80392E-06 3.26081E-19 1.01623E-18
 -1      2927 1.42497E-04-4.03735E-05-4.43603E-05 1.68672E-06 1.67480E-18 1.40925E-18
 -1      2928 1.34941E-04-1.58195E-05-5.17965E-05-8.91103E-06 5.06102E-18-2.54713E-18
 -1      2929 1.38543E-04-2.57077E-05-4.87158E-05-9.71298E-06 3.84426E-18-3.44192E-18
 -1      2930 1.24620E-04-5.18109E-05-3.09567E-05-2.64274E-05-2.01710E-18-7.52589E-19
 -1      2931 1.34479E-04-5.19987E-05-3.58058E-05-1.71126E-05-7.47083E-19 1.60301E-19
 -1      2932 9.17606E-05-3.96451E-05-2.17830E-05-4.31295E-05-3.46574E-18-3.53922E-18
 -1      2933 1.10231E-04-4.83509E-05-2.67121E-05-3.78222E-05-2.62993E-18-2.22448E-18
 -1      2934 5.41968E-05-1.98960E-05-1.41432E-05-4.27230E-05-3.31412E-18-5.98895E-18
 -1      2935 7.06681E-05-2.93682E-05-1.76477E-05-4.71703E-05-3.38157E-18-4.99749E-18
 -1      2936 3.31270E-05-5.23754E-06-1.14233E-05-2.73582E-05-2.19207E-18-6.91306E-18
 -1      2937 4.19340E-05-1.18279E-05-1.24120E-05-3.81063E-05-2.71220E-18-6.57869E-18
 -1      2938 5.37185E-05-1.45281E-05-1.63517E-05-3.80668E-05-3.25621E-18-5.80842E-18
 -1      2939 9.55184E-05-4.41196E-05-2.14445E-05-3.32552E-05 3.76919E-18 1.29008E-18
 -1      2940 1.30212E-04-6.25635E-06-5.39152E-05-1.89638E-06 6.16344E-18-1.28525E-18
 -1      2941 1.32064E-04-8.83456E-06-5.33834E-05-6.11358E-06 5.89683E-18-2.00318E-18
 -1      2942 1.03831E-04-2.65134E-05-3.32195E-05 5.19980E-06 1.02771E-18-1.86636E-18
 -1      2943 1.03649E-04-2.66446E-05-3.29724E-05 2.37959E-06 5.36384E-19-1.96017E-18
 -1      2944 1.06328E-04-2.98707E-05-3.27473E-05 1.08246E-06 2.69025E-19-1.65594E-18
 -1      2945 1.05858E-04-2.85494E-05-3.30928E-05 6.91738E-06 1.14246E-18-1.33573E-18
 -1      2946 6.19778E-05-3.20330E-06-2.49407E-05-2.22698E-05-2.31851E-18-4.72118E-18
 -1      2947 5.71987E-05 2.06982E-08-2.46399E-05-1.91644E-05-2.32691E-18-4.82649E-18
 -1      2948 1.38926E-04-5.54482E-05-3.63678E-05 1.15210E-05 4.58589E-20-3.65145E-18
 -1      2949 1.32153E-04-5.82566E-05-3.14858E-05 2.18253E-05-1.25499E-18-3.37982E-18
 -1      2950 1.26343E-04-5.69689E-05-2.95664E-05 2.29029E-05-2.10932E-18-2.85860E-18
 -1      2951 2.96681E-05-3.63987E-06-1.05909E-05 3.59285E-06-6.00785E-19-6.71168E-18
 -1      2952 2.77579E-05-1.43541E-06-1.07418E-05-1.23682E-05-1.35676E-18-7.08077E-18
 -1      2953 9.62361E-05-2.71629E-05-2.96467E-05-1.73441E-05-1.64586E-18-2.64458E-18
 -1      2954 9.04885E-05-2.16311E-05-2.93926E-05-1.80490E-05-1.67124E-18-3.13619E-18
 -1      2955 8.41766E-05-1.81429E-05-2.83586E-05-2.10072E-05-1.99560E-18-3.39268E-18
 -1      2956 9.60114E-05-2.47607E-05-3.05534E-05 5.64630E-06 1.75859E-18-6.56202E-20
 -1      2957 9.42546E-05-2.53562E-05-2.94891E-05 5.66807E-06 1.55768E-18 2.56639E-19
 -1      2958 9.52020E-05-2.61728E-05-2.95896E-05 6.86545E-06 1.55802E-18 4.88999E-19
 -1      2959 4.15602E-05-1.23059E-05-1.19069E-05 2.18765E-05-1.23529E-18 4.08280E-18
 -1      2960 9.94444E-05-4.71041E-05-2.21364E-05 3.88053E-05-3.22360E-18-1.52148E-19
 -1      2961 8.38342E-05-2.75837E-05-2.36627E-05 2.64480E-05 1.39755E-18-2.29588E-18
 -1      2962 8.84377E-05-3.61489E-05-2.20767E-05 2.97928E-05 1.52180E-18-2.43384E-18
 -1      2963 4.10176E-05-7.70570E-06-1.38318E-05-5.51924E-08-1.00929E-19 3.50238E-18
 -1      2964 3.77743E-05-9.57450E-06-1.13246E-05-7.83822E-06 4.25819E-19 3.93659E-18
 -1      2965 4.76179E-05-1.13200E-05-1.52060E-05-1.53343E-05 1.19794E-18 2.88182E-18
 -1      2966 1.34493E-04-3.13025E-05-4.44705E-05-1.04171E-05 2.73380E-18-3.53276E-18
 -1      2967 9.80539E-05-2.81759E-05-2.99321E-05 9.18536E-06 1.85080E-18 4.73319E-19
 -1      2968 9.84828E-05-2.83392E-05-3.00361E-05 9.48892E-06 1.91228E-18 7.47842E-19
 -1      2969 9.52376E-05-2.85735E-05-2.85703E-05-3.87642E-09-9.25213E-20-2.60080E-18
 -1      2970 9.52375E-05-2.85734E-05-2.85703E-05-4.31208E-09-1.32232E-18-1.07444E-18
 -1      2971 9.52381E-05-2.85740E-05-2.85703E-05-3.90695E-09-6.92896E-19-2.16279E-18
 -1      2972 6.43928E-05-2.58350E-05-1.57959E-05 2.98898E-05 1.26091E-18-4.45349E-18
 -1      2973 6.22653E-05-1.95445E-05-1.78040E-05 2.51582E-05 9.20195E-19-4.32590E-18
 -1      2974 1.36287E-04-1.48954E-05-5.24487E-05 9.62695E-06 5.08177E-18 9.13102E-19
 -1      2975 1.27710E-04-1.05557E-05-5.08368E-05 9.44751E-06 4.83677E-18 1.02327E-18
 -1      2976 1.32335E-04-1.90184E-05-4.89367E-05 1.11563E-05 4.00848E-18 1.46828E-18
 -1      2977 9.52377E-05-2.85736E-05-2.85703E-05 3.88522E-09-1.90377E-19-2.69843E-18
 -1      2978 9.52381E-05-2.85740E-05-2.85703E-05 3.90401E-09 2.55380E-19-3.53168E-18
 -1      2979 9.52385E-05-2.85743E-05-2.85703E-05 4.28393E-09 1.36499E-18-3.05500E-18
 -1      2980 9.52376E-05-2.85735E-05-2.85703E-05 4.25509E-09 5.54303E-20-3.81542E-18
 -1      2981 3.40289E-05-1.72439E-06-1.32052E-05-1.93713E-05-1.90079E-18-6.75519E-18
 -1      2982 4.19238E-05-2.65698E-06-1.64584E-05-2.43194E-05-2.47979E-18-6.12034E-18
 -1      2983 3.66089E-05 1.21781E-06-1.58964E-05-1.10108E-05-1.32581E-18-6.18398E-18
 -1      2984 6.47478E-05-2.75569E-05-1.53608E-05 3.90760E-05-3.22825E-18 3.34642E-18
 -1      2985 4.11092E-05-5.58921E-06-1.45703E-05 8.70986E-06-1.00691E-19-5.91144E-18
 -1      2986 7.37884E-05-2.21816E-05-2.19461E-05-2.68369E-05 1.65275E-18 8.45021E-19
 -1      2987 9.62464E-05-2.70064E-05-2.96468E-05 7.87742E-06 1.61247E-18 5.41215E-19
 -1      2988 9.73603E-05-2.77368E-05-2.98327E-05 8.66480E-06 1.74152E-18 6.60170E-19
 -1      2989 9.80015E-05-2.66506E-05-3.05816E-05 8.37627E-06 1.73786E-18 2.12423E-19
 -1      2990 8.43985E-05-3.34003E-05-2.16410E-05-4.19809E-05-3.47612E-18-3.97878E-18
 -1      2991 1.17639E-04-4.87071E-05-2.93841E-05-2.78482E-05-2.68335E-18-1.16867E-18
 -1      2992 1.27600E-04-1.37750E-05-4.91554E-05-8.70909E-06 4.68123E-18-2.19630E-18
 -1      2993 1.35101E-04-4.85802E-05-3.70389E-05-7.27721E-06-7.61939E-19 9.08337E-19
 -1      2994 1.40307E-04-3.52550E-05-4.52526E-05 6.79126E-06 2.04267E-18 1.62292E-18
 -1      2995 1.34384E-04-2.92234E-05-4.57443E-05 1.12665E-05 2.54533E-18 1.92186E-18
 -1      2996 1.35643E-04-3.86916E-05-4.16474E-05 6.40810E-06 9.97699E-19 1.83425E-18
 -1      2997 9.52390E-05-2.85749E-05-2.85703E-05-3.56318E-09-1.19254E-19-7.34969E-19
 -1      2998 9.52385E-05-2.85745E-05-2.85703E-05-3.76986E-09-1.23563E-18-4.00931E-19
 -1      2999 9.52385E-05-2.85744E-05-2.85703E-05-4.22162E-09-5.27372E-19-1.79077E-18
 -1      3000 9.52394E-05-2.85752E-05-2.85704E-05-3.75278E-09 3.08097E-19-8.57329E-19
 -1      3001 1.37196E-04-5.07173E-05-3.71672E-05 3.18383E-06 1.37964E-19-3.79741E-18
 -1      3002 9.97241E-05-2.81514E-05-3.06747E-05 9.92376E-06 1.75108E-18 1.79654E-19
 -1      3003 7.68385E-05-1.32753E-05-2.70132E-05-2.36281E-05-2.20437E-18-3.84504E-18
 -1      3004 6.94354E-05-8.86251E-06-2.60635E-05-2.42169E-05-2.35148E-18-4.19996E-18
 -1      3005 6.54402E-05-8.89013E-06-2.42409E-05-2.68020E-05-2.48163E-18-4.46936E-18
 -1      3006 8.27687E-05-1.99056E-05-2.70331E-05-2.54183E-05-2.38362E-18-3.45286E-18
 -1      3007 8.44743E-05-3.69472E-05-2.01014E-05 3.17197E-05 1.47712E-18-2.96345E-18
 -1      3008 1.24056E-04-6.76142E-06-5.09190E-05 3.89123E-06 5.11714E-18 3.96266E-19
 -1      3009 1.28042E-04-6.22871E-06-5.27778E-05 8.56795E-07 5.75580E-18-3.99045E-19
 -1      3010 1.21686E-04-7.02691E-06-4.95052E-05-1.43103E-06 5.10655E-18-6.23919E-19
 -1      3011 7.04385E-05-1.85498E-05-2.20153E-05 2.29932E-05 7.55871E-19-3.26526E-18
 -1      3012 5.10530E-05 1.92965E-06-2.24774E-05-1.56343E-05-1.98497E-18-5.24250E-18
 -1      3013 5.08552E-05 2.59171E-06-2.27966E-05-9.86605E-06-1.73990E-18-4.96602E-18
 -1      3014 1.01623E-04-2.79466E-05-3.16154E-05 1.15502E-05 1.98667E-18-3.61875E-20
 -1      3015 1.03033E-04-2.80491E-05-3.21159E-05 1.15315E-05 1.86700E-18-3.41941E-19
 -1      3016 1.04482E-04-2.85764E-05-3.26132E-05 1.11927E-05 1.79080E-18-6.24042E-19
 -1      3017 1.05782E-04-2.90187E-05-3.28858E-05 1.01390E-05 1.42825E-18-8.24777E-19
 -1      3018 1.04327E-04-2.91358E-05-3.21717E-05 1.13191E-05 1.61779E-18-3.83043E-19
 -1      3019 9.82081E-05-2.80199E-05-3.00550E-05 9.60095E-06 2.01657E-18 1.11650E-18
 -1      3020 9.77199E-05-2.52241E-05-3.11092E-05-7.24741E-06 9.44693E-19-1.73494E-18
 -1      3021 9.70135E-05-2.39081E-05-3.12854E-05-5.75038E-06 8.85020E-19-1.44939E-18
 -1      3022 1.03342E-04-4.78216E-05-2.30609E-05 3.13381E-05 1.77898E-18-1.73790E-18
 -1      3023 9.63443E-05-2.28510E-05-3.15099E-05-3.57906E-06 8.52761E-19-1.15917E-18
 -1      3024 9.61391E-05-2.23186E-05-3.16120E-05-1.46272E-06 1.15019E-18-9.46193E-19
 -1      3025 9.86040E-05-2.28348E-05-3.24899E-05-5.02055E-06 1.10952E-18-1.52482E-18
 -1      3026 4.97852E-05-8.56096E-07-2.07323E-05-2.18789E-05-2.07499E-18-5.43393E-18
 -1      3027 5.13655E-05-4.84184E-06-1.93785E-05-2.86592E-05-2.56114E-18-5.55834E-18
 -1      3028 7.65311E-05-1.47891E-05-2.64597E-05-1.14694E-05 7.26463E-20 2.15474E-19
 -1      3029 7.91253E-05-1.58328E-05-2.72151E-05-1.00745E-05 3.20135E-19-3.38519E-19
 -1      3030 8.25247E-05-1.73691E-05-2.79433E-05-9.33260E-06 6.94774E-19-8.86484E-19
 -1      3031 8.44815E-05-1.85832E-05-2.83079E-05-8.23283E-06 3.64242E-19-9.06642E-19
 -1      3032 7.78512E-05-1.49830E-05-2.68027E-05-6.72434E-06 1.36268E-19-2.06054E-19
 -1      3033 8.68841E-05-1.99936E-05-2.86837E-05-7.62242E-06-3.54265E-20-8.81131E-19
 -1      3034 8.82457E-05-2.10804E-05-2.88314E-05-6.69664E-06-7.01457E-19-1.05187E-18
 -1      3035 8.34680E-05-1.80300E-05-2.79549E-05-5.92197E-06 1.14990E-19-1.48321E-18
 -1      3036 8.99093E-05-2.22402E-05-2.90100E-05-6.14992E-06-1.05111E-18-6.08565E-19
 -1      3037 9.08037E-05-2.31106E-05-2.90441E-05-5.36996E-06-7.99796E-19-6.94341E-19
 -1      3038 8.74080E-05-2.06572E-05-2.85475E-05-5.11815E-06-6.56034E-19-1.08035E-18
 -1      3039 9.19313E-05-2.40033E-05-2.91147E-05-4.88075E-06-9.98460E-19-8.99881E-19
 -1      3040 9.24915E-05-2.46590E-05-2.90940E-05-4.23747E-06-1.20266E-18-1.17788E-18
 -1      3041 9.01139E-05-2.27613E-05-2.88259E-05-4.30389E-06-1.13757E-18-5.63045E-19
 -1      3042 9.32120E-05-2.52918E-05-2.91079E-05-3.83400E-06-1.20856E-18-9.08683E-19
 -1      3043 9.35349E-05-2.57493E-05-2.90673E-05-3.33615E-06-1.07995E-18-1.40349E-18
 -1      3044 9.18983E-05-2.43322E-05-2.89310E-05-3.54397E-06-1.20730E-18-7.48136E-19
 -1      3045 9.40338E-05-2.62344E-05-2.90543E-05-2.97281E-06-8.35174E-19-8.75266E-19
 -1      3046 9.42316E-05-2.65794E-05-2.90056E-05-2.55869E-06-1.09413E-18-6.97139E-19
 -1      3047 9.30880E-05-2.55042E-05-2.89477E-05-2.85305E-06-7.14885E-19-3.97620E-19
 -1      3048 9.45539E-05-2.69252E-05-2.89806E-05-2.26061E-06-9.17959E-19 3.64962E-19
 -1      3049 9.46608E-05-2.71672E-05-2.89341E-05-1.93846E-06-1.69370E-19 7.74388E-19
 -1      3050 9.38873E-05-2.63804E-05-2.89210E-05-2.24033E-06-1.36719E-19 9.20907E-19
 -1      3051 9.48659E-05-2.74114E-05-2.89059E-05-1.69868E-06 3.50518E-19 6.01324E-19
 -1      3052 9.49190E-05-2.75807E-05-2.88650E-05-1.45113E-06 8.29363E-19 8.37789E-19
 -1      3053 9.44007E-05-2.70097E-05-2.88754E-05-1.72925E-06-1.12448E-19 2.02887E-18
 -1      3054 9.50480E-05-2.77526E-05-2.88379E-05-1.26162E-06 1.22167E-18-2.72622E-19
 -1      3055 9.50706E-05-2.78712E-05-2.88037E-05-1.07323E-06 7.16172E-19 3.04398E-19
 -1      3056 9.47265E-05-2.74586E-05-2.88253E-05-1.31392E-06 4.04124E-19 9.76801E-19
 -1      3057 9.51509E-05-2.79924E-05-2.87796E-05-9.25621E-07 2.67375E-19 9.70690E-20
 -1      3058 9.51571E-05-2.80758E-05-2.87519E-05-7.83432E-07 3.57381E-19 6.26188E-19
 -1      3059 9.49311E-05-2.77784E-05-2.87775E-05-9.83320E-07 7.31879E-19-2.23462E-19
 -1      3060 9.52065E-05-2.81614E-05-2.87315E-05-6.69932E-07 2.01855E-19 1.37000E-18
 -1      3061 9.52049E-05-2.82204E-05-2.87095E-05-5.63550E-07 1.88192E-19 7.04225E-19
 -1      3062 9.50583E-05-2.80067E-05-2.87352E-05-7.24551E-07 6.17970E-19-2.25386E-19
 -1      3063 9.52339E-05-2.82784E-05-2.86935E-05-4.81451E-07-3.69137E-19 1.16335E-19
 -1      3064 9.52290E-05-2.83190E-05-2.86770E-05-4.05443E-07-3.38822E-19-6.55166E-19
 -1      3065 9.51351E-05-2.81670E-05-2.87001E-05-5.28973E-07-4.97133E-19-3.38743E-19
 -1      3066 9.52473E-05-2.83632E-05-2.86633E-05-3.39590E-07-1.10202E-19-8.76209E-19
 -1      3067 9.52413E-05-2.83939E-05-2.86498E-05-2.80542E-07-6.76375E-19-1.50862E-18
 -1      3068 9.51821E-05-2.82823E-05-2.86711E-05-3.79637E-07-4.41755E-19-1.09339E-18
 -1      3069 9.52521E-05-2.84254E-05-2.86390E-05-2.31850E-07-4.17588E-19-1.67510E-18
 -1      3070 9.52465E-05-2.84476E-05-2.86288E-05-1.88858E-07-7.51945E-20-1.00963E-18
 -1      3071 9.52112E-05-2.83682E-05-2.86470E-05-2.63906E-07-5.36786E-19-1.16355E-18
 -1      3072 9.52526E-05-2.84701E-05-2.86203E-05-1.53295E-07 2.03436E-19-2.51761E-18
 -1      3073 9.52479E-05-2.84862E-05-2.86126E-05-1.22434E-07-8.13699E-20-2.45598E-18
 -1      3074 9.52283E-05-2.84302E-05-2.86278E-05-1.78235E-07-8.49771E-19-1.47104E-18
 -1      3075 9.52512E-05-2.85023E-05-2.86061E-05-9.68962E-08-7.78964E-19-2.24120E-18
 -1      3076 9.52474E-05-2.85139E-05-2.86004E-05-7.51150E-08-1.68741E-18-1.32188E-18
 -1      3077 9.52379E-05-2.84748E-05-2.86128E-05-1.15808E-07-3.54470E-19-1.72223E-18
 -1      3078 9.52490E-05-2.85253E-05-2.85954E-05-5.71481E-08-1.26725E-18-1.82124E-19
 -1      3079 9.52461E-05-2.85337E-05-2.85913E-05-4.21046E-08-7.15022E-19 5.40982E-19
 -1      3080 9.52429E-05-2.85069E-05-2.86013E-05-7.11482E-08-4.86775E-19-2.76584E-19
 -1      3081 9.52467E-05-2.85417E-05-2.85875E-05-2.97808E-08-1.63101E-18 6.65656E-19
 -1      3082 9.52446E-05-2.85476E-05-2.85845E-05-1.96983E-08-6.05886E-19 1.06442E-19
 -1      3083 9.52453E-05-2.85297E-05-2.85925E-05-3.98977E-08-1.24264E-18 1.46033E-18
 -1      3084 9.52446E-05-2.85529E-05-2.85819E-05-1.18905E-08-2.47970E-20-1.09264E-18
 -1      3085 9.52433E-05-2.85570E-05-2.85799E-05-5.59503E-09-2.43270E-19-1.22613E-18
 -1      3086 9.52460E-05-2.85456E-05-2.85860E-05-1.90040E-08-1.01667E-18-2.07134E-19
 -1      3087 9.52429E-05-2.85609E-05-2.85779E-05-2.68665E-10 1.09294E-18-1.21666E-18
 -1      3088 9.52420E-05-2.85638E-05-2.85764E-05 3.81159E-09 1.13914E-18-7.39199E-19
 -1      3089 9.52458E-05-2.85565E-05-2.85812E-05-5.22435E-09 1.38673E-19-1.02306E-18
 -1      3090 9.52415E-05-2.85663E-05-2.85750E-05 6.95461E-09 2.46918E-19-6.15563E-19
 -1      3091 9.52409E-05-2.85683E-05-2.85740E-05 9.23414E-09 5.38454E-19-4.84468E-19
 -1      3092 9.52451E-05-2.85642E-05-2.85776E-05 3.69963E-09 1.12369E-18-6.05203E-19
 -1      3093 9.52404E-05-2.85699E-05-2.85730E-05 1.08833E-08 7.93394E-19-2.80312E-19
 -1      3094 9.52400E-05-2.85712E-05-2.85724E-05 1.19390E-08 8.80232E-19 2.72951E-20
 -1      3095 9.52442E-05-2.85692E-05-2.85751E-05 8.85355E-09 1.03446E-18-8.77301E-19
 -1      3096 9.52395E-05-2.85722E-05-2.85717E-05 1.25890E-08 1.49436E-18-2.62894E-19
 -1      3097 9.52393E-05-2.85729E-05-2.85713E-05 1.28456E-08 1.24464E-18 6.51745E-19
 -1      3098 9.52432E-05-2.85723E-05-2.85733E-05 1.14227E-08 1.16915E-18 6.12126E-19
 -1      3099 9.52388E-05-2.85734E-05-2.85709E-05 1.28554E-08 3.54190E-19-7.04178E-20
 -1      3100 9.52388E-05-2.85739E-05-2.85707E-05 1.26170E-08 3.08992E-19 1.16810E-19
 -1      3101 9.52422E-05-2.85741E-05-2.85721E-05 1.22795E-08 3.74281E-19 1.29658E-18
 -1      3102 9.52383E-05-2.85740E-05-2.85704E-05 1.22434E-08 5.29242E-19-4.45577E-19
 -1      3103 9.52384E-05-2.85742E-05-2.85703E-05 1.17217E-08 4.87379E-19 3.45943E-19
 -1      3104 9.52413E-05-2.85750E-05-2.85713E-05 1.20559E-08 4.18233E-19 1.90962E-19
 -1      3105 9.52380E-05-2.85742E-05-2.85702E-05 1.11738E-08-2.22516E-19 1.25849E-18
 -1      3106 9.52381E-05-2.85743E-05-2.85702E-05 1.05490E-08 5.56845E-19 6.31736E-19
 -1      3107 9.52405E-05-2.85753E-05-2.85708E-05 1.12283E-08 4.69021E-19-8.80828E-19
 -1      3108 9.52377E-05-2.85742E-05-2.85701E-05 9.88268E-09 6.16260E-20-1.03832E-20
 -1      3109 9.52378E-05-2.85742E-05-2.85701E-05 9.17933E-09-6.63379E-19-7.80832E-19
 -1      3110 9.52398E-05-2.85752E-05-2.85705E-05 1.00772E-08-8.87252E-19-2.75260E-19
 -1      3111 9.52375E-05-2.85740E-05-2.85701E-05 8.49396E-09-5.39058E-19-8.05756E-19
 -1      3112 9.52376E-05-2.85739E-05-2.85701E-05 7.79823E-09 7.45024E-19-1.41924E-18
 -1      3113 9.52392E-05-2.85749E-05-2.85704E-05 8.76627E-09-9.26597E-19-9.41893E-19
 -1      3114 9.52374E-05-2.85737E-05-2.85701E-05 7.13501E-09 1.66046E-18-2.96826E-18
 -1      3115 9.52375E-05-2.85737E-05-2.85702E-05 6.48354E-09 1.34030E-18-3.94794E-18
 -1      3116 9.52387E-05-2.85746E-05-2.85703E-05 7.44622E-09-2.57099E-19-2.17791E-18
 -1      3117 9.52374E-05-2.85735E-05-2.85702E-05 5.84511E-09 1.03474E-18-4.38043E-18
 -1      3118 9.52375E-05-2.85735E-05-2.85703E-05 5.23616E-09 2.86331E-19-4.42524E-18
 -1      3119 9.52383E-05-2.85743E-05-2.85703E-05 6.17770E-09 3.91734E-19-4.53909E-18
 -1      3120 6.33268E-05-1.01528E-05-2.27585E-05-2.98102E-05-2.82915E-18-4.62792E-18
 -1      3121 5.72341E-05-1.24121E-05-1.89511E-05-3.53218E-05-2.93391E-18-5.22990E-18
 -1      3122 6.88846E-05-1.99720E-05-2.03127E-05-3.96777E-05-3.43350E-18-4.78521E-18
 -1      3123 7.34298E-05-1.60236E-05-2.41210E-05-3.15368E-05-2.82144E-18-4.10785E-18
 -1      3124 9.62669E-05-2.22829E-05-3.16844E-05 1.15541E-06 1.56094E-18-5.83243E-19
 -1      3125 9.66946E-05-2.27290E-05-3.17059E-05 3.33842E-06 1.87397E-18-4.11241E-19
 -1      3126 9.80291E-05-2.15231E-05-3.28152E-05 1.51885E-08 1.52799E-18-1.02272E-18
 -1      3127 1.01198E-04-3.12407E-05-3.00136E-05-8.74134E-06 4.76830E-19-1.82495E-18
 -1      3128 1.00483E-04-2.99345E-05-3.02118E-05-8.98060E-06 6.70435E-19-1.87271E-18
 -1      3129 1.01901E-04-3.29967E-05-2.95419E-05-7.17457E-06 7.71216E-19-1.51570E-18
 -1      3130 1.01527E-04-3.22292E-05-2.96975E-05-7.94695E-06 6.92870E-19-1.72245E-18
 -1      3131 1.03534E-04-3.26912E-05-3.03331E-05-8.52103E-06 4.55765E-19-1.86126E-18
 -1      3132 1.01717E-04-3.35701E-05-2.91999E-05-5.05686E-06 2.04217E-19-8.88664E-19
 -1      3133 1.01689E-04-3.33468E-05-2.93028E-05-6.03115E-06 4.95782E-19-1.19337E-18
 -1      3134 1.03633E-04-3.42636E-05-2.97108E-05-6.43819E-06 3.84520E-19-2.02348E-18
 -1      3135 1.00918E-04-3.32497E-05-2.89856E-05-2.99071E-06 8.39707E-20-7.71646E-19
 -1      3136 1.01140E-04-3.34199E-05-2.90425E-05-3.92616E-06 3.12005E-19-8.25298E-19
 -1      3137 1.02810E-04-3.45076E-05-2.92685E-05-4.09005E-06 1.39646E-19-1.35966E-18
 -1      3138 9.98386E-05-3.24326E-05-2.88700E-05-1.30187E-06 2.04032E-19-8.58485E-19
 -1      3139 1.00189E-04-3.28110E-05-2.88950E-05-2.06733E-06 1.99211E-19-7.16461E-19
 -1      3140 1.01474E-04-3.38398E-05-2.89925E-05-2.02458E-06 9.49031E-20-1.09709E-18
 -1      3141 9.87414E-05-3.14591E-05-2.88182E-05-8.75363E-08-3.17567E-19-3.94963E-19
 -1      3142 9.91221E-05-3.18968E-05-2.88255E-05-6.43595E-07 3.70744E-20-4.00696E-19
 -1      3143 1.00010E-04-3.27372E-05-2.88426E-05-4.71899E-07-2.62330E-19-9.12162E-19
 -1      3144 9.77753E-05-3.05427E-05-2.88001E-05 6.85325E-07-5.76493E-19-4.79954E-19
 -1      3145 9.81265E-05-3.09487E-05-2.88006E-05 3.26312E-07-3.84028E-19-2.96401E-19
 -1      3146 9.86717E-05-3.15607E-05-2.87741E-05 5.57128E-07-3.36487E-19-2.61405E-19
 -1      3147 9.70005E-05-2.97887E-05-2.87949E-05 1.10373E-06 8.46194E-20-6.21322E-19
 -1      3148 9.72945E-05-3.01197E-05-2.87954E-05 9.05157E-07-1.96123E-19-2.65737E-19
 -1      3149 9.75759E-05-3.05169E-05-2.87505E-05 1.14725E-06-1.97984E-19-8.74158E-19
 -1      3150 9.64194E-05-2.92258E-05-2.87904E-05 1.26619E-06-3.42644E-20-2.43699E-19
 -1      3151 9.66503E-05-2.94715E-05-2.87941E-05 1.18536E-06 4.81129E-20-3.55596E-19
 -1      3152 9.67485E-05-2.96935E-05-2.87466E-05 1.41162E-06-1.58603E-19-4.43767E-19
 -1      3153 9.60056E-05-2.88395E-05-2.87813E-05 1.26041E-06 2.40145E-19-1.48078E-19
 -1      3154 9.61792E-05-2.90076E-05-2.87889E-05 1.25833E-06 1.43474E-19-9.55092E-20
 -1      3155 9.61627E-05-2.91011E-05-2.87471E-05 1.45683E-06-5.94247E-21 2.44069E-20
 -1      3156 9.57231E-05-2.85963E-05-2.87663E-05 1.15535E-06 6.50113E-20 5.40004E-19
 -1      3157 9.58496E-05-2.87021E-05-2.87773E-05 1.20060E-06 1.94682E-19 1.45261E-19
 -1      3158 9.57706E-05-2.87100E-05-2.87447E-05 1.36839E-06-7.95073E-20 7.33447E-19
 -1      3159 9.55369E-05-2.84593E-05-2.87466E-05 1.00089E-06 3.82180E-19 8.28814E-19
 -1      3160 9.56271E-05-2.85191E-05-2.87596E-05 1.07028E-06 2.56684E-19 6.17548E-19
 -1      3161 9.55219E-05-2.84761E-05-2.87369E-05 1.20891E-06-1.44026E-19 1.03619E-18
 -1      3162 9.54179E-05-2.83951E-05-2.87239E-05 8.30533E-07-5.04632E-20 9.15828E-19
 -1      3163 9.54813E-05-2.84234E-05-2.87378E-05 9.08230E-07 3.82680E-19 8.03331E-19
 -1      3164 9.53729E-05-2.83550E-05-2.87239E-05 1.02107E-06 2.63211E-19 6.35060E-19
 -1      3165 9.53439E-05-2.83772E-05-2.87003E-05 6.65010E-07-2.70562E-19 3.52250E-19
 -1      3166 9.53882E-05-2.83856E-05-2.87139E-05 7.41066E-07-2.45904E-19 8.42369E-19
 -1      3167 9.52894E-05-2.83087E-05-2.87072E-05 8.31899E-07-1.44084E-19 7.34727E-19
 -1      3168 9.52991E-05-2.83863E-05-2.86774E-05 5.15815E-07-1.47633E-18 1.06234E-18
 -1      3169 9.53298E-05-2.83830E-05-2.86901E-05 5.84620E-07-8.39053E-19 5.96703E-19
 -1      3170 9.52467E-05-2.83084E-05-2.86886E-05 6.57035E-07-4.05459E-19 6.82437E-19
 -1      3171 9.52725E-05-2.84090E-05-2.86563E-05 3.88166E-07-9.48260E-19 5.81204E-19
 -1      3172 9.52937E-05-2.83997E-05-2.86676E-05 4.47115E-07-1.18374E-18 6.96842E-19
 -1      3173 9.52281E-05-2.83332E-05-2.86697E-05 5.04276E-07-8.22586E-19 4.57030E-19
 -1      3174 9.52571E-05-2.84369E-05-2.86377E-05 2.83245E-07-4.53065E-19-1.74943E-19
 -1      3175 9.52717E-05-2.84253E-05-2.86473E-05 3.31686E-07-4.35285E-19 1.83421E-19
 -1      3176 9.52226E-05-2.83692E-05-2.86518E-05 3.76320E-07-1.70769E-19 4.46616E-19
 -1      3177 9.52483E-05-2.84648E-05-2.86219E-05 1.99836E-07 5.15197E-19-2.56439E-19
 -1      3178 9.52583E-05-2.84531E-05-2.86299E-05 2.38284E-07-1.37159E-19-1.39439E-19
 -1      3179 9.52235E-05-2.84080E-05-2.86354E-05 2.72715E-07 1.74450E-19-8.72010E-20
 -1      3180 9.52433E-05-2.84900E-05-2.86089E-05 1.35477E-07 2.07861E-20 8.05775E-20
 -1      3181 9.52501E-05-2.84794E-05-2.86153E-05 1.65061E-07 4.74380E-19 1.69504E-19
 -1      3182 9.52270E-05-2.84445E-05-2.86212E-05 1.91254E-07 2.78881E-19 9.65027E-19
 -1      3183 9.52405E-05-2.85115E-05-2.85984E-05 8.72134E-08-7.83959E-19 2.60630E-19
 -1      3184 9.52451E-05-2.85024E-05-2.86034E-05 1.09309E-07-7.32848E-19 9.02526E-21
 -1      3185 9.52309E-05-2.84763E-05-2.86092E-05 1.28919E-07-1.37864E-19-1.30777E-19
 -1      3186 9.52389E-05-2.85288E-05-2.85902E-05 5.20537E-08-8.53293E-19 1.27526E-18
 -1      3187 9.52419E-05-2.85214E-05-2.85940E-05 6.80612E-08-5.45586E-19 5.40777E-19
 -1      3188 9.52344E-05-2.85027E-05-2.85994E-05 8.24745E-08-1.11670E-18 2.42245E-19
 -1      3189 9.52380E-05-2.85423E-05-2.85840E-05 2.72385E-08-6.67174E-19 1.15213E-18
 -1      3190 9.52399E-05-2.85365E-05-2.85868E-05 3.84527E-08-1.03887E-18 1.19917E-18
 -1      3191 9.52370E-05-2.85236E-05-2.85915E-05 4.88171E-08-7.79519E-19 4.59613E-19
 -1      3192 9.52374E-05-2.85525E-05-2.85793E-05 1.03662E-08 6.47449E-19 5.81360E-19
 -1      3193 9.52386E-05-2.85481E-05-2.85814E-05 1.79134E-08 1.02729E-19 9.44947E-19
 -1      3194 9.52388E-05-2.85396E-05-2.85854E-05 2.51704E-08 1.84067E-20 1.13404E-18
 -1      3195 9.52371E-05-2.85599E-05-2.85760E-05-5.70021E-10 7.51556E-19 8.69258E-19
 -1      3196 9.52377E-05-2.85567E-05-2.85774E-05 4.25001E-09 1.02620E-18 3.93460E-19
 -1      3197 9.52398E-05-2.85515E-05-2.85808E-05 9.16343E-09 8.79436E-19 2.17817E-19
 -1      3198 9.52369E-05-2.85652E-05-2.85736E-05-7.19274E-09 4.87380E-19 6.75807E-19
 -1      3199 9.52372E-05-2.85629E-05-2.85746E-05-4.34250E-09 1.05007E-18 1.24949E-18
 -1      3200 9.52403E-05-2.85600E-05-2.85773E-05-1.16238E-09 3.98585E-19 4.42438E-19
 -1      3201 9.52368E-05-2.85687E-05-2.85720E-05-1.07747E-08-1.84271E-19 1.03331E-18
 -1      3202 9.52368E-05-2.85671E-05-2.85726E-05-9.30240E-09-4.14705E-21 1.02358E-18
 -1      3203 9.52404E-05-2.85659E-05-2.85748E-05-7.37627E-09 1.43615E-19 6.27520E-19
 -1      3204 9.52367E-05-2.85710E-05-2.85710E-05-1.22883E-08-2.79682E-19 1.31252E-18
 -1      3205 9.52366E-05-2.85700E-05-2.85714E-05-1.17436E-08 1.15215E-19 1.92686E-18
 -1      3206 9.52402E-05-2.85698E-05-2.85731E-05-1.07010E-08-6.53386E-19 2.20289E-18
 -1      3207 9.52367E-05-2.85724E-05-2.85704E-05-1.24572E-08-3.93239E-19 6.76484E-19
 -1      3208 9.52365E-05-2.85717E-05-2.85706E-05-1.25069E-08-9.23897E-20 5.01891E-19
 -1      3209 9.52399E-05-2.85722E-05-2.85719E-05-1.20667E-08 4.01020E-19 1.92217E-18
 -1      3210 9.52367E-05-2.85731E-05-2.85701E-05-1.18058E-08 1.89738E-19-1.16783E-18
 -1      3211 9.52365E-05-2.85728E-05-2.85702E-05-1.22102E-08-3.53828E-19-3.75941E-19
 -1      3212 9.52395E-05-2.85736E-05-2.85711E-05-1.21632E-08 9.28929E-20-5.09623E-20
 -1      3213 9.52367E-05-2.85735E-05-2.85700E-05-1.07018E-08 7.48157E-19-1.58214E-18
 -1      3214 9.52365E-05-2.85733E-05-2.85700E-05-1.12947E-08 3.40152E-19-1.07585E-18
 -1      3215 9.52391E-05-2.85742E-05-2.85707E-05-1.14893E-08 3.30573E-19-1.94024E-18
 -1      3216 9.52368E-05-2.85735E-05-2.85700E-05-9.39172E-09 1.06321E-18 2.13143E-19
 -1      3217 9.52366E-05-2.85734E-05-2.85699E-05-1.00633E-08 9.23250E-19-1.03851E-18
 -1      3218 9.52387E-05-2.85744E-05-2.85704E-05-1.03934E-08 2.62408E-19-1.29619E-18
 -1      3219 9.52369E-05-2.85734E-05-2.85700E-05-8.02979E-09 8.41431E-19 8.07866E-19
 -1      3220 9.52366E-05-2.85734E-05-2.85700E-05-8.71291E-09 1.88891E-18 1.97109E-19
 -1      3221 9.52384E-05-2.85744E-05-2.85703E-05-9.10800E-09 4.65526E-19-6.87308E-20
 -1      3222 9.52370E-05-2.85733E-05-2.85701E-05-6.70600E-09 5.14775E-19 2.78511E-19
 -1      3223 9.52367E-05-2.85733E-05-2.85701E-05-7.36467E-09 6.68583E-19 5.34728E-19
 -1      3224 9.52381E-05-2.85742E-05-2.85703E-05-7.77844E-09 7.04750E-19 1.96326E-20
 -1      3225 9.52371E-05-2.85732E-05-2.85702E-05-5.46173E-09-8.03665E-19 4.87101E-19
 -1      3226 9.52369E-05-2.85732E-05-2.85702E-05-6.07225E-09-1.69362E-19-4.47304E-20
 -1      3227 9.52379E-05-2.85739E-05-2.85703E-05-6.48885E-09 5.47686E-19-4.60576E-20
 -1      3228 9.52374E-05-2.85734E-05-2.85703E-05-4.66102E-09-1.68492E-18 2.04422E-19
 -1      3229 9.52371E-05-2.85732E-05-2.85703E-05-5.09297E-09-1.54683E-18 5.04997E-21
 -1      3230 9.52379E-05-2.85739E-05-2.85703E-05-5.46987E-09-1.17818E-18-3.00726E-19
 -1      3231 9.52380E-05-2.85739E-05-2.85703E-05-4.70951E-09-9.13868E-19-2.35556E-18
 -1      3232 9.52405E-05-2.85760E-05-2.85705E-05 3.40805E-09 1.32835E-18-6.47083E-20
 -1      3233 9.52409E-05-2.85764E-05-2.85705E-05 2.78954E-09 1.30053E-19 2.37123E-19
 -1      3234 9.52415E-05-2.85769E-05-2.85706E-05 3.94868E-10-1.20009E-18 1.34560E-18
 -1      3235 9.52415E-05-2.85769E-05-2.85706E-05-3.94397E-10-8.31704E-19 2.90539E-18
 -1      3236 6.10811E-05-1.23133E-05-2.03439E-05 1.87230E-05 4.71506E-19-4.08312E-18
 -1      3237 1.06998E-04-4.96836E-05-2.49419E-05 3.30330E-05-2.81496E-18-1.60777E-18
 -1      3238 9.09632E-05-4.01828E-05-2.11522E-05 3.78018E-05-3.08884E-18 5.97211E-19
 -1      3239 1.26595E-04-2.59886E-05-4.36812E-05-1.20630E-05 2.92248E-18-3.00458E-18
 -1      3240 1.30567E-04-3.49941E-05-4.08794E-05-1.07859E-05 1.93547E-18-3.52080E-18
 -1      3241 9.96385E-05-2.84165E-05-3.05682E-05-8.97481E-06 6.69825E-19-1.96741E-18
 -1      3242 9.87593E-05-2.68410E-05-3.07787E-05-8.38619E-06 8.39334E-19-1.98160E-18
 -1      3243 1.02339E-04-2.97364E-05-3.10898E-05-9.47140E-06 4.35816E-19-2.31096E-18
 -1      3244 4.88899E-05-1.43520E-05-1.46032E-05 2.62896E-05-1.70939E-18 3.42519E-18
 -1      3245 4.25137E-05-8.98261E-06-1.39497E-05 1.46417E-05-8.52936E-19 3.30237E-18
 -1      3246 6.88309E-05-1.33973E-05-2.37113E-05-1.47004E-05 9.70051E-20 1.59255E-18
 -1      3247 7.17380E-05-1.34228E-05-2.51038E-05-1.25918E-05 1.60738E-20 6.33289E-19
 -1      3248 6.99507E-05-1.18364E-05-2.46633E-05-7.69741E-06-2.45314E-19 7.85947E-19
 -1      3249 9.52394E-05-2.85752E-05-2.85704E-05 4.42620E-09 2.16617E-18 9.09696E-19
 -1      3250 9.52400E-05-2.85756E-05-2.85704E-05 4.01750E-09 1.79460E-18 6.64470E-19
 -1      3251 9.52406E-05-2.85760E-05-2.85705E-05 4.05704E-09 8.48253E-19 6.97161E-19
 -1      3252 8.59006E-05-3.06099E-05-2.36006E-05-3.73461E-05-3.43070E-18-3.53657E-18
 -1      3253 7.36145E-05-3.07630E-05-1.85247E-05 3.85150E-05-3.01422E-18 2.45857E-18
 -1      3254 6.04046E-05-2.12769E-05-1.61839E-05 3.32050E-05-2.58631E-18 3.33990E-18
 -1      3255 9.52412E-05-2.85766E-05-2.85705E-05 2.00499E-09-1.01277E-19 9.25042E-19
 -1      3256 9.52414E-05-2.85768E-05-2.85705E-05 1.27205E-09-7.99815E-19 1.50555E-18
 -1      3257 9.52420E-05-2.85771E-05-2.85707E-05 9.00336E-10-1.38568E-18 1.85297E-18
 -1      3258 9.52416E-05-2.85768E-05-2.85706E-05 2.61381E-09-2.27759E-19 7.49192E-19
 -1      3259 9.98918E-05-2.81954E-05-3.07419E-05 1.05462E-05 2.04535E-18 4.26983E-19
 -1      3260 1.19410E-04-1.15887E-05-4.67513E-05-7.17377E-06 4.48440E-18-1.62436E-18
 -1      3261 1.22567E-04-1.73175E-05-4.53786E-05-1.10697E-05 3.80921E-18-2.52051E-18
 -1      3262 1.09848E-04-4.36263E-05-2.81547E-05-2.84520E-05-2.89116E-18-1.49939E-18
 -1      3263 1.21769E-04-4.88495E-05-3.16409E-05-1.95496E-05-2.03468E-18-3.10127E-19
 -1      3264 1.09302E-04-3.40376E-05-3.23517E-05-4.06254E-06-4.72052E-19-1.48056E-18
 -1      3265 1.07654E-04-3.37675E-05-3.15949E-05-8.62915E-06-1.09718E-18-1.67381E-18
 -1      3266 1.27672E-04-5.60698E-05-3.11619E-05 1.61980E-05-1.46480E-18-2.62690E-18
 -1      3267 1.20919E-04-5.42078E-05-2.81265E-05 2.36378E-05-2.25951E-18-2.35978E-18
 -1      3268 1.33623E-04-4.62673E-05-3.80391E-05-3.85766E-06 7.62700E-19-3.65092E-18
 -1      3269 1.32934E-04-5.26323E-05-3.41676E-05 5.57551E-06-6.16508E-19-3.39904E-18
 -1      3270 4.79289E-05-5.91196E-06-1.76196E-05 1.21885E-05 1.04556E-20-5.12370E-18
 -1      3271 3.99843E-05 1.13533E-08-1.66071E-05-4.01475E-07-7.01724E-19-5.88000E-18
 -1      3272 4.37055E-05 6.56585E-07-1.85948E-05-6.89462E-06-1.32375E-18-5.71451E-18
 -1      3273 5.80364E-05-6.37121E-06-2.17725E-05 1.12326E-05-3.18061E-19-4.19980E-18
 -1      3274 1.29619E-04-4.80952E-05-3.47025E-05-8.54106E-06-1.19842E-18 8.60612E-19
 -1      3275 1.32997E-04-4.49387E-05-3.81151E-05 2.95337E-07-7.63388E-20 1.49358E-18
 -1      3276 9.76117E-05-2.36873E-05-3.16417E-05 5.61222E-06 1.96341E-18-1.74241E-19
 -1      3277 9.85251E-05-2.48106E-05-3.16189E-05 7.30339E-06 1.88053E-18 6.57377E-20
 -1      3278 9.90921E-05-2.25843E-05-3.28037E-05 5.15885E-06 1.98246E-18-3.33963E-19
 -1      3279 1.07691E-04-3.05737E-05-3.30087E-05 9.97581E-06 1.34607E-18-6.84570E-19
 -1      3280 1.07155E-04-3.00072E-05-3.31562E-05 8.79499E-06 1.35423E-18-1.00140E-18
 -1      3281 1.08232E-04-3.07520E-05-3.31760E-05 6.66211E-06 8.81187E-19-1.13431E-18
 -1      3282 1.00385E-04-2.60112E-05-3.18652E-05-8.41364E-06 9.44734E-19-2.18060E-18
 -1      3283 4.47331E-05-7.67434E-06-1.53225E-05 6.68825E-06-5.31976E-19 3.19882E-18
 -1      3284 4.92061E-05-7.79365E-06-1.75175E-05-1.88766E-06-1.57628E-19 2.52823E-18
 -1      3285 5.02924E-05-9.26749E-06-1.75262E-05 1.13276E-05-9.14693E-19 2.97356E-18
 -1      3286 1.20032E-04-2.27500E-05-4.18888E-05-1.15433E-05 2.65291E-18-2.66932E-18
 -1      3287 1.30756E-04-2.42063E-05-4.60203E-05 1.26219E-05 3.03344E-18 1.70561E-18
 -1      3288 1.24331E-04-1.89614E-05-4.56109E-05 1.29894E-05 3.39036E-18 1.52709E-18
 -1      3289 1.28150E-04-2.87113E-05-4.28004E-05 1.21635E-05 2.17989E-18 1.52998E-18
 -1      3290 6.00780E-05-1.78026E-05-1.76828E-05 2.68876E-05-1.89328E-18 2.63496E-18
 -1      3291 9.52374E-05-2.85734E-05-2.85703E-05 4.62663E-09 5.76014E-19-3.54649E-18
 -1      3292 1.01471E-04-2.87182E-05-3.11770E-05 1.07866E-05 1.75524E-18-4.54329E-20
 -1      3293 1.00959E-04-2.81371E-05-3.11961E-05 1.11356E-05 1.98948E-18 3.29156E-19
 -1      3294 8.19842E-05-2.47502E-05-2.45805E-05-3.31129E-05-3.10030E-18-3.61455E-18
 -1      3295 9.82962E-05-3.71554E-05-2.60792E-05-3.37350E-05-3.24377E-18-2.76419E-18
 -1      3296 1.04389E-04-3.80765E-05-2.84087E-05-2.56961E-05-2.75505E-18-2.02961E-18
 -1      3297 8.33268E-05-2.23785E-05-2.60682E-05-2.89291E-05-2.86890E-18-3.43447E-18
 -1      3298 9.52409E-05-2.85763E-05-2.85705E-05-2.80833E-09-1.00742E-18 2.01764E-18
 -1      3299 9.52405E-05-2.85760E-05-2.85705E-05-3.41927E-09-3.46099E-19 3.76561E-19
 -1      3300 1.14762E-04-9.44747E-06-4.55391E-05-1.79274E-06 3.88910E-18-4.31543E-19
 -1      3301 1.17491E-04-1.02137E-05-4.63688E-05-4.94355E-06 4.13008E-18-1.13465E-18
 -1      3302 1.13831E-04-1.38399E-05-4.30022E-05-6.88802E-06 3.10813E-18-1.67439E-18
 -1      3303 1.20810E-04-1.20776E-05-4.69826E-05 9.26451E-06 4.09128E-18 1.06888E-18
 -1      3304 1.22977E-04-9.02850E-06-4.92881E-05 7.00171E-06 4.62565E-18 7.21222E-19
 -1      3305 1.17676E-04-8.61720E-06-4.70603E-05 4.87978E-06 4.26778E-18 6.72385E-19
 -1      3306 9.52420E-05-2.85771E-05-2.85707E-05-9.12742E-10-1.72143E-18 3.33253E-18
 -1      3307 9.52414E-05-2.85768E-05-2.85705E-05-1.27737E-09-7.96902E-19 3.85578E-18
 -1      3308 9.52412E-05-2.85766E-05-2.85705E-05-2.02059E-09-1.16471E-18 2.99558E-18
 -1      3309 1.27905E-04-4.24655E-05-3.66686E-05 3.04052E-06-3.09299E-20 7.76967E-19
 -1      3310 1.32342E-04-4.15411E-05-3.89940E-05 4.96411E-06 3.19173E-19 1.44557E-18
 -1      3311 1.28840E-04-3.67474E-05-3.98169E-05 9.11487E-06 8.79432E-19 1.36753E-18
 -1      3312 1.12163E-04-4.95546E-05-2.67343E-05 2.56880E-05-2.22571E-18-1.49712E-18
 -1      3313 1.28133E-04-4.01571E-05-3.78400E-05-7.68617E-06 8.00076E-19-3.23874E-18
 -1      3314 1.23357E-04-4.62262E-05-3.30624E-05-1.09906E-05-1.52834E-18 6.04040E-20
 -1      3315 9.52381E-05-2.85740E-05-2.85703E-05 4.95059E-09 6.11376E-19-5.74470E-18
 -1      3316 5.93394E-05 5.81589E-07-2.56338E-05-1.41089E-06-1.35905E-18-4.15140E-18
 -1      3317 6.46819E-05-2.38541E-06-2.66349E-05 2.96761E-06-1.24049E-18-3.65540E-18
 -1      3318 5.87458E-05-3.71581E-06-2.33084E-05 7.06457E-06-6.80009E-19-4.05453E-18
 -1      3319 9.96760E-05-2.61109E-05-3.14945E-05 8.73103E-06 1.67736E-18 1.22697E-19
 -1      3320 1.00752E-04-2.73227E-05-3.14932E-05 9.78617E-06 1.65397E-18 1.08229E-19
 -1      3321 1.01212E-04-2.52193E-05-3.25610E-05 8.92560E-06 1.90759E-18-5.49943E-20
 -1      3322 9.52400E-05-2.85756E-05-2.85704E-05-3.91024E-09 1.68296E-19-1.56967E-18
 -1      3323 9.52396E-05-2.85753E-05-2.85704E-05-4.24607E-09 8.94052E-19-1.55953E-18
 -1      3324 9.52407E-05-2.85761E-05-2.85706E-05-3.95530E-09 5.87977E-19-1.50089E-18
 -1      3325 8.51852E-05-3.43614E-05-2.14706E-05 3.39860E-05-2.66535E-18 1.15170E-18
 -1      3326 6.05017E-05-1.24448E-05-2.04499E-05-1.60005E-05 6.31622E-19 2.09212E-18
 -1      3327 5.68484E-05-9.21470E-06-1.99955E-05-8.54125E-06-6.65715E-21 2.24890E-18
 -1      3328 1.27913E-04-5.20880E-05-3.24280E-05 7.62876E-06-7.36958E-19-2.64767E-18
 -1      3329 1.09466E-04-3.27166E-05-3.28326E-05 5.42053E-07-3.35823E-20-1.28480E-18
 -1      3330 1.12786E-04-3.57947E-05-3.28927E-05-7.26849E-07-2.61660E-19-9.46238E-19
 -1      3331 1.09206E-04-3.21108E-05-3.31428E-05 3.89331E-06 4.98168E-19-1.29107E-18
 -1      3332 9.52386E-05-2.85744E-05-2.85703E-05 4.87373E-09 1.21914E-18-3.25672E-18
 -1      3333 1.14207E-04-4.05726E-05-3.14458E-05-1.23207E-05-1.61399E-18-7.65956E-19
 -1      3334 1.07748E-04-3.66247E-05-3.04610E-05-1.64481E-05-1.86223E-18-1.56813E-18
 -1      3335 9.52392E-05-2.85749E-05-2.85704E-05 5.16317E-09 8.51929E-19-2.04854E-18
 -1      3336 1.01555E-04-2.83205E-05-3.13705E-05 1.03432E-05 1.58843E-18 2.75009E-20
 -1      3337 1.02181E-04-2.88704E-05-3.14092E-05 1.08787E-05 1.56026E-18-5.23928E-20
 -1      3338 1.03134E-04-2.89942E-05-3.18202E-05 1.12472E-05 1.67297E-18-3.34835E-19
 -1      3339 1.03235E-04-2.79828E-05-3.22251E-05 1.08725E-05 1.60483E-18-4.31176E-20
 -1      3340 1.05264E-04-3.17763E-05-3.15510E-05-9.69860E-06 2.67346E-19-2.07356E-18
 -1      3341 1.04385E-04-2.96460E-05-3.19999E-05-9.82842E-06 5.89988E-19-2.02202E-18
 -1      3342 1.13746E-04-1.97702E-05-4.05816E-05-1.02733E-05 2.51468E-18-1.82197E-18
 -1      3343 1.17886E-04-2.62050E-05-3.92091E-05-1.24781E-05 2.04476E-18-2.56762E-18
 -1      3344 6.33209E-05-1.58753E-05-1.97244E-05-2.18550E-05 1.19551E-18 2.39043E-18
 -1      3345 9.52409E-05-2.85761E-05-2.85706E-05 4.70576E-09-1.07417E-20 1.27840E-18
 -1      3346 9.52415E-05-2.85765E-05-2.85707E-05 4.09498E-09-5.07101E-19 7.26983E-19
 -1      3347 6.40941E-05-4.19623E-06-2.55210E-05 6.37384E-06-9.14915E-19-3.59370E-18
 -1      3348 8.07988E-05-1.70616E-05-2.73761E-05-3.40977E-06-3.81539E-19-3.49629E-19
 -1      3349 8.32227E-05-1.84533E-05-2.78000E-05-3.26376E-06 1.15681E-20-3.76631E-19
 -1      3350 8.53894E-05-1.97702E-05-2.81632E-05-3.49524E-06-3.20235E-20-1.01137E-18
 -1      3351 8.70642E-05-2.09174E-05-2.83783E-05-3.25000E-06-6.59299E-19-9.63163E-19
 -1      3352 8.35426E-05-1.88043E-05-2.76701E-05-1.25514E-06-5.36853E-19-2.27726E-19
 -1      3353 8.86008E-05-2.19844E-05-2.85748E-05-3.28707E-06-6.02839E-19-7.33351E-19
 -1      3354 8.97346E-05-2.28837E-05-2.86722E-05-2.99007E-06-6.37614E-19-4.70205E-19
 -1      3355 8.71209E-05-2.10986E-05-2.82445E-05-1.84090E-06-2.60277E-19-7.76986E-19
 -1      3356 9.07681E-05-2.36787E-05-2.87675E-05-2.91646E-06-1.01215E-18-2.16610E-19
 -1      3357 9.14943E-05-2.43311E-05-2.88005E-05-2.62415E-06-1.28725E-18 3.48445E-20
 -1      3358 8.96022E-05-2.29029E-05-2.85496E-05-2.00600E-06-7.18455E-19-2.79039E-19
 -1      3359 9.22570E-05-2.49689E-05-2.88458E-05-2.48630E-06-8.02553E-19 4.06002E-19
 -1      3360 9.27626E-05-2.54816E-05-2.88468E-05-2.19918E-06-6.69636E-20 7.21575E-19
 -1      3361 9.13537E-05-2.43236E-05-2.87032E-05-1.92203E-06-5.74157E-19 3.65400E-19
 -1      3362 9.32879E-05-2.59570E-05-2.88602E-05-2.03980E-06-1.78968E-19 8.15012E-19
 -1      3363 9.36142E-05-2.63302E-05-2.88449E-05-1.78678E-06-1.00624E-19 1.29858E-18
 -1      3364 9.26056E-05-2.54346E-05-2.87714E-05-1.71040E-06-8.47327E-20 1.08936E-18
 -1      3365 9.39727E-05-2.66795E-05-2.88415E-05-1.62935E-06 1.44043E-19 1.15658E-18
 -1      3366 9.41808E-05-2.69498E-05-2.88199E-05-1.41554E-06 1.76416E-19 1.23279E-18
 -1      3367 9.34663E-05-2.62680E-05-2.87885E-05-1.44748E-06 5.12703E-20 6.53684E-19
 -1      3368 9.44243E-05-2.72049E-05-2.88085E-05-1.27267E-06-6.30546E-19 1.52786E-18
 -1      3369 9.45556E-05-2.74001E-05-2.87857E-05-1.09747E-06-4.32483E-20 5.44451E-19
 -1      3370 9.40536E-05-2.68862E-05-2.87790E-05-1.18051E-06-3.95243E-19 8.38449E-19
 -1      3371 9.47201E-05-2.75857E-05-2.87713E-05-9.74559E-07 3.01939E-19 1.34313E-19
 -1      3372 9.48021E-05-2.77268E-05-2.87501E-05-8.34290E-07 4.13985E-19-5.50912E-19
 -1      3373 9.44523E-05-2.73424E-05-2.87569E-05-9.34953E-07-3.90044E-19 1.52554E-18
 -1      3374 9.49129E-05-2.78617E-05-2.87354E-05-7.32422E-07 9.55269E-19-1.22109E-18
 -1      3375 9.49636E-05-2.79637E-05-2.87167E-05-6.22286E-07 6.74912E-19-1.09140E-18
 -1      3376 9.47221E-05-2.76781E-05-2.87303E-05-7.22145E-07 2.49505E-19-1.07265E-18
 -1      3377 9.50351E-05-2.80576E-05-2.87037E-05-5.44271E-07-4.71425E-19-7.23052E-19
 -1      3378 9.50648E-05-2.81289E-05-2.86886E-05-4.62396E-07-1.23339E-18-1.11184E-18
 -1      3379 9.49004E-05-2.79199E-05-2.87042E-05-5.48830E-07 2.78683E-19-2.19193E-18
 -1      3380 9.51154E-05-2.82017E-05-2.86764E-05-3.96797E-07-1.07850E-18-8.38652E-19
 -1      3381 9.51345E-05-2.82565E-05-2.86634E-05-3.31013E-07-4.59802E-19-1.06290E-18
 -1      3382 9.50211E-05-2.80985E-05-2.86800E-05-4.08379E-07-1.18178E-18-1.12491E-18
 -1      3383 9.51683E-05-2.83096E-05-2.86530E-05-2.80538E-07 3.88506E-19-7.08676E-19
 -1      3384 9.51795E-05-2.83495E-05-2.86424E-05-2.31132E-07-4.33435E-19-4.70288E-19
 -1      3385 9.51044E-05-2.82339E-05-2.86581E-05-2.94380E-07-3.21021E-19-5.37388E-19
 -1      3386 9.52018E-05-2.83881E-05-2.86338E-05-1.92966E-07-1.30808E-18 2.13937E-19
 -1      3387 9.52082E-05-2.84172E-05-2.86254E-05-1.56457E-07-8.97749E-19-3.73983E-19
 -1      3388 9.51597E-05-2.83334E-05-2.86394E-05-2.06560E-07-3.29701E-19 3.61230E-21
 -1      3389 9.52226E-05-2.84452E-05-2.86184E-05-1.28173E-07-1.83095E-19-2.94060E-19
 -1      3390 9.52261E-05-2.84663E-05-2.86118E-05-1.01659E-07-1.38209E-19 5.11397E-19
 -1      3391 9.51960E-05-2.84062E-05-2.86240E-05-1.40299E-07-7.90772E-19 7.71373E-19
 -1      3392 9.52352E-05-2.84865E-05-2.86062E-05-8.11421E-08-3.83622E-19 2.98003E-19
 -1      3393 9.52369E-05-2.85017E-05-2.86011E-05-6.22696E-08 4.34369E-20 3.66062E-19
 -1      3394 9.52193E-05-2.84592E-05-2.86114E-05-9.13519E-08-2.12047E-21 9.19387E-19
 -1      3395 9.52424E-05-2.85160E-05-2.85967E-05-4.77422E-08-4.03143E-19 6.40170E-19
 -1      3396 9.52431E-05-2.85269E-05-2.85929E-05-3.46488E-08-1.11019E-18 1.52346E-18
 -1      3397 9.52338E-05-2.84974E-05-2.86013E-05-5.60039E-08-4.02583E-19 4.41344E-20
 -1      3398 9.52461E-05-2.85365E-05-2.85896E-05-2.51173E-08-1.49238E-18 6.92846E-19
 -1      3399 9.52461E-05-2.85439E-05-2.85868E-05-1.65924E-08-1.59510E-18 9.63543E-20
 -1      3400 9.52423E-05-2.85241E-05-2.85935E-05-3.15765E-08-1.51973E-18 1.29226E-18
 -1      3401 9.52477E-05-2.85510E-05-2.85841E-05-9.78980E-09-6.19400E-19 1.65629E-19
 -1      3402 9.52475E-05-2.85564E-05-2.85820E-05-3.94291E-09 3.07821E-19 1.53877E-19
 -1      3403 9.52470E-05-2.85429E-05-2.85875E-05-1.48211E-08-1.24086E-18 3.54366E-19
 -1      3404 9.52480E-05-2.85611E-05-2.85800E-05 3.43323E-10 5.19146E-19 1.68033E-19
 -1      3405 9.52476E-05-2.85647E-05-2.85784E-05 3.92583E-09 4.42474E-19-4.86414E-19
 -1      3406 9.52492E-05-2.85563E-05-2.85827E-05-3.41717E-09-9.40517E-20 5.06264E-19
 -1      3407 9.52475E-05-2.85678E-05-2.85769E-05 6.44275E-09 1.11661E-18-1.20641E-18
 -1      3408 9.52469E-05-2.85701E-05-2.85758E-05 8.43739E-09 1.95571E-18-1.08287E-18
 -1      3409 9.52497E-05-2.85652E-05-2.85791E-05 3.68898E-09 6.29060E-19 6.93452E-21
 -1      3410 9.52465E-05-2.85720E-05-2.85747E-05 9.73115E-09 1.45441E-18-8.73545E-19
 -1      3411 9.52459E-05-2.85734E-05-2.85740E-05 1.06476E-08 8.62910E-19-4.05994E-19
 -1      3412 9.52492E-05-2.85709E-05-2.85764E-05 7.75894E-09 1.47708E-18-1.28576E-18
 -1      3413 9.52453E-05-2.85744E-05-2.85732E-05 1.11242E-08 7.11910E-19 7.69799E-20
 -1      3414 9.52448E-05-2.85752E-05-2.85727E-05 1.13358E-08 7.47847E-19-1.85181E-19
 -1      3415 9.52481E-05-2.85743E-05-2.85745E-05 9.74525E-09 1.37461E-18-1.10235E-18
 -1      3416 9.52440E-05-2.85757E-05-2.85721E-05 1.12923E-08 4.37037E-19 5.54415E-19
 -1      3417 9.52436E-05-2.85761E-05-2.85718E-05 1.10663E-08 1.58299E-19 6.74149E-19
 -1      3418 9.52467E-05-2.85762E-05-2.85731E-05 1.03531E-08 6.77783E-19 9.55228E-20
 -1      3419 9.52428E-05-2.85762E-05-2.85714E-05 1.07361E-08 3.54869E-19 3.85541E-20
 -1      3420 9.52425E-05-2.85762E-05-2.85712E-05 1.02920E-08 1.93183E-19-2.68813E-19
 -1      3421 9.52453E-05-2.85769E-05-2.85722E-05 1.01159E-08-5.64310E-19 9.57067E-19
 -1      3422 9.52417E-05-2.85761E-05-2.85710E-05 9.78425E-09-1.31652E-18-4.97353E-19
 -1      3423 9.52414E-05-2.85761E-05-2.85709E-05 9.19469E-09-1.81885E-18-1.12738E-18
 -1      3424 9.52439E-05-2.85771E-05-2.85715E-05 9.38480E-09-8.68589E-19 1.84372E-19
 -1      3425 9.52408E-05-2.85758E-05-2.85707E-05 8.61269E-09-1.56252E-18-9.16533E-19
 -1      3426 9.52405E-05-2.85757E-05-2.85706E-05 7.98094E-09-1.22345E-18-1.32653E-18
 -1      3427 9.52426E-05-2.85768E-05-2.85711E-05 8.37798E-09-1.52752E-18 3.42262E-20
 -1      3428 9.52399E-05-2.85754E-05-2.85705E-05 7.38553E-09-8.94077E-19-5.38483E-19
 -1      3429 9.52397E-05-2.85752E-05-2.85705E-05 6.75602E-09-9.52551E-19-1.23697E-18
 -1      3430 9.52414E-05-2.85763E-05-2.85708E-05 7.26959E-09-1.25911E-18-4.51997E-19
 -1      3431 9.52394E-05-2.85750E-05-2.85704E-05 5.72390E-09-1.40075E-19-1.48705E-18
 -1      3432 9.16804E-05-3.73531E-05-2.36257E-05 3.08212E-05-2.86125E-18-3.97841E-20
 -1      3433 7.92301E-05-2.80108E-05-2.14839E-05 3.02761E-05-2.84565E-18 1.68781E-18
 -1      3434 1.03880E-04-3.55619E-05-2.92552E-05-2.59302E-06-2.16491E-19-1.23575E-18
 -1      3435 1.04453E-04-3.57989E-05-2.94468E-05-3.71176E-06-2.00103E-20-1.24671E-18
 -1      3436 1.05455E-04-3.59473E-05-2.97778E-05-5.12827E-06 2.30642E-19-1.46120E-18
 -1      3437 1.05658E-04-3.55295E-05-3.00710E-05-6.32844E-06 3.90105E-19-1.37162E-18
 -1      3438 1.06501E-04-3.70865E-05-2.97538E-05-3.55761E-06-1.18245E-20-1.02206E-18
 -1      3439 1.06070E-04-3.48253E-05-3.05536E-05-7.82259E-06 4.42271E-19-1.73882E-18
 -1      3440 1.05717E-04-3.34983E-05-3.09473E-05-8.73702E-06 4.03879E-19-1.63473E-18
 -1      3441 1.07997E-04-3.64646E-05-3.06244E-05-6.57563E-06 4.52978E-19-1.51751E-18
 -1      3442 1.01940E-04-3.43393E-05-2.89432E-05-6.37773E-07 1.54468E-20-1.18403E-18
 -1      3443 1.02674E-04-3.49311E-05-2.90530E-05-1.50735E-06-8.21841E-20-1.10857E-18
 -1      3444 1.04239E-04-3.61662E-05-2.91920E-05-1.07830E-06-2.53343E-19-1.23056E-18
 -1      3445 1.00071E-04-3.28539E-05-2.87818E-05 6.55159E-07-8.11112E-19-5.67821E-19
 -1      3446 1.00795E-04-3.35422E-05-2.88357E-05 6.16120E-08-3.24142E-19-9.25248E-19
 -1      3447 1.01860E-04-3.45485E-05-2.88704E-05 6.15382E-07-2.66211E-19-1.00607E-18
 -1      3448 9.84967E-05-3.14515E-05-2.87137E-05 1.39008E-06-5.86668E-19-1.95127E-19
 -1      3449 9.91191E-05-3.20887E-05-2.87344E-05 1.03704E-06-6.82893E-19-3.87963E-19
 -1      3450 9.97592E-05-3.28159E-05-2.87125E-05 1.59275E-06-8.98443E-19-4.58540E-19
 -1      3451 9.72895E-05-3.03000E-05-2.86957E-05 1.71298E-06 3.81118E-20-3.71974E-19
 -1      3452 9.77767E-05-3.08163E-05-2.87000E-05 1.54288E-06-2.35148E-19-2.05428E-19
 -1      3453 9.80948E-05-3.12830E-05-2.86529E-05 2.03302E-06-4.79961E-19-1.36715E-19
 -1      3454 9.64313E-05-2.94454E-05-2.86991E-05 1.76425E-06-3.00239E-19-3.19099E-19
 -1      3455 9.67862E-05-2.98250E-05-2.86977E-05 1.71949E-06-5.75307E-20-5.56818E-19
 -1      3456 9.68842E-05-3.00813E-05-2.86446E-05 2.11728E-06-1.32343E-20-2.37763E-19
 -1      3457 9.58602E-05-2.88640E-05-2.87073E-05 1.65446E-06-2.72271E-19 4.74941E-19
 -1      3458 9.61037E-05-2.91201E-05-2.87059E-05 1.68797E-06-3.47614E-19-1.55507E-19
 -1      3459 9.60666E-05-2.92242E-05-2.86571E-05 1.99379E-06-5.60733E-19 4.64799E-20
 -1      3460 9.55049E-05-2.85035E-05-2.87122E-05 1.46152E-06-8.20680E-19 9.01100E-19
 -1      3461 9.56632E-05-2.86609E-05-2.87133E-05 1.53835E-06-3.72719E-19 4.34958E-19
 -1      3462 9.55532E-05-2.86644E-05-2.86735E-05 1.76538E-06-4.79106E-19-3.41646E-20
 -1      3463 9.53008E-05-2.83062E-05-2.87110E-05 1.23677E-06 5.57065E-20 6.57376E-19
 -1      3464 9.53981E-05-2.83914E-05-2.87151E-05 1.33280E-06-2.43142E-19 5.64408E-19
 -1      3465 9.52578E-05-2.83350E-05-2.86855E-05 1.49780E-06-3.25277E-19 3.41558E-19
 -1      3466 9.51962E-05-2.82207E-05-2.87038E-05 1.01184E-06 6.07349E-19 3.82413E-19
 -1      3467 9.52524E-05-2.82568E-05-2.87104E-05 1.11144E-06 3.64519E-19 6.70812E-19
 -1      3468 9.51085E-05-2.81701E-05-2.86904E-05 1.23015E-06 3.35300E-19 4.09865E-19
 -1      3469 9.51527E-05-2.82058E-05-2.86922E-05 8.04480E-07-1.39852E-19 8.51918E-20
 -1      3470 9.51828E-05-2.82111E-05-2.87003E-05 8.98388E-07 1.93485E-19 3.73107E-19
 -1      3471 9.50505E-05-2.81143E-05-2.86883E-05 9.83719E-07 3.78447E-19 2.10281E-19
 -1      3472 9.51442E-05-2.82314E-05-2.86777E-05 6.23212E-07-1.06791E-18 5.73962E-19
 -1      3473 9.51584E-05-2.82193E-05-2.86866E-05 7.06552E-07-3.84215E-19 2.46039E-19
 -1      3474 9.50452E-05-2.81247E-05-2.86808E-05 7.68304E-07-6.29854E-19 3.34390E-19
 -1      3475 9.51534E-05-2.82770E-05-2.86622E-05 4.70857E-07-4.86315E-19 2.12018E-19
 -1      3476 9.51587E-05-2.82564E-05-2.86711E-05 5.41630E-07-7.75985E-19 5.59155E-19
 -1      3477 9.50667E-05-2.81710E-05-2.86698E-05 5.86792E-07-6.26308E-19 2.65429E-19
 -1      3478 9.51699E-05-2.83292E-05-2.86468E-05 3.46780E-07-5.92000E-19 1.00138E-18
 -1      3479 9.51706E-05-2.83059E-05-2.86552E-05 4.04829E-07-5.95270E-19 5.73163E-19
 -1      3480 9.50991E-05-2.82330E-05-2.86569E-05 4.38279E-07-1.09941E-18 3.51669E-19
 -1      3481 9.51877E-05-2.83801E-05-2.86325E-05 2.48420E-07-1.26564E-19 1.90911E-18
 -1      3482 9.51863E-05-2.83576E-05-2.86400E-05 2.94649E-07-1.16276E-19 1.87515E-18
 -1      3483 9.51330E-05-2.82979E-05-2.86436E-05 3.19727E-07-5.17298E-19 1.92738E-18
 -1      3484 9.52038E-05-2.84257E-05-2.86197E-05 1.72341E-07 7.44296E-19 1.25810E-18
 -1      3485 9.52018E-05-2.84056E-05-2.86262E-05 2.08188E-07 1.23117E-19 1.30566E-18
 -1      3486 9.51637E-05-2.83584E-05-2.86307E-05 2.27166E-07 3.16799E-19 2.26215E-18
 -1      3487 9.52169E-05-2.84642E-05-2.86088E-05 1.14886E-07-1.24742E-19 6.33148E-19
 -1      3488 9.52150E-05-2.84473E-05-2.86142E-05 1.41978E-07 5.04329E-19 1.10781E-18
 -1      3489 9.51891E-05-2.84111E-05-2.86190E-05 1.56414E-07 4.11066E-19 1.34322E-18
 -1      3490 9.52269E-05-2.84953E-05-2.85996E-05 7.25427E-08-1.38362E-18 2.99148E-19
 -1      3491 9.52253E-05-2.84816E-05-2.86040E-05 9.24915E-08-9.05583E-19 1.23290E-19
 -1      3492 9.52087E-05-2.84548E-05-2.86088E-05 1.03480E-07-2.92992E-19 6.86845E-19
 -1      3493 9.52339E-05-2.85194E-05-2.85922E-05 4.21466E-08-9.22225E-19 7.14960E-19
 -1      3494 9.52328E-05-2.85088E-05-2.85957E-05 5.64305E-08-1.46689E-18 6.31897E-19
 -1      3495 9.52231E-05-2.84896E-05-2.86000E-05 6.47639E-08-1.42908E-18 3.01293E-19
 -1      3496 9.52386E-05-2.85377E-05-2.85863E-05 2.09805E-08 8.54911E-19 3.70017E-19
 -1      3497 9.52379E-05-2.85297E-05-2.85890E-05 3.08815E-08 2.94941E-19 1.17716E-18
 -1      3498 9.52331E-05-2.85163E-05-2.85929E-05 3.71489E-08-5.47569E-19 2.98755E-20
 -1      3499 9.52414E-05-2.85510E-05-2.85817E-05 6.78616E-09 4.33024E-19 6.68259E-19
 -1      3500 9.52410E-05-2.85452E-05-2.85838E-05 1.33792E-08 6.06609E-19 4.94283E-19
 -1      3501 9.52395E-05-2.85363E-05-2.85871E-05 1.80346E-08 4.65966E-19 1.55117E-20
 -1      3502 9.52428E-05-2.85604E-05-2.85782E-05-2.27103E-09 4.20640E-19 2.69583E-19
 -1      3503 9.52427E-05-2.85563E-05-2.85798E-05 1.88933E-09 9.23300E-19 5.39183E-19
 -1      3504 9.52433E-05-2.85508E-05-2.85825E-05 5.29386E-09 3.74952E-19 4.58148E-19
 -1      3505 9.52433E-05-2.85668E-05-2.85757E-05-7.63878E-09-9.36044E-19 9.81408E-19
 -1      3506 9.52434E-05-2.85640E-05-2.85768E-05-5.22031E-09-2.31052E-19 8.71701E-19
 -1      3507 9.52453E-05-2.85609E-05-2.85791E-05-2.78031E-09 2.00598E-19 9.45884E-19
 -1      3508 9.52432E-05-2.85709E-05-2.85738E-05-1.04326E-08-9.57839E-19 1.27811E-18
 -1      3509 9.52433E-05-2.85691E-05-2.85746E-05-9.22301E-09-1.32251E-18 1.40209E-18
 -1      3510 9.52459E-05-2.85676E-05-2.85764E-05-7.51812E-09-1.21821E-18 1.64930E-18
 -1      3511 9.52427E-05-2.85734E-05-2.85726E-05-1.14941E-08 3.46108E-19 3.15790E-19
 -1      3512 9.52429E-05-2.85723E-05-2.85731E-05-1.10922E-08 2.52941E-19 1.09862E-18
 -1      3513 9.52457E-05-2.85719E-05-2.85745E-05-9.93870E-09-2.53864E-19-1.65008E-19
 -1      3514 9.52420E-05-2.85748E-05-2.85717E-05-1.14438E-08 4.74356E-19-4.12685E-19
 -1      3515 9.52422E-05-2.85742E-05-2.85720E-05-1.15546E-08 8.62168E-19 5.43311E-19
 -1      3516 9.52450E-05-2.85744E-05-2.85731E-05-1.08070E-08 6.60199E-19 2.88627E-19
 -1      3517 9.52413E-05-2.85753E-05-2.85711E-05-1.07273E-08 2.57724E-19-3.54318E-19
 -1      3518 9.52415E-05-2.85751E-05-2.85713E-05-1.11401E-08 5.07034E-19-2.91204E-19
 -1      3519 9.52440E-05-2.85757E-05-2.85721E-05-1.06844E-08 4.52086E-19-1.63889E-19
 -1      3520 9.52405E-05-2.85754E-05-2.85708E-05-9.65364E-09-3.43551E-19-6.92454E-19
 -1      3521 9.52407E-05-2.85753E-05-2.85709E-05-1.02237E-08 2.64911E-19-9.80833E-19
 -1      3522 9.52429E-05-2.85762E-05-2.85715E-05-9.97301E-09 2.97875E-19-4.34052E-20
 -1      3523 9.52398E-05-2.85752E-05-2.85706E-05-8.42854E-09 3.38834E-20 9.85373E-20
 -1      3524 9.52400E-05-2.85753E-05-2.85706E-05-9.06085E-09-2.60720E-19-3.73706E-19
 -1      3525 9.52419E-05-2.85762E-05-2.85710E-05-8.95005E-09-6.88788E-19-1.63909E-18
 -1      3526 9.52392E-05-2.85748E-05-2.85704E-05-7.18570E-09 8.22684E-19-3.65541E-19
 -1      3527 9.52394E-05-2.85750E-05-2.85705E-05-7.81461E-09 3.32984E-19 9.09405E-20
 -1      3528 9.52409E-05-2.85759E-05-2.85707E-05-7.79965E-09 6.34848E-20-4.67680E-19
 -1      3529 9.52387E-05-2.85745E-05-2.85704E-05-5.96935E-09-1.57753E-19-5.35569E-19
 -1      3530 9.52388E-05-2.85746E-05-2.85704E-05-6.57167E-09 1.19443E-18-3.65146E-19
 -1      3531 9.52401E-05-2.85754E-05-2.85706E-05-6.62912E-09 8.59139E-19 2.94949E-20
 -1      3532 9.52416E-05-2.85767E-05-2.85706E-05-2.63332E-09-4.43687E-19 2.24716E-18
 -1      3533 1.00760E-04-2.26074E-05-3.35704E-05-6.51944E-06 1.24641E-18-1.67557E-18
 -1      3534 1.00119E-04-2.10297E-05-3.38524E-05-4.33843E-06 1.31431E-18-1.50053E-18
 -1      3535 9.52405E-05-2.85758E-05-2.85706E-05 5.66613E-09-7.08739E-19 8.30979E-19
 -1      3536 1.02098E-04-3.42243E-05-2.90327E-05-2.20444E-05-2.44805E-18-2.07117E-18
 -1      3537 1.15945E-04-5.06569E-05-2.83992E-05 1.95379E-05-1.81861E-18-1.45003E-18
 -1      3538 1.05867E-04-4.47767E-05-2.57284E-05 2.63236E-05-2.52506E-18-1.07640E-18
 -1      3539 6.55468E-05-1.09307E-05-2.34067E-05-1.97556E-06-4.05848E-19 1.34509E-18
 -1      3540 7.00785E-05-1.24142E-05-2.47981E-05-2.12768E-06-5.13474E-19 8.28868E-19
 -1      3541 1.05107E-04-2.79716E-05-3.30436E-05 1.10985E-05 1.46968E-18-1.69770E-19
 -1      3542 1.05873E-04-2.93693E-05-3.28453E-05 1.15460E-05 1.53305E-18-2.43237E-19
 -1      3543 1.25841E-04-4.94145E-05-3.31853E-05 1.86004E-06-3.56955E-19-2.99002E-18
 -1      3544 1.23397E-04-5.09018E-05-3.07040E-05 9.63747E-06-9.39386E-19-2.59503E-18
 -1      3545 1.20245E-04-4.19206E-05-3.37849E-05-3.85278E-06-7.33928E-19-4.74074E-20
 -1      3546 7.43158E-05-1.39566E-05-2.59383E-05-2.92074E-06-3.76991E-19 4.84026E-19
 -1      3547 7.77587E-05-1.55297E-05-2.67288E-05-2.89736E-06-3.87190E-19-2.67494E-20
 -1      3548 7.15449E-05-1.30497E-05-2.48648E-05 2.06832E-06-8.67483E-19 9.86481E-19
 -1      3549 9.52391E-05-2.85748E-05-2.85704E-05-4.49393E-09 2.63481E-19-4.90161E-19
 -1      3550 9.52385E-05-2.85744E-05-2.85704E-05-4.64284E-09-1.42868E-19-1.46584E-18
 -1      3551 9.52385E-05-2.85744E-05-2.85704E-05-5.02135E-09-1.19708E-18-5.39112E-19
 -1      3552 9.52397E-05-2.85753E-05-2.85705E-05-4.71237E-09 6.58891E-19-2.70926E-19
 -1      3553 6.64346E-05-2.02989E-05-1.99315E-05 2.73060E-05-2.02835E-18 2.14172E-18
 -1      3554 5.82444E-05-1.34416E-05-1.86407E-05 2.03700E-05-1.47963E-18 2.47376E-18
 -1      3555 9.96043E-05-2.00963E-05-3.40969E-05-1.16081E-06 1.59228E-18-1.24439E-18
 -1      3556 9.97097E-05-2.00147E-05-3.41757E-05 1.50732E-06 1.99745E-18-8.13901E-19
 -1      3557 1.01817E-04-1.95289E-05-3.52506E-05-2.93702E-06 1.72864E-18-1.47339E-18
 -1      3558 1.03194E-04-2.72168E-05-3.26349E-05-9.57552E-06 8.62375E-19-1.99513E-18
 -1      3559 1.02114E-04-2.48412E-05-3.30574E-05-8.52838E-06 1.13219E-18-1.81131E-18
 -1      3560 1.03610E-04-2.32409E-05-3.44229E-05-8.19406E-06 1.24672E-18-1.90963E-18
 -1      3561 1.22530E-04-3.53236E-05-3.77690E-05-1.08198E-05 1.22169E-18-2.83829E-18
 -1      3562 1.26469E-04-4.33829E-05-3.53766E-05-6.01842E-06 3.95459E-20-3.09544E-18
 -1      3563 5.81249E-05-8.89076E-06-2.10906E-05-3.01077E-06-4.49622E-19 1.94526E-18
 -1      3564 1.05194E-04-2.95275E-05-3.24023E-05 1.13101E-05 1.48308E-18-4.01772E-19
 -1      3565 5.44041E-05 1.20076E-06-2.36203E-05-8.68788E-07-1.27535E-18-4.55458E-18
 -1      3566 1.06722E-04-3.00365E-05-3.28413E-05 1.12577E-05 1.54017E-18-3.90239E-19
 -1      3567 1.07684E-04-3.06757E-05-3.30764E-05 1.09489E-05 1.34904E-18-6.48524E-19
 -1      3568 1.09698E-04-3.17031E-05-3.33974E-05 9.89260E-06 1.14891E-18-6.79443E-19
 -1      3569 1.08823E-04-3.04990E-05-3.35478E-05 1.14001E-05 1.38115E-18-3.43452E-19
 -1      3570 1.17188E-04-3.13790E-05-3.68660E-05-1.09390E-05 1.09453E-18-2.42593E-18
 -1      3571 5.77974E-05-1.15917E-05-1.96312E-05 1.31791E-05-1.23582E-18 2.25946E-18
 -1      3572 6.00781E-05-9.34450E-06-2.13780E-05 3.56098E-06-9.26730E-19 1.90560E-18
 -1      3573 1.26839E-04-3.29738E-05-4.03863E-05 1.16149E-05 1.49522E-18 1.37786E-18
 -1      3574 1.22238E-04-2.78569E-05-4.06555E-05 1.31640E-05 2.10991E-18 1.41102E-18
 -1      3575 1.24256E-04-3.57325E-05-3.80089E-05 9.68561E-06 9.75888E-19 6.63121E-19
 -1      3576 9.52427E-05-2.85774E-05-2.85708E-05 1.42707E-09-1.21227E-18 2.70406E-18
 -1      3577 9.52428E-05-2.85775E-05-2.85708E-05 5.14497E-10-2.02918E-18 2.92291E-18
 -1      3578 7.85379E-05-1.60886E-05-2.66487E-05-2.01528E-08-8.79268E-19 6.27195E-19
 -1      3579 1.22707E-04-4.44025E-05-3.34919E-05-3.20786E-06-1.71986E-19-2.57659E-18
 -1      3580 9.87052E-05-3.92198E-05-2.53876E-05 2.49806E-05-2.85212E-18-4.29185E-19
 -1      3581 1.07997E-04-3.36972E-05-3.18009E-05-9.26764E-06 2.77791E-19-2.01852E-18
 -1      3582 1.10917E-04-3.29965E-05-3.33375E-05 6.27975E-06 6.69156E-19-7.65051E-19
 -1      3583 9.52424E-05-2.85772E-05-2.85708E-05-2.44983E-09-2.04413E-19 2.36240E-18
 -1      3584 9.52420E-05-2.85769E-05-2.85708E-05-3.26770E-09 1.05292E-18 3.48310E-19
 -1      3585 9.52385E-05-2.85743E-05-2.85703E-05-5.40828E-09-6.57170E-19-3.95834E-19
 -1      3586 1.13574E-04-9.86402E-06-4.48063E-05 1.03104E-06 3.73319E-18-1.59586E-19
 -1      3587 1.10146E-04-1.20833E-05-4.21272E-05-1.65974E-06 2.99270E-18-6.54929E-19
 -1      3588 1.12046E-04-1.09579E-05-4.35723E-05 4.23517E-06 3.45309E-18-2.42083E-20
 -1      3589 7.57823E-05-2.38229E-05-2.21125E-05 2.50875E-05-2.29946E-18 1.46054E-18
 -1      3590 1.20490E-04-1.63919E-05-4.49554E-05 1.17435E-05 3.56739E-18 1.22653E-18
 -1      3591 1.15642E-04-1.39577E-05-4.37897E-05 9.88378E-06 3.67761E-18 7.71806E-19
 -1      3592 1.19266E-04-2.06122E-05-4.24632E-05 1.26705E-05 2.87168E-18 1.23388E-18
 -1      3593 9.52428E-05-2.85775E-05-2.85708E-05-5.38044E-10-1.27862E-18 3.04513E-18
 -1      3594 9.52427E-05-2.85774E-05-2.85708E-05-1.45556E-09-1.02615E-18 2.87915E-18
 -1      3595 9.52432E-05-2.85776E-05-2.85710E-05-2.11368E-09-3.13831E-19 1.19059E-18
 -1      3596 9.52435E-05-2.85779E-05-2.85710E-05-2.14302E-11-1.26354E-18 2.67354E-18
 -1      3597 1.02857E-04-2.43345E-05-3.36109E-05 9.15255E-06 2.06415E-18-3.38879E-19
 -1      3598 1.04020E-04-2.61999E-05-3.34116E-05 1.05753E-05 1.67671E-18-2.69523E-19
 -1      3599 1.06886E-04-2.73227E-05-3.40431E-05 1.16028E-05 1.62712E-18-1.75604E-19
 -1      3600 1.17062E-04-4.83898E-05-2.94417E-05 1.25962E-05-1.79473E-18-2.13211E-18
 -1      3601 9.52415E-05-2.85765E-05-2.85707E-05-3.97307E-09 1.12658E-18-1.57277E-18
 -1      3602 9.52410E-05-2.85762E-05-2.85706E-05-4.49414E-09 1.63433E-18-1.64372E-18
 -1      3603 9.52423E-05-2.85770E-05-2.85708E-05-3.84732E-09 1.19706E-18-5.89065E-19
 -1      3604 9.23749E-05-2.73295E-05-2.75412E-05-2.58929E-05-2.71233E-18-2.97295E-18
 -1      3605 1.06340E-04-2.89212E-05-3.31547E-05-1.02214E-05 7.11050E-19-1.97379E-18
 -1      3606 9.52423E-05-2.85771E-05-2.85708E-05 3.96500E-09-1.18645E-18 8.20255E-19
 -1      3607 9.52420E-05-2.85770E-05-2.85708E-05 3.23577E-09-6.40684E-19 6.22009E-19
 -1      3608 9.52424E-05-2.85772E-05-2.85708E-05 2.42297E-09-1.07005E-18 1.06880E-18
 -1      3609 1.16714E-04-3.85850E-05-3.34952E-05-2.18150E-08-3.73819E-19-6.80737E-19
 -1      3610 1.23814E-04-4.13310E-05-3.52680E-05 2.63846E-06-2.72387E-19 3.90191E-19
 -1      3611 1.01944E-04-1.91496E-05-3.54580E-05 3.67992E-06 2.24311E-18-7.57813E-19
 -1      3612 1.00473E-04-2.08021E-05-3.40948E-05 4.81548E-06 2.10992E-18-4.75410E-19
 -1      3613 1.01442E-04-2.22822E-05-3.39780E-05 7.13975E-06 2.10814E-18-4.48037E-19
 -1      3614 1.15611E-04-3.67769E-05-3.39541E-05 4.39157E-06 1.66111E-19-5.84042E-19
 -1      3615 9.52394E-05-2.85750E-05-2.85705E-05-5.49748E-09-2.18759E-19-2.47377E-19
 -1      3616 9.52413E-05-2.85763E-05-2.85707E-05 5.71938E-09-9.40165E-19 5.95960E-19
 -1      3617 9.52432E-05-2.85777E-05-2.85710E-05 2.07615E-09-1.49793E-18 2.05942E-18
 -1      3618 7.72932E-05-1.64581E-05-2.61650E-05 3.44310E-06-9.56267E-19 7.09269E-19
 -1      3619 8.02962E-05-1.77332E-05-2.68260E-05 2.35127E-06-6.73530E-19 6.79511E-19
 -1      3620 1.09789E-04-3.15268E-05-3.36361E-05-1.06287E-05 6.36109E-19-2.07343E-18
 -1      3621 1.08515E-04-2.83432E-05-3.43706E-05-1.03708E-05 8.88088E-19-2.17859E-18
 -1      3622 8.60860E-05-2.08712E-05-2.79945E-05-2.39370E-07-4.49741E-19 4.03416E-19
 -1      3623 8.76123E-05-2.18197E-05-2.82079E-05-5.29782E-07-2.76543E-19 1.29687E-19
 -1      3624 8.87341E-05-2.25974E-05-2.83741E-05-9.25388E-07-6.47790E-19 1.06267E-19
 -1      3625 8.97658E-05-2.33238E-05-2.84844E-05-1.01164E-06-7.60112E-19 3.79439E-19
 -1      3626 8.81058E-05-2.23145E-05-2.81608E-05 5.05008E-07-6.40372E-19 7.32224E-19
 -1      3627 9.06477E-05-2.39936E-05-2.85850E-05-1.21536E-06-2.25595E-19 1.02041E-19
 -1      3628 9.14099E-05-2.45968E-05-2.86419E-05-1.19098E-06 1.11564E-19 8.76366E-19
 -1      3629 9.00578E-05-2.36514E-05-2.84343E-05-2.49497E-07-4.59040E-19 1.09891E-18
 -1      3630 9.20528E-05-2.51269E-05-2.86945E-05-1.25946E-06 1.23996E-19 1.11143E-18
 -1      3631 9.25781E-05-2.55875E-05-2.87167E-05-1.17412E-06-1.21178E-19 9.73248E-19
 -1      3632 9.15394E-05-2.47796E-05-2.85928E-05-6.29007E-07 2.67252E-19 8.20115E-19
 -1      3633 9.30427E-05-2.59979E-05-2.87406E-05-1.16633E-06-5.65047E-19 1.02902E-18
 -1      3634 9.34020E-05-2.63458E-05-2.87437E-05-1.05646E-06-4.17777E-19 7.37485E-19
 -1      3635 9.26188E-05-2.56813E-05-2.86744E-05-7.62393E-07-5.11815E-19 9.85983E-19
 -1      3636 9.37351E-05-2.66591E-05-2.87509E-05-1.00980E-06-5.20322E-19 2.19423E-19
 -1      3637 9.39795E-05-2.69201E-05-2.87441E-05-8.96979E-07-5.98097E-19 5.06226E-19
 -1      3638 9.33973E-05-2.63868E-05-2.87097E-05-7.56530E-07-7.80401E-19 4.76570E-19
 -1      3639 9.42170E-05-2.71574E-05-2.87419E-05-8.34725E-07-9.41347E-19 9.42940E-19
 -1      3640 9.43825E-05-2.73522E-05-2.87307E-05-7.30522E-07-6.59033E-19 4.64158E-19
 -1      3641 9.39550E-05-2.69319E-05-2.87179E-05-6.79641E-07-4.42265E-19 2.15201E-19
 -1      3642 9.45509E-05-2.75307E-05-2.87238E-05-6.66100E-07-7.88602E-19 2.76871E-19
 -1      3643 9.46625E-05-2.76757E-05-2.87112E-05-5.75654E-07-2.35747E-19-8.02730E-19
 -1      3644 9.43524E-05-2.73495E-05-2.87112E-05-5.74023E-07-1.04987E-18-4.86511E-19
 -1      3645 9.47764E-05-2.78037E-05-2.87028E-05-5.19143E-07 4.73972E-19-1.13388E-18
 -1      3646 9.48485E-05-2.79073E-05-2.86911E-05-4.46847E-07-7.20292E-20-1.08612E-18
 -1      3647 9.46282E-05-2.76602E-05-2.86976E-05-4.66212E-07-5.26112E-19-2.66055E-20
 -1      3648 9.49334E-05-2.80090E-05-2.86818E-05-3.94668E-07-9.83816E-19-9.99460E-19
 -1      3649 9.49848E-05-2.80906E-05-2.86705E-05-3.33227E-07-1.11614E-18-2.17853E-19
 -1      3650 9.48242E-05-2.78970E-05-2.86811E-05-3.65666E-07-4.63960E-19-4.41624E-19
 -1      3651 9.50441E-05-2.81665E-05-2.86616E-05-2.90161E-07-9.83866E-19 8.23795E-20
 -1      3652 9.50783E-05-2.82269E-05-2.86518E-05-2.41828E-07-2.74691E-19-4.61233E-19
 -1      3653 9.49660E-05-2.80809E-05-2.86637E-05-2.76130E-07-1.08561E-18-7.35716E-19
 -1      3654 9.51193E-05-2.82833E-05-2.86437E-05-2.07456E-07-9.16335E-20-9.01486E-19
 -1      3655 9.51419E-05-2.83280E-05-2.86354E-05-1.70313E-07-7.68607E-19-5.69614E-19
 -1      3656 9.50648E-05-2.82191E-05-2.86473E-05-2.02169E-07-6.76107E-19-9.94669E-19
 -1      3657 9.51699E-05-2.83696E-05-2.86284E-05-1.43702E-07-1.37741E-18-8.25149E-20
 -1      3658 9.51845E-05-2.84025E-05-2.86215E-05-1.15782E-07-8.87862E-19-1.33635E-19
 -1      3659 9.51328E-05-2.83222E-05-2.86325E-05-1.43271E-07-6.93660E-19-9.53676E-19
 -1      3660 9.52033E-05-2.84330E-05-2.86156E-05-9.57429E-08-7.83453E-20 4.16529E-19
 -1      3661 9.52126E-05-2.84570E-05-2.86100E-05-7.52158E-08-4.58075E-19-3.06696E-19
 -1      3662 9.51790E-05-2.83986E-05-2.86198E-05-9.78057E-08-1.29975E-19 4.15272E-19
 -1      3663 9.52249E-05-2.84791E-05-2.86051E-05-6.05381E-08-3.56144E-19 4.82247E-19
 -1      3664 9.52305E-05-2.84964E-05-2.86006E-05-4.58253E-08-7.82999E-19 4.45418E-19
 -1      3665 9.52097E-05-2.84546E-05-2.86091E-05-6.37045E-08 9.87700E-20-1.98992E-19
 -1      3666 9.52379E-05-2.85115E-05-2.85969E-05-3.58698E-08-1.81029E-18 2.82074E-19
 -1      3667 9.52410E-05-2.85233E-05-2.85935E-05-2.59455E-08-2.47341E-18 3.16998E-19
 -1      3668 9.52291E-05-2.84945E-05-2.86004E-05-3.93035E-08-1.35741E-18-1.26138E-18
 -1      3669 9.52457E-05-2.85346E-05-2.85903E-05-1.85713E-08-1.85590E-18 2.92694E-19
 -1      3670 9.52474E-05-2.85434E-05-2.85876E-05-1.14768E-08-7.57237E-19 9.56326E-19
 -1      3671 9.52412E-05-2.85230E-05-2.85934E-05-2.19382E-08-1.67012E-18 1.22574E-19
 -1      3672 9.52499E-05-2.85512E-05-2.85850E-05-6.61298E-09 2.42136E-19 7.33260E-19
 -1      3673 9.52504E-05-2.85571E-05-2.85829E-05-2.00598E-09 4.83511E-19 8.58788E-19
 -1      3674 9.52483E-05-2.85436E-05-2.85877E-05-9.64812E-09-6.08403E-19 7.66562E-19
 -1      3675 9.52515E-05-2.85623E-05-2.85810E-05 1.04601E-09-2.60987E-19 5.51090E-19
 -1      3676 9.52514E-05-2.85662E-05-2.85794E-05 3.85737E-09 6.62703E-19 2.28783E-19
 -1      3677 9.52518E-05-2.85577E-05-2.85832E-05-1.57843E-09-1.03695E-19 1.33288E-18
 -1      3678 9.52515E-05-2.85695E-05-2.85779E-05 5.61733E-09 1.73883E-18-4.45108E-19
 -1      3679 9.52511E-05-2.85720E-05-2.85768E-05 7.16968E-09 1.03146E-18-2.94424E-19
 -1      3680 9.52529E-05-2.85670E-05-2.85797E-05 3.41501E-09 9.91580E-19 8.58577E-19
 -1      3681 9.52506E-05-2.85739E-05-2.85757E-05 8.03897E-09 5.51951E-19-4.25011E-20
 -1      3682 9.52499E-05-2.85754E-05-2.85748E-05 8.73630E-09 1.57769E-18-1.34050E-19
 -1      3683 9.52525E-05-2.85728E-05-2.85771E-05 6.23045E-09 1.81767E-18 5.03349E-19
 -1      3684 9.52492E-05-2.85764E-05-2.85740E-05 9.01232E-09 7.89655E-19-3.20153E-20
 -1      3685 9.52484E-05-2.85771E-05-2.85734E-05 9.14814E-09 6.10729E-19 5.32203E-19
 -1      3686 9.52513E-05-2.85761E-05-2.85751E-05 7.55345E-09 6.30293E-19-3.03027E-20
 -1      3687 9.52475E-05-2.85775E-05-2.85729E-05 9.06141E-09 1.31042E-19 6.92931E-19
 -1      3688 9.52468E-05-2.85777E-05-2.85725E-05 8.87587E-09-1.48185E-19 9.06392E-19
 -1      3689 9.52496E-05-2.85778E-05-2.85737E-05 7.89879E-09 1.99230E-19 4.42077E-19
 -1      3690 9.52459E-05-2.85778E-05-2.85720E-05 8.57600E-09-1.15763E-18 6.29815E-19
 -1      3691 9.52452E-05-2.85777E-05-2.85717E-05 8.18415E-09-1.90379E-18-1.26990E-19
 -1      3692 9.52478E-05-2.85784E-05-2.85726E-05 7.64969E-09-1.03116E-18 4.36155E-19
 -1      3693 9.52442E-05-2.85775E-05-2.85714E-05 7.76478E-09-1.94374E-18 5.93763E-19
 -1      3694 9.52436E-05-2.85773E-05-2.85712E-05 7.27624E-09-1.18007E-18 1.18897E-18
 -1      3695 9.52460E-05-2.85783E-05-2.85719E-05 7.04390E-09-1.60096E-18 9.27110E-19
 -1      3696 9.52428E-05-2.85770E-05-2.85710E-05 6.81380E-09-1.13695E-18 6.95540E-19
 -1      3697 9.52422E-05-2.85767E-05-2.85709E-05 6.30537E-09-5.23921E-19 8.43213E-19
 -1      3698 9.52442E-05-2.85778E-05-2.85713E-05 6.26264E-09-1.30341E-18 3.63516E-19
 -1      3699 1.01559E-04-3.44212E-05-2.87367E-05 2.17116E-06-8.85664E-19-5.32253E-19
 -1      3700 1.02718E-04-3.54275E-05-2.88498E-05 1.60288E-06-5.20841E-19-8.57667E-19
 -1      3701 1.11270E-04-1.54984E-05-4.11289E-05-7.40503E-06 2.68216E-18-1.24319E-18
 -1      3702 1.09586E-04-1.95970E-05-3.86191E-05-8.49596E-06 2.09836E-18-1.18933E-18
 -1      3703 1.04393E-04-3.65534E-05-2.90321E-05 9.14783E-07-3.52594E-19-1.06579E-18
 -1      3704 1.05626E-04-3.74387E-05-2.92501E-05-3.83105E-08-2.52121E-19-7.66254E-19
 -1      3705 1.03834E-04-3.65515E-05-2.88718E-05 2.65252E-06-7.94749E-19-9.99128E-19
 -1      3706 1.10103E-04-3.88373E-05-3.05223E-05-4.57532E-06 2.96792E-20-1.54359E-18
 -1      3707 1.10482E-04-3.80153E-05-3.10779E-05-6.20625E-06 4.18181E-20-1.80953E-18
 -1      3708 9.92464E-05-3.24290E-05-2.86096E-05 2.69451E-06-7.24590E-19-4.19327E-19
 -1      3709 1.00208E-04-3.33486E-05-2.86570E-05 2.42875E-06-9.19146E-19-1.87238E-19
 -1      3710 1.00805E-04-3.41226E-05-2.86140E-05 3.42557E-06-1.02534E-18-1.89245E-19
 -1      3711 9.75329E-05-3.08122E-05-2.85773E-05 2.74374E-06-3.35336E-19-5.82276E-19
 -1      3712 9.82610E-05-3.15487E-05-2.85884E-05 2.68289E-06-7.38773E-19-6.72253E-19
 -1      3713 9.84889E-05-3.20095E-05-2.85212E-05 3.50808E-06-5.38281E-19-5.98696E-19
 -1      3714 9.63642E-05-2.96310E-05-2.85897E-05 2.53087E-06-6.44474E-19-4.13614E-20
 -1      3715 9.68728E-05-3.01643E-05-2.85842E-05 2.58981E-06-2.08664E-19-4.00723E-19
 -1      3716 9.68691E-05-3.03848E-05-2.85150E-05 3.21985E-06-4.66769E-19-9.27731E-19
 -1      3717 9.56250E-05-2.88392E-05-2.86171E-05 2.20144E-06-7.17605E-19 2.02004E-19
 -1      3718 9.59558E-05-2.91937E-05-2.86068E-05 2.32125E-06-6.03319E-19 1.41388E-19
 -1      3719 9.58252E-05-2.92528E-05-2.85457E-05 2.77337E-06-5.92061E-19-3.09250E-20
 -1      3720 9.51978E-05-2.83567E-05-2.86440E-05 1.84020E-06-5.97731E-19 1.99869E-19
 -1      3721 9.53967E-05-2.85705E-05-2.86348E-05 1.98350E-06-5.97091E-19 5.28788E-20
 -1      3722 9.52080E-05-2.85300E-05-2.85857E-05 2.29304E-06-4.36007E-19 1.67714E-19
 -1      3723 9.49824E-05-2.81003E-05-2.86634E-05 1.49392E-06-2.76267E-19 2.88857E-19
 -1      3724 9.50901E-05-2.82121E-05-2.86578E-05 1.63837E-06-6.58394E-20 1.99693E-19
 -1      3725 9.48860E-05-2.81162E-05-2.86212E-05 1.84185E-06-3.80055E-19 4.75097E-20
 -1      3726 9.49007E-05-2.79971E-05-2.86737E-05 1.18474E-06-2.08741E-19 5.11758E-19
 -1      3727 9.49496E-05-2.80403E-05-2.86721E-05 1.31855E-06-3.38901E-19 7.74901E-20
 -1      3728 9.47551E-05-2.79201E-05-2.86465E-05 1.44793E-06-3.89695E-19 4.36304E-20
 -1      3729 9.48975E-05-2.79902E-05-2.86757E-05 9.20987E-07-4.62351E-20 5.56609E-19
 -1      3730 9.49110E-05-2.79908E-05-2.86775E-05 1.03841E-06 3.38033E-19 3.99029E-19
 -1      3731 9.47387E-05-2.78658E-05-2.86611E-05 1.11816E-06-3.54443E-19 4.77724E-19
 -1      3732 9.49346E-05-2.80377E-05-2.86714E-05 7.02674E-07-5.79438E-19 5.17394E-19
 -1      3733 9.49289E-05-2.80145E-05-2.86757E-05 8.02142E-07-1.14087E-19 7.88701E-19
 -1      3734 9.47839E-05-2.78966E-05-2.86664E-05 8.50354E-07-1.00551E-19 5.95216E-19
 -1      3735 9.49885E-05-2.81114E-05-2.86629E-05 5.26210E-07-7.74088E-19-2.39631E-19
 -1      3736 9.49739E-05-2.80770E-05-2.86687E-05 6.08054E-07-6.03912E-19-2.43403E-20
 -1      3737 9.48566E-05-2.79722E-05-2.86646E-05 6.36853E-07-2.26008E-19 5.83546E-19
 -1      3738 9.50451E-05-2.81931E-05-2.86520E-05 3.86483E-07-1.75081E-18 3.97671E-19
 -1      3739 9.50278E-05-2.81556E-05-2.86584E-05 4.52255E-07-1.17659E-18 1.72899E-19
 -1      3740 9.49361E-05-2.80666E-05-2.86580E-05 4.69599E-07-1.05589E-18 6.71662E-20
 -1      3741 9.50968E-05-2.82718E-05-2.86402E-05 2.77792E-07-5.65881E-19 9.18851E-19
 -1      3742 9.50802E-05-2.82360E-05-2.86467E-05 3.29550E-07-1.54434E-18 4.45258E-19
 -1      3743 9.50107E-05-2.81630E-05-2.86486E-05 3.40410E-07-1.45767E-18-1.23326E-19
 -1      3744 9.51402E-05-2.83420E-05-2.86286E-05 1.94677E-07 4.87646E-19 1.12490E-18
 -1      3745 9.51260E-05-2.83103E-05-2.86347E-05 2.34607E-07 9.07385E-20 1.60958E-18
 -1      3746 9.50750E-05-2.82522E-05-2.86379E-05 2.41910E-07-8.01501E-19 8.66664E-20
 -1      3747 9.51746E-05-2.84013E-05-2.86178E-05 1.32221E-07 4.70904E-19 1.52174E-18
 -1      3748 9.51633E-05-2.83746E-05-2.86232E-05 1.62421E-07 6.38187E-19 1.62401E-18
 -1      3749 9.51271E-05-2.83296E-05-2.86272E-05 1.67803E-07 3.08716E-19 1.57485E-18
 -1      3750 9.52006E-05-2.84493E-05-2.86081E-05 8.61666E-08-4.49381E-19 1.21149E-18
 -1      3751 9.51921E-05-2.84278E-05-2.86129E-05 1.08535E-07 4.88901E-19 2.10617E-18
 -1      3752 9.51674E-05-2.83938E-05-2.86170E-05 1.12849E-07 5.01399E-19 1.63380E-18
 -1      3753 9.52192E-05-2.84870E-05-2.85999E-05 5.29087E-08-1.68677E-18 8.25182E-19
 -1      3754 9.52132E-05-2.84702E-05-2.86039E-05 6.91059E-08-1.11938E-18 9.83382E-19
 -1      3755 9.51972E-05-2.84451E-05-2.86078E-05 7.27797E-08-5.19804E-19 2.08293E-18
 -1      3756 9.52320E-05-2.85155E-05-2.85930E-05 2.94527E-08 2.16415E-19-1.85921E-19
 -1      3757 9.52279E-05-2.85028E-05-2.85963E-05 4.08853E-08-6.86329E-19 5.32106E-19
 -1      3758 9.52183E-05-2.84849E-05-2.85999E-05 4.41077E-08-8.32119E-19 1.56329E-18
 -1      3759 9.52402E-05-2.85366E-05-2.85874E-05 1.34089E-08 6.67950E-20 2.26730E-19
 -1      3760 9.52377E-05-2.85273E-05-2.85900E-05 2.12198E-08 2.28348E-19-4.25720E-19
 -1      3761 9.52326E-05-2.85149E-05-2.85932E-05 2.40452E-08 1.19662E-19-1.69893E-19
 -1      3762 9.52450E-05-2.85516E-05-2.85830E-05 2.85054E-09 5.62908E-19-1.51115E-19
 -1      3763 9.52436E-05-2.85450E-05-2.85850E-05 7.97666E-09 1.67718E-19 1.13802E-19
 -1      3764 9.52416E-05-2.85368E-05-2.85877E-05 1.04413E-08 7.25922E-20 7.07726E-19
 -1      3765 9.52474E-05-2.85620E-05-2.85795E-05-3.73498E-09-6.26411E-19 3.43804E-19
 -1      3766 9.52468E-05-2.85575E-05-2.85811E-05-5.59392E-10-2.22299E-20-1.84895E-20
 -1      3767 9.52468E-05-2.85523E-05-2.85833E-05 1.55666E-09-3.11608E-19-1.61987E-21
 -1      3768 9.52481E-05-2.85689E-05-2.85769E-05-7.50429E-09-1.18473E-18 1.08040E-18
 -1      3769 9.52481E-05-2.85659E-05-2.85780E-05-5.70978E-09-8.64969E-19 1.23517E-18
 -1      3770 9.52493E-05-2.85629E-05-2.85799E-05-3.92630E-09-1.43736E-18-4.31630E-19
 -1      3771 9.52479E-05-2.85731E-05-2.85749E-05-9.33717E-09 5.41293E-19-5.18501E-19
 -1      3772 9.52481E-05-2.85713E-05-2.85757E-05-8.49044E-09 5.94641E-20 8.04064E-19
 -1      3773 9.52500E-05-2.85699E-05-2.85772E-05-7.01352E-09-2.09169E-19-1.90253E-19
 -1      3774 9.52470E-05-2.85756E-05-2.85735E-05-9.88676E-09 7.76585E-19-1.02508E-18
 -1      3775 9.52474E-05-2.85745E-05-2.85741E-05-9.66604E-09 9.59570E-19-1.09599E-18
 -1      3776 9.52496E-05-2.85741E-05-2.85752E-05-8.46438E-09 1.10717E-18-1.21591E-18
 -1      3777 9.52457E-05-2.85767E-05-2.85724E-05-9.62848E-09 4.42690E-19-1.50540E-18
 -1      3778 9.52463E-05-2.85762E-05-2.85729E-05-9.79926E-09 6.41830E-19-2.01744E-18
 -1      3779 9.52485E-05-2.85764E-05-2.85737E-05-8.83743E-09 8.02858E-19-2.02884E-18
 -1      3780 9.52444E-05-2.85770E-05-2.85717E-05-8.90131E-09 2.72858E-19-2.28002E-18
 -1      3781 9.52449E-05-2.85769E-05-2.85720E-05-9.29714E-09 4.58912E-19-1.76128E-18
 -1      3782 9.52470E-05-2.85775E-05-2.85727E-05-8.53859E-09 8.77725E-19-3.00972E-18
 -1      3783 9.52431E-05-2.85769E-05-2.85712E-05-7.93360E-09-6.87026E-19-1.29385E-18
 -1      3784 9.52436E-05-2.85770E-05-2.85714E-05-8.44313E-09-9.36255E-19-1.38897E-18
 -1      3785 9.52454E-05-2.85777E-05-2.85719E-05-7.85441E-09-7.74361E-19-2.06770E-18
 -1      3786 9.52419E-05-2.85764E-05-2.85709E-05-6.86865E-09 3.74069E-19-1.62848E-20
 -1      3787 9.52423E-05-2.85766E-05-2.85710E-05-7.42239E-09-1.92507E-19-8.76221E-19
 -1      3788 9.52439E-05-2.85774E-05-2.85714E-05-6.97951E-09-1.14182E-18-7.07586E-19
 -1      3789 9.52425E-05-2.85770E-05-2.85709E-05 5.28905E-09-6.46280E-19 7.29670E-19
 -1      3790 1.03431E-04-4.12027E-05-2.67669E-05 2.04381E-05-2.81984E-18-8.58077E-19
 -1      3791 9.28610E-05-3.40535E-05-2.50748E-05 2.36658E-05-2.98613E-18-5.25448E-19
 -1      3792 1.09142E-04-1.44116E-05-4.08863E-05-4.73411E-06 2.55883E-18-8.15484E-19
 -1      3793 1.22187E-04-3.85424E-05-3.60514E-05 6.30299E-06 2.15993E-19 1.83584E-19
 -1      3794 7.02890E-05-1.39809E-05-2.42364E-05 7.09730E-06-1.12153E-18 9.60542E-19
 -1      3795 7.45722E-05-1.54371E-05-2.53582E-05 5.39192E-06-1.34687E-18 6.24181E-19
 -1      3796 7.74150E-05-1.73161E-05-2.56443E-05 7.86681E-06-1.12438E-18 3.12008E-19
 -1      3797 1.17469E-04-4.75661E-05-3.02844E-05 6.99658E-06-1.15180E-18-2.26978E-18
 -1      3798 1.12203E-04-4.55696E-05-2.83951E-05 1.44336E-05-2.17002E-18-1.61502E-18
 -1      3799 1.07418E-04-3.82567E-05-2.95966E-05-1.35179E-06-1.34533E-19-1.08007E-18
 -1      3800 1.08430E-04-3.85748E-05-2.99634E-05-2.62960E-06 9.72181E-20-9.80618E-19
 -1      3801 1.10967E-04-4.01924E-05-3.03845E-05-2.27020E-06-1.59302E-19-1.41076E-18
 -1      3802 1.07352E-04-3.89151E-05-2.94043E-05 8.45282E-07-1.55972E-19-8.79876E-19
 -1      3803 1.12316E-04-2.75755E-05-3.64425E-05-1.14994E-05 1.22449E-18-2.30842E-18
 -1      3804 1.16820E-04-3.44605E-05-3.52395E-05-1.04684E-05 7.67293E-19-2.76861E-18
 -1      3805 9.52400E-05-2.85754E-05-2.85705E-05-5.24382E-09 5.94196E-19 3.15002E-19
 -1      3806 1.19119E-04-4.10010E-05-3.36892E-05-6.65073E-06 1.41517E-19-2.23268E-18
 -1      3807 1.20281E-04-4.51231E-05-3.19478E-05-1.14285E-06-2.57882E-19-2.34379E-18
 -1      3808 8.23674E-05-1.87837E-05-2.73176E-05 1.11643E-06-7.43667E-19 7.03077E-19
 -1      3809 8.45174E-05-1.99136E-05-2.76988E-05 5.02748E-07-5.53040E-19 2.53907E-19
 -1      3810 8.19983E-05-1.90288E-05-2.69178E-05 4.18563E-06-5.95594E-19 1.23866E-18
 -1      3811 1.04392E-04-1.84975E-05-3.69578E-05-5.48022E-06 1.94877E-18-1.35034E-18
 -1      3812 1.03814E-04-1.69905E-05-3.72078E-05-2.14025E-06 2.29905E-18-9.19034E-19
 -1      3813 8.15446E-05-2.62892E-05-2.37370E-05 2.32922E-05-2.94560E-18 3.55317E-19
 -1      3814 7.20142E-05-1.91442E-05-2.25236E-05 2.02636E-05-2.15578E-18 1.38500E-18
 -1      3815 1.18211E-04-3.61424E-05-3.51555E-05 8.00915E-06 4.53136E-19 3.91687E-20
 -1      3816 1.21472E-04-3.64497E-05-3.64590E-05 8.98796E-06 6.41998E-19 4.83682E-19
 -1      3817 1.18933E-04-3.33057E-05-3.69107E-05 1.12285E-05 1.25749E-18 6.39262E-19
 -1      3818 1.11038E-04-3.66853E-05-3.19101E-05-8.20530E-06 1.00766E-19-2.04650E-18
 -1      3819 1.10607E-04-3.44817E-05-3.26182E-05-9.38643E-06 3.97842E-19-2.08455E-18
 -1      3820 1.13240E-04-3.43207E-05-3.37835E-05-1.00709E-05 6.60798E-19-2.49709E-18
 -1      3821 1.13265E-04-3.90474E-05-3.17915E-05-6.31900E-06-1.39401E-19-2.03268E-18
 -1      3822 6.49015E-05-1.31648E-05-2.21776E-05 1.17349E-05-1.33364E-18 1.70195E-18
 -1      3823 1.13010E-04-3.44038E-05-3.36779E-05 6.35201E-06 4.92775E-19-5.52490E-19
 -1      3824 1.16176E-04-3.56546E-05-3.44194E-05 7.64278E-06 3.74514E-19-1.38133E-19
 -1      3825 1.14888E-04-3.42522E-05-3.47335E-05 9.66775E-06 8.40655E-19-8.40416E-22
 -1      3826 1.11153E-04-3.29360E-05-3.36447E-05 8.78974E-06 9.71222E-19-5.15803E-19
 -1      3827 7.02470E-05-1.61911E-05-2.29978E-05 1.52942E-05-1.73907E-18 1.35557E-18
 -1      3828 1.06825E-04-2.15426E-05-3.65366E-05-8.56759E-06 1.61120E-18-1.83742E-18
 -1      3829 1.07752E-04-1.39948E-05-4.02701E-05-2.35508E-06 2.59860E-18-6.40529E-19
 -1      3830 1.08463E-04-2.50641E-05-3.58249E-05-1.05359E-05 1.18982E-18-2.08026E-18
 -1      3831 9.52408E-05-2.85760E-05-2.85707E-05-5.35248E-09 1.29593E-18 4.01757E-19
 -1      3832 1.08846E-04-4.20184E-05-2.85683E-05 1.05437E-05-1.77168E-18-6.41507E-19
 -1      3833 1.07388E-04-4.26645E-05-2.77151E-05 1.61061E-05-2.57103E-18-5.55682E-19
 -1      3834 1.01400E-04-3.80025E-05-2.72294E-05 1.60549E-05-2.57940E-18-3.26280E-19
 -1      3835 5.27873E-05-1.00836E-06-2.19783E-05 3.79002E-06-8.86870E-19-4.47149E-18
 -1      3836 9.36879E-05-3.23653E-05-2.62112E-05 1.81669E-05-2.77748E-18-8.30096E-19
 -1      3837 8.83019E-05-2.99778E-05-2.49389E-05 2.20731E-05-3.01538E-18-5.77132E-20
 -1      3838 8.37958E-05-2.54409E-05-2.50895E-05 1.83277E-05-2.76722E-18-9.45501E-20
 -1      3839 1.04380E-04-2.31163E-05-3.48591E-05 9.03712E-06 2.02207E-18-5.23920E-19
 -1      3840 1.11452E-04-3.25434E-05-3.37594E-05 1.01530E-05 1.08487E-18-2.87298E-19
 -1      3841 9.52413E-05-2.85762E-05-2.85707E-05-5.86725E-09 1.28831E-18 6.44530E-20
 -1      3842 9.52433E-05-2.85775E-05-2.85710E-05 4.41484E-09-1.34842E-18 8.66157E-19
 -1      3843 9.52425E-05-2.85770E-05-2.85710E-05-5.50903E-09 6.30907E-19-5.91140E-19
 -1      3844 8.55061E-05-2.07640E-05-2.76981E-05 1.86527E-06-5.84953E-19 1.67224E-18
 -1      3845 1.11701E-04-1.41020E-05-4.19674E-05 6.66292E-06 3.13100E-18 1.00741E-19
 -1      3846 1.19397E-04-2.52815E-05-4.05447E-05 1.33642E-05 2.38789E-18 1.14903E-18
 -1      3847 1.15111E-04-2.17125E-05-4.00885E-05 1.26848E-05 2.66208E-18 7.63587E-19
 -1      3848 1.18496E-04-2.88591E-05-3.84259E-05 1.27746E-05 2.08962E-18 7.57049E-19
 -1      3849 9.52444E-05-2.85783E-05-2.85712E-05 5.06506E-10-1.33495E-18 3.03405E-18
 -1      3850 9.52444E-05-2.85782E-05-2.85712E-05-5.70578E-10-3.91802E-19 1.41422E-18
 -1      3851 9.52439E-05-2.85780E-05-2.85711E-05 2.73002E-09-1.63304E-18 1.75649E-18
 -1      3852 9.52442E-05-2.85781E-05-2.85712E-05 1.71058E-09-1.72276E-18 3.50361E-18
 -1      3853 9.52451E-05-2.85786E-05-2.85714E-05 1.17208E-09-1.68456E-18 2.55557E-18
 -1      3854 1.09055E-04-2.70524E-05-3.50940E-05 1.19834E-05 1.75021E-18 8.19529E-20
 -1      3855 1.10218E-04-2.96139E-05-3.45850E-05 1.20951E-05 1.54685E-18 1.70194E-19
 -1      3856 1.16343E-04-4.44235E-05-3.07835E-05 1.98737E-06-6.77607E-19-1.81270E-18
 -1      3857 1.04765E-04-1.57074E-05-3.83232E-05 7.47621E-07 2.36622E-18-7.24680E-19
 -1      3858 7.64048E-05-1.91536E-05-2.44432E-05 1.43080E-05-2.13611E-18 5.00292E-19
 -1      3859 1.11051E-04-3.07795E-05-3.44552E-05 1.15478E-05 1.32767E-18-1.41580E-20
 -1      3860 9.52442E-05-2.85781E-05-2.85712E-05-1.76544E-09 4.78716E-19 1.89066E-18
 -1      3861 9.52438E-05-2.85779E-05-2.85711E-05-2.78412E-09 3.92885E-19 1.31481E-18
 -1      3862 9.52450E-05-2.85785E-05-2.85714E-05-1.25802E-09-2.11570E-19 1.14521E-18
 -1      3863 1.07880E-04-1.47984E-05-3.99517E-05 5.57589E-06 2.85360E-18-3.23977E-19
 -1      3864 1.04162E-04-1.79417E-05-3.69378E-05 4.64000E-06 2.47797E-18-6.24548E-19
 -1      3865 1.05183E-04-1.94955E-05-3.67500E-05 8.07986E-06 2.46661E-18-3.58761E-19
 -1      3866 1.11393E-04-1.82371E-05-4.01114E-05 1.08385E-05 2.77248E-18 4.35071E-19
 -1      3867 8.96946E-05-2.36690E-05-2.83228E-05 6.93528E-07-6.62505E-19 8.02724E-19
 -1      3868 9.05654E-05-2.42263E-05-2.84298E-05 3.62046E-07-2.91340E-19 5.10725E-19
 -1      3869 9.11825E-05-2.46928E-05-2.85141E-05 1.97523E-08-5.38433E-20 5.41577E-19
 -1      3870 9.18211E-05-2.51535E-05-2.85728E-05-1.37432E-07 2.63849E-19 5.86683E-19
 -1      3871 9.10068E-05-2.46573E-05-2.84195E-05 8.56528E-07-3.51995E-19-2.01427E-19
 -1      3872 9.23026E-05-2.55484E-05-2.86211E-05-3.22406E-07-5.10650E-19 1.11002E-19
 -1      3873 9.27649E-05-2.59194E-05-2.86502E-05-3.75900E-07-1.36430E-18-7.51459E-20
 -1      3874 9.20822E-05-2.54286E-05-2.85540E-05 2.56357E-07-5.91473E-19-8.94293E-19
 -1      3875 9.31329E-05-2.62419E-05-2.86754E-05-4.62867E-07-1.05040E-18 9.20580E-21
 -1      3876 9.34647E-05-2.65350E-05-2.86865E-05-4.57844E-07-6.93979E-19 1.57349E-20
 -1      3877 9.29142E-05-2.60891E-05-2.86301E-05-6.86388E-08-1.11569E-18-6.72064E-19
 -1      3878 9.37423E-05-2.67937E-05-2.86971E-05-4.86046E-07-6.42355E-19-3.44069E-19
 -1      3879 9.39796E-05-2.70231E-05-2.86979E-05-4.51939E-07-6.10455E-19-1.46045E-19
 -1      3880 9.35462E-05-2.66374E-05-2.86682E-05-2.21367E-07-9.73969E-19-7.59854E-20
 -1      3881 9.41862E-05-2.72268E-05-2.86998E-05-4.48576E-07-7.48192E-19-5.55560E-19
 -1      3882 9.43545E-05-2.74041E-05-2.86951E-05-4.02741E-07-7.26970E-19-2.38150E-19
 -1      3883 9.40215E-05-2.70844E-05-2.86824E-05-2.73683E-07-1.05536E-18-2.05192E-19
 -1      3884 9.45009E-05-2.75561E-05-2.86923E-05-3.84762E-07-4.56892E-19-6.12174E-19
 -1      3885 9.46152E-05-2.76868E-05-2.86854E-05-3.39469E-07-6.10972E-19-3.53426E-19
 -1      3886 9.43674E-05-2.74319E-05-2.86830E-05-2.69754E-07-3.04420E-19-1.32370E-18
 -1      3887 9.47290E-05-2.78116E-05-2.86799E-05-3.14492E-07-9.70218E-19-9.25159E-19
 -1      3888 9.48144E-05-2.79174E-05-2.86716E-05-2.70614E-07-7.83038E-19-1.40516E-18
 -1      3889 9.46243E-05-2.77081E-05-2.86758E-05-2.39078E-07-9.61674E-19-1.45516E-18
 -1      3890 9.48970E-05-2.80133E-05-2.86649E-05-2.45159E-07-6.17039E-19-1.76245E-18
 -1      3891 9.49566E-05-2.80937E-05-2.86567E-05-2.07338E-07-9.35682E-19-1.22899E-18
 -1      3892 9.48175E-05-2.79297E-05-2.86644E-05-1.97450E-07-8.39836E-19-1.87047E-18
 -1      3893 9.50159E-05-2.81667E-05-2.86499E-05-1.84244E-07-1.04054E-18-1.07964E-18
 -1      3894 9.50572E-05-2.82274E-05-2.86423E-05-1.53155E-07-1.28194E-18-1.28648E-18
 -1      3895 9.49573E-05-2.81009E-05-2.86515E-05-1.54853E-07-5.62003E-19-1.22213E-18
 -1      3896 9.50992E-05-2.82825E-05-2.86358E-05-1.33653E-07-7.69907E-19-8.70251E-19
 -1      3897 9.51274E-05-2.83279E-05-2.86290E-05-1.09026E-07-5.33786E-20-6.74180E-19
 -1      3898 9.50571E-05-2.82319E-05-2.86385E-05-1.16233E-07-3.42403E-19-2.82658E-19
 -1      3899 9.51567E-05-2.83691E-05-2.86232E-05-9.33754E-08 5.30844E-19-9.58864E-19
 -1      3900 9.51756E-05-2.84029E-05-2.86174E-05-7.44650E-08 7.63142E-19-1.47184E-21
 -1      3901 9.51273E-05-2.83311E-05-2.86264E-05-8.36721E-08 2.55703E-19-1.73726E-19
 -1      3902 9.51956E-05-2.84333E-05-2.86123E-05-6.24053E-08-1.59465E-19-5.54119E-19
 -1      3903 9.52080E-05-2.84580E-05-2.86075E-05-4.83753E-08-8.03858E-22-9.76405E-19
 -1      3904 9.51759E-05-2.84053E-05-2.86156E-05-5.76110E-08-1.87849E-19-2.02418E-19
 -1      3905 9.52206E-05-2.84791E-05-2.86034E-05-3.98800E-08-3.80643E-19-9.17127E-19
 -1      3906 9.52281E-05-2.84963E-05-2.85996E-05-3.00021E-08-1.96042E-18-2.72906E-19
 -1      3907 9.52079E-05-2.84590E-05-2.86064E-05-3.80788E-08-6.37679E-19 2.00135E-19
 -1      3908 9.52367E-05-2.85125E-05-2.85960E-05-2.34359E-08-1.68958E-18 3.29111E-19
 -1      3909 9.52414E-05-2.85254E-05-2.85928E-05-1.61398E-08-7.81683E-19 1.38946E-18
 -1      3910 9.52289E-05-2.84980E-05-2.85988E-05-2.34008E-08-8.72180E-19 1.86017E-18
 -1      3911 9.52465E-05-2.85367E-05-2.85899E-05-1.16322E-08-1.20375E-18 1.57524E-18
 -1      3912 9.52490E-05-2.85456E-05-2.85873E-05-6.67153E-09-3.73475E-19 1.05400E-18
 -1      3913 9.52423E-05-2.85269E-05-2.85923E-05-1.26780E-08-7.77008E-19 1.95873E-18
 -1      3914 9.52517E-05-2.85533E-05-2.85850E-05-3.69523E-09 2.46381E-19 8.91049E-19
 -1      3915 9.52528E-05-2.85594E-05-2.85830E-05-4.81480E-10 3.99429E-19 9.81652E-19
 -1      3916 9.52500E-05-2.85469E-05-2.85870E-05-5.25639E-09-1.85491E-19 6.59384E-19
 -1      3917 9.52539E-05-2.85645E-05-2.85812E-05 1.35705E-09 1.66902E-19 1.29332E-18
 -1      3918 9.52540E-05-2.85684E-05-2.85796E-05 3.30709E-09 7.86451E-19 1.40544E-18
 -1      3919 9.52538E-05-2.85605E-05-2.85828E-05-4.04722E-10 5.10461E-19 1.33228E-18
 -1      3920 9.52541E-05-2.85715E-05-2.85782E-05 4.33741E-09 1.77595E-18 6.33447E-19
 -1      3921 9.52537E-05-2.85739E-05-2.85771E-05 5.40038E-09 2.00778E-18 3.02292E-19
 -1      3922 9.52549E-05-2.85693E-05-2.85796E-05 2.56934E-09 7.06951E-19 1.77714E-18
 -1      3923 9.52531E-05-2.85757E-05-2.85760E-05 5.88154E-09 1.30080E-18-3.66103E-19
 -1      3924 9.52523E-05-2.85770E-05-2.85751E-05 6.33624E-09 9.18998E-19-1.44269E-19
 -1      3925 9.52544E-05-2.85747E-05-2.85770E-05 4.21853E-09 1.02099E-18-4.13749E-20
 -1      3926 9.52515E-05-2.85779E-05-2.85744E-05 6.43650E-09 7.22281E-19 1.00985E-18
 -1      3927 9.52506E-05-2.85785E-05-2.85738E-05 6.51751E-09 2.02248E-19 5.91779E-19
 -1      3928 9.52530E-05-2.85776E-05-2.85752E-05 4.94858E-09 1.40649E-18 2.61831E-19
 -1      3929 9.52496E-05-2.85788E-05-2.85732E-05 6.42228E-09-5.20260E-19 9.53270E-19
 -1      3930 9.52486E-05-2.85789E-05-2.85727E-05 6.26034E-09-9.10111E-19 1.56795E-18
 -1      3931 9.52511E-05-2.85790E-05-2.85738E-05 5.10295E-09 6.25423E-19 5.74948E-19
 -1      3932 9.52475E-05-2.85789E-05-2.85723E-05 6.02370E-09-1.13602E-18 1.92727E-18
 -1      3933 9.52466E-05-2.85787E-05-2.85719E-05 5.72429E-09-1.49479E-18 2.26366E-18
 -1      3934 9.52490E-05-2.85793E-05-2.85727E-05 4.89929E-09-3.01101E-19 2.10672E-18
 -1      3935 9.52456E-05-2.85784E-05-2.85716E-05 5.41270E-09-1.46626E-18 2.27964E-18
 -1      3936 9.52447E-05-2.85781E-05-2.85714E-05 5.05213E-09-2.02371E-18 1.55603E-18
 -1      3937 9.52469E-05-2.85790E-05-2.85720E-05 4.49170E-09-1.14208E-18 3.24469E-18
 -1      3938 9.74813E-05-3.11475E-05-2.84096E-05 4.30542E-06-4.18762E-19-7.43823E-19
 -1      3939 9.84757E-05-3.21343E-05-2.84227E-05 4.46367E-06-3.62767E-19-4.71799E-19
 -1      3940 1.17550E-04-3.84883E-05-3.39450E-05-8.68286E-06 3.61152E-19-2.37779E-18
 -1      3941 9.97239E-05-3.32842E-05-2.84395E-05 4.76300E-06-7.52140E-19-5.86492E-19
 -1      3942 1.01079E-04-3.45339E-05-2.85128E-05 4.69113E-06-1.08690E-18-4.91133E-19
 -1      3943 9.84281E-05-3.24863E-05-2.83055E-05 5.70132E-06-6.02235E-19-5.02205E-19
 -1      3944 9.51783E-05-2.86622E-05-2.85032E-05 2.93404E-06-5.43123E-19-4.02521E-19
 -1      3945 9.55893E-05-2.91077E-05-2.84807E-05 3.20499E-06-6.17492E-19-3.38037E-19
 -1      3946 9.47250E-05-2.80858E-05-2.85595E-05 2.30523E-06-2.96450E-19-4.29078E-19
 -1      3947 9.49549E-05-2.83455E-05-2.85377E-05 2.56042E-06-1.54337E-19-3.37282E-19
 -1      3948 9.46170E-05-2.82035E-05-2.84746E-05 2.95709E-06-5.02410E-19-5.76352E-19
 -1      3949 9.45394E-05-2.77992E-05-2.86043E-05 1.77443E-06-3.91673E-19-3.49598E-19
 -1      3950 9.46476E-05-2.79268E-05-2.85875E-05 1.99571E-06-3.61774E-19-5.42618E-19
 -1      3951 9.43355E-05-2.77502E-05-2.85423E-05 2.23327E-06-7.61832E-20-4.59464E-19
 -1      3952 9.45110E-05-2.77002E-05-2.86351E-05 1.34498E-06-3.66360E-19-3.63059E-20
 -1      3953 9.45438E-05-2.77419E-05-2.86242E-05 1.52990E-06-1.99895E-19-1.66286E-19
 -1      3954 9.42751E-05-2.75621E-05-2.85933E-05 1.66482E-06-3.87556E-19 1.63900E-20
 -1      3955 9.45712E-05-2.77196E-05-2.86529E-05 1.00632E-06-3.30334E-19-1.37920E-19
 -1      3956 9.45606E-05-2.77080E-05-2.86475E-05 1.15542E-06-2.65237E-19 1.38567E-19
 -1      3957 9.43367E-05-2.75404E-05-2.86276E-05 1.22360E-06-2.16567E-19 3.99479E-19
 -1      3958 9.46703E-05-2.78015E-05-2.86603E-05 7.44383E-07-2.23544E-19 6.65842E-19
 -1      3959 9.46388E-05-2.77618E-05-2.86591E-05 8.63048E-07-3.50280E-19-4.53437E-21
 -1      3960 9.44584E-05-2.76145E-05-2.86474E-05 8.91341E-07-3.67230E-19 4.38972E-19
 -1      3961 9.47816E-05-2.79131E-05-2.86599E-05 5.43896E-07-3.30231E-19 1.23665E-18
 -1      3962 9.47422E-05-2.78606E-05-2.86619E-05 6.36580E-07 3.90032E-20 1.13443E-18
 -1      3963 9.45997E-05-2.77338E-05-2.86561E-05 6.42725E-07-2.97576E-19 1.06629E-18
 -1      3964 9.48876E-05-2.80314E-05-2.86543E-05 3.92505E-07-1.73618E-18 9.08689E-19
 -1      3965 9.48482E-05-2.79764E-05-2.86583E-05 4.64076E-07-6.32575E-19 9.43503E-19
 -1      3966 9.47387E-05-2.78714E-05-2.86565E-05 4.59575E-07-4.40139E-19 2.33706E-18
 -1      3967 9.49802E-05-2.81432E-05-2.86457E-05 2.79046E-07-1.35836E-18 3.33134E-19
 -1      3968 9.49450E-05-2.80916E-05-2.86507E-05 3.33709E-07-1.97518E-18 2.73154E-19
 -1      3969 9.48625E-05-2.80067E-05-2.86516E-05 3.25299E-07-1.29176E-18 7.56078E-19
 -1      3970 9.50565E-05-2.82421E-05-2.86358E-05 1.94756E-07-7.34780E-19 5.79675E-19
 -1      3971 9.50271E-05-2.81967E-05-2.86411E-05 2.36040E-07-1.12614E-18 5.95410E-19
 -1      3972 9.49664E-05-2.81295E-05-2.86436E-05 2.27301E-07-1.35437E-18 8.00231E-19
 -1      3973 9.51165E-05-2.83254E-05-2.86255E-05 1.32743E-07 2.00639E-19 1.51501E-18
 -1      3974 9.50933E-05-2.82874E-05-2.86308E-05 1.63546E-07-4.54215E-19 1.12622E-18
 -1      3975 9.50496E-05-2.82352E-05-2.86341E-05 1.56178E-07-8.45624E-19 5.88463E-19
 -1      3976 9.51619E-05-2.83931E-05-2.86158E-05 8.76255E-08-6.14211E-19 2.62498E-18
 -1      3977 9.51444E-05-2.83623E-05-2.86207E-05 1.10294E-07 2.23703E-19 1.65804E-18
 -1      3978 9.51138E-05-2.83226E-05-2.86243E-05 1.04892E-07-5.29091E-20 1.50188E-18
 -1      3979 9.51950E-05-2.84463E-05-2.86070E-05 5.52962E-08-1.13263E-18 2.84392E-18
 -1      3980 9.51824E-05-2.84222E-05-2.86113E-05 7.16859E-08-6.70181E-19 2.53566E-18
 -1      3981 9.51617E-05-2.83927E-05-2.86149E-05 6.81757E-08-5.21985E-19 2.07091E-18
 -1      3982 9.52181E-05-2.84869E-05-2.85994E-05 3.25260E-08-3.86767E-19 1.43641E-18
 -1      3983 9.52093E-05-2.84686E-05-2.86031E-05 4.41915E-08-1.04647E-18 2.50454E-18
 -1      3984 9.51961E-05-2.84471E-05-2.86064E-05 4.24311E-08-6.39982E-19 2.04073E-18
 -1      3985 9.52335E-05-2.85172E-05-2.85929E-05 1.68362E-08 4.34873E-19 2.32740E-19
 -1      3986 9.52278E-05-2.85036E-05-2.85960E-05 2.48998E-08 7.35842E-19 6.33214E-19
 -1      3987 9.52198E-05-2.84884E-05-2.85990E-05 2.43290E-08 5.98260E-19 1.49304E-18
 -1      3988 9.52431E-05-2.85390E-05-2.85876E-05 6.35860E-09 1.24417E-19 4.51008E-19
 -1      3989 9.52396E-05-2.85293E-05-2.85901E-05 1.17749E-08-5.24215E-20 2.57661E-19
 -1      3990 9.52353E-05-2.85188E-05-2.85927E-05 1.21187E-08 3.45212E-19 2.98873E-19
 -1      3991 9.52485E-05-2.85544E-05-2.85833E-05-3.66109E-10-1.12206E-18 4.95122E-19
 -1      3992 9.52467E-05-2.85476E-05-2.85853E-05 3.11609E-09-2.81596E-19 3.92487E-19
 -1      3993 9.52449E-05-2.85406E-05-2.85875E-05 4.01907E-09-2.35988E-19 1.23945E-18
 -1      3994 9.52511E-05-2.85647E-05-2.85799E-05-4.40834E-09-1.79717E-18 3.95324E-19
 -1      3995 9.52504E-05-2.85601E-05-2.85815E-05-2.30979E-09-1.69890E-18 1.36940E-19
 -1      3996 9.52502E-05-2.85558E-05-2.85833E-05-1.10091E-09-1.01611E-18 1.16943E-18
 -1      3997 9.52517E-05-2.85713E-05-2.85773E-05-6.58814E-09 5.37951E-19 3.99214E-19
 -1      3998 9.52517E-05-2.85684E-05-2.85785E-05-5.45480E-09-2.33703E-19 4.49344E-20
 -1      3999 9.52526E-05-2.85660E-05-2.85800E-05-4.12072E-09-5.41406E-19 1.85132E-18
 -1      4000 9.52511E-05-2.85753E-05-2.85753E-05-7.51534E-09 2.29982E-18-6.83130E-19
 -1      4001 9.52515E-05-2.85736E-05-2.85762E-05-7.03453E-09 1.45776E-18-4.62625E-19
 -1      4002 9.52529E-05-2.85724E-05-2.85774E-05-5.69961E-09 1.84172E-18 2.37184E-19
 -1      4003 9.52497E-05-2.85774E-05-2.85739E-05-7.63185E-09 7.38069E-19-1.51397E-18
 -1      4004 9.52504E-05-2.85765E-05-2.85745E-05-7.57161E-09 1.50090E-18-1.13561E-18
 -1      4005 9.52521E-05-2.85762E-05-2.85754E-05-6.31764E-09 2.21086E-18-2.56379E-19
 -1      4006 9.52481E-05-2.85782E-05-2.85728E-05-7.24639E-09 2.81256E-19-2.55391E-18
 -1      4007 9.52488E-05-2.85779E-05-2.85732E-05-7.44853E-09 8.26503E-19-2.21151E-18
 -1      4008 9.52506E-05-2.85781E-05-2.85739E-05-6.31695E-09 8.81918E-19-1.51239E-18
 -1      4009 9.52463E-05-2.85783E-05-2.85720E-05-6.59814E-09-1.69157E-18-1.51260E-18
 -1      4010 9.52471E-05-2.85783E-05-2.85723E-05-6.94219E-09-1.19478E-18-1.76759E-18
 -1      4011 9.52487E-05-2.85788E-05-2.85728E-05-5.94769E-09-1.41425E-18-1.81717E-18
 -1      4012 9.52445E-05-2.85779E-05-2.85714E-05-5.82343E-09-9.84315E-19-1.29980E-18
 -1      4013 9.52453E-05-2.85781E-05-2.85717E-05-6.21818E-09-1.54506E-18-1.00028E-18
 -1      4014 9.52468E-05-2.85787E-05-2.85720E-05-5.39021E-09-1.74232E-18-1.34601E-18
 -1      4015 1.06796E-04-2.24150E-05-3.62506E-05 1.03527E-05 2.19411E-18-2.26024E-19
 -1      4016 9.52443E-05-2.85780E-05-2.85713E-05 4.13090E-09-2.23031E-18 1.26834E-18
 -1      4017 9.52442E-05-2.85780E-05-2.85712E-05-3.58669E-09 2.09073E-19-5.39591E-19
 -1      4018 9.52433E-05-2.85775E-05-2.85710E-05-3.87711E-09 6.76584E-19-1.15327E-18
 -1      4019 1.10460E-04-2.42008E-05-3.69964E-05 1.16102E-05 2.15348E-18 2.57432E-19
 -1      4020 9.60355E-05-2.96394E-05-2.84458E-05 3.62813E-06-7.68717E-19-5.39583E-19
 -1      4021 9.67022E-05-3.03302E-05-2.84322E-05 3.87977E-06-5.85237E-19-8.56289E-19
 -1      4022 9.64420E-05-3.04041E-05-2.83288E-05 4.77978E-06-4.74174E-19-7.07285E-19
 -1      4023 9.52427E-05-2.85772E-05-2.85710E-05-4.57055E-09 9.98969E-19-2.14918E-18
 -1      4024 1.02914E-04-3.60423E-05-2.86134E-05 4.75524E-06-9.18885E-19-5.05985E-19
 -1      4025 1.04682E-04-3.74435E-05-2.88003E-05 4.19013E-06-6.98783E-19-5.05585E-19
 -1      4026 1.01385E-04-3.51574E-05-2.84078E-05 6.24464E-06-9.32472E-19-3.78414E-19
 -1      4027 8.22711E-05-2.01730E-05-2.66933E-05 6.74833E-06-2.95511E-19 2.41049E-20
 -1      4028 8.42951E-05-2.08499E-05-2.71720E-05 5.15596E-06-5.49992E-20 4.70138E-19
 -1      4029 1.15248E-04-3.95831E-05-3.24320E-05-6.35401E-06 2.23079E-19-1.91359E-18
 -1      4030 1.13196E-04-3.19248E-05-3.48103E-05 1.09436E-05 1.17141E-18 1.28488E-19
 -1      4031 1.16538E-04-3.05596E-05-3.68803E-05 1.21001E-05 1.48559E-18 4.81591E-19
 -1      4032 1.14849E-04-4.13188E-05-3.15878E-05-4.50677E-06-1.46527E-19-1.77991E-18
 -1      4033 8.03806E-05-2.18192E-05-2.50099E-05 1.56090E-05-2.04810E-18-1.91772E-19
 -1      4034 7.82938E-05-1.93737E-05-2.53564E-05 1.14903E-05-1.37153E-18-1.46540E-19
 -1      4035 8.08642E-05-1.98214E-05-2.61257E-05 9.00118E-06-9.83230E-19 1.40676E-19
 -1      4036 8.58115E-05-2.51353E-05-2.59413E-05 1.47772E-05-2.14468E-18-4.09191E-19
 -1      4037 8.78520E-05-2.25614E-05-2.80202E-05 1.80882E-06-5.86477E-19 7.68021E-19
 -1      4038 8.89603E-05-2.31711E-05-2.81915E-05 1.24484E-06-7.91501E-19 7.33722E-19
 -1      4039 8.96842E-05-2.38298E-05-2.82035E-05 1.85476E-06-4.42784E-19 2.23886E-19
 -1      4040 8.53766E-05-2.13233E-05-2.75073E-05 3.72503E-06-4.07045E-19 8.90529E-19
 -1      4041 8.69166E-05-2.20187E-05-2.78039E-05 2.72886E-06-9.27021E-20 9.66585E-19
 -1      4042 8.60977E-05-2.22819E-05-2.73222E-05 5.99132E-06 1.03718E-19-6.27745E-19
 -1      4043 9.52461E-05-2.85790E-05-2.85716E-05-7.56566E-10-1.31615E-18 1.30267E-18
 -1      4044 9.52459E-05-2.85788E-05-2.85716E-05-1.95070E-09-7.01540E-19 1.60983E-18
 -1      4045 9.52465E-05-2.85789E-05-2.85718E-05-3.27121E-09-1.78439E-18-3.87943E-19
 -1      4046 9.52454E-05-2.85785E-05-2.85715E-05-3.73427E-09-2.53411E-19 5.69377E-19
 -1      4047 9.78638E-05-3.49855E-05-2.69019E-05 1.62962E-05-2.07642E-18-5.72106E-19
 -1      4048 9.34914E-05-3.13260E-05-2.67090E-05 1.52247E-05-1.87607E-18-2.77292E-19
 -1      4049 1.01030E-04-3.64341E-05-2.76555E-05 1.26695E-05-1.68459E-18 3.12160E-19
 -1      4050 9.52454E-05-2.85786E-05-2.85715E-05 3.30640E-09-2.08249E-18 2.60357E-18
 -1      4051 1.14758E-04-3.14170E-05-3.55953E-05 1.15519E-05 1.24219E-18 3.58394E-19
 -1      4052 9.52447E-05-2.85781E-05-2.85714E-05-4.84166E-09-3.26744E-19-1.83045E-18
 -1      4053 1.13945E-04-4.31656E-05-3.02746E-05 2.00480E-06-6.61205E-19-1.73765E-18
 -1      4054 9.52459E-05-2.85789E-05-2.85716E-05 1.83098E-09-2.20194E-18 2.24025E-18
 -1      4055 9.52461E-05-2.85790E-05-2.85716E-05 6.36363E-10-1.68799E-18 1.45926E-18
 -1      4056 9.52470E-05-2.85793E-05-2.85719E-05-7.72940E-11-2.04204E-18 7.06645E-19
 -1      4057 9.52567E-05-2.90361E-05-2.83975E-05 3.81938E-06-6.56700E-19-5.86530E-19
 -1      4058 1.11772E-04-4.25022E-05-2.96492E-05 3.72587E-06-7.93326E-19-1.41453E-18
 -1      4059 8.37312E-05-2.18973E-05-2.64585E-05 9.91512E-06-7.16673E-19-8.35905E-19
 -1      4060 8.80597E-05-2.29949E-05-2.78614E-05 3.45653E-06-3.93744E-19 1.47207E-19
 -1      4061 1.08291E-04-3.98182E-05-2.92969E-05 2.90307E-06-6.96423E-19-7.37905E-19
 -1      4062 1.09462E-04-4.20628E-05-2.89574E-05 7.83600E-06-1.32534E-18-8.34102E-19
 -1      4063 1.05380E-04-3.92289E-05-2.83696E-05 9.24332E-06-1.51954E-18-1.78426E-19
 -1      4064 1.06246E-04-3.85630E-05-2.89328E-05 4.13423E-06-7.86276E-19-5.47180E-19
 -1      4065 1.13999E-04-2.82416E-05-3.69684E-05 1.29170E-05 1.69988E-18 3.10987E-19
 -1      4066 1.04741E-04-3.80970E-05-2.86211E-05 6.48976E-06-8.63907E-19-3.94811E-19
 -1      4067 9.19604E-05-2.54862E-05-2.85064E-05 7.85163E-07-8.60556E-19-4.28033E-19
 -1      4068 9.24442E-05-2.58037E-05-2.85574E-05 5.43322E-07-8.81356E-19-1.13317E-18
 -1      4069 9.27757E-05-2.60757E-05-2.85963E-05 3.10763E-07-8.47426E-19-6.63245E-19
 -1      4070 9.31381E-05-2.63482E-05-2.86244E-05 1.77981E-07-7.65793E-19-3.60059E-19
 -1      4071 9.27473E-05-2.61093E-05-2.85577E-05 7.88425E-07-5.33602E-19 1.52272E-20
 -1      4072 9.34100E-05-2.65843E-05-2.86460E-05 4.54649E-08-9.47736E-19 3.00611E-19
 -1      4073 9.36850E-05-2.68149E-05-2.86588E-05-1.72525E-08-1.03676E-18 7.97540E-20
 -1      4074 9.33360E-05-2.65425E-05-2.86180E-05 3.92718E-07-4.85487E-19 1.40148E-19
 -1      4075 9.38944E-05-2.70132E-05-2.86690E-05-8.65535E-08-1.18456E-18-2.76565E-20
 -1      4076 9.41034E-05-2.72017E-05-2.86727E-05-1.06066E-07-8.34583E-19 3.41591E-20
 -1      4077 9.38029E-05-2.69396E-05-2.86498E-05 1.60824E-07-1.15076E-18-6.31771E-20
 -1      4078 9.42609E-05-2.73604E-05-2.86755E-05-1.38997E-07-7.05891E-19-3.60665E-19
 -1      4079 9.44098E-05-2.75057E-05-2.86740E-05-1.36538E-07-7.31380E-19-8.14814E-19
 -1      4080 9.41744E-05-2.72787E-05-2.86639E-05 3.43794E-08-8.46702E-19-2.16358E-19
 -1      4081 9.45385E-05-2.76417E-05-2.86725E-05-1.49927E-07-3.26818E-19-4.09284E-19
 -1      4082 9.46538E-05-2.77639E-05-2.86680E-05-1.36549E-07-1.03469E-18-1.26078E-19
 -1      4083 9.44615E-05-2.75632E-05-2.86662E-05-2.85549E-08-2.35858E-19-4.83936E-19
 -1      4084 9.47513E-05-2.78726E-05-2.86639E-05-1.37738E-07-1.24363E-18-2.81993E-19
 -1      4085 9.48349E-05-2.79683E-05-2.86580E-05-1.20244E-07-9.32056E-19-4.65855E-19
 -1      4086 9.46868E-05-2.78019E-05-2.86614E-05-5.49828E-08-9.83548E-19-7.82453E-20
 -1      4087 9.49076E-05-2.80538E-05-2.86527E-05-1.15613E-07-4.49676E-19-2.84575E-19
 -1      4088 9.49676E-05-2.81280E-05-2.86463E-05-9.78878E-08-3.35576E-19-1.51764E-19
 -1      4089 9.48563E-05-2.79938E-05-2.86526E-05-5.99464E-08-7.46087E-19 1.84270E-19
 -1      4090 9.50210E-05-2.81943E-05-2.86406E-05-9.11218E-08-7.27664E-20-3.06284E-19
 -1      4091 9.50635E-05-2.82512E-05-2.86344E-05-7.51471E-08 5.73131E-19 3.31818E-19
 -1      4092 9.49817E-05-2.81455E-05-2.86420E-05-5.43473E-08-7.66556E-20 1.98107E-19
 -1      4093 9.51019E-05-2.83019E-05-2.86289E-05-6.82130E-08 4.79944E-19-5.61406E-19
 -1      4094 9.51315E-05-2.83450E-05-2.86232E-05-5.47853E-08 1.48227E-19-5.25841E-19
 -1      4095 9.50728E-05-2.82634E-05-2.86311E-05-4.45497E-08 4.18963E-19-9.89471E-19
 -1      4096 9.51585E-05-2.83831E-05-2.86182E-05-4.85656E-08-1.13650E-19 5.35579E-19
 -1      4097 9.51790E-05-2.84155E-05-2.86132E-05-3.76062E-08-3.37679E-19 2.61383E-19
 -1      4098 9.51376E-05-2.83537E-05-2.86207E-05-3.40839E-08 7.18913E-19 9.59526E-21
 -1      4099 9.51965E-05-2.84427E-05-2.86089E-05-3.36284E-08-5.64042E-19 4.60758E-19
 -1      4100 9.52092E-05-2.84650E-05-2.86049E-05-2.55464E-08-1.93474E-19 1.08446E-18
 -1      4101 9.51826E-05-2.84228E-05-2.86114E-05-2.37672E-08-1.66377E-19-2.83818E-19
 -1      4102 9.52219E-05-2.84863E-05-2.86010E-05-2.13556E-08-5.27586E-19 1.86273E-18
 -1      4103 9.52306E-05-2.85038E-05-2.85974E-05-1.53522E-08-6.85787E-19 2.11322E-18
 -1      4104 9.52123E-05-2.84703E-05-2.86033E-05-1.65236E-08-1.63579E-19-1.50762E-19
 -1      4105 9.52384E-05-2.85187E-05-2.85942E-05-1.24989E-08-8.70744E-19 1.91441E-18
 -1      4106 9.52436E-05-2.85310E-05-2.85913E-05-8.05289E-09-7.85163E-19 1.27004E-18
 -1      4107 9.52324E-05-2.85071E-05-2.85963E-05-1.03862E-08-1.13376E-18 1.38750E-18
 -1      4108 9.52483E-05-2.85415E-05-2.85886E-05-6.14635E-09-3.16202E-19 1.63623E-18
 -1      4109 9.52511E-05-2.85499E-05-2.85863E-05-3.09072E-09 1.25542E-19 1.89168E-18
 -1      4110 9.52450E-05-2.85336E-05-2.85905E-05-5.75616E-09-3.05095E-19 1.40278E-18
 -1      4111 9.52534E-05-2.85571E-05-2.85841E-05-1.86513E-09 1.16398E-19 8.88689E-19
 -1      4112 9.52546E-05-2.85627E-05-2.85823E-05 1.41414E-10 5.51221E-19 7.53423E-19
 -1      4113 9.52519E-05-2.85518E-05-2.85857E-05-2.53795E-09-3.32836E-19 8.31644E-19
 -1      4114 9.52555E-05-2.85673E-05-2.85806E-05 8.65243E-10 9.22230E-19 8.30210E-19
 -1      4115 9.52556E-05-2.85708E-05-2.85792E-05 2.10476E-09 9.17613E-19 1.12901E-18
 -1      4116 9.52551E-05-2.85640E-05-2.85819E-05-3.84667E-10 3.56178E-19-2.30159E-19
 -1      4117 9.52554E-05-2.85736E-05-2.85779E-05 2.46623E-09 7.33116E-19 1.06124E-18
 -1      4118 9.52549E-05-2.85757E-05-2.85768E-05 3.17487E-09 8.15778E-19 7.23185E-19
 -1      4119 9.52558E-05-2.85718E-05-2.85789E-05 9.58009E-10 7.00493E-19 9.53690E-19
 -1      4120 9.52542E-05-2.85772E-05-2.85758E-05 3.25409E-09 1.42285E-18 9.76803E-19
 -1      4121 9.52534E-05-2.85783E-05-2.85751E-05 3.55425E-09 1.69077E-18 9.99399E-19
 -1      4122 9.52551E-05-2.85764E-05-2.85766E-05 1.70540E-09 1.56071E-18 2.06481E-18
 -1      4123 9.52524E-05-2.85790E-05-2.85743E-05 3.61656E-09 1.70718E-18 1.61329E-18
 -1      4124 9.52514E-05-2.85794E-05-2.85737E-05 3.68511E-09 2.08941E-18 1.61026E-18
 -1      4125 9.52533E-05-2.85786E-05-2.85749E-05 2.09822E-09 2.32379E-18 3.08311E-18
 -1      4126 9.52502E-05-2.85796E-05-2.85731E-05 3.54308E-09 2.99808E-19 2.51025E-18
 -1      4127 9.52492E-05-2.85796E-05-2.85727E-05 3.45327E-09-6.45741E-19 3.46902E-18
 -1      4128 9.52513E-05-2.85797E-05-2.85736E-05 2.14623E-09 1.30257E-18 4.65415E-18
 -1      4129 9.52434E-05-2.85774E-05-2.85711E-05-5.55697E-09 1.40502E-19-1.29516E-18
 -1      4130 9.67500E-05-3.10323E-05-2.81450E-05 6.45350E-06-4.61120E-19-3.69160E-19
 -1      4131 9.79443E-05-3.22949E-05-2.81389E-05 6.96677E-06-3.60968E-19 3.85466E-22
 -1      4132 9.39056E-05-2.73434E-05-2.85334E-05 2.05560E-06-4.18658E-19 2.40034E-19
 -1      4133 9.39957E-05-2.74603E-05-2.85021E-05 2.38224E-06-2.08033E-19-9.65482E-20
 -1      4134 9.39741E-05-2.75922E-05-2.84546E-05 2.82712E-06-4.65151E-19-6.54251E-19
 -1      4135 9.41973E-05-2.78676E-05-2.84142E-05 3.24758E-06-5.43751E-19-3.33626E-19
 -1      4136 9.35279E-05-2.71660E-05-2.84433E-05 2.65580E-06-4.78253E-19-4.93518E-19
 -1      4137 9.41637E-05-2.73777E-05-2.86262E-05 1.04122E-06-4.30952E-19 4.57722E-19
 -1      4138 9.41103E-05-2.73362E-05-2.86125E-05 1.22959E-06-5.98323E-19 1.18491E-19
 -1      4139 9.43486E-05-2.75156E-05-2.86467E-05 7.32965E-07-3.39701E-19 8.56796E-19
 -1      4140 9.42820E-05-2.74503E-05-2.86395E-05 8.74276E-07-2.91434E-19 1.12912E-18
 -1      4141 9.40642E-05-2.72713E-05-2.86271E-05 8.72393E-07-9.06248E-19 5.33474E-19
 -1      4142 9.45366E-05-2.76825E-05-2.86552E-05 5.11235E-07-4.47126E-19 1.67125E-18
 -1      4143 9.44675E-05-2.76048E-05-2.86530E-05 6.13337E-07-6.87251E-19 1.25701E-18
 -1      4144 9.42995E-05-2.74494E-05-2.86461E-05 5.91538E-07-8.73191E-19 1.37462E-18
 -1      4145 9.47036E-05-2.78475E-05-2.86552E-05 3.54463E-07-8.74027E-19 1.82671E-18
 -1      4146 9.46390E-05-2.77704E-05-2.86565E-05 4.28781E-07-5.35793E-19 1.70480E-18
 -1      4147 9.45144E-05-2.76463E-05-2.86540E-05 3.99325E-07-7.78239E-19 1.70011E-18
 -1      4148 9.48445E-05-2.79990E-05-2.86501E-05 2.43541E-07-4.51237E-19 6.81855E-19
 -1      4149 9.47885E-05-2.79284E-05-2.86535E-05 2.97551E-07-4.09059E-19 1.86967E-18
 -1      4150 9.46967E-05-2.78302E-05-2.86538E-05 2.67368E-07-5.64832E-19 1.42788E-18
 -1      4151 9.49585E-05-2.81308E-05-2.86420E-05 1.65410E-07-1.36895E-18 9.24799E-19
 -1      4152 9.49125E-05-2.80696E-05-2.86465E-05 2.04554E-07-1.06116E-18 1.02647E-18
 -1      4153 9.48458E-05-2.79930E-05-2.86485E-05 1.77637E-07-3.18063E-19 1.07830E-18
 -1      4154 9.50475E-05-2.82408E-05-2.86325E-05 1.10542E-07-3.36060E-19 5.03205E-19
 -1      4155 9.50112E-05-2.81899E-05-2.86374E-05 1.38820E-07-1.10219E-18 8.20926E-19
 -1      4156 9.49634E-05-2.81309E-05-2.86404E-05 1.16839E-07-1.14679E-18 3.57529E-19
 -1      4157 9.51146E-05-2.83298E-05-2.86228E-05 7.21624E-08-1.83014E-19 6.87484E-19
 -1      4158 9.50872E-05-2.82888E-05-2.86277E-05 9.25051E-08-2.72260E-19 5.15843E-19
 -1      4159 9.50535E-05-2.82441E-05-2.86310E-05 7.57295E-08-6.27785E-19 3.32119E-19
 -1      4160 9.51638E-05-2.83999E-05-2.86137E-05 4.54584E-08-8.03608E-19 1.18277E-18
 -1      4161 9.51436E-05-2.83677E-05-2.86182E-05 6.00227E-08-3.37854E-19 1.21467E-18
 -1      4162 9.51206E-05-2.83343E-05-2.86215E-05 4.80430E-08-6.36497E-19-1.04307E-19
 -1      4163 9.51991E-05-2.84540E-05-2.86053E-05 2.70749E-08-6.26113E-19 5.89059E-19
 -1      4164 9.51845E-05-2.84294E-05-2.86094E-05 3.70141E-08-3.95066E-19 1.26894E-18
 -1      4165 9.51685E-05-2.84043E-05-2.86125E-05 2.93098E-08-1.01191E-18-4.38332E-19
 -1      4166 9.52223E-05-2.84940E-05-2.85981E-05 1.47220E-08 1.06682E-18 6.49062E-19
 -1      4167 9.52127E-05-2.84756E-05-2.86016E-05 2.19158E-08 2.33590E-19 8.38899E-19
 -1      4168 9.52037E-05-2.84593E-05-2.86044E-05 1.65759E-08-8.15243E-20-9.53727E-19
 -1      4169 9.52376E-05-2.85234E-05-2.85920E-05 6.39187E-09 6.51388E-19 4.06159E-19
 -1      4170 9.52316E-05-2.85101E-05-2.85949E-05 1.12787E-08 1.00233E-18 2.55043E-19
 -1      4171 9.52255E-05-2.84978E-05-2.85974E-05 8.40654E-09 1.58000E-18-1.24880E-18
 -1      4172 9.52469E-05-2.85442E-05-2.85870E-05 1.06090E-09-5.31047E-19 3.90967E-19
 -1      4173 9.52434E-05-2.85349E-05-2.85893E-05 4.28545E-09-6.10530E-20 3.09302E-19
 -1      4174 9.52402E-05-2.85264E-05-2.85914E-05 3.16950E-09 5.39592E-19-1.64359E-19
 -1      4175 9.52519E-05-2.85586E-05-2.85829E-05-2.17995E-09-1.30746E-18 1.72301E-18
 -1      4176 9.52501E-05-2.85522E-05-2.85848E-05-1.41993E-10-6.02091E-19 9.26475E-19
 -1      4177 9.52488E-05-2.85466E-05-2.85866E-05-1.31873E-10-8.96650E-19-3.88043E-19
 -1      4178 9.52539E-05-2.85680E-05-2.85797E-05-3.99659E-09 7.09570E-19 3.19569E-19
 -1      4179 9.52533E-05-2.85639E-05-2.85812E-05-2.79213E-09-9.37702E-19 1.61124E-18
 -1      4180 9.52532E-05-2.85604E-05-2.85826E-05-2.09497E-09-7.55482E-19 8.02848E-19
 -1      4181 9.52540E-05-2.85739E-05-2.85772E-05-4.85077E-09 2.87254E-18-1.47765E-19
 -1      4182 9.52542E-05-2.85713E-05-2.85783E-05-4.22067E-09 2.02030E-18 6.88962E-19
 -1      4183 9.52548E-05-2.85694E-05-2.85795E-05-3.15070E-09 1.29472E-18-6.02100E-20
 -1      4184 9.52529E-05-2.85772E-05-2.85753E-05-5.04819E-09 2.72314E-18 8.08659E-19
 -1      4185 9.52535E-05-2.85758E-05-2.85761E-05-4.83687E-09 2.60769E-18 5.57265E-19
 -1      4186 9.52546E-05-2.85749E-05-2.85770E-05-3.61869E-09 2.54166E-18 1.59838E-18
 -1      4187 9.52511E-05-2.85788E-05-2.85738E-05-4.94122E-09 6.49345E-19-2.05358E-19
 -1      4188 9.52520E-05-2.85782E-05-2.85745E-05-4.96845E-09 2.64571E-18 5.25249E-19
 -1      4189 9.52532E-05-2.85779E-05-2.85752E-05-3.59545E-09 2.74611E-18 1.56861E-18
 -1      4190 9.52491E-05-2.85793E-05-2.85728E-05-4.52394E-09-1.10683E-18-1.76454E-18
 -1      4191 9.52501E-05-2.85791E-05-2.85733E-05-4.69376E-09-9.58709E-19-2.00925E-18
 -1      4192 9.52514E-05-2.85793E-05-2.85738E-05-3.47248E-09 6.01467E-19 3.26750E-19
 -1      4193 9.52473E-05-2.85791E-05-2.85721E-05-3.74889E-09-2.92943E-18-8.80116E-19
 -1      4194 9.52483E-05-2.85793E-05-2.85724E-05-3.98245E-09-2.71421E-18-1.52394E-18
 -1      4195 9.52495E-05-2.85797E-05-2.85728E-05-2.87667E-09-2.29875E-18-1.35730E-18
 -1      4196 9.52478E-05-2.85795E-05-2.85722E-05-1.95787E-09-2.76716E-18 5.11852E-19
 -1      4197 9.51881E-05-2.92845E-05-2.82418E-05 5.06901E-06-6.18381E-19-4.34586E-19
 -1      4198 9.59737E-05-3.01074E-05-2.82071E-05 5.59263E-06-5.38074E-19-7.12097E-19
 -1      4199 9.52540E-05-2.98523E-05-2.80399E-05 6.77184E-06-4.12504E-19-1.02194E-19
 -1      4200 9.09669E-05-2.48598E-05-2.83553E-05 1.58832E-06-3.12818E-19-7.68501E-19
 -1      4201 9.15923E-05-2.52068E-05-2.84418E-05 1.16235E-06-7.63922E-19-5.64276E-19
 -1      4202 9.20458E-05-2.56443E-05-2.84511E-05 1.45695E-06-8.70151E-19 6.96782E-20
 -1      4203 1.11589E-04-2.18615E-05-3.84008E-05 1.14773E-05 2.65217E-18 1.17767E-19
 -1      4204 8.98576E-05-2.42827E-05-2.81305E-05 2.79364E-06-5.89947E-19-2.25093E-19
 -1      4205 9.05856E-05-2.46121E-05-2.82597E-05 2.14199E-06-3.74794E-19-3.37455E-19
 -1      4206 9.12611E-05-2.52332E-05-2.82916E-05 2.45396E-06-6.16084E-19-2.13199E-19
 -1      4207 8.85063E-05-2.37912E-05-2.77731E-05 4.72869E-06-2.86265E-19-4.39337E-19
 -1      4208 8.94177E-05-2.40800E-05-2.79833E-05 3.67225E-06-5.68959E-19-2.86480E-19
 -1      4209 9.04420E-05-2.49497E-05-2.80574E-05 3.93778E-06-4.11330E-19-3.75160E-19
 -1      4210 9.52465E-05-2.85790E-05-2.85718E-05 2.78414E-09-2.34937E-18 2.20514E-18
 -1      4211 9.40011E-05-2.73016E-05-2.85898E-05 1.47340E-06-9.24526E-19 3.69993E-19
 -1      4212 9.39983E-05-2.73223E-05-2.85675E-05 1.71725E-06-7.11392E-19 1.23985E-19
 -1      4213 9.36123E-05-2.70433E-05-2.85289E-05 1.85563E-06-7.28300E-19-2.12636E-19
 -1      4214 8.90831E-05-2.73109E-05-2.64571E-05 1.42553E-05-1.69004E-18-1.95625E-19
 -1      4215 8.54798E-05-2.40737E-05-2.63907E-05 1.20262E-05-1.17390E-18-4.32290E-19
 -1      4216 8.68424E-05-2.39267E-05-2.69161E-05 9.55130E-06-4.58844E-19-6.35248E-19
 -1      4217 8.71008E-05-2.36550E-05-2.72446E-05 7.59507E-06 2.19014E-19-9.94145E-19
 -1      4218 8.81505E-05-2.37696E-05-2.75607E-05 6.01321E-06 2.50767E-19-5.88757E-19
 -1      4219 8.96533E-05-2.49849E-05-2.77100E-05 6.15542E-06 8.74124E-20-9.09529E-19
 -1      4220 9.43537E-05-2.81979E-05-2.83530E-05 3.83108E-06-3.54450E-19-3.58135E-19
 -1      4221 9.47920E-05-2.86904E-05-2.83102E-05 4.31811E-06-4.59980E-19-1.64773E-19
 -1      4222 9.41166E-05-2.83472E-05-2.81895E-05 5.08660E-06-5.76479E-19-1.01131E-19
 -1      4223 9.36260E-05-2.75479E-05-2.83332E-05 3.69205E-06-3.91855E-19-2.33861E-19
 -1      4224 1.03884E-04-3.76189E-05-2.83681E-05 8.24571E-06-1.21971E-18-2.76047E-20
 -1      4225 1.02842E-04-3.75384E-05-2.79874E-05 1.10253E-05-1.66729E-18 3.63445E-19
 -1      4226 9.92203E-05-3.47548E-05-2.76769E-05 1.15148E-05-9.85321E-19 3.49679E-19
 -1      4227 1.02372E-04-3.64399E-05-2.82637E-05 8.12350E-06-1.10315E-18 7.41110E-20
 -1      4228 9.30069E-05-2.97524E-05-2.70676E-05 1.26025E-05-1.11852E-18 5.65266E-20
 -1      4229 8.90557E-05-2.56012E-05-2.71983E-05 9.47931E-06-5.06187E-19-2.25220E-19
 -1      4230 9.52483E-05-2.85795E-05-2.85724E-05 3.19072E-09-1.34454E-18 2.56080E-18
 -1      4231 9.52473E-05-2.85792E-05-2.85720E-05 3.02482E-09-1.64574E-18 2.29548E-18
 -1      4232 9.52477E-05-2.85795E-05-2.85721E-05 1.54138E-09-2.32927E-18 1.15625E-18
 -1      4233 9.52493E-05-2.85798E-05-2.85727E-05 1.92557E-09-1.21532E-18 2.79010E-18
 -1      4234 9.38278E-05-2.71056E-05-2.85901E-05 1.27474E-06-7.64719E-19-1.30369E-19
 -1      4235 1.00499E-04-3.46863E-05-2.81751E-05 7.86920E-06-8.76738E-19 7.64873E-21
 -1      4236 9.52479E-05-2.85796E-05-2.85722E-05 5.34734E-10-2.71790E-18 7.13045E-19
 -1      4237 9.52479E-05-2.85795E-05-2.85722E-05-8.62460E-10-2.42566E-18 1.04429E-18
 -1      4238 9.52488E-05-2.85797E-05-2.85725E-05-1.32929E-09-4.06885E-18 1.31158E-18
 -1      4239 9.52487E-05-2.85797E-05-2.85724E-05 7.37830E-10-2.22627E-18 1.65367E-18
 -1      4240 9.83788E-05-3.31459E-05-2.79714E-05 8.75875E-06-7.37747E-19 5.43338E-19
 -1      4241 9.10906E-05-2.57529E-05-2.80286E-05 4.67789E-06-3.39557E-19-3.19298E-19
 -1      4242 9.15142E-05-2.57730E-05-2.81681E-05 3.77326E-06-2.57957E-19 3.09530E-19
 -1      4243 9.33378E-05-2.66073E-05-2.86008E-05 6.83941E-07-7.07241E-19 4.73322E-19
 -1      4244 9.35701E-05-2.67926E-05-2.86210E-05 5.31404E-07-6.54409E-19 3.98571E-19
 -1      4245 9.38700E-05-2.70634E-05-2.86358E-05 5.06490E-07-9.39541E-19 3.57974E-20
 -1      4246 9.40624E-05-2.72215E-05-2.86466E-05 4.07623E-07-9.80928E-19-1.90303E-20
 -1      4247 9.41861E-05-2.73409E-05-2.86533E-05 3.00148E-07-1.22500E-18 2.41516E-19
 -1      4248 9.43403E-05-2.74762E-05-2.86572E-05 2.44873E-07-7.01718E-19 5.89791E-20
 -1      4249 9.44483E-05-2.75872E-05-2.86590E-05 1.72245E-07-3.28904E-19 3.71437E-20
 -1      4250 9.45751E-05-2.77082E-05-2.86586E-05 1.41723E-07-3.87849E-19 3.89246E-19
 -1      4251 9.46641E-05-2.78056E-05-2.86570E-05 9.33745E-08-4.92468E-19 1.82594E-19
 -1      4252 9.47611E-05-2.79053E-05-2.86538E-05 7.95675E-08-6.89188E-19 4.14150E-19
 -1      4253 9.48321E-05-2.79874E-05-2.86502E-05 4.74901E-08-6.06839E-19 1.44165E-19
 -1      4254 9.49049E-05-2.80679E-05-2.86456E-05 4.30212E-08-9.21881E-19-6.08416E-20
 -1      4255 9.49599E-05-2.81351E-05-2.86411E-05 2.17519E-08-9.25678E-19-2.02462E-19
 -1      4256 9.50136E-05-2.81987E-05-2.86359E-05 2.20849E-08-4.06434E-19-3.49661E-19
 -1      4257 9.50550E-05-2.82523E-05-2.86310E-05 7.99075E-09-5.93210E-19-3.01922E-20
 -1      4258 9.50938E-05-2.83017E-05-2.86259E-05 1.04364E-08-1.12865E-19-6.64531E-19
 -1      4259 9.51242E-05-2.83436E-05-2.86212E-05 1.17616E-09-4.21738E-20-1.05933E-18
 -1      4260 9.51518E-05-2.83815E-05-2.86163E-05 4.27229E-09-2.57337E-19-1.25945E-18
 -1      4261 9.52050E-05-2.84592E-05-2.86051E-05-9.70040E-09-2.58009E-19-1.51451E-18
 -1      4262 9.52165E-05-2.84802E-05-2.86013E-05-7.87688E-09-2.13840E-19-2.15483E-18
 -1      4263 9.52285E-05-2.85027E-05-2.85970E-05-2.98566E-09 4.51322E-19-9.93122E-19
 -1      4264 9.52366E-05-2.85179E-05-2.85938E-05-1.02544E-09 5.82977E-19 3.54189E-19
 -1      4265 9.52426E-05-2.85304E-05-2.85911E-05-2.73334E-09-2.57887E-19 7.10099E-19
 -1      4266 9.52473E-05-2.85410E-05-2.85885E-05-1.20263E-09-3.58144E-19 1.14287E-18
 -1      4267 9.52507E-05-2.85496E-05-2.85862E-05-2.27185E-09-1.23821E-18 1.33934E-18
 -1      4268 9.52531E-05-2.85568E-05-2.85841E-05-1.16346E-09-1.49229E-18 1.10881E-18
 -1      4269 9.52546E-05-2.85626E-05-2.85823E-05-1.80553E-09-1.87955E-19 9.82622E-19
 -1      4270 9.52555E-05-2.85672E-05-2.85807E-05-1.04781E-09 4.86281E-19 6.67115E-19
 -1      4271 9.52559E-05-2.85709E-05-2.85793E-05-1.39807E-09 1.74363E-18 4.20966E-19
 -1      4272 9.52557E-05-2.85737E-05-2.85780E-05-8.96503E-10 1.80720E-18 1.42961E-18
 -1      4273 9.52541E-05-2.85783E-05-2.85753E-05 5.38031E-10 2.55111E-18 2.76950E-18
 -1      4274 9.52532E-05-2.85792E-05-2.85746E-05 6.12938E-10 3.23598E-18 3.55669E-18
 -1      4275 9.52517E-05-2.85797E-05-2.85737E-05-6.47384E-10 1.02215E-18 1.96436E-18
 -1      4276 9.52506E-05-2.85798E-05-2.85732E-05-5.46898E-10-2.67510E-19 2.16755E-18
 -1      4277 9.38982E-05-2.71020E-05-2.86231E-05 7.54825E-07-1.09569E-18 2.16666E-19
 -1      4278 9.37576E-05-2.70111E-05-2.86085E-05 9.23631E-07-9.94930E-19-1.08009E-19
 -1      4279 9.51736E-05-2.84130E-05-2.86119E-05-1.60600E-09-6.32920E-19-1.61163E-18
 -1      4280 9.52119E-05-2.84749E-05-2.86018E-05 5.56716E-09 8.22442E-19-1.84529E-18
 -1      4281 9.51985E-05-2.84531E-05-2.86055E-05 1.08458E-08-7.53889E-19-1.82291E-18
 -1      4282 9.52553E-05-2.85759E-05-2.85769E-05-1.07498E-09 1.75234E-18 1.50678E-18
 -1      4283 9.52532E-05-2.85788E-05-2.85747E-05-2.26689E-09 2.70679E-18 1.79248E-18
 -1      4284 9.52541E-05-2.85780E-05-2.85755E-05-2.28307E-09 2.99789E-18 1.67117E-18
 -1      4285 9.52497E-05-2.85798E-05-2.85728E-05-1.39328E-10-2.77226E-18 2.34246E-18
 -1      4286 9.36233E-05-2.69297E-05-2.85845E-05 1.16341E-06-8.59487E-19 2.39785E-20
 -1      4287 9.22341E-05-2.62484E-05-2.82926E-05 3.18479E-06-4.90143E-19-2.30790E-20
 -1      4288 9.25501E-05-2.63099E-05-2.83781E-05 2.60033E-06-7.86471E-19-6.45995E-20
 -1      4289 9.25887E-05-2.62694E-05-2.84329E-05 2.12325E-06-7.30723E-19 2.01156E-19
 -1      4290 9.29315E-05-2.64261E-05-2.84956E-05 1.69123E-06-3.44260E-19 2.77583E-19
 -1      4291 9.10394E-05-2.75511E-05-2.72318E-05 1.04479E-05-9.17126E-19 4.00499E-19
 -1      4292 9.12777E-05-2.69286E-05-2.75322E-05 8.40693E-06-3.71929E-19 4.41317E-20
 -1      4293 9.30596E-05-2.64900E-05-2.85351E-05 1.34550E-06-6.11602E-19 3.15391E-19
 -1      4294 9.50354E-05-3.09911E-05-2.74448E-05 1.11890E-05-7.37687E-19 3.88561E-19
 -1      4295 9.08397E-05-2.62748E-05-2.76990E-05 7.05955E-06 1.71398E-19-5.86806E-20
 -1      4296 9.11699E-05-2.60207E-05-2.78939E-05 5.71502E-06-1.14412E-19-2.31231E-19
 -1      4297 9.22807E-05-2.68840E-05-2.80196E-05 5.46963E-06-4.54047E-19 4.26367E-19
 -1      4298 9.27125E-05-2.80050E-05-2.77341E-05 7.90454E-06-1.29625E-19 8.41100E-19
 -1      4299 9.29629E-05-2.69528E-05-2.82781E-05 3.74605E-06-3.09952E-19-3.61325E-19
 -1      4300 9.51875E-05-2.84323E-05-2.86091E-05-1.24692E-08-1.65065E-19-1.82636E-18
 -1      4301 9.52549E-05-2.85770E-05-2.85762E-05 3.83738E-10 2.02563E-18 2.24126E-18
 -1      4302 9.67093E-05-3.20507E-05-2.76828E-05 1.00925E-05-5.96736E-19 4.42505E-19
 -1      4303 9.52190E-05-2.84850E-05-2.86003E-05-9.13555E-10 4.55807E-19-1.50454E-18
 -1      4304 9.52528E-05-2.85792E-05-2.85744E-05-6.82714E-10 2.76343E-18 2.98321E-18
 -1      4305 9.30181E-05-2.72199E-05-2.82045E-05 4.40639E-06-5.37109E-19-1.96092E-19
 -1      4306 9.46205E-05-2.98742E-05-2.77802E-05 8.52964E-06-2.87022E-19 5.60042E-19
 -1      4307 9.33321E-05-2.76857E-05-2.81214E-05 5.20426E-06-7.69575E-19-3.50068E-19
 -1      4308 9.34012E-05-2.81284E-05-2.79984E-05 6.23363E-06-5.65554E-19 1.35602E-19
 -1      4309 9.30506E-05-2.63906E-05-2.85645E-05 9.22789E-07-5.56931E-19 4.47018E-19
 -1      4310 9.41775E-05-2.89945E-05-2.79157E-05 7.20057E-06-2.63148E-19 4.85387E-19
 -1      4311 9.52496E-05-2.85799E-05-2.85727E-05 9.14055E-10-2.06586E-18 3.38942E-18
 -3
    1PSTEP                         4           1           1          
  100CL  101 1.000000000        4311                     0    1           1
 -4  ERROR       1    1
 -5  STR(%)      1    1    0    0
 -1         1 2.40122E+01
 -1         2 2.41163E+01
 -1         3 5.20299E-05
 -1         4 5.90154E-05
 -1         5 1.43044E+01
 -1         6 1.13479E+01
 -1         7 1.13479E+01
 -1         8 5.06186E+00
 -1         9 4.35831E+00
 -1        10 3.67516E+00
 -1        11 2.36864E+00
 -1        12 1.48012E+00
 -1        13 1.78901E+00
 -1        14 1.78901E+00
 -1        15 1.65315E+00
 -1        16 1.67329E+00
 -1        17 1.62423E+00
 -1        18 1.54104E+00
 -1        19 1.49920E+00
 -1        20 1.79835E+00
 -1        21 3.50533E+00
 -1        22 8.89421E+00
 -1        23 1.13479E+01
 -1        24 2.02837E+00
 -1        25 3.32200E+00
 -1        26 4.35921E+00
 -1        27 4.35921E+00
 -1        28 4.13116E+00
 -1        29 7.06962E+00
 -1        30 1.37372E+01
 -1        31 1.42515E+01
 -1        32 1.42515E+01
 -1        33 1.07452E+01
 -1        34 4.74483E+00
 -1        35 4.87948E+00
 -1        36 4.87948E+00
 -1        37 4.60885E+00
 -1        38 3.53112E+00
 -1        39 2.54823E+00
 -1        40 1.90261E+00
 -1        41 1.38440E+00
 -1        42 1.02554E+00
 -1        43 7.36021E-01
 -1        44 5.18245E-01
 -1        45 3.60776E-01
 -1        46 2.41429E-01
 -1        47 1.74955E-01
 -1        48 1.19709E-01
 -1        49 8.82136E-02
 -1        50 6.83972E-02
 -1        51 5.27777E-02
 -1        52 4.04990E-02
 -1        53 3.11768E-02
 -1        54 2.36517E-02
 -1        55 1.76896E-02
 -1        56 1.30665E-02
 -1        57 1.05033E-02
 -1        58 8.49521E-03
 -1        59 6.76517E-03
 -1        60 5.24117E-03
 -1        61 4.15229E-03
 -1        62 3.23787E-03
 -1        63 2.49145E-03
 -1        64 1.88099E-03
 -1        65 1.38839E-03
 -1        66 1.06706E-03
 -1        67 8.44892E-04
 -1        68 7.25442E-04
 -1        69 5.77149E-04
 -1        70 4.36766E-04
 -1        71 3.78526E-04
 -1        72 2.45061E-04
 -1        73 1.43044E+01
 -1        74 3.41010E+00
 -1        75 2.54477E+00
 -1        76 2.01620E+00
 -1        77 1.94858E+00
 -1        78 2.17627E+00
 -1        79 2.36563E+00
 -1        80 2.39374E+00
 -1        81 2.64043E+00
 -1        82 2.64043E+00
 -1        83 2.58807E+00
 -1        84 2.26074E+00
 -1        85 1.76516E+00
 -1        86 1.29855E+00
 -1        87 8.61870E-01
 -1        88 5.54219E-01
 -1        89 3.57207E-01
 -1        90 2.10623E-01
 -1        91 1.85693E-01
 -1        92 1.81014E-01
 -1        93 1.74962E-01
 -1        94 1.51009E-01
 -1        95 1.20148E-01
 -1        96 9.48932E-02
 -1        97 7.17276E-02
 -1        98 5.88626E-02
 -1        99 4.60230E-02
 -1       100 3.44383E-02
 -1       101 2.46635E-02
 -1       102 1.74575E-02
 -1       103 1.50966E-02
 -1       104 1.26027E-02
 -1       105 1.02184E-02
 -1       106 8.07617E-03
 -1       107 7.12162E-03
 -1       108 6.18693E-03
 -1       109 5.21428E-03
 -1       110 4.28529E-03
 -1       111 3.44515E-03
 -1       112 2.78288E-03
 -1       113 2.21111E-03
 -1       114 1.72054E-03
 -1       115 1.30858E-03
 -1       116 9.67217E-04
 -1       117 7.16299E-04
 -1       118 5.72199E-04
 -1       119 4.34490E-04
 -1       120 2.86562E-04
 -1       121 1.85039E-04
 -1       122 8.09211E-05
 -1       123 8.09211E-05
 -1       124 6.91733E-05
 -1       125 3.62590E-05
 -1       126 3.53943E-05
 -1       127 5.84863E-05
 -1       128 7.23646E-05
 -1       129 7.64501E-05
 -1       130 7.64501E-05
 -1       131 7.23090E-05
 -1       132 5.78178E-05
 -1       133 3.53602E-05
 -1       134 3.72516E-05
 -1       135 7.36273E-05
 -1       136 8.01193E-05
 -1       137 1.25784E-04
 -1       138 2.39530E+01
 -1       139 4.58347E+01
 -1       140 4.58347E+01
 -1       141 1.75458E+01
 -1       142 1.22514E+01
 -1       143 1.22514E+01
 -1       144 1.17893E+01
 -1       145 1.28336E+01
 -1       146 1.28336E+01
 -1       147 1.17840E+01
 -1       148 2.21173E+01
 -1       149 4.76193E+01
 -1       150 4.76193E+01
 -1       151 2.55080E+01
 -1       152 2.62106E+01
 -1       153 2.64419E+01
 -1       154 3.16112E+01
 -1       155 3.16112E+01
 -1       156 1.30914E+01
 -1       157 1.30914E+01
 -1       158 1.30787E+01
 -1       159 1.30659E+01
 -1       160 1.30036E+01
 -1       161 1.42168E+01
 -1       162 3.46076E+01
 -1       163 3.46076E+01
 -1       164 2.57057E+01
 -1       165 2.49257E+01
 -1       166 7.10080E+00
 -1       167 4.41515E+00
 -1       168 4.21892E+00
 -1       169 3.32577E+00
 -1       170 2.06347E+00
 -1       171 2.02199E+00
 -1       172 2.02199E+00
 -1       173 1.93061E+00
 -1       174 1.76079E+00
 -1       175 1.67329E+00
 -1       176 1.62423E+00
 -1       177 1.54104E+00
 -1       178 1.65451E+00
 -1       179 2.26929E+00
 -1       180 3.98126E+00
 -1       181 1.43044E+01
 -1       182 4.56197E+00
 -1       183 4.27701E+00
 -1       184 3.82375E+00
 -1       185 4.39808E+00
 -1       186 4.68266E+00
 -1       187 4.05090E+00
 -1       188 7.22364E+00
 -1       189 1.37372E+01
 -1       190 1.42515E+01
 -1       191 1.07452E+01
 -1       192 5.77614E+00
 -1       193 4.26610E+00
 -1       194 4.87948E+00
 -1       195 4.60885E+00
 -1       196 3.72974E+00
 -1       197 3.05625E+00
 -1       198 2.52663E+00
 -1       199 1.88221E+00
 -1       200 1.32964E+00
 -1       201 9.06109E-01
 -1       202 6.02371E-01
 -1       203 3.93058E-01
 -1       204 2.63314E-01
 -1       205 1.95405E-01
 -1       206 1.37420E-01
 -1       207 9.59423E-02
 -1       208 6.83972E-02
 -1       209 5.27777E-02
 -1       210 4.04990E-02
 -1       211 3.11768E-02
 -1       212 2.36517E-02
 -1       213 1.79659E-02
 -1       214 1.38785E-02
 -1       215 1.05859E-02
 -1       216 8.49521E-03
 -1       217 6.76517E-03
 -1       218 5.33994E-03
 -1       219 4.35160E-03
 -1       220 3.42787E-03
 -1       221 2.70125E-03
 -1       222 2.11216E-03
 -1       223 1.61814E-03
 -1       224 1.22868E-03
 -1       225 8.83826E-04
 -1       226 7.25442E-04
 -1       227 5.77149E-04
 -1       228 4.36766E-04
 -1       229 3.78526E-04
 -1       230 2.45061E-04
 -1       231 3.41010E+00
 -1       232 2.54477E+00
 -1       233 2.01620E+00
 -1       234 1.84578E+00
 -1       235 1.94858E+00
 -1       236 2.17627E+00
 -1       237 2.36563E+00
 -1       238 2.39374E+00
 -1       239 2.64043E+00
 -1       240 2.58807E+00
 -1       241 2.26074E+00
 -1       242 1.76516E+00
 -1       243 1.29855E+00
 -1       244 9.13312E-01
 -1       245 5.75564E-01
 -1       246 3.57207E-01
 -1       247 2.10623E-01
 -1       248 1.85693E-01
 -1       249 1.81014E-01
 -1       250 1.74962E-01
 -1       251 1.51009E-01
 -1       252 1.20148E-01
 -1       253 9.63344E-02
 -1       254 7.56759E-02
 -1       255 5.88626E-02
 -1       256 4.60230E-02
 -1       257 3.44383E-02
 -1       258 2.51003E-02
 -1       259 1.78646E-02
 -1       260 1.50966E-02
 -1       261 1.26027E-02
 -1       262 1.02184E-02
 -1       263 8.07617E-03
 -1       264 7.12162E-03
 -1       265 6.18693E-03
 -1       266 5.21428E-03
 -1       267 4.28529E-03
 -1       268 3.44515E-03
 -1       269 2.78288E-03
 -1       270 2.21111E-03
 -1       271 1.73778E-03
 -1       272 1.34628E-03
 -1       273 1.01581E-03
 -1       274 7.40487E-04
 -1       275 5.72199E-04
 -1       276 4.34490E-04
 -1       277 2.88229E-04
 -1       278 1.85039E-04
 -1       279 1.09504E-04
 -1       280 1.09504E-04
 -1       281 1.07025E-04
 -1       282 5.97508E-05
 -1       283 1.03863E-04
 -1       284 1.32835E-04
 -1       285 1.44744E-04
 -1       286 1.44760E-04
 -1       287 1.44760E-04
 -1       288 1.32363E-04
 -1       289 1.04600E-04
 -1       290 6.10744E-05
 -1       291 1.05889E-04
 -1       292 1.94937E-04
 -1       293 2.93596E+01
 -1       294 2.77593E+01
 -1       295 4.58347E+01
 -1       296 1.93636E+01
 -1       297 1.04411E+01
 -1       298 1.22514E+01
 -1       299 1.17893E+01
 -1       300 1.16978E+01
 -1       301 1.28336E+01
 -1       302 1.17840E+01
 -1       303 1.14025E+01
 -1       304 2.33531E+01
 -1       305 4.76193E+01
 -1       306 2.87718E+01
 -1       307 3.54428E+01
 -1       308 3.54428E+01
 -1       309 3.14907E+01
 -1       310 3.16112E+01
 -1       311 2.68415E+01
 -1       312 1.25113E+01
 -1       313 1.30914E+01
 -1       314 1.30787E+01
 -1       315 1.30659E+01
 -1       316 1.30036E+01
 -1       317 1.16537E+01
 -1       318 1.42168E+01
 -1       319 3.46076E+01
 -1       320 3.28512E+01
 -1       321 2.49621E+01
 -1       322 2.93596E+01
 -1       323 1.94937E-04
 -1       324 4.50866E+00
 -1       325 4.68101E+00
 -1       326 3.60814E+00
 -1       327 2.48691E+00
 -1       328 2.48691E+00
 -1       329 2.33219E+00
 -1       330 2.18134E+00
 -1       331 1.85958E+00
 -1       332 1.39762E+00
 -1       333 1.15928E+00
 -1       334 1.04691E+00
 -1       335 1.02853E+00
 -1       336 1.13034E+00
 -1       337 2.35891E+00
 -1       338 2.23422E+00
 -1       339 5.21255E+00
 -1       340 5.13858E+00
 -1       341 6.87244E+00
 -1       342 8.88387E+00
 -1       343 7.51108E+00
 -1       344 1.25800E+01
 -1       345 6.39003E+00
 -1       346 7.62354E+00
 -1       347 7.21727E+00
 -1       348 5.25619E+00
 -1       349 4.14571E+00
 -1       350 3.55958E+00
 -1       351 2.91642E+00
 -1       352 2.20351E+00
 -1       353 1.59537E+00
 -1       354 1.12141E+00
 -1       355 7.72754E-01
 -1       356 5.25049E-01
 -1       357 3.47149E-01
 -1       358 2.39505E-01
 -1       359 1.57658E-01
 -1       360 1.02106E-01
 -1       361 6.64997E-02
 -1       362 4.76551E-02
 -1       363 3.37531E-02
 -1       364 2.42197E-02
 -1       365 1.93542E-02
 -1       366 1.52237E-02
 -1       367 1.18229E-02
 -1       368 9.06220E-03
 -1       369 7.27826E-03
 -1       370 5.75413E-03
 -1       371 4.74523E-03
 -1       372 3.93413E-03
 -1       373 3.21346E-03
 -1       374 2.61130E-03
 -1       375 2.08033E-03
 -1       376 1.67243E-03
 -1       377 1.32564E-03
 -1       378 1.00731E-03
 -1       379 7.83092E-04
 -1       380 5.71094E-04
 -1       381 4.27690E-04
 -1       382 3.20406E-04
 -1       383 2.17583E-04
 -1       384 1.51205E+00
 -1       385 2.77593E+01
 -1       386 1.87932E+00
 -1       387 1.92012E+00
 -1       388 1.92012E+00
 -1       389 1.88841E+00
 -1       390 1.76346E+00
 -1       391 1.72277E+00
 -1       392 1.76044E+00
 -1       393 1.64028E+00
 -1       394 1.37961E+00
 -1       395 1.09684E+00
 -1       396 8.17907E-01
 -1       397 5.50620E-01
 -1       398 3.26175E-01
 -1       399 1.88703E-01
 -1       400 9.91599E-02
 -1       401 1.07021E-01
 -1       402 1.19063E-01
 -1       403 1.15630E-01
 -1       404 1.01212E-01
 -1       405 8.75890E-02
 -1       406 7.16804E-02
 -1       407 5.52794E-02
 -1       408 4.38002E-02
 -1       409 3.38331E-02
 -1       410 2.51003E-02
 -1       411 1.78646E-02
 -1       412 1.21301E-02
 -1       413 9.89222E-03
 -1       414 8.55114E-03
 -1       415 7.17236E-03
 -1       416 5.86158E-03
 -1       417 4.67908E-03
 -1       418 4.02218E-03
 -1       419 3.44203E-03
 -1       420 2.86453E-03
 -1       421 2.35184E-03
 -1       422 1.93153E-03
 -1       423 1.56223E-03
 -1       424 1.23437E-03
 -1       425 9.51047E-04
 -1       426 7.11001E-04
 -1       427 5.17583E-04
 -1       428 4.03233E-04
 -1       429 2.88229E-04
 -1       430 1.71034E-04
 -1       431 1.15217E-04
 -1       432 2.14999E-04
 -1       433 2.14999E-04
 -1       434 1.38901E-04
 -1       435 1.81570E-04
 -1       436 2.02225E-04
 -1       437 2.02225E-04
 -1       438 2.01879E-04
 -1       439 2.01879E-04
 -1       440 1.82730E-04
 -1       441 1.40220E-04
 -1       442 1.13781E-04
 -1       443 1.51830E-04
 -1       444 1.57189E+01
 -1       445 4.01868E+01
 -1       446 4.37324E+00
 -1       447 9.00914E+00
 -1       448 7.11992E+00
 -1       449 9.62132E+00
 -1       450 9.71355E+00
 -1       451 1.02459E+01
 -1       452 8.12194E+00
 -1       453 6.82042E+00
 -1       454 1.02293E+01
 -1       455 1.65635E+01
 -1       456 2.87718E+01
 -1       457 2.94757E+01
 -1       458 4.11167E+01
 -1       459 4.11167E+01
 -1       460 3.14907E+01
 -1       461 1.82615E+01
 -1       462 1.05525E+01
 -1       463 1.00786E+01
 -1       464 1.18503E+01
 -1       465 9.20019E+00
 -1       466 7.46996E+00
 -1       467 1.28410E+01
 -1       468 2.18704E+01
 -1       469 2.59355E+01
 -1       470 4.01868E+01
 -1       471 2.63970E+01
 -1       472 6.06365E+00
 -1       473 8.82120E+00
 -1       474 3.53513E+00
 -1       475 7.32875E+00
 -1       476 3.03489E+00
 -1       477 2.45090E+00
 -1       478 1.77600E+00
 -1       479 1.13300E+00
 -1       480 8.17128E-01
 -1       481 5.66451E-01
 -1       482 6.28625E-01
 -1       483 1.50698E+00
 -1       484 6.00075E+00
 -1       485 7.92453E+00
 -1       486 9.04252E+00
 -1       487 7.69370E+00
 -1       488 9.51799E+00
 -1       489 1.26849E+00
 -1       490 4.01868E+01
 -1       491 8.29560E+00
 -1       492 5.72713E+00
 -1       493 5.12506E+00
 -1       494 3.54918E+00
 -1       495 2.48516E+00
 -1       496 1.74962E+00
 -1       497 1.23462E+00
 -1       498 8.69065E-01
 -1       499 6.08834E-01
 -1       500 4.24718E-01
 -1       501 2.99005E-01
 -1       502 2.05418E-01
 -1       503 1.39681E-01
 -1       504 9.37509E-02
 -1       505 6.18107E-02
 -1       506 3.97183E-02
 -1       507 2.39831E-02
 -1       508 1.64363E-02
 -1       509 1.19166E-02
 -1       510 1.00631E-02
 -1       511 8.31456E-03
 -1       512 6.74192E-03
 -1       513 5.37582E-03
 -1       514 4.40060E-03
 -1       515 3.64371E-03
 -1       516 3.04395E-03
 -1       517 2.51502E-03
 -1       518 2.08817E-03
 -1       519 1.71979E-03
 -1       520 1.38334E-03
 -1       521 1.10180E-03
 -1       522 8.75838E-04
 -1       523 6.64422E-04
 -1       524 4.88058E-04
 -1       525 3.42024E-04
 -1       526 2.32330E-04
 -1       527 1.87932E+00
 -1       528 1.47873E+00
 -1       529 1.88841E+00
 -1       530 1.76346E+00
 -1       531 1.72277E+00
 -1       532 1.70694E+00
 -1       533 1.57522E+00
 -1       534 1.35386E+00
 -1       535 1.14122E+00
 -1       536 8.71985E-01
 -1       537 5.98818E-01
 -1       538 3.92566E-01
 -1       539 2.44299E-01
 -1       540 1.44916E-01
 -1       541 1.17006E-01
 -1       542 9.69296E-02
 -1       543 9.85845E-02
 -1       544 9.20943E-02
 -1       545 8.12411E-02
 -1       546 6.88373E-02
 -1       547 5.64527E-02
 -1       548 4.37735E-02
 -1       549 3.22018E-02
 -1       550 2.25538E-02
 -1       551 1.65214E-02
 -1       552 1.16463E-02
 -1       553 9.89222E-03
 -1       554 8.55114E-03
 -1       555 7.17236E-03
 -1       556 5.86158E-03
 -1       557 4.67908E-03
 -1       558 4.02218E-03
 -1       559 3.44203E-03
 -1       560 2.86453E-03
 -1       561 2.35336E-03
 -1       562 1.92398E-03
 -1       563 1.53353E-03
 -1       564 1.21089E-03
 -1       565 9.49219E-04
 -1       566 7.22062E-04
 -1       567 5.31041E-04
 -1       568 3.72041E-04
 -1       569 2.55325E-04
 -1       570 2.28515E-04
 -1       571 2.64717E-04
 -1       572 2.24492E-04
 -1       573 1.98468E-04
 -1       574 2.65749E-04
 -1       575 2.65749E-04
 -1       576 2.65477E-04
 -1       577 2.65477E-04
 -1       578 2.35509E-04
 -1       579 1.68878E-04
 -1       580 1.57017E-04
 -1       581 8.54239E+00
 -1       582 1.38432E+01
 -1       583 5.21255E+00
 -1       584 1.96888E+01
 -1       585 2.17049E+01
 -1       586 1.92012E+00
 -1       587 1.14194E+01
 -1       588 3.33990E+00
 -1       589 7.97384E+00
 -1       590 5.02026E+00
 -1       591 5.67058E+00
 -1       592 4.46147E+00
 -1       593 5.83930E+00
 -1       594 9.67917E+00
 -1       595 1.40320E+01
 -1       596 2.08845E+01
 -1       597 2.94757E+01
 -1       598 4.11167E+01
 -1       599 1.39839E+01
 -1       600 1.66331E+01
 -1       601 2.59355E+01
 -1       602 2.63970E+01
 -1       603 7.38538E+00
 -1       604 6.73349E+00
 -1       605 5.30108E+00
 -1       606 6.22930E+00
 -1       607 2.22438E+00
 -1       608 4.65654E+00
 -1       609 9.26669E-01
 -1       610 8.26139E-01
 -1       611 8.26139E-01
 -1       612 1.12348E+00
 -1       613 9.14084E+00
 -1       614 1.33259E+00
 -1       615 1.36336E+01
 -1       616 8.93459E+00
 -1       617 1.13475E+01
 -1       618 5.30325E+00
 -1       619 3.45930E+00
 -1       620 2.29769E+00
 -1       621 1.55805E+00
 -1       622 1.04875E+00
 -1       623 7.01274E-01
 -1       624 4.68660E-01
 -1       625 3.12385E-01
 -1       626 2.09328E-01
 -1       627 1.45776E-01
 -1       628 1.02888E-01
 -1       629 7.15481E-02
 -1       630 4.88341E-02
 -1       631 3.24452E-02
 -1       632 2.15004E-02
 -1       633 1.33047E-02
 -1       634 8.14921E-03
 -1       635 6.23892E-03
 -1       636 5.72271E-03
 -1       637 5.04159E-03
 -1       638 4.33127E-03
 -1       639 3.62357E-03
 -1       640 3.00704E-03
 -1       641 2.56555E-03
 -1       642 2.13323E-03
 -1       643 1.73265E-03
 -1       644 1.38693E-03
 -1       645 1.10974E-03
 -1       646 8.75838E-04
 -1       647 6.64422E-04
 -1       648 4.92242E-04
 -1       649 3.56513E-04
 -1       650 2.58143E-04
 -1       651 1.36810E+00
 -1       652 1.48229E+00
 -1       653 1.36432E+00
 -1       654 1.28054E+00
 -1       655 1.16283E+00
 -1       656 9.41187E-01
 -1       657 7.53087E-01
 -1       658 5.63732E-01
 -1       659 3.92566E-01
 -1       660 2.62650E-01
 -1       661 1.95325E-01
 -1       662 1.37288E-01
 -1       663 1.14885E-01
 -1       664 1.04636E-01
 -1       665 8.98274E-02
 -1       666 7.68780E-02
 -1       667 6.33125E-02
 -1       668 5.05783E-02
 -1       669 3.86958E-02
 -1       670 2.83832E-02
 -1       671 1.98973E-02
 -1       672 1.32122E-02
 -1       673 8.23562E-03
 -1       674 5.75330E-03
 -1       675 5.29040E-03
 -1       676 4.83156E-03
 -1       677 4.24057E-03
 -1       678 3.60492E-03
 -1       679 2.98210E-03
 -1       680 2.59991E-03
 -1       681 2.22555E-03
 -1       682 1.85028E-03
 -1       683 1.51951E-03
 -1       684 1.22384E-03
 -1       685 9.58468E-04
 -1       686 7.27961E-04
 -1       687 5.53236E-04
 -1       688 4.02630E-04
 -1       689 3.13023E-04
 -1       690 3.40639E-04
 -1       691 3.26972E-04
 -1       692 3.40328E-04
 -1       693 3.40639E-04
 -1       694 3.40328E-04
 -1       695 3.33007E-04
 -1       696 3.10174E-04
 -1       697 1.81371E+01
 -1       698 8.10703E+00
 -1       699 1.10710E+01
 -1       700 1.31021E+01
 -1       701 1.38468E+01
 -1       702 1.56072E+01
 -1       703 3.18975E+00
 -1       704 3.56833E+00
 -1       705 4.37351E+00
 -1       706 5.93274E+00
 -1       707 9.31355E+00
 -1       708 1.11751E+01
 -1       709 1.43544E+01
 -1       710 5.68837E+00
 -1       711 1.30509E+00
 -1       712 8.39955E+00
 -1       713 4.64729E+00
 -1       714 1.38370E+01
 -1       715 4.65654E+00
 -1       716 1.57400E+00
 -1       717 1.08074E+01
 -1       718 1.36336E+01
 -1       719 1.39387E+00
 -1       720 2.56891E-04
 -1       721 5.26629E+00
 -1       722 2.59752E-04
 -1       723 9.50628E+00
 -1       724 1.56391E+00
 -1       725 3.96273E+00
 -1       726 2.80671E-04
 -1       727 5.93150E+00
 -1       728 5.60084E+00
 -1       729 1.02262E+00
 -1       730 1.06517E+00
 -1       731 1.51922E+00
 -1       732 1.46035E+00
 -1       733 4.38262E+00
 -1       734 2.75864E+00
 -1       735 1.82070E+00
 -1       736 1.22867E+00
 -1       737 8.39563E-01
 -1       738 5.79732E-01
 -1       739 4.02148E-01
 -1       740 2.74269E-01
 -1       741 1.85825E-01
 -1       742 1.24686E-01
 -1       743 8.47903E-02
 -1       744 5.71058E-02
 -1       745 3.82266E-02
 -1       746 2.47631E-02
 -1       747 1.64840E-02
 -1       748 1.05854E-02
 -1       749 6.39764E-03
 -1       750 3.80714E-03
 -1       751 3.57241E-03
 -1       752 3.48269E-03
 -1       753 3.20524E-03
 -1       754 2.82910E-03
 -1       755 2.41924E-03
 -1       756 2.08046E-03
 -1       757 1.79192E-03
 -1       758 1.49919E-03
 -1       759 1.22617E-03
 -1       760 9.81062E-04
 -1       761 7.57798E-04
 -1       762 5.62746E-04
 -1       763 4.57143E-04
 -1       764 9.92554E+00
 -1       765 1.47248E+00
 -1       766 1.20118E+00
 -1       767 1.11625E+00
 -1       768 9.32795E-01
 -1       769 7.53087E-01
 -1       770 5.50863E-01
 -1       771 4.05924E-01
 -1       772 2.91085E-01
 -1       773 1.95325E-01
 -1       774 1.56961E-01
 -1       775 1.31258E-01
 -1       776 1.06334E-01
 -1       777 8.89189E-02
 -1       778 7.19140E-02
 -1       779 5.60189E-02
 -1       780 4.27561E-02
 -1       781 3.17552E-02
 -1       782 2.28373E-02
 -1       783 1.58318E-02
 -1       784 1.04841E-02
 -1       785 6.51580E-03
 -1       786 3.65889E-03
 -1       787 3.03114E-03
 -1       788 3.15659E-03
 -1       789 3.03260E-03
 -1       790 2.76090E-03
 -1       791 2.41492E-03
 -1       792 2.06926E-03
 -1       793 1.81933E-03
 -1       794 1.54546E-03
 -1       795 1.27379E-03
 -1       796 1.01990E-03
 -1       797 7.92328E-04
 -1       798 5.94943E-04
 -1       799 4.28864E-04
 -1       800 3.49333E-04
 -1       801 4.19828E-04
 -1       802 4.04191E-04
 -1       803 7.81113E+00
 -1       804 2.70735E+00
 -1       805 1.31615E+00
 -1       806 9.46983E+00
 -1       807 8.67698E+00
 -1       808 4.96764E-04
 -1       809 8.36418E+00
 -1       810 4.19828E-04
 -1       811 4.15809E+00
 -1       812 4.65654E+00
 -1       813 3.30442E+00
 -1       814 5.75145E+00
 -1       815 3.12259E+00
 -1       816 9.14084E+00
 -1       817 3.92758E+00
 -1       818 1.49622E+00
 -1       819 1.05500E+00
 -1       820 8.39003E+00
 -1       821 3.74137E+00
 -1       822 7.37642E+00
 -1       823 4.16032E-04
 -1       824 4.37961E+00
 -1       825 3.89127E+00
 -1       826 4.16032E-04
 -1       827 2.57565E+00
 -1       828 8.10703E+00
 -1       829 1.36014E+00
 -1       830 4.04526E-04
 -1       831 1.59608E+00
 -1       832 1.38911E+00
 -1       833 1.34321E+00
 -1       834 2.76486E+00
 -1       835 5.53993E-04
 -1       836 1.81804E+00
 -1       837 1.18280E+00
 -1       838 7.76924E-01
 -1       839 5.57089E-01
 -1       840 4.09269E-01
 -1       841 2.95320E-01
 -1       842 2.11372E-01
 -1       843 1.49851E-01
 -1       844 1.05005E-01
 -1       845 7.25510E-02
 -1       846 4.96323E-02
 -1       847 3.43012E-02
 -1       848 2.27944E-02
 -1       849 1.46950E-02
 -1       850 9.06707E-03
 -1       851 5.17996E-03
 -1       852 2.56988E-03
 -1       853 2.07251E-03
 -1       854 2.34358E-03
 -1       855 2.35511E-03
 -1       856 2.20726E-03
 -1       857 1.97361E-03
 -1       858 1.70316E-03
 -1       859 1.48949E-03
 -1       860 1.27737E-03
 -1       861 1.06736E-03
 -1       862 8.62282E-04
 -1       863 6.79804E-04
 -1       864 6.53662E+00
 -1       865 9.32795E-01
 -1       866 1.18927E+00
 -1       867 1.31382E+00
 -1       868 7.55353E-01
 -1       869 5.71475E-01
 -1       870 4.05924E-01
 -1       871 2.91085E-01
 -1       872 2.23855E-01
 -1       873 1.72729E-01
 -1       874 1.33763E-01
 -1       875 1.07616E-01
 -1       876 8.35348E-02
 -1       877 6.29591E-02
 -1       878 4.83808E-02
 -1       879 3.68352E-02
 -1       880 2.73068E-02
 -1       881 1.92821E-02
 -1       882 1.32811E-02
 -1       883 8.65955E-03
 -1       884 5.19795E-03
 -1       885 2.71108E-03
 -1       886 1.61985E-03
 -1       887 2.05296E-03
 -1       888 2.18690E-03
 -1       889 2.12693E-03
 -1       890 1.95119E-03
 -1       891 1.71530E-03
 -1       892 1.52163E-03
 -1       893 1.31923E-03
 -1       894 1.10629E-03
 -1       895 8.99407E-04
 -1       896 7.05883E-04
 -1       897 5.48643E-04
 -1       898 2.76486E+00
 -1       899 5.62991E+00
 -1       900 6.31928E+00
 -1       901 1.38911E+00
 -1       902 3.53141E+00
 -1       903 2.79383E+00
 -1       904 3.84847E-04
 -1       905 7.84227E+00
 -1       906 2.60122E+00
 -1       907 1.97761E+00
 -1       908 2.11550E+00
 -1       909 1.38911E+00
 -1       910 2.42967E+00
 -1       911 5.20642E-04
 -1       912 5.00211E-04
 -1       913 3.59160E+00
 -1       914 3.04642E+00
 -1       915 5.00211E-04
 -1       916 1.52796E+00
 -1       917 5.85932E-04
 -1       918 5.20642E-04
 -1       919 3.17748E+00
 -1       920 1.58904E+00
 -1       921 1.97214E+00
 -1       922 1.95096E+00
 -1       923 8.57056E-01
 -1       924 5.81136E-01
 -1       925 4.25830E-01
 -1       926 2.93089E-01
 -1       927 1.99945E-01
 -1       928 1.41715E-01
 -1       929 1.06155E-01
 -1       930 7.78494E-02
 -1       931 5.63678E-02
 -1       932 4.01422E-02
 -1       933 2.75383E-02
 -1       934 1.89227E-02
 -1       935 1.25736E-02
 -1       936 7.98080E-03
 -1       937 4.78751E-03
 -1       938 2.66273E-03
 -1       939 1.27812E-03
 -1       940 1.53597E-03
 -1       941 1.69322E-03
 -1       942 1.67564E-03
 -1       943 1.55455E-03
 -1       944 1.37924E-03
 -1       945 1.18765E-03
 -1       946 1.03445E-03
 -1       947 8.69323E-04
 -1       948 7.04939E-04
 -1       949 7.56333E-01
 -1       950 3.01566E+00
 -1       951 8.93875E-01
 -1       952 1.31382E+00
 -1       953 5.71475E-01
 -1       954 4.28643E-01
 -1       955 3.12830E-01
 -1       956 2.39413E-01
 -1       957 1.79518E-01
 -1       958 1.34362E-01
 -1       959 1.00521E-01
 -1       960 7.82482E-02
 -1       961 6.21381E-02
 -1       962 4.83808E-02
 -1       963 3.62710E-02
 -1       964 2.62476E-02
 -1       965 1.82700E-02
 -1       966 1.23164E-02
 -1       967 8.06036E-03
 -1       968 4.92085E-03
 -1       969 2.84127E-03
 -1       970 1.68725E-03
 -1       971 1.37952E-03
 -1       972 1.61815E-03
 -1       973 1.65845E-03
 -1       974 1.57426E-03
 -1       975 1.41899E-03
 -1       976 1.25175E-03
 -1       977 1.09435E-03
 -1       978 9.24785E-04
 -1       979 7.61707E-04
 -1       980 3.60410E+00
 -1       981 3.55395E+00
 -1       982 2.15507E+00
 -1       983 1.23034E+00
 -1       984 2.15507E+00
 -1       985 1.24988E+00
 -1       986 4.27513E+00
 -1       987 1.91996E+00
 -1       988 1.78063E+00
 -1       989 1.59608E+00
 -1       990 2.61663E+00
 -1       991 2.94684E+00
 -1       992 2.14243E+00
 -1       993 5.66184E-04
 -1       994 5.77305E-04
 -1       995 1.52796E+00
 -1       996 5.82192E-04
 -1       997 2.43954E+00
 -1       998 4.25830E-01
 -1       999 3.08927E-01
 -1      1000 2.27184E-01
 -1      1001 1.64611E-01
 -1      1002 1.17253E-01
 -1      1003 8.32146E-02
 -1      1004 5.60328E-02
 -1      1005 4.11608E-02
 -1      1006 2.86928E-02
 -1      1007 2.02680E-02
 -1      1008 1.40586E-02
 -1      1009 9.60431E-03
 -1      1010 6.27114E-03
 -1      1011 3.92590E-03
 -1      1012 2.40593E-03
 -1      1013 1.27812E-03
 -1      1014 1.01342E-03
 -1      1015 1.21346E-03
 -1      1016 1.25290E-03
 -1      1017 1.19505E-03
 -1      1018 1.08389E-03
 -1      1019 9.44095E-04
 -1      1020 7.94876E-04
 -1      1021 7.48619E-04
 -1      1022 6.15883E-01
 -1      1023 1.06673E+00
 -1      1024 3.46576E-01
 -1      1025 2.40382E-01
 -1      1026 1.80718E-01
 -1      1027 1.24633E-01
 -1      1028 1.00521E-01
 -1      1029 7.82482E-02
 -1      1030 5.97779E-02
 -1      1031 4.41150E-02
 -1      1032 3.18317E-02
 -1      1033 2.23460E-02
 -1      1034 1.51768E-02
 -1      1035 1.00402E-02
 -1      1036 6.52387E-03
 -1      1037 4.38690E-03
 -1      1038 2.84127E-03
 -1      1039 1.68725E-03
 -1      1040 1.03535E-03
 -1      1041 1.23660E-03
 -1      1042 1.30317E-03
 -1      1043 1.25821E-03
 -1      1044 1.14751E-03
 -1      1045 1.00473E-03
 -1      1046 8.69197E-04
 -1      1047 8.04703E-04
 -1      1048 5.90651E-04
 -1      1049 4.73869E-01
 -1      1050 9.62005E-01
 -1      1051 1.55094E+00
 -1      1052 2.51282E+00
 -1      1053 6.65766E-01
 -1      1054 1.02898E+00
 -1      1055 6.53370E-04
 -1      1056 2.06415E+00
 -1      1057 6.53427E-04
 -1      1058 1.83843E+00
 -1      1059 3.85335E-01
 -1      1060 2.72103E-01
 -1      1061 1.44516E-01
 -1      1062 9.91501E-02
 -1      1063 7.08415E-02
 -1      1064 4.98788E-02
 -1      1065 3.60531E-02
 -1      1066 2.55180E-02
 -1      1067 1.76561E-02
 -1      1068 1.22917E-02
 -1      1069 8.29461E-03
 -1      1070 6.98760E-03
 -1      1071 3.70656E-03
 -1      1072 2.10490E-03
 -1      1073 1.19305E-03
 -1      1074 7.39422E-04
 -1      1075 9.39360E-04
 -1      1076 1.01599E-03
 -1      1077 9.74562E-04
 -1      1078 8.80256E-04
 -1      1079 7.45348E-04
 -1      1080 1.06673E+00
 -1      1081 3.98478E-01
 -1      1082 6.36229E-01
 -1      1083 1.24063E-01
 -1      1084 1.44516E-01
 -1      1085 9.81037E-02
 -1      1086 7.08415E-02
 -1      1087 4.90825E-02
 -1      1088 3.36438E-02
 -1      1089 2.26997E-02
 -1      1090 1.49642E-02
 -1      1091 9.84102E-03
 -1      1092 6.48966E-03
 -1      1093 3.87421E-03
 -1      1094 2.82373E-03
 -1      1095 1.60535E-03
 -1      1096 8.98048E-04
 -1      1097 9.67383E-04
 -1      1098 1.01741E-03
 -1      1099 1.01599E-03
 -1      1100 8.89485E-04
 -1      1101 8.80256E-04
 -1      1102 8.04703E-04
 -1      1103 7.62706E-01
 -1      1104 5.66448E-01
 -1      1105 6.36229E-01
 -1      1106 7.19234E-01
 -1      1107 2.79966E-01
 -1      1108 1.82174E+00
 -1      1109 1.03963E+00
 -1      1110 4.78156E-01
 -1      1111 1.59329E+00
 -1      1112 7.48619E-04
 -1      1113 5.46823E-04
 -1      1114 6.36229E-01
 -1      1115 2.72103E-01
 -1      1116 6.98760E-03
 -1      1117 1.01599E-03
 -1      1118 1.65397E+00
 -1      1119 8.00339E-01
 -1      1120 1.13479E+01
 -1      1121 8.20489E+00
 -1      1122 4.71008E+00
 -1      1123 4.01674E+00
 -1      1124 3.02190E+00
 -1      1125 1.92438E+00
 -1      1126 1.63456E+00
 -1      1127 1.78901E+00
 -1      1128 1.72108E+00
 -1      1129 1.66322E+00
 -1      1130 1.64876E+00
 -1      1131 1.58263E+00
 -1      1132 1.52012E+00
 -1      1133 1.64878E+00
 -1      1134 2.65184E+00
 -1      1135 6.19977E+00
 -1      1136 1.15993E+01
 -1      1137 1.13479E+01
 -1      1138 6.68814E+00
 -1      1139 2.67519E+00
 -1      1140 3.84061E+00
 -1      1141 4.35921E+00
 -1      1142 4.24518E+00
 -1      1143 5.60039E+00
 -1      1144 1.04034E+01
 -1      1145 1.39944E+01
 -1      1146 1.42515E+01
 -1      1147 1.24984E+01
 -1      1148 7.74502E+00
 -1      1149 4.81215E+00
 -1      1150 4.87948E+00
 -1      1151 4.74416E+00
 -1      1152 4.06999E+00
 -1      1153 3.03968E+00
 -1      1154 2.22542E+00
 -1      1155 1.64350E+00
 -1      1156 1.20497E+00
 -1      1157 8.80783E-01
 -1      1158 6.27133E-01
 -1      1159 4.39510E-01
 -1      1160 3.01102E-01
 -1      1161 2.08192E-01
 -1      1162 1.47332E-01
 -1      1163 1.03961E-01
 -1      1164 7.83054E-02
 -1      1165 6.05875E-02
 -1      1166 4.66384E-02
 -1      1167 3.58379E-02
 -1      1168 2.74142E-02
 -1      1169 2.06706E-02
 -1      1170 1.53780E-02
 -1      1171 1.17849E-02
 -1      1172 9.49927E-03
 -1      1173 7.63019E-03
 -1      1174 6.00317E-03
 -1      1175 4.69673E-03
 -1      1176 3.69508E-03
 -1      1177 2.86466E-03
 -1      1178 2.18622E-03
 -1      1179 1.63469E-03
 -1      1180 1.22773E-03
 -1      1181 9.55976E-04
 -1      1182 7.85167E-04
 -1      1183 6.51295E-04
 -1      1184 5.06957E-04
 -1      1185 4.07646E-04
 -1      1186 3.11793E-04
 -1      1187 1.52038E-04
 -1      1188 1.43044E+01
 -1      1189 8.85727E+00
 -1      1190 2.97743E+00
 -1      1191 2.28048E+00
 -1      1192 1.98239E+00
 -1      1193 2.06243E+00
 -1      1194 2.27095E+00
 -1      1195 2.37968E+00
 -1      1196 2.51708E+00
 -1      1197 2.64043E+00
 -1      1198 2.61425E+00
 -1      1199 2.42441E+00
 -1      1200 2.01295E+00
 -1      1201 1.53185E+00
 -1      1202 1.08021E+00
 -1      1203 7.08044E-01
 -1      1204 4.55713E-01
 -1      1205 2.83915E-01
 -1      1206 1.98158E-01
 -1      1207 1.83354E-01
 -1      1208 1.77988E-01
 -1      1209 1.62985E-01
 -1      1210 1.35578E-01
 -1      1211 1.07521E-01
 -1      1212 8.33104E-02
 -1      1213 6.52951E-02
 -1      1214 5.24428E-02
 -1      1215 4.02307E-02
 -1      1216 2.95509E-02
 -1      1217 2.10605E-02
 -1      1218 1.62771E-02
 -1      1219 1.38497E-02
 -1      1220 1.14105E-02
 -1      1221 9.14727E-03
 -1      1222 7.59890E-03
 -1      1223 6.65428E-03
 -1      1224 5.70061E-03
 -1      1225 4.74979E-03
 -1      1226 3.86522E-03
 -1      1227 3.11401E-03
 -1      1228 2.49699E-03
 -1      1229 1.96582E-03
 -1      1230 1.51456E-03
 -1      1231 1.13790E-03
 -1      1232 8.41758E-04
 -1      1233 6.44249E-04
 -1      1234 5.03345E-04
 -1      1235 3.60526E-04
 -1      1236 2.35800E-04
 -1      1237 1.18535E-04
 -1      1238 6.64755E-05
 -1      1239 8.09211E-05
 -1      1240 7.50472E-05
 -1      1241 5.27161E-05
 -1      1242 3.58267E-05
 -1      1243 4.69403E-05
 -1      1244 6.54254E-05
 -1      1245 7.44073E-05
 -1      1246 7.64501E-05
 -1      1247 7.43795E-05
 -1      1248 6.50634E-05
 -1      1249 4.65890E-05
 -1      1250 3.63059E-05
 -1      1251 5.54395E-05
 -1      1252 7.68733E-05
 -1      1253 1.02952E-04
 -1      1254 9.23999E-05
 -1      1255 2.40347E+01
 -1      1256 3.48939E+01
 -1      1257 4.58347E+01
 -1      1258 3.16903E+01
 -1      1259 1.48986E+01
 -1      1260 1.22514E+01
 -1      1261 1.20204E+01
 -1      1262 1.23115E+01
 -1      1263 1.28336E+01
 -1      1264 1.23088E+01
 -1      1265 1.69507E+01
 -1      1266 3.48683E+01
 -1      1267 4.76193E+01
 -1      1268 3.65636E+01
 -1      1269 2.58593E+01
 -1      1270 2.63263E+01
 -1      1271 2.90265E+01
 -1      1272 3.16112E+01
 -1      1273 2.78117E+01
 -1      1274 1.85518E+01
 -1      1275 1.30914E+01
 -1      1276 1.30850E+01
 -1      1277 1.30723E+01
 -1      1278 1.30348E+01
 -1      1279 1.36102E+01
 -1      1280 2.44122E+01
 -1      1281 3.46076E+01
 -1      1282 3.01566E+01
 -1      1283 2.53157E+01
 -1      1284 2.45210E+01
 -1      1285 1.13479E+01
 -1      1286 6.08133E+00
 -1      1287 9.22436E+00
 -1      1288 4.38673E+00
 -1      1289 4.73850E+00
 -1      1290 5.75797E+00
 -1      1291 3.94704E+00
 -1      1292 4.28861E+00
 -1      1293 4.31703E+00
 -1      1294 2.84720E+00
 -1      1295 3.50047E+00
 -1      1296 3.77234E+00
 -1      1297 1.77180E+00
 -1      1298 2.21606E+00
 -1      1299 2.69462E+00
 -1      1300 1.90550E+00
 -1      1301 1.75105E+00
 -1      1302 2.04273E+00
 -1      1303 1.90550E+00
 -1      1304 1.90550E+00
 -1      1305 2.02199E+00
 -1      1306 1.79188E+00
 -1      1307 1.85981E+00
 -1      1308 1.97630E+00
 -1      1309 1.71704E+00
 -1      1310 1.70697E+00
 -1      1311 1.84570E+00
 -1      1312 1.64876E+00
 -1      1313 1.67329E+00
 -1      1314 1.71704E+00
 -1      1315 1.58263E+00
 -1      1316 1.62423E+00
 -1      1317 1.64876E+00
 -1      1318 1.52012E+00
 -1      1319 1.54104E+00
 -1      1320 1.58263E+00
 -1      1321 1.72643E+00
 -1      1322 1.57686E+00
 -1      1323 1.59778E+00
 -1      1324 2.88731E+00
 -1      1325 2.03382E+00
 -1      1326 1.96190E+00
 -1      1327 6.43774E+00
 -1      1328 3.74330E+00
 -1      1329 3.12527E+00
 -1      1330 1.43044E+01
 -1      1331 1.15993E+01
 -1      1332 9.14285E+00
 -1      1333 1.43044E+01
 -1      1334 7.95494E+00
 -1      1335 3.29517E+00
 -1      1336 3.15269E+00
 -1      1337 3.79951E+00
 -1      1338 4.41949E+00
 -1      1339 3.57287E+00
 -1      1340 4.09148E+00
 -1      1341 4.05038E+00
 -1      1342 4.37864E+00
 -1      1343 4.37864E+00
 -1      1344 4.11091E+00
 -1      1345 4.52093E+00
 -1      1346 4.40691E+00
 -1      1347 4.54037E+00
 -1      1348 4.09103E+00
 -1      1349 5.56026E+00
 -1      1350 4.36678E+00
 -1      1351 7.14663E+00
 -1      1352 1.04804E+01
 -1      1353 5.63727E+00
 -1      1354 1.37372E+01
 -1      1355 1.39944E+01
 -1      1356 1.04804E+01
 -1      1357 1.42515E+01
 -1      1358 1.42515E+01
 -1      1359 1.39944E+01
 -1      1360 1.24984E+01
 -1      1361 1.07452E+01
 -1      1362 1.24984E+01
 -1      1363 8.26068E+00
 -1      1364 5.26049E+00
 -1      1365 8.26068E+00
 -1      1366 4.50546E+00
 -1      1367 4.57279E+00
 -1      1368 5.02112E+00
 -1      1369 4.87948E+00
 -1      1370 4.87948E+00
 -1      1371 4.57279E+00
 -1      1372 4.74416E+00
 -1      1373 4.60885E+00
 -1      1374 4.74416E+00
 -1      1375 4.16929E+00
 -1      1376 3.63043E+00
 -1      1377 4.16929E+00
 -1      1378 3.29368E+00
 -1      1379 2.80224E+00
 -1      1380 3.39299E+00
 -1      1381 2.53743E+00
 -1      1382 2.21462E+00
 -1      1383 2.79144E+00
 -1      1384 1.89241E+00
 -1      1385 1.63330E+00
 -1      1386 2.20442E+00
 -1      1387 1.35702E+00
 -1      1388 1.17759E+00
 -1      1389 1.60592E+00
 -1      1390 9.65827E-01
 -1      1391 8.21065E-01
 -1      1392 1.11787E+00
 -1      1393 6.69196E-01
 -1      1394 5.60308E-01
 -1      1395 7.54240E-01
 -1      1396 4.55652E-01
 -1      1397 3.76917E-01
 -1      1398 4.97715E-01
 -1      1399 3.12045E-01
 -1      1400 2.52372E-01
 -1      1401 3.28186E-01
 -1      1402 2.18417E-01
 -1      1403 1.85180E-01
 -1      1404 2.29360E-01
 -1      1405 1.56188E-01
 -1      1406 1.28565E-01
 -1      1407 1.66413E-01
 -1      1408 1.07826E-01
 -1      1409 9.20779E-02
 -1      1410 1.16681E-01
 -1      1411 7.83054E-02
 -1      1412 6.83972E-02
 -1      1413 8.21698E-02
 -1      1414 6.05875E-02
 -1      1415 5.27777E-02
 -1      1416 6.05875E-02
 -1      1417 4.66384E-02
 -1      1418 4.04990E-02
 -1      1419 4.66384E-02
 -1      1420 3.58379E-02
 -1      1421 3.11768E-02
 -1      1422 3.58379E-02
 -1      1423 2.74142E-02
 -1      1424 2.36517E-02
 -1      1425 2.74142E-02
 -1      1426 2.08088E-02
 -1      1427 1.78278E-02
 -1      1428 2.08088E-02
 -1      1429 1.57840E-02
 -1      1430 1.34725E-02
 -1      1431 1.59222E-02
 -1      1432 1.18262E-02
 -1      1433 1.05446E-02
 -1      1434 1.22322E-02
 -1      1435 9.49927E-03
 -1      1436 8.49521E-03
 -1      1437 9.54058E-03
 -1      1438 7.63019E-03
 -1      1439 6.76517E-03
 -1      1440 7.63019E-03
 -1      1441 6.05256E-03
 -1      1442 5.29056E-03
 -1      1443 6.05256E-03
 -1      1444 4.79639E-03
 -1      1445 4.25194E-03
 -1      1446 4.84577E-03
 -1      1447 3.79008E-03
 -1      1448 3.33287E-03
 -1      1449 3.88973E-03
 -1      1450 2.96956E-03
 -1      1451 2.59635E-03
 -1      1452 3.06456E-03
 -1      1453 2.30181E-03
 -1      1454 1.99658E-03
 -1      1455 2.40671E-03
 -1      1456 1.74957E-03
 -1      1457 1.50327E-03
 -1      1458 1.86515E-03
 -1      1459 1.30853E-03
 -1      1460 1.14787E-03
 -1      1461 1.42341E-03
 -1      1462 9.75443E-04
 -1      1463 8.64359E-04
 -1      1464 1.05625E-03
 -1      1465 7.85167E-04
 -1      1466 7.25442E-04
 -1      1467 8.04634E-04
 -1      1468 6.51295E-04
 -1      1469 5.77149E-04
 -1      1470 6.51295E-04
 -1      1471 5.06957E-04
 -1      1472 4.36766E-04
 -1      1473 5.06957E-04
 -1      1474 4.07646E-04
 -1      1475 3.78526E-04
 -1      1476 4.07646E-04
 -1      1477 3.11793E-04
 -1      1478 2.45061E-04
 -1      1479 3.11793E-04
 -1      1480 1.85423E-04
 -1      1481 3.41010E+00
 -1      1482 8.85727E+00
 -1      1483 8.85727E+00
 -1      1484 2.54477E+00
 -1      1485 2.97743E+00
 -1      1486 2.97743E+00
 -1      1487 2.01620E+00
 -1      1488 2.28048E+00
 -1      1489 2.28048E+00
 -1      1490 1.89718E+00
 -1      1491 1.93099E+00
 -1      1492 1.93099E+00
 -1      1493 2.06243E+00
 -1      1494 1.94858E+00
 -1      1495 1.89718E+00
 -1      1496 2.27095E+00
 -1      1497 2.17627E+00
 -1      1498 2.06243E+00
 -1      1499 2.37968E+00
 -1      1500 2.36563E+00
 -1      1501 2.27095E+00
 -1      1502 2.51708E+00
 -1      1503 2.39374E+00
 -1      1504 2.37968E+00
 -1      1505 2.64043E+00
 -1      1506 2.64043E+00
 -1      1507 2.51708E+00
 -1      1508 2.58807E+00
 -1      1509 2.61425E+00
 -1      1510 2.61425E+00
 -1      1511 2.26074E+00
 -1      1512 2.42441E+00
 -1      1513 2.42441E+00
 -1      1514 1.76516E+00
 -1      1515 2.01295E+00
 -1      1516 2.01295E+00
 -1      1517 1.29855E+00
 -1      1518 1.53185E+00
 -1      1519 1.53185E+00
 -1      1520 8.87591E-01
 -1      1521 1.10593E+00
 -1      1522 1.10593E+00
 -1      1523 5.64891E-01
 -1      1524 7.18717E-01
 -1      1525 7.44438E-01
 -1      1526 3.57207E-01
 -1      1527 4.55713E-01
 -1      1528 4.66385E-01
 -1      1529 2.10623E-01
 -1      1530 2.83915E-01
 -1      1531 2.83915E-01
 -1      1532 1.85693E-01
 -1      1533 1.98158E-01
 -1      1534 1.98158E-01
 -1      1535 1.81014E-01
 -1      1536 1.83354E-01
 -1      1537 1.83354E-01
 -1      1538 1.74962E-01
 -1      1539 1.77988E-01
 -1      1540 1.77988E-01
 -1      1541 1.51009E-01
 -1      1542 1.62985E-01
 -1      1543 1.62985E-01
 -1      1544 1.20148E-01
 -1      1545 1.35578E-01
 -1      1546 1.35578E-01
 -1      1547 9.56138E-02
 -1      1548 1.08241E-01
 -1      1549 1.08241E-01
 -1      1550 7.37017E-02
 -1      1551 8.52845E-02
 -1      1552 8.60051E-02
 -1      1553 5.88626E-02
 -1      1554 6.52951E-02
 -1      1555 6.72692E-02
 -1      1556 4.60230E-02
 -1      1557 5.24428E-02
 -1      1558 5.24428E-02
 -1      1559 3.44383E-02
 -1      1560 4.02307E-02
 -1      1561 4.02307E-02
 -1      1562 2.48819E-02
 -1      1563 2.97693E-02
 -1      1564 2.97693E-02
 -1      1565 1.76611E-02
 -1      1566 2.12641E-02
 -1      1567 2.14824E-02
 -1      1568 1.50966E-02
 -1      1569 1.62771E-02
 -1      1570 1.64806E-02
 -1      1571 1.26027E-02
 -1      1572 1.38497E-02
 -1      1573 1.38497E-02
 -1      1574 1.02184E-02
 -1      1575 1.14105E-02
 -1      1576 1.14105E-02
 -1      1577 8.07617E-03
 -1      1578 9.14727E-03
 -1      1579 9.14727E-03
 -1      1580 7.12162E-03
 -1      1581 7.59890E-03
 -1      1582 7.59890E-03
 -1      1583 6.18693E-03
 -1      1584 6.65428E-03
 -1      1585 6.65428E-03
 -1      1586 5.21428E-03
 -1      1587 5.70061E-03
 -1      1588 5.70061E-03
 -1      1589 4.28529E-03
 -1      1590 4.74979E-03
 -1      1591 4.74979E-03
 -1      1592 3.44515E-03
 -1      1593 3.86522E-03
 -1      1594 3.86522E-03
 -1      1595 2.78288E-03
 -1      1596 3.11401E-03
 -1      1597 3.11401E-03
 -1      1598 2.21111E-03
 -1      1599 2.49699E-03
 -1      1600 2.49699E-03
 -1      1601 1.72916E-03
 -1      1602 1.97445E-03
 -1      1603 1.97445E-03
 -1      1604 1.32743E-03
 -1      1605 1.53341E-03
 -1      1606 1.54203E-03
 -1      1607 9.91516E-04
 -1      1608 1.16220E-03
 -1      1609 1.18105E-03
 -1      1610 7.28393E-04
 -1      1611 8.53852E-04
 -1      1612 8.78151E-04
 -1      1613 5.72199E-04
 -1      1614 6.44249E-04
 -1      1615 6.56343E-04
 -1      1616 4.34490E-04
 -1      1617 5.03345E-04
 -1      1618 5.03345E-04
 -1      1619 2.87395E-04
 -1      1620 3.61360E-04
 -1      1621 3.61360E-04
 -1      1622 1.85039E-04
 -1      1623 2.35800E-04
 -1      1624 2.36634E-04
 -1      1625 1.32980E-04
 -1      1626 9.52123E-05
 -1      1627 9.52123E-05
 -1      1628 8.93384E-05
 -1      1629 9.52123E-05
 -1      1630 1.09504E-04
 -1      1631 7.16421E-05
 -1      1632 8.80993E-05
 -1      1633 1.08264E-04
 -1      1634 4.75726E-05
 -1      1635 4.80049E-05
 -1      1636 8.33880E-05
 -1      1637 8.11748E-05
 -1      1638 6.96288E-05
 -1      1639 8.18070E-05
 -1      1640 1.02600E-04
 -1      1641 9.56607E-05
 -1      1642 1.18349E-04
 -1      1643 1.10597E-04
 -1      1644 1.08554E-04
 -1      1645 1.38789E-04
 -1      1646 1.10605E-04
 -1      1647 1.10605E-04
 -1      1648 1.44752E-04
 -1      1649 1.08535E-04
 -1      1650 1.10605E-04
 -1      1651 1.44760E-04
 -1      1652 9.50903E-05
 -1      1653 1.02336E-04
 -1      1654 1.38561E-04
 -1      1655 6.99800E-05
 -1      1656 8.12088E-05
 -1      1657 1.18481E-04
 -1      1658 4.91630E-05
 -1      1659 4.82173E-05
 -1      1660 8.28371E-05
 -1      1661 8.97582E-05
 -1      1662 7.15704E-05
 -1      1663 8.34817E-05
 -1      1664 1.37528E-04
 -1      1665 1.34282E-04
 -1      1666 1.50413E-04
 -1      1667 2.66563E+01
 -1      1668 2.67380E+01
 -1      1669 3.67970E+01
 -1      1670 2.58562E+01
 -1      1671 4.58347E+01
 -1      1672 4.58347E+01
 -1      1673 1.84547E+01
 -1      1674 3.25992E+01
 -1      1675 1.13463E+01
 -1      1676 1.39935E+01
 -1      1677 1.22514E+01
 -1      1678 1.22514E+01
 -1      1679 1.17893E+01
 -1      1680 1.20204E+01
 -1      1681 1.22657E+01
 -1      1682 1.17435E+01
 -1      1683 1.28336E+01
 -1      1684 1.28336E+01
 -1      1685 1.17840E+01
 -1      1686 1.23088E+01
 -1      1687 1.67599E+01
 -1      1688 1.15933E+01
 -1      1689 3.54862E+01
 -1      1690 2.27352E+01
 -1      1691 4.76193E+01
 -1      1692 4.76193E+01
 -1      1693 2.71399E+01
 -1      1694 3.81955E+01
 -1      1695 3.08267E+01
 -1      1696 3.04754E+01
 -1      1697 3.09424E+01
 -1      1698 3.08267E+01
 -1      1699 3.15509E+01
 -1      1700 2.89663E+01
 -1      1701 3.16112E+01
 -1      1702 3.16112E+01
 -1      1703 2.54268E+01
 -1      1704 2.92263E+01
 -1      1705 1.28013E+01
 -1      1706 1.82617E+01
 -1      1707 1.30914E+01
 -1      1708 1.30914E+01
 -1      1709 1.30787E+01
 -1      1710 1.30850E+01
 -1      1711 1.30659E+01
 -1      1712 1.30723E+01
 -1      1713 1.30036E+01
 -1      1714 1.30348E+01
 -1      1715 1.29352E+01
 -1      1716 1.23286E+01
 -1      1717 2.44122E+01
 -1      1718 1.42168E+01
 -1      1719 3.46076E+01
 -1      1720 3.46076E+01
 -1      1721 2.92785E+01
 -1      1722 3.37294E+01
 -1      1723 2.49439E+01
 -1      1724 2.53339E+01
 -1      1725 2.67380E+01
 -1      1726 2.71427E+01
 -1      1727 1.85423E-04
 -1      1728 3.67970E+01
 -1      1729 1.32980E-04
 -1      1730 1.47271E-04
 -1      1731 2.93596E+01
 -1      1732 2.85595E+01
 -1      1733 1.60361E-04
 -1      1734 1.37528E-04
 -1      1735 1.94937E-04
 -1      1736 3.25992E+01
 -1      1737 1.49024E+01
 -1      1738 1.13463E+01
 -1      1739 1.20204E+01
 -1      1740 1.17435E+01
 -1      1741 1.22657E+01
 -1      1742 1.23088E+01
 -1      1743 1.15933E+01
 -1      1744 1.73778E+01
 -1      1745 3.54862E+01
 -1      1746 3.81955E+01
 -1      1747 3.21073E+01
 -1      1748 3.54428E+01
 -1      1749 3.34668E+01
 -1      1750 3.15509E+01
 -1      1751 2.92263E+01
 -1      1752 1.96764E+01
 -1      1753 1.28013E+01
 -1      1754 1.30850E+01
 -1      1755 1.30723E+01
 -1      1756 1.30348E+01
 -1      1757 1.23286E+01
 -1      1758 1.29352E+01
 -1      1759 2.44122E+01
 -1      1760 3.37294E+01
 -1      1761 2.89067E+01
 -1      1762 2.71609E+01
 -1      1763 9.22436E+00
 -1      1764 4.36379E+00
 -1      1765 4.46190E+00
 -1      1766 4.54808E+00
 -1      1767 5.89090E+00
 -1      1768 4.59483E+00
 -1      1769 2.83581E+00
 -1      1770 3.46695E+00
 -1      1771 2.25445E+00
 -1      1772 2.27519E+00
 -1      1773 3.04752E+00
 -1      1774 2.25445E+00
 -1      1775 2.25445E+00
 -1      1776 2.48691E+00
 -1      1777 2.13140E+00
 -1      1778 2.17709E+00
 -1      1779 2.40955E+00
 -1      1780 1.97107E+00
 -1      1781 2.05597E+00
 -1      1782 2.25677E+00
 -1      1783 1.76643E+00
 -1      1784 1.81018E+00
 -1      1785 2.02046E+00
 -1      1786 1.51092E+00
 -1      1787 1.53545E+00
 -1      1788 1.62860E+00
 -1      1789 1.35016E+00
 -1      1790 1.39175E+00
 -1      1791 1.27845E+00
 -1      1792 1.35071E+00
 -1      1793 1.29398E+00
 -1      1794 1.10309E+00
 -1      1795 1.64891E+00
 -1      1796 1.34152E+00
 -1      1797 1.03772E+00
 -1      1798 2.55580E+00
 -1      1799 1.69981E+00
 -1      1800 1.07943E+00
 -1      1801 8.33168E+00
 -1      1802 3.17008E+00
 -1      1803 1.74462E+00
 -1      1804 2.88450E+00
 -1      1805 5.83139E+00
 -1      1806 2.38950E+00
 -1      1807 2.82216E+00
 -1      1808 2.29657E+00
 -1      1809 4.74478E+00
 -1      1810 4.51815E+00
 -1      1811 4.48116E+00
 -1      1812 4.76833E+00
 -1      1813 5.17557E+00
 -1      1814 5.63526E+00
 -1      1815 5.77755E+00
 -1      1816 6.00551E+00
 -1      1817 6.78327E+00
 -1      1818 6.46739E+00
 -1      1819 7.87816E+00
 -1      1820 7.36736E+00
 -1      1821 1.06242E+01
 -1      1822 1.31586E+01
 -1      1823 1.34157E+01
 -1      1824 8.56763E+00
 -1      1825 6.08309E+00
 -1      1826 6.69984E+00
 -1      1827 5.94482E+00
 -1      1828 5.74168E+00
 -1      1829 6.04837E+00
 -1      1830 7.42040E+00
 -1      1831 5.06783E+00
 -1      1832 4.93252E+00
 -1      1833 6.23673E+00
 -1      1834 4.37728E+00
 -1      1835 3.93773E+00
 -1      1836 4.70095E+00
 -1      1837 3.64466E+00
 -1      1838 3.30791E+00
 -1      1839 3.85265E+00
 -1      1840 2.98634E+00
 -1      1841 2.72153E+00
 -1      1842 3.23800E+00
 -1      1843 2.36507E+00
 -1      1844 2.04286E+00
 -1      1845 2.55997E+00
 -1      1846 1.73879E+00
 -1      1847 1.46251E+00
 -1      1848 1.89944E+00
 -1      1849 1.22552E+00
 -1      1850 1.01376E+00
 -1      1851 1.35839E+00
 -1      1852 8.39432E-01
 -1      1853 6.87563E-01
 -1      1854 9.47083E-01
 -1      1855 5.63710E-01
 -1      1856 4.59054E-01
 -1      1857 6.48902E-01
 -1      1858 3.70104E-01
 -1      1859 3.05232E-01
 -1      1860 4.36099E-01
 -1      1861 2.51409E-01
 -1      1862 2.17455E-01
 -1      1863 2.93327E-01
 -1      1864 1.76532E-01
 -1      1865 1.47539E-01
 -1      1866 1.98581E-01
 -1      1867 1.19763E-01
 -1      1868 9.90241E-02
 -1      1869 1.29882E-01
 -1      1870 8.12210E-02
 -1      1871 6.74485E-02
 -1      1872 8.43028E-02
 -1      1873 5.80261E-02
 -1      1874 5.02164E-02
 -1      1875 5.70774E-02
 -1      1876 4.32654E-02
 -1      1877 3.71261E-02
 -1      1878 4.07041E-02
 -1      1879 3.23594E-02
 -1      1880 2.76982E-02
 -1      1881 2.89864E-02
 -1      1882 2.52655E-02
 -1      1883 2.15029E-02
 -1      1884 2.17869E-02
 -1      1885 1.94377E-02
 -1      1886 1.65948E-02
 -1      1887 1.72889E-02
 -1      1888 1.48944E-02
 -1      1889 1.28507E-02
 -1      1890 1.35233E-02
 -1      1891 1.14703E-02
 -1      1892 9.82408E-03
 -1      1893 1.04426E-02
 -1      1894 8.93210E-03
 -1      1895 7.88673E-03
 -1      1896 8.17023E-03
 -1      1897 7.12467E-03
 -1      1898 6.25965E-03
 -1      1899 6.51619E-03
 -1      1900 5.75520E-03
 -1      1901 5.04259E-03
 -1      1902 5.24968E-03
 -1      1903 4.63704E-03
 -1      1904 4.14286E-03
 -1      1905 4.33968E-03
 -1      1906 3.78253E-03
 -1      1907 3.32066E-03
 -1      1908 3.57380E-03
 -1      1909 3.01958E-03
 -1      1910 2.65627E-03
 -1      1911 2.91238E-03
 -1      1912 2.39079E-03
 -1      1913 2.09625E-03
 -1      1914 2.34582E-03
 -1      1915 1.89230E-03
 -1      1916 1.64529E-03
 -1      1917 1.87638E-03
 -1      1918 1.47189E-03
 -1      1919 1.27716E-03
 -1      1920 1.49904E-03
 -1      1921 1.11799E-03
 -1      1922 9.45566E-04
 -1      1923 1.16647E-03
 -1      1924 8.33459E-04
 -1      1925 7.54267E-04
 -1      1926 8.95199E-04
 -1      1927 6.48268E-04
 -1      1928 5.74121E-04
 -1      1929 6.77093E-04
 -1      1930 5.02420E-04
 -1      1931 4.32228E-04
 -1      1932 4.99392E-04
 -1      1933 3.78586E-04
 -1      1934 3.49466E-04
 -1      1935 3.74048E-04
 -1      1936 2.98055E-04
 -1      1937 2.31322E-04
 -1      1938 2.68995E-04
 -1      1939 1.76412E+00
 -1      1940 2.02841E+00
 -1      1941 1.87314E+00
 -1      1942 3.67970E+01
 -1      1943 2.77593E+01
 -1      1944 1.86255E+00
 -1      1945 1.94776E+00
 -1      1946 1.69569E+00
 -1      1947 1.93435E+00
 -1      1948 1.88295E+00
 -1      1949 1.89972E+00
 -1      1950 2.04820E+00
 -1      1951 1.93435E+00
 -1      1952 1.92012E+00
 -1      1953 2.12702E+00
 -1      1954 2.03234E+00
 -1      1955 1.90426E+00
 -1      1956 2.07860E+00
 -1      1957 2.06455E+00
 -1      1958 1.82594E+00
 -1      1959 2.18160E+00
 -1      1960 2.05826E+00
 -1      1961 1.74312E+00
 -1      1962 2.17426E+00
 -1      1963 2.20043E+00
 -1      1964 1.74161E+00
 -1      1965 1.95051E+00
 -1      1966 2.11418E+00
 -1      1967 1.70036E+00
 -1      1968 1.57238E+00
 -1      1969 1.82017E+00
 -1      1970 1.50994E+00
 -1      1971 1.19770E+00
 -1      1972 1.43100E+00
 -1      1973 1.23822E+00
 -1      1974 8.65610E-01
 -1      1975 1.05823E+00
 -1      1976 9.57375E-01
 -1      1977 5.63092E-01
 -1      1978 7.31966E-01
 -1      1979 6.84263E-01
 -1      1980 3.41691E-01
 -1      1981 4.50870E-01
 -1      1982 4.38398E-01
 -1      1983 1.99663E-01
 -1      1984 2.72955E-01
 -1      1985 2.57439E-01
 -1      1986 1.42426E-01
 -1      1987 1.54892E-01
 -1      1988 1.43931E-01
 -1      1989 1.44018E-01
 -1      1990 1.46357E-01
 -1      1991 1.03091E-01
 -1      1992 1.47013E-01
 -1      1993 1.50039E-01
 -1      1994 1.13042E-01
 -1      1995 1.33319E-01
 -1      1996 1.45296E-01
 -1      1997 1.17347E-01
 -1      1998 1.10680E-01
 -1      1999 1.26110E-01
 -1      2000 1.08421E-01
 -1      2001 9.19617E-02
 -1      2002 1.03868E-01
 -1      2003 9.44004E-02
 -1      2004 7.36781E-02
 -1      2005 8.40074E-02
 -1      2006 7.96347E-02
 -1      2007 5.70710E-02
 -1      2008 6.54777E-02
 -1      2009 6.34799E-02
 -1      2010 4.49116E-02
 -1      2011 5.13314E-02
 -1      2012 4.95398E-02
 -1      2013 3.41357E-02
 -1      2014 3.99280E-02
 -1      2015 3.88166E-02
 -1      2016 2.51003E-02
 -1      2017 2.97693E-02
 -1      2018 2.94667E-02
 -1      2019 1.78646E-02
 -1      2020 2.14824E-02
 -1      2021 2.14824E-02
 -1      2022 1.36133E-02
 -1      2023 1.49973E-02
 -1      2024 1.49973E-02
 -1      2025 1.12475E-02
 -1      2026 1.24944E-02
 -1      2027 1.10112E-02
 -1      2028 9.38476E-03
 -1      2029 1.05769E-02
 -1      2030 9.22168E-03
 -1      2031 7.62427E-03
 -1      2032 8.69536E-03
 -1      2033 7.86175E-03
 -1      2034 6.49160E-03
 -1      2035 6.96888E-03
 -1      2036 6.51697E-03
 -1      2037 5.43301E-03
 -1      2038 5.90035E-03
 -1      2039 5.27033E-03
 -1      2040 4.61823E-03
 -1      2041 5.10456E-03
 -1      2042 4.35063E-03
 -1      2043 3.86366E-03
 -1      2044 4.32816E-03
 -1      2045 3.73210E-03
 -1      2046 3.15484E-03
 -1      2047 3.57491E-03
 -1      2048 3.15328E-03
 -1      2049 2.56736E-03
 -1      2050 2.89850E-03
 -1      2051 2.60819E-03
 -1      2052 2.07132E-03
 -1      2053 2.35720E-03
 -1      2054 2.14169E-03
 -1      2055 1.65001E-03
 -1      2056 1.88667E-03
 -1      2057 1.74688E-03
 -1      2058 1.29032E-03
 -1      2059 1.48607E-03
 -1      2060 1.39830E-03
 -1      2061 9.83431E-04
 -1      2062 1.14867E-03
 -1      2063 1.09271E-03
 -1      2064 7.25744E-04
 -1      2065 8.63408E-04
 -1      2066 8.31024E-04
 -1      2067 5.44891E-04
 -1      2068 6.29035E-04
 -1      2069 6.14292E-04
 -1      2070 4.18862E-04
 -1      2071 4.87716E-04
 -1      2072 4.60408E-04
 -1      2073 2.88229E-04
 -1      2074 3.61360E-04
 -1      2075 3.45731E-04
 -1      2076 1.78037E-04
 -1      2077 2.29631E-04
 -1      2078 2.29631E-04
 -1      2079 1.40269E-04
 -1      2080 8.74841E-05
 -1      2081 1.11121E-04
 -1      2082 1.61012E-04
 -1      2083 1.62251E-04
 -1      2084 1.65108E-04
 -1      2085 1.62251E-04
 -1      2086 1.62251E-04
 -1      2087 1.93017E-04
 -1      2088 2.14999E-04
 -1      2089 1.21382E-04
 -1      2090 9.93258E-05
 -1      2091 1.27059E-04
 -1      2092 1.57203E-04
 -1      2093 1.42717E-04
 -1      2094 1.60235E-04
 -1      2095 1.73484E-04
 -1      2096 1.67530E-04
 -1      2097 1.91897E-04
 -1      2098 1.73492E-04
 -1      2099 1.73484E-04
 -1      2100 2.02225E-04
 -1      2101 1.73320E-04
 -1      2102 1.73320E-04
 -1      2103 2.02052E-04
 -1      2104 1.67121E-04
 -1      2105 1.73320E-04
 -1      2106 2.01879E-04
 -1      2107 1.43665E-04
 -1      2108 1.57546E-04
 -1      2109 1.92305E-04
 -1      2110 1.00647E-04
 -1      2111 1.22410E-04
 -1      2112 1.61475E-04
 -1      2113 1.09835E-04
 -1      2114 8.74275E-05
 -1      2115 1.27000E-04
 -1      2116 1.73383E-04
 -1      2117 1.28860E-04
 -1      2118 1.32805E-04
 -1      2119 1.75412E+01
 -1      2120 3.07768E+01
 -1      2121 2.19999E-04
 -1      2122 4.62149E+00
 -1      2123 3.47732E+01
 -1      2124 3.47732E+01
 -1      2125 3.84951E+00
 -1      2126 4.29608E+00
 -1      2127 4.44095E+00
 -1      2128 3.99069E+00
 -1      2129 9.72514E+00
 -1      2130 1.41864E+01
 -1      2131 9.68567E+00
 -1      2132 8.78053E+00
 -1      2133 8.06453E+00
 -1      2134 1.07053E+01
 -1      2135 1.09364E+01
 -1      2136 1.07057E+01
 -1      2137 1.07514E+01
 -1      2138 1.15398E+01
 -1      2139 1.09718E+01
 -1      2140 9.95297E+00
 -1      2141 1.04778E+01
 -1      2142 9.11146E+00
 -1      2143 9.30221E+00
 -1      2144 1.67912E+01
 -1      2145 1.08159E+01
 -1      2146 3.20914E+01
 -1      2147 1.99583E+01
 -1      2148 2.87718E+01
 -1      2149 3.81955E+01
 -1      2150 3.24593E+01
 -1      2151 2.91238E+01
 -1      2152 3.82798E+01
 -1      2153 3.82798E+01
 -1      2154 3.63037E+01
 -1      2155 3.82798E+01
 -1      2156 3.15509E+01
 -1      2157 3.14907E+01
 -1      2158 2.25515E+01
 -1      2159 2.49363E+01
 -1      2160 2.48761E+01
 -1      2161 1.15319E+01
 -1      2162 1.86970E+01
 -1      2163 1.15786E+01
 -1      2164 1.15850E+01
 -1      2165 1.28229E+01
 -1      2166 1.28293E+01
 -1      2167 1.24269E+01
 -1      2168 1.24581E+01
 -1      2169 1.04269E+01
 -1      2170 1.11019E+01
 -1      2171 1.08434E+01
 -1      2172 9.56181E+00
 -1      2173 2.37243E+01
 -1      2174 1.35289E+01
 -1      2175 2.73608E+01
 -1      2176 2.82390E+01
 -1      2177 2.54488E+01
 -1      2178 2.93934E+01
 -1      2179 3.47732E+01
 -1      2180 3.25745E+01
 -1      2181 2.70782E+01
 -1      2182 2.78783E+01
 -1      2183 2.06260E-04
 -1      2184 4.01868E+01
 -1      2185 2.70782E+01
 -1      2186 4.47901E+00
 -1      2187 4.94678E+00
 -1      2188 1.23640E+01
 -1      2189 7.47376E+00
 -1      2190 5.05728E+00
 -1      2191 6.64365E+00
 -1      2192 1.22151E+01
 -1      2193 1.30509E+01
 -1      2194 7.00679E+00
 -1      2195 1.12977E+01
 -1      2196 2.17391E+01
 -1      2197 9.97974E+00
 -1      2198 2.06260E-04
 -1      2199 3.32919E+01
 -1      2200 3.30612E+01
 -1      2201 2.39030E+01
 -1      2202 1.73557E+01
 -1      2203 1.01555E+01
 -1      2204 8.33508E+00
 -1      2205 1.05252E+01
 -1      2206 1.13293E+01
 -1      2207 1.44070E+01
 -1      2208 3.63037E+01
 -1      2209 4.11167E+01
 -1      2210 3.52962E+01
 -1      2211 2.91238E+01
 -1      2212 2.26677E+01
 -1      2213 1.33964E+01
 -1      2214 8.52488E+00
 -1      2215 7.47118E+00
 -1      2216 1.08274E+01
 -1      2217 9.53356E+00
 -1      2218 8.47157E+00
 -1      2219 8.37062E+00
 -1      2220 9.66744E+00
 -1      2221 1.84707E-04
 -1      2222 1.00112E+01
 -1      2223 9.03181E+00
 -1      2224 8.79482E+00
 -1      2225 1.03012E+01
 -1      2226 3.01102E+00
 -1      2227 3.01102E+00
 -1      2228 4.90783E+00
 -1      2229 5.46845E+00
 -1      2230 5.43194E+00
 -1      2231 2.60812E+00
 -1      2232 2.68354E+00
 -1      2233 2.15524E+00
 -1      2234 2.31612E+00
 -1      2235 2.74289E+00
 -1      2236 1.58681E+00
 -1      2237 1.81779E+00
 -1      2238 2.11345E+00
 -1      2239 1.14614E+00
 -1      2240 1.26531E+00
 -1      2241 1.45450E+00
 -1      2242 9.32019E-01
 -1      2243 9.88202E-01
 -1      2244 9.75065E-01
 -1      2245 7.97491E-01
 -1      2246 8.06681E-01
 -1      2247 6.91790E-01
 -1      2248 8.79482E-01
 -1      2249 8.28578E-01
 -1      2250 5.97538E-01
 -1      2251 1.93294E+00
 -1      2252 1.31866E+00
 -1      2253 1.06780E+00
 -1      2254 1.87060E+00
 -1      2255 5.60665E+00
 -1      2256 5.56966E+00
 -1      2257 1.00455E+01
 -1      2258 8.46684E+00
 -1      2259 1.18217E+01
 -1      2260 8.96319E+00
 -1      2261 7.55308E+00
 -1      2262 6.78737E+00
 -1      2263 6.41614E+00
 -1      2264 7.28307E+00
 -1      2265 6.84722E+00
 -1      2266 8.19521E+00
 -1      2267 9.20093E+00
 -1      2268 8.60584E+00
 -1      2269 1.39027E+00
 -1      2270 1.75136E+00
 -1      2271 1.38774E+00
 -1      2272 4.01868E+01
 -1      2273 4.01868E+01
 -1      2274 7.75643E+00
 -1      2275 6.77589E+00
 -1      2276 5.49166E+00
 -1      2277 4.93642E+00
 -1      2278 7.01136E+00
 -1      2279 4.63539E+00
 -1      2280 4.34232E+00
 -1      2281 5.42610E+00
 -1      2282 3.55438E+00
 -1      2283 3.23280E+00
 -1      2284 4.33712E+00
 -1      2285 2.70079E+00
 -1      2286 2.34434E+00
 -1      2287 3.01717E+00
 -1      2288 1.97657E+00
 -1      2289 1.67250E+00
 -1      2290 2.11739E+00
 -1      2291 1.41500E+00
 -1      2292 1.17802E+00
 -1      2293 1.49212E+00
 -1      2294 9.95238E-01
 -1      2295 8.20910E-01
 -1      2296 1.05184E+00
 -1      2297 6.90794E-01
 -1      2298 5.66941E-01
 -1      2299 7.38949E-01
 -1      2300 4.74883E-01
 -1      2301 3.85933E-01
 -1      2302 5.16776E-01
 -1      2303 3.23077E-01
 -1      2304 2.69255E-01
 -1      2305 3.61861E-01
 -1      2306 2.22461E-01
 -1      2307 1.81538E-01
 -1      2308 2.52211E-01
 -1      2309 1.48669E-01
 -1      2310 1.20893E-01
 -1      2311 1.72549E-01
 -1      2312 9.79283E-02
 -1      2313 8.01253E-02
 -1      2314 1.16716E-01
 -1      2315 6.41552E-02
 -1      2316 5.47329E-02
 -1      2317 7.77808E-02
 -1      2318 4.36867E-02
 -1      2319 3.67357E-02
 -1      2320 5.07645E-02
 -1      2321 2.88681E-02
 -1      2322 2.41014E-02
 -1      2323 3.18507E-02
 -1      2324 2.03280E-02
 -1      2325 1.78952E-02
 -1      2326 2.02097E-02
 -1      2327 1.56354E-02
 -1      2328 1.35702E-02
 -1      2329 1.41764E-02
 -1      2330 1.26434E-02
 -1      2331 1.09430E-02
 -1      2332 1.09899E-02
 -1      2333 1.00688E-02
 -1      2334 8.68838E-03
 -1      2335 9.18885E-03
 -1      2336 7.90206E-03
 -1      2337 7.01009E-03
 -1      2338 7.52824E-03
 -1      2339 6.32704E-03
 -1      2340 5.56497E-03
 -1      2341 6.05887E-03
 -1      2342 5.07736E-03
 -1      2343 4.57291E-03
 -1      2344 4.88821E-03
 -1      2345 4.19447E-03
 -1      2346 3.78892E-03
 -1      2347 4.02215E-03
 -1      2348 3.48904E-03
 -1      2349 3.12870E-03
 -1      2350 3.34383E-03
 -1      2351 2.86424E-03
 -1      2352 2.56316E-03
 -1      2353 2.77948E-03
 -1      2354 2.34974E-03
 -1      2355 2.08425E-03
 -1      2356 2.30160E-03
 -1      2357 1.90006E-03
 -1      2358 1.69611E-03
 -1      2359 1.90398E-03
 -1      2360 1.52789E-03
 -1      2361 1.35449E-03
 -1      2362 1.55156E-03
 -1      2363 1.21372E-03
 -1      2364 1.05455E-03
 -1      2365 1.24257E-03
 -1      2366 9.41572E-04
 -1      2367 8.29465E-04
 -1      2368 9.88820E-04
 -1      2369 7.23757E-04
 -1      2370 6.17758E-04
 -1      2371 7.70130E-04
 -1      2372 5.29576E-04
 -1      2373 4.57874E-04
 -1      2374 5.76240E-04
 -1      2375 3.84857E-04
 -1      2376 3.31215E-04
 -1      2377 4.15041E-04
 -1      2378 2.76368E-04
 -1      2379 2.24957E-04
 -1      2380 1.92080E-04
 -1      2381 2.87177E-04
 -1      2382 1.89972E+00
 -1      2383 1.87932E+00
 -1      2384 1.67903E+00
 -1      2385 1.49539E+00
 -1      2386 1.37361E+00
 -1      2387 1.67903E+00
 -1      2388 1.88841E+00
 -1      2389 1.90426E+00
 -1      2390 1.76346E+00
 -1      2391 1.82594E+00
 -1      2392 1.82594E+00
 -1      2393 1.72277E+00
 -1      2394 1.74312E+00
 -1      2395 1.74312E+00
 -1      2396 1.73369E+00
 -1      2397 1.71486E+00
 -1      2398 1.71486E+00
 -1      2399 1.60775E+00
 -1      2400 1.66783E+00
 -1      2401 1.64108E+00
 -1      2402 1.36673E+00
 -1      2403 1.49707E+00
 -1      2404 1.46454E+00
 -1      2405 1.11903E+00
 -1      2406 1.26041E+00
 -1      2407 1.24754E+00
 -1      2408 8.44946E-01
 -1      2409 9.84414E-01
 -1      2410 1.00660E+00
 -1      2411 5.74719E-01
 -1      2412 7.08362E-01
 -1      2413 7.35402E-01
 -1      2414 3.59370E-01
 -1      2415 4.71593E-01
 -1      2416 4.95692E-01
 -1      2417 2.16501E-01
 -1      2418 2.85237E-01
 -1      2419 3.18432E-01
 -1      2420 1.22038E-01
 -1      2421 1.66809E-01
 -1      2422 1.94607E-01
 -1      2423 1.12014E-01
 -1      2424 1.08083E-01
 -1      2425 1.30961E-01
 -1      2426 1.07996E-01
 -1      2427 1.01976E-01
 -1      2428 1.06968E-01
 -1      2429 1.07107E-01
 -1      2430 1.08824E-01
 -1      2431 9.77571E-02
 -1      2432 9.66531E-02
 -1      2433 1.03862E-01
 -1      2434 9.53394E-02
 -1      2435 8.44150E-02
 -1      2436 9.12265E-02
 -1      2437 8.66677E-02
 -1      2438 7.02589E-02
 -1      2439 7.82131E-02
 -1      2440 7.50392E-02
 -1      2441 5.58661E-02
 -1      2442 6.40666E-02
 -1      2443 6.26450E-02
 -1      2444 4.37868E-02
 -1      2445 4.95265E-02
 -1      2446 5.01131E-02
 -1      2447 3.30174E-02
 -1      2448 3.80010E-02
 -1      2449 3.79876E-02
 -1      2450 2.38270E-02
 -1      2451 2.81934E-02
 -1      2452 2.73778E-02
 -1      2453 1.71930E-02
 -1      2454 2.08108E-02
 -1      2455 1.95376E-02
 -1      2456 1.18882E-02
 -1      2457 1.47554E-02
 -1      2458 1.40838E-02
 -1      2459 9.89222E-03
 -1      2460 1.10112E-02
 -1      2461 1.07692E-02
 -1      2462 8.55114E-03
 -1      2463 9.22168E-03
 -1      2464 9.22168E-03
 -1      2465 7.17236E-03
 -1      2466 7.86175E-03
 -1      2467 7.86175E-03
 -1      2468 5.86158E-03
 -1      2469 6.51697E-03
 -1      2470 6.51697E-03
 -1      2471 4.67908E-03
 -1      2472 5.27033E-03
 -1      2473 5.27033E-03
 -1      2474 4.02218E-03
 -1      2475 4.35063E-03
 -1      2476 4.35063E-03
 -1      2477 3.44203E-03
 -1      2478 3.73210E-03
 -1      2479 3.73210E-03
 -1      2480 2.86453E-03
 -1      2481 3.15328E-03
 -1      2482 3.15328E-03
 -1      2483 2.35260E-03
 -1      2484 2.60895E-03
 -1      2485 2.60895E-03
 -1      2486 1.92775E-03
 -1      2487 2.13791E-03
 -1      2488 2.13867E-03
 -1      2489 1.54788E-03
 -1      2490 1.73253E-03
 -1      2491 1.72875E-03
 -1      2492 1.22263E-03
 -1      2493 1.38656E-03
 -1      2494 1.37221E-03
 -1      2495 9.50133E-04
 -1      2496 1.09179E-03
 -1      2497 1.08005E-03
 -1      2498 7.16532E-04
 -1      2499 8.36555E-04
 -1      2500 8.35641E-04
 -1      2501 5.24312E-04
 -1      2502 6.21021E-04
 -1      2503 6.26552E-04
 -1      2504 3.87637E-04
 -1      2505 4.44812E-04
 -1      2506 4.51541E-04
 -1      2507 2.71777E-04
 -1      2508 3.29279E-04
 -1      2509 3.13683E-04
 -1      2510 2.51614E-04
 -1      2511 2.05043E-04
 -1      2512 1.83708E-04
 -1      2513 2.33471E-04
 -1      2514 2.23144E-04
 -1      2515 2.46616E-04
 -1      2516 1.69854E-04
 -1      2517 2.19745E-04
 -1      2518 1.68685E-04
 -1      2519 1.56843E-04
 -1      2520 2.11480E-04
 -1      2521 2.13492E-04
 -1      2522 2.33987E-04
 -1      2523 2.33987E-04
 -1      2524 2.65233E-04
 -1      2525 2.33814E-04
 -1      2526 2.33987E-04
 -1      2527 2.65749E-04
 -1      2528 2.33678E-04
 -1      2529 2.33678E-04
 -1      2530 2.65613E-04
 -1      2531 2.24103E-04
 -1      2532 2.33678E-04
 -1      2533 2.65477E-04
 -1      2534 1.87864E-04
 -1      2535 2.09120E-04
 -1      2536 2.50493E-04
 -1      2537 1.41330E-04
 -1      2538 1.54549E-04
 -1      2539 2.02194E-04
 -1      2540 1.54423E-04
 -1      2541 1.35399E-04
 -1      2542 1.62948E-04
 -1      2543 1.94673E-04
 -1      2544 9.39416E+00
 -1      2545 9.12797E+00
 -1      2546 1.47810E+01
 -1      2547 2.08013E+01
 -1      2548 4.94678E+00
 -1      2549 5.21255E+00
 -1      2550 5.60665E+00
 -1      2551 4.86060E+00
 -1      2552 2.37241E+01
 -1      2553 2.30429E+01
 -1      2554 2.65978E+01
 -1      2555 3.14108E+01
 -1      2556 1.92012E+00
 -1      2557 1.92012E+00
 -1      2558 1.89972E+00
 -1      2559 1.90426E+00
 -1      2560 9.52146E+00
 -1      2561 9.31832E+00
 -1      2562 9.12015E+00
 -1      2563 2.83605E+00
 -1      2564 2.91340E+00
 -1      2565 3.43751E+00
 -1      2566 3.18739E+00
 -1      2567 8.84370E+00
 -1      2568 8.79758E+00
 -1      2569 8.25811E+00
 -1      2570 6.07009E+00
 -1      2571 7.01470E+00
 -1      2572 7.64595E+00
 -1      2573 6.39525E+00
 -1      2574 5.64094E+00
 -1      2575 6.29170E+00
 -1      2576 8.03432E+00
 -1      2577 6.32986E+00
 -1      2578 1.31213E+01
 -1      2579 9.95425E+00
 -1      2580 2.14019E+01
 -1      2581 1.52978E+01
 -1      2582 2.51801E+01
 -1      2583 2.48281E+01
 -1      2584 3.52962E+01
 -1      2585 2.94757E+01
 -1      2586 4.11167E+01
 -1      2587 4.11167E+01
 -1      2588 3.14108E+01
 -1      2589 1.61227E+01
 -1      2590 2.27373E+01
 -1      2591 9.79753E+00
 -1      2592 1.36520E+01
 -1      2593 1.66449E+01
 -1      2594 1.21302E+01
 -1      2595 2.12843E+01
 -1      2596 1.92518E+01
 -1      2597 3.30612E+01
 -1      2598 2.59355E+01
 -1      2599 2.63970E+01
 -1      2600 3.32919E+01
 -1      2601 2.30429E+01
 -1      2602 7.35707E+00
 -1      2603 5.49676E+00
 -1      2604 5.87931E+00
 -1      2605 1.67660E+01
 -1      2606 3.30612E+01
 -1      2607 6.47239E+00
 -1      2608 1.08839E+01
 -1      2609 8.30810E+00
 -1      2610 6.93000E+00
 -1      2611 7.54675E+00
 -1      2612 3.32919E+01
 -1      2613 9.85748E+00
 -1      2614 2.35162E-04
 -1      2615 2.35162E-04
 -1      2616 8.48971E+00
 -1      2617 7.63794E+00
 -1      2618 7.77735E+00
 -1      2619 1.02323E+01
 -1      2620 2.39908E-04
 -1      2621 7.79511E+00
 -1      2622 4.83716E+00
 -1      2623 4.90487E+00
 -1      2624 5.25682E+00
 -1      2625 6.34323E+00
 -1      2626 1.78444E+01
 -1      2627 2.12843E+01
 -1      2628 3.52962E+01
 -1      2629 2.51801E+01
 -1      2630 1.74582E+01
 -1      2631 1.18556E+01
 -1      2632 7.75923E+00
 -1      2633 7.17562E+00
 -1      2634 7.52525E+00
 -1      2635 5.34538E+00
 -1      2636 5.15038E+00
 -1      2637 6.82221E+00
 -1      2638 5.34542E+00
 -1      2639 1.15132E+01
 -1      2640 1.40263E+01
 -1      2641 2.00019E+00
 -1      2642 2.33764E+00
 -1      2643 3.55372E+00
 -1      2644 3.84572E+00
 -1      2645 3.44046E+00
 -1      2646 8.71899E-01
 -1      2647 1.02984E+00
 -1      2648 6.96295E-01
 -1      2649 8.21634E-01
 -1      2650 8.76404E-01
 -1      2651 7.27382E-01
 -1      2652 6.96295E-01
 -1      2653 8.26139E-01
 -1      2654 1.31523E+00
 -1      2655 8.76054E-01
 -1      2656 9.74811E-01
 -1      2657 1.19599E+00
 -1      2658 9.28025E+00
 -1      2659 7.57079E+00
 -1      2660 8.41727E+00
 -1      2661 1.52768E+00
 -1      2662 1.54803E+00
 -1      2663 2.00153E+01
 -1      2664 2.69102E+01
 -1      2665 8.42956E+00
 -1      2666 1.13889E+01
 -1      2667 8.53733E+00
 -1      2668 8.23630E+00
 -1      2669 5.21415E+00
 -1      2670 4.42622E+00
 -1      2671 8.32539E+00
 -1      2672 3.50424E+00
 -1      2673 2.97223E+00
 -1      2674 4.38128E+00
 -1      2675 2.39142E+00
 -1      2676 2.02366E+00
 -1      2677 2.87850E+00
 -1      2678 1.65384E+00
 -1      2679 1.39634E+00
 -1      2680 1.92787E+00
 -1      2681 1.14168E+00
 -1      2682 9.58906E-01
 -1      2683 1.30340E+00
 -1      2684 7.85169E-01
 -1      2685 6.55054E-01
 -1      2686 8.75010E-01
 -1      2687 5.38747E-01
 -1      2688 4.46689E-01
 -1      2689 5.84967E-01
 -1      2690 3.68551E-01
 -1      2691 3.05695E-01
 -1      2692 3.90523E-01
 -1      2693 2.54166E-01
 -1      2694 2.07373E-01
 -1      2695 2.60857E-01
 -1      2696 1.75597E-01
 -1      2697 1.42729E-01
 -1      2698 1.77552E-01
 -1      2699 1.21284E-01
 -1      2700 9.83193E-02
 -1      2701 1.24332E-01
 -1      2702 8.26495E-02
 -1      2703 6.66794E-02
 -1      2704 8.72179E-02
 -1      2705 5.53224E-02
 -1      2706 4.42762E-02
 -1      2707 6.01911E-02
 -1      2708 3.60817E-02
 -1      2709 2.82141E-02
 -1      2710 4.06396E-02
 -1      2711 2.27417E-02
 -1      2712 1.89683E-02
 -1      2713 2.69728E-02
 -1      2714 1.48705E-02
 -1      2715 1.26106E-02
 -1      2716 1.74025E-02
 -1      2717 1.00329E-02
 -1      2718 9.10618E-03
 -1      2719 1.07269E-02
 -1      2720 8.15103E-03
 -1      2721 7.27674E-03
 -1      2722 7.19406E-03
 -1      2723 7.01863E-03
 -1      2724 6.23232E-03
 -1      2725 5.98082E-03
 -1      2726 5.89176E-03
 -1      2727 5.20870E-03
 -1      2728 5.38215E-03
 -1      2729 4.85355E-03
 -1      2730 4.36593E-03
 -1      2731 4.68643E-03
 -1      2732 4.01208E-03
 -1      2733 3.63364E-03
 -1      2734 3.97742E-03
 -1      2735 3.32537E-03
 -1      2736 3.02549E-03
 -1      2737 3.31531E-03
 -1      2738 2.80475E-03
 -1      2739 2.54029E-03
 -1      2740 2.78630E-03
 -1      2741 2.32413E-03
 -1      2742 2.11070E-03
 -1      2743 2.34939E-03
 -1      2744 1.91041E-03
 -1      2745 1.72622E-03
 -1      2746 1.93294E-03
 -1      2747 1.55336E-03
 -1      2748 1.38513E-03
 -1      2749 1.55979E-03
 -1      2750 1.24654E-03
 -1      2751 1.10577E-03
 -1      2752 1.24834E-03
 -1      2753 9.88820E-04
 -1      2754 8.75838E-04
 -1      2755 9.92791E-04
 -1      2756 7.70130E-04
 -1      2757 6.64422E-04
 -1      2758 7.70130E-04
 -1      2759 5.78332E-04
 -1      2760 4.90150E-04
 -1      2761 5.78332E-04
 -1      2762 4.22286E-04
 -1      2763 3.49269E-04
 -1      2764 4.24378E-04
 -1      2765 3.00084E-04
 -1      2766 2.45237E-04
 -1      2767 2.07580E-04
 -1      2768 3.07328E-04
 -1      2769 1.53752E+00
 -1      2770 1.54544E+00
 -1      2771 1.35034E+00
 -1      2772 1.62288E+00
 -1      2773 1.68535E+00
 -1      2774 1.40744E+00
 -1      2775 1.46977E+00
 -1      2776 1.53563E+00
 -1      2777 1.36621E+00
 -1      2778 1.31720E+00
 -1      2779 1.42788E+00
 -1      2780 1.32243E+00
 -1      2781 1.15202E+00
 -1      2782 1.25834E+00
 -1      2783 1.22168E+00
 -1      2784 9.06586E-01
 -1      2785 1.04120E+00
 -1      2786 1.05201E+00
 -1      2787 6.75952E-01
 -1      2788 8.12536E-01
 -1      2789 8.47137E-01
 -1      2790 4.78149E-01
 -1      2791 5.81275E-01
 -1      2792 6.58409E-01
 -1      2793 3.18432E-01
 -1      2794 3.92566E-01
 -1      2795 4.78149E-01
 -1      2796 2.03783E-01
 -1      2797 2.53474E-01
 -1      2798 3.27608E-01
 -1      2799 1.56166E-01
 -1      2800 1.70121E-01
 -1      2801 2.28987E-01
 -1      2802 1.17109E-01
 -1      2803 1.27147E-01
 -1      2804 1.66306E-01
 -1      2805 1.06735E-01
 -1      2806 1.05907E-01
 -1      2807 1.26086E-01
 -1      2808 9.83650E-02
 -1      2809 1.01610E-01
 -1      2810 1.09760E-01
 -1      2811 8.55342E-02
 -1      2812 9.09609E-02
 -1      2813 9.72315E-02
 -1      2814 7.28577E-02
 -1      2815 7.90595E-02
 -1      2816 8.33527E-02
 -1      2817 5.98826E-02
 -1      2818 6.60749E-02
 -1      2819 7.00952E-02
 -1      2820 4.71759E-02
 -1      2821 5.35155E-02
 -1      2822 5.69454E-02
 -1      2823 3.54488E-02
 -1      2824 4.12346E-02
 -1      2825 4.46370E-02
 -1      2826 2.54685E-02
 -1      2827 3.02925E-02
 -1      2828 3.35395E-02
 -1      2829 1.82094E-02
 -1      2830 2.12255E-02
 -1      2831 2.41403E-02
 -1      2832 1.24292E-02
 -1      2833 1.48668E-02
 -1      2834 1.65548E-02
 -1      2835 9.06392E-03
 -1      2836 9.94095E-03
 -1      2837 1.07239E-02
 -1      2838 7.15222E-03
 -1      2839 7.82276E-03
 -1      2840 6.99446E-03
 -1      2841 6.23138E-03
 -1      2842 6.92077E-03
 -1      2843 5.52185E-03
 -1      2844 5.34657E-03
 -1      2845 6.00196E-03
 -1      2846 5.06098E-03
 -1      2847 4.45983E-03
 -1      2848 5.05108E-03
 -1      2849 4.53607E-03
 -1      2850 3.81355E-03
 -1      2851 4.14200E-03
 -1      2852 3.92275E-03
 -1      2853 3.21207E-03
 -1      2854 3.50214E-03
 -1      2855 3.29351E-03
 -1      2856 2.73222E-03
 -1      2857 3.02097E-03
 -1      2858 2.79101E-03
 -1      2859 2.28946E-03
 -1      2860 2.54504E-03
 -1      2861 2.41273E-03
 -1      2862 1.88713E-03
 -1      2863 2.10182E-03
 -1      2864 2.03792E-03
 -1      2865 1.52652E-03
 -1      2866 1.72174E-03
 -1      2867 1.68490E-03
 -1      2868 1.21737E-03
 -1      2869 1.37869E-03
 -1      2870 1.37168E-03
 -1      2871 9.53844E-04
 -1      2872 1.08468E-03
 -1      2873 1.09116E-03
 -1      2874 7.25012E-04
 -1      2875 8.38590E-04
 -1      2876 8.43215E-04
 -1      2877 5.42138E-04
 -1      2878 6.37649E-04
 -1      2879 6.40598E-04
 -1      2880 3.87335E-04
 -1      2881 4.66835E-04
 -1      2882 4.77933E-04
 -1      2883 2.84174E-04
 -1      2884 3.42532E-04
 -1      2885 3.57826E-04
 -1      2886 2.68757E-04
 -1      2887 3.03194E-04
 -1      2888 3.03194E-04
 -1      2889 2.95845E-04
 -1      2890 2.77744E-04
 -1      2891 3.02902E-04
 -1      2892 3.03038E-04
 -1      2893 3.40483E-04
 -1      2894 3.03194E-04
 -1      2895 3.02678E-04
 -1      2896 3.33805E-04
 -1      2897 3.40639E-04
 -1      2898 3.02902E-04
 -1      2899 3.02902E-04
 -1      2900 3.40328E-04
 -1      2901 2.84258E-04
 -1      2902 2.99242E-04
 -1      2903 3.36667E-04
 -1      2904 2.39526E-04
 -1      2905 2.72841E-04
 -1      2906 3.21590E-04
 -1      2907 2.91619E+01
 -1      2908 2.20363E+01
 -1      2909 6.65979E+00
 -1      2910 7.05389E+00
 -1      2911 8.62393E+00
 -1      2912 6.70406E+00
 -1      2913 1.24571E+01
 -1      2914 1.53799E+01
 -1      2915 1.95188E+01
 -1      2916 1.48676E+01
 -1      2917 1.56196E+01
 -1      2918 1.67678E+01
 -1      2919 2.01219E+01
 -1      2920 1.86561E+01
 -1      2921 2.83620E+01
 -1      2922 1.06988E+01
 -1      2923 9.41461E+00
 -1      2924 4.43016E+00
 -1      2925 4.10500E+00
 -1      2926 4.70381E+00
 -1      2927 4.01490E+00
 -1      2928 6.17368E+00
 -1      2929 5.02205E+00
 -1      2930 7.80595E+00
 -1      2931 5.88602E+00
 -1      2932 1.16728E+01
 -1      2933 9.49636E+00
 -1      2934 1.60298E+01
 -1      2935 1.26036E+01
 -1      2936 2.19151E+01
 -1      2937 1.76194E+01
 -1      2938 1.27648E+01
 -1      2939 1.24644E+01
 -1      2940 7.11538E+00
 -1      2941 6.83111E+00
 -1      2942 1.21905E+00
 -1      2943 1.54055E+00
 -1      2944 1.76474E+00
 -1      2945 1.11588E+00
 -1      2946 5.96734E+00
 -1      2947 7.86415E+00
 -1      2948 4.83377E+00
 -1      2949 6.28591E+00
 -1      2950 6.79094E+00
 -1      2951 2.74769E+01
 -1      2952 2.16564E+01
 -1      2953 4.65654E+00
 -1      2954 3.84572E+00
 -1      2955 3.99822E+00
 -1      2956 1.52815E+00
 -1      2957 1.73120E+00
 -1      2958 1.74706E+00
 -1      2959 1.37402E+01
 -1      2960 1.00028E+01
 -1      2961 9.25057E+00
 -1      2962 1.01627E+01
 -1      2963 1.36336E+01
 -1      2964 2.69102E+01
 -1      2965 1.58853E+01
 -1      2966 3.78163E+00
 -1      2967 1.63660E+00
 -1      2968 1.43630E+00
 -1      2969 2.40691E-04
 -1      2970 2.84957E-04
 -1      2971 2.27680E-04
 -1      2972 1.62562E+01
 -1      2973 1.32073E+01
 -1      2974 7.04375E+00
 -1      2975 5.99989E+00
 -1      2976 5.74779E+00
 -1      2977 2.08384E-04
 -1      2978 2.14315E-04
 -1      2979 2.84963E-04
 -1      2980 2.58947E-04
 -1      2981 1.94910E+01
 -1      2982 1.19303E+01
 -1      2983 1.16717E+01
 -1      2984 1.24589E+01
 -1      2985 1.47221E+01
 -1      2986 1.22248E+01
 -1      2987 1.74201E+00
 -1      2988 1.72161E+00
 -1      2989 1.56895E+00
 -1      2990 1.02443E+01
 -1      2991 7.62314E+00
 -1      2992 5.03094E+00
 -1      2993 4.75053E+00
 -1      2994 4.21210E+00
 -1      2995 5.09601E+00
 -1      2996 3.76553E+00
 -1      2997 2.54593E-04
 -1      2998 2.39570E-04
 -1      2999 2.68781E-04
 -1      3000 3.03821E-04
 -1      3001 3.91852E+00
 -1      3002 1.47889E+00
 -1      3003 4.63570E+00
 -1      3004 4.73331E+00
 -1      3005 7.16552E+00
 -1      3006 5.29402E+00
 -1      3007 1.23957E+01
 -1      3008 6.16717E+00
 -1      3009 7.07161E+00
 -1      3010 5.64461E+00
 -1      3011 9.97414E+00
 -1      3012 8.41752E+00
 -1      3013 8.44583E+00
 -1      3014 9.24378E-01
 -1      3015 9.24378E-01
 -1      3016 9.45653E-01
 -1      3017 9.95917E-01
 -1      3018 1.04389E+00
 -1      3019 1.30111E+00
 -1      3020 1.44177E+00
 -1      3021 1.44366E+00
 -1      3022 1.17509E+01
 -1      3023 1.41423E+00
 -1      3024 1.39647E+00
 -1      3025 1.48979E+00
 -1      3026 8.95291E+00
 -1      3027 1.13770E+01
 -1      3028 4.84293E+00
 -1      3029 3.92096E+00
 -1      3030 3.10897E+00
 -1      3031 2.52816E+00
 -1      3032 3.57063E+00
 -1      3033 2.05919E+00
 -1      3034 1.68938E+00
 -1      3035 2.28967E+00
 -1      3036 1.39336E+00
 -1      3037 1.13871E+00
 -1      3038 1.52469E+00
 -1      3039 9.44155E-01
 -1      3040 7.70419E-01
 -1      3041 1.03412E+00
 -1      3042 6.40503E-01
 -1      3043 5.24196E-01
 -1      3044 7.09648E-01
 -1      3045 4.35404E-01
 -1      3046 3.57267E-01
 -1      3047 4.90940E-01
 -1      3048 2.93327E-01
 -1      3049 2.41799E-01
 -1      3050 3.38209E-01
 -1      3051 1.97577E-01
 -1      3052 1.65801E-01
 -1      3053 2.30047E-01
 -1      3054 1.35231E-01
 -1      3055 1.13787E-01
 -1      3056 1.55256E-01
 -1      3057 9.38390E-02
 -1      3058 7.81692E-02
 -1      3059 1.04738E-01
 -1      3060 6.43270E-02
 -1      3061 5.29699E-02
 -1      3062 7.09481E-02
 -1      3063 4.35304E-02
 -1      3064 3.53359E-02
 -1      3065 4.76662E-02
 -1      3066 2.86042E-02
 -1      3067 2.31318E-02
 -1      3068 3.14949E-02
 -1      3069 1.89922E-02
 -1      3070 1.48943E-02
 -1      3071 2.06236E-02
 -1      3072 1.19451E-02
 -1      3073 9.36733E-03
 -1      3074 1.35347E-02
 -1      3075 7.27342E-03
 -1      3076 6.31828E-03
 -1      3077 8.49154E-03
 -1      3078 5.02303E-03
 -1      3079 4.76493E-03
 -1      3080 5.10239E-03
 -1      3081 4.64756E-03
 -1      3082 4.30700E-03
 -1      3083 3.68978E-03
 -1      3084 4.26214E-03
 -1      3085 3.90698E-03
 -1      3086 3.52755E-03
 -1      3087 3.76826E-03
 -1      3088 3.41441E-03
 -1      3089 3.34397E-03
 -1      3090 3.22634E-03
 -1      3091 2.91807E-03
 -1      3092 3.01717E-03
 -1      3093 2.71314E-03
 -1      3094 2.49240E-03
 -1      3095 2.62417E-03
 -1      3096 2.32300E-03
 -1      3097 2.10684E-03
 -1      3098 2.24985E-03
 -1      3099 1.96257E-03
 -1      3100 1.76228E-03
 -1      3101 1.93619E-03
 -1      3102 1.61592E-03
 -1      3103 1.44306E-03
 -1      3104 1.64555E-03
 -1      3105 1.30655E-03
 -1      3106 1.16796E-03
 -1      3107 1.36268E-03
 -1      3108 1.04540E-03
 -1      3109 9.28450E-04
 -1      3110 1.10362E-03
 -1      3111 8.16818E-04
 -1      3112 7.11110E-04
 -1      3113 8.69430E-04
 -1      3114 6.13584E-04
 -1      3115 5.27494E-04
 -1      3116 6.60272E-04
 -1      3117 4.74693E-04
 -1      3118 4.06828E-04
 -1      3119 5.09945E-04
 -1      3120 9.16255E+00
 -1      3121 1.21400E+01
 -1      3122 1.05503E+01
 -1      3123 7.92852E+00
 -1      3124 1.40253E+00
 -1      3125 1.47739E+00
 -1      3126 1.46641E+00
 -1      3127 1.18200E+00
 -1      3128 1.24086E+00
 -1      3129 1.02872E+00
 -1      3130 1.13954E+00
 -1      3131 1.15871E+00
 -1      3132 8.42941E-01
 -1      3133 9.36991E-01
 -1      3134 1.02452E+00
 -1      3135 6.58409E-01
 -1      3136 7.53087E-01
 -1      3137 8.42941E-01
 -1      3138 4.71714E-01
 -1      3139 5.57297E-01
 -1      3140 6.51975E-01
 -1      3141 3.34287E-01
 -1      3142 3.99245E-01
 -1      3143 4.78394E-01
 -1      3144 2.43205E-01
 -1      3145 2.76867E-01
 -1      3146 3.48505E-01
 -1      3147 1.66306E-01
 -1      3148 1.95325E-01
 -1      3149 2.43205E-01
 -1      3150 1.35923E-01
 -1      3151 1.47124E-01
 -1      3152 1.76143E-01
 -1      3153 1.17947E-01
 -1      3154 1.23072E-01
 -1      3155 1.44109E-01
 -1      3156 9.80808E-02
 -1      3157 1.05485E-01
 -1      3158 1.18796E-01
 -1      3159 8.28985E-02
 -1      3160 8.93732E-02
 -1      3161 9.76265E-02
 -1      3162 6.76132E-02
 -1      3163 7.43960E-02
 -1      3164 8.04164E-02
 -1      3165 5.32986E-02
 -1      3166 5.96657E-02
 -1      3167 6.39664E-02
 -1      3168 4.07260E-02
 -1      3169 4.66672E-02
 -1      3170 4.93875E-02
 -1      3171 3.00692E-02
 -1      3172 3.52255E-02
 -1      3173 3.72557E-02
 -1      3174 2.13673E-02
 -1      3175 2.56103E-02
 -1      3176 2.72963E-02
 -1      3177 1.45220E-02
 -1      3178 1.78645E-02
 -1      3179 1.93345E-02
 -1      3180 9.35984E-03
 -1      3181 1.18481E-02
 -1      3182 1.31579E-02
 -1      3183 6.13455E-03
 -1      3184 7.37571E-03
 -1      3185 8.49994E-03
 -1      3186 4.47464E-03
 -1      3187 4.70609E-03
 -1      3188 5.08734E-03
 -1      3189 3.93135E-03
 -1      3190 4.16077E-03
 -1      3191 3.34502E-03
 -1      3192 3.69858E-03
 -1      3193 3.99407E-03
 -1      3194 3.09387E-03
 -1      3195 3.31876E-03
 -1      3196 3.63659E-03
 -1      3197 3.09460E-03
 -1      3198 2.87150E-03
 -1      3199 3.18291E-03
 -1      3200 2.89675E-03
 -1      3201 2.50742E-03
 -1      3202 2.69851E-03
 -1      3203 2.58791E-03
 -1      3204 2.14741E-03
 -1      3205 2.33459E-03
 -1      3206 2.24209E-03
 -1      3207 1.83481E-03
 -1      3208 2.02244E-03
 -1      3209 1.94430E-03
 -1      3210 1.53249E-03
 -1      3211 1.69787E-03
 -1      3212 1.68240E-03
 -1      3213 1.24882E-03
 -1      3214 1.39665E-03
 -1      3215 1.40962E-03
 -1      3216 9.89184E-04
 -1      3217 1.12187E-03
 -1      3218 1.14684E-03
 -1      3219 7.60145E-04
 -1      3220 8.75398E-04
 -1      3221 9.06114E-04
 -1      3222 5.74089E-04
 -1      3223 6.61452E-04
 -1      3224 6.93635E-04
 -1      3225 4.15747E-04
 -1      3226 4.91050E-04
 -1      3227 5.11903E-04
 -1      3228 3.31178E-04
 -1      3229 3.75981E-04
 -1      3230 3.89098E-04
 -1      3231 3.03112E-04
 -1      3232 3.76417E-04
 -1      3233 3.80078E-04
 -1      3234 3.72259E-04
 -1      3235 3.72415E-04
 -1      3236 1.23740E+01
 -1      3237 8.37286E+00
 -1      3238 9.44105E+00
 -1      3239 3.54043E+00
 -1      3240 2.94855E+00
 -1      3241 1.29834E+00
 -1      3242 1.34023E+00
 -1      3243 1.25866E+00
 -1      3244 1.16583E+01
 -1      3245 1.15517E+01
 -1      3246 1.00123E+01
 -1      3247 6.99012E+00
 -1      3248 6.52980E+00
 -1      3249 4.03469E-04
 -1      3250 4.14885E-04
 -1      3251 4.58296E-04
 -1      3252 9.61954E+00
 -1      3253 9.71758E+00
 -1      3254 1.11055E+01
 -1      3255 3.80078E-04
 -1      3256 3.80078E-04
 -1      3257 4.12009E-04
 -1      3258 4.19828E-04
 -1      3259 1.25868E+00
 -1      3260 4.92323E+00
 -1      3261 4.26580E+00
 -1      3262 6.98504E+00
 -1      3263 5.29464E+00
 -1      3264 2.76440E+00
 -1      3265 3.98048E+00
 -1      3266 5.19937E+00
 -1      3267 7.34302E+00
 -1      3268 3.15617E+00
 -1      3269 3.88494E+00
 -1      3270 1.23740E+01
 -1      3271 1.14889E+01
 -1      3272 9.32356E+00
 -1      3273 9.14084E+00
 -1      3274 4.93016E+00
 -1      3275 3.74795E+00
 -1      3276 1.48926E+00
 -1      3277 1.53511E+00
 -1      3278 1.48435E+00
 -1      3279 1.06008E+00
 -1      3280 9.90835E-01
 -1      3281 1.18005E+00
 -1      3282 1.41769E+00
 -1      3283 1.10118E+01
 -1      3284 1.10118E+01
 -1      3285 8.92993E+00
 -1      3286 3.43272E+00
 -1      3287 4.98533E+00
 -1      3288 4.50383E+00
 -1      3289 3.85205E+00
 -1      3290 8.91701E+00
 -1      3291 3.08132E-04
 -1      3292 1.20825E+00
 -1      3293 1.07305E+00
 -1      3294 8.65098E+00
 -1      3295 8.34499E+00
 -1      3296 6.01648E+00
 -1      3297 6.65396E+00
 -1      3298 3.78335E-04
 -1      3299 3.71502E-04
 -1      3300 4.99022E+00
 -1      3301 5.03399E+00
 -1      3302 4.26885E+00
 -1      3303 4.57878E+00
 -1      3304 5.31238E+00
 -1      3305 4.74605E+00
 -1      3306 4.10111E-04
 -1      3307 3.78335E-04
 -1      3308 3.78335E-04
 -1      3309 3.25161E+00
 -1      3310 3.07199E+00
 -1      3311 3.26919E+00
 -1      3312 6.78129E+00
 -1      3313 2.91497E+00
 -1      3314 4.29206E+00
 -1      3315 3.58447E-04
 -1      3316 7.74621E+00
 -1      3317 6.70406E+00
 -1      3318 8.62393E+00
 -1      3319 1.46707E+00
 -1      3320 1.46202E+00
 -1      3321 1.42818E+00
 -1      3322 3.65749E-04
 -1      3323 3.42598E-04
 -1      3324 4.10279E-04
 -1      3325 8.08766E+00
 -1      3326 1.24906E+01
 -1      3327 1.11553E+01
 -1      3328 4.43702E+00
 -1      3329 1.91023E+00
 -1      3330 2.45025E+00
 -1      3331 1.45059E+00
 -1      3332 3.83659E-04
 -1      3333 3.98048E+00
 -1      3334 4.65654E+00
 -1      3335 4.76954E-04
 -1      3336 1.47651E+00
 -1      3337 1.39149E+00
 -1      3338 1.20586E+00
 -1      3339 1.37462E+00
 -1      3340 1.27219E+00
 -1      3341 1.32968E+00
 -1      3342 3.46147E+00
 -1      3343 2.73611E+00
 -1      3344 1.47423E+01
 -1      3345 5.25379E-04
 -1      3346 4.86910E-04
 -1      3347 8.10703E+00
 -1      3348 2.28834E+00
 -1      3349 1.81937E+00
 -1      3350 1.50175E+00
 -1      3351 1.20574E+00
 -1      3352 1.50042E+00
 -1      3353 1.00280E+00
 -1      3354 8.08243E-01
 -1      3355 9.79863E-01
 -1      3356 6.98326E-01
 -1      3357 5.68411E-01
 -1      3358 6.67006E-01
 -1      3359 4.94500E-01
 -1      3360 4.05709E-01
 -1      3361 4.83179E-01
 -1      3362 3.48734E-01
 -1      3363 2.84795E-01
 -1      3364 3.52295E-01
 -1      3365 2.42821E-01
 -1      3366 1.98598E-01
 -1      3367 2.53346E-01
 -1      3368 1.67838E-01
 -1      3369 1.37268E-01
 -1      3370 1.80611E-01
 -1      3371 1.14846E-01
 -1      3372 9.48978E-02
 -1      3373 1.27428E-01
 -1      3374 7.86707E-02
 -1      3375 6.48284E-02
 -1      3376 8.87781E-02
 -1      3377 5.33690E-02
 -1      3378 4.39294E-02
 -1      3379 6.10916E-02
 -1      3380 3.62639E-02
 -1      3381 2.95322E-02
 -1      3382 4.19667E-02
 -1      3383 2.37788E-02
 -1      3384 1.96392E-02
 -1      3385 2.85478E-02
 -1      3386 1.55895E-02
 -1      3387 1.26402E-02
 -1      3388 1.87447E-02
 -1      3389 9.82626E-03
 -1      3390 7.73235E-03
 -1      3391 1.18810E-02
 -1      3392 5.78880E-03
 -1      3393 4.49355E-03
 -1      3394 7.12352E-03
 -1      3395 3.18851E-03
 -1      3396 3.07115E-03
 -1      3397 3.87492E-03
 -1      3398 2.82246E-03
 -1      3399 2.77760E-03
 -1      3400 2.32119E-03
 -1      3401 2.91314E-03
 -1      3402 2.77441E-03
 -1      3403 2.20804E-03
 -1      3404 2.78018E-03
 -1      3405 2.59211E-03
 -1      3406 2.34934E-03
 -1      3407 2.51818E-03
 -1      3408 2.31325E-03
 -1      3409 2.28118E-03
 -1      3410 2.19643E-03
 -1      3411 2.02703E-03
 -1      3412 2.09043E-03
 -1      3413 1.89181E-03
 -1      3414 1.74754E-03
 -1      3415 1.83839E-03
 -1      3416 1.64070E-03
 -1      3417 1.49434E-03
 -1      3418 1.59632E-03
 -1      3419 1.38828E-03
 -1      3420 1.25177E-03
 -1      3421 1.38343E-03
 -1      3422 1.14676E-03
 -1      3423 1.02421E-03
 -1      3424 1.17236E-03
 -1      3425 9.21672E-04
 -1      3426 8.10040E-04
 -1      3427 9.64819E-04
 -1      3428 7.18801E-04
 -1      3429 6.21275E-04
 -1      3430 7.71043E-04
 -1      3431 5.29755E-04
 -1      3432 7.17387E+00
 -1      3433 7.45040E+00
 -1      3434 8.42941E-01
 -1      3435 9.32795E-01
 -1      3436 1.06103E+00
 -1      3437 1.15276E+00
 -1      3438 1.06103E+00
 -1      3439 1.21503E+00
 -1      3440 1.25750E+00
 -1      3441 1.25154E+00
 -1      3442 6.53108E-01
 -1      3443 7.54220E-01
 -1      3444 8.44074E-01
 -1      3445 4.88700E-01
 -1      3446 5.61169E-01
 -1      3447 6.63414E-01
 -1      3448 3.48505E-01
 -1      3449 4.05924E-01
 -1      3450 4.88700E-01
 -1      3451 2.43205E-01
 -1      3452 2.91085E-01
 -1      3453 3.48505E-01
 -1      3454 1.90408E-01
 -1      3455 2.09590E-01
 -1      3456 2.57470E-01
 -1      3457 1.51994E-01
 -1      3458 1.64845E-01
 -1      3459 1.98292E-01
 -1      3460 1.20048E-01
 -1      3461 1.32510E-01
 -1      3462 1.53246E-01
 -1      3463 9.82676E-02
 -1      3464 1.06975E-01
 -1      3465 1.20689E-01
 -1      3466 7.77244E-02
 -1      3467 8.62269E-02
 -1      3468 9.55755E-02
 -1      3469 5.94890E-02
 -1      3470 6.74366E-02
 -1      3471 7.32470E-02
 -1      3472 4.55685E-02
 -1      3473 5.21999E-02
 -1      3474 5.56700E-02
 -1      3475 3.42952E-02
 -1      3476 3.97957E-02
 -1      3477 4.26080E-02
 -1      3478 2.50720E-02
 -1      3479 2.95310E-02
 -1      3480 3.20710E-02
 -1      3481 1.75569E-02
 -1      3482 2.10597E-02
 -1      3483 2.32944E-02
 -1      3484 1.18826E-02
 -1      3485 1.45565E-02
 -1      3486 1.62816E-02
 -1      3487 7.58768E-03
 -1      3488 9.57181E-03
 -1      3489 1.09703E-02
 -1      3490 4.42842E-03
 -1      3491 5.85688E-03
 -1      3492 6.92875E-03
 -1      3493 2.87111E-03
 -1      3494 3.18498E-03
 -1      3495 3.95451E-03
 -1      3496 2.38822E-03
 -1      3497 2.32550E-03
 -1      3498 2.16547E-03
 -1      3499 2.54278E-03
 -1      3500 2.60477E-03
 -1      3501 1.83640E-03
 -1      3502 2.47390E-03
 -1      3503 2.60975E-03
 -1      3504 2.11993E-03
 -1      3505 2.27093E-03
 -1      3506 2.44391E-03
 -1      3507 2.15692E-03
 -1      3508 2.01022E-03
 -1      3509 2.18305E-03
 -1      3510 2.03906E-03
 -1      3511 1.76731E-03
 -1      3512 1.89228E-03
 -1      3513 1.83324E-03
 -1      3514 1.53355E-03
 -1      3515 1.67048E-03
 -1      3516 1.61846E-03
 -1      3517 1.29651E-03
 -1      3518 1.43234E-03
 -1      3519 1.42043E-03
 -1      3520 1.06309E-03
 -1      3521 1.19004E-03
 -1      3522 1.21276E-03
 -1      3523 8.45868E-04
 -1      3524 9.59654E-04
 -1      3525 1.00285E-03
 -1      3526 6.50413E-04
 -1      3527 7.49105E-04
 -1      3528 8.02645E-04
 -1      3529 4.88753E-04
 -1      3530 5.71793E-04
 -1      3531 6.27263E-04
 -1      3532 4.16032E-04
 -1      3533 2.14204E+00
 -1      3534 2.11260E+00
 -1      3535 5.88284E-04
 -1      3536 4.65654E+00
 -1      3537 5.69068E+00
 -1      3538 6.72052E+00
 -1      3539 7.49813E+00
 -1      3540 5.35095E+00
 -1      3541 1.37462E+00
 -1      3542 1.38911E+00
 -1      3543 3.32700E+00
 -1      3544 4.64143E+00
 -1      3545 3.61600E+00
 -1      3546 3.58823E+00
 -1      3547 2.77624E+00
 -1      3548 4.55655E+00
 -1      3549 3.32759E-04
 -1      3550 3.20869E-04
 -1      3551 3.67090E-04
 -1      3552 3.94687E-04
 -1      3553 8.10323E+00
 -1      3554 8.65605E+00
 -1      3555 2.03078E+00
 -1      3556 2.03685E+00
 -1      3557 2.68304E+00
 -1      3558 1.64688E+00
 -1      3559 1.74841E+00
 -1      3560 2.37123E+00
 -1      3561 2.41143E+00
 -1      3562 2.61905E+00
 -1      3563 8.53351E+00
 -1      3564 1.22714E+00
 -1      3565 8.26311E+00
 -1      3566 1.38911E+00
 -1      3567 1.22714E+00
 -1      3568 1.22205E+00
 -1      3569 1.38911E+00
 -1      3570 2.44018E+00
 -1      3571 8.11615E+00
 -1      3572 7.35465E+00
 -1      3573 3.19620E+00
 -1      3574 3.08552E+00
 -1      3575 2.50266E+00
 -1      3576 4.70235E-04
 -1      3577 4.62416E-04
 -1      3578 2.30593E+00
 -1      3579 2.82346E+00
 -1      3580 6.08326E+00
 -1      3581 1.32851E+00
 -1      3582 1.32554E+00
 -1      3583 4.58121E-04
 -1      3584 4.58121E-04
 -1      3585 4.06856E-04
 -1      3586 4.59622E+00
 -1      3587 3.98560E+00
 -1      3588 3.74143E+00
 -1      3589 7.18945E+00
 -1      3590 4.15635E+00
 -1      3591 3.46884E+00
 -1      3592 3.39389E+00
 -1      3593 4.52201E-04
 -1      3594 4.58121E-04
 -1      3595 5.00211E-04
 -1      3596 5.10426E-04
 -1      3597 1.51209E+00
 -1      3598 1.44405E+00
 -1      3599 1.45853E+00
 -1      3600 4.58066E+00
 -1      3601 5.00982E-04
 -1      3602 4.95229E-04
 -1      3603 5.43071E-04
 -1      3604 6.01648E+00
 -1      3605 1.66041E+00
 -1      3606 5.37317E-04
 -1      3607 4.70235E-04
 -1      3608 4.70235E-04
 -1      3609 3.24095E+00
 -1      3610 3.55253E+00
 -1      3611 2.09513E+00
 -1      3612 1.53076E+00
 -1      3613 1.54263E+00
 -1      3614 2.38678E+00
 -1      3615 4.66745E-04
 -1      3616 6.16898E-04
 -1      3617 5.20642E-04
 -1      3618 2.38299E+00
 -1      3619 1.89509E+00
 -1      3620 1.64709E+00
 -1      3621 1.96428E+00
 -1      3622 1.01993E+00
 -1      3623 8.16990E-01
 -1      3624 6.79030E-01
 -1      3625 5.69113E-01
 -1      3626 7.19096E-01
 -1      3627 4.91460E-01
 -1      3628 4.17549E-01
 -1      3629 5.03483E-01
 -1      3630 3.51179E-01
 -1      3631 2.94205E-01
 -1      3632 3.59459E-01
 -1      3633 2.47633E-01
 -1      3634 2.05658E-01
 -1      3635 2.46517E-01
 -1      3636 1.76543E-01
 -1      3637 1.45783E-01
 -1      3638 1.70830E-01
 -1      3639 1.28003E-01
 -1      3640 1.05580E-01
 -1      3641 1.23935E-01
 -1      3642 9.14273E-02
 -1      3643 7.52002E-02
 -1      3644 9.20023E-02
 -1      3645 6.44594E-02
 -1      3646 5.30000E-02
 -1      3647 6.71086E-02
 -1      3648 4.48872E-02
 -1      3649 3.72217E-02
 -1      3650 4.82550E-02
 -1      3651 3.09197E-02
 -1      3652 2.51664E-02
 -1      3653 3.38402E-02
 -1      3654 2.08585E-02
 -1      3655 1.68088E-02
 -1      3656 2.32305E-02
 -1      3657 1.36343E-02
 -1      3658 1.08204E-02
 -1      3659 1.57482E-02
 -1      3660 8.52394E-03
 -1      3661 6.58038E-03
 -1      3662 1.02772E-02
 -1      3663 4.98373E-03
 -1      3664 3.67869E-03
 -1      3665 6.38415E-03
 -1      3666 2.61631E-03
 -1      3667 2.36762E-03
 -1      3668 3.72512E-03
 -1      3669 1.67531E-03
 -1      3670 1.81085E-03
 -1      3671 1.97043E-03
 -1      3672 1.93978E-03
 -1      3673 1.94554E-03
 -1      3674 1.40705E-03
 -1      3675 2.02416E-03
 -1      3676 1.95024E-03
 -1      3677 1.61460E-03
 -1      3678 1.94145E-03
 -1      3679 1.82463E-03
 -1      3680 1.68443E-03
 -1      3681 1.76408E-03
 -1      3682 1.62885E-03
 -1      3683 1.61509E-03
 -1      3684 1.54120E-03
 -1      3685 1.43436E-03
 -1      3686 1.46689E-03
 -1      3687 1.33857E-03
 -1      3688 1.23251E-03
 -1      3689 1.28344E-03
 -1      3690 1.15591E-03
 -1      3691 1.05090E-03
 -1      3692 1.11105E-03
 -1      3693 9.68340E-04
 -1      3694 8.65803E-04
 -1      3695 9.51885E-04
 -1      3696 7.83611E-04
 -1      3697 6.92372E-04
 -1      3698 7.87131E-04
 -1      3699 6.63904E-01
 -1      3700 7.55843E-01
 -1      3701 3.58688E+00
 -1      3702 2.89026E+00
 -1      3703 8.24614E-01
 -1      3704 9.13335E-01
 -1      3705 8.25104E-01
 -1      3706 1.25154E+00
 -1      3707 1.31382E+00
 -1      3708 4.88700E-01
 -1      3709 5.71475E-01
 -1      3710 6.63904E-01
 -1      3711 3.59864E-01
 -1      3712 4.17284E-01
 -1      3713 5.00059E-01
 -1      3714 2.68343E-01
 -1      3715 3.01957E-01
 -1      3716 3.70736E-01
 -1      3717 2.06071E-01
 -1      3718 2.31634E-01
 -1      3719 2.76121E-01
 -1      3720 1.56640E-01
 -1      3721 1.76124E-01
 -1      3722 2.09465E-01
 -1      3723 1.20989E-01
 -1      3724 1.34062E-01
 -1      3725 1.56940E-01
 -1      3726 9.20280E-02
 -1      3727 1.04069E-01
 -1      3728 1.17442E-01
 -1      3729 7.06037E-02
 -1      3730 8.08915E-02
 -1      3731 8.93847E-02
 -1      3732 5.52594E-02
 -1      3733 6.25486E-02
 -1      3734 7.01931E-02
 -1      3735 4.26080E-02
 -1      3736 4.83808E-02
 -1      3737 5.52594E-02
 -1      3738 3.17889E-02
 -1      3739 3.65531E-02
 -1      3740 4.23259E-02
 -1      3741 2.27648E-02
 -1      3742 2.67772E-02
 -1      3743 3.12593E-02
 -1      3744 1.57756E-02
 -1      3745 1.87760E-02
 -1      3746 2.22588E-02
 -1      3747 1.04880E-02
 -1      3748 1.27988E-02
 -1      3749 1.52932E-02
 -1      3750 6.62916E-03
 -1      3751 8.35995E-03
 -1      3752 1.01884E-02
 -1      3753 3.81596E-03
 -1      3754 5.05940E-03
 -1      3755 6.49060E-03
 -1      3756 2.23056E-03
 -1      3757 2.77617E-03
 -1      3758 3.88106E-03
 -1      3759 1.87010E-03
 -1      3760 1.65355E-03
 -1      3761 2.26426E-03
 -1      3762 1.78321E-03
 -1      3763 1.71624E-03
 -1      3764 1.53339E-03
 -1      3765 1.87254E-03
 -1      3766 1.90252E-03
 -1      3767 1.49884E-03
 -1      3768 1.80482E-03
 -1      3769 1.89269E-03
 -1      3770 1.63830E-03
 -1      3771 1.64478E-03
 -1      3772 1.76272E-03
 -1      3773 1.61636E-03
 -1      3774 1.47031E-03
 -1      3775 1.56714E-03
 -1      3776 1.49662E-03
 -1      3777 1.28549E-03
 -1      3778 1.38669E-03
 -1      3779 1.33537E-03
 -1      3780 1.10032E-03
 -1      3781 1.20679E-03
 -1      3782 1.17305E-03
 -1      3783 9.12096E-04
 -1      3784 1.01554E-03
 -1      3785 1.00957E-03
 -1      3786 7.33795E-04
 -1      3787 8.30557E-04
 -1      3788 8.43246E-04
 -1      3789 6.29466E-04
 -1      3790 4.61701E+00
 -1      3791 5.07036E+00
 -1      3792 3.69763E+00
 -1      3793 2.87657E+00
 -1      3794 4.93661E+00
 -1      3795 3.17389E+00
 -1      3796 2.76304E+00
 -1      3797 2.84324E+00
 -1      3798 3.89249E+00
 -1      3799 1.08157E+00
 -1      3800 1.20980E+00
 -1      3801 1.27208E+00
 -1      3802 1.06211E+00
 -1      3803 2.35791E+00
 -1      3804 2.03323E+00
 -1      3805 4.76584E-04
 -1      3806 2.13529E+00
 -1      3807 2.84324E+00
 -1      3808 1.53396E+00
 -1      3809 1.21634E+00
 -1      3810 1.61101E+00
 -1      3811 2.89026E+00
 -1      3812 2.80844E+00
 -1      3813 5.40587E+00
 -1      3814 6.05870E+00
 -1      3815 2.54872E+00
 -1      3816 2.24781E+00
 -1      3817 2.17481E+00
 -1      3818 1.54722E+00
 -1      3819 1.56192E+00
 -1      3820 1.86580E+00
 -1      3821 1.54722E+00
 -1      3822 7.08077E+00
 -1      3823 1.59608E+00
 -1      3824 2.38678E+00
 -1      3825 1.75802E+00
 -1      3826 1.32554E+00
 -1      3827 5.69811E+00
 -1      3828 2.76486E+00
 -1      3829 3.30363E+00
 -1      3830 2.37123E+00
 -1      3831 5.67287E-04
 -1      3832 2.38585E+00
 -1      3833 4.12327E+00
 -1      3834 3.11037E+00
 -1      3835 8.62393E+00
 -1      3836 3.27547E+00
 -1      3837 4.74173E+00
 -1      3838 3.61098E+00
 -1      3839 1.55850E+00
 -1      3840 1.49259E+00
 -1      3841 6.45907E-04
 -1      3842 6.12790E-04
 -1      3843 6.73820E-04
 -1      3844 1.05347E+00
 -1      3845 3.31901E+00
 -1      3846 2.94190E+00
 -1      3847 2.59442E+00
 -1      3848 2.28605E+00
 -1      3849 5.43413E-04
 -1      3850 5.33197E-04
 -1      3851 5.48973E-04
 -1      3852 5.48973E-04
 -1      3853 5.71745E-04
 -1      3854 1.52796E+00
 -1      3855 1.45853E+00
 -1      3856 2.15507E+00
 -1      3857 3.09641E+00
 -1      3858 3.91454E+00
 -1      3859 1.45853E+00
 -1      3860 5.41202E-04
 -1      3861 5.41202E-04
 -1      3862 5.74188E-04
 -1      3863 3.01557E+00
 -1      3864 2.52038E+00
 -1      3865 2.01429E+00
 -1      3866 2.74298E+00
 -1      3867 5.03483E-01
 -1      3868 4.25830E-01
 -1      3869 3.67378E-01
 -1      3870 3.01008E-01
 -1      3871 3.67378E-01
 -1      3872 2.60136E-01
 -1      3873 2.13565E-01
 -1      3874 2.68055E-01
 -1      3875 1.82278E-01
 -1      3876 1.53163E-01
 -1      3877 1.95897E-01
 -1      3878 1.29484E-01
 -1      3879 1.11704E-01
 -1      3880 1.40932E-01
 -1      3881 9.46849E-02
 -1      3882 8.05320E-02
 -1      3883 1.00234E-01
 -1      3884 6.69411E-02
 -1      3885 5.62003E-02
 -1      3886 6.96237E-02
 -1      3887 4.87643E-02
 -1      3888 4.06515E-02
 -1      3889 4.85968E-02
 -1      3890 3.44175E-02
 -1      3891 2.81155E-02
 -1      3892 3.49268E-02
 -1      3893 2.39031E-02
 -1      3894 1.95953E-02
 -1      3895 2.44804E-02
 -1      3896 1.64906E-02
 -1      3897 1.33161E-02
 -1      3898 1.71633E-02
 -1      3899 1.10890E-02
 -1      3900 8.79256E-03
 -1      3901 1.18315E-02
 -1      3902 7.12597E-03
 -1      3903 5.52932E-03
 -1      3904 7.93773E-03
 -1      3905 4.35670E-03
 -1      3906 3.29432E-03
 -1      3907 5.09852E-03
 -1      3908 2.53433E-03
 -1      3909 1.84202E-03
 -1      3910 3.16591E-03
 -1      3911 1.27812E-03
 -1      3912 1.40705E-03
 -1      3913 1.84202E-03
 -1      3914 1.27470E-03
 -1      3915 1.35332E-03
 -1      3916 1.14577E-03
 -1      3917 1.45334E-03
 -1      3918 1.44455E-03
 -1      3919 1.11344E-03
 -1      3920 1.46427E-03
 -1      3921 1.40373E-03
 -1      3922 1.23318E-03
 -1      3923 1.37480E-03
 -1      3924 1.28714E-03
 -1      3925 1.22398E-03
 -1      3926 1.23157E-03
 -1      3927 1.13577E-03
 -1      3928 1.13947E-03
 -1      3929 1.06587E-03
 -1      3930 9.89271E-04
 -1      3931 1.01399E-03
 -1      3932 9.14662E-04
 -1      3933 8.32100E-04
 -1      3934 8.69486E-04
 -1      3935 8.08971E-04
 -1      3936 7.26779E-04
 -1      3937 7.71748E-04
 -1      3938 5.22263E-01
 -1      3939 5.93679E-01
 -1      3940 1.94807E+00
 -1      3941 8.19100E-01
 -1      3942 9.11529E-01
 -1      3943 8.41304E-01
 -1      3944 2.92994E-01
 -1      3945 3.29703E-01
 -1      3946 2.09950E-01
 -1      3947 2.39897E-01
 -1      3948 2.93479E-01
 -1      3949 1.57540E-01
 -1      3950 1.80118E-01
 -1      3951 2.10550E-01
 -1      3952 1.12577E-01
 -1      3953 1.29498E-01
 -1      3954 1.52675E-01
 -1      3955 8.93847E-02
 -1      3956 1.00521E-01
 -1      3957 1.12577E-01
 -1      3958 7.01931E-02
 -1      3959 7.82482E-02
 -1      3960 8.93847E-02
 -1      3961 5.40793E-02
 -1      3962 6.09580E-02
 -1      3963 6.90130E-02
 -1      3964 4.01930E-02
 -1      3965 4.62479E-02
 -1      3966 5.19464E-02
 -1      3967 2.90396E-02
 -1      3968 3.40514E-02
 -1      3969 3.79734E-02
 -1      3970 2.03080E-02
 -1      3971 2.42968E-02
 -1      3972 2.70889E-02
 -1      3973 1.37466E-02
 -1      3974 1.67234E-02
 -1      3975 1.87614E-02
 -1      3976 9.05030E-03
 -1      3977 1.11783E-02
 -1      3978 1.26085E-02
 -1      3979 5.72236E-03
 -1      3980 7.29212E-03
 -1      3981 8.28206E-03
 -1      3982 3.61409E-03
 -1      3983 4.65388E-03
 -1      3984 5.45539E-03
 -1      3985 2.26426E-03
 -1      3986 2.84127E-03
 -1      3987 3.61409E-03
 -1      3988 1.53339E-03
 -1      3989 1.68725E-03
 -1      3990 2.26426E-03
 -1      3991 1.32675E-03
 -1      3992 1.20744E-03
 -1      3993 1.36130E-03
 -1      3994 1.44752E-03
 -1      3995 1.42737E-03
 -1      3996 1.13597E-03
 -1      3997 1.43871E-03
 -1      3998 1.48081E-03
 -1      3999 1.26988E-03
 -1      4000 1.33860E-03
 -1      4001 1.41623E-03
 -1      4002 1.28069E-03
 -1      4003 1.19963E-03
 -1      4004 1.28325E-03
 -1      4005 1.20286E-03
 -1      4006 1.04954E-03
 -1      4007 1.12824E-03
 -1      4008 1.07612E-03
 -1      4009 8.96991E-04
 -1      4010 9.81774E-04
 -1      4011 9.36964E-04
 -1      4012 7.83205E-04
 -1      4013 8.64744E-04
 -1      4014 8.36950E-04
 -1      4015 1.98375E+00
 -1      4016 6.41122E-04
 -1      4017 5.86422E-04
 -1      4018 5.45431E-04
 -1      4019 1.98375E+00
 -1      4020 3.93350E-01
 -1      4021 4.51256E-01
 -1      4022 5.44876E-01
 -1      4023 5.88291E-04
 -1      4024 8.59169E-01
 -1      4025 9.27940E-01
 -1      4026 1.01437E+00
 -1      4027 1.76154E+00
 -1      4028 1.40041E+00
 -1      4029 1.96785E+00
 -1      4030 1.56202E+00
 -1      4031 2.03119E+00
 -1      4032 1.73444E+00
 -1      4033 3.39397E+00
 -1      4034 3.03338E+00
 -1      4035 2.24248E+00
 -1      4036 2.72983E+00
 -1      4037 7.61411E-01
 -1      4038 6.23451E-01
 -1      4039 5.45798E-01
 -1      4040 1.13943E+00
 -1      4041 9.43020E-01
 -1      4042 1.28996E+00
 -1      4043 6.09777E-04
 -1      4044 6.17781E-04
 -1      4045 7.29037E-04
 -1      4046 6.93448E-04
 -1      4047 2.83413E+00
 -1      4048 2.50549E+00
 -1      4049 2.34039E+00
 -1      4050 6.62962E-04
 -1      4051 1.72396E+00
 -1      4052 6.97677E-04
 -1      4053 1.73444E+00
 -1      4054 6.15366E-04
 -1      4055 6.09805E-04
 -1      4056 6.53399E-04
 -1      4057 4.10222E-01
 -1      4058 1.69270E+00
 -1      4059 2.03188E+00
 -1      4060 8.47376E-01
 -1      4061 1.53438E+00
 -1      4062 1.99675E+00
 -1      4063 2.22753E+00
 -1      4064 1.36615E+00
 -1      4065 1.83519E+00
 -1      4066 1.40022E+00
 -1      4067 3.47131E-01
 -1      4068 3.06259E-01
 -1      4069 2.49644E-01
 -1      4070 2.18357E-01
 -1      4071 3.28719E-01
 -1      4072 1.54563E-01
 -1      4073 1.30884E-01
 -1      4074 2.08309E-01
 -1      4075 1.08201E-01
 -1      4076 9.11824E-02
 -1      4077 1.21833E-01
 -1      4078 7.70281E-02
 -1      4079 6.34372E-02
 -1      4080 8.49958E-02
 -1      4081 5.29558E-02
 -1      4082 4.55198E-02
 -1      4083 6.03602E-02
 -1      4084 3.86070E-02
 -1      4085 3.23729E-02
 -1      4086 4.29660E-02
 -1      4087 2.71054E-02
 -1      4088 2.28930E-02
 -1      4089 3.07856E-02
 -1      4090 1.89621E-02
 -1      4091 1.58574E-02
 -1      4092 2.15871E-02
 -1      4093 1.31752E-02
 -1      4094 1.09480E-02
 -1      4095 1.49739E-02
 -1      4096 8.94946E-03
 -1      4097 7.28288E-03
 -1      4098 1.02932E-02
 -1      4099 6.62937E-03
 -1      4100 5.45675E-03
 -1      4101 7.64110E-03
 -1      4102 3.81623E-03
 -1      4103 3.05624E-03
 -1      4104 5.34708E-03
 -1      4105 2.25541E-03
 -1      4106 1.69151E-03
 -1      4107 2.90573E-03
 -1      4108 1.23559E-03
 -1      4109 1.10323E-03
 -1      4110 1.64898E-03
 -1      4111 8.76420E-04
 -1      4112 9.76443E-04
 -1      4113 9.66237E-04
 -1      4114 1.07641E-03
 -1      4115 1.09613E-03
 -1      4116 8.39391E-04
 -1      4117 1.13445E-03
 -1      4118 1.10552E-03
 -1      4119 9.77677E-04
 -1      4120 1.08480E-03
 -1      4121 1.02923E-03
 -1      4122 9.95278E-04
 -1      4123 9.82075E-04
 -1      4124 9.12176E-04
 -1      4125 9.27409E-04
 -1      4126 8.44722E-04
 -1      4127 7.70112E-04
 -1      4128 8.12802E-04
 -1      4129 6.76179E-04
 -1      4130 8.41304E-01
 -1      4131 1.06673E+00
 -1      4132 2.89598E-01
 -1      4133 3.19430E-01
 -1      4134 4.38306E-01
 -1      4135 4.91402E-01
 -1      4136 5.17354E-01
 -1      4137 1.12292E-01
 -1      4138 1.24348E-01
 -1      4139 1.11382E-01
 -1      4140 1.22518E-01
 -1      4141 1.34289E-01
 -1      4142 7.89408E-02
 -1      4143 8.81760E-02
 -1      4144 1.21310E-01
 -1      4145 5.74783E-02
 -1      4146 6.53097E-02
 -1      4147 8.44726E-02
 -1      4148 4.04571E-02
 -1      4149 4.65987E-02
 -1      4150 5.99620E-02
 -1      4151 2.79949E-02
 -1      4152 3.27378E-02
 -1      4153 4.13631E-02
 -1      4154 1.89383E-02
 -1      4155 2.25229E-02
 -1      4156 2.81718E-02
 -1      4157 1.25022E-02
 -1      4158 1.50705E-02
 -1      4159 1.88320E-02
 -1      4160 8.18244E-03
 -1      4161 9.94063E-03
 -1      4162 1.24026E-02
 -1      4163 5.43828E-03
 -1      4164 6.50677E-03
 -1      4165 8.16534E-03
 -1      4166 3.35774E-03
 -1      4167 4.13056E-03
 -1      4168 5.18193E-03
 -1      4169 2.25549E-03
 -1      4170 2.83250E-03
 -1      4171 3.34897E-03
 -1      4172 1.32035E-03
 -1      4173 1.64630E-03
 -1      4174 2.21454E-03
 -1      4175 1.06732E-03
 -1      4176 9.66699E-04
 -1      4177 1.25170E-03
 -1      4178 1.13527E-03
 -1      4179 1.10199E-03
 -1      4180 9.32716E-04
 -1      4181 1.13781E-03
 -1      4182 1.16029E-03
 -1      4183 9.92398E-04
 -1      4184 1.08175E-03
 -1      4185 1.13710E-03
 -1      4186 1.01670E-03
 -1      4187 9.47108E-04
 -1      4188 1.01850E-03
 -1      4189 9.52739E-04
 -1      4190 8.74726E-04
 -1      4191 9.42493E-04
 -1      4192 8.84870E-04
 -1      4193 8.04703E-04
 -1      4194 8.36950E-04
 -1      4195 8.42479E-04
 -1      4196 7.29037E-04
 -1      4197 6.18288E-01
 -1      4198 6.89295E-01
 -1      4199 9.14716E-01
 -1      4200 4.96139E-01
 -1      4201 4.37688E-01
 -1      4202 4.75891E-01
 -1      4203 2.29098E+00
 -1      4204 6.50998E-01
 -1      4205 5.31029E-01
 -1      4206 6.01339E-01
 -1      4207 8.74109E-01
 -1      4208 6.92500E-01
 -1      4209 6.77732E-01
 -1      4210 7.01023E-04
 -1      4211 2.02299E-01
 -1      4212 2.30342E-01
 -1      4213 3.39222E-01
 -1      4214 2.38429E+00
 -1      4215 2.16728E+00
 -1      4216 1.68634E+00
 -1      4217 1.29529E+00
 -1      4218 1.03431E+00
 -1      4219 8.79434E-01
 -1      4220 4.12366E-01
 -1      4221 4.76013E-01
 -1      4222 6.20431E-01
 -1      4223 5.57193E-01
 -1      4224 1.71586E+00
 -1      4225 2.10496E+00
 -1      4226 1.82872E+00
 -1      4227 1.27765E+00
 -1      4228 1.94295E+00
 -1      4229 1.43069E+00
 -1      4230 7.71748E-04
 -1      4231 7.48619E-04
 -1      4232 7.01023E-04
 -1      4233 7.46983E-04
 -1      4234 2.02014E-01
 -1      4235 1.33001E+00
 -1      4236 6.00125E-04
 -1      4237 6.00097E-04
 -1      4238 6.75763E-04
 -1      4239 6.47721E-04
 -1      4240 1.33001E+00
 -1      4241 6.77732E-01
 -1      4242 6.36229E-01
 -1      4243 2.72103E-01
 -1      4244 2.08309E-01
 -1      4245 1.44516E-01
 -1      4246 1.21833E-01
 -1      4247 9.86269E-02
 -1      4248 8.44726E-02
 -1      4249 7.08415E-02
 -1      4250 6.03602E-02
 -1      4251 4.94806E-02
 -1      4252 4.25678E-02
 -1      4253 3.48485E-02
 -1      4254 2.95809E-02
 -1      4255 2.41089E-02
 -1      4256 2.01779E-02
 -1      4257 1.63102E-02
 -1      4258 1.36280E-02
 -1      4259 1.10664E-02
 -1      4260 9.06781E-03
 -1      4261 6.98760E-03
 -1      4262 5.34708E-03
 -1      4263 3.26515E-03
 -1      4264 2.46432E-03
 -1      4265 1.85513E-03
 -1      4266 1.39920E-03
 -1      4267 1.04555E-03
 -1      4268 8.18735E-04
 -1      4269 8.53402E-04
 -1      4270 9.53372E-04
 -1      4271 9.78387E-04
 -1      4272 1.01670E-03
 -1      4273 9.95278E-04
 -1      4274 9.48124E-04
 -1      4275 8.80256E-04
 -1      4276 8.12802E-04
 -1      4277 2.08309E-01
 -1      4278 1.98083E-01
 -1      4279 7.39213E-03
 -1      4280 5.43091E-03
 -1      4281 6.73863E-03
 -1      4282 1.01599E-03
 -1      4283 9.52739E-04
 -1      4284 1.01599E-03
 -1      4285 7.75025E-04
 -1      4286 2.76035E-01
 -1      4287 6.36229E-01
 -1      4288 6.01339E-01
 -1      4289 4.82463E-01
 -1      4290 3.91907E-01
 -1      4291 1.73786E+00
 -1      4292 1.34680E+00
 -1      4293 3.32650E-01
 -1      4294 1.85906E+00
 -1      4295 9.19987E-01
 -1      4296 7.59786E-01
 -1      4297 7.18284E-01
 -1      4298 1.22715E+00
 -1      4299 6.36229E-01
 -1      4300 7.64110E-03
 -1      4301 1.01599E-03
 -1      4302 1.56544E+00
 -1      4303 3.79038E-03
 -1      4304 8.84870E-04
 -1      4305 5.57193E-01
 -1      4306 1.36035E+00
 -1      4307 6.99468E-01
 -1      4308 7.81523E-01
 -1      4309 3.28719E-01
 -1      4310 9.33532E-01
 -1      4311 6.46086E-04
 -3
 9999
