    1C
    1UUSER                                                              
    1UDATE              27.october.2022                                 
    1UTIME              01:17:57                                        
    1UHOST                                                              
    1UPGM               CalculiX                                        
    1UVERSION           Version 2.17                             
    1UCOMPILETIME       Thu Jul 23 21:43:50 CEST 2020                    
    1UDIR                                                               
    1UDBN                                                               
    1UMAT    1SOLIDMATERIAL                                             
    2C                          4217                                     1
 -1         1 6.05038E+00 4.09096E+01 0.00000E+00
 -1         2 1.91049E+01 3.73963E+01 0.00000E+00
 -1         3 1.50000E+02 0.00000E+00 0.00000E+00
 -1         4 1.50000E+02 5.00000E+01 0.00000E+00
 -1         5 0.00000E+00 0.00000E+00 0.00000E+00
 -1         6 0.00000E+00 5.00000E+01 0.00000E+00
 -1         7 0.00000E+00 4.73500E+01 0.00000E+00
 -1         8 0.00000E+00 4.50000E+01 0.00000E+00
 -1         9 0.00000E+00 4.27000E+01 0.00000E+00
 -1        10 0.00000E+00 4.05500E+01 0.00000E+00
 -1        11 0.00000E+00 3.83500E+01 0.00000E+00
 -1        12 0.00000E+00 3.63500E+01 0.00000E+00
 -1        13 0.00000E+00 3.41000E+01 0.00000E+00
 -1        14 0.00000E+00 3.21000E+01 0.00000E+00
 -1        15 0.00000E+00 2.95500E+01 0.00000E+00
 -1        16 0.00000E+00 2.66500E+01 0.00000E+00
 -1        17 0.00000E+00 2.37000E+01 0.00000E+00
 -1        18 0.00000E+00 2.07000E+01 0.00000E+00
 -1        19 0.00000E+00 1.77500E+01 0.00000E+00
 -1        20 0.00000E+00 1.48000E+01 0.00000E+00
 -1        21 0.00000E+00 1.18500E+01 0.00000E+00
 -1        22 0.00000E+00 8.85000E+00 0.00000E+00
 -1        23 0.00000E+00 5.90000E+00 0.00000E+00
 -1        24 0.00000E+00 2.95000E+00 0.00000E+00
 -1        25 3.15000E+00 5.00000E+01 0.00000E+00
 -1        26 5.85000E+00 5.00000E+01 0.00000E+00
 -1        27 8.40000E+00 5.00000E+01 0.00000E+00
 -1        28 1.06500E+01 5.00000E+01 0.00000E+00
 -1        29 1.30500E+01 5.00000E+01 0.00000E+00
 -1        30 1.54500E+01 5.00000E+01 0.00000E+00
 -1        31 1.77000E+01 5.00000E+01 0.00000E+00
 -1        32 2.02500E+01 5.00000E+01 0.00000E+00
 -1        33 2.31000E+01 5.00000E+01 0.00000E+00
 -1        34 2.61000E+01 5.00000E+01 0.00000E+00
 -1        35 2.91000E+01 5.00000E+01 0.00000E+00
 -1        36 3.21000E+01 5.00000E+01 0.00000E+00
 -1        37 3.52500E+01 5.00000E+01 0.00000E+00
 -1        38 3.82500E+01 5.00000E+01 0.00000E+00
 -1        39 4.12500E+01 5.00000E+01 0.00000E+00
 -1        40 4.42500E+01 5.00000E+01 0.00000E+00
 -1        41 4.72500E+01 5.00000E+01 0.00000E+00
 -1        42 5.02500E+01 5.00000E+01 0.00000E+00
 -1        43 5.34000E+01 5.00000E+01 0.00000E+00
 -1        44 5.64000E+01 5.00000E+01 0.00000E+00
 -1        45 5.94000E+01 5.00000E+01 0.00000E+00
 -1        46 6.24000E+01 5.00000E+01 0.00000E+00
 -1        47 6.54000E+01 5.00000E+01 0.00000E+00
 -1        48 6.84000E+01 5.00000E+01 0.00000E+00
 -1        49 7.14000E+01 5.00000E+01 0.00000E+00
 -1        50 7.45500E+01 5.00000E+01 0.00000E+00
 -1        51 7.75500E+01 5.00000E+01 0.00000E+00
 -1        52 8.05500E+01 5.00000E+01 0.00000E+00
 -1        53 8.35500E+01 5.00000E+01 0.00000E+00
 -1        54 8.65500E+01 5.00000E+01 0.00000E+00
 -1        55 8.95500E+01 5.00000E+01 0.00000E+00
 -1        56 9.27000E+01 5.00000E+01 0.00000E+00
 -1        57 9.57000E+01 5.00000E+01 0.00000E+00
 -1        58 9.87000E+01 5.00000E+01 0.00000E+00
 -1        59 1.01700E+02 5.00000E+01 0.00000E+00
 -1        60 1.04700E+02 5.00000E+01 0.00000E+00
 -1        61 1.07700E+02 5.00000E+01 0.00000E+00
 -1        62 1.10700E+02 5.00000E+01 0.00000E+00
 -1        63 1.13850E+02 5.00000E+01 0.00000E+00
 -1        64 1.16850E+02 5.00000E+01 0.00000E+00
 -1        65 1.19850E+02 5.00000E+01 0.00000E+00
 -1        66 1.22850E+02 5.00000E+01 0.00000E+00
 -1        67 1.25850E+02 5.00000E+01 0.00000E+00
 -1        68 1.28850E+02 5.00000E+01 0.00000E+00
 -1        69 1.32000E+02 5.00000E+01 0.00000E+00
 -1        70 1.35000E+02 5.00000E+01 0.00000E+00
 -1        71 1.38000E+02 5.00000E+01 0.00000E+00
 -1        72 1.41000E+02 5.00000E+01 0.00000E+00
 -1        73 1.44000E+02 5.00000E+01 0.00000E+00
 -1        74 1.47000E+02 5.00000E+01 0.00000E+00
 -1        75 3.15000E+00 0.00000E+00 0.00000E+00
 -1        76 6.15000E+00 0.00000E+00 0.00000E+00
 -1        77 9.15000E+00 0.00000E+00 0.00000E+00
 -1        78 1.21500E+01 0.00000E+00 0.00000E+00
 -1        79 1.51500E+01 0.00000E+00 0.00000E+00
 -1        80 1.81500E+01 0.00000E+00 0.00000E+00
 -1        81 2.11500E+01 0.00000E+00 0.00000E+00
 -1        82 2.41500E+01 0.00000E+00 0.00000E+00
 -1        83 2.71500E+01 0.00000E+00 0.00000E+00
 -1        84 3.01500E+01 0.00000E+00 0.00000E+00
 -1        85 3.31500E+01 0.00000E+00 0.00000E+00
 -1        86 3.61500E+01 0.00000E+00 0.00000E+00
 -1        87 3.91500E+01 0.00000E+00 0.00000E+00
 -1        88 4.21500E+01 0.00000E+00 0.00000E+00
 -1        89 4.51500E+01 0.00000E+00 0.00000E+00
 -1        90 4.81500E+01 0.00000E+00 0.00000E+00
 -1        91 5.11500E+01 0.00000E+00 0.00000E+00
 -1        92 5.41500E+01 0.00000E+00 0.00000E+00
 -1        93 5.71500E+01 0.00000E+00 0.00000E+00
 -1        94 6.01500E+01 0.00000E+00 0.00000E+00
 -1        95 6.31500E+01 0.00000E+00 0.00000E+00
 -1        96 6.61500E+01 0.00000E+00 0.00000E+00
 -1        97 6.91500E+01 0.00000E+00 0.00000E+00
 -1        98 7.21500E+01 0.00000E+00 0.00000E+00
 -1        99 7.51500E+01 0.00000E+00 0.00000E+00
 -1       100 7.81500E+01 0.00000E+00 0.00000E+00
 -1       101 8.11500E+01 0.00000E+00 0.00000E+00
 -1       102 8.41500E+01 0.00000E+00 0.00000E+00
 -1       103 8.71500E+01 0.00000E+00 0.00000E+00
 -1       104 9.01500E+01 0.00000E+00 0.00000E+00
 -1       105 9.31500E+01 0.00000E+00 0.00000E+00
 -1       106 9.61500E+01 0.00000E+00 0.00000E+00
 -1       107 9.91500E+01 0.00000E+00 0.00000E+00
 -1       108 1.02150E+02 0.00000E+00 0.00000E+00
 -1       109 1.05150E+02 0.00000E+00 0.00000E+00
 -1       110 1.08150E+02 0.00000E+00 0.00000E+00
 -1       111 1.11150E+02 0.00000E+00 0.00000E+00
 -1       112 1.14150E+02 0.00000E+00 0.00000E+00
 -1       113 1.17150E+02 0.00000E+00 0.00000E+00
 -1       114 1.20150E+02 0.00000E+00 0.00000E+00
 -1       115 1.23150E+02 0.00000E+00 0.00000E+00
 -1       116 1.26150E+02 0.00000E+00 0.00000E+00
 -1       117 1.29150E+02 0.00000E+00 0.00000E+00
 -1       118 1.32150E+02 0.00000E+00 0.00000E+00
 -1       119 1.35150E+02 0.00000E+00 0.00000E+00
 -1       120 1.38150E+02 0.00000E+00 0.00000E+00
 -1       121 1.41150E+02 0.00000E+00 0.00000E+00
 -1       122 1.44150E+02 0.00000E+00 0.00000E+00
 -1       123 1.47150E+02 0.00000E+00 0.00000E+00
 -1       124 1.50000E+02 2.95000E+00 0.00000E+00
 -1       125 1.50000E+02 5.90000E+00 0.00000E+00
 -1       126 1.50000E+02 8.85000E+00 0.00000E+00
 -1       127 1.50000E+02 1.18000E+01 0.00000E+00
 -1       128 1.50000E+02 1.47500E+01 0.00000E+00
 -1       129 1.50000E+02 1.76500E+01 0.00000E+00
 -1       130 1.50000E+02 2.06000E+01 0.00000E+00
 -1       131 1.50000E+02 2.35500E+01 0.00000E+00
 -1       132 1.50000E+02 2.65000E+01 0.00000E+00
 -1       133 1.50000E+02 2.94500E+01 0.00000E+00
 -1       134 1.50000E+02 3.24000E+01 0.00000E+00
 -1       135 1.50000E+02 3.53000E+01 0.00000E+00
 -1       136 1.50000E+02 3.82500E+01 0.00000E+00
 -1       137 1.50000E+02 4.12000E+01 0.00000E+00
 -1       138 1.50000E+02 4.41500E+01 0.00000E+00
 -1       139 1.50000E+02 4.71000E+01 0.00000E+00
 -1       140 1.89557E+01 3.59589E+01 0.00000E+00
 -1       141 1.84729E+01 3.44898E+01 0.00000E+00
 -1       142 1.77251E+01 3.32235E+01 0.00000E+00
 -1       143 1.66983E+01 3.21143E+01 0.00000E+00
 -1       144 1.54285E+01 3.12357E+01 0.00000E+00
 -1       145 1.40581E+01 3.06744E+01 0.00000E+00
 -1       146 1.25535E+01 3.04107E+01 0.00000E+00
 -1       147 1.10385E+01 3.04780E+01 0.00000E+00
 -1       148 9.55976E+00 3.08754E+01 0.00000E+00
 -1       149 8.18526E+00 3.15966E+01 0.00000E+00
 -1       150 7.06157E+00 3.25419E+01 0.00000E+00
 -1       151 6.15768E+00 3.37043E+01 0.00000E+00
 -1       152 5.49570E+00 3.50900E+01 0.00000E+00
 -1       153 5.16391E+00 3.64890E+01 0.00000E+00
 -1       154 5.13270E+00 3.80201E+01 0.00000E+00
 -1       155 5.43273E+00 3.95136E+01 0.00000E+00
 -1       156 6.84394E+00 4.20140E+01 0.00000E+00
 -1       157 7.93564E+00 4.30193E+01 0.00000E+00
 -1       158 9.10394E+00 4.37205E+01 0.00000E+00
 -1       159 1.04130E+01 4.41888E+01 0.00000E+00
 -1       160 1.18920E+01 4.43931E+01 0.00000E+00
 -1       161 1.32225E+01 4.43065E+01 0.00000E+00
 -1       162 1.45936E+01 4.39390E+01 0.00000E+00
 -1       163 1.59248E+01 4.32622E+01 0.00000E+00
 -1       164 1.70229E+01 4.23776E+01 0.00000E+00
 -1       165 1.79468E+01 4.12528E+01 0.00000E+00
 -1       166 1.85895E+01 4.00325E+01 0.00000E+00
 -1       167 1.89772E+01 3.87273E+01 0.00000E+00
 -1       168 2.05025E+00 4.61750E+01 0.00000E+00
 -1       169 2.05025E+00 4.38750E+01 0.00000E+00
 -1       170 2.05025E+00 4.17250E+01 0.00000E+00
 -1       171 2.05025E+00 3.95250E+01 0.00000E+00
 -1       172 2.05025E+00 3.75250E+01 0.00000E+00
 -1       173 2.05025E+00 3.52750E+01 0.00000E+00
 -1       174 2.05025E+00 3.32750E+01 0.00000E+00
 -1       175 2.05025E+00 3.07250E+01 0.00000E+00
 -1       176 2.05025E+00 2.78250E+01 0.00000E+00
 -1       177 2.05025E+00 2.48750E+01 0.00000E+00
 -1       178 2.05025E+00 2.18750E+01 0.00000E+00
 -1       179 2.05025E+00 1.89250E+01 0.00000E+00
 -1       180 2.05025E+00 1.59750E+01 0.00000E+00
 -1       181 2.05025E+00 1.30250E+01 0.00000E+00
 -1       182 2.05025E+00 1.00250E+01 0.00000E+00
 -1       183 2.05025E+00 7.07500E+00 0.00000E+00
 -1       184 2.05025E+00 4.12500E+00 0.00000E+00
 -1       185 2.60013E+00 2.06250E+00 0.00000E+00
 -1       186 4.50000E+00 4.76146E+01 0.00000E+00
 -1       187 7.05000E+00 4.76146E+01 0.00000E+00
 -1       188 9.30000E+00 4.76146E+01 0.00000E+00
 -1       189 1.17000E+01 4.76146E+01 0.00000E+00
 -1       190 1.41000E+01 4.76146E+01 0.00000E+00
 -1       191 1.63500E+01 4.76146E+01 0.00000E+00
 -1       192 1.89000E+01 4.76146E+01 0.00000E+00
 -1       193 2.17500E+01 4.76146E+01 0.00000E+00
 -1       194 2.47500E+01 4.76146E+01 0.00000E+00
 -1       195 2.77500E+01 4.76146E+01 0.00000E+00
 -1       196 3.07500E+01 4.76146E+01 0.00000E+00
 -1       197 3.39000E+01 4.76146E+01 0.00000E+00
 -1       198 3.69000E+01 4.76146E+01 0.00000E+00
 -1       199 3.99000E+01 4.76146E+01 0.00000E+00
 -1       200 4.29000E+01 4.76146E+01 0.00000E+00
 -1       201 4.59000E+01 4.76146E+01 0.00000E+00
 -1       202 4.89000E+01 4.76146E+01 0.00000E+00
 -1       203 5.20500E+01 4.76146E+01 0.00000E+00
 -1       204 5.50500E+01 4.76146E+01 0.00000E+00
 -1       205 5.80500E+01 4.76146E+01 0.00000E+00
 -1       206 6.10500E+01 4.76146E+01 0.00000E+00
 -1       207 6.40500E+01 4.76146E+01 0.00000E+00
 -1       208 6.70500E+01 4.76146E+01 0.00000E+00
 -1       209 7.00500E+01 4.76146E+01 0.00000E+00
 -1       210 7.32000E+01 4.76146E+01 0.00000E+00
 -1       211 7.62000E+01 4.76146E+01 0.00000E+00
 -1       212 7.92000E+01 4.76146E+01 0.00000E+00
 -1       213 8.22000E+01 4.76146E+01 0.00000E+00
 -1       214 8.52000E+01 4.76146E+01 0.00000E+00
 -1       215 8.82000E+01 4.76146E+01 0.00000E+00
 -1       216 9.13500E+01 4.76146E+01 0.00000E+00
 -1       217 9.43500E+01 4.76146E+01 0.00000E+00
 -1       218 9.73500E+01 4.76146E+01 0.00000E+00
 -1       219 1.00350E+02 4.76146E+01 0.00000E+00
 -1       220 1.03350E+02 4.76146E+01 0.00000E+00
 -1       221 1.06350E+02 4.76146E+01 0.00000E+00
 -1       222 1.09350E+02 4.76146E+01 0.00000E+00
 -1       223 1.12500E+02 4.76146E+01 0.00000E+00
 -1       224 1.15500E+02 4.76146E+01 0.00000E+00
 -1       225 1.18500E+02 4.76146E+01 0.00000E+00
 -1       226 1.21500E+02 4.76146E+01 0.00000E+00
 -1       227 1.24500E+02 4.76146E+01 0.00000E+00
 -1       228 1.27500E+02 4.76146E+01 0.00000E+00
 -1       229 1.30650E+02 4.76146E+01 0.00000E+00
 -1       230 1.33650E+02 4.76146E+01 0.00000E+00
 -1       231 1.36650E+02 4.76146E+01 0.00000E+00
 -1       232 1.39650E+02 4.76146E+01 0.00000E+00
 -1       233 1.42650E+02 4.76146E+01 0.00000E+00
 -1       234 1.45650E+02 4.76146E+01 0.00000E+00
 -1       235 1.47825E+02 4.73573E+01 0.00000E+00
 -1       236 5.60013E+00 2.06250E+00 0.00000E+00
 -1       237 8.60013E+00 2.06250E+00 0.00000E+00
 -1       238 1.16001E+01 2.06250E+00 0.00000E+00
 -1       239 1.46001E+01 2.06250E+00 0.00000E+00
 -1       240 1.76001E+01 2.06250E+00 0.00000E+00
 -1       241 2.06001E+01 2.06250E+00 0.00000E+00
 -1       242 2.36001E+01 2.06250E+00 0.00000E+00
 -1       243 2.66001E+01 2.06250E+00 0.00000E+00
 -1       244 2.96001E+01 2.06250E+00 0.00000E+00
 -1       245 3.26001E+01 2.06250E+00 0.00000E+00
 -1       246 3.56001E+01 2.06250E+00 0.00000E+00
 -1       247 3.86001E+01 2.06250E+00 0.00000E+00
 -1       248 4.16001E+01 2.06250E+00 0.00000E+00
 -1       249 4.46001E+01 2.06250E+00 0.00000E+00
 -1       250 4.76001E+01 2.06250E+00 0.00000E+00
 -1       251 5.06001E+01 2.06250E+00 0.00000E+00
 -1       252 5.36001E+01 2.06250E+00 0.00000E+00
 -1       253 5.66001E+01 2.06250E+00 0.00000E+00
 -1       254 5.96001E+01 2.06250E+00 0.00000E+00
 -1       255 6.26001E+01 2.06250E+00 0.00000E+00
 -1       256 6.56001E+01 2.06250E+00 0.00000E+00
 -1       257 6.86001E+01 2.06250E+00 0.00000E+00
 -1       258 7.16001E+01 2.06250E+00 0.00000E+00
 -1       259 7.46001E+01 2.06250E+00 0.00000E+00
 -1       260 7.76001E+01 2.06250E+00 0.00000E+00
 -1       261 8.06001E+01 2.06250E+00 0.00000E+00
 -1       262 8.36001E+01 2.06250E+00 0.00000E+00
 -1       263 8.66001E+01 2.06250E+00 0.00000E+00
 -1       264 8.96001E+01 2.06250E+00 0.00000E+00
 -1       265 9.26001E+01 2.06250E+00 0.00000E+00
 -1       266 9.56001E+01 2.06250E+00 0.00000E+00
 -1       267 9.86001E+01 2.06250E+00 0.00000E+00
 -1       268 1.01600E+02 2.06250E+00 0.00000E+00
 -1       269 1.04600E+02 2.06250E+00 0.00000E+00
 -1       270 1.07600E+02 2.06250E+00 0.00000E+00
 -1       271 1.10600E+02 2.06250E+00 0.00000E+00
 -1       272 1.13600E+02 2.06250E+00 0.00000E+00
 -1       273 1.16600E+02 2.06250E+00 0.00000E+00
 -1       274 1.19600E+02 2.06250E+00 0.00000E+00
 -1       275 1.22600E+02 2.06250E+00 0.00000E+00
 -1       276 1.25600E+02 2.06250E+00 0.00000E+00
 -1       277 1.28600E+02 2.06250E+00 0.00000E+00
 -1       278 1.31600E+02 2.06250E+00 0.00000E+00
 -1       279 1.34600E+02 2.06250E+00 0.00000E+00
 -1       280 1.37600E+02 2.06250E+00 0.00000E+00
 -1       281 1.40600E+02 2.06250E+00 0.00000E+00
 -1       282 1.43600E+02 2.06250E+00 0.00000E+00
 -1       283 1.46600E+02 2.06250E+00 0.00000E+00
 -1       284 1.47402E+02 4.42500E+00 0.00000E+00
 -1       285 1.47402E+02 7.37500E+00 0.00000E+00
 -1       286 1.47402E+02 1.03250E+01 0.00000E+00
 -1       287 1.47402E+02 1.32750E+01 0.00000E+00
 -1       288 1.47402E+02 1.61750E+01 0.00000E+00
 -1       289 1.47402E+02 1.91250E+01 0.00000E+00
 -1       290 1.47402E+02 2.20750E+01 0.00000E+00
 -1       291 1.47402E+02 2.50250E+01 0.00000E+00
 -1       292 1.47402E+02 2.79750E+01 0.00000E+00
 -1       293 1.47402E+02 3.09250E+01 0.00000E+00
 -1       294 1.47402E+02 3.38250E+01 0.00000E+00
 -1       295 1.47402E+02 3.67750E+01 0.00000E+00
 -1       296 1.47402E+02 3.97250E+01 0.00000E+00
 -1       297 1.47402E+02 4.26750E+01 0.00000E+00
 -1       298 1.47613E+02 4.50162E+01 0.00000E+00
 -1       299 2.02362E+01 3.65524E+01 0.00000E+00
 -1       300 1.99457E+01 3.48197E+01 0.00000E+00
 -1       301 1.91430E+01 3.32402E+01 0.00000E+00
 -1       302 1.81015E+01 3.18453E+01 0.00000E+00
 -1       303 1.68486E+01 3.05402E+01 0.00000E+00
 -1       304 1.52029E+01 2.98331E+01 0.00000E+00
 -1       305 1.35295E+01 2.92658E+01 0.00000E+00
 -1       306 1.17347E+01 2.90658E+01 0.00000E+00
 -1       307 9.96272E+00 2.94250E+01 0.00000E+00
 -1       308 8.19241E+00 2.99398E+01 0.00000E+00
 -1       309 6.84292E+00 3.11415E+01 0.00000E+00
 -1       310 5.65253E+00 3.23789E+01 0.00000E+00
 -1       311 4.58150E+00 3.38023E+01 0.00000E+00
 -1       312 4.15013E+00 3.55097E+01 0.00000E+00
 -1       313 3.85239E+00 3.72281E+01 0.00000E+00
 -1       314 4.09406E+00 3.90056E+01 0.00000E+00
 -1       315 4.55619E+00 4.07360E+01 0.00000E+00
 -1       316 5.46256E+00 4.21693E+01 0.00000E+00
 -1       317 6.51175E+00 4.34701E+01 0.00000E+00
 -1       318 7.89589E+00 4.44094E+01 0.00000E+00
 -1       319 9.35005E+00 4.50962E+01 0.00000E+00
 -1       320 1.09637E+01 4.56579E+01 0.00000E+00
 -1       321 1.26360E+01 4.55597E+01 0.00000E+00
 -1       322 1.42437E+01 4.53747E+01 0.00000E+00
 -1       323 1.58846E+01 4.48307E+01 0.00000E+00
 -1       324 1.72344E+01 4.37641E+01 0.00000E+00
 -1       325 1.85512E+01 4.26911E+01 0.00000E+00
 -1       326 1.93408E+01 4.12076E+01 0.00000E+00
 -1       327 1.99456E+01 3.97251E+01 0.00000E+00
 -1       328 2.02479E+01 3.81776E+01 0.00000E+00
 -1       329 4.10051E+00 4.28000E+01 0.00000E+00
 -1       330 4.30025E+00 4.52073E+01 0.00000E+00
 -1       331 4.26808E+00 2.92750E+01 0.00000E+00
 -1       332 4.26808E+00 2.63250E+01 0.00000E+00
 -1       333 4.26808E+00 2.33250E+01 0.00000E+00
 -1       334 4.26808E+00 2.03750E+01 0.00000E+00
 -1       335 4.26808E+00 1.74250E+01 0.00000E+00
 -1       336 4.26808E+00 1.44750E+01 0.00000E+00
 -1       337 4.26808E+00 1.14750E+01 0.00000E+00
 -1       338 4.26808E+00 8.52500E+00 0.00000E+00
 -1       339 4.26808E+00 5.57500E+00 0.00000E+00
 -1       340 4.93410E+00 3.81875E+00 0.00000E+00
 -1       341 7.93410E+00 3.81875E+00 0.00000E+00
 -1       342 1.76250E+01 4.57319E+01 0.00000E+00
 -1       343 2.03250E+01 4.55644E+01 0.00000E+00
 -1       344 2.33250E+01 4.55644E+01 0.00000E+00
 -1       345 2.62500E+01 4.52292E+01 0.00000E+00
 -1       346 2.92500E+01 4.52292E+01 0.00000E+00
 -1       347 3.24000E+01 4.52292E+01 0.00000E+00
 -1       348 3.54000E+01 4.52292E+01 0.00000E+00
 -1       349 3.84000E+01 4.52292E+01 0.00000E+00
 -1       350 4.14000E+01 4.52292E+01 0.00000E+00
 -1       351 4.44000E+01 4.52292E+01 0.00000E+00
 -1       352 4.74000E+01 4.52292E+01 0.00000E+00
 -1       353 5.05500E+01 4.52292E+01 0.00000E+00
 -1       354 5.35500E+01 4.52292E+01 0.00000E+00
 -1       355 5.65500E+01 4.52292E+01 0.00000E+00
 -1       356 5.95500E+01 4.52292E+01 0.00000E+00
 -1       357 6.25500E+01 4.52292E+01 0.00000E+00
 -1       358 6.55500E+01 4.52292E+01 0.00000E+00
 -1       359 6.85500E+01 4.52292E+01 0.00000E+00
 -1       360 7.17000E+01 4.52292E+01 0.00000E+00
 -1       361 7.47000E+01 4.52292E+01 0.00000E+00
 -1       362 7.77000E+01 4.52292E+01 0.00000E+00
 -1       363 8.07000E+01 4.52292E+01 0.00000E+00
 -1       364 8.37000E+01 4.52292E+01 0.00000E+00
 -1       365 8.67000E+01 4.52292E+01 0.00000E+00
 -1       366 8.98500E+01 4.52292E+01 0.00000E+00
 -1       367 9.28500E+01 4.52292E+01 0.00000E+00
 -1       368 9.58500E+01 4.52292E+01 0.00000E+00
 -1       369 9.88500E+01 4.52292E+01 0.00000E+00
 -1       370 1.01850E+02 4.52292E+01 0.00000E+00
 -1       371 1.04850E+02 4.52292E+01 0.00000E+00
 -1       372 1.07850E+02 4.52292E+01 0.00000E+00
 -1       373 1.11000E+02 4.52292E+01 0.00000E+00
 -1       374 1.14000E+02 4.52292E+01 0.00000E+00
 -1       375 1.17000E+02 4.52292E+01 0.00000E+00
 -1       376 1.20000E+02 4.52292E+01 0.00000E+00
 -1       377 1.23000E+02 4.52292E+01 0.00000E+00
 -1       378 1.26000E+02 4.52292E+01 0.00000E+00
 -1       379 1.29150E+02 4.52292E+01 0.00000E+00
 -1       380 1.32150E+02 4.52292E+01 0.00000E+00
 -1       381 1.35150E+02 4.52292E+01 0.00000E+00
 -1       382 1.38150E+02 4.52292E+01 0.00000E+00
 -1       383 1.41150E+02 4.52292E+01 0.00000E+00
 -1       384 1.44150E+02 4.52292E+01 0.00000E+00
 -1       385 1.31001E+01 4.66050E+00 0.00000E+00
 -1       386 1.61001E+01 4.66050E+00 0.00000E+00
 -1       387 1.91001E+01 4.66050E+00 0.00000E+00
 -1       388 2.21001E+01 4.66050E+00 0.00000E+00
 -1       389 2.51001E+01 4.66050E+00 0.00000E+00
 -1       390 2.81001E+01 4.66050E+00 0.00000E+00
 -1       391 3.11001E+01 4.66050E+00 0.00000E+00
 -1       392 3.41001E+01 4.66050E+00 0.00000E+00
 -1       393 3.71001E+01 4.66050E+00 0.00000E+00
 -1       394 4.01001E+01 4.66050E+00 0.00000E+00
 -1       395 4.31001E+01 4.66050E+00 0.00000E+00
 -1       396 4.61001E+01 4.66050E+00 0.00000E+00
 -1       397 4.91001E+01 4.66050E+00 0.00000E+00
 -1       398 5.21001E+01 4.66050E+00 0.00000E+00
 -1       399 5.51001E+01 4.66050E+00 0.00000E+00
 -1       400 5.81001E+01 4.66050E+00 0.00000E+00
 -1       401 6.11001E+01 4.66050E+00 0.00000E+00
 -1       402 6.41001E+01 4.66050E+00 0.00000E+00
 -1       403 6.71001E+01 4.66050E+00 0.00000E+00
 -1       404 7.01001E+01 4.66050E+00 0.00000E+00
 -1       405 7.31001E+01 4.66050E+00 0.00000E+00
 -1       406 7.61001E+01 4.66050E+00 0.00000E+00
 -1       407 7.91001E+01 4.66050E+00 0.00000E+00
 -1       408 8.21001E+01 4.66050E+00 0.00000E+00
 -1       409 8.51001E+01 4.66050E+00 0.00000E+00
 -1       410 8.81001E+01 4.66050E+00 0.00000E+00
 -1       411 9.11001E+01 4.66050E+00 0.00000E+00
 -1       412 9.41001E+01 4.66050E+00 0.00000E+00
 -1       413 9.71001E+01 4.66050E+00 0.00000E+00
 -1       414 1.00100E+02 4.66050E+00 0.00000E+00
 -1       415 1.03100E+02 4.66050E+00 0.00000E+00
 -1       416 1.06100E+02 4.66050E+00 0.00000E+00
 -1       417 1.09100E+02 4.66050E+00 0.00000E+00
 -1       418 1.12100E+02 4.66050E+00 0.00000E+00
 -1       419 1.15100E+02 4.66050E+00 0.00000E+00
 -1       420 1.18100E+02 4.66050E+00 0.00000E+00
 -1       421 1.21100E+02 4.66050E+00 0.00000E+00
 -1       422 1.24100E+02 4.66050E+00 0.00000E+00
 -1       423 1.27100E+02 4.66050E+00 0.00000E+00
 -1       424 1.30100E+02 4.66050E+00 0.00000E+00
 -1       425 1.33100E+02 4.66050E+00 0.00000E+00
 -1       426 1.36100E+02 4.66050E+00 0.00000E+00
 -1       427 1.39100E+02 4.66050E+00 0.00000E+00
 -1       428 1.42100E+02 4.66050E+00 0.00000E+00
 -1       429 1.44751E+02 4.54275E+00 0.00000E+00
 -1       430 1.44804E+02 1.18000E+01 0.00000E+00
 -1       431 1.44804E+02 8.85000E+00 0.00000E+00
 -1       432 1.44804E+02 1.47000E+01 0.00000E+00
 -1       433 1.44804E+02 1.76500E+01 0.00000E+00
 -1       434 1.44804E+02 2.06000E+01 0.00000E+00
 -1       435 1.44804E+02 2.35500E+01 0.00000E+00
 -1       436 1.44804E+02 2.65000E+01 0.00000E+00
 -1       437 1.44804E+02 2.94500E+01 0.00000E+00
 -1       438 1.44804E+02 3.23500E+01 0.00000E+00
 -1       439 1.44804E+02 3.53000E+01 0.00000E+00
 -1       440 1.44804E+02 3.82500E+01 0.00000E+00
 -1       441 1.44804E+02 4.12000E+01 0.00000E+00
 -1       442 1.05171E+01 4.23962E+00 0.00000E+00
 -1       443 2.08493E+01 3.33668E+01 0.00000E+00
 -1       444 1.85914E+01 3.01210E+01 0.00000E+00
 -1       445 2.14519E+01 3.54579E+01 0.00000E+00
 -1       446 3.85139E+00 3.15519E+01 0.00000E+00
 -1       447 2.17895E+01 3.73539E+01 0.00000E+00
 -1       448 1.66035E+01 2.88418E+01 0.00000E+00
 -1       449 1.49302E+01 2.82745E+01 0.00000E+00
 -1       450 1.27943E+01 2.77111E+01 0.00000E+00
 -1       451 1.05413E+01 2.77287E+01 0.00000E+00
 -1       452 8.66877E+00 2.82769E+01 0.00000E+00
 -1       453 6.48852E+00 2.93849E+01 0.00000E+00
 -1       454 5.16996E+00 3.04684E+01 0.00000E+00
 -1       455 6.42894E+00 4.50817E+01 0.00000E+00
 -1       456 8.03367E+00 4.60006E+01 0.00000E+00
 -1       457 2.03121E+01 4.26765E+01 0.00000E+00
 -1       458 2.09168E+01 4.11940E+01 0.00000E+00
 -1       459 2.16155E+01 3.92481E+01 0.00000E+00
 -1       460 1.96330E+01 3.15159E+01 0.00000E+00
 -1       461 5.77500E+00 4.53968E+01 0.00000E+00
 -1       462 1.44477E+02 4.32146E+01 0.00000E+00
 -1       463 4.84781E+00 4.37387E+01 0.00000E+00
 -1       464 1.94381E+01 4.41277E+01 0.00000E+00
 -1       465 1.16544E+01 2.60048E+01 0.00000E+00
 -1       466 6.86608E+00 1.89000E+01 0.00000E+00
 -1       467 6.86608E+00 1.59500E+01 0.00000E+00
 -1       468 6.86608E+00 1.29500E+01 0.00000E+00
 -1       469 6.86608E+00 1.00000E+01 0.00000E+00
 -1       470 6.86608E+00 7.05000E+00 0.00000E+00
 -1       471 7.40009E+00 5.43437E+00 0.00000E+00
 -1       472 2.45541E+01 4.33599E+01 0.00000E+00
 -1       473 3.08250E+01 4.26762E+01 0.00000E+00
 -1       474 3.38250E+01 4.26762E+01 0.00000E+00
 -1       475 3.68250E+01 4.26762E+01 0.00000E+00
 -1       476 3.98250E+01 4.26762E+01 0.00000E+00
 -1       477 4.28250E+01 4.26762E+01 0.00000E+00
 -1       478 4.58250E+01 4.26762E+01 0.00000E+00
 -1       479 4.89750E+01 4.26762E+01 0.00000E+00
 -1       480 5.19750E+01 4.26762E+01 0.00000E+00
 -1       481 5.49750E+01 4.26762E+01 0.00000E+00
 -1       482 5.79750E+01 4.26762E+01 0.00000E+00
 -1       483 6.09750E+01 4.26762E+01 0.00000E+00
 -1       484 6.39750E+01 4.26762E+01 0.00000E+00
 -1       485 6.69750E+01 4.26762E+01 0.00000E+00
 -1       486 7.01250E+01 4.26762E+01 0.00000E+00
 -1       487 7.31250E+01 4.26762E+01 0.00000E+00
 -1       488 7.61250E+01 4.26762E+01 0.00000E+00
 -1       489 7.91250E+01 4.26762E+01 0.00000E+00
 -1       490 8.21250E+01 4.26762E+01 0.00000E+00
 -1       491 8.51250E+01 4.26762E+01 0.00000E+00
 -1       492 8.82750E+01 4.26762E+01 0.00000E+00
 -1       493 9.12750E+01 4.26762E+01 0.00000E+00
 -1       494 9.42750E+01 4.26762E+01 0.00000E+00
 -1       495 9.72750E+01 4.26762E+01 0.00000E+00
 -1       496 1.00275E+02 4.26762E+01 0.00000E+00
 -1       497 1.03275E+02 4.26762E+01 0.00000E+00
 -1       498 1.06275E+02 4.26762E+01 0.00000E+00
 -1       499 1.09425E+02 4.26762E+01 0.00000E+00
 -1       500 1.12425E+02 4.26762E+01 0.00000E+00
 -1       501 1.15425E+02 4.26762E+01 0.00000E+00
 -1       502 1.18425E+02 4.26762E+01 0.00000E+00
 -1       503 1.21425E+02 4.26762E+01 0.00000E+00
 -1       504 1.24425E+02 4.26762E+01 0.00000E+00
 -1       505 1.27575E+02 4.26762E+01 0.00000E+00
 -1       506 1.30575E+02 4.26762E+01 0.00000E+00
 -1       507 1.33575E+02 4.26762E+01 0.00000E+00
 -1       508 1.36575E+02 4.26762E+01 0.00000E+00
 -1       509 1.39575E+02 4.26762E+01 0.00000E+00
 -1       510 1.42026E+02 4.29454E+01 0.00000E+00
 -1       511 2.06001E+01 7.25850E+00 0.00000E+00
 -1       512 1.76001E+01 7.25850E+00 0.00000E+00
 -1       513 1.41269E+02 8.16405E+00 0.00000E+00
 -1       514 1.46001E+01 7.25850E+00 0.00000E+00
 -1       515 2.36001E+01 7.25850E+00 0.00000E+00
 -1       516 2.66001E+01 7.25850E+00 0.00000E+00
 -1       517 2.96001E+01 7.25850E+00 0.00000E+00
 -1       518 3.26001E+01 7.25850E+00 0.00000E+00
 -1       519 3.56001E+01 7.25850E+00 0.00000E+00
 -1       520 3.86001E+01 7.25850E+00 0.00000E+00
 -1       521 4.16001E+01 7.25850E+00 0.00000E+00
 -1       522 4.46001E+01 7.25850E+00 0.00000E+00
 -1       523 4.76001E+01 7.25850E+00 0.00000E+00
 -1       524 5.06001E+01 7.25850E+00 0.00000E+00
 -1       525 5.36001E+01 7.25850E+00 0.00000E+00
 -1       526 5.66001E+01 7.25850E+00 0.00000E+00
 -1       527 5.96001E+01 7.25850E+00 0.00000E+00
 -1       528 6.26001E+01 7.25850E+00 0.00000E+00
 -1       529 6.56001E+01 7.25850E+00 0.00000E+00
 -1       530 6.86001E+01 7.25850E+00 0.00000E+00
 -1       531 7.16001E+01 7.25850E+00 0.00000E+00
 -1       532 7.46001E+01 7.25850E+00 0.00000E+00
 -1       533 7.76001E+01 7.25850E+00 0.00000E+00
 -1       534 8.06001E+01 7.25850E+00 0.00000E+00
 -1       535 8.36001E+01 7.25850E+00 0.00000E+00
 -1       536 8.66001E+01 7.25850E+00 0.00000E+00
 -1       537 8.96001E+01 7.25850E+00 0.00000E+00
 -1       538 9.26001E+01 7.25850E+00 0.00000E+00
 -1       539 9.56001E+01 7.25850E+00 0.00000E+00
 -1       540 9.86001E+01 7.25850E+00 0.00000E+00
 -1       541 1.01600E+02 7.25850E+00 0.00000E+00
 -1       542 1.04600E+02 7.25850E+00 0.00000E+00
 -1       543 1.07600E+02 7.25850E+00 0.00000E+00
 -1       544 1.10600E+02 7.25850E+00 0.00000E+00
 -1       545 1.13600E+02 7.25850E+00 0.00000E+00
 -1       546 1.16600E+02 7.25850E+00 0.00000E+00
 -1       547 1.19600E+02 7.25850E+00 0.00000E+00
 -1       548 1.22600E+02 7.25850E+00 0.00000E+00
 -1       549 1.25600E+02 7.25850E+00 0.00000E+00
 -1       550 1.28600E+02 7.25850E+00 0.00000E+00
 -1       551 1.31600E+02 7.25850E+00 0.00000E+00
 -1       552 1.34600E+02 7.25850E+00 0.00000E+00
 -1       553 1.37600E+02 7.25850E+00 0.00000E+00
 -1       554 1.42206E+02 1.61750E+01 0.00000E+00
 -1       555 1.42206E+02 1.32750E+01 0.00000E+00
 -1       556 1.41738E+02 1.07195E+01 0.00000E+00
 -1       557 2.26376E+01 3.39838E+01 0.00000E+00
 -1       558 1.42206E+02 1.91250E+01 0.00000E+00
 -1       559 1.42206E+02 2.20750E+01 0.00000E+00
 -1       560 1.42206E+02 2.50250E+01 0.00000E+00
 -1       561 1.42206E+02 2.79750E+01 0.00000E+00
 -1       562 1.42206E+02 3.08750E+01 0.00000E+00
 -1       563 1.42206E+02 3.38250E+01 0.00000E+00
 -1       564 1.42206E+02 3.67750E+01 0.00000E+00
 -1       565 1.42206E+02 3.97250E+01 0.00000E+00
 -1       566 2.06207E+01 2.96921E+01 0.00000E+00
 -1       567 2.34105E+01 3.84579E+01 0.00000E+00
 -1       568 2.78250E+01 4.26762E+01 0.00000E+00
 -1       569 2.18250E+01 4.36817E+01 0.00000E+00
 -1       570 6.86608E+00 2.18500E+01 0.00000E+00
 -1       571 6.86608E+00 2.48500E+01 0.00000E+00
 -1       572 2.34742E+01 3.60759E+01 0.00000E+00
 -1       573 1.62906E+01 2.70132E+01 0.00000E+00
 -1       574 1.42783E+01 2.64154E+01 0.00000E+00
 -1       575 9.12313E+00 2.63568E+01 0.00000E+00
 -1       576 6.80158E+00 2.73019E+01 0.00000E+00
 -1       577 2.28804E+01 4.08006E+01 0.00000E+00
 -1       578 1.85256E+01 2.80391E+01 0.00000E+00
 -1       579 2.23527E+01 4.22411E+01 0.00000E+00
 -1       580 2.18370E+01 3.15429E+01 0.00000E+00
 -1       581 9.98310E+00 5.85525E+00 0.00000E+00
 -1       582 1.16002E+01 7.25853E+00 0.00000E+00
 -1       583 9.46408E+00 1.74250E+01 0.00000E+00
 -1       584 9.44909E+00 7.47087E+00 0.00000E+00
 -1       585 3.23250E+01 4.00782E+01 0.00000E+00
 -1       586 9.46408E+00 1.14750E+01 0.00000E+00
 -1       587 2.49817E+01 4.00447E+01 0.00000E+00
 -1       588 3.53250E+01 4.00782E+01 0.00000E+00
 -1       589 3.83250E+01 4.00782E+01 0.00000E+00
 -1       590 4.13250E+01 4.00782E+01 0.00000E+00
 -1       591 4.43250E+01 4.00782E+01 0.00000E+00
 -1       592 4.74750E+01 4.00782E+01 0.00000E+00
 -1       593 5.04750E+01 4.00782E+01 0.00000E+00
 -1       594 5.34750E+01 4.00782E+01 0.00000E+00
 -1       595 5.64750E+01 4.00782E+01 0.00000E+00
 -1       596 5.94750E+01 4.00782E+01 0.00000E+00
 -1       597 6.24750E+01 4.00782E+01 0.00000E+00
 -1       598 6.54750E+01 4.00782E+01 0.00000E+00
 -1       599 6.86250E+01 4.00782E+01 0.00000E+00
 -1       600 7.16250E+01 4.00782E+01 0.00000E+00
 -1       601 7.46250E+01 4.00782E+01 0.00000E+00
 -1       602 7.76250E+01 4.00782E+01 0.00000E+00
 -1       603 8.06250E+01 4.00782E+01 0.00000E+00
 -1       604 8.36250E+01 4.00782E+01 0.00000E+00
 -1       605 8.67750E+01 4.00782E+01 0.00000E+00
 -1       606 8.97750E+01 4.00782E+01 0.00000E+00
 -1       607 9.27750E+01 4.00782E+01 0.00000E+00
 -1       608 9.57750E+01 4.00782E+01 0.00000E+00
 -1       609 9.87750E+01 4.00782E+01 0.00000E+00
 -1       610 1.01775E+02 4.00782E+01 0.00000E+00
 -1       611 1.04775E+02 4.00782E+01 0.00000E+00
 -1       612 1.07925E+02 4.00782E+01 0.00000E+00
 -1       613 1.10925E+02 4.00782E+01 0.00000E+00
 -1       614 1.13925E+02 4.00782E+01 0.00000E+00
 -1       615 1.16925E+02 4.00782E+01 0.00000E+00
 -1       616 1.19925E+02 4.00782E+01 0.00000E+00
 -1       617 1.22925E+02 4.00782E+01 0.00000E+00
 -1       618 1.26075E+02 4.00782E+01 0.00000E+00
 -1       619 1.29075E+02 4.00782E+01 0.00000E+00
 -1       620 1.32075E+02 4.00782E+01 0.00000E+00
 -1       621 1.35075E+02 4.00782E+01 0.00000E+00
 -1       622 1.38075E+02 4.00782E+01 0.00000E+00
 -1       623 1.91001E+01 9.85650E+00 0.00000E+00
 -1       624 2.21001E+01 9.85650E+00 0.00000E+00
 -1       625 1.31002E+01 9.85651E+00 0.00000E+00
 -1       626 1.38069E+02 9.81397E+00 0.00000E+00
 -1       627 2.81001E+01 9.85650E+00 0.00000E+00
 -1       628 3.11001E+01 9.85650E+00 0.00000E+00
 -1       629 3.41001E+01 9.85650E+00 0.00000E+00
 -1       630 3.71001E+01 9.85650E+00 0.00000E+00
 -1       631 4.01001E+01 9.85650E+00 0.00000E+00
 -1       632 4.31001E+01 9.85650E+00 0.00000E+00
 -1       633 4.61001E+01 9.85650E+00 0.00000E+00
 -1       634 4.91001E+01 9.85650E+00 0.00000E+00
 -1       635 5.21001E+01 9.85650E+00 0.00000E+00
 -1       636 5.51001E+01 9.85650E+00 0.00000E+00
 -1       637 5.81001E+01 9.85650E+00 0.00000E+00
 -1       638 6.11001E+01 9.85650E+00 0.00000E+00
 -1       639 6.41001E+01 9.85650E+00 0.00000E+00
 -1       640 6.71001E+01 9.85650E+00 0.00000E+00
 -1       641 7.01001E+01 9.85650E+00 0.00000E+00
 -1       642 7.31001E+01 9.85650E+00 0.00000E+00
 -1       643 7.61001E+01 9.85650E+00 0.00000E+00
 -1       644 7.91001E+01 9.85650E+00 0.00000E+00
 -1       645 8.21001E+01 9.85650E+00 0.00000E+00
 -1       646 8.51001E+01 9.85650E+00 0.00000E+00
 -1       647 8.81001E+01 9.85650E+00 0.00000E+00
 -1       648 9.11001E+01 9.85650E+00 0.00000E+00
 -1       649 9.41001E+01 9.85650E+00 0.00000E+00
 -1       650 9.71001E+01 9.85650E+00 0.00000E+00
 -1       651 1.00100E+02 9.85650E+00 0.00000E+00
 -1       652 1.03100E+02 9.85650E+00 0.00000E+00
 -1       653 1.06100E+02 9.85650E+00 0.00000E+00
 -1       654 1.09100E+02 9.85650E+00 0.00000E+00
 -1       655 1.12100E+02 9.85650E+00 0.00000E+00
 -1       656 1.15100E+02 9.85650E+00 0.00000E+00
 -1       657 1.18100E+02 9.85650E+00 0.00000E+00
 -1       658 1.21100E+02 9.85650E+00 0.00000E+00
 -1       659 1.24100E+02 9.85650E+00 0.00000E+00
 -1       660 1.27100E+02 9.85650E+00 0.00000E+00
 -1       661 1.30100E+02 9.85650E+00 0.00000E+00
 -1       662 1.33100E+02 9.85650E+00 0.00000E+00
 -1       663 1.35584E+02 9.83524E+00 0.00000E+00
 -1       664 1.39608E+02 1.47250E+01 0.00000E+00
 -1       665 1.39608E+02 2.06000E+01 0.00000E+00
 -1       666 1.39608E+02 2.35500E+01 0.00000E+00
 -1       667 1.39608E+02 1.76625E+01 0.00000E+00
 -1       668 2.51001E+01 9.85650E+00 0.00000E+00
 -1       669 1.39608E+02 2.65000E+01 0.00000E+00
 -1       670 1.39608E+02 2.94000E+01 0.00000E+00
 -1       671 1.39608E+02 3.23500E+01 0.00000E+00
 -1       672 1.39608E+02 3.53000E+01 0.00000E+00
 -1       673 2.54919E+01 3.73217E+01 0.00000E+00
 -1       674 2.93250E+01 4.00782E+01 0.00000E+00
 -1       675 9.46408E+00 2.03750E+01 0.00000E+00
 -1       676 9.29360E+00 2.33659E+01 0.00000E+00
 -1       677 2.09469E+01 2.71245E+01 0.00000E+00
 -1       678 1.81936E+01 2.58151E+01 0.00000E+00
 -1       679 2.38670E+01 3.22288E+01 0.00000E+00
 -1       680 1.32185E+01 2.45984E+01 0.00000E+00
 -1       681 1.57729E+01 2.50702E+01 0.00000E+00
 -1       682 1.61002E+01 9.85651E+00 0.00000E+00
 -1       683 2.28022E+01 2.95836E+01 0.00000E+00
 -1       684 2.47036E+01 3.43209E+01 0.00000E+00
 -1       685 9.46408E+00 1.44500E+01 0.00000E+00
 -1       686 1.38537E+02 1.23694E+01 0.00000E+00
 -1       687 1.39608E+02 3.82500E+01 0.00000E+00
 -1       688 1.13413E+01 2.24867E+01 0.00000E+00
 -1       689 1.37010E+02 2.50250E+01 0.00000E+00
 -1       690 3.68250E+01 3.74802E+01 0.00000E+00
 -1       691 3.98250E+01 3.74802E+01 0.00000E+00
 -1       692 4.28250E+01 3.74802E+01 0.00000E+00
 -1       693 4.59750E+01 3.74802E+01 0.00000E+00
 -1       694 4.89750E+01 3.74802E+01 0.00000E+00
 -1       695 5.19750E+01 3.74802E+01 0.00000E+00
 -1       696 5.49750E+01 3.74802E+01 0.00000E+00
 -1       697 5.79750E+01 3.74802E+01 0.00000E+00
 -1       698 6.09750E+01 3.74802E+01 0.00000E+00
 -1       699 6.39750E+01 3.74802E+01 0.00000E+00
 -1       700 6.71250E+01 3.74802E+01 0.00000E+00
 -1       701 7.01250E+01 3.74802E+01 0.00000E+00
 -1       702 7.31250E+01 3.74802E+01 0.00000E+00
 -1       703 7.61250E+01 3.74802E+01 0.00000E+00
 -1       704 7.91250E+01 3.74802E+01 0.00000E+00
 -1       705 8.21250E+01 3.74802E+01 0.00000E+00
 -1       706 8.52750E+01 3.74802E+01 0.00000E+00
 -1       707 8.82750E+01 3.74802E+01 0.00000E+00
 -1       708 9.12750E+01 3.74802E+01 0.00000E+00
 -1       709 9.42750E+01 3.74802E+01 0.00000E+00
 -1       710 9.72750E+01 3.74802E+01 0.00000E+00
 -1       711 1.00275E+02 3.74802E+01 0.00000E+00
 -1       712 1.03275E+02 3.74802E+01 0.00000E+00
 -1       713 1.06425E+02 3.74802E+01 0.00000E+00
 -1       714 1.09425E+02 3.74802E+01 0.00000E+00
 -1       715 1.12425E+02 3.74802E+01 0.00000E+00
 -1       716 1.15425E+02 3.74802E+01 0.00000E+00
 -1       717 1.18425E+02 3.74802E+01 0.00000E+00
 -1       718 1.21425E+02 3.74802E+01 0.00000E+00
 -1       719 1.24575E+02 3.74802E+01 0.00000E+00
 -1       720 1.27575E+02 3.74802E+01 0.00000E+00
 -1       721 1.30575E+02 3.74802E+01 0.00000E+00
 -1       722 1.33575E+02 3.74802E+01 0.00000E+00
 -1       723 1.36575E+02 3.74802E+01 0.00000E+00
 -1       724 1.37010E+02 3.08750E+01 0.00000E+00
 -1       725 2.06001E+01 1.24545E+01 0.00000E+00
 -1       726 3.26001E+01 1.24545E+01 0.00000E+00
 -1       727 2.96001E+01 1.24545E+01 0.00000E+00
 -1       728 3.86001E+01 1.24545E+01 0.00000E+00
 -1       729 4.16001E+01 1.24545E+01 0.00000E+00
 -1       730 4.46001E+01 1.24545E+01 0.00000E+00
 -1       731 4.76001E+01 1.24545E+01 0.00000E+00
 -1       732 5.06001E+01 1.24545E+01 0.00000E+00
 -1       733 5.36001E+01 1.24545E+01 0.00000E+00
 -1       734 5.66001E+01 1.24545E+01 0.00000E+00
 -1       735 5.96001E+01 1.24545E+01 0.00000E+00
 -1       736 6.26001E+01 1.24545E+01 0.00000E+00
 -1       737 6.56001E+01 1.24545E+01 0.00000E+00
 -1       738 6.86001E+01 1.24545E+01 0.00000E+00
 -1       739 7.16001E+01 1.24545E+01 0.00000E+00
 -1       740 7.46001E+01 1.24545E+01 0.00000E+00
 -1       741 7.76001E+01 1.24545E+01 0.00000E+00
 -1       742 8.06001E+01 1.24545E+01 0.00000E+00
 -1       743 8.36001E+01 1.24545E+01 0.00000E+00
 -1       744 8.66001E+01 1.24545E+01 0.00000E+00
 -1       745 8.96001E+01 1.24545E+01 0.00000E+00
 -1       746 9.26001E+01 1.24545E+01 0.00000E+00
 -1       747 9.56001E+01 1.24545E+01 0.00000E+00
 -1       748 9.86001E+01 1.24545E+01 0.00000E+00
 -1       749 1.01600E+02 1.24545E+01 0.00000E+00
 -1       750 1.04600E+02 1.24545E+01 0.00000E+00
 -1       751 1.07600E+02 1.24545E+01 0.00000E+00
 -1       752 1.10600E+02 1.24545E+01 0.00000E+00
 -1       753 1.13600E+02 1.24545E+01 0.00000E+00
 -1       754 1.16600E+02 1.24545E+01 0.00000E+00
 -1       755 1.19600E+02 1.24545E+01 0.00000E+00
 -1       756 1.22600E+02 1.24545E+01 0.00000E+00
 -1       757 1.25600E+02 1.24545E+01 0.00000E+00
 -1       758 1.28600E+02 1.24545E+01 0.00000E+00
 -1       759 1.31600E+02 1.24545E+01 0.00000E+00
 -1       760 1.37010E+02 2.20750E+01 0.00000E+00
 -1       761 1.37010E+02 3.38250E+01 0.00000E+00
 -1       762 1.31002E+01 1.28315E+01 0.00000E+00
 -1       763 2.72428E+01 3.52579E+01 0.00000E+00
 -1       764 1.36053E+02 1.23907E+01 0.00000E+00
 -1       765 3.08250E+01 3.76929E+01 0.00000E+00
 -1       766 1.37010E+02 2.79500E+01 0.00000E+00
 -1       767 1.20621E+01 1.89000E+01 0.00000E+00
 -1       768 1.37124E+02 1.47463E+01 0.00000E+00
 -1       769 3.56001E+01 1.24545E+01 0.00000E+00
 -1       770 2.81584E+01 3.75073E+01 0.00000E+00
 -1       771 1.48072E+01 2.31477E+01 0.00000E+00
 -1       772 3.38250E+01 3.74802E+01 0.00000E+00
 -1       773 2.04507E+01 2.46182E+01 0.00000E+00
 -1       774 2.35112E+01 2.71192E+01 0.00000E+00
 -1       775 1.75863E+01 2.34831E+01 0.00000E+00
 -1       776 2.63446E+01 3.24514E+01 0.00000E+00
 -1       777 2.52798E+01 2.98061E+01 0.00000E+00
 -1       778 2.30151E+01 2.46130E+01 0.00000E+00
 -1       779 1.37010E+02 1.91375E+01 0.00000E+00
 -1       780 1.76002E+01 1.24545E+01 0.00000E+00
 -1       781 2.66001E+01 1.24545E+01 0.00000E+00
 -1       782 1.33826E+02 1.24226E+01 0.00000E+00
 -1       783 2.36001E+01 1.24545E+01 0.00000E+00
 -1       784 1.25811E+01 1.58658E+01 0.00000E+00
 -1       785 4.13250E+01 3.48822E+01 0.00000E+00
 -1       786 4.44750E+01 3.48822E+01 0.00000E+00
 -1       787 4.74750E+01 3.48822E+01 0.00000E+00
 -1       788 5.04750E+01 3.48822E+01 0.00000E+00
 -1       789 5.34750E+01 3.48822E+01 0.00000E+00
 -1       790 5.64750E+01 3.48822E+01 0.00000E+00
 -1       791 5.94750E+01 3.48822E+01 0.00000E+00
 -1       792 6.24750E+01 3.48822E+01 0.00000E+00
 -1       793 6.56250E+01 3.48822E+01 0.00000E+00
 -1       794 6.86250E+01 3.48822E+01 0.00000E+00
 -1       795 7.16250E+01 3.48822E+01 0.00000E+00
 -1       796 7.46250E+01 3.48822E+01 0.00000E+00
 -1       797 7.76250E+01 3.48822E+01 0.00000E+00
 -1       798 8.06250E+01 3.48822E+01 0.00000E+00
 -1       799 8.37750E+01 3.48822E+01 0.00000E+00
 -1       800 8.67750E+01 3.48822E+01 0.00000E+00
 -1       801 8.97750E+01 3.48822E+01 0.00000E+00
 -1       802 9.27750E+01 3.48822E+01 0.00000E+00
 -1       803 9.57750E+01 3.48822E+01 0.00000E+00
 -1       804 9.87750E+01 3.48822E+01 0.00000E+00
 -1       805 1.01775E+02 3.48822E+01 0.00000E+00
 -1       806 1.04925E+02 3.48822E+01 0.00000E+00
 -1       807 1.07925E+02 3.48822E+01 0.00000E+00
 -1       808 1.10925E+02 3.48822E+01 0.00000E+00
 -1       809 1.13925E+02 3.48822E+01 0.00000E+00
 -1       810 1.16925E+02 3.48822E+01 0.00000E+00
 -1       811 1.19925E+02 3.48822E+01 0.00000E+00
 -1       812 1.23075E+02 3.48822E+01 0.00000E+00
 -1       813 1.26075E+02 3.48822E+01 0.00000E+00
 -1       814 1.29075E+02 3.48822E+01 0.00000E+00
 -1       815 1.32075E+02 3.48822E+01 0.00000E+00
 -1       816 1.34542E+02 3.43536E+01 0.00000E+00
 -1       817 2.99094E+01 3.54434E+01 0.00000E+00
 -1       818 3.83250E+01 3.48822E+01 0.00000E+00
 -1       819 4.31001E+01 1.50525E+01 0.00000E+00
 -1       820 4.01001E+01 1.50525E+01 0.00000E+00
 -1       821 4.91001E+01 1.50525E+01 0.00000E+00
 -1       822 5.21001E+01 1.50525E+01 0.00000E+00
 -1       823 5.51001E+01 1.50525E+01 0.00000E+00
 -1       824 5.81001E+01 1.50525E+01 0.00000E+00
 -1       825 6.11001E+01 1.50525E+01 0.00000E+00
 -1       826 6.41001E+01 1.50525E+01 0.00000E+00
 -1       827 6.71001E+01 1.50525E+01 0.00000E+00
 -1       828 7.01001E+01 1.50525E+01 0.00000E+00
 -1       829 7.31001E+01 1.50525E+01 0.00000E+00
 -1       830 7.61001E+01 1.50525E+01 0.00000E+00
 -1       831 7.91001E+01 1.50525E+01 0.00000E+00
 -1       832 8.21001E+01 1.50525E+01 0.00000E+00
 -1       833 8.51001E+01 1.50525E+01 0.00000E+00
 -1       834 8.81001E+01 1.50525E+01 0.00000E+00
 -1       835 9.11001E+01 1.50525E+01 0.00000E+00
 -1       836 9.41001E+01 1.50525E+01 0.00000E+00
 -1       837 9.71001E+01 1.50525E+01 0.00000E+00
 -1       838 1.00100E+02 1.50525E+01 0.00000E+00
 -1       839 1.03100E+02 1.50525E+01 0.00000E+00
 -1       840 1.06100E+02 1.50525E+01 0.00000E+00
 -1       841 1.09100E+02 1.50525E+01 0.00000E+00
 -1       842 1.12100E+02 1.50525E+01 0.00000E+00
 -1       843 1.15100E+02 1.50525E+01 0.00000E+00
 -1       844 1.18100E+02 1.50525E+01 0.00000E+00
 -1       845 1.21100E+02 1.50525E+01 0.00000E+00
 -1       846 1.24100E+02 1.50525E+01 0.00000E+00
 -1       847 1.27100E+02 1.50525E+01 0.00000E+00
 -1       848 1.30100E+02 1.50525E+01 0.00000E+00
 -1       849 1.34412E+02 2.35500E+01 0.00000E+00
 -1       850 3.29094E+01 3.52308E+01 0.00000E+00
 -1       851 1.34542E+02 3.14036E+01 0.00000E+00
 -1       852 2.90112E+01 3.26369E+01 0.00000E+00
 -1       853 1.34898E+02 1.47782E+01 0.00000E+00
 -1       854 4.61001E+01 1.50525E+01 0.00000E+00
 -1       855 3.11001E+01 1.50525E+01 0.00000E+00
 -1       856 3.56172E+01 3.50565E+01 0.00000E+00
 -1       857 1.54381E+01 1.97291E+01 0.00000E+00
 -1       858 2.63880E+01 2.71511E+01 0.00000E+00
 -1       859 2.79464E+01 2.99916E+01 0.00000E+00
 -1       860 1.98973E+01 2.18331E+01 0.00000E+00
 -1       861 1.34412E+02 2.06125E+01 0.00000E+00
 -1       862 2.58919E+01 2.46449E+01 0.00000E+00
 -1       863 1.59571E+01 1.66949E+01 0.00000E+00
 -1       864 1.91001E+01 1.50525E+01 0.00000E+00
 -1       865 2.81001E+01 1.50525E+01 0.00000E+00
 -1       866 3.71001E+01 1.50525E+01 0.00000E+00
 -1       867 1.32326E+02 1.50206E+01 0.00000E+00
 -1       868 1.34412E+02 2.64750E+01 0.00000E+00
 -1       869 2.24617E+01 2.18278E+01 0.00000E+00
 -1       870 1.34477E+02 2.89393E+01 0.00000E+00
 -1       871 3.41001E+01 1.50525E+01 0.00000E+00
 -1       872 2.21001E+01 1.50525E+01 0.00000E+00
 -1       873 1.34655E+02 1.76953E+01 0.00000E+00
 -1       874 1.86856E+01 1.86238E+01 0.00000E+00
 -1       875 3.20112E+01 3.24243E+01 0.00000E+00
 -1       876 4.59750E+01 3.22842E+01 0.00000E+00
 -1       877 4.89750E+01 3.22842E+01 0.00000E+00
 -1       878 5.19750E+01 3.22842E+01 0.00000E+00
 -1       879 5.49750E+01 3.22842E+01 0.00000E+00
 -1       880 5.79750E+01 3.22842E+01 0.00000E+00
 -1       881 6.09750E+01 3.22842E+01 0.00000E+00
 -1       882 6.41250E+01 3.22842E+01 0.00000E+00
 -1       883 6.71250E+01 3.22842E+01 0.00000E+00
 -1       884 7.01250E+01 3.22842E+01 0.00000E+00
 -1       885 7.31250E+01 3.22842E+01 0.00000E+00
 -1       886 7.61250E+01 3.22842E+01 0.00000E+00
 -1       887 7.91250E+01 3.22842E+01 0.00000E+00
 -1       888 8.22750E+01 3.22842E+01 0.00000E+00
 -1       889 8.52750E+01 3.22842E+01 0.00000E+00
 -1       890 8.82750E+01 3.22842E+01 0.00000E+00
 -1       891 9.12750E+01 3.22842E+01 0.00000E+00
 -1       892 9.42750E+01 3.22842E+01 0.00000E+00
 -1       893 9.72750E+01 3.22842E+01 0.00000E+00
 -1       894 1.00275E+02 3.22842E+01 0.00000E+00
 -1       895 1.03425E+02 3.22842E+01 0.00000E+00
 -1       896 1.06425E+02 3.22842E+01 0.00000E+00
 -1       897 1.09425E+02 3.22842E+01 0.00000E+00
 -1       898 1.12425E+02 3.22842E+01 0.00000E+00
 -1       899 1.15425E+02 3.22842E+01 0.00000E+00
 -1       900 1.18425E+02 3.22842E+01 0.00000E+00
 -1       901 1.21575E+02 3.22842E+01 0.00000E+00
 -1       902 1.24575E+02 3.22842E+01 0.00000E+00
 -1       903 1.27575E+02 3.22842E+01 0.00000E+00
 -1       904 1.30575E+02 3.22842E+01 0.00000E+00
 -1       905 1.32559E+02 3.18439E+01 0.00000E+00
 -1       906 4.16001E+01 1.76505E+01 0.00000E+00
 -1       907 3.98250E+01 3.22842E+01 0.00000E+00
 -1       908 5.36001E+01 1.76505E+01 0.00000E+00
 -1       909 5.06001E+01 1.76505E+01 0.00000E+00
 -1       910 5.96001E+01 1.76505E+01 0.00000E+00
 -1       911 6.26001E+01 1.76505E+01 0.00000E+00
 -1       912 6.56001E+01 1.76505E+01 0.00000E+00
 -1       913 6.86001E+01 1.76505E+01 0.00000E+00
 -1       914 7.16001E+01 1.76505E+01 0.00000E+00
 -1       915 7.46001E+01 1.76505E+01 0.00000E+00
 -1       916 7.76001E+01 1.76505E+01 0.00000E+00
 -1       917 8.06001E+01 1.76505E+01 0.00000E+00
 -1       918 8.36001E+01 1.76505E+01 0.00000E+00
 -1       919 8.66001E+01 1.76505E+01 0.00000E+00
 -1       920 8.96001E+01 1.76505E+01 0.00000E+00
 -1       921 9.26001E+01 1.76505E+01 0.00000E+00
 -1       922 9.56001E+01 1.76505E+01 0.00000E+00
 -1       923 9.86001E+01 1.76505E+01 0.00000E+00
 -1       924 1.01600E+02 1.76505E+01 0.00000E+00
 -1       925 1.04600E+02 1.76505E+01 0.00000E+00
 -1       926 1.07600E+02 1.76505E+01 0.00000E+00
 -1       927 1.10600E+02 1.76505E+01 0.00000E+00
 -1       928 1.13600E+02 1.76505E+01 0.00000E+00
 -1       929 1.16600E+02 1.76505E+01 0.00000E+00
 -1       930 1.19600E+02 1.76505E+01 0.00000E+00
 -1       931 1.22600E+02 1.76505E+01 0.00000E+00
 -1       932 1.25600E+02 1.76505E+01 0.00000E+00
 -1       933 1.28600E+02 1.76505E+01 0.00000E+00
 -1       934 2.51001E+01 1.50525E+01 0.00000E+00
 -1       935 4.76001E+01 1.76505E+01 0.00000E+00
 -1       936 5.66001E+01 1.76505E+01 0.00000E+00
 -1       937 4.29000E+01 3.22842E+01 0.00000E+00
 -1       938 3.09464E+01 2.97790E+01 0.00000E+00
 -1       939 2.93880E+01 2.69385E+01 0.00000E+00
 -1       940 4.46001E+01 1.76505E+01 0.00000E+00
 -1       941 2.53384E+01 2.18597E+01 0.00000E+00
 -1       942 3.47190E+01 3.22500E+01 0.00000E+00
 -1       943 1.32493E+02 2.93796E+01 0.00000E+00
 -1       944 3.86001E+01 1.76505E+01 0.00000E+00
 -1       945 2.12499E+01 1.86185E+01 0.00000E+00
 -1       946 1.30826E+02 1.76186E+01 0.00000E+00
 -1       947 2.88919E+01 2.44323E+01 0.00000E+00
 -1       948 1.31814E+02 2.50125E+01 0.00000E+00
 -1       949 3.72720E+01 3.22671E+01 0.00000E+00
 -1       950 2.96001E+01 1.76505E+01 0.00000E+00
 -1       951 1.31814E+02 2.20750E+01 0.00000E+00
 -1       952 3.26001E+01 1.76505E+01 0.00000E+00
 -1       953 5.04750E+01 2.96862E+01 0.00000E+00
 -1       954 5.34750E+01 2.96862E+01 0.00000E+00
 -1       955 5.64750E+01 2.96862E+01 0.00000E+00
 -1       956 5.94750E+01 2.96862E+01 0.00000E+00
 -1       957 6.26250E+01 2.96862E+01 0.00000E+00
 -1       958 6.56250E+01 2.96862E+01 0.00000E+00
 -1       959 6.86250E+01 2.96862E+01 0.00000E+00
 -1       960 7.16250E+01 2.96862E+01 0.00000E+00
 -1       961 7.46250E+01 2.96862E+01 0.00000E+00
 -1       962 7.76250E+01 2.96862E+01 0.00000E+00
 -1       963 8.07750E+01 2.96862E+01 0.00000E+00
 -1       964 8.37750E+01 2.96862E+01 0.00000E+00
 -1       965 8.67750E+01 2.96862E+01 0.00000E+00
 -1       966 8.97750E+01 2.96862E+01 0.00000E+00
 -1       967 9.27750E+01 2.96862E+01 0.00000E+00
 -1       968 9.57750E+01 2.96862E+01 0.00000E+00
 -1       969 9.87750E+01 2.96862E+01 0.00000E+00
 -1       970 1.01925E+02 2.96862E+01 0.00000E+00
 -1       971 1.04925E+02 2.96862E+01 0.00000E+00
 -1       972 1.07925E+02 2.96862E+01 0.00000E+00
 -1       973 1.10925E+02 2.96862E+01 0.00000E+00
 -1       974 1.13925E+02 2.96862E+01 0.00000E+00
 -1       975 1.16925E+02 2.96862E+01 0.00000E+00
 -1       976 1.20075E+02 2.96862E+01 0.00000E+00
 -1       977 1.23075E+02 2.96862E+01 0.00000E+00
 -1       978 1.26075E+02 2.96862E+01 0.00000E+00
 -1       979 1.29075E+02 2.96862E+01 0.00000E+00
 -1       980 1.30784E+02 2.95329E+01 0.00000E+00
 -1       981 2.37809E+01 1.84401E+01 0.00000E+00
 -1       982 6.41001E+01 2.02485E+01 0.00000E+00
 -1       983 6.11001E+01 2.02485E+01 0.00000E+00
 -1       984 7.01001E+01 2.02485E+01 0.00000E+00
 -1       985 7.31001E+01 2.02485E+01 0.00000E+00
 -1       986 7.61001E+01 2.02485E+01 0.00000E+00
 -1       987 7.91001E+01 2.02485E+01 0.00000E+00
 -1       988 8.21001E+01 2.02485E+01 0.00000E+00
 -1       989 8.51001E+01 2.02485E+01 0.00000E+00
 -1       990 8.81001E+01 2.02485E+01 0.00000E+00
 -1       991 9.11001E+01 2.02485E+01 0.00000E+00
 -1       992 9.41001E+01 2.02485E+01 0.00000E+00
 -1       993 9.71001E+01 2.02485E+01 0.00000E+00
 -1       994 1.00100E+02 2.02485E+01 0.00000E+00
 -1       995 1.03100E+02 2.02485E+01 0.00000E+00
 -1       996 1.06100E+02 2.02485E+01 0.00000E+00
 -1       997 1.09100E+02 2.02485E+01 0.00000E+00
 -1       998 1.12100E+02 2.02485E+01 0.00000E+00
 -1       999 1.15100E+02 2.02485E+01 0.00000E+00
 -1      1000 1.18100E+02 2.02485E+01 0.00000E+00
 -1      1001 1.21100E+02 2.02485E+01 0.00000E+00
 -1      1002 1.24100E+02 2.02485E+01 0.00000E+00
 -1      1003 1.27100E+02 2.02485E+01 0.00000E+00
 -1      1004 4.61001E+01 2.02485E+01 0.00000E+00
 -1      1005 3.56001E+01 1.76505E+01 0.00000E+00
 -1      1006 5.21001E+01 2.02485E+01 0.00000E+00
 -1      1007 3.24449E+01 2.71092E+01 0.00000E+00
 -1      1008 4.91001E+01 2.02485E+01 0.00000E+00
 -1      1009 6.71001E+01 2.02485E+01 0.00000E+00
 -1      1010 4.74750E+01 2.96862E+01 0.00000E+00
 -1      1011 3.35820E+01 2.96796E+01 0.00000E+00
 -1      1012 1.32154E+02 2.71961E+01 0.00000E+00
 -1      1013 4.31001E+01 2.02485E+01 0.00000E+00
 -1      1014 2.83384E+01 2.16471E+01 0.00000E+00
 -1      1015 4.01001E+01 2.02485E+01 0.00000E+00
 -1      1016 4.44000E+01 2.96862E+01 0.00000E+00
 -1      1017 3.85659E+01 2.96777E+01 0.00000E+00
 -1      1018 5.51001E+01 2.02485E+01 0.00000E+00
 -1      1019 5.81001E+01 2.02485E+01 0.00000E+00
 -1      1020 1.29457E+02 2.11618E+01 0.00000E+00
 -1      1021 2.66905E+01 1.80453E+01 0.00000E+00
 -1      1022 1.29417E+02 2.65037E+01 0.00000E+00
 -1      1023 4.14830E+01 2.96820E+01 0.00000E+00
 -1      1024 3.19488E+01 2.46030E+01 0.00000E+00
 -1      1025 1.29437E+02 2.38327E+01 0.00000E+00
 -1      1026 3.11001E+01 2.02485E+01 0.00000E+00
 -1      1027 5.49750E+01 2.70882E+01 0.00000E+00
 -1      1028 5.79750E+01 2.70882E+01 0.00000E+00
 -1      1029 6.11250E+01 2.70882E+01 0.00000E+00
 -1      1030 6.41250E+01 2.70882E+01 0.00000E+00
 -1      1031 6.71250E+01 2.70882E+01 0.00000E+00
 -1      1032 7.01250E+01 2.70882E+01 0.00000E+00
 -1      1033 7.31250E+01 2.70882E+01 0.00000E+00
 -1      1034 7.61250E+01 2.70882E+01 0.00000E+00
 -1      1035 7.92750E+01 2.70882E+01 0.00000E+00
 -1      1036 8.22750E+01 2.70882E+01 0.00000E+00
 -1      1037 8.52750E+01 2.70882E+01 0.00000E+00
 -1      1038 8.82750E+01 2.70882E+01 0.00000E+00
 -1      1039 9.12750E+01 2.70882E+01 0.00000E+00
 -1      1040 9.42750E+01 2.70882E+01 0.00000E+00
 -1      1041 9.72750E+01 2.70882E+01 0.00000E+00
 -1      1042 1.00425E+02 2.70882E+01 0.00000E+00
 -1      1043 1.03425E+02 2.70882E+01 0.00000E+00
 -1      1044 1.06425E+02 2.70882E+01 0.00000E+00
 -1      1045 1.09425E+02 2.70882E+01 0.00000E+00
 -1      1046 1.12425E+02 2.70882E+01 0.00000E+00
 -1      1047 1.15425E+02 2.70882E+01 0.00000E+00
 -1      1048 1.18575E+02 2.70882E+01 0.00000E+00
 -1      1049 1.21575E+02 2.70882E+01 0.00000E+00
 -1      1050 1.24575E+02 2.70882E+01 0.00000E+00
 -1      1051 7.76001E+01 2.28465E+01 0.00000E+00
 -1      1052 6.26001E+01 2.28465E+01 0.00000E+00
 -1      1053 6.56001E+01 2.28465E+01 0.00000E+00
 -1      1054 7.46001E+01 2.28465E+01 0.00000E+00
 -1      1055 7.16001E+01 2.28465E+01 0.00000E+00
 -1      1056 8.06001E+01 2.28465E+01 0.00000E+00
 -1      1057 8.36001E+01 2.28465E+01 0.00000E+00
 -1      1058 8.66001E+01 2.28465E+01 0.00000E+00
 -1      1059 8.96001E+01 2.28465E+01 0.00000E+00
 -1      1060 9.26001E+01 2.28465E+01 0.00000E+00
 -1      1061 9.56001E+01 2.28465E+01 0.00000E+00
 -1      1062 9.86001E+01 2.28465E+01 0.00000E+00
 -1      1063 1.01600E+02 2.28465E+01 0.00000E+00
 -1      1064 1.04600E+02 2.28465E+01 0.00000E+00
 -1      1065 1.07600E+02 2.28465E+01 0.00000E+00
 -1      1066 1.10600E+02 2.28465E+01 0.00000E+00
 -1      1067 1.13600E+02 2.28465E+01 0.00000E+00
 -1      1068 1.16600E+02 2.28465E+01 0.00000E+00
 -1      1069 1.19600E+02 2.28465E+01 0.00000E+00
 -1      1070 1.22600E+02 2.28465E+01 0.00000E+00
 -1      1071 1.25600E+02 2.28465E+01 0.00000E+00
 -1      1072 3.15245E+01 2.24257E+01 0.00000E+00
 -1      1073 3.41001E+01 2.02485E+01 0.00000E+00
 -1      1074 4.46001E+01 2.28465E+01 0.00000E+00
 -1      1075 5.06001E+01 2.28465E+01 0.00000E+00
 -1      1076 3.60739E+01 2.96787E+01 0.00000E+00
 -1      1077 4.76001E+01 2.28465E+01 0.00000E+00
 -1      1078 6.86001E+01 2.28465E+01 0.00000E+00
 -1      1079 5.19750E+01 2.70882E+01 0.00000E+00
 -1      1080 4.89750E+01 2.70882E+01 0.00000E+00
 -1      1081 1.27575E+02 2.70882E+01 0.00000E+00
 -1      1082 5.96001E+01 2.28465E+01 0.00000E+00
 -1      1083 4.16001E+01 2.28465E+01 0.00000E+00
 -1      1084 3.71001E+01 2.02485E+01 0.00000E+00
 -1      1085 5.36001E+01 2.28465E+01 0.00000E+00
 -1      1086 3.73190E+01 2.70802E+01 0.00000E+00
 -1      1087 4.02360E+01 2.70845E+01 0.00000E+00
 -1      1088 4.59000E+01 2.70882E+01 0.00000E+00
 -1      1089 3.47454E+01 2.53515E+01 0.00000E+00
 -1      1090 3.54097E+01 2.75151E+01 0.00000E+00
 -1      1091 1.27006E+02 2.54605E+01 0.00000E+00
 -1      1092 5.64750E+01 2.44902E+01 0.00000E+00
 -1      1093 3.43211E+01 2.31743E+01 0.00000E+00
 -1      1094 5.66001E+01 2.28465E+01 0.00000E+00
 -1      1095 4.30680E+01 2.70864E+01 0.00000E+00
 -1      1096 3.70833E+01 2.37659E+01 0.00000E+00
 -1      1097 0.00000E+00 4.86750E+01 0.00000E+00
 -1      1098 0.00000E+00 4.61750E+01 0.00000E+00
 -1      1099 0.00000E+00 4.38500E+01 0.00000E+00
 -1      1100 0.00000E+00 4.16250E+01 0.00000E+00
 -1      1101 0.00000E+00 3.94500E+01 0.00000E+00
 -1      1102 0.00000E+00 3.73500E+01 0.00000E+00
 -1      1103 0.00000E+00 3.52250E+01 0.00000E+00
 -1      1104 0.00000E+00 3.31000E+01 0.00000E+00
 -1      1105 0.00000E+00 3.08250E+01 0.00000E+00
 -1      1106 0.00000E+00 2.81000E+01 0.00000E+00
 -1      1107 0.00000E+00 2.51750E+01 0.00000E+00
 -1      1108 0.00000E+00 2.22000E+01 0.00000E+00
 -1      1109 0.00000E+00 1.92250E+01 0.00000E+00
 -1      1110 0.00000E+00 1.62750E+01 0.00000E+00
 -1      1111 0.00000E+00 1.33250E+01 0.00000E+00
 -1      1112 0.00000E+00 1.03500E+01 0.00000E+00
 -1      1113 0.00000E+00 7.37500E+00 0.00000E+00
 -1      1114 0.00000E+00 4.42500E+00 0.00000E+00
 -1      1115 0.00000E+00 1.47500E+00 0.00000E+00
 -1      1116 1.57500E+00 5.00000E+01 0.00000E+00
 -1      1117 4.50000E+00 5.00000E+01 0.00000E+00
 -1      1118 7.12500E+00 5.00000E+01 0.00000E+00
 -1      1119 9.52500E+00 5.00000E+01 0.00000E+00
 -1      1120 1.18500E+01 5.00000E+01 0.00000E+00
 -1      1121 1.42500E+01 5.00000E+01 0.00000E+00
 -1      1122 1.65750E+01 5.00000E+01 0.00000E+00
 -1      1123 1.89750E+01 5.00000E+01 0.00000E+00
 -1      1124 2.16750E+01 5.00000E+01 0.00000E+00
 -1      1125 2.46000E+01 5.00000E+01 0.00000E+00
 -1      1126 2.76000E+01 5.00000E+01 0.00000E+00
 -1      1127 3.06000E+01 5.00000E+01 0.00000E+00
 -1      1128 3.36750E+01 5.00000E+01 0.00000E+00
 -1      1129 3.67500E+01 5.00000E+01 0.00000E+00
 -1      1130 3.97500E+01 5.00000E+01 0.00000E+00
 -1      1131 4.27500E+01 5.00000E+01 0.00000E+00
 -1      1132 4.57500E+01 5.00000E+01 0.00000E+00
 -1      1133 4.87500E+01 5.00000E+01 0.00000E+00
 -1      1134 5.18250E+01 5.00000E+01 0.00000E+00
 -1      1135 5.49000E+01 5.00000E+01 0.00000E+00
 -1      1136 5.79000E+01 5.00000E+01 0.00000E+00
 -1      1137 6.09000E+01 5.00000E+01 0.00000E+00
 -1      1138 6.39000E+01 5.00000E+01 0.00000E+00
 -1      1139 6.69000E+01 5.00000E+01 0.00000E+00
 -1      1140 6.99000E+01 5.00000E+01 0.00000E+00
 -1      1141 7.29750E+01 5.00000E+01 0.00000E+00
 -1      1142 7.60500E+01 5.00000E+01 0.00000E+00
 -1      1143 7.90500E+01 5.00000E+01 0.00000E+00
 -1      1144 8.20500E+01 5.00000E+01 0.00000E+00
 -1      1145 8.50500E+01 5.00000E+01 0.00000E+00
 -1      1146 8.80500E+01 5.00000E+01 0.00000E+00
 -1      1147 9.11250E+01 5.00000E+01 0.00000E+00
 -1      1148 9.42000E+01 5.00000E+01 0.00000E+00
 -1      1149 9.72000E+01 5.00000E+01 0.00000E+00
 -1      1150 1.00200E+02 5.00000E+01 0.00000E+00
 -1      1151 1.03200E+02 5.00000E+01 0.00000E+00
 -1      1152 1.06200E+02 5.00000E+01 0.00000E+00
 -1      1153 1.09200E+02 5.00000E+01 0.00000E+00
 -1      1154 1.12275E+02 5.00000E+01 0.00000E+00
 -1      1155 1.15350E+02 5.00000E+01 0.00000E+00
 -1      1156 1.18350E+02 5.00000E+01 0.00000E+00
 -1      1157 1.21350E+02 5.00000E+01 0.00000E+00
 -1      1158 1.24350E+02 5.00000E+01 0.00000E+00
 -1      1159 1.27350E+02 5.00000E+01 0.00000E+00
 -1      1160 1.30425E+02 5.00000E+01 0.00000E+00
 -1      1161 1.33500E+02 5.00000E+01 0.00000E+00
 -1      1162 1.36500E+02 5.00000E+01 0.00000E+00
 -1      1163 1.39500E+02 5.00000E+01 0.00000E+00
 -1      1164 1.42500E+02 5.00000E+01 0.00000E+00
 -1      1165 1.45500E+02 5.00000E+01 0.00000E+00
 -1      1166 1.48500E+02 5.00000E+01 0.00000E+00
 -1      1167 1.57500E+00 0.00000E+00 0.00000E+00
 -1      1168 4.65000E+00 0.00000E+00 0.00000E+00
 -1      1169 7.65000E+00 0.00000E+00 0.00000E+00
 -1      1170 1.06500E+01 0.00000E+00 0.00000E+00
 -1      1171 1.36500E+01 0.00000E+00 0.00000E+00
 -1      1172 1.66500E+01 0.00000E+00 0.00000E+00
 -1      1173 1.96500E+01 0.00000E+00 0.00000E+00
 -1      1174 2.26500E+01 0.00000E+00 0.00000E+00
 -1      1175 2.56500E+01 0.00000E+00 0.00000E+00
 -1      1176 2.86500E+01 0.00000E+00 0.00000E+00
 -1      1177 3.16500E+01 0.00000E+00 0.00000E+00
 -1      1178 3.46500E+01 0.00000E+00 0.00000E+00
 -1      1179 3.76500E+01 0.00000E+00 0.00000E+00
 -1      1180 4.06500E+01 0.00000E+00 0.00000E+00
 -1      1181 4.36500E+01 0.00000E+00 0.00000E+00
 -1      1182 4.66500E+01 0.00000E+00 0.00000E+00
 -1      1183 4.96500E+01 0.00000E+00 0.00000E+00
 -1      1184 5.26500E+01 0.00000E+00 0.00000E+00
 -1      1185 5.56500E+01 0.00000E+00 0.00000E+00
 -1      1186 5.86500E+01 0.00000E+00 0.00000E+00
 -1      1187 6.16500E+01 0.00000E+00 0.00000E+00
 -1      1188 6.46500E+01 0.00000E+00 0.00000E+00
 -1      1189 6.76500E+01 0.00000E+00 0.00000E+00
 -1      1190 7.06500E+01 0.00000E+00 0.00000E+00
 -1      1191 7.36500E+01 0.00000E+00 0.00000E+00
 -1      1192 7.66500E+01 0.00000E+00 0.00000E+00
 -1      1193 7.96500E+01 0.00000E+00 0.00000E+00
 -1      1194 8.26500E+01 0.00000E+00 0.00000E+00
 -1      1195 8.56500E+01 0.00000E+00 0.00000E+00
 -1      1196 8.86500E+01 0.00000E+00 0.00000E+00
 -1      1197 9.16500E+01 0.00000E+00 0.00000E+00
 -1      1198 9.46500E+01 0.00000E+00 0.00000E+00
 -1      1199 9.76500E+01 0.00000E+00 0.00000E+00
 -1      1200 1.00650E+02 0.00000E+00 0.00000E+00
 -1      1201 1.03650E+02 0.00000E+00 0.00000E+00
 -1      1202 1.06650E+02 0.00000E+00 0.00000E+00
 -1      1203 1.09650E+02 0.00000E+00 0.00000E+00
 -1      1204 1.12650E+02 0.00000E+00 0.00000E+00
 -1      1205 1.15650E+02 0.00000E+00 0.00000E+00
 -1      1206 1.18650E+02 0.00000E+00 0.00000E+00
 -1      1207 1.21650E+02 0.00000E+00 0.00000E+00
 -1      1208 1.24650E+02 0.00000E+00 0.00000E+00
 -1      1209 1.27650E+02 0.00000E+00 0.00000E+00
 -1      1210 1.30650E+02 0.00000E+00 0.00000E+00
 -1      1211 1.33650E+02 0.00000E+00 0.00000E+00
 -1      1212 1.36650E+02 0.00000E+00 0.00000E+00
 -1      1213 1.39650E+02 0.00000E+00 0.00000E+00
 -1      1214 1.42650E+02 0.00000E+00 0.00000E+00
 -1      1215 1.45650E+02 0.00000E+00 0.00000E+00
 -1      1216 1.48575E+02 0.00000E+00 0.00000E+00
 -1      1217 1.50000E+02 1.47500E+00 0.00000E+00
 -1      1218 1.50000E+02 4.42500E+00 0.00000E+00
 -1      1219 1.50000E+02 7.37500E+00 0.00000E+00
 -1      1220 1.50000E+02 1.03250E+01 0.00000E+00
 -1      1221 1.50000E+02 1.32750E+01 0.00000E+00
 -1      1222 1.50000E+02 1.62000E+01 0.00000E+00
 -1      1223 1.50000E+02 1.91250E+01 0.00000E+00
 -1      1224 1.50000E+02 2.20750E+01 0.00000E+00
 -1      1225 1.50000E+02 2.50250E+01 0.00000E+00
 -1      1226 1.50000E+02 2.79750E+01 0.00000E+00
 -1      1227 1.50000E+02 3.09250E+01 0.00000E+00
 -1      1228 1.50000E+02 3.38500E+01 0.00000E+00
 -1      1229 1.50000E+02 3.67750E+01 0.00000E+00
 -1      1230 1.50000E+02 3.97250E+01 0.00000E+00
 -1      1231 1.50000E+02 4.26750E+01 0.00000E+00
 -1      1232 1.50000E+02 4.56250E+01 0.00000E+00
 -1      1233 1.50000E+02 4.85500E+01 0.00000E+00
 -1      1234 1.90675E+01 3.66737E+01 0.00000E+00
 -1      1235 1.87550E+01 3.52110E+01 0.00000E+00
 -1      1236 1.81324E+01 3.38370E+01 0.00000E+00
 -1      1237 1.72418E+01 3.26411E+01 0.00000E+00
 -1      1238 1.60877E+01 3.16399E+01 0.00000E+00
 -1      1239 1.47582E+01 3.09187E+01 0.00000E+00
 -1      1240 1.33130E+01 3.05014E+01 0.00000E+00
 -1      1241 1.17941E+01 3.04032E+01 0.00000E+00
 -1      1242 1.02882E+01 3.06362E+01 0.00000E+00
 -1      1243 8.85246E+00 3.11978E+01 0.00000E+00
 -1      1244 7.59856E+00 3.20397E+01 0.00000E+00
 -1      1245 6.57897E+00 3.30993E+01 0.00000E+00
 -1      1246 5.78858E+00 3.43790E+01 0.00000E+00
 -1      1247 5.29379E+00 3.57810E+01 0.00000E+00
 -1      1248 5.10631E+00 3.72537E+01 0.00000E+00
 -1      1249 5.24196E+00 3.87750E+01 0.00000E+00
 -1      1250 5.70338E+00 4.02285E+01 0.00000E+00
 -1      1251 6.42028E+00 4.14811E+01 0.00000E+00
 -1      1252 7.36307E+00 4.25457E+01 0.00000E+00
 -1      1253 8.50269E+00 4.33984E+01 0.00000E+00
 -1      1254 9.74680E+00 4.39872E+01 0.00000E+00
 -1      1255 1.11470E+01 4.43305E+01 0.00000E+00
 -1      1256 1.25593E+01 4.43816E+01 0.00000E+00
 -1      1257 1.39174E+01 4.41576E+01 0.00000E+00
 -1      1258 1.52773E+01 4.36362E+01 0.00000E+00
 -1      1259 1.64962E+01 4.28476E+01 0.00000E+00
 -1      1260 1.75141E+01 4.18393E+01 0.00000E+00
 -1      1261 1.82983E+01 4.06585E+01 0.00000E+00
 -1      1262 1.88151E+01 3.93893E+01 0.00000E+00
 -1      1263 1.90729E+01 3.80649E+01 0.00000E+00
 -1      1264 1.57500E+00 4.86750E+01 0.00000E+00
 -1      1265 1.02513E+00 4.55875E+01 0.00000E+00
 -1      1266 1.02513E+00 4.67625E+01 0.00000E+00
 -1      1267 1.02513E+00 4.32875E+01 0.00000E+00
 -1      1268 1.02513E+00 4.44375E+01 0.00000E+00
 -1      1269 2.05025E+00 4.50250E+01 0.00000E+00
 -1      1270 1.02513E+00 4.11375E+01 0.00000E+00
 -1      1271 1.02513E+00 4.22125E+01 0.00000E+00
 -1      1272 2.05025E+00 4.28000E+01 0.00000E+00
 -1      1273 1.02513E+00 3.89375E+01 0.00000E+00
 -1      1274 1.02513E+00 4.00375E+01 0.00000E+00
 -1      1275 2.05025E+00 4.06250E+01 0.00000E+00
 -1      1276 1.02513E+00 3.69375E+01 0.00000E+00
 -1      1277 1.02513E+00 3.79375E+01 0.00000E+00
 -1      1278 2.05025E+00 3.85250E+01 0.00000E+00
 -1      1279 1.02513E+00 3.46875E+01 0.00000E+00
 -1      1280 1.02513E+00 3.58125E+01 0.00000E+00
 -1      1281 2.05025E+00 3.64000E+01 0.00000E+00
 -1      1282 1.02513E+00 3.26875E+01 0.00000E+00
 -1      1283 1.02513E+00 3.36875E+01 0.00000E+00
 -1      1284 2.05025E+00 3.42750E+01 0.00000E+00
 -1      1285 1.02513E+00 3.01375E+01 0.00000E+00
 -1      1286 1.02513E+00 3.14125E+01 0.00000E+00
 -1      1287 2.05025E+00 3.20000E+01 0.00000E+00
 -1      1288 1.02513E+00 2.72375E+01 0.00000E+00
 -1      1289 1.02513E+00 2.86875E+01 0.00000E+00
 -1      1290 2.05025E+00 2.92750E+01 0.00000E+00
 -1      1291 1.02513E+00 2.42875E+01 0.00000E+00
 -1      1292 1.02513E+00 2.57625E+01 0.00000E+00
 -1      1293 2.05025E+00 2.63500E+01 0.00000E+00
 -1      1294 1.02513E+00 2.12875E+01 0.00000E+00
 -1      1295 1.02513E+00 2.27875E+01 0.00000E+00
 -1      1296 2.05025E+00 2.33750E+01 0.00000E+00
 -1      1297 1.02513E+00 1.83375E+01 0.00000E+00
 -1      1298 1.02513E+00 1.98125E+01 0.00000E+00
 -1      1299 2.05025E+00 2.04000E+01 0.00000E+00
 -1      1300 1.02513E+00 1.53875E+01 0.00000E+00
 -1      1301 1.02513E+00 1.68625E+01 0.00000E+00
 -1      1302 2.05025E+00 1.74500E+01 0.00000E+00
 -1      1303 1.02513E+00 1.24375E+01 0.00000E+00
 -1      1304 1.02513E+00 1.39125E+01 0.00000E+00
 -1      1305 2.05025E+00 1.45000E+01 0.00000E+00
 -1      1306 1.02513E+00 9.43750E+00 0.00000E+00
 -1      1307 1.02513E+00 1.09375E+01 0.00000E+00
 -1      1308 2.05025E+00 1.15250E+01 0.00000E+00
 -1      1309 1.02513E+00 6.48750E+00 0.00000E+00
 -1      1310 1.02513E+00 7.96250E+00 0.00000E+00
 -1      1311 2.05025E+00 8.55000E+00 0.00000E+00
 -1      1312 1.02513E+00 3.53750E+00 0.00000E+00
 -1      1313 1.02513E+00 5.01250E+00 0.00000E+00
 -1      1314 2.05025E+00 5.60000E+00 0.00000E+00
 -1      1315 1.30006E+00 1.03125E+00 0.00000E+00
 -1      1316 1.30006E+00 2.50625E+00 0.00000E+00
 -1      1317 2.32519E+00 3.09375E+00 0.00000E+00
 -1      1318 2.87506E+00 1.03125E+00 0.00000E+00
 -1      1319 3.82500E+00 4.88073E+01 0.00000E+00
 -1      1320 5.17500E+00 4.88073E+01 0.00000E+00
 -1      1321 6.45000E+00 4.88073E+01 0.00000E+00
 -1      1322 7.72500E+00 4.88073E+01 0.00000E+00
 -1      1323 5.77500E+00 4.76146E+01 0.00000E+00
 -1      1324 8.85000E+00 4.88073E+01 0.00000E+00
 -1      1325 9.97500E+00 4.88073E+01 0.00000E+00
 -1      1326 8.17500E+00 4.76146E+01 0.00000E+00
 -1      1327 1.11750E+01 4.88073E+01 0.00000E+00
 -1      1328 1.23750E+01 4.88073E+01 0.00000E+00
 -1      1329 1.05000E+01 4.76146E+01 0.00000E+00
 -1      1330 1.35750E+01 4.88073E+01 0.00000E+00
 -1      1331 1.47750E+01 4.88073E+01 0.00000E+00
 -1      1332 1.29000E+01 4.76146E+01 0.00000E+00
 -1      1333 1.59000E+01 4.88073E+01 0.00000E+00
 -1      1334 1.70250E+01 4.88073E+01 0.00000E+00
 -1      1335 1.52250E+01 4.76146E+01 0.00000E+00
 -1      1336 1.83000E+01 4.88073E+01 0.00000E+00
 -1      1337 1.95750E+01 4.88073E+01 0.00000E+00
 -1      1338 1.76250E+01 4.76146E+01 0.00000E+00
 -1      1339 2.10000E+01 4.88073E+01 0.00000E+00
 -1      1340 2.24250E+01 4.88073E+01 0.00000E+00
 -1      1341 2.03250E+01 4.76146E+01 0.00000E+00
 -1      1342 2.39250E+01 4.88073E+01 0.00000E+00
 -1      1343 2.54250E+01 4.88073E+01 0.00000E+00
 -1      1344 2.32500E+01 4.76146E+01 0.00000E+00
 -1      1345 2.69250E+01 4.88073E+01 0.00000E+00
 -1      1346 2.84250E+01 4.88073E+01 0.00000E+00
 -1      1347 2.62500E+01 4.76146E+01 0.00000E+00
 -1      1348 2.99250E+01 4.88073E+01 0.00000E+00
 -1      1349 3.14250E+01 4.88073E+01 0.00000E+00
 -1      1350 2.92500E+01 4.76146E+01 0.00000E+00
 -1      1351 3.30000E+01 4.88073E+01 0.00000E+00
 -1      1352 3.45750E+01 4.88073E+01 0.00000E+00
 -1      1353 3.23250E+01 4.76146E+01 0.00000E+00
 -1      1354 3.60750E+01 4.88073E+01 0.00000E+00
 -1      1355 3.75750E+01 4.88073E+01 0.00000E+00
 -1      1356 3.54000E+01 4.76146E+01 0.00000E+00
 -1      1357 3.90750E+01 4.88073E+01 0.00000E+00
 -1      1358 4.05750E+01 4.88073E+01 0.00000E+00
 -1      1359 3.84000E+01 4.76146E+01 0.00000E+00
 -1      1360 4.20750E+01 4.88073E+01 0.00000E+00
 -1      1361 4.35750E+01 4.88073E+01 0.00000E+00
 -1      1362 4.14000E+01 4.76146E+01 0.00000E+00
 -1      1363 4.50750E+01 4.88073E+01 0.00000E+00
 -1      1364 4.65750E+01 4.88073E+01 0.00000E+00
 -1      1365 4.44000E+01 4.76146E+01 0.00000E+00
 -1      1366 4.80750E+01 4.88073E+01 0.00000E+00
 -1      1367 4.95750E+01 4.88073E+01 0.00000E+00
 -1      1368 4.74000E+01 4.76146E+01 0.00000E+00
 -1      1369 5.11500E+01 4.88073E+01 0.00000E+00
 -1      1370 5.27250E+01 4.88073E+01 0.00000E+00
 -1      1371 5.04750E+01 4.76146E+01 0.00000E+00
 -1      1372 5.42250E+01 4.88073E+01 0.00000E+00
 -1      1373 5.57250E+01 4.88073E+01 0.00000E+00
 -1      1374 5.35500E+01 4.76146E+01 0.00000E+00
 -1      1375 5.72250E+01 4.88073E+01 0.00000E+00
 -1      1376 5.87250E+01 4.88073E+01 0.00000E+00
 -1      1377 5.65500E+01 4.76146E+01 0.00000E+00
 -1      1378 6.02250E+01 4.88073E+01 0.00000E+00
 -1      1379 6.17250E+01 4.88073E+01 0.00000E+00
 -1      1380 5.95500E+01 4.76146E+01 0.00000E+00
 -1      1381 6.32250E+01 4.88073E+01 0.00000E+00
 -1      1382 6.47250E+01 4.88073E+01 0.00000E+00
 -1      1383 6.25500E+01 4.76146E+01 0.00000E+00
 -1      1384 6.62250E+01 4.88073E+01 0.00000E+00
 -1      1385 6.77250E+01 4.88073E+01 0.00000E+00
 -1      1386 6.55500E+01 4.76146E+01 0.00000E+00
 -1      1387 6.92250E+01 4.88073E+01 0.00000E+00
 -1      1388 7.07250E+01 4.88073E+01 0.00000E+00
 -1      1389 6.85500E+01 4.76146E+01 0.00000E+00
 -1      1390 7.23000E+01 4.88073E+01 0.00000E+00
 -1      1391 7.38750E+01 4.88073E+01 0.00000E+00
 -1      1392 7.16250E+01 4.76146E+01 0.00000E+00
 -1      1393 7.53750E+01 4.88073E+01 0.00000E+00
 -1      1394 7.68750E+01 4.88073E+01 0.00000E+00
 -1      1395 7.47000E+01 4.76146E+01 0.00000E+00
 -1      1396 7.83750E+01 4.88073E+01 0.00000E+00
 -1      1397 7.98750E+01 4.88073E+01 0.00000E+00
 -1      1398 7.77000E+01 4.76146E+01 0.00000E+00
 -1      1399 8.13750E+01 4.88073E+01 0.00000E+00
 -1      1400 8.28750E+01 4.88073E+01 0.00000E+00
 -1      1401 8.07000E+01 4.76146E+01 0.00000E+00
 -1      1402 8.43750E+01 4.88073E+01 0.00000E+00
 -1      1403 8.58750E+01 4.88073E+01 0.00000E+00
 -1      1404 8.37000E+01 4.76146E+01 0.00000E+00
 -1      1405 8.73750E+01 4.88073E+01 0.00000E+00
 -1      1406 8.88750E+01 4.88073E+01 0.00000E+00
 -1      1407 8.67000E+01 4.76146E+01 0.00000E+00
 -1      1408 9.04500E+01 4.88073E+01 0.00000E+00
 -1      1409 9.20250E+01 4.88073E+01 0.00000E+00
 -1      1410 8.97750E+01 4.76146E+01 0.00000E+00
 -1      1411 9.35250E+01 4.88073E+01 0.00000E+00
 -1      1412 9.50250E+01 4.88073E+01 0.00000E+00
 -1      1413 9.28500E+01 4.76146E+01 0.00000E+00
 -1      1414 9.65250E+01 4.88073E+01 0.00000E+00
 -1      1415 9.80250E+01 4.88073E+01 0.00000E+00
 -1      1416 9.58500E+01 4.76146E+01 0.00000E+00
 -1      1417 9.95250E+01 4.88073E+01 0.00000E+00
 -1      1418 1.01025E+02 4.88073E+01 0.00000E+00
 -1      1419 9.88500E+01 4.76146E+01 0.00000E+00
 -1      1420 1.02525E+02 4.88073E+01 0.00000E+00
 -1      1421 1.04025E+02 4.88073E+01 0.00000E+00
 -1      1422 1.01850E+02 4.76146E+01 0.00000E+00
 -1      1423 1.05525E+02 4.88073E+01 0.00000E+00
 -1      1424 1.07025E+02 4.88073E+01 0.00000E+00
 -1      1425 1.04850E+02 4.76146E+01 0.00000E+00
 -1      1426 1.08525E+02 4.88073E+01 0.00000E+00
 -1      1427 1.10025E+02 4.88073E+01 0.00000E+00
 -1      1428 1.07850E+02 4.76146E+01 0.00000E+00
 -1      1429 1.11600E+02 4.88073E+01 0.00000E+00
 -1      1430 1.13175E+02 4.88073E+01 0.00000E+00
 -1      1431 1.10925E+02 4.76146E+01 0.00000E+00
 -1      1432 1.14675E+02 4.88073E+01 0.00000E+00
 -1      1433 1.16175E+02 4.88073E+01 0.00000E+00
 -1      1434 1.14000E+02 4.76146E+01 0.00000E+00
 -1      1435 1.17675E+02 4.88073E+01 0.00000E+00
 -1      1436 1.19175E+02 4.88073E+01 0.00000E+00
 -1      1437 1.17000E+02 4.76146E+01 0.00000E+00
 -1      1438 1.20675E+02 4.88073E+01 0.00000E+00
 -1      1439 1.22175E+02 4.88073E+01 0.00000E+00
 -1      1440 1.20000E+02 4.76146E+01 0.00000E+00
 -1      1441 1.23675E+02 4.88073E+01 0.00000E+00
 -1      1442 1.25175E+02 4.88073E+01 0.00000E+00
 -1      1443 1.23000E+02 4.76146E+01 0.00000E+00
 -1      1444 1.26675E+02 4.88073E+01 0.00000E+00
 -1      1445 1.28175E+02 4.88073E+01 0.00000E+00
 -1      1446 1.26000E+02 4.76146E+01 0.00000E+00
 -1      1447 1.29750E+02 4.88073E+01 0.00000E+00
 -1      1448 1.31325E+02 4.88073E+01 0.00000E+00
 -1      1449 1.29075E+02 4.76146E+01 0.00000E+00
 -1      1450 1.32825E+02 4.88073E+01 0.00000E+00
 -1      1451 1.34325E+02 4.88073E+01 0.00000E+00
 -1      1452 1.32150E+02 4.76146E+01 0.00000E+00
 -1      1453 1.35825E+02 4.88073E+01 0.00000E+00
 -1      1454 1.37325E+02 4.88073E+01 0.00000E+00
 -1      1455 1.35150E+02 4.76146E+01 0.00000E+00
 -1      1456 1.38825E+02 4.88073E+01 0.00000E+00
 -1      1457 1.40325E+02 4.88073E+01 0.00000E+00
 -1      1458 1.38150E+02 4.76146E+01 0.00000E+00
 -1      1459 1.41825E+02 4.88073E+01 0.00000E+00
 -1      1460 1.43325E+02 4.88073E+01 0.00000E+00
 -1      1461 1.41150E+02 4.76146E+01 0.00000E+00
 -1      1462 1.44825E+02 4.88073E+01 0.00000E+00
 -1      1463 1.46325E+02 4.88073E+01 0.00000E+00
 -1      1464 1.44150E+02 4.76146E+01 0.00000E+00
 -1      1465 1.47413E+02 4.86786E+01 0.00000E+00
 -1      1466 1.48913E+02 4.86786E+01 0.00000E+00
 -1      1467 1.48913E+02 4.72287E+01 0.00000E+00
 -1      1468 1.46738E+02 4.74860E+01 0.00000E+00
 -1      1469 5.87506E+00 1.03125E+00 0.00000E+00
 -1      1470 4.37506E+00 1.03125E+00 0.00000E+00
 -1      1471 4.10013E+00 2.06250E+00 0.00000E+00
 -1      1472 8.87506E+00 1.03125E+00 0.00000E+00
 -1      1473 7.37506E+00 1.03125E+00 0.00000E+00
 -1      1474 7.10013E+00 2.06250E+00 0.00000E+00
 -1      1475 1.18751E+01 1.03125E+00 0.00000E+00
 -1      1476 1.03751E+01 1.03125E+00 0.00000E+00
 -1      1477 1.01001E+01 2.06250E+00 0.00000E+00
 -1      1478 1.48751E+01 1.03125E+00 0.00000E+00
 -1      1479 1.33751E+01 1.03125E+00 0.00000E+00
 -1      1480 1.31001E+01 2.06250E+00 0.00000E+00
 -1      1481 1.78751E+01 1.03125E+00 0.00000E+00
 -1      1482 1.63751E+01 1.03125E+00 0.00000E+00
 -1      1483 1.61001E+01 2.06250E+00 0.00000E+00
 -1      1484 2.08751E+01 1.03125E+00 0.00000E+00
 -1      1485 1.93751E+01 1.03125E+00 0.00000E+00
 -1      1486 1.91001E+01 2.06250E+00 0.00000E+00
 -1      1487 2.38751E+01 1.03125E+00 0.00000E+00
 -1      1488 2.23751E+01 1.03125E+00 0.00000E+00
 -1      1489 2.21001E+01 2.06250E+00 0.00000E+00
 -1      1490 2.68751E+01 1.03125E+00 0.00000E+00
 -1      1491 2.53751E+01 1.03125E+00 0.00000E+00
 -1      1492 2.51001E+01 2.06250E+00 0.00000E+00
 -1      1493 2.98751E+01 1.03125E+00 0.00000E+00
 -1      1494 2.83751E+01 1.03125E+00 0.00000E+00
 -1      1495 2.81001E+01 2.06250E+00 0.00000E+00
 -1      1496 3.28751E+01 1.03125E+00 0.00000E+00
 -1      1497 3.13751E+01 1.03125E+00 0.00000E+00
 -1      1498 3.11001E+01 2.06250E+00 0.00000E+00
 -1      1499 3.58751E+01 1.03125E+00 0.00000E+00
 -1      1500 3.43751E+01 1.03125E+00 0.00000E+00
 -1      1501 3.41001E+01 2.06250E+00 0.00000E+00
 -1      1502 3.88751E+01 1.03125E+00 0.00000E+00
 -1      1503 3.73751E+01 1.03125E+00 0.00000E+00
 -1      1504 3.71001E+01 2.06250E+00 0.00000E+00
 -1      1505 4.18751E+01 1.03125E+00 0.00000E+00
 -1      1506 4.03751E+01 1.03125E+00 0.00000E+00
 -1      1507 4.01001E+01 2.06250E+00 0.00000E+00
 -1      1508 4.48751E+01 1.03125E+00 0.00000E+00
 -1      1509 4.33751E+01 1.03125E+00 0.00000E+00
 -1      1510 4.31001E+01 2.06250E+00 0.00000E+00
 -1      1511 4.78751E+01 1.03125E+00 0.00000E+00
 -1      1512 4.63751E+01 1.03125E+00 0.00000E+00
 -1      1513 4.61001E+01 2.06250E+00 0.00000E+00
 -1      1514 5.08751E+01 1.03125E+00 0.00000E+00
 -1      1515 4.93751E+01 1.03125E+00 0.00000E+00
 -1      1516 4.91001E+01 2.06250E+00 0.00000E+00
 -1      1517 5.38751E+01 1.03125E+00 0.00000E+00
 -1      1518 5.23751E+01 1.03125E+00 0.00000E+00
 -1      1519 5.21001E+01 2.06250E+00 0.00000E+00
 -1      1520 5.68751E+01 1.03125E+00 0.00000E+00
 -1      1521 5.53751E+01 1.03125E+00 0.00000E+00
 -1      1522 5.51001E+01 2.06250E+00 0.00000E+00
 -1      1523 5.98751E+01 1.03125E+00 0.00000E+00
 -1      1524 5.83751E+01 1.03125E+00 0.00000E+00
 -1      1525 5.81001E+01 2.06250E+00 0.00000E+00
 -1      1526 6.28751E+01 1.03125E+00 0.00000E+00
 -1      1527 6.13751E+01 1.03125E+00 0.00000E+00
 -1      1528 6.11001E+01 2.06250E+00 0.00000E+00
 -1      1529 6.58751E+01 1.03125E+00 0.00000E+00
 -1      1530 6.43751E+01 1.03125E+00 0.00000E+00
 -1      1531 6.41001E+01 2.06250E+00 0.00000E+00
 -1      1532 6.88751E+01 1.03125E+00 0.00000E+00
 -1      1533 6.73751E+01 1.03125E+00 0.00000E+00
 -1      1534 6.71001E+01 2.06250E+00 0.00000E+00
 -1      1535 7.18751E+01 1.03125E+00 0.00000E+00
 -1      1536 7.03751E+01 1.03125E+00 0.00000E+00
 -1      1537 7.01001E+01 2.06250E+00 0.00000E+00
 -1      1538 7.48751E+01 1.03125E+00 0.00000E+00
 -1      1539 7.33751E+01 1.03125E+00 0.00000E+00
 -1      1540 7.31001E+01 2.06250E+00 0.00000E+00
 -1      1541 7.78751E+01 1.03125E+00 0.00000E+00
 -1      1542 7.63751E+01 1.03125E+00 0.00000E+00
 -1      1543 7.61001E+01 2.06250E+00 0.00000E+00
 -1      1544 8.08751E+01 1.03125E+00 0.00000E+00
 -1      1545 7.93751E+01 1.03125E+00 0.00000E+00
 -1      1546 7.91001E+01 2.06250E+00 0.00000E+00
 -1      1547 8.38751E+01 1.03125E+00 0.00000E+00
 -1      1548 8.23751E+01 1.03125E+00 0.00000E+00
 -1      1549 8.21001E+01 2.06250E+00 0.00000E+00
 -1      1550 8.68751E+01 1.03125E+00 0.00000E+00
 -1      1551 8.53751E+01 1.03125E+00 0.00000E+00
 -1      1552 8.51001E+01 2.06250E+00 0.00000E+00
 -1      1553 8.98751E+01 1.03125E+00 0.00000E+00
 -1      1554 8.83751E+01 1.03125E+00 0.00000E+00
 -1      1555 8.81001E+01 2.06250E+00 0.00000E+00
 -1      1556 9.28751E+01 1.03125E+00 0.00000E+00
 -1      1557 9.13751E+01 1.03125E+00 0.00000E+00
 -1      1558 9.11001E+01 2.06250E+00 0.00000E+00
 -1      1559 9.58751E+01 1.03125E+00 0.00000E+00
 -1      1560 9.43751E+01 1.03125E+00 0.00000E+00
 -1      1561 9.41001E+01 2.06250E+00 0.00000E+00
 -1      1562 9.88751E+01 1.03125E+00 0.00000E+00
 -1      1563 9.73751E+01 1.03125E+00 0.00000E+00
 -1      1564 9.71001E+01 2.06250E+00 0.00000E+00
 -1      1565 1.01875E+02 1.03125E+00 0.00000E+00
 -1      1566 1.00375E+02 1.03125E+00 0.00000E+00
 -1      1567 1.00100E+02 2.06250E+00 0.00000E+00
 -1      1568 1.04875E+02 1.03125E+00 0.00000E+00
 -1      1569 1.03375E+02 1.03125E+00 0.00000E+00
 -1      1570 1.03100E+02 2.06250E+00 0.00000E+00
 -1      1571 1.07875E+02 1.03125E+00 0.00000E+00
 -1      1572 1.06375E+02 1.03125E+00 0.00000E+00
 -1      1573 1.06100E+02 2.06250E+00 0.00000E+00
 -1      1574 1.10875E+02 1.03125E+00 0.00000E+00
 -1      1575 1.09375E+02 1.03125E+00 0.00000E+00
 -1      1576 1.09100E+02 2.06250E+00 0.00000E+00
 -1      1577 1.13875E+02 1.03125E+00 0.00000E+00
 -1      1578 1.12375E+02 1.03125E+00 0.00000E+00
 -1      1579 1.12100E+02 2.06250E+00 0.00000E+00
 -1      1580 1.16875E+02 1.03125E+00 0.00000E+00
 -1      1581 1.15375E+02 1.03125E+00 0.00000E+00
 -1      1582 1.15100E+02 2.06250E+00 0.00000E+00
 -1      1583 1.19875E+02 1.03125E+00 0.00000E+00
 -1      1584 1.18375E+02 1.03125E+00 0.00000E+00
 -1      1585 1.18100E+02 2.06250E+00 0.00000E+00
 -1      1586 1.22875E+02 1.03125E+00 0.00000E+00
 -1      1587 1.21375E+02 1.03125E+00 0.00000E+00
 -1      1588 1.21100E+02 2.06250E+00 0.00000E+00
 -1      1589 1.25875E+02 1.03125E+00 0.00000E+00
 -1      1590 1.24375E+02 1.03125E+00 0.00000E+00
 -1      1591 1.24100E+02 2.06250E+00 0.00000E+00
 -1      1592 1.28875E+02 1.03125E+00 0.00000E+00
 -1      1593 1.27375E+02 1.03125E+00 0.00000E+00
 -1      1594 1.27100E+02 2.06250E+00 0.00000E+00
 -1      1595 1.31875E+02 1.03125E+00 0.00000E+00
 -1      1596 1.30375E+02 1.03125E+00 0.00000E+00
 -1      1597 1.30100E+02 2.06250E+00 0.00000E+00
 -1      1598 1.34875E+02 1.03125E+00 0.00000E+00
 -1      1599 1.33375E+02 1.03125E+00 0.00000E+00
 -1      1600 1.33100E+02 2.06250E+00 0.00000E+00
 -1      1601 1.37875E+02 1.03125E+00 0.00000E+00
 -1      1602 1.36375E+02 1.03125E+00 0.00000E+00
 -1      1603 1.36100E+02 2.06250E+00 0.00000E+00
 -1      1604 1.40875E+02 1.03125E+00 0.00000E+00
 -1      1605 1.39375E+02 1.03125E+00 0.00000E+00
 -1      1606 1.39100E+02 2.06250E+00 0.00000E+00
 -1      1607 1.43875E+02 1.03125E+00 0.00000E+00
 -1      1608 1.42375E+02 1.03125E+00 0.00000E+00
 -1      1609 1.42100E+02 2.06250E+00 0.00000E+00
 -1      1610 1.46875E+02 1.03125E+00 0.00000E+00
 -1      1611 1.45375E+02 1.03125E+00 0.00000E+00
 -1      1612 1.45100E+02 2.06250E+00 0.00000E+00
 -1      1613 1.48575E+02 1.47500E+00 0.00000E+00
 -1      1614 1.48701E+02 5.16250E+00 0.00000E+00
 -1      1615 1.48701E+02 3.68750E+00 0.00000E+00
 -1      1616 1.48701E+02 8.11250E+00 0.00000E+00
 -1      1617 1.48701E+02 6.63750E+00 0.00000E+00
 -1      1618 1.47402E+02 5.90000E+00 0.00000E+00
 -1      1619 1.48701E+02 1.10625E+01 0.00000E+00
 -1      1620 1.48701E+02 9.58750E+00 0.00000E+00
 -1      1621 1.47402E+02 8.85000E+00 0.00000E+00
 -1      1622 1.48701E+02 1.40125E+01 0.00000E+00
 -1      1623 1.48701E+02 1.25375E+01 0.00000E+00
 -1      1624 1.47402E+02 1.18000E+01 0.00000E+00
 -1      1625 1.48701E+02 1.69125E+01 0.00000E+00
 -1      1626 1.48701E+02 1.54625E+01 0.00000E+00
 -1      1627 1.47402E+02 1.47250E+01 0.00000E+00
 -1      1628 1.48701E+02 1.98625E+01 0.00000E+00
 -1      1629 1.48701E+02 1.83875E+01 0.00000E+00
 -1      1630 1.47402E+02 1.76500E+01 0.00000E+00
 -1      1631 1.48701E+02 2.28125E+01 0.00000E+00
 -1      1632 1.48701E+02 2.13375E+01 0.00000E+00
 -1      1633 1.47402E+02 2.06000E+01 0.00000E+00
 -1      1634 1.48701E+02 2.57625E+01 0.00000E+00
 -1      1635 1.48701E+02 2.42875E+01 0.00000E+00
 -1      1636 1.47402E+02 2.35500E+01 0.00000E+00
 -1      1637 1.48701E+02 2.87125E+01 0.00000E+00
 -1      1638 1.48701E+02 2.72375E+01 0.00000E+00
 -1      1639 1.47402E+02 2.65000E+01 0.00000E+00
 -1      1640 1.48701E+02 3.16625E+01 0.00000E+00
 -1      1641 1.48701E+02 3.01875E+01 0.00000E+00
 -1      1642 1.47402E+02 2.94500E+01 0.00000E+00
 -1      1643 1.48701E+02 3.45625E+01 0.00000E+00
 -1      1644 1.48701E+02 3.31125E+01 0.00000E+00
 -1      1645 1.47402E+02 3.23750E+01 0.00000E+00
 -1      1646 1.48701E+02 3.75125E+01 0.00000E+00
 -1      1647 1.48701E+02 3.60375E+01 0.00000E+00
 -1      1648 1.47402E+02 3.53000E+01 0.00000E+00
 -1      1649 1.48701E+02 4.04625E+01 0.00000E+00
 -1      1650 1.48701E+02 3.89875E+01 0.00000E+00
 -1      1651 1.47402E+02 3.82500E+01 0.00000E+00
 -1      1652 1.48701E+02 4.34125E+01 0.00000E+00
 -1      1653 1.48701E+02 4.19375E+01 0.00000E+00
 -1      1654 1.47402E+02 4.12000E+01 0.00000E+00
 -1      1655 1.48807E+02 4.60581E+01 0.00000E+00
 -1      1656 1.48807E+02 4.45831E+01 0.00000E+00
 -1      1657 1.47508E+02 4.38456E+01 0.00000E+00
 -1      1658 1.47719E+02 4.61867E+01 0.00000E+00
 -1      1659 1.95959E+01 3.62556E+01 0.00000E+00
 -1      1660 1.96705E+01 3.69744E+01 0.00000E+00
 -1      1661 1.92093E+01 3.46548E+01 0.00000E+00
 -1      1662 1.94507E+01 3.53893E+01 0.00000E+00
 -1      1663 1.84341E+01 3.32319E+01 0.00000E+00
 -1      1664 1.88080E+01 3.38650E+01 0.00000E+00
 -1      1665 1.73999E+01 3.19798E+01 0.00000E+00
 -1      1666 1.79133E+01 3.25344E+01 0.00000E+00
 -1      1667 1.61385E+01 3.08879E+01 0.00000E+00
 -1      1668 1.67735E+01 3.13272E+01 0.00000E+00
 -1      1669 1.46305E+01 3.02537E+01 0.00000E+00
 -1      1670 1.53157E+01 3.05344E+01 0.00000E+00
 -1      1671 1.30415E+01 2.98383E+01 0.00000E+00
 -1      1672 1.37938E+01 2.99701E+01 0.00000E+00
 -1      1673 1.13866E+01 2.97719E+01 0.00000E+00
 -1      1674 1.21441E+01 2.97383E+01 0.00000E+00
 -1      1675 9.76124E+00 3.01502E+01 0.00000E+00
 -1      1676 1.05006E+01 2.99515E+01 0.00000E+00
 -1      1677 8.18883E+00 3.07682E+01 0.00000E+00
 -1      1678 8.87609E+00 3.04076E+01 0.00000E+00
 -1      1679 6.95225E+00 3.18417E+01 0.00000E+00
 -1      1680 7.51409E+00 3.13691E+01 0.00000E+00
 -1      1681 5.90511E+00 3.30416E+01 0.00000E+00
 -1      1682 6.35705E+00 3.24604E+01 0.00000E+00
 -1      1683 5.03860E+00 3.44462E+01 0.00000E+00
 -1      1684 5.36959E+00 3.37533E+01 0.00000E+00
 -1      1685 4.65702E+00 3.59994E+01 0.00000E+00
 -1      1686 4.82292E+00 3.52999E+01 0.00000E+00
 -1      1687 4.49254E+00 3.76241E+01 0.00000E+00
 -1      1688 4.50815E+00 3.68586E+01 0.00000E+00
 -1      1689 4.76339E+00 3.92596E+01 0.00000E+00
 -1      1690 4.61338E+00 3.85128E+01 0.00000E+00
 -1      1691 5.30329E+00 4.08228E+01 0.00000E+00
 -1      1692 4.99446E+00 4.01248E+01 0.00000E+00
 -1      1693 6.15325E+00 4.20917E+01 0.00000E+00
 -1      1694 5.75647E+00 4.15395E+01 0.00000E+00
 -1      1695 7.22370E+00 4.32447E+01 0.00000E+00
 -1      1696 6.67785E+00 4.27421E+01 0.00000E+00
 -1      1697 8.49991E+00 4.40649E+01 0.00000E+00
 -1      1698 7.91577E+00 4.37144E+01 0.00000E+00
 -1      1699 9.88151E+00 4.46425E+01 0.00000E+00
 -1      1700 9.22699E+00 4.44083E+01 0.00000E+00
 -1      1701 1.14279E+01 4.50255E+01 0.00000E+00
 -1      1702 1.06883E+01 4.49234E+01 0.00000E+00
 -1      1703 1.29292E+01 4.49331E+01 0.00000E+00
 -1      1704 1.22640E+01 4.49764E+01 0.00000E+00
 -1      1705 1.44186E+01 4.46569E+01 0.00000E+00
 -1      1706 1.37331E+01 4.48406E+01 0.00000E+00
 -1      1707 1.59047E+01 4.40464E+01 0.00000E+00
 -1      1708 1.52391E+01 4.43848E+01 0.00000E+00
 -1      1709 1.71286E+01 4.30708E+01 0.00000E+00
 -1      1710 1.65796E+01 4.35131E+01 0.00000E+00
 -1      1711 1.82490E+01 4.19719E+01 0.00000E+00
 -1      1712 1.77870E+01 4.25343E+01 0.00000E+00
 -1      1713 1.89652E+01 4.06200E+01 0.00000E+00
 -1      1714 1.86438E+01 4.12302E+01 0.00000E+00
 -1      1715 1.94614E+01 3.92262E+01 0.00000E+00
 -1      1716 1.92675E+01 3.98788E+01 0.00000E+00
 -1      1717 1.96764E+01 3.77870E+01 0.00000E+00
 -1      1718 1.96125E+01 3.84525E+01 0.00000E+00
 -1      1719 2.60013E+00 4.80875E+01 0.00000E+00
 -1      1720 3.27513E+00 4.68948E+01 0.00000E+00
 -1      1721 2.02420E+01 3.73650E+01 0.00000E+00
 -1      1722 1.86222E+01 3.25428E+01 0.00000E+00
 -1      1723 1.48300E+02 2.50625E+00 0.00000E+00
 -1      1724 1.47001E+02 3.24375E+00 0.00000E+00
 -1      1725 2.00909E+01 3.56861E+01 0.00000E+00
 -1      1726 1.95443E+01 3.40299E+01 0.00000E+00
 -1      1727 1.74750E+01 3.11927E+01 0.00000E+00
 -1      1728 1.60257E+01 3.01866E+01 0.00000E+00
 -1      1729 1.43662E+01 2.95495E+01 0.00000E+00
 -1      1730 1.26321E+01 2.91658E+01 0.00000E+00
 -1      1731 1.08487E+01 2.92454E+01 0.00000E+00
 -1      1732 9.07756E+00 2.96824E+01 0.00000E+00
 -1      1733 7.51767E+00 3.05407E+01 0.00000E+00
 -1      1734 6.24773E+00 3.17602E+01 0.00000E+00
 -1      1735 5.11702E+00 3.30906E+01 0.00000E+00
 -1      1736 4.36582E+00 3.46560E+01 0.00000E+00
 -1      1737 4.00126E+00 3.63689E+01 0.00000E+00
 -1      1738 3.97322E+00 3.81169E+01 0.00000E+00
 -1      1739 4.32513E+00 3.98708E+01 0.00000E+00
 -1      1740 5.00938E+00 4.14527E+01 0.00000E+00
 -1      1741 5.98716E+00 4.28197E+01 0.00000E+00
 -1      1742 7.20382E+00 4.39398E+01 0.00000E+00
 -1      1743 8.62297E+00 4.47528E+01 0.00000E+00
 -1      1744 1.01569E+01 4.53771E+01 0.00000E+00
 -1      1745 1.17998E+01 4.56088E+01 0.00000E+00
 -1      1746 1.34398E+01 4.54672E+01 0.00000E+00
 -1      1747 1.50641E+01 4.51027E+01 0.00000E+00
 -1      1748 1.65595E+01 4.42974E+01 0.00000E+00
 -1      1749 1.78928E+01 4.32276E+01 0.00000E+00
 -1      1750 1.89460E+01 4.19493E+01 0.00000E+00
 -1      1751 1.96432E+01 4.04663E+01 0.00000E+00
 -1      1752 2.00967E+01 3.89513E+01 0.00000E+00
 -1      1753 3.07538E+00 4.22625E+01 0.00000E+00
 -1      1754 3.07538E+00 4.33375E+01 0.00000E+00
 -1      1755 3.17525E+00 4.45412E+01 0.00000E+00
 -1      1756 3.17525E+00 4.56912E+01 0.00000E+00
 -1      1757 4.40013E+00 4.64110E+01 0.00000E+00
 -1      1758 4.20038E+00 4.40037E+01 0.00000E+00
 -1      1759 3.07216E+00 3.82653E+01 0.00000E+00
 -1      1760 3.07216E+00 3.92653E+01 0.00000E+00
 -1      1761 3.10019E+00 3.53924E+01 0.00000E+00
 -1      1762 3.10019E+00 3.65174E+01 0.00000E+00
 -1      1763 3.31588E+00 3.35387E+01 0.00000E+00
 -1      1764 3.31588E+00 3.45387E+01 0.00000E+00
 -1      1765 3.15917E+00 2.85500E+01 0.00000E+00
 -1      1766 3.15917E+00 3.00000E+01 0.00000E+00
 -1      1767 3.15917E+00 2.56000E+01 0.00000E+00
 -1      1768 3.15917E+00 2.70750E+01 0.00000E+00
 -1      1769 4.26808E+00 2.78000E+01 0.00000E+00
 -1      1770 3.15917E+00 2.26000E+01 0.00000E+00
 -1      1771 3.15917E+00 2.41000E+01 0.00000E+00
 -1      1772 4.26808E+00 2.48250E+01 0.00000E+00
 -1      1773 3.15917E+00 1.96500E+01 0.00000E+00
 -1      1774 3.15917E+00 2.11250E+01 0.00000E+00
 -1      1775 4.26808E+00 2.18500E+01 0.00000E+00
 -1      1776 3.15917E+00 1.67000E+01 0.00000E+00
 -1      1777 3.15917E+00 1.81750E+01 0.00000E+00
 -1      1778 4.26808E+00 1.89000E+01 0.00000E+00
 -1      1779 3.15917E+00 1.37500E+01 0.00000E+00
 -1      1780 3.15917E+00 1.52250E+01 0.00000E+00
 -1      1781 4.26808E+00 1.59500E+01 0.00000E+00
 -1      1782 3.15917E+00 1.07500E+01 0.00000E+00
 -1      1783 3.15917E+00 1.22500E+01 0.00000E+00
 -1      1784 4.26808E+00 1.29750E+01 0.00000E+00
 -1      1785 3.15917E+00 7.80000E+00 0.00000E+00
 -1      1786 3.15917E+00 9.27500E+00 0.00000E+00
 -1      1787 4.26808E+00 1.00000E+01 0.00000E+00
 -1      1788 3.15917E+00 4.85000E+00 0.00000E+00
 -1      1789 3.15917E+00 6.32500E+00 0.00000E+00
 -1      1790 4.26808E+00 7.05000E+00 0.00000E+00
 -1      1791 3.76712E+00 2.94062E+00 0.00000E+00
 -1      1792 3.49218E+00 3.97187E+00 0.00000E+00
 -1      1793 4.60109E+00 4.69688E+00 0.00000E+00
 -1      1794 5.26712E+00 2.94062E+00 0.00000E+00
 -1      1795 8.26712E+00 2.94062E+00 0.00000E+00
 -1      1796 6.76712E+00 2.94062E+00 0.00000E+00
 -1      1797 6.43410E+00 3.81875E+00 0.00000E+00
 -1      1798 1.01318E+01 4.66363E+01 0.00000E+00
 -1      1799 1.13318E+01 4.66363E+01 0.00000E+00
 -1      1800 1.69875E+01 4.66733E+01 0.00000E+00
 -1      1801 1.82625E+01 4.66733E+01 0.00000E+00
 -1      1802 1.96125E+01 4.65895E+01 0.00000E+00
 -1      1803 2.10375E+01 4.65895E+01 0.00000E+00
 -1      1804 2.25375E+01 4.65895E+01 0.00000E+00
 -1      1805 2.40375E+01 4.65895E+01 0.00000E+00
 -1      1806 2.18250E+01 4.55644E+01 0.00000E+00
 -1      1807 2.55000E+01 4.64219E+01 0.00000E+00
 -1      1808 2.70000E+01 4.64219E+01 0.00000E+00
 -1      1809 2.85000E+01 4.64219E+01 0.00000E+00
 -1      1810 3.00000E+01 4.64219E+01 0.00000E+00
 -1      1811 2.77500E+01 4.52292E+01 0.00000E+00
 -1      1812 3.15750E+01 4.64219E+01 0.00000E+00
 -1      1813 3.31500E+01 4.64219E+01 0.00000E+00
 -1      1814 3.08250E+01 4.52292E+01 0.00000E+00
 -1      1815 3.46500E+01 4.64219E+01 0.00000E+00
 -1      1816 3.61500E+01 4.64219E+01 0.00000E+00
 -1      1817 3.39000E+01 4.52292E+01 0.00000E+00
 -1      1818 3.76500E+01 4.64219E+01 0.00000E+00
 -1      1819 3.91500E+01 4.64219E+01 0.00000E+00
 -1      1820 3.69000E+01 4.52292E+01 0.00000E+00
 -1      1821 4.06500E+01 4.64219E+01 0.00000E+00
 -1      1822 4.21500E+01 4.64219E+01 0.00000E+00
 -1      1823 3.99000E+01 4.52292E+01 0.00000E+00
 -1      1824 4.36500E+01 4.64219E+01 0.00000E+00
 -1      1825 4.51500E+01 4.64219E+01 0.00000E+00
 -1      1826 4.29000E+01 4.52292E+01 0.00000E+00
 -1      1827 4.66500E+01 4.64219E+01 0.00000E+00
 -1      1828 4.81500E+01 4.64219E+01 0.00000E+00
 -1      1829 4.59000E+01 4.52292E+01 0.00000E+00
 -1      1830 4.97250E+01 4.64219E+01 0.00000E+00
 -1      1831 5.13000E+01 4.64219E+01 0.00000E+00
 -1      1832 4.89750E+01 4.52292E+01 0.00000E+00
 -1      1833 5.28000E+01 4.64219E+01 0.00000E+00
 -1      1834 5.43000E+01 4.64219E+01 0.00000E+00
 -1      1835 5.20500E+01 4.52292E+01 0.00000E+00
 -1      1836 5.58000E+01 4.64219E+01 0.00000E+00
 -1      1837 5.73000E+01 4.64219E+01 0.00000E+00
 -1      1838 5.50500E+01 4.52292E+01 0.00000E+00
 -1      1839 5.88000E+01 4.64219E+01 0.00000E+00
 -1      1840 6.03000E+01 4.64219E+01 0.00000E+00
 -1      1841 5.80500E+01 4.52292E+01 0.00000E+00
 -1      1842 6.18000E+01 4.64219E+01 0.00000E+00
 -1      1843 6.33000E+01 4.64219E+01 0.00000E+00
 -1      1844 6.10500E+01 4.52292E+01 0.00000E+00
 -1      1845 6.48000E+01 4.64219E+01 0.00000E+00
 -1      1846 6.63000E+01 4.64219E+01 0.00000E+00
 -1      1847 6.40500E+01 4.52292E+01 0.00000E+00
 -1      1848 6.78000E+01 4.64219E+01 0.00000E+00
 -1      1849 6.93000E+01 4.64219E+01 0.00000E+00
 -1      1850 6.70500E+01 4.52292E+01 0.00000E+00
 -1      1851 7.08750E+01 4.64219E+01 0.00000E+00
 -1      1852 7.24500E+01 4.64219E+01 0.00000E+00
 -1      1853 7.01250E+01 4.52292E+01 0.00000E+00
 -1      1854 7.39500E+01 4.64219E+01 0.00000E+00
 -1      1855 7.54500E+01 4.64219E+01 0.00000E+00
 -1      1856 7.32000E+01 4.52292E+01 0.00000E+00
 -1      1857 7.69500E+01 4.64219E+01 0.00000E+00
 -1      1858 7.84500E+01 4.64219E+01 0.00000E+00
 -1      1859 7.62000E+01 4.52292E+01 0.00000E+00
 -1      1860 7.99500E+01 4.64219E+01 0.00000E+00
 -1      1861 8.14500E+01 4.64219E+01 0.00000E+00
 -1      1862 7.92000E+01 4.52292E+01 0.00000E+00
 -1      1863 8.29500E+01 4.64219E+01 0.00000E+00
 -1      1864 8.44500E+01 4.64219E+01 0.00000E+00
 -1      1865 8.22000E+01 4.52292E+01 0.00000E+00
 -1      1866 8.59500E+01 4.64219E+01 0.00000E+00
 -1      1867 8.74500E+01 4.64219E+01 0.00000E+00
 -1      1868 8.52000E+01 4.52292E+01 0.00000E+00
 -1      1869 8.90250E+01 4.64219E+01 0.00000E+00
 -1      1870 9.06000E+01 4.64219E+01 0.00000E+00
 -1      1871 8.82750E+01 4.52292E+01 0.00000E+00
 -1      1872 9.21000E+01 4.64219E+01 0.00000E+00
 -1      1873 9.36000E+01 4.64219E+01 0.00000E+00
 -1      1874 9.13500E+01 4.52292E+01 0.00000E+00
 -1      1875 9.51000E+01 4.64219E+01 0.00000E+00
 -1      1876 9.66000E+01 4.64219E+01 0.00000E+00
 -1      1877 9.43500E+01 4.52292E+01 0.00000E+00
 -1      1878 9.81000E+01 4.64219E+01 0.00000E+00
 -1      1879 9.96000E+01 4.64219E+01 0.00000E+00
 -1      1880 9.73500E+01 4.52292E+01 0.00000E+00
 -1      1881 1.01100E+02 4.64219E+01 0.00000E+00
 -1      1882 1.02600E+02 4.64219E+01 0.00000E+00
 -1      1883 1.00350E+02 4.52292E+01 0.00000E+00
 -1      1884 1.04100E+02 4.64219E+01 0.00000E+00
 -1      1885 1.05600E+02 4.64219E+01 0.00000E+00
 -1      1886 1.03350E+02 4.52292E+01 0.00000E+00
 -1      1887 1.07100E+02 4.64219E+01 0.00000E+00
 -1      1888 1.08600E+02 4.64219E+01 0.00000E+00
 -1      1889 1.06350E+02 4.52292E+01 0.00000E+00
 -1      1890 1.10175E+02 4.64219E+01 0.00000E+00
 -1      1891 1.11750E+02 4.64219E+01 0.00000E+00
 -1      1892 1.09425E+02 4.52292E+01 0.00000E+00
 -1      1893 1.13250E+02 4.64219E+01 0.00000E+00
 -1      1894 1.14750E+02 4.64219E+01 0.00000E+00
 -1      1895 1.12500E+02 4.52292E+01 0.00000E+00
 -1      1896 1.16250E+02 4.64219E+01 0.00000E+00
 -1      1897 1.17750E+02 4.64219E+01 0.00000E+00
 -1      1898 1.15500E+02 4.52292E+01 0.00000E+00
 -1      1899 1.19250E+02 4.64219E+01 0.00000E+00
 -1      1900 1.20750E+02 4.64219E+01 0.00000E+00
 -1      1901 1.18500E+02 4.52292E+01 0.00000E+00
 -1      1902 1.22250E+02 4.64219E+01 0.00000E+00
 -1      1903 1.23750E+02 4.64219E+01 0.00000E+00
 -1      1904 1.21500E+02 4.52292E+01 0.00000E+00
 -1      1905 1.25250E+02 4.64219E+01 0.00000E+00
 -1      1906 1.26750E+02 4.64219E+01 0.00000E+00
 -1      1907 1.24500E+02 4.52292E+01 0.00000E+00
 -1      1908 1.28325E+02 4.64219E+01 0.00000E+00
 -1      1909 1.29900E+02 4.64219E+01 0.00000E+00
 -1      1910 1.27575E+02 4.52292E+01 0.00000E+00
 -1      1911 1.31400E+02 4.64219E+01 0.00000E+00
 -1      1912 1.32900E+02 4.64219E+01 0.00000E+00
 -1      1913 1.30650E+02 4.52292E+01 0.00000E+00
 -1      1914 1.34400E+02 4.64219E+01 0.00000E+00
 -1      1915 1.35900E+02 4.64219E+01 0.00000E+00
 -1      1916 1.33650E+02 4.52292E+01 0.00000E+00
 -1      1917 1.37400E+02 4.64219E+01 0.00000E+00
 -1      1918 1.38900E+02 4.64219E+01 0.00000E+00
 -1      1919 1.36650E+02 4.52292E+01 0.00000E+00
 -1      1920 1.40400E+02 4.64219E+01 0.00000E+00
 -1      1921 1.41900E+02 4.64219E+01 0.00000E+00
 -1      1922 1.39650E+02 4.52292E+01 0.00000E+00
 -1      1923 1.43400E+02 4.64219E+01 0.00000E+00
 -1      1924 1.44900E+02 4.64219E+01 0.00000E+00
 -1      1925 1.42650E+02 4.52292E+01 0.00000E+00
 -1      1926 1.46632E+02 4.63154E+01 0.00000E+00
 -1      1927 1.38501E+01 3.36150E+00 0.00000E+00
 -1      1928 1.23501E+01 3.36150E+00 0.00000E+00
 -1      1929 1.68501E+01 3.36150E+00 0.00000E+00
 -1      1930 1.53501E+01 3.36150E+00 0.00000E+00
 -1      1931 1.46001E+01 4.66050E+00 0.00000E+00
 -1      1932 1.98501E+01 3.36150E+00 0.00000E+00
 -1      1933 1.83501E+01 3.36150E+00 0.00000E+00
 -1      1934 1.76001E+01 4.66050E+00 0.00000E+00
 -1      1935 2.28501E+01 3.36150E+00 0.00000E+00
 -1      1936 2.13501E+01 3.36150E+00 0.00000E+00
 -1      1937 2.06001E+01 4.66050E+00 0.00000E+00
 -1      1938 2.58501E+01 3.36150E+00 0.00000E+00
 -1      1939 2.43501E+01 3.36150E+00 0.00000E+00
 -1      1940 2.36001E+01 4.66050E+00 0.00000E+00
 -1      1941 2.88501E+01 3.36150E+00 0.00000E+00
 -1      1942 2.73501E+01 3.36150E+00 0.00000E+00
 -1      1943 2.66001E+01 4.66050E+00 0.00000E+00
 -1      1944 3.18501E+01 3.36150E+00 0.00000E+00
 -1      1945 3.03501E+01 3.36150E+00 0.00000E+00
 -1      1946 2.96001E+01 4.66050E+00 0.00000E+00
 -1      1947 3.48501E+01 3.36150E+00 0.00000E+00
 -1      1948 3.33501E+01 3.36150E+00 0.00000E+00
 -1      1949 3.26001E+01 4.66050E+00 0.00000E+00
 -1      1950 3.78501E+01 3.36150E+00 0.00000E+00
 -1      1951 3.63501E+01 3.36150E+00 0.00000E+00
 -1      1952 3.56001E+01 4.66050E+00 0.00000E+00
 -1      1953 4.08501E+01 3.36150E+00 0.00000E+00
 -1      1954 3.93501E+01 3.36150E+00 0.00000E+00
 -1      1955 3.86001E+01 4.66050E+00 0.00000E+00
 -1      1956 4.38501E+01 3.36150E+00 0.00000E+00
 -1      1957 4.23501E+01 3.36150E+00 0.00000E+00
 -1      1958 4.16001E+01 4.66050E+00 0.00000E+00
 -1      1959 4.68501E+01 3.36150E+00 0.00000E+00
 -1      1960 4.53501E+01 3.36150E+00 0.00000E+00
 -1      1961 4.46001E+01 4.66050E+00 0.00000E+00
 -1      1962 4.98501E+01 3.36150E+00 0.00000E+00
 -1      1963 4.83501E+01 3.36150E+00 0.00000E+00
 -1      1964 4.76001E+01 4.66050E+00 0.00000E+00
 -1      1965 5.28501E+01 3.36150E+00 0.00000E+00
 -1      1966 5.13501E+01 3.36150E+00 0.00000E+00
 -1      1967 5.06001E+01 4.66050E+00 0.00000E+00
 -1      1968 5.58501E+01 3.36150E+00 0.00000E+00
 -1      1969 5.43501E+01 3.36150E+00 0.00000E+00
 -1      1970 5.36001E+01 4.66050E+00 0.00000E+00
 -1      1971 5.88501E+01 3.36150E+00 0.00000E+00
 -1      1972 5.73501E+01 3.36150E+00 0.00000E+00
 -1      1973 5.66001E+01 4.66050E+00 0.00000E+00
 -1      1974 6.18501E+01 3.36150E+00 0.00000E+00
 -1      1975 6.03501E+01 3.36150E+00 0.00000E+00
 -1      1976 5.96001E+01 4.66050E+00 0.00000E+00
 -1      1977 6.48501E+01 3.36150E+00 0.00000E+00
 -1      1978 6.33501E+01 3.36150E+00 0.00000E+00
 -1      1979 6.26001E+01 4.66050E+00 0.00000E+00
 -1      1980 6.78501E+01 3.36150E+00 0.00000E+00
 -1      1981 6.63501E+01 3.36150E+00 0.00000E+00
 -1      1982 6.56001E+01 4.66050E+00 0.00000E+00
 -1      1983 7.08501E+01 3.36150E+00 0.00000E+00
 -1      1984 6.93501E+01 3.36150E+00 0.00000E+00
 -1      1985 6.86001E+01 4.66050E+00 0.00000E+00
 -1      1986 7.38501E+01 3.36150E+00 0.00000E+00
 -1      1987 7.23501E+01 3.36150E+00 0.00000E+00
 -1      1988 7.16001E+01 4.66050E+00 0.00000E+00
 -1      1989 7.68501E+01 3.36150E+00 0.00000E+00
 -1      1990 7.53501E+01 3.36150E+00 0.00000E+00
 -1      1991 7.46001E+01 4.66050E+00 0.00000E+00
 -1      1992 7.98501E+01 3.36150E+00 0.00000E+00
 -1      1993 7.83501E+01 3.36150E+00 0.00000E+00
 -1      1994 7.76001E+01 4.66050E+00 0.00000E+00
 -1      1995 8.28501E+01 3.36150E+00 0.00000E+00
 -1      1996 8.13501E+01 3.36150E+00 0.00000E+00
 -1      1997 8.06001E+01 4.66050E+00 0.00000E+00
 -1      1998 8.58501E+01 3.36150E+00 0.00000E+00
 -1      1999 8.43501E+01 3.36150E+00 0.00000E+00
 -1      2000 8.36001E+01 4.66050E+00 0.00000E+00
 -1      2001 8.88501E+01 3.36150E+00 0.00000E+00
 -1      2002 8.73501E+01 3.36150E+00 0.00000E+00
 -1      2003 8.66001E+01 4.66050E+00 0.00000E+00
 -1      2004 9.18501E+01 3.36150E+00 0.00000E+00
 -1      2005 9.03501E+01 3.36150E+00 0.00000E+00
 -1      2006 8.96001E+01 4.66050E+00 0.00000E+00
 -1      2007 9.48501E+01 3.36150E+00 0.00000E+00
 -1      2008 9.33501E+01 3.36150E+00 0.00000E+00
 -1      2009 9.26001E+01 4.66050E+00 0.00000E+00
 -1      2010 9.78501E+01 3.36150E+00 0.00000E+00
 -1      2011 9.63501E+01 3.36150E+00 0.00000E+00
 -1      2012 9.56001E+01 4.66050E+00 0.00000E+00
 -1      2013 1.00850E+02 3.36150E+00 0.00000E+00
 -1      2014 9.93501E+01 3.36150E+00 0.00000E+00
 -1      2015 9.86001E+01 4.66050E+00 0.00000E+00
 -1      2016 1.03850E+02 3.36150E+00 0.00000E+00
 -1      2017 1.02350E+02 3.36150E+00 0.00000E+00
 -1      2018 1.01600E+02 4.66050E+00 0.00000E+00
 -1      2019 1.06850E+02 3.36150E+00 0.00000E+00
 -1      2020 1.05350E+02 3.36150E+00 0.00000E+00
 -1      2021 1.04600E+02 4.66050E+00 0.00000E+00
 -1      2022 1.09850E+02 3.36150E+00 0.00000E+00
 -1      2023 1.08350E+02 3.36150E+00 0.00000E+00
 -1      2024 1.07600E+02 4.66050E+00 0.00000E+00
 -1      2025 1.12850E+02 3.36150E+00 0.00000E+00
 -1      2026 1.11350E+02 3.36150E+00 0.00000E+00
 -1      2027 1.10600E+02 4.66050E+00 0.00000E+00
 -1      2028 1.15850E+02 3.36150E+00 0.00000E+00
 -1      2029 1.14350E+02 3.36150E+00 0.00000E+00
 -1      2030 1.13600E+02 4.66050E+00 0.00000E+00
 -1      2031 1.18850E+02 3.36150E+00 0.00000E+00
 -1      2032 1.17350E+02 3.36150E+00 0.00000E+00
 -1      2033 1.16600E+02 4.66050E+00 0.00000E+00
 -1      2034 1.21850E+02 3.36150E+00 0.00000E+00
 -1      2035 1.20350E+02 3.36150E+00 0.00000E+00
 -1      2036 1.19600E+02 4.66050E+00 0.00000E+00
 -1      2037 1.24850E+02 3.36150E+00 0.00000E+00
 -1      2038 1.23350E+02 3.36150E+00 0.00000E+00
 -1      2039 1.22600E+02 4.66050E+00 0.00000E+00
 -1      2040 1.27850E+02 3.36150E+00 0.00000E+00
 -1      2041 1.26350E+02 3.36150E+00 0.00000E+00
 -1      2042 1.25600E+02 4.66050E+00 0.00000E+00
 -1      2043 1.30850E+02 3.36150E+00 0.00000E+00
 -1      2044 1.29350E+02 3.36150E+00 0.00000E+00
 -1      2045 1.28600E+02 4.66050E+00 0.00000E+00
 -1      2046 1.33850E+02 3.36150E+00 0.00000E+00
 -1      2047 1.32350E+02 3.36150E+00 0.00000E+00
 -1      2048 1.31600E+02 4.66050E+00 0.00000E+00
 -1      2049 1.36850E+02 3.36150E+00 0.00000E+00
 -1      2050 1.35350E+02 3.36150E+00 0.00000E+00
 -1      2051 1.34600E+02 4.66050E+00 0.00000E+00
 -1      2052 1.39850E+02 3.36150E+00 0.00000E+00
 -1      2053 1.38350E+02 3.36150E+00 0.00000E+00
 -1      2054 1.37600E+02 4.66050E+00 0.00000E+00
 -1      2055 1.42850E+02 3.36150E+00 0.00000E+00
 -1      2056 1.41350E+02 3.36150E+00 0.00000E+00
 -1      2057 1.40600E+02 4.66050E+00 0.00000E+00
 -1      2058 1.45676E+02 3.30262E+00 0.00000E+00
 -1      2059 1.44176E+02 3.30262E+00 0.00000E+00
 -1      2060 1.43426E+02 4.60162E+00 0.00000E+00
 -1      2061 1.46077E+02 4.48387E+00 0.00000E+00
 -1      2062 1.46103E+02 1.25375E+01 0.00000E+00
 -1      2063 1.46103E+02 1.10625E+01 0.00000E+00
 -1      2064 1.46103E+02 9.58750E+00 0.00000E+00
 -1      2065 1.46103E+02 8.11250E+00 0.00000E+00
 -1      2066 1.44804E+02 1.03250E+01 0.00000E+00
 -1      2067 1.46077E+02 5.95888E+00 0.00000E+00
 -1      2068 1.46103E+02 1.54375E+01 0.00000E+00
 -1      2069 1.46103E+02 1.39875E+01 0.00000E+00
 -1      2070 1.44804E+02 1.32500E+01 0.00000E+00
 -1      2071 1.46103E+02 1.83875E+01 0.00000E+00
 -1      2072 1.46103E+02 1.69125E+01 0.00000E+00
 -1      2073 1.44804E+02 1.61750E+01 0.00000E+00
 -1      2074 1.46103E+02 2.13375E+01 0.00000E+00
 -1      2075 1.46103E+02 1.98625E+01 0.00000E+00
 -1      2076 1.44804E+02 1.91250E+01 0.00000E+00
 -1      2077 1.46103E+02 2.42875E+01 0.00000E+00
 -1      2078 1.46103E+02 2.28125E+01 0.00000E+00
 -1      2079 1.44804E+02 2.20750E+01 0.00000E+00
 -1      2080 1.46103E+02 2.72375E+01 0.00000E+00
 -1      2081 1.46103E+02 2.57625E+01 0.00000E+00
 -1      2082 1.44804E+02 2.50250E+01 0.00000E+00
 -1      2083 1.46103E+02 3.01875E+01 0.00000E+00
 -1      2084 1.46103E+02 2.87125E+01 0.00000E+00
 -1      2085 1.44804E+02 2.79750E+01 0.00000E+00
 -1      2086 1.46103E+02 3.30875E+01 0.00000E+00
 -1      2087 1.46103E+02 3.16375E+01 0.00000E+00
 -1      2088 1.44804E+02 3.09000E+01 0.00000E+00
 -1      2089 1.46103E+02 3.60375E+01 0.00000E+00
 -1      2090 1.46103E+02 3.45625E+01 0.00000E+00
 -1      2091 1.44804E+02 3.38250E+01 0.00000E+00
 -1      2092 1.46103E+02 3.89875E+01 0.00000E+00
 -1      2093 1.46103E+02 3.75125E+01 0.00000E+00
 -1      2094 1.44804E+02 3.67750E+01 0.00000E+00
 -1      2095 1.46103E+02 4.19375E+01 0.00000E+00
 -1      2096 1.46103E+02 4.04625E+01 0.00000E+00
 -1      2097 1.44804E+02 3.97250E+01 0.00000E+00
 -1      2098 1.10586E+01 3.15106E+00 0.00000E+00
 -1      2099 9.55862E+00 3.15106E+00 0.00000E+00
 -1      2100 9.22561E+00 4.02919E+00 0.00000E+00
 -1      2101 1.18086E+01 4.45006E+00 0.00000E+00
 -1      2102 1.99961E+01 3.33035E+01 0.00000E+00
 -1      2103 2.03975E+01 3.40932E+01 0.00000E+00
 -1      2104 1.77200E+01 3.03306E+01 0.00000E+00
 -1      2105 1.83464E+01 3.09832E+01 0.00000E+00
 -1      2106 2.06988E+01 3.51388E+01 0.00000E+00
 -1      2107 2.08440E+01 3.60052E+01 0.00000E+00
 -1      2108 2.95082E+00 3.24135E+01 0.00000E+00
 -1      2109 4.21645E+00 3.26771E+01 0.00000E+00
 -1      2110 4.75197E+00 3.19654E+01 0.00000E+00
 -1      2111 2.95082E+00 3.11385E+01 0.00000E+00
 -1      2112 2.10129E+01 3.69532E+01 0.00000E+00
 -1      2113 2.10187E+01 3.77658E+01 0.00000E+00
 -1      2114 3.30322E+00 4.01305E+01 0.00000E+00
 -1      2115 3.30322E+00 4.12305E+01 0.00000E+00
 -1      2116 1.59032E+01 2.93374E+01 0.00000E+00
 -1      2117 1.67261E+01 2.96910E+01 0.00000E+00
 -1      2118 1.42299E+01 2.87701E+01 0.00000E+00
 -1      2119 1.50665E+01 2.90538E+01 0.00000E+00
 -1      2120 1.57669E+01 2.85581E+01 0.00000E+00
 -1      2121 1.22645E+01 2.83884E+01 0.00000E+00
 -1      2122 1.31619E+01 2.84884E+01 0.00000E+00
 -1      2123 1.02520E+01 2.85768E+01 0.00000E+00
 -1      2124 1.11380E+01 2.83972E+01 0.00000E+00
 -1      2125 8.43059E+00 2.91084E+01 0.00000E+00
 -1      2126 9.31575E+00 2.88509E+01 0.00000E+00
 -1      2127 6.66572E+00 3.02632E+01 0.00000E+00
 -1      2128 7.34046E+00 2.96624E+01 0.00000E+00
 -1      2129 5.41125E+00 3.14236E+01 0.00000E+00
 -1      2130 6.00644E+00 3.08050E+01 0.00000E+00
 -1      2131 5.82924E+00 2.99267E+01 0.00000E+00
 -1      2132 4.51068E+00 3.10102E+01 0.00000E+00
 -1      2133 4.78154E+00 4.24847E+01 0.00000E+00
 -1      2134 4.32835E+00 4.17680E+01 0.00000E+00
 -1      2135 7.16241E+00 4.47455E+01 0.00000E+00
 -1      2136 6.47035E+00 4.42759E+01 0.00000E+00
 -1      2137 8.69186E+00 4.55484E+01 0.00000E+00
 -1      2138 7.96478E+00 4.52050E+01 0.00000E+00
 -1      2139 9.32502E+00 4.63554E+01 0.00000E+00
 -1      2140 1.21680E+01 4.65871E+01 0.00000E+00
 -1      2141 1.41718E+01 4.64947E+01 0.00000E+00
 -1      2142 1.33680E+01 4.65871E+01 0.00000E+00
 -1      2143 1.74297E+01 4.47480E+01 0.00000E+00
 -1      2144 1.67548E+01 4.52813E+01 0.00000E+00
 -1      2145 1.98265E+01 4.19421E+01 0.00000E+00
 -1      2146 1.94316E+01 4.26838E+01 0.00000E+00
 -1      2147 2.04312E+01 4.04595E+01 0.00000E+00
 -1      2148 2.01288E+01 4.12008E+01 0.00000E+00
 -1      2149 2.06144E+01 4.19352E+01 0.00000E+00
 -1      2150 2.09317E+01 3.87128E+01 0.00000E+00
 -1      2151 2.07806E+01 3.94866E+01 0.00000E+00
 -1      2152 1.88672E+01 3.16806E+01 0.00000E+00
 -1      2153 1.93880E+01 3.23781E+01 0.00000E+00
 -1      2154 1.91122E+01 3.08185E+01 0.00000E+00
 -1      2155 2.95132E+00 3.73766E+01 0.00000E+00
 -1      2156 4.05974E+00 3.04135E+01 0.00000E+00
 -1      2157 2.17025E+01 3.83010E+01 0.00000E+00
 -1      2158 2.02411E+01 3.24414E+01 0.00000E+00
 -1      2159 1.61173E+01 4.62227E+01 0.00000E+00
 -1      2160 5.13750E+00 4.65057E+01 0.00000E+00
 -1      2161 6.41250E+00 4.65057E+01 0.00000E+00
 -1      2162 7.54184E+00 4.68076E+01 0.00000E+00
 -1      2163 8.66684E+00 4.68076E+01 0.00000E+00
 -1      2164 1.89750E+01 4.56481E+01 0.00000E+00
 -1      2165 1.52968E+01 4.64947E+01 0.00000E+00
 -1      2166 1.45882E+02 4.51227E+01 0.00000E+00
 -1      2167 2.47875E+01 4.53968E+01 0.00000E+00
 -1      2168 1.44778E+02 6.69637E+00 0.00000E+00
 -1      2169 2.11506E+01 3.44123E+01 0.00000E+00
 -1      2170 1.46045E+02 4.41154E+01 0.00000E+00
 -1      2171 1.45939E+02 4.29448E+01 0.00000E+00
 -1      2172 1.44641E+02 4.22073E+01 0.00000E+00
 -1      2173 1.44314E+02 4.42219E+01 0.00000E+00
 -1      2174 1.75975E+01 2.94814E+01 0.00000E+00
 -1      2175 2.16207E+01 3.64059E+01 0.00000E+00
 -1      2176 2.12662E+01 4.02210E+01 0.00000E+00
 -1      2177 7.57865E+00 2.88309E+01 0.00000E+00
 -1      2178 9.60503E+00 2.80028E+01 0.00000E+00
 -1      2179 1.38622E+01 2.79928E+01 0.00000E+00
 -1      2180 5.03763E+00 4.53020E+01 0.00000E+00
 -1      2181 1.16678E+01 2.77199E+01 0.00000E+00
 -1      2182 7.23131E+00 4.55411E+01 0.00000E+00
 -1      2183 5.67978E+00 4.36044E+01 0.00000E+00
 -1      2184 5.15519E+00 4.29540E+01 0.00000E+00
 -1      2185 1.83363E+01 4.39459E+01 0.00000E+00
 -1      2186 1.85316E+01 4.49298E+01 0.00000E+00
 -1      2187 1.98816E+01 4.48460E+01 0.00000E+00
 -1      2188 1.89947E+01 4.34094E+01 0.00000E+00
 -1      2189 1.98751E+01 4.34021E+01 0.00000E+00
 -1      2190 5.63837E+00 4.44102E+01 0.00000E+00
 -1      2191 1.10978E+01 2.68667E+01 0.00000E+00
 -1      2192 1.22243E+01 2.68579E+01 0.00000E+00
 -1      2193 5.56708E+00 1.81625E+01 0.00000E+00
 -1      2194 5.56708E+00 1.96375E+01 0.00000E+00
 -1      2195 5.56708E+00 1.52125E+01 0.00000E+00
 -1      2196 5.56708E+00 1.66875E+01 0.00000E+00
 -1      2197 6.86608E+00 1.74250E+01 0.00000E+00
 -1      2198 5.56708E+00 1.22125E+01 0.00000E+00
 -1      2199 5.56708E+00 1.37125E+01 0.00000E+00
 -1      2200 6.86608E+00 1.44500E+01 0.00000E+00
 -1      2201 5.56708E+00 9.26250E+00 0.00000E+00
 -1      2202 5.56708E+00 1.07375E+01 0.00000E+00
 -1      2203 6.86608E+00 1.14750E+01 0.00000E+00
 -1      2204 5.56708E+00 6.31250E+00 0.00000E+00
 -1      2205 5.56708E+00 7.78750E+00 0.00000E+00
 -1      2206 6.86608E+00 8.52500E+00 0.00000E+00
 -1      2207 6.16710E+00 4.62656E+00 0.00000E+00
 -1      2208 5.83409E+00 5.50469E+00 0.00000E+00
 -1      2209 7.13309E+00 6.24219E+00 0.00000E+00
 -1      2210 7.66710E+00 4.62656E+00 0.00000E+00
 -1      2211 1.43452E+02 6.75525E+00 0.00000E+00
 -1      2212 2.39396E+01 4.44621E+01 0.00000E+00
 -1      2213 2.54021E+01 4.42945E+01 0.00000E+00
 -1      2214 3.00375E+01 4.39527E+01 0.00000E+00
 -1      2215 3.16125E+01 4.39527E+01 0.00000E+00
 -1      2216 3.31125E+01 4.39527E+01 0.00000E+00
 -1      2217 3.46125E+01 4.39527E+01 0.00000E+00
 -1      2218 3.23250E+01 4.26762E+01 0.00000E+00
 -1      2219 3.61125E+01 4.39527E+01 0.00000E+00
 -1      2220 3.76125E+01 4.39527E+01 0.00000E+00
 -1      2221 3.53250E+01 4.26762E+01 0.00000E+00
 -1      2222 3.91125E+01 4.39527E+01 0.00000E+00
 -1      2223 4.06125E+01 4.39527E+01 0.00000E+00
 -1      2224 3.83250E+01 4.26762E+01 0.00000E+00
 -1      2225 4.21125E+01 4.39527E+01 0.00000E+00
 -1      2226 4.36125E+01 4.39527E+01 0.00000E+00
 -1      2227 4.13250E+01 4.26762E+01 0.00000E+00
 -1      2228 4.51125E+01 4.39527E+01 0.00000E+00
 -1      2229 4.66125E+01 4.39527E+01 0.00000E+00
 -1      2230 4.43250E+01 4.26762E+01 0.00000E+00
 -1      2231 4.81875E+01 4.39527E+01 0.00000E+00
 -1      2232 4.97625E+01 4.39527E+01 0.00000E+00
 -1      2233 4.74000E+01 4.26762E+01 0.00000E+00
 -1      2234 5.12625E+01 4.39527E+01 0.00000E+00
 -1      2235 5.27625E+01 4.39527E+01 0.00000E+00
 -1      2236 5.04750E+01 4.26762E+01 0.00000E+00
 -1      2237 5.42625E+01 4.39527E+01 0.00000E+00
 -1      2238 5.57625E+01 4.39527E+01 0.00000E+00
 -1      2239 5.34750E+01 4.26762E+01 0.00000E+00
 -1      2240 5.72625E+01 4.39527E+01 0.00000E+00
 -1      2241 5.87625E+01 4.39527E+01 0.00000E+00
 -1      2242 5.64750E+01 4.26762E+01 0.00000E+00
 -1      2243 6.02625E+01 4.39527E+01 0.00000E+00
 -1      2244 6.17625E+01 4.39527E+01 0.00000E+00
 -1      2245 5.94750E+01 4.26762E+01 0.00000E+00
 -1      2246 6.32625E+01 4.39527E+01 0.00000E+00
 -1      2247 6.47625E+01 4.39527E+01 0.00000E+00
 -1      2248 6.24750E+01 4.26762E+01 0.00000E+00
 -1      2249 6.62625E+01 4.39527E+01 0.00000E+00
 -1      2250 6.77625E+01 4.39527E+01 0.00000E+00
 -1      2251 6.54750E+01 4.26762E+01 0.00000E+00
 -1      2252 6.93375E+01 4.39527E+01 0.00000E+00
 -1      2253 7.09125E+01 4.39527E+01 0.00000E+00
 -1      2254 6.85500E+01 4.26762E+01 0.00000E+00
 -1      2255 7.24125E+01 4.39527E+01 0.00000E+00
 -1      2256 7.39125E+01 4.39527E+01 0.00000E+00
 -1      2257 7.16250E+01 4.26762E+01 0.00000E+00
 -1      2258 7.54125E+01 4.39527E+01 0.00000E+00
 -1      2259 7.69125E+01 4.39527E+01 0.00000E+00
 -1      2260 7.46250E+01 4.26762E+01 0.00000E+00
 -1      2261 7.84125E+01 4.39527E+01 0.00000E+00
 -1      2262 7.99125E+01 4.39527E+01 0.00000E+00
 -1      2263 7.76250E+01 4.26762E+01 0.00000E+00
 -1      2264 8.14125E+01 4.39527E+01 0.00000E+00
 -1      2265 8.29125E+01 4.39527E+01 0.00000E+00
 -1      2266 8.06250E+01 4.26762E+01 0.00000E+00
 -1      2267 8.44125E+01 4.39527E+01 0.00000E+00
 -1      2268 8.59125E+01 4.39527E+01 0.00000E+00
 -1      2269 8.36250E+01 4.26762E+01 0.00000E+00
 -1      2270 8.74875E+01 4.39527E+01 0.00000E+00
 -1      2271 8.90625E+01 4.39527E+01 0.00000E+00
 -1      2272 8.67000E+01 4.26762E+01 0.00000E+00
 -1      2273 9.05625E+01 4.39527E+01 0.00000E+00
 -1      2274 9.20625E+01 4.39527E+01 0.00000E+00
 -1      2275 8.97750E+01 4.26762E+01 0.00000E+00
 -1      2276 9.35625E+01 4.39527E+01 0.00000E+00
 -1      2277 9.50625E+01 4.39527E+01 0.00000E+00
 -1      2278 9.27750E+01 4.26762E+01 0.00000E+00
 -1      2279 9.65625E+01 4.39527E+01 0.00000E+00
 -1      2280 9.80625E+01 4.39527E+01 0.00000E+00
 -1      2281 9.57750E+01 4.26762E+01 0.00000E+00
 -1      2282 9.95625E+01 4.39527E+01 0.00000E+00
 -1      2283 1.01063E+02 4.39527E+01 0.00000E+00
 -1      2284 9.87750E+01 4.26762E+01 0.00000E+00
 -1      2285 1.02563E+02 4.39527E+01 0.00000E+00
 -1      2286 1.04063E+02 4.39527E+01 0.00000E+00
 -1      2287 1.01775E+02 4.26762E+01 0.00000E+00
 -1      2288 1.05563E+02 4.39527E+01 0.00000E+00
 -1      2289 1.07063E+02 4.39527E+01 0.00000E+00
 -1      2290 1.04775E+02 4.26762E+01 0.00000E+00
 -1      2291 1.08637E+02 4.39527E+01 0.00000E+00
 -1      2292 1.10213E+02 4.39527E+01 0.00000E+00
 -1      2293 1.07850E+02 4.26762E+01 0.00000E+00
 -1      2294 1.11713E+02 4.39527E+01 0.00000E+00
 -1      2295 1.13213E+02 4.39527E+01 0.00000E+00
 -1      2296 1.10925E+02 4.26762E+01 0.00000E+00
 -1      2297 1.14713E+02 4.39527E+01 0.00000E+00
 -1      2298 1.16213E+02 4.39527E+01 0.00000E+00
 -1      2299 1.13925E+02 4.26762E+01 0.00000E+00
 -1      2300 1.17713E+02 4.39527E+01 0.00000E+00
 -1      2301 1.19213E+02 4.39527E+01 0.00000E+00
 -1      2302 1.16925E+02 4.26762E+01 0.00000E+00
 -1      2303 1.20713E+02 4.39527E+01 0.00000E+00
 -1      2304 1.22213E+02 4.39527E+01 0.00000E+00
 -1      2305 1.19925E+02 4.26762E+01 0.00000E+00
 -1      2306 1.23713E+02 4.39527E+01 0.00000E+00
 -1      2307 1.25213E+02 4.39527E+01 0.00000E+00
 -1      2308 1.22925E+02 4.26762E+01 0.00000E+00
 -1      2309 1.26787E+02 4.39527E+01 0.00000E+00
 -1      2310 1.28363E+02 4.39527E+01 0.00000E+00
 -1      2311 1.26000E+02 4.26762E+01 0.00000E+00
 -1      2312 1.29863E+02 4.39527E+01 0.00000E+00
 -1      2313 1.31363E+02 4.39527E+01 0.00000E+00
 -1      2314 1.29075E+02 4.26762E+01 0.00000E+00
 -1      2315 1.32863E+02 4.39527E+01 0.00000E+00
 -1      2316 1.34363E+02 4.39527E+01 0.00000E+00
 -1      2317 1.32075E+02 4.26762E+01 0.00000E+00
 -1      2318 1.35863E+02 4.39527E+01 0.00000E+00
 -1      2319 1.37363E+02 4.39527E+01 0.00000E+00
 -1      2320 1.35075E+02 4.26762E+01 0.00000E+00
 -1      2321 1.38863E+02 4.39527E+01 0.00000E+00
 -1      2322 1.40363E+02 4.39527E+01 0.00000E+00
 -1      2323 1.38075E+02 4.26762E+01 0.00000E+00
 -1      2324 1.41588E+02 4.40873E+01 0.00000E+00
 -1      2325 1.43088E+02 4.40873E+01 0.00000E+00
 -1      2326 1.43251E+02 4.30800E+01 0.00000E+00
 -1      2327 1.40801E+02 4.28108E+01 0.00000E+00
 -1      2328 2.13501E+01 5.95950E+00 0.00000E+00
 -1      2329 1.98501E+01 5.95950E+00 0.00000E+00
 -1      2330 1.83501E+01 5.95950E+00 0.00000E+00
 -1      2331 1.68501E+01 5.95950E+00 0.00000E+00
 -1      2332 1.91001E+01 7.25850E+00 0.00000E+00
 -1      2333 1.43037E+02 8.50703E+00 0.00000E+00
 -1      2334 1.41685E+02 6.41228E+00 0.00000E+00
 -1      2335 1.53501E+01 5.95950E+00 0.00000E+00
 -1      2336 1.38501E+01 5.95950E+00 0.00000E+00
 -1      2337 1.61001E+01 7.25850E+00 0.00000E+00
 -1      2338 2.43501E+01 5.95950E+00 0.00000E+00
 -1      2339 2.28501E+01 5.95950E+00 0.00000E+00
 -1      2340 2.21001E+01 7.25850E+00 0.00000E+00
 -1      2341 2.73501E+01 5.95950E+00 0.00000E+00
 -1      2342 2.58501E+01 5.95950E+00 0.00000E+00
 -1      2343 2.51001E+01 7.25850E+00 0.00000E+00
 -1      2344 3.03501E+01 5.95950E+00 0.00000E+00
 -1      2345 2.88501E+01 5.95950E+00 0.00000E+00
 -1      2346 2.81001E+01 7.25850E+00 0.00000E+00
 -1      2347 3.33501E+01 5.95950E+00 0.00000E+00
 -1      2348 3.18501E+01 5.95950E+00 0.00000E+00
 -1      2349 3.11001E+01 7.25850E+00 0.00000E+00
 -1      2350 3.63501E+01 5.95950E+00 0.00000E+00
 -1      2351 3.48501E+01 5.95950E+00 0.00000E+00
 -1      2352 3.41001E+01 7.25850E+00 0.00000E+00
 -1      2353 3.93501E+01 5.95950E+00 0.00000E+00
 -1      2354 3.78501E+01 5.95950E+00 0.00000E+00
 -1      2355 3.71001E+01 7.25850E+00 0.00000E+00
 -1      2356 4.23501E+01 5.95950E+00 0.00000E+00
 -1      2357 4.08501E+01 5.95950E+00 0.00000E+00
 -1      2358 4.01001E+01 7.25850E+00 0.00000E+00
 -1      2359 4.53501E+01 5.95950E+00 0.00000E+00
 -1      2360 4.38501E+01 5.95950E+00 0.00000E+00
 -1      2361 4.31001E+01 7.25850E+00 0.00000E+00
 -1      2362 4.83501E+01 5.95950E+00 0.00000E+00
 -1      2363 4.68501E+01 5.95950E+00 0.00000E+00
 -1      2364 4.61001E+01 7.25850E+00 0.00000E+00
 -1      2365 5.13501E+01 5.95950E+00 0.00000E+00
 -1      2366 4.98501E+01 5.95950E+00 0.00000E+00
 -1      2367 4.91001E+01 7.25850E+00 0.00000E+00
 -1      2368 5.43501E+01 5.95950E+00 0.00000E+00
 -1      2369 5.28501E+01 5.95950E+00 0.00000E+00
 -1      2370 5.21001E+01 7.25850E+00 0.00000E+00
 -1      2371 5.73501E+01 5.95950E+00 0.00000E+00
 -1      2372 5.58501E+01 5.95950E+00 0.00000E+00
 -1      2373 5.51001E+01 7.25850E+00 0.00000E+00
 -1      2374 6.03501E+01 5.95950E+00 0.00000E+00
 -1      2375 5.88501E+01 5.95950E+00 0.00000E+00
 -1      2376 5.81001E+01 7.25850E+00 0.00000E+00
 -1      2377 6.33501E+01 5.95950E+00 0.00000E+00
 -1      2378 6.18501E+01 5.95950E+00 0.00000E+00
 -1      2379 6.11001E+01 7.25850E+00 0.00000E+00
 -1      2380 6.63501E+01 5.95950E+00 0.00000E+00
 -1      2381 6.48501E+01 5.95950E+00 0.00000E+00
 -1      2382 6.41001E+01 7.25850E+00 0.00000E+00
 -1      2383 6.93501E+01 5.95950E+00 0.00000E+00
 -1      2384 6.78501E+01 5.95950E+00 0.00000E+00
 -1      2385 6.71001E+01 7.25850E+00 0.00000E+00
 -1      2386 7.23501E+01 5.95950E+00 0.00000E+00
 -1      2387 7.08501E+01 5.95950E+00 0.00000E+00
 -1      2388 7.01001E+01 7.25850E+00 0.00000E+00
 -1      2389 7.53501E+01 5.95950E+00 0.00000E+00
 -1      2390 7.38501E+01 5.95950E+00 0.00000E+00
 -1      2391 7.31001E+01 7.25850E+00 0.00000E+00
 -1      2392 7.83501E+01 5.95950E+00 0.00000E+00
 -1      2393 7.68501E+01 5.95950E+00 0.00000E+00
 -1      2394 7.61001E+01 7.25850E+00 0.00000E+00
 -1      2395 8.13501E+01 5.95950E+00 0.00000E+00
 -1      2396 7.98501E+01 5.95950E+00 0.00000E+00
 -1      2397 7.91001E+01 7.25850E+00 0.00000E+00
 -1      2398 8.43501E+01 5.95950E+00 0.00000E+00
 -1      2399 8.28501E+01 5.95950E+00 0.00000E+00
 -1      2400 8.21001E+01 7.25850E+00 0.00000E+00
 -1      2401 8.73501E+01 5.95950E+00 0.00000E+00
 -1      2402 8.58501E+01 5.95950E+00 0.00000E+00
 -1      2403 8.51001E+01 7.25850E+00 0.00000E+00
 -1      2404 9.03501E+01 5.95950E+00 0.00000E+00
 -1      2405 8.88501E+01 5.95950E+00 0.00000E+00
 -1      2406 8.81001E+01 7.25850E+00 0.00000E+00
 -1      2407 9.33501E+01 5.95950E+00 0.00000E+00
 -1      2408 9.18501E+01 5.95950E+00 0.00000E+00
 -1      2409 9.11001E+01 7.25850E+00 0.00000E+00
 -1      2410 9.63501E+01 5.95950E+00 0.00000E+00
 -1      2411 9.48501E+01 5.95950E+00 0.00000E+00
 -1      2412 9.41001E+01 7.25850E+00 0.00000E+00
 -1      2413 9.93501E+01 5.95950E+00 0.00000E+00
 -1      2414 9.78501E+01 5.95950E+00 0.00000E+00
 -1      2415 9.71001E+01 7.25850E+00 0.00000E+00
 -1      2416 1.02350E+02 5.95950E+00 0.00000E+00
 -1      2417 1.00850E+02 5.95950E+00 0.00000E+00
 -1      2418 1.00100E+02 7.25850E+00 0.00000E+00
 -1      2419 1.05350E+02 5.95950E+00 0.00000E+00
 -1      2420 1.03850E+02 5.95950E+00 0.00000E+00
 -1      2421 1.03100E+02 7.25850E+00 0.00000E+00
 -1      2422 1.08350E+02 5.95950E+00 0.00000E+00
 -1      2423 1.06850E+02 5.95950E+00 0.00000E+00
 -1      2424 1.06100E+02 7.25850E+00 0.00000E+00
 -1      2425 1.11350E+02 5.95950E+00 0.00000E+00
 -1      2426 1.09850E+02 5.95950E+00 0.00000E+00
 -1      2427 1.09100E+02 7.25850E+00 0.00000E+00
 -1      2428 1.14350E+02 5.95950E+00 0.00000E+00
 -1      2429 1.12850E+02 5.95950E+00 0.00000E+00
 -1      2430 1.12100E+02 7.25850E+00 0.00000E+00
 -1      2431 1.17350E+02 5.95950E+00 0.00000E+00
 -1      2432 1.15850E+02 5.95950E+00 0.00000E+00
 -1      2433 1.15100E+02 7.25850E+00 0.00000E+00
 -1      2434 1.20350E+02 5.95950E+00 0.00000E+00
 -1      2435 1.18850E+02 5.95950E+00 0.00000E+00
 -1      2436 1.18100E+02 7.25850E+00 0.00000E+00
 -1      2437 1.23350E+02 5.95950E+00 0.00000E+00
 -1      2438 1.21850E+02 5.95950E+00 0.00000E+00
 -1      2439 1.21100E+02 7.25850E+00 0.00000E+00
 -1      2440 1.26350E+02 5.95950E+00 0.00000E+00
 -1      2441 1.24850E+02 5.95950E+00 0.00000E+00
 -1      2442 1.24100E+02 7.25850E+00 0.00000E+00
 -1      2443 1.29350E+02 5.95950E+00 0.00000E+00
 -1      2444 1.27850E+02 5.95950E+00 0.00000E+00
 -1      2445 1.27100E+02 7.25850E+00 0.00000E+00
 -1      2446 1.32350E+02 5.95950E+00 0.00000E+00
 -1      2447 1.30850E+02 5.95950E+00 0.00000E+00
 -1      2448 1.30100E+02 7.25850E+00 0.00000E+00
 -1      2449 1.35350E+02 5.95950E+00 0.00000E+00
 -1      2450 1.33850E+02 5.95950E+00 0.00000E+00
 -1      2451 1.33100E+02 7.25850E+00 0.00000E+00
 -1      2452 1.38350E+02 5.95950E+00 0.00000E+00
 -1      2453 1.36850E+02 5.95950E+00 0.00000E+00
 -1      2454 1.36100E+02 7.25850E+00 0.00000E+00
 -1      2455 1.40185E+02 6.41228E+00 0.00000E+00
 -1      2456 1.43505E+02 1.69125E+01 0.00000E+00
 -1      2457 1.43505E+02 1.54375E+01 0.00000E+00
 -1      2458 1.43505E+02 1.39875E+01 0.00000E+00
 -1      2459 1.43505E+02 1.25375E+01 0.00000E+00
 -1      2460 1.42206E+02 1.47250E+01 0.00000E+00
 -1      2461 1.43271E+02 1.12598E+01 0.00000E+00
 -1      2462 1.43271E+02 9.78476E+00 0.00000E+00
 -1      2463 1.41503E+02 9.44179E+00 0.00000E+00
 -1      2464 1.41972E+02 1.19973E+01 0.00000E+00
 -1      2465 2.17434E+01 3.36753E+01 0.00000E+00
 -1      2466 2.20448E+01 3.47208E+01 0.00000E+00
 -1      2467 1.43505E+02 1.98625E+01 0.00000E+00
 -1      2468 1.43505E+02 1.83875E+01 0.00000E+00
 -1      2469 1.42206E+02 1.76500E+01 0.00000E+00
 -1      2470 1.43505E+02 2.28125E+01 0.00000E+00
 -1      2471 1.43505E+02 2.13375E+01 0.00000E+00
 -1      2472 1.42206E+02 2.06000E+01 0.00000E+00
 -1      2473 1.43505E+02 2.57625E+01 0.00000E+00
 -1      2474 1.43505E+02 2.42875E+01 0.00000E+00
 -1      2475 1.42206E+02 2.35500E+01 0.00000E+00
 -1      2476 1.43505E+02 2.87125E+01 0.00000E+00
 -1      2477 1.43505E+02 2.72375E+01 0.00000E+00
 -1      2478 1.42206E+02 2.65000E+01 0.00000E+00
 -1      2479 1.43505E+02 3.16125E+01 0.00000E+00
 -1      2480 1.43505E+02 3.01625E+01 0.00000E+00
 -1      2481 1.42206E+02 2.94250E+01 0.00000E+00
 -1      2482 1.43505E+02 3.45625E+01 0.00000E+00
 -1      2483 1.43505E+02 3.30875E+01 0.00000E+00
 -1      2484 1.42206E+02 3.23500E+01 0.00000E+00
 -1      2485 1.43505E+02 3.75125E+01 0.00000E+00
 -1      2486 1.43505E+02 3.60375E+01 0.00000E+00
 -1      2487 1.42206E+02 3.53000E+01 0.00000E+00
 -1      2488 1.43505E+02 4.04625E+01 0.00000E+00
 -1      2489 1.43505E+02 3.89875E+01 0.00000E+00
 -1      2490 1.42206E+02 3.82500E+01 0.00000E+00
 -1      2491 1.96061E+01 2.99066E+01 0.00000E+00
 -1      2492 2.01269E+01 3.06040E+01 0.00000E+00
 -1      2493 2.26000E+01 3.79059E+01 0.00000E+00
 -1      2494 2.25130E+01 3.88530E+01 0.00000E+00
 -1      2495 2.70375E+01 4.39527E+01 0.00000E+00
 -1      2496 2.85375E+01 4.39527E+01 0.00000E+00
 -1      2497 2.93250E+01 4.26762E+01 0.00000E+00
 -1      2498 2.10750E+01 4.46230E+01 0.00000E+00
 -1      2499 2.25750E+01 4.46230E+01 0.00000E+00
 -1      2500 5.56708E+00 2.11125E+01 0.00000E+00
 -1      2501 5.56708E+00 2.25875E+01 0.00000E+00
 -1      2502 6.86608E+00 2.03750E+01 0.00000E+00
 -1      2503 5.56708E+00 2.40875E+01 0.00000E+00
 -1      2504 5.56708E+00 2.55875E+01 0.00000E+00
 -1      2505 6.86608E+00 2.33500E+01 0.00000E+00
 -1      2506 4.47416E+00 4.32693E+01 0.00000E+00
 -1      2507 6.73947E+00 4.63481E+01 0.00000E+00
 -1      2508 2.24631E+01 3.57669E+01 0.00000E+00
 -1      2509 2.26319E+01 3.67149E+01 0.00000E+00
 -1      2510 1.56104E+01 2.76438E+01 0.00000E+00
 -1      2511 1.64471E+01 2.79275E+01 0.00000E+00
 -1      2512 1.35363E+01 2.70632E+01 0.00000E+00
 -1      2513 1.46043E+01 2.73449E+01 0.00000E+00
 -1      2514 8.89595E+00 2.73168E+01 0.00000E+00
 -1      2515 9.83221E+00 2.70427E+01 0.00000E+00
 -1      2516 6.64505E+00 2.83434E+01 0.00000E+00
 -1      2517 7.73518E+00 2.77894E+01 0.00000E+00
 -1      2518 4.71902E+00 2.98717E+01 0.00000E+00
 -1      2519 2.22480E+01 4.00243E+01 0.00000E+00
 -1      2520 2.18986E+01 4.09973E+01 0.00000E+00
 -1      2521 2.06316E+01 4.39047E+01 0.00000E+00
 -1      2522 1.75646E+01 2.84405E+01 0.00000E+00
 -1      2523 1.85585E+01 2.90801E+01 0.00000E+00
 -1      2524 2.10685E+01 4.31791E+01 0.00000E+00
 -1      2525 2.16347E+01 4.17176E+01 0.00000E+00
 -1      2526 2.13324E+01 4.24588E+01 0.00000E+00
 -1      2527 2.20888E+01 4.29614E+01 0.00000E+00
 -1      2528 2.26165E+01 4.15209E+01 0.00000E+00
 -1      2529 2.07350E+01 3.15294E+01 0.00000E+00
 -1      2530 2.13431E+01 3.24549E+01 0.00000E+00
 -1      2531 2.12289E+01 3.06175E+01 0.00000E+00
 -1      2532 6.83383E+00 2.60760E+01 0.00000E+00
 -1      2533 5.53483E+00 2.68135E+01 0.00000E+00
 -1      2534 5.53483E+00 2.82885E+01 0.00000E+00
 -1      2535 2.31896E+01 4.35208E+01 0.00000E+00
 -1      2536 8.95860E+00 4.83700E+00 0.00000E+00
 -1      2537 8.69160E+00 5.64481E+00 0.00000E+00
 -1      2538 1.02501E+01 5.04744E+00 0.00000E+00
 -1      2539 2.34423E+01 3.72669E+01 0.00000E+00
 -1      2540 2.22373E+01 3.27634E+01 0.00000E+00
 -1      2541 1.31002E+01 7.25851E+00 0.00000E+00
 -1      2542 1.23502E+01 5.95951E+00 0.00000E+00
 -1      2543 1.39435E+02 7.71128E+00 0.00000E+00
 -1      2544 2.61896E+01 4.30181E+01 0.00000E+00
 -1      2545 2.30559E+01 3.50298E+01 0.00000E+00
 -1      2546 1.95732E+01 2.88656E+01 0.00000E+00
 -1      2547 1.10587E+01 5.74908E+00 0.00000E+00
 -1      2548 1.43415E+02 4.20727E+01 0.00000E+00
 -1      2549 2.31454E+01 3.96292E+01 0.00000E+00
 -1      2550 1.42116E+02 4.13352E+01 0.00000E+00
 -1      2551 7.96236E+00 2.68293E+01 0.00000E+00
 -1      2552 1.29663E+01 2.62101E+01 0.00000E+00
 -1      2553 1.52845E+01 2.67143E+01 0.00000E+00
 -1      2554 1.74081E+01 2.75262E+01 0.00000E+00
 -1      2555 1.03887E+01 2.61808E+01 0.00000E+00
 -1      2556 5.37830E+00 2.93300E+01 0.00000E+00
 -1      2557 8.16508E+00 1.66875E+01 0.00000E+00
 -1      2558 8.16508E+00 1.81625E+01 0.00000E+00
 -1      2559 8.42459E+00 6.45262E+00 0.00000E+00
 -1      2560 8.15759E+00 7.26044E+00 0.00000E+00
 -1      2561 9.71610E+00 6.66306E+00 0.00000E+00
 -1      2562 3.15750E+01 4.13772E+01 0.00000E+00
 -1      2563 3.30750E+01 4.13772E+01 0.00000E+00
 -1      2564 8.16508E+00 1.07375E+01 0.00000E+00
 -1      2565 8.16508E+00 1.22125E+01 0.00000E+00
 -1      2566 2.41961E+01 3.92513E+01 0.00000E+00
 -1      2567 2.39310E+01 4.04227E+01 0.00000E+00
 -1      2568 3.45750E+01 4.13772E+01 0.00000E+00
 -1      2569 3.60750E+01 4.13772E+01 0.00000E+00
 -1      2570 3.38250E+01 4.00782E+01 0.00000E+00
 -1      2571 3.75750E+01 4.13772E+01 0.00000E+00
 -1      2572 3.90750E+01 4.13772E+01 0.00000E+00
 -1      2573 3.68250E+01 4.00782E+01 0.00000E+00
 -1      2574 4.05750E+01 4.13772E+01 0.00000E+00
 -1      2575 4.20750E+01 4.13772E+01 0.00000E+00
 -1      2576 3.98250E+01 4.00782E+01 0.00000E+00
 -1      2577 4.35750E+01 4.13772E+01 0.00000E+00
 -1      2578 4.50750E+01 4.13772E+01 0.00000E+00
 -1      2579 4.28250E+01 4.00782E+01 0.00000E+00
 -1      2580 4.66500E+01 4.13772E+01 0.00000E+00
 -1      2581 4.82250E+01 4.13772E+01 0.00000E+00
 -1      2582 4.59000E+01 4.00782E+01 0.00000E+00
 -1      2583 4.97250E+01 4.13772E+01 0.00000E+00
 -1      2584 5.12250E+01 4.13772E+01 0.00000E+00
 -1      2585 4.89750E+01 4.00782E+01 0.00000E+00
 -1      2586 5.27250E+01 4.13772E+01 0.00000E+00
 -1      2587 5.42250E+01 4.13772E+01 0.00000E+00
 -1      2588 5.19750E+01 4.00782E+01 0.00000E+00
 -1      2589 5.57250E+01 4.13772E+01 0.00000E+00
 -1      2590 5.72250E+01 4.13772E+01 0.00000E+00
 -1      2591 5.49750E+01 4.00782E+01 0.00000E+00
 -1      2592 5.87250E+01 4.13772E+01 0.00000E+00
 -1      2593 6.02250E+01 4.13772E+01 0.00000E+00
 -1      2594 5.79750E+01 4.00782E+01 0.00000E+00
 -1      2595 6.17250E+01 4.13772E+01 0.00000E+00
 -1      2596 6.32250E+01 4.13772E+01 0.00000E+00
 -1      2597 6.09750E+01 4.00782E+01 0.00000E+00
 -1      2598 6.47250E+01 4.13772E+01 0.00000E+00
 -1      2599 6.62250E+01 4.13772E+01 0.00000E+00
 -1      2600 6.39750E+01 4.00782E+01 0.00000E+00
 -1      2601 6.78000E+01 4.13772E+01 0.00000E+00
 -1      2602 6.93750E+01 4.13772E+01 0.00000E+00
 -1      2603 6.70500E+01 4.00782E+01 0.00000E+00
 -1      2604 7.08750E+01 4.13772E+01 0.00000E+00
 -1      2605 7.23750E+01 4.13772E+01 0.00000E+00
 -1      2606 7.01250E+01 4.00782E+01 0.00000E+00
 -1      2607 7.38750E+01 4.13772E+01 0.00000E+00
 -1      2608 7.53750E+01 4.13772E+01 0.00000E+00
 -1      2609 7.31250E+01 4.00782E+01 0.00000E+00
 -1      2610 7.68750E+01 4.13772E+01 0.00000E+00
 -1      2611 7.83750E+01 4.13772E+01 0.00000E+00
 -1      2612 7.61250E+01 4.00782E+01 0.00000E+00
 -1      2613 7.98750E+01 4.13772E+01 0.00000E+00
 -1      2614 8.13750E+01 4.13772E+01 0.00000E+00
 -1      2615 7.91250E+01 4.00782E+01 0.00000E+00
 -1      2616 8.28750E+01 4.13772E+01 0.00000E+00
 -1      2617 8.43750E+01 4.13772E+01 0.00000E+00
 -1      2618 8.21250E+01 4.00782E+01 0.00000E+00
 -1      2619 8.59500E+01 4.13772E+01 0.00000E+00
 -1      2620 8.75250E+01 4.13772E+01 0.00000E+00
 -1      2621 8.52000E+01 4.00782E+01 0.00000E+00
 -1      2622 8.90250E+01 4.13772E+01 0.00000E+00
 -1      2623 9.05250E+01 4.13772E+01 0.00000E+00
 -1      2624 8.82750E+01 4.00782E+01 0.00000E+00
 -1      2625 9.20250E+01 4.13772E+01 0.00000E+00
 -1      2626 9.35250E+01 4.13772E+01 0.00000E+00
 -1      2627 9.12750E+01 4.00782E+01 0.00000E+00
 -1      2628 9.50250E+01 4.13772E+01 0.00000E+00
 -1      2629 9.65250E+01 4.13772E+01 0.00000E+00
 -1      2630 9.42750E+01 4.00782E+01 0.00000E+00
 -1      2631 9.80250E+01 4.13772E+01 0.00000E+00
 -1      2632 9.95250E+01 4.13772E+01 0.00000E+00
 -1      2633 9.72750E+01 4.00782E+01 0.00000E+00
 -1      2634 1.01025E+02 4.13772E+01 0.00000E+00
 -1      2635 1.02525E+02 4.13772E+01 0.00000E+00
 -1      2636 1.00275E+02 4.00782E+01 0.00000E+00
 -1      2637 1.04025E+02 4.13772E+01 0.00000E+00
 -1      2638 1.05525E+02 4.13772E+01 0.00000E+00
 -1      2639 1.03275E+02 4.00782E+01 0.00000E+00
 -1      2640 1.07100E+02 4.13772E+01 0.00000E+00
 -1      2641 1.08675E+02 4.13772E+01 0.00000E+00
 -1      2642 1.06350E+02 4.00782E+01 0.00000E+00
 -1      2643 1.10175E+02 4.13772E+01 0.00000E+00
 -1      2644 1.11675E+02 4.13772E+01 0.00000E+00
 -1      2645 1.09425E+02 4.00782E+01 0.00000E+00
 -1      2646 1.13175E+02 4.13772E+01 0.00000E+00
 -1      2647 1.14675E+02 4.13772E+01 0.00000E+00
 -1      2648 1.12425E+02 4.00782E+01 0.00000E+00
 -1      2649 1.16175E+02 4.13772E+01 0.00000E+00
 -1      2650 1.17675E+02 4.13772E+01 0.00000E+00
 -1      2651 1.15425E+02 4.00782E+01 0.00000E+00
 -1      2652 1.19175E+02 4.13772E+01 0.00000E+00
 -1      2653 1.20675E+02 4.13772E+01 0.00000E+00
 -1      2654 1.18425E+02 4.00782E+01 0.00000E+00
 -1      2655 1.22175E+02 4.13772E+01 0.00000E+00
 -1      2656 1.23675E+02 4.13772E+01 0.00000E+00
 -1      2657 1.21425E+02 4.00782E+01 0.00000E+00
 -1      2658 1.25250E+02 4.13772E+01 0.00000E+00
 -1      2659 1.26825E+02 4.13772E+01 0.00000E+00
 -1      2660 1.24500E+02 4.00782E+01 0.00000E+00
 -1      2661 1.28325E+02 4.13772E+01 0.00000E+00
 -1      2662 1.29825E+02 4.13772E+01 0.00000E+00
 -1      2663 1.27575E+02 4.00782E+01 0.00000E+00
 -1      2664 1.31325E+02 4.13772E+01 0.00000E+00
 -1      2665 1.32825E+02 4.13772E+01 0.00000E+00
 -1      2666 1.30575E+02 4.00782E+01 0.00000E+00
 -1      2667 1.34325E+02 4.13772E+01 0.00000E+00
 -1      2668 1.35825E+02 4.13772E+01 0.00000E+00
 -1      2669 1.33575E+02 4.00782E+01 0.00000E+00
 -1      2670 1.37325E+02 4.13772E+01 0.00000E+00
 -1      2671 1.38825E+02 4.13772E+01 0.00000E+00
 -1      2672 1.36575E+02 4.00782E+01 0.00000E+00
 -1      2673 1.40891E+02 4.12006E+01 0.00000E+00
 -1      2674 1.98501E+01 8.55750E+00 0.00000E+00
 -1      2675 1.83501E+01 8.55750E+00 0.00000E+00
 -1      2676 2.28501E+01 8.55750E+00 0.00000E+00
 -1      2677 2.13501E+01 8.55750E+00 0.00000E+00
 -1      2678 2.06001E+01 9.85650E+00 0.00000E+00
 -1      2679 1.38502E+01 8.55751E+00 0.00000E+00
 -1      2680 1.23502E+01 8.55752E+00 0.00000E+00
 -1      2681 1.39669E+02 8.98901E+00 0.00000E+00
 -1      2682 1.37834E+02 8.53624E+00 0.00000E+00
 -1      2683 1.39903E+02 1.02668E+01 0.00000E+00
 -1      2684 2.88501E+01 8.55750E+00 0.00000E+00
 -1      2685 2.73501E+01 8.55750E+00 0.00000E+00
 -1      2686 3.18501E+01 8.55750E+00 0.00000E+00
 -1      2687 3.03501E+01 8.55750E+00 0.00000E+00
 -1      2688 2.96001E+01 9.85650E+00 0.00000E+00
 -1      2689 3.48501E+01 8.55750E+00 0.00000E+00
 -1      2690 3.33501E+01 8.55750E+00 0.00000E+00
 -1      2691 3.26001E+01 9.85650E+00 0.00000E+00
 -1      2692 3.78501E+01 8.55750E+00 0.00000E+00
 -1      2693 3.63501E+01 8.55750E+00 0.00000E+00
 -1      2694 3.56001E+01 9.85650E+00 0.00000E+00
 -1      2695 4.08501E+01 8.55750E+00 0.00000E+00
 -1      2696 3.93501E+01 8.55750E+00 0.00000E+00
 -1      2697 3.86001E+01 9.85650E+00 0.00000E+00
 -1      2698 4.38501E+01 8.55750E+00 0.00000E+00
 -1      2699 4.23501E+01 8.55750E+00 0.00000E+00
 -1      2700 4.16001E+01 9.85650E+00 0.00000E+00
 -1      2701 4.68501E+01 8.55750E+00 0.00000E+00
 -1      2702 4.53501E+01 8.55750E+00 0.00000E+00
 -1      2703 4.46001E+01 9.85650E+00 0.00000E+00
 -1      2704 4.98501E+01 8.55750E+00 0.00000E+00
 -1      2705 4.83501E+01 8.55750E+00 0.00000E+00
 -1      2706 4.76001E+01 9.85650E+00 0.00000E+00
 -1      2707 5.28501E+01 8.55750E+00 0.00000E+00
 -1      2708 5.13501E+01 8.55750E+00 0.00000E+00
 -1      2709 5.06001E+01 9.85650E+00 0.00000E+00
 -1      2710 5.58501E+01 8.55750E+00 0.00000E+00
 -1      2711 5.43501E+01 8.55750E+00 0.00000E+00
 -1      2712 5.36001E+01 9.85650E+00 0.00000E+00
 -1      2713 5.88501E+01 8.55750E+00 0.00000E+00
 -1      2714 5.73501E+01 8.55750E+00 0.00000E+00
 -1      2715 5.66001E+01 9.85650E+00 0.00000E+00
 -1      2716 6.18501E+01 8.55750E+00 0.00000E+00
 -1      2717 6.03501E+01 8.55750E+00 0.00000E+00
 -1      2718 5.96001E+01 9.85650E+00 0.00000E+00
 -1      2719 6.48501E+01 8.55750E+00 0.00000E+00
 -1      2720 6.33501E+01 8.55750E+00 0.00000E+00
 -1      2721 6.26001E+01 9.85650E+00 0.00000E+00
 -1      2722 6.78501E+01 8.55750E+00 0.00000E+00
 -1      2723 6.63501E+01 8.55750E+00 0.00000E+00
 -1      2724 6.56001E+01 9.85650E+00 0.00000E+00
 -1      2725 7.08501E+01 8.55750E+00 0.00000E+00
 -1      2726 6.93501E+01 8.55750E+00 0.00000E+00
 -1      2727 6.86001E+01 9.85650E+00 0.00000E+00
 -1      2728 7.38501E+01 8.55750E+00 0.00000E+00
 -1      2729 7.23501E+01 8.55750E+00 0.00000E+00
 -1      2730 7.16001E+01 9.85650E+00 0.00000E+00
 -1      2731 7.68501E+01 8.55750E+00 0.00000E+00
 -1      2732 7.53501E+01 8.55750E+00 0.00000E+00
 -1      2733 7.46001E+01 9.85650E+00 0.00000E+00
 -1      2734 7.98501E+01 8.55750E+00 0.00000E+00
 -1      2735 7.83501E+01 8.55750E+00 0.00000E+00
 -1      2736 7.76001E+01 9.85650E+00 0.00000E+00
 -1      2737 8.28501E+01 8.55750E+00 0.00000E+00
 -1      2738 8.13501E+01 8.55750E+00 0.00000E+00
 -1      2739 8.06001E+01 9.85650E+00 0.00000E+00
 -1      2740 8.58501E+01 8.55750E+00 0.00000E+00
 -1      2741 8.43501E+01 8.55750E+00 0.00000E+00
 -1      2742 8.36001E+01 9.85650E+00 0.00000E+00
 -1      2743 8.88501E+01 8.55750E+00 0.00000E+00
 -1      2744 8.73501E+01 8.55750E+00 0.00000E+00
 -1      2745 8.66001E+01 9.85650E+00 0.00000E+00
 -1      2746 9.18501E+01 8.55750E+00 0.00000E+00
 -1      2747 9.03501E+01 8.55750E+00 0.00000E+00
 -1      2748 8.96001E+01 9.85650E+00 0.00000E+00
 -1      2749 9.48501E+01 8.55750E+00 0.00000E+00
 -1      2750 9.33501E+01 8.55750E+00 0.00000E+00
 -1      2751 9.26001E+01 9.85650E+00 0.00000E+00
 -1      2752 9.78501E+01 8.55750E+00 0.00000E+00
 -1      2753 9.63501E+01 8.55750E+00 0.00000E+00
 -1      2754 9.56001E+01 9.85650E+00 0.00000E+00
 -1      2755 1.00850E+02 8.55750E+00 0.00000E+00
 -1      2756 9.93501E+01 8.55750E+00 0.00000E+00
 -1      2757 9.86001E+01 9.85650E+00 0.00000E+00
 -1      2758 1.03850E+02 8.55750E+00 0.00000E+00
 -1      2759 1.02350E+02 8.55750E+00 0.00000E+00
 -1      2760 1.01600E+02 9.85650E+00 0.00000E+00
 -1      2761 1.06850E+02 8.55750E+00 0.00000E+00
 -1      2762 1.05350E+02 8.55750E+00 0.00000E+00
 -1      2763 1.04600E+02 9.85650E+00 0.00000E+00
 -1      2764 1.09850E+02 8.55750E+00 0.00000E+00
 -1      2765 1.08350E+02 8.55750E+00 0.00000E+00
 -1      2766 1.07600E+02 9.85650E+00 0.00000E+00
 -1      2767 1.12850E+02 8.55750E+00 0.00000E+00
 -1      2768 1.11350E+02 8.55750E+00 0.00000E+00
 -1      2769 1.10600E+02 9.85650E+00 0.00000E+00
 -1      2770 1.15850E+02 8.55750E+00 0.00000E+00
 -1      2771 1.14350E+02 8.55750E+00 0.00000E+00
 -1      2772 1.13600E+02 9.85650E+00 0.00000E+00
 -1      2773 1.18850E+02 8.55750E+00 0.00000E+00
 -1      2774 1.17350E+02 8.55750E+00 0.00000E+00
 -1      2775 1.16600E+02 9.85650E+00 0.00000E+00
 -1      2776 1.21850E+02 8.55750E+00 0.00000E+00
 -1      2777 1.20350E+02 8.55750E+00 0.00000E+00
 -1      2778 1.19600E+02 9.85650E+00 0.00000E+00
 -1      2779 1.24850E+02 8.55750E+00 0.00000E+00
 -1      2780 1.23350E+02 8.55750E+00 0.00000E+00
 -1      2781 1.22600E+02 9.85650E+00 0.00000E+00
 -1      2782 1.27850E+02 8.55750E+00 0.00000E+00
 -1      2783 1.26350E+02 8.55750E+00 0.00000E+00
 -1      2784 1.25600E+02 9.85650E+00 0.00000E+00
 -1      2785 1.30850E+02 8.55750E+00 0.00000E+00
 -1      2786 1.29350E+02 8.55750E+00 0.00000E+00
 -1      2787 1.28600E+02 9.85650E+00 0.00000E+00
 -1      2788 1.33850E+02 8.55750E+00 0.00000E+00
 -1      2789 1.32350E+02 8.55750E+00 0.00000E+00
 -1      2790 1.31600E+02 9.85650E+00 0.00000E+00
 -1      2791 1.36592E+02 8.54687E+00 0.00000E+00
 -1      2792 1.35092E+02 8.54687E+00 0.00000E+00
 -1      2793 1.34342E+02 9.84587E+00 0.00000E+00
 -1      2794 1.36826E+02 9.82460E+00 0.00000E+00
 -1      2795 2.47679E+01 4.17023E+01 0.00000E+00
 -1      2796 2.64033E+01 4.13605E+01 0.00000E+00
 -1      2797 1.40907E+02 1.54500E+01 0.00000E+00
 -1      2798 1.40907E+02 1.40000E+01 0.00000E+00
 -1      2799 1.40907E+02 2.13375E+01 0.00000E+00
 -1      2800 1.40907E+02 1.98625E+01 0.00000E+00
 -1      2801 1.40907E+02 2.42875E+01 0.00000E+00
 -1      2802 1.40907E+02 2.28125E+01 0.00000E+00
 -1      2803 1.39608E+02 2.20750E+01 0.00000E+00
 -1      2804 1.40907E+02 1.83937E+01 0.00000E+00
 -1      2805 1.40907E+02 1.69188E+01 0.00000E+00
 -1      2806 1.39608E+02 1.61938E+01 0.00000E+00
 -1      2807 1.39608E+02 1.91313E+01 0.00000E+00
 -1      2808 2.58501E+01 8.55750E+00 0.00000E+00
 -1      2809 2.43501E+01 8.55750E+00 0.00000E+00
 -1      2810 2.36001E+01 9.85650E+00 0.00000E+00
 -1      2811 2.66001E+01 9.85650E+00 0.00000E+00
 -1      2812 1.40907E+02 2.72375E+01 0.00000E+00
 -1      2813 1.40907E+02 2.57625E+01 0.00000E+00
 -1      2814 1.39608E+02 2.50250E+01 0.00000E+00
 -1      2815 1.40907E+02 3.01375E+01 0.00000E+00
 -1      2816 1.40907E+02 2.86875E+01 0.00000E+00
 -1      2817 1.39608E+02 2.79500E+01 0.00000E+00
 -1      2818 1.40907E+02 3.30875E+01 0.00000E+00
 -1      2819 1.40907E+02 3.16125E+01 0.00000E+00
 -1      2820 1.39608E+02 3.08750E+01 0.00000E+00
 -1      2821 1.40907E+02 3.60375E+01 0.00000E+00
 -1      2822 1.40907E+02 3.45625E+01 0.00000E+00
 -1      2823 1.39608E+02 3.38250E+01 0.00000E+00
 -1      2824 2.34534E+01 4.28005E+01 0.00000E+00
 -1      2825 7.99460E+00 2.56034E+01 0.00000E+00
 -1      2826 2.44831E+01 3.66988E+01 0.00000E+00
 -1      2827 2.44512E+01 3.78898E+01 0.00000E+00
 -1      2828 2.85750E+01 4.13772E+01 0.00000E+00
 -1      2829 3.00750E+01 4.13772E+01 0.00000E+00
 -1      2830 3.08250E+01 4.00782E+01 0.00000E+00
 -1      2831 4.57403E+00 4.44730E+01 0.00000E+00
 -1      2832 8.16508E+00 1.96375E+01 0.00000E+00
 -1      2833 8.16508E+00 2.11125E+01 0.00000E+00
 -1      2834 9.46408E+00 1.89000E+01 0.00000E+00
 -1      2835 8.07984E+00 2.26079E+01 0.00000E+00
 -1      2836 8.07984E+00 2.41079E+01 0.00000E+00
 -1      2837 9.20837E+00 2.48613E+01 0.00000E+00
 -1      2838 9.37884E+00 2.18704E+01 0.00000E+00
 -1      2839 1.97363E+01 2.75818E+01 0.00000E+00
 -1      2840 2.07838E+01 2.84083E+01 0.00000E+00
 -1      2841 1.72421E+01 2.64141E+01 0.00000E+00
 -1      2842 1.83596E+01 2.69271E+01 0.00000E+00
 -1      2843 2.28520E+01 3.18859E+01 0.00000E+00
 -1      2844 2.32523E+01 3.31063E+01 0.00000E+00
 -1      2845 1.24365E+01 2.53016E+01 0.00000E+00
 -1      2846 1.37484E+01 2.55069E+01 0.00000E+00
 -1      2847 1.50256E+01 2.57428E+01 0.00000E+00
 -1      2848 1.60317E+01 2.60417E+01 0.00000E+00
 -1      2849 1.04740E+01 2.46853E+01 0.00000E+00
 -1      2850 6.10197E+00 4.52392E+01 0.00000E+00
 -1      2851 1.68501E+01 8.55750E+00 0.00000E+00
 -1      2852 1.53501E+01 8.55750E+00 0.00000E+00
 -1      2853 1.46002E+01 9.85651E+00 0.00000E+00
 -1      2854 1.76001E+01 9.85650E+00 0.00000E+00
 -1      2855 2.17115E+01 2.96378E+01 0.00000E+00
 -1      2856 2.23196E+01 3.05633E+01 0.00000E+00
 -1      2857 2.36706E+01 3.41523E+01 0.00000E+00
 -1      2858 2.40889E+01 3.51984E+01 0.00000E+00
 -1      2859 2.42853E+01 3.32749E+01 0.00000E+00
 -1      2860 8.16508E+00 1.37000E+01 0.00000E+00
 -1      2861 8.16508E+00 1.52000E+01 0.00000E+00
 -1      2862 9.46408E+00 1.59375E+01 0.00000E+00
 -1      2863 9.46408E+00 1.29625E+01 0.00000E+00
 -1      2864 5.31141E+00 4.45677E+01 0.00000E+00
 -1      2865 1.40141E+02 3.99016E+01 0.00000E+00
 -1      2866 8.15759E+00 8.73544E+00 0.00000E+00
 -1      2867 9.45658E+00 9.47294E+00 0.00000E+00
 -1      2868 2.18746E+01 2.83540E+01 0.00000E+00
 -1      2869 2.71533E+01 4.00615E+01 0.00000E+00
 -1      2870 1.40371E+02 1.28222E+01 0.00000E+00
 -1      2871 1.40137E+02 1.15445E+01 0.00000E+00
 -1      2872 1.38303E+02 1.10917E+01 0.00000E+00
 -1      2873 1.44957E+01 2.48343E+01 0.00000E+00
 -1      2874 1.40907E+02 3.89875E+01 0.00000E+00
 -1      2875 1.40907E+02 3.75125E+01 0.00000E+00
 -1      2876 2.50978E+01 3.58213E+01 0.00000E+00
 -1      2877 2.33346E+01 3.09062E+01 0.00000E+00
 -1      2878 1.69832E+01 2.54427E+01 0.00000E+00
 -1      2879 1.95702E+01 2.64698E+01 0.00000E+00
 -1      2880 1.39608E+02 3.67750E+01 0.00000E+00
 -1      2881 2.52368E+01 3.86832E+01 0.00000E+00
 -1      2882 1.03175E+01 2.29263E+01 0.00000E+00
 -1      2883 1.14978E+01 2.42457E+01 0.00000E+00
 -1      2884 1.22799E+01 2.35425E+01 0.00000E+00
 -1      2885 1.04027E+01 2.14308E+01 0.00000E+00
 -1      2886 1.39072E+02 1.35472E+01 0.00000E+00
 -1      2887 1.38842E+02 3.91641E+01 0.00000E+00
 -1      2888 2.37172E+01 4.20802E+01 0.00000E+00
 -1      2889 1.38309E+02 2.57625E+01 0.00000E+00
 -1      2890 1.38309E+02 2.42875E+01 0.00000E+00
 -1      2891 3.60750E+01 3.87792E+01 0.00000E+00
 -1      2892 3.75750E+01 3.87792E+01 0.00000E+00
 -1      2893 3.90750E+01 3.87792E+01 0.00000E+00
 -1      2894 4.05750E+01 3.87792E+01 0.00000E+00
 -1      2895 3.83250E+01 3.74802E+01 0.00000E+00
 -1      2896 4.20750E+01 3.87792E+01 0.00000E+00
 -1      2897 4.35750E+01 3.87792E+01 0.00000E+00
 -1      2898 4.13250E+01 3.74802E+01 0.00000E+00
 -1      2899 4.51500E+01 3.87792E+01 0.00000E+00
 -1      2900 4.67250E+01 3.87792E+01 0.00000E+00
 -1      2901 4.44000E+01 3.74802E+01 0.00000E+00
 -1      2902 4.82250E+01 3.87792E+01 0.00000E+00
 -1      2903 4.97250E+01 3.87792E+01 0.00000E+00
 -1      2904 4.74750E+01 3.74802E+01 0.00000E+00
 -1      2905 5.12250E+01 3.87792E+01 0.00000E+00
 -1      2906 5.27250E+01 3.87792E+01 0.00000E+00
 -1      2907 5.04750E+01 3.74802E+01 0.00000E+00
 -1      2908 5.42250E+01 3.87792E+01 0.00000E+00
 -1      2909 5.57250E+01 3.87792E+01 0.00000E+00
 -1      2910 5.34750E+01 3.74802E+01 0.00000E+00
 -1      2911 5.72250E+01 3.87792E+01 0.00000E+00
 -1      2912 5.87250E+01 3.87792E+01 0.00000E+00
 -1      2913 5.64750E+01 3.74802E+01 0.00000E+00
 -1      2914 6.02250E+01 3.87792E+01 0.00000E+00
 -1      2915 6.17250E+01 3.87792E+01 0.00000E+00
 -1      2916 5.94750E+01 3.74802E+01 0.00000E+00
 -1      2917 6.32250E+01 3.87792E+01 0.00000E+00
 -1      2918 6.47250E+01 3.87792E+01 0.00000E+00
 -1      2919 6.24750E+01 3.74802E+01 0.00000E+00
 -1      2920 6.63000E+01 3.87792E+01 0.00000E+00
 -1      2921 6.78750E+01 3.87792E+01 0.00000E+00
 -1      2922 6.55500E+01 3.74802E+01 0.00000E+00
 -1      2923 6.93750E+01 3.87792E+01 0.00000E+00
 -1      2924 7.08750E+01 3.87792E+01 0.00000E+00
 -1      2925 6.86250E+01 3.74802E+01 0.00000E+00
 -1      2926 7.23750E+01 3.87792E+01 0.00000E+00
 -1      2927 7.38750E+01 3.87792E+01 0.00000E+00
 -1      2928 7.16250E+01 3.74802E+01 0.00000E+00
 -1      2929 7.53750E+01 3.87792E+01 0.00000E+00
 -1      2930 7.68750E+01 3.87792E+01 0.00000E+00
 -1      2931 7.46250E+01 3.74802E+01 0.00000E+00
 -1      2932 7.83750E+01 3.87792E+01 0.00000E+00
 -1      2933 7.98750E+01 3.87792E+01 0.00000E+00
 -1      2934 7.76250E+01 3.74802E+01 0.00000E+00
 -1      2935 8.13750E+01 3.87792E+01 0.00000E+00
 -1      2936 8.28750E+01 3.87792E+01 0.00000E+00
 -1      2937 8.06250E+01 3.74802E+01 0.00000E+00
 -1      2938 8.44500E+01 3.87792E+01 0.00000E+00
 -1      2939 8.60250E+01 3.87792E+01 0.00000E+00
 -1      2940 8.37000E+01 3.74802E+01 0.00000E+00
 -1      2941 8.75250E+01 3.87792E+01 0.00000E+00
 -1      2942 8.90250E+01 3.87792E+01 0.00000E+00
 -1      2943 8.67750E+01 3.74802E+01 0.00000E+00
 -1      2944 9.05250E+01 3.87792E+01 0.00000E+00
 -1      2945 9.20250E+01 3.87792E+01 0.00000E+00
 -1      2946 8.97750E+01 3.74802E+01 0.00000E+00
 -1      2947 9.35250E+01 3.87792E+01 0.00000E+00
 -1      2948 9.50250E+01 3.87792E+01 0.00000E+00
 -1      2949 9.27750E+01 3.74802E+01 0.00000E+00
 -1      2950 9.65250E+01 3.87792E+01 0.00000E+00
 -1      2951 9.80250E+01 3.87792E+01 0.00000E+00
 -1      2952 9.57750E+01 3.74802E+01 0.00000E+00
 -1      2953 9.95250E+01 3.87792E+01 0.00000E+00
 -1      2954 1.01025E+02 3.87792E+01 0.00000E+00
 -1      2955 9.87750E+01 3.74802E+01 0.00000E+00
 -1      2956 1.02525E+02 3.87792E+01 0.00000E+00
 -1      2957 1.04025E+02 3.87792E+01 0.00000E+00
 -1      2958 1.01775E+02 3.74802E+01 0.00000E+00
 -1      2959 1.05600E+02 3.87792E+01 0.00000E+00
 -1      2960 1.07175E+02 3.87792E+01 0.00000E+00
 -1      2961 1.04850E+02 3.74802E+01 0.00000E+00
 -1      2962 1.08675E+02 3.87792E+01 0.00000E+00
 -1      2963 1.10175E+02 3.87792E+01 0.00000E+00
 -1      2964 1.07925E+02 3.74802E+01 0.00000E+00
 -1      2965 1.11675E+02 3.87792E+01 0.00000E+00
 -1      2966 1.13175E+02 3.87792E+01 0.00000E+00
 -1      2967 1.10925E+02 3.74802E+01 0.00000E+00
 -1      2968 1.14675E+02 3.87792E+01 0.00000E+00
 -1      2969 1.16175E+02 3.87792E+01 0.00000E+00
 -1      2970 1.13925E+02 3.74802E+01 0.00000E+00
 -1      2971 1.17675E+02 3.87792E+01 0.00000E+00
 -1      2972 1.19175E+02 3.87792E+01 0.00000E+00
 -1      2973 1.16925E+02 3.74802E+01 0.00000E+00
 -1      2974 1.20675E+02 3.87792E+01 0.00000E+00
 -1      2975 1.22175E+02 3.87792E+01 0.00000E+00
 -1      2976 1.19925E+02 3.74802E+01 0.00000E+00
 -1      2977 1.23750E+02 3.87792E+01 0.00000E+00
 -1      2978 1.25325E+02 3.87792E+01 0.00000E+00
 -1      2979 1.23000E+02 3.74802E+01 0.00000E+00
 -1      2980 1.26825E+02 3.87792E+01 0.00000E+00
 -1      2981 1.28325E+02 3.87792E+01 0.00000E+00
 -1      2982 1.26075E+02 3.74802E+01 0.00000E+00
 -1      2983 1.29825E+02 3.87792E+01 0.00000E+00
 -1      2984 1.31325E+02 3.87792E+01 0.00000E+00
 -1      2985 1.29075E+02 3.74802E+01 0.00000E+00
 -1      2986 1.32825E+02 3.87792E+01 0.00000E+00
 -1      2987 1.34325E+02 3.87792E+01 0.00000E+00
 -1      2988 1.32075E+02 3.74802E+01 0.00000E+00
 -1      2989 1.35825E+02 3.87792E+01 0.00000E+00
 -1      2990 1.37325E+02 3.87792E+01 0.00000E+00
 -1      2991 1.35075E+02 3.74802E+01 0.00000E+00
 -1      2992 1.38309E+02 3.16125E+01 0.00000E+00
 -1      2993 1.38309E+02 3.01375E+01 0.00000E+00
 -1      2994 1.12821E+01 1.06658E+01 0.00000E+00
 -1      2995 1.05321E+01 9.36676E+00 0.00000E+00
 -1      2996 2.13501E+01 1.11555E+01 0.00000E+00
 -1      2997 1.98501E+01 1.11555E+01 0.00000E+00
 -1      2998 3.33501E+01 1.11555E+01 0.00000E+00
 -1      2999 3.18501E+01 1.11555E+01 0.00000E+00
 -1      3000 3.03501E+01 1.11555E+01 0.00000E+00
 -1      3001 2.88501E+01 1.11555E+01 0.00000E+00
 -1      3002 3.11001E+01 1.24545E+01 0.00000E+00
 -1      3003 3.93501E+01 1.11555E+01 0.00000E+00
 -1      3004 3.78501E+01 1.11555E+01 0.00000E+00
 -1      3005 4.23501E+01 1.11555E+01 0.00000E+00
 -1      3006 4.08501E+01 1.11555E+01 0.00000E+00
 -1      3007 4.01001E+01 1.24545E+01 0.00000E+00
 -1      3008 4.53501E+01 1.11555E+01 0.00000E+00
 -1      3009 4.38501E+01 1.11555E+01 0.00000E+00
 -1      3010 4.31001E+01 1.24545E+01 0.00000E+00
 -1      3011 4.83501E+01 1.11555E+01 0.00000E+00
 -1      3012 4.68501E+01 1.11555E+01 0.00000E+00
 -1      3013 4.61001E+01 1.24545E+01 0.00000E+00
 -1      3014 5.13501E+01 1.11555E+01 0.00000E+00
 -1      3015 4.98501E+01 1.11555E+01 0.00000E+00
 -1      3016 4.91001E+01 1.24545E+01 0.00000E+00
 -1      3017 5.43501E+01 1.11555E+01 0.00000E+00
 -1      3018 5.28501E+01 1.11555E+01 0.00000E+00
 -1      3019 5.21001E+01 1.24545E+01 0.00000E+00
 -1      3020 5.73501E+01 1.11555E+01 0.00000E+00
 -1      3021 5.58501E+01 1.11555E+01 0.00000E+00
 -1      3022 5.51001E+01 1.24545E+01 0.00000E+00
 -1      3023 6.03501E+01 1.11555E+01 0.00000E+00
 -1      3024 5.88501E+01 1.11555E+01 0.00000E+00
 -1      3025 5.81001E+01 1.24545E+01 0.00000E+00
 -1      3026 6.33501E+01 1.11555E+01 0.00000E+00
 -1      3027 6.18501E+01 1.11555E+01 0.00000E+00
 -1      3028 6.11001E+01 1.24545E+01 0.00000E+00
 -1      3029 6.63501E+01 1.11555E+01 0.00000E+00
 -1      3030 6.48501E+01 1.11555E+01 0.00000E+00
 -1      3031 6.41001E+01 1.24545E+01 0.00000E+00
 -1      3032 6.93501E+01 1.11555E+01 0.00000E+00
 -1      3033 6.78501E+01 1.11555E+01 0.00000E+00
 -1      3034 6.71001E+01 1.24545E+01 0.00000E+00
 -1      3035 7.23501E+01 1.11555E+01 0.00000E+00
 -1      3036 7.08501E+01 1.11555E+01 0.00000E+00
 -1      3037 7.01001E+01 1.24545E+01 0.00000E+00
 -1      3038 7.53501E+01 1.11555E+01 0.00000E+00
 -1      3039 7.38501E+01 1.11555E+01 0.00000E+00
 -1      3040 7.31001E+01 1.24545E+01 0.00000E+00
 -1      3041 7.83501E+01 1.11555E+01 0.00000E+00
 -1      3042 7.68501E+01 1.11555E+01 0.00000E+00
 -1      3043 7.61001E+01 1.24545E+01 0.00000E+00
 -1      3044 8.13501E+01 1.11555E+01 0.00000E+00
 -1      3045 7.98501E+01 1.11555E+01 0.00000E+00
 -1      3046 7.91001E+01 1.24545E+01 0.00000E+00
 -1      3047 8.43501E+01 1.11555E+01 0.00000E+00
 -1      3048 8.28501E+01 1.11555E+01 0.00000E+00
 -1      3049 8.21001E+01 1.24545E+01 0.00000E+00
 -1      3050 8.73501E+01 1.11555E+01 0.00000E+00
 -1      3051 8.58501E+01 1.11555E+01 0.00000E+00
 -1      3052 8.51001E+01 1.24545E+01 0.00000E+00
 -1      3053 9.03501E+01 1.11555E+01 0.00000E+00
 -1      3054 8.88501E+01 1.11555E+01 0.00000E+00
 -1      3055 8.81001E+01 1.24545E+01 0.00000E+00
 -1      3056 9.33501E+01 1.11555E+01 0.00000E+00
 -1      3057 9.18501E+01 1.11555E+01 0.00000E+00
 -1      3058 9.11001E+01 1.24545E+01 0.00000E+00
 -1      3059 9.63501E+01 1.11555E+01 0.00000E+00
 -1      3060 9.48501E+01 1.11555E+01 0.00000E+00
 -1      3061 9.41001E+01 1.24545E+01 0.00000E+00
 -1      3062 9.93501E+01 1.11555E+01 0.00000E+00
 -1      3063 9.78501E+01 1.11555E+01 0.00000E+00
 -1      3064 9.71001E+01 1.24545E+01 0.00000E+00
 -1      3065 1.02350E+02 1.11555E+01 0.00000E+00
 -1      3066 1.00850E+02 1.11555E+01 0.00000E+00
 -1      3067 1.00100E+02 1.24545E+01 0.00000E+00
 -1      3068 1.05350E+02 1.11555E+01 0.00000E+00
 -1      3069 1.03850E+02 1.11555E+01 0.00000E+00
 -1      3070 1.03100E+02 1.24545E+01 0.00000E+00
 -1      3071 1.08350E+02 1.11555E+01 0.00000E+00
 -1      3072 1.06850E+02 1.11555E+01 0.00000E+00
 -1      3073 1.06100E+02 1.24545E+01 0.00000E+00
 -1      3074 1.11350E+02 1.11555E+01 0.00000E+00
 -1      3075 1.09850E+02 1.11555E+01 0.00000E+00
 -1      3076 1.09100E+02 1.24545E+01 0.00000E+00
 -1      3077 1.14350E+02 1.11555E+01 0.00000E+00
 -1      3078 1.12850E+02 1.11555E+01 0.00000E+00
 -1      3079 1.12100E+02 1.24545E+01 0.00000E+00
 -1      3080 1.17350E+02 1.11555E+01 0.00000E+00
 -1      3081 1.15850E+02 1.11555E+01 0.00000E+00
 -1      3082 1.15100E+02 1.24545E+01 0.00000E+00
 -1      3083 1.20350E+02 1.11555E+01 0.00000E+00
 -1      3084 1.18850E+02 1.11555E+01 0.00000E+00
 -1      3085 1.18100E+02 1.24545E+01 0.00000E+00
 -1      3086 1.23350E+02 1.11555E+01 0.00000E+00
 -1      3087 1.21850E+02 1.11555E+01 0.00000E+00
 -1      3088 1.21100E+02 1.24545E+01 0.00000E+00
 -1      3089 1.26350E+02 1.11555E+01 0.00000E+00
 -1      3090 1.24850E+02 1.11555E+01 0.00000E+00
 -1      3091 1.24100E+02 1.24545E+01 0.00000E+00
 -1      3092 1.29350E+02 1.11555E+01 0.00000E+00
 -1      3093 1.27850E+02 1.11555E+01 0.00000E+00
 -1      3094 1.27100E+02 1.24545E+01 0.00000E+00
 -1      3095 1.32350E+02 1.11555E+01 0.00000E+00
 -1      3096 1.30850E+02 1.11555E+01 0.00000E+00
 -1      3097 1.30100E+02 1.24545E+01 0.00000E+00
 -1      3098 1.38092E+02 3.78651E+01 0.00000E+00
 -1      3099 1.38309E+02 2.28125E+01 0.00000E+00
 -1      3100 1.38309E+02 2.13375E+01 0.00000E+00
 -1      3101 1.37010E+02 2.35500E+01 0.00000E+00
 -1      3102 1.05247E+01 7.36470E+00 0.00000E+00
 -1      3103 1.38309E+02 3.45625E+01 0.00000E+00
 -1      3104 1.38309E+02 3.30875E+01 0.00000E+00
 -1      3105 1.37010E+02 3.23500E+01 0.00000E+00
 -1      3106 1.31002E+01 1.13440E+01 0.00000E+00
 -1      3107 1.12821E+01 1.21533E+01 0.00000E+00
 -1      3108 1.12821E+01 1.36408E+01 0.00000E+00
 -1      3109 2.59732E+01 3.47894E+01 0.00000E+00
 -1      3110 2.63673E+01 3.62898E+01 0.00000E+00
 -1      3111 1.37295E+02 1.23801E+01 0.00000E+00
 -1      3112 1.37061E+02 1.11023E+01 0.00000E+00
 -1      3113 1.35819E+02 1.11130E+01 0.00000E+00
 -1      3114 3.00750E+01 3.88855E+01 0.00000E+00
 -1      3115 3.15750E+01 3.88855E+01 0.00000E+00
 -1      3116 1.38309E+02 2.86750E+01 0.00000E+00
 -1      3117 1.38309E+02 2.72250E+01 0.00000E+00
 -1      3118 1.37010E+02 2.64875E+01 0.00000E+00
 -1      3119 1.37010E+02 2.94125E+01 0.00000E+00
 -1      3120 1.07917E+01 6.55689E+00 0.00000E+00
 -1      3121 1.07631E+01 1.81625E+01 0.00000E+00
 -1      3122 1.07631E+01 1.96375E+01 0.00000E+00
 -1      3123 1.38366E+02 1.47356E+01 0.00000E+00
 -1      3124 1.37830E+02 1.35579E+01 0.00000E+00
 -1      3125 1.36588E+02 1.35685E+01 0.00000E+00
 -1      3126 3.63501E+01 1.11555E+01 0.00000E+00
 -1      3127 3.48501E+01 1.11555E+01 0.00000E+00
 -1      3128 3.41001E+01 1.24545E+01 0.00000E+00
 -1      3129 3.71001E+01 1.24545E+01 0.00000E+00
 -1      3130 2.65701E+01 3.87760E+01 0.00000E+00
 -1      3131 2.87417E+01 3.87928E+01 0.00000E+00
 -1      3132 2.94917E+01 3.76001E+01 0.00000E+00
 -1      3133 2.68251E+01 3.74145E+01 0.00000E+00
 -1      3134 1.40129E+01 2.38730E+01 0.00000E+00
 -1      3135 1.52900E+01 2.41089E+01 0.00000E+00
 -1      3136 3.30750E+01 3.87792E+01 0.00000E+00
 -1      3137 3.45750E+01 3.87792E+01 0.00000E+00
 -1      3138 3.53250E+01 3.74802E+01 0.00000E+00
 -1      3139 1.93222E+01 2.52167E+01 0.00000E+00
 -1      3140 2.06988E+01 2.58713E+01 0.00000E+00
 -1      3141 2.22291E+01 2.71218E+01 0.00000E+00
 -1      3142 2.31567E+01 2.83514E+01 0.00000E+00
 -1      3143 1.66796E+01 2.42766E+01 0.00000E+00
 -1      3144 1.78899E+01 2.46491E+01 0.00000E+00
 -1      3145 1.38092E+02 3.63901E+01 0.00000E+00
 -1      3146 2.51058E+01 3.23401E+01 0.00000E+00
 -1      3147 2.55241E+01 3.33861E+01 0.00000E+00
 -1      3148 2.40410E+01 2.96948E+01 0.00000E+00
 -1      3149 2.45734E+01 3.10175E+01 0.00000E+00
 -1      3150 2.58122E+01 3.11287E+01 0.00000E+00
 -1      3151 2.17329E+01 2.46156E+01 0.00000E+00
 -1      3152 2.19810E+01 2.58687E+01 0.00000E+00
 -1      3153 2.32632E+01 2.58661E+01 0.00000E+00
 -1      3154 1.17017E+01 2.06933E+01 0.00000E+00
 -1      3155 1.38366E+02 1.62044E+01 0.00000E+00
 -1      3156 1.37010E+02 2.06063E+01 0.00000E+00
 -1      3157 1.38309E+02 1.98687E+01 0.00000E+00
 -1      3158 1.38309E+02 1.84000E+01 0.00000E+00
 -1      3159 1.36792E+02 3.56526E+01 0.00000E+00
 -1      3160 1.91001E+01 1.24545E+01 0.00000E+00
 -1      3161 1.83501E+01 1.11555E+01 0.00000E+00
 -1      3162 1.68502E+01 1.11555E+01 0.00000E+00
 -1      3163 2.81001E+01 1.24545E+01 0.00000E+00
 -1      3164 2.73501E+01 1.11555E+01 0.00000E+00
 -1      3165 2.58501E+01 1.11555E+01 0.00000E+00
 -1      3166 1.34705E+02 1.11289E+01 0.00000E+00
 -1      3167 1.33463E+02 1.11396E+01 0.00000E+00
 -1      3168 1.32713E+02 1.24386E+01 0.00000E+00
 -1      3169 1.34940E+02 1.24067E+01 0.00000E+00
 -1      3170 3.23250E+01 3.75865E+01 0.00000E+00
 -1      3171 2.43501E+01 1.11555E+01 0.00000E+00
 -1      3172 2.28501E+01 1.11555E+01 0.00000E+00
 -1      3173 2.21001E+01 1.24545E+01 0.00000E+00
 -1      3174 1.46002E+01 1.13440E+01 0.00000E+00
 -1      3175 1.61967E+01 2.33154E+01 0.00000E+00
 -1      3176 2.67937E+01 3.38546E+01 0.00000E+00
 -1      3177 1.30743E+01 2.28172E+01 0.00000E+00
 -1      3178 1.10226E+01 1.51579E+01 0.00000E+00
 -1      3179 1.10226E+01 1.66454E+01 0.00000E+00
 -1      3180 1.23216E+01 1.73829E+01 0.00000E+00
 -1      3181 1.28407E+01 1.43486E+01 0.00000E+00
 -1      3182 2.77006E+01 3.63826E+01 0.00000E+00
 -1      3183 1.90185E+01 2.40507E+01 0.00000E+00
 -1      3184 2.43955E+01 2.84626E+01 0.00000E+00
 -1      3185 4.05750E+01 3.61812E+01 0.00000E+00
 -1      3186 4.20750E+01 3.61812E+01 0.00000E+00
 -1      3187 4.36500E+01 3.61812E+01 0.00000E+00
 -1      3188 4.52250E+01 3.61812E+01 0.00000E+00
 -1      3189 4.29000E+01 3.48822E+01 0.00000E+00
 -1      3190 4.67250E+01 3.61812E+01 0.00000E+00
 -1      3191 4.82250E+01 3.61812E+01 0.00000E+00
 -1      3192 4.59750E+01 3.48822E+01 0.00000E+00
 -1      3193 4.97250E+01 3.61812E+01 0.00000E+00
 -1      3194 5.12250E+01 3.61812E+01 0.00000E+00
 -1      3195 4.89750E+01 3.48822E+01 0.00000E+00
 -1      3196 5.27250E+01 3.61812E+01 0.00000E+00
 -1      3197 5.42250E+01 3.61812E+01 0.00000E+00
 -1      3198 5.19750E+01 3.48822E+01 0.00000E+00
 -1      3199 5.57250E+01 3.61812E+01 0.00000E+00
 -1      3200 5.72250E+01 3.61812E+01 0.00000E+00
 -1      3201 5.49750E+01 3.48822E+01 0.00000E+00
 -1      3202 5.87250E+01 3.61812E+01 0.00000E+00
 -1      3203 6.02250E+01 3.61812E+01 0.00000E+00
 -1      3204 5.79750E+01 3.48822E+01 0.00000E+00
 -1      3205 6.17250E+01 3.61812E+01 0.00000E+00
 -1      3206 6.32250E+01 3.61812E+01 0.00000E+00
 -1      3207 6.09750E+01 3.48822E+01 0.00000E+00
 -1      3208 6.48000E+01 3.61812E+01 0.00000E+00
 -1      3209 6.63750E+01 3.61812E+01 0.00000E+00
 -1      3210 6.40500E+01 3.48822E+01 0.00000E+00
 -1      3211 6.78750E+01 3.61812E+01 0.00000E+00
 -1      3212 6.93750E+01 3.61812E+01 0.00000E+00
 -1      3213 6.71250E+01 3.48822E+01 0.00000E+00
 -1      3214 7.08750E+01 3.61812E+01 0.00000E+00
 -1      3215 7.23750E+01 3.61812E+01 0.00000E+00
 -1      3216 7.01250E+01 3.48822E+01 0.00000E+00
 -1      3217 7.38750E+01 3.61812E+01 0.00000E+00
 -1      3218 7.53750E+01 3.61812E+01 0.00000E+00
 -1      3219 7.31250E+01 3.48822E+01 0.00000E+00
 -1      3220 7.68750E+01 3.61812E+01 0.00000E+00
 -1      3221 7.83750E+01 3.61812E+01 0.00000E+00
 -1      3222 7.61250E+01 3.48822E+01 0.00000E+00
 -1      3223 7.98750E+01 3.61812E+01 0.00000E+00
 -1      3224 8.13750E+01 3.61812E+01 0.00000E+00
 -1      3225 7.91250E+01 3.48822E+01 0.00000E+00
 -1      3226 8.29500E+01 3.61812E+01 0.00000E+00
 -1      3227 8.45250E+01 3.61812E+01 0.00000E+00
 -1      3228 8.22000E+01 3.48822E+01 0.00000E+00
 -1      3229 8.60250E+01 3.61812E+01 0.00000E+00
 -1      3230 8.75250E+01 3.61812E+01 0.00000E+00
 -1      3231 8.52750E+01 3.48822E+01 0.00000E+00
 -1      3232 8.90250E+01 3.61812E+01 0.00000E+00
 -1      3233 9.05250E+01 3.61812E+01 0.00000E+00
 -1      3234 8.82750E+01 3.48822E+01 0.00000E+00
 -1      3235 9.20250E+01 3.61812E+01 0.00000E+00
 -1      3236 9.35250E+01 3.61812E+01 0.00000E+00
 -1      3237 9.12750E+01 3.48822E+01 0.00000E+00
 -1      3238 9.50250E+01 3.61812E+01 0.00000E+00
 -1      3239 9.65250E+01 3.61812E+01 0.00000E+00
 -1      3240 9.42750E+01 3.48822E+01 0.00000E+00
 -1      3241 9.80250E+01 3.61812E+01 0.00000E+00
 -1      3242 9.95250E+01 3.61812E+01 0.00000E+00
 -1      3243 9.72750E+01 3.48822E+01 0.00000E+00
 -1      3244 1.01025E+02 3.61812E+01 0.00000E+00
 -1      3245 1.02525E+02 3.61812E+01 0.00000E+00
 -1      3246 1.00275E+02 3.48822E+01 0.00000E+00
 -1      3247 1.04100E+02 3.61812E+01 0.00000E+00
 -1      3248 1.05675E+02 3.61812E+01 0.00000E+00
 -1      3249 1.03350E+02 3.48822E+01 0.00000E+00
 -1      3250 1.07175E+02 3.61812E+01 0.00000E+00
 -1      3251 1.08675E+02 3.61812E+01 0.00000E+00
 -1      3252 1.06425E+02 3.48822E+01 0.00000E+00
 -1      3253 1.10175E+02 3.61812E+01 0.00000E+00
 -1      3254 1.11675E+02 3.61812E+01 0.00000E+00
 -1      3255 1.09425E+02 3.48822E+01 0.00000E+00
 -1      3256 1.13175E+02 3.61812E+01 0.00000E+00
 -1      3257 1.14675E+02 3.61812E+01 0.00000E+00
 -1      3258 1.12425E+02 3.48822E+01 0.00000E+00
 -1      3259 1.16175E+02 3.61812E+01 0.00000E+00
 -1      3260 1.17675E+02 3.61812E+01 0.00000E+00
 -1      3261 1.15425E+02 3.48822E+01 0.00000E+00
 -1      3262 1.19175E+02 3.61812E+01 0.00000E+00
 -1      3263 1.20675E+02 3.61812E+01 0.00000E+00
 -1      3264 1.18425E+02 3.48822E+01 0.00000E+00
 -1      3265 1.22250E+02 3.61812E+01 0.00000E+00
 -1      3266 1.23825E+02 3.61812E+01 0.00000E+00
 -1      3267 1.21500E+02 3.48822E+01 0.00000E+00
 -1      3268 1.25325E+02 3.61812E+01 0.00000E+00
 -1      3269 1.26825E+02 3.61812E+01 0.00000E+00
 -1      3270 1.24575E+02 3.48822E+01 0.00000E+00
 -1      3271 1.28325E+02 3.61812E+01 0.00000E+00
 -1      3272 1.29825E+02 3.61812E+01 0.00000E+00
 -1      3273 1.27575E+02 3.48822E+01 0.00000E+00
 -1      3274 1.31325E+02 3.61812E+01 0.00000E+00
 -1      3275 1.32825E+02 3.61812E+01 0.00000E+00
 -1      3276 1.30575E+02 3.48822E+01 0.00000E+00
 -1      3277 1.34059E+02 3.59169E+01 0.00000E+00
 -1      3278 1.35559E+02 3.59169E+01 0.00000E+00
 -1      3279 1.35776E+02 3.40893E+01 0.00000E+00
 -1      3280 1.33309E+02 3.46179E+01 0.00000E+00
 -1      3281 2.85761E+01 3.53507E+01 0.00000E+00
 -1      3282 2.90339E+01 3.64754E+01 0.00000E+00
 -1      3283 3.03672E+01 3.65681E+01 0.00000E+00
 -1      3284 3.75750E+01 3.61812E+01 0.00000E+00
 -1      3285 3.90750E+01 3.61812E+01 0.00000E+00
 -1      3286 3.98250E+01 3.48822E+01 0.00000E+00
 -1      3287 4.38501E+01 1.37535E+01 0.00000E+00
 -1      3288 4.23501E+01 1.37535E+01 0.00000E+00
 -1      3289 4.08501E+01 1.37535E+01 0.00000E+00
 -1      3290 3.93501E+01 1.37535E+01 0.00000E+00
 -1      3291 4.16001E+01 1.50525E+01 0.00000E+00
 -1      3292 4.98501E+01 1.37535E+01 0.00000E+00
 -1      3293 4.83501E+01 1.37535E+01 0.00000E+00
 -1      3294 5.28501E+01 1.37535E+01 0.00000E+00
 -1      3295 5.13501E+01 1.37535E+01 0.00000E+00
 -1      3296 5.06001E+01 1.50525E+01 0.00000E+00
 -1      3297 5.58501E+01 1.37535E+01 0.00000E+00
 -1      3298 5.43501E+01 1.37535E+01 0.00000E+00
 -1      3299 5.36001E+01 1.50525E+01 0.00000E+00
 -1      3300 5.88501E+01 1.37535E+01 0.00000E+00
 -1      3301 5.73501E+01 1.37535E+01 0.00000E+00
 -1      3302 5.66001E+01 1.50525E+01 0.00000E+00
 -1      3303 6.18501E+01 1.37535E+01 0.00000E+00
 -1      3304 6.03501E+01 1.37535E+01 0.00000E+00
 -1      3305 5.96001E+01 1.50525E+01 0.00000E+00
 -1      3306 6.48501E+01 1.37535E+01 0.00000E+00
 -1      3307 6.33501E+01 1.37535E+01 0.00000E+00
 -1      3308 6.26001E+01 1.50525E+01 0.00000E+00
 -1      3309 6.78501E+01 1.37535E+01 0.00000E+00
 -1      3310 6.63501E+01 1.37535E+01 0.00000E+00
 -1      3311 6.56001E+01 1.50525E+01 0.00000E+00
 -1      3312 7.08501E+01 1.37535E+01 0.00000E+00
 -1      3313 6.93501E+01 1.37535E+01 0.00000E+00
 -1      3314 6.86001E+01 1.50525E+01 0.00000E+00
 -1      3315 7.38501E+01 1.37535E+01 0.00000E+00
 -1      3316 7.23501E+01 1.37535E+01 0.00000E+00
 -1      3317 7.16001E+01 1.50525E+01 0.00000E+00
 -1      3318 7.68501E+01 1.37535E+01 0.00000E+00
 -1      3319 7.53501E+01 1.37535E+01 0.00000E+00
 -1      3320 7.46001E+01 1.50525E+01 0.00000E+00
 -1      3321 7.98501E+01 1.37535E+01 0.00000E+00
 -1      3322 7.83501E+01 1.37535E+01 0.00000E+00
 -1      3323 7.76001E+01 1.50525E+01 0.00000E+00
 -1      3324 8.28501E+01 1.37535E+01 0.00000E+00
 -1      3325 8.13501E+01 1.37535E+01 0.00000E+00
 -1      3326 8.06001E+01 1.50525E+01 0.00000E+00
 -1      3327 8.58501E+01 1.37535E+01 0.00000E+00
 -1      3328 8.43501E+01 1.37535E+01 0.00000E+00
 -1      3329 8.36001E+01 1.50525E+01 0.00000E+00
 -1      3330 8.88501E+01 1.37535E+01 0.00000E+00
 -1      3331 8.73501E+01 1.37535E+01 0.00000E+00
 -1      3332 8.66001E+01 1.50525E+01 0.00000E+00
 -1      3333 9.18501E+01 1.37535E+01 0.00000E+00
 -1      3334 9.03501E+01 1.37535E+01 0.00000E+00
 -1      3335 8.96001E+01 1.50525E+01 0.00000E+00
 -1      3336 9.48501E+01 1.37535E+01 0.00000E+00
 -1      3337 9.33501E+01 1.37535E+01 0.00000E+00
 -1      3338 9.26001E+01 1.50525E+01 0.00000E+00
 -1      3339 9.78501E+01 1.37535E+01 0.00000E+00
 -1      3340 9.63501E+01 1.37535E+01 0.00000E+00
 -1      3341 9.56001E+01 1.50525E+01 0.00000E+00
 -1      3342 1.00850E+02 1.37535E+01 0.00000E+00
 -1      3343 9.93501E+01 1.37535E+01 0.00000E+00
 -1      3344 9.86001E+01 1.50525E+01 0.00000E+00
 -1      3345 1.03850E+02 1.37535E+01 0.00000E+00
 -1      3346 1.02350E+02 1.37535E+01 0.00000E+00
 -1      3347 1.01600E+02 1.50525E+01 0.00000E+00
 -1      3348 1.06850E+02 1.37535E+01 0.00000E+00
 -1      3349 1.05350E+02 1.37535E+01 0.00000E+00
 -1      3350 1.04600E+02 1.50525E+01 0.00000E+00
 -1      3351 1.09850E+02 1.37535E+01 0.00000E+00
 -1      3352 1.08350E+02 1.37535E+01 0.00000E+00
 -1      3353 1.07600E+02 1.50525E+01 0.00000E+00
 -1      3354 1.12850E+02 1.37535E+01 0.00000E+00
 -1      3355 1.11350E+02 1.37535E+01 0.00000E+00
 -1      3356 1.10600E+02 1.50525E+01 0.00000E+00
 -1      3357 1.15850E+02 1.37535E+01 0.00000E+00
 -1      3358 1.14350E+02 1.37535E+01 0.00000E+00
 -1      3359 1.13600E+02 1.50525E+01 0.00000E+00
 -1      3360 1.18850E+02 1.37535E+01 0.00000E+00
 -1      3361 1.17350E+02 1.37535E+01 0.00000E+00
 -1      3362 1.16600E+02 1.50525E+01 0.00000E+00
 -1      3363 1.21850E+02 1.37535E+01 0.00000E+00
 -1      3364 1.20350E+02 1.37535E+01 0.00000E+00
 -1      3365 1.19600E+02 1.50525E+01 0.00000E+00
 -1      3366 1.24850E+02 1.37535E+01 0.00000E+00
 -1      3367 1.23350E+02 1.37535E+01 0.00000E+00
 -1      3368 1.22600E+02 1.50525E+01 0.00000E+00
 -1      3369 1.27850E+02 1.37535E+01 0.00000E+00
 -1      3370 1.26350E+02 1.37535E+01 0.00000E+00
 -1      3371 1.25600E+02 1.50525E+01 0.00000E+00
 -1      3372 1.30850E+02 1.37535E+01 0.00000E+00
 -1      3373 1.29350E+02 1.37535E+01 0.00000E+00
 -1      3374 1.28600E+02 1.50525E+01 0.00000E+00
 -1      3375 1.35711E+02 2.42875E+01 0.00000E+00
 -1      3376 1.35711E+02 2.28125E+01 0.00000E+00
 -1      3377 3.18672E+01 3.64618E+01 0.00000E+00
 -1      3378 3.33672E+01 3.63555E+01 0.00000E+00
 -1      3379 3.14094E+01 3.53371E+01 0.00000E+00
 -1      3380 1.35776E+02 3.26143E+01 0.00000E+00
 -1      3381 1.35776E+02 3.11393E+01 0.00000E+00
 -1      3382 1.34542E+02 3.28786E+01 0.00000E+00
 -1      3383 2.76779E+01 3.25441E+01 0.00000E+00
 -1      3384 2.81270E+01 3.39474E+01 0.00000E+00
 -1      3385 2.94603E+01 3.40402E+01 0.00000E+00
 -1      3386 1.36011E+02 1.47622E+01 0.00000E+00
 -1      3387 1.35475E+02 1.35844E+01 0.00000E+00
 -1      3388 1.34362E+02 1.36004E+01 0.00000E+00
 -1      3389 4.68501E+01 1.37535E+01 0.00000E+00
 -1      3390 4.53501E+01 1.37535E+01 0.00000E+00
 -1      3391 4.76001E+01 1.50525E+01 0.00000E+00
 -1      3392 1.34346E+01 2.10238E+01 0.00000E+00
 -1      3393 3.18501E+01 1.37535E+01 0.00000E+00
 -1      3394 3.03501E+01 1.37535E+01 0.00000E+00
 -1      3395 3.47211E+01 3.62684E+01 0.00000E+00
 -1      3396 3.62211E+01 3.62684E+01 0.00000E+00
 -1      3397 3.69711E+01 3.49694E+01 0.00000E+00
 -1      3398 3.42633E+01 3.51437E+01 0.00000E+00
 -1      3399 1.37501E+01 1.93146E+01 0.00000E+00
 -1      3400 1.51226E+01 2.14384E+01 0.00000E+00
 -1      3401 1.37067E+02 1.69419E+01 0.00000E+00
 -1      3402 2.49496E+01 2.71352E+01 0.00000E+00
 -1      3403 2.58339E+01 2.84786E+01 0.00000E+00
 -1      3404 1.53502E+01 1.26430E+01 0.00000E+00
 -1      3405 2.66131E+01 2.98989E+01 0.00000E+00
 -1      3406 2.71455E+01 3.12215E+01 0.00000E+00
 -1      3407 2.84788E+01 3.13143E+01 0.00000E+00
 -1      3408 1.65122E+01 2.16061E+01 0.00000E+00
 -1      3409 1.87418E+01 2.26581E+01 0.00000E+00
 -1      3410 2.01740E+01 2.32256E+01 0.00000E+00
 -1      3411 1.35711E+02 2.13438E+01 0.00000E+00
 -1      3412 1.35711E+02 1.98750E+01 0.00000E+00
 -1      3413 1.34412E+02 2.20812E+01 0.00000E+00
 -1      3414 2.44535E+01 2.46289E+01 0.00000E+00
 -1      3415 2.47016E+01 2.58820E+01 0.00000E+00
 -1      3416 2.61399E+01 2.58980E+01 0.00000E+00
 -1      3417 1.40096E+01 1.77974E+01 0.00000E+00
 -1      3418 1.56976E+01 1.82120E+01 0.00000E+00
 -1      3419 1.42691E+01 1.62803E+01 0.00000E+00
 -1      3420 1.98501E+01 1.37535E+01 0.00000E+00
 -1      3421 1.83502E+01 1.37535E+01 0.00000E+00
 -1      3422 2.88501E+01 1.37535E+01 0.00000E+00
 -1      3423 2.73501E+01 1.37535E+01 0.00000E+00
 -1      3424 2.96001E+01 1.50525E+01 0.00000E+00
 -1      3425 4.46001E+01 1.50525E+01 0.00000E+00
 -1      3426 3.86001E+01 1.50525E+01 0.00000E+00
 -1      3427 3.78501E+01 1.37535E+01 0.00000E+00
 -1      3428 3.63501E+01 1.37535E+01 0.00000E+00
 -1      3429 1.31963E+02 1.37376E+01 0.00000E+00
 -1      3430 1.31213E+02 1.50366E+01 0.00000E+00
 -1      3431 1.33076E+02 1.37216E+01 0.00000E+00
 -1      3432 1.35711E+02 2.57500E+01 0.00000E+00
 -1      3433 1.34412E+02 2.50125E+01 0.00000E+00
 -1      3434 1.35711E+02 2.72125E+01 0.00000E+00
 -1      3435 2.51001E+01 1.24545E+01 0.00000E+00
 -1      3436 2.11795E+01 2.18304E+01 0.00000E+00
 -1      3437 2.14562E+01 2.32230E+01 0.00000E+00
 -1      3438 2.27384E+01 2.32204E+01 0.00000E+00
 -1      3439 1.35744E+02 2.99072E+01 0.00000E+00
 -1      3440 1.35744E+02 2.84447E+01 0.00000E+00
 -1      3441 1.34445E+02 2.77072E+01 0.00000E+00
 -1      3442 1.34510E+02 3.01715E+01 0.00000E+00
 -1      3443 3.48501E+01 1.37535E+01 0.00000E+00
 -1      3444 3.33501E+01 1.37535E+01 0.00000E+00
 -1      3445 3.26001E+01 1.50525E+01 0.00000E+00
 -1      3446 3.56001E+01 1.50525E+01 0.00000E+00
 -1      3447 1.45287E+01 1.47632E+01 0.00000E+00
 -1      3448 1.76677E+01 2.07811E+01 0.00000E+00
 -1      3449 2.71672E+01 2.85714E+01 0.00000E+00
 -1      3450 2.28501E+01 1.37535E+01 0.00000E+00
 -1      3451 2.13501E+01 1.37535E+01 0.00000E+00
 -1      3452 2.06001E+01 1.50525E+01 0.00000E+00
 -1      3453 1.35832E+02 1.84164E+01 0.00000E+00
 -1      3454 1.35889E+02 1.62208E+01 0.00000E+00
 -1      3455 1.34776E+02 1.62367E+01 0.00000E+00
 -1      3456 1.34533E+02 1.91539E+01 0.00000E+00
 -1      3457 1.67786E+01 1.45747E+01 0.00000E+00
 -1      3458 1.70618E+01 1.91764E+01 0.00000E+00
 -1      3459 1.92914E+01 2.02284E+01 0.00000E+00
 -1      3460 3.05112E+01 3.25306E+01 0.00000E+00
 -1      3461 3.09603E+01 3.39339E+01 0.00000E+00
 -1      3462 3.24603E+01 3.38276E+01 0.00000E+00
 -1      3463 4.52250E+01 3.35832E+01 0.00000E+00
 -1      3464 4.67250E+01 3.35832E+01 0.00000E+00
 -1      3465 4.82250E+01 3.35832E+01 0.00000E+00
 -1      3466 4.97250E+01 3.35832E+01 0.00000E+00
 -1      3467 4.74750E+01 3.22842E+01 0.00000E+00
 -1      3468 5.12250E+01 3.35832E+01 0.00000E+00
 -1      3469 5.27250E+01 3.35832E+01 0.00000E+00
 -1      3470 5.04750E+01 3.22842E+01 0.00000E+00
 -1      3471 5.42250E+01 3.35832E+01 0.00000E+00
 -1      3472 5.57250E+01 3.35832E+01 0.00000E+00
 -1      3473 5.34750E+01 3.22842E+01 0.00000E+00
 -1      3474 5.72250E+01 3.35832E+01 0.00000E+00
 -1      3475 5.87250E+01 3.35832E+01 0.00000E+00
 -1      3476 5.64750E+01 3.22842E+01 0.00000E+00
 -1      3477 6.02250E+01 3.35832E+01 0.00000E+00
 -1      3478 6.17250E+01 3.35832E+01 0.00000E+00
 -1      3479 5.94750E+01 3.22842E+01 0.00000E+00
 -1      3480 6.33000E+01 3.35832E+01 0.00000E+00
 -1      3481 6.48750E+01 3.35832E+01 0.00000E+00
 -1      3482 6.25500E+01 3.22842E+01 0.00000E+00
 -1      3483 6.63750E+01 3.35832E+01 0.00000E+00
 -1      3484 6.78750E+01 3.35832E+01 0.00000E+00
 -1      3485 6.56250E+01 3.22842E+01 0.00000E+00
 -1      3486 6.93750E+01 3.35832E+01 0.00000E+00
 -1      3487 7.08750E+01 3.35832E+01 0.00000E+00
 -1      3488 6.86250E+01 3.22842E+01 0.00000E+00
 -1      3489 7.23750E+01 3.35832E+01 0.00000E+00
 -1      3490 7.38750E+01 3.35832E+01 0.00000E+00
 -1      3491 7.16250E+01 3.22842E+01 0.00000E+00
 -1      3492 7.53750E+01 3.35832E+01 0.00000E+00
 -1      3493 7.68750E+01 3.35832E+01 0.00000E+00
 -1      3494 7.46250E+01 3.22842E+01 0.00000E+00
 -1      3495 7.83750E+01 3.35832E+01 0.00000E+00
 -1      3496 7.98750E+01 3.35832E+01 0.00000E+00
 -1      3497 7.76250E+01 3.22842E+01 0.00000E+00
 -1      3498 8.14500E+01 3.35832E+01 0.00000E+00
 -1      3499 8.30250E+01 3.35832E+01 0.00000E+00
 -1      3500 8.07000E+01 3.22842E+01 0.00000E+00
 -1      3501 8.45250E+01 3.35832E+01 0.00000E+00
 -1      3502 8.60250E+01 3.35832E+01 0.00000E+00
 -1      3503 8.37750E+01 3.22842E+01 0.00000E+00
 -1      3504 8.75250E+01 3.35832E+01 0.00000E+00
 -1      3505 8.90250E+01 3.35832E+01 0.00000E+00
 -1      3506 8.67750E+01 3.22842E+01 0.00000E+00
 -1      3507 9.05250E+01 3.35832E+01 0.00000E+00
 -1      3508 9.20250E+01 3.35832E+01 0.00000E+00
 -1      3509 8.97750E+01 3.22842E+01 0.00000E+00
 -1      3510 9.35250E+01 3.35832E+01 0.00000E+00
 -1      3511 9.50250E+01 3.35832E+01 0.00000E+00
 -1      3512 9.27750E+01 3.22842E+01 0.00000E+00
 -1      3513 9.65250E+01 3.35832E+01 0.00000E+00
 -1      3514 9.80250E+01 3.35832E+01 0.00000E+00
 -1      3515 9.57750E+01 3.22842E+01 0.00000E+00
 -1      3516 9.95250E+01 3.35832E+01 0.00000E+00
 -1      3517 1.01025E+02 3.35832E+01 0.00000E+00
 -1      3518 9.87750E+01 3.22842E+01 0.00000E+00
 -1      3519 1.02600E+02 3.35832E+01 0.00000E+00
 -1      3520 1.04175E+02 3.35832E+01 0.00000E+00
 -1      3521 1.01850E+02 3.22842E+01 0.00000E+00
 -1      3522 1.05675E+02 3.35832E+01 0.00000E+00
 -1      3523 1.07175E+02 3.35832E+01 0.00000E+00
 -1      3524 1.04925E+02 3.22842E+01 0.00000E+00
 -1      3525 1.08675E+02 3.35832E+01 0.00000E+00
 -1      3526 1.10175E+02 3.35832E+01 0.00000E+00
 -1      3527 1.07925E+02 3.22842E+01 0.00000E+00
 -1      3528 1.11675E+02 3.35832E+01 0.00000E+00
 -1      3529 1.13175E+02 3.35832E+01 0.00000E+00
 -1      3530 1.10925E+02 3.22842E+01 0.00000E+00
 -1      3531 1.14675E+02 3.35832E+01 0.00000E+00
 -1      3532 1.16175E+02 3.35832E+01 0.00000E+00
 -1      3533 1.13925E+02 3.22842E+01 0.00000E+00
 -1      3534 1.17675E+02 3.35832E+01 0.00000E+00
 -1      3535 1.19175E+02 3.35832E+01 0.00000E+00
 -1      3536 1.16925E+02 3.22842E+01 0.00000E+00
 -1      3537 1.20750E+02 3.35832E+01 0.00000E+00
 -1      3538 1.22325E+02 3.35832E+01 0.00000E+00
 -1      3539 1.20000E+02 3.22842E+01 0.00000E+00
 -1      3540 1.23825E+02 3.35832E+01 0.00000E+00
 -1      3541 1.25325E+02 3.35832E+01 0.00000E+00
 -1      3542 1.23075E+02 3.22842E+01 0.00000E+00
 -1      3543 1.26825E+02 3.35832E+01 0.00000E+00
 -1      3544 1.28325E+02 3.35832E+01 0.00000E+00
 -1      3545 1.26075E+02 3.22842E+01 0.00000E+00
 -1      3546 1.29825E+02 3.35832E+01 0.00000E+00
 -1      3547 1.31325E+02 3.35832E+01 0.00000E+00
 -1      3548 1.29075E+02 3.22842E+01 0.00000E+00
 -1      3549 1.32317E+02 3.33631E+01 0.00000E+00
 -1      3550 1.33551E+02 3.30988E+01 0.00000E+00
 -1      3551 1.33551E+02 3.16238E+01 0.00000E+00
 -1      3552 1.31567E+02 3.20641E+01 0.00000E+00
 -1      3553 4.23501E+01 1.63515E+01 0.00000E+00
 -1      3554 4.08501E+01 1.63515E+01 0.00000E+00
 -1      3555 3.90750E+01 3.35832E+01 0.00000E+00
 -1      3556 4.05750E+01 3.35832E+01 0.00000E+00
 -1      3557 5.43501E+01 1.63515E+01 0.00000E+00
 -1      3558 5.28501E+01 1.63515E+01 0.00000E+00
 -1      3559 5.13501E+01 1.63515E+01 0.00000E+00
 -1      3560 4.98501E+01 1.63515E+01 0.00000E+00
 -1      3561 5.21001E+01 1.76505E+01 0.00000E+00
 -1      3562 6.03501E+01 1.63515E+01 0.00000E+00
 -1      3563 5.88501E+01 1.63515E+01 0.00000E+00
 -1      3564 6.33501E+01 1.63515E+01 0.00000E+00
 -1      3565 6.18501E+01 1.63515E+01 0.00000E+00
 -1      3566 6.11001E+01 1.76505E+01 0.00000E+00
 -1      3567 6.63501E+01 1.63515E+01 0.00000E+00
 -1      3568 6.48501E+01 1.63515E+01 0.00000E+00
 -1      3569 6.41001E+01 1.76505E+01 0.00000E+00
 -1      3570 6.93501E+01 1.63515E+01 0.00000E+00
 -1      3571 6.78501E+01 1.63515E+01 0.00000E+00
 -1      3572 6.71001E+01 1.76505E+01 0.00000E+00
 -1      3573 7.23501E+01 1.63515E+01 0.00000E+00
 -1      3574 7.08501E+01 1.63515E+01 0.00000E+00
 -1      3575 7.01001E+01 1.76505E+01 0.00000E+00
 -1      3576 7.53501E+01 1.63515E+01 0.00000E+00
 -1      3577 7.38501E+01 1.63515E+01 0.00000E+00
 -1      3578 7.31001E+01 1.76505E+01 0.00000E+00
 -1      3579 7.83501E+01 1.63515E+01 0.00000E+00
 -1      3580 7.68501E+01 1.63515E+01 0.00000E+00
 -1      3581 7.61001E+01 1.76505E+01 0.00000E+00
 -1      3582 8.13501E+01 1.63515E+01 0.00000E+00
 -1      3583 7.98501E+01 1.63515E+01 0.00000E+00
 -1      3584 7.91001E+01 1.76505E+01 0.00000E+00
 -1      3585 8.43501E+01 1.63515E+01 0.00000E+00
 -1      3586 8.28501E+01 1.63515E+01 0.00000E+00
 -1      3587 8.21001E+01 1.76505E+01 0.00000E+00
 -1      3588 8.73501E+01 1.63515E+01 0.00000E+00
 -1      3589 8.58501E+01 1.63515E+01 0.00000E+00
 -1      3590 8.51001E+01 1.76505E+01 0.00000E+00
 -1      3591 9.03501E+01 1.63515E+01 0.00000E+00
 -1      3592 8.88501E+01 1.63515E+01 0.00000E+00
 -1      3593 8.81001E+01 1.76505E+01 0.00000E+00
 -1      3594 9.33501E+01 1.63515E+01 0.00000E+00
 -1      3595 9.18501E+01 1.63515E+01 0.00000E+00
 -1      3596 9.11001E+01 1.76505E+01 0.00000E+00
 -1      3597 9.63501E+01 1.63515E+01 0.00000E+00
 -1      3598 9.48501E+01 1.63515E+01 0.00000E+00
 -1      3599 9.41001E+01 1.76505E+01 0.00000E+00
 -1      3600 9.93501E+01 1.63515E+01 0.00000E+00
 -1      3601 9.78501E+01 1.63515E+01 0.00000E+00
 -1      3602 9.71001E+01 1.76505E+01 0.00000E+00
 -1      3603 1.02350E+02 1.63515E+01 0.00000E+00
 -1      3604 1.00850E+02 1.63515E+01 0.00000E+00
 -1      3605 1.00100E+02 1.76505E+01 0.00000E+00
 -1      3606 1.05350E+02 1.63515E+01 0.00000E+00
 -1      3607 1.03850E+02 1.63515E+01 0.00000E+00
 -1      3608 1.03100E+02 1.76505E+01 0.00000E+00
 -1      3609 1.08350E+02 1.63515E+01 0.00000E+00
 -1      3610 1.06850E+02 1.63515E+01 0.00000E+00
 -1      3611 1.06100E+02 1.76505E+01 0.00000E+00
 -1      3612 1.11350E+02 1.63515E+01 0.00000E+00
 -1      3613 1.09850E+02 1.63515E+01 0.00000E+00
 -1      3614 1.09100E+02 1.76505E+01 0.00000E+00
 -1      3615 1.14350E+02 1.63515E+01 0.00000E+00
 -1      3616 1.12850E+02 1.63515E+01 0.00000E+00
 -1      3617 1.12100E+02 1.76505E+01 0.00000E+00
 -1      3618 1.17350E+02 1.63515E+01 0.00000E+00
 -1      3619 1.15850E+02 1.63515E+01 0.00000E+00
 -1      3620 1.15100E+02 1.76505E+01 0.00000E+00
 -1      3621 1.20350E+02 1.63515E+01 0.00000E+00
 -1      3622 1.18850E+02 1.63515E+01 0.00000E+00
 -1      3623 1.18100E+02 1.76505E+01 0.00000E+00
 -1      3624 1.23350E+02 1.63515E+01 0.00000E+00
 -1      3625 1.21850E+02 1.63515E+01 0.00000E+00
 -1      3626 1.21100E+02 1.76505E+01 0.00000E+00
 -1      3627 1.26350E+02 1.63515E+01 0.00000E+00
 -1      3628 1.24850E+02 1.63515E+01 0.00000E+00
 -1      3629 1.24100E+02 1.76505E+01 0.00000E+00
 -1      3630 1.29350E+02 1.63515E+01 0.00000E+00
 -1      3631 1.27850E+02 1.63515E+01 0.00000E+00
 -1      3632 1.27100E+02 1.76505E+01 0.00000E+00
 -1      3633 1.33612E+02 1.48994E+01 0.00000E+00
 -1      3634 2.58501E+01 1.37535E+01 0.00000E+00
 -1      3635 2.43501E+01 1.37535E+01 0.00000E+00
 -1      3636 2.36001E+01 1.50525E+01 0.00000E+00
 -1      3637 2.66001E+01 1.50525E+01 0.00000E+00
 -1      3638 4.83501E+01 1.63515E+01 0.00000E+00
 -1      3639 4.68501E+01 1.63515E+01 0.00000E+00
 -1      3640 4.91001E+01 1.76505E+01 0.00000E+00
 -1      3641 5.73501E+01 1.63515E+01 0.00000E+00
 -1      3642 5.58501E+01 1.63515E+01 0.00000E+00
 -1      3643 5.51001E+01 1.76505E+01 0.00000E+00
 -1      3644 5.81001E+01 1.76505E+01 0.00000E+00
 -1      3645 4.21125E+01 3.35832E+01 0.00000E+00
 -1      3646 4.36875E+01 3.35832E+01 0.00000E+00
 -1      3647 4.44375E+01 3.22842E+01 0.00000E+00
 -1      3648 4.13625E+01 3.22842E+01 0.00000E+00
 -1      3649 1.73213E+01 1.76593E+01 0.00000E+00
 -1      3650 2.94464E+01 2.98853E+01 0.00000E+00
 -1      3651 2.99788E+01 3.12080E+01 0.00000E+00
 -1      3652 3.14788E+01 3.11017E+01 0.00000E+00
 -1      3653 2.78880E+01 2.70448E+01 0.00000E+00
 -1      3654 2.86672E+01 2.84651E+01 0.00000E+00
 -1      3655 3.01672E+01 2.83588E+01 0.00000E+00
 -1      3656 1.75286E+01 1.58737E+01 0.00000E+00
 -1      3657 4.53501E+01 1.63515E+01 0.00000E+00
 -1      3658 4.38501E+01 1.63515E+01 0.00000E+00
 -1      3659 4.31001E+01 1.76505E+01 0.00000E+00
 -1      3660 1.88929E+01 1.68381E+01 0.00000E+00
 -1      3661 2.41768E+01 2.32364E+01 0.00000E+00
 -1      3662 2.56152E+01 2.32523E+01 0.00000E+00
 -1      3663 2.39000E+01 2.18438E+01 0.00000E+00
 -1      3664 3.33651E+01 3.23372E+01 0.00000E+00
 -1      3665 3.38142E+01 3.37404E+01 0.00000E+00
 -1      3666 3.51681E+01 3.36533E+01 0.00000E+00
 -1      3667 1.32526E+02 3.06118E+01 0.00000E+00
 -1      3668 1.33518E+02 3.03916E+01 0.00000E+00
 -1      3669 1.33485E+02 2.91595E+01 0.00000E+00
 -1      3670 1.33491E+02 1.63580E+01 0.00000E+00
 -1      3671 4.61001E+01 1.76505E+01 0.00000E+00
 -1      3672 3.93501E+01 1.63515E+01 0.00000E+00
 -1      3673 3.78501E+01 1.63515E+01 0.00000E+00
 -1      3674 4.01001E+01 1.76505E+01 0.00000E+00
 -1      3675 1.99677E+01 1.86211E+01 0.00000E+00
 -1      3676 2.05736E+01 2.02258E+01 0.00000E+00
 -1      3677 2.18558E+01 2.02231E+01 0.00000E+00
 -1      3678 1.30463E+02 1.63356E+01 0.00000E+00
 -1      3679 1.29713E+02 1.76346E+01 0.00000E+00
 -1      3680 1.31576E+02 1.63196E+01 0.00000E+00
 -1      3681 2.73919E+01 2.45386E+01 0.00000E+00
 -1      3682 2.76399E+01 2.57917E+01 0.00000E+00
 -1      3683 2.91399E+01 2.56854E+01 0.00000E+00
 -1      3684 1.33113E+02 2.57437E+01 0.00000E+00
 -1      3685 1.33113E+02 2.42813E+01 0.00000E+00
 -1      3686 2.01750E+01 1.68355E+01 0.00000E+00
 -1      3687 3.64446E+01 3.36618E+01 0.00000E+00
 -1      3688 3.77985E+01 3.35747E+01 0.00000E+00
 -1      3689 3.85485E+01 3.22757E+01 0.00000E+00
 -1      3690 3.59955E+01 3.22586E+01 0.00000E+00
 -1      3691 3.03501E+01 1.63515E+01 0.00000E+00
 -1      3692 2.88501E+01 1.63515E+01 0.00000E+00
 -1      3693 1.31814E+02 2.35438E+01 0.00000E+00
 -1      3694 1.33113E+02 2.28125E+01 0.00000E+00
 -1      3695 1.33113E+02 2.13438E+01 0.00000E+00
 -1      3696 3.33501E+01 1.63515E+01 0.00000E+00
 -1      3697 3.18501E+01 1.63515E+01 0.00000E+00
 -1      3698 3.11001E+01 1.76505E+01 0.00000E+00
 -1      3699 2.16750E+01 1.68355E+01 0.00000E+00
 -1      3700 4.97250E+01 3.09852E+01 0.00000E+00
 -1      3701 5.12250E+01 3.09852E+01 0.00000E+00
 -1      3702 5.27250E+01 3.09852E+01 0.00000E+00
 -1      3703 5.42250E+01 3.09852E+01 0.00000E+00
 -1      3704 5.19750E+01 2.96862E+01 0.00000E+00
 -1      3705 5.57250E+01 3.09852E+01 0.00000E+00
 -1      3706 5.72250E+01 3.09852E+01 0.00000E+00
 -1      3707 5.49750E+01 2.96862E+01 0.00000E+00
 -1      3708 5.87250E+01 3.09852E+01 0.00000E+00
 -1      3709 6.02250E+01 3.09852E+01 0.00000E+00
 -1      3710 5.79750E+01 2.96862E+01 0.00000E+00
 -1      3711 6.18000E+01 3.09852E+01 0.00000E+00
 -1      3712 6.33750E+01 3.09852E+01 0.00000E+00
 -1      3713 6.10500E+01 2.96862E+01 0.00000E+00
 -1      3714 6.48750E+01 3.09852E+01 0.00000E+00
 -1      3715 6.63750E+01 3.09852E+01 0.00000E+00
 -1      3716 6.41250E+01 2.96862E+01 0.00000E+00
 -1      3717 6.78750E+01 3.09852E+01 0.00000E+00
 -1      3718 6.93750E+01 3.09852E+01 0.00000E+00
 -1      3719 6.71250E+01 2.96862E+01 0.00000E+00
 -1      3720 7.08750E+01 3.09852E+01 0.00000E+00
 -1      3721 7.23750E+01 3.09852E+01 0.00000E+00
 -1      3722 7.01250E+01 2.96862E+01 0.00000E+00
 -1      3723 7.38750E+01 3.09852E+01 0.00000E+00
 -1      3724 7.53750E+01 3.09852E+01 0.00000E+00
 -1      3725 7.31250E+01 2.96862E+01 0.00000E+00
 -1      3726 7.68750E+01 3.09852E+01 0.00000E+00
 -1      3727 7.83750E+01 3.09852E+01 0.00000E+00
 -1      3728 7.61250E+01 2.96862E+01 0.00000E+00
 -1      3729 7.99500E+01 3.09852E+01 0.00000E+00
 -1      3730 8.15250E+01 3.09852E+01 0.00000E+00
 -1      3731 7.92000E+01 2.96862E+01 0.00000E+00
 -1      3732 8.30250E+01 3.09852E+01 0.00000E+00
 -1      3733 8.45250E+01 3.09852E+01 0.00000E+00
 -1      3734 8.22750E+01 2.96862E+01 0.00000E+00
 -1      3735 8.60250E+01 3.09852E+01 0.00000E+00
 -1      3736 8.75250E+01 3.09852E+01 0.00000E+00
 -1      3737 8.52750E+01 2.96862E+01 0.00000E+00
 -1      3738 8.90250E+01 3.09852E+01 0.00000E+00
 -1      3739 9.05250E+01 3.09852E+01 0.00000E+00
 -1      3740 8.82750E+01 2.96862E+01 0.00000E+00
 -1      3741 9.20250E+01 3.09852E+01 0.00000E+00
 -1      3742 9.35250E+01 3.09852E+01 0.00000E+00
 -1      3743 9.12750E+01 2.96862E+01 0.00000E+00
 -1      3744 9.50250E+01 3.09852E+01 0.00000E+00
 -1      3745 9.65250E+01 3.09852E+01 0.00000E+00
 -1      3746 9.42750E+01 2.96862E+01 0.00000E+00
 -1      3747 9.80250E+01 3.09852E+01 0.00000E+00
 -1      3748 9.95250E+01 3.09852E+01 0.00000E+00
 -1      3749 9.72750E+01 2.96862E+01 0.00000E+00
 -1      3750 1.01100E+02 3.09852E+01 0.00000E+00
 -1      3751 1.02675E+02 3.09852E+01 0.00000E+00
 -1      3752 1.00350E+02 2.96862E+01 0.00000E+00
 -1      3753 1.04175E+02 3.09852E+01 0.00000E+00
 -1      3754 1.05675E+02 3.09852E+01 0.00000E+00
 -1      3755 1.03425E+02 2.96862E+01 0.00000E+00
 -1      3756 1.07175E+02 3.09852E+01 0.00000E+00
 -1      3757 1.08675E+02 3.09852E+01 0.00000E+00
 -1      3758 1.06425E+02 2.96862E+01 0.00000E+00
 -1      3759 1.10175E+02 3.09852E+01 0.00000E+00
 -1      3760 1.11675E+02 3.09852E+01 0.00000E+00
 -1      3761 1.09425E+02 2.96862E+01 0.00000E+00
 -1      3762 1.13175E+02 3.09852E+01 0.00000E+00
 -1      3763 1.14675E+02 3.09852E+01 0.00000E+00
 -1      3764 1.12425E+02 2.96862E+01 0.00000E+00
 -1      3765 1.16175E+02 3.09852E+01 0.00000E+00
 -1      3766 1.17675E+02 3.09852E+01 0.00000E+00
 -1      3767 1.15425E+02 2.96862E+01 0.00000E+00
 -1      3768 1.19250E+02 3.09852E+01 0.00000E+00
 -1      3769 1.20825E+02 3.09852E+01 0.00000E+00
 -1      3770 1.18500E+02 2.96862E+01 0.00000E+00
 -1      3771 1.22325E+02 3.09852E+01 0.00000E+00
 -1      3772 1.23825E+02 3.09852E+01 0.00000E+00
 -1      3773 1.21575E+02 2.96862E+01 0.00000E+00
 -1      3774 1.25325E+02 3.09852E+01 0.00000E+00
 -1      3775 1.26825E+02 3.09852E+01 0.00000E+00
 -1      3776 1.24575E+02 2.96862E+01 0.00000E+00
 -1      3777 1.28325E+02 3.09852E+01 0.00000E+00
 -1      3778 1.29825E+02 3.09852E+01 0.00000E+00
 -1      3779 1.27575E+02 2.96862E+01 0.00000E+00
 -1      3780 1.30680E+02 3.09086E+01 0.00000E+00
 -1      3781 1.31671E+02 3.06884E+01 0.00000E+00
 -1      3782 1.31639E+02 2.94563E+01 0.00000E+00
 -1      3783 1.29930E+02 2.96096E+01 0.00000E+00
 -1      3784 2.29405E+01 1.67463E+01 0.00000E+00
 -1      3785 2.25154E+01 1.85293E+01 0.00000E+00
 -1      3786 2.31213E+01 2.01340E+01 0.00000E+00
 -1      3787 2.44405E+01 1.67463E+01 0.00000E+00
 -1      3788 6.48501E+01 1.89495E+01 0.00000E+00
 -1      3789 6.33501E+01 1.89495E+01 0.00000E+00
 -1      3790 6.18501E+01 1.89495E+01 0.00000E+00
 -1      3791 6.03501E+01 1.89495E+01 0.00000E+00
 -1      3792 6.26001E+01 2.02485E+01 0.00000E+00
 -1      3793 7.08501E+01 1.89495E+01 0.00000E+00
 -1      3794 6.93501E+01 1.89495E+01 0.00000E+00
 -1      3795 7.38501E+01 1.89495E+01 0.00000E+00
 -1      3796 7.23501E+01 1.89495E+01 0.00000E+00
 -1      3797 7.16001E+01 2.02485E+01 0.00000E+00
 -1      3798 7.68501E+01 1.89495E+01 0.00000E+00
 -1      3799 7.53501E+01 1.89495E+01 0.00000E+00
 -1      3800 7.46001E+01 2.02485E+01 0.00000E+00
 -1      3801 7.98501E+01 1.89495E+01 0.00000E+00
 -1      3802 7.83501E+01 1.89495E+01 0.00000E+00
 -1      3803 7.76001E+01 2.02485E+01 0.00000E+00
 -1      3804 8.28501E+01 1.89495E+01 0.00000E+00
 -1      3805 8.13501E+01 1.89495E+01 0.00000E+00
 -1      3806 8.06001E+01 2.02485E+01 0.00000E+00
 -1      3807 8.58501E+01 1.89495E+01 0.00000E+00
 -1      3808 8.43501E+01 1.89495E+01 0.00000E+00
 -1      3809 8.36001E+01 2.02485E+01 0.00000E+00
 -1      3810 8.88501E+01 1.89495E+01 0.00000E+00
 -1      3811 8.73501E+01 1.89495E+01 0.00000E+00
 -1      3812 8.66001E+01 2.02485E+01 0.00000E+00
 -1      3813 9.18501E+01 1.89495E+01 0.00000E+00
 -1      3814 9.03501E+01 1.89495E+01 0.00000E+00
 -1      3815 8.96001E+01 2.02485E+01 0.00000E+00
 -1      3816 9.48501E+01 1.89495E+01 0.00000E+00
 -1      3817 9.33501E+01 1.89495E+01 0.00000E+00
 -1      3818 9.26001E+01 2.02485E+01 0.00000E+00
 -1      3819 9.78501E+01 1.89495E+01 0.00000E+00
 -1      3820 9.63501E+01 1.89495E+01 0.00000E+00
 -1      3821 9.56001E+01 2.02485E+01 0.00000E+00
 -1      3822 1.00850E+02 1.89495E+01 0.00000E+00
 -1      3823 9.93501E+01 1.89495E+01 0.00000E+00
 -1      3824 9.86001E+01 2.02485E+01 0.00000E+00
 -1      3825 1.03850E+02 1.89495E+01 0.00000E+00
 -1      3826 1.02350E+02 1.89495E+01 0.00000E+00
 -1      3827 1.01600E+02 2.02485E+01 0.00000E+00
 -1      3828 1.06850E+02 1.89495E+01 0.00000E+00
 -1      3829 1.05350E+02 1.89495E+01 0.00000E+00
 -1      3830 1.04600E+02 2.02485E+01 0.00000E+00
 -1      3831 1.09850E+02 1.89495E+01 0.00000E+00
 -1      3832 1.08350E+02 1.89495E+01 0.00000E+00
 -1      3833 1.07600E+02 2.02485E+01 0.00000E+00
 -1      3834 1.12850E+02 1.89495E+01 0.00000E+00
 -1      3835 1.11350E+02 1.89495E+01 0.00000E+00
 -1      3836 1.10600E+02 2.02485E+01 0.00000E+00
 -1      3837 1.15850E+02 1.89495E+01 0.00000E+00
 -1      3838 1.14350E+02 1.89495E+01 0.00000E+00
 -1      3839 1.13600E+02 2.02485E+01 0.00000E+00
 -1      3840 1.18850E+02 1.89495E+01 0.00000E+00
 -1      3841 1.17350E+02 1.89495E+01 0.00000E+00
 -1      3842 1.16600E+02 2.02485E+01 0.00000E+00
 -1      3843 1.21850E+02 1.89495E+01 0.00000E+00
 -1      3844 1.20350E+02 1.89495E+01 0.00000E+00
 -1      3845 1.19600E+02 2.02485E+01 0.00000E+00
 -1      3846 1.24850E+02 1.89495E+01 0.00000E+00
 -1      3847 1.23350E+02 1.89495E+01 0.00000E+00
 -1      3848 1.22600E+02 2.02485E+01 0.00000E+00
 -1      3849 1.27850E+02 1.89495E+01 0.00000E+00
 -1      3850 1.26350E+02 1.89495E+01 0.00000E+00
 -1      3851 1.25600E+02 2.02485E+01 0.00000E+00
 -1      3852 4.68501E+01 1.89495E+01 0.00000E+00
 -1      3853 4.53501E+01 1.89495E+01 0.00000E+00
 -1      3854 3.63501E+01 1.63515E+01 0.00000E+00
 -1      3855 3.48501E+01 1.63515E+01 0.00000E+00
 -1      3856 3.41001E+01 1.76505E+01 0.00000E+00
 -1      3857 3.71001E+01 1.76505E+01 0.00000E+00
 -1      3858 1.32741E+02 1.76570E+01 0.00000E+00
 -1      3859 5.28501E+01 1.89495E+01 0.00000E+00
 -1      3860 5.13501E+01 1.89495E+01 0.00000E+00
 -1      3861 3.09165E+01 2.70239E+01 0.00000E+00
 -1      3862 3.16957E+01 2.84441E+01 0.00000E+00
 -1      3863 4.98501E+01 1.89495E+01 0.00000E+00
 -1      3864 4.83501E+01 1.89495E+01 0.00000E+00
 -1      3865 5.06001E+01 2.02485E+01 0.00000E+00
 -1      3866 6.78501E+01 1.89495E+01 0.00000E+00
 -1      3867 6.63501E+01 1.89495E+01 0.00000E+00
 -1      3868 6.86001E+01 2.02485E+01 0.00000E+00
 -1      3869 1.32619E+02 1.91156E+01 0.00000E+00
 -1      3870 4.67250E+01 3.09852E+01 0.00000E+00
 -1      3871 4.82250E+01 3.09852E+01 0.00000E+00
 -1      3872 4.89750E+01 2.96862E+01 0.00000E+00
 -1      3873 3.22642E+01 2.97293E+01 0.00000E+00
 -1      3874 3.27966E+01 3.10519E+01 0.00000E+00
 -1      3875 3.41505E+01 3.09648E+01 0.00000E+00
 -1      3876 3.30135E+01 2.83944E+01 0.00000E+00
 -1      3877 1.33316E+02 2.80677E+01 0.00000E+00
 -1      3878 1.33283E+02 2.68355E+01 0.00000E+00
 -1      3879 1.31984E+02 2.61043E+01 0.00000E+00
 -1      3880 1.32324E+02 2.82878E+01 0.00000E+00
 -1      3881 4.38501E+01 1.89495E+01 0.00000E+00
 -1      3882 4.23501E+01 1.89495E+01 0.00000E+00
 -1      3883 4.46001E+01 2.02485E+01 0.00000E+00
 -1      3884 2.68384E+01 2.17534E+01 0.00000E+00
 -1      3885 2.71152E+01 2.31460E+01 0.00000E+00
 -1      3886 2.86152E+01 2.30397E+01 0.00000E+00
 -1      3887 4.08501E+01 1.89495E+01 0.00000E+00
 -1      3888 3.93501E+01 1.89495E+01 0.00000E+00
 -1      3889 4.16001E+01 2.02485E+01 0.00000E+00
 -1      3890 4.36500E+01 3.09852E+01 0.00000E+00
 -1      3891 4.51875E+01 3.09852E+01 0.00000E+00
 -1      3892 4.59375E+01 2.96862E+01 0.00000E+00
 -1      3893 3.79189E+01 3.09724E+01 0.00000E+00
 -1      3894 3.91955E+01 3.09810E+01 0.00000E+00
 -1      3895 6.56001E+01 2.02485E+01 0.00000E+00
 -1      3896 1.31320E+02 1.98468E+01 0.00000E+00
 -1      3897 5.58501E+01 1.89495E+01 0.00000E+00
 -1      3898 5.43501E+01 1.89495E+01 0.00000E+00
 -1      3899 5.36001E+01 2.02485E+01 0.00000E+00
 -1      3900 5.96001E+01 2.02485E+01 0.00000E+00
 -1      3901 5.88501E+01 1.89495E+01 0.00000E+00
 -1      3902 5.73501E+01 1.89495E+01 0.00000E+00
 -1      3903 4.76001E+01 2.02485E+01 0.00000E+00
 -1      3904 1.30142E+02 1.93902E+01 0.00000E+00
 -1      3905 1.29029E+02 1.94061E+01 0.00000E+00
 -1      3906 1.28279E+02 2.07051E+01 0.00000E+00
 -1      3907 1.30636E+02 2.16184E+01 0.00000E+00
 -1      3908 2.45597E+01 2.01499E+01 0.00000E+00
 -1      3909 2.73953E+01 1.65489E+01 0.00000E+00
 -1      3910 2.58953E+01 1.65489E+01 0.00000E+00
 -1      3911 2.52357E+01 1.82427E+01 0.00000E+00
 -1      3912 2.81453E+01 1.78479E+01 0.00000E+00
 -1      3913 1.30785E+02 2.68499E+01 0.00000E+00
 -1      3914 1.30615E+02 2.57581E+01 0.00000E+00
 -1      3915 4.06540E+01 3.09831E+01 0.00000E+00
 -1      3916 4.21915E+01 3.09831E+01 0.00000E+00
 -1      3917 4.29415E+01 2.96841E+01 0.00000E+00
 -1      3918 4.00244E+01 2.96799E+01 0.00000E+00
 -1      3919 3.04203E+01 2.45176E+01 0.00000E+00
 -1      3920 3.06684E+01 2.57707E+01 0.00000E+00
 -1      3921 3.21969E+01 2.58561E+01 0.00000E+00
 -1      3922 1.30625E+02 2.44226E+01 0.00000E+00
 -1      3923 1.30625E+02 2.29539E+01 0.00000E+00
 -1      3924 1.29447E+02 2.24972E+01 0.00000E+00
 -1      3925 1.29427E+02 2.51682E+01 0.00000E+00
 -1      3926 3.18501E+01 1.89495E+01 0.00000E+00
 -1      3927 3.03501E+01 1.89495E+01 0.00000E+00
 -1      3928 2.89693E+01 1.96488E+01 0.00000E+00
 -1      3929 2.75145E+01 1.98462E+01 0.00000E+00
 -1      3930 2.97193E+01 2.09478E+01 0.00000E+00
 -1      3931 1.31469E+02 2.83645E+01 0.00000E+00
 -1      3932 1.30101E+02 2.80183E+01 0.00000E+00
 -1      3933 5.42250E+01 2.83872E+01 0.00000E+00
 -1      3934 5.57250E+01 2.83872E+01 0.00000E+00
 -1      3935 5.72250E+01 2.83872E+01 0.00000E+00
 -1      3936 5.87250E+01 2.83872E+01 0.00000E+00
 -1      3937 5.64750E+01 2.70882E+01 0.00000E+00
 -1      3938 6.03000E+01 2.83872E+01 0.00000E+00
 -1      3939 6.18750E+01 2.83872E+01 0.00000E+00
 -1      3940 5.95500E+01 2.70882E+01 0.00000E+00
 -1      3941 6.33750E+01 2.83872E+01 0.00000E+00
 -1      3942 6.48750E+01 2.83872E+01 0.00000E+00
 -1      3943 6.26250E+01 2.70882E+01 0.00000E+00
 -1      3944 6.63750E+01 2.83872E+01 0.00000E+00
 -1      3945 6.78750E+01 2.83872E+01 0.00000E+00
 -1      3946 6.56250E+01 2.70882E+01 0.00000E+00
 -1      3947 6.93750E+01 2.83872E+01 0.00000E+00
 -1      3948 7.08750E+01 2.83872E+01 0.00000E+00
 -1      3949 6.86250E+01 2.70882E+01 0.00000E+00
 -1      3950 7.23750E+01 2.83872E+01 0.00000E+00
 -1      3951 7.38750E+01 2.83872E+01 0.00000E+00
 -1      3952 7.16250E+01 2.70882E+01 0.00000E+00
 -1      3953 7.53750E+01 2.83872E+01 0.00000E+00
 -1      3954 7.68750E+01 2.83872E+01 0.00000E+00
 -1      3955 7.46250E+01 2.70882E+01 0.00000E+00
 -1      3956 7.84500E+01 2.83872E+01 0.00000E+00
 -1      3957 8.00250E+01 2.83872E+01 0.00000E+00
 -1      3958 7.77000E+01 2.70882E+01 0.00000E+00
 -1      3959 8.15250E+01 2.83872E+01 0.00000E+00
 -1      3960 8.30250E+01 2.83872E+01 0.00000E+00
 -1      3961 8.07750E+01 2.70882E+01 0.00000E+00
 -1      3962 8.45250E+01 2.83872E+01 0.00000E+00
 -1      3963 8.60250E+01 2.83872E+01 0.00000E+00
 -1      3964 8.37750E+01 2.70882E+01 0.00000E+00
 -1      3965 8.75250E+01 2.83872E+01 0.00000E+00
 -1      3966 8.90250E+01 2.83872E+01 0.00000E+00
 -1      3967 8.67750E+01 2.70882E+01 0.00000E+00
 -1      3968 9.05250E+01 2.83872E+01 0.00000E+00
 -1      3969 9.20250E+01 2.83872E+01 0.00000E+00
 -1      3970 8.97750E+01 2.70882E+01 0.00000E+00
 -1      3971 9.35250E+01 2.83872E+01 0.00000E+00
 -1      3972 9.50250E+01 2.83872E+01 0.00000E+00
 -1      3973 9.27750E+01 2.70882E+01 0.00000E+00
 -1      3974 9.65250E+01 2.83872E+01 0.00000E+00
 -1      3975 9.80250E+01 2.83872E+01 0.00000E+00
 -1      3976 9.57750E+01 2.70882E+01 0.00000E+00
 -1      3977 9.96000E+01 2.83872E+01 0.00000E+00
 -1      3978 1.01175E+02 2.83872E+01 0.00000E+00
 -1      3979 9.88500E+01 2.70882E+01 0.00000E+00
 -1      3980 1.02675E+02 2.83872E+01 0.00000E+00
 -1      3981 1.04175E+02 2.83872E+01 0.00000E+00
 -1      3982 1.01925E+02 2.70882E+01 0.00000E+00
 -1      3983 1.05675E+02 2.83872E+01 0.00000E+00
 -1      3984 1.07175E+02 2.83872E+01 0.00000E+00
 -1      3985 1.04925E+02 2.70882E+01 0.00000E+00
 -1      3986 1.08675E+02 2.83872E+01 0.00000E+00
 -1      3987 1.10175E+02 2.83872E+01 0.00000E+00
 -1      3988 1.07925E+02 2.70882E+01 0.00000E+00
 -1      3989 1.11675E+02 2.83872E+01 0.00000E+00
 -1      3990 1.13175E+02 2.83872E+01 0.00000E+00
 -1      3991 1.10925E+02 2.70882E+01 0.00000E+00
 -1      3992 1.14675E+02 2.83872E+01 0.00000E+00
 -1      3993 1.16175E+02 2.83872E+01 0.00000E+00
 -1      3994 1.13925E+02 2.70882E+01 0.00000E+00
 -1      3995 1.17750E+02 2.83872E+01 0.00000E+00
 -1      3996 1.19325E+02 2.83872E+01 0.00000E+00
 -1      3997 1.17000E+02 2.70882E+01 0.00000E+00
 -1      3998 1.20825E+02 2.83872E+01 0.00000E+00
 -1      3999 1.22325E+02 2.83872E+01 0.00000E+00
 -1      4000 1.20075E+02 2.70882E+01 0.00000E+00
 -1      4001 1.23825E+02 2.83872E+01 0.00000E+00
 -1      4002 1.25325E+02 2.83872E+01 0.00000E+00
 -1      4003 1.23075E+02 2.70882E+01 0.00000E+00
 -1      4004 7.83501E+01 2.15475E+01 0.00000E+00
 -1      4005 7.68501E+01 2.15475E+01 0.00000E+00
 -1      4006 6.33501E+01 2.15475E+01 0.00000E+00
 -1      4007 6.18501E+01 2.15475E+01 0.00000E+00
 -1      4008 6.63501E+01 2.15475E+01 0.00000E+00
 -1      4009 6.48501E+01 2.15475E+01 0.00000E+00
 -1      4010 6.41001E+01 2.28465E+01 0.00000E+00
 -1      4011 7.53501E+01 2.15475E+01 0.00000E+00
 -1      4012 7.38501E+01 2.15475E+01 0.00000E+00
 -1      4013 7.61001E+01 2.28465E+01 0.00000E+00
 -1      4014 7.23501E+01 2.15475E+01 0.00000E+00
 -1      4015 7.08501E+01 2.15475E+01 0.00000E+00
 -1      4016 7.31001E+01 2.28465E+01 0.00000E+00
 -1      4017 8.13501E+01 2.15475E+01 0.00000E+00
 -1      4018 7.98501E+01 2.15475E+01 0.00000E+00
 -1      4019 7.91001E+01 2.28465E+01 0.00000E+00
 -1      4020 8.43501E+01 2.15475E+01 0.00000E+00
 -1      4021 8.28501E+01 2.15475E+01 0.00000E+00
 -1      4022 8.21001E+01 2.28465E+01 0.00000E+00
 -1      4023 8.73501E+01 2.15475E+01 0.00000E+00
 -1      4024 8.58501E+01 2.15475E+01 0.00000E+00
 -1      4025 8.51001E+01 2.28465E+01 0.00000E+00
 -1      4026 9.03501E+01 2.15475E+01 0.00000E+00
 -1      4027 8.88501E+01 2.15475E+01 0.00000E+00
 -1      4028 8.81001E+01 2.28465E+01 0.00000E+00
 -1      4029 9.33501E+01 2.15475E+01 0.00000E+00
 -1      4030 9.18501E+01 2.15475E+01 0.00000E+00
 -1      4031 9.11001E+01 2.28465E+01 0.00000E+00
 -1      4032 9.63501E+01 2.15475E+01 0.00000E+00
 -1      4033 9.48501E+01 2.15475E+01 0.00000E+00
 -1      4034 9.41001E+01 2.28465E+01 0.00000E+00
 -1      4035 9.93501E+01 2.15475E+01 0.00000E+00
 -1      4036 9.78501E+01 2.15475E+01 0.00000E+00
 -1      4037 9.71001E+01 2.28465E+01 0.00000E+00
 -1      4038 1.02350E+02 2.15475E+01 0.00000E+00
 -1      4039 1.00850E+02 2.15475E+01 0.00000E+00
 -1      4040 1.00100E+02 2.28465E+01 0.00000E+00
 -1      4041 1.05350E+02 2.15475E+01 0.00000E+00
 -1      4042 1.03850E+02 2.15475E+01 0.00000E+00
 -1      4043 1.03100E+02 2.28465E+01 0.00000E+00
 -1      4044 1.08350E+02 2.15475E+01 0.00000E+00
 -1      4045 1.06850E+02 2.15475E+01 0.00000E+00
 -1      4046 1.06100E+02 2.28465E+01 0.00000E+00
 -1      4047 1.11350E+02 2.15475E+01 0.00000E+00
 -1      4048 1.09850E+02 2.15475E+01 0.00000E+00
 -1      4049 1.09100E+02 2.28465E+01 0.00000E+00
 -1      4050 1.14350E+02 2.15475E+01 0.00000E+00
 -1      4051 1.12850E+02 2.15475E+01 0.00000E+00
 -1      4052 1.12100E+02 2.28465E+01 0.00000E+00
 -1      4053 1.17350E+02 2.15475E+01 0.00000E+00
 -1      4054 1.15850E+02 2.15475E+01 0.00000E+00
 -1      4055 1.15100E+02 2.28465E+01 0.00000E+00
 -1      4056 1.20350E+02 2.15475E+01 0.00000E+00
 -1      4057 1.18850E+02 2.15475E+01 0.00000E+00
 -1      4058 1.18100E+02 2.28465E+01 0.00000E+00
 -1      4059 1.23350E+02 2.15475E+01 0.00000E+00
 -1      4060 1.21850E+02 2.15475E+01 0.00000E+00
 -1      4061 1.21100E+02 2.28465E+01 0.00000E+00
 -1      4062 1.26350E+02 2.15475E+01 0.00000E+00
 -1      4063 1.24850E+02 2.15475E+01 0.00000E+00
 -1      4064 1.24100E+02 2.28465E+01 0.00000E+00
 -1      4065 2.99314E+01 2.20364E+01 0.00000E+00
 -1      4066 3.02082E+01 2.34290E+01 0.00000E+00
 -1      4067 3.17366E+01 2.35143E+01 0.00000E+00
 -1      4068 3.13123E+01 2.13371E+01 0.00000E+00
 -1      4069 3.33501E+01 1.89495E+01 0.00000E+00
 -1      4070 3.26001E+01 2.02485E+01 0.00000E+00
 -1      4071 3.48501E+01 1.89495E+01 0.00000E+00
 -1      4072 4.53501E+01 2.15475E+01 0.00000E+00
 -1      4073 4.38501E+01 2.15475E+01 0.00000E+00
 -1      4074 5.13501E+01 2.15475E+01 0.00000E+00
 -1      4075 4.98501E+01 2.15475E+01 0.00000E+00
 -1      4076 3.53965E+01 3.09643E+01 0.00000E+00
 -1      4077 3.66730E+01 3.09729E+01 0.00000E+00
 -1      4078 3.73199E+01 2.96782E+01 0.00000E+00
 -1      4079 3.48279E+01 2.96791E+01 0.00000E+00
 -1      4080 2.60145E+01 1.99525E+01 0.00000E+00
 -1      4081 4.83501E+01 2.15475E+01 0.00000E+00
 -1      4082 4.68501E+01 2.15475E+01 0.00000E+00
 -1      4083 4.91001E+01 2.28465E+01 0.00000E+00
 -1      4084 6.93501E+01 2.15475E+01 0.00000E+00
 -1      4085 6.78501E+01 2.15475E+01 0.00000E+00
 -1      4086 7.01001E+01 2.28465E+01 0.00000E+00
 -1      4087 5.12250E+01 2.83872E+01 0.00000E+00
 -1      4088 5.27250E+01 2.83872E+01 0.00000E+00
 -1      4089 5.34750E+01 2.70882E+01 0.00000E+00
 -1      4090 4.82250E+01 2.83872E+01 0.00000E+00
 -1      4091 4.97250E+01 2.83872E+01 0.00000E+00
 -1      4092 5.04750E+01 2.70882E+01 0.00000E+00
 -1      4093 1.29246E+02 2.80950E+01 0.00000E+00
 -1      4094 1.26825E+02 2.83872E+01 0.00000E+00
 -1      4095 1.28325E+02 2.83872E+01 0.00000E+00
 -1      4096 1.28496E+02 2.67960E+01 0.00000E+00
 -1      4097 6.11001E+01 2.28465E+01 0.00000E+00
 -1      4098 6.03501E+01 2.15475E+01 0.00000E+00
 -1      4099 5.88501E+01 2.15475E+01 0.00000E+00
 -1      4100 4.23501E+01 2.15475E+01 0.00000E+00
 -1      4101 4.08501E+01 2.15475E+01 0.00000E+00
 -1      4102 4.31001E+01 2.28465E+01 0.00000E+00
 -1      4103 3.78501E+01 1.89495E+01 0.00000E+00
 -1      4104 3.63501E+01 1.89495E+01 0.00000E+00
 -1      4105 3.86001E+01 2.02485E+01 0.00000E+00
 -1      4106 5.66001E+01 2.02485E+01 0.00000E+00
 -1      4107 1.27529E+02 2.20041E+01 0.00000E+00
 -1      4108 3.28123E+01 2.13371E+01 0.00000E+00
 -1      4109 5.28501E+01 2.15475E+01 0.00000E+00
 -1      4110 5.21001E+01 2.28465E+01 0.00000E+00
 -1      4111 5.43501E+01 2.15475E+01 0.00000E+00
 -1      4112 4.61001E+01 2.28465E+01 0.00000E+00
 -1      4113 6.71001E+01 2.28465E+01 0.00000E+00
 -1      4114 3.66964E+01 2.83794E+01 0.00000E+00
 -1      4115 3.79424E+01 2.83790E+01 0.00000E+00
 -1      4116 3.94010E+01 2.83811E+01 0.00000E+00
 -1      4117 4.08595E+01 2.83832E+01 0.00000E+00
 -1      4118 3.87775E+01 2.70823E+01 0.00000E+00
 -1      4119 4.51500E+01 2.83872E+01 0.00000E+00
 -1      4120 4.66875E+01 2.83872E+01 0.00000E+00
 -1      4121 4.74375E+01 2.70882E+01 0.00000E+00
 -1      4122 3.33471E+01 2.49772E+01 0.00000E+00
 -1      4123 3.35952E+01 2.62303E+01 0.00000E+00
 -1      4124 3.39273E+01 2.73121E+01 0.00000E+00
 -1      4125 3.44958E+01 2.85973E+01 0.00000E+00
 -1      4126 3.57418E+01 2.85969E+01 0.00000E+00
 -1      4127 3.50775E+01 2.64333E+01 0.00000E+00
 -1      4128 1.26075E+02 2.70882E+01 0.00000E+00
 -1      4129 1.27290E+02 2.62744E+01 0.00000E+00
 -1      4130 1.28211E+02 2.59821E+01 0.00000E+00
 -1      4131 1.28221E+02 2.46466E+01 0.00000E+00
 -1      4132 1.25790E+02 2.62744E+01 0.00000E+00
 -1      4133 5.57250E+01 2.57892E+01 0.00000E+00
 -1      4134 5.72250E+01 2.57892E+01 0.00000E+00
 -1      4135 5.87876E+01 2.49674E+01 0.00000E+00
 -1      4136 6.03626E+01 2.49674E+01 0.00000E+00
 -1      4137 6.18626E+01 2.49674E+01 0.00000E+00
 -1      4138 6.33626E+01 2.49674E+01 0.00000E+00
 -1      4139 6.48626E+01 2.49674E+01 0.00000E+00
 -1      4140 6.63626E+01 2.49674E+01 0.00000E+00
 -1      4141 6.78626E+01 2.49674E+01 0.00000E+00
 -1      4142 6.93626E+01 2.49674E+01 0.00000E+00
 -1      4143 7.08626E+01 2.49674E+01 0.00000E+00
 -1      4144 7.23626E+01 2.49674E+01 0.00000E+00
 -1      4145 7.38626E+01 2.49674E+01 0.00000E+00
 -1      4146 7.53626E+01 2.49674E+01 0.00000E+00
 -1      4147 7.68626E+01 2.49674E+01 0.00000E+00
 -1      4148 7.84376E+01 2.49674E+01 0.00000E+00
 -1      4149 7.99376E+01 2.49674E+01 0.00000E+00
 -1      4150 8.14376E+01 2.49674E+01 0.00000E+00
 -1      4151 8.29376E+01 2.49674E+01 0.00000E+00
 -1      4152 8.44376E+01 2.49674E+01 0.00000E+00
 -1      4153 8.59376E+01 2.49674E+01 0.00000E+00
 -1      4154 8.74376E+01 2.49674E+01 0.00000E+00
 -1      4155 8.89376E+01 2.49674E+01 0.00000E+00
 -1      4156 9.04376E+01 2.49674E+01 0.00000E+00
 -1      4157 9.19376E+01 2.49674E+01 0.00000E+00
 -1      4158 9.34376E+01 2.49674E+01 0.00000E+00
 -1      4159 9.49376E+01 2.49674E+01 0.00000E+00
 -1      4160 9.64376E+01 2.49674E+01 0.00000E+00
 -1      4161 9.79376E+01 2.49674E+01 0.00000E+00
 -1      4162 9.95126E+01 2.49674E+01 0.00000E+00
 -1      4163 1.01013E+02 2.49674E+01 0.00000E+00
 -1      4164 1.02513E+02 2.49674E+01 0.00000E+00
 -1      4165 1.04013E+02 2.49674E+01 0.00000E+00
 -1      4166 1.05513E+02 2.49674E+01 0.00000E+00
 -1      4167 1.07013E+02 2.49674E+01 0.00000E+00
 -1      4168 1.08513E+02 2.49674E+01 0.00000E+00
 -1      4169 1.10013E+02 2.49674E+01 0.00000E+00
 -1      4170 1.11513E+02 2.49674E+01 0.00000E+00
 -1      4171 1.13013E+02 2.49674E+01 0.00000E+00
 -1      4172 1.14513E+02 2.49674E+01 0.00000E+00
 -1      4173 1.16013E+02 2.49674E+01 0.00000E+00
 -1      4174 1.17588E+02 2.49674E+01 0.00000E+00
 -1      4175 1.19088E+02 2.49674E+01 0.00000E+00
 -1      4176 1.20588E+02 2.49674E+01 0.00000E+00
 -1      4177 1.22088E+02 2.49674E+01 0.00000E+00
 -1      4178 1.23588E+02 2.49674E+01 0.00000E+00
 -1      4179 3.56001E+01 2.02485E+01 0.00000E+00
 -1      4180 3.29228E+01 2.28000E+01 0.00000E+00
 -1      4181 3.31349E+01 2.38886E+01 0.00000E+00
 -1      4182 3.45332E+01 2.42629E+01 0.00000E+00
 -1      4183 5.73501E+01 2.15475E+01 0.00000E+00
 -1      4184 5.58501E+01 2.15475E+01 0.00000E+00
 -1      4185 5.51001E+01 2.28465E+01 0.00000E+00
 -1      4186 5.81001E+01 2.28465E+01 0.00000E+00
 -1      4187 3.63643E+01 2.72976E+01 0.00000E+00
 -1      4188 1.27519E+02 2.33396E+01 0.00000E+00
 -1      4189 4.22755E+01 2.83842E+01 0.00000E+00
 -1      4190 4.37340E+01 2.83863E+01 0.00000E+00
 -1      4191 4.44840E+01 2.70873E+01 0.00000E+00
 -1      4192 4.16520E+01 2.70854E+01 0.00000E+00
 -1      4193 3.42106E+01 2.17114E+01 0.00000E+00
 -1      4194 4.97876E+01 2.49674E+01 0.00000E+00
 -1      4195 4.82876E+01 2.49674E+01 0.00000E+00
 -1      4196 1.26303E+02 2.41535E+01 0.00000E+00
 -1      4197 4.67501E+01 2.49674E+01 0.00000E+00
 -1      4198 4.52501E+01 2.49674E+01 0.00000E+00
 -1      4199 5.27876E+01 2.49674E+01 0.00000E+00
 -1      4200 5.42876E+01 2.49674E+01 0.00000E+00
 -1      4201 5.12876E+01 2.49674E+01 0.00000E+00
 -1      4202 1.25088E+02 2.49674E+01 0.00000E+00
 -1      4203 4.38341E+01 2.49664E+01 0.00000E+00
 -1      4204 3.57022E+01 2.34701E+01 0.00000E+00
 -1      4205 3.59143E+01 2.45587E+01 0.00000E+00
 -1      4206 4.23341E+01 2.49664E+01 0.00000E+00
 -1      4207 3.85917E+01 2.20072E+01 0.00000E+00
 -1      4208 3.70917E+01 2.20072E+01 0.00000E+00
 -1      4209 3.93417E+01 2.33062E+01 0.00000E+00
 -1      4210 3.57106E+01 2.17114E+01 0.00000E+00
 -1      4211 3.60322E+01 2.62159E+01 0.00000E+00
 -1      4212 3.72011E+01 2.54231E+01 0.00000E+00
 -1      4213 3.86596E+01 2.54252E+01 0.00000E+00
 -1      4214 4.09181E+01 2.49655E+01 0.00000E+00
 -1      4215 5.80376E+01 2.36684E+01 0.00000E+00
 -1      4216 5.65376E+01 2.36684E+01 0.00000E+00
 -1      4217 5.50376E+01 2.36684E+01 0.00000E+00
 -3
    3C                          2025                                     1
 -1       168    8    0    1
 -2         6         7        25      1097      1264      1116
 -1       169    8    0    1
 -2         7         8       168      1098      1265      1266
 -1       170    8    0    1
 -2         8         9       169      1099      1267      1268
 -1       171    8    0    1
 -2         8       169       168      1268      1269      1265
 -1       172    8    0    1
 -2         9        10       170      1100      1270      1271
 -1       173    8    0    1
 -2         9       170       169      1271      1272      1267
 -1       174    8    0    1
 -2        10        11       171      1101      1273      1274
 -1       175    8    0    1
 -2        10       171       170      1274      1275      1270
 -1       176    8    0    1
 -2        11        12       172      1102      1276      1277
 -1       177    8    0    1
 -2        11       172       171      1277      1278      1273
 -1       178    8    0    1
 -2        12        13       173      1103      1279      1280
 -1       179    8    0    1
 -2        12       173       172      1280      1281      1276
 -1       180    8    0    1
 -2        13        14       174      1104      1282      1283
 -1       181    8    0    1
 -2        13       174       173      1283      1284      1279
 -1       182    8    0    1
 -2        14        15       175      1105      1285      1286
 -1       183    8    0    1
 -2        14       175       174      1286      1287      1282
 -1       184    8    0    1
 -2        15        16       176      1106      1288      1289
 -1       185    8    0    1
 -2        15       176       175      1289      1290      1285
 -1       186    8    0    1
 -2        16        17       177      1107      1291      1292
 -1       187    8    0    1
 -2        16       177       176      1292      1293      1288
 -1       188    8    0    1
 -2        17        18       178      1108      1294      1295
 -1       189    8    0    1
 -2        17       178       177      1295      1296      1291
 -1       190    8    0    1
 -2        18        19       179      1109      1297      1298
 -1       191    8    0    1
 -2        18       179       178      1298      1299      1294
 -1       192    8    0    1
 -2        19        20       180      1110      1300      1301
 -1       193    8    0    1
 -2        19       180       179      1301      1302      1297
 -1       194    8    0    1
 -2        20        21       181      1111      1303      1304
 -1       195    8    0    1
 -2        20       181       180      1304      1305      1300
 -1       196    8    0    1
 -2        21        22       182      1112      1306      1307
 -1       197    8    0    1
 -2        21       182       181      1307      1308      1303
 -1       198    8    0    1
 -2        22        23       183      1113      1309      1310
 -1       199    8    0    1
 -2        22       183       182      1310      1311      1306
 -1       200    8    0    1
 -2        23        24       184      1114      1312      1313
 -1       201    8    0    1
 -2        23       184       183      1313      1314      1309
 -1       202    8    0    1
 -2        24         5       185      1115      1315      1316
 -1       203    8    0    1
 -2       184        24       185      1312      1316      1317
 -1       204    8    0    1
 -2         5        75       185      1167      1318      1315
 -1       205    8    0    1
 -2        26        25       186      1117      1319      1320
 -1       206    8    0    1
 -2        27        26       187      1118      1321      1322
 -1       207    8    0    1
 -2        26       186       187      1320      1323      1321
 -1       208    8    0    1
 -2        28        27       188      1119      1324      1325
 -1       209    8    0    1
 -2        27       187       188      1322      1326      1324
 -1       210    8    0    1
 -2        29        28       189      1120      1327      1328
 -1       211    8    0    1
 -2        28       188       189      1325      1329      1327
 -1       212    8    0    1
 -2        30        29       190      1121      1330      1331
 -1       213    8    0    1
 -2        29       189       190      1328      1332      1330
 -1       214    8    0    1
 -2        31        30       191      1122      1333      1334
 -1       215    8    0    1
 -2        30       190       191      1331      1335      1333
 -1       216    8    0    1
 -2        32        31       192      1123      1336      1337
 -1       217    8    0    1
 -2        31       191       192      1334      1338      1336
 -1       218    8    0    1
 -2        33        32       193      1124      1339      1340
 -1       219    8    0    1
 -2        32       192       193      1337      1341      1339
 -1       220    8    0    1
 -2        34        33       194      1125      1342      1343
 -1       221    8    0    1
 -2        33       193       194      1340      1344      1342
 -1       222    8    0    1
 -2        35        34       195      1126      1345      1346
 -1       223    8    0    1
 -2        34       194       195      1343      1347      1345
 -1       224    8    0    1
 -2        36        35       196      1127      1348      1349
 -1       225    8    0    1
 -2        35       195       196      1346      1350      1348
 -1       226    8    0    1
 -2        37        36       197      1128      1351      1352
 -1       227    8    0    1
 -2        36       196       197      1349      1353      1351
 -1       228    8    0    1
 -2        38        37       198      1129      1354      1355
 -1       229    8    0    1
 -2        37       197       198      1352      1356      1354
 -1       230    8    0    1
 -2        39        38       199      1130      1357      1358
 -1       231    8    0    1
 -2        38       198       199      1355      1359      1357
 -1       232    8    0    1
 -2        40        39       200      1131      1360      1361
 -1       233    8    0    1
 -2        39       199       200      1358      1362      1360
 -1       234    8    0    1
 -2        41        40       201      1132      1363      1364
 -1       235    8    0    1
 -2        40       200       201      1361      1365      1363
 -1       236    8    0    1
 -2        42        41       202      1133      1366      1367
 -1       237    8    0    1
 -2        41       201       202      1364      1368      1366
 -1       238    8    0    1
 -2        43        42       203      1134      1369      1370
 -1       239    8    0    1
 -2        42       202       203      1367      1371      1369
 -1       240    8    0    1
 -2        44        43       204      1135      1372      1373
 -1       241    8    0    1
 -2        43       203       204      1370      1374      1372
 -1       242    8    0    1
 -2        45        44       205      1136      1375      1376
 -1       243    8    0    1
 -2        44       204       205      1373      1377      1375
 -1       244    8    0    1
 -2        46        45       206      1137      1378      1379
 -1       245    8    0    1
 -2        45       205       206      1376      1380      1378
 -1       246    8    0    1
 -2        47        46       207      1138      1381      1382
 -1       247    8    0    1
 -2        46       206       207      1379      1383      1381
 -1       248    8    0    1
 -2        48        47       208      1139      1384      1385
 -1       249    8    0    1
 -2        47       207       208      1382      1386      1384
 -1       250    8    0    1
 -2        49        48       209      1140      1387      1388
 -1       251    8    0    1
 -2        48       208       209      1385      1389      1387
 -1       252    8    0    1
 -2        50        49       210      1141      1390      1391
 -1       253    8    0    1
 -2        49       209       210      1388      1392      1390
 -1       254    8    0    1
 -2        51        50       211      1142      1393      1394
 -1       255    8    0    1
 -2        50       210       211      1391      1395      1393
 -1       256    8    0    1
 -2        52        51       212      1143      1396      1397
 -1       257    8    0    1
 -2        51       211       212      1394      1398      1396
 -1       258    8    0    1
 -2        53        52       213      1144      1399      1400
 -1       259    8    0    1
 -2        52       212       213      1397      1401      1399
 -1       260    8    0    1
 -2        54        53       214      1145      1402      1403
 -1       261    8    0    1
 -2        53       213       214      1400      1404      1402
 -1       262    8    0    1
 -2        55        54       215      1146      1405      1406
 -1       263    8    0    1
 -2        54       214       215      1403      1407      1405
 -1       264    8    0    1
 -2        56        55       216      1147      1408      1409
 -1       265    8    0    1
 -2        55       215       216      1406      1410      1408
 -1       266    8    0    1
 -2        57        56       217      1148      1411      1412
 -1       267    8    0    1
 -2        56       216       217      1409      1413      1411
 -1       268    8    0    1
 -2        58        57       218      1149      1414      1415
 -1       269    8    0    1
 -2        57       217       218      1412      1416      1414
 -1       270    8    0    1
 -2        59        58       219      1150      1417      1418
 -1       271    8    0    1
 -2        58       218       219      1415      1419      1417
 -1       272    8    0    1
 -2        60        59       220      1151      1420      1421
 -1       273    8    0    1
 -2        59       219       220      1418      1422      1420
 -1       274    8    0    1
 -2        61        60       221      1152      1423      1424
 -1       275    8    0    1
 -2        60       220       221      1421      1425      1423
 -1       276    8    0    1
 -2        62        61       222      1153      1426      1427
 -1       277    8    0    1
 -2        61       221       222      1424      1428      1426
 -1       278    8    0    1
 -2        63        62       223      1154      1429      1430
 -1       279    8    0    1
 -2        62       222       223      1427      1431      1429
 -1       280    8    0    1
 -2        64        63       224      1155      1432      1433
 -1       281    8    0    1
 -2        63       223       224      1430      1434      1432
 -1       282    8    0    1
 -2        65        64       225      1156      1435      1436
 -1       283    8    0    1
 -2        64       224       225      1433      1437      1435
 -1       284    8    0    1
 -2        66        65       226      1157      1438      1439
 -1       285    8    0    1
 -2        65       225       226      1436      1440      1438
 -1       286    8    0    1
 -2        67        66       227      1158      1441      1442
 -1       287    8    0    1
 -2        66       226       227      1439      1443      1441
 -1       288    8    0    1
 -2        68        67       228      1159      1444      1445
 -1       289    8    0    1
 -2        67       227       228      1442      1446      1444
 -1       290    8    0    1
 -2        69        68       229      1160      1447      1448
 -1       291    8    0    1
 -2        68       228       229      1445      1449      1447
 -1       292    8    0    1
 -2        70        69       230      1161      1450      1451
 -1       293    8    0    1
 -2        69       229       230      1448      1452      1450
 -1       294    8    0    1
 -2        71        70       231      1162      1453      1454
 -1       295    8    0    1
 -2        70       230       231      1451      1455      1453
 -1       296    8    0    1
 -2        72        71       232      1163      1456      1457
 -1       297    8    0    1
 -2        71       231       232      1454      1458      1456
 -1       298    8    0    1
 -2        73        72       233      1164      1459      1460
 -1       299    8    0    1
 -2        72       232       233      1457      1461      1459
 -1       300    8    0    1
 -2        74        73       234      1165      1462      1463
 -1       301    8    0    1
 -2        73       233       234      1460      1464      1462
 -1       302    8    0    1
 -2         4        74       235      1166      1465      1466
 -1       303    8    0    1
 -2       139         4       235      1233      1466      1467
 -1       304    8    0    1
 -2        74       234       235      1463      1468      1465
 -1       305    8    0    1
 -2        75        76       236      1168      1469      1470
 -1       306    8    0    1
 -2        75       236       185      1470      1471      1318
 -1       307    8    0    1
 -2        76        77       237      1169      1472      1473
 -1       308    8    0    1
 -2        76       237       236      1473      1474      1469
 -1       309    8    0    1
 -2        77        78       238      1170      1475      1476
 -1       310    8    0    1
 -2        77       238       237      1476      1477      1472
 -1       311    8    0    1
 -2        78        79       239      1171      1478      1479
 -1       312    8    0    1
 -2        78       239       238      1479      1480      1475
 -1       313    8    0    1
 -2        79        80       240      1172      1481      1482
 -1       314    8    0    1
 -2        79       240       239      1482      1483      1478
 -1       315    8    0    1
 -2        80        81       241      1173      1484      1485
 -1       316    8    0    1
 -2        80       241       240      1485      1486      1481
 -1       317    8    0    1
 -2        81        82       242      1174      1487      1488
 -1       318    8    0    1
 -2        81       242       241      1488      1489      1484
 -1       319    8    0    1
 -2        82        83       243      1175      1490      1491
 -1       320    8    0    1
 -2        82       243       242      1491      1492      1487
 -1       321    8    0    1
 -2        83        84       244      1176      1493      1494
 -1       322    8    0    1
 -2        83       244       243      1494      1495      1490
 -1       323    8    0    1
 -2        84        85       245      1177      1496      1497
 -1       324    8    0    1
 -2        84       245       244      1497      1498      1493
 -1       325    8    0    1
 -2        85        86       246      1178      1499      1500
 -1       326    8    0    1
 -2        85       246       245      1500      1501      1496
 -1       327    8    0    1
 -2        86        87       247      1179      1502      1503
 -1       328    8    0    1
 -2        86       247       246      1503      1504      1499
 -1       329    8    0    1
 -2        87        88       248      1180      1505      1506
 -1       330    8    0    1
 -2        87       248       247      1506      1507      1502
 -1       331    8    0    1
 -2        88        89       249      1181      1508      1509
 -1       332    8    0    1
 -2        88       249       248      1509      1510      1505
 -1       333    8    0    1
 -2        89        90       250      1182      1511      1512
 -1       334    8    0    1
 -2        89       250       249      1512      1513      1508
 -1       335    8    0    1
 -2        90        91       251      1183      1514      1515
 -1       336    8    0    1
 -2        90       251       250      1515      1516      1511
 -1       337    8    0    1
 -2        91        92       252      1184      1517      1518
 -1       338    8    0    1
 -2        91       252       251      1518      1519      1514
 -1       339    8    0    1
 -2        92        93       253      1185      1520      1521
 -1       340    8    0    1
 -2        92       253       252      1521      1522      1517
 -1       341    8    0    1
 -2        93        94       254      1186      1523      1524
 -1       342    8    0    1
 -2        93       254       253      1524      1525      1520
 -1       343    8    0    1
 -2        94        95       255      1187      1526      1527
 -1       344    8    0    1
 -2        94       255       254      1527      1528      1523
 -1       345    8    0    1
 -2        95        96       256      1188      1529      1530
 -1       346    8    0    1
 -2        95       256       255      1530      1531      1526
 -1       347    8    0    1
 -2        96        97       257      1189      1532      1533
 -1       348    8    0    1
 -2        96       257       256      1533      1534      1529
 -1       349    8    0    1
 -2        97        98       258      1190      1535      1536
 -1       350    8    0    1
 -2        97       258       257      1536      1537      1532
 -1       351    8    0    1
 -2        98        99       259      1191      1538      1539
 -1       352    8    0    1
 -2        98       259       258      1539      1540      1535
 -1       353    8    0    1
 -2        99       100       260      1192      1541      1542
 -1       354    8    0    1
 -2        99       260       259      1542      1543      1538
 -1       355    8    0    1
 -2       100       101       261      1193      1544      1545
 -1       356    8    0    1
 -2       100       261       260      1545      1546      1541
 -1       357    8    0    1
 -2       101       102       262      1194      1547      1548
 -1       358    8    0    1
 -2       101       262       261      1548      1549      1544
 -1       359    8    0    1
 -2       102       103       263      1195      1550      1551
 -1       360    8    0    1
 -2       102       263       262      1551      1552      1547
 -1       361    8    0    1
 -2       103       104       264      1196      1553      1554
 -1       362    8    0    1
 -2       103       264       263      1554      1555      1550
 -1       363    8    0    1
 -2       104       105       265      1197      1556      1557
 -1       364    8    0    1
 -2       104       265       264      1557      1558      1553
 -1       365    8    0    1
 -2       105       106       266      1198      1559      1560
 -1       366    8    0    1
 -2       105       266       265      1560      1561      1556
 -1       367    8    0    1
 -2       106       107       267      1199      1562      1563
 -1       368    8    0    1
 -2       106       267       266      1563      1564      1559
 -1       369    8    0    1
 -2       107       108       268      1200      1565      1566
 -1       370    8    0    1
 -2       107       268       267      1566      1567      1562
 -1       371    8    0    1
 -2       108       109       269      1201      1568      1569
 -1       372    8    0    1
 -2       108       269       268      1569      1570      1565
 -1       373    8    0    1
 -2       109       110       270      1202      1571      1572
 -1       374    8    0    1
 -2       109       270       269      1572      1573      1568
 -1       375    8    0    1
 -2       110       111       271      1203      1574      1575
 -1       376    8    0    1
 -2       110       271       270      1575      1576      1571
 -1       377    8    0    1
 -2       111       112       272      1204      1577      1578
 -1       378    8    0    1
 -2       111       272       271      1578      1579      1574
 -1       379    8    0    1
 -2       112       113       273      1205      1580      1581
 -1       380    8    0    1
 -2       112       273       272      1581      1582      1577
 -1       381    8    0    1
 -2       113       114       274      1206      1583      1584
 -1       382    8    0    1
 -2       113       274       273      1584      1585      1580
 -1       383    8    0    1
 -2       114       115       275      1207      1586      1587
 -1       384    8    0    1
 -2       114       275       274      1587      1588      1583
 -1       385    8    0    1
 -2       115       116       276      1208      1589      1590
 -1       386    8    0    1
 -2       115       276       275      1590      1591      1586
 -1       387    8    0    1
 -2       116       117       277      1209      1592      1593
 -1       388    8    0    1
 -2       116       277       276      1593      1594      1589
 -1       389    8    0    1
 -2       117       118       278      1210      1595      1596
 -1       390    8    0    1
 -2       117       278       277      1596      1597      1592
 -1       391    8    0    1
 -2       118       119       279      1211      1598      1599
 -1       392    8    0    1
 -2       118       279       278      1599      1600      1595
 -1       393    8    0    1
 -2       119       120       280      1212      1601      1602
 -1       394    8    0    1
 -2       119       280       279      1602      1603      1598
 -1       395    8    0    1
 -2       120       121       281      1213      1604      1605
 -1       396    8    0    1
 -2       120       281       280      1605      1606      1601
 -1       397    8    0    1
 -2       121       122       282      1214      1607      1608
 -1       398    8    0    1
 -2       121       282       281      1608      1609      1604
 -1       399    8    0    1
 -2       122       123       283      1215      1610      1611
 -1       400    8    0    1
 -2       122       283       282      1611      1612      1607
 -1       401    8    0    1
 -2       123         3       124      1216      1217      1613
 -1       402    8    0    1
 -2       124       125       284      1218      1614      1615
 -1       403    8    0    1
 -2       125       126       285      1219      1616      1617
 -1       404    8    0    1
 -2       125       285       284      1617      1618      1614
 -1       405    8    0    1
 -2       126       127       286      1220      1619      1620
 -1       406    8    0    1
 -2       126       286       285      1620      1621      1616
 -1       407    8    0    1
 -2       127       128       287      1221      1622      1623
 -1       408    8    0    1
 -2       127       287       286      1623      1624      1619
 -1       409    8    0    1
 -2       128       129       288      1222      1625      1626
 -1       410    8    0    1
 -2       128       288       287      1626      1627      1622
 -1       411    8    0    1
 -2       129       130       289      1223      1628      1629
 -1       412    8    0    1
 -2       129       289       288      1629      1630      1625
 -1       413    8    0    1
 -2       130       131       290      1224      1631      1632
 -1       414    8    0    1
 -2       130       290       289      1632      1633      1628
 -1       415    8    0    1
 -2       131       132       291      1225      1634      1635
 -1       416    8    0    1
 -2       131       291       290      1635      1636      1631
 -1       417    8    0    1
 -2       132       133       292      1226      1637      1638
 -1       418    8    0    1
 -2       132       292       291      1638      1639      1634
 -1       419    8    0    1
 -2       133       134       293      1227      1640      1641
 -1       420    8    0    1
 -2       133       293       292      1641      1642      1637
 -1       421    8    0    1
 -2       134       135       294      1228      1643      1644
 -1       422    8    0    1
 -2       134       294       293      1644      1645      1640
 -1       423    8    0    1
 -2       135       136       295      1229      1646      1647
 -1       424    8    0    1
 -2       135       295       294      1647      1648      1643
 -1       425    8    0    1
 -2       136       137       296      1230      1649      1650
 -1       426    8    0    1
 -2       136       296       295      1650      1651      1646
 -1       427    8    0    1
 -2       137       138       297      1231      1652      1653
 -1       428    8    0    1
 -2       137       297       296      1653      1654      1649
 -1       429    8    0    1
 -2       138       139       298      1232      1655      1656
 -1       430    8    0    1
 -2       297       138       298      1652      1656      1657
 -1       431    8    0    1
 -2       139       235       298      1467      1658      1655
 -1       432    8    0    1
 -2         2       140       299      1234      1659      1660
 -1       433    8    0    1
 -2       140       141       300      1235      1661      1662
 -1       434    8    0    1
 -2       141       142       301      1236      1663      1664
 -1       435    8    0    1
 -2       142       143       302      1237      1665      1666
 -1       436    8    0    1
 -2       143       144       303      1238      1667      1668
 -1       437    8    0    1
 -2       144       145       304      1239      1669      1670
 -1       438    8    0    1
 -2       145       146       305      1240      1671      1672
 -1       439    8    0    1
 -2       146       147       306      1241      1673      1674
 -1       440    8    0    1
 -2       147       148       307      1242      1675      1676
 -1       441    8    0    1
 -2       148       149       308      1243      1677      1678
 -1       442    8    0    1
 -2       149       150       309      1244      1679      1680
 -1       443    8    0    1
 -2       150       151       310      1245      1681      1682
 -1       444    8    0    1
 -2       151       152       311      1246      1683      1684
 -1       445    8    0    1
 -2       152       153       312      1247      1685      1686
 -1       446    8    0    1
 -2       153       154       313      1248      1687      1688
 -1       447    8    0    1
 -2       154       155       314      1249      1689      1690
 -1       448    8    0    1
 -2       155         1       315      1250      1691      1692
 -1       449    8    0    1
 -2         1       156       316      1251      1693      1694
 -1       450    8    0    1
 -2       156       157       317      1252      1695      1696
 -1       451    8    0    1
 -2       157       158       318      1253      1697      1698
 -1       452    8    0    1
 -2       158       159       319      1254      1699      1700
 -1       453    8    0    1
 -2       159       160       320      1255      1701      1702
 -1       454    8    0    1
 -2       160       161       321      1256      1703      1704
 -1       455    8    0    1
 -2       161       162       322      1257      1705      1706
 -1       456    8    0    1
 -2       162       163       323      1258      1707      1708
 -1       457    8    0    1
 -2       163       164       324      1259      1709      1710
 -1       458    8    0    1
 -2       164       165       325      1260      1711      1712
 -1       459    8    0    1
 -2       165       166       326      1261      1713      1714
 -1       460    8    0    1
 -2       166       167       327      1262      1715      1716
 -1       461    8    0    1
 -2       167         2       328      1263      1717      1718
 -1       462    8    0    1
 -2        25         7       168      1264      1266      1719
 -1       463    8    0    1
 -2       186        25       168      1319      1719      1720
 -1       464    8    0    1
 -2         2       299       328      1660      1721      1717
 -1       465    8    0    1
 -2       301       142       302      1663      1666      1722
 -1       466    8    0    1
 -2       123       124       283      1613      1723      1610
 -1       467    8    0    1
 -2       124       284       283      1615      1724      1723
 -1       468    8    0    1
 -2       299       140       300      1659      1662      1725
 -1       469    8    0    1
 -2       300       141       301      1661      1664      1726
 -1       470    8    0    1
 -2       143       303       302      1668      1727      1665
 -1       471    8    0    1
 -2       144       304       303      1670      1728      1667
 -1       472    8    0    1
 -2       145       305       304      1672      1729      1669
 -1       473    8    0    1
 -2       146       306       305      1674      1730      1671
 -1       474    8    0    1
 -2       147       307       306      1676      1731      1673
 -1       475    8    0    1
 -2       148       308       307      1678      1732      1675
 -1       476    8    0    1
 -2       149       309       308      1680      1733      1677
 -1       477    8    0    1
 -2       150       310       309      1682      1734      1679
 -1       478    8    0    1
 -2       151       311       310      1684      1735      1681
 -1       479    8    0    1
 -2       152       312       311      1686      1736      1683
 -1       480    8    0    1
 -2       153       313       312      1688      1737      1685
 -1       481    8    0    1
 -2       154       314       313      1690      1738      1687
 -1       482    8    0    1
 -2       155       315       314      1692      1739      1689
 -1       483    8    0    1
 -2         1       316       315      1694      1740      1691
 -1       484    8    0    1
 -2       156       317       316      1696      1741      1693
 -1       485    8    0    1
 -2       157       318       317      1698      1742      1695
 -1       486    8    0    1
 -2       158       319       318      1700      1743      1697
 -1       487    8    0    1
 -2       159       320       319      1702      1744      1699
 -1       488    8    0    1
 -2       160       321       320      1704      1745      1701
 -1       489    8    0    1
 -2       161       322       321      1706      1746      1703
 -1       490    8    0    1
 -2       162       323       322      1708      1747      1705
 -1       491    8    0    1
 -2       163       324       323      1710      1748      1707
 -1       492    8    0    1
 -2       164       325       324      1712      1749      1709
 -1       493    8    0    1
 -2       165       326       325      1714      1750      1711
 -1       494    8    0    1
 -2       166       327       326      1716      1751      1713
 -1       495    8    0    1
 -2       167       328       327      1718      1752      1715
 -1       496    8    0    1
 -2       169       170       329      1272      1753      1754
 -1       497    8    0    1
 -2       168       169       330      1269      1755      1756
 -1       498    8    0    1
 -2       186       168       330      1720      1756      1757
 -1       499    8    0    1
 -2       169       329       330      1754      1758      1755
 -1       500    8    0    1
 -2       171       172       314      1278      1759      1760
 -1       501    8    0    1
 -2       172       173       312      1281      1761      1762
 -1       502    8    0    1
 -2       173       174       311      1284      1763      1764
 -1       503    8    0    1
 -2       175       176       331      1290      1765      1766
 -1       504    8    0    1
 -2       176       177       332      1293      1767      1768
 -1       505    8    0    1
 -2       176       332       331      1768      1769      1765
 -1       506    8    0    1
 -2       177       178       333      1296      1770      1771
 -1       507    8    0    1
 -2       177       333       332      1771      1772      1767
 -1       508    8    0    1
 -2       178       179       334      1299      1773      1774
 -1       509    8    0    1
 -2       178       334       333      1774      1775      1770
 -1       510    8    0    1
 -2       179       180       335      1302      1776      1777
 -1       511    8    0    1
 -2       179       335       334      1777      1778      1773
 -1       512    8    0    1
 -2       180       181       336      1305      1779      1780
 -1       513    8    0    1
 -2       180       336       335      1780      1781      1776
 -1       514    8    0    1
 -2       181       182       337      1308      1782      1783
 -1       515    8    0    1
 -2       181       337       336      1783      1784      1779
 -1       516    8    0    1
 -2       182       183       338      1311      1785      1786
 -1       517    8    0    1
 -2       182       338       337      1786      1787      1782
 -1       518    8    0    1
 -2       183       184       339      1314      1788      1789
 -1       519    8    0    1
 -2       183       339       338      1789      1790      1785
 -1       520    8    0    1
 -2       184       185       340      1317      1791      1792
 -1       521    8    0    1
 -2       339       184       340      1788      1792      1793
 -1       522    8    0    1
 -2       185       236       340      1471      1794      1791
 -1       523    8    0    1
 -2       236       237       341      1474      1795      1796
 -1       524    8    0    1
 -2       236       341       340      1796      1797      1794
 -1       525    8    0    1
 -2       189       188       320      1329      1798      1799
 -1       526    8    0    1
 -2       192       191       342      1338      1800      1801
 -1       527    8    0    1
 -2       193       192       343      1341      1802      1803
 -1       528    8    0    1
 -2       194       193       344      1344      1804      1805
 -1       529    8    0    1
 -2       193       343       344      1803      1806      1804
 -1       530    8    0    1
 -2       195       194       345      1347      1807      1808
 -1       531    8    0    1
 -2       196       195       346      1350      1809      1810
 -1       532    8    0    1
 -2       195       345       346      1808      1811      1809
 -1       533    8    0    1
 -2       197       196       347      1353      1812      1813
 -1       534    8    0    1
 -2       196       346       347      1810      1814      1812
 -1       535    8    0    1
 -2       198       197       348      1356      1815      1816
 -1       536    8    0    1
 -2       197       347       348      1813      1817      1815
 -1       537    8    0    1
 -2       199       198       349      1359      1818      1819
 -1       538    8    0    1
 -2       198       348       349      1816      1820      1818
 -1       539    8    0    1
 -2       200       199       350      1362      1821      1822
 -1       540    8    0    1
 -2       199       349       350      1819      1823      1821
 -1       541    8    0    1
 -2       201       200       351      1365      1824      1825
 -1       542    8    0    1
 -2       200       350       351      1822      1826      1824
 -1       543    8    0    1
 -2       202       201       352      1368      1827      1828
 -1       544    8    0    1
 -2       201       351       352      1825      1829      1827
 -1       545    8    0    1
 -2       203       202       353      1371      1830      1831
 -1       546    8    0    1
 -2       202       352       353      1828      1832      1830
 -1       547    8    0    1
 -2       204       203       354      1374      1833      1834
 -1       548    8    0    1
 -2       203       353       354      1831      1835      1833
 -1       549    8    0    1
 -2       205       204       355      1377      1836      1837
 -1       550    8    0    1
 -2       204       354       355      1834      1838      1836
 -1       551    8    0    1
 -2       206       205       356      1380      1839      1840
 -1       552    8    0    1
 -2       205       355       356      1837      1841      1839
 -1       553    8    0    1
 -2       207       206       357      1383      1842      1843
 -1       554    8    0    1
 -2       206       356       357      1840      1844      1842
 -1       555    8    0    1
 -2       208       207       358      1386      1845      1846
 -1       556    8    0    1
 -2       207       357       358      1843      1847      1845
 -1       557    8    0    1
 -2       209       208       359      1389      1848      1849
 -1       558    8    0    1
 -2       208       358       359      1846      1850      1848
 -1       559    8    0    1
 -2       210       209       360      1392      1851      1852
 -1       560    8    0    1
 -2       209       359       360      1849      1853      1851
 -1       561    8    0    1
 -2       211       210       361      1395      1854      1855
 -1       562    8    0    1
 -2       210       360       361      1852      1856      1854
 -1       563    8    0    1
 -2       212       211       362      1398      1857      1858
 -1       564    8    0    1
 -2       211       361       362      1855      1859      1857
 -1       565    8    0    1
 -2       213       212       363      1401      1860      1861
 -1       566    8    0    1
 -2       212       362       363      1858      1862      1860
 -1       567    8    0    1
 -2       214       213       364      1404      1863      1864
 -1       568    8    0    1
 -2       213       363       364      1861      1865      1863
 -1       569    8    0    1
 -2       215       214       365      1407      1866      1867
 -1       570    8    0    1
 -2       214       364       365      1864      1868      1866
 -1       571    8    0    1
 -2       216       215       366      1410      1869      1870
 -1       572    8    0    1
 -2       215       365       366      1867      1871      1869
 -1       573    8    0    1
 -2       217       216       367      1413      1872      1873
 -1       574    8    0    1
 -2       216       366       367      1870      1874      1872
 -1       575    8    0    1
 -2       218       217       368      1416      1875      1876
 -1       576    8    0    1
 -2       217       367       368      1873      1877      1875
 -1       577    8    0    1
 -2       219       218       369      1419      1878      1879
 -1       578    8    0    1
 -2       218       368       369      1876      1880      1878
 -1       579    8    0    1
 -2       220       219       370      1422      1881      1882
 -1       580    8    0    1
 -2       219       369       370      1879      1883      1881
 -1       581    8    0    1
 -2       221       220       371      1425      1884      1885
 -1       582    8    0    1
 -2       220       370       371      1882      1886      1884
 -1       583    8    0    1
 -2       222       221       372      1428      1887      1888
 -1       584    8    0    1
 -2       221       371       372      1885      1889      1887
 -1       585    8    0    1
 -2       223       222       373      1431      1890      1891
 -1       586    8    0    1
 -2       222       372       373      1888      1892      1890
 -1       587    8    0    1
 -2       224       223       374      1434      1893      1894
 -1       588    8    0    1
 -2       223       373       374      1891      1895      1893
 -1       589    8    0    1
 -2       225       224       375      1437      1896      1897
 -1       590    8    0    1
 -2       224       374       375      1894      1898      1896
 -1       591    8    0    1
 -2       226       225       376      1440      1899      1900
 -1       592    8    0    1
 -2       225       375       376      1897      1901      1899
 -1       593    8    0    1
 -2       227       226       377      1443      1902      1903
 -1       594    8    0    1
 -2       226       376       377      1900      1904      1902
 -1       595    8    0    1
 -2       228       227       378      1446      1905      1906
 -1       596    8    0    1
 -2       227       377       378      1903      1907      1905
 -1       597    8    0    1
 -2       229       228       379      1449      1908      1909
 -1       598    8    0    1
 -2       228       378       379      1906      1910      1908
 -1       599    8    0    1
 -2       230       229       380      1452      1911      1912
 -1       600    8    0    1
 -2       229       379       380      1909      1913      1911
 -1       601    8    0    1
 -2       231       230       381      1455      1914      1915
 -1       602    8    0    1
 -2       230       380       381      1912      1916      1914
 -1       603    8    0    1
 -2       232       231       382      1458      1917      1918
 -1       604    8    0    1
 -2       231       381       382      1915      1919      1917
 -1       605    8    0    1
 -2       233       232       383      1461      1920      1921
 -1       606    8    0    1
 -2       232       382       383      1918      1922      1920
 -1       607    8    0    1
 -2       234       233       384      1464      1923      1924
 -1       608    8    0    1
 -2       233       383       384      1921      1925      1923
 -1       609    8    0    1
 -2       235       234       298      1468      1926      1658
 -1       610    8    0    1
 -2       238       239       385      1480      1927      1928
 -1       611    8    0    1
 -2       239       240       386      1483      1929      1930
 -1       612    8    0    1
 -2       239       386       385      1930      1931      1927
 -1       613    8    0    1
 -2       240       241       387      1486      1932      1933
 -1       614    8    0    1
 -2       240       387       386      1933      1934      1929
 -1       615    8    0    1
 -2       241       242       388      1489      1935      1936
 -1       616    8    0    1
 -2       241       388       387      1936      1937      1932
 -1       617    8    0    1
 -2       242       243       389      1492      1938      1939
 -1       618    8    0    1
 -2       242       389       388      1939      1940      1935
 -1       619    8    0    1
 -2       243       244       390      1495      1941      1942
 -1       620    8    0    1
 -2       243       390       389      1942      1943      1938
 -1       621    8    0    1
 -2       244       245       391      1498      1944      1945
 -1       622    8    0    1
 -2       244       391       390      1945      1946      1941
 -1       623    8    0    1
 -2       245       246       392      1501      1947      1948
 -1       624    8    0    1
 -2       245       392       391      1948      1949      1944
 -1       625    8    0    1
 -2       246       247       393      1504      1950      1951
 -1       626    8    0    1
 -2       246       393       392      1951      1952      1947
 -1       627    8    0    1
 -2       247       248       394      1507      1953      1954
 -1       628    8    0    1
 -2       247       394       393      1954      1955      1950
 -1       629    8    0    1
 -2       248       249       395      1510      1956      1957
 -1       630    8    0    1
 -2       248       395       394      1957      1958      1953
 -1       631    8    0    1
 -2       249       250       396      1513      1959      1960
 -1       632    8    0    1
 -2       249       396       395      1960      1961      1956
 -1       633    8    0    1
 -2       250       251       397      1516      1962      1963
 -1       634    8    0    1
 -2       250       397       396      1963      1964      1959
 -1       635    8    0    1
 -2       251       252       398      1519      1965      1966
 -1       636    8    0    1
 -2       251       398       397      1966      1967      1962
 -1       637    8    0    1
 -2       252       253       399      1522      1968      1969
 -1       638    8    0    1
 -2       252       399       398      1969      1970      1965
 -1       639    8    0    1
 -2       253       254       400      1525      1971      1972
 -1       640    8    0    1
 -2       253       400       399      1972      1973      1968
 -1       641    8    0    1
 -2       254       255       401      1528      1974      1975
 -1       642    8    0    1
 -2       254       401       400      1975      1976      1971
 -1       643    8    0    1
 -2       255       256       402      1531      1977      1978
 -1       644    8    0    1
 -2       255       402       401      1978      1979      1974
 -1       645    8    0    1
 -2       256       257       403      1534      1980      1981
 -1       646    8    0    1
 -2       256       403       402      1981      1982      1977
 -1       647    8    0    1
 -2       257       258       404      1537      1983      1984
 -1       648    8    0    1
 -2       257       404       403      1984      1985      1980
 -1       649    8    0    1
 -2       258       259       405      1540      1986      1987
 -1       650    8    0    1
 -2       258       405       404      1987      1988      1983
 -1       651    8    0    1
 -2       259       260       406      1543      1989      1990
 -1       652    8    0    1
 -2       259       406       405      1990      1991      1986
 -1       653    8    0    1
 -2       260       261       407      1546      1992      1993
 -1       654    8    0    1
 -2       260       407       406      1993      1994      1989
 -1       655    8    0    1
 -2       261       262       408      1549      1995      1996
 -1       656    8    0    1
 -2       261       408       407      1996      1997      1992
 -1       657    8    0    1
 -2       262       263       409      1552      1998      1999
 -1       658    8    0    1
 -2       262       409       408      1999      2000      1995
 -1       659    8    0    1
 -2       263       264       410      1555      2001      2002
 -1       660    8    0    1
 -2       263       410       409      2002      2003      1998
 -1       661    8    0    1
 -2       264       265       411      1558      2004      2005
 -1       662    8    0    1
 -2       264       411       410      2005      2006      2001
 -1       663    8    0    1
 -2       265       266       412      1561      2007      2008
 -1       664    8    0    1
 -2       265       412       411      2008      2009      2004
 -1       665    8    0    1
 -2       266       267       413      1564      2010      2011
 -1       666    8    0    1
 -2       266       413       412      2011      2012      2007
 -1       667    8    0    1
 -2       267       268       414      1567      2013      2014
 -1       668    8    0    1
 -2       267       414       413      2014      2015      2010
 -1       669    8    0    1
 -2       268       269       415      1570      2016      2017
 -1       670    8    0    1
 -2       268       415       414      2017      2018      2013
 -1       671    8    0    1
 -2       269       270       416      1573      2019      2020
 -1       672    8    0    1
 -2       269       416       415      2020      2021      2016
 -1       673    8    0    1
 -2       270       271       417      1576      2022      2023
 -1       674    8    0    1
 -2       270       417       416      2023      2024      2019
 -1       675    8    0    1
 -2       271       272       418      1579      2025      2026
 -1       676    8    0    1
 -2       271       418       417      2026      2027      2022
 -1       677    8    0    1
 -2       272       273       419      1582      2028      2029
 -1       678    8    0    1
 -2       272       419       418      2029      2030      2025
 -1       679    8    0    1
 -2       273       274       420      1585      2031      2032
 -1       680    8    0    1
 -2       273       420       419      2032      2033      2028
 -1       681    8    0    1
 -2       274       275       421      1588      2034      2035
 -1       682    8    0    1
 -2       274       421       420      2035      2036      2031
 -1       683    8    0    1
 -2       275       276       422      1591      2037      2038
 -1       684    8    0    1
 -2       275       422       421      2038      2039      2034
 -1       685    8    0    1
 -2       276       277       423      1594      2040      2041
 -1       686    8    0    1
 -2       276       423       422      2041      2042      2037
 -1       687    8    0    1
 -2       277       278       424      1597      2043      2044
 -1       688    8    0    1
 -2       277       424       423      2044      2045      2040
 -1       689    8    0    1
 -2       278       279       425      1600      2046      2047
 -1       690    8    0    1
 -2       278       425       424      2047      2048      2043
 -1       691    8    0    1
 -2       279       280       426      1603      2049      2050
 -1       692    8    0    1
 -2       279       426       425      2050      2051      2046
 -1       693    8    0    1
 -2       280       281       427      1606      2052      2053
 -1       694    8    0    1
 -2       280       427       426      2053      2054      2049
 -1       695    8    0    1
 -2       281       282       428      1609      2055      2056
 -1       696    8    0    1
 -2       281       428       427      2056      2057      2052
 -1       697    8    0    1
 -2       282       283       429      1612      2058      2059
 -1       698    8    0    1
 -2       428       282       429      2055      2059      2060
 -1       699    8    0    1
 -2       283       284       429      1724      2061      2058
 -1       700    8    0    1
 -2       286       287       430      1624      2062      2063
 -1       701    8    0    1
 -2       285       286       431      1621      2064      2065
 -1       702    8    0    1
 -2       286       430       431      2063      2066      2064
 -1       703    8    0    1
 -2       284       285       429      1618      2067      2061
 -1       704    8    0    1
 -2       287       288       432      1627      2068      2069
 -1       705    8    0    1
 -2       287       432       430      2069      2070      2062
 -1       706    8    0    1
 -2       288       289       433      1630      2071      2072
 -1       707    8    0    1
 -2       288       433       432      2072      2073      2068
 -1       708    8    0    1
 -2       289       290       434      1633      2074      2075
 -1       709    8    0    1
 -2       289       434       433      2075      2076      2071
 -1       710    8    0    1
 -2       290       291       435      1636      2077      2078
 -1       711    8    0    1
 -2       290       435       434      2078      2079      2074
 -1       712    8    0    1
 -2       291       292       436      1639      2080      2081
 -1       713    8    0    1
 -2       291       436       435      2081      2082      2077
 -1       714    8    0    1
 -2       292       293       437      1642      2083      2084
 -1       715    8    0    1
 -2       292       437       436      2084      2085      2080
 -1       716    8    0    1
 -2       293       294       438      1645      2086      2087
 -1       717    8    0    1
 -2       293       438       437      2087      2088      2083
 -1       718    8    0    1
 -2       294       295       439      1648      2089      2090
 -1       719    8    0    1
 -2       294       439       438      2090      2091      2086
 -1       720    8    0    1
 -2       295       296       440      1651      2092      2093
 -1       721    8    0    1
 -2       295       440       439      2093      2094      2089
 -1       722    8    0    1
 -2       296       297       441      1654      2095      2096
 -1       723    8    0    1
 -2       296       441       440      2096      2097      2092
 -1       724    8    0    1
 -2       237       238       442      1477      2098      2099
 -1       725    8    0    1
 -2       341       237       442      1795      2099      2100
 -1       726    8    0    1
 -2       238       385       442      1928      2101      2098
 -1       727    8    0    1
 -2       300       301       443      1726      2102      2103
 -1       728    8    0    1
 -2       302       303       444      1727      2104      2105
 -1       729    8    0    1
 -2       299       300       445      1725      2106      2107
 -1       730    8    0    1
 -2       311       174       446      1763      2108      2109
 -1       731    8    0    1
 -2       310       311       446      1735      2109      2110
 -1       732    8    0    1
 -2       174       175       446      1287      2111      2108
 -1       733    8    0    1
 -2       328       299       447      1721      2112      2113
 -1       734    8    0    1
 -2       170       171       315      1275      2114      2115
 -1       735    8    0    1
 -2       303       304       448      1728      2116      2117
 -1       736    8    0    1
 -2       304       305       449      1729      2118      2119
 -1       737    8    0    1
 -2       304       449       448      2119      2120      2116
 -1       738    8    0    1
 -2       305       306       450      1730      2121      2122
 -1       739    8    0    1
 -2       306       307       451      1731      2123      2124
 -1       740    8    0    1
 -2       307       308       452      1732      2125      2126
 -1       741    8    0    1
 -2       308       309       453      1733      2127      2128
 -1       742    8    0    1
 -2       309       310       454      1734      2129      2130
 -1       743    8    0    1
 -2       453       309       454      2127      2130      2131
 -1       744    8    0    1
 -2       310       446       454      2110      2132      2129
 -1       745    8    0    1
 -2       314       315       171      1739      2114      1760
 -1       746    8    0    1
 -2       315       316       329      1740      2133      2134
 -1       747    8    0    1
 -2       317       318       455      1742      2135      2136
 -1       748    8    0    1
 -2       318       319       456      1743      2137      2138
 -1       749    8    0    1
 -2       319       320       188      1744      1798      2139
 -1       750    8    0    1
 -2       320       321       189      1745      2140      1799
 -1       751    8    0    1
 -2       321       322       190      1746      2141      2142
 -1       752    8    0    1
 -2       323       324       342      1748      2143      2144
 -1       753    8    0    1
 -2       325       326       457      1750      2145      2146
 -1       754    8    0    1
 -2       326       327       458      1751      2147      2148
 -1       755    8    0    1
 -2       326       458       457      2148      2149      2145
 -1       756    8    0    1
 -2       327       328       459      1752      2150      2151
 -1       757    8    0    1
 -2       301       302       460      1722      2152      2153
 -1       758    8    0    1
 -2       302       444       460      2105      2154      2152
 -1       759    8    0    1
 -2       173       311       312      1764      1736      1761
 -1       760    8    0    1
 -2       321       190       189      2142      1332      2140
 -1       761    8    0    1
 -2       170       315       329      2115      2134      1753
 -1       762    8    0    1
 -2       172       312       313      1762      1737      2155
 -1       763    8    0    1
 -2       175       331       446      1766      2156      2111
 -1       764    8    0    1
 -2       328       447       459      2113      2157      2150
 -1       765    8    0    1
 -2       443       301       460      2102      2153      2158
 -1       766    8    0    1
 -2       342       191       323      1800      2159      2144
 -1       767    8    0    1
 -2       187       186       461      1323      2160      2161
 -1       768    8    0    1
 -2       314       172       313      1759      2155      1738
 -1       769    8    0    1
 -2       188       187       456      1326      2162      2163
 -1       770    8    0    1
 -2       192       342       343      1801      2164      1802
 -1       771    8    0    1
 -2       191       190       322      1335      2141      2165
 -1       772    8    0    1
 -2       298       234       384      1926      1924      2166
 -1       773    8    0    1
 -2       194       344       345      1805      2167      1807
 -1       774    8    0    1
 -2       429       285       431      2067      2065      2168
 -1       775    8    0    1
 -2       445       300       443      2106      2103      2169
 -1       776    8    0    1
 -2       297       298       462      1657      2170      2171
 -1       777    8    0    1
 -2       441       297       462      2095      2171      2172
 -1       778    8    0    1
 -2       298       384       462      2166      2173      2170
 -1       779    8    0    1
 -2       444       303       448      2104      2117      2174
 -1       780    8    0    1
 -2       299       445       447      2107      2175      2112
 -1       781    8    0    1
 -2       456       319       188      2137      2139      2163
 -1       782    8    0    1
 -2       327       459       458      2151      2176      2147
 -1       783    8    0    1
 -2       452       308       453      2125      2128      2177
 -1       784    8    0    1
 -2       451       307       452      2123      2126      2178
 -1       785    8    0    1
 -2       449       305       450      2118      2122      2179
 -1       786    8    0    1
 -2       191       322       323      2165      1747      2159
 -1       787    8    0    1
 -2       461       186       330      2160      1757      2180
 -1       788    8    0    1
 -2       450       306       451      2121      2124      2181
 -1       789    8    0    1
 -2       455       318       456      2135      2138      2182
 -1       790    8    0    1
 -2       316       317       463      1741      2183      2184
 -1       791    8    0    1
 -2       342       324       464      2143      2185      2186
 -1       792    8    0    1
 -2       343       342       464      2164      2186      2187
 -1       793    8    0    1
 -2       324       325       464      1749      2188      2185
 -1       794    8    0    1
 -2       325       457       464      2146      2189      2188
 -1       795    8    0    1
 -2       463       317       455      2183      2136      2190
 -1       796    8    0    1
 -2       450       451       465      2181      2191      2192
 -1       797    8    0    1
 -2       334       335       466      1778      2193      2194
 -1       798    8    0    1
 -2       335       336       467      1781      2195      2196
 -1       799    8    0    1
 -2       335       467       466      2196      2197      2193
 -1       800    8    0    1
 -2       336       337       468      1784      2198      2199
 -1       801    8    0    1
 -2       336       468       467      2199      2200      2195
 -1       802    8    0    1
 -2       337       338       469      1787      2201      2202
 -1       803    8    0    1
 -2       337       469       468      2202      2203      2198
 -1       804    8    0    1
 -2       338       339       470      1790      2204      2205
 -1       805    8    0    1
 -2       338       470       469      2205      2206      2201
 -1       806    8    0    1
 -2       339       340       471      1793      2207      2208
 -1       807    8    0    1
 -2       470       339       471      2204      2208      2209
 -1       808    8    0    1
 -2       340       341       471      1797      2210      2207
 -1       809    8    0    1
 -2       429       431       428      2168      2211      2060
 -1       810    8    0    1
 -2       345       344       472      2167      2212      2213
 -1       811    8    0    1
 -2       347       346       473      1814      2214      2215
 -1       812    8    0    1
 -2       348       347       474      1817      2216      2217
 -1       813    8    0    1
 -2       347       473       474      2215      2218      2216
 -1       814    8    0    1
 -2       349       348       475      1820      2219      2220
 -1       815    8    0    1
 -2       348       474       475      2217      2221      2219
 -1       816    8    0    1
 -2       350       349       476      1823      2222      2223
 -1       817    8    0    1
 -2       349       475       476      2220      2224      2222
 -1       818    8    0    1
 -2       351       350       477      1826      2225      2226
 -1       819    8    0    1
 -2       350       476       477      2223      2227      2225
 -1       820    8    0    1
 -2       352       351       478      1829      2228      2229
 -1       821    8    0    1
 -2       351       477       478      2226      2230      2228
 -1       822    8    0    1
 -2       353       352       479      1832      2231      2232
 -1       823    8    0    1
 -2       352       478       479      2229      2233      2231
 -1       824    8    0    1
 -2       354       353       480      1835      2234      2235
 -1       825    8    0    1
 -2       353       479       480      2232      2236      2234
 -1       826    8    0    1
 -2       355       354       481      1838      2237      2238
 -1       827    8    0    1
 -2       354       480       481      2235      2239      2237
 -1       828    8    0    1
 -2       356       355       482      1841      2240      2241
 -1       829    8    0    1
 -2       355       481       482      2238      2242      2240
 -1       830    8    0    1
 -2       357       356       483      1844      2243      2244
 -1       831    8    0    1
 -2       356       482       483      2241      2245      2243
 -1       832    8    0    1
 -2       358       357       484      1847      2246      2247
 -1       833    8    0    1
 -2       357       483       484      2244      2248      2246
 -1       834    8    0    1
 -2       359       358       485      1850      2249      2250
 -1       835    8    0    1
 -2       358       484       485      2247      2251      2249
 -1       836    8    0    1
 -2       360       359       486      1853      2252      2253
 -1       837    8    0    1
 -2       359       485       486      2250      2254      2252
 -1       838    8    0    1
 -2       361       360       487      1856      2255      2256
 -1       839    8    0    1
 -2       360       486       487      2253      2257      2255
 -1       840    8    0    1
 -2       362       361       488      1859      2258      2259
 -1       841    8    0    1
 -2       361       487       488      2256      2260      2258
 -1       842    8    0    1
 -2       363       362       489      1862      2261      2262
 -1       843    8    0    1
 -2       362       488       489      2259      2263      2261
 -1       844    8    0    1
 -2       364       363       490      1865      2264      2265
 -1       845    8    0    1
 -2       363       489       490      2262      2266      2264
 -1       846    8    0    1
 -2       365       364       491      1868      2267      2268
 -1       847    8    0    1
 -2       364       490       491      2265      2269      2267
 -1       848    8    0    1
 -2       366       365       492      1871      2270      2271
 -1       849    8    0    1
 -2       365       491       492      2268      2272      2270
 -1       850    8    0    1
 -2       367       366       493      1874      2273      2274
 -1       851    8    0    1
 -2       366       492       493      2271      2275      2273
 -1       852    8    0    1
 -2       368       367       494      1877      2276      2277
 -1       853    8    0    1
 -2       367       493       494      2274      2278      2276
 -1       854    8    0    1
 -2       369       368       495      1880      2279      2280
 -1       855    8    0    1
 -2       368       494       495      2277      2281      2279
 -1       856    8    0    1
 -2       370       369       496      1883      2282      2283
 -1       857    8    0    1
 -2       369       495       496      2280      2284      2282
 -1       858    8    0    1
 -2       371       370       497      1886      2285      2286
 -1       859    8    0    1
 -2       370       496       497      2283      2287      2285
 -1       860    8    0    1
 -2       372       371       498      1889      2288      2289
 -1       861    8    0    1
 -2       371       497       498      2286      2290      2288
 -1       862    8    0    1
 -2       373       372       499      1892      2291      2292
 -1       863    8    0    1
 -2       372       498       499      2289      2293      2291
 -1       864    8    0    1
 -2       374       373       500      1895      2294      2295
 -1       865    8    0    1
 -2       373       499       500      2292      2296      2294
 -1       866    8    0    1
 -2       375       374       501      1898      2297      2298
 -1       867    8    0    1
 -2       374       500       501      2295      2299      2297
 -1       868    8    0    1
 -2       376       375       502      1901      2300      2301
 -1       869    8    0    1
 -2       375       501       502      2298      2302      2300
 -1       870    8    0    1
 -2       377       376       503      1904      2303      2304
 -1       871    8    0    1
 -2       376       502       503      2301      2305      2303
 -1       872    8    0    1
 -2       378       377       504      1907      2306      2307
 -1       873    8    0    1
 -2       377       503       504      2304      2308      2306
 -1       874    8    0    1
 -2       379       378       505      1910      2309      2310
 -1       875    8    0    1
 -2       378       504       505      2307      2311      2309
 -1       876    8    0    1
 -2       380       379       506      1913      2312      2313
 -1       877    8    0    1
 -2       379       505       506      2310      2314      2312
 -1       878    8    0    1
 -2       381       380       507      1916      2315      2316
 -1       879    8    0    1
 -2       380       506       507      2313      2317      2315
 -1       880    8    0    1
 -2       382       381       508      1919      2318      2319
 -1       881    8    0    1
 -2       381       507       508      2316      2320      2318
 -1       882    8    0    1
 -2       383       382       509      1922      2321      2322
 -1       883    8    0    1
 -2       382       508       509      2319      2323      2321
 -1       884    8    0    1
 -2       384       383       510      1925      2324      2325
 -1       885    8    0    1
 -2       462       384       510      2173      2325      2326
 -1       886    8    0    1
 -2       383       509       510      2322      2327      2324
 -1       887    8    0    1
 -2       387       388       511      1937      2328      2329
 -1       888    8    0    1
 -2       386       387       512      1934      2330      2331
 -1       889    8    0    1
 -2       387       511       512      2329      2332      2330
 -1       890    8    0    1
 -2       428       431       513      2211      2333      2334
 -1       891    8    0    1
 -2       385       386       514      1931      2335      2336
 -1       892    8    0    1
 -2       386       512       514      2331      2337      2335
 -1       893    8    0    1
 -2       388       389       515      1940      2338      2339
 -1       894    8    0    1
 -2       388       515       511      2339      2340      2328
 -1       895    8    0    1
 -2       389       390       516      1943      2341      2342
 -1       896    8    0    1
 -2       389       516       515      2342      2343      2338
 -1       897    8    0    1
 -2       390       391       517      1946      2344      2345
 -1       898    8    0    1
 -2       390       517       516      2345      2346      2341
 -1       899    8    0    1
 -2       391       392       518      1949      2347      2348
 -1       900    8    0    1
 -2       391       518       517      2348      2349      2344
 -1       901    8    0    1
 -2       392       393       519      1952      2350      2351
 -1       902    8    0    1
 -2       392       519       518      2351      2352      2347
 -1       903    8    0    1
 -2       393       394       520      1955      2353      2354
 -1       904    8    0    1
 -2       393       520       519      2354      2355      2350
 -1       905    8    0    1
 -2       394       395       521      1958      2356      2357
 -1       906    8    0    1
 -2       394       521       520      2357      2358      2353
 -1       907    8    0    1
 -2       395       396       522      1961      2359      2360
 -1       908    8    0    1
 -2       395       522       521      2360      2361      2356
 -1       909    8    0    1
 -2       396       397       523      1964      2362      2363
 -1       910    8    0    1
 -2       396       523       522      2363      2364      2359
 -1       911    8    0    1
 -2       397       398       524      1967      2365      2366
 -1       912    8    0    1
 -2       397       524       523      2366      2367      2362
 -1       913    8    0    1
 -2       398       399       525      1970      2368      2369
 -1       914    8    0    1
 -2       398       525       524      2369      2370      2365
 -1       915    8    0    1
 -2       399       400       526      1973      2371      2372
 -1       916    8    0    1
 -2       399       526       525      2372      2373      2368
 -1       917    8    0    1
 -2       400       401       527      1976      2374      2375
 -1       918    8    0    1
 -2       400       527       526      2375      2376      2371
 -1       919    8    0    1
 -2       401       402       528      1979      2377      2378
 -1       920    8    0    1
 -2       401       528       527      2378      2379      2374
 -1       921    8    0    1
 -2       402       403       529      1982      2380      2381
 -1       922    8    0    1
 -2       402       529       528      2381      2382      2377
 -1       923    8    0    1
 -2       403       404       530      1985      2383      2384
 -1       924    8    0    1
 -2       403       530       529      2384      2385      2380
 -1       925    8    0    1
 -2       404       405       531      1988      2386      2387
 -1       926    8    0    1
 -2       404       531       530      2387      2388      2383
 -1       927    8    0    1
 -2       405       406       532      1991      2389      2390
 -1       928    8    0    1
 -2       405       532       531      2390      2391      2386
 -1       929    8    0    1
 -2       406       407       533      1994      2392      2393
 -1       930    8    0    1
 -2       406       533       532      2393      2394      2389
 -1       931    8    0    1
 -2       407       408       534      1997      2395      2396
 -1       932    8    0    1
 -2       407       534       533      2396      2397      2392
 -1       933    8    0    1
 -2       408       409       535      2000      2398      2399
 -1       934    8    0    1
 -2       408       535       534      2399      2400      2395
 -1       935    8    0    1
 -2       409       410       536      2003      2401      2402
 -1       936    8    0    1
 -2       409       536       535      2402      2403      2398
 -1       937    8    0    1
 -2       410       411       537      2006      2404      2405
 -1       938    8    0    1
 -2       410       537       536      2405      2406      2401
 -1       939    8    0    1
 -2       411       412       538      2009      2407      2408
 -1       940    8    0    1
 -2       411       538       537      2408      2409      2404
 -1       941    8    0    1
 -2       412       413       539      2012      2410      2411
 -1       942    8    0    1
 -2       412       539       538      2411      2412      2407
 -1       943    8    0    1
 -2       413       414       540      2015      2413      2414
 -1       944    8    0    1
 -2       413       540       539      2414      2415      2410
 -1       945    8    0    1
 -2       414       415       541      2018      2416      2417
 -1       946    8    0    1
 -2       414       541       540      2417      2418      2413
 -1       947    8    0    1
 -2       415       416       542      2021      2419      2420
 -1       948    8    0    1
 -2       415       542       541      2420      2421      2416
 -1       949    8    0    1
 -2       416       417       543      2024      2422      2423
 -1       950    8    0    1
 -2       416       543       542      2423      2424      2419
 -1       951    8    0    1
 -2       417       418       544      2027      2425      2426
 -1       952    8    0    1
 -2       417       544       543      2426      2427      2422
 -1       953    8    0    1
 -2       418       419       545      2030      2428      2429
 -1       954    8    0    1
 -2       418       545       544      2429      2430      2425
 -1       955    8    0    1
 -2       419       420       546      2033      2431      2432
 -1       956    8    0    1
 -2       419       546       545      2432      2433      2428
 -1       957    8    0    1
 -2       420       421       547      2036      2434      2435
 -1       958    8    0    1
 -2       420       547       546      2435      2436      2431
 -1       959    8    0    1
 -2       421       422       548      2039      2437      2438
 -1       960    8    0    1
 -2       421       548       547      2438      2439      2434
 -1       961    8    0    1
 -2       422       423       549      2042      2440      2441
 -1       962    8    0    1
 -2       422       549       548      2441      2442      2437
 -1       963    8    0    1
 -2       423       424       550      2045      2443      2444
 -1       964    8    0    1
 -2       423       550       549      2444      2445      2440
 -1       965    8    0    1
 -2       424       425       551      2048      2446      2447
 -1       966    8    0    1
 -2       424       551       550      2447      2448      2443
 -1       967    8    0    1
 -2       425       426       552      2051      2449      2450
 -1       968    8    0    1
 -2       425       552       551      2450      2451      2446
 -1       969    8    0    1
 -2       426       427       553      2054      2452      2453
 -1       970    8    0    1
 -2       426       553       552      2453      2454      2449
 -1       971    8    0    1
 -2       427       428       513      2057      2334      2455
 -1       972    8    0    1
 -2       432       433       554      2073      2456      2457
 -1       973    8    0    1
 -2       430       432       555      2070      2458      2459
 -1       974    8    0    1
 -2       432       554       555      2457      2460      2458
 -1       975    8    0    1
 -2       431       430       556      2066      2461      2462
 -1       976    8    0    1
 -2       513       431       556      2333      2462      2463
 -1       977    8    0    1
 -2       430       555       556      2459      2464      2461
 -1       978    8    0    1
 -2       445       443       557      2169      2465      2466
 -1       979    8    0    1
 -2       433       434       558      2076      2467      2468
 -1       980    8    0    1
 -2       433       558       554      2468      2469      2456
 -1       981    8    0    1
 -2       434       435       559      2079      2470      2471
 -1       982    8    0    1
 -2       434       559       558      2471      2472      2467
 -1       983    8    0    1
 -2       435       436       560      2082      2473      2474
 -1       984    8    0    1
 -2       435       560       559      2474      2475      2470
 -1       985    8    0    1
 -2       436       437       561      2085      2476      2477
 -1       986    8    0    1
 -2       436       561       560      2477      2478      2473
 -1       987    8    0    1
 -2       437       438       562      2088      2479      2480
 -1       988    8    0    1
 -2       437       562       561      2480      2481      2476
 -1       989    8    0    1
 -2       438       439       563      2091      2482      2483
 -1       990    8    0    1
 -2       438       563       562      2483      2484      2479
 -1       991    8    0    1
 -2       439       440       564      2094      2485      2486
 -1       992    8    0    1
 -2       439       564       563      2486      2487      2482
 -1       993    8    0    1
 -2       440       441       565      2097      2488      2489
 -1       994    8    0    1
 -2       440       565       564      2489      2490      2485
 -1       995    8    0    1
 -2       460       444       566      2154      2491      2492
 -1       996    8    0    1
 -2       459       447       567      2157      2493      2494
 -1       997    8    0    1
 -2       346       345       568      1811      2495      2496
 -1       998    8    0    1
 -2       346       568       473      2496      2497      2214
 -1       999    8    0    1
 -2       344       343       569      1806      2498      2499
 -1      1000    8    0    1
 -2       333       334       570      1775      2500      2501
 -1      1001    8    0    1
 -2       334       466       570      2194      2502      2500
 -1      1002    8    0    1
 -2       332       333       571      1772      2503      2504
 -1      1003    8    0    1
 -2       333       570       571      2501      2505      2503
 -1      1004    8    0    1
 -2       329       316       463      2133      2184      2506
 -1      1005    8    0    1
 -2       456       187       455      2162      2507      2182
 -1      1006    8    0    1
 -2       447       445       572      2175      2508      2509
 -1      1007    8    0    1
 -2       448       449       573      2120      2510      2511
 -1      1008    8    0    1
 -2       449       450       574      2179      2512      2513
 -1      1009    8    0    1
 -2       451       452       575      2178      2514      2515
 -1      1010    8    0    1
 -2       452       453       576      2177      2516      2517
 -1      1011    8    0    1
 -2       446       331       454      2156      2518      2132
 -1      1012    8    0    1
 -2       458       459       577      2176      2519      2520
 -1      1013    8    0    1
 -2       343       464       569      2187      2521      2498
 -1      1014    8    0    1
 -2       444       448       578      2174      2522      2523
 -1      1015    8    0    1
 -2       464       457       569      2189      2524      2521
 -1      1016    8    0    1
 -2       457       458       579      2149      2525      2526
 -1      1017    8    0    1
 -2       569       457       579      2524      2526      2527
 -1      1018    8    0    1
 -2       458       577       579      2520      2528      2525
 -1      1019    8    0    1
 -2       443       460       580      2158      2529      2530
 -1      1020    8    0    1
 -2       460       566       580      2492      2531      2529
 -1      1021    8    0    1
 -2       332       571       576      2504      2532      2533
 -1      1022    8    0    1
 -2       331       332       576      1769      2533      2534
 -1      1023    8    0    1
 -2       344       569       472      2499      2535      2212
 -1      1024    8    0    1
 -2       471       341       581      2210      2536      2537
 -1      1025    8    0    1
 -2       341       442       581      2100      2538      2536
 -1      1026    8    0    1
 -2       567       447       572      2493      2509      2539
 -1      1027    8    0    1
 -2       557       443       580      2465      2530      2540
 -1      1028    8    0    1
 -2       385       514       582      2336      2541      2542
 -1      1029    8    0    1
 -2       427       513       553      2455      2543      2452
 -1      1030    8    0    1
 -2       345       472       568      2213      2544      2495
 -1      1031    8    0    1
 -2       445       557       572      2466      2545      2508
 -1      1032    8    0    1
 -2       566       444       578      2491      2523      2546
 -1      1033    8    0    1
 -2       442       385       582      2101      2542      2547
 -1      1034    8    0    1
 -2       441       462       510      2172      2326      2548
 -1      1035    8    0    1
 -2       459       567       577      2494      2549      2519
 -1      1036    8    0    1
 -2       441       510       565      2548      2550      2488
 -1      1037    8    0    1
 -2       575       452       576      2514      2517      2551
 -1      1038    8    0    1
 -2       574       450       465      2512      2192      2552
 -1      1039    8    0    1
 -2       573       449       574      2510      2513      2553
 -1      1040    8    0    1
 -2       448       573       578      2511      2554      2522
 -1      1041    8    0    1
 -2       451       575       465      2515      2555      2191
 -1      1042    8    0    1
 -2       453       454       331      2131      2518      2556
 -1      1043    8    0    1
 -2       453       331       576      2556      2534      2516
 -1      1044    8    0    1
 -2       466       467       583      2197      2557      2558
 -1      1045    8    0    1
 -2       470       471       584      2209      2559      2560
 -1      1046    8    0    1
 -2       471       581       584      2537      2561      2559
 -1      1047    8    0    1
 -2       474       473       585      2218      2562      2563
 -1      1048    8    0    1
 -2       468       469       586      2203      2564      2565
 -1      1049    8    0    1
 -2       577       567       587      2549      2566      2567
 -1      1050    8    0    1
 -2       475       474       588      2221      2568      2569
 -1      1051    8    0    1
 -2       474       585       588      2563      2570      2568
 -1      1052    8    0    1
 -2       476       475       589      2224      2571      2572
 -1      1053    8    0    1
 -2       475       588       589      2569      2573      2571
 -1      1054    8    0    1
 -2       477       476       590      2227      2574      2575
 -1      1055    8    0    1
 -2       476       589       590      2572      2576      2574
 -1      1056    8    0    1
 -2       478       477       591      2230      2577      2578
 -1      1057    8    0    1
 -2       477       590       591      2575      2579      2577
 -1      1058    8    0    1
 -2       479       478       592      2233      2580      2581
 -1      1059    8    0    1
 -2       478       591       592      2578      2582      2580
 -1      1060    8    0    1
 -2       480       479       593      2236      2583      2584
 -1      1061    8    0    1
 -2       479       592       593      2581      2585      2583
 -1      1062    8    0    1
 -2       481       480       594      2239      2586      2587
 -1      1063    8    0    1
 -2       480       593       594      2584      2588      2586
 -1      1064    8    0    1
 -2       482       481       595      2242      2589      2590
 -1      1065    8    0    1
 -2       481       594       595      2587      2591      2589
 -1      1066    8    0    1
 -2       483       482       596      2245      2592      2593
 -1      1067    8    0    1
 -2       482       595       596      2590      2594      2592
 -1      1068    8    0    1
 -2       484       483       597      2248      2595      2596
 -1      1069    8    0    1
 -2       483       596       597      2593      2597      2595
 -1      1070    8    0    1
 -2       485       484       598      2251      2598      2599
 -1      1071    8    0    1
 -2       484       597       598      2596      2600      2598
 -1      1072    8    0    1
 -2       486       485       599      2254      2601      2602
 -1      1073    8    0    1
 -2       485       598       599      2599      2603      2601
 -1      1074    8    0    1
 -2       487       486       600      2257      2604      2605
 -1      1075    8    0    1
 -2       486       599       600      2602      2606      2604
 -1      1076    8    0    1
 -2       488       487       601      2260      2607      2608
 -1      1077    8    0    1
 -2       487       600       601      2605      2609      2607
 -1      1078    8    0    1
 -2       489       488       602      2263      2610      2611
 -1      1079    8    0    1
 -2       488       601       602      2608      2612      2610
 -1      1080    8    0    1
 -2       490       489       603      2266      2613      2614
 -1      1081    8    0    1
 -2       489       602       603      2611      2615      2613
 -1      1082    8    0    1
 -2       491       490       604      2269      2616      2617
 -1      1083    8    0    1
 -2       490       603       604      2614      2618      2616
 -1      1084    8    0    1
 -2       492       491       605      2272      2619      2620
 -1      1085    8    0    1
 -2       491       604       605      2617      2621      2619
 -1      1086    8    0    1
 -2       493       492       606      2275      2622      2623
 -1      1087    8    0    1
 -2       492       605       606      2620      2624      2622
 -1      1088    8    0    1
 -2       494       493       607      2278      2625      2626
 -1      1089    8    0    1
 -2       493       606       607      2623      2627      2625
 -1      1090    8    0    1
 -2       495       494       608      2281      2628      2629
 -1      1091    8    0    1
 -2       494       607       608      2626      2630      2628
 -1      1092    8    0    1
 -2       496       495       609      2284      2631      2632
 -1      1093    8    0    1
 -2       495       608       609      2629      2633      2631
 -1      1094    8    0    1
 -2       497       496       610      2287      2634      2635
 -1      1095    8    0    1
 -2       496       609       610      2632      2636      2634
 -1      1096    8    0    1
 -2       498       497       611      2290      2637      2638
 -1      1097    8    0    1
 -2       497       610       611      2635      2639      2637
 -1      1098    8    0    1
 -2       499       498       612      2293      2640      2641
 -1      1099    8    0    1
 -2       498       611       612      2638      2642      2640
 -1      1100    8    0    1
 -2       500       499       613      2296      2643      2644
 -1      1101    8    0    1
 -2       499       612       613      2641      2645      2643
 -1      1102    8    0    1
 -2       501       500       614      2299      2646      2647
 -1      1103    8    0    1
 -2       500       613       614      2644      2648      2646
 -1      1104    8    0    1
 -2       502       501       615      2302      2649      2650
 -1      1105    8    0    1
 -2       501       614       615      2647      2651      2649
 -1      1106    8    0    1
 -2       503       502       616      2305      2652      2653
 -1      1107    8    0    1
 -2       502       615       616      2650      2654      2652
 -1      1108    8    0    1
 -2       504       503       617      2308      2655      2656
 -1      1109    8    0    1
 -2       503       616       617      2653      2657      2655
 -1      1110    8    0    1
 -2       505       504       618      2311      2658      2659
 -1      1111    8    0    1
 -2       504       617       618      2656      2660      2658
 -1      1112    8    0    1
 -2       506       505       619      2314      2661      2662
 -1      1113    8    0    1
 -2       505       618       619      2659      2663      2661
 -1      1114    8    0    1
 -2       507       506       620      2317      2664      2665
 -1      1115    8    0    1
 -2       506       619       620      2662      2666      2664
 -1      1116    8    0    1
 -2       508       507       621      2320      2667      2668
 -1      1117    8    0    1
 -2       507       620       621      2665      2669      2667
 -1      1118    8    0    1
 -2       509       508       622      2323      2670      2671
 -1      1119    8    0    1
 -2       508       621       622      2668      2672      2670
 -1      1120    8    0    1
 -2       510       509       565      2327      2673      2550
 -1      1121    8    0    1
 -2       512       511       623      2332      2674      2675
 -1      1122    8    0    1
 -2       511       515       624      2340      2676      2677
 -1      1123    8    0    1
 -2       511       624       623      2677      2678      2674
 -1      1124    8    0    1
 -2       582       514       625      2541      2679      2680
 -1      1125    8    0    1
 -2       553       513       626      2543      2681      2682
 -1      1126    8    0    1
 -2       513       556       626      2463      2683      2681
 -1      1127    8    0    1
 -2       516       517       627      2346      2684      2685
 -1      1128    8    0    1
 -2       517       518       628      2349      2686      2687
 -1      1129    8    0    1
 -2       517       628       627      2687      2688      2684
 -1      1130    8    0    1
 -2       518       519       629      2352      2689      2690
 -1      1131    8    0    1
 -2       518       629       628      2690      2691      2686
 -1      1132    8    0    1
 -2       519       520       630      2355      2692      2693
 -1      1133    8    0    1
 -2       519       630       629      2693      2694      2689
 -1      1134    8    0    1
 -2       520       521       631      2358      2695      2696
 -1      1135    8    0    1
 -2       520       631       630      2696      2697      2692
 -1      1136    8    0    1
 -2       521       522       632      2361      2698      2699
 -1      1137    8    0    1
 -2       521       632       631      2699      2700      2695
 -1      1138    8    0    1
 -2       522       523       633      2364      2701      2702
 -1      1139    8    0    1
 -2       522       633       632      2702      2703      2698
 -1      1140    8    0    1
 -2       523       524       634      2367      2704      2705
 -1      1141    8    0    1
 -2       523       634       633      2705      2706      2701
 -1      1142    8    0    1
 -2       524       525       635      2370      2707      2708
 -1      1143    8    0    1
 -2       524       635       634      2708      2709      2704
 -1      1144    8    0    1
 -2       525       526       636      2373      2710      2711
 -1      1145    8    0    1
 -2       525       636       635      2711      2712      2707
 -1      1146    8    0    1
 -2       526       527       637      2376      2713      2714
 -1      1147    8    0    1
 -2       526       637       636      2714      2715      2710
 -1      1148    8    0    1
 -2       527       528       638      2379      2716      2717
 -1      1149    8    0    1
 -2       527       638       637      2717      2718      2713
 -1      1150    8    0    1
 -2       528       529       639      2382      2719      2720
 -1      1151    8    0    1
 -2       528       639       638      2720      2721      2716
 -1      1152    8    0    1
 -2       529       530       640      2385      2722      2723
 -1      1153    8    0    1
 -2       529       640       639      2723      2724      2719
 -1      1154    8    0    1
 -2       530       531       641      2388      2725      2726
 -1      1155    8    0    1
 -2       530       641       640      2726      2727      2722
 -1      1156    8    0    1
 -2       531       532       642      2391      2728      2729
 -1      1157    8    0    1
 -2       531       642       641      2729      2730      2725
 -1      1158    8    0    1
 -2       532       533       643      2394      2731      2732
 -1      1159    8    0    1
 -2       532       643       642      2732      2733      2728
 -1      1160    8    0    1
 -2       533       534       644      2397      2734      2735
 -1      1161    8    0    1
 -2       533       644       643      2735      2736      2731
 -1      1162    8    0    1
 -2       534       535       645      2400      2737      2738
 -1      1163    8    0    1
 -2       534       645       644      2738      2739      2734
 -1      1164    8    0    1
 -2       535       536       646      2403      2740      2741
 -1      1165    8    0    1
 -2       535       646       645      2741      2742      2737
 -1      1166    8    0    1
 -2       536       537       647      2406      2743      2744
 -1      1167    8    0    1
 -2       536       647       646      2744      2745      2740
 -1      1168    8    0    1
 -2       537       538       648      2409      2746      2747
 -1      1169    8    0    1
 -2       537       648       647      2747      2748      2743
 -1      1170    8    0    1
 -2       538       539       649      2412      2749      2750
 -1      1171    8    0    1
 -2       538       649       648      2750      2751      2746
 -1      1172    8    0    1
 -2       539       540       650      2415      2752      2753
 -1      1173    8    0    1
 -2       539       650       649      2753      2754      2749
 -1      1174    8    0    1
 -2       540       541       651      2418      2755      2756
 -1      1175    8    0    1
 -2       540       651       650      2756      2757      2752
 -1      1176    8    0    1
 -2       541       542       652      2421      2758      2759
 -1      1177    8    0    1
 -2       541       652       651      2759      2760      2755
 -1      1178    8    0    1
 -2       542       543       653      2424      2761      2762
 -1      1179    8    0    1
 -2       542       653       652      2762      2763      2758
 -1      1180    8    0    1
 -2       543       544       654      2427      2764      2765
 -1      1181    8    0    1
 -2       543       654       653      2765      2766      2761
 -1      1182    8    0    1
 -2       544       545       655      2430      2767      2768
 -1      1183    8    0    1
 -2       544       655       654      2768      2769      2764
 -1      1184    8    0    1
 -2       545       546       656      2433      2770      2771
 -1      1185    8    0    1
 -2       545       656       655      2771      2772      2767
 -1      1186    8    0    1
 -2       546       547       657      2436      2773      2774
 -1      1187    8    0    1
 -2       546       657       656      2774      2775      2770
 -1      1188    8    0    1
 -2       547       548       658      2439      2776      2777
 -1      1189    8    0    1
 -2       547       658       657      2777      2778      2773
 -1      1190    8    0    1
 -2       548       549       659      2442      2779      2780
 -1      1191    8    0    1
 -2       548       659       658      2780      2781      2776
 -1      1192    8    0    1
 -2       549       550       660      2445      2782      2783
 -1      1193    8    0    1
 -2       549       660       659      2783      2784      2779
 -1      1194    8    0    1
 -2       550       551       661      2448      2785      2786
 -1      1195    8    0    1
 -2       550       661       660      2786      2787      2782
 -1      1196    8    0    1
 -2       551       552       662      2451      2788      2789
 -1      1197    8    0    1
 -2       551       662       661      2789      2790      2785
 -1      1198    8    0    1
 -2       552       553       663      2454      2791      2792
 -1      1199    8    0    1
 -2       662       552       663      2788      2792      2793
 -1      1200    8    0    1
 -2       553       626       663      2682      2794      2791
 -1      1201    8    0    1
 -2       568       472       587      2544      2795      2796
 -1      1202    8    0    1
 -2       555       554       664      2460      2797      2798
 -1      1203    8    0    1
 -2       558       559       665      2472      2799      2800
 -1      1204    8    0    1
 -2       559       560       666      2475      2801      2802
 -1      1205    8    0    1
 -2       559       666       665      2802      2803      2799
 -1      1206    8    0    1
 -2       554       558       667      2469      2804      2805
 -1      1207    8    0    1
 -2       664       554       667      2797      2805      2806
 -1      1208    8    0    1
 -2       558       665       667      2800      2807      2804
 -1      1209    8    0    1
 -2       515       516       668      2343      2808      2809
 -1      1210    8    0    1
 -2       624       515       668      2676      2809      2810
 -1      1211    8    0    1
 -2       516       627       668      2685      2811      2808
 -1      1212    8    0    1
 -2       560       561       669      2478      2812      2813
 -1      1213    8    0    1
 -2       560       669       666      2813      2814      2801
 -1      1214    8    0    1
 -2       561       562       670      2481      2815      2816
 -1      1215    8    0    1
 -2       561       670       669      2816      2817      2812
 -1      1216    8    0    1
 -2       562       563       671      2484      2818      2819
 -1      1217    8    0    1
 -2       562       671       670      2819      2820      2815
 -1      1218    8    0    1
 -2       563       564       672      2487      2821      2822
 -1      1219    8    0    1
 -2       563       672       671      2822      2823      2818
 -1      1220    8    0    1
 -2       472       569       579      2535      2527      2824
 -1      1221    8    0    1
 -2       575       576       571      2551      2532      2825
 -1      1222    8    0    1
 -2       567       572       673      2539      2826      2827
 -1      1223    8    0    1
 -2       473       568       674      2497      2828      2829
 -1      1224    8    0    1
 -2       473       674       585      2829      2830      2562
 -1      1225    8    0    1
 -2       329       463       330      2506      2831      1758
 -1      1226    8    0    1
 -2       570       466       675      2502      2832      2833
 -1      1227    8    0    1
 -2       466       583       675      2558      2834      2832
 -1      1228    8    0    1
 -2       571       570       676      2505      2835      2836
 -1      1229    8    0    1
 -2       575       571       676      2825      2836      2837
 -1      1230    8    0    1
 -2       570       675       676      2833      2838      2835
 -1      1231    8    0    1
 -2       566       578       677      2546      2839      2840
 -1      1232    8    0    1
 -2       578       573       678      2554      2841      2842
 -1      1233    8    0    1
 -2       557       580       679      2540      2843      2844
 -1      1234    8    0    1
 -2       574       465       680      2552      2845      2846
 -1      1235    8    0    1
 -2       573       574       681      2553      2847      2848
 -1      1236    8    0    1
 -2       465       575       676      2555      2837      2849
 -1      1237    8    0    1
 -2       455       187       461      2507      2161      2850
 -1      1238    8    0    1
 -2       514       512       682      2337      2851      2852
 -1      1239    8    0    1
 -2       625       514       682      2679      2852      2853
 -1      1240    8    0    1
 -2       512       623       682      2675      2854      2851
 -1      1241    8    0    1
 -2       580       566       683      2531      2855      2856
 -1      1242    8    0    1
 -2       572       557       684      2545      2857      2858
 -1      1243    8    0    1
 -2       557       679       684      2844      2859      2857
 -1      1244    8    0    1
 -2       467       468       685      2200      2860      2861
 -1      1245    8    0    1
 -2       583       467       685      2557      2861      2862
 -1      1246    8    0    1
 -2       468       586       685      2565      2863      2860
 -1      1247    8    0    1
 -2       461       330       463      2180      2831      2864
 -1      1248    8    0    1
 -2       565       509       622      2673      2671      2865
 -1      1249    8    0    1
 -2       470       584       469      2560      2866      2206
 -1      1250    8    0    1
 -2       461       463       455      2864      2190      2850
 -1      1251    8    0    1
 -2       469       584       586      2866      2867      2564
 -1      1252    8    0    1
 -2       683       566       677      2855      2840      2868
 -1      1253    8    0    1
 -2       568       587       674      2796      2869      2828
 -1      1254    8    0    1
 -2       556       555       686      2464      2870      2871
 -1      1255    8    0    1
 -2       556       686       626      2871      2872      2683
 -1      1256    8    0    1
 -2       681       574       680      2847      2846      2873
 -1      1257    8    0    1
 -2       564       565       687      2490      2874      2875
 -1      1258    8    0    1
 -2       673       572       684      2826      2858      2876
 -1      1259    8    0    1
 -2       679       580       683      2843      2856      2877
 -1      1260    8    0    1
 -2       678       573       681      2841      2848      2878
 -1      1261    8    0    1
 -2       578       678       677      2842      2879      2839
 -1      1262    8    0    1
 -2       564       687       672      2875      2880      2821
 -1      1263    8    0    1
 -2       587       567       673      2566      2827      2881
 -1      1264    8    0    1
 -2       465       676       688      2849      2882      2883
 -1      1265    8    0    1
 -2       680       465       688      2845      2883      2884
 -1      1266    8    0    1
 -2       676       675       688      2838      2885      2882
 -1      1267    8    0    1
 -2       686       555       664      2870      2798      2886
 -1      1268    8    0    1
 -2       565       622       687      2865      2887      2874
 -1      1269    8    0    1
 -2       577       587       472      2567      2795      2888
 -1      1270    8    0    1
 -2       666       669       689      2814      2889      2890
 -1      1271    8    0    1
 -2       589       588       690      2573      2891      2892
 -1      1272    8    0    1
 -2       590       589       691      2576      2893      2894
 -1      1273    8    0    1
 -2       589       690       691      2892      2895      2893
 -1      1274    8    0    1
 -2       591       590       692      2579      2896      2897
 -1      1275    8    0    1
 -2       590       691       692      2894      2898      2896
 -1      1276    8    0    1
 -2       592       591       693      2582      2899      2900
 -1      1277    8    0    1
 -2       591       692       693      2897      2901      2899
 -1      1278    8    0    1
 -2       593       592       694      2585      2902      2903
 -1      1279    8    0    1
 -2       592       693       694      2900      2904      2902
 -1      1280    8    0    1
 -2       594       593       695      2588      2905      2906
 -1      1281    8    0    1
 -2       593       694       695      2903      2907      2905
 -1      1282    8    0    1
 -2       595       594       696      2591      2908      2909
 -1      1283    8    0    1
 -2       594       695       696      2906      2910      2908
 -1      1284    8    0    1
 -2       596       595       697      2594      2911      2912
 -1      1285    8    0    1
 -2       595       696       697      2909      2913      2911
 -1      1286    8    0    1
 -2       597       596       698      2597      2914      2915
 -1      1287    8    0    1
 -2       596       697       698      2912      2916      2914
 -1      1288    8    0    1
 -2       598       597       699      2600      2917      2918
 -1      1289    8    0    1
 -2       597       698       699      2915      2919      2917
 -1      1290    8    0    1
 -2       599       598       700      2603      2920      2921
 -1      1291    8    0    1
 -2       598       699       700      2918      2922      2920
 -1      1292    8    0    1
 -2       600       599       701      2606      2923      2924
 -1      1293    8    0    1
 -2       599       700       701      2921      2925      2923
 -1      1294    8    0    1
 -2       601       600       702      2609      2926      2927
 -1      1295    8    0    1
 -2       600       701       702      2924      2928      2926
 -1      1296    8    0    1
 -2       602       601       703      2612      2929      2930
 -1      1297    8    0    1
 -2       601       702       703      2927      2931      2929
 -1      1298    8    0    1
 -2       603       602       704      2615      2932      2933
 -1      1299    8    0    1
 -2       602       703       704      2930      2934      2932
 -1      1300    8    0    1
 -2       604       603       705      2618      2935      2936
 -1      1301    8    0    1
 -2       603       704       705      2933      2937      2935
 -1      1302    8    0    1
 -2       605       604       706      2621      2938      2939
 -1      1303    8    0    1
 -2       604       705       706      2936      2940      2938
 -1      1304    8    0    1
 -2       606       605       707      2624      2941      2942
 -1      1305    8    0    1
 -2       605       706       707      2939      2943      2941
 -1      1306    8    0    1
 -2       607       606       708      2627      2944      2945
 -1      1307    8    0    1
 -2       606       707       708      2942      2946      2944
 -1      1308    8    0    1
 -2       608       607       709      2630      2947      2948
 -1      1309    8    0    1
 -2       607       708       709      2945      2949      2947
 -1      1310    8    0    1
 -2       609       608       710      2633      2950      2951
 -1      1311    8    0    1
 -2       608       709       710      2948      2952      2950
 -1      1312    8    0    1
 -2       610       609       711      2636      2953      2954
 -1      1313    8    0    1
 -2       609       710       711      2951      2955      2953
 -1      1314    8    0    1
 -2       611       610       712      2639      2956      2957
 -1      1315    8    0    1
 -2       610       711       712      2954      2958      2956
 -1      1316    8    0    1
 -2       612       611       713      2642      2959      2960
 -1      1317    8    0    1
 -2       611       712       713      2957      2961      2959
 -1      1318    8    0    1
 -2       613       612       714      2645      2962      2963
 -1      1319    8    0    1
 -2       612       713       714      2960      2964      2962
 -1      1320    8    0    1
 -2       614       613       715      2648      2965      2966
 -1      1321    8    0    1
 -2       613       714       715      2963      2967      2965
 -1      1322    8    0    1
 -2       615       614       716      2651      2968      2969
 -1      1323    8    0    1
 -2       614       715       716      2966      2970      2968
 -1      1324    8    0    1
 -2       616       615       717      2654      2971      2972
 -1      1325    8    0    1
 -2       615       716       717      2969      2973      2971
 -1      1326    8    0    1
 -2       617       616       718      2657      2974      2975
 -1      1327    8    0    1
 -2       616       717       718      2972      2976      2974
 -1      1328    8    0    1
 -2       618       617       719      2660      2977      2978
 -1      1329    8    0    1
 -2       617       718       719      2975      2979      2977
 -1      1330    8    0    1
 -2       619       618       720      2663      2980      2981
 -1      1331    8    0    1
 -2       618       719       720      2978      2982      2980
 -1      1332    8    0    1
 -2       620       619       721      2666      2983      2984
 -1      1333    8    0    1
 -2       619       720       721      2981      2985      2983
 -1      1334    8    0    1
 -2       621       620       722      2669      2986      2987
 -1      1335    8    0    1
 -2       620       721       722      2984      2988      2986
 -1      1336    8    0    1
 -2       622       621       723      2672      2989      2990
 -1      1337    8    0    1
 -2       621       722       723      2987      2991      2989
 -1      1338    8    0    1
 -2       670       671       724      2820      2992      2993
 -1      1339    8    0    1
 -2       582       625       586      2680      2994      2995
 -1      1340    8    0    1
 -2       623       624       725      2678      2996      2997
 -1      1341    8    0    1
 -2       628       629       726      2691      2998      2999
 -1      1342    8    0    1
 -2       627       628       727      2688      3000      3001
 -1      1343    8    0    1
 -2       628       726       727      2999      3002      3000
 -1      1344    8    0    1
 -2       630       631       728      2697      3003      3004
 -1      1345    8    0    1
 -2       631       632       729      2700      3005      3006
 -1      1346    8    0    1
 -2       631       729       728      3006      3007      3003
 -1      1347    8    0    1
 -2       632       633       730      2703      3008      3009
 -1      1348    8    0    1
 -2       632       730       729      3009      3010      3005
 -1      1349    8    0    1
 -2       633       634       731      2706      3011      3012
 -1      1350    8    0    1
 -2       633       731       730      3012      3013      3008
 -1      1351    8    0    1
 -2       634       635       732      2709      3014      3015
 -1      1352    8    0    1
 -2       634       732       731      3015      3016      3011
 -1      1353    8    0    1
 -2       635       636       733      2712      3017      3018
 -1      1354    8    0    1
 -2       635       733       732      3018      3019      3014
 -1      1355    8    0    1
 -2       636       637       734      2715      3020      3021
 -1      1356    8    0    1
 -2       636       734       733      3021      3022      3017
 -1      1357    8    0    1
 -2       637       638       735      2718      3023      3024
 -1      1358    8    0    1
 -2       637       735       734      3024      3025      3020
 -1      1359    8    0    1
 -2       638       639       736      2721      3026      3027
 -1      1360    8    0    1
 -2       638       736       735      3027      3028      3023
 -1      1361    8    0    1
 -2       639       640       737      2724      3029      3030
 -1      1362    8    0    1
 -2       639       737       736      3030      3031      3026
 -1      1363    8    0    1
 -2       640       641       738      2727      3032      3033
 -1      1364    8    0    1
 -2       640       738       737      3033      3034      3029
 -1      1365    8    0    1
 -2       641       642       739      2730      3035      3036
 -1      1366    8    0    1
 -2       641       739       738      3036      3037      3032
 -1      1367    8    0    1
 -2       642       643       740      2733      3038      3039
 -1      1368    8    0    1
 -2       642       740       739      3039      3040      3035
 -1      1369    8    0    1
 -2       643       644       741      2736      3041      3042
 -1      1370    8    0    1
 -2       643       741       740      3042      3043      3038
 -1      1371    8    0    1
 -2       644       645       742      2739      3044      3045
 -1      1372    8    0    1
 -2       644       742       741      3045      3046      3041
 -1      1373    8    0    1
 -2       645       646       743      2742      3047      3048
 -1      1374    8    0    1
 -2       645       743       742      3048      3049      3044
 -1      1375    8    0    1
 -2       646       647       744      2745      3050      3051
 -1      1376    8    0    1
 -2       646       744       743      3051      3052      3047
 -1      1377    8    0    1
 -2       647       648       745      2748      3053      3054
 -1      1378    8    0    1
 -2       647       745       744      3054      3055      3050
 -1      1379    8    0    1
 -2       648       649       746      2751      3056      3057
 -1      1380    8    0    1
 -2       648       746       745      3057      3058      3053
 -1      1381    8    0    1
 -2       649       650       747      2754      3059      3060
 -1      1382    8    0    1
 -2       649       747       746      3060      3061      3056
 -1      1383    8    0    1
 -2       650       651       748      2757      3062      3063
 -1      1384    8    0    1
 -2       650       748       747      3063      3064      3059
 -1      1385    8    0    1
 -2       651       652       749      2760      3065      3066
 -1      1386    8    0    1
 -2       651       749       748      3066      3067      3062
 -1      1387    8    0    1
 -2       652       653       750      2763      3068      3069
 -1      1388    8    0    1
 -2       652       750       749      3069      3070      3065
 -1      1389    8    0    1
 -2       653       654       751      2766      3071      3072
 -1      1390    8    0    1
 -2       653       751       750      3072      3073      3068
 -1      1391    8    0    1
 -2       654       655       752      2769      3074      3075
 -1      1392    8    0    1
 -2       654       752       751      3075      3076      3071
 -1      1393    8    0    1
 -2       655       656       753      2772      3077      3078
 -1      1394    8    0    1
 -2       655       753       752      3078      3079      3074
 -1      1395    8    0    1
 -2       656       657       754      2775      3080      3081
 -1      1396    8    0    1
 -2       656       754       753      3081      3082      3077
 -1      1397    8    0    1
 -2       657       658       755      2778      3083      3084
 -1      1398    8    0    1
 -2       657       755       754      3084      3085      3080
 -1      1399    8    0    1
 -2       658       659       756      2781      3086      3087
 -1      1400    8    0    1
 -2       658       756       755      3087      3088      3083
 -1      1401    8    0    1
 -2       659       660       757      2784      3089      3090
 -1      1402    8    0    1
 -2       659       757       756      3090      3091      3086
 -1      1403    8    0    1
 -2       660       661       758      2787      3092      3093
 -1      1404    8    0    1
 -2       660       758       757      3093      3094      3089
 -1      1405    8    0    1
 -2       661       662       759      2790      3095      3096
 -1      1406    8    0    1
 -2       661       759       758      3096      3097      3092
 -1      1407    8    0    1
 -2       687       622       723      2887      2990      3098
 -1      1408    8    0    1
 -2       665       666       760      2803      3099      3100
 -1      1409    8    0    1
 -2       666       689       760      2890      3101      3099
 -1      1410    8    0    1
 -2       577       472       579      2888      2824      2528
 -1      1411    8    0    1
 -2       582       586       584      2995      2867      3102
 -1      1412    8    0    1
 -2       671       672       761      2823      3103      3104
 -1      1413    8    0    1
 -2       671       761       724      3104      3105      2992
 -1      1414    8    0    1
 -2       586       625       762      2994      3106      3107
 -1      1415    8    0    1
 -2       586       762       685      3107      3108      2863
 -1      1416    8    0    1
 -2       673       684       763      2876      3109      3110
 -1      1417    8    0    1
 -2       626       686       764      2872      3111      3112
 -1      1418    8    0    1
 -2       626       764       663      3112      3113      2794
 -1      1419    8    0    1
 -2       585       674       765      2830      3114      3115
 -1      1420    8    0    1
 -2       669       670       766      2817      3116      3117
 -1      1421    8    0    1
 -2       689       669       766      2889      3117      3118
 -1      1422    8    0    1
 -2       670       724       766      2993      3119      3116
 -1      1423    8    0    1
 -2       442       582       581      2547      3120      2538
 -1      1424    8    0    1
 -2       675       583       767      2834      3121      3122
 -1      1425    8    0    1
 -2       686       664       768      2886      3123      3124
 -1      1426    8    0    1
 -2       686       768       764      3124      3125      3111
 -1      1427    8    0    1
 -2       629       630       769      2694      3126      3127
 -1      1428    8    0    1
 -2       726       629       769      2998      3127      3128
 -1      1429    8    0    1
 -2       630       728       769      3004      3129      3126
 -1      1430    8    0    1
 -2       674       587       770      2869      3130      3131
 -1      1431    8    0    1
 -2       765       674       770      3114      3131      3132
 -1      1432    8    0    1
 -2       587       673       770      2881      3133      3130
 -1      1433    8    0    1
 -2       681       680       771      2873      3134      3135
 -1      1434    8    0    1
 -2       588       585       772      2570      3136      3137
 -1      1435    8    0    1
 -2       588       772       690      3137      3138      2891
 -1      1436    8    0    1
 -2       677       678       773      2879      3139      3140
 -1      1437    8    0    1
 -2       683       677       774      2868      3141      3142
 -1      1438    8    0    1
 -2       678       681       775      2878      3143      3144
 -1      1439    8    0    1
 -2       672       687       723      2880      3098      3145
 -1      1440    8    0    1
 -2       584       581       582      2561      3120      3102
 -1      1441    8    0    1
 -2       684       679       776      2859      3146      3147
 -1      1442    8    0    1
 -2       679       683       777      2877      3148      3149
 -1      1443    8    0    1
 -2       679       777       776      3149      3150      3146
 -1      1444    8    0    1
 -2       677       773       778      3140      3151      3152
 -1      1445    8    0    1
 -2       677       778       774      3152      3153      3141
 -1      1446    8    0    1
 -2       675       767       688      3122      3154      2885
 -1      1447    8    0    1
 -2       768       664       667      3123      2806      3155
 -1      1448    8    0    1
 -2       665       760       779      3100      3156      3157
 -1      1449    8    0    1
 -2       665       779       667      3157      3158      2807
 -1      1450    8    0    1
 -2       761       672       723      3103      3145      3159
 -1      1451    8    0    1
 -2       623       725       780      2997      3160      3161
 -1      1452    8    0    1
 -2       623       780       682      3161      3162      2854
 -1      1453    8    0    1
 -2       627       727       781      3001      3163      3164
 -1      1454    8    0    1
 -2       627       781       668      3164      3165      2811
 -1      1455    8    0    1
 -2       662       663       782      2793      3166      3167
 -1      1456    8    0    1
 -2       759       662       782      3095      3167      3168
 -1      1457    8    0    1
 -2       663       764       782      3113      3169      3166
 -1      1458    8    0    1
 -2       585       765       772      3115      3170      3136
 -1      1459    8    0    1
 -2       624       668       783      2810      3171      3172
 -1      1460    8    0    1
 -2       624       783       725      3172      3173      2996
 -1      1461    8    0    1
 -2       762       625       682      3106      2853      3174
 -1      1462    8    0    1
 -2       681       771       775      3135      3175      3143
 -1      1463    8    0    1
 -2       763       684       776      3109      3147      3176
 -1      1464    8    0    1
 -2       771       680       688      3134      2884      3177
 -1      1465    8    0    1
 -2       583       685       784      2862      3178      3179
 -1      1466    8    0    1
 -2       767       583       784      3121      3179      3180
 -1      1467    8    0    1
 -2       685       762       784      3108      3181      3178
 -1      1468    8    0    1
 -2       770       673       763      3133      3110      3182
 -1      1469    8    0    1
 -2       773       678       775      3139      3144      3183
 -1      1470    8    0    1
 -2       683       774       777      3142      3184      3148
 -1      1471    8    0    1
 -2       692       691       785      2898      3185      3186
 -1      1472    8    0    1
 -2       693       692       786      2901      3187      3188
 -1      1473    8    0    1
 -2       692       785       786      3186      3189      3187
 -1      1474    8    0    1
 -2       694       693       787      2904      3190      3191
 -1      1475    8    0    1
 -2       693       786       787      3188      3192      3190
 -1      1476    8    0    1
 -2       695       694       788      2907      3193      3194
 -1      1477    8    0    1
 -2       694       787       788      3191      3195      3193
 -1      1478    8    0    1
 -2       696       695       789      2910      3196      3197
 -1      1479    8    0    1
 -2       695       788       789      3194      3198      3196
 -1      1480    8    0    1
 -2       697       696       790      2913      3199      3200
 -1      1481    8    0    1
 -2       696       789       790      3197      3201      3199
 -1      1482    8    0    1
 -2       698       697       791      2916      3202      3203
 -1      1483    8    0    1
 -2       697       790       791      3200      3204      3202
 -1      1484    8    0    1
 -2       699       698       792      2919      3205      3206
 -1      1485    8    0    1
 -2       698       791       792      3203      3207      3205
 -1      1486    8    0    1
 -2       700       699       793      2922      3208      3209
 -1      1487    8    0    1
 -2       699       792       793      3206      3210      3208
 -1      1488    8    0    1
 -2       701       700       794      2925      3211      3212
 -1      1489    8    0    1
 -2       700       793       794      3209      3213      3211
 -1      1490    8    0    1
 -2       702       701       795      2928      3214      3215
 -1      1491    8    0    1
 -2       701       794       795      3212      3216      3214
 -1      1492    8    0    1
 -2       703       702       796      2931      3217      3218
 -1      1493    8    0    1
 -2       702       795       796      3215      3219      3217
 -1      1494    8    0    1
 -2       704       703       797      2934      3220      3221
 -1      1495    8    0    1
 -2       703       796       797      3218      3222      3220
 -1      1496    8    0    1
 -2       705       704       798      2937      3223      3224
 -1      1497    8    0    1
 -2       704       797       798      3221      3225      3223
 -1      1498    8    0    1
 -2       706       705       799      2940      3226      3227
 -1      1499    8    0    1
 -2       705       798       799      3224      3228      3226
 -1      1500    8    0    1
 -2       707       706       800      2943      3229      3230
 -1      1501    8    0    1
 -2       706       799       800      3227      3231      3229
 -1      1502    8    0    1
 -2       708       707       801      2946      3232      3233
 -1      1503    8    0    1
 -2       707       800       801      3230      3234      3232
 -1      1504    8    0    1
 -2       709       708       802      2949      3235      3236
 -1      1505    8    0    1
 -2       708       801       802      3233      3237      3235
 -1      1506    8    0    1
 -2       710       709       803      2952      3238      3239
 -1      1507    8    0    1
 -2       709       802       803      3236      3240      3238
 -1      1508    8    0    1
 -2       711       710       804      2955      3241      3242
 -1      1509    8    0    1
 -2       710       803       804      3239      3243      3241
 -1      1510    8    0    1
 -2       712       711       805      2958      3244      3245
 -1      1511    8    0    1
 -2       711       804       805      3242      3246      3244
 -1      1512    8    0    1
 -2       713       712       806      2961      3247      3248
 -1      1513    8    0    1
 -2       712       805       806      3245      3249      3247
 -1      1514    8    0    1
 -2       714       713       807      2964      3250      3251
 -1      1515    8    0    1
 -2       713       806       807      3248      3252      3250
 -1      1516    8    0    1
 -2       715       714       808      2967      3253      3254
 -1      1517    8    0    1
 -2       714       807       808      3251      3255      3253
 -1      1518    8    0    1
 -2       716       715       809      2970      3256      3257
 -1      1519    8    0    1
 -2       715       808       809      3254      3258      3256
 -1      1520    8    0    1
 -2       717       716       810      2973      3259      3260
 -1      1521    8    0    1
 -2       716       809       810      3257      3261      3259
 -1      1522    8    0    1
 -2       718       717       811      2976      3262      3263
 -1      1523    8    0    1
 -2       717       810       811      3260      3264      3262
 -1      1524    8    0    1
 -2       719       718       812      2979      3265      3266
 -1      1525    8    0    1
 -2       718       811       812      3263      3267      3265
 -1      1526    8    0    1
 -2       720       719       813      2982      3268      3269
 -1      1527    8    0    1
 -2       719       812       813      3266      3270      3268
 -1      1528    8    0    1
 -2       721       720       814      2985      3271      3272
 -1      1529    8    0    1
 -2       720       813       814      3269      3273      3271
 -1      1530    8    0    1
 -2       722       721       815      2988      3274      3275
 -1      1531    8    0    1
 -2       721       814       815      3272      3276      3274
 -1      1532    8    0    1
 -2       723       722       816      2991      3277      3278
 -1      1533    8    0    1
 -2       761       723       816      3159      3278      3279
 -1      1534    8    0    1
 -2       722       815       816      3275      3280      3277
 -1      1535    8    0    1
 -2       770       763       817      3182      3281      3282
 -1      1536    8    0    1
 -2       770       817       765      3282      3283      3132
 -1      1537    8    0    1
 -2       691       690       818      2895      3284      3285
 -1      1538    8    0    1
 -2       691       818       785      3285      3286      3185
 -1      1539    8    0    1
 -2       729       730       819      3010      3287      3288
 -1      1540    8    0    1
 -2       728       729       820      3007      3289      3290
 -1      1541    8    0    1
 -2       729       819       820      3288      3291      3289
 -1      1542    8    0    1
 -2       731       732       821      3016      3292      3293
 -1      1543    8    0    1
 -2       732       733       822      3019      3294      3295
 -1      1544    8    0    1
 -2       732       822       821      3295      3296      3292
 -1      1545    8    0    1
 -2       733       734       823      3022      3297      3298
 -1      1546    8    0    1
 -2       733       823       822      3298      3299      3294
 -1      1547    8    0    1
 -2       734       735       824      3025      3300      3301
 -1      1548    8    0    1
 -2       734       824       823      3301      3302      3297
 -1      1549    8    0    1
 -2       735       736       825      3028      3303      3304
 -1      1550    8    0    1
 -2       735       825       824      3304      3305      3300
 -1      1551    8    0    1
 -2       736       737       826      3031      3306      3307
 -1      1552    8    0    1
 -2       736       826       825      3307      3308      3303
 -1      1553    8    0    1
 -2       737       738       827      3034      3309      3310
 -1      1554    8    0    1
 -2       737       827       826      3310      3311      3306
 -1      1555    8    0    1
 -2       738       739       828      3037      3312      3313
 -1      1556    8    0    1
 -2       738       828       827      3313      3314      3309
 -1      1557    8    0    1
 -2       739       740       829      3040      3315      3316
 -1      1558    8    0    1
 -2       739       829       828      3316      3317      3312
 -1      1559    8    0    1
 -2       740       741       830      3043      3318      3319
 -1      1560    8    0    1
 -2       740       830       829      3319      3320      3315
 -1      1561    8    0    1
 -2       741       742       831      3046      3321      3322
 -1      1562    8    0    1
 -2       741       831       830      3322      3323      3318
 -1      1563    8    0    1
 -2       742       743       832      3049      3324      3325
 -1      1564    8    0    1
 -2       742       832       831      3325      3326      3321
 -1      1565    8    0    1
 -2       743       744       833      3052      3327      3328
 -1      1566    8    0    1
 -2       743       833       832      3328      3329      3324
 -1      1567    8    0    1
 -2       744       745       834      3055      3330      3331
 -1      1568    8    0    1
 -2       744       834       833      3331      3332      3327
 -1      1569    8    0    1
 -2       745       746       835      3058      3333      3334
 -1      1570    8    0    1
 -2       745       835       834      3334      3335      3330
 -1      1571    8    0    1
 -2       746       747       836      3061      3336      3337
 -1      1572    8    0    1
 -2       746       836       835      3337      3338      3333
 -1      1573    8    0    1
 -2       747       748       837      3064      3339      3340
 -1      1574    8    0    1
 -2       747       837       836      3340      3341      3336
 -1      1575    8    0    1
 -2       748       749       838      3067      3342      3343
 -1      1576    8    0    1
 -2       748       838       837      3343      3344      3339
 -1      1577    8    0    1
 -2       749       750       839      3070      3345      3346
 -1      1578    8    0    1
 -2       749       839       838      3346      3347      3342
 -1      1579    8    0    1
 -2       750       751       840      3073      3348      3349
 -1      1580    8    0    1
 -2       750       840       839      3349      3350      3345
 -1      1581    8    0    1
 -2       751       752       841      3076      3351      3352
 -1      1582    8    0    1
 -2       751       841       840      3352      3353      3348
 -1      1583    8    0    1
 -2       752       753       842      3079      3354      3355
 -1      1584    8    0    1
 -2       752       842       841      3355      3356      3351
 -1      1585    8    0    1
 -2       753       754       843      3082      3357      3358
 -1      1586    8    0    1
 -2       753       843       842      3358      3359      3354
 -1      1587    8    0    1
 -2       754       755       844      3085      3360      3361
 -1      1588    8    0    1
 -2       754       844       843      3361      3362      3357
 -1      1589    8    0    1
 -2       755       756       845      3088      3363      3364
 -1      1590    8    0    1
 -2       755       845       844      3364      3365      3360
 -1      1591    8    0    1
 -2       756       757       846      3091      3366      3367
 -1      1592    8    0    1
 -2       756       846       845      3367      3368      3363
 -1      1593    8    0    1
 -2       757       758       847      3094      3369      3370
 -1      1594    8    0    1
 -2       757       847       846      3370      3371      3366
 -1      1595    8    0    1
 -2       758       759       848      3097      3372      3373
 -1      1596    8    0    1
 -2       758       848       847      3373      3374      3369
 -1      1597    8    0    1
 -2       760       689       849      3101      3375      3376
 -1      1598    8    0    1
 -2       772       765       850      3170      3377      3378
 -1      1599    8    0    1
 -2       765       817       850      3283      3379      3377
 -1      1600    8    0    1
 -2       724       761       851      3105      3380      3381
 -1      1601    8    0    1
 -2       761       816       851      3279      3382      3380
 -1      1602    8    0    1
 -2       763       776       852      3176      3383      3384
 -1      1603    8    0    1
 -2       763       852       817      3384      3385      3281
 -1      1604    8    0    1
 -2       764       768       853      3125      3386      3387
 -1      1605    8    0    1
 -2       764       853       782      3387      3388      3169
 -1      1606    8    0    1
 -2       730       731       854      3013      3389      3390
 -1      1607    8    0    1
 -2       731       821       854      3293      3391      3389
 -1      1608    8    0    1
 -2       688       767       771      3154      3392      3177
 -1      1609    8    0    1
 -2       727       726       855      3002      3393      3394
 -1      1610    8    0    1
 -2       690       772       856      3138      3395      3396
 -1      1611    8    0    1
 -2       818       690       856      3284      3396      3397
 -1      1612    8    0    1
 -2       772       850       856      3378      3398      3395
 -1      1613    8    0    1
 -2       771       767       857      3392      3399      3400
 -1      1614    8    0    1
 -2       768       667       779      3155      3158      3401
 -1      1615    8    0    1
 -2       777       774       858      3184      3402      3403
 -1      1616    8    0    1
 -2       762       682       780      3174      3162      3404
 -1      1617    8    0    1
 -2       776       777       859      3150      3405      3406
 -1      1618    8    0    1
 -2       776       859       852      3406      3407      3383
 -1      1619    8    0    1
 -2       775       771       857      3175      3400      3408
 -1      1620    8    0    1
 -2       773       775       860      3183      3409      3410
 -1      1621    8    0    1
 -2       779       760       861      3156      3411      3412
 -1      1622    8    0    1
 -2       760       849       861      3376      3413      3411
 -1      1623    8    0    1
 -2       774       778       862      3153      3414      3415
 -1      1624    8    0    1
 -2       774       862       858      3415      3416      3402
 -1      1625    8    0    1
 -2       857       767       863      3399      3417      3418
 -1      1626    8    0    1
 -2       767       784       863      3180      3419      3417
 -1      1627    8    0    1
 -2       780       725       864      3160      3420      3421
 -1      1628    8    0    1
 -2       781       727       865      3163      3422      3423
 -1      1629    8    0    1
 -2       727       855       865      3394      3424      3422
 -1      1630    8    0    1
 -2       819       730       854      3287      3390      3425
 -1      1631    8    0    1
 -2       728       820       866      3290      3426      3427
 -1      1632    8    0    1
 -2       728       866       769      3427      3428      3129
 -1      1633    8    0    1
 -2       848       759       867      3372      3429      3430
 -1      1634    8    0    1
 -2       759       782       867      3168      3431      3429
 -1      1635    8    0    1
 -2       849       689       868      3375      3432      3433
 -1      1636    8    0    1
 -2       689       766       868      3118      3434      3432
 -1      1637    8    0    1
 -2       783       668       781      3171      3165      3435
 -1      1638    8    0    1
 -2       773       860       869      3410      3436      3437
 -1      1639    8    0    1
 -2       773       869       778      3437      3438      3151
 -1      1640    8    0    1
 -2       766       724       870      3119      3439      3440
 -1      1641    8    0    1
 -2       868       766       870      3434      3440      3441
 -1      1642    8    0    1
 -2       724       851       870      3381      3442      3439
 -1      1643    8    0    1
 -2       726       769       871      3128      3443      3444
 -1      1644    8    0    1
 -2       855       726       871      3393      3444      3445
 -1      1645    8    0    1
 -2       769       866       871      3428      3446      3443
 -1      1646    8    0    1
 -2       784       762       863      3181      3447      3419
 -1      1647    8    0    1
 -2       775       857       860      3408      3448      3409
 -1      1648    8    0    1
 -2       777       858       859      3403      3449      3405
 -1      1649    8    0    1
 -2       725       783       872      3173      3450      3451
 -1      1650    8    0    1
 -2       725       872       864      3451      3452      3420
 -1      1651    8    0    1
 -2       768       779       873      3401      3453      3454
 -1      1652    8    0    1
 -2       853       768       873      3386      3454      3455
 -1      1653    8    0    1
 -2       779       861       873      3412      3456      3453
 -1      1654    8    0    1
 -2       762       780       863      3404      3457      3447
 -1      1655    8    0    1
 -2       860       857       874      3448      3458      3459
 -1      1656    8    0    1
 -2       817       852       875      3385      3460      3461
 -1      1657    8    0    1
 -2       817       875       850      3461      3462      3379
 -1      1658    8    0    1
 -2       787       786       876      3192      3463      3464
 -1      1659    8    0    1
 -2       788       787       877      3195      3465      3466
 -1      1660    8    0    1
 -2       787       876       877      3464      3467      3465
 -1      1661    8    0    1
 -2       789       788       878      3198      3468      3469
 -1      1662    8    0    1
 -2       788       877       878      3466      3470      3468
 -1      1663    8    0    1
 -2       790       789       879      3201      3471      3472
 -1      1664    8    0    1
 -2       789       878       879      3469      3473      3471
 -1      1665    8    0    1
 -2       791       790       880      3204      3474      3475
 -1      1666    8    0    1
 -2       790       879       880      3472      3476      3474
 -1      1667    8    0    1
 -2       792       791       881      3207      3477      3478
 -1      1668    8    0    1
 -2       791       880       881      3475      3479      3477
 -1      1669    8    0    1
 -2       793       792       882      3210      3480      3481
 -1      1670    8    0    1
 -2       792       881       882      3478      3482      3480
 -1      1671    8    0    1
 -2       794       793       883      3213      3483      3484
 -1      1672    8    0    1
 -2       793       882       883      3481      3485      3483
 -1      1673    8    0    1
 -2       795       794       884      3216      3486      3487
 -1      1674    8    0    1
 -2       794       883       884      3484      3488      3486
 -1      1675    8    0    1
 -2       796       795       885      3219      3489      3490
 -1      1676    8    0    1
 -2       795       884       885      3487      3491      3489
 -1      1677    8    0    1
 -2       797       796       886      3222      3492      3493
 -1      1678    8    0    1
 -2       796       885       886      3490      3494      3492
 -1      1679    8    0    1
 -2       798       797       887      3225      3495      3496
 -1      1680    8    0    1
 -2       797       886       887      3493      3497      3495
 -1      1681    8    0    1
 -2       799       798       888      3228      3498      3499
 -1      1682    8    0    1
 -2       798       887       888      3496      3500      3498
 -1      1683    8    0    1
 -2       800       799       889      3231      3501      3502
 -1      1684    8    0    1
 -2       799       888       889      3499      3503      3501
 -1      1685    8    0    1
 -2       801       800       890      3234      3504      3505
 -1      1686    8    0    1
 -2       800       889       890      3502      3506      3504
 -1      1687    8    0    1
 -2       802       801       891      3237      3507      3508
 -1      1688    8    0    1
 -2       801       890       891      3505      3509      3507
 -1      1689    8    0    1
 -2       803       802       892      3240      3510      3511
 -1      1690    8    0    1
 -2       802       891       892      3508      3512      3510
 -1      1691    8    0    1
 -2       804       803       893      3243      3513      3514
 -1      1692    8    0    1
 -2       803       892       893      3511      3515      3513
 -1      1693    8    0    1
 -2       805       804       894      3246      3516      3517
 -1      1694    8    0    1
 -2       804       893       894      3514      3518      3516
 -1      1695    8    0    1
 -2       806       805       895      3249      3519      3520
 -1      1696    8    0    1
 -2       805       894       895      3517      3521      3519
 -1      1697    8    0    1
 -2       807       806       896      3252      3522      3523
 -1      1698    8    0    1
 -2       806       895       896      3520      3524      3522
 -1      1699    8    0    1
 -2       808       807       897      3255      3525      3526
 -1      1700    8    0    1
 -2       807       896       897      3523      3527      3525
 -1      1701    8    0    1
 -2       809       808       898      3258      3528      3529
 -1      1702    8    0    1
 -2       808       897       898      3526      3530      3528
 -1      1703    8    0    1
 -2       810       809       899      3261      3531      3532
 -1      1704    8    0    1
 -2       809       898       899      3529      3533      3531
 -1      1705    8    0    1
 -2       811       810       900      3264      3534      3535
 -1      1706    8    0    1
 -2       810       899       900      3532      3536      3534
 -1      1707    8    0    1
 -2       812       811       901      3267      3537      3538
 -1      1708    8    0    1
 -2       811       900       901      3535      3539      3537
 -1      1709    8    0    1
 -2       813       812       902      3270      3540      3541
 -1      1710    8    0    1
 -2       812       901       902      3538      3542      3540
 -1      1711    8    0    1
 -2       814       813       903      3273      3543      3544
 -1      1712    8    0    1
 -2       813       902       903      3541      3545      3543
 -1      1713    8    0    1
 -2       815       814       904      3276      3546      3547
 -1      1714    8    0    1
 -2       814       903       904      3544      3548      3546
 -1      1715    8    0    1
 -2       816       815       905      3280      3549      3550
 -1      1716    8    0    1
 -2       851       816       905      3382      3550      3551
 -1      1717    8    0    1
 -2       815       904       905      3547      3552      3549
 -1      1718    8    0    1
 -2       820       819       906      3291      3553      3554
 -1      1719    8    0    1
 -2       785       818       907      3286      3555      3556
 -1      1720    8    0    1
 -2       822       823       908      3299      3557      3558
 -1      1721    8    0    1
 -2       821       822       909      3296      3559      3560
 -1      1722    8    0    1
 -2       822       908       909      3558      3561      3559
 -1      1723    8    0    1
 -2       824       825       910      3305      3562      3563
 -1      1724    8    0    1
 -2       825       826       911      3308      3564      3565
 -1      1725    8    0    1
 -2       825       911       910      3565      3566      3562
 -1      1726    8    0    1
 -2       826       827       912      3311      3567      3568
 -1      1727    8    0    1
 -2       826       912       911      3568      3569      3564
 -1      1728    8    0    1
 -2       827       828       913      3314      3570      3571
 -1      1729    8    0    1
 -2       827       913       912      3571      3572      3567
 -1      1730    8    0    1
 -2       828       829       914      3317      3573      3574
 -1      1731    8    0    1
 -2       828       914       913      3574      3575      3570
 -1      1732    8    0    1
 -2       829       830       915      3320      3576      3577
 -1      1733    8    0    1
 -2       829       915       914      3577      3578      3573
 -1      1734    8    0    1
 -2       830       831       916      3323      3579      3580
 -1      1735    8    0    1
 -2       830       916       915      3580      3581      3576
 -1      1736    8    0    1
 -2       831       832       917      3326      3582      3583
 -1      1737    8    0    1
 -2       831       917       916      3583      3584      3579
 -1      1738    8    0    1
 -2       832       833       918      3329      3585      3586
 -1      1739    8    0    1
 -2       832       918       917      3586      3587      3582
 -1      1740    8    0    1
 -2       833       834       919      3332      3588      3589
 -1      1741    8    0    1
 -2       833       919       918      3589      3590      3585
 -1      1742    8    0    1
 -2       834       835       920      3335      3591      3592
 -1      1743    8    0    1
 -2       834       920       919      3592      3593      3588
 -1      1744    8    0    1
 -2       835       836       921      3338      3594      3595
 -1      1745    8    0    1
 -2       835       921       920      3595      3596      3591
 -1      1746    8    0    1
 -2       836       837       922      3341      3597      3598
 -1      1747    8    0    1
 -2       836       922       921      3598      3599      3594
 -1      1748    8    0    1
 -2       837       838       923      3344      3600      3601
 -1      1749    8    0    1
 -2       837       923       922      3601      3602      3597
 -1      1750    8    0    1
 -2       838       839       924      3347      3603      3604
 -1      1751    8    0    1
 -2       838       924       923      3604      3605      3600
 -1      1752    8    0    1
 -2       839       840       925      3350      3606      3607
 -1      1753    8    0    1
 -2       839       925       924      3607      3608      3603
 -1      1754    8    0    1
 -2       840       841       926      3353      3609      3610
 -1      1755    8    0    1
 -2       840       926       925      3610      3611      3606
 -1      1756    8    0    1
 -2       841       842       927      3356      3612      3613
 -1      1757    8    0    1
 -2       841       927       926      3613      3614      3609
 -1      1758    8    0    1
 -2       842       843       928      3359      3615      3616
 -1      1759    8    0    1
 -2       842       928       927      3616      3617      3612
 -1      1760    8    0    1
 -2       843       844       929      3362      3618      3619
 -1      1761    8    0    1
 -2       843       929       928      3619      3620      3615
 -1      1762    8    0    1
 -2       844       845       930      3365      3621      3622
 -1      1763    8    0    1
 -2       844       930       929      3622      3623      3618
 -1      1764    8    0    1
 -2       845       846       931      3368      3624      3625
 -1      1765    8    0    1
 -2       845       931       930      3625      3626      3621
 -1      1766    8    0    1
 -2       846       847       932      3371      3627      3628
 -1      1767    8    0    1
 -2       846       932       931      3628      3629      3624
 -1      1768    8    0    1
 -2       847       848       933      3374      3630      3631
 -1      1769    8    0    1
 -2       847       933       932      3631      3632      3627
 -1      1770    8    0    1
 -2       782       853       867      3388      3633      3431
 -1      1771    8    0    1
 -2       783       781       934      3435      3634      3635
 -1      1772    8    0    1
 -2       872       783       934      3450      3635      3636
 -1      1773    8    0    1
 -2       781       865       934      3423      3637      3634
 -1      1774    8    0    1
 -2       854       821       935      3391      3638      3639
 -1      1775    8    0    1
 -2       821       909       935      3560      3640      3638
 -1      1776    8    0    1
 -2       823       824       936      3302      3641      3642
 -1      1777    8    0    1
 -2       908       823       936      3557      3642      3643
 -1      1778    8    0    1
 -2       824       910       936      3563      3644      3641
 -1      1779    8    0    1
 -2       786       785       937      3189      3645      3646
 -1      1780    8    0    1
 -2       876       786       937      3463      3646      3647
 -1      1781    8    0    1
 -2       785       907       937      3556      3648      3645
 -1      1782    8    0    1
 -2       857       863       874      3418      3649      3458
 -1      1783    8    0    1
 -2       852       859       938      3407      3650      3651
 -1      1784    8    0    1
 -2       852       938       875      3651      3652      3460
 -1      1785    8    0    1
 -2       859       858       939      3449      3653      3654
 -1      1786    8    0    1
 -2       859       939       938      3654      3655      3650
 -1      1787    8    0    1
 -2       863       780       864      3457      3421      3656
 -1      1788    8    0    1
 -2       819       854       940      3425      3657      3658
 -1      1789    8    0    1
 -2       819       940       906      3658      3659      3553
 -1      1790    8    0    1
 -2       863       864       874      3656      3660      3649
 -1      1791    8    0    1
 -2       862       778       941      3414      3661      3662
 -1      1792    8    0    1
 -2       778       869       941      3438      3663      3661
 -1      1793    8    0    1
 -2       850       875       942      3462      3664      3665
 -1      1794    8    0    1
 -2       850       942       856      3665      3666      3398
 -1      1795    8    0    1
 -2       851       905       943      3551      3667      3668
 -1      1796    8    0    1
 -2       851       943       870      3668      3669      3442
 -1      1797    8    0    1
 -2       853       873       867      3455      3670      3633
 -1      1798    8    0    1
 -2       854       935       940      3639      3671      3657
 -1      1799    8    0    1
 -2       866       820       944      3426      3672      3673
 -1      1800    8    0    1
 -2       820       906       944      3554      3674      3672
 -1      1801    8    0    1
 -2       860       874       945      3459      3675      3676
 -1      1802    8    0    1
 -2       860       945       869      3676      3677      3436
 -1      1803    8    0    1
 -2       933       848       946      3630      3678      3679
 -1      1804    8    0    1
 -2       848       867       946      3430      3680      3678
 -1      1805    8    0    1
 -2       858       862       947      3416      3681      3682
 -1      1806    8    0    1
 -2       858       947       939      3682      3683      3653
 -1      1807    8    0    1
 -2       849       868       948      3433      3684      3685
 -1      1808    8    0    1
 -2       874       864       945      3660      3686      3675
 -1      1809    8    0    1
 -2       818       856       949      3397      3687      3688
 -1      1810    8    0    1
 -2       907       818       949      3555      3688      3689
 -1      1811    8    0    1
 -2       856       942       949      3666      3690      3687
 -1      1812    8    0    1
 -2       865       855       950      3424      3691      3692
 -1      1813    8    0    1
 -2       849       948       951      3685      3693      3694
 -1      1814    8    0    1
 -2       849       951       861      3694      3695      3413
 -1      1815    8    0    1
 -2       855       871       952      3445      3696      3697
 -1      1816    8    0    1
 -2       855       952       950      3697      3698      3691
 -1      1817    8    0    1
 -2       864       872       945      3452      3699      3686
 -1      1818    8    0    1
 -2       878       877       953      3470      3700      3701
 -1      1819    8    0    1
 -2       879       878       954      3473      3702      3703
 -1      1820    8    0    1
 -2       878       953       954      3701      3704      3702
 -1      1821    8    0    1
 -2       880       879       955      3476      3705      3706
 -1      1822    8    0    1
 -2       879       954       955      3703      3707      3705
 -1      1823    8    0    1
 -2       881       880       956      3479      3708      3709
 -1      1824    8    0    1
 -2       880       955       956      3706      3710      3708
 -1      1825    8    0    1
 -2       882       881       957      3482      3711      3712
 -1      1826    8    0    1
 -2       881       956       957      3709      3713      3711
 -1      1827    8    0    1
 -2       883       882       958      3485      3714      3715
 -1      1828    8    0    1
 -2       882       957       958      3712      3716      3714
 -1      1829    8    0    1
 -2       884       883       959      3488      3717      3718
 -1      1830    8    0    1
 -2       883       958       959      3715      3719      3717
 -1      1831    8    0    1
 -2       885       884       960      3491      3720      3721
 -1      1832    8    0    1
 -2       884       959       960      3718      3722      3720
 -1      1833    8    0    1
 -2       886       885       961      3494      3723      3724
 -1      1834    8    0    1
 -2       885       960       961      3721      3725      3723
 -1      1835    8    0    1
 -2       887       886       962      3497      3726      3727
 -1      1836    8    0    1
 -2       886       961       962      3724      3728      3726
 -1      1837    8    0    1
 -2       888       887       963      3500      3729      3730
 -1      1838    8    0    1
 -2       887       962       963      3727      3731      3729
 -1      1839    8    0    1
 -2       889       888       964      3503      3732      3733
 -1      1840    8    0    1
 -2       888       963       964      3730      3734      3732
 -1      1841    8    0    1
 -2       890       889       965      3506      3735      3736
 -1      1842    8    0    1
 -2       889       964       965      3733      3737      3735
 -1      1843    8    0    1
 -2       891       890       966      3509      3738      3739
 -1      1844    8    0    1
 -2       890       965       966      3736      3740      3738
 -1      1845    8    0    1
 -2       892       891       967      3512      3741      3742
 -1      1846    8    0    1
 -2       891       966       967      3739      3743      3741
 -1      1847    8    0    1
 -2       893       892       968      3515      3744      3745
 -1      1848    8    0    1
 -2       892       967       968      3742      3746      3744
 -1      1849    8    0    1
 -2       894       893       969      3518      3747      3748
 -1      1850    8    0    1
 -2       893       968       969      3745      3749      3747
 -1      1851    8    0    1
 -2       895       894       970      3521      3750      3751
 -1      1852    8    0    1
 -2       894       969       970      3748      3752      3750
 -1      1853    8    0    1
 -2       896       895       971      3524      3753      3754
 -1      1854    8    0    1
 -2       895       970       971      3751      3755      3753
 -1      1855    8    0    1
 -2       897       896       972      3527      3756      3757
 -1      1856    8    0    1
 -2       896       971       972      3754      3758      3756
 -1      1857    8    0    1
 -2       898       897       973      3530      3759      3760
 -1      1858    8    0    1
 -2       897       972       973      3757      3761      3759
 -1      1859    8    0    1
 -2       899       898       974      3533      3762      3763
 -1      1860    8    0    1
 -2       898       973       974      3760      3764      3762
 -1      1861    8    0    1
 -2       900       899       975      3536      3765      3766
 -1      1862    8    0    1
 -2       899       974       975      3763      3767      3765
 -1      1863    8    0    1
 -2       901       900       976      3539      3768      3769
 -1      1864    8    0    1
 -2       900       975       976      3766      3770      3768
 -1      1865    8    0    1
 -2       902       901       977      3542      3771      3772
 -1      1866    8    0    1
 -2       901       976       977      3769      3773      3771
 -1      1867    8    0    1
 -2       903       902       978      3545      3774      3775
 -1      1868    8    0    1
 -2       902       977       978      3772      3776      3774
 -1      1869    8    0    1
 -2       904       903       979      3548      3777      3778
 -1      1870    8    0    1
 -2       903       978       979      3775      3779      3777
 -1      1871    8    0    1
 -2       905       904       980      3552      3780      3781
 -1      1872    8    0    1
 -2       943       905       980      3667      3781      3782
 -1      1873    8    0    1
 -2       904       979       980      3778      3783      3780
 -1      1874    8    0    1
 -2       945       872       981      3699      3784      3785
 -1      1875    8    0    1
 -2       869       945       981      3677      3785      3786
 -1      1876    8    0    1
 -2       872       934       981      3636      3787      3784
 -1      1877    8    0    1
 -2       911       912       982      3569      3788      3789
 -1      1878    8    0    1
 -2       910       911       983      3566      3790      3791
 -1      1879    8    0    1
 -2       911       982       983      3789      3792      3790
 -1      1880    8    0    1
 -2       913       914       984      3575      3793      3794
 -1      1881    8    0    1
 -2       914       915       985      3578      3795      3796
 -1      1882    8    0    1
 -2       914       985       984      3796      3797      3793
 -1      1883    8    0    1
 -2       915       916       986      3581      3798      3799
 -1      1884    8    0    1
 -2       915       986       985      3799      3800      3795
 -1      1885    8    0    1
 -2       916       917       987      3584      3801      3802
 -1      1886    8    0    1
 -2       916       987       986      3802      3803      3798
 -1      1887    8    0    1
 -2       917       918       988      3587      3804      3805
 -1      1888    8    0    1
 -2       917       988       987      3805      3806      3801
 -1      1889    8    0    1
 -2       918       919       989      3590      3807      3808
 -1      1890    8    0    1
 -2       918       989       988      3808      3809      3804
 -1      1891    8    0    1
 -2       919       920       990      3593      3810      3811
 -1      1892    8    0    1
 -2       919       990       989      3811      3812      3807
 -1      1893    8    0    1
 -2       920       921       991      3596      3813      3814
 -1      1894    8    0    1
 -2       920       991       990      3814      3815      3810
 -1      1895    8    0    1
 -2       921       922       992      3599      3816      3817
 -1      1896    8    0    1
 -2       921       992       991      3817      3818      3813
 -1      1897    8    0    1
 -2       922       923       993      3602      3819      3820
 -1      1898    8    0    1
 -2       922       993       992      3820      3821      3816
 -1      1899    8    0    1
 -2       923       924       994      3605      3822      3823
 -1      1900    8    0    1
 -2       923       994       993      3823      3824      3819
 -1      1901    8    0    1
 -2       924       925       995      3608      3825      3826
 -1      1902    8    0    1
 -2       924       995       994      3826      3827      3822
 -1      1903    8    0    1
 -2       925       926       996      3611      3828      3829
 -1      1904    8    0    1
 -2       925       996       995      3829      3830      3825
 -1      1905    8    0    1
 -2       926       927       997      3614      3831      3832
 -1      1906    8    0    1
 -2       926       997       996      3832      3833      3828
 -1      1907    8    0    1
 -2       927       928       998      3617      3834      3835
 -1      1908    8    0    1
 -2       927       998       997      3835      3836      3831
 -1      1909    8    0    1
 -2       928       929       999      3620      3837      3838
 -1      1910    8    0    1
 -2       928       999       998      3838      3839      3834
 -1      1911    8    0    1
 -2       929       930      1000      3623      3840      3841
 -1      1912    8    0    1
 -2       929      1000       999      3841      3842      3837
 -1      1913    8    0    1
 -2       930       931      1001      3626      3843      3844
 -1      1914    8    0    1
 -2       930      1001      1000      3844      3845      3840
 -1      1915    8    0    1
 -2       931       932      1002      3629      3846      3847
 -1      1916    8    0    1
 -2       931      1002      1001      3847      3848      3843
 -1      1917    8    0    1
 -2       932       933      1003      3632      3849      3850
 -1      1918    8    0    1
 -2       932      1003      1002      3850      3851      3846
 -1      1919    8    0    1
 -2       940       935      1004      3671      3852      3853
 -1      1920    8    0    1
 -2       871       866      1005      3446      3854      3855
 -1      1921    8    0    1
 -2       952       871      1005      3696      3855      3856
 -1      1922    8    0    1
 -2       866       944      1005      3673      3857      3854
 -1      1923    8    0    1
 -2       867       873       946      3670      3858      3680
 -1      1924    8    0    1
 -2       909       908      1006      3561      3859      3860
 -1      1925    8    0    1
 -2       938       939      1007      3655      3861      3862
 -1      1926    8    0    1
 -2       935       909      1008      3640      3863      3864
 -1      1927    8    0    1
 -2       909      1006      1008      3860      3865      3863
 -1      1928    8    0    1
 -2       912       913      1009      3572      3866      3867
 -1      1929    8    0    1
 -2       913       984      1009      3794      3868      3866
 -1      1930    8    0    1
 -2       873       861       946      3456      3869      3858
 -1      1931    8    0    1
 -2       877       876      1010      3467      3870      3871
 -1      1932    8    0    1
 -2       877      1010       953      3871      3872      3700
 -1      1933    8    0    1
 -2       875       938      1011      3652      3873      3874
 -1      1934    8    0    1
 -2       942       875      1011      3664      3874      3875
 -1      1935    8    0    1
 -2       938      1007      1011      3862      3876      3873
 -1      1936    8    0    1
 -2       868       870      1012      3441      3877      3878
 -1      1937    8    0    1
 -2       948       868      1012      3684      3878      3879
 -1      1938    8    0    1
 -2       870       943      1012      3669      3880      3877
 -1      1939    8    0    1
 -2       906       940      1013      3659      3881      3882
 -1      1940    8    0    1
 -2       940      1004      1013      3853      3883      3881
 -1      1941    8    0    1
 -2       862       941      1014      3662      3884      3885
 -1      1942    8    0    1
 -2       862      1014       947      3885      3886      3681
 -1      1943    8    0    1
 -2       944       906      1015      3674      3887      3888
 -1      1944    8    0    1
 -2       906      1013      1015      3882      3889      3887
 -1      1945    8    0    1
 -2       876       937      1016      3647      3890      3891
 -1      1946    8    0    1
 -2       876      1016      1010      3891      3892      3870
 -1      1947    8    0    1
 -2       907       949      1017      3689      3893      3894
 -1      1948    8    0    1
 -2       912      1009       982      3867      3895      3788
 -1      1949    8    0    1
 -2       946       861       951      3869      3695      3896
 -1      1950    8    0    1
 -2       908       936      1018      3643      3897      3898
 -1      1951    8    0    1
 -2       908      1018      1006      3898      3899      3859
 -1      1952    8    0    1
 -2       910       983      1019      3791      3900      3901
 -1      1953    8    0    1
 -2       910      1019       936      3901      3902      3644
 -1      1954    8    0    1
 -2      1004       935      1008      3852      3864      3903
 -1      1955    8    0    1
 -2       933       946      1020      3679      3904      3905
 -1      1956    8    0    1
 -2      1003       933      1020      3849      3905      3906
 -1      1957    8    0    1
 -2       946       951      1020      3896      3907      3904
 -1      1958    8    0    1
 -2       869       981       941      3786      3908      3663
 -1      1959    8    0    1
 -2       934       865      1021      3637      3909      3910
 -1      1960    8    0    1
 -2       981       934      1021      3787      3910      3911
 -1      1961    8    0    1
 -2       865       950      1021      3692      3912      3909
 -1      1962    8    0    1
 -2       948      1012      1022      3879      3913      3914
 -1      1963    8    0    1
 -2       937       907      1023      3648      3915      3916
 -1      1964    8    0    1
 -2      1016       937      1023      3890      3916      3917
 -1      1965    8    0    1
 -2       907      1017      1023      3894      3918      3915
 -1      1966    8    0    1
 -2       939       947      1024      3683      3919      3920
 -1      1967    8    0    1
 -2       939      1024      1007      3920      3921      3861
 -1      1968    8    0    1
 -2       951       948      1025      3693      3922      3923
 -1      1969    8    0    1
 -2      1020       951      1025      3907      3923      3924
 -1      1970    8    0    1
 -2       948      1022      1025      3914      3925      3922
 -1      1971    8    0    1
 -2       950       952      1026      3698      3926      3927
 -1      1972    8    0    1
 -2      1021       950      1014      3912      3928      3929
 -1      1973    8    0    1
 -2      1014       950      1026      3928      3927      3930
 -1      1974    8    0    1
 -2      1012       943       980      3880      3782      3931
 -1      1975    8    0    1
 -2      1022      1012       980      3913      3931      3932
 -1      1976    8    0    1
 -2       955       954      1027      3707      3933      3934
 -1      1977    8    0    1
 -2       956       955      1028      3710      3935      3936
 -1      1978    8    0    1
 -2       955      1027      1028      3934      3937      3935
 -1      1979    8    0    1
 -2       957       956      1029      3713      3938      3939
 -1      1980    8    0    1
 -2       956      1028      1029      3936      3940      3938
 -1      1981    8    0    1
 -2       958       957      1030      3716      3941      3942
 -1      1982    8    0    1
 -2       957      1029      1030      3939      3943      3941
 -1      1983    8    0    1
 -2       959       958      1031      3719      3944      3945
 -1      1984    8    0    1
 -2       958      1030      1031      3942      3946      3944
 -1      1985    8    0    1
 -2       960       959      1032      3722      3947      3948
 -1      1986    8    0    1
 -2       959      1031      1032      3945      3949      3947
 -1      1987    8    0    1
 -2       961       960      1033      3725      3950      3951
 -1      1988    8    0    1
 -2       960      1032      1033      3948      3952      3950
 -1      1989    8    0    1
 -2       962       961      1034      3728      3953      3954
 -1      1990    8    0    1
 -2       961      1033      1034      3951      3955      3953
 -1      1991    8    0    1
 -2       963       962      1035      3731      3956      3957
 -1      1992    8    0    1
 -2       962      1034      1035      3954      3958      3956
 -1      1993    8    0    1
 -2       964       963      1036      3734      3959      3960
 -1      1994    8    0    1
 -2       963      1035      1036      3957      3961      3959
 -1      1995    8    0    1
 -2       965       964      1037      3737      3962      3963
 -1      1996    8    0    1
 -2       964      1036      1037      3960      3964      3962
 -1      1997    8    0    1
 -2       966       965      1038      3740      3965      3966
 -1      1998    8    0    1
 -2       965      1037      1038      3963      3967      3965
 -1      1999    8    0    1
 -2       967       966      1039      3743      3968      3969
 -1      2000    8    0    1
 -2       966      1038      1039      3966      3970      3968
 -1      2001    8    0    1
 -2       968       967      1040      3746      3971      3972
 -1      2002    8    0    1
 -2       967      1039      1040      3969      3973      3971
 -1      2003    8    0    1
 -2       969       968      1041      3749      3974      3975
 -1      2004    8    0    1
 -2       968      1040      1041      3972      3976      3974
 -1      2005    8    0    1
 -2       970       969      1042      3752      3977      3978
 -1      2006    8    0    1
 -2       969      1041      1042      3975      3979      3977
 -1      2007    8    0    1
 -2       971       970      1043      3755      3980      3981
 -1      2008    8    0    1
 -2       970      1042      1043      3978      3982      3980
 -1      2009    8    0    1
 -2       972       971      1044      3758      3983      3984
 -1      2010    8    0    1
 -2       971      1043      1044      3981      3985      3983
 -1      2011    8    0    1
 -2       973       972      1045      3761      3986      3987
 -1      2012    8    0    1
 -2       972      1044      1045      3984      3988      3986
 -1      2013    8    0    1
 -2       974       973      1046      3764      3989      3990
 -1      2014    8    0    1
 -2       973      1045      1046      3987      3991      3989
 -1      2015    8    0    1
 -2       975       974      1047      3767      3992      3993
 -1      2016    8    0    1
 -2       974      1046      1047      3990      3994      3992
 -1      2017    8    0    1
 -2       976       975      1048      3770      3995      3996
 -1      2018    8    0    1
 -2       975      1047      1048      3993      3997      3995
 -1      2019    8    0    1
 -2       977       976      1049      3773      3998      3999
 -1      2020    8    0    1
 -2       976      1048      1049      3996      4000      3998
 -1      2021    8    0    1
 -2       978       977      1050      3776      4001      4002
 -1      2022    8    0    1
 -2       977      1049      1050      3999      4003      4001
 -1      2023    8    0    1
 -2       986       987      1051      3803      4004      4005
 -1      2024    8    0    1
 -2       983       982      1052      3792      4006      4007
 -1      2025    8    0    1
 -2       982      1009      1053      3895      4008      4009
 -1      2026    8    0    1
 -2       982      1053      1052      4009      4010      4006
 -1      2027    8    0    1
 -2       985       986      1054      3800      4011      4012
 -1      2028    8    0    1
 -2       986      1051      1054      4005      4013      4011
 -1      2029    8    0    1
 -2       984       985      1055      3797      4014      4015
 -1      2030    8    0    1
 -2       985      1054      1055      4012      4016      4014
 -1      2031    8    0    1
 -2       987       988      1056      3806      4017      4018
 -1      2032    8    0    1
 -2       987      1056      1051      4018      4019      4004
 -1      2033    8    0    1
 -2       988       989      1057      3809      4020      4021
 -1      2034    8    0    1
 -2       988      1057      1056      4021      4022      4017
 -1      2035    8    0    1
 -2       989       990      1058      3812      4023      4024
 -1      2036    8    0    1
 -2       989      1058      1057      4024      4025      4020
 -1      2037    8    0    1
 -2       990       991      1059      3815      4026      4027
 -1      2038    8    0    1
 -2       990      1059      1058      4027      4028      4023
 -1      2039    8    0    1
 -2       991       992      1060      3818      4029      4030
 -1      2040    8    0    1
 -2       991      1060      1059      4030      4031      4026
 -1      2041    8    0    1
 -2       992       993      1061      3821      4032      4033
 -1      2042    8    0    1
 -2       992      1061      1060      4033      4034      4029
 -1      2043    8    0    1
 -2       993       994      1062      3824      4035      4036
 -1      2044    8    0    1
 -2       993      1062      1061      4036      4037      4032
 -1      2045    8    0    1
 -2       994       995      1063      3827      4038      4039
 -1      2046    8    0    1
 -2       994      1063      1062      4039      4040      4035
 -1      2047    8    0    1
 -2       995       996      1064      3830      4041      4042
 -1      2048    8    0    1
 -2       995      1064      1063      4042      4043      4038
 -1      2049    8    0    1
 -2       996       997      1065      3833      4044      4045
 -1      2050    8    0    1
 -2       996      1065      1064      4045      4046      4041
 -1      2051    8    0    1
 -2       997       998      1066      3836      4047      4048
 -1      2052    8    0    1
 -2       997      1066      1065      4048      4049      4044
 -1      2053    8    0    1
 -2       998       999      1067      3839      4050      4051
 -1      2054    8    0    1
 -2       998      1067      1066      4051      4052      4047
 -1      2055    8    0    1
 -2       999      1000      1068      3842      4053      4054
 -1      2056    8    0    1
 -2       999      1068      1067      4054      4055      4050
 -1      2057    8    0    1
 -2      1000      1001      1069      3845      4056      4057
 -1      2058    8    0    1
 -2      1000      1069      1068      4057      4058      4053
 -1      2059    8    0    1
 -2      1001      1002      1070      3848      4059      4060
 -1      2060    8    0    1
 -2      1001      1070      1069      4060      4061      4056
 -1      2061    8    0    1
 -2      1002      1003      1071      3851      4062      4063
 -1      2062    8    0    1
 -2      1002      1071      1070      4063      4064      4059
 -1      2063    8    0    1
 -2       947      1014      1072      3886      4065      4066
 -1      2064    8    0    1
 -2      1024       947      1072      3919      4066      4067
 -1      2065    8    0    1
 -2      1014      1026      1072      3930      4068      4065
 -1      2066    8    0    1
 -2      1026       952      1073      3926      4069      4070
 -1      2067    8    0    1
 -2       952      1005      1073      3856      4071      4069
 -1      2068    8    0    1
 -2      1013      1004      1074      3883      4072      4073
 -1      2069    8    0    1
 -2      1008      1006      1075      3865      4074      4075
 -1      2070    8    0    1
 -2       949       942      1076      3690      4076      4077
 -1      2071    8    0    1
 -2      1017       949      1076      3893      4077      4078
 -1      2072    8    0    1
 -2       942      1011      1076      3875      4079      4076
 -1      2073    8    0    1
 -2       941       981      1021      3908      3911      4080
 -1      2074    8    0    1
 -2      1004      1008      1077      3903      4081      4082
 -1      2075    8    0    1
 -2      1008      1075      1077      4075      4083      4081
 -1      2076    8    0    1
 -2      1009       984      1078      3868      4084      4085
 -1      2077    8    0    1
 -2       984      1055      1078      4015      4086      4084
 -1      2078    8    0    1
 -2       954       953      1079      3704      4087      4088
 -1      2079    8    0    1
 -2       954      1079      1027      4088      4089      3933
 -1      2080    8    0    1
 -2       941      1021      1014      4080      3929      3884
 -1      2081    8    0    1
 -2       953      1010      1080      3872      4090      4091
 -1      2082    8    0    1
 -2       953      1080      1079      4091      4092      4087
 -1      2083    8    0    1
 -2      1022       980       979      3932      3783      4093
 -1      2084    8    0    1
 -2       979       978      1081      3779      4094      4095
 -1      2085    8    0    1
 -2       979      1081      1022      4095      4096      4093
 -1      2086    8    0    1
 -2       983      1052      1082      4007      4097      4098
 -1      2087    8    0    1
 -2       983      1082      1019      4098      4099      3900
 -1      2088    8    0    1
 -2      1015      1013      1083      3889      4100      4101
 -1      2089    8    0    1
 -2      1013      1074      1083      4073      4102      4100
 -1      2090    8    0    1
 -2      1005       944      1084      3857      4103      4104
 -1      2091    8    0    1
 -2       944      1015      1084      3888      4105      4103
 -1      2092    8    0    1
 -2      1018       936      1019      3897      3902      4106
 -1      2093    8    0    1
 -2      1071      1003      1020      4062      3906      4107
 -1      2094    8    0    1
 -2      1072      1026      1073      4068      4070      4108
 -1      2095    8    0    1
 -2      1075      1006      1085      4074      4109      4110
 -1      2096    8    0    1
 -2      1006      1018      1085      3899      4111      4109
 -1      2097    8    0    1
 -2      1074      1004      1077      4072      4082      4112
 -1      2098    8    0    1
 -2      1009      1078      1053      4085      4113      4008
 -1      2099    8    0    1
 -2      1017      1076      1086      4078      4114      4115
 -1      2100    8    0    1
 -2      1023      1017      1087      3918      4116      4117
 -1      2101    8    0    1
 -2      1017      1086      1087      4115      4118      4116
 -1      2102    8    0    1
 -2      1010      1016      1088      3892      4119      4120
 -1      2103    8    0    1
 -2      1010      1088      1080      4120      4121      4090
 -1      2104    8    0    1
 -2      1007      1024      1089      3921      4122      4123
 -1      2105    8    0    1
 -2      1011      1007      1090      3876      4124      4125
 -1      2106    8    0    1
 -2      1076      1011      1090      4079      4125      4126
 -1      2107    8    0    1
 -2      1007      1089      1090      4123      4127      4124
 -1      2108    8    0    1
 -2      1081       978      1050      4094      4002      4128
 -1      2109    8    0    1
 -2      1022      1081      1091      4096      4129      4130
 -1      2110    8    0    1
 -2      1025      1022      1091      3925      4130      4131
 -1      2111    8    0    1
 -2      1081      1050      1091      4128      4132      4129
 -1      2112    8    0    1
 -2      1028      1027      1092      3937      4133      4134
 -1      2113    8    0    1
 -2      1029      1028      1082      3940      4135      4136
 -1      2114    8    0    1
 -2      1030      1029      1052      3943      4137      4138
 -1      2115    8    0    1
 -2      1031      1030      1053      3946      4139      4140
 -1      2116    8    0    1
 -2      1032      1031      1078      3949      4141      4142
 -1      2117    8    0    1
 -2      1033      1032      1055      3952      4143      4144
 -1      2118    8    0    1
 -2      1034      1033      1054      3955      4145      4146
 -1      2119    8    0    1
 -2      1035      1034      1051      3958      4147      4148
 -1      2120    8    0    1
 -2      1036      1035      1056      3961      4149      4150
 -1      2121    8    0    1
 -2      1037      1036      1057      3964      4151      4152
 -1      2122    8    0    1
 -2      1038      1037      1058      3967      4153      4154
 -1      2123    8    0    1
 -2      1039      1038      1059      3970      4155      4156
 -1      2124    8    0    1
 -2      1040      1039      1060      3973      4157      4158
 -1      2125    8    0    1
 -2      1041      1040      1061      3976      4159      4160
 -1      2126    8    0    1
 -2      1042      1041      1062      3979      4161      4162
 -1      2127    8    0    1
 -2      1043      1042      1063      3982      4163      4164
 -1      2128    8    0    1
 -2      1044      1043      1064      3985      4165      4166
 -1      2129    8    0    1
 -2      1045      1044      1065      3988      4167      4168
 -1      2130    8    0    1
 -2      1046      1045      1066      3991      4169      4170
 -1      2131    8    0    1
 -2      1047      1046      1067      3994      4171      4172
 -1      2132    8    0    1
 -2      1048      1047      1068      3997      4173      4174
 -1      2133    8    0    1
 -2      1049      1048      1069      4000      4175      4176
 -1      2134    8    0    1
 -2      1050      1049      1070      4003      4177      4178
 -1      2135    8    0    1
 -2      1056      1057      1036      4022      4151      4150
 -1      2136    8    0    1
 -2      1052      1053      1030      4010      4139      4138
 -1      2137    8    0    1
 -2      1054      1033      1055      4145      4144      4016
 -1      2138    8    0    1
 -2      1073      1005      1084      4071      4104      4179
 -1      2139    8    0    1
 -2      1059      1038      1058      4155      4154      4028
 -1      2140    8    0    1
 -2      1054      1051      1034      4013      4147      4146
 -1      2141    8    0    1
 -2      1063      1042      1062      4163      4162      4040
 -1      2142    8    0    1
 -2      1055      1032      1078      4143      4142      4086
 -1      2143    8    0    1
 -2      1062      1041      1061      4161      4160      4037
 -1      2144    8    0    1
 -2      1057      1058      1037      4025      4153      4152
 -1      2145    8    0    1
 -2      1059      1060      1039      4031      4157      4156
 -1      2146    8    0    1
 -2      1060      1061      1040      4034      4159      4158
 -1      2147    8    0    1
 -2      1063      1064      1043      4043      4165      4164
 -1      2148    8    0    1
 -2      1064      1065      1044      4046      4167      4166
 -1      2149    8    0    1
 -2      1065      1066      1045      4049      4169      4168
 -1      2150    8    0    1
 -2      1066      1067      1046      4052      4171      4170
 -1      2151    8    0    1
 -2      1067      1068      1047      4055      4173      4172
 -1      2152    8    0    1
 -2      1068      1069      1048      4058      4175      4174
 -1      2153    8    0    1
 -2      1069      1070      1049      4061      4177      4176
 -1      2154    8    0    1
 -2      1024      1072      1093      4067      4180      4181
 -1      2155    8    0    1
 -2      1024      1093      1089      4181      4182      4122
 -1      2156    8    0    1
 -2      1078      1031      1053      4141      4140      4113
 -1      2157    8    0    1
 -2      1052      1029      1082      4137      4136      4097
 -1      2158    8    0    1
 -2      1018      1019      1094      4106      4183      4184
 -1      2159    8    0    1
 -2      1085      1018      1094      4111      4184      4185
 -1      2160    8    0    1
 -2      1019      1082      1094      4099      4186      4183
 -1      2161    8    0    1
 -2      1086      1076      1090      4114      4126      4187
 -1      2162    8    0    1
 -2      1071      1020      1025      4107      3924      4188
 -1      2163    8    0    1
 -2      1016      1023      1095      3917      4189      4190
 -1      2164    8    0    1
 -2      1088      1016      1095      4119      4190      4191
 -1      2165    8    0    1
 -2      1023      1087      1095      4117      4192      4189
 -1      2166    8    0    1
 -2      1072      1073      1093      4108      4193      4180
 -1      2167    8    0    1
 -2      1077      1075      1080      4083      4194      4195
 -1      2168    8    0    1
 -2      1071      1025      1091      4188      4131      4196
 -1      2169    8    0    1
 -2      1051      1056      1035      4019      4149      4148
 -1      2170    8    0    1
 -2      1074      1077      1088      4112      4197      4198
 -1      2171    8    0    1
 -2      1027      1079      1085      4089      4199      4200
 -1      2172    8    0    1
 -2      1079      1080      1075      4092      4194      4201
 -1      2173    8    0    1
 -2      1077      1080      1088      4195      4121      4197
 -1      2174    8    0    1
 -2      1079      1075      1085      4201      4110      4199
 -1      2175    8    0    1
 -2      1091      1050      1071      4132      4202      4196
 -1      2176    8    0    1
 -2      1074      1088      1095      4198      4191      4203
 -1      2177    8    0    1
 -2      1089      1093      1096      4182      4204      4205
 -1      2178    8    0    1
 -2      1050      1070      1071      4178      4064      4202
 -1      2179    8    0    1
 -2      1083      1074      1095      4102      4203      4206
 -1      2180    8    0    1
 -2      1084      1015      1096      4105      4207      4208
 -1      2181    8    0    1
 -2      1015      1083      1096      4101      4209      4207
 -1      2182    8    0    1
 -2      1073      1084      1093      4179      4210      4193
 -1      2183    8    0    1
 -2      1090      1089      1086      4127      4211      4187
 -1      2184    8    0    1
 -2      1086      1089      1096      4211      4205      4212
 -1      2185    8    0    1
 -2      1086      1096      1087      4212      4213      4118
 -1      2186    8    0    1
 -2      1096      1093      1084      4204      4210      4208
 -1      2187    8    0    1
 -2      1095      1087      1083      4192      4214      4206
 -1      2188    8    0    1
 -2      1083      1087      1096      4214      4213      4209
 -1      2189    8    0    1
 -2      1082      1028      1092      4135      4134      4215
 -1      2190    8    0    1
 -2      1082      1092      1094      4215      4216      4186
 -1      2191    8    0    1
 -2      1092      1027      1085      4133      4200      4217
 -1      2192    8    0    1
 -2      1092      1085      1094      4217      4185      4216
 -3
    1PSTEP                         1           1           1          
  100CL  101 1.000000000        4217                     0    1           1
 -4  DISP        4    1
 -5  D1          1    2    1    0
 -5  D2          1    2    2    0
 -5  D3          1    2    3    0
 -5  ALL         1    2    0    0    1ALL
 -1         1 6.21729E-05-3.42956E-04-9.89521E-17
 -1         2 4.33876E-03-1.02707E-03-2.81144E-15
 -1         3 1.36998E-02-7.64560E-03-1.48844E-13
 -1         4 1.67341E-02-9.07417E-03-1.42702E-13
 -1         5 0.00000E+00 0.00000E+00 0.00000E+00
 -1         6 0.00000E+00 0.00000E+00 0.00000E+00
 -1         7 0.00000E+00 0.00000E+00 0.00000E+00
 -1         8 0.00000E+00 0.00000E+00 0.00000E+00
 -1         9 0.00000E+00 0.00000E+00 0.00000E+00
 -1        10 0.00000E+00 0.00000E+00 0.00000E+00
 -1        11 0.00000E+00 0.00000E+00 0.00000E+00
 -1        12 0.00000E+00 0.00000E+00 0.00000E+00
 -1        13 0.00000E+00 0.00000E+00 0.00000E+00
 -1        14 0.00000E+00 0.00000E+00 0.00000E+00
 -1        15 0.00000E+00 0.00000E+00 0.00000E+00
 -1        16 0.00000E+00 0.00000E+00 0.00000E+00
 -1        17 0.00000E+00 0.00000E+00 0.00000E+00
 -1        18 0.00000E+00 0.00000E+00 0.00000E+00
 -1        19 0.00000E+00 0.00000E+00 0.00000E+00
 -1        20 0.00000E+00 0.00000E+00 0.00000E+00
 -1        21 0.00000E+00 0.00000E+00 0.00000E+00
 -1        22 0.00000E+00 0.00000E+00 0.00000E+00
 -1        23 0.00000E+00 0.00000E+00 0.00000E+00
 -1        24 0.00000E+00 0.00000E+00 0.00000E+00
 -1        25 8.29612E-04-4.01089E-04 7.37393E-17
 -1        26 1.46572E-03-8.02255E-04 4.84842E-17
 -1        27 1.98244E-03-1.30679E-03-6.86571E-17
 -1        28 2.31330E-03-1.73987E-03-2.70210E-16
 -1        29 2.55740E-03-2.01309E-03-6.16437E-16
 -1        30 2.79503E-03-2.01970E-03-1.11005E-15
 -1        31 3.09209E-03-1.87426E-03-1.70147E-15
 -1        32 3.51309E-03-1.69528E-03-2.50184E-15
 -1        33 4.01824E-03-1.59395E-03-3.53171E-15
 -1        34 4.51764E-03-1.61394E-03-4.75170E-15
 -1        35 4.95841E-03-1.72246E-03-6.09927E-15
 -1        36 5.34663E-03-1.87852E-03-7.57187E-15
 -1        37 5.71357E-03-2.06576E-03-9.25290E-15
 -1        38 6.03774E-03-2.25277E-03-1.09717E-14
 -1        39 6.34656E-03-2.44209E-03-1.28163E-14
 -1        40 6.64599E-03-2.63124E-03-1.47901E-14
 -1        41 6.93973E-03-2.81935E-03-1.68870E-14
 -1        42 7.23008E-03-3.00625E-03-1.91094E-14
 -1        43 7.53277E-03-3.20131E-03-2.15765E-14
 -1        44 7.81985E-03-3.38617E-03-2.40426E-14
 -1        45 8.10625E-03-3.57032E-03-2.66131E-14
 -1        46 8.39226E-03-3.75394E-03-2.92853E-14
 -1        47 8.67805E-03-3.93716E-03-3.20552E-14
 -1        48 8.96373E-03-4.12007E-03-3.49371E-14
 -1        49 9.24934E-03-4.30276E-03-3.79431E-14
 -1        50 9.54921E-03-4.49440E-03-4.12222E-14
 -1        51 9.83480E-03-4.67678E-03-4.44622E-14
 -1        52 1.01204E-02-4.85908E-03-4.77934E-14
 -1        53 1.04060E-02-5.04131E-03-5.12138E-14
 -1        54 1.06916E-02-5.22349E-03-5.47203E-14
 -1        55 1.09773E-02-5.40563E-03-5.83063E-14
 -1        56 1.12772E-02-5.59684E-03-6.21524E-14
 -1        57 1.15628E-02-5.77894E-03-6.59081E-14
 -1        58 1.18485E-02-5.96102E-03-6.97441E-14
 -1        59 1.21342E-02-6.14308E-03-7.36442E-14
 -1        60 1.24199E-02-6.32515E-03-7.76046E-14
 -1        61 1.27056E-02-6.50721E-03-8.16438E-14
 -1        62 1.29913E-02-6.68926E-03-8.57527E-14
 -1        63 1.32913E-02-6.88042E-03-9.01156E-14
 -1        64 1.35770E-02-7.06247E-03-9.43201E-14
 -1        65 1.38627E-02-7.24452E-03-9.85767E-14
 -1        66 1.41484E-02-7.42658E-03-1.02867E-13
 -1        67 1.44341E-02-7.60863E-03-1.07160E-13
 -1        68 1.47198E-02-7.79068E-03-1.11483E-13
 -1        69 1.50198E-02-7.98184E-03-1.16073E-13
 -1        70 1.53055E-02-8.16389E-03-1.20481E-13
 -1        71 1.55912E-02-8.34595E-03-1.24923E-13
 -1        72 1.58769E-02-8.52800E-03-1.29390E-13
 -1        73 1.61627E-02-8.71006E-03-1.33853E-13
 -1        74 1.64484E-02-8.89212E-03-1.38286E-13
 -1        75 3.54241E-04 2.47585E-04 2.07557E-17
 -1        76 5.78166E-04 3.67298E-04-1.71423E-16
 -1        77 7.78975E-04 4.15360E-04-5.62521E-16
 -1        78 9.73810E-04 4.07032E-04-1.14634E-15
 -1        79 1.17171E-03 3.51448E-04-1.91343E-15
 -1        80 1.37821E-03 2.56790E-04-2.85521E-15
 -1        81 1.59656E-03 1.31064E-04-3.96431E-15
 -1        82 1.82813E-03-1.80125E-05-5.23132E-15
 -1        83 2.07270E-03-1.83436E-04-6.65105E-15
 -1        84 2.32890E-03-3.59341E-04-8.22218E-15
 -1        85 2.59469E-03-5.41228E-04-9.93732E-15
 -1        86 2.86783E-03-7.25960E-04-1.17905E-14
 -1        87 3.14624E-03-9.11563E-04-1.37761E-14
 -1        88 3.42819E-03-1.09695E-03-1.58901E-14
 -1        89 3.71232E-03-1.28165E-03-1.81286E-14
 -1        90 3.99771E-03-1.46554E-03-2.04894E-14
 -1        91 4.28372E-03-1.64870E-03-2.29713E-14
 -1        92 4.56996E-03-1.83128E-03-2.55770E-14
 -1        93 4.85622E-03-2.01346E-03-2.83033E-14
 -1        94 5.14241E-03-2.19538E-03-3.11338E-14
 -1        95 5.42847E-03-2.37717E-03-3.40653E-14
 -1        96 5.71442E-03-2.55889E-03-3.70910E-14
 -1        97 6.00027E-03-2.74060E-03-4.02105E-14
 -1        98 6.28605E-03-2.92234E-03-4.34304E-14
 -1        99 6.57177E-03-3.10412E-03-4.67480E-14
 -1       100 6.85745E-03-3.28595E-03-5.01596E-14
 -1       101 7.14311E-03-3.46783E-03-5.36647E-14
 -1       102 7.42877E-03-3.64975E-03-5.72493E-14
 -1       103 7.71442E-03-3.83170E-03-6.09104E-14
 -1       104 8.00008E-03-4.01368E-03-6.46528E-14
 -1       105 8.28574E-03-4.19568E-03-6.84832E-14
 -1       106 8.57141E-03-4.37770E-03-7.23877E-14
 -1       107 8.85709E-03-4.55973E-03-7.63505E-14
 -1       108 9.14277E-03-4.74178E-03-8.03838E-14
 -1       109 9.42846E-03-4.92383E-03-8.44824E-14
 -1       110 9.71415E-03-5.10588E-03-8.86353E-14
 -1       111 9.99985E-03-5.28794E-03-9.28344E-14
 -1       112 1.02856E-02-5.47000E-03-9.70624E-14
 -1       113 1.05713E-02-5.65206E-03-1.01314E-13
 -1       114 1.08570E-02-5.83412E-03-1.05591E-13
 -1       115 1.11427E-02-6.01618E-03-1.09896E-13
 -1       116 1.14284E-02-6.19824E-03-1.14213E-13
 -1       117 1.17141E-02-6.38029E-03-1.18530E-13
 -1       118 1.19998E-02-6.56235E-03-1.22854E-13
 -1       119 1.22855E-02-6.74441E-03-1.27180E-13
 -1       120 1.25712E-02-6.92647E-03-1.31517E-13
 -1       121 1.28570E-02-7.10853E-03-1.35875E-13
 -1       122 1.31427E-02-7.29058E-03-1.40262E-13
 -1       123 1.34284E-02-7.47264E-03-1.44668E-13
 -1       124 1.38788E-02-7.72988E-03-1.48500E-13
 -1       125 1.40579E-02-7.81417E-03-1.48163E-13
 -1       126 1.42369E-02-7.89845E-03-1.47821E-13
 -1       127 1.44159E-02-7.98274E-03-1.47466E-13
 -1       128 1.45949E-02-8.06702E-03-1.47099E-13
 -1       129 1.47709E-02-8.14988E-03-1.46725E-13
 -1       130 1.49499E-02-8.23417E-03-1.46325E-13
 -1       131 1.51290E-02-8.31845E-03-1.45934E-13
 -1       132 1.53080E-02-8.40274E-03-1.45567E-13
 -1       133 1.54870E-02-8.48703E-03-1.45185E-13
 -1       134 1.56660E-02-8.57131E-03-1.44808E-13
 -1       135 1.58420E-02-8.65417E-03-1.44446E-13
 -1       136 1.60210E-02-8.73846E-03-1.44080E-13
 -1       137 1.62001E-02-8.82274E-03-1.43726E-13
 -1       138 1.63791E-02-8.90703E-03-1.43380E-13
 -1       139 1.65581E-02-8.99131E-03-1.43027E-13
 -1       140 4.21115E-03-8.72446E-04-2.81816E-15
 -1       141 3.97520E-03-7.10452E-04-2.71978E-15
 -1       142 3.66754E-03-5.63410E-04-2.53565E-15
 -1       143 3.28161E-03-4.26420E-04-2.26825E-15
 -1       144 2.83511E-03-3.06688E-04-1.93847E-15
 -1       145 2.37530E-03-2.16653E-04-1.59622E-15
 -1       146 1.89422E-03-1.51339E-04-1.24338E-15
 -1       147 1.43483E-03-1.13622E-04-9.18319E-16
 -1       148 1.01149E-03-9.85132E-05-6.34550E-16
 -1       149 6.50573E-04-9.90672E-05-4.04326E-16
 -1       150 3.84607E-04-1.05232E-04-2.43153E-16
 -1       151 1.98596E-04-1.10525E-04-1.34790E-16
 -1       152 8.02903E-05-1.12530E-04-6.95397E-17
 -1       153 2.13206E-05-1.17749E-04-4.19046E-17
 -1       154-6.92826E-06-1.41497E-04-3.84451E-17
 -1       155-2.38051E-06-2.08077E-04-5.70663E-17
 -1       156 2.04496E-04-5.34947E-04-1.60054E-16
 -1       157 4.82779E-04-8.14596E-04-2.58369E-16
 -1       158 8.56225E-04-1.10951E-03-3.83509E-16
 -1       159 1.33774E-03-1.40204E-03-5.51669E-16
 -1       160 1.92170E-03-1.64680E-03-7.82591E-16
 -1       161 2.46348E-03-1.76595E-03-1.03287E-15
 -1       162 3.00694E-03-1.78397E-03-1.33475E-15
 -1       163 3.50205E-03-1.71189E-03-1.67696E-15
 -1       164 3.87534E-03-1.59572E-03-1.99855E-15
 -1       165 4.15144E-03-1.45474E-03-2.30360E-15
 -1       166 4.30975E-03-1.31273E-03-2.54318E-15
 -1       167 4.36963E-03-1.16945E-03-2.71799E-15
 -1       168 2.85447E-04-7.76026E-05 1.13367E-17
 -1       169 1.61918E-04-2.93748E-05-4.96022E-18
 -1       170 6.23853E-05-2.45124E-05-1.14045E-17
 -1       171 6.83076E-06-4.99571E-05-1.08132E-17
 -1       172 4.37963E-06-7.86432E-05-8.93874E-18
 -1       173 3.98737E-05-1.05359E-04-1.06049E-17
 -1       174 9.41923E-05-1.17493E-04-1.58497E-17
 -1       175 1.68277E-04-1.04600E-04-2.47130E-17
 -1       176 2.21260E-04-6.01117E-05-3.48435E-17
 -1       177 2.35893E-04-1.29661E-05-4.44591E-17
 -1       178 2.29445E-04 2.11131E-05-5.24957E-17
 -1       179 2.16097E-04 4.20731E-05-5.81471E-17
 -1       180 2.01849E-04 5.59033E-05-6.12981E-17
 -1       181 1.88686E-04 6.69333E-05-6.22197E-17
 -1       182 1.77126E-04 7.81648E-05-5.91907E-17
 -1       183 1.68584E-04 9.13762E-05-5.07034E-17
 -1       184 1.67101E-04 1.10284E-04-3.18688E-17
 -1       185 2.32007E-04 1.71115E-04-2.17111E-17
 -1       186 8.32514E-04-4.21846E-04 6.11897E-18
 -1       187 1.33135E-03-8.80385E-04-9.53759E-17
 -1       188 1.76059E-03-1.37053E-03-2.73890E-16
 -1       189 2.19848E-03-1.80634E-03-5.76626E-16
 -1       190 2.61253E-03-1.96258E-03-1.01014E-15
 -1       191 2.99448E-03-1.86688E-03-1.53990E-15
 -1       192 3.41876E-03-1.66107E-03-2.27860E-15
 -1       193 3.87233E-03-1.50375E-03-3.25850E-15
 -1       194 4.31217E-03-1.48098E-03-4.43341E-15
 -1       195 4.71245E-03-1.56839E-03-5.74156E-15
 -1       196 5.07900E-03-1.71711E-03-7.17348E-15
 -1       197 5.43615E-03-1.90366E-03-8.81078E-15
 -1       198 5.75742E-03-2.09244E-03-1.04957E-14
 -1       199 6.06615E-03-2.28403E-03-1.22987E-14
 -1       200 6.36654E-03-2.47523E-03-1.42256E-14
 -1       201 6.66150E-03-2.66498E-03-1.62774E-14
 -1       202 6.95298E-03-2.85311E-03-1.84505E-14
 -1       203 7.25666E-03-3.04911E-03-2.08673E-14
 -1       204 7.54446E-03-3.23459E-03-2.32873E-14
 -1       205 7.83142E-03-3.41919E-03-2.58175E-14
 -1       206 8.11784E-03-3.60313E-03-2.84514E-14
 -1       207 8.40393E-03-3.78656E-03-3.11894E-14
 -1       208 8.68983E-03-3.96963E-03-3.40316E-14
 -1       209 8.97560E-03-4.15243E-03-3.69905E-14
 -1       210 9.27560E-03-4.34415E-03-4.02185E-14
 -1       211 9.56127E-03-4.52659E-03-4.34090E-14
 -1       212 9.84692E-03-4.70892E-03-4.66965E-14
 -1       213 1.01326E-02-4.89118E-03-5.00748E-14
 -1       214 1.04182E-02-5.07338E-03-5.35431E-14
 -1       215 1.07039E-02-5.25553E-03-5.70932E-14
 -1       216 1.10038E-02-5.44676E-03-6.09088E-14
 -1       217 1.12895E-02-5.62885E-03-6.46220E-14
 -1       218 1.15752E-02-5.81094E-03-6.84130E-14
 -1       219 1.18609E-02-5.99301E-03-7.22773E-14
 -1       220 1.21466E-02-6.17507E-03-7.62048E-14
 -1       221 1.24322E-02-6.35713E-03-8.02049E-14
 -1       222 1.27179E-02-6.53919E-03-8.42694E-14
 -1       223 1.30179E-02-6.73034E-03-8.86104E-14
 -1       224 1.33036E-02-6.91239E-03-9.27950E-14
 -1       225 1.35893E-02-7.09445E-03-9.70220E-14
 -1       226 1.38751E-02-7.27650E-03-1.01294E-13
 -1       227 1.41608E-02-7.45855E-03-1.05585E-13
 -1       228 1.44465E-02-7.64061E-03-1.09888E-13
 -1       229 1.47465E-02-7.83176E-03-1.14437E-13
 -1       230 1.50322E-02-8.01382E-03-1.18811E-13
 -1       231 1.53179E-02-8.19587E-03-1.23219E-13
 -1       232 1.56036E-02-8.37793E-03-1.27656E-13
 -1       233 1.58893E-02-8.55998E-03-1.32102E-13
 -1       234 1.61750E-02-8.74204E-03-1.36545E-13
 -1       235 1.63666E-02-8.86668E-03-1.39787E-13
 -1       236 4.90994E-04 3.05293E-04-2.09939E-16
 -1       237 7.28333E-04 3.67437E-04-5.84592E-16
 -1       238 9.54770E-04 3.69318E-04-1.14444E-15
 -1       239 1.17911E-03 3.21037E-04-1.88425E-15
 -1       240 1.40688E-03 2.31276E-04-2.79668E-15
 -1       241 1.64159E-03 1.08465E-04-3.87523E-15
 -1       242 1.88505E-03-3.92549E-05-5.11145E-15
 -1       243 2.13768E-03-2.04429E-04-6.49969E-15
 -1       244 2.39889E-03-3.80766E-04-8.03689E-15
 -1       245 2.66745E-03-5.63421E-04-9.71850E-15
 -1       246 2.94185E-03-7.49002E-04-1.15382E-14
 -1       247 3.22061E-03-9.35384E-04-1.34915E-14
 -1       248 3.50241E-03-1.12141E-03-1.55729E-14
 -1       249 3.78621E-03-1.30659E-03-1.77796E-14
 -1       250 4.07121E-03-1.49080E-03-2.01076E-14
 -1       251 4.35688E-03-1.67417E-03-2.25566E-14
 -1       252 4.64287E-03-1.85688E-03-2.51249E-14
 -1       253 4.92896E-03-2.03912E-03-2.78103E-14
 -1       254 5.21504E-03-2.22106E-03-3.06075E-14
 -1       255 5.50106E-03-2.40284E-03-3.35086E-14
 -1       256 5.78700E-03-2.58455E-03-3.65072E-14
 -1       257 6.07286E-03-2.76624E-03-3.95994E-14
 -1       258 6.35866E-03-2.94797E-03-4.27909E-14
 -1       259 6.64441E-03-3.12973E-03-4.60820E-14
 -1       260 6.93012E-03-3.31155E-03-4.94649E-14
 -1       261 7.21581E-03-3.49341E-03-5.29359E-14
 -1       262 7.50149E-03-3.67532E-03-5.64938E-14
 -1       263 7.78716E-03-3.85726E-03-6.01327E-14
 -1       264 8.07283E-03-4.03924E-03-6.38507E-14
 -1       265 8.35851E-03-4.22124E-03-6.76525E-14
 -1       266 8.64419E-03-4.40326E-03-7.15271E-14
 -1       267 8.92987E-03-4.58529E-03-7.54724E-14
 -1       268 9.21556E-03-4.76733E-03-7.94817E-14
 -1       269 9.50125E-03-4.94938E-03-8.35481E-14
 -1       270 9.78695E-03-5.13144E-03-8.76705E-14
 -1       271 1.00726E-02-5.31350E-03-9.18455E-14
 -1       272 1.03584E-02-5.49555E-03-9.60529E-14
 -1       273 1.06441E-02-5.67761E-03-1.00291E-13
 -1       274 1.09298E-02-5.85967E-03-1.04555E-13
 -1       275 1.12155E-02-6.04173E-03-1.08843E-13
 -1       276 1.15012E-02-6.22379E-03-1.13153E-13
 -1       277 1.17869E-02-6.40585E-03-1.17473E-13
 -1       278 1.20726E-02-6.58791E-03-1.21797E-13
 -1       279 1.23583E-02-6.76997E-03-1.26130E-13
 -1       280 1.26440E-02-6.95203E-03-1.30474E-13
 -1       281 1.29298E-02-7.13409E-03-1.34835E-13
 -1       282 1.32155E-02-7.31614E-03-1.39215E-13
 -1       283 1.35012E-02-7.49820E-03-1.43615E-13
 -1       284 1.37209E-02-7.61436E-03-1.44510E-13
 -1       285 1.38999E-02-7.69865E-03-1.44163E-13
 -1       286 1.40790E-02-7.78293E-03-1.43809E-13
 -1       287 1.42580E-02-7.86722E-03-1.43446E-13
 -1       288 1.44340E-02-7.95008E-03-1.43077E-13
 -1       289 1.46130E-02-8.03436E-03-1.42693E-13
 -1       290 1.47920E-02-8.11865E-03-1.42307E-13
 -1       291 1.49710E-02-8.20294E-03-1.41922E-13
 -1       292 1.51501E-02-8.28722E-03-1.41546E-13
 -1       293 1.53291E-02-8.37151E-03-1.41169E-13
 -1       294 1.55051E-02-8.45437E-03-1.40795E-13
 -1       295 1.56841E-02-8.53865E-03-1.40416E-13
 -1       296 1.58631E-02-8.62294E-03-1.40047E-13
 -1       297 1.60421E-02-8.70723E-03-1.39692E-13
 -1       298 1.62044E-02-8.78695E-03-1.39736E-13
 -1       299 4.29917E-03-1.04443E-03-3.33955E-15
 -1       300 4.06465E-03-9.52739E-04-3.31589E-15
 -1       301 3.72284E-03-8.07718E-04-3.09091E-15
 -1       302 3.31581E-03-6.35148E-04-2.78950E-15
 -1       303 2.85321E-03-4.48124E-04-2.43878E-15
 -1       304 2.43798E-03-2.60262E-04-1.96647E-15
 -1       305 2.02212E-03-1.23807E-04-1.53950E-15
 -1       306 1.63181E-03-4.93963E-05-1.12731E-15
 -1       307 1.26479E-03-4.79528E-05-7.66917E-16
 -1       308 9.13029E-04-8.38895E-05-4.77273E-16
 -1       309 5.91218E-04-1.31273E-04-2.82374E-16
 -1       310 3.40063E-04-1.55886E-04-1.53194E-16
 -1       311 1.61209E-04-1.57426E-04-7.25789E-17
 -1       312 5.47571E-05-1.40077E-04-3.86450E-17
 -1       313 2.16010E-06-1.26990E-04-2.61458E-17
 -1       314-1.16192E-05-1.34248E-04-3.33055E-17
 -1       315 4.40308E-05-1.71533E-04-5.41663E-17
 -1       316 2.04835E-04-2.90480E-04-9.38580E-17
 -1       317 5.05894E-04-5.02760E-04-1.50850E-16
 -1       318 9.04937E-04-8.44545E-04-2.46710E-16
 -1       319 1.35395E-03-1.22998E-03-3.80582E-16
 -1       320 1.83935E-03-1.60639E-03-5.71198E-16
 -1       321 2.26095E-03-1.82493E-03-8.50638E-16
 -1       322 2.67794E-03-1.86831E-03-1.18045E-15
 -1       323 3.10989E-03-1.75611E-03-1.59756E-15
 -1       324 3.54629E-03-1.57906E-03-2.01760E-15
 -1       325 3.91036E-03-1.40176E-03-2.47402E-15
 -1       326 4.19717E-03-1.27847E-03-2.80315E-15
 -1       327 4.35652E-03-1.18651E-03-3.08531E-15
 -1       328 4.39185E-03-1.11631E-03-3.26826E-15
 -1       329 2.20783E-04-1.53614E-04-4.83469E-17
 -1       330 5.21565E-04-2.56392E-04-3.47487E-17
 -1       331 4.44058E-04-1.17667E-04-1.28498E-16
 -1       332 5.07805E-04-4.20937E-05-1.61309E-16
 -1       333 5.02357E-04 1.92507E-05-1.87255E-16
 -1       334 4.73280E-04 5.97465E-05-2.05341E-16
 -1       335 4.40797E-04 8.77542E-05-2.16353E-16
 -1       336 4.11123E-04 1.10383E-04-2.21001E-16
 -1       337 3.85339E-04 1.33023E-04-2.17884E-16
 -1       338 3.65382E-04 1.58784E-04-2.04603E-16
 -1       339 3.54935E-04 1.92780E-04-1.75495E-16
 -1       340 4.15997E-04 2.45795E-04-2.00083E-16
 -1       341 6.70222E-04 3.20566E-04-5.51642E-16
 -1       342 3.33178E-03-1.65138E-03-2.02673E-15
 -1       343 3.78186E-03-1.44646E-03-2.91547E-15
 -1       344 4.18904E-03-1.38041E-03-4.04416E-15
 -1       345 4.54168E-03-1.42768E-03-5.30684E-15
 -1       346 4.86276E-03-1.56174E-03-6.69389E-15
 -1       347 5.18737E-03-1.74109E-03-8.28249E-15
 -1       348 5.48996E-03-1.92749E-03-9.91979E-15
 -1       349 5.78808E-03-2.11892E-03-1.16761E-14
 -1       350 6.08278E-03-2.31088E-03-1.35544E-14
 -1       351 6.37487E-03-2.50163E-03-1.55547E-14
 -1       352 6.66501E-03-2.69072E-03-1.76778E-14
 -1       353 6.96815E-03-2.88756E-03-2.00364E-14
 -1       354 7.25585E-03-3.07367E-03-2.24048E-14
 -1       355 7.54286E-03-3.25874E-03-2.48876E-14
 -1       356 7.82942E-03-3.44302E-03-2.74796E-14
 -1       357 8.11565E-03-3.62671E-03-3.01732E-14
 -1       358 8.40168E-03-3.80997E-03-3.29737E-14
 -1       359 8.68758E-03-3.99290E-03-3.58834E-14
 -1       360 8.98767E-03-4.18473E-03-3.90595E-14
 -1       361 9.27342E-03-4.36724E-03-4.21959E-14
 -1       362 9.55913E-03-4.54963E-03-4.54367E-14
 -1       363 9.84483E-03-4.73192E-03-4.87705E-14
 -1       364 1.01305E-02-4.91414E-03-5.21952E-14
 -1       365 1.04162E-02-5.09631E-03-5.57051E-14
 -1       366 1.07162E-02-5.28755E-03-5.94763E-14
 -1       367 1.10019E-02-5.46966E-03-6.31506E-14
 -1       368 1.12875E-02-5.65175E-03-6.68967E-14
 -1       369 1.15732E-02-5.83382E-03-7.07206E-14
 -1       370 1.18589E-02-6.01589E-03-7.46135E-14
 -1       371 1.21446E-02-6.19795E-03-7.85706E-14
 -1       372 1.24303E-02-6.38001E-03-8.26006E-14
 -1       373 1.27303E-02-6.57116E-03-8.69000E-14
 -1       374 1.30160E-02-6.75322E-03-9.10565E-14
 -1       375 1.33017E-02-6.93527E-03-9.52644E-14
 -1       376 1.35874E-02-7.11732E-03-9.95112E-14
 -1       377 1.38732E-02-7.29937E-03-1.03791E-13
 -1       378 1.41589E-02-7.48142E-03-1.08082E-13
 -1       379 1.44589E-02-7.67258E-03-1.12606E-13
 -1       380 1.47446E-02-7.85463E-03-1.16942E-13
 -1       381 1.50303E-02-8.03669E-03-1.21320E-13
 -1       382 1.53160E-02-8.21874E-03-1.25726E-13
 -1       383 1.56017E-02-8.40080E-03-1.30147E-13
 -1       384 1.58874E-02-8.58285E-03-1.34587E-13
 -1       385 1.10481E-03 2.92028E-04-1.60902E-15
 -1       386 1.35537E-03 2.20247E-04-2.44276E-15
 -1       387 1.60865E-03 1.10652E-04-3.44166E-15
 -1       388 1.86668E-03-2.81590E-05-4.59984E-15
 -1       389 2.13034E-03-1.87957E-04-5.91059E-15
 -1       390 2.39959E-03-3.61550E-04-7.36873E-15
 -1       391 2.67376E-03-5.43219E-04-8.97119E-15
 -1       392 2.95189E-03-7.28852E-04-1.07133E-14
 -1       393 3.23296E-03-9.15797E-04-1.25900E-14
 -1       394 3.51610E-03-1.10255E-03-1.45985E-14
 -1       395 3.80058E-03-1.28842E-03-1.67310E-14
 -1       396 4.08588E-03-1.47321E-03-1.89857E-14
 -1       397 4.37164E-03-1.65701E-03-2.13606E-14
 -1       398 4.65761E-03-1.84000E-03-2.38537E-14
 -1       399 4.94366E-03-2.02242E-03-2.64627E-14
 -1       400 5.22969E-03-2.20446E-03-2.91869E-14
 -1       401 5.51568E-03-2.38627E-03-3.20205E-14
 -1       402 5.80160E-03-2.56797E-03-3.49561E-14
 -1       403 6.08747E-03-2.74965E-03-3.79892E-14
 -1       404 6.37328E-03-2.93134E-03-4.11171E-14
 -1       405 6.65905E-03-3.11307E-03-4.43460E-14
 -1       406 6.94479E-03-3.29486E-03-4.76690E-14
 -1       407 7.23050E-03-3.47669E-03-5.10826E-14
 -1       408 7.51620E-03-3.65858E-03-5.45808E-14
 -1       409 7.80190E-03-3.84050E-03-5.81655E-14
 -1       410 8.08758E-03-4.02247E-03-6.18302E-14
 -1       411 8.37327E-03-4.20446E-03-6.55780E-14
 -1       412 8.65896E-03-4.38647E-03-6.94013E-14
 -1       413 8.94465E-03-4.56849E-03-7.32949E-14
 -1       414 9.23035E-03-4.75053E-03-7.72564E-14
 -1       415 9.51605E-03-4.93258E-03-8.12790E-14
 -1       416 9.80175E-03-5.11463E-03-8.53557E-14
 -1       417 1.00875E-02-5.29669E-03-8.94840E-14
 -1       418 1.03732E-02-5.47875E-03-9.36584E-14
 -1       419 1.06589E-02-5.66081E-03-9.78655E-14
 -1       420 1.09446E-02-5.84287E-03-1.02107E-13
 -1       421 1.12303E-02-6.02493E-03-1.06373E-13
 -1       422 1.15160E-02-6.20699E-03-1.10664E-13
 -1       423 1.18017E-02-6.38905E-03-1.14974E-13
 -1       424 1.20874E-02-6.57111E-03-1.19300E-13
 -1       425 1.23731E-02-6.75317E-03-1.23632E-13
 -1       426 1.26588E-02-6.93523E-03-1.27978E-13
 -1       427 1.29446E-02-7.11729E-03-1.32337E-13
 -1       428 1.32303E-02-7.29934E-03-1.36711E-13
 -1       429 1.34756E-02-7.45685E-03-1.40606E-13
 -1       430 1.39211E-02-7.66742E-03-1.39804E-13
 -1       431 1.37420E-02-7.58313E-03-1.40168E-13
 -1       432 1.40970E-02-7.75027E-03-1.39439E-13
 -1       433 1.42761E-02-7.83456E-03-1.39054E-13
 -1       434 1.44551E-02-7.91885E-03-1.38670E-13
 -1       435 1.46341E-02-8.00313E-03-1.38285E-13
 -1       436 1.48131E-02-8.08742E-03-1.37908E-13
 -1       437 1.49922E-02-8.17171E-03-1.37531E-13
 -1       438 1.51681E-02-8.25456E-03-1.37154E-13
 -1       439 1.53472E-02-8.33885E-03-1.36766E-13
 -1       440 1.55262E-02-8.42314E-03-1.36383E-13
 -1       441 1.57052E-02-8.50742E-03-1.36020E-13
 -1       442 8.85657E-04 3.26372E-04-1.01338E-15
 -1       443 3.84940E-03-9.93380E-04-3.78372E-15
 -1       444 3.00295E-03-6.37975E-04-3.08000E-15
 -1       445 4.19970E-03-1.09173E-03-3.91961E-15
 -1       446 2.83798E-04-1.56730E-04-7.86555E-17
 -1       447 4.37845E-03-1.14042E-03-3.96024E-15
 -1       448 2.50319E-03-3.70840E-04-2.45898E-15
 -1       449 2.16412E-03-1.97153E-04-1.97348E-15
 -1       450 1.76490E-03-5.29274E-05-1.43254E-15
 -1       451 1.39682E-03-5.03726E-06-9.42402E-16
 -1       452 1.09155E-03-3.23289E-05-6.03345E-16
 -1       453 7.15841E-04-1.03334E-04-3.01679E-16
 -1       454 4.80160E-04-1.44212E-04-1.67821E-16
 -1       455 8.17924E-04-5.79057E-04-1.28098E-16
 -1       456 1.26862E-03-9.81934E-04-2.20683E-16
 -1       457 4.07774E-03-1.28664E-03-3.09724E-15
 -1       458 4.27832E-03-1.21278E-03-3.40502E-15
 -1       459 4.41027E-03-1.16533E-03-3.78705E-15
 -1       460 3.39374E-03-8.09849E-04-3.39697E-15
 -1       461 7.65616E-04-4.82072E-04-8.73257E-17
 -1       462 1.57963E-02-8.54514E-03-1.35299E-13
 -1       463 3.95764E-04-2.58928E-04-6.85860E-17
 -1       464 3.79865E-03-1.40758E-03-2.70382E-15
 -1       465 1.51604E-03-1.18049E-06-1.23691E-15
 -1       466 7.43233E-04 9.58016E-05-5.11669E-16
 -1       467 6.92007E-04 1.26793E-04-5.25547E-16
 -1       468 6.47763E-04 1.59256E-04-5.26360E-16
 -1       469 6.12405E-04 1.95670E-04-5.11930E-16
 -1       470 5.87360E-04 2.40063E-04-4.77605E-16
 -1       471 6.26625E-04 2.78724E-04-5.19753E-16
 -1       472 4.41991E-03-1.31766E-03-4.73607E-15
 -1       473 4.97274E-03-1.58952E-03-7.72567E-15
 -1       474 5.24014E-03-1.76720E-03-9.31403E-15
 -1       475 5.51570E-03-1.95337E-03-1.10205E-14
 -1       476 5.79648E-03-2.14255E-03-1.28473E-14
 -1       477 6.08023E-03-2.33205E-03-1.47967E-14
 -1       478 6.36550E-03-2.52072E-03-1.68664E-14
 -1       479 6.66577E-03-2.71756E-03-1.91693E-14
 -1       480 6.95198E-03-2.90385E-03-2.14855E-14
 -1       481 7.23822E-03-3.08915E-03-2.39177E-14
 -1       482 7.52438E-03-3.27365E-03-2.64611E-14
 -1       483 7.81045E-03-3.45754E-03-2.91108E-14
 -1       484 8.09643E-03-3.64095E-03-3.18628E-14
 -1       485 8.38233E-03-3.82401E-03-3.47249E-14
 -1       486 8.68246E-03-4.01594E-03-3.78465E-14
 -1       487 8.96825E-03-4.19852E-03-4.09341E-14
 -1       488 9.25401E-03-4.38096E-03-4.41245E-14
 -1       489 9.53974E-03-4.56330E-03-4.74101E-14
 -1       490 9.82546E-03-4.74555E-03-5.07901E-14
 -1       491 1.01112E-02-4.92775E-03-5.42582E-14
 -1       492 1.04112E-02-5.11900E-03-5.79873E-14
 -1       493 1.06969E-02-5.30112E-03-6.16168E-14
 -1       494 1.09826E-02-5.48322E-03-6.53249E-14
 -1       495 1.12683E-02-5.66530E-03-6.91076E-14
 -1       496 1.15540E-02-5.84737E-03-7.29575E-14
 -1       497 1.18397E-02-6.02943E-03-7.68795E-14
 -1       498 1.21254E-02-6.21149E-03-8.08689E-14
 -1       499 1.24254E-02-6.40264E-03-8.51259E-14
 -1       500 1.27111E-02-6.58470E-03-8.92467E-14
 -1       501 1.29968E-02-6.76675E-03-9.34290E-14
 -1       502 1.32825E-02-6.94880E-03-9.76534E-14
 -1       503 1.35682E-02-7.13085E-03-1.01916E-13
 -1       504 1.38539E-02-7.31291E-03-1.06196E-13
 -1       505 1.41539E-02-7.50406E-03-1.10703E-13
 -1       506 1.44396E-02-7.68611E-03-1.15015E-13
 -1       507 1.47254E-02-7.86817E-03-1.19355E-13
 -1       508 1.50111E-02-8.05022E-03-1.23734E-13
 -1       509 1.52968E-02-8.23228E-03-1.28132E-13
 -1       510 1.55466E-02-8.38871E-03-1.31709E-13
 -1       511 1.82509E-03-2.33865E-05-4.09426E-15
 -1       512 1.55173E-03 1.05325E-04-3.01282E-15
 -1       513 1.33638E-02-7.34902E-03-1.35069E-13
 -1       514 1.28125E-03 2.00465E-04-2.09022E-15
 -1       515 2.10208E-03-1.76787E-04-5.32963E-15
 -1       516 2.38261E-03-3.46744E-04-6.71231E-15
 -1       517 2.66599E-03-5.26608E-04-8.23818E-15
 -1       518 2.95132E-03-7.11523E-04-9.90320E-15
 -1       519 3.23777E-03-8.98326E-04-1.17034E-14
 -1       520 3.52471E-03-1.08520E-03-1.36366E-14
 -1       521 3.81175E-03-1.27128E-03-1.56973E-14
 -1       522 4.09867E-03-1.45628E-03-1.78797E-14
 -1       523 4.38540E-03-1.64024E-03-2.01821E-14
 -1       524 4.67191E-03-1.82336E-03-2.26021E-14
 -1       525 4.95822E-03-2.00584E-03-2.51370E-14
 -1       526 5.24437E-03-2.18790E-03-2.77897E-14
 -1       527 5.53040E-03-2.36972E-03-3.05534E-14
 -1       528 5.81632E-03-2.55141E-03-3.34219E-14
 -1       529 6.10218E-03-2.73306E-03-3.63944E-14
 -1       530 6.38798E-03-2.91472E-03-3.94620E-14
 -1       531 6.67374E-03-3.09641E-03-4.26272E-14
 -1       532 6.95948E-03-3.27817E-03-4.58911E-14
 -1       533 7.24521E-03-3.45998E-03-4.92459E-14
 -1       534 7.53092E-03-3.64184E-03-5.26889E-14
 -1       535 7.81662E-03-3.82375E-03-5.62166E-14
 -1       536 8.10233E-03-4.00570E-03-5.98266E-14
 -1       537 8.38803E-03-4.18768E-03-6.35190E-14
 -1       538 8.67373E-03-4.36968E-03-6.72918E-14
 -1       539 8.95943E-03-4.55170E-03-7.11371E-14
 -1       540 9.24513E-03-4.73374E-03-7.50466E-14
 -1       541 9.53083E-03-4.91578E-03-7.90239E-14
 -1       542 9.81654E-03-5.09783E-03-8.30592E-14
 -1       543 1.01022E-02-5.27989E-03-8.71434E-14
 -1       544 1.03880E-02-5.46195E-03-9.12800E-14
 -1       545 1.06737E-02-5.64401E-03-9.54592E-14
 -1       546 1.09594E-02-5.82607E-03-9.96752E-14
 -1       547 1.12451E-02-6.00813E-03-1.03922E-13
 -1       548 1.15308E-02-6.19019E-03-1.08192E-13
 -1       549 1.18165E-02-6.37225E-03-1.12486E-13
 -1       550 1.21022E-02-6.55431E-03-1.16804E-13
 -1       551 1.23879E-02-6.73637E-03-1.21133E-13
 -1       552 1.26737E-02-6.91843E-03-1.25475E-13
 -1       553 1.29594E-02-7.10049E-03-1.29832E-13
 -1       554 1.39391E-02-7.63476E-03-1.35427E-13
 -1       555 1.37631E-02-7.55190E-03-1.35801E-13
 -1       556 1.35634E-02-7.45046E-03-1.35436E-13
 -1       557 4.05031E-03-1.12558E-03-4.51012E-15
 -1       558 1.41181E-02-7.71904E-03-1.35045E-13
 -1       559 1.42972E-02-7.80333E-03-1.34663E-13
 -1       560 1.44762E-02-7.88761E-03-1.34280E-13
 -1       561 1.46552E-02-7.97190E-03-1.33902E-13
 -1       562 1.48312E-02-8.05476E-03-1.33523E-13
 -1       563 1.50102E-02-8.13905E-03-1.33128E-13
 -1       564 1.51892E-02-8.22333E-03-1.32739E-13
 -1       565 1.53683E-02-8.30762E-03-1.32367E-13
 -1       566 3.19014E-03-8.15751E-04-3.88383E-15
 -1       567 4.45187E-03-1.20536E-03-4.59329E-15
 -1       568 4.71593E-03-1.43071E-03-6.25879E-15
 -1       569 4.13197E-03-1.30046E-03-3.60344E-15
 -1       570 7.99314E-04 6.09961E-05-4.84415E-16
 -1       571 8.47269E-04 1.40552E-05-4.41108E-16
 -1       572 4.32257E-03-1.19442E-03-4.76064E-15
 -1       573 2.24130E-03-2.87066E-04-2.44706E-15
 -1       574 1.90498E-03-1.18761E-04-1.87401E-15
 -1       575 1.17006E-03 1.05894E-05-7.35685E-16
 -1       576 8.37961E-04-4.09881E-05-3.84844E-16
 -1       577 4.40582E-03-1.21566E-03-4.22087E-15
 -1       578 2.67656E-03-5.38722E-04-3.16100E-15
 -1       579 4.29149E-03-1.24397E-03-3.90984E-15
 -1       580 3.61675E-03-9.97286E-04-4.29451E-15
 -1       581 8.53347E-04 2.91503E-04-9.59997E-16
 -1       582 1.01229E-03 2.53685E-04-1.33244E-15
 -1       583 9.93203E-04 1.06889E-04-9.51726E-16
 -1       584 8.21742E-04 2.57902E-04-8.96984E-16
 -1       585 5.01865E-03-1.63253E-03-8.74442E-15
 -1       586 8.76988E-04 1.87411E-04-9.51350E-16
 -1       587 4.52802E-03-1.27128E-03-5.17435E-15
 -1       588 5.26557E-03-1.80707E-03-1.04057E-14
 -1       589 5.52749E-03-1.98833E-03-1.21852E-14
 -1       590 5.79905E-03-2.17282E-03-1.40848E-14
 -1       591 6.07659E-03-2.35851E-03-1.61068E-14
 -1       592 6.37186E-03-2.55360E-03-1.83592E-14
 -1       593 6.65520E-03-2.73900E-03-2.06261E-14
 -1       594 6.93972E-03-2.92385E-03-2.30106E-14
 -1       595 7.22487E-03-3.10816E-03-2.55095E-14
 -1       596 7.51036E-03-3.29198E-03-2.81169E-14
 -1       597 7.79602E-03-3.47540E-03-3.08248E-14
 -1       598 8.08176E-03-3.65849E-03-3.36387E-14
 -1       599 8.38181E-03-3.85047E-03-3.67125E-14
 -1       600 8.66758E-03-4.03310E-03-3.97546E-14
 -1       601 8.95333E-03-4.21558E-03-4.29020E-14
 -1       602 9.23908E-03-4.39794E-03-4.61439E-14
 -1       603 9.52482E-03-4.58022E-03-4.94799E-14
 -1       604 9.81055E-03-4.76244E-03-5.29058E-14
 -1       605 1.01106E-02-4.95371E-03-5.65951E-14
 -1       606 1.03963E-02-5.13584E-03-6.01888E-14
 -1       607 1.06820E-02-5.31794E-03-6.38601E-14
 -1       608 1.09677E-02-5.50003E-03-6.76018E-14
 -1       609 1.12534E-02-5.68210E-03-7.14183E-14
 -1       610 1.15391E-02-5.86417E-03-7.53017E-14
 -1       611 1.18249E-02-6.04623E-03-7.92534E-14
 -1       612 1.21249E-02-6.23739E-03-8.34728E-14
 -1       613 1.24106E-02-6.41944E-03-8.75583E-14
 -1       614 1.26963E-02-6.60149E-03-9.17071E-14
 -1       615 1.29820E-02-6.78355E-03-9.59125E-14
 -1       616 1.32677E-02-6.96560E-03-1.00153E-13
 -1       617 1.35534E-02-7.14765E-03-1.04418E-13
 -1       618 1.38534E-02-7.33881E-03-1.08916E-13
 -1       619 1.41391E-02-7.52086E-03-1.13212E-13
 -1       620 1.44248E-02-7.70291E-03-1.17531E-13
 -1       621 1.47106E-02-7.88497E-03-1.21881E-13
 -1       622 1.49963E-02-8.06702E-03-1.26258E-13
 -1       623 1.76673E-03-2.32589E-05-3.59622E-15
 -1       624 2.05741E-03-1.70404E-04-4.75672E-15
 -1       625 1.19456E-03 1.76349E-04-1.74308E-15
 -1       626 1.31591E-02-7.20192E-03-1.30192E-13
 -1       627 2.64574E-03-5.14772E-04-7.51859E-15
 -1       628 2.94088E-03-6.98554E-04-9.10804E-15
 -1       629 3.23520E-03-8.84568E-04-1.08334E-14
 -1       630 3.52810E-03-1.07081E-03-1.26909E-14
 -1       631 3.81942E-03-1.25635E-03-1.46779E-14
 -1       632 4.10926E-03-1.44091E-03-1.67884E-14
 -1       633 4.39786E-03-1.62452E-03-1.90197E-14
 -1       634 4.68551E-03-1.80737E-03-2.13674E-14
 -1       635 4.97247E-03-1.98965E-03-2.38318E-14
 -1       636 5.25896E-03-2.17157E-03-2.64124E-14
 -1       637 5.54514E-03-2.35328E-03-2.91075E-14
 -1       638 5.83112E-03-2.53489E-03-3.19086E-14
 -1       639 6.11697E-03-2.71647E-03-3.48147E-14
 -1       640 6.40276E-03-2.89809E-03-3.78217E-14
 -1       641 6.68850E-03-3.07975E-03-4.09242E-14
 -1       642 6.97423E-03-3.26147E-03-4.41274E-14
 -1       643 7.25994E-03-3.44326E-03-4.74249E-14
 -1       644 7.54565E-03-3.62510E-03-5.08133E-14
 -1       645 7.83136E-03-3.80700E-03-5.42863E-14
 -1       646 8.11707E-03-3.98893E-03-5.78431E-14
 -1       647 8.40277E-03-4.17090E-03-6.14798E-14
 -1       648 8.68848E-03-4.35290E-03-6.51990E-14
 -1       649 8.97419E-03-4.53491E-03-6.89944E-14
 -1       650 9.25990E-03-4.71695E-03-7.28552E-14
 -1       651 9.54561E-03-4.89899E-03-7.67822E-14
 -1       652 9.83132E-03-5.08104E-03-8.07727E-14
 -1       653 1.01170E-02-5.26309E-03-8.48202E-14
 -1       654 1.04027E-02-5.44515E-03-8.89220E-14
 -1       655 1.06885E-02-5.62721E-03-9.30688E-14
 -1       656 1.09742E-02-5.80927E-03-9.72568E-14
 -1       657 1.12599E-02-5.99133E-03-1.01479E-13
 -1       658 1.15456E-02-6.17339E-03-1.05731E-13
 -1       659 1.18313E-02-6.35545E-03-1.10009E-13
 -1       660 1.21170E-02-6.53751E-03-1.14316E-13
 -1       661 1.24027E-02-6.71957E-03-1.18637E-13
 -1       662 1.26885E-02-6.90163E-03-1.22972E-13
 -1       663 1.29238E-02-7.05178E-03-1.26577E-13
 -1       664 1.36037E-02-7.43567E-03-1.31809E-13
 -1       665 1.39602E-02-7.60352E-03-1.31056E-13
 -1       666 1.41392E-02-7.68781E-03-1.30672E-13
 -1       667 1.37820E-02-7.51959E-03-1.31431E-13
 -1       668 2.35080E-03-3.36833E-04-6.06659E-15
 -1       669 1.43183E-02-7.77210E-03-1.30289E-13
 -1       670 1.44943E-02-7.85496E-03-1.29907E-13
 -1       671 1.46733E-02-7.93924E-03-1.29512E-13
 -1       672 1.48523E-02-8.02353E-03-1.29118E-13
 -1       673 4.48163E-03-1.27888E-03-5.58801E-15
 -1       674 4.79382E-03-1.46987E-03-7.20363E-15
 -1       675 1.06684E-03 7.49115E-05-9.22771E-16
 -1       676 1.12832E-03 4.62099E-05-8.40684E-16
 -1       677 2.89932E-03-7.12885E-04-4.12204E-15
 -1       678 2.39870E-03-4.19310E-04-3.13320E-15
 -1       679 3.89313E-03-1.13868E-03-5.13980E-15
 -1       680 1.66165E-03-4.53372E-05-1.65848E-15
 -1       681 2.01795E-03-2.01961E-04-2.36195E-15
 -1       682 1.47930E-03 9.54866E-05-2.59000E-15
 -1       683 3.43110E-03-9.72292E-04-4.79451E-15
 -1       684 4.20315E-03-1.22432E-03-5.40702E-15
 -1       685 9.29743E-04 1.44034E-04-9.61328E-16
 -1       686 1.33587E-02-7.30336E-03-1.30547E-13
 -1       687 1.50313E-02-8.10782E-03-1.28735E-13
 -1       688 1.34766E-03 2.92787E-05-1.26873E-15
 -1       689 1.39813E-02-7.57229E-03-1.26694E-13
 -1       690 5.26248E-03-1.84696E-03-1.15123E-14
 -1       691 5.52199E-03-2.02260E-03-1.33635E-14
 -1       692 5.79128E-03-2.20240E-03-1.53373E-14
 -1       693 6.08079E-03-2.39359E-03-1.75384E-14
 -1       694 6.36056E-03-2.57672E-03-1.97582E-14
 -1       695 6.64276E-03-2.76020E-03-2.20970E-14
 -1       696 6.92645E-03-2.94371E-03-2.45482E-14
 -1       697 7.21103E-03-3.12708E-03-2.71124E-14
 -1       698 7.49613E-03-3.31025E-03-2.97787E-14
 -1       699 7.78153E-03-3.49322E-03-3.25474E-14
 -1       700 8.08138E-03-3.68514E-03-3.55701E-14
 -1       701 8.36704E-03-3.86775E-03-3.85654E-14
 -1       702 8.65274E-03-4.05023E-03-4.16688E-14
 -1       703 8.93847E-03-4.23261E-03-4.48720E-14
 -1       704 9.22420E-03-4.41490E-03-4.81695E-14
 -1       705 9.50994E-03-4.59713E-03-5.15518E-14
 -1       706 9.80996E-03-4.78841E-03-5.51985E-14
 -1       707 1.00957E-02-4.97055E-03-5.87589E-14
 -1       708 1.03814E-02-5.15267E-03-6.23940E-14
 -1       709 1.06671E-02-5.33476E-03-6.61024E-14
 -1       710 1.09529E-02-5.51684E-03-6.98830E-14
 -1       711 1.12386E-02-5.69891E-03-7.37301E-14
 -1       712 1.15243E-02-5.88097E-03-7.76436E-14
 -1       713 1.18243E-02-6.07213E-03-8.18266E-14
 -1       714 1.21100E-02-6.25418E-03-8.58791E-14
 -1       715 1.23957E-02-6.43624E-03-8.99918E-14
 -1       716 1.26815E-02-6.61829E-03-9.41673E-14
 -1       717 1.29672E-02-6.80034E-03-9.83885E-14
 -1       718 1.32529E-02-6.98239E-03-1.02639E-13
 -1       719 1.35529E-02-7.17355E-03-1.07126E-13
 -1       720 1.38386E-02-7.35560E-03-1.11414E-13
 -1       721 1.41243E-02-7.53766E-03-1.15716E-13
 -1       722 1.44100E-02-7.71971E-03-1.20046E-13
 -1       723 1.46958E-02-7.90176E-03-1.24405E-13
 -1       724 1.43363E-02-7.73944E-03-1.25917E-13
 -1       725 2.00132E-03-1.66621E-04-4.19414E-15
 -1       726 3.22679E-03-8.75748E-04-9.97958E-15
 -1       727 2.92271E-03-6.90828E-04-8.32823E-15
 -1       728 3.82427E-03-1.24478E-03-1.36760E-14
 -1       729 4.11803E-03-1.42804E-03-1.57144E-14
 -1       730 4.40923E-03-1.61055E-03-1.78737E-14
 -1       731 4.69852E-03-1.79253E-03-2.01510E-14
 -1       732 4.98645E-03-1.97418E-03-2.25446E-14
 -1       733 5.27346E-03-2.15565E-03-2.50540E-14
 -1       734 5.55990E-03-2.33706E-03-2.76781E-14
 -1       735 5.84598E-03-2.51847E-03-3.04135E-14
 -1       736 6.13185E-03-2.69993E-03-3.32537E-14
 -1       737 6.41762E-03-2.88146E-03-3.61976E-14
 -1       738 6.70333E-03-3.06307E-03-3.92393E-14
 -1       739 6.98903E-03-3.24476E-03-4.23780E-14
 -1       740 7.27472E-03-3.42652E-03-4.56205E-14
 -1       741 7.56041E-03-3.60835E-03-4.89509E-14
 -1       742 7.84611E-03-3.79023E-03-5.23721E-14
 -1       743 8.13181E-03-3.97216E-03-5.58748E-14
 -1       744 8.41752E-03-4.15412E-03-5.94581E-14
 -1       745 8.70324E-03-4.33611E-03-6.31232E-14
 -1       746 8.98895E-03-4.51813E-03-6.68661E-14
 -1       747 9.27467E-03-4.70015E-03-7.06810E-14
 -1       748 9.56038E-03-4.88219E-03-7.45627E-14
 -1       749 9.84610E-03-5.06424E-03-7.85045E-14
 -1       750 1.01318E-02-5.24629E-03-8.25105E-14
 -1       751 1.04175E-02-5.42835E-03-8.65763E-14
 -1       752 1.07033E-02-5.61041E-03-9.06941E-14
 -1       753 1.09890E-02-5.79247E-03-9.48520E-14
 -1       754 1.12747E-02-5.97453E-03-9.90489E-14
 -1       755 1.15604E-02-6.15659E-03-1.03283E-13
 -1       756 1.18461E-02-6.33865E-03-1.07545E-13
 -1       757 1.21318E-02-6.52071E-03-1.11834E-13
 -1       758 1.24175E-02-6.70277E-03-1.16150E-13
 -1       759 1.27033E-02-6.88483E-03-1.20473E-13
 -1       760 1.38023E-02-7.48801E-03-1.27081E-13
 -1       761 1.45154E-02-7.82373E-03-1.25522E-13
 -1       762 1.25855E-03 1.17214E-04-1.77339E-15
 -1       763 4.43155E-03-1.33746E-03-6.53416E-15
 -1       764 1.31234E-02-7.15322E-03-1.26929E-13
 -1       765 4.80561E-03-1.52303E-03-8.15204E-15
 -1       766 1.41588E-02-7.65587E-03-1.26307E-13
 -1       767 1.31239E-03 4.74424E-05-1.49492E-15
 -1       768 1.33684E-02-7.28552E-03-1.28186E-13
 -1       769 3.52732E-03-1.06065E-03-1.17630E-14
 -1       770 4.62509E-03-1.39386E-03-6.82800E-15
 -1       771 1.78826E-03-1.09249E-04-2.13450E-15
 -1       772 5.01774E-03-1.67839E-03-9.78112E-15
 -1       773 2.59861E-03-5.58520E-04-4.01042E-15
 -1       774 3.22180E-03-8.99566E-04-5.19589E-15
 -1       775 2.15007E-03-2.97698E-04-2.99823E-15
 -1       776 4.11087E-03-1.25531E-03-6.26387E-15
 -1       777 3.71987E-03-1.12291E-03-5.88874E-15
 -1       778 2.92348E-03-7.47383E-04-5.05881E-15
 -1       779 1.36240E-02-7.40408E-03-1.27461E-13
 -1       780 1.69776E-03-2.45733E-05-3.10805E-15
 -1       781 2.61590E-03-5.07868E-04-6.81084E-15
 -1       782 1.29134E-02-7.01902E-03-1.23696E-13
 -1       783 2.30803E-03-3.30884E-04-5.43077E-15
 -1       784 1.28097E-03 7.69898E-05-1.64496E-15
 -1       785 5.50492E-03-2.05263E-03-1.45606E-14
 -1       786 5.78993E-03-2.23804E-03-1.67112E-14
 -1       787 6.06657E-03-2.41753E-03-1.88817E-14
 -1       788 6.34656E-03-2.59865E-03-2.11722E-14
 -1       789 6.62871E-03-2.78066E-03-2.35802E-14
 -1       790 6.91226E-03-2.96309E-03-2.60997E-14
 -1       791 7.19667E-03-3.14570E-03-2.87226E-14
 -1       792 7.48162E-03-3.32833E-03-3.14505E-14
 -1       793 7.78118E-03-3.52005E-03-3.44263E-14
 -1       794 8.06666E-03-3.70255E-03-3.73731E-14
 -1       795 8.35227E-03-3.88498E-03-4.04305E-14
 -1       796 8.63793E-03-4.06733E-03-4.35911E-14
 -1       797 8.92363E-03-4.24961E-03-4.68493E-14
 -1       798 9.20936E-03-4.43184E-03-5.01953E-14
 -1       799 9.50937E-03-4.62313E-03-5.38022E-14
 -1       800 9.79511E-03-4.80527E-03-5.73265E-14
 -1       801 1.00808E-02-4.98739E-03-6.09311E-14
 -1       802 1.03666E-02-5.16948E-03-6.46045E-14
 -1       803 1.06523E-02-5.35157E-03-6.83517E-14
 -1       804 1.09380E-02-5.53364E-03-7.21652E-14
 -1       805 1.12238E-02-5.71570E-03-7.60449E-14
 -1       806 1.15238E-02-5.90687E-03-8.01908E-14
 -1       807 1.18095E-02-6.08892E-03-8.42068E-14
 -1       808 1.20952E-02-6.27098E-03-8.82851E-14
 -1       809 1.23809E-02-6.45303E-03-9.24267E-14
 -1       810 1.26667E-02-6.63508E-03-9.66224E-14
 -1       811 1.29524E-02-6.81714E-03-1.00862E-13
 -1       812 1.32524E-02-7.00829E-03-1.05336E-13
 -1       813 1.35381E-02-7.19034E-03-1.09615E-13
 -1       814 1.38238E-02-7.37240E-03-1.13914E-13
 -1       815 1.41095E-02-7.55445E-03-1.18225E-13
 -1       816 1.43124E-02-7.68909E-03-1.21868E-13
 -1       817 4.61380E-03-1.45519E-03-7.84101E-15
 -1       818 5.24121E-03-1.88088E-03-1.26350E-14
 -1       819 4.42033E-03-1.59894E-03-1.67459E-14
 -1       820 4.12620E-03-1.41845E-03-1.46581E-14
 -1       821 5.00045E-03-1.95975E-03-2.12786E-14
 -1       822 5.28805E-03-2.14036E-03-2.37173E-14
 -1       823 5.57476E-03-2.32118E-03-2.62714E-14
 -1       824 5.86095E-03-2.50222E-03-2.89372E-14
 -1       825 6.14683E-03-2.68344E-03-3.17128E-14
 -1       826 6.43257E-03-2.86483E-03-3.45923E-14
 -1       827 6.71823E-03-3.04637E-03-3.75709E-14
 -1       828 7.00388E-03-3.22801E-03-4.06489E-14
 -1       829 7.28953E-03-3.40975E-03-4.38293E-14
 -1       830 7.57520E-03-3.59157E-03-4.71063E-14
 -1       831 7.86088E-03-3.77345E-03-5.04710E-14
 -1       832 8.14657E-03-3.95537E-03-5.39226E-14
 -1       833 8.43228E-03-4.13733E-03-5.74557E-14
 -1       834 8.71799E-03-4.31933E-03-6.10658E-14
 -1       835 9.00371E-03-4.50134E-03-6.47560E-14
 -1       836 9.28943E-03-4.68336E-03-6.85225E-14
 -1       837 9.57515E-03-4.86540E-03-7.23577E-14
 -1       838 9.86088E-03-5.04745E-03-7.62576E-14
 -1       839 1.01466E-02-5.22950E-03-8.02175E-14
 -1       840 1.04323E-02-5.41155E-03-8.42433E-14
 -1       841 1.07180E-02-5.59361E-03-8.83281E-14
 -1       842 1.10038E-02-5.77567E-03-9.24616E-14
 -1       843 1.12895E-02-5.95773E-03-9.66320E-14
 -1       844 1.15752E-02-6.13979E-03-1.00842E-13
 -1       845 1.18609E-02-6.32185E-03-1.05090E-13
 -1       846 1.21466E-02-6.50391E-03-1.09364E-13
 -1       847 1.24323E-02-6.68597E-03-1.13666E-13
 -1       848 1.27181E-02-6.86803E-03-1.17985E-13
 -1       849 1.36444E-02-7.37249E-03-1.23120E-13
 -1       850 4.81802E-03-1.59687E-03-9.44286E-15
 -1       851 1.41334E-02-7.60480E-03-1.22263E-13
 -1       852 4.33210E-03-1.37275E-03-7.55402E-15
 -1       853 1.31583E-02-7.15132E-03-1.24951E-13
 -1       854 4.71145E-03-1.77931E-03-1.89533E-14
 -1       855 3.21532E-03-8.72646E-04-9.14208E-15
 -1       856 5.02315E-03-1.73523E-03-1.09895E-14
 -1       857 1.71355E-03-8.72592E-05-2.39283E-15
 -1       858 3.55524E-03-1.07309E-03-6.50684E-15
 -1       859 3.99418E-03-1.25763E-03-7.15262E-15
 -1       860 2.33818E-03-4.11984E-04-3.86836E-15
 -1       861 1.34661E-02-7.28856E-03-1.23505E-13
 -1       862 3.27166E-03-9.35362E-04-6.34905E-15
 -1       863 1.66078E-03-5.19930E-05-2.58276E-15
 -1       864 1.93860E-03-1.61875E-04-3.64408E-15
 -1       865 2.90012E-03-6.88536E-04-7.56251E-15
 -1       866 3.82797E-03-1.23752E-03-1.26922E-14
 -1       867 1.29282E-02-7.00222E-03-1.21200E-13
 -1       868 1.38219E-02-7.45606E-03-1.22734E-13
 -1       869 2.64925E-03-5.89036E-04-4.89095E-15
 -1       870 1.39777E-02-7.53043E-03-1.22499E-13
 -1       871 3.52460E-03-1.05570E-03-1.08525E-14
 -1       872 2.25850E-03-3.26592E-04-4.80715E-15
 -1       873 1.33122E-02-7.21994E-03-1.24230E-13
 -1       874 2.03428E-03-2.36125E-04-3.47550E-15
 -1       875 4.55243E-03-1.50437E-03-9.13272E-15
 -1       876 5.77105E-03-2.26113E-03-1.79983E-14
 -1       877 6.04977E-03-2.43917E-03-2.02413E-14
 -1       878 6.33088E-03-2.61909E-03-2.26020E-14
 -1       879 6.61360E-03-2.80015E-03-2.50784E-14
 -1       880 6.89740E-03-2.98187E-03-2.76606E-14
 -1       881 7.18192E-03-3.16393E-03-3.03465E-14
 -1       882 7.48115E-03-3.35528E-03-3.32800E-14
 -1       883 7.76643E-03-3.53757E-03-3.61807E-14
 -1       884 8.05190E-03-3.71987E-03-3.91923E-14
 -1       885 8.33748E-03-3.90215E-03-4.23047E-14
 -1       886 8.62313E-03-4.08438E-03-4.55223E-14
 -1       887 8.90882E-03-4.26659E-03-4.88311E-14
 -1       888 9.20882E-03-4.45786E-03-5.23982E-14
 -1       889 9.49454E-03-4.64000E-03-5.58891E-14
 -1       890 9.78028E-03-4.82212E-03-5.94581E-14
 -1       891 1.00660E-02-5.00421E-03-6.31038E-14
 -1       892 1.03518E-02-5.18630E-03-6.68200E-14
 -1       893 1.06375E-02-5.36837E-03-7.06013E-14
 -1       894 1.09232E-02-5.55044E-03-7.44475E-14
 -1       895 1.12232E-02-5.74160E-03-7.85610E-14
 -1       896 1.15090E-02-5.92366E-03-8.25461E-14
 -1       897 1.17947E-02-6.10571E-03-8.65934E-14
 -1       898 1.20804E-02-6.28777E-03-9.06985E-14
 -1       899 1.23661E-02-6.46982E-03-9.48676E-14
 -1       900 1.26518E-02-6.65188E-03-9.90816E-14
 -1       901 1.29519E-02-6.84303E-03-1.03546E-13
 -1       902 1.32376E-02-7.02509E-03-1.07819E-13
 -1       903 1.35233E-02-7.20714E-03-1.12109E-13
 -1       904 1.38090E-02-7.38920E-03-1.16414E-13
 -1       905 1.39712E-02-7.49700E-03-1.19332E-13
 -1       906 4.43261E-03-1.59010E-03-1.56373E-14
 -1       907 5.21175E-03-1.90722E-03-1.37764E-14
 -1       908 5.58995E-03-2.30572E-03-2.48856E-14
 -1       909 5.30310E-03-2.12580E-03-2.24004E-14
 -1       910 6.16197E-03-2.66704E-03-3.01903E-14
 -1       911 6.44763E-03-2.84822E-03-3.30059E-14
 -1       912 6.73322E-03-3.02963E-03-3.59208E-14
 -1       913 7.01880E-03-3.21123E-03-3.89380E-14
 -1       914 7.30439E-03-3.39294E-03-4.20558E-14
 -1       915 7.59002E-03-3.57475E-03-4.52736E-14
 -1       916 7.87567E-03-3.75663E-03-4.85834E-14
 -1       917 8.16135E-03-3.93856E-03-5.19836E-14
 -1       918 8.44704E-03-4.12053E-03-5.54682E-14
 -1       919 8.73275E-03-4.30253E-03-5.90306E-14
 -1       920 9.01847E-03-4.48454E-03-6.26674E-14
 -1       921 9.30420E-03-4.66657E-03-6.63833E-14
 -1       922 9.58992E-03-4.84861E-03-7.01686E-14
 -1       923 9.87565E-03-5.03065E-03-7.40230E-14
 -1       924 1.01614E-02-5.21271E-03-7.79455E-14
 -1       925 1.04471E-02-5.39476E-03-8.19312E-14
 -1       926 1.07328E-02-5.57682E-03-8.59776E-14
 -1       927 1.10186E-02-5.75888E-03-9.00799E-14
 -1       928 1.13043E-02-5.94094E-03-9.42251E-14
 -1       929 1.15900E-02-6.12299E-03-9.84092E-14
 -1       930 1.18757E-02-6.30505E-03-1.02638E-13
 -1       931 1.21614E-02-6.48711E-03-1.06900E-13
 -1       932 1.24471E-02-6.66917E-03-1.11191E-13
 -1       933 1.27329E-02-6.85123E-03-1.15499E-13
 -1       934 2.58025E-03-5.05028E-04-6.11566E-15
 -1       935 5.01510E-03-1.94653E-03-2.00302E-14
 -1       936 5.87614E-03-2.48617E-03-2.74828E-14
 -1       937 5.48890E-03-2.08176E-03-1.58262E-14
 -1       938 4.24805E-03-1.39126E-03-8.69829E-15
 -1       939 3.85277E-03-1.22329E-03-7.99935E-15
 -1       940 4.72527E-03-1.76797E-03-1.77739E-14
 -1       941 2.99380E-03-7.80075E-04-6.15704E-15
 -1       942 4.76489E-03-1.63357E-03-1.06562E-14
 -1       943 1.38154E-02-7.42263E-03-1.19570E-13
 -1       944 4.13581E-03-1.41270E-03-1.36222E-14
 -1       945 2.32546E-03-3.91525E-04-4.44479E-15
 -1       946 1.29430E-02-6.98542E-03-1.18709E-13
 -1       947 3.59114E-03-1.10029E-03-7.82378E-15
 -1       948 1.34857E-02-7.25661E-03-1.19175E-13
 -1       949 4.98556E-03-1.76719E-03-1.21722E-14
 -1       950 3.20492E-03-8.75626E-04-8.32098E-15
 -1       951 1.33074E-02-7.17268E-03-1.19561E-13
 -1       952 3.52337E-03-1.05660E-03-9.96096E-15
 -1       953 6.03195E-03-2.45869E-03-2.16171E-14
 -1       954 6.31443E-03-2.63812E-03-2.40470E-14
 -1       955 6.59795E-03-2.81872E-03-2.65875E-14
 -1       956 6.88219E-03-3.00004E-03-2.92352E-14
 -1       957 7.18118E-03-3.19087E-03-3.21275E-14
 -1       958 7.46628E-03-3.37284E-03-3.49848E-14
 -1       959 7.75161E-03-3.55494E-03-3.79508E-14
 -1       960 8.03709E-03-3.73708E-03-4.10210E-14
 -1       961 8.32267E-03-3.91924E-03-4.41940E-14
 -1       962 8.60832E-03-4.10139E-03-4.74657E-14
 -1       963 8.90829E-03-4.29263E-03-5.09940E-14
 -1       964 9.19401E-03-4.47475E-03-5.44469E-14
 -1       965 9.47973E-03-4.65686E-03-5.79817E-14
 -1       966 9.76546E-03-4.83895E-03-6.15929E-14
 -1       967 1.00512E-02-5.02103E-03-6.52802E-14
 -1       968 1.03369E-02-5.20310E-03-6.90335E-14
 -1       969 1.06227E-02-5.38517E-03-7.28526E-14
 -1       970 1.09227E-02-5.57633E-03-7.69327E-14
 -1       971 1.12084E-02-5.75839E-03-8.08913E-14
 -1       972 1.14942E-02-5.94045E-03-8.49136E-14
 -1       973 1.17799E-02-6.12250E-03-8.89898E-14
 -1       974 1.20656E-02-6.30456E-03-9.31208E-14
 -1       975 1.23513E-02-6.48662E-03-9.73118E-14
 -1       976 1.26513E-02-6.67777E-03-1.01757E-13
 -1       977 1.29370E-02-6.85983E-03-1.06021E-13
 -1       978 1.32228E-02-7.04188E-03-1.10308E-13
 -1       979 1.35085E-02-7.22394E-03-1.14608E-13
 -1       980 1.36620E-02-7.32328E-03-1.17089E-13
 -1       981 2.60477E-03-5.44611E-04-5.50599E-15
 -1       982 6.74831E-03-3.01285E-03-3.42881E-14
 -1       983 6.46286E-03-2.83157E-03-3.14372E-14
 -1       984 7.31930E-03-3.37607E-03-4.02987E-14
 -1       985 7.60487E-03-3.55788E-03-4.34565E-14
 -1       986 7.89049E-03-3.73978E-03-4.67096E-14
 -1       987 8.17614E-03-3.92172E-03-5.00546E-14
 -1       988 8.46182E-03-4.10370E-03-5.34878E-14
 -1       989 8.74753E-03-4.28571E-03-5.70025E-14
 -1       990 9.03324E-03-4.46773E-03-6.05930E-14
 -1       991 9.31897E-03-4.64977E-03-6.42598E-14
 -1       992 9.60470E-03-4.83181E-03-6.79980E-14
 -1       993 9.89043E-03-5.01386E-03-7.18077E-14
 -1       994 1.01762E-02-5.19591E-03-7.56889E-14
 -1       995 1.04619E-02-5.37797E-03-7.96357E-14
 -1       996 1.07476E-02-5.56002E-03-8.36428E-14
 -1       997 1.10333E-02-5.74208E-03-8.77087E-14
 -1       998 1.13191E-02-5.92414E-03-9.18259E-14
 -1       999 1.16048E-02-6.10620E-03-9.59871E-14
 -1      1000 1.18905E-02-6.28826E-03-1.00191E-13
 -1      1001 1.21762E-02-6.47032E-03-1.04436E-13
 -1      1002 1.24619E-02-6.65237E-03-1.08715E-13
 -1      1003 1.27477E-02-6.83443E-03-1.13019E-13
 -1      1004 5.03133E-03-1.93448E-03-1.87999E-14
 -1      1005 3.83328E-03-1.23520E-03-1.17280E-14
 -1      1006 5.60581E-03-2.29062E-03-2.35166E-14
 -1      1007 4.17121E-03-1.38467E-03-9.62918E-15
 -1      1008 5.31918E-03-2.11193E-03-2.11010E-14
 -1      1009 7.03378E-03-3.19437E-03-3.72413E-14
 -1      1010 5.75087E-03-2.28108E-03-1.93056E-14
 -1      1011 4.47771E-03-1.51623E-03-1.01499E-14
 -1      1012 1.36506E-02-7.33962E-03-1.19375E-13
 -1      1013 4.74140E-03-1.75851E-03-1.66142E-14
 -1      1014 3.32169E-03-9.55599E-04-7.60993E-15
 -1      1015 4.44817E-03-1.58403E-03-1.45483E-14
 -1      1016 5.46470E-03-2.10191E-03-1.70580E-14
 -1      1017 4.92823E-03-1.77479E-03-1.31370E-14
 -1      1018 5.89176E-03-2.47028E-03-2.60460E-14
 -1      1019 6.17738E-03-2.65067E-03-2.86878E-14
 -1      1020 1.30276E-02-7.00356E-03-1.16287E-13
 -1      1021 2.90964E-03-7.11879E-04-6.85072E-15
 -1      1022 1.33479E-02-7.15374E-03-1.15525E-13
 -1      1023 5.19522E-03-1.93572E-03-1.50415E-14
 -1      1024 3.92732E-03-1.27368E-03-9.44390E-15
 -1      1025 1.31877E-02-7.07865E-03-1.15908E-13
 -1      1026 3.52859E-03-1.06391E-03-9.08618E-15
 -1      1027 6.29788E-03-2.65603E-03-2.55066E-14
 -1      1028 6.58215E-03-2.83653E-03-2.81131E-14
 -1      1029 6.88108E-03-3.02676E-03-3.09648E-14
 -1      1030 7.16610E-03-3.20836E-03-3.37838E-14
 -1      1031 7.45134E-03-3.39019E-03-3.67067E-14
 -1      1032 7.73674E-03-3.57215E-03-3.97342E-14
 -1      1033 8.02226E-03-3.75419E-03-4.28660E-14
 -1      1034 8.30786E-03-3.93626E-03-4.60978E-14
 -1      1035 8.60780E-03-4.12745E-03-4.95883E-14
 -1      1036 8.89349E-03-4.30954E-03-5.30039E-14
 -1      1037 9.17920E-03-4.49162E-03-5.65026E-14
 -1      1038 9.46493E-03-4.67370E-03-6.00772E-14
 -1      1039 9.75066E-03-4.85577E-03-6.37346E-14
 -1      1040 1.00364E-02-5.03784E-03-6.74648E-14
 -1      1041 1.03221E-02-5.21990E-03-7.12553E-14
 -1      1042 1.06222E-02-5.41107E-03-7.53072E-14
 -1      1043 1.09079E-02-5.59313E-03-7.92400E-14
 -1      1044 1.11936E-02-5.77518E-03-8.32371E-14
 -1      1045 1.14793E-02-5.95724E-03-8.72897E-14
 -1      1046 1.17651E-02-6.13930E-03-9.13925E-14
 -1      1047 1.20508E-02-6.32135E-03-9.55530E-14
 -1      1048 1.23508E-02-6.51251E-03-9.99763E-14
 -1      1049 1.26365E-02-6.69457E-03-1.04228E-13
 -1      1050 1.29222E-02-6.87662E-03-1.08505E-13
 -1      1051 8.19095E-03-3.90484E-03-4.81394E-14
 -1      1052 6.76352E-03-2.99595E-03-3.26743E-14
 -1      1053 7.04883E-03-3.17742E-03-3.55624E-14
 -1      1054 7.90532E-03-3.72286E-03-4.48506E-14
 -1      1055 7.61975E-03-3.54094E-03-4.16544E-14
 -1      1056 8.47661E-03-4.08684E-03-5.15191E-14
 -1      1057 8.76231E-03-4.26887E-03-5.49841E-14
 -1      1058 9.04802E-03-4.45091E-03-5.85274E-14
 -1      1059 9.33374E-03-4.63296E-03-6.21494E-14
 -1      1060 9.61947E-03-4.81501E-03-6.58474E-14
 -1      1061 9.90521E-03-4.99706E-03-6.96151E-14
 -1      1062 1.01909E-02-5.17912E-03-7.34503E-14
 -1      1063 1.04767E-02-5.36118E-03-7.73560E-14
 -1      1064 1.07624E-02-5.54323E-03-8.13252E-14
 -1      1065 1.10481E-02-5.72529E-03-8.53553E-14
 -1      1066 1.13339E-02-5.90735E-03-8.94372E-14
 -1      1067 1.16196E-02-6.08941E-03-9.35710E-14
 -1      1068 1.19053E-02-6.27146E-03-9.77510E-14
 -1      1069 1.21910E-02-6.45352E-03-1.01979E-13
 -1      1070 1.24767E-02-6.63558E-03-1.06240E-13
 -1      1071 1.27625E-02-6.81763E-03-1.10530E-13
 -1      1072 3.72296E-03-1.17046E-03-9.27126E-15
 -1      1073 3.84411E-03-1.23820E-03-1.07834E-14
 -1      1074 5.05023E-03-1.92322E-03-1.75879E-14
 -1      1075 5.62273E-03-2.27564E-03-2.21655E-14
 -1      1076 4.70236E-03-1.64268E-03-1.16016E-14
 -1      1077 5.33698E-03-2.09843E-03-1.98187E-14
 -1      1078 7.33425E-03-3.35911E-03-3.85549E-14
 -1      1079 6.01413E-03-2.47657E-03-2.30096E-14
 -1      1080 5.73101E-03-2.29868E-03-2.06290E-14
 -1      1081 1.32080E-02-7.05868E-03-1.12802E-13
 -1      1082 6.47830E-03-2.81483E-03-2.98860E-14
 -1      1083 4.76155E-03-1.75051E-03-1.54726E-14
 -1      1084 4.14975E-03-1.41100E-03-1.26053E-14
 -1      1085 5.90802E-03-2.45439E-03-2.46254E-14
 -1      1086 4.63458E-03-1.63776E-03-1.24935E-14
 -1      1087 4.90934E-03-1.79686E-03-1.43603E-14
 -1      1088 5.44154E-03-2.11873E-03-1.83109E-14
 -1      1089 4.26383E-03-1.44841E-03-1.10122E-14
 -1      1090 4.48539E-03-1.54933E-03-1.13148E-14
 -1      1091 1.30550E-02-6.97764E-03-1.12203E-13
 -1      1092 6.28159E-03-2.67316E-03-2.69837E-14
 -1      1093 4.06565E-03-1.35308E-03-1.08369E-14
 -1      1094 6.19316E-03-2.63422E-03-2.72007E-14
 -1      1095 5.17537E-03-1.95593E-03-1.62826E-14
 -1      1096 4.38246E-03-1.52484E-03-1.24864E-14
 -1      1097 0.00000E+00 0.00000E+00 0.00000E+00
 -1      1098 0.00000E+00 0.00000E+00 0.00000E+00
 -1      1099 0.00000E+00 0.00000E+00 0.00000E+00
 -1      1100 0.00000E+00 0.00000E+00 0.00000E+00
 -1      1101 0.00000E+00 0.00000E+00 0.00000E+00
 -1      1102 0.00000E+00 0.00000E+00 0.00000E+00
 -1      1103 0.00000E+00 0.00000E+00 0.00000E+00
 -1      1104 0.00000E+00 0.00000E+00 0.00000E+00
 -1      1105 0.00000E+00 0.00000E+00 0.00000E+00
 -1      1106 0.00000E+00 0.00000E+00 0.00000E+00
 -1      1107 0.00000E+00 0.00000E+00 0.00000E+00
 -1      1108 0.00000E+00 0.00000E+00 0.00000E+00
 -1      1109 0.00000E+00 0.00000E+00 0.00000E+00
 -1      1110 0.00000E+00 0.00000E+00 0.00000E+00
 -1      1111 0.00000E+00 0.00000E+00 0.00000E+00
 -1      1112 0.00000E+00 0.00000E+00 0.00000E+00
 -1      1113 0.00000E+00 0.00000E+00 0.00000E+00
 -1      1114 0.00000E+00 0.00000E+00 0.00000E+00
 -1      1115 0.00000E+00 0.00000E+00 0.00000E+00
 -1      1116 4.07412E-04-1.85707E-04 3.06287E-17
 -1      1117 1.14108E-03-5.38296E-04 3.44234E-17
 -1      1118 1.73348E-03-1.03009E-03-3.78929E-17
 -1      1119 2.16137E-03-1.55230E-03-2.01336E-16
 -1      1120 2.43923E-03-1.94878E-03-4.71303E-16
 -1      1121 2.66041E-03-2.08576E-03-8.92990E-16
 -1      1122 2.92256E-03-1.97660E-03-1.43960E-15
 -1      1123 3.28699E-03-1.77509E-03-2.13286E-15
 -1      1124 3.76015E-03-1.60818E-03-3.04355E-15
 -1      1125 4.26793E-03-1.56515E-03-4.16411E-15
 -1      1126 4.73770E-03-1.64056E-03-5.44699E-15
 -1      1127 5.15096E-03-1.78407E-03-6.85697E-15
 -1      1128 5.52844E-03-1.96343E-03-8.43053E-15
 -1      1129 5.87381E-03-2.15530E-03-1.01297E-14
 -1      1130 6.19072E-03-2.34575E-03-1.19108E-14
 -1      1131 6.49525E-03-2.53611E-03-1.38205E-14
 -1      1132 6.79217E-03-2.72525E-03-1.58571E-14
 -1      1133 7.08445E-03-2.91295E-03-1.80147E-14
 -1      1134 7.38115E-03-3.10401E-03-2.03576E-14
 -1      1135 7.67613E-03-3.29395E-03-2.28255E-14
 -1      1136 7.96293E-03-3.47843E-03-2.53451E-14
 -1      1137 8.24918E-03-3.66228E-03-2.79657E-14
 -1      1138 8.53511E-03-3.84567E-03-3.06851E-14
 -1      1139 8.82086E-03-4.02870E-03-3.35095E-14
 -1      1140 9.10651E-03-4.21148E-03-3.64570E-14
 -1      1141 9.39927E-03-4.39863E-03-3.95991E-14
 -1      1142 9.69200E-03-4.58563E-03-4.28563E-14
 -1      1143 9.97759E-03-4.76796E-03-4.61403E-14
 -1      1144 1.02632E-02-4.95022E-03-4.95159E-14
 -1      1145 1.05488E-02-5.13241E-03-5.29815E-14
 -1      1146 1.08344E-02-5.31457E-03-5.65295E-14
 -1      1147 1.11272E-02-5.50125E-03-6.02382E-14
 -1      1148 1.14200E-02-5.68790E-03-6.40367E-14
 -1      1149 1.17057E-02-5.86998E-03-6.78357E-14
 -1      1150 1.19914E-02-6.05205E-03-7.17036E-14
 -1      1151 1.22770E-02-6.23412E-03-7.56301E-14
 -1      1152 1.25627E-02-6.41618E-03-7.96339E-14
 -1      1153 1.28484E-02-6.59823E-03-8.37079E-14
 -1      1154 1.31413E-02-6.78484E-03-8.79438E-14
 -1      1155 1.34341E-02-6.97144E-03-9.22286E-14
 -1      1156 1.37198E-02-7.15350E-03-9.64531E-14
 -1      1157 1.40055E-02-7.33555E-03-1.00725E-13
 -1      1158 1.42912E-02-7.51760E-03-1.05018E-13
 -1      1159 1.45770E-02-7.69966E-03-1.09320E-13
 -1      1160 1.48698E-02-7.88626E-03-1.13783E-13
 -1      1161 1.51627E-02-8.07287E-03-1.18282E-13
 -1      1162 1.54484E-02-8.25492E-03-1.22704E-13
 -1      1163 1.57341E-02-8.43698E-03-1.27156E-13
 -1      1164 1.60198E-02-8.61903E-03-1.31620E-13
 -1      1165 1.63055E-02-8.80109E-03-1.36066E-13
 -1      1166 1.65912E-02-8.98314E-03-1.40497E-13
 -1      1167 1.99428E-04 1.54515E-04 1.24277E-17
 -1      1168 4.62122E-04 3.25950E-04-9.99092E-17
 -1      1169 6.74573E-04 4.11055E-04-3.90462E-16
 -1      1170 8.74127E-04 4.29745E-04-8.78719E-16
 -1      1171 1.07182E-03 3.95370E-04-1.55437E-15
 -1      1172 1.27481E-03 3.17499E-04-2.40802E-15
 -1      1173 1.48769E-03 2.04523E-04-3.43237E-15
 -1      1174 1.71290E-03 6.44675E-05-4.62022E-15
 -1      1175 1.95109E-03-9.51426E-05-5.96303E-15
 -1      1176 2.20150E-03-2.67752E-04-7.45839E-15
 -1      1177 2.46244E-03-4.48130E-04-9.10155E-15
 -1      1178 2.73182E-03-6.32478E-04-1.08841E-14
 -1      1179 3.00749E-03-8.18311E-04-1.28036E-14
 -1      1180 3.28756E-03-1.00419E-03-1.48525E-14
 -1      1181 3.57050E-03-1.18942E-03-1.70281E-14
 -1      1182 3.85518E-03-1.37378E-03-1.93271E-14
 -1      1183 4.14081E-03-1.55730E-03-2.17473E-14
 -1      1184 4.42689E-03-1.74014E-03-2.42911E-14
 -1      1185 4.71312E-03-1.92248E-03-2.69577E-14
 -1      1186 4.99933E-03-2.10449E-03-2.97355E-14
 -1      1187 5.28544E-03-2.28631E-03-3.26157E-14
 -1      1188 5.57144E-03-2.46804E-03-3.55951E-14
 -1      1189 5.85734E-03-2.64974E-03-3.86646E-14
 -1      1190 6.14315E-03-2.83146E-03-4.18354E-14
 -1      1191 6.42890E-03-3.01322E-03-4.51052E-14
 -1      1192 6.71460E-03-3.19502E-03-4.84673E-14
 -1      1193 7.00028E-03-3.37688E-03-5.19241E-14
 -1      1194 7.28594E-03-3.55877E-03-5.54722E-14
 -1      1195 7.57159E-03-3.74071E-03-5.90926E-14
 -1      1196 7.85725E-03-3.92268E-03-6.27902E-14
 -1      1197 8.14291E-03-4.10467E-03-6.65787E-14
 -1      1198 8.42857E-03-4.28669E-03-7.04469E-14
 -1      1199 8.71425E-03-4.46871E-03-7.43766E-14
 -1      1200 8.99993E-03-4.65075E-03-7.83721E-14
 -1      1201 9.28561E-03-4.83280E-03-8.24391E-14
 -1      1202 9.57131E-03-5.01485E-03-8.65702E-14
 -1      1203 9.85700E-03-5.19691E-03-9.07436E-14
 -1      1204 1.01427E-02-5.37897E-03-9.49482E-14
 -1      1205 1.04284E-02-5.56103E-03-9.91890E-14
 -1      1206 1.07141E-02-5.74309E-03-1.03455E-13
 -1      1207 1.09998E-02-5.92515E-03-1.07752E-13
 -1      1208 1.12855E-02-6.10721E-03-1.12059E-13
 -1      1209 1.15712E-02-6.28927E-03-1.16370E-13
 -1      1210 1.18570E-02-6.47132E-03-1.20694E-13
 -1      1211 1.21427E-02-6.65338E-03-1.25024E-13
 -1      1212 1.24284E-02-6.83544E-03-1.29353E-13
 -1      1213 1.27141E-02-7.01750E-03-1.33698E-13
 -1      1214 1.29998E-02-7.19956E-03-1.38068E-13
 -1      1215 1.32855E-02-7.38161E-03-1.42466E-13
 -1      1216 1.35641E-02-7.55912E-03-1.46756E-13
 -1      1217 1.37893E-02-7.68774E-03-1.48666E-13
 -1      1218 1.39684E-02-7.77202E-03-1.48330E-13
 -1      1219 1.41474E-02-7.85631E-03-1.47993E-13
 -1      1220 1.43264E-02-7.94060E-03-1.47644E-13
 -1      1221 1.45054E-02-8.02488E-03-1.47284E-13
 -1      1222 1.46829E-02-8.10845E-03-1.46917E-13
 -1      1223 1.48604E-02-8.19203E-03-1.46528E-13
 -1      1224 1.50395E-02-8.27631E-03-1.46131E-13
 -1      1225 1.52185E-02-8.36060E-03-1.45757E-13
 -1      1226 1.53975E-02-8.44488E-03-1.45376E-13
 -1      1227 1.55765E-02-8.52917E-03-1.44991E-13
 -1      1228 1.57540E-02-8.61274E-03-1.44626E-13
 -1      1229 1.59315E-02-8.69631E-03-1.44264E-13
 -1      1230 1.61106E-02-8.78060E-03-1.43902E-13
 -1      1231 1.62896E-02-8.86489E-03-1.43558E-13
 -1      1232 1.64686E-02-8.94917E-03-1.43213E-13
 -1      1233 1.66461E-02-9.03274E-03-1.42862E-13
 -1      1234 4.32689E-03-9.63663E-04-2.83449E-15
 -1      1235 4.12684E-03-8.25344E-04-2.79226E-15
 -1      1236 3.82647E-03-6.76366E-04-2.65894E-15
 -1      1237 3.45473E-03-5.23594E-04-2.44497E-15
 -1      1238 3.02360E-03-3.72740E-04-2.15789E-15
 -1      1239 2.57081E-03-2.42911E-04-1.83227E-15
 -1      1240 2.11504E-03-1.49176E-04-1.49037E-15
 -1      1241 1.66510E-03-9.65537E-05-1.15299E-15
 -1      1242 1.24002E-03-8.32792E-05-8.44187E-16
 -1      1243 8.53337E-04-9.88943E-05-5.77311E-16
 -1      1244 5.35051E-04-1.23329E-04-3.69767E-16
 -1      1245 2.97728E-04-1.42064E-04-2.21665E-16
 -1      1246 1.33045E-04-1.47156E-04-1.22962E-16
 -1      1247 3.59433E-05-1.40854E-04-6.88062E-17
 -1      1248-1.53494E-05-1.35377E-04-4.76532E-17
 -1      1249-3.43771E-05-1.52957E-04-5.22297E-17
 -1      1250-3.01448E-06-2.24819E-04-8.24908E-17
 -1      1251 1.10169E-04-3.72841E-04-1.38780E-16
 -1      1252 3.36020E-04-6.11919E-04-2.27045E-16
 -1      1253 6.83207E-04-9.29040E-04-3.52881E-16
 -1      1254 1.11798E-03-1.26635E-03-5.13722E-16
 -1      1255 1.64251E-03-1.57741E-03-7.24383E-16
 -1      1256 2.18608E-03-1.77675E-03-9.75674E-16
 -1      1257 2.70898E-03-1.83412E-03-1.25187E-15
 -1      1258 3.22088E-03-1.77154E-03-1.56789E-15
 -1      1259 3.66283E-03-1.63733E-03-1.89300E-15
 -1      1260 4.01078E-03-1.48232E-03-2.19650E-15
 -1      1261 4.25416E-03-1.33582E-03-2.45440E-15
 -1      1262 4.38470E-03-1.20607E-03-2.65311E-15
 -1      1263 4.40900E-03-1.08637E-03-2.78480E-15
 -1      1264 3.20991E-04-1.06208E-04 1.52873E-17
 -1      1265 1.20342E-04 1.08566E-05-5.82759E-18
 -1      1266 1.50768E-04-9.50666E-06-2.16840E-19
 -1      1267 6.34525E-05 2.84454E-05-1.15061E-17
 -1      1268 9.07683E-05 2.33999E-05-8.30770E-18
 -1      1269 2.18206E-04-3.18845E-07-2.17789E-17
 -1      1270 2.07754E-05 1.46453E-05-1.18246E-17
 -1      1271 3.93810E-05 2.13408E-05-1.08352E-17
 -1      1272 1.03641E-04 2.07802E-05-2.85416E-17
 -1      1273 9.65922E-07-1.92216E-05-9.96450E-18
 -1      1274 7.32698E-06-7.17351E-06-1.02931E-17
 -1      1275 2.05874E-05-9.05085E-06-2.67425E-17
 -1      1276 5.46091E-06-5.08169E-05-9.71039E-18
 -1      1277 1.52699E-06-4.09475E-05-1.00289E-17
 -1      1278-5.90614E-06-6.07141E-05-2.34967E-17
 -1      1279 2.82810E-05-7.57497E-05-1.38168E-17
 -1      1280 1.61917E-05-6.84801E-05-1.34102E-17
 -1      1281 1.46664E-05-1.08226E-04-2.70271E-17
 -1      1282 5.68014E-05-8.30394E-05-2.02475E-17
 -1      1283 4.29234E-05-8.22474E-05-1.93869E-17
 -1      1284 6.56832E-05-1.39641E-04-3.95056E-17
 -1      1285 9.05922E-05-6.95048E-05-2.96123E-17
 -1      1286 7.54519E-05-7.78760E-05-2.82028E-17
 -1      1287 1.36001E-04-1.42471E-04-5.84656E-17
 -1      1288 1.11657E-04-3.65425E-05-3.90448E-17
 -1      1289 1.03168E-04-5.09766E-05-3.72966E-17
 -1      1290 2.03942E-04-1.04447E-04-8.08950E-17
 -1      1291 1.16015E-04-5.66915E-06-4.67291E-17
 -1      1292 1.14828E-04-1.76252E-05-4.48589E-17
 -1      1293 2.34616E-04-4.45252E-05-1.00668E-16
 -1      1294 1.11917E-04 1.50014E-05-5.20417E-17
 -1      1295 1.14237E-04 7.31319E-06-5.04696E-17
 -1      1296 2.34743E-04 4.89629E-06-1.15535E-16
 -1      1297 1.05258E-04 2.68320E-05-5.56467E-17
 -1      1298 1.08580E-04 2.22849E-05-5.46438E-17
 -1      1299 2.22581E-04 3.63067E-05-1.25849E-16
 -1      1300 9.83213E-05 3.40845E-05-5.72730E-17
 -1      1301 1.01705E-04 3.10085E-05-5.67173E-17
 -1      1302 2.07914E-04 5.50175E-05-1.31880E-16
 -1      1303 9.18448E-05 3.95256E-05-5.72188E-17
 -1      1304 9.49500E-05 3.69022E-05-5.73678E-17
 -1      1305 1.93855E-04 6.75880E-05-1.34102E-16
 -1      1306 8.60260E-05 4.48699E-05-5.43321E-17
 -1      1307 8.87064E-05 4.20413E-05-5.53892E-17
 -1      1308 1.81127E-04 7.83032E-05-1.31758E-16
 -1      1309 8.15434E-05 5.09882E-05-4.76371E-17
 -1      1310 8.32900E-05 4.75745E-05-5.04832E-17
 -1      1311 1.70244E-04 8.97244E-05-1.23098E-16
 -1      1312 8.05330E-05 5.99699E-05-3.46267E-17
 -1      1313 7.97859E-05 5.45875E-05-4.09828E-17
 -1      1314 1.62830E-04 1.04290E-04-1.05805E-16
 -1      1315 1.22276E-04 1.00024E-04-1.28478E-17
 -1      1316 1.04965E-04 8.25095E-05-3.03983E-17
 -1      1317 1.87741E-04 1.41086E-04-8.94873E-17
 -1      1318 2.73265E-04 2.12748E-04-6.11897E-17
 -1      1319 8.25775E-04-3.51038E-04 1.05710E-17
 -1      1320 1.11970E-03-5.64118E-04-1.20617E-17
 -1      1321 1.38914E-03-8.08036E-04-5.79506E-17
 -1      1322 1.64342E-03-1.08571E-03-1.28478E-16
 -1      1323 1.07898E-03-5.93159E-04-6.82505E-17
 -1      1324 1.85299E-03-1.34627E-03-2.15702E-16
 -1      1325 2.04362E-03-1.59385E-03-3.24746E-16
 -1      1326 1.55364E-03-1.11673E-03-2.15377E-16
 -1      1327 2.22584E-03-1.82144E-03-4.73281E-16
 -1      1328 2.39440E-03-1.97576E-03-6.52039E-16
 -1      1329 1.98726E-03-1.64645E-03-4.59322E-16
 -1      1330 2.55250E-03-2.04836E-03-8.65708E-16
 -1      1331 2.71577E-03-2.04257E-03-1.11558E-15
 -1      1332 2.40028E-03-1.97589E-03-8.30174E-16
 -1      1333 2.87391E-03-1.97805E-03-1.37877E-15
 -1      1334 3.04365E-03-1.88600E-03-1.67268E-15
 -1      1335 2.78697E-03-1.97126E-03-1.31270E-15
 -1      1336 3.24714E-03-1.76902E-03-2.03793E-15
 -1      1337 3.45605E-03-1.66246E-03-2.43786E-15
 -1      1338 3.19118E-03-1.76784E-03-1.94084E-15
 -1      1339 3.69359E-03-1.57233E-03-2.91995E-15
 -1      1340 3.92702E-03-1.51857E-03-3.43688E-15
 -1      1341 3.63992E-03-1.54663E-03-2.79398E-15
 -1      1342 4.16548E-03-1.50245E-03-4.01728E-15
 -1      1343 4.39353E-03-1.51982E-03-4.63159E-15
 -1      1344 4.09154E-03-1.44840E-03-3.86797E-15
 -1      1345 4.61045E-03-1.56361E-03-5.27891E-15
 -1      1346 4.81622E-03-1.62636E-03-5.95837E-15
 -1      1347 4.51095E-03-1.49163E-03-5.10926E-15
 -1      1348 5.01168E-03-1.70214E-03-6.66901E-15
 -1      1349 5.19793E-03-1.78655E-03-7.41048E-15
 -1      1350 4.89304E-03-1.62231E-03-6.47843E-15
 -1      1351 5.38495E-03-1.88098E-03-8.22221E-15
 -1      1352 5.56457E-03-1.97891E-03-9.06699E-15
 -1      1353 5.25482E-03-1.79906E-03-8.01070E-15
 -1      1354 5.72996E-03-2.07399E-03-9.90190E-15
 -1      1355 5.89078E-03-2.16976E-03-1.07679E-14
 -1      1356 5.59418E-03-1.99255E-03-9.67205E-15
 -1      1357 6.04790E-03-2.26588E-03-1.16648E-14
 -1      1358 6.20202E-03-2.36180E-03-1.25919E-14
 -1      1359 5.90984E-03-2.18570E-03-1.14144E-14
 -1      1360 6.35375E-03-2.45752E-03-1.35509E-14
 -1      1361 6.50357E-03-2.55278E-03-1.45426E-14
 -1      1362 6.21500E-03-2.37861E-03-1.32798E-14
 -1      1363 6.65186E-03-2.64767E-03-1.55637E-14
 -1      1364 6.79896E-03-2.74208E-03-1.66164E-14
 -1      1365 6.51313E-03-2.56982E-03-1.52691E-14
 -1      1366 6.94512E-03-2.83612E-03-1.76999E-14
 -1      1367 7.09052E-03-2.92975E-03-1.88139E-14
 -1      1368 6.80666E-03-2.75908E-03-1.73816E-14
 -1      1369 7.24258E-03-3.02773E-03-2.00168E-14
 -1      1370 7.39413E-03-3.12534E-03-2.12525E-14
 -1      1371 7.10448E-03-2.95129E-03-1.96744E-14
 -1      1372 7.53811E-03-3.21805E-03-2.24591E-14
 -1      1373 7.68181E-03-3.31052E-03-2.36948E-14
 -1      1374 7.40034E-03-3.14204E-03-2.20928E-14
 -1      1375 7.82531E-03-3.40279E-03-2.49573E-14
 -1      1376 7.96863E-03-3.49488E-03-2.62453E-14
 -1      1377 7.68780E-03-3.32707E-03-2.45680E-14
 -1      1378 8.11183E-03-3.58683E-03-2.75587E-14
 -1      1379 8.25494E-03-3.67864E-03-2.88978E-14
 -1      1380 7.97454E-03-3.51131E-03-2.71507E-14
 -1      1381 8.39796E-03-3.77034E-03-3.02615E-14
 -1      1382 8.54093E-03-3.86194E-03-3.16517E-14
 -1      1383 8.26083E-03-3.69497E-03-2.98348E-14
 -1      1384 8.68385E-03-3.95346E-03-3.30696E-14
 -1      1385 8.82674E-03-4.04491E-03-3.45149E-14
 -1      1386 8.54685E-03-3.87819E-03-3.26249E-14
 -1      1387 8.96961E-03-4.13630E-03-3.59913E-14
 -1      1388 9.11246E-03-4.22764E-03-3.75003E-14
 -1      1389 8.83270E-03-4.06110E-03-3.55270E-14
 -1      1390 9.26243E-03-4.32350E-03-3.91120E-14
 -1      1391 9.41240E-03-4.41931E-03-4.07513E-14
 -1      1392 9.12559E-03-4.24835E-03-3.86208E-14
 -1      1393 9.55522E-03-4.51053E-03-4.23424E-14
 -1      1394 9.69804E-03-4.60172E-03-4.39608E-14
 -1      1395 9.41843E-03-4.43541E-03-4.18295E-14
 -1      1396 9.84085E-03-4.69288E-03-4.56038E-14
 -1      1397 9.98366E-03-4.78402E-03-4.72690E-14
 -1      1398 9.70409E-03-4.61779E-03-4.50675E-14
 -1      1399 1.01265E-02-4.87515E-03-4.89581E-14
 -1      1400 1.02693E-02-4.96626E-03-5.06689E-14
 -1      1401 9.98975E-03-4.80008E-03-4.84008E-14
 -1      1402 1.04121E-02-5.05736E-03-5.24028E-14
 -1      1403 1.05549E-02-5.14844E-03-5.41579E-14
 -1      1404 1.02754E-02-4.98230E-03-5.18253E-14
 -1      1405 1.06977E-02-5.23952E-03-5.59306E-14
 -1      1406 1.08406E-02-5.33059E-03-5.77240E-14
 -1      1407 1.05611E-02-5.16447E-03-5.53331E-14
 -1      1408 1.09905E-02-5.42620E-03-5.96259E-14
 -1      1409 1.11405E-02-5.52181E-03-6.15490E-14
 -1      1410 1.08539E-02-5.35115E-03-5.90115E-14
 -1      1411 1.12833E-02-5.61286E-03-6.34052E-14
 -1      1412 1.14262E-02-5.70390E-03-6.52830E-14
 -1      1413 1.11467E-02-5.53781E-03-6.27739E-14
 -1      1414 1.15690E-02-5.79494E-03-6.71816E-14
 -1      1415 1.17118E-02-5.88598E-03-6.90984E-14
 -1      1416 1.14323E-02-5.71990E-03-6.65278E-14
 -1      1417 1.18547E-02-5.97702E-03-7.10287E-14
 -1      1418 1.19975E-02-6.06805E-03-7.29750E-14
 -1      1419 1.17180E-02-5.90198E-03-7.03551E-14
 -1      1420 1.21404E-02-6.15908E-03-7.49412E-14
 -1      1421 1.22832E-02-6.25011E-03-7.69240E-14
 -1      1422 1.20037E-02-6.08404E-03-7.42514E-14
 -1      1423 1.24261E-02-6.34114E-03-7.89244E-14
 -1      1424 1.25689E-02-6.43217E-03-8.09429E-14
 -1      1425 1.22894E-02-6.26610E-03-7.82158E-14
 -1      1426 1.27118E-02-6.52320E-03-8.29772E-14
 -1      1427 1.28546E-02-6.61422E-03-8.50282E-14
 -1      1428 1.25751E-02-6.44816E-03-8.22497E-14
 -1      1429 1.30046E-02-6.70980E-03-8.71955E-14
 -1      1430 1.31546E-02-6.80538E-03-8.93778E-14
 -1      1431 1.28679E-02-6.63476E-03-8.64497E-14
 -1      1432 1.32975E-02-6.89641E-03-9.14683E-14
 -1      1433 1.34403E-02-6.98743E-03-9.35723E-14
 -1      1434 1.31608E-02-6.82137E-03-9.07099E-14
 -1      1435 1.35832E-02-7.07846E-03-9.56841E-14
 -1      1436 1.37260E-02-7.16949E-03-9.78072E-14
 -1      1437 1.34465E-02-7.00342E-03-9.49143E-14
 -1      1438 1.38689E-02-7.26051E-03-9.99425E-14
 -1      1439 1.40117E-02-7.35154E-03-1.02085E-13
 -1      1440 1.37322E-02-7.18547E-03-9.91623E-14
 -1      1441 1.41546E-02-7.44256E-03-1.04229E-13
 -1      1442 1.42974E-02-7.53359E-03-1.06375E-13
 -1      1443 1.40179E-02-7.36753E-03-1.03441E-13
 -1      1444 1.44403E-02-7.62462E-03-1.08529E-13
 -1      1445 1.45831E-02-7.71564E-03-1.10693E-13
 -1      1446 1.43036E-02-7.54958E-03-1.07737E-13
 -1      1447 1.47331E-02-7.81122E-03-1.12976E-13
 -1      1448 1.48831E-02-7.90680E-03-1.15264E-13
 -1      1449 1.45965E-02-7.73618E-03-1.12168E-13
 -1      1450 1.50260E-02-7.99783E-03-1.17455E-13
 -1      1451 1.51689E-02-8.08886E-03-1.19657E-13
 -1      1452 1.48893E-02-7.92279E-03-1.16633E-13
 -1      1453 1.53117E-02-8.17988E-03-1.21860E-13
 -1      1454 1.54546E-02-8.27091E-03-1.24075E-13
 -1      1455 1.51750E-02-8.10484E-03-1.21022E-13
 -1      1456 1.55974E-02-8.36194E-03-1.26298E-13
 -1      1457 1.57403E-02-8.45296E-03-1.28522E-13
 -1      1458 1.54608E-02-8.28690E-03-1.25443E-13
 -1      1459 1.58831E-02-8.54399E-03-1.30751E-13
 -1      1460 1.60260E-02-8.63502E-03-1.32978E-13
 -1      1461 1.57465E-02-8.46895E-03-1.29885E-13
 -1      1462 1.61689E-02-8.72605E-03-1.35198E-13
 -1      1463 1.63117E-02-8.81708E-03-1.37417E-13
 -1      1464 1.60322E-02-8.65101E-03-1.34330E-13
 -1      1465 1.64075E-02-8.87940E-03-1.39035E-13
 -1      1466 1.65503E-02-8.97042E-03-1.41247E-13
 -1      1467 1.64623E-02-8.92899E-03-1.41412E-13
 -1      1468 1.62708E-02-8.80436E-03-1.38170E-13
 -1      1469 5.24404E-04 3.48118E-04-2.43885E-16
 -1      1470 4.03345E-04 2.90636E-04-1.26635E-16
 -1      1471 3.55753E-04 2.54597E-04-1.47248E-16
 -1      1472 7.49789E-04 4.04703E-04-6.26161E-16
 -1      1473 6.39331E-04 3.84634E-04-4.10967E-16
 -1      1474 6.05190E-04 3.55660E-04-4.23530E-16
 -1      1475 9.64369E-04 4.00509E-04-1.19647E-15
 -1      1476 8.57693E-04 4.09353E-04-8.87995E-16
 -1      1477 8.39282E-04 3.86807E-04-8.90618E-16
 -1      1478 1.17781E-03 3.46881E-04-1.94820E-15
 -1      1479 1.07074E-03 3.79279E-04-1.55006E-15
 -1      1480 1.06625E-03 3.61465E-04-1.53997E-15
 -1      1481 1.39622E-03 2.52801E-04-2.87273E-15
 -1      1482 1.28608E-03 3.04360E-04-2.38939E-15
 -1      1483 1.29321E-03 2.89888E-04-2.36536E-15
 -1      1484 1.62329E-03 1.26647E-04-3.96479E-15
 -1      1485 1.50850E-03 1.93216E-04-3.39847E-15
 -1      1486 1.52494E-03 1.80918E-04-3.35977E-15
 -1      1487 1.86080E-03-2.35152E-05-5.21496E-15
 -1      1488 1.74068E-03 5.40936E-05-4.57037E-15
 -1      1489 1.76428E-03 4.30228E-05-4.51668E-15
 -1      1490 2.10903E-03-1.90353E-04-6.61849E-15
 -1      1491 1.98359E-03-1.05250E-04-5.89802E-15
 -1      1492 2.01240E-03-1.15811E-04-5.82860E-15
 -1      1493 2.36713E-03-3.67722E-04-8.17196E-15
 -1      1494 2.23692E-03-2.78030E-04-7.37652E-15
 -1      1495 2.26929E-03-2.88572E-04-7.29152E-15
 -1      1496 2.63361E-03-5.50932E-04-9.86777E-15
 -1      1497 2.49943E-03-4.58813E-04-9.00235E-15
 -1      1498 2.53406E-03-4.69626E-04-8.90004E-15
 -1      1499 2.90673E-03-7.36743E-04-1.17029E-14
 -1      1500 2.76945E-03-6.43648E-04-1.07683E-14
 -1      1501 2.80539E-03-6.54859E-04-1.06497E-14
 -1      1502 3.18474E-03-9.23156E-04-1.36713E-14
 -1      1503 3.04522E-03-8.29948E-04-1.26707E-14
 -1      1504 3.08181E-03-8.41576E-04-1.25353E-14
 -1      1505 3.46616E-03-1.10911E-03-1.57672E-14
 -1      1506 3.32511E-03-1.01622E-03-1.47034E-14
 -1      1507 3.36193E-03-1.02822E-03-1.45520E-14
 -1      1508 3.74978E-03-1.29416E-03-1.79891E-14
 -1      1509 3.60776E-03-1.20175E-03-1.68629E-14
 -1      1510 3.64460E-03-1.21405E-03-1.66950E-14
 -1      1511 4.03475E-03-1.47826E-03-2.03324E-14
 -1      1512 3.89215E-03-1.38633E-03-1.91457E-14
 -1      1513 3.92889E-03-1.39884E-03-1.89617E-14
 -1      1514 4.32043E-03-1.66153E-03-2.27975E-14
 -1      1515 4.17753E-03-1.56999E-03-2.15496E-14
 -1      1516 4.21415E-03-1.58265E-03-2.13497E-14
 -1      1517 4.60646E-03-1.84416E-03-2.53844E-14
 -1      1518 4.46342E-03-1.75291E-03-2.40758E-14
 -1      1519 4.49993E-03-1.76567E-03-2.38584E-14
 -1      1520 4.89259E-03-2.02635E-03-2.80889E-14
 -1      1521 4.74952E-03-1.93530E-03-2.67222E-14
 -1      1522 4.78594E-03-1.94811E-03-2.64856E-14
 -1      1523 5.17870E-03-2.20826E-03-3.09008E-14
 -1      1524 5.03565E-03-2.11733E-03-2.94815E-14
 -1      1525 5.07201E-03-2.13016E-03-2.92267E-14
 -1      1526 5.46474E-03-2.39002E-03-3.38161E-14
 -1      1527 5.32173E-03-2.29915E-03-3.23458E-14
 -1      1528 5.35805E-03-2.31199E-03-3.20748E-14
 -1      1529 5.75068E-03-2.57172E-03-3.68274E-14
 -1      1530 5.60772E-03-2.48088E-03-3.53100E-14
 -1      1531 5.64402E-03-2.49371E-03-3.50244E-14
 -1      1532 6.03654E-03-2.75342E-03-3.99313E-14
 -1      1533 5.89362E-03-2.66257E-03-3.83677E-14
 -1      1534 5.92992E-03-2.67540E-03-3.80683E-14
 -1      1535 6.32233E-03-2.93515E-03-4.31416E-14
 -1      1536 6.17945E-03-2.84428E-03-4.15236E-14
 -1      1537 6.21575E-03-2.85710E-03-4.12108E-14
 -1      1538 6.60807E-03-3.11692E-03-4.64404E-14
 -1      1539 6.46521E-03-3.02603E-03-4.47791E-14
 -1      1540 6.50152E-03-3.03884E-03-4.44514E-14
 -1      1541 6.89378E-03-3.29874E-03-4.98372E-14
 -1      1542 6.75093E-03-3.20782E-03-4.81281E-14
 -1      1543 6.78726E-03-3.22062E-03-4.77864E-14
 -1      1544 7.17946E-03-3.48061E-03-5.33250E-14
 -1      1545 7.03662E-03-3.38967E-03-5.15693E-14
 -1      1546 7.07296E-03-3.40246E-03-5.12138E-14
 -1      1547 7.46513E-03-3.66252E-03-5.68982E-14
 -1      1548 7.32229E-03-3.57156E-03-5.51014E-14
 -1      1549 7.35865E-03-3.58435E-03-5.47299E-14
 -1      1550 7.75079E-03-3.84447E-03-6.05426E-14
 -1      1551 7.60796E-03-3.75349E-03-5.87115E-14
 -1      1552 7.64432E-03-3.76628E-03-5.83272E-14
 -1      1553 8.03646E-03-4.02645E-03-6.42744E-14
 -1      1554 7.89362E-03-3.93546E-03-6.23981E-14
 -1      1555 7.93000E-03-3.94824E-03-6.20039E-14
 -1      1556 8.32213E-03-4.20845E-03-6.80893E-14
 -1      1557 8.17929E-03-4.11745E-03-6.61712E-14
 -1      1558 8.21567E-03-4.13023E-03-6.57635E-14
 -1      1559 8.60780E-03-4.39048E-03-7.19762E-14
 -1      1560 8.46496E-03-4.29946E-03-7.00243E-14
 -1      1561 8.50135E-03-4.31224E-03-6.96012E-14
 -1      1562 8.89348E-03-4.57251E-03-7.59284E-14
 -1      1563 8.75064E-03-4.48149E-03-7.39441E-14
 -1      1564 8.78703E-03-4.49427E-03-7.35093E-14
 -1      1565 9.17917E-03-4.75455E-03-7.99449E-14
 -1      1566 9.03632E-03-4.66353E-03-7.79284E-14
 -1      1567 9.07271E-03-4.67631E-03-7.74827E-14
 -1      1568 9.46486E-03-4.93660E-03-8.40309E-14
 -1      1569 9.32201E-03-4.84558E-03-8.19788E-14
 -1      1570 9.35841E-03-4.85836E-03-8.15209E-14
 -1      1571 9.75055E-03-5.11866E-03-8.81704E-14
 -1      1572 9.60770E-03-5.02763E-03-8.60947E-14
 -1      1573 9.64410E-03-5.04041E-03-8.56187E-14
 -1      1574 1.00363E-02-5.30072E-03-9.23466E-14
 -1      1575 9.89340E-03-5.20969E-03-9.02543E-14
 -1      1576 9.92980E-03-5.22247E-03-8.97660E-14
 -1      1577 1.03220E-02-5.48278E-03-9.65624E-14
 -1      1578 1.01791E-02-5.39175E-03-9.44518E-14
 -1      1579 1.02155E-02-5.40452E-03-9.39538E-14
 -1      1580 1.06077E-02-5.66483E-03-1.00810E-13
 -1      1581 1.04648E-02-5.57380E-03-9.86834E-14
 -1      1582 1.05012E-02-5.58658E-03-9.81777E-14
 -1      1583 1.08934E-02-5.84689E-03-1.05083E-13
 -1      1584 1.07505E-02-5.75587E-03-1.02941E-13
 -1      1585 1.07869E-02-5.76864E-03-1.02429E-13
 -1      1586 1.11791E-02-6.02895E-03-1.09378E-13
 -1      1587 1.10362E-02-5.93793E-03-1.07228E-13
 -1      1588 1.10726E-02-5.95070E-03-1.06706E-13
 -1      1589 1.14648E-02-6.21101E-03-1.13687E-13
 -1      1590 1.13219E-02-6.11998E-03-1.11532E-13
 -1      1591 1.13583E-02-6.13276E-03-1.11005E-13
 -1      1592 1.17505E-02-6.39307E-03-1.18001E-13
 -1      1593 1.16076E-02-6.30204E-03-1.15844E-13
 -1      1594 1.16440E-02-6.31482E-03-1.15316E-13
 -1      1595 1.20362E-02-6.57513E-03-1.22331E-13
 -1      1596 1.18934E-02-6.48410E-03-1.20163E-13
 -1      1597 1.19298E-02-6.49688E-03-1.19637E-13
 -1      1598 1.23219E-02-6.75719E-03-1.26661E-13
 -1      1599 1.21791E-02-6.66616E-03-1.24495E-13
 -1      1600 1.22155E-02-6.67894E-03-1.23965E-13
 -1      1601 1.26076E-02-6.93925E-03-1.31000E-13
 -1      1602 1.24648E-02-6.84822E-03-1.28829E-13
 -1      1603 1.25012E-02-6.86100E-03-1.28304E-13
 -1      1604 1.28934E-02-7.12131E-03-1.35359E-13
 -1      1605 1.27505E-02-7.03028E-03-1.33178E-13
 -1      1606 1.27869E-02-7.04306E-03-1.32655E-13
 -1      1607 1.31791E-02-7.30336E-03-1.39741E-13
 -1      1608 1.30362E-02-7.21234E-03-1.37547E-13
 -1      1609 1.30726E-02-7.22512E-03-1.37024E-13
 -1      1610 1.34648E-02-7.48542E-03-1.44141E-13
 -1      1611 1.33219E-02-7.39439E-03-1.41941E-13
 -1      1612 1.33583E-02-7.40717E-03-1.41416E-13
 -1      1613 1.36536E-02-7.60126E-03-1.46580E-13
 -1      1614 1.38894E-02-7.71427E-03-1.46337E-13
 -1      1615 1.37999E-02-7.67212E-03-1.46506E-13
 -1      1616 1.40684E-02-7.79855E-03-1.45990E-13
 -1      1617 1.39789E-02-7.75641E-03-1.46166E-13
 -1      1618 1.38104E-02-7.65651E-03-1.44340E-13
 -1      1619 1.42474E-02-7.88284E-03-1.45636E-13
 -1      1620 1.41579E-02-7.84069E-03-1.45812E-13
 -1      1621 1.39895E-02-7.74079E-03-1.43988E-13
 -1      1622 1.44265E-02-7.96712E-03-1.45272E-13
 -1      1623 1.43370E-02-7.92498E-03-1.45456E-13
 -1      1624 1.41685E-02-7.82508E-03-1.43629E-13
 -1      1625 1.46024E-02-8.04998E-03-1.44902E-13
 -1      1626 1.45145E-02-8.00855E-03-1.45087E-13
 -1      1627 1.43460E-02-7.90865E-03-1.43263E-13
 -1      1628 1.47815E-02-8.13427E-03-1.44510E-13
 -1      1629 1.46920E-02-8.09212E-03-1.44709E-13
 -1      1630 1.45235E-02-7.99222E-03-1.42886E-13
 -1      1631 1.49605E-02-8.21855E-03-1.44126E-13
 -1      1632 1.48710E-02-8.17641E-03-1.44314E-13
 -1      1633 1.47025E-02-8.07651E-03-1.42498E-13
 -1      1634 1.51395E-02-8.30284E-03-1.43745E-13
 -1      1635 1.50500E-02-8.26070E-03-1.43935E-13
 -1      1636 1.48815E-02-8.16079E-03-1.42114E-13
 -1      1637 1.53185E-02-8.38713E-03-1.43364E-13
 -1      1638 1.52290E-02-8.34498E-03-1.43558E-13
 -1      1639 1.50606E-02-8.24508E-03-1.41735E-13
 -1      1640 1.54976E-02-8.47141E-03-1.42985E-13
 -1      1641 1.54080E-02-8.42927E-03-1.43172E-13
 -1      1642 1.52396E-02-8.32937E-03-1.41357E-13
 -1      1643 1.56735E-02-8.55427E-03-1.42619E-13
 -1      1644 1.55856E-02-8.51284E-03-1.42802E-13
 -1      1645 1.54171E-02-8.41294E-03-1.40978E-13
 -1      1646 1.58526E-02-8.63856E-03-1.42249E-13
 -1      1647 1.57631E-02-8.59641E-03-1.42435E-13
 -1      1648 1.55946E-02-8.49651E-03-1.40605E-13
 -1      1649 1.60316E-02-8.72284E-03-1.41889E-13
 -1      1650 1.59421E-02-8.68070E-03-1.42069E-13
 -1      1651 1.57736E-02-8.58080E-03-1.40235E-13
 -1      1652 1.62106E-02-8.80713E-03-1.41546E-13
 -1      1653 1.61211E-02-8.76498E-03-1.41715E-13
 -1      1654 1.59526E-02-8.66508E-03-1.39878E-13
 -1      1655 1.63812E-02-8.88913E-03-1.41392E-13
 -1      1656 1.62917E-02-8.84699E-03-1.41567E-13
 -1      1657 1.61233E-02-8.74709E-03-1.39723E-13
 -1      1658 1.62855E-02-8.82681E-03-1.39767E-13
 -1      1659 4.29478E-03-9.96359E-04-3.08795E-15
 -1      1660 4.36815E-03-1.03567E-03-3.08444E-15
 -1      1661 4.03119E-03-8.90315E-04-3.02961E-15
 -1      1662 4.17027E-03-9.45837E-04-3.07830E-15
 -1      1663 3.67543E-03-7.39718E-04-2.83524E-15
 -1      1664 3.84865E-03-8.10449E-04-2.92780E-15
 -1      1665 3.25704E-03-5.62218E-04-2.56255E-15
 -1      1666 3.45698E-03-6.47758E-04-2.69816E-15
 -1      1667 2.79558E-03-3.76241E-04-2.23611E-15
 -1      1668 3.00311E-03-4.66121E-04-2.40304E-15
 -1      1669 2.37689E-03-2.07093E-04-1.84157E-15
 -1      1670 2.57117E-03-2.77589E-04-2.01431E-15
 -1      1671 1.96030E-03-9.19691E-05-1.46056E-15
 -1      1672 2.14802E-03-1.37494E-04-1.63809E-15
 -1      1673 1.56829E-03-4.24381E-05-1.09629E-15
 -1      1674 1.74334E-03-5.54387E-05-1.25917E-15
 -1      1675 1.19168E-03-5.84385E-05-7.72602E-16
 -1      1676 1.36263E-03-4.50761E-05-9.14660E-16
 -1      1677 8.39220E-04-1.08009E-04-5.05238E-16
 -1      1678 9.98645E-04-8.14397E-05-6.19350E-16
 -1      1679 5.24641E-04-1.54132E-04-3.14812E-16
 -1      1680 6.56724E-04-1.34254E-04-3.95964E-16
 -1      1681 2.86519E-04-1.77148E-04-1.82295E-16
 -1      1682 3.87305E-04-1.69745E-04-2.37522E-16
 -1      1683 1.21675E-04-1.76298E-04-9.76053E-17
 -1      1684 1.90093E-04-1.81118E-04-1.30707E-16
 -1      1685 2.62727E-05-1.54760E-04-5.67495E-17
 -1      1686 6.21015E-05-1.64263E-04-7.20114E-17
 -1      1687-2.27285E-05-1.38491E-04-4.24308E-17
 -1      1688-4.03041E-06-1.45651E-04-4.61163E-17
 -1      1689-3.30958E-05-1.44506E-04-5.18333E-17
 -1      1690-3.45874E-05-1.38954E-04-4.50198E-17
 -1      1691 3.27281E-05-1.95879E-04-8.36263E-17
 -1      1692-1.01819E-05-1.63210E-04-6.58170E-17
 -1      1693 2.04679E-04-3.32989E-04-1.39032E-16
 -1      1694 1.11575E-04-2.59945E-04-1.10870E-16
 -1      1695 5.26110E-04-5.86515E-04-2.25731E-16
 -1      1696 3.60148E-04-4.48173E-04-1.79205E-16
 -1      1697 9.28482E-04-9.46030E-04-3.50279E-16
 -1      1698 7.34944E-04-7.74836E-04-2.88696E-16
 -1      1699 1.38241E-03-1.33941E-03-5.15023E-16
 -1      1700 1.16853E-03-1.15680E-03-4.32190E-16
 -1      1701 1.88041E-03-1.69307E-03-7.37664E-16
 -1      1702 1.65677E-03-1.54323E-03-6.22440E-16
 -1      1703 2.31819E-03-1.86580E-03-1.01175E-15
 -1      1704 2.11935E-03-1.80894E-03-8.85603E-16
 -1      1705 2.76329E-03-1.86784E-03-1.32614E-15
 -1      1706 2.55574E-03-1.88891E-03-1.17422E-15
 -1      1707 3.22256E-03-1.72600E-03-1.69997E-15
 -1      1708 3.00932E-03-1.80477E-03-1.52471E-15
 -1      1709 3.65732E-03-1.54177E-03-2.06240E-15
 -1      1710 3.46956E-03-1.62818E-03-1.89649E-15
 -1      1711 4.01213E-03-1.36353E-03-2.42993E-15
 -1      1712 3.85371E-03-1.43915E-03-2.27296E-15
 -1      1713 4.27362E-03-1.24267E-03-2.69845E-15
 -1      1714 4.17119E-03-1.29643E-03-2.57613E-15
 -1      1715 4.40664E-03-1.15083E-03-2.91831E-15
 -1      1716 4.36005E-03-1.18966E-03-2.82661E-15
 -1      1717 4.41593E-03-1.07716E-03-3.05338E-15
 -1      1718 4.42689E-03-1.10976E-03-3.00336E-15
 -1      1719 4.91961E-04-1.53778E-04 3.17129E-18
 -1      1720 5.24038E-04-1.69022E-04-1.69678E-17
 -1      1721 4.39933E-03-1.08164E-03-3.31351E-15
 -1      1722 3.50804E-03-7.60992E-04-2.96556E-15
 -1      1723 1.36900E-02-7.61404E-03-1.46057E-13
 -1      1724 1.36111E-02-7.55628E-03-1.44063E-13
 -1      1725 4.22537E-03-1.02506E-03-3.33659E-15
 -1      1726 3.91153E-03-9.23137E-04-3.21800E-15
 -1      1727 3.05002E-03-5.63739E-04-2.65193E-15
 -1      1728 2.60841E-03-3.48040E-04-2.24964E-15
 -1      1729 2.19925E-03-1.63936E-04-1.81051E-15
 -1      1730 1.81754E-03-4.90884E-05-1.39561E-15
 -1      1731 1.46452E-03-1.83599E-05-1.01018E-15
 -1      1732 1.11343E-03-5.62816E-05-6.80147E-16
 -1      1733 7.80728E-04-1.24671E-04-4.31485E-16
 -1      1734 4.80294E-04-1.77493E-04-2.58040E-16
 -1      1735 2.51508E-04-1.97217E-04-1.41211E-16
 -1      1736 9.94358E-05-1.82465E-04-7.62465E-17
 -1      1737 1.36053E-05-1.52476E-04-4.56517E-17
 -1      1738-2.63177E-05-1.27840E-04-3.87382E-17
 -1      1739-1.47908E-05-1.23813E-04-5.20531E-17
 -1      1740 9.31831E-05-1.71606E-04-8.45695E-17
 -1      1741 3.37185E-04-3.24278E-04-1.39971E-16
 -1      1742 7.11831E-04-6.13600E-04-2.25311E-16
 -1      1743 1.15477E-03-1.01778E-03-3.52583E-16
 -1      1744 1.62635E-03-1.44963E-03-5.25621E-16
 -1      1745 2.05243E-03-1.78450E-03-7.67588E-16
 -1      1746 2.44972E-03-1.91716E-03-1.07580E-15
 -1      1747 2.85481E-03-1.85247E-03-1.44421E-15
 -1      1748 3.28615E-03-1.66079E-03-1.85813E-15
 -1      1749 3.70827E-03-1.44814E-03-2.28447E-15
 -1      1750 4.06085E-03-1.28574E-03-2.66765E-15
 -1      1751 4.30984E-03-1.18498E-03-2.96139E-15
 -1      1752 4.42359E-03-1.12517E-03-3.18891E-15
 -1      1753 1.18470E-04-2.55558E-05-4.30293E-17
 -1      1754 2.00134E-04-2.90628E-05-4.21755E-17
 -1      1755 3.13233E-04-6.20942E-05-4.03188E-17
 -1      1756 4.11920E-04-1.02434E-04-3.00731E-17
 -1      1757 6.71574E-04-2.78485E-04-4.72712E-17
 -1      1758 3.64329E-04-1.38602E-04-6.73832E-17
 -1      1759-1.85799E-05-9.88184E-05-3.04322E-17
 -1      1760-1.53196E-05-7.75498E-05-3.23312E-17
 -1      1761 4.67534E-05-1.58661E-04-4.31140E-17
 -1      1762 1.23997E-05-1.37878E-04-3.54331E-17
 -1      1763 1.40034E-04-1.86890E-04-6.99039E-17
 -1      1764 8.93986E-05-1.76292E-04-5.68325E-17
 -1      1765 3.46109E-04-1.10072E-04-1.29779E-16
 -1      1766 3.04833E-04-1.46197E-04-1.13191E-16
 -1      1767 3.75504E-04-3.31567E-05-1.56288E-16
 -1      1768 3.67469E-04-6.93255E-05-1.43196E-16
 -1      1769 5.00629E-04-9.35927E-05-2.01323E-16
 -1      1770 3.64382E-04 2.39009E-05-1.75980E-16
 -1      1771 3.72065E-04-1.50687E-06-1.66696E-16
 -1      1772 5.16538E-04-1.13423E-05-2.36180E-16
 -1      1773 3.41224E-04 5.90618E-05-1.89315E-16
 -1      1774 3.52855E-04 4.34966E-05-1.83108E-16
 -1      1775 4.90676E-04 4.50811E-05-2.61293E-16
 -1      1776 3.17371E-04 8.17815E-05-1.96485E-16
 -1      1777 3.28887E-04 7.14265E-05-1.93476E-16
 -1      1778 4.56213E-04 8.10268E-05-2.77339E-16
 -1      1779 2.95841E-04 9.91425E-05-1.98301E-16
 -1      1780 3.06155E-04 9.07895E-05-1.98016E-16
 -1      1781 4.23783E-04 1.06571E-04-2.85484E-16
 -1      1782 2.76945E-04 1.16129E-04-1.92785E-16
 -1      1783 2.85920E-04 1.07536E-04-1.96539E-16
 -1      1784 3.95355E-04 1.28861E-04-2.85457E-16
 -1      1785 2.62030E-04 1.35669E-04-1.77958E-16
 -1      1786 2.68849E-04 1.25449E-04-1.87038E-16
 -1      1787 3.71528E-04 1.52511E-04-2.75469E-16
 -1      1788 2.54646E-04 1.62816E-04-1.48468E-16
 -1      1789 2.56740E-04 1.48118E-04-1.65666E-16
 -1      1790 3.53898E-04 1.81641E-04-2.51996E-16
 -1      1791 3.14603E-04 2.20510E-04-1.50447E-16
 -1      1792 2.84713E-04 1.89994E-04-1.53631E-16
 -1      1793 3.77537E-04 2.25841E-04-2.44515E-16
 -1      1794 4.43646E-04 2.84053E-04-2.58718E-16
 -1      1795 6.94371E-04 3.55442E-04-6.20760E-16
 -1      1796 5.70232E-04 3.28133E-04-4.16564E-16
 -1      1797 5.38046E-04 3.00497E-04-4.05993E-16
 -1      1798 1.80931E-03-1.52190E-03-4.66722E-16
 -1      1799 2.05084E-03-1.76005E-03-6.33635E-16
 -1      1800 3.11852E-03-1.76863E-03-1.83211E-15
 -1      1801 3.34459E-03-1.64461E-03-2.20277E-15
 -1      1802 3.58288E-03-1.52883E-03-2.63702E-15
 -1      1803 3.80708E-03-1.44528E-03-3.12922E-15
 -1      1804 4.03096E-03-1.40517E-03-3.68577E-15
 -1      1805 4.23602E-03-1.40090E-03-4.27758E-15
 -1      1806 3.98494E-03-1.36386E-03-3.50135E-15
 -1      1807 4.42974E-03-1.42255E-03-4.90316E-15
 -1      1808 4.61222E-03-1.47451E-03-5.56124E-15
 -1      1809 4.78776E-03-1.54353E-03-6.25047E-15
 -1      1810 4.95823E-03-1.62384E-03-6.97047E-15
 -1      1811 4.70302E-03-1.46987E-03-6.02087E-15
 -1      1812 5.13176E-03-1.71593E-03-7.75985E-15
 -1      1813 5.30205E-03-1.81318E-03-8.58218E-15
 -1      1814 5.02405E-03-1.63681E-03-7.50658E-15
 -1      1815 5.46038E-03-1.90827E-03-9.39631E-15
 -1      1816 5.61672E-03-2.00475E-03-1.02403E-14
 -1      1817 5.33692E-03-1.82655E-03-9.11985E-15
 -1      1818 5.77028E-03-2.10171E-03-1.11163E-14
 -1      1819 5.92236E-03-2.19868E-03-1.20221E-14
 -1      1820 5.63738E-03-2.01920E-03-1.08159E-14
 -1      1821 6.07248E-03-2.29539E-03-1.29578E-14
 -1      1822 6.22153E-03-2.39164E-03-1.39242E-14
 -1      1823 5.93413E-03-2.21298E-03-1.26335E-14
 -1      1824 6.36923E-03-2.48742E-03-1.49212E-14
 -1      1825 6.51617E-03-2.58264E-03-1.59491E-14
 -1      1826 6.22788E-03-2.40543E-03-1.45720E-14
 -1      1827 6.66221E-03-2.67739E-03-1.70081E-14
 -1      1828 6.80771E-03-2.77164E-03-1.80973E-14
 -1      1829 6.51928E-03-2.59590E-03-1.66334E-14
 -1      1830 6.95987E-03-2.87018E-03-1.92743E-14
 -1      1831 7.11162E-03-2.96826E-03-2.04840E-14
 -1      1832 6.81616E-03-2.78914E-03-1.88726E-14
 -1      1833 7.25577E-03-3.06136E-03-2.16657E-14
 -1      1834 7.39967E-03-3.15415E-03-2.28760E-14
 -1      1835 7.11171E-03-2.98070E-03-2.12385E-14
 -1      1836 7.54334E-03-3.24670E-03-2.41153E-14
 -1      1837 7.68684E-03-3.33902E-03-2.53828E-14
 -1      1838 7.39917E-03-3.16633E-03-2.36632E-14
 -1      1839 7.83020E-03-3.43117E-03-2.66755E-14
 -1      1840 7.97344E-03-3.52314E-03-2.79946E-14
 -1      1841 7.68602E-03-3.35100E-03-2.61997E-14
 -1      1842 8.11660E-03-3.61498E-03-2.93400E-14
 -1      1843 8.25968E-03-3.70670E-03-3.07096E-14
 -1      1844 7.97246E-03-3.53498E-03-2.88422E-14
 -1      1845 8.40271E-03-3.79832E-03-3.21076E-14
 -1      1846 8.54569E-03-3.88985E-03-3.35336E-14
 -1      1847 8.25862E-03-3.71843E-03-3.15897E-14
 -1      1848 8.68864E-03-3.98132E-03-3.49858E-14
 -1      1849 8.83156E-03-4.07271E-03-3.64676E-14
 -1      1850 8.54460E-03-3.90151E-03-3.44448E-14
 -1      1851 8.98160E-03-4.16862E-03-3.80531E-14
 -1      1852 9.13162E-03-4.26448E-03-3.96699E-14
 -1      1853 8.83760E-03-4.08888E-03-3.74855E-14
 -1      1854 9.27448E-03-4.35573E-03-4.12369E-14
 -1      1855 9.41734E-03-4.44695E-03-4.28288E-14
 -1      1856 9.13053E-03-4.27603E-03-4.06436E-14
 -1      1857 9.56018E-03-4.53814E-03-4.44482E-14
 -1      1858 9.70303E-03-4.62930E-03-4.60916E-14
 -1      1859 9.41627E-03-4.45847E-03-4.38307E-14
 -1      1860 9.84587E-03-4.72044E-03-4.77581E-14
 -1      1861 9.98870E-03-4.81157E-03-4.94488E-14
 -1      1862 9.70198E-03-4.64080E-03-4.71173E-14
 -1      1863 1.01315E-02-4.90268E-03-5.11604E-14
 -1      1864 1.02744E-02-4.99377E-03-5.28942E-14
 -1      1865 9.98767E-03-4.82305E-03-5.04967E-14
 -1      1866 1.04172E-02-5.08486E-03-5.46479E-14
 -1      1867 1.05600E-02-5.17593E-03-5.64219E-14
 -1      1868 1.02734E-02-5.00524E-03-5.39629E-14
 -1      1869 1.07100E-02-5.27155E-03-5.83068E-14
 -1      1870 1.08600E-02-5.36716E-03-6.02122E-14
 -1      1871 1.05662E-02-5.19195E-03-5.76020E-14
 -1      1872 1.10028E-02-5.45822E-03-6.20475E-14
 -1      1873 1.11457E-02-5.54926E-03-6.39035E-14
 -1      1874 1.08590E-02-5.37862E-03-6.13231E-14
 -1      1875 1.12885E-02-5.64031E-03-6.57800E-14
 -1      1876 1.14314E-02-5.73135E-03-6.76760E-14
 -1      1877 1.11447E-02-5.56071E-03-6.50337E-14
 -1      1878 1.15742E-02-5.82238E-03-6.95880E-14
 -1      1879 1.17170E-02-5.91342E-03-7.15150E-14
 -1      1880 1.14304E-02-5.74279E-03-6.88201E-14
 -1      1881 1.18599E-02-6.00445E-03-7.34634E-14
 -1      1882 1.20027E-02-6.09548E-03-7.54290E-14
 -1      1883 1.17161E-02-5.92486E-03-7.26795E-14
 -1      1884 1.21456E-02-6.18651E-03-7.74095E-14
 -1      1885 1.22884E-02-6.27754E-03-7.94089E-14
 -1      1886 1.20018E-02-6.10692E-03-7.66062E-14
 -1      1887 1.24313E-02-6.36857E-03-8.14223E-14
 -1      1888 1.25741E-02-6.45960E-03-8.34529E-14
 -1      1889 1.22875E-02-6.28898E-03-8.05988E-14
 -1      1890 1.27241E-02-6.55518E-03-8.56053E-14
 -1      1891 1.28741E-02-6.65075E-03-8.77715E-14
 -1      1892 1.25803E-02-6.47559E-03-8.47610E-14
 -1      1893 1.30170E-02-6.74178E-03-8.98483E-14
 -1      1894 1.31598E-02-6.83281E-03-9.19394E-14
 -1      1895 1.28732E-02-6.66219E-03-8.89891E-14
 -1      1896 1.33027E-02-6.92383E-03-9.40411E-14
 -1      1897 1.34455E-02-7.01486E-03-9.61533E-14
 -1      1898 1.31589E-02-6.84424E-03-9.31689E-14
 -1      1899 1.35884E-02-7.10588E-03-9.82757E-14
 -1      1900 1.37313E-02-7.19691E-03-1.00408E-13
 -1      1901 1.34446E-02-7.02629E-03-9.73914E-14
 -1      1902 1.38741E-02-7.28794E-03-1.02546E-13
 -1      1903 1.40170E-02-7.37896E-03-1.04687E-13
 -1      1904 1.37303E-02-7.20835E-03-1.01652E-13
 -1      1905 1.41598E-02-7.46999E-03-1.06835E-13
 -1      1906 1.43027E-02-7.56101E-03-1.08988E-13
 -1      1907 1.40160E-02-7.39040E-03-1.05936E-13
 -1      1908 1.44527E-02-7.65659E-03-1.11257E-13
 -1      1909 1.46027E-02-7.75217E-03-1.13532E-13
 -1      1910 1.43089E-02-7.57700E-03-1.10346E-13
 -1      1911 1.47455E-02-7.84320E-03-1.15705E-13
 -1      1912 1.48884E-02-7.93422E-03-1.17888E-13
 -1      1913 1.46017E-02-7.76361E-03-1.14783E-13
 -1      1914 1.50312E-02-8.02525E-03-1.20078E-13
 -1      1915 1.51741E-02-8.11628E-03-1.22276E-13
 -1      1916 1.48874E-02-7.94566E-03-1.19138E-13
 -1      1917 1.53170E-02-8.20731E-03-1.24482E-13
 -1      1918 1.54598E-02-8.29833E-03-1.26694E-13
 -1      1919 1.51731E-02-8.12772E-03-1.23528E-13
 -1      1920 1.56027E-02-8.38936E-03-1.28912E-13
 -1      1921 1.57455E-02-8.48039E-03-1.31132E-13
 -1      1922 1.54589E-02-8.30977E-03-1.27945E-13
 -1      1923 1.58884E-02-8.57142E-03-1.33351E-13
 -1      1924 1.60312E-02-8.66244E-03-1.35570E-13
 -1      1925 1.57446E-02-8.49183E-03-1.32377E-13
 -1      1926 1.61897E-02-8.76449E-03-1.38144E-13
 -1      1927 1.14468E-03 3.17876E-04-1.79507E-15
 -1      1928 1.02465E-03 3.43108E-04-1.42363E-15
 -1      1929 1.38532E-03 2.35468E-04-2.66548E-15
 -1      1930 1.26464E-03 2.81760E-04-2.20921E-15
 -1      1931 1.22923E-03 2.70541E-04-2.05288E-15
 -1      1932 1.62995E-03 1.17436E-04-3.70229E-15
 -1      1933 1.50695E-03 1.80420E-04-3.16347E-15
 -1      1934 1.48175E-03 1.77462E-04-2.96792E-15
 -1      1935 1.88073E-03-2.76155E-05-4.89757E-15
 -1      1936 1.75450E-03 4.78150E-05-4.28055E-15
 -1      1937 1.73777E-03 5.07115E-05-4.04570E-15
 -1      1938 2.13849E-03-1.91717E-04-6.24587E-15
 -1      1939 2.00875E-03-1.07711E-04-5.55247E-15
 -1      1940 1.99885E-03-1.01028E-04-5.27914E-15
 -1      1941 2.40308E-03-3.68045E-04-7.74276E-15
 -1      1942 2.27001E-03-2.78701E-04-6.97615E-15
 -1      1943 2.26545E-03-2.69859E-04-6.66321E-15
 -1      1944 2.67370E-03-5.51283E-04-9.38237E-15
 -1      1945 2.53775E-03-4.59059E-04-8.54494E-15
 -1      1946 2.53722E-03-4.49215E-04-8.19315E-15
 -1      1947 2.94922E-03-7.37687E-04-1.11618E-14
 -1      1948 2.81096E-03-6.44264E-04-1.02550E-14
 -1      1949 2.81336E-03-6.34155E-04-9.86432E-15
 -1      1950 3.22847E-03-9.24903E-04-1.30760E-14
 -1      1951 3.08848E-03-8.31299E-04-1.21022E-14
 -1      1952 3.09291E-03-8.21332E-04-1.16727E-14
 -1      1953 3.51039E-03-1.11165E-03-1.51185E-14
 -1      1954 3.36918E-03-1.01839E-03-1.40811E-14
 -1      1955 3.37493E-03-1.00875E-03-1.36142E-14
 -1      1956 3.79411E-03-1.29738E-03-1.72870E-14
 -1      1957 3.65209E-03-1.20466E-03-1.61873E-14
 -1      1958 3.65864E-03-1.19538E-03-1.56833E-14
 -1      1959 4.07897E-03-1.48200E-03-1.95780E-14
 -1      1960 3.93644E-03-1.38983E-03-1.84175E-14
 -1      1961 3.94345E-03-1.38087E-03-1.78769E-14
 -1      1962 4.36448E-03-1.66563E-03-2.19889E-14
 -1      1963 4.22167E-03-1.57393E-03-2.07682E-14
 -1      1964 4.22891E-03-1.56523E-03-2.01913E-14
 -1      1965 4.65034E-03-1.84849E-03-2.45189E-14
 -1      1966 4.50738E-03-1.75715E-03-2.32389E-14
 -1      1967 4.51472E-03-1.74863E-03-2.26249E-14
 -1      1968 4.93633E-03-2.03082E-03-2.71665E-14
 -1      1969 4.79333E-03-1.93971E-03-2.58286E-14
 -1      1970 4.80069E-03-1.93132E-03-2.51764E-14
 -1      1971 5.22236E-03-2.21279E-03-2.99250E-14
 -1      1972 5.07935E-03-2.12184E-03-2.85322E-14
 -1      1973 5.08670E-03-2.11351E-03-2.78436E-14
 -1      1974 5.50834E-03-2.39458E-03-3.27909E-14
 -1      1975 5.36535E-03-2.30370E-03-3.13448E-14
 -1      1976 5.37270E-03-2.29541E-03-3.06210E-14
 -1      1977 5.79427E-03-2.57627E-03-3.57574E-14
 -1      1978 5.65131E-03-2.48543E-03-3.42622E-14
 -1      1979 5.65864E-03-2.47715E-03-3.35045E-14
 -1      1980 6.08014E-03-2.75795E-03-3.88189E-14
 -1      1981 5.93721E-03-2.66711E-03-3.72762E-14
 -1      1982 5.94453E-03-2.65882E-03-3.64886E-14
 -1      1983 6.36595E-03-2.93965E-03-4.19815E-14
 -1      1984 6.22305E-03-2.84879E-03-4.03873E-14
 -1      1985 6.23037E-03-2.84049E-03-3.95691E-14
 -1      1986 6.65171E-03-3.12139E-03-4.52379E-14
 -1      1987 6.50883E-03-3.03051E-03-4.35985E-14
 -1      1988 6.51616E-03-3.02220E-03-4.27475E-14
 -1      1989 6.93744E-03-3.30319E-03-4.85887E-14
 -1      1990 6.79458E-03-3.21228E-03-4.69007E-14
 -1      1991 6.80191E-03-3.20395E-03-4.60218E-14
 -1      1992 7.22315E-03-3.48504E-03-5.20306E-14
 -1      1993 7.08030E-03-3.39411E-03-5.02991E-14
 -1      1994 7.08764E-03-3.38576E-03-4.93883E-14
 -1      1995 7.50884E-03-3.66694E-03-5.55601E-14
 -1      1996 7.36600E-03-3.57598E-03-5.37842E-14
 -1      1997 7.37335E-03-3.56762E-03-5.28448E-14
 -1      1998 7.79453E-03-3.84887E-03-5.91696E-14
 -1      1999 7.65169E-03-3.75790E-03-5.73559E-14
 -1      2000 7.65905E-03-3.74953E-03-5.63868E-14
 -1      2001 8.08021E-03-4.03085E-03-6.28614E-14
 -1      2002 7.93737E-03-3.93986E-03-6.10050E-14
 -1      2003 7.94474E-03-3.93147E-03-6.00117E-14
 -1      2004 8.36589E-03-4.21284E-03-6.66348E-14
 -1      2005 8.22305E-03-4.12184E-03-6.47387E-14
 -1      2006 8.23043E-03-4.11345E-03-6.37169E-14
 -1      2007 8.65158E-03-4.39486E-03-7.04808E-14
 -1      2008 8.50874E-03-4.30385E-03-6.85486E-14
 -1      2009 8.51612E-03-4.29545E-03-6.75013E-14
 -1      2010 8.93726E-03-4.57689E-03-7.43988E-14
 -1      2011 8.79442E-03-4.48587E-03-7.24314E-14
 -1      2012 8.80181E-03-4.47748E-03-7.13588E-14
 -1      2013 9.22296E-03-4.75893E-03-7.83807E-14
 -1      2014 9.08011E-03-4.66791E-03-7.63815E-14
 -1      2015 9.08750E-03-4.65951E-03-7.52839E-14
 -1      2016 9.50865E-03-4.94098E-03-8.24235E-14
 -1      2017 9.36580E-03-4.84996E-03-8.03940E-14
 -1      2018 9.37320E-03-4.84156E-03-7.92730E-14
 -1      2019 9.79435E-03-5.12304E-03-8.65254E-14
 -1      2020 9.65150E-03-5.03201E-03-8.44671E-14
 -1      2021 9.65890E-03-5.02361E-03-8.33216E-14
 -1      2022 1.00801E-02-5.30509E-03-9.06729E-14
 -1      2023 9.93720E-03-5.21406E-03-8.85959E-14
 -1      2024 9.94460E-03-5.20566E-03-8.74261E-14
 -1      2025 1.03658E-02-5.48715E-03-9.48627E-14
 -1      2026 1.02229E-02-5.39612E-03-9.27635E-14
 -1      2027 1.02303E-02-5.38772E-03-9.15787E-14
 -1      2028 1.06515E-02-5.66921E-03-9.90865E-14
 -1      2029 1.05086E-02-5.57818E-03-9.69703E-14
 -1      2030 1.05160E-02-5.56978E-03-9.57693E-14
 -1      2031 1.09372E-02-5.85127E-03-1.03339E-13
 -1      2032 1.07943E-02-5.76024E-03-1.01208E-13
 -1      2033 1.08017E-02-5.75184E-03-9.99927E-14
 -1      2034 1.12229E-02-6.03333E-03-1.07616E-13
 -1      2035 1.10800E-02-5.94230E-03-1.05475E-13
 -1      2036 1.10874E-02-5.93390E-03-1.04247E-13
 -1      2037 1.15086E-02-6.21539E-03-1.11914E-13
 -1      2038 1.13657E-02-6.12436E-03-1.09763E-13
 -1      2039 1.13731E-02-6.11596E-03-1.08525E-13
 -1      2040 1.17943E-02-6.39745E-03-1.16227E-13
 -1      2041 1.16514E-02-6.30642E-03-1.14071E-13
 -1      2042 1.16589E-02-6.29802E-03-1.12824E-13
 -1      2043 1.20800E-02-6.57951E-03-1.20552E-13
 -1      2044 1.19372E-02-6.48848E-03-1.18387E-13
 -1      2045 1.19446E-02-6.48008E-03-1.17141E-13
 -1      2046 1.23657E-02-6.76157E-03-1.24886E-13
 -1      2047 1.22229E-02-6.67054E-03-1.22718E-13
 -1      2048 1.22303E-02-6.66214E-03-1.21469E-13
 -1      2049 1.26514E-02-6.94363E-03-1.29230E-13
 -1      2050 1.25086E-02-6.85260E-03-1.27057E-13
 -1      2051 1.25160E-02-6.84420E-03-1.25808E-13
 -1      2052 1.29372E-02-7.12569E-03-1.33589E-13
 -1      2053 1.27943E-02-7.03466E-03-1.31408E-13
 -1      2054 1.28017E-02-7.02626E-03-1.30158E-13
 -1      2055 1.32229E-02-7.30774E-03-1.37966E-13
 -1      2056 1.30800E-02-7.21671E-03-1.35776E-13
 -1      2057 1.30874E-02-7.20831E-03-1.34525E-13
 -1      2058 1.34884E-02-7.47753E-03-1.42113E-13
 -1      2059 1.33455E-02-7.38650E-03-1.39913E-13
 -1      2060 1.33529E-02-7.37810E-03-1.38660E-13
 -1      2061 1.35983E-02-7.53561E-03-1.42560E-13
 -1      2062 1.40895E-02-7.76732E-03-1.41625E-13
 -1      2063 1.40000E-02-7.72518E-03-1.41807E-13
 -1      2064 1.39105E-02-7.68303E-03-1.41989E-13
 -1      2065 1.38210E-02-7.64089E-03-1.42168E-13
 -1      2066 1.38315E-02-7.62527E-03-1.39989E-13
 -1      2067 1.36878E-02-7.57775E-03-1.42386E-13
 -1      2068 1.42655E-02-7.85018E-03-1.41258E-13
 -1      2069 1.41775E-02-7.80875E-03-1.41442E-13
 -1      2070 1.40090E-02-7.70885E-03-1.39624E-13
 -1      2071 1.44445E-02-7.93446E-03-1.40876E-13
 -1      2072 1.43550E-02-7.89232E-03-1.41068E-13
 -1      2073 1.41866E-02-7.79242E-03-1.39250E-13
 -1      2074 1.46236E-02-8.01875E-03-1.40492E-13
 -1      2075 1.45340E-02-7.97661E-03-1.40684E-13
 -1      2076 1.43656E-02-7.87670E-03-1.38870E-13
 -1      2077 1.48026E-02-8.10303E-03-1.40110E-13
 -1      2078 1.47131E-02-8.06089E-03-1.40301E-13
 -1      2079 1.45446E-02-7.96099E-03-1.38487E-13
 -1      2080 1.49816E-02-8.18732E-03-1.39731E-13
 -1      2081 1.48921E-02-8.14518E-03-1.39918E-13
 -1      2082 1.47236E-02-8.04528E-03-1.38105E-13
 -1      2083 1.51606E-02-8.27161E-03-1.39349E-13
 -1      2084 1.50711E-02-8.22946E-03-1.39541E-13
 -1      2085 1.49026E-02-8.12956E-03-1.37724E-13
 -1      2086 1.53366E-02-8.35447E-03-1.38974E-13
 -1      2087 1.52486E-02-8.31304E-03-1.39162E-13
 -1      2088 1.50801E-02-8.21313E-03-1.37348E-13
 -1      2089 1.55156E-02-8.43875E-03-1.38596E-13
 -1      2090 1.54261E-02-8.39661E-03-1.38784E-13
 -1      2091 1.52577E-02-8.29671E-03-1.36965E-13
 -1      2092 1.56947E-02-8.52304E-03-1.38224E-13
 -1      2093 1.56051E-02-8.48089E-03-1.38407E-13
 -1      2094 1.54367E-02-8.38099E-03-1.36583E-13
 -1      2095 1.58737E-02-8.60732E-03-1.37867E-13
 -1      2096 1.57842E-02-8.56518E-03-1.38042E-13
 -1      2097 1.56157E-02-8.46528E-03-1.36211E-13
 -1      2098 9.19565E-04 3.59719E-04-1.13004E-15
 -1      2099 7.98852E-04 3.61095E-04-8.41273E-16
 -1      2100 7.73886E-04 3.39358E-04-8.16743E-16
 -1      2101 9.92648E-04 3.24022E-04-1.34470E-15
 -1      2102 3.78213E-03-9.53824E-04-3.45709E-15
 -1      2103 3.96573E-03-1.01462E-03-3.56921E-15
 -1      2104 2.88766E-03-5.63777E-04-2.79777E-15
 -1      2105 3.10917E-03-6.72413E-04-2.97693E-15
 -1      2106 4.15667E-03-1.06357E-03-3.63074E-15
 -1      2107 4.28217E-03-1.08633E-03-3.64255E-15
 -1      2108 1.81315E-04-1.76957E-04-7.59077E-17
 -1      2109 2.39990E-04-2.01326E-04-1.12825E-16
 -1      2110 3.36518E-04-1.99880E-04-1.54567E-16
 -1      2111 2.39378E-04-1.65267E-04-9.16015E-17
 -1      2112 4.37745E-03-1.10935E-03-3.66446E-15
 -1      2113 4.42502E-03-1.11599E-03-3.62715E-15
 -1      2114 2.63432E-06-6.63290E-05-3.87247E-17
 -1      2115 5.23409E-05-4.78706E-05-4.32258E-17
 -1      2116 2.43099E-03-3.05872E-04-2.26476E-15
 -1      2117 2.62032E-03-4.17249E-04-2.50209E-15
 -1      2118 2.07598E-03-1.30327E-04-1.81555E-15
 -1      2119 2.25052E-03-2.11446E-04-2.03226E-15
 -1      2120 2.29983E-03-2.69113E-04-2.26514E-15
 -1      2121 1.70871E-03-1.59586E-05-1.34606E-15
 -1      2122 1.86597E-03-5.50940E-05-1.55404E-15
 -1      2123 1.36725E-03-2.21330E-06-9.23740E-16
 -1      2124 1.51535E-03 4.75855E-06-1.10296E-15
 -1      2125 1.04710E-03-5.71178E-05-6.04524E-16
 -1      2126 1.20245E-03-2.36299E-05-7.50702E-16
 -1      2127 6.98566E-04-1.41606E-04-3.49235E-16
 -1      2128 8.44123E-04-1.04360E-04-4.43737E-16
 -1      2129 4.42296E-04-1.89255E-04-2.07489E-16
 -1      2130 5.66555E-04-1.68333E-04-2.72433E-16
 -1      2131 6.18624E-04-1.47558E-04-2.81649E-16
 -1      2132 3.91901E-04-1.84776E-04-1.63091E-16
 -1      2133 2.11539E-04-1.56732E-04-8.59434E-17
 -1      2134 1.11667E-04-1.12365E-04-6.80472E-17
 -1      2135 8.93251E-04-6.58425E-04-2.15566E-16
 -1      2136 6.85232E-04-4.79512E-04-1.69651E-16
 -1      2137 1.34356E-03-1.09584E-03-3.40656E-16
 -1      2138 1.13124E-03-8.81544E-04-2.75279E-16
 -1      2139 1.60989E-03-1.31071E-03-3.80474E-16
 -1      2140 2.20577E-03-1.87898E-03-7.72928E-16
 -1      2141 2.59629E-03-1.96701E-03-1.15917E-15
 -1      2142 2.44699E-03-1.96616E-03-9.90364E-16
 -1      2143 3.37214E-03-1.58990E-03-2.07863E-15
 -1      2144 3.18048E-03-1.70489E-03-1.86017E-15
 -1      2145 4.13057E-03-1.22617E-03-2.98257E-15
 -1      2146 3.98084E-03-1.28267E-03-2.81348E-15
 -1      2147 4.34022E-03-1.15863E-03-3.26944E-15
 -1      2148 4.24648E-03-1.18610E-03-3.12495E-15
 -1      2149 4.19122E-03-1.20120E-03-3.27828E-15
 -1      2150 4.43898E-03-1.12659E-03-3.54667E-15
 -1      2151 4.41480E-03-1.13431E-03-3.45010E-15
 -1      2152 3.32388E-03-7.65277E-04-3.12430E-15
 -1      2153 3.53525E-03-8.55520E-04-3.27604E-15
 -1      2154 3.17164E-03-7.53784E-04-3.27350E-15
 -1      2155-7.44844E-06-1.16278E-04-2.99714E-17
 -1      2156 3.81234E-04-1.69364E-04-1.49118E-16
 -1      2157 4.44327E-03-1.14091E-03-3.89218E-15
 -1      2158 3.62377E-03-9.43577E-04-3.61461E-15
 -1      2159 2.98142E-03-1.82695E-03-1.63210E-15
 -1      2160 8.15571E-04-3.97951E-04-6.93347E-17
 -1      2161 1.05166E-03-6.37018E-04-1.28966E-16
 -1      2162 1.31966E-03-9.07035E-04-1.96024E-16
 -1      2163 1.54305E-03-1.17782E-03-2.91976E-16
 -1      2164 3.54221E-03-1.51423E-03-2.49812E-15
 -1      2165 2.81529E-03-1.91456E-03-1.41299E-15
 -1      2166 1.60459E-02-8.68490E-03-1.37171E-13
 -1      2167 4.37044E-03-1.36537E-03-4.69648E-15
 -1      2168 1.36088E-02-7.51999E-03-1.40391E-13
 -1      2169 4.05505E-03-1.07767E-03-3.86993E-15
 -1      2170 1.60003E-02-8.66604E-03-1.37526E-13
 -1      2171 1.59192E-02-8.62618E-03-1.37506E-13
 -1      2172 1.57508E-02-8.52628E-03-1.35669E-13
 -1      2173 1.58419E-02-8.56400E-03-1.34951E-13
 -1      2174 2.71718E-03-5.11916E-04-2.80628E-15
 -1      2175 4.33471E-03-1.13099E-03-3.95655E-15
 -1      2176 4.38592E-03-1.15056E-03-3.61645E-15
 -1      2177 9.28326E-04-7.17899E-05-4.98326E-16
 -1      2178 1.26546E-03 8.51344E-07-8.28412E-16
 -1      2179 1.94250E-03-9.10552E-05-1.75386E-15
 -1      2180 6.44295E-04-3.06000E-04-8.61399E-17
 -1      2181 1.58339E-03 6.44189E-06-1.23995E-15
 -1      2182 1.05737E-03-7.36684E-04-2.06690E-16
 -1      2183 4.60462E-04-3.06349E-04-1.27624E-16
 -1      2184 3.00903E-04-2.09899E-04-1.01996E-16
 -1      2185 3.63917E-03-1.44631E-03-2.39428E-15
 -1      2186 3.54053E-03-1.49774E-03-2.40190E-15
 -1      2187 3.76359E-03-1.39028E-03-2.85206E-15
 -1      2188 3.81838E-03-1.35206E-03-2.63183E-15
 -1      2189 3.93022E-03-1.29910E-03-2.93472E-15
 -1      2190 5.96058E-04-3.45241E-04-1.22393E-16
 -1      2191 1.47296E-03 2.31645E-05-1.15129E-15
 -1      2192 1.62978E-03 1.38284E-06-1.39781E-15
 -1      2193 5.87972E-04 1.03000E-04-4.13379E-16
 -1      2194 6.10500E-04 8.67722E-05-4.05099E-16
 -1      2195 5.46782E-04 1.30962E-04-4.21646E-16
 -1      2196 5.66491E-04 1.17168E-04-4.18692E-16
 -1      2197 7.15259E-04 1.19589E-04-5.82352E-16
 -1      2198 5.11393E-04 1.59085E-04-4.18516E-16
 -1      2199 5.28249E-04 1.44745E-04-4.21700E-16
 -1      2200 6.66449E-04 1.50783E-04-5.89305E-16
 -1      2201 4.83204E-04 1.90749E-04-4.01724E-16
 -1      2202 4.96427E-04 1.74236E-04-4.12078E-16
 -1      2203 6.25968E-04 1.84822E-04-5.81539E-16
 -1      2204 4.64391E-04 2.30878E-04-3.65715E-16
 -1      2205 4.72396E-04 2.09606E-04-3.86721E-16
 -1      2206 5.94491E-04 2.25075E-04-5.55640E-16
 -1      2207 5.13299E-04 2.76953E-04-3.97103E-16
 -1      2208 4.85541E-04 2.51597E-04-3.80081E-16
 -1      2209 6.01931E-04 2.67857E-04-5.55084E-16
 -1      2210 6.43019E-04 3.09261E-04-5.90131E-16
 -1      2211 1.34862E-02-7.44124E-03-1.38441E-13
 -1      2212 4.31347E-03-1.31296E-03-4.42296E-15
 -1      2213 4.47445E-03-1.34561E-03-5.05521E-15
 -1      2214 4.92491E-03-1.55997E-03-7.24178E-15
 -1      2215 5.07435E-03-1.65305E-03-8.04008E-15
 -1      2216 5.21655E-03-1.74504E-03-8.83134E-15
 -1      2217 5.36015E-03-1.83961E-03-9.65116E-15
 -1      2218 5.10649E-03-1.66918E-03-8.53922E-15
 -1      2219 5.50362E-03-1.93516E-03-1.05008E-14
 -1      2220 5.64800E-03-2.03147E-03-1.13823E-14
 -1      2221 5.37712E-03-1.85503E-03-1.01858E-14
 -1      2222 5.79215E-03-2.12777E-03-1.22945E-14
 -1      2223 5.93674E-03-2.22399E-03-1.32357E-14
 -1      2224 5.65511E-03-2.04509E-03-1.19525E-14
 -1      2225 6.08105E-03-2.31984E-03-1.42064E-14
 -1      2226 6.22550E-03-2.41530E-03-1.52087E-14
 -1      2227 5.93748E-03-2.23582E-03-1.38397E-14
 -1      2228 6.36967E-03-2.51032E-03-1.62418E-14
 -1      2229 6.51385E-03-2.60489E-03-1.73051E-14
 -1      2230 6.22217E-03-2.42568E-03-1.58492E-14
 -1      2231 6.66497E-03-2.70374E-03-1.84542E-14
 -1      2232 6.81603E-03-2.80214E-03-1.96366E-14
 -1      2233 6.51513E-03-2.61887E-03-1.80341E-14
 -1      2234 6.95970E-03-2.89552E-03-2.07928E-14
 -1      2235 7.10330E-03-2.98856E-03-2.19780E-14
 -1      2236 6.80852E-03-2.81063E-03-2.03458E-14
 -1      2237 7.24675E-03-3.08134E-03-2.31915E-14
 -1      2238 7.39014E-03-3.17386E-03-2.44334E-14
 -1      2239 7.09486E-03-2.99652E-03-2.27198E-14
 -1      2240 7.53342E-03-3.26619E-03-2.57028E-14
 -1      2241 7.67664E-03-3.35832E-03-2.69996E-14
 -1      2242 7.38113E-03-3.18146E-03-2.52060E-14
 -1      2243 7.81978E-03-3.45030E-03-2.83221E-14
 -1      2244 7.96289E-03-3.54214E-03-2.96702E-14
 -1      2245 7.66731E-03-3.36567E-03-2.78017E-14
 -1      2246 8.10594E-03-3.63386E-03-3.10474E-14
 -1      2247 8.24895E-03-3.72548E-03-3.24499E-14
 -1      2248 7.95337E-03-3.54931E-03-3.05026E-14
 -1      2249 8.39193E-03-3.81702E-03-3.38779E-14
 -1      2250 8.53489E-03-3.90848E-03-3.53340E-14
 -1      2251 8.23933E-03-3.73254E-03-3.33105E-14
 -1      2252 8.68497E-03-4.00445E-03-3.68945E-14
 -1      2253 8.83503E-03-4.10036E-03-3.84849E-14
 -1      2254 8.53236E-03-3.92003E-03-3.63016E-14
 -1      2255 8.97793E-03-4.19165E-03-4.00267E-14
 -1      2256 9.12081E-03-4.28291E-03-4.15946E-14
 -1      2257 8.82533E-03-4.10727E-03-3.94094E-14
 -1      2258 9.26369E-03-4.37413E-03-4.31872E-14
 -1      2259 9.40656E-03-4.46532E-03-4.48057E-14
 -1      2260 9.11112E-03-4.28978E-03-4.25455E-14
 -1      2261 9.54942E-03-4.55648E-03-4.64496E-14
 -1      2262 9.69228E-03-4.64763E-03-4.81159E-14
 -1      2263 9.39687E-03-4.47216E-03-4.57823E-14
 -1      2264 9.83514E-03-4.73875E-03-4.98040E-14
 -1      2265 9.97799E-03-4.82986E-03-5.15164E-14
 -1      2266 9.68260E-03-4.65445E-03-4.91141E-14
 -1      2267 1.01208E-02-4.92096E-03-5.32494E-14
 -1      2268 1.02637E-02-5.01204E-03-5.50032E-14
 -1      2269 9.96832E-03-4.83666E-03-5.25364E-14
 -1      2270 1.04137E-02-5.10767E-03-5.68690E-14
 -1      2271 1.05637E-02-5.20329E-03-5.87534E-14
 -1      2272 1.02612E-02-5.02339E-03-5.61345E-14
 -1      2273 1.07065E-02-5.29435E-03-6.05690E-14
 -1      2274 1.08494E-02-5.38540E-03-6.24029E-14
 -1      2275 1.05540E-02-5.21007E-03-5.98154E-14
 -1      2276 1.09922E-02-5.47645E-03-6.42562E-14
 -1      2277 1.11351E-02-5.56749E-03-6.61315E-14
 -1      2278 1.08397E-02-5.39218E-03-6.34836E-14
 -1      2279 1.12779E-02-5.65853E-03-6.80236E-14
 -1      2280 1.14208E-02-5.74957E-03-6.99328E-14
 -1      2281 1.11254E-02-5.57426E-03-6.72275E-14
 -1      2282 1.15636E-02-5.84060E-03-7.18598E-14
 -1      2283 1.17065E-02-5.93163E-03-7.38053E-14
 -1      2284 1.14111E-02-5.75634E-03-7.10453E-14
 -1      2285 1.18493E-02-6.02266E-03-7.57667E-14
 -1      2286 1.19922E-02-6.11369E-03-7.77465E-14
 -1      2287 1.16968E-02-5.93840E-03-7.49313E-14
 -1      2288 1.21350E-02-6.20472E-03-7.97410E-14
 -1      2289 1.22779E-02-6.29575E-03-8.17508E-14
 -1      2290 1.19825E-02-6.12046E-03-7.88845E-14
 -1      2291 1.24279E-02-6.39133E-03-8.38818E-14
 -1      2292 1.25779E-02-6.48690E-03-8.60305E-14
 -1      2293 1.22754E-02-6.30707E-03-8.30070E-14
 -1      2294 1.27207E-02-6.57793E-03-8.80936E-14
 -1      2295 1.28636E-02-6.66896E-03-9.01686E-14
 -1      2296 1.25682E-02-6.49367E-03-8.71983E-14
 -1      2297 1.30064E-02-6.75998E-03-9.22560E-14
 -1      2298 1.31493E-02-6.85101E-03-9.43578E-14
 -1      2299 1.28539E-02-6.67572E-03-9.13475E-14
 -1      2300 1.32921E-02-6.94203E-03-9.64701E-14
 -1      2301 1.34350E-02-7.03306E-03-9.85910E-14
 -1      2302 1.31397E-02-6.85778E-03-9.55479E-14
 -1      2303 1.35778E-02-7.12409E-03-1.00720E-13
 -1      2304 1.37207E-02-7.21511E-03-1.02856E-13
 -1      2305 1.34254E-02-7.03983E-03-9.97906E-14
 -1      2306 1.38635E-02-7.30614E-03-1.04994E-13
 -1      2307 1.40064E-02-7.39717E-03-1.07138E-13
 -1      2308 1.37111E-02-7.22188E-03-1.04055E-13
 -1      2309 1.41564E-02-7.49274E-03-1.09395E-13
 -1      2310 1.43064E-02-7.58832E-03-1.11658E-13
 -1      2311 1.40039E-02-7.40848E-03-1.08446E-13
 -1      2312 1.44493E-02-7.67935E-03-1.13823E-13
 -1      2313 1.45921E-02-7.77037E-03-1.15991E-13
 -1      2314 1.42968E-02-7.59509E-03-1.12862E-13
 -1      2315 1.47350E-02-7.86140E-03-1.18165E-13
 -1      2316 1.48778E-02-7.95243E-03-1.20348E-13
 -1      2317 1.45825E-02-7.77714E-03-1.17196E-13
 -1      2318 1.50207E-02-8.04346E-03-1.22537E-13
 -1      2319 1.51635E-02-8.13448E-03-1.24735E-13
 -1      2320 1.48682E-02-7.95920E-03-1.21555E-13
 -1      2321 1.53064E-02-8.22551E-03-1.26939E-13
 -1      2322 1.54493E-02-8.31654E-03-1.29150E-13
 -1      2323 1.51539E-02-8.14125E-03-1.25942E-13
 -1      2324 1.55741E-02-8.39475E-03-1.30940E-13
 -1      2325 1.57170E-02-8.48578E-03-1.33155E-13
 -1      2326 1.56714E-02-8.46692E-03-1.33513E-13
 -1      2327 1.54217E-02-8.31049E-03-1.29931E-13
 -1      2328 1.84867E-03-1.92293E-05-4.39060E-15
 -1      2329 1.71507E-03 5.18180E-05-3.81205E-15
 -1      2330 1.58249E-03 1.16010E-04-3.27288E-15
 -1      2331 1.45069E-03 1.72432E-04-2.77327E-15
 -1      2332 1.68734E-03 5.13092E-05-3.58023E-15
 -1      2333 1.35529E-02-7.46608E-03-1.37620E-13
 -1      2334 1.32970E-02-7.32418E-03-1.35897E-13
 -1      2335 1.31960E-03 2.19730E-04-2.31434E-15
 -1      2336 1.18872E-03 2.57041E-04-1.89676E-15
 -1      2337 1.41500E-03 1.65585E-04-2.57975E-15
 -1      2338 2.11910E-03-1.77271E-04-5.66147E-15
 -1      2339 1.98335E-03-9.58841E-05-5.00708E-15
 -1      2340 1.96288E-03-9.21719E-05-4.73711E-15
 -1      2341 2.39382E-03-3.50336E-04-7.08105E-15
 -1      2342 2.25599E-03-2.62330E-04-6.35280E-15
 -1      2343 2.24198E-03-2.56086E-04-6.04529E-15
 -1      2344 2.67224E-03-5.32189E-04-8.64341E-15
 -1      2345 2.53267E-03-4.40467E-04-7.84472E-15
 -1      2346 2.52422E-03-4.32862E-04-7.49907E-15
 -1      2347 2.95354E-03-7.18330E-04-1.03453E-14
 -1      2348 2.81264E-03-6.24927E-04-9.47715E-15
 -1      2349 2.80879E-03-6.16681E-04-9.09346E-15
 -1      2350 3.23685E-03-9.05859E-04-1.21829E-14
 -1      2351 3.09504E-03-8.12042E-04-1.12475E-14
 -1      2352 3.09480E-03-8.03554E-04-1.08259E-14
 -1      2353 3.52149E-03-1.09314E-03-1.41510E-14
 -1      2354 3.37908E-03-9.99593E-04-1.31510E-14
 -1      2355 3.38154E-03-9.91061E-04-1.26913E-14
 -1      2356 3.80691E-03-1.27944E-03-1.62463E-14
 -1      2357 3.66415E-03-1.18644E-03-1.51829E-14
 -1      2358 3.66851E-03-1.17794E-03-1.46867E-14
 -1      2359 4.09276E-03-1.46453E-03-1.84643E-14
 -1      2360 3.94982E-03-1.37214E-03-1.73396E-14
 -1      2361 3.95545E-03-1.36371E-03-1.68069E-14
 -1      2362 4.37881E-03-1.64853E-03-2.08012E-14
 -1      2363 4.23578E-03-1.55666E-03-1.96177E-14
 -1      2364 4.24222E-03-1.54830E-03-1.90487E-14
 -1      2365 4.66492E-03-1.83165E-03-2.32579E-14
 -1      2366 4.52187E-03-1.74019E-03-2.20156E-14
 -1      2367 4.52878E-03-1.73187E-03-2.14097E-14
 -1      2368 4.95101E-03-2.01413E-03-2.58316E-14
 -1      2369 4.80797E-03-1.92296E-03-2.45303E-14
 -1      2370 4.81515E-03-1.91467E-03-2.38886E-14
 -1      2371 5.23705E-03-2.19619E-03-2.85178E-14
 -1      2372 5.09404E-03-2.10520E-03-2.71605E-14
 -1      2373 5.10135E-03-2.09693E-03-2.64827E-14
 -1      2374 5.52303E-03-2.37801E-03-3.13144E-14
 -1      2375 5.38005E-03-2.28712E-03-2.99025E-14
 -1      2376 5.38741E-03-2.27885E-03-2.91896E-14
 -1      2377 5.80895E-03-2.55970E-03-3.42162E-14
 -1      2378 5.66600E-03-2.46886E-03-3.27523E-14
 -1      2379 5.67337E-03-2.46059E-03-3.20051E-14
 -1      2380 6.09480E-03-2.74136E-03-3.72173E-14
 -1      2381 5.95188E-03-2.65053E-03-3.57042E-14
 -1      2382 5.95925E-03-2.64224E-03-3.49245E-14
 -1      2383 6.38061E-03-2.92303E-03-4.03149E-14
 -1      2384 6.23771E-03-2.83219E-03-3.87534E-14
 -1      2385 6.24508E-03-2.82388E-03-3.79436E-14
 -1      2386 6.66638E-03-3.10474E-03-4.35130E-14
 -1      2387 6.52350E-03-3.01388E-03-4.19023E-14
 -1      2388 6.53086E-03-3.00556E-03-4.10593E-14
 -1      2389 6.95212E-03-3.28651E-03-4.68024E-14
 -1      2390 6.80925E-03-3.19562E-03-4.51464E-14
 -1      2391 6.81661E-03-3.18728E-03-4.42742E-14
 -1      2392 7.23785E-03-3.46833E-03-5.01872E-14
 -1      2393 7.09499E-03-3.37741E-03-4.84833E-14
 -1      2394 7.10234E-03-3.36906E-03-4.75820E-14
 -1      2395 7.52356E-03-3.65020E-03-5.36569E-14
 -1      2396 7.38070E-03-3.55926E-03-5.19106E-14
 -1      2397 7.38806E-03-3.55090E-03-5.09808E-14
 -1      2398 7.80926E-03-3.83212E-03-5.72131E-14
 -1      2399 7.66641E-03-3.74116E-03-5.54245E-14
 -1      2400 7.67377E-03-3.73278E-03-5.44662E-14
 -1      2401 8.09495E-03-4.01408E-03-6.08498E-14
 -1      2402 7.95211E-03-3.92309E-03-5.90217E-14
 -1      2403 7.95947E-03-3.91471E-03-5.80362E-14
 -1      2404 8.38065E-03-4.19606E-03-6.45694E-14
 -1      2405 8.23780E-03-4.10507E-03-6.26989E-14
 -1      2406 8.24517E-03-4.09668E-03-6.16860E-14
 -1      2407 8.66635E-03-4.37807E-03-6.83655E-14
 -1      2408 8.52350E-03-4.28706E-03-6.64582E-14
 -1      2409 8.53087E-03-4.27867E-03-6.54177E-14
 -1      2410 8.95204E-03-4.56010E-03-7.22309E-14
 -1      2411 8.80919E-03-4.46908E-03-7.02889E-14
 -1      2412 8.81658E-03-4.46069E-03-6.92247E-14
 -1      2413 9.23774E-03-4.74213E-03-7.61656E-14
 -1      2414 9.09489E-03-4.65111E-03-7.41912E-14
 -1      2415 9.10228E-03-4.64272E-03-7.30999E-14
 -1      2416 9.52344E-03-4.92418E-03-8.01615E-14
 -1      2417 9.38059E-03-4.83316E-03-7.81563E-14
 -1      2418 9.38798E-03-4.82476E-03-7.70423E-14
 -1      2419 9.80915E-03-5.10623E-03-8.42172E-14
 -1      2420 9.66629E-03-5.01521E-03-8.21823E-14
 -1      2421 9.67369E-03-5.00681E-03-8.10476E-14
 -1      2422 1.00949E-02-5.28829E-03-8.83249E-14
 -1      2423 9.95200E-03-5.19726E-03-8.62637E-14
 -1      2424 9.95939E-03-5.18886E-03-8.51069E-14
 -1      2425 1.03806E-02-5.47035E-03-9.24797E-14
 -1      2426 1.02377E-02-5.37932E-03-9.03978E-14
 -1      2427 1.02451E-02-5.37092E-03-8.92197E-14
 -1      2428 1.06663E-02-5.65241E-03-9.66733E-14
 -1      2429 1.05234E-02-5.56138E-03-9.45711E-14
 -1      2430 1.05308E-02-5.55298E-03-9.33790E-14
 -1      2431 1.09520E-02-5.83447E-03-1.00898E-13
 -1      2432 1.08091E-02-5.74344E-03-9.87813E-14
 -1      2433 1.08165E-02-5.73504E-03-9.75743E-14
 -1      2434 1.12377E-02-6.01653E-03-1.05155E-13
 -1      2435 1.10948E-02-5.92550E-03-1.03023E-13
 -1      2436 1.11022E-02-5.91710E-03-1.01802E-13
 -1      2437 1.15234E-02-6.19859E-03-1.09433E-13
 -1      2438 1.13805E-02-6.10756E-03-1.07291E-13
 -1      2439 1.13879E-02-6.09916E-03-1.06061E-13
 -1      2440 1.18091E-02-6.38065E-03-1.13738E-13
 -1      2441 1.16663E-02-6.28962E-03-1.11584E-13
 -1      2442 1.16737E-02-6.28122E-03-1.10345E-13
 -1      2443 1.20948E-02-6.56271E-03-1.18056E-13
 -1      2444 1.19520E-02-6.47168E-03-1.15895E-13
 -1      2445 1.19594E-02-6.46328E-03-1.14652E-13
 -1      2446 1.23805E-02-6.74477E-03-1.22388E-13
 -1      2447 1.22377E-02-6.65374E-03-1.20219E-13
 -1      2448 1.22451E-02-6.64534E-03-1.18973E-13
 -1      2449 1.26663E-02-6.92683E-03-1.26731E-13
 -1      2450 1.25234E-02-6.83580E-03-1.24558E-13
 -1      2451 1.25308E-02-6.82740E-03-1.23307E-13
 -1      2452 1.29520E-02-7.10889E-03-1.31088E-13
 -1      2453 1.28091E-02-7.01786E-03-1.28908E-13
 -1      2454 1.28165E-02-7.00946E-03-1.27656E-13
 -1      2455 1.31542E-02-7.23315E-03-1.33705E-13
 -1      2456 1.41076E-02-7.73466E-03-1.37247E-13
 -1      2457 1.40181E-02-7.69251E-03-1.37437E-13
 -1      2458 1.39301E-02-7.65109E-03-1.37621E-13
 -1      2459 1.38421E-02-7.60966E-03-1.37804E-13
 -1      2460 1.38511E-02-7.59333E-03-1.35621E-13
 -1      2461 1.37422E-02-7.55894E-03-1.37621E-13
 -1      2462 1.36527E-02-7.51679E-03-1.37805E-13
 -1      2463 1.34636E-02-7.39974E-03-1.35258E-13
 -1      2464 1.36633E-02-7.50118E-03-1.35624E-13
 -1      2465 3.96257E-03-1.09763E-03-4.16621E-15
 -1      2466 4.14176E-03-1.13418E-03-4.23453E-15
 -1      2467 1.42866E-02-7.81894E-03-1.36863E-13
 -1      2468 1.41971E-02-7.77680E-03-1.37054E-13
 -1      2469 1.40286E-02-7.67690E-03-1.35244E-13
 -1      2470 1.44656E-02-7.90323E-03-1.36480E-13
 -1      2471 1.43761E-02-7.86109E-03-1.36670E-13
 -1      2472 1.42077E-02-7.76119E-03-1.34861E-13
 -1      2473 1.46447E-02-7.98752E-03-1.36101E-13
 -1      2474 1.45551E-02-7.94537E-03-1.36292E-13
 -1      2475 1.43867E-02-7.84547E-03-1.34479E-13
 -1      2476 1.48237E-02-8.07180E-03-1.35718E-13
 -1      2477 1.47342E-02-8.02966E-03-1.35908E-13
 -1      2478 1.45657E-02-7.92976E-03-1.34098E-13
 -1      2479 1.49997E-02-8.15466E-03-1.35340E-13
 -1      2480 1.49117E-02-8.11323E-03-1.35531E-13
 -1      2481 1.47432E-02-8.01333E-03-1.33717E-13
 -1      2482 1.51787E-02-8.23895E-03-1.34954E-13
 -1      2483 1.50892E-02-8.19680E-03-1.35147E-13
 -1      2484 1.49207E-02-8.09690E-03-1.33332E-13
 -1      2485 1.53577E-02-8.32323E-03-1.34575E-13
 -1      2486 1.52682E-02-8.28109E-03-1.34764E-13
 -1      2487 1.50997E-02-8.18119E-03-1.32947E-13
 -1      2488 1.55367E-02-8.40752E-03-1.34203E-13
 -1      2489 1.54472E-02-8.36538E-03-1.34386E-13
 -1      2490 1.52788E-02-8.26548E-03-1.32568E-13
 -1      2491 3.07004E-03-7.55387E-04-3.51467E-15
 -1      2492 3.25880E-03-8.45493E-04-3.67828E-15
 -1      2493 4.44638E-03-1.17038E-03-4.29638E-15
 -1      2494 4.46160E-03-1.16410E-03-4.20674E-15
 -1      2495 4.64159E-03-1.40284E-03-5.81326E-15
 -1      2496 4.78391E-03-1.47740E-03-6.51215E-15
 -1      2497 4.84648E-03-1.49422E-03-7.01132E-15
 -1      2498 3.95610E-03-1.32890E-03-3.29227E-15
 -1      2499 4.14688E-03-1.30527E-03-3.86164E-15
 -1      2500 6.34350E-04 6.88483E-05-3.94622E-16
 -1      2501 6.57054E-04 4.61572E-05-3.80474E-16
 -1      2502 7.71850E-04 8.70805E-05-5.61956E-16
 -1      2503 6.78295E-04 1.91774E-05-3.63940E-16
 -1      2504 6.89427E-04-1.62639E-05-3.42689E-16
 -1      2505 8.32380E-04 4.57425E-05-5.26489E-16
 -1      2506 2.98148E-04-1.42870E-04-7.82929E-17
 -1      2507 1.09158E-03-6.90069E-04-1.52249E-16
 -1      2508 4.28637E-03-1.16487E-03-4.35614E-15
 -1      2509 4.37960E-03-1.17121E-03-4.37710E-15
 -1      2510 2.17540E-03-2.27885E-04-2.26371E-15
 -1      2511 2.32818E-03-3.21883E-04-2.50817E-15
 -1      2512 1.82838E-03-5.83707E-05-1.71025E-15
 -1      2513 2.00013E-03-1.35478E-04-1.98455E-15
 -1      2514 1.16074E-03 1.88789E-06-7.33354E-16
 -1      2515 1.29382E-03 2.20074E-05-9.01189E-16
 -1      2516 8.11609E-04-8.07777E-05-4.01941E-16
 -1      2517 9.85178E-04-3.46218E-05-5.50368E-16
 -1      2518 4.85542E-04-1.56917E-04-1.98802E-16
 -1      2519 4.43134E-03-1.16405E-03-4.03023E-15
 -1      2520 4.36044E-03-1.16961E-03-3.83233E-15
 -1      2521 3.96403E-03-1.29951E-03-3.17873E-15
 -1      2522 2.55723E-03-4.60540E-04-2.85180E-15
 -1      2523 2.79383E-03-6.03163E-04-3.16724E-15
 -1      2524 4.09411E-03-1.24700E-03-3.38294E-15
 -1      2525 4.28927E-03-1.18571E-03-3.68625E-15
 -1      2526 4.19307E-03-1.21230E-03-3.52678E-15
 -1      2527 4.21914E-03-1.23254E-03-3.79024E-15
 -1      2528 4.36835E-03-1.19438E-03-4.09466E-15
 -1      2529 3.49426E-03-9.45058E-04-3.87104E-15
 -1      2530 3.72375E-03-1.03195E-03-4.06799E-15
 -1      2531 3.39344E-03-9.35835E-04-4.12182E-15
 -1      2532 8.64878E-04-9.95919E-06-4.75152E-16
 -1      2533 6.84648E-04-4.99215E-05-3.21073E-16
 -1      2534 6.56714E-04-9.74165E-05-2.93155E-16
 -1      2535 4.28494E-03-1.26442E-03-4.18990E-15
 -1      2536 7.54368E-04 3.19648E-04-7.97824E-16
 -1      2537 7.35679E-04 3.00060E-04-7.76492E-16
 -1      2538 8.66608E-04 3.19034E-04-1.03956E-15
 -1      2539 4.43162E-03-1.20031E-03-4.69987E-15
 -1      2540 3.84763E-03-1.09508E-03-4.43031E-15
 -1      2541 1.14463E-03 2.41606E-04-1.74123E-15
 -1      2542 1.05808E-03 2.83005E-04-1.52118E-15
 -1      2543 1.31616E-02-7.22475E-03-1.32451E-13
 -1      2544 4.57957E-03-1.34339E-03-5.51222E-15
 -1      2545 4.22024E-03-1.18195E-03-4.65834E-15
 -1      2546 2.90856E-03-6.93577E-04-3.55538E-15
 -1      2547 9.42900E-04 3.00574E-04-1.22549E-15
 -1      2548 1.56259E-02-8.44806E-03-1.33874E-13
 -1      2549 4.47101E-03-1.18684E-03-4.43163E-15
 -1      2550 1.54574E-02-8.34816E-03-1.32050E-13
 -1      2551 1.02326E-03-6.00933E-06-6.06259E-16
 -1      2552 1.70061E-03-2.54053E-05-1.59828E-15
 -1      2553 2.04891E-03-1.80738E-04-2.20697E-15
 -1      2554 2.42799E-03-4.06831E-04-2.84220E-15
 -1      2555 1.35284E-03 3.18771E-05-1.03129E-15
 -1      2556 5.96724E-04-1.33770E-04-2.59124E-16
 -1      2557 8.38100E-04 1.30141E-04-7.84325E-16
 -1      2558 8.68873E-04 1.13824E-04-7.76207E-16
 -1      2559 7.17493E-04 2.81221E-04-7.52436E-16
 -1      2560 7.00177E-04 2.63003E-04-7.26361E-16
 -1      2561 8.34161E-04 2.83857E-04-9.82870E-16
 -1      2562 5.00551E-03-1.60226E-03-8.26715E-15
 -1      2563 5.13003E-03-1.69130E-03-9.06446E-15
 -1      2564 7.39377E-04 2.05358E-04-7.73795E-16
 -1      2565 7.60355E-04 1.84443E-04-7.83526E-16
 -1      2566 4.51145E-03-1.22401E-03-4.90845E-15
 -1      2567 4.48787E-03-1.21651E-03-4.71736E-15
 -1      2568 5.25803E-03-1.78192E-03-9.89166E-15
 -1      2569 5.38993E-03-1.87456E-03-1.07471E-14
 -1      2570 5.14265E-03-1.71430E-03-9.59344E-15
 -1      2571 5.52415E-03-1.96777E-03-1.16340E-14
 -1      2572 5.66083E-03-2.06181E-03-1.25520E-14
 -1      2573 5.39619E-03-1.89430E-03-1.13138E-14
 -1      2574 5.79891E-03-2.15590E-03-1.34985E-14
 -1      2575 5.93848E-03-2.25018E-03-1.44747E-14
 -1      2576 5.66265E-03-2.07857E-03-1.31532E-14
 -1      2577 6.07884E-03-2.34426E-03-1.54830E-14
 -1      2578 6.22006E-03-2.43824E-03-1.65204E-14
 -1      2579 5.93720E-03-2.26454E-03-1.51142E-14
 -1      2580 6.36880E-03-2.53663E-03-1.76426E-14
 -1      2581 6.51806E-03-2.63479E-03-1.87984E-14
 -1      2582 6.22368E-03-2.45546E-03-1.72490E-14
 -1      2583 6.66042E-03-2.72799E-03-1.99294E-14
 -1      2584 6.80303E-03-2.82097E-03-2.10895E-14
 -1      2585 6.51314E-03-2.64601E-03-1.95108E-14
 -1      2586 6.94574E-03-2.91371E-03-2.22788E-14
 -1      2587 7.08856E-03-3.00625E-03-2.34964E-14
 -1      2588 6.79717E-03-2.83131E-03-2.18360E-14
 -1      2589 7.23142E-03-3.09860E-03-2.47425E-14
 -1      2590 7.37434E-03-3.19077E-03-2.60158E-14
 -1      2591 7.08209E-03-3.01598E-03-2.42758E-14
 -1      2592 7.51727E-03-3.28280E-03-2.73155E-14
 -1      2593 7.66021E-03-3.37470E-03-2.86416E-14
 -1      2594 7.36747E-03-3.20009E-03-2.68278E-14
 -1      2595 7.80315E-03-3.46648E-03-2.99940E-14
 -1      2596 7.94609E-03-3.55815E-03-3.13738E-14
 -1      2597 7.65309E-03-3.38373E-03-2.94854E-14
 -1      2598 8.08903E-03-3.64974E-03-3.27806E-14
 -1      2599 8.23196E-03-3.74125E-03-3.42122E-14
 -1      2600 7.93882E-03-3.56699E-03-3.22464E-14
 -1      2601 8.38202E-03-3.83726E-03-3.57468E-14
 -1      2602 8.53208E-03-3.93321E-03-3.73127E-14
 -1      2603 8.23174E-03-3.75452E-03-3.51901E-14
 -1      2604 8.67498E-03-4.02454E-03-3.88305E-14
 -1      2605 8.81787E-03-4.11582E-03-4.03751E-14
 -1      2606 8.52466E-03-3.94182E-03-3.82491E-14
 -1      2607 8.96076E-03-4.20707E-03-4.19451E-14
 -1      2608 9.10365E-03-4.29828E-03-4.35394E-14
 -1      2609 8.81043E-03-4.12437E-03-4.13416E-14
 -1      2610 9.24652E-03-4.38947E-03-4.51595E-14
 -1      2611 9.38940E-03-4.48063E-03-4.68039E-14
 -1      2612 9.09619E-03-4.30678E-03-4.45359E-14
 -1      2613 9.53227E-03-4.57177E-03-4.84710E-14
 -1      2614 9.67513E-03-4.66290E-03-5.01597E-14
 -1      2615 9.38194E-03-4.48910E-03-4.78269E-14
 -1      2616 9.81800E-03-4.75400E-03-5.18718E-14
 -1      2617 9.96086E-03-4.84510E-03-5.36051E-14
 -1      2618 9.66768E-03-4.67134E-03-5.12070E-14
 -1      2619 1.01109E-02-4.94074E-03-5.54473E-14
 -1      2620 1.02609E-02-5.03636E-03-5.73134E-14
 -1      2621 9.96055E-03-4.85809E-03-5.47612E-14
 -1      2622 1.04037E-02-5.12743E-03-5.91098E-14
 -1      2623 1.05466E-02-5.21849E-03-6.09248E-14
 -1      2624 1.02534E-02-5.04478E-03-5.84037E-14
 -1      2625 1.06894E-02-5.30954E-03-6.27594E-14
 -1      2626 1.08323E-02-5.40059E-03-6.46120E-14
 -1      2627 1.05391E-02-5.22690E-03-6.20355E-14
 -1      2628 1.09751E-02-5.49163E-03-6.64843E-14
 -1      2629 1.11180E-02-5.58267E-03-6.83747E-14
 -1      2630 1.08249E-02-5.40899E-03-6.57428E-14
 -1      2631 1.12608E-02-5.67370E-03-7.02837E-14
 -1      2632 1.14037E-02-5.76474E-03-7.22078E-14
 -1      2633 1.11106E-02-5.59107E-03-6.95221E-14
 -1      2634 1.15466E-02-5.85577E-03-7.41506E-14
 -1      2635 1.16894E-02-5.94680E-03-7.61109E-14
 -1      2636 1.13963E-02-5.77314E-03-7.33718E-14
 -1      2637 1.18323E-02-6.03783E-03-7.80872E-14
 -1      2638 1.19751E-02-6.12886E-03-8.00792E-14
 -1      2639 1.16820E-02-5.95520E-03-7.72897E-14
 -1      2640 1.21251E-02-6.22444E-03-8.21881E-14
 -1      2641 1.22751E-02-6.32002E-03-8.43172E-14
 -1      2642 1.19749E-02-6.14181E-03-8.13739E-14
 -1      2643 1.24180E-02-6.41104E-03-8.63628E-14
 -1      2644 1.25608E-02-6.50207E-03-8.84226E-14
 -1      2645 1.22677E-02-6.32842E-03-8.55281E-14
 -1      2646 1.27037E-02-6.59310E-03-9.04959E-14
 -1      2647 1.28465E-02-6.68412E-03-9.25825E-14
 -1      2648 1.25534E-02-6.51047E-03-8.96440E-14
 -1      2649 1.29894E-02-6.77515E-03-9.46791E-14
 -1      2650 1.31323E-02-6.86617E-03-9.67917E-14
 -1      2651 1.28391E-02-6.69252E-03-9.38159E-14
 -1      2652 1.32751E-02-6.95720E-03-9.89140E-14
 -1      2653 1.34180E-02-7.04823E-03-1.01040E-13
 -1      2654 1.31248E-02-6.87457E-03-9.80345E-14
 -1      2655 1.35608E-02-7.13925E-03-1.03172E-13
 -1      2656 1.37037E-02-7.23028E-03-1.05306E-13
 -1      2657 1.34106E-02-7.05662E-03-1.02286E-13
 -1      2658 1.38537E-02-7.32586E-03-1.07555E-13
 -1      2659 1.40037E-02-7.42143E-03-1.09810E-13
 -1      2660 1.37034E-02-7.24323E-03-1.06666E-13
 -1      2661 1.41465E-02-7.51246E-03-1.11962E-13
 -1      2662 1.42894E-02-7.60349E-03-1.14122E-13
 -1      2663 1.39963E-02-7.42983E-03-1.11064E-13
 -1      2664 1.44322E-02-7.69451E-03-1.16285E-13
 -1      2665 1.45751E-02-7.78554E-03-1.18456E-13
 -1      2666 1.42820E-02-7.61189E-03-1.15376E-13
 -1      2667 1.47180E-02-7.87657E-03-1.20633E-13
 -1      2668 1.48608E-02-7.96760E-03-1.22815E-13
 -1      2669 1.45677E-02-7.79394E-03-1.19712E-13
 -1      2670 1.50037E-02-8.05862E-03-1.25007E-13
 -1      2671 1.51465E-02-8.14965E-03-1.27205E-13
 -1      2672 1.48534E-02-7.97599E-03-1.24079E-13
 -1      2673 1.53325E-02-8.26995E-03-1.30262E-13
 -1      2674 1.79652E-03-1.67071E-05-3.89035E-15
 -1      2675 1.65557E-03 4.96626E-05-3.34994E-15
 -1      2676 2.08076E-03-1.68230E-04-5.08601E-15
 -1      2677 1.93824E-03-8.97019E-05-4.46933E-15
 -1      2678 1.91011E-03-8.81396E-05-4.20355E-15
 -1      2679 1.23700E-03 1.97104E-04-1.96651E-15
 -1      2680 1.09822E-03 2.25499E-04-1.58668E-15
 -1      2681 1.32614E-02-7.27547E-03-1.32634E-13
 -1      2682 1.30592E-02-7.15121E-03-1.30016E-13
 -1      2683 1.33613E-02-7.32619E-03-1.32815E-13
 -1      2684 2.65710E-03-5.17514E-04-7.91725E-15
 -1      2685 2.51236E-03-4.26593E-04-7.15596E-15
 -1      2686 2.94723E-03-7.02724E-04-9.54365E-15
 -1      2687 2.80216E-03-6.09696E-04-8.71350E-15
 -1      2688 2.79287E-03-6.03949E-04-8.33658E-15
 -1      2689 3.23745E-03-8.89823E-04-1.13053E-14
 -1      2690 3.09242E-03-7.96172E-04-1.04075E-14
 -1      2691 3.08795E-03-7.89948E-04-9.99340E-15
 -1      2692 3.52717E-03-1.07691E-03-1.31988E-14
 -1      2693 3.38243E-03-9.83433E-04-1.22360E-14
 -1      2694 3.38177E-03-9.76800E-04-1.17840E-14
 -1      2695 3.81615E-03-1.26311E-03-1.52205E-14
 -1      2696 3.67179E-03-1.17014E-03-1.41942E-14
 -1      2697 3.67398E-03-1.16314E-03-1.37056E-14
 -1      2698 4.10437E-03-1.44817E-03-1.73658E-14
 -1      2699 3.96038E-03-1.35578E-03-1.62779E-14
 -1      2700 3.96458E-03-1.34845E-03-1.57531E-14
 -1      2701 4.39189E-03-1.63214E-03-1.96311E-14
 -1      2702 4.24822E-03-1.54027E-03-1.84835E-14
 -1      2703 4.25377E-03-1.53267E-03-1.79223E-14
 -1      2704 4.67887E-03-1.81523E-03-2.20159E-14
 -1      2705 4.53545E-03-1.72378E-03-2.08089E-14
 -1      2706 4.54186E-03-1.71596E-03-2.02123E-14
 -1      2707 4.96544E-03-1.99768E-03-2.45166E-14
 -1      2708 4.82220E-03-1.90652E-03-2.32515E-14
 -1      2709 4.82912E-03-1.89854E-03-2.26193E-14
 -1      2710 5.25171E-03-2.17971E-03-2.71319E-14
 -1      2711 5.10861E-03-2.08874E-03-2.58098E-14
 -1      2712 5.11580E-03-2.08064E-03-2.51413E-14
 -1      2713 5.53778E-03-2.36149E-03-2.98576E-14
 -1      2714 5.39477E-03-2.27062E-03-2.84807E-14
 -1      2715 5.40210E-03-2.26245E-03-2.77774E-14
 -1      2716 5.82371E-03-2.54315E-03-3.26929E-14
 -1      2717 5.68076E-03-2.45233E-03-3.12628E-14
 -1      2718 5.68816E-03-2.44410E-03-3.05242E-14
 -1      2719 6.10956E-03-2.72477E-03-3.56308E-14
 -1      2720 5.96665E-03-2.63396E-03-3.41498E-14
 -1      2721 5.97406E-03-2.62568E-03-3.33786E-14
 -1      2722 6.39535E-03-2.90640E-03-3.86665E-14
 -1      2723 6.25246E-03-2.81558E-03-3.71358E-14
 -1      2724 6.25987E-03-2.80728E-03-3.63339E-14
 -1      2725 6.68111E-03-3.08808E-03-4.18025E-14
 -1      2726 6.53823E-03-2.99723E-03-4.02222E-14
 -1      2727 6.54563E-03-2.98891E-03-3.93886E-14
 -1      2728 6.96684E-03-3.26982E-03-4.50337E-14
 -1      2729 6.82398E-03-3.17894E-03-4.34065E-14
 -1      2730 6.83136E-03-3.17060E-03-4.25414E-14
 -1      2731 7.25256E-03-3.45161E-03-4.83587E-14
 -1      2732 7.10971E-03-3.36071E-03-4.66848E-14
 -1      2733 7.11708E-03-3.35235E-03-4.57918E-14
 -1      2734 7.53828E-03-3.63347E-03-5.17741E-14
 -1      2735 7.39542E-03-3.54253E-03-5.00561E-14
 -1      2736 7.40279E-03-3.53417E-03-4.91343E-14
 -1      2737 7.82399E-03-3.81537E-03-5.52728E-14
 -1      2738 7.68113E-03-3.72441E-03-5.35118E-14
 -1      2739 7.68850E-03-3.71604E-03-5.25645E-14
 -1      2740 8.10969E-03-3.99731E-03-5.88565E-14
 -1      2741 7.96684E-03-3.90633E-03-5.70549E-14
 -1      2742 7.97421E-03-3.89795E-03-5.60773E-14
 -1      2743 8.39540E-03-4.17928E-03-6.25196E-14
 -1      2744 8.25255E-03-4.08829E-03-6.06775E-14
 -1      2745 8.25992E-03-4.07991E-03-5.96742E-14
 -1      2746 8.68110E-03-4.36129E-03-6.62642E-14
 -1      2747 8.53825E-03-4.27028E-03-6.43823E-14
 -1      2748 8.54563E-03-4.26189E-03-6.33508E-14
 -1      2749 8.96681E-03-4.54330E-03-7.00794E-14
 -1      2750 8.82396E-03-4.45229E-03-6.81643E-14
 -1      2751 8.83134E-03-4.44390E-03-6.71067E-14
 -1      2752 9.25252E-03-4.72534E-03-7.39669E-14
 -1      2753 9.10966E-03-4.63432E-03-7.20150E-14
 -1      2754 9.11705E-03-4.62593E-03-7.09341E-14
 -1      2755 9.53822E-03-4.90738E-03-7.79151E-14
 -1      2756 9.39537E-03-4.81636E-03-7.59335E-14
 -1      2757 9.40276E-03-4.80796E-03-7.48285E-14
 -1      2758 9.82393E-03-5.08943E-03-8.19286E-14
 -1      2759 9.68108E-03-4.99841E-03-7.99151E-14
 -1      2760 9.68847E-03-4.99001E-03-7.87870E-14
 -1      2761 1.01096E-02-5.27149E-03-8.59944E-14
 -1      2762 9.96679E-03-5.18046E-03-8.39549E-14
 -1      2763 9.97418E-03-5.17206E-03-8.28048E-14
 -1      2764 1.03954E-02-5.45355E-03-9.01130E-14
 -1      2765 1.02525E-02-5.36252E-03-8.80466E-14
 -1      2766 1.02599E-02-5.35412E-03-8.68794E-14
 -1      2767 1.06811E-02-5.63561E-03-9.42745E-14
 -1      2768 1.05382E-02-5.54458E-03-9.21886E-14
 -1      2769 1.05456E-02-5.53618E-03-9.10032E-14
 -1      2770 1.09668E-02-5.81767E-03-9.84738E-14
 -1      2771 1.08239E-02-5.72664E-03-9.63700E-14
 -1      2772 1.08313E-02-5.71824E-03-9.51689E-14
 -1      2773 1.12525E-02-5.99973E-03-1.02708E-13
 -1      2774 1.11096E-02-5.90870E-03-1.00589E-13
 -1      2775 1.11170E-02-5.90030E-03-9.93745E-14
 -1      2776 1.15382E-02-6.18179E-03-1.06968E-13
 -1      2777 1.13953E-02-6.09076E-03-1.04834E-13
 -1      2778 1.14027E-02-6.08236E-03-1.03613E-13
 -1      2779 1.18239E-02-6.36385E-03-1.11259E-13
 -1      2780 1.16811E-02-6.27282E-03-1.09110E-13
 -1      2781 1.16885E-02-6.26442E-03-1.07878E-13
 -1      2782 1.21096E-02-6.54591E-03-1.15567E-13
 -1      2783 1.19668E-02-6.45488E-03-1.13410E-13
 -1      2784 1.19742E-02-6.44648E-03-1.12171E-13
 -1      2785 1.23953E-02-6.72797E-03-1.19890E-13
 -1      2786 1.22525E-02-6.63694E-03-1.17728E-13
 -1      2787 1.22599E-02-6.62854E-03-1.16484E-13
 -1      2788 1.26811E-02-6.91003E-03-1.24233E-13
 -1      2789 1.25382E-02-6.81900E-03-1.22060E-13
 -1      2790 1.25456E-02-6.81060E-03-1.20812E-13
 -1      2791 1.29416E-02-7.07613E-03-1.28209E-13
 -1      2792 1.27987E-02-6.98510E-03-1.26031E-13
 -1      2793 1.28061E-02-6.97670E-03-1.24781E-13
 -1      2794 1.30414E-02-7.12685E-03-1.28388E-13
 -1      2795 4.50245E-03-1.26440E-03-4.98934E-15
 -1      2796 4.61990E-03-1.32825E-03-5.74277E-15
 -1      2797 1.37714E-02-7.53521E-03-1.33626E-13
 -1      2798 1.36834E-02-7.49378E-03-1.33809E-13
 -1      2799 1.41287E-02-7.70343E-03-1.32863E-13
 -1      2800 1.40392E-02-7.66128E-03-1.33054E-13
 -1      2801 1.43077E-02-7.78771E-03-1.32483E-13
 -1      2802 1.42182E-02-7.74557E-03-1.32672E-13
 -1      2803 1.40497E-02-7.64567E-03-1.30871E-13
 -1      2804 1.39501E-02-7.61932E-03-1.33247E-13
 -1      2805 1.38605E-02-7.57717E-03-1.33437E-13
 -1      2806 1.36928E-02-7.47763E-03-1.31630E-13
 -1      2807 1.38711E-02-7.56156E-03-1.31251E-13
 -1      2808 2.36792E-03-3.37587E-04-6.43053E-15
 -1      2809 2.22405E-03-2.51163E-04-5.73990E-15
 -1      2810 2.20265E-03-2.47310E-04-5.43726E-15
 -1      2811 2.49735E-03-4.21526E-04-6.81639E-15
 -1      2812 1.44867E-02-7.87200E-03-1.32098E-13
 -1      2813 1.43972E-02-7.82986E-03-1.32292E-13
 -1      2814 1.42288E-02-7.72995E-03-1.30488E-13
 -1      2815 1.46627E-02-7.95486E-03-1.31715E-13
 -1      2816 1.45747E-02-7.91343E-03-1.31906E-13
 -1      2817 1.44063E-02-7.81353E-03-1.30103E-13
 -1      2818 1.48418E-02-8.03914E-03-1.31328E-13
 -1      2819 1.47522E-02-7.99700E-03-1.31522E-13
 -1      2820 1.45838E-02-7.89710E-03-1.29716E-13
 -1      2821 1.50208E-02-8.12343E-03-1.30942E-13
 -1      2822 1.49313E-02-8.08129E-03-1.31132E-13
 -1      2823 1.47628E-02-7.98139E-03-1.29326E-13
 -1      2824 4.35478E-03-1.24507E-03-4.35111E-15
 -1      2825 1.01730E-03 2.13105E-05-6.41631E-16
 -1      2826 4.42649E-03-1.24111E-03-5.19588E-15
 -1      2827 4.49007E-03-1.23498E-03-5.10888E-15
 -1      2828 4.77247E-03-1.43522E-03-6.76121E-15
 -1      2829 4.88671E-03-1.51728E-03-7.49952E-15
 -1      2830 4.90888E-03-1.54274E-03-7.99214E-15
 -1      2831 4.66429E-04-1.96848E-04-7.69106E-17
 -1      2832 9.02024E-04 9.84754E-05-7.64051E-16
 -1      2833 9.37595E-04 8.19958E-05-7.47164E-16
 -1      2834 1.02739E-03 1.00338E-04-9.99133E-16
 -1      2835 9.64337E-04 6.54176E-05-7.12497E-16
 -1      2836 1.00014E-03 4.45424E-05-6.85378E-16
 -1      2837 1.16342E-03 4.31925E-05-8.52833E-16
 -1      2838 1.09943E-03 7.21952E-05-9.44598E-16
 -1      2839 2.76595E-03-6.39449E-04-3.67554E-15
 -1      2840 3.01274E-03-7.79101E-04-4.04670E-15
 -1      2841 2.29668E-03-3.49234E-04-2.83466E-15
 -1      2842 2.50151E-03-4.78541E-04-3.19711E-15
 -1      2843 3.76018E-03-1.09755E-03-4.74174E-15
 -1      2844 3.97456E-03-1.15641E-03-4.85045E-15
 -1      2845 1.58979E-03 1.04062E-07-1.50184E-15
 -1      2846 1.76524E-03-5.98497E-05-1.82431E-15
 -1      2847 1.94623E-03-1.43548E-04-2.16990E-15
 -1      2848 2.09996E-03-2.30385E-04-2.45981E-15
 -1      2849 1.31717E-03 4.37953E-05-1.09266E-15
 -1      2850 8.05748E-04-4.78862E-04-1.37124E-16
 -1      2851 1.51547E-03 1.08145E-04-2.84878E-15
 -1      2852 1.37590E-03 1.57682E-04-2.38729E-15
 -1      2853 1.33436E-03 1.49010E-04-2.19700E-15
 -1      2854 1.62067E-03 4.71935E-05-3.12165E-15
 -1      2855 3.29941E-03-9.18976E-04-4.36851E-15
 -1      2856 3.50836E-03-1.00917E-03-4.57941E-15
 -1      2857 4.14092E-03-1.19652E-03-4.97834E-15
 -1      2858 4.28245E-03-1.22188E-03-5.10608E-15
 -1      2859 4.06633E-03-1.20284E-03-5.30152E-15
 -1      2860 7.83712E-04 1.65093E-04-7.88337E-16
 -1      2861 8.09829E-04 1.46858E-04-7.88378E-16
 -1      2862 9.57537E-04 1.33712E-04-1.01775E-15
 -1      2863 8.99157E-04 1.73390E-04-1.01685E-15
 -1      2864 5.75158E-04-3.04174E-04-1.05317E-16
 -1      2865 1.51823E-02-8.18732E-03-1.29321E-13
 -1      2866 7.14703E-04 2.37034E-04-7.50525E-16
 -1      2867 8.43589E-04 2.29595E-04-9.86123E-16
 -1      2868 3.14963E-03-8.60054E-04-4.49203E-15
 -1      2869 4.66269E-03-1.35214E-03-6.19037E-15
 -1      2870 1.35609E-02-7.42763E-03-1.33176E-13
 -1      2871 1.34611E-02-7.37691E-03-1.32996E-13
 -1      2872 1.32589E-02-7.25264E-03-1.30376E-13
 -1      2873 1.82538E-03-9.81533E-05-2.05023E-15
 -1      2874 1.51998E-02-8.20772E-03-1.30563E-13
 -1      2875 1.51103E-02-8.16557E-03-1.30751E-13
 -1      2876 4.38113E-03-1.26193E-03-5.52713E-15
 -1      2877 3.66419E-03-1.08157E-03-4.99991E-15
 -1      2878 2.18606E-03-2.96917E-04-2.78551E-15
 -1      2879 2.62731E-03-5.68833E-04-3.65714E-15
 -1      2880 1.49418E-02-8.06567E-03-1.28940E-13
 -1      2881 4.54089E-03-1.26522E-03-5.41005E-15
 -1      2882 1.24118E-03 5.63057E-05-1.10345E-15
 -1      2883 1.42965E-03 3.12999E-05-1.31926E-15
 -1      2884 1.49511E-03 1.29319E-05-1.51658E-15
 -1      2885 1.20281E-03 6.71811E-05-1.14944E-15
 -1      2886 1.34812E-02-7.36951E-03-1.31187E-13
 -1      2887 1.50138E-02-8.08742E-03-1.27510E-13
 -1      2888 4.41521E-03-1.23458E-03-4.51227E-15
 -1      2889 1.41498E-02-7.67220E-03-1.28496E-13
 -1      2890 1.40603E-02-7.63005E-03-1.28690E-13
 -1      2891 5.26878E-03-1.82489E-03-1.09910E-14
 -1      2892 5.39646E-03-1.91410E-03-1.18840E-14
 -1      2893 5.52730E-03-2.00413E-03-1.28072E-14
 -1      2894 5.66090E-03-2.09527E-03-1.37606E-14
 -1      2895 5.39208E-03-1.93263E-03-1.24582E-14
 -1      2896 5.79649E-03-2.18679E-03-1.47439E-14
 -1      2897 5.93383E-03-2.27884E-03-1.57576E-14
 -1      2898 5.65623E-03-2.11111E-03-1.43714E-14
 -1      2899 6.07934E-03-2.37560E-03-1.68529E-14
 -1      2900 6.22604E-03-2.47256E-03-1.79828E-14
 -1      2901 5.93554E-03-2.29713E-03-1.64559E-14
 -1      2902 6.36648E-03-2.56488E-03-1.90903E-14
 -1      2903 6.50757E-03-2.65720E-03-2.02267E-14
 -1      2904 6.22030E-03-2.48466E-03-1.86669E-14
 -1      2905 6.64907E-03-2.74945E-03-2.13905E-14
 -1      2906 6.79096E-03-2.84162E-03-2.25851E-14
 -1      2907 6.50136E-03-2.66819E-03-2.09439E-14
 -1      2908 6.93308E-03-2.93370E-03-2.38088E-14
 -1      2909 7.07543E-03-3.02569E-03-2.50595E-14
 -1      2910 6.78438E-03-2.85181E-03-2.33388E-14
 -1      2911 7.21791E-03-3.11759E-03-2.63378E-14
 -1      2912 7.36052E-03-3.20939E-03-2.76423E-14
 -1      2913 7.06857E-03-3.03533E-03-2.58453E-14
 -1      2914 7.50320E-03-3.30111E-03-2.89734E-14
 -1      2915 7.64594E-03-3.39275E-03-3.03306E-14
 -1      2916 7.35346E-03-3.21865E-03-2.84601E-14
 -1      2917 7.78873E-03-3.48432E-03-3.17144E-14
 -1      2918 7.93155E-03-3.57582E-03-3.31236E-14
 -1      2919 7.63874E-03-3.40174E-03-3.11793E-14
 -1      2920 8.08153E-03-3.67183E-03-3.46335E-14
 -1      2921 8.23153E-03-3.76778E-03-3.61740E-14
 -1      2922 7.93139E-03-3.58920E-03-3.40756E-14
 -1      2923 8.37439E-03-3.85912E-03-3.76685E-14
 -1      2924 8.51726E-03-3.95042E-03-3.91911E-14
 -1      2925 8.22417E-03-3.77646E-03-3.70872E-14
 -1      2926 8.66013E-03-4.04168E-03-4.07388E-14
 -1      2927 8.80300E-03-4.13291E-03-4.23126E-14
 -1      2928 8.50986E-03-3.95901E-03-4.01337E-14
 -1      2929 8.94588E-03-4.22411E-03-4.39109E-14
 -1      2930 9.08875E-03-4.31528E-03-4.55341E-14
 -1      2931 8.79559E-03-4.14144E-03-4.32844E-14
 -1      2932 9.23162E-03-4.40643E-03-4.71811E-14
 -1      2933 9.37450E-03-4.49757E-03-4.88499E-14
 -1      2934 9.08132E-03-4.32377E-03-4.65325E-14
 -1      2935 9.51737E-03-4.58868E-03-5.05403E-14
 -1      2936 9.66023E-03-4.67979E-03-5.22519E-14
 -1      2937 9.36706E-03-4.50603E-03-4.98724E-14
 -1      2938 9.81024E-03-4.77543E-03-5.40755E-14
 -1      2939 9.96025E-03-4.87107E-03-5.59195E-14
 -1      2940 9.65994E-03-4.69278E-03-5.33864E-14
 -1      2941 1.01031E-02-4.96214E-03-5.76974E-14
 -1      2942 1.02460E-02-5.05320E-03-5.94949E-14
 -1      2943 9.95282E-03-4.87949E-03-5.69916E-14
 -1      2944 1.03888E-02-5.14426E-03-6.13111E-14
 -1      2945 1.05317E-02-5.23531E-03-6.31466E-14
 -1      2946 1.02386E-02-5.06162E-03-6.05876E-14
 -1      2947 1.06746E-02-5.32636E-03-6.50022E-14
 -1      2948 1.08174E-02-5.41740E-03-6.68732E-14
 -1      2949 1.05243E-02-5.24372E-03-6.42604E-14
 -1      2950 1.09603E-02-5.50844E-03-6.87616E-14
 -1      2951 1.11031E-02-5.59947E-03-7.06692E-14
 -1      2952 1.08100E-02-5.42580E-03-6.80040E-14
 -1      2953 1.12460E-02-5.69051E-03-7.25946E-14
 -1      2954 1.13889E-02-5.78154E-03-7.45354E-14
 -1      2955 1.10957E-02-5.60787E-03-7.18183E-14
 -1      2956 1.15317E-02-5.87257E-03-7.64941E-14
 -1      2957 1.16746E-02-5.96360E-03-7.84691E-14
 -1      2958 1.13814E-02-5.78994E-03-7.56993E-14
 -1      2959 1.18246E-02-6.05918E-03-8.05608E-14
 -1      2960 1.19746E-02-6.15476E-03-8.26695E-14
 -1      2961 1.16743E-02-5.97655E-03-7.97484E-14
 -1      2962 1.21174E-02-6.24579E-03-8.46947E-14
 -1      2963 1.22603E-02-6.33681E-03-8.67384E-14
 -1      2964 1.19672E-02-6.16316E-03-8.38660E-14
 -1      2965 1.24032E-02-6.42784E-03-8.87958E-14
 -1      2966 1.25460E-02-6.51887E-03-9.08670E-14
 -1      2967 1.22529E-02-6.34521E-03-8.79467E-14
 -1      2968 1.26889E-02-6.60989E-03-9.29534E-14
 -1      2969 1.28317E-02-6.70092E-03-9.50499E-14
 -1      2970 1.25386E-02-6.52726E-03-9.20894E-14
 -1      2971 1.29746E-02-6.79194E-03-9.71559E-14
 -1      2972 1.31174E-02-6.88297E-03-9.92757E-14
 -1      2973 1.28243E-02-6.70931E-03-9.62832E-14
 -1      2974 1.32603E-02-6.97400E-03-1.01403E-13
 -1      2975 1.34032E-02-7.06502E-03-1.03532E-13
 -1      2976 1.31100E-02-6.89137E-03-1.00517E-13
 -1      2977 1.35532E-02-7.16060E-03-1.05775E-13
 -1      2978 1.37032E-02-7.25618E-03-1.08022E-13
 -1      2979 1.34029E-02-7.07797E-03-1.04885E-13
 -1      2980 1.38460E-02-7.34720E-03-1.10167E-13
 -1      2981 1.39889E-02-7.43823E-03-1.12317E-13
 -1      2982 1.36958E-02-7.26458E-03-1.09271E-13
 -1      2983 1.41317E-02-7.52926E-03-1.14471E-13
 -1      2984 1.42746E-02-7.62028E-03-1.16633E-13
 -1      2985 1.39815E-02-7.44663E-03-1.13571E-13
 -1      2986 1.44174E-02-7.71131E-03-1.18801E-13
 -1      2987 1.45603E-02-7.80234E-03-1.20974E-13
 -1      2988 1.42672E-02-7.62868E-03-1.17889E-13
 -1      2989 1.47032E-02-7.89337E-03-1.23154E-13
 -1      2990 1.48460E-02-7.98439E-03-1.25342E-13
 -1      2991 1.45529E-02-7.81074E-03-1.22236E-13
 -1      2992 1.45048E-02-7.83934E-03-1.27722E-13
 -1      2993 1.44153E-02-7.79720E-03-1.27916E-13
 -1      2994 1.03459E-03 1.97201E-04-1.37370E-15
 -1      2995 9.42498E-04 2.28251E-04-1.19593E-15
 -1      2996 2.02843E-03-1.63148E-04-4.51997E-15
 -1      2997 1.87918E-03-8.70836E-05-3.94015E-15
 -1      2998 3.23113E-03-8.78297E-04-1.04436E-14
 -1      2999 3.08181E-03-7.85123E-04-9.58343E-15
 -1      3000 2.93181E-03-6.92159E-04-8.75672E-15
 -1      3001 2.78143E-03-5.99624E-04-7.96322E-15
 -1      3002 3.07419E-03-7.81666E-04-9.17688E-15
 -1      3003 3.82204E-03-1.24966E-03-1.42120E-14
 -1      3004 3.67532E-03-1.15714E-03-1.32220E-14
 -1      3005 4.11382E-03-1.43388E-03-1.62840E-14
 -1      3006 3.96822E-03-1.34188E-03-1.52323E-14
 -1      3007 3.97137E-03-1.33617E-03-1.47168E-14
 -1      3008 4.40368E-03-1.61716E-03-1.84783E-14
 -1      3009 4.25897E-03-1.52561E-03-1.73667E-14
 -1      3010 4.26387E-03-1.51919E-03-1.68146E-14
 -1      3011 4.69211E-03-1.79972E-03-2.07916E-14
 -1      3012 4.54806E-03-1.70851E-03-1.96203E-14
 -1      3013 4.55409E-03-1.70150E-03-1.90332E-14
 -1      3014 4.97952E-03-1.98179E-03-2.32209E-14
 -1      3015 4.83593E-03-1.89080E-03-2.19913E-14
 -1      3016 4.84265E-03-1.88334E-03-2.13689E-14
 -1      3017 5.26624E-03-2.16354E-03-2.57643E-14
 -1      3018 5.12295E-03-2.07269E-03-2.44781E-14
 -1      3019 5.13007E-03-2.06491E-03-2.38196E-14
 -1      3020 5.55253E-03-2.34513E-03-2.84216E-14
 -1      3021 5.40943E-03-2.25435E-03-2.70796E-14
 -1      3022 5.41676E-03-2.24635E-03-2.63854E-14
 -1      3023 5.83854E-03-2.52666E-03-3.11893E-14
 -1      3024 5.69556E-03-2.43590E-03-2.97916E-14
 -1      3025 5.70298E-03-2.42776E-03-2.90646E-14
 -1      3026 6.12440E-03-2.70820E-03-3.40622E-14
 -1      3027 5.98149E-03-2.61743E-03-3.26125E-14
 -1      3028 5.98894E-03-2.60919E-03-3.18507E-14
 -1      3029 6.41018E-03-2.88977E-03-3.70349E-14
 -1      3030 6.26730E-03-2.79898E-03-3.55367E-14
 -1      3031 6.27475E-03-2.79068E-03-3.47428E-14
 -1      3032 6.69591E-03-3.07141E-03-4.01082E-14
 -1      3033 6.55304E-03-2.98058E-03-3.85593E-14
 -1      3034 6.56048E-03-2.97225E-03-3.77352E-14
 -1      3035 6.98162E-03-3.25311E-03-4.32796E-14
 -1      3036 6.83876E-03-3.16225E-03-4.16814E-14
 -1      3037 6.84618E-03-3.15390E-03-4.08255E-14
 -1      3038 7.26732E-03-3.43489E-03-4.65458E-14
 -1      3039 7.12447E-03-3.34399E-03-4.49003E-14
 -1      3040 7.13187E-03-3.33563E-03-4.40146E-14
 -1      3041 7.55302E-03-3.61672E-03-4.99071E-14
 -1      3042 7.41017E-03-3.52580E-03-4.82156E-14
 -1      3043 7.41756E-03-3.51742E-03-4.73002E-14
 -1      3044 7.83873E-03-3.79861E-03-5.33507E-14
 -1      3045 7.69587E-03-3.70766E-03-5.16189E-14
 -1      3046 7.70325E-03-3.69928E-03-5.06763E-14
 -1      3047 8.12443E-03-3.98054E-03-5.68811E-14
 -1      3048 7.98158E-03-3.88957E-03-5.51058E-14
 -1      3049 7.98896E-03-3.88119E-03-5.41378E-14
 -1      3050 8.41014E-03-4.16251E-03-6.04895E-14
 -1      3051 8.26729E-03-4.07152E-03-5.86754E-14
 -1      3052 8.27466E-03-4.06313E-03-5.76811E-14
 -1      3053 8.69586E-03-4.34450E-03-6.41800E-14
 -1      3054 8.55300E-03-4.25350E-03-6.23245E-14
 -1      3055 8.56038E-03-4.24511E-03-6.13032E-14
 -1      3056 8.98157E-03-4.52652E-03-6.79475E-14
 -1      3057 8.83871E-03-4.43551E-03-6.60556E-14
 -1      3058 8.84609E-03-4.42711E-03-6.50071E-14
 -1      3059 9.26728E-03-4.70855E-03-7.17846E-14
 -1      3060 9.12443E-03-4.61753E-03-6.98567E-14
 -1      3061 9.13181E-03-4.60914E-03-6.87855E-14
 -1      3062 9.55300E-03-4.89059E-03-7.56867E-14
 -1      3063 9.41014E-03-4.79957E-03-7.37272E-14
 -1      3064 9.41752E-03-4.79117E-03-7.26301E-14
 -1      3065 9.83871E-03-5.07264E-03-7.96540E-14
 -1      3066 9.69585E-03-4.98161E-03-7.76629E-14
 -1      3067 9.70324E-03-4.97321E-03-7.65430E-14
 -1      3068 1.01244E-02-5.25469E-03-8.36813E-14
 -1      3069 9.98157E-03-5.16366E-03-8.16605E-14
 -1      3070 9.98896E-03-5.15527E-03-8.05189E-14
 -1      3071 1.04101E-02-5.43675E-03-8.77630E-14
 -1      3072 1.02673E-02-5.34572E-03-8.57151E-14
 -1      3073 1.02747E-02-5.33732E-03-8.45555E-14
 -1      3074 1.06959E-02-5.61881E-03-9.18919E-14
 -1      3075 1.05530E-02-5.52778E-03-8.98206E-14
 -1      3076 1.05604E-02-5.51938E-03-8.86434E-14
 -1      3077 1.09816E-02-5.80087E-03-9.60629E-14
 -1      3078 1.08387E-02-5.70984E-03-9.39733E-14
 -1      3079 1.08461E-02-5.70144E-03-9.27800E-14
 -1      3080 1.12673E-02-5.98293E-03-1.00276E-13
 -1      3081 1.11244E-02-5.89190E-03-9.81648E-14
 -1      3082 1.11318E-02-5.88350E-03-9.69582E-14
 -1      3083 1.15530E-02-6.16499E-03-1.04516E-13
 -1      3084 1.14101E-02-6.07396E-03-1.02393E-13
 -1      3085 1.14175E-02-6.06556E-03-1.01174E-13
 -1      3086 1.18387E-02-6.34705E-03-1.08786E-13
 -1      3087 1.16959E-02-6.25602E-03-1.06645E-13
 -1      3088 1.17033E-02-6.24762E-03-1.05420E-13
 -1      3089 1.21244E-02-6.52911E-03-1.13083E-13
 -1      3090 1.19816E-02-6.43808E-03-1.10932E-13
 -1      3091 1.19890E-02-6.42968E-03-1.09694E-13
 -1      3092 1.24101E-02-6.71117E-03-1.17398E-13
 -1      3093 1.22673E-02-6.62014E-03-1.15239E-13
 -1      3094 1.22747E-02-6.61174E-03-1.13996E-13
 -1      3095 1.26959E-02-6.89323E-03-1.21728E-13
 -1      3096 1.25530E-02-6.80220E-03-1.19560E-13
 -1      3097 1.25604E-02-6.79380E-03-1.18314E-13
 -1      3098 1.48635E-02-8.00479E-03-1.26581E-13
 -1      3099 1.39708E-02-7.58791E-03-1.28882E-13
 -1      3100 1.38813E-02-7.54577E-03-1.29072E-13
 -1      3101 1.38918E-02-7.53015E-03-1.26896E-13
 -1      3102 9.14251E-04 2.68008E-04-1.15711E-15
 -1      3103 1.46838E-02-7.92363E-03-1.27330E-13
 -1      3104 1.45943E-02-7.88148E-03-1.27524E-13
 -1      3105 1.44259E-02-7.78158E-03-1.25729E-13
 -1      3106 1.22262E-03 1.54345E-04-1.81448E-15
 -1      3107 1.06207E-03 1.70523E-04-1.38718E-15
 -1      3108 1.09264E-03 1.45797E-04-1.39441E-15
 -1      3109 4.33234E-03-1.28963E-03-5.99117E-15
 -1      3110 4.47462E-03-1.31062E-03-6.08528E-15
 -1      3111 1.32411E-02-7.22829E-03-1.28743E-13
 -1      3112 1.31413E-02-7.17757E-03-1.28565E-13
 -1      3113 1.30236E-02-7.10250E-03-1.26759E-13
 -1      3114 4.81399E-03-1.49106E-03-7.70683E-15
 -1      3115 4.91909E-03-1.57118E-03-8.48132E-15
 -1      3116 1.43265E-02-7.75541E-03-1.28110E-13
 -1      3117 1.42386E-02-7.71398E-03-1.28304E-13
 -1      3118 1.40701E-02-7.61408E-03-1.26509E-13
 -1      3119 1.42476E-02-7.69765E-03-1.26122E-13
 -1      3120 9.28427E-04 2.84110E-04-1.19234E-15
 -1      3121 1.14777E-03 9.25533E-05-1.26681E-15
 -1      3122 1.18971E-03 7.66957E-05-1.25078E-15
 -1      3123 1.34861E-02-7.36059E-03-1.30005E-13
 -1      3124 1.33636E-02-7.29444E-03-1.29375E-13
 -1      3125 1.32459E-02-7.21937E-03-1.27566E-13
 -1      3126 3.52791E-03-1.06440E-03-1.22628E-14
 -1      3127 3.37990E-03-9.71407E-04-1.13367E-14
 -1      3128 3.37693E-03-9.67302E-04-1.08939E-14
 -1      3129 3.67591E-03-1.15224E-03-1.27417E-14
 -1      3130 4.60363E-03-1.32000E-03-6.01354E-15
 -1      3131 4.72497E-03-1.42407E-03-7.04997E-15
 -1      3132 4.72097E-03-1.45337E-03-7.51033E-15
 -1      3133 4.56392E-03-1.33184E-03-6.22707E-15
 -1      3134 1.71803E-03-6.07257E-05-1.94766E-15
 -1      3135 1.88471E-03-1.39059E-04-2.30234E-15
 -1      3136 5.02677E-03-1.65213E-03-9.29431E-15
 -1      3137 5.14533E-03-1.73778E-03-1.01270E-14
 -1      3138 5.14065E-03-1.75952E-03-1.06653E-14
 -1      3139 2.48158E-03-4.91232E-04-3.60957E-15
 -1      3140 2.72342E-03-6.37324E-04-4.11173E-15
 -1      3141 3.05097E-03-8.20368E-04-4.68794E-15
 -1      3142 3.30841E-03-9.49670E-04-5.03468E-15
 -1      3143 2.06898E-03-2.41271E-04-2.72619E-15
 -1      3144 2.24915E-03-3.50072E-04-3.11685E-15
 -1      3145 1.47740E-02-7.96265E-03-1.26773E-13
 -1      3146 4.00926E-03-1.21441E-03-5.72246E-15
 -1      3147 4.16291E-03-1.25337E-03-5.86007E-15
 -1      3148 3.57472E-03-1.06707E-03-5.36625E-15
 -1      3149 3.79874E-03-1.14884E-03-5.54441E-15
 -1      3150 3.92405E-03-1.20713E-03-6.10870E-15
 -1      3151 2.75034E-03-6.57527E-04-4.56579E-15
 -1      3152 2.89186E-03-7.37939E-04-4.62854E-15
 -1      3153 3.05664E-03-8.29497E-04-5.16977E-15
 -1      3154 1.32593E-03 4.93675E-05-1.44257E-15
 -1      3155 1.35752E-02-7.40256E-03-1.29817E-13
 -1      3156 1.37132E-02-7.44604E-03-1.27278E-13
 -1      3157 1.37921E-02-7.50380E-03-1.29261E-13
 -1      3158 1.37030E-02-7.46184E-03-1.29451E-13
 -1      3159 1.46056E-02-7.86275E-03-1.24975E-13
 -1      3160 1.84618E-03-8.60059E-05-3.67994E-15
 -1      3161 1.73084E-03-1.73615E-05-3.39878E-15
 -1      3162 1.58330E-03 4.46642E-05-2.89608E-15
 -1      3163 2.76810E-03-5.96556E-04-7.59348E-15
 -1      3164 2.63061E-03-5.07976E-04-7.20405E-15
 -1      3165 2.47975E-03-4.17720E-04-6.47995E-15
 -1      3166 1.29186E-02-7.03540E-03-1.25143E-13
 -1      3167 1.28009E-02-6.96032E-03-1.23345E-13
 -1      3168 1.28083E-02-6.95192E-03-1.22090E-13
 -1      3169 1.30184E-02-7.08612E-03-1.25320E-13
 -1      3170 4.91386E-03-1.59656E-03-8.98382E-15
 -1      3171 2.32889E-03-3.29560E-04-5.79064E-15
 -1      3172 2.17840E-03-2.44375E-04-5.13692E-15
 -1      3173 2.15187E-03-2.41886E-04-4.83935E-15
 -1      3174 1.36847E-03 1.16262E-04-2.21798E-15
 -1      3175 1.95550E-03-1.86720E-04-2.60135E-15
 -1      3176 4.29234E-03-1.30895E-03-6.43158E-15
 -1      3177 1.55995E-03-1.10559E-05-1.72986E-15
 -1      3178 1.09977E-03 1.26841E-04-1.33805E-15
 -1      3179 1.13576E-03 1.06539E-04-1.33324E-15
 -1      3180 1.29195E-03 7.05416E-05-1.62817E-15
 -1      3181 1.26547E-03 1.04513E-04-1.76611E-15
 -1      3182 4.54805E-03-1.36674E-03-6.71353E-15
 -1      3183 2.35608E-03-4.20801E-04-3.53431E-15
 -1      3184 3.46682E-03-1.02879E-03-5.57532E-15
 -1      3185 5.51531E-03-2.03736E-03-1.39946E-14
 -1      3186 5.64912E-03-2.12612E-03-1.49835E-14
 -1      3187 5.79160E-03-2.22006E-03-1.60564E-14
 -1      3188 5.93574E-03-2.31480E-03-1.71595E-14
 -1      3189 5.64711E-03-2.14433E-03-1.56532E-14
 -1      3190 6.07421E-03-2.40542E-03-1.82425E-14
 -1      3191 6.21365E-03-2.49642E-03-1.93556E-14
 -1      3192 5.92796E-03-2.32714E-03-1.78163E-14
 -1      3193 6.35382E-03-2.58760E-03-2.04970E-14
 -1      3194 6.49461E-03-2.67895E-03-2.16670E-14
 -1      3195 6.20630E-03-2.50768E-03-2.00469E-14
 -1      3196 6.63585E-03-2.77038E-03-2.28669E-14
 -1      3197 6.77748E-03-2.86187E-03-2.40962E-14
 -1      3198 6.48742E-03-2.68941E-03-2.23943E-14
 -1      3199 6.91939E-03-2.95337E-03-2.53520E-14
 -1      3200 7.06153E-03-3.04489E-03-2.66345E-14
 -1      3201 6.77031E-03-2.87173E-03-2.48559E-14
 -1      3202 7.20384E-03-3.13638E-03-2.79441E-14
 -1      3203 7.34630E-03-3.22785E-03-2.92797E-14
 -1      3204 7.05433E-03-3.05432E-03-2.74269E-14
 -1      3205 7.48885E-03-3.31929E-03-3.06409E-14
 -1      3206 7.63149E-03-3.41070E-03-3.20294E-14
 -1      3207 7.33905E-03-3.23698E-03-3.01020E-14
 -1      3208 7.78133E-03-3.50664E-03-3.35157E-14
 -1      3209 7.93121E-03-3.60255E-03-3.50319E-14
 -1      3210 7.63133E-03-3.42418E-03-3.29541E-14
 -1      3211 8.07399E-03-3.69385E-03-3.65034E-14
 -1      3212 8.21680E-03-3.78513E-03-3.80017E-14
 -1      3213 7.92387E-03-3.61130E-03-3.59187E-14
 -1      3214 8.35963E-03-3.87638E-03-3.95289E-14
 -1      3215 8.50247E-03-3.96760E-03-4.10799E-14
 -1      3216 8.20943E-03-3.79378E-03-3.89212E-14
 -1      3217 8.64532E-03-4.05879E-03-4.26567E-14
 -1      3218 8.78817E-03-4.14997E-03-4.42586E-14
 -1      3219 8.49507E-03-3.97617E-03-4.20276E-14
 -1      3220 8.93103E-03-4.24112E-03-4.58843E-14
 -1      3221 9.07390E-03-4.33226E-03-4.75333E-14
 -1      3222 8.78076E-03-4.15848E-03-4.52343E-14
 -1      3223 9.21677E-03-4.42338E-03-4.92044E-14
 -1      3224 9.35963E-03-4.51449E-03-5.08972E-14
 -1      3225 9.06648E-03-4.34074E-03-4.85346E-14
 -1      3226 9.50965E-03-4.61014E-03-5.26978E-14
 -1      3227 9.65966E-03-4.70577E-03-5.45250E-14
 -1      3228 9.35936E-03-4.52749E-03-5.20082E-14
 -1      3229 9.80252E-03-4.79685E-03-5.62838E-14
 -1      3230 9.94539E-03-4.88792E-03-5.80630E-14
 -1      3231 9.65223E-03-4.71421E-03-5.55749E-14
 -1      3232 1.00883E-02-4.97898E-03-5.98645E-14
 -1      3233 1.02311E-02-5.07003E-03-6.16826E-14
 -1      3234 9.93797E-03-4.89634E-03-5.91390E-14
 -1      3235 1.03740E-02-5.16108E-03-6.35173E-14
 -1      3236 1.05169E-02-5.25212E-03-6.53737E-14
 -1      3237 1.02237E-02-5.07844E-03-6.27776E-14
 -1      3238 1.06597E-02-5.34317E-03-6.72472E-14
 -1      3239 1.08026E-02-5.43420E-03-6.91356E-14
 -1      3240 1.05094E-02-5.26053E-03-6.64876E-14
 -1      3241 1.09454E-02-5.52524E-03-7.10422E-14
 -1      3242 1.10883E-02-5.61627E-03-7.29665E-14
 -1      3243 1.07952E-02-5.44261E-03-7.02682E-14
 -1      3244 1.12312E-02-5.70731E-03-7.49062E-14
 -1      3245 1.13740E-02-5.79834E-03-7.68629E-14
 -1      3246 1.10809E-02-5.62467E-03-7.41147E-14
 -1      3247 1.15240E-02-5.89392E-03-7.89372E-14
 -1      3248 1.16740E-02-5.98950E-03-8.10288E-14
 -1      3249 1.13738E-02-5.81129E-03-7.81273E-14
 -1      3250 1.18169E-02-6.08053E-03-8.30381E-14
 -1      3251 1.19598E-02-6.17155E-03-8.50616E-14
 -1      3252 1.16666E-02-5.99789E-03-8.22116E-14
 -1      3253 1.21026E-02-6.26258E-03-8.71022E-14
 -1      3254 1.22455E-02-6.35361E-03-8.91583E-14
 -1      3255 1.19524E-02-6.17995E-03-8.62599E-14
 -1      3256 1.23883E-02-6.44463E-03-9.12296E-14
 -1      3257 1.25312E-02-6.53566E-03-9.33126E-14
 -1      3258 1.22381E-02-6.36200E-03-9.03692E-14
 -1      3259 1.26741E-02-6.62669E-03-9.54094E-14
 -1      3260 1.28169E-02-6.71771E-03-9.75147E-14
 -1      3261 1.25238E-02-6.54406E-03-9.45356E-14
 -1      3262 1.29598E-02-6.80874E-03-9.96297E-14
 -1      3263 1.31026E-02-6.89976E-03-1.01757E-13
 -1      3264 1.28095E-02-6.72611E-03-9.87476E-14
 -1      3265 1.32526E-02-6.99534E-03-1.03994E-13
 -1      3266 1.34026E-02-7.09092E-03-1.06234E-13
 -1      3267 1.31024E-02-6.91271E-03-1.03101E-13
 -1      3268 1.35455E-02-7.18195E-03-1.08375E-13
 -1      3269 1.36884E-02-7.27297E-03-1.10522E-13
 -1      3270 1.33952E-02-7.09932E-03-1.07480E-13
 -1      3271 1.38312E-02-7.36400E-03-1.12668E-13
 -1      3272 1.39741E-02-7.45503E-03-1.14822E-13
 -1      3273 1.36809E-02-7.28137E-03-1.11769E-13
 -1      3274 1.41169E-02-7.54605E-03-1.16981E-13
 -1      3275 1.42598E-02-7.63708E-03-1.19149E-13
 -1      3276 1.39667E-02-7.46343E-03-1.16075E-13
 -1      3277 1.43612E-02-7.70440E-03-1.20968E-13
 -1      3278 1.45041E-02-7.79543E-03-1.23144E-13
 -1      3279 1.44139E-02-7.75641E-03-1.23701E-13
 -1      3280 1.42110E-02-7.62177E-03-1.20055E-13
 -1      3281 4.52953E-03-1.39704E-03-7.20729E-15
 -1      3282 4.63169E-03-1.42458E-03-7.36106E-15
 -1      3283 4.72177E-03-1.48768E-03-8.02941E-15
 -1      3284 5.25509E-03-1.86365E-03-1.21061E-14
 -1      3285 5.38378E-03-1.94992E-03-1.30362E-14
 -1      3286 5.37303E-03-1.96541E-03-1.36167E-14
 -1      3287 4.41468E-03-1.60430E-03-1.73427E-14
 -1      3288 4.26867E-03-1.51349E-03-1.62660E-14
 -1      3289 4.12191E-03-1.42257E-03-1.52202E-14
 -1      3290 3.97433E-03-1.33146E-03-1.42050E-14
 -1      3291 4.27352E-03-1.50859E-03-1.57230E-14
 -1      3292 4.99343E-03-1.96679E-03-2.19440E-14
 -1      3293 4.84936E-03-1.87622E-03-2.07498E-14
 -1      3294 5.28074E-03-2.14791E-03-2.44173E-14
 -1      3295 5.13721E-03-2.05734E-03-2.31665E-14
 -1      3296 5.14439E-03-2.05000E-03-2.25178E-14
 -1      3297 5.56732E-03-2.32907E-03-2.70050E-14
 -1      3298 5.42411E-03-2.23848E-03-2.56970E-14
 -1      3299 5.43150E-03-2.23073E-03-2.50141E-14
 -1      3300 5.85345E-03-2.51032E-03-2.97055E-14
 -1      3301 5.71043E-03-2.41968E-03-2.83423E-14
 -1      3302 5.71792E-03-2.41167E-03-2.76242E-14
 -1      3303 6.13933E-03-2.69167E-03-3.25114E-14
 -1      3304 5.99641E-03-2.60098E-03-3.10945E-14
 -1      3305 6.00392E-03-2.59280E-03-3.03446E-14
 -1      3306 6.42508E-03-2.87314E-03-3.54212E-14
 -1      3307 6.28222E-03-2.78239E-03-3.39537E-14
 -1      3308 6.28971E-03-2.77411E-03-3.31697E-14
 -1      3309 6.71077E-03-3.05472E-03-3.84316E-14
 -1      3310 6.56793E-03-2.96392E-03-3.69137E-14
 -1      3311 6.57540E-03-2.95558E-03-3.60978E-14
 -1      3312 6.99644E-03-3.23638E-03-4.15422E-14
 -1      3313 6.85361E-03-3.14554E-03-3.99746E-14
 -1      3314 6.86105E-03-3.13717E-03-3.91271E-14
 -1      3315 7.28211E-03-3.41814E-03-4.47493E-14
 -1      3316 7.13928E-03-3.32725E-03-4.31336E-14
 -1      3317 7.14670E-03-3.31887E-03-4.22560E-14
 -1      3318 7.56779E-03-3.59996E-03-4.80532E-14
 -1      3319 7.42495E-03-3.50904E-03-4.63882E-14
 -1      3320 7.43236E-03-3.50065E-03-4.54832E-14
 -1      3321 7.85349E-03-3.78184E-03-5.14434E-14
 -1      3322 7.71064E-03-3.69089E-03-4.97378E-14
 -1      3323 7.71803E-03-3.68250E-03-4.88017E-14
 -1      3324 8.13919E-03-3.96376E-03-5.49225E-14
 -1      3325 7.99634E-03-3.87280E-03-5.31724E-14
 -1      3326 8.00372E-03-3.86440E-03-5.22110E-14
 -1      3327 8.42490E-03-4.14573E-03-5.84782E-14
 -1      3328 8.28204E-03-4.05474E-03-5.66904E-14
 -1      3329 8.28942E-03-4.04635E-03-5.57034E-14
 -1      3330 8.71061E-03-4.32772E-03-6.21144E-14
 -1      3331 8.56775E-03-4.23672E-03-6.02862E-14
 -1      3332 8.57513E-03-4.22832E-03-5.92744E-14
 -1      3333 8.99633E-03-4.50973E-03-6.58313E-14
 -1      3334 8.85347E-03-4.41872E-03-6.39638E-14
 -1      3335 8.86085E-03-4.41033E-03-6.29253E-14
 -1      3336 9.28205E-03-4.69176E-03-6.96197E-14
 -1      3337 9.13919E-03-4.60074E-03-6.77170E-14
 -1      3338 9.14657E-03-4.59235E-03-6.66524E-14
 -1      3339 9.56777E-03-4.87380E-03-7.34746E-14
 -1      3340 9.42491E-03-4.78277E-03-7.15382E-14
 -1      3341 9.43229E-03-4.77438E-03-7.04513E-14
 -1      3342 9.85349E-03-5.05584E-03-7.73961E-14
 -1      3343 9.71063E-03-4.96482E-03-7.54276E-14
 -1      3344 9.71801E-03-4.95642E-03-7.43168E-14
 -1      3345 1.01392E-02-5.23790E-03-8.13830E-14
 -1      3346 9.99635E-03-5.14687E-03-7.93824E-14
 -1      3347 1.00037E-02-5.13847E-03-7.82492E-14
 -1      3348 1.04249E-02-5.41995E-03-8.54273E-14
 -1      3349 1.02821E-02-5.32892E-03-8.33984E-14
 -1      3350 1.02895E-02-5.32053E-03-8.22456E-14
 -1      3351 1.07106E-02-5.60201E-03-8.95225E-14
 -1      3352 1.05678E-02-5.51098E-03-8.74679E-14
 -1      3353 1.05752E-02-5.50258E-03-8.62979E-14
 -1      3354 1.09964E-02-5.78407E-03-9.36666E-14
 -1      3355 1.08535E-02-5.69304E-03-9.15887E-14
 -1      3356 1.08609E-02-5.68464E-03-9.04029E-14
 -1      3357 1.12821E-02-5.96613E-03-9.78527E-14
 -1      3358 1.11392E-02-5.87510E-03-9.57545E-14
 -1      3359 1.11466E-02-5.86670E-03-9.45543E-14
 -1      3360 1.15678E-02-6.14819E-03-1.02074E-13
 -1      3361 1.14249E-02-6.05716E-03-9.99589E-14
 -1      3362 1.14323E-02-6.04876E-03-9.87459E-14
 -1      3363 1.18535E-02-6.33025E-03-1.06326E-13
 -1      3364 1.17107E-02-6.23922E-03-1.04197E-13
 -1      3365 1.17181E-02-6.23082E-03-1.02974E-13
 -1      3366 1.21392E-02-6.51231E-03-1.10607E-13
 -1      3367 1.19964E-02-6.42128E-03-1.08462E-13
 -1      3368 1.20038E-02-6.41288E-03-1.07234E-13
 -1      3369 1.24249E-02-6.69437E-03-1.14912E-13
 -1      3370 1.22821E-02-6.60334E-03-1.12758E-13
 -1      3371 1.22895E-02-6.59494E-03-1.11520E-13
 -1      3372 1.27107E-02-6.87643E-03-1.19231E-13
 -1      3373 1.25678E-02-6.78540E-03-1.17069E-13
 -1      3374 1.25752E-02-6.77700E-03-1.15829E-13
 -1      3375 1.38129E-02-7.47239E-03-1.24912E-13
 -1      3376 1.37233E-02-7.43025E-03-1.25105E-13
 -1      3377 4.81989E-03-1.55970E-03-8.82314E-15
 -1      3378 4.92475E-03-1.63589E-03-9.64646E-15
 -1      3379 4.71868E-03-1.52445E-03-8.65893E-15
 -1      3380 1.43244E-02-7.71426E-03-1.23901E-13
 -1      3381 1.42349E-02-7.67212E-03-1.24099E-13
 -1      3382 1.42229E-02-7.64695E-03-1.22074E-13
 -1      3383 4.22766E-03-1.32168E-03-6.92872E-15
 -1      3384 4.38928E-03-1.36251E-03-7.07142E-15
 -1      3385 4.48780E-03-1.41958E-03-7.73175E-15
 -1      3386 1.32634E-02-7.21842E-03-1.26574E-13
 -1      3387 1.31409E-02-7.15227E-03-1.25944E-13
 -1      3388 1.30358E-02-7.08517E-03-1.24331E-13
 -1      3389 4.70493E-03-1.78564E-03-1.95856E-14
 -1      3390 4.56008E-03-1.69499E-03-1.84493E-14
 -1      3391 4.85615E-03-1.86947E-03-2.01360E-14
 -1      3392 1.53013E-03-7.94170E-06-1.86183E-15
 -1      3393 3.22010E-03-8.72338E-04-9.59833E-15
 -1      3394 3.06568E-03-7.79764E-04-8.77450E-15
 -1      3395 5.02533E-03-1.70652E-03-1.04146E-14
 -1      3396 5.14678E-03-1.78918E-03-1.12867E-14
 -1      3397 5.13285E-03-1.80663E-03-1.18340E-14
 -1      3398 4.92220E-03-1.66446E-03-1.02369E-14
 -1      3399 1.50499E-03 9.24247E-07-1.97287E-15
 -1      3400 1.73935E-03-8.89302E-05-2.32172E-15
 -1      3401 1.34962E-02-7.34480E-03-1.27830E-13
 -1      3402 3.38614E-03-9.98794E-04-5.87558E-15
 -1      3403 3.62746E-03-1.10850E-03-6.23297E-15
 -1      3404 1.47465E-03 6.46648E-05-2.44769E-15
 -1      3405 3.85989E-03-1.20209E-03-6.54285E-15
 -1      3406 4.05077E-03-1.26732E-03-6.73712E-15
 -1      3407 4.17222E-03-1.32575E-03-7.38739E-15
 -1      3408 1.90795E-03-1.72873E-04-2.74244E-15
 -1      3409 2.23245E-03-3.51192E-04-3.47241E-15
 -1      3410 2.44742E-03-4.79956E-04-3.98793E-15
 -1      3411 1.36342E-02-7.38828E-03-1.25297E-13
 -1      3412 1.35451E-02-7.34632E-03-1.25487E-13
 -1      3413 1.35553E-02-7.33052E-03-1.23318E-13
 -1      3414 3.09275E-03-8.48253E-04-5.73056E-15
 -1      3415 3.23418E-03-9.24504E-04-5.80491E-15
 -1      3416 3.40530E-03-1.01082E-03-6.46798E-15
 -1      3417 1.48417E-03 1.35926E-05-2.06028E-15
 -1      3418 1.67952E-03-6.19195E-05-2.54321E-15
 -1      3419 1.46483E-03 2.96527E-05-2.14183E-15
 -1      3420 1.96703E-03-1.58973E-04-3.96493E-15
 -1      3421 1.81153E-03-8.44252E-05-3.42260E-15
 -1      3422 2.91002E-03-6.87206E-04-7.98378E-15
 -1      3423 2.75352E-03-5.94875E-04-7.22660E-15
 -1      3424 3.05657E-03-7.79298E-04-8.37576E-15
 -1      3425 4.56613E-03-1.68905E-03-1.78700E-14
 -1      3426 3.97727E-03-1.32781E-03-1.36977E-14
 -1      3427 3.82575E-03-1.24018E-03-1.32203E-14
 -1      3428 3.67616E-03-1.14860E-03-1.22663E-14
 -1      3429 1.28157E-02-6.94352E-03-1.20839E-13
 -1      3430 1.28231E-02-6.93512E-03-1.19593E-13
 -1      3431 1.29208E-02-7.01062E-03-1.22453E-13
 -1      3432 1.39016E-02-7.51418E-03-1.24719E-13
 -1      3433 1.37331E-02-7.41428E-03-1.22932E-13
 -1      3434 1.39904E-02-7.55596E-03-1.24524E-13
 -1      3435 2.45995E-03-4.14837E-04-6.14598E-15
 -1      3436 2.48432E-03-4.98437E-04-4.41253E-15
 -1      3437 2.60914E-03-5.75290E-04-4.49110E-15
 -1      3438 2.77022E-03-6.67431E-04-5.02002E-15
 -1      3439 1.41570E-02-7.63494E-03-1.24216E-13
 -1      3440 1.40682E-02-7.59315E-03-1.24410E-13
 -1      3441 1.38998E-02-7.49325E-03-1.22624E-13
 -1      3442 1.40555E-02-7.56762E-03-1.22391E-13
 -1      3443 3.52535E-03-1.05681E-03-1.13446E-14
 -1      3444 3.37339E-03-9.64674E-04-1.04555E-14
 -1      3445 3.36953E-03-9.63535E-04-1.00207E-14
 -1      3446 3.67627E-03-1.14629E-03-1.17958E-14
 -1      3447 1.44812E-03 4.87477E-05-2.21769E-15
 -1      3448 2.00599E-03-2.25622E-04-3.13882E-15
 -1      3449 3.77648E-03-1.17840E-03-6.86446E-15
 -1      3450 2.28080E-03-3.24557E-04-5.16228E-15
 -1      3451 2.12355E-03-2.39570E-04-4.54530E-15
 -1      3452 2.09412E-03-2.36722E-04-4.25429E-15
 -1      3453 1.34681E-02-7.31201E-03-1.25850E-13
 -1      3454 1.33403E-02-7.25273E-03-1.26213E-13
 -1      3455 1.32353E-02-7.18563E-03-1.24595E-13
 -1      3456 1.33892E-02-7.25425E-03-1.23874E-13
 -1      3457 1.67502E-03-3.30151E-05-2.89813E-15
 -1      3458 1.86746E-03-1.51432E-04-2.96280E-15
 -1      3459 2.16955E-03-3.14302E-04-3.72106E-15
 -1      3460 4.44487E-03-1.44064E-03-8.36024E-15
 -1      3461 4.58864E-03-1.48400E-03-8.51282E-15
 -1      3462 4.69443E-03-1.55287E-03-9.32316E-15
 -1      3463 5.78109E-03-2.24969E-03-1.73880E-14
 -1      3464 5.91935E-03-2.33878E-03-1.84766E-14
 -1      3465 6.05851E-03-2.42839E-03-1.95949E-14
 -1      3466 6.19840E-03-2.51849E-03-2.07423E-14
 -1      3467 5.91024E-03-2.34967E-03-1.91405E-14
 -1      3468 6.33890E-03-2.60889E-03-2.19183E-14
 -1      3469 6.47987E-03-2.69957E-03-2.31233E-14
 -1      3470 6.19016E-03-2.52880E-03-2.14406E-14
 -1      3471 6.62124E-03-2.79041E-03-2.43574E-14
 -1      3472 6.76293E-03-2.88141E-03-2.56193E-14
 -1      3473 6.47209E-03-2.70941E-03-2.38570E-14
 -1      3474 6.90486E-03-2.97249E-03-2.69076E-14
 -1      3475 7.04700E-03-3.06364E-03-2.82210E-14
 -1      3476 6.75538E-03-2.89087E-03-2.63858E-14
 -1      3477 7.18930E-03-3.15482E-03-2.95613E-14
 -1      3478 7.33172E-03-3.24603E-03-3.09282E-14
 -1      3479 7.03956E-03-3.07282E-03-2.90190E-14
 -1      3480 7.48138E-03-3.34181E-03-3.23922E-14
 -1      3481 7.63112E-03-3.43760E-03-3.38858E-14
 -1      3482 7.33146E-03-3.25956E-03-3.18297E-14
 -1      3483 7.77379E-03-3.52882E-03-3.53339E-14
 -1      3484 7.91651E-03-3.62003E-03-3.68093E-14
 -1      3485 7.62374E-03-3.44640E-03-3.47476E-14
 -1      3486 8.05926E-03-3.71122E-03-3.83128E-14
 -1      3487 8.20205E-03-3.80240E-03-3.98425E-14
 -1      3488 7.90913E-03-3.62872E-03-3.77041E-14
 -1      3489 8.34485E-03-3.89357E-03-4.13976E-14
 -1      3490 8.48768E-03-3.98473E-03-4.29769E-14
 -1      3491 8.19466E-03-3.81101E-03-4.07658E-14
 -1      3492 8.63051E-03-4.07587E-03-4.45820E-14
 -1      3493 8.77336E-03-4.16699E-03-4.62115E-14
 -1      3494 8.48028E-03-3.99327E-03-4.39292E-14
 -1      3495 8.91621E-03-4.25811E-03-4.78647E-14
 -1      3496 9.05907E-03-4.34921E-03-4.95374E-14
 -1      3497 8.76595E-03-4.17549E-03-4.71920E-14
 -1      3498 9.20908E-03-4.44486E-03-5.13197E-14
 -1      3499 9.35908E-03-4.54050E-03-5.31262E-14
 -1      3500 9.05880E-03-4.36223E-03-5.06290E-14
 -1      3501 9.50195E-03-4.63157E-03-5.48658E-14
 -1      3502 9.64482E-03-4.72264E-03-5.66281E-14
 -1      3503 9.35167E-03-4.54894E-03-5.41567E-14
 -1      3504 9.78769E-03-4.81370E-03-5.84119E-14
 -1      3505 9.93055E-03-4.90475E-03-6.02152E-14
 -1      3506 9.63741E-03-4.73106E-03-5.76828E-14
 -1      3507 1.00734E-02-4.99580E-03-6.20357E-14
 -1      3508 1.02163E-02-5.08685E-03-6.38733E-14
 -1      3509 9.92314E-03-4.91317E-03-6.12899E-14
 -1      3510 1.03592E-02-5.17789E-03-6.57280E-14
 -1      3511 1.05020E-02-5.26893E-03-6.76021E-14
 -1      3512 1.02089E-02-5.09526E-03-6.49696E-14
 -1      3513 1.06449E-02-5.35997E-03-6.94944E-14
 -1      3514 1.07878E-02-5.45101E-03-7.13999E-14
 -1      3515 1.04946E-02-5.27734E-03-6.87172E-14
 -1      3516 1.09306E-02-5.54204E-03-7.33255E-14
 -1      3517 1.10735E-02-5.63307E-03-7.52657E-14
 -1      3518 1.07803E-02-5.45940E-03-7.25354E-14
 -1      3519 1.12235E-02-5.72865E-03-7.73220E-14
 -1      3520 1.13735E-02-5.82423E-03-7.93966E-14
 -1      3521 1.10732E-02-5.64602E-03-7.65174E-14
 -1      3522 1.15164E-02-5.91526E-03-8.13870E-14
 -1      3523 1.16592E-02-6.00629E-03-8.33959E-14
 -1      3524 1.13661E-02-5.83263E-03-8.05667E-14
 -1      3525 1.18021E-02-6.09732E-03-8.54202E-14
 -1      3526 1.19450E-02-6.18835E-03-8.74582E-14
 -1      3527 1.16518E-02-6.01469E-03-8.45829E-14
 -1      3528 1.20878E-02-6.27937E-03-8.95130E-14
 -1      3529 1.22307E-02-6.37040E-03-9.15825E-14
 -1      3530 1.19375E-02-6.19674E-03-8.86610E-14
 -1      3531 1.23735E-02-6.46143E-03-9.36642E-14
 -1      3532 1.25164E-02-6.55245E-03-9.57582E-14
 -1      3533 1.22233E-02-6.37880E-03-9.27968E-14
 -1      3534 1.26593E-02-6.64348E-03-9.78653E-14
 -1      3535 1.28021E-02-6.73451E-03-9.99796E-14
 -1      3536 1.25090E-02-6.56085E-03-9.69835E-14
 -1      3537 1.29521E-02-6.83008E-03-1.02210E-13
 -1      3538 1.31021E-02-6.92566E-03-1.04448E-13
 -1      3539 1.28019E-02-6.74745E-03-1.01322E-13
 -1      3540 1.32450E-02-7.01669E-03-1.06583E-13
 -1      3541 1.33878E-02-7.10772E-03-1.08724E-13
 -1      3542 1.30947E-02-6.93406E-03-1.05688E-13
 -1      3543 1.35307E-02-7.19874E-03-1.10869E-13
 -1      3544 1.36735E-02-7.28977E-03-1.13017E-13
 -1      3545 1.33804E-02-7.11611E-03-1.09968E-13
 -1      3546 1.38164E-02-7.38080E-03-1.15170E-13
 -1      3547 1.39593E-02-7.47182E-03-1.17330E-13
 -1      3548 1.36661E-02-7.29817E-03-1.14268E-13
 -1      3549 1.40404E-02-7.52573E-03-1.18790E-13
 -1      3550 1.41418E-02-7.59304E-03-1.20606E-13
 -1      3551 1.40523E-02-7.55090E-03-1.20806E-13
 -1      3552 1.38901E-02-7.44310E-03-1.17881E-13
 -1      3553 4.42604E-03-1.59412E-03-1.62247E-14
 -1      3554 4.27872E-03-1.50453E-03-1.51849E-14
 -1      3555 5.22821E-03-1.89461E-03-1.32386E-14
 -1      3556 5.36038E-03-1.97928E-03-1.42033E-14
 -1      3557 5.58231E-03-2.31339E-03-2.56082E-14
 -1      3558 5.43900E-03-2.22313E-03-2.43354E-14
 -1      3559 5.29549E-03-2.13297E-03-2.30901E-14
 -1      3560 5.15173E-03-2.04291E-03-2.18734E-14
 -1      3561 5.44664E-03-2.21568E-03-2.36606E-14
 -1      3562 6.15438E-03-2.67522E-03-3.09805E-14
 -1      3563 6.01148E-03-2.58466E-03-2.95976E-14
 -1      3564 6.44008E-03-2.85652E-03-3.38258E-14
 -1      3565 6.29725E-03-2.76585E-03-3.23904E-14
 -1      3566 6.30482E-03-2.75758E-03-3.16156E-14
 -1      3567 6.72571E-03-3.03800E-03-3.67719E-14
 -1      3568 6.58290E-03-2.94724E-03-3.52862E-14
 -1      3569 6.59043E-03-2.93889E-03-3.44803E-14
 -1      3570 7.01133E-03-3.21962E-03-3.98214E-14
 -1      3571 6.86852E-03-3.12879E-03-3.82840E-14
 -1      3572 6.87600E-03-3.12040E-03-3.74454E-14
 -1      3573 7.29695E-03-3.40135E-03-4.29688E-14
 -1      3574 7.15414E-03-3.31047E-03-4.13826E-14
 -1      3575 7.16159E-03-3.30206E-03-4.05133E-14
 -1      3576 7.58260E-03-3.58316E-03-4.62139E-14
 -1      3577 7.43977E-03-3.49225E-03-4.45803E-14
 -1      3578 7.44720E-03-3.48383E-03-4.36806E-14
 -1      3579 7.86827E-03-3.76504E-03-4.95506E-14
 -1      3580 7.72543E-03-3.67410E-03-4.78715E-14
 -1      3581 7.73284E-03-3.66568E-03-4.69435E-14
 -1      3582 8.15395E-03-3.94697E-03-5.29761E-14
 -1      3583 8.01111E-03-3.85600E-03-5.12521E-14
 -1      3584 8.01850E-03-3.84759E-03-5.02973E-14
 -1      3585 8.43966E-03-4.12893E-03-5.64814E-14
 -1      3586 8.29680E-03-4.03795E-03-5.47180E-14
 -1      3587 8.30419E-03-4.02954E-03-5.37369E-14
 -1      3588 8.72537E-03-4.31092E-03-6.00675E-14
 -1      3589 8.58251E-03-4.21992E-03-5.82646E-14
 -1      3590 8.58989E-03-4.21152E-03-5.72585E-14
 -1      3591 9.01109E-03-4.49294E-03-6.37323E-14
 -1      3592 8.86823E-03-4.40193E-03-6.18912E-14
 -1      3593 8.87561E-03-4.39353E-03-6.08595E-14
 -1      3594 9.29681E-03-4.67496E-03-6.74712E-14
 -1      3595 9.15395E-03-4.58395E-03-6.55927E-14
 -1      3596 9.16133E-03-4.57555E-03-6.45375E-14
 -1      3597 9.58254E-03-4.85700E-03-7.12798E-14
 -1      3598 9.43967E-03-4.76598E-03-6.93679E-14
 -1      3599 9.44706E-03-4.75759E-03-6.82885E-14
 -1      3600 9.86826E-03-5.03905E-03-7.51581E-14
 -1      3601 9.72540E-03-4.94803E-03-7.32111E-14
 -1      3602 9.73278E-03-4.93963E-03-7.21087E-14
 -1      3603 1.01540E-02-5.22110E-03-7.91026E-14
 -1      3604 1.00111E-02-5.13007E-03-7.71211E-14
 -1      3605 1.00185E-02-5.12168E-03-7.59991E-14
 -1      3606 1.04397E-02-5.40316E-03-8.31065E-14
 -1      3607 1.02968E-02-5.31213E-03-8.10976E-14
 -1      3608 1.03042E-02-5.30373E-03-7.99525E-14
 -1      3609 1.07254E-02-5.58521E-03-8.71678E-14
 -1      3610 1.05826E-02-5.49419E-03-8.51307E-14
 -1      3611 1.05900E-02-5.48579E-03-8.39667E-14
 -1      3612 1.10112E-02-5.76727E-03-9.12811E-14
 -1      3613 1.08683E-02-5.67624E-03-8.92178E-14
 -1      3614 1.08757E-02-5.66785E-03-8.80371E-14
 -1      3615 1.12969E-02-5.94933E-03-9.54396E-14
 -1      3616 1.11540E-02-5.85830E-03-9.33553E-14
 -1      3617 1.11614E-02-5.84990E-03-9.21600E-14
 -1      3618 1.15826E-02-6.13139E-03-9.96377E-14
 -1      3619 1.14397E-02-6.04036E-03-9.75330E-14
 -1      3620 1.14471E-02-6.03196E-03-9.63234E-14
 -1      3621 1.18683E-02-6.31345E-03-1.03874E-13
 -1      3622 1.17255E-02-6.22242E-03-1.01752E-13
 -1      3623 1.17329E-02-6.21402E-03-1.00531E-13
 -1      3624 1.21540E-02-6.49551E-03-1.08140E-13
 -1      3625 1.20112E-02-6.40448E-03-1.06004E-13
 -1      3626 1.20186E-02-6.39608E-03-1.04773E-13
 -1      3627 1.24397E-02-6.67757E-03-1.12435E-13
 -1      3628 1.22969E-02-6.58654E-03-1.10285E-13
 -1      3629 1.23043E-02-6.57814E-03-1.09050E-13
 -1      3630 1.27255E-02-6.85963E-03-1.16744E-13
 -1      3631 1.25826E-02-6.76860E-03-1.14588E-13
 -1      3632 1.25900E-02-6.76020E-03-1.13348E-13
 -1      3633 1.30432E-02-7.07677E-03-1.23076E-13
 -1      3634 2.59617E-03-5.03201E-04-6.50364E-15
 -1      3635 2.43855E-03-4.12861E-04-5.81529E-15
 -1      3636 2.41600E-03-4.11224E-04-5.48811E-15
 -1      3637 2.73802E-03-5.94251E-04-6.86376E-15
 -1      3638 5.00763E-03-1.95296E-03-2.06866E-14
 -1      3639 4.86313E-03-1.86310E-03-1.95273E-14
 -1      3640 5.15927E-03-2.03607E-03-2.12350E-14
 -1      3641 5.86852E-03-2.49416E-03-2.82417E-14
 -1      3642 5.72547E-03-2.40373E-03-2.69113E-14
 -1      3643 5.73312E-03-2.39587E-03-2.62026E-14
 -1      3644 6.01910E-03-2.57655E-03-2.88556E-14
 -1      3645 5.49792E-03-2.06746E-03-1.52239E-14
 -1      3646 5.64048E-03-2.15921E-03-1.63027E-14
 -1      3647 5.62983E-03-2.17075E-03-1.69307E-14
 -1      3648 5.35032E-03-1.99361E-03-1.48197E-14
 -1      3649 1.83730E-03-1.30542E-04-3.06475E-15
 -1      3650 4.12301E-03-1.32972E-03-7.94478E-15
 -1      3651 4.28927E-03-1.38831E-03-8.15508E-15
 -1      3652 4.40690E-03-1.45334E-03-8.95124E-15
 -1      3653 3.70392E-03-1.15540E-03-7.27479E-15
 -1      3654 3.91713E-03-1.24754E-03-7.60981E-15
 -1      3655 4.05371E-03-1.31535E-03-8.38529E-15
 -1      3656 1.79623E-03-9.79686E-05-3.14370E-15
 -1      3657 4.71810E-03-1.77337E-03-1.83963E-14
 -1      3658 4.57246E-03-1.68369E-03-1.72951E-14
 -1      3659 4.57921E-03-1.67896E-03-1.67261E-14
 -1      3660 1.97812E-03-1.93307E-04-3.61328E-15
 -1      3661 2.94783E-03-7.66227E-04-5.64277E-15
 -1      3662 3.12208E-03-8.59595E-04-6.29596E-15
 -1      3663 2.81569E-03-6.86050E-04-5.55121E-15
 -1      3664 4.66032E-03-1.56929E-03-9.91518E-15
 -1      3665 4.79560E-03-1.61760E-03-1.00796E-14
 -1      3666 4.89986E-03-1.68520E-03-1.08602E-14
 -1      3667 1.38933E-02-7.45981E-03-1.19460E-13
 -1      3668 1.39744E-02-7.51372E-03-1.20925E-13
 -1      3669 1.38966E-02-7.47653E-03-1.21043E-13
 -1      3670 1.31202E-02-7.11108E-03-1.22718E-13
 -1      3671 4.87041E-03-1.85715E-03-1.89223E-14
 -1      3672 4.13030E-03-1.41498E-03-1.41743E-14
 -1      3673 3.98065E-03-1.32530E-03-1.31950E-14
 -1      3674 4.28448E-03-1.50137E-03-1.46511E-14
 -1      3675 2.17280E-03-3.07474E-04-3.99421E-15
 -1      3676 2.32051E-03-3.98523E-04-4.20398E-15
 -1      3677 2.47254E-03-4.84199E-04-4.71346E-15
 -1      3678 1.28305E-02-6.92673E-03-1.18351E-13
 -1      3679 1.28379E-02-6.91833E-03-1.17108E-13
 -1      3680 1.29356E-02-6.99382E-03-1.19957E-13
 -1      3681 3.42995E-03-1.02310E-03-7.11092E-15
 -1      3682 3.56439E-03-1.09094E-03-7.19462E-15
 -1      3683 3.71814E-03-1.16694E-03-7.95214E-15
 -1      3684 1.36538E-02-7.35634E-03-1.20959E-13
 -1      3685 1.35651E-02-7.31455E-03-1.21152E-13
 -1      3686 2.11890E-03-2.65888E-04-4.08666E-15
 -1      3687 5.00709E-03-1.75243E-03-1.16125E-14
 -1      3688 5.11685E-03-1.82394E-03-1.24416E-14
 -1      3689 5.09924E-03-1.83658E-03-1.29986E-14
 -1      3690 4.87636E-03-1.70002E-03-1.14384E-14
 -1      3691 3.20774E-03-8.72589E-04-8.76949E-15
 -1      3692 3.04765E-03-7.80449E-04-7.98106E-15
 -1      3693 1.33966E-02-7.21465E-03-1.19376E-13
 -1      3694 1.34759E-02-7.27259E-03-1.21346E-13
 -1      3695 1.33868E-02-7.23062E-03-1.21538E-13
 -1      3696 3.52234E-03-1.05499E-03-1.04441E-14
 -1      3697 3.36606E-03-9.64027E-04-9.59035E-15
 -1      3698 3.36333E-03-9.66138E-04-9.16450E-15
 -1      3699 2.28466E-03-3.54666E-04-4.67536E-15
 -1      3700 6.04102E-03-2.44904E-03-2.09623E-14
 -1      3701 6.18167E-03-2.53868E-03-2.21435E-14
 -1      3702 6.32274E-03-2.62867E-03-2.33551E-14
 -1      3703 6.46414E-03-2.71896E-03-2.45947E-14
 -1      3704 6.17310E-03-2.54814E-03-2.28511E-14
 -1      3705 6.60581E-03-2.80947E-03-2.58612E-14
 -1      3706 6.74772E-03-2.90016E-03-2.71548E-14
 -1      3707 6.45610E-03-2.72824E-03-2.53352E-14
 -1      3708 6.88981E-03-2.99097E-03-2.84755E-14
 -1      3709 7.03205E-03-3.08188E-03-2.98223E-14
 -1      3710 6.73999E-03-2.90926E-03-2.79289E-14
 -1      3711 7.18154E-03-3.17741E-03-3.12627E-14
 -1      3712 7.33115E-03-3.27300E-03-3.27339E-14
 -1      3713 7.03161E-03-3.09537E-03-3.06960E-14
 -1      3714 7.47371E-03-3.36407E-03-3.41601E-14
 -1      3715 7.61633E-03-3.45516E-03-3.56135E-14
 -1      3716 7.32368E-03-3.28181E-03-3.35713E-14
 -1      3717 7.75901E-03-3.54626E-03-3.70951E-14
 -1      3718 7.90173E-03-3.63737E-03-3.86019E-14
 -1      3719 7.60890E-03-3.46387E-03-3.64842E-14
 -1      3720 8.04448E-03-3.72848E-03-4.01354E-14
 -1      3721 8.18726E-03-3.81959E-03-4.16933E-14
 -1      3722 7.89432E-03-3.64600E-03-3.95032E-14
 -1      3723 8.33006E-03-3.91070E-03-4.32778E-14
 -1      3724 8.47288E-03-4.00180E-03-4.48863E-14
 -1      3725 8.17986E-03-3.82816E-03-4.26250E-14
 -1      3726 8.61571E-03-4.09289E-03-4.65183E-14
 -1      3727 8.75855E-03-4.18398E-03-4.81745E-14
 -1      3728 8.46548E-03-4.01031E-03-4.58466E-14
 -1      3729 8.90854E-03-4.27962E-03-4.99357E-14
 -1      3730 9.05854E-03-4.37524E-03-5.17228E-14
 -1      3731 8.75829E-03-4.19701E-03-4.92434E-14
 -1      3732 9.20140E-03-4.46631E-03-5.34464E-14
 -1      3733 9.34426E-03-4.55737E-03-5.51894E-14
 -1      3734 9.05114E-03-4.38369E-03-5.27340E-14
 -1      3735 9.48713E-03-4.64843E-03-5.69552E-14
 -1      3736 9.63000E-03-4.73949E-03-5.87400E-14
 -1      3737 9.33686E-03-4.56581E-03-5.62275E-14
 -1      3738 9.77287E-03-4.83054E-03-6.05441E-14
 -1      3739 9.91573E-03-4.92158E-03-6.23680E-14
 -1      3740 9.62259E-03-4.74791E-03-5.97975E-14
 -1      3741 1.00586E-02-5.01262E-03-6.42081E-14
 -1      3742 1.02015E-02-5.10366E-03-6.60652E-14
 -1      3743 9.90833E-03-4.92999E-03-6.34452E-14
 -1      3744 1.03443E-02-5.19470E-03-6.79411E-14
 -1      3745 1.04872E-02-5.28574E-03-6.98346E-14
 -1      3746 1.01941E-02-5.11207E-03-6.71644E-14
 -1      3747 1.06301E-02-5.37677E-03-7.17447E-14
 -1      3748 1.07729E-02-5.46780E-03-7.36707E-14
 -1      3749 1.04798E-02-5.29414E-03-7.09531E-14
 -1      3750 1.09230E-02-5.56339E-03-7.57109E-14
 -1      3751 1.10730E-02-5.65897E-03-7.77698E-14
 -1      3752 1.07727E-02-5.48075E-03-7.49039E-14
 -1      3753 1.12158E-02-5.75000E-03-7.97463E-14
 -1      3754 1.13587E-02-5.84103E-03-8.17391E-14
 -1      3755 1.10656E-02-5.66736E-03-7.89255E-14
 -1      3756 1.15016E-02-5.93205E-03-8.37475E-14
 -1      3757 1.16444E-02-6.02308E-03-8.57722E-14
 -1      3758 1.13513E-02-5.84942E-03-8.29145E-14
 -1      3759 1.17873E-02-6.11411E-03-8.78106E-14
 -1      3760 1.19301E-02-6.20514E-03-8.98642E-14
 -1      3761 1.16370E-02-6.03148E-03-8.69633E-14
 -1      3762 1.20730E-02-6.29616E-03-9.19327E-14
 -1      3763 1.22159E-02-6.38719E-03-9.40120E-14
 -1      3764 1.19227E-02-6.21353E-03-9.10680E-14
 -1      3765 1.23587E-02-6.47822E-03-9.61054E-14
 -1      3766 1.25016E-02-6.56925E-03-9.82097E-14
 -1      3767 1.22085E-02-6.39559E-03-9.52302E-14
 -1      3768 1.26516E-02-6.66482E-03-1.00432E-13
 -1      3769 1.28016E-02-6.76040E-03-1.02663E-13
 -1      3770 1.25013E-02-6.58219E-03-9.95438E-14
 -1      3771 1.29444E-02-6.85143E-03-1.04792E-13
 -1      3772 1.30873E-02-6.94246E-03-1.06926E-13
 -1      3773 1.27942E-02-6.76880E-03-1.03897E-13
 -1      3774 1.32302E-02-7.03348E-03-1.09067E-13
 -1      3775 1.33730E-02-7.12451E-03-1.11214E-13
 -1      3776 1.30799E-02-6.95085E-03-1.08168E-13
 -1      3777 1.35159E-02-7.21554E-03-1.13365E-13
 -1      3778 1.36587E-02-7.30657E-03-1.15520E-13
 -1      3779 1.33656E-02-7.13291E-03-1.12462E-13
 -1      3780 1.37355E-02-7.35624E-03-1.16759E-13
 -1      3781 1.38166E-02-7.41014E-03-1.18217E-13
 -1      3782 1.37387E-02-7.37296E-03-1.18337E-13
 -1      3783 1.35852E-02-7.27361E-03-1.15855E-13
 -1      3784 2.42104E-03-4.28967E-04-5.20094E-15
 -1      3785 2.45963E-03-4.64822E-04-5.00820E-15
 -1      3786 2.61660E-03-5.64636E-04-5.24410E-15
 -1      3787 2.58700E-03-5.21642E-04-5.85579E-15
 -1      3788 6.74075E-03-3.02124E-03-3.51313E-14
 -1      3789 6.59799E-03-2.93053E-03-3.36773E-14
 -1      3790 6.45522E-03-2.83989E-03-3.22479E-14
 -1      3791 6.31244E-03-2.74932E-03-3.08452E-14
 -1      3792 6.60558E-03-2.92216E-03-3.28788E-14
 -1      3793 7.31184E-03-3.38451E-03-4.12036E-14
 -1      3794 7.16905E-03-3.29364E-03-3.96474E-14
 -1      3795 7.59743E-03-3.56632E-03-4.43899E-14
 -1      3796 7.45463E-03-3.47540E-03-4.27852E-14
 -1      3797 7.46207E-03-3.46696E-03-4.18931E-14
 -1      3798 7.88307E-03-3.74821E-03-4.76698E-14
 -1      3799 7.74025E-03-3.65726E-03-4.60186E-14
 -1      3800 7.74767E-03-3.64882E-03-4.50977E-14
 -1      3801 8.16874E-03-3.93014E-03-5.10411E-14
 -1      3802 8.02590E-03-3.83917E-03-4.93447E-14
 -1      3803 8.03330E-03-3.83074E-03-4.83952E-14
 -1      3804 8.45443E-03-4.11212E-03-5.44967E-14
 -1      3805 8.31158E-03-4.02113E-03-5.27588E-14
 -1      3806 8.31897E-03-4.01271E-03-5.17824E-14
 -1      3807 8.74013E-03-4.29412E-03-5.80335E-14
 -1      3808 8.59728E-03-4.20311E-03-5.62562E-14
 -1      3809 8.60467E-03-4.19470E-03-5.52547E-14
 -1      3810 9.02585E-03-4.47614E-03-6.16506E-14
 -1      3811 8.88299E-03-4.38512E-03-5.98324E-14
 -1      3812 8.89038E-03-4.37672E-03-5.88076E-14
 -1      3813 9.31158E-03-4.65817E-03-6.53406E-14
 -1      3814 9.16871E-03-4.56715E-03-6.34860E-14
 -1      3815 9.17610E-03-4.55875E-03-6.24376E-14
 -1      3816 9.59731E-03-4.84021E-03-6.91019E-14
 -1      3817 9.45444E-03-4.74919E-03-6.72126E-14
 -1      3818 9.46183E-03-4.74079E-03-6.61405E-14
 -1      3819 9.88304E-03-5.02226E-03-7.29368E-14
 -1      3820 9.74017E-03-4.93123E-03-7.10115E-14
 -1      3821 9.74756E-03-4.92283E-03-6.99174E-14
 -1      3822 1.01688E-02-5.20431E-03-7.68371E-14
 -1      3823 1.00259E-02-5.11328E-03-7.48780E-14
 -1      3824 1.00333E-02-5.10489E-03-7.37635E-14
 -1      3825 1.04545E-02-5.38636E-03-8.08033E-14
 -1      3826 1.03116E-02-5.29534E-03-7.88121E-14
 -1      3827 1.03190E-02-5.28694E-03-7.76761E-14
 -1      3828 1.07402E-02-5.56842E-03-8.48275E-14
 -1      3829 1.05974E-02-5.47739E-03-8.28081E-14
 -1      3830 1.06048E-02-5.46900E-03-8.16525E-14
 -1      3831 1.10259E-02-5.75048E-03-8.89069E-14
 -1      3832 1.08831E-02-5.65945E-03-8.68617E-14
 -1      3833 1.08905E-02-5.65105E-03-8.56879E-14
 -1      3834 1.13117E-02-5.93254E-03-9.30373E-14
 -1      3835 1.11688E-02-5.84151E-03-9.09656E-14
 -1      3836 1.11762E-02-5.83311E-03-8.97766E-14
 -1      3837 1.15974E-02-6.11460E-03-9.72108E-14
 -1      3838 1.14545E-02-6.02357E-03-9.51195E-14
 -1      3839 1.14619E-02-6.01517E-03-9.39157E-14
 -1      3840 1.18831E-02-6.29665E-03-1.01424E-13
 -1      3841 1.17403E-02-6.20563E-03-9.93105E-14
 -1      3842 1.17476E-02-6.19723E-03-9.80963E-14
 -1      3843 1.21688E-02-6.47871E-03-1.05677E-13
 -1      3844 1.20260E-02-6.38768E-03-1.03548E-13
 -1      3845 1.20334E-02-6.37929E-03-1.02320E-13
 -1      3846 1.24545E-02-6.66077E-03-1.09960E-13
 -1      3847 1.23117E-02-6.56974E-03-1.07813E-13
 -1      3848 1.23191E-02-6.56134E-03-1.06581E-13
 -1      3849 1.27403E-02-6.84283E-03-1.14259E-13
 -1      3850 1.25974E-02-6.75180E-03-1.12107E-13
 -1      3851 1.26048E-02-6.74340E-03-1.10866E-13
 -1      3852 5.02292E-03-1.94039E-03-1.94474E-14
 -1      3853 4.87820E-03-1.85158E-03-1.83220E-14
 -1      3854 3.82953E-03-1.23552E-03-1.22465E-14
 -1      3855 3.67685E-03-1.14540E-03-1.13294E-14
 -1      3856 3.67819E-03-1.14601E-03-1.08678E-14
 -1      3857 3.98472E-03-1.32400E-03-1.26971E-14
 -1      3858 1.31276E-02-7.10268E-03-1.21471E-13
 -1      3859 5.59779E-03-2.29812E-03-2.42305E-14
 -1      3860 5.45449E-03-2.20835E-03-2.29918E-14
 -1      3861 4.01342E-03-1.30783E-03-8.83510E-15
 -1      3862 4.20715E-03-1.39192E-03-9.19693E-15
 -1      3863 5.31097E-03-2.11879E-03-2.17813E-14
 -1      3864 5.16714E-03-2.02945E-03-2.06000E-14
 -1      3865 5.46262E-03-2.20113E-03-2.23270E-14
 -1      3866 7.02628E-03-3.20280E-03-3.81177E-14
 -1      3867 6.88351E-03-3.11200E-03-3.66114E-14
 -1      3868 7.17653E-03-3.28520E-03-3.87863E-14
 -1      3869 1.32045E-02-7.13699E-03-1.21109E-13
 -1      3870 5.76122E-03-2.27131E-03-1.86854E-14
 -1      3871 5.90082E-03-2.35990E-03-1.98088E-14
 -1      3872 5.89134E-03-2.36952E-03-2.04814E-14
 -1      3873 4.36442E-03-1.45592E-03-9.44787E-15
 -1      3874 4.51593E-03-1.51397E-03-9.67188E-15
 -1      3875 4.62601E-03-1.57775E-03-1.04395E-14
 -1      3876 4.32691E-03-1.45477E-03-9.92647E-15
 -1      3877 1.38141E-02-7.43503E-03-1.20943E-13
 -1      3878 1.37362E-02-7.39784E-03-1.21059E-13
 -1      3879 1.35681E-02-7.29812E-03-1.19283E-13
 -1      3880 1.37330E-02-7.38113E-03-1.19481E-13
 -1      3881 4.73284E-03-1.76307E-03-1.72266E-14
 -1      3882 4.58668E-03-1.67481E-03-1.61619E-14
 -1      3883 4.88662E-03-1.84637E-03-1.77272E-14
 -1      3884 3.15513E-03-8.70180E-04-6.90885E-15
 -1      3885 3.28833E-03-9.47056E-04-7.01221E-15
 -1      3886 3.45001E-03-1.03055E-03-7.75996E-15
 -1      3887 4.43956E-03-1.58685E-03-1.51271E-14
 -1      3888 4.29126E-03-1.49905E-03-1.41226E-14
 -1      3889 4.59509E-03-1.67126E-03-1.56025E-14
 -1      3890 5.47720E-03-2.09222E-03-1.64724E-14
 -1      3891 5.61878E-03-2.18131E-03-1.75634E-14
 -1      3892 5.60775E-03-2.19100E-03-1.82009E-14
 -1      3893 4.95786E-03-1.77229E-03-1.26904E-14
 -1      3894 5.07239E-03-1.84161E-03-1.34947E-14
 -1      3895 6.89104E-03-3.10357E-03-3.57819E-14
 -1      3896 1.31252E-02-7.07905E-03-1.19143E-13
 -1      3897 5.88390E-03-2.47820E-03-2.67953E-14
 -1      3898 5.74090E-03-2.38808E-03-2.54985E-14
 -1      3899 5.74886E-03-2.38033E-03-2.47994E-14
 -1      3900 6.32013E-03-2.74105E-03-3.00792E-14
 -1      3901 6.16964E-03-2.65884E-03-2.94678E-14
 -1      3902 6.02680E-03-2.56846E-03-2.81179E-14
 -1      3903 5.17544E-03-2.02306E-03-1.99693E-14
 -1      3904 1.29853E-02-6.99449E-03-1.17501E-13
 -1      3905 1.28802E-02-6.92739E-03-1.15897E-13
 -1      3906 1.28876E-02-6.91899E-03-1.14651E-13
 -1      3907 1.31675E-02-7.08812E-03-1.17927E-13
 -1      3908 2.78648E-03-6.59223E-04-5.87448E-15
 -1      3909 2.90109E-03-6.97938E-04-7.24751E-15
 -1      3910 2.73740E-03-6.04874E-04-6.52527E-15
 -1      3911 2.75393E-03-6.27037E-04-6.20630E-15
 -1      3912 3.05556E-03-7.93395E-04-7.61179E-15
 -1      3913 1.34992E-02-7.24668E-03-1.17454E-13
 -1      3914 1.34168E-02-7.20518E-03-1.17355E-13
 -1      3915 5.20397E-03-1.92219E-03-1.44406E-14
 -1      3916 5.34357E-03-2.00878E-03-1.54689E-14
 -1      3917 5.33008E-03-2.01830E-03-1.60700E-14
 -1      3918 5.06206E-03-1.85481E-03-1.41114E-14
 -1      3919 3.75972E-03-1.19050E-03-8.65691E-15
 -1      3920 3.88552E-03-1.25084E-03-8.74797E-15
 -1      3921 4.04805E-03-1.33294E-03-9.57561E-15
 -1      3922 1.33367E-02-7.16763E-03-1.17544E-13
 -1      3923 1.32476E-02-7.12567E-03-1.17738E-13
 -1      3924 1.31076E-02-7.04110E-03-1.16099E-13
 -1      3925 1.32678E-02-7.11620E-03-1.15720E-13
 -1      3926 3.52300E-03-1.05959E-03-9.56058E-15
 -1      3927 3.36223E-03-9.69991E-04-8.74256E-15
 -1      3928 3.25551E-03-9.14219E-04-8.00838E-15
 -1      3929 3.10616E-03-8.33175E-04-7.27294E-15
 -1      3930 3.42326E-03-1.01034E-03-8.37518E-15
 -1      3931 1.36563E-02-7.33145E-03-1.18237E-13
 -1      3932 1.35049E-02-7.23851E-03-1.16311E-13
 -1      3933 6.30617E-03-2.64713E-03-2.48070E-14
 -1      3934 6.44803E-03-2.73729E-03-2.60790E-14
 -1      3935 6.59005E-03-2.82766E-03-2.73786E-14
 -1      3936 6.73222E-03-2.91820E-03-2.87063E-14
 -1      3937 6.43997E-03-2.74613E-03-2.68278E-14
 -1      3938 6.88163E-03-3.01342E-03-3.01263E-14
 -1      3939 7.03115E-03-3.10875E-03-3.15747E-14
 -1      3940 6.73157E-03-2.93154E-03-2.95540E-14
 -1      3941 7.17363E-03-3.19962E-03-3.29811E-14
 -1      3942 7.31619E-03-3.29055E-03-3.44135E-14
 -1      3943 7.02355E-03-3.11750E-03-3.23895E-14
 -1      3944 7.45880E-03-3.38152E-03-3.58734E-14
 -1      3945 7.60146E-03-3.47253E-03-3.73595E-14
 -1      3946 7.30868E-03-3.29923E-03-3.52606E-14
 -1      3947 7.74417E-03-3.56355E-03-3.88711E-14
 -1      3948 7.88690E-03-3.65459E-03-4.04085E-14
 -1      3949 7.59401E-03-3.48114E-03-3.82379E-14
 -1      3950 8.02967E-03-3.74564E-03-4.19709E-14
 -1      3951 8.17245E-03-3.83670E-03-4.35601E-14
 -1      3952 7.87948E-03-3.66316E-03-4.13169E-14
 -1      3953 8.31526E-03-3.92775E-03-4.51720E-14
 -1      3954 8.45808E-03-4.01881E-03-4.68075E-14
 -1      3955 8.16504E-03-3.84522E-03-4.44976E-14
 -1      3956 8.60805E-03-4.11442E-03-4.85492E-14
 -1      3957 8.75803E-03-4.21003E-03-5.03166E-14
 -1      3958 8.45782E-03-4.03185E-03-4.78557E-14
 -1      3959 8.90088E-03-4.30109E-03-5.20217E-14
 -1      3960 9.04374E-03-4.39214E-03-5.37492E-14
 -1      3961 8.75063E-03-4.21849E-03-5.13087E-14
 -1      3962 9.18660E-03-4.48319E-03-5.54966E-14
 -1      3963 9.32946E-03-4.57424E-03-5.72635E-14
 -1      3964 9.03634E-03-4.40058E-03-5.47657E-14
 -1      3965 9.47232E-03-4.66528E-03-5.90516E-14
 -1      3966 9.61519E-03-4.75632E-03-6.08584E-14
 -1      3967 9.32206E-03-4.58266E-03-5.83030E-14
 -1      3968 9.75806E-03-4.84736E-03-6.26835E-14
 -1      3969 9.90093E-03-4.93840E-03-6.45255E-14
 -1      3970 9.60779E-03-4.76473E-03-6.19198E-14
 -1      3971 1.00438E-02-5.02943E-03-6.63858E-14
 -1      3972 1.01867E-02-5.12047E-03-6.82650E-14
 -1      3973 9.89353E-03-4.94680E-03-6.56085E-14
 -1      3974 1.03295E-02-5.21150E-03-7.01619E-14
 -1      3975 1.04724E-02-5.30254E-03-7.20742E-14
 -1      3976 1.01793E-02-5.12887E-03-6.93692E-14
 -1      3977 1.06224E-02-5.39812E-03-7.40974E-14
 -1      3978 1.07724E-02-5.49370E-03-7.61419E-14
 -1      3979 1.04721E-02-5.31548E-03-7.32915E-14
 -1      3980 1.09153E-02-5.58473E-03-7.81049E-14
 -1      3981 1.10582E-02-5.67576E-03-8.00853E-14
 -1      3982 1.07650E-02-5.50210E-03-7.72842E-14
 -1      3983 1.12010E-02-5.76679E-03-8.20813E-14
 -1      3984 1.13439E-02-5.85782E-03-8.40920E-14
 -1      3985 1.10508E-02-5.68416E-03-8.12479E-14
 -1      3986 1.14867E-02-5.94884E-03-8.61158E-14
 -1      3987 1.16296E-02-6.03987E-03-8.81550E-14
 -1      3988 1.13365E-02-5.86621E-03-8.52717E-14
 -1      3989 1.17725E-02-6.13090E-03-9.02094E-14
 -1      3990 1.19153E-02-6.22193E-03-9.22752E-14
 -1      3991 1.16222E-02-6.04827E-03-8.93511E-14
 -1      3992 1.20582E-02-6.31296E-03-9.43566E-14
 -1      3993 1.22011E-02-6.40398E-03-9.64497E-14
 -1      3994 1.19079E-02-6.23032E-03-9.34844E-14
 -1      3995 1.23511E-02-6.49956E-03-9.86576E-14
 -1      3996 1.25011E-02-6.59514E-03-1.00880E-13
 -1      3997 1.22008E-02-6.41693E-03-9.77758E-14
 -1      3998 1.26439E-02-6.68617E-03-1.03003E-13
 -1      3999 1.27868E-02-6.77720E-03-1.05132E-13
 -1      4000 1.24937E-02-6.60354E-03-1.02110E-13
 -1      4001 1.29296E-02-6.86823E-03-1.07270E-13
 -1      4002 1.30725E-02-6.95925E-03-1.09413E-13
 -1      4003 1.27794E-02-6.78559E-03-1.06372E-13
 -1      4004 8.18354E-03-3.91328E-03-4.91200E-14
 -1      4005 8.04071E-03-3.82230E-03-4.74510E-14
 -1      4006 6.75589E-03-3.00440E-03-3.35073E-14
 -1      4007 6.61322E-03-2.91376E-03-3.20848E-14
 -1      4008 7.04129E-03-3.18590E-03-3.64303E-14
 -1      4009 6.89858E-03-3.09512E-03-3.49564E-14
 -1      4010 6.90616E-03-3.08664E-03-3.41346E-14
 -1      4011 7.89789E-03-3.73132E-03-4.58038E-14
 -1      4012 7.75509E-03-3.64036E-03-4.41808E-14
 -1      4013 8.04812E-03-3.81384E-03-4.65094E-14
 -1      4014 7.61230E-03-3.54942E-03-4.25817E-14
 -1      4015 7.46952E-03-3.45849E-03-4.10051E-14
 -1      4016 7.76252E-03-3.63189E-03-4.32676E-14
 -1      4017 8.46921E-03-4.09528E-03-5.25227E-14
 -1      4018 8.32637E-03-4.00427E-03-5.08109E-14
 -1      4019 8.33377E-03-3.99583E-03-4.98428E-14
 -1      4020 8.75491E-03-4.27729E-03-5.60110E-14
 -1      4021 8.61206E-03-4.18628E-03-5.42571E-14
 -1      4022 8.61945E-03-4.17785E-03-5.32622E-14
 -1      4023 9.04062E-03-4.45932E-03-5.95821E-14
 -1      4024 8.89777E-03-4.36831E-03-5.77872E-14
 -1      4025 8.90516E-03-4.35989E-03-5.67695E-14
 -1      4026 9.32635E-03-4.64136E-03-6.32247E-14
 -1      4027 9.18349E-03-4.55034E-03-6.13935E-14
 -1      4028 9.19088E-03-4.54193E-03-6.03524E-14
 -1      4029 9.61208E-03-4.82341E-03-6.69417E-14
 -1      4030 9.46921E-03-4.73239E-03-6.50743E-14
 -1      4031 9.47660E-03-4.72398E-03-6.40104E-14
 -1      4032 9.89781E-03-5.00546E-03-7.07332E-14
 -1      4033 9.75495E-03-4.91444E-03-6.88278E-14
 -1      4034 9.76234E-03-4.90604E-03-6.77446E-14
 -1      4035 1.01835E-02-5.18752E-03-7.45901E-14
 -1      4036 1.00407E-02-5.09649E-03-7.26538E-14
 -1      4037 1.00481E-02-5.08809E-03-7.15463E-14
 -1      4038 1.04693E-02-5.36957E-03-7.85134E-14
 -1      4039 1.03264E-02-5.27854E-03-7.65428E-14
 -1      4040 1.03338E-02-5.27015E-03-7.54150E-14
 -1      4041 1.07550E-02-5.55163E-03-8.25005E-14
 -1      4042 1.06121E-02-5.46060E-03-8.04996E-14
 -1      4043 1.06195E-02-5.45220E-03-7.93498E-14
 -1      4044 1.10407E-02-5.73369E-03-8.65461E-14
 -1      4045 1.08979E-02-5.64266E-03-8.45166E-14
 -1      4046 1.09053E-02-5.63426E-03-8.33485E-14
 -1      4047 1.13265E-02-5.91574E-03-9.06443E-14
 -1      4048 1.11836E-02-5.82471E-03-8.85902E-14
 -1      4049 1.11910E-02-5.81632E-03-8.74050E-14
 -1      4050 1.16122E-02-6.09780E-03-9.47940E-14
 -1      4051 1.14693E-02-6.00677E-03-9.27136E-14
 -1      4052 1.14767E-02-5.99838E-03-9.15138E-14
 -1      4053 1.18979E-02-6.27986E-03-9.89830E-14
 -1      4054 1.17550E-02-6.18883E-03-9.68845E-14
 -1      4055 1.17624E-02-6.18043E-03-9.56708E-14
 -1      4056 1.21836E-02-6.46192E-03-1.03218E-13
 -1      4057 1.20408E-02-6.37089E-03-1.01094E-13
 -1      4058 1.20482E-02-6.36249E-03-9.98739E-14
 -1      4059 1.24693E-02-6.64398E-03-1.07483E-13
 -1      4060 1.23265E-02-6.55295E-03-1.05346E-13
 -1      4061 1.23339E-02-6.54455E-03-1.04114E-13
 -1      4062 1.27551E-02-6.82603E-03-1.11774E-13
 -1      4063 1.26122E-02-6.73500E-03-1.09627E-13
 -1      4064 1.26196E-02-6.72661E-03-1.08387E-13
 -1      4065 3.52197E-03-1.06584E-03-8.46395E-15
 -1      4066 3.65370E-03-1.13680E-03-8.57532E-15
 -1      4067 3.82268E-03-1.22445E-03-9.39735E-15
 -1      4068 3.62257E-03-1.11832E-03-9.21939E-15
 -1      4069 3.68113E-03-1.14813E-03-1.04110E-14
 -1      4070 3.68611E-03-1.15181E-03-9.95822E-15
 -1      4071 3.83671E-03-1.23624E-03-1.12926E-14
 -1      4072 5.04035E-03-1.92888E-03-1.82254E-14
 -1      4073 4.89588E-03-1.84142E-03-1.71360E-14
 -1      4074 5.61413E-03-2.28313E-03-2.28712E-14
 -1      4075 5.47108E-03-2.19397E-03-2.16668E-14
 -1      4076 4.73473E-03-1.64023E-03-1.11623E-14
 -1      4077 4.84738E-03-1.70636E-03-1.19240E-14
 -1      4078 4.81604E-03-1.70882E-03-1.23951E-14
 -1      4079 4.59118E-03-1.58024E-03-1.09005E-14
 -1      4080 2.94226E-03-7.44176E-04-6.54710E-15
 -1      4081 5.32783E-03-2.10519E-03-2.04912E-14
 -1      4082 5.18428E-03-2.01679E-03-1.93445E-14
 -1      4083 5.47995E-03-2.18683E-03-2.10115E-14
 -1      4084 7.32676E-03-3.36760E-03-3.94539E-14
 -1      4085 7.18402E-03-3.27673E-03-3.79293E-14
 -1      4086 7.47698E-03-3.45001E-03-4.01213E-14
 -1      4087 6.02307E-03-2.46773E-03-2.23465E-14
 -1      4088 6.16450E-03-2.55727E-03-2.35625E-14
 -1      4089 6.15598E-03-2.56609E-03-2.42776E-14
 -1      4090 5.74098E-03-2.29006E-03-2.00004E-14
 -1      4091 5.88187E-03-2.37864E-03-2.11582E-14
 -1      4092 5.87258E-03-2.38735E-03-2.18397E-14
 -1      4093 1.34282E-02-7.18884E-03-1.15073E-13
 -1      4094 1.32154E-02-7.05028E-03-1.11559E-13
 -1      4095 1.33582E-02-7.14131E-03-1.13712E-13
 -1      4096 1.32779E-02-7.10621E-03-1.14168E-13
 -1      4097 6.62090E-03-2.90532E-03-3.12964E-14
 -1      4098 6.47055E-03-2.82320E-03-3.06894E-14
 -1      4099 6.32789E-03-2.73276E-03-2.93185E-14
 -1      4100 4.75077E-03-1.75455E-03-1.60777E-14
 -1      4101 4.60474E-03-1.66815E-03-1.50482E-14
 -1      4102 4.90616E-03-1.83669E-03-1.65507E-14
 -1      4103 4.14151E-03-1.41151E-03-1.31479E-14
 -1      4104 3.99009E-03-1.32389E-03-1.22046E-14
 -1      4105 4.29930E-03-1.49768E-03-1.35988E-14
 -1      4106 6.03461E-03-2.56038E-03-2.73841E-14
 -1      4107 1.28950E-02-6.91060E-03-1.13408E-13
 -1      4108 3.78145E-03-1.20427E-03-1.00549E-14
 -1      4109 5.75702E-03-2.37260E-03-2.41048E-14
 -1      4110 5.76542E-03-2.36484E-03-2.34141E-14
 -1      4111 5.89981E-03-2.46233E-03-2.53668E-14
 -1      4112 5.19377E-03-2.01062E-03-1.87227E-14
 -1      4113 7.19152E-03-3.26823E-03-3.70759E-14
 -1      4114 4.66817E-03-1.64197E-03-1.20825E-14
 -1      4115 4.78334E-03-1.70793E-03-1.28539E-14
 -1      4116 4.91847E-03-1.78679E-03-1.37821E-14
 -1      4117 5.05367E-03-1.86714E-03-1.47382E-14
 -1      4118 4.77250E-03-1.71746E-03-1.34489E-14
 -1      4119 5.45314E-03-2.11065E-03-1.77153E-14
 -1      4120 5.59686E-03-2.19997E-03-1.88426E-14
 -1      4121 5.58634E-03-2.20835E-03-1.94883E-14
 -1      4122 4.09683E-03-1.36339E-03-1.02529E-14
 -1      4123 4.21571E-03-1.41797E-03-1.03480E-14
 -1      4124 4.32985E-03-1.46872E-03-1.04936E-14
 -1      4125 4.48051E-03-1.53467E-03-1.07622E-14
 -1      4126 4.59545E-03-1.59817E-03-1.14953E-14
 -1      4127 4.37495E-03-1.50127E-03-1.12014E-14
 -1      4128 1.30651E-02-6.96765E-03-1.10659E-13
 -1      4129 1.31315E-02-7.01816E-03-1.12506E-13
 -1      4130 1.32014E-02-7.06569E-03-1.13866E-13
 -1      4131 1.31214E-02-7.02814E-03-1.14056E-13
 -1      4132 1.29886E-02-6.92713E-03-1.10357E-13
 -1      4133 6.28970E-03-2.66463E-03-2.62758E-14
 -1      4134 6.43195E-03-2.75481E-03-2.75810E-14
 -1      4135 6.53021E-03-2.82578E-03-2.90308E-14
 -1      4136 6.67979E-03-2.92081E-03-3.04613E-14
 -1      4137 6.82230E-03-3.01142E-03-3.18487E-14
 -1      4138 6.96486E-03-3.10214E-03-3.32628E-14
 -1      4139 7.10747E-03-3.19293E-03-3.47041E-14
 -1      4140 7.25011E-03-3.28378E-03-3.61715E-14
 -1      4141 7.39279E-03-3.37468E-03-3.76626E-14
 -1      4142 7.53550E-03-3.46561E-03-3.91813E-14
 -1      4143 7.67824E-03-3.55657E-03-4.07250E-14
 -1      4144 7.82100E-03-3.64755E-03-4.22943E-14
 -1      4145 7.96378E-03-3.73854E-03-4.38881E-14
 -1      4146 8.10658E-03-3.82954E-03-4.55054E-14
 -1      4147 8.24940E-03-3.92056E-03-4.71476E-14
 -1      4148 8.39936E-03-4.01613E-03-4.88946E-14
 -1      4149 8.54220E-03-4.10715E-03-5.05801E-14
 -1      4150 8.68504E-03-4.19818E-03-5.22888E-14
 -1      4151 8.82789E-03-4.28921E-03-5.40183E-14
 -1      4152 8.97074E-03-4.38024E-03-5.57684E-14
 -1      4153 9.11360E-03-4.47127E-03-5.75402E-14
 -1      4154 9.25647E-03-4.56230E-03-5.93307E-14
 -1      4155 9.39933E-03-4.65333E-03-6.11393E-14
 -1      4156 9.54220E-03-4.74436E-03-6.29664E-14
 -1      4157 9.68506E-03-4.83539E-03-6.48137E-14
 -1      4158 9.82793E-03-4.92642E-03-6.66771E-14
 -1      4159 9.97080E-03-5.01745E-03-6.85599E-14
 -1      4160 1.01137E-02-5.10848E-03-7.04603E-14
 -1      4161 1.02565E-02-5.19951E-03-7.23755E-14
 -1      4162 1.04065E-02-5.29509E-03-7.44051E-14
 -1      4163 1.05494E-02-5.38612E-03-7.63523E-14
 -1      4164 1.06923E-02-5.47715E-03-7.83198E-14
 -1      4165 1.08351E-02-5.56818E-03-8.03027E-14
 -1      4166 1.09780E-02-5.65921E-03-8.23007E-14
 -1      4167 1.11209E-02-5.75024E-03-8.43132E-14
 -1      4168 1.12637E-02-5.84126E-03-8.63392E-14
 -1      4169 1.14066E-02-5.93229E-03-8.83795E-14
 -1      4170 1.15495E-02-6.02332E-03-9.04348E-14
 -1      4171 1.16923E-02-6.11435E-03-9.24998E-14
 -1      4172 1.18352E-02-6.20538E-03-9.45781E-14
 -1      4173 1.19781E-02-6.29641E-03-9.66705E-14
 -1      4174 1.21281E-02-6.39199E-03-9.88779E-14
 -1      4175 1.22709E-02-6.48302E-03-1.00991E-13
 -1      4176 1.24138E-02-6.57404E-03-1.03112E-13
 -1      4177 1.25566E-02-6.66507E-03-1.05241E-13
 -1      4178 1.26995E-02-6.75610E-03-1.07380E-13
 -1      4179 3.99715E-03-1.32500E-03-1.17172E-14
 -1      4180 3.89471E-03-1.26375E-03-1.00797E-14
 -1      4181 3.99503E-03-1.31436E-03-1.01681E-14
 -1      4182 4.16383E-03-1.40275E-03-1.09635E-14
 -1      4183 6.18523E-03-2.64244E-03-2.79732E-14
 -1      4184 6.04254E-03-2.55229E-03-2.66564E-14
 -1      4185 6.05061E-03-2.54416E-03-2.59317E-14
 -1      4186 6.33573E-03-2.72442E-03-2.85611E-14
 -1      4187 4.56018E-03-1.59442E-03-1.19342E-14
 -1      4188 1.29751E-02-6.94814E-03-1.13218E-13
 -1      4189 5.18521E-03-1.94639E-03-1.56940E-14
 -1      4190 5.32100E-03-2.02926E-03-1.67063E-14
 -1      4191 5.30863E-03-2.03702E-03-1.73179E-14
 -1      4192 5.04268E-03-1.87619E-03-1.53438E-14
 -1      4193 3.95231E-03-1.29691E-03-1.08518E-14
 -1      4194 5.67664E-03-2.28753E-03-2.14312E-14
 -1      4195 5.53448E-03-2.19913E-03-2.02653E-14
 -1      4196 1.29087E-02-6.89764E-03-1.11368E-13
 -1      4197 5.38877E-03-2.10912E-03-1.90981E-14
 -1      4198 5.24648E-03-2.02197E-03-1.79893E-14
 -1      4199 5.96097E-03-2.46572E-03-2.38525E-14
 -1      4200 6.10319E-03-2.55536E-03-2.51051E-14
 -1      4201 5.81878E-03-2.37642E-03-2.26272E-14
 -1      4202 1.28424E-02-6.84713E-03-1.09523E-13
 -1      4203 5.11199E-03-1.94040E-03-1.69706E-14
 -1      4204 4.22475E-03-1.44008E-03-1.16865E-14
 -1      4205 4.32208E-03-1.48713E-03-1.17760E-14
 -1      4206 4.96927E-03-1.85482E-03-1.59203E-14
 -1      4207 4.41297E-03-1.55395E-03-1.35398E-14
 -1      4208 4.26412E-03-1.46915E-03-1.25872E-14
 -1      4209 4.57233E-03-1.63686E-03-1.39804E-14
 -1      4210 4.10540E-03-1.38153E-03-1.17461E-14
 -1      4211 4.45114E-03-1.54500E-03-1.17820E-14
 -1      4212 4.50809E-03-1.58356E-03-1.25313E-14
 -1      4213 4.64853E-03-1.66311E-03-1.34514E-14
 -1      4214 4.83419E-03-1.77492E-03-1.49557E-14
 -1      4215 6.37987E-03-2.74391E-03-2.84509E-14
 -1      4216 6.23739E-03-2.65369E-03-2.71257E-14
 -1      4217 6.09492E-03-2.56367E-03-2.58274E-14
 -3
    1PSTEP                         2           1           1          
  100CL  101 1.000000000        4217                     0    1           1
 -4  STRESS      6    1
 -5  SXX         1    4    1    1
 -5  SYY         1    4    2    2
 -5  SZZ         1    4    3    3
 -5  SXY         1    4    1    2
 -5  SYZ         1    4    2    3
 -5  SZX         1    4    3    1
 -1         1-4.11756E+00-1.03015E+01-3.79273E+00-5.64228E+00-2.30260E-12-1.36244E-12
 -1         2-6.45828E-01-2.24680E+01-3.41169E+00 9.81161E-02-1.98459E-12-5.65173E-15
 -1         3 1.99998E+01-5.23471E-08-1.38779E-06-3.17110E-08-3.71685E-13-4.10329E-13
 -1         4 1.99998E+01 9.46686E-08-1.25868E-06 6.33905E-08 4.10020E-13-3.87135E-13
 -1         5 2.89529E+01 5.53236E+00 2.64502E+00 5.97305E+00-4.61714E-14 2.91596E-12
 -1         6 6.47268E+01 2.21388E+01 9.06887E+00-1.13967E+01-9.73943E-14 3.03102E-12
 -1         7 3.60742E+01 1.02536E+01 6.95876E-01-2.64864E+00 5.34017E-14 1.30310E-12
 -1         8 2.33278E+01 7.13721E+00 3.74426E-01 1.14120E+00 2.48690E-14 4.85967E-13
 -1         9 1.16546E+01 3.80391E+00-2.30067E-01 1.67331E+00 3.91909E-14-2.12746E-14
 -1        10 3.76267E+00 1.52815E+00-6.66350E-01 5.90309E-02 3.24740E-14-1.87297E-13
 -1        11 1.18624E+00 7.43527E-01-6.75327E-01-2.52667E+00-5.30825E-15-1.45653E-13
 -1        12 3.01622E+00 1.16150E+00-4.91797E-01-4.62765E+00-4.42146E-14-8.19455E-14
 -1        13 8.33972E+00 2.58806E+00-1.48993E-01-6.07838E+00-8.19900E-14-9.35447E-14
 -1        14 1.43385E+01 4.32569E+00 2.53426E-01-6.22314E+00-8.36553E-14-1.79901E-13
 -1        15 2.09919E+01 6.27382E+00 5.86472E-01-4.75673E+00-7.31082E-14-3.35194E-13
 -1        16 2.49042E+01 7.42171E+00 5.52276E-01-2.16503E+00-4.26187E-14-5.48572E-13
 -1        17 2.56267E+01 7.65166E+00 3.41077E-01 1.96022E-02-2.75596E-14-8.00527E-13
 -1        18 2.47319E+01 7.40653E+00 1.71035E-01 1.41494E+00-1.55501E-14-1.02250E-12
 -1        19 2.33144E+01 6.99742E+00 8.34223E-02 2.21210E+00-7.43156E-15-1.17106E-12
 -1        20 2.18167E+01 6.55810E+00 4.71025E-02 2.72121E+00-2.56739E-16-1.25880E-12
 -1        21 2.04066E+01 6.14299E+00 3.41257E-02 3.13003E+00 5.07927E-15-1.24894E-12
 -1        22 1.91498E+01 5.77696E+00 2.34118E-02 3.55013E+00 1.63342E-14-1.11035E-12
 -1        23 1.82375E+01 5.53325E+00 1.17936E-04 4.02760E+00 2.33980E-14-7.15438E-13
 -1        24 1.83663E+01 5.62262E+00 3.26301E-02 4.77765E+00-1.11230E-14 2.58042E-13
 -1        25 5.27210E+01-2.93578E+00-5.84777E-01-8.77931E-02 7.16649E-14 3.27659E-12
 -1        26 4.71611E+01 8.13854E-02 5.62697E-01-5.22363E-01 6.17041E-15 3.88431E-12
 -1        27 3.70052E+01 5.14665E-03-3.47864E-01-1.47315E+00 5.09141E-15 4.00063E-12
 -1        28 2.48698E+01-1.09303E-01-2.07076E+00-1.27036E+00-5.19931E-14 3.44177E-12
 -1        29 1.87746E+01-2.03635E-01-2.79750E+00 2.20062E-01-1.04639E-13 2.00337E-12
 -1        30 2.32370E+01-1.62434E-01-1.67424E+00 1.31004E+00 3.08087E-15 6.20004E-13
 -1        31 3.14767E+01-7.20768E-03-1.24607E-01 1.07373E+00-2.28914E-14-1.23263E-13
 -1        32 3.69164E+01 1.15190E-01 6.19065E-01 3.78160E-01 5.23210E-14-1.78219E-13
 -1        33 3.66925E+01 7.59395E-02 4.39803E-01-1.13709E-01 1.58302E-14 2.89043E-13
 -1        34 3.29297E+01 1.12901E-02 8.00476E-02-2.10922E-01 1.58440E-14 5.57089E-13
 -1        35 2.88472E+01-2.87438E-02-8.51825E-02-1.52410E-01-9.98507E-15 8.72580E-13
 -1        36 2.56683E+01-3.94676E-02-1.06039E-01-8.87430E-02-7.56231E-15 1.00869E-12
 -1        37 2.34325E+01-3.11797E-02-7.52153E-02-4.15960E-02 3.13306E-14 9.22495E-13
 -1        38 2.20821E+01-2.41830E-02-4.76717E-02-1.95726E-02-1.51565E-14 9.04587E-13
 -1        39 2.12452E+01-1.65343E-02-2.81142E-02-8.35345E-03-7.61605E-14 7.60313E-13
 -1        40 2.07354E+01-1.08878E-02-1.61847E-02-3.00329E-03-7.07301E-15 5.02057E-13
 -1        41 2.04282E+01-6.98320E-03-9.25240E-03-6.20861E-04-6.90193E-14 5.94435E-13
 -1        42 2.02441E+01-4.54175E-03-5.37103E-03 1.10581E-04 8.02622E-14 2.54639E-13
 -1        43 2.01312E+01-2.66632E-03-2.87649E-03 7.11121E-04-1.82631E-14 1.05045E-13
 -1        44 2.00689E+01-1.71082E-03-1.65656E-03 6.59080E-04 8.16545E-14-5.51342E-14
 -1        45 2.00326E+01-1.06367E-03-9.35968E-04 5.73563E-04-2.70133E-14 5.81916E-14
 -1        46 2.00119E+01-6.60414E-04-5.21593E-04 4.65347E-04 2.43545E-14 4.77818E-13
 -1        47 2.00005E+01-4.08760E-04-2.85198E-04 3.63495E-04-6.46821E-14 4.94686E-13
 -1        48 1.99946E+01-2.50635E-04-1.51184E-04 2.78364E-04 6.66163E-16-1.68311E-13
 -1        49 1.99918E+01-1.57379E-04-7.68180E-05 2.03367E-04 6.43552E-14-1.90993E-13
 -1        50 1.99909E+01-9.02352E-05-3.16338E-05 1.59978E-04-1.48476E-13-1.51341E-13
 -1        51 1.99911E+01-5.36181E-05-9.14962E-06 1.18699E-04 1.52834E-13-2.21251E-13
 -1        52 1.99918E+01-3.03235E-05 2.97310E-06 8.99395E-05-4.28607E-17-1.96668E-13
 -1        53 1.99927E+01-1.58447E-05 9.18507E-06 6.82335E-05-1.97707E-14-3.42033E-14
 -1        54 1.99937E+01-6.78341E-06 1.19934E-05 5.18442E-05-6.26342E-14-5.67452E-14
 -1        55 1.99947E+01-1.36578E-06 1.31235E-05 3.93114E-05 1.19200E-13 1.57318E-13
 -1        56 1.99956E+01 1.41719E-06 1.23596E-05 2.95277E-05-1.20032E-13-3.09459E-14
 -1        57 1.99964E+01 3.45245E-06 1.17211E-05 2.21731E-05 7.10097E-14-7.41389E-13
 -1        58 1.99971E+01 4.20571E-06 1.05539E-05 1.66311E-05 4.16648E-14-8.38955E-13
 -1        59 1.99977E+01 4.40077E-06 9.26147E-06 1.23406E-05 4.93843E-14-4.92583E-13
 -1        60 1.99981E+01 4.25011E-06 7.95517E-06 9.04458E-06-1.86098E-15-6.30283E-13
 -1        61 1.99985E+01 3.90131E-06 6.70911E-06 6.52749E-06-2.01038E-14-6.19277E-13
 -1        62 1.99989E+01 3.58657E-06 5.65681E-06 4.80701E-06 2.09325E-14-9.38821E-13
 -1        63 1.99991E+01 2.84823E-06 4.43983E-06 3.07917E-06 8.36776E-14-7.18229E-13
 -1        64 1.99993E+01 2.49488E-06 3.61354E-06 2.08342E-06 4.54621E-14-2.66134E-13
 -1        65 1.99995E+01 2.05737E-06 2.86173E-06 1.33134E-06-1.11068E-13-7.12487E-13
 -1        66 1.99996E+01 1.66943E-06 2.23224E-06 7.92593E-07 1.77312E-13-6.84995E-13
 -1        67 1.99996E+01 1.32927E-06 1.71675E-06 4.18227E-07-1.48521E-13-7.24169E-14
 -1        68 1.99997E+01 1.08483E-06 1.32452E-06 2.23406E-07-9.11823E-14-4.03724E-13
 -1        69 1.99998E+01 7.90055E-07 9.64558E-07-2.35361E-08-6.77620E-14-3.25975E-13
 -1        70 1.99998E+01 6.31113E-07 7.48284E-07-1.13039E-07 2.03467E-13-6.64802E-13
 -1        71 1.99998E+01 4.88847E-07 6.02074E-07-1.93655E-07-5.81595E-15-1.04729E-12
 -1        72 1.99998E+01 3.71026E-07 5.03886E-07-2.86531E-07 4.31385E-14-1.10642E-12
 -1        73 1.99998E+01 2.46989E-07 3.26942E-07-4.34706E-07 7.90741E-14-7.26817E-13
 -1        74 1.99998E+01 5.98138E-08-2.72166E-07-6.67623E-07-2.19007E-13-9.39467E-13
 -1        75 1.67418E+01-4.30191E-01-9.71509E-01-3.04064E-01 5.50046E-14 2.40560E-12
 -1        76 1.45202E+01-8.14192E-02-3.20359E-01-3.57491E-02 3.74032E-14 1.45720E-12
 -1        77 1.37280E+01-3.25364E-02-9.49020E-02-1.28426E-02 2.03980E-14 7.81420E-13
 -1        78 1.36900E+01-1.97162E-02-3.49164E-02-1.66917E-02 1.33499E-14 3.30439E-13
 -1        79 1.41273E+01-1.19087E-02-1.80946E-02-2.12360E-02-4.43688E-15 4.33490E-14
 -1        80 1.48643E+01-5.68123E-03-8.33071E-03-2.47228E-02 1.21136E-14-1.75289E-13
 -1        81 1.57603E+01-8.53110E-04 6.18596E-04-2.63395E-02-5.08567E-15-4.14384E-13
 -1        82 1.66919E+01 2.67530E-03 8.19327E-03-2.53354E-02 4.97723E-15-5.06062E-13
 -1        83 1.75613E+01 4.81852E-03 1.30906E-02-2.20965E-02 5.15449E-15-6.53772E-13
 -1        84 1.83050E+01 5.69261E-03 1.49647E-02-1.75787E-02 3.75405E-16-7.60705E-13
 -1        85 1.88947E+01 5.59108E-03 1.43412E-02-1.28115E-02 6.56441E-15-7.36577E-13
 -1        86 1.93308E+01 4.88160E-03 1.21698E-02-8.55551E-03 2.19083E-14-7.55108E-13
 -1        87 1.96322E+01 3.90034E-03 9.38451E-03-5.19456E-03-2.64302E-14-6.79692E-13
 -1        88 1.98266E+01 2.89355E-03 6.66221E-03-2.79693E-03 9.14956E-15-6.29967E-13
 -1        89 1.99421E+01 2.00612E-03 4.37231E-03-1.24039E-03-1.70590E-14-7.20537E-13
 -1        90 2.00038E+01 1.29956E-03 2.63860E-03-3.26673E-04-1.76530E-14-6.58306E-13
 -1        91 2.00313E+01 7.79884E-04 1.43349E-03 1.43918E-04 5.03497E-14-8.43673E-13
 -1        92 2.00388E+01 4.23286E-04 6.59509E-04 3.36518E-04-9.03597E-15-1.03126E-12
 -1        93 2.00359E+01 1.94712E-04 2.02693E-04 3.71784E-04 3.99489E-15-8.88362E-13
 -1        94 2.00285E+01 5.89661E-05-3.92752E-05 3.29698E-04-1.68287E-14-8.48180E-13
 -1        95 2.00201E+01-1.39023E-05-1.46425E-04 2.58641E-04-6.14205E-15-7.54066E-13
 -1        96 2.00124E+01-4.69141E-05-1.75708E-04 1.84992E-04 3.37253E-15-3.82877E-13
 -1        97 2.00063E+01-5.64740E-05-1.64678E-04 1.21120E-04 8.84626E-14-6.02077E-13
 -1        98 2.00017E+01-5.35394E-05-1.36380E-04 7.12147E-05-5.42156E-14-5.15880E-13
 -1        99 1.99987E+01-4.49804E-05-1.03866E-04 3.51588E-05 2.60005E-14-6.68246E-13
 -1       100 1.99968E+01-3.48070E-05-7.37569E-05 1.09090E-05 3.60838E-14-8.26196E-13
 -1       101 1.99958E+01-2.51451E-05-4.88046E-05-4.15364E-06 1.35820E-14-1.01341E-12
 -1       102 1.99955E+01-1.69516E-05-2.96109E-05-1.25377E-05-6.99077E-14-5.94966E-13
 -1       103 1.99956E+01-1.05057E-05-1.57066E-05-1.63510E-05 1.49906E-14-5.55744E-13
 -1       104 1.99959E+01-5.72855E-06-6.18924E-06-1.72272E-05 7.40630E-14-1.23838E-12
 -1       105 1.99964E+01-2.37934E-06-7.18445E-08-1.63587E-05-7.91453E-14-1.28353E-12
 -1       106 1.99969E+01-1.68419E-07 3.54695E-06-1.45714E-05-8.68687E-14-7.24225E-13
 -1       107 1.99974E+01 1.18295E-06 5.41536E-06-1.24088E-05 1.10581E-13-8.62055E-13
 -1       108 1.99979E+01 1.91542E-06 6.11670E-06-1.02073E-05 2.34368E-14-1.38783E-12
 -1       109 1.99983E+01 2.22304E-06 6.08442E-06-8.15871E-06 2.54318E-14-1.84708E-12
 -1       110 1.99986E+01 2.25455E-06 5.62743E-06-6.35814E-06-6.03121E-14-1.36827E-12
 -1       111 1.99989E+01 2.11925E-06 4.95712E-06-4.83902E-06-6.91242E-14-9.85392E-13
 -1       112 1.99991E+01 1.89431E-06 4.21183E-06-3.59778E-06 1.51209E-14-1.15969E-12
 -1       113 1.99993E+01 1.63199E-06 3.47716E-06-2.61063E-06 5.77939E-14-1.15439E-12
 -1       114 1.99995E+01 1.36597E-06 2.80201E-06-1.84443E-06-2.82789E-14-1.46230E-12
 -1       115 1.99996E+01 1.11660E-06 2.21074E-06-1.26345E-06-3.28725E-14-9.35896E-13
 -1       116 1.99997E+01 8.95005E-07 1.71227E-06-8.33253E-07-1.29192E-13-3.05048E-13
 -1       117 1.99997E+01 7.06150E-07 1.30684E-06-5.22629E-07 1.12812E-13-8.61724E-13
 -1       118 1.99998E+01 5.50689E-07 9.90860E-07-3.03165E-07-7.71326E-14-7.42931E-13
 -1       119 1.99998E+01 4.26400E-07 7.60051E-07-1.48511E-07-1.72459E-14-2.21255E-13
 -1       120 1.99998E+01 3.27997E-07 6.15292E-07-3.45363E-08 4.23107E-14 1.67450E-14
 -1       121 1.99998E+01 2.41252E-07 5.26429E-07 8.15681E-08-5.83328E-14-5.64063E-14
 -1       122 1.99998E+01 1.35599E-07 3.36570E-07 2.62712E-07-6.82795E-14-6.00297E-13
 -1       123 1.99998E+01-1.65649E-07-3.30330E-07 6.15058E-07 2.99922E-13-4.91091E-13
 -1       124 1.99998E+01 2.23101E-06-2.41789E-07 8.37578E-07-9.66565E-13 7.64931E-14
 -1       125 1.99998E+01 4.35583E-06 4.34695E-07 3.78927E-07-9.37751E-13-1.45449E-13
 -1       126 1.99998E+01 1.11809E-06 4.92056E-07-2.16127E-08-4.69352E-13 1.07701E-13
 -1       127 1.99998E+01-6.82057E-06 2.91056E-07-2.43694E-07-1.10540E-13-8.43583E-14
 -1       128 1.99998E+01-1.74438E-05 4.56249E-08-3.44780E-07 2.79139E-13-4.65836E-13
 -1       129 1.99998E+01-2.80946E-05-1.74531E-07-3.33184E-07 4.34105E-13 2.13875E-13
 -1       130 1.99998E+01-3.67886E-05-3.39987E-07-2.34157E-07 3.97096E-13 9.79162E-15
 -1       131 1.99998E+01-4.15450E-05-4.27435E-07-8.02478E-08-3.11856E-13-1.15912E-13
 -1       132 1.99998E+01-4.14050E-05-4.25007E-07 9.16249E-08-5.12859E-14 1.84420E-13
 -1       133 1.99998E+01-3.63949E-05-3.32989E-07 2.43099E-07 3.40449E-14-1.33613E-13
 -1       134 1.99998E+01-2.75250E-05-1.61834E-07 3.39743E-07-3.68951E-13-5.65747E-14
 -1       135 1.99998E+01-1.68139E-05 6.09836E-08 3.43492E-07-5.09801E-13 2.65117E-13
 -1       136 1.99998E+01-6.25603E-06 3.05676E-07 2.36374E-07-8.51356E-13-5.73036E-14
 -1       137 1.99998E+01 1.47674E-06 4.84153E-07-7.44575E-10-8.45146E-13-1.56725E-13
 -1       138 1.99998E+01 4.52833E-06 3.94672E-07-4.13001E-07 8.58434E-14-1.85038E-13
 -1       139 1.99998E+01 2.67195E-06-2.15732E-07-6.62482E-07 1.09881E-12 1.10189E-13
 -1       140-1.13572E+00-1.61059E+01-2.89533E+00-2.91156E+00-9.40914E-14 3.70814E-14
 -1       141-4.57492E-01-3.69218E+00-1.91060E+00-8.36895E-01 1.97353E-12 9.75997E-13
 -1       142 5.24695E+00 7.68502E+00-6.37444E-01 6.51980E+00 2.85183E-12 2.10854E-12
 -1       143 1.91006E+01 1.29710E+01 8.09838E-01 1.55096E+01 2.55229E-12 2.96413E-12
 -1       144 3.84338E+01 1.09615E+01 2.09168E+00 1.99297E+01 1.76145E-12 3.14904E-12
 -1       145 5.60628E+01 5.10685E+00 2.96228E+00 1.56575E+01 7.48838E-13 2.44069E-12
 -1       146 6.45270E+01 1.10400E+00 3.20848E+00 4.04347E+00 1.46688E-13 1.17684E-12
 -1       147 5.98386E+01 1.99973E+00 2.73449E+00-8.63307E+00 8.05432E-14-3.08975E-13
 -1       148 4.41958E+01 6.62975E+00 1.62640E+00-1.64161E+01 6.48454E-13-1.52650E-12
 -1       149 2.53095E+01 1.04739E+01 2.66742E-01-1.61188E+01 1.31553E-12-1.92896E-12
 -1       150 1.07530E+01 1.05710E+01-8.52985E-01-1.08325E+01 1.67039E-12-1.63225E-12
 -1       151 2.99838E+00 7.34326E+00-1.27260E+00-5.02119E+00 1.41789E-12-9.06247E-13
 -1       152 1.77512E-01 3.27875E+00-9.75174E-01-1.21023E+00 7.31304E-13-2.84307E-13
 -1       153-6.30840E-02-5.82808E-01-5.39817E-01 1.13453E-02-4.00235E-14-3.45210E-15
 -1       154-2.67723E-01-5.41764E+00-8.18583E-01-7.99830E-01-8.28504E-13-8.49529E-14
 -1       155-1.84602E+00-1.01155E+01-2.21132E+00-3.62400E+00-1.61712E-12-5.38618E-13
 -1       156-3.05475E+00-4.55541E+00-4.15981E+00-2.86957E+00-2.60741E-12-2.35301E-12
 -1       157 9.46791E+00 3.02334E+00-2.53425E+00 6.05713E+00-2.31787E-12-3.16902E-12
 -1       158 3.35043E+01 6.15202E+00 6.16328E-01 1.41307E+01-1.61332E-12-3.29858E-12
 -1       159 6.35400E+01 4.01353E+00 4.30417E+00 1.37361E+01-6.12094E-13-2.41551E-12
 -1       160 8.42673E+01 1.68240E+00 6.82120E+00 2.24200E+00-9.66796E-14-8.67528E-13
 -1       161 8.26959E+01 3.50749E+00 6.72463E+00-1.27613E+01-3.06390E-13 1.31750E-12
 -1       162 6.16468E+01 8.80492E+00 4.43940E+00-2.17395E+01-1.29874E-12 3.12550E-12
 -1       163 3.29175E+01 1.21628E+01 1.39250E+00-1.95972E+01-2.59964E-12 4.02156E-12
 -1       164 1.14012E+01 8.73355E+00-9.87885E-01-1.02220E+01-3.97482E-12 3.95184E-12
 -1       165 2.83230E-01-9.93518E-01-2.46775E+00-4.24389E-01-4.79516E-12 3.25223E-12
 -1       166-2.22927E+00-1.25213E+01-3.23701E+00 4.41888E+00-4.46082E-12 1.89090E-12
 -1       167-1.36207E+00-2.07974E+01-3.51305E+00 3.76132E+00-3.23974E-12 6.35489E-13
 -1       168 3.19587E+01 3.23629E+00 5.65987E-02-1.51588E+00 2.94070E-13 9.23595E-13
 -1       169 1.81880E+01 3.23470E+00 3.02860E-02 5.02945E-01 3.15831E-13 2.12566E-13
 -1       170 6.36238E+00 3.86150E+00-8.97922E-03 3.21845E-01 1.59386E-13-2.26097E-13
 -1       171-1.03431E-01 3.92698E+00 1.85065E-02-1.69697E+00-1.43836E-13-3.33455E-13
 -1       172-1.86808E-01 3.50894E+00 4.61915E-02-3.41448E+00-4.54074E-13-2.57794E-13
 -1       173 4.14091E+00 3.58850E+00 5.89945E-02-4.84581E+00-7.26488E-13-1.74985E-13
 -1       174 1.06343E+01 3.53439E+00 7.19745E-02-5.69785E+00-8.56787E-13-1.28963E-13
 -1       175 1.94476E+01 3.22280E+00 1.18484E-01-4.93301E+00-8.46004E-13-1.09772E-13
 -1       176 2.55479E+01 3.72875E+00 1.04003E-01-2.43150E+00-6.32862E-13-2.23110E-13
 -1       177 2.69400E+01 4.95993E+00 5.25937E-02-2.41378E-01-3.80359E-13-4.84210E-13
 -1       178 2.59979E+01 5.83042E+00 1.29543E-02 1.08550E+00-2.13709E-13-7.41877E-13
 -1       179 2.43840E+01 6.10265E+00-6.55684E-03 1.81808E+00-9.68774E-14-9.13701E-13
 -1       180 2.27362E+01 5.96838E+00-1.38799E-02 2.29011E+00 2.01072E-14-1.02046E-12
 -1       181 2.12387E+01 5.61628E+00-1.76566E-02 2.67931E+00 1.31780E-13-1.05522E-12
 -1       182 1.99272E+01 5.15052E+00-2.48841E-02 3.09197E+00 2.56326E-13-9.88581E-13
 -1       183 1.89406E+01 4.62565E+00-4.04183E-02 3.58464E+00 3.68622E-13-7.38680E-13
 -1       184 1.87080E+01 3.87642E+00-4.46075E-02 4.21804E+00 4.28853E-13-1.22319E-13
 -1       185 1.92448E+01 1.39485E+00-2.87346E-01 3.52908E+00 4.22523E-13 7.21923E-13
 -1       186 4.12292E+01-1.34477E+00 1.48504E-01-2.79077E+00 3.07594E-13 1.79533E-12
 -1       187 4.07537E+01-2.18161E+00 5.32537E-02-5.79589E+00 6.74842E-14 1.90035E-12
 -1       188 3.92910E+01 6.98575E-02-1.79509E-01-8.06657E+00-4.63740E-13 1.76169E-12
 -1       189 3.74830E+01 3.45188E+00-2.96285E-01-4.46075E+00-9.48741E-13 1.32366E-12
 -1       190 3.58693E+01 2.83370E+00-4.11702E-01 1.95045E+00-1.11255E-12 7.39131E-13
 -1       191 3.50803E+01-2.30364E-01-3.07276E-01 4.68926E+00-6.96013E-13 8.02379E-14
 -1       192 3.40593E+01-1.86030E+00-1.09556E-02 2.32814E+00-8.34784E-14-2.18442E-13
 -1       193 3.18647E+01-1.27453E+00 7.50433E-02-9.90219E-01 2.73743E-13-3.15359E-13
 -1       194 2.92507E+01-2.80153E-01 4.29863E-02-2.63312E+00 2.27372E-13-1.32186E-13
 -1       195 2.67878E+01 1.78771E-01 2.40702E-03-2.65702E+00 2.10893E-13 5.06643E-14
 -1       196 2.47514E+01 2.65013E-01-4.27914E-03-2.07164E+00 7.72368E-14 2.08919E-13
 -1       197 2.31416E+01 2.18194E-01 3.26122E-04-1.41155E+00 8.93730E-15 3.04764E-13
 -1       198 2.20648E+01 1.52082E-01 3.32536E-03-9.22007E-01-3.39763E-14 2.93741E-13
 -1       199 2.13296E+01 9.90362E-02 4.11998E-03-5.84262E-01-2.45060E-14 3.07127E-13
 -1       200 2.08439E+01 6.21925E-02 3.57598E-03-3.63723E-01-8.35981E-14 3.91086E-13
 -1       201 2.05292E+01 3.83231E-02 2.66701E-03-2.23921E-01 2.81242E-16 3.78619E-13
 -1       202 2.03276E+01 2.34066E-02 1.81035E-03-1.36804E-01-1.19061E-13 3.11811E-13
 -1       203 2.01953E+01 1.38396E-02 1.24283E-03-8.09889E-02-8.88093E-14 1.25057E-13
 -1       204 2.01171E+01 8.32717E-03 7.74624E-04-4.87243E-02-7.56394E-14-1.40744E-14
 -1       205 2.00683E+01 5.00703E-03 4.98009E-04-2.90686E-02 2.30711E-14-1.59081E-13
 -1       206 2.00380E+01 2.99887E-03 3.17366E-04-1.70905E-02 1.51392E-13-9.32460E-14
 -1       207 2.00195E+01 1.78817E-03 2.01512E-04-9.82064E-03-1.37561E-15-2.50745E-13
 -1       208 2.00084E+01 1.05891E-03 1.27230E-04-5.42648E-03-2.24930E-13-1.54897E-13
 -1       209 2.00018E+01 6.20739E-04 7.95970E-05-2.79045E-03-9.46120E-14-2.42100E-13
 -1       210 1.99980E+01 3.46559E-04 5.07323E-05-1.16502E-03 7.91885E-14-1.84841E-13
 -1       211 1.99962E+01 1.90224E-04 3.07508E-05-2.76605E-04 1.52790E-14 6.01982E-14
 -1       212 1.99955E+01 9.67102E-05 1.90459E-05 2.17797E-04-9.68998E-14 1.53206E-14
 -1       213 1.99953E+01 4.08581E-05 1.15367E-05 4.74867E-04 2.35734E-13-6.29297E-14
 -1       214 1.99956E+01 8.04577E-06 6.73416E-06 5.87337E-04-1.46825E-14 6.94906E-15
 -1       215 1.99960E+01-1.05920E-05 3.76629E-06 6.13355E-04 5.56039E-14 3.06433E-13
 -1       216 1.99965E+01-2.09052E-05 1.80866E-06 5.87766E-04-1.99639E-13-3.34789E-14
 -1       217 1.99970E+01-2.51264E-05 6.30066E-07 5.36063E-04-3.09584E-13-1.02509E-13
 -1       218 1.99975E+01-2.62041E-05-5.23006E-08 4.72268E-04-7.96067E-14-2.14560E-13
 -1       219 1.99979E+01-2.52967E-05-4.48247E-07 4.05318E-04 1.24009E-13-4.79954E-13
 -1       220 1.99983E+01-2.32690E-05-6.50150E-07 3.40377E-04 1.73247E-14-2.43117E-13
 -1       221 1.99986E+01-2.06853E-05-7.30001E-07 2.80484E-04-2.77611E-14-2.58249E-13
 -1       222 1.99989E+01-1.79088E-05-7.11879E-07 2.27225E-04-1.12038E-13-2.14290E-13
 -1       223 1.99991E+01-1.50643E-05-7.02158E-07 1.79009E-04 3.78160E-14-3.47179E-13
 -1       224 1.99993E+01-1.24522E-05-6.10583E-07 1.40215E-04 2.57857E-14-4.55329E-13
 -1       225 1.99994E+01-1.01562E-05-5.32368E-07 1.08128E-04-3.44521E-14-5.83826E-13
 -1       226 1.99995E+01-8.14719E-06-4.53191E-07 8.19959E-05 2.42525E-14-3.46170E-13
 -1       227 1.99996E+01-6.43839E-06-3.77413E-07 6.10500E-05 2.88550E-13-2.41818E-13
 -1       228 1.99997E+01-5.02305E-06-3.05198E-07 4.45201E-05-1.51190E-13-6.11261E-14
 -1       229 1.99997E+01-3.83491E-06-2.53977E-07 3.10596E-05-7.36843E-14 3.57917E-14
 -1       230 1.99998E+01-2.93851E-06-1.94581E-07 2.11774E-05-1.60236E-13-4.67708E-14
 -1       231 1.99998E+01-2.27933E-06-1.47226E-07 1.35615E-05 7.07546E-14-3.81617E-13
 -1       232 1.99998E+01-1.81434E-06-1.01082E-07 7.61564E-06-4.73234E-14-1.86453E-13
 -1       233 1.99998E+01-1.45988E-06-6.44611E-08 2.94126E-06 1.77876E-13-6.38638E-14
 -1       234 1.99998E+01-9.60363E-07-8.69260E-08-3.51988E-07-1.86654E-13-1.71324E-13
 -1       235 1.99998E+01 2.01921E-07-6.61029E-08-1.44190E-06-1.02971E-13 1.39493E-13
 -1       236 1.74387E+01 3.33490E-01-7.54072E-02 1.39629E+00 4.20816E-13 5.85806E-13
 -1       237 1.62018E+01 1.82392E-01 4.62547E-05 4.73899E-01 2.89893E-13 3.07878E-13
 -1       238 1.57701E+01 1.03875E-01 1.10582E-02 2.07675E-03 2.12398E-13 1.15989E-13
 -1       239 1.58242E+01 6.02651E-02 7.37322E-03-2.90069E-01 1.36854E-13-4.45217E-14
 -1       240 1.61910E+01 3.38899E-02 4.32831E-03-4.66408E-01 1.23758E-13-2.11263E-13
 -1       241 1.67427E+01 1.04372E-02 2.60401E-03-5.52725E-01 1.06465E-13-3.11682E-13
 -1       242 1.73715E+01-8.68469E-03 1.70358E-03-5.63632E-01 5.79266E-14-4.03315E-13
 -1       243 1.79931E+01-2.17092E-02 1.06195E-03-5.17691E-01 4.71401E-14-4.24941E-13
 -1       244 1.85498E+01-2.80807E-02 5.05961E-04-4.36982E-01 1.57689E-14-3.80036E-13
 -1       245 1.90102E+01-2.87824E-02 3.29231E-05-3.42671E-01 2.37625E-14-3.76021E-13
 -1       246 1.93656E+01-2.56767E-02-3.13119E-04-2.51110E-01-1.66113E-14-3.43886E-13
 -1       247 1.96228E+01-2.07069E-02-5.11203E-04-1.72260E-01-4.76589E-14-3.38571E-13
 -1       248 1.97977E+01-1.53811E-02-5.76079E-04-1.10255E-01-2.28184E-14-3.19458E-13
 -1       249 1.99088E+01-1.06155E-02-5.44991E-04-6.50798E-02 4.88412E-14-2.92568E-13
 -1       250 1.99740E+01-6.81251E-03-4.59932E-04-3.44013E-02-1.42775E-14-3.28444E-13
 -1       251 2.00081E+01-4.02925E-03-3.55720E-04-1.50121E-02 7.58669E-14-3.12398E-13
 -1       252 2.00226E+01-2.13855E-03-2.55344E-04-3.74186E-03 5.01718E-14-2.91336E-13
 -1       253 2.00258E+01-9.44233E-04-1.70761E-04 2.08983E-03-4.32818E-14-3.38473E-13
 -1       254 2.00232E+01-2.49066E-04-1.05866E-04 4.53065E-03 5.08819E-15-3.79078E-13
 -1       255 2.00182E+01 1.13231E-04-5.97322E-05 5.02727E-03-6.54456E-14-3.85105E-13
 -1       256 2.00127E+01 2.68628E-04-2.91624E-05 4.53374E-03-1.10926E-13-2.98378E-13
 -1       257 2.00078E+01 3.05319E-04-1.03518E-05 3.63694E-03 1.11671E-13-2.76074E-13
 -1       258 2.00038E+01 2.81034E-04 2.07800E-07 2.66943E-03-9.74170E-14-2.88078E-13
 -1       259 2.00009E+01 2.31122E-04 5.35487E-06 1.79867E-03 1.39953E-13-2.58390E-13
 -1       260 1.99989E+01 1.75608E-04 7.19412E-06 1.09183E-03 2.12552E-14-2.13738E-13
 -1       261 1.99977E+01 1.24656E-04 7.18173E-06 5.59761E-04 1.43631E-13-1.27652E-13
 -1       262 1.99971E+01 8.24817E-05 6.26328E-06 1.85241E-04-1.58750E-13-2.56490E-13
 -1       263 1.99969E+01 4.99652E-05 5.01303E-06-6.01611E-05 1.21148E-13-1.65962E-13
 -1       264 1.99969E+01 2.63124E-05 3.75205E-06-2.06666E-04 3.48190E-13-3.58397E-13
 -1       265 1.99972E+01 1.00401E-05 2.63856E-06-2.81610E-04-3.61128E-14-3.80531E-13
 -1       266 1.99975E+01-4.77315E-07 1.73250E-06-3.07582E-04-1.25095E-13-3.95897E-13
 -1       267 1.99978E+01-6.73399E-06 1.03879E-06-3.02122E-04 2.40836E-13-5.63490E-13
 -1       268 1.99982E+01-9.98106E-06 5.35027E-07-2.78170E-04 1.84258E-13-6.23535E-13
 -1       269 1.99985E+01-1.12032E-05 1.88048E-07-2.44845E-04 1.63877E-13-4.50530E-13
 -1       270 1.99987E+01-1.11396E-05-3.67595E-08-2.08262E-04-2.92205E-13-3.58010E-13
 -1       271 1.99990E+01-1.03227E-05-1.70784E-07-1.72283E-04 7.94865E-14-3.66777E-13
 -1       272 1.99992E+01-9.12118E-06-2.40289E-07-1.39152E-04 9.89429E-14-8.44454E-13
 -1       273 1.99993E+01-7.77932E-06-2.66060E-07-1.09992E-04-2.72379E-14-8.09327E-13
 -1       274 1.99995E+01-6.45068E-06-2.63842E-07-8.51852E-05-4.86332E-14-5.54196E-13
 -1       275 1.99996E+01-5.22486E-06-2.45102E-07-6.46462E-05-2.18838E-13-4.28242E-13
 -1       276 1.99996E+01-4.14822E-06-2.17818E-07-4.80209E-05-1.64924E-13-4.73411E-13
 -1       277 1.99997E+01-3.23976E-06-1.87174E-07-3.48151E-05 3.77631E-13-7.74131E-13
 -1       278 1.99997E+01-2.50307E-06-1.56063E-07-2.44779E-05-2.02370E-13-7.52406E-13
 -1       279 1.99998E+01-1.93124E-06-1.24237E-07-1.64537E-05-2.24044E-13-6.57143E-13
 -1       280 1.99998E+01-1.50204E-06-8.83148E-08-1.02238E-05 2.14862E-14-4.42613E-13
 -1       281 1.99998E+01-1.22206E-06-4.69066E-08-5.31141E-06-3.83246E-14-2.00616E-13
 -1       282 1.99998E+01-9.95767E-07-3.77971E-08-1.43142E-06 3.26340E-13-2.28650E-13
 -1       283 1.99998E+01-4.58869E-07-1.39196E-07 1.14595E-06-2.31073E-14-5.41547E-13
 -1       284 1.99998E+01-1.58590E-06-6.04563E-08-1.15212E-07-1.98844E-13-1.20461E-13
 -1       285 1.99998E+01-5.43256E-06-3.98465E-09-3.61841E-06-2.83224E-13 9.25801E-14
 -1       286 1.99998E+01-1.18429E-05-6.69045E-09-6.79385E-06-1.59556E-13 3.07649E-13
 -1       287 1.99998E+01-2.00855E-05-4.96946E-10-8.64559E-06 3.31520E-15 5.47198E-14
 -1       288 1.99998E+01-2.85964E-05 1.87958E-08-8.64563E-06-1.68175E-13-1.05716E-13
 -1       289 1.99998E+01-3.61789E-05 3.71333E-08-6.88379E-06-1.56842E-13-7.43053E-14
 -1       290 1.99998E+01-4.13081E-05 5.09930E-08-3.75417E-06-9.74429E-14-3.43411E-13
 -1       291 1.99998E+01-4.30641E-05 5.58245E-08 1.05925E-07 2.95105E-13 1.25095E-13
 -1       292 1.99998E+01-4.11309E-05 5.05643E-08 3.94598E-06-2.79724E-13-6.66886E-14
 -1       293 1.99998E+01-3.58545E-05 3.66344E-08 7.01954E-06-1.86614E-13 1.60667E-14
 -1       294 1.99998E+01-2.83333E-05 1.75463E-08 8.68330E-06 7.84959E-14-8.53090E-14
 -1       295 1.99998E+01-1.96618E-05 2.36108E-09 8.60048E-06 6.56088E-14-3.73913E-13
 -1       296 1.99998E+01-1.14944E-05-5.98142E-09 6.68543E-06-1.32402E-13 7.70820E-14
 -1       297 1.99998E+01-5.14685E-06-8.88279E-09 3.34259E-06-3.25111E-13 3.17923E-13
 -1       298 1.99998E+01-1.53224E-06-1.16121E-08 2.80149E-07-1.02119E-13 3.14219E-13
 -1       299-3.19463E-01-8.38604E+00-9.65825E-01 2.36865E+00-6.99371E-13 8.84418E-13
 -1       300 3.96597E+00-5.52195E+00-6.70480E-01 5.06044E+00-1.49158E-13 1.08025E-12
 -1       301 1.09086E+01-1.83855E+00-3.86294E-01 7.21021E+00 5.00378E-13 1.00135E-12
 -1       302 2.04464E+01 1.95865E+00 4.01044E-02 9.02552E+00 8.49154E-13 1.07914E-12
 -1       303 3.10775E+01 4.20950E+00 3.79227E-01 8.57311E+00 7.94545E-13 9.23317E-13
 -1       304 4.00871E+01 6.43917E+00 7.72663E-01 7.84712E+00 8.76271E-13 9.35751E-13
 -1       305 4.51677E+01 7.07092E+00 8.73747E-01 4.27327E+00 7.24865E-13 5.74665E-13
 -1       306 4.52969E+01 6.96877E+00 7.40102E-01 2.60063E-01 6.85965E-13 2.00846E-13
 -1       307 4.21678E+01 5.88359E+00 5.67579E-01-3.93213E+00 5.93255E-13-1.20487E-13
 -1       308 3.40392E+01 4.82076E+00 1.57350E-01-6.39687E+00 4.36436E-13-2.48690E-13
 -1       309 2.38356E+01 5.04501E+00-1.48161E-01-8.88403E+00 3.21132E-13-4.99184E-13
 -1       310 1.39562E+01 5.09178E+00-3.60095E-01-7.88262E+00 6.07292E-14-4.62227E-13
 -1       311 6.80575E+00 4.46377E+00-2.79426E-01-5.62894E+00-3.70565E-13-3.06902E-13
 -1       312 1.94768E+00 2.94735E+00-1.47338E-01-3.29529E+00-4.32085E-13-2.92374E-13
 -1       313-1.89348E-01 8.01172E-01-1.23116E-01-2.80828E+00-5.53599E-13-3.54078E-13
 -1       314-1.77607E+00-6.36377E-01-3.92367E-01-2.65859E+00-6.91835E-13-5.15796E-13
 -1       315-7.87726E-01-1.24237E+00-8.84265E-01-1.02307E+00-7.09613E-13-7.79155E-13
 -1       316 5.59734E+00-3.22164E+00-1.30512E+00 1.23564E+00-8.30697E-13-1.04012E-12
 -1       317 1.82523E+01-4.52033E+00-1.10840E+00 2.75116E+00-7.14262E-13-9.45827E-13
 -1       318 3.26041E+01-3.36559E+00-3.98702E-01 1.92223E+00-7.43461E-13-8.74023E-13
 -1       319 4.58063E+01 2.67469E-01 7.70290E-01-7.57130E-01-8.11823E-13-5.12201E-13
 -1       320 5.23874E+01 4.99023E+00 1.51632E+00-3.61041E+00-8.61894E-13 2.19436E-13
 -1       321 5.65614E+01 7.36538E+00 2.14159E+00-3.40526E+00-1.14109E-12 5.92977E-13
 -1       322 5.24866E+01 5.94550E+00 1.59930E+00-3.43425E+00-1.34909E-12 9.64895E-13
 -1       323 4.42799E+01 2.21089E+00 8.04710E-01-4.80812E+00-1.39664E-12 1.20426E-12
 -1       324 3.10802E+01-3.19019E-03 2.88006E-02-7.70590E+00-1.79151E-12 1.61715E-12
 -1       325 1.88742E+01-3.30668E+00-4.99348E-01-7.10910E+00-1.74055E-12 1.36530E-12
 -1       326 7.57418E+00-5.47021E+00-9.00930E-01-4.90362E+00-1.92174E-12 1.48569E-12
 -1       327 1.43229E+00-7.88402E+00-1.06624E+00-2.30958E+00-1.66764E-12 1.34186E-12
 -1       328-9.81797E-01-8.98613E+00-1.05752E+00 7.60649E-02-1.25058E-12 8.42632E-13
 -1       329 1.17975E+01-5.84517E-02-2.53045E-01 1.88342E+00 4.16611E-14-2.83898E-13
 -1       330 2.87180E+01-1.52984E+00-1.28063E-02-3.36424E-01 3.40825E-13 6.59001E-13
 -1       331 2.56410E+01 2.04595E+00-3.64221E-02-3.40641E+00-7.11337E-13 1.32401E-13
 -1       332 2.83012E+01 3.13294E+00-5.90760E-02-8.53627E-02-4.78911E-13-3.03898E-14
 -1       333 2.73821E+01 4.55374E+00-4.14829E-02 1.31333E+00-2.78228E-13-3.58186E-13
 -1       334 2.55893E+01 5.27675E+00-3.07329E-02 1.76824E+00-1.37302E-13-5.84387E-13
 -1       335 2.37945E+01 5.38577E+00-2.30736E-02 1.98407E+00-7.36824E-16-7.29746E-13
 -1       336 2.21985E+01 5.10645E+00-1.95502E-02 2.19777E+00 1.31970E-13-8.04856E-13
 -1       337 2.08120E+01 4.57688E+00-2.03498E-02 2.47670E+00 2.75855E-13-7.86300E-13
 -1       338 1.97075E+01 3.85478E+00-2.47309E-02 2.80427E+00 4.19848E-13-6.54658E-13
 -1       339 1.89551E+01 2.77552E+00-3.50636E-02 3.02553E+00 5.20303E-13-3.13100E-13
 -1       340 1.85445E+01 1.49514E+00-3.57992E-02 2.44131E+00 5.23578E-13 7.61179E-14
 -1       341 1.77336E+01 7.16549E-01 5.24468E-03 1.10114E+00 3.97736E-13-7.06206E-15
 -1       342 3.64709E+01-2.89034E+00-7.46163E-02 1.83346E-01-6.79765E-13 1.66117E-13
 -1       343 3.01388E+01-3.89570E+00 1.76913E-02-2.42911E+00-4.42701E-15-1.53225E-13
 -1       344 2.59552E+01-1.50792E+00 6.01529E-02-4.13023E+00 3.02581E-13-2.23342E-13
 -1       345 2.31434E+01 2.53083E-01 3.11498E-02-4.31339E+00 3.81275E-13-4.19851E-14
 -1       346 2.22000E+01 8.72260E-01 1.10584E-02-3.49005E+00 1.80101E-13 5.22275E-14
 -1       347 2.16266E+01 8.56955E-01 9.48744E-03-2.50742E+00 1.72150E-13 6.28016E-14
 -1       348 2.12179E+01 6.55778E-01 8.31474E-03-1.72798E+00 7.55910E-14 1.49699E-13
 -1       349 2.08886E+01 4.54049E-01 6.82932E-03-1.14938E+00-1.52461E-15 3.08791E-13
 -1       350 2.06313E+01 2.98784E-01 5.08012E-03-7.47450E-01-1.08283E-13 2.52043E-13
 -1       351 2.04383E+01 1.91177E-01 3.49073E-03-4.78859E-01-1.41988E-14 1.92986E-13
 -1       352 2.02980E+01 1.20425E-01 2.24853E-03-3.03519E-01-2.00475E-13 9.53127E-14
 -1       353 2.01955E+01 7.32328E-02 1.43343E-03-1.86600E-01-1.56003E-13 5.50571E-14
 -1       354 2.01287E+01 4.53856E-02 8.72438E-04-1.16616E-01-7.84325E-14 1.71129E-13
 -1       355 2.00833E+01 2.79966E-02 5.39500E-04-7.23695E-02-3.19381E-14 2.46416E-13
 -1       356 2.00527E+01 1.72163E-02 3.31993E-04-4.45272E-02-7.77468E-16 1.52996E-13
 -1       357 2.00324E+01 1.05562E-02 2.03447E-04-2.70643E-02-1.09397E-13-2.44005E-14
 -1       358 2.00190E+01 6.44916E-03 1.23844E-04-1.61407E-02-3.72361E-14-1.64656E-13
 -1       359 2.00104E+01 3.92095E-03 7.41732E-05-9.33118E-03-2.38389E-13-7.44804E-14
 -1       360 2.00047E+01 2.29774E-03 4.53436E-05-4.94634E-03 5.79054E-14-1.96406E-13
 -1       361 2.00013E+01 1.35720E-03 2.59571E-05-2.41528E-03 3.62007E-14-2.39677E-13
 -1       362 1.99994E+01 7.76306E-04 1.51497E-05-8.86631E-04-2.09860E-14-1.20767E-13
 -1       363 1.99983E+01 4.17425E-04 8.39890E-06 1.00344E-05-8.09803E-14 4.74499E-14
 -1       364 1.99978E+01 1.96948E-04 4.23948E-06 5.08175E-04 5.75368E-14-7.42801E-14
 -1       365 1.99976E+01 6.33815E-05 1.76109E-06 7.56104E-04 1.78598E-13-1.19648E-13
 -1       366 1.99977E+01-1.83476E-05 3.46178E-07 8.51516E-04-1.22648E-13 1.13015E-13
 -1       367 1.99979E+01-6.11964E-05-5.61504E-07 8.47998E-04-2.97822E-13 3.26379E-13
 -1       368 1.99981E+01-8.22214E-05-9.66470E-07 7.92426E-04-1.68229E-13 1.84537E-13
 -1       369 1.99983E+01-8.96991E-05-1.16076E-06 7.09986E-04 3.39734E-15 5.02017E-13
 -1       370 1.99986E+01-8.87967E-05-1.20238E-06 6.16695E-04 8.12316E-14 2.98166E-13
 -1       371 1.99988E+01-8.29692E-05-1.15700E-06 5.22590E-04-1.04357E-13 8.16730E-15
 -1       372 1.99990E+01-7.45584E-05-1.04532E-06 4.33674E-04-1.19913E-14-1.07586E-13
 -1       373 1.99992E+01-6.44556E-05-9.31662E-07 3.49533E-04-1.60576E-13-1.36670E-13
 -1       374 1.99993E+01-5.47991E-05-7.93186E-07 2.79592E-04-5.08441E-14-2.05294E-13
 -1       375 1.99994E+01-4.56226E-05-6.66044E-07 2.19987E-04 2.70481E-15-3.34345E-13
 -1       376 1.99995E+01-3.73018E-05-5.50685E-07 1.70252E-04 7.12379E-14-3.46537E-13
 -1       377 1.99996E+01-2.99984E-05-4.47048E-07 1.29518E-04 4.68018E-13-1.87287E-13
 -1       378 1.99997E+01-2.37830E-05-3.54323E-07 9.67145E-05 5.75732E-14-1.96521E-13
 -1       379 1.99997E+01-1.83603E-05-2.83348E-07 6.95387E-05-5.02390E-14-3.29633E-13
 -1       380 1.99997E+01-1.42288E-05-2.17363E-07 4.93698E-05-1.34153E-13-5.33829E-15
 -1       381 1.99998E+01-1.10018E-05-1.68251E-07 3.37029E-05 1.20607E-13 2.34643E-13
 -1       382 1.99998E+01-8.55421E-06-1.24672E-07 2.15698E-05-6.42207E-14-3.10847E-14
 -1       383 1.99998E+01-6.71704E-06-1.01676E-07 1.21818E-05 2.41017E-13-1.25183E-13
 -1       384 1.99998E+01-4.90417E-06-6.37688E-08 5.09453E-06-5.83945E-14 9.79169E-14
 -1       385 1.76862E+01 4.43553E-01 9.31966E-03-1.43392E-01 2.53798E-13-2.31783E-13
 -1       386 1.77122E+01 2.77067E-01 5.98144E-03-6.11802E-01 2.07504E-13-2.73042E-13
 -1       387 1.79349E+01 1.36845E-01 2.91300E-03-8.86621E-01 1.72336E-13-3.27236E-13
 -1       388 1.82681E+01 1.89654E-02 9.44530E-04-9.96923E-01 1.40658E-13-3.37952E-13
 -1       389 1.86384E+01-6.92458E-02-4.42700E-04-9.76224E-01 3.97006E-14-3.33911E-13
 -1       390 1.89914E+01-1.22582E-01-1.33239E-03-8.65988E-01-4.09021E-15-2.98269E-13
 -1       391 1.92950E+01-1.43049E-01-1.79439E-03-7.09016E-01-2.37555E-14-2.39041E-13
 -1       392 1.95362E+01-1.38538E-01-1.90176E-03-5.41270E-01-2.60909E-14-1.68825E-13
 -1       393 1.97153E+01-1.19057E-01-1.75833E-03-3.87248E-01-1.18068E-14-1.79767E-13
 -1       394 1.98405E+01-9.35065E-02-1.47471E-03-2.59762E-01-2.69564E-14-2.11547E-13
 -1       395 1.99228E+01-6.81093E-02-1.14322E-03-1.62470E-01-7.40619E-16-2.38328E-13
 -1       396 1.99733E+01-4.62892E-02-8.26655E-04-9.32548E-02 9.53632E-15-1.40795E-13
 -1       397 2.00015E+01-2.93097E-02-5.59297E-04-4.72057E-02-3.17156E-14-1.42752E-13
 -1       398 2.00151E+01-1.70910E-02-3.52784E-04-1.86828E-02 1.11327E-13-2.11826E-13
 -1       399 2.00197E+01-8.89084E-03-2.04670E-04-2.50100E-03 8.04057E-15-2.94411E-13
 -1       400 2.00192E+01-3.76185E-03-1.05453E-04 5.55337E-03-8.77526E-14-1.72539E-13
 -1       401 2.00162E+01-8.06601E-04-4.35403E-05 8.62069E-03 1.17589E-14-2.14179E-13
 -1       402 2.00124E+01 7.10635E-04-8.03245E-06 8.88294E-03-9.49545E-14-1.89355E-13
 -1       403 2.00087E+01 1.33916E-03 1.00085E-05 7.76131E-03-7.67861E-14-2.30262E-13
 -1       404 2.00054E+01 1.46069E-03 1.72706E-05 6.12042E-03 5.09619E-15-5.68061E-14
 -1       405 2.00029E+01 1.32420E-03 1.84096E-05 4.44360E-03-5.08485E-14 1.13874E-13
 -1       406 2.00009E+01 1.08183E-03 1.64652E-05 2.96856E-03 4.52342E-14 1.10075E-13
 -1       407 1.99996E+01 8.19673E-04 1.32937E-05 1.78470E-03 1.37894E-14 3.09074E-14
 -1       408 1.99988E+01 5.81278E-04 9.94085E-06 8.98905E-04 4.11267E-14 5.74391E-14
 -1       409 1.99983E+01 3.84503E-04 6.93045E-06 2.77454E-04-8.10098E-14-1.94003E-14
 -1       410 1.99981E+01 2.32765E-04 4.47075E-06-1.28874E-04 3.71709E-13 4.25936E-14
 -1       411 1.99981E+01 1.22191E-04 2.59342E-06-3.70848E-04 1.26095E-13 1.35355E-13
 -1       412 1.99982E+01 4.59100E-05 1.24195E-06-4.93909E-04-1.31778E-13 9.52024E-14
 -1       413 1.99983E+01-3.56125E-06 3.24543E-07-5.35482E-04 6.77238E-14 1.77675E-14
 -1       414 1.99985E+01-3.31073E-05-2.56435E-07-5.24627E-04 2.49551E-13 1.17697E-13
 -1       415 1.99987E+01-4.85129E-05-5.89754E-07-4.82840E-04 3.25538E-14 1.50595E-13
 -1       416 1.99989E+01-5.43530E-05-7.49370E-07-4.25316E-04-1.06500E-13 6.64385E-14
 -1       417 1.99991E+01-5.40812E-05-7.93336E-07-3.62296E-04-5.61198E-15-2.33306E-13
 -1       418 1.99992E+01-5.02011E-05-7.65133E-07-3.00286E-04 3.04870E-13-9.70915E-14
 -1       419 1.99994E+01-4.44579E-05-6.96011E-07-2.43092E-04-3.38894E-14 2.31142E-14
 -1       420 1.99995E+01-3.80175E-05-6.07522E-07-1.92642E-04-1.30202E-13 9.83896E-14
 -1       421 1.99996E+01-3.16196E-05-5.13861E-07-1.49605E-04-4.83201E-14 2.57245E-14
 -1       422 1.99996E+01-2.57012E-05-4.23852E-07-1.13862E-04-4.18739E-15-3.29979E-13
 -1       423 1.99997E+01-2.04936E-05-3.42513E-07-8.48219E-05 1.55209E-13-5.39826E-13
 -1       424 1.99997E+01-1.60955E-05-2.72540E-07-6.16540E-05 2.87738E-14-2.57766E-13
 -1       425 1.99997E+01-1.25235E-05-2.15256E-07-4.34265E-05-2.28595E-13-2.97236E-13
 -1       426 1.99998E+01-9.71811E-06-1.69749E-07-2.92290E-05-1.03445E-13-4.06281E-13
 -1       427 1.99998E+01-7.56513E-06-1.15186E-07-1.82971E-05-5.70132E-14-3.56231E-13
 -1       428 1.99998E+01-5.94341E-06-9.12188E-08-9.80569E-06-6.74792E-14-5.45234E-13
 -1       429 1.99998E+01-4.20062E-06-6.27550E-08-3.86246E-06 1.70822E-13-2.05762E-13
 -1       430 1.99998E+01-2.28387E-05-2.49213E-08-1.54752E-05-1.75883E-13 1.00708E-13
 -1       431 1.99998E+01-1.40471E-05-3.30659E-08-1.17669E-05-7.47790E-14 2.65640E-13
 -1       432 1.99998E+01-3.17537E-05 1.42859E-09-1.65054E-05-2.19782E-14-1.13580E-13
 -1       433 1.99998E+01-3.99869E-05 2.41501E-08-1.44833E-05 4.55771E-14 8.27237E-14
 -1       434 1.99998E+01-4.61987E-05 4.39492E-08-9.81163E-06 1.31216E-13-2.15053E-13
 -1       435 1.99998E+01-4.95147E-05 5.44019E-08-3.35834E-06 1.11128E-13-1.05684E-13
 -1       436 1.99998E+01-4.94470E-05 5.41895E-08 3.69974E-06 1.75865E-13-2.34222E-13
 -1       437 1.99998E+01-4.60048E-05 4.31352E-08 1.00921E-05 9.13030E-14-2.29417E-13
 -1       438 1.99998E+01-3.98209E-05 2.35989E-08 1.45972E-05-1.81002E-13 3.09734E-15
 -1       439 1.99998E+01-3.15717E-05 7.49158E-10 1.65156E-05-6.23492E-14 2.78521E-13
 -1       440 1.99998E+01-2.24860E-05-1.86814E-08 1.53792E-05 2.79178E-13-2.63526E-13
 -1       441 1.99998E+01-1.38495E-05-3.48116E-08 1.14642E-05-2.06335E-14-1.36233E-13
 -1       442 1.75826E+01 5.59982E-01 1.42077E-02 4.10402E-01 3.27206E-13-1.40207E-13
 -1       443 1.21397E+01-3.28248E+00-1.28986E-02 8.30541E+00-5.89556E-13 8.72611E-13
 -1       444 2.77059E+01-1.20799E+00 2.47385E-03 5.67042E+00-3.22381E-14 1.57305E-13
 -1       445 4.49505E+00-2.64663E+00-5.29820E-02 5.70329E+00-6.11913E-13 1.07614E-12
 -1       446 1.78134E+01 2.92774E+00-8.02062E-03-6.06802E+00-8.43117E-13-1.71130E-14
 -1       447 1.86222E+00-1.73335E+00-1.62116E-02 1.53653E+00-5.16150E-13 9.90291E-13
 -1       448 3.33350E+01 3.17544E+00 5.71675E-02 3.00352E+00 4.02210E-13-6.21309E-14
 -1       449 3.58845E+01 6.48241E+00 7.47281E-02 1.97775E+00 6.06765E-13-5.33878E-14
 -1       450 3.64390E+01 8.55048E+00 3.48023E-02 1.24500E+00 7.25670E-13-8.31522E-14
 -1       451 3.58679E+01 7.66889E+00-1.16362E-02 9.04256E-01 6.41168E-13 2.84564E-14
 -1       452 3.45530E+01 5.20426E+00-2.10280E-02-6.30626E-01 3.71779E-13 1.52378E-13
 -1       453 2.92155E+01 2.79272E+00-9.78661E-02-3.60013E+00-1.67102E-13 1.54474E-13
 -1       454 2.36837E+01 2.44590E+00-6.24582E-02-5.44752E+00-5.55091E-13 5.58650E-14
 -1       455 3.25941E+01-5.12245E+00-2.31333E-01-9.00324E-01 4.23550E-14 3.56021E-13
 -1       456 4.02607E+01-3.25457E+00-2.56480E-02-4.76069E+00-2.68303E-13 7.62612E-13
 -1       457 1.83917E+01-4.54183E+00-8.50832E-02-7.00069E+00-3.70814E-13 4.50872E-13
 -1       458 1.01582E+01-3.57529E+00-8.05941E-02-6.41227E+00-4.31821E-13 8.75910E-13
 -1       459 3.54850E+00-2.13051E+00-3.41912E-02-3.05051E+00-4.26867E-13 1.03531E-12
 -1       460 2.12630E+01-2.77871E+00 2.34745E-02 7.87149E+00-2.17770E-13 4.54740E-13
 -1       461 3.26144E+01-4.17108E+00-1.29149E-01-1.33023E+00 1.71183E-13 6.67175E-13
 -1       462 1.99998E+01-9.19177E-06-5.78645E-08 8.51034E-06-8.53710E-14 5.95809E-13
 -1       463 1.93142E+01-2.56355E+00-3.40762E-01 1.82142E+00 8.96783E-14-8.85229E-14
 -1       464 2.73595E+01-5.04472E+00-9.18548E-02-4.93281E+00-4.00860E-13 2.68667E-13
 -1       465 3.10816E+01 8.20470E+00-1.56255E-01 1.31448E+00 5.64618E-13-2.74013E-13
 -1       466 2.46916E+01 5.12304E+00-2.01217E-02 1.83904E+00 1.18638E-14-5.72744E-13
 -1       467 2.30542E+01 4.72280E+00-1.18468E-02 1.74196E+00 1.15249E-13-6.71142E-13
 -1       468 2.16344E+01 4.09354E+00-9.25774E-03 1.78754E+00 2.25061E-13-6.92371E-13
 -1       469 2.04371E+01 3.28831E+00-7.27690E-03 1.91202E+00 3.48169E-13-6.29495E-13
 -1       470 1.93479E+01 2.27243E+00-4.57833E-03 1.95457E+00 4.52670E-13-4.34640E-13
 -1       471 1.86772E+01 1.44523E+00 1.65884E-03 1.59853E+00 4.46196E-13-2.50709E-13
 -1       472 1.92849E+01-1.44064E-01 1.16468E-01-5.51436E+00 4.06612E-13 1.52760E-13
 -1       473 1.88260E+01 1.74147E+00 1.54765E-02-2.91142E+00 1.54372E-13 1.35964E-13
 -1       474 1.94408E+01 1.42599E+00 6.44249E-03-2.07918E+00 1.34055E-13 1.56148E-13
 -1       475 1.98065E+01 1.04346E+00 4.00828E-03-1.45335E+00 1.17468E-13 1.69127E-13
 -1       476 1.99945E+01 7.18380E-01 2.90492E-03-9.94947E-01-1.23917E-13 9.87430E-14
 -1       477 2.00745E+01 4.77458E-01 2.05430E-03-6.69417E-01-6.71166E-14 1.76790E-13
 -1       478 2.00968E+01 3.10515E-01 1.34645E-03-4.43997E-01-1.32196E-13-3.42322E-15
 -1       479 2.00918E+01 1.94700E-01 8.51798E-04-2.85491E-01-1.85639E-13 5.06709E-15
 -1       480 2.00768E+01 1.23802E-01 5.24837E-04-1.85906E-01-4.22403E-14 4.71360E-14
 -1       481 2.00599E+01 7.82264E-02 3.22936E-04-1.20118E-01 7.97549E-14 1.53955E-13
 -1       482 2.00444E+01 4.92351E-02 1.98409E-04-7.70426E-02-2.37168E-14 1.73861E-13
 -1       483 2.00318E+01 3.08991E-02 1.21604E-04-4.89866E-02-9.88991E-14 1.36217E-13
 -1       484 2.00219E+01 1.93417E-02 7.41746E-05-3.07817E-02-1.52116E-13 1.60828E-13
 -1       485 2.00146E+01 1.20695E-02 4.38070E-05-1.90000E-02-1.30711E-13 2.93312E-14
 -1       486 2.00091E+01 7.31212E-03 2.73454E-05-1.11181E-02-2.26492E-13-4.36889E-14
 -1       487 2.00054E+01 4.49657E-03 1.52893E-05-6.36550E-03-1.08368E-13-4.61694E-14
 -1       488 2.00029E+01 2.71806E-03 8.96343E-06-3.34560E-03 1.04125E-13-2.89161E-13
 -1       489 2.00012E+01 1.59424E-03 5.01250E-06-1.45649E-03 5.54660E-14-2.76758E-13
 -1       490 2.00002E+01 8.84684E-04 2.57008E-06-3.05249E-04 3.45591E-14-6.39206E-14
 -1       491 1.99995E+01 4.39199E-04 1.08185E-06 3.65731E-04 9.86769E-14-7.22617E-14
 -1       492 1.99992E+01 1.52455E-04 3.62347E-07 7.37816E-04 1.30782E-13-7.74802E-14
 -1       493 1.99990E+01-9.96781E-06-2.45953E-07 8.91380E-04 5.33507E-14 1.01019E-13
 -1       494 1.99990E+01-1.02924E-04-4.72099E-07 9.24145E-04-1.85561E-13 3.99223E-13
 -1       495 1.99990E+01-1.50919E-04-5.90566E-07 8.84828E-04 8.90421E-14 5.36379E-13
 -1       496 1.99991E+01-1.70114E-04-6.24715E-07 8.05624E-04-2.04893E-13 2.04654E-13
 -1       497 1.99992E+01-1.71275E-04-6.11555E-07 7.07738E-04-2.68343E-13-2.08208E-13
 -1       498 1.99993E+01-1.61688E-04-5.53650E-07 6.04704E-04-1.78397E-13-3.20023E-13
 -1       499 1.99994E+01-1.45215E-04-4.93610E-07 5.00240E-04-9.05502E-14-5.51362E-13
 -1       500 1.99994E+01-1.26925E-04-4.25504E-07 4.09085E-04-6.58517E-14-4.07326E-13
 -1       501 1.99995E+01-1.08154E-04-3.57543E-07 3.28527E-04-7.83924E-14-3.51126E-13
 -1       502 1.99996E+01-9.02071E-05-2.96731E-07 2.59320E-04 1.24697E-13-2.64862E-13
 -1       503 1.99996E+01-7.38411E-05-2.42481E-07 2.01229E-04 1.97550E-13-1.47869E-13
 -1       504 1.99997E+01-5.94587E-05-1.91161E-07 1.53418E-04 2.72313E-13-2.11893E-13
 -1       505 1.99997E+01-4.65895E-05-1.54590E-07 1.13075E-04-1.74297E-13-1.20447E-13
 -1       506 1.99997E+01-3.64825E-05-1.18394E-07 8.26635E-05-6.92853E-16 7.88322E-14
 -1       507 1.99998E+01-2.83260E-05-9.25086E-08 5.87780E-05 2.24675E-13 2.46517E-13
 -1       508 1.99998E+01-2.19350E-05-7.51145E-08 4.02251E-05 2.89863E-13 3.69543E-13
 -1       509 1.99998E+01-1.69453E-05-3.78701E-08 2.59839E-05-4.06604E-14 7.78323E-13
 -1       510 1.99998E+01-1.28595E-05-5.90579E-08 1.61567E-05 2.87524E-13 7.32790E-13
 -1       511 1.93274E+01 1.91894E-01 9.75197E-04-1.17581E+00 1.51218E-13-3.31568E-13
 -1       512 1.91827E+01 4.90275E-01 1.89933E-03-9.09059E-01 1.86271E-13-3.62709E-13
 -1       513 1.99998E+01-1.77943E-05-3.72501E-08-2.18022E-05-2.60681E-14 1.40737E-13
 -1       514 1.91354E+01 8.29621E-01 4.00501E-03-4.04377E-01 2.32700E-13-3.70740E-13
 -1       515 1.95120E+01-4.76206E-02 1.36952E-04-1.23874E+00 9.17882E-14-3.00757E-13
 -1       516 1.96887E+01-2.10106E-01-4.20178E-04-1.15056E+00 4.75485E-15-3.07526E-13
 -1       517 1.98299E+01-2.92718E-01-7.65157E-04-9.73246E-01-3.05500E-14-2.33825E-13
 -1       518 1.99283E+01-3.09019E-01-9.06030E-04-7.62597E-01-4.81916E-14-2.18175E-13
 -1       519 1.99889E+01-2.81042E-01-8.87202E-04-5.58601E-01-3.24136E-14-2.10324E-13
 -1       520 2.00215E+01-2.30683E-01-7.72403E-04-3.83842E-01-2.89701E-14-1.78076E-13
 -1       521 2.00357E+01-1.74690E-01-6.16407E-04-2.46818E-01-3.21265E-14-1.54957E-13
 -1       522 2.00392E+01-1.23340E-01-4.56423E-04-1.46861E-01-1.20611E-14-1.03051E-13
 -1       523 2.00369E+01-8.14129E-02-3.15826E-04-7.85632E-02 7.70342E-15-2.02745E-13
 -1       524 2.00321E+01-4.99679E-02-2.04112E-04-3.49062E-02 8.00371E-14-2.75203E-13
 -1       525 2.00264E+01-2.80024E-02-1.22163E-04-9.07732E-03 1.01150E-13-1.12376E-13
 -1       526 2.00209E+01-1.36522E-02-6.60439E-05 4.66111E-03-1.25703E-13-3.66634E-14
 -1       527 2.00159E+01-4.92611E-03-3.01842E-05 1.07160E-02-2.90639E-14-2.73142E-14
 -1       528 2.00117E+01-7.64511E-05-8.98895E-06 1.22407E-02-3.66682E-14 2.30412E-14
 -1       529 2.00082E+01 2.26797E-03 2.30847E-06 1.13557E-02-5.16657E-14 7.63988E-14
 -1       530 2.00054E+01 3.10142E-03 7.36496E-06 9.40197E-03-7.46307E-14 9.77596E-14
 -1       531 2.00033E+01 3.09980E-03 8.77058E-06 7.16871E-03-1.71275E-13 6.43620E-14
 -1       532 2.00018E+01 2.69544E-03 8.24794E-06 5.07707E-03 4.25879E-14 1.06049E-13
 -1       533 2.00006E+01 2.14715E-03 6.87292E-06 3.31659E-03 9.60153E-14 1.30457E-13
 -1       534 1.99999E+01 1.59743E-03 5.26854E-06 1.94067E-03 1.14267E-13 1.83017E-14
 -1       535 1.99994E+01 1.11513E-03 3.76121E-06 9.29657E-04-8.20285E-16-1.17308E-13
 -1       536 1.99991E+01 7.25325E-04 2.49458E-06 2.30404E-04 5.39846E-14-8.90281E-14
 -1       537 1.99990E+01 4.29011E-04 1.50719E-06-2.20517E-04 1.92596E-13 2.32675E-13
 -1       538 1.99989E+01 2.15517E-04 7.82898E-07-4.84275E-04-1.84384E-14 2.75021E-13
 -1       539 1.99990E+01 6.97964E-05 2.81459E-07-6.13893E-04-1.80878E-14 1.41279E-13
 -1       540 1.99990E+01-2.35424E-05-4.39797E-08-6.52293E-04 2.41043E-13 2.28260E-14
 -1       541 1.99991E+01-7.82751E-05-2.37785E-07-6.32465E-04 1.31133E-13 2.73333E-14
 -1       542 1.99992E+01-1.05803E-04-3.37835E-07-5.78664E-04 1.70639E-14-1.36914E-13
 -1       543 1.99993E+01-1.15061E-04-3.74378E-07-5.07970E-04-4.99427E-14-2.73154E-13
 -1       544 1.99994E+01-1.12754E-04-3.70380E-07-4.31855E-04 1.53863E-13 6.10221E-15
 -1       545 1.99995E+01-1.03719E-04-3.42554E-07-3.57582E-04-5.01022E-15 4.62346E-14
 -1       546 1.99995E+01-9.13162E-05-3.02568E-07-2.89376E-04-3.08628E-13 7.78923E-14
 -1       547 1.99996E+01-7.77805E-05-2.58228E-07-2.29343E-04-6.25124E-15 1.41437E-13
 -1       548 1.99997E+01-6.45210E-05-2.14449E-07-1.78178E-04 1.04910E-13 4.05903E-15
 -1       549 1.99997E+01-5.23622E-05-1.74053E-07-1.35681E-04 1.73039E-13-4.43838E-14
 -1       550 1.99997E+01-4.17307E-05-1.38277E-07-1.01131E-04-1.57574E-14-1.56444E-14
 -1       551 1.99997E+01-3.27945E-05-1.09035E-07-7.35396E-05-6.68635E-14 7.08822E-15
 -1       552 1.99998E+01-2.55637E-05-1.03310E-07-5.18139E-05-1.38071E-13-1.60094E-13
 -1       553 1.99998E+01-1.98749E-05-9.46166E-08-3.48068E-05-2.27066E-13-3.77199E-14
 -1       554 1.99998E+01-4.54735E-05 1.57777E-08-2.36459E-05 1.80242E-13-1.17670E-13
 -1       555 1.99998E+01-3.52408E-05-9.26713E-09-2.50675E-05 9.97223E-14 1.67702E-13
 -1       556 1.99998E+01-2.67153E-05-2.92041E-08-2.47579E-05 5.25711E-14 2.76848E-13
 -1       557 1.08354E+01-1.45823E+00 1.32985E-01 7.37912E+00-7.05616E-13 9.40824E-13
 -1       558 1.99998E+01-5.39295E-05 1.67320E-08-1.82746E-05 3.52666E-13-1.05166E-14
 -1       559 1.99998E+01-5.94410E-05 2.28437E-08-9.83317E-06 8.43685E-14-2.39783E-13
 -1       560 1.99998E+01-6.13119E-05 2.53068E-08 2.29048E-07 1.67656E-13-6.72467E-14
 -1       561 1.99998E+01-5.93244E-05 2.28750E-08 1.02520E-05 2.25178E-13-1.70992E-13
 -1       562 1.99998E+01-5.38448E-05 1.57594E-08 1.84611E-05 2.74496E-13-4.40482E-13
 -1       563 1.99998E+01-4.53466E-05 5.68817E-09 2.37690E-05 3.35322E-13 1.12370E-13
 -1       564 1.99998E+01-3.48976E-05 1.17144E-09 2.50921E-05 3.44922E-15-6.82196E-15
 -1       565 1.99998E+01-2.38285E-05-9.58227E-09 2.23059E-05-8.09255E-14-3.39454E-13
 -1       566 2.53006E+01-3.49570E+00-8.01816E-03 5.40762E+00-5.10342E-13-7.49158E-14
 -1       567 5.90830E+00 1.22275E+00 1.89528E-01-1.08409E+00-1.47828E-13 8.05453E-13
 -1       568 1.79922E+01 1.66558E+00 3.90941E-02-3.98719E+00 3.12544E-13 9.98316E-14
 -1       569 2.18465E+01-3.18934E+00 8.07878E-02-5.93958E+00 1.17156E-13 1.04756E-13
 -1       570 2.66281E+01 5.18604E+00-4.51649E-02 2.04056E+00-4.75600E-14-4.02383E-13
 -1       571 2.89621E+01 4.63195E+00-8.81199E-02 1.87389E+00-8.38617E-14-8.00089E-14
 -1       572 6.70421E+00 8.03701E-01 1.87156E-01 3.98926E+00-4.43937E-13 9.21194E-13
 -1       573 3.13870E+01 3.90220E+00-1.17609E-01 1.13865E-01 2.84307E-13-5.06054E-13
 -1       574 3.15133E+01 7.13879E+00-1.45873E-01 1.13016E-01 5.18627E-13-4.66564E-13
 -1       575 3.14276E+01 6.27139E+00-1.48904E-01 1.81738E+00 3.39014E-13 6.81399E-15
 -1       576 3.07898E+01 3.50633E+00-1.00067E-01 2.39787E-01-1.24796E-13 1.72966E-13
 -1       577 1.04631E+01-3.71738E-01 1.45537E-01-5.41259E+00 1.84831E-13 6.58237E-13
 -1       578 2.98207E+01-5.58329E-01-6.30788E-02 1.98075E+00-1.18489E-13-4.02588E-13
 -1       579 1.59337E+01-2.01290E+00 1.51469E-01-6.44304E+00 2.20601E-13 3.59816E-13
 -1       580 1.91393E+01-3.34030E+00 8.75570E-02 7.72233E+00-8.11552E-13 4.65265E-13
 -1       581 1.85992E+01 1.08236E+00 1.00800E-02 7.30926E-01 3.57002E-13-3.03303E-13
 -1       582 1.92248E+01 1.23312E+00 4.55000E-03 3.42594E-01 2.90662E-13-3.85857E-13
 -1       583 2.36910E+01 4.70161E+00-7.92787E-03 1.23474E+00 9.58453E-14-5.58105E-13
 -1       584 1.94141E+01 1.71533E+00 4.71643E-03 1.03446E+00 3.55076E-13-4.12712E-13
 -1       585 1.71815E+01 2.16564E+00 6.53849E-03-1.53824E+00 8.37601E-14 6.48725E-14
 -1       586 2.10767E+01 2.99559E+00-1.66102E-03 1.08840E+00 2.71212E-13-5.61583E-13
 -1       587 1.10534E+01 1.94576E+00 1.34189E-01-3.32226E+00 1.93123E-13 4.95867E-13
 -1       588 1.83410E+01 1.65749E+00 1.62595E-03-1.16943E+00 4.78471E-14-5.98209E-15
 -1       589 1.90606E+01 1.19166E+00 7.32510E-04-8.72680E-01-6.29003E-15-6.84802E-14
 -1       590 1.94910E+01 8.23938E-01 6.06026E-04-6.36040E-01-7.82276E-14-6.16477E-15
 -1       591 1.97395E+01 5.54898E-01 4.55124E-04-4.53087E-01-1.84475E-13-5.03929E-14
 -1       592 1.98825E+01 3.59630E-01 2.74741E-04-3.11468E-01-1.82150E-13-3.87829E-14
 -1       593 1.99538E+01 2.35218E-01 1.88910E-04-2.14864E-01-7.88799E-14-2.88639E-14
 -1       594 1.99894E+01 1.52520E-01 1.14074E-04-1.46345E-01 6.51310E-14 6.99199E-14
 -1       595 2.00055E+01 9.83549E-02 7.08475E-05-9.86670E-02 5.29462E-14 5.03723E-15
 -1       596 2.00114E+01 6.31881E-02 4.40808E-05-6.58680E-02-1.07499E-13 6.51991E-14
 -1       597 2.00122E+01 4.04841E-02 2.77403E-05-4.34955E-02-3.54097E-14 4.77464E-14
 -1       598 2.00108E+01 2.58681E-02 1.60988E-05-2.83183E-02-2.77097E-13-7.36014E-14
 -1       599 2.00086E+01 1.61042E-02 1.05513E-05-1.76948E-02-3.27573E-13-1.35490E-13
 -1       600 2.00065E+01 1.02031E-02 5.76412E-06-1.09945E-02-3.94888E-13-1.31624E-13
 -1       601 2.00046E+01 6.39622E-03 3.43368E-06-6.53463E-03-1.20883E-13-1.48375E-13
 -1       602 2.00031E+01 3.93946E-03 1.96818E-06-3.60279E-03-4.55587E-14-1.29903E-13
 -1       603 2.00020E+01 2.35274E-03 1.05276E-06-1.70783E-03 2.34277E-13-2.63911E-13
 -1       604 2.00012E+01 1.32985E-03 4.29102E-07-5.14092E-04 1.94726E-14-9.86835E-14
 -1       605 2.00006E+01 6.49376E-04 2.70516E-07 2.32672E-04 5.97348E-14-2.08594E-13
 -1       606 2.00002E+01 2.46401E-04-6.66238E-08 6.24322E-04 1.57484E-13-1.38181E-13
 -1       607 1.99999E+01-5.70632E-07-1.36863E-07 8.13471E-04 1.84530E-13-6.32639E-14
 -1       608 1.99998E+01-1.44169E-04-1.88989E-07 8.72750E-04 7.05902E-14 1.51417E-13
 -1       609 1.99997E+01-2.19733E-04-2.07143E-07 8.52096E-04-3.69330E-13 2.04940E-13
 -1       610 1.99996E+01-2.51114E-04-2.11526E-07 7.85564E-04-5.12057E-13 7.10692E-14
 -1       611 1.99996E+01-2.54584E-04-1.90945E-07 6.95894E-04-3.17170E-13-7.43247E-14
 -1       612 1.99996E+01-2.40119E-04-1.65294E-07 5.93233E-04-9.36557E-14 3.14142E-14
 -1       613 1.99997E+01-2.16978E-04-1.51062E-07 4.96909E-04-9.30204E-14 1.79198E-13
 -1       614 1.99997E+01-1.89754E-04-1.25008E-07 4.07529E-04-2.63778E-13-5.49724E-14
 -1       615 1.99997E+01-1.61676E-04-1.04653E-07 3.27932E-04 4.49577E-14-2.90482E-13
 -1       616 1.99997E+01-1.34775E-04-8.68894E-08 2.59194E-04 1.38064E-13-2.79655E-13
 -1       617 1.99997E+01-1.10251E-04-6.69616E-08 2.01263E-04 2.40365E-13-3.23942E-13
 -1       618 1.99997E+01-8.76693E-05-5.50294E-08 1.51385E-04 3.35228E-13-3.70049E-13
 -1       619 1.99998E+01-6.94465E-05-4.23713E-08 1.13158E-04-1.31837E-13-3.94143E-13
 -1       620 1.99998E+01-5.43619E-05-3.26839E-08 8.27050E-05 1.76031E-13-1.76658E-13
 -1       621 1.99998E+01-4.21537E-05-2.20605E-08 5.88070E-05 1.81344E-13-1.93070E-14
 -1       622 1.99998E+01-3.25710E-05-1.79695E-08 4.02021E-05 2.48901E-13-1.48466E-13
 -1       623 2.04218E+01 5.84191E-01 8.73058E-04-1.16288E+00 1.47663E-13-3.65010E-13
 -1       624 2.04986E+01 1.15725E-01 3.05406E-04-1.33785E+00 7.63678E-14-3.30580E-13
 -1       625 2.03657E+01 1.69468E+00 1.54916E-03-1.98354E-02 2.05036E-13-4.63337E-13
 -1       626 1.99998E+01-3.20426E-05-1.43457E-08-4.01409E-05-4.82878E-14 3.22575E-13
 -1       627 2.05462E+01-4.32996E-01-1.76155E-04-1.11740E+00-5.98112E-14-2.88656E-13
 -1       628 2.04957E+01-5.05728E-01-3.11381E-04-8.81589E-01-1.77786E-14-3.06951E-13
 -1       629 2.04154E+01-4.85791E-01-3.33002E-04-6.45855E-01-4.36353E-14-3.15073E-13
 -1       630 2.03259E+01-4.13823E-01-2.98499E-04-4.42246E-01-5.30071E-14-2.74347E-13
 -1       631 2.02420E+01-3.22790E-01-2.45204E-04-2.82743E-01-5.52717E-14-2.61379E-13
 -1       632 2.01717E+01-2.34157E-01-1.84382E-04-1.66829E-01-1.01423E-13-2.30570E-13
 -1       633 2.01174E+01-1.58932E-01-1.28884E-04-8.79253E-02 1.43870E-14-1.72566E-13
 -1       634 2.00778E+01-1.00746E-01-8.39971E-05-3.76366E-02 1.22171E-13-1.11554E-13
 -1       635 2.00502E+01-5.89352E-02-5.10970E-05-7.95109E-03-6.83955E-16-1.56803E-13
 -1       636 2.00318E+01-3.08071E-02-2.83323E-05 7.79330E-03-4.00417E-15-1.37009E-13
 -1       637 2.00198E+01-1.31075E-02-1.36260E-05 1.46695E-02-1.24240E-13-2.36026E-13
 -1       638 2.00122E+01-2.80760E-03-4.82884E-06 1.62931E-02-1.24439E-13-1.82655E-13
 -1       639 2.00075E+01 2.56233E-03-4.86229E-08 1.50975E-02-1.21361E-13 2.67709E-14
 -1       640 2.00045E+01 4.85025E-03 2.20737E-06 1.26315E-02-4.03171E-14 1.65769E-14
 -1       641 2.00027E+01 5.35067E-03 2.97244E-06 9.81764E-03-6.76836E-14-6.85279E-14
 -1       642 2.00015E+01 4.91816E-03 2.92618E-06 7.15780E-03 2.97930E-14-1.33916E-13
 -1       643 2.00008E+01 4.08355E-03 2.50206E-06 4.88597E-03 6.75203E-14-1.48871E-13
 -1       644 2.00003E+01 3.15396E-03 1.95374E-06 3.07580E-03 1.37256E-13-1.84253E-13
 -1       645 2.00000E+01 2.29027E-03 1.41740E-06 1.71249E-03 1.10820E-13-7.86859E-14
 -1       646 1.99998E+01 1.56303E-03 9.56327E-07 7.38569E-04-8.76588E-14-3.52534E-14
 -1       647 1.99997E+01 9.90651E-04 5.91067E-07 8.14239E-05-9.99545E-14 1.60471E-13
 -1       648 1.99996E+01 5.64038E-04 3.19527E-07-3.31248E-04 8.75604E-14 2.37975E-13
 -1       649 1.99996E+01 2.61793E-04 1.29002E-07-5.63765E-04 1.06386E-13 1.49217E-13
 -1       650 1.99996E+01 5.89727E-05 3.41347E-09-6.69455E-04 1.24110E-13 4.53298E-14
 -1       651 1.99996E+01-6.82623E-05-7.30093E-08-6.90316E-04 2.09465E-13-8.38918E-15
 -1       652 1.99996E+01-1.40517E-04-1.14008E-07-6.58043E-04 2.49838E-13-2.32529E-13
 -1       653 1.99996E+01-1.74493E-04-1.30726E-07-5.95630E-04-9.94026E-14 2.36146E-14
 -1       654 1.99996E+01-1.83097E-04-1.31712E-07-5.19092E-04-2.32634E-13 1.60143E-13
 -1       655 1.99996E+01-1.75915E-04-1.23263E-07-4.39071E-04 2.07775E-13 3.48262E-13
 -1       656 1.99997E+01-1.59804E-04-1.09803E-07-3.62219E-04-7.95931E-14 2.28365E-13
 -1       657 1.99997E+01-1.39483E-04-9.43042E-08-2.92321E-04-3.38910E-14-2.49715E-13
 -1       658 1.99997E+01-1.18063E-04-7.87076E-08-2.31183E-04 5.24188E-16-3.26305E-13
 -1       659 1.99997E+01-9.74773E-05-6.40336E-08-1.79293E-04 3.09174E-14-1.37564E-13
 -1       660 1.99997E+01-7.88312E-05-5.05075E-08-1.36322E-04 6.03017E-14-3.55940E-14
 -1       661 1.99998E+01-6.26688E-05-3.84457E-08-1.01473E-04-1.06039E-13 2.19848E-13
 -1       662 1.99998E+01-4.91507E-05-4.05796E-08-7.37684E-05-9.08261E-14 2.91237E-13
 -1       663 1.99998E+01-3.97041E-05-2.45195E-08-5.52662E-05-1.69664E-13 5.41769E-13
 -1       664 1.99998E+01-5.11660E-05-2.57271E-08-3.52165E-05-2.75041E-14-1.27761E-14
 -1       665 1.99998E+01-7.16505E-05 6.31810E-09-1.97316E-05 1.56183E-13-3.13119E-13
 -1       666 1.99998E+01-7.62280E-05 9.25540E-09-6.73761E-06-3.88256E-14-9.89715E-14
 -1       667 1.99998E+01-6.29876E-05-6.56051E-09-2.96777E-05 7.99087E-14 1.49175E-13
 -1       668 2.05484E+01-2.30735E-01 6.60040E-05-1.29587E+00 4.98859E-14-2.78037E-13
 -1       669 1.99998E+01-7.61822E-05 1.00102E-08 7.28082E-06 2.14608E-14 6.59961E-14
 -1       670 1.99998E+01-7.16039E-05 9.84887E-09 1.99987E-05 1.01974E-13-2.02206E-13
 -1       671 1.99998E+01-6.28394E-05 4.30490E-09 2.99124E-05 2.34632E-13-1.58905E-13
 -1       672 1.99998E+01-5.09487E-05-1.06568E-08 3.52503E-05-7.86592E-14-1.43831E-13
 -1       673 9.35958E+00 2.47078E+00 1.69826E-01 1.07261E+00-9.06003E-14 5.67990E-13
 -1       674 1.54149E+01 2.54639E+00 2.52851E-02-2.05990E+00 1.67829E-13 1.83223E-13
 -1       675 2.53047E+01 5.50800E+00-3.08681E-02 1.52789E+00 8.54577E-14-4.83020E-13
 -1       676 2.75366E+01 6.20932E+00-9.90944E-02 2.03200E+00 1.94310E-13-2.90298E-13
 -1       677 2.71749E+01-2.53919E+00-2.56552E-02 2.24949E+00-4.38089E-13-5.36723E-13
 -1       678 2.88888E+01 1.00274E+00-8.47843E-02-2.73159E-01-7.70252E-14-7.44491E-13
 -1       679 1.62953E+01-1.73277E+00 9.14047E-02 7.01996E+00-7.36088E-13 5.34416E-13
 -1       680 2.85277E+01 7.20671E+00-1.39697E-01 2.12028E-01 4.16452E-13-5.19239E-13
 -1       681 2.88979E+01 4.73796E+00-1.21978E-01-7.87755E-01 2.48558E-13-7.07219E-13
 -1       682 2.03623E+01 1.12544E+00 1.36626E-03-7.20587E-01 1.89452E-13-4.14817E-13
 -1       683 2.28079E+01-3.34903E+00 3.60469E-02 5.65564E+00-7.53331E-13 1.04463E-13
 -1       684 1.15930E+01 5.04242E-01 1.37072E-01 5.57465E+00-5.36918E-13 7.82902E-13
 -1       685 2.23064E+01 3.87702E+00-2.73963E-03 1.10230E+00 1.75751E-13-6.06712E-13
 -1       686 1.99998E+01-4.41629E-05 2.63859E-10-4.10206E-05-9.44962E-14 1.05810E-13
 -1       687 1.99998E+01-3.72937E-05-6.10528E-08 3.52471E-05-1.09931E-13-4.13204E-13
 -1       688 2.65192E+01 6.39101E+00-7.76503E-02 1.10887E+00 2.46039E-13-4.81067E-13
 -1       689 1.99998E+01-9.63739E-05 6.20357E-09 3.03501E-07-5.47139E-14-2.10966E-13
 -1       690 1.81419E+01 1.52322E+00-8.29538E-04-2.88059E-01-3.94266E-14-3.45465E-14
 -1       691 1.88693E+01 1.10651E+00-1.41968E-04-3.01002E-01-1.43859E-15 2.38443E-14
 -1       692 1.93280E+01 7.77184E-01 2.84902E-05-2.69331E-01-1.60805E-13 6.91278E-14
 -1       693 1.96209E+01 5.23849E-01-9.44541E-06-2.19561E-01-2.23393E-13 3.99452E-14
 -1       694 1.97871E+01 3.54176E-01 3.29779E-05-1.71476E-01-8.63216E-14 1.52528E-13
 -1       695 1.98852E+01 2.36655E-01 1.52267E-05-1.29073E-01 7.31569E-15 1.29735E-13
 -1       696 1.99417E+01 1.56886E-01 1.00625E-05-9.46644E-02 1.32251E-13-1.92319E-14
 -1       697 1.99732E+01 1.03441E-01 6.92044E-06-6.80038E-02-2.16945E-14 6.38430E-14
 -1       698 1.99900E+01 6.79473E-02 5.57733E-06-4.79781E-02-1.99068E-13-3.27898E-14
 -1       699 1.99985E+01 4.44901E-02 3.13695E-06-3.32389E-02-3.25814E-13-1.55286E-13
 -1       700 2.00025E+01 2.84376E-02 2.10609E-06-2.21611E-02-2.28565E-13-2.48876E-13
 -1       701 2.00038E+01 1.85039E-02 1.42265E-06-1.47137E-02-3.10748E-13-2.31843E-13
 -1       702 2.00039E+01 1.19507E-02 7.79100E-07-9.46196E-03-1.85598E-13 1.60766E-15
 -1       703 2.00034E+01 7.62796E-03 4.93432E-07-5.81678E-03-1.94117E-13-1.90418E-13
 -1       704 2.00028E+01 4.77317E-03 3.12847E-07-3.32800E-03-4.22151E-14-1.56858E-13
 -1       705 2.00022E+01 2.88833E-03 7.57283E-08-1.66343E-03 1.87753E-13-3.00587E-13
 -1       706 2.00016E+01 1.60042E-03 1.65324E-07-5.42666E-04 2.62112E-14-2.46674E-13
 -1       707 2.00012E+01 8.12211E-04-2.15051E-08 1.10534E-04 1.51238E-13-7.24865E-14
 -1       708 2.00008E+01 3.07935E-04-2.92958E-08 4.88724E-04 1.73548E-13-2.47934E-13
 -1       709 2.00005E+01-4.23786E-06-4.49753E-08 6.80870E-04 1.19974E-13-2.21000E-13
 -1       710 2.00003E+01-1.87159E-04-5.11816E-08 7.50997E-04-2.84960E-14-3.64596E-13
 -1       711 2.00002E+01-2.83836E-04-5.77947E-08 7.44417E-04-3.50270E-13-1.56799E-13
 -1       712 2.00001E+01-3.23999E-04-5.21392E-08 6.92619E-04-4.84011E-13-2.15017E-15
 -1       713 2.00000E+01-3.27590E-04-3.43009E-08 6.13128E-04-5.95575E-14 1.92093E-13
 -1       714 1.99999E+01-3.09005E-04-4.34109E-08 5.28210E-04-2.36176E-13 4.97576E-14
 -1       715 1.99999E+01-2.78804E-04-3.27405E-08 4.43415E-04-1.55388E-13 1.32126E-13
 -1       716 1.99998E+01-2.43382E-04-2.77125E-08 3.64106E-04-2.95783E-13 5.06802E-13
 -1       717 1.99998E+01-2.06950E-04-2.44647E-08 2.93120E-04-1.41895E-13 1.94225E-13
 -1       718 1.99998E+01-1.72155E-04-1.70712E-08 2.31597E-04 8.30603E-14 9.10454E-14
 -1       719 1.99998E+01-1.39010E-04-1.36928E-08 1.77403E-04 3.03619E-13 1.24037E-14
 -1       720 1.99998E+01-1.11485E-04-1.09366E-08 1.35074E-04 2.27072E-14-1.71678E-13
 -1       721 1.99998E+01-8.81176E-05-1.05256E-08 1.00834E-04-1.47696E-14-1.94844E-13
 -1       722 1.99998E+01-6.88579E-05-1.82837E-08 7.37488E-05 3.77563E-13-4.34464E-13
 -1       723 1.99998E+01-5.32536E-05-1.33272E-08 5.24969E-05 3.62623E-13-1.33560E-13
 -1       724 1.99998E+01-8.49938E-05 1.71428E-08 3.42440E-05-2.08588E-13-2.58822E-13
 -1       725 2.15312E+01 4.76567E-01-7.32676E-05-1.32442E+00 7.83038E-14-4.01521E-13
 -1       726 2.09619E+01-7.14533E-01-1.25178E-04-6.22138E-01-7.45775E-14-2.39813E-13
 -1       727 2.11974E+01-7.04939E-01-1.07219E-04-8.84188E-01-1.33190E-14-2.81246E-13
 -1       728 2.05227E+01-4.99209E-01-7.97316E-05-2.39231E-01-4.71591E-14-2.06300E-13
 -1       729 2.03580E+01-3.68155E-01-6.09901E-05-1.26398E-01-5.19433E-14-2.12384E-13
 -1       730 2.02347E+01-2.53949E-01-4.18003E-05-5.40646E-02-4.03665E-14-3.25551E-13
 -1       731 2.01476E+01-1.63883E-01-2.48998E-05-1.11208E-02-4.95945E-14-3.06291E-13
 -1       732 2.00889E+01-9.80708E-02-1.45148E-05 1.18995E-02 4.14293E-14-1.04675E-13
 -1       733 2.00513E+01-5.30348E-02-7.54524E-06 2.22392E-02-2.21742E-14-4.31586E-14
 -1       734 2.00281E+01-2.41343E-02-3.17812E-06 2.50223E-02-7.64669E-15-9.03916E-15
 -1       735 2.00146E+01-6.88154E-03-7.38981E-07 2.36757E-02-1.44717E-13 6.07112E-15
 -1       736 2.00070E+01 2.47030E-03 3.70519E-07 2.03732E-02-1.94177E-13 1.79563E-14
 -1       737 2.00031E+01 6.77439E-03 7.96281E-07 1.64234E-02-8.08156E-15-1.12507E-13
 -1       738 2.00012E+01 8.06694E-03 8.97547E-07 1.25611E-02-2.94673E-14-7.29278E-14
 -1       739 2.00004E+01 7.71994E-03 8.20638E-07 9.15145E-03-2.24433E-14-4.18158E-14
 -1       740 2.00001E+01 6.60548E-03 6.70399E-07 6.33450E-03 1.09697E-13-1.49631E-13
 -1       741 2.00001E+01 5.24340E-03 5.05289E-07 4.12163E-03 1.95632E-13-2.82025E-13
 -1       742 2.00001E+01 3.91852E-03 3.54474E-07 2.45738E-03 5.46222E-14-2.15718E-13
 -1       743 2.00002E+01 2.76685E-03 2.30213E-07 1.25744E-03-9.06503E-14-2.72720E-14
 -1       744 2.00002E+01 1.83568E-03 1.35012E-07 4.30962E-04-1.81507E-13-4.45423E-14
 -1       745 2.00001E+01 1.12336E-03 6.64810E-08-1.07328E-04-1.98501E-13 3.69348E-14
 -1       746 2.00001E+01 6.04342E-04 1.97223E-08-4.31475E-04 1.82630E-13 1.57463E-13
 -1       747 2.00001E+01 2.44184E-04-1.02750E-08-6.02389E-04 1.41221E-13 8.41991E-14
 -1       748 2.00000E+01 7.84765E-06-2.78276E-08-6.68141E-04 2.74067E-13-1.33509E-13
 -1       749 2.00000E+01-1.36134E-04-3.65385E-08-6.65343E-04 1.47271E-13-1.24511E-13
 -1       750 1.99999E+01-2.14017E-04-3.92814E-08-6.20960E-04-1.87382E-13 2.84497E-13
 -1       751 1.99999E+01-2.46603E-04-3.82264E-08-5.54182E-04-2.24603E-13 4.67113E-13
 -1       752 1.99999E+01-2.49708E-04-3.50199E-08-4.78148E-04 4.98715E-14 3.24672E-13
 -1       753 1.99998E+01-2.34923E-04-3.07902E-08-4.01429E-04 1.33129E-13-4.54710E-14
 -1       754 1.99998E+01-2.10446E-04-2.62074E-08-3.29253E-04 2.06677E-13-8.12263E-14
 -1       755 1.99998E+01-1.81853E-04-2.16708E-08-2.64481E-04-1.00788E-14-5.22857E-14
 -1       756 1.99998E+01-1.52764E-04-1.75930E-08-2.08349E-04-2.20212E-13-9.42119E-14
 -1       757 1.99998E+01-1.25382E-04-1.36457E-08-1.61032E-04-1.11544E-13 1.42300E-13
 -1       758 1.99998E+01-1.00915E-04-8.22966E-09-1.22066E-04-1.87346E-13 4.43712E-13
 -1       759 1.99998E+01-7.98813E-05-5.81698E-09-9.07184E-05-9.17586E-14 4.03600E-13
 -1       760 1.99998E+01-9.34714E-05-2.71199E-09-1.80914E-05-5.40572E-14-4.56621E-13
 -1       761 1.99998E+01-7.18843E-05 1.40594E-08 4.52605E-05 2.67176E-14-4.83715E-14
 -1       762 2.15875E+01 2.53833E+00-3.58016E-04-1.33376E-02 1.55284E-13-5.07635E-13
 -1       763 1.27195E+01 1.95972E+00 6.75479E-02 3.03228E+00-2.15948E-13 4.97602E-13
 -1       764 1.99998E+01-5.47781E-05 5.07233E-09-5.57049E-05-1.84778E-14 2.40899E-13
 -1       765 1.52932E+01 2.50382E+00 1.71187E-02-1.22326E-01 6.18359E-14 1.50674E-13
 -1       766 1.99998E+01-9.34195E-05 1.82776E-08 1.85193E-05-8.06035E-14-7.64603E-14
 -1       767 2.41890E+01 4.85228E+00-1.06283E-02 4.38727E-01 1.39768E-13-5.53926E-13
 -1       768 1.99998E+01-6.36548E-05 1.39439E-08-4.78397E-05 2.43607E-13 1.51392E-13
 -1       769 2.07280E+01-6.27154E-01-9.24819E-05-4.03135E-01-8.87156E-14-2.09473E-13
 -1       770 1.28693E+01 2.80664E+00 6.57191E-02 3.47459E-01-3.38692E-14 3.50388E-13
 -1       771 2.69043E+01 5.32899E+00-7.72645E-02-6.22045E-01 2.22721E-13-6.69649E-13
 -1       772 1.70084E+01 2.00778E+00 9.83090E-04-1.93168E-01 1.97150E-14 4.29484E-14
 -1       773 2.69742E+01-8.59163E-01-4.47221E-02 8.91084E-02-3.00026E-13-7.19216E-13
 -1       774 2.46195E+01-2.88171E+00 1.03178E-02 3.24234E+00-6.41238E-13-3.82991E-13
 -1       775 2.71198E+01 2.38392E+00-6.13346E-02-1.10329E+00 9.73006E-15-7.69476E-13
 -1       776 1.59198E+01-1.29213E-01 5.86828E-02 5.32130E+00-5.69195E-13 4.15685E-13
 -1       777 2.04213E+01-2.15695E+00 2.73129E-02 5.32345E+00-7.49747E-13 2.14257E-13
 -1       778 2.55298E+01-2.08753E+00-8.06875E-03 1.14933E+00-4.11336E-13-5.53318E-13
 -1       779 1.99998E+01-8.51138E-05 1.85582E-08-3.40324E-05 2.23611E-14-6.70942E-14
 -1       780 2.14915E+01 1.23648E+00 2.12818E-03-1.03227E+00 1.17107E-13-4.64602E-13
 -1       781 2.13942E+01-5.31358E-01 7.25552E-05-1.14783E+00-5.85971E-16-3.46404E-13
 -1       782 1.99998E+01-6.63909E-05-2.89906E-09-7.16647E-05-7.77979E-14 2.06627E-13
 -1       783 2.15110E+01-1.39157E-01 1.42974E-04-1.33218E+00 5.67019E-14-4.04429E-13
 -1       784 2.28470E+01 3.57085E+00-8.98517E-03 1.85377E-01 1.27278E-13-5.37546E-13
 -1       785 1.90083E+01 8.79139E-01-1.47671E-04 1.12946E-01-2.81377E-14 8.89578E-14
 -1       786 1.93922E+01 6.25059E-01-5.33024E-05 5.14256E-03-2.24305E-13 6.75471E-14
 -1       787 1.96266E+01 4.41040E-01-3.64164E-06-3.97680E-02-4.12122E-14 1.57363E-13
 -1       788 1.97757E+01 3.06093E-01-1.31597E-05-5.44437E-02-4.09727E-14 1.50901E-13
 -1       789 1.98688E+01 2.09953E-01-9.38403E-06-5.41265E-02-1.65472E-13-9.06759E-15
 -1       790 1.99256E+01 1.42825E-01-6.23583E-06-4.72925E-02 8.29789E-14-1.25856E-13
 -1       791 1.99597E+01 9.66017E-02-2.76485E-06-3.84310E-02-2.71470E-13-2.42444E-13
 -1       792 1.99797E+01 6.50341E-02-1.44682E-06-2.97199E-02-2.03131E-13-3.48280E-13
 -1       793 1.99914E+01 4.27754E-02-1.84357E-06-2.18016E-02-2.76441E-13-3.49252E-13
 -1       794 1.99974E+01 2.86036E-02-1.83727E-07-1.56884E-02-1.91044E-13-2.51850E-13
 -1       795 2.00005E+01 1.90056E-02-3.63673E-07-1.09019E-02-1.25436E-13 2.91240E-14
 -1       796 2.00019E+01 1.25135E-02-1.77399E-07-7.28739E-03-2.56892E-13 1.00571E-13
 -1       797 2.00023E+01 8.11966E-03-2.92421E-08-4.63417E-03-4.10152E-14 2.31194E-13
 -1       798 2.00024E+01 5.14610E-03-1.08453E-07-2.73802E-03-1.61803E-13 2.48248E-13
 -1       799 2.00021E+01 3.06137E-03 4.72401E-08-1.37346E-03 8.67599E-14 3.04603E-14
 -1       800 2.00018E+01 1.74845E-03-2.46755E-08-5.16056E-04-1.64596E-14-1.69711E-13
 -1       801 2.00015E+01 8.80331E-04-1.47950E-08 3.05439E-05 1.32329E-13-2.67437E-13
 -1       802 2.00012E+01 3.19719E-04-9.92871E-09 3.54991E-04 1.34417E-13-3.06317E-13
 -1       803 2.00009E+01-2.94791E-05-6.09450E-09 5.25653E-04-3.33649E-14-4.12172E-13
 -1       804 2.00007E+01-2.34233E-04-8.64149E-09 5.93408E-04-1.60460E-13-3.11859E-13
 -1       805 2.00005E+01-3.41646E-04-9.32822E-09 5.95291E-04-3.39613E-13-3.06649E-13
 -1       806 2.00003E+01-3.85516E-04 1.09439E-08 5.55124E-04-1.81788E-13-2.91310E-13
 -1       807 2.00002E+01-3.85765E-04-7.54623E-09 4.95663E-04-8.49819E-14-2.33200E-13
 -1       808 2.00001E+01-3.62033E-04-1.74865E-09 4.27844E-04-5.06964E-14 1.23393E-13
 -1       809 2.00000E+01-3.25237E-04-1.49823E-09 3.59433E-04-6.73165E-14 8.80038E-14
 -1       810 2.00000E+01-2.82805E-04-3.12261E-09 2.95089E-04-2.63113E-13 3.55687E-13
 -1       811 1.99999E+01-2.39588E-04-4.70578E-10 2.37293E-04 6.45619E-15 4.71042E-13
 -1       812 1.99999E+01-1.96621E-04 1.55850E-09 1.84960E-04 1.97508E-13 3.30465E-13
 -1       813 1.99999E+01-1.59783E-04-2.94226E-10 1.43179E-04-4.54266E-14 2.21629E-13
 -1       814 1.99998E+01-1.27712E-04 3.55687E-10 1.08768E-04 8.93704E-14 2.61281E-13
 -1       815 1.99998E+01-1.00703E-04 9.85630E-10 8.11710E-05 5.58785E-14 4.08117E-13
 -1       816 1.99998E+01-8.54864E-05-1.00695E-09 6.13293E-05 7.91794E-14 1.94657E-13
 -1       817 1.48396E+01 2.13363E+00 2.28236E-02 1.75046E+00-1.12295E-13 3.30602E-13
 -1       818 1.84499E+01 1.17741E+00-1.18474E-04 3.19306E-01 1.47686E-14-2.41490E-15
 -1       819 2.03689E+01-3.52884E-01-1.76495E-05 4.22867E-02-8.80728E-16-2.17234E-13
 -1       820 2.05715E+01-5.09843E-01 1.78233E-06-1.50299E-03-3.83941E-14-1.87397E-13
 -1       821 2.01332E+01-1.37232E-01-1.12438E-06 6.08761E-02-4.32101E-14-7.29113E-14
 -1       822 2.00735E+01-7.46137E-02 3.89868E-07 5.50875E-02-1.10651E-15-2.53020E-14
 -1       823 2.00375E+01-3.42277E-02 1.33246E-06 4.63705E-02-5.21423E-14-8.87132E-14
 -1       824 2.00170E+01-9.94640E-03 1.54346E-06 3.72052E-02-1.93701E-13 5.06600E-15
 -1       825 2.00061E+01 3.37164E-03 1.16080E-06 2.87907E-02-2.02075E-13 5.82271E-14
 -1       826 2.00009E+01 9.63111E-03 6.44759E-07 2.16000E-02-9.86941E-14 2.80391E-14
 -1       827 1.99989E+01 1.16291E-02 3.94136E-07 1.57390E-02 8.68424E-14-4.87766E-14
 -1       828 1.99985E+01 1.12692E-02 2.44661E-07 1.11228E-02-8.84815E-14-3.43575E-14
 -1       829 1.99988E+01 9.77256E-03 1.43308E-07 7.58579E-03 2.25744E-14-4.80719E-15
 -1       830 1.99993E+01 7.87678E-03 7.42121E-08 4.94305E-03 2.40611E-13-8.48884E-15
 -1       831 1.99998E+01 5.99479E-03 2.88600E-08 3.01787E-03 1.16848E-13 2.19565E-14
 -1       832 2.00001E+01 4.33108E-03 2.01402E-10 1.65372E-03-4.97108E-14 5.56184E-14
 -1       833 2.00004E+01 2.96372E-03-1.57260E-08 7.18396E-04-7.74020E-14 7.96635E-14
 -1       834 2.00005E+01 1.89940E-03-2.15226E-08 1.03656E-04-2.56427E-13-2.47319E-14
 -1       835 2.00006E+01 1.10845E-03-2.22819E-08-2.76962E-04-4.03878E-14-1.85866E-13
 -1       836 2.00005E+01 5.46283E-04-2.07564E-08-4.91002E-04 6.79041E-15 9.66005E-15
 -1       837 2.00005E+01 1.65612E-04-1.85923E-08-5.90155E-04 2.56597E-13 7.13868E-14
 -1       838 2.00004E+01-7.71650E-05-1.61031E-08-6.13166E-04 2.56642E-13-1.16708E-13
 -1       839 2.00003E+01-2.19190E-04-1.34480E-08-5.88426E-04-4.14430E-13 4.50617E-14
 -1       840 2.00002E+01-2.90441E-04-1.07388E-08-5.36236E-04-3.30001E-13 3.14940E-13
 -1       841 2.00001E+01-3.14133E-04-8.35568E-09-4.70677E-04 3.05274E-14 2.07025E-13
 -1       842 2.00000E+01-3.07606E-04-6.48507E-09-4.01150E-04 2.13634E-13 1.76544E-13
 -1       843 2.00000E+01-2.83379E-04-5.12724E-09-3.33617E-04 1.07297E-13 3.17779E-13
 -1       844 1.99999E+01-2.50183E-04-4.02150E-09-2.71568E-04 1.38497E-13 1.81164E-13
 -1       845 1.99999E+01-2.13863E-04-2.96751E-09-2.16771E-04 3.91576E-14 2.60775E-13
 -1       846 1.99999E+01-1.78141E-04-3.56460E-09-1.69839E-04-4.80314E-13 1.26048E-13
 -1       847 1.99998E+01-1.45214E-04 8.49689E-10-1.30631E-04-2.63096E-13 2.53152E-13
 -1       848 1.99998E+01-1.16180E-04-1.22699E-08-9.87386E-05-3.94371E-13 1.79725E-13
 -1       849 1.99999E+01-1.19298E-04 2.89806E-09-1.19621E-05-2.71290E-13-3.33527E-13
 -1       850 1.66269E+01 1.83361E+00 4.12072E-03 1.02974E+00-1.12266E-13 8.36476E-14
 -1       851 1.99998E+01-1.02462E-04 4.82948E-09 4.77898E-05 1.92964E-13-2.32276E-13
 -1       852 1.63787E+01 7.73309E-01 2.31694E-02 3.65123E+00-3.56002E-13 2.57891E-13
 -1       853 1.99998E+01-7.72331E-05-5.48652E-08-6.09584E-05-1.61356E-13 2.67522E-13
 -1       854 2.02273E+01-2.28427E-01-3.01426E-06 5.91921E-02-1.02711E-13-1.70474E-13
 -1       855 2.15944E+01-9.58526E-01-1.59158E-04-4.68067E-01-1.15092E-13-3.46193E-13
 -1       856 1.77029E+01 1.50013E+00 5.52149E-04 5.94807E-01-5.03350E-14-6.07508E-14
 -1       857 2.46554E+01 3.67981E+00-2.84693E-02-8.26718E-01 1.07158E-13-5.90332E-13
 -1       858 2.24356E+01-2.19722E+00 1.20841E-02 3.42301E+00-6.43825E-13-1.80992E-13
 -1       859 1.91514E+01-8.89586E-01 1.38259E-02 4.29538E+00-5.72499E-13 1.82048E-13
 -1       860 2.57423E+01 5.00822E-01-2.47806E-02-1.00116E+00-1.00461E-13-6.02884E-13
 -1       861 1.99998E+01-1.12214E-04-2.47435E-09-3.45146E-05-2.81363E-13-4.11819E-13
 -1       862 2.37924E+01-2.20530E+00-2.60878E-03 1.87306E+00-4.52493E-13-2.88809E-13
 -1       863 2.32083E+01 2.64132E+00-2.66154E-03-8.31278E-01 1.09715E-13-5.32438E-13
 -1       864 2.25761E+01 1.09870E+00-3.99558E-03-1.25451E+00 5.13659E-14-4.78351E-13
 -1       865 2.20040E+01-8.97513E-01 1.26530E-05-7.69084E-01-5.61323E-14-3.66391E-13
 -1       866 2.08461E+01-6.88900E-01-1.05863E-05-8.91265E-02-4.45212E-14-2.56725E-13
 -1       867 1.99998E+01-9.71993E-05 1.33646E-08-7.92074E-05-1.39126E-13 1.64645E-13
 -1       868 1.99999E+01-1.19288E-04 1.01229E-08 1.24294E-05-2.52475E-13 2.31872E-13
 -1       869 2.51318E+01-9.75019E-01-2.71988E-03-3.17995E-01-2.07788E-13-4.23090E-13
 -1       870 1.99998E+01-1.13120E-04 1.34047E-08 3.17229E-05 2.31194E-14-2.48257E-13
 -1       871 2.11926E+01-8.57628E-01-4.14930E-05-2.39899E-01-1.36802E-13-2.38806E-13
 -1       872 2.25557E+01 1.09998E-01 3.02975E-04-1.31020E+00 4.55257E-14-4.12476E-13
 -1       873 1.99998E+01-9.66380E-05 1.68506E-08-5.15612E-05-2.16298E-13-1.26585E-13
 -1       874 2.41619E+01 1.55638E+00-3.44761E-03-1.25710E+00 2.18176E-14-5.41881E-13
 -1       875 1.73743E+01 1.00425E+00 5.77166E-03 2.36927E+00-2.26733E-13 2.49015E-14
 -1       876 1.95360E+01 4.52599E-01 2.34206E-05 1.67775E-01-1.18032E-13-9.05997E-14
 -1       877 1.97007E+01 3.31566E-01 5.60641E-06 7.48653E-02-5.03628E-14-3.34916E-14
 -1       878 1.98110E+01 2.38285E-01-4.20438E-06 2.44282E-02-1.66969E-13-9.13009E-15
 -1       879 1.98833E+01 1.68919E-01-8.18574E-06-8.50458E-04-8.24941E-14-1.23579E-14
 -1       880 1.99298E+01 1.18624E-01-5.35379E-06-1.18554E-02-2.60045E-13-2.05779E-13
 -1       881 1.99591E+01 8.26602E-02-2.89155E-06-1.51464E-02-3.14587E-13-1.72927E-13
 -1       882 1.99780E+01 5.62561E-02-4.24753E-06-1.45534E-02-2.91168E-13-2.75537E-13
 -1       883 1.99887E+01 3.88038E-02-1.22657E-06-1.23500E-02-2.23666E-13-9.90659E-14
 -1       884 1.99950E+01 2.65803E-02-1.35389E-06-9.70055E-03-6.34446E-14-2.19989E-13
 -1       885 1.99987E+01 1.80494E-02-8.68961E-07-7.18434E-03-5.36992E-14-8.41713E-14
 -1       886 2.00006E+01 1.21032E-02-4.56032E-07-5.03926E-03-7.53017E-14 4.93097E-14
 -1       887 2.00016E+01 7.96377E-03-3.83669E-07-3.32900E-03-1.24795E-13-4.04425E-14
 -1       888 2.00020E+01 4.98001E-03-1.88632E-07-1.98416E-03 1.10860E-13 1.41755E-13
 -1       889 2.00020E+01 3.04684E-03-9.43344E-08-1.06909E-03-2.07274E-14 2.63127E-13
 -1       890 2.00018E+01 1.73037E-03-5.80820E-08-4.37481E-04-8.99627E-14 2.12085E-13
 -1       891 2.00016E+01 8.51042E-04-1.90822E-08-2.49538E-05-1.01223E-13-1.11524E-13
 -1       892 2.00014E+01 2.79421E-04 4.58698E-09 2.25955E-04-9.99360E-14-2.67516E-13
 -1       893 2.00011E+01-7.69641E-05 1.67843E-08 3.62028E-04-1.43674E-16-5.23263E-13
 -1       894 2.00009E+01-2.84642E-04 1.62230E-08 4.19757E-04-7.09870E-14-3.16904E-13
 -1       895 2.00007E+01-3.94255E-04 3.98697E-08 4.25837E-04-3.50236E-13-1.33028E-13
 -1       896 2.00005E+01-4.30759E-04 1.87257E-08 4.00418E-04-1.31392E-13-2.13467E-13
 -1       897 2.00003E+01-4.25878E-04 2.10091E-08 3.58703E-04 8.79940E-14-3.95541E-13
 -1       898 2.00002E+01-3.96280E-04 1.82145E-08 3.10031E-04 1.36049E-13-9.65267E-14
 -1       899 2.00001E+01-3.53618E-04 1.34501E-08 2.60436E-04 1.37154E-14 1.28990E-13
 -1       900 2.00000E+01-3.05719E-04 1.23356E-08 2.13520E-04-2.20028E-13 3.04516E-14
 -1       901 2.00000E+01-2.55293E-04 1.37158E-08 1.69451E-04-9.23143E-15-2.11040E-13
 -1       902 1.99999E+01-2.10366E-04 5.40986E-09 1.33307E-04-6.90712E-14-3.75580E-13
 -1       903 1.99999E+01-1.70191E-04 7.78823E-09 1.02873E-04 5.09754E-14-2.38134E-13
 -1       904 1.99999E+01-1.35426E-04 1.39377E-08 7.81048E-05 2.58242E-13-1.54537E-13
 -1       905 1.99998E+01-1.18313E-04-7.78946E-10 6.15371E-05 4.75833E-14-3.71489E-13
 -1       906 2.04877E+01-4.37118E-01-7.22513E-05 2.16143E-01-2.06884E-14-2.05583E-13
 -1       907 1.89364E+01 7.75789E-01 5.35282E-04 6.24585E-01 1.87609E-14 1.58954E-14
 -1       908 2.00410E+01-3.69714E-02 5.75023E-06 8.18703E-02-1.46691E-14-2.61329E-15
 -1       909 2.00874E+01-8.62895E-02 5.61232E-06 1.11255E-01-1.18028E-13-6.09362E-14
 -1       910 2.00024E+01 7.89754E-03 1.79558E-06 4.14553E-02-2.18858E-13-9.94573E-14
 -1       911 1.99968E+01 1.49841E-02 3.48907E-07 2.87318E-02-1.33242E-13-7.70170E-14
 -1       912 1.99952E+01 1.69056E-02 2.97676E-08 1.95854E-02 4.37299E-14-7.80006E-14
 -1       913 1.99955E+01 1.60096E-02-6.23028E-08 1.31091E-02-1.22694E-13 2.22286E-14
 -1       914 1.99966E+01 1.37838E-02-9.74874E-08 8.57105E-03-1.27528E-13 4.71400E-14
 -1       915 1.99979E+01 1.11227E-02-9.77789E-08 5.42325E-03 1.72906E-13 1.28702E-13
 -1       916 1.99990E+01 8.52523E-03-9.67365E-08 3.26460E-03 4.88861E-14 3.14621E-13
 -1       917 1.99998E+01 6.23813E-03-7.64643E-08 1.80553E-03 1.08078E-14 5.07386E-13
 -1       918 2.00004E+01 4.35303E-03-6.61440E-08 8.38944E-04 1.49546E-14 4.38915E-13
 -1       919 2.00007E+01 2.87499E-03-4.54198E-08 2.17399E-04 2.86391E-14 1.70274E-13
 -1       920 2.00009E+01 1.76423E-03-2.66284E-08-1.64421E-04-3.59181E-14 6.47844E-14
 -1       921 2.00009E+01 9.62361E-04-1.21172E-08-3.81669E-04-1.01727E-13-2.68860E-14
 -1       922 2.00008E+01 4.07589E-04-2.05969E-09-4.87976E-04 1.04020E-13-1.15504E-13
 -1       923 2.00007E+01 4.26366E-05 3.72504E-09-5.21540E-04 3.34026E-13-1.15951E-13
 -1       924 2.00006E+01-1.81706E-04 6.32019E-09-5.09375E-04-2.31260E-13-3.90387E-16
 -1       925 2.00005E+01-3.05509E-04 8.53283E-09-4.70386E-04-3.91570E-13-6.67762E-14
 -1       926 2.00004E+01-3.60182E-04 9.68081E-09-4.17571E-04-2.17131E-13 2.07570E-13
 -1       927 2.00002E+01-3.69502E-04 9.73553E-09-3.59614E-04 1.05881E-13 2.29776E-13
 -1       928 2.00002E+01-3.50904E-04 8.75740E-09-3.02095E-04 1.68620E-14 2.18532E-13
 -1       929 2.00001E+01-3.16767E-04 7.42396E-09-2.48388E-04 2.99166E-13 2.24921E-13
 -1       930 2.00000E+01-2.75599E-04 5.60259E-09-2.00306E-04 1.54097E-13 1.34192E-13
 -1       931 1.99999E+01-2.32948E-04 5.28255E-09-1.58624E-04-2.41124E-13 2.22192E-14
 -1       932 1.99999E+01-1.92276E-04-3.33061E-09-1.23385E-04-5.93598E-13 3.99603E-14
 -1       933 1.99999E+01-1.55688E-04-1.92808E-08-9.45795E-05-1.62967E-13 5.98348E-14
 -1       934 2.23523E+01-5.69477E-01 7.87381E-04-1.08919E+00-1.25741E-14-3.38802E-13
 -1       935 2.01661E+01-1.63759E-01 8.81768E-06 1.46422E-01-1.31732E-13-1.69884E-13
 -1       936 2.00153E+01-7.78073E-03 3.83600E-06 5.87992E-02-7.74760E-14-9.85557E-14
 -1       937 1.92892E+01 6.04723E-01 5.19056E-05 3.36212E-01-1.74390E-13-1.20713E-13
 -1       938 1.89609E+01-1.43821E-01 3.15253E-03 3.05360E+00-3.48984E-13 9.05656E-14
 -1       939 2.11322E+01-1.34773E+00 1.67451E-03 2.88595E+00-4.26693E-13-9.01050E-14
 -1       940 2.02928E+01-2.78254E-01 4.54735E-06 1.84233E-01-1.38002E-13-1.05571E-13
 -1       941 2.41165E+01-1.68284E+00-7.74415E-04 4.19077E-01-2.34705E-13-3.38991E-13
 -1       942 1.80692E+01 9.81740E-01 1.44506E-03 1.56365E+00-4.66667E-14 5.35666E-14
 -1       943 1.99999E+01-1.31582E-04-5.22336E-08 4.24790E-05 3.31988E-13-6.19692E-14
 -1       944 2.07721E+01-6.40440E-01 2.52828E-05 2.29463E-01-6.81987E-14-1.47169E-13
 -1       945 2.40644E+01 1.93786E-01-7.71824E-04-1.15078E+00-3.91416E-14-5.23985E-13
 -1       946 1.99999E+01-1.31574E-04 4.22063E-09-7.66520E-05-2.32341E-13-1.28634E-13
 -1       947 2.23703E+01-1.71529E+00-2.22446E-03 1.92572E+00-3.86047E-13-6.17253E-14
 -1       948 1.99999E+01-1.48527E-04-1.07320E-09 1.14991E-07-8.21471E-14 8.96410E-14
 -1       949 1.85475E+01 9.04915E-01 7.28673E-04 1.00565E+00-1.29839E-14 8.47133E-14
 -1       950 2.22806E+01-1.21517E+00-7.81573E-04-1.72287E-01-1.02987E-13-2.56191E-13
 -1       951 1.99999E+01-1.44382E-04-2.67876E-08-3.10900E-05-4.00884E-14-8.74755E-13
 -1       952 2.16774E+01-1.09682E+00 5.07990E-04 7.33502E-02-1.95474E-13-3.09619E-13
 -1       953 1.97947E+01 2.23762E-01 3.48369E-06 1.29363E-01-1.16103E-13-7.11298E-14
 -1       954 1.98633E+01 1.68944E-01-1.29060E-05 6.61703E-02-2.10850E-13-1.44679E-13
 -1       955 1.99111E+01 1.25209E-01-1.78160E-05 2.99152E-02-2.21785E-13-1.17091E-13
 -1       956 1.99437E+01 9.15127E-02-2.45038E-06 1.02603E-02-1.86728E-13 1.10680E-14
 -1       957 1.99661E+01 6.51521E-02-9.46553E-06 6.56403E-05-3.81840E-13 5.66202E-14
 -1       958 1.99800E+01 4.67196E-02-4.96353E-06-4.00232E-03-8.29170E-14 3.01883E-14
 -1       959 1.99890E+01 3.31774E-02-4.51529E-06-5.16522E-03-1.61456E-13-8.86876E-15
 -1       960 1.99946E+01 2.33131E-02-3.26221E-06-4.90484E-03 5.57911E-14 4.53413E-14
 -1       961 1.99980E+01 1.61671E-02-2.20324E-06-4.05496E-03 7.41016E-14-1.15114E-13
 -1       962 2.00000E+01 1.10148E-02-1.62939E-06-3.05771E-03-1.29579E-13-1.35041E-13
 -1       963 2.00012E+01 7.17692E-03-1.12338E-06-2.09475E-03 1.41483E-13 6.43497E-14
 -1       964 2.00017E+01 4.61162E-03-6.66282E-07-1.34357E-03 1.16363E-13 1.49165E-13
 -1       965 2.00018E+01 2.81226E-03-4.60098E-07-7.68632E-04-1.13820E-13-9.04522E-14
 -1       966 2.00018E+01 1.57290E-03-2.78241E-07-3.56179E-04-2.30014E-13 7.76481E-14
 -1       967 2.00016E+01 7.38838E-04-1.55726E-07-7.77552E-05-1.70680E-13 1.05796E-14
 -1       968 2.00014E+01 1.95725E-04-7.63385E-08 9.70785E-05-9.43437E-14-2.40330E-13
 -1       969 2.00012E+01-1.41520E-04-5.02447E-08 1.96147E-04 1.90286E-14-1.85720E-13
 -1       970 2.00009E+01-3.41004E-04 2.70528E-08 2.43185E-04-1.67853E-13-9.97195E-14
 -1       971 2.00007E+01-4.31522E-04 2.41206E-08 2.52540E-04-1.22198E-13 1.72305E-13
 -1       972 2.00006E+01-4.58917E-04 3.56656E-08 2.40823E-04-1.87481E-13 3.35086E-13
 -1       973 2.00004E+01-4.46462E-04 3.87530E-08 2.17357E-04 1.73481E-13 1.25163E-13
 -1       974 2.00003E+01-4.10783E-04 3.62035E-08 1.88558E-04-2.40122E-14-2.30671E-13
 -1       975 2.00002E+01-3.63368E-04 3.29884E-08 1.58530E-04-3.96943E-14-4.33101E-13
 -1       976 2.00001E+01-3.09226E-04 3.99671E-08 1.28550E-04-4.08613E-14 5.06153E-14
 -1       977 2.00000E+01-2.58544E-04 2.35354E-08 1.02916E-04-1.77720E-13 9.11731E-14
 -1       978 1.99999E+01-2.11796E-04 1.03535E-08 8.07386E-05-1.22162E-14-4.35662E-14
 -1       979 1.99999E+01-1.70496E-04-8.25535E-09 6.23123E-05 1.25991E-13-2.56754E-13
 -1       980 1.99999E+01-1.50248E-04-3.44997E-08 5.17508E-05 2.13048E-13-1.13101E-13
 -1       981 2.36642E+01-6.96177E-01 3.95608E-04-8.22695E-01-1.05194E-13-4.39680E-13
 -1       982 1.99892E+01 2.52077E-02 1.01333E-07 2.38628E-02-1.28583E-13-1.72894E-13
 -1       983 1.99887E+01 2.51303E-02-2.41822E-06 3.75562E-02-1.82978E-13-1.64002E-13
 -1       984 1.99937E+01 1.89798E-02-1.20154E-06 9.10775E-03-1.15515E-13 9.10351E-14
 -1       985 1.99960E+01 1.51152E-02-1.16643E-06 5.40228E-03 5.90828E-15 7.34791E-15
 -1       986 1.99978E+01 1.15369E-02-9.70457E-07 3.05899E-03-7.36331E-14 1.37415E-13
 -1       987 1.99992E+01 8.46578E-03-7.78504E-07 1.59622E-03-8.67073E-14 7.30768E-14
 -1       988 2.00002E+01 5.96535E-03-6.57484E-07 6.96010E-04 7.99118E-14 3.73802E-14
 -1       989 2.00007E+01 4.01226E-03-4.82890E-07 1.56313E-04 1.24975E-13-2.66860E-14
 -1       990 2.00011E+01 2.54137E-03-3.39698E-07-1.54389E-04-1.43468E-13 1.57620E-13
 -1       991 2.00012E+01 1.47161E-03-2.25893E-07-3.20144E-04 7.40288E-14 1.26021E-13
 -1       992 2.00012E+01 7.21769E-04-1.40120E-07-3.94972E-04 9.17253E-14-1.25263E-13
 -1       993 2.00011E+01 2.18284E-04-7.64866E-08-4.13765E-04 1.69963E-13-7.76036E-14
 -1       994 2.00009E+01-1.01458E-04-4.00760E-08-3.99237E-04 1.84470E-14 2.04828E-13
 -1       995 2.00008E+01-2.88363E-04-1.17387E-08-3.66073E-04-3.31169E-13 2.88063E-13
 -1       996 2.00006E+01-3.82508E-04 7.91626E-09-3.23886E-04-3.70482E-13 3.21792E-13
 -1       997 2.00004E+01-4.14424E-04 1.92084E-08-2.78793E-04 1.67697E-15 4.84889E-14
 -1       998 2.00003E+01-4.06726E-04 2.47983E-08-2.34607E-04 2.25288E-13 9.04909E-14
 -1       999 2.00002E+01-3.75681E-04 2.53314E-08-1.93562E-04 1.41266E-13-3.41056E-14
 -1      1000 2.00001E+01-3.32651E-04 2.31820E-08-1.56901E-04 9.65858E-14 1.24397E-14
 -1      1001 2.00000E+01-2.85241E-04 2.56900E-08-1.25003E-04-3.79638E-14 1.76857E-13
 -1      1002 2.00000E+01-2.38295E-04 9.49737E-09-9.80659E-05-3.20206E-13-1.99334E-14
 -1      1003 1.99999E+01-1.94722E-04 8.96708E-08-7.56998E-05-3.61236E-13-3.56085E-13
 -1      1004 2.01634E+01-1.60956E-01 5.42572E-05 2.70443E-01-1.24518E-13-6.56133E-14
 -1      1005 2.11669E+01-8.75596E-01 1.73466E-04 1.92891E-01-1.18751E-13-2.60618E-13
 -1      1006 2.00282E+01-2.37765E-02 2.77467E-05 1.31486E-01-4.44638E-14-8.81187E-14
 -1      1007 2.02492E+01-6.18023E-01 1.27101E-03 2.27028E+00-2.19254E-13 2.54638E-14
 -1      1008 2.00766E+01-7.56619E-02 3.56063E-05 1.91281E-01-2.53794E-13 6.58667E-14
 -1      1009 1.99912E+01 2.26455E-02-1.05907E-06 1.49041E-02-1.44461E-13 6.13302E-14
 -1      1010 1.96993E+01 2.88608E-01 3.70555E-05 2.35189E-01-5.89804E-14-2.63890E-14
 -1      1011 1.89835E+01 2.10301E-01 6.12695E-04 2.18237E+00-1.39271E-13 1.33099E-13
 -1      1012 1.99999E+01-1.42226E-04 5.26984E-09 2.26609E-05 8.17217E-14 1.34518E-13
 -1      1013 2.03092E+01-2.91962E-01-1.30327E-05 3.68947E-01-1.15328E-13-5.08527E-14
 -1      1014 2.29785E+01-1.67045E+00 2.65596E-04 8.04153E-01-2.15489E-13-1.59544E-13
 -1      1015 2.05466E+01-4.81002E-01-1.86402E-04 4.73617E-01-1.83310E-14-4.42409E-14
 -1      1016 1.95681E+01 3.59355E-01 1.63500E-04 4.12275E-01-9.04634E-14 1.78225E-14
 -1      1017 1.92324E+01 4.35029E-01 8.70763E-04 1.07184E+00-8.74520E-14-4.42255E-14
 -1      1018 2.00033E+01 5.50393E-03 3.10989E-05 8.82616E-02-8.78394E-14-5.39325E-14
 -1      1019 1.99922E+01 1.97531E-02-2.21173E-06 5.81000E-02-1.09652E-13 1.16795E-13
 -1      1020 1.99999E+01-1.68981E-04 6.03414E-08-5.07030E-05-1.32615E-14-4.71239E-13
 -1      1021 2.29881E+01-1.15492E+00 5.11521E-04-4.51023E-01-4.55573E-14-3.04132E-13
 -1      1022 1.99999E+01-1.77697E-04 1.66318E-08 2.03840E-05-2.20332E-14 3.03760E-13
 -1      1023 1.94121E+01 4.15865E-01 4.61153E-04 6.76137E-01-1.14504E-13-3.34047E-14
 -1      1024 2.12786E+01-1.12665E+00-6.05280E-04 1.77410E+00-2.45439E-13-7.54331E-14
 -1      1025 1.99999E+01-1.77604E-04 1.35117E-10-1.61076E-05 1.80358E-14-4.57890E-13
 -1      1026 2.21108E+01-1.34453E+00-1.41628E-03 5.86743E-01-1.58012E-13-9.73050E-14
 -1      1027 1.99135E+01 1.09623E-01-6.49548E-05 8.01916E-02-1.41349E-13-5.23703E-14
 -1      1028 1.99405E+01 8.60472E-02 1.78341E-05 4.30279E-02-1.06017E-13 6.48300E-14
 -1      1029 1.99603E+01 6.59092E-02-1.29146E-05 2.07439E-02-2.29693E-13 1.87932E-13
 -1      1030 1.99742E+01 4.99096E-02-5.42443E-06 8.90159E-03-1.81595E-13 1.90067E-13
 -1      1031 1.99840E+01 3.71763E-02-1.57326E-06 2.68598E-03-2.70004E-13 9.61519E-14
 -1      1032 1.99907E+01 2.72504E-02 3.31409E-07-2.76114E-04-3.49912E-14 2.56006E-14
 -1      1033 1.99952E+01 1.96385E-02 1.11012E-06-1.44487E-03 3.05340E-14-2.55671E-14
 -1      1034 1.99981E+01 1.38785E-02 7.98901E-07-1.69228E-03-3.64057E-14-8.72571E-14
 -1      1035 2.00000E+01 9.40175E-03 6.59312E-07-1.50616E-03 1.30935E-13-1.13442E-13
 -1      1036 2.00010E+01 6.29431E-03 1.05226E-06-1.17559E-03 1.58579E-13-2.00067E-13
 -1      1037 2.00015E+01 4.04129E-03 8.37350E-07-8.34377E-04-2.12715E-13-2.72330E-13
 -1      1038 2.00017E+01 2.44006E-03 6.28389E-07-5.41027E-04-3.41982E-14-1.42727E-13
 -1      1039 2.00017E+01 1.32753E-03 4.52745E-07-3.13171E-04-2.08311E-13-2.23552E-14
 -1      1040 2.00016E+01 5.76671E-04 3.12106E-07-1.49107E-04-1.68801E-13 2.37884E-15
 -1      1041 2.00014E+01 8.94877E-05 2.72288E-07-3.89000E-05-8.71530E-14-6.24387E-14
 -1      1042 2.00011E+01-2.20553E-04 1.29333E-07 3.20245E-05 3.14556E-13 6.14069E-14
 -1      1043 2.00009E+01-3.80917E-04 6.08194E-08 6.87499E-05-4.50747E-14 1.93378E-13
 -1      1044 2.00007E+01-4.53484E-04 2.96489E-08 8.50612E-05-1.42043E-13 1.72337E-13
 -1      1045 2.00005E+01-4.68357E-04 1.04085E-08 8.81263E-05-1.12518E-13 1.40193E-13
 -1      1046 2.00004E+01-4.47531E-04-1.01462E-10 8.32778E-05-5.75305E-14-1.09618E-13
 -1      1047 2.00003E+01-4.06408E-04 2.60510E-08 7.42176E-05-1.00376E-13 7.89556E-14
 -1      1048 2.00001E+01-3.53331E-04 1.92602E-09 6.30559E-05 2.31502E-13 1.10339E-13
 -1      1049 2.00001E+01-3.00317E-04-2.44533E-08 5.22512E-05-7.25327E-14 7.19327E-14
 -1      1050 2.00000E+01-2.49408E-04-1.25539E-07 4.16881E-05 1.86112E-13 2.58751E-13
 -1      1051 1.99984E+01 1.10258E-02 4.60276E-07 9.07248E-04-1.35120E-13 8.25302E-15
 -1      1052 1.99795E+01 3.80967E-02 2.02444E-06 2.78279E-02-8.38690E-14-3.24768E-14
 -1      1053 1.99849E+01 3.20798E-02 2.10456E-06 1.60018E-02-2.05307E-13-4.75785E-14
 -1      1054 1.99964E+01 1.51134E-02 1.33580E-07 2.24395E-03-1.97752E-14-2.31264E-14
 -1      1055 1.99935E+01 2.00794E-02 2.90865E-07 4.65260E-03 6.98339E-14 4.15819E-14
 -1      1056 1.99998E+01 7.78070E-03 1.98041E-07 1.99673E-04 6.65793E-14-1.80529E-13
 -1      1057 2.00007E+01 5.28056E-03-3.16440E-08-1.47848E-04 2.01917E-14-3.21267E-13
 -1      1058 2.00012E+01 3.41046E-03 3.91508E-08-2.99673E-04-6.12181E-14-1.69057E-13
 -1      1059 2.00014E+01 2.05058E-03 7.56774E-08-3.47189E-04 1.55764E-14-2.57383E-13
 -1      1060 2.00014E+01 1.09192E-03 9.23114E-08-3.42243E-04 8.89954E-14-1.15062E-13
 -1      1061 2.00013E+01 4.40240E-04 9.32952E-08-3.13172E-04-1.24005E-13 1.62912E-13
 -1      1062 2.00012E+01 1.69307E-05 4.85904E-08-2.75037E-04 3.71854E-14 4.35740E-13
 -1      1063 2.00010E+01-2.39320E-04 1.06770E-07-2.35264E-04-5.72644E-14 1.66154E-13
 -1      1064 2.00008E+01-3.78862E-04 8.82955E-08-1.97627E-04-1.52862E-13-1.70418E-13
 -1      1065 2.00006E+01-4.38617E-04 7.05432E-08-1.63682E-04-5.68085E-14-3.75502E-13
 -1      1066 2.00005E+01-4.46370E-04 5.44153E-08-1.33926E-04-7.96473E-14-7.22034E-14
 -1      1067 2.00003E+01-4.22295E-04 3.46925E-08-1.08353E-04 1.90868E-13 2.74650E-13
 -1      1068 2.00002E+01-3.80701E-04-1.83711E-09-8.66041E-05 5.01703E-14 2.36983E-13
 -1      1069 2.00001E+01-3.31005E-04 1.93887E-08-6.84321E-05-7.36704E-14 1.69924E-13
 -1      1070 2.00000E+01-2.79874E-04 3.21930E-08-5.35937E-05 1.01177E-13 7.43820E-15
 -1      1071 2.00000E+01-2.30435E-04-1.16916E-07-4.16515E-05-1.37275E-13-4.03443E-13
 -1      1072 2.18508E+01-1.33305E+00-7.59112E-04 1.18650E+00-2.82223E-13 3.51931E-14
 -1      1073 2.14162E+01-1.04002E+00-5.21834E-04 6.33744E-01-2.40900E-13-1.37952E-14
 -1      1074 2.00972E+01-1.10752E-01 1.90857E-04 4.30144E-01-9.39930E-14 2.70904E-14
 -1      1075 1.99870E+01 1.50128E-02 6.48170E-05 1.92117E-01-7.72443E-14-1.35281E-13
 -1      1076 1.90858E+01 3.79691E-01 6.11164E-04 1.54802E+00-4.83540E-14-1.74362E-14
 -1      1077 2.00225E+01-2.94478E-02 8.03491E-05 2.91651E-01-2.11368E-13 2.32749E-14
 -1      1078 1.99896E+01 2.58386E-02 1.03122E-06 8.85944E-03-2.43482E-13-5.13289E-14
 -1      1079 1.98803E+01 1.33448E-01-8.84170E-05 1.41960E-01-1.97943E-13-1.32818E-13
 -1      1080 1.98398E+01 1.55418E-01-1.44497E-04 2.39603E-01-6.45831E-14-1.82432E-13
 -1      1081 1.99999E+01-2.01794E-04-5.92326E-08 3.25107E-05-3.45356E-13 7.23414E-13
 -1      1082 1.99745E+01 4.23940E-02-4.49993E-05 4.65472E-02-3.78628E-14-3.66173E-14
 -1      1083 2.02379E+01-2.45904E-01 8.16394E-04 6.12604E-01-8.19416E-14-7.94310E-15
 -1      1084 2.09037E+01-7.38473E-01-1.21662E-03 5.74043E-01-1.17968E-13 4.80823E-16
 -1      1085 1.99732E+01 3.66691E-02 1.66574E-04 1.22791E-01-1.28305E-13 2.04051E-14
 -1      1086 1.98042E+01-5.08981E-02-5.23977E-04 1.32362E+00-8.75114E-14-4.52316E-14
 -1      1087 1.97489E+01 9.68579E-02 7.40656E-04 9.06502E-01-6.55845E-14 4.12872E-15
 -1      1088 1.97955E+01 1.66413E-01-2.15856E-04 3.94827E-01-1.53544E-13-1.00764E-13
 -1      1089 2.04834E+01-5.86464E-01-7.34909E-04 1.56191E+00-2.16037E-13-2.27286E-14
 -1      1090 1.97780E+01-1.26044E-01 1.75423E-03 1.67820E+00-1.90120E-13-7.17135E-15
 -1      1091 1.99999E+01-2.12714E-04 1.50536E-07 7.62562E-06-1.71444E-13-6.71990E-14
 -1      1092 1.99533E+01 6.41430E-02-1.05387E-04 7.42095E-02-1.39912E-13-2.26015E-13
 -1      1093 2.10570E+01-8.96610E-01 9.18603E-06 1.22059E+00-2.11998E-13-7.87200E-14
 -1      1094 1.99712E+01 4.32768E-02-1.64273E-05 7.60334E-02-1.78666E-13-7.40305E-14
 -1      1095 1.97614E+01 1.51691E-01-3.84439E-04 6.06573E-01-7.89805E-14-2.45077E-14
 -1      1096 2.05155E+01-5.13306E-01 3.27836E-04 1.06342E+00-1.01415E-13-8.70917E-14
 -1      1097 5.02369E+01 1.65127E+01 4.80504E+00-7.31984E+00 5.55112E-15 2.15383E-12
 -1      1098 3.00408E+01 9.29378E+00 9.38387E-01-3.69658E-01-6.43929E-15 9.51919E-13
 -1      1099 1.73748E+01 5.21329E+00 2.83040E-03 1.59795E+00 1.24345E-14 2.41598E-13
 -1      1100 7.55501E+00 2.08033E+00-6.20525E-01 1.01234E+00 1.22125E-14-9.81021E-14
 -1      1101 2.24140E+00 4.02390E-01-9.00018E-01-1.20642E+00-6.10623E-16-1.63565E-13
 -1      1102 1.89986E+00 3.29689E-01-8.00833E-01-3.59767E+00-1.55154E-14-1.13966E-13
 -1      1103 5.60778E+00 1.56085E+00-4.04884E-01-5.45983E+00-2.62013E-14-8.90676E-14
 -1      1104 1.13847E+01 3.43419E+00 6.25714E-02-6.24227E+00-3.07532E-14-1.32313E-13
 -1      1105 1.75897E+01 5.40433E+00 4.24699E-01-5.57063E+00-3.26406E-14-2.43772E-13
 -1      1106 2.29700E+01 7.07534E+00 6.14365E-01-3.44787E+00-2.76446E-14-4.25979E-13
 -1      1107 2.53689E+01 7.76820E+00 5.25014E-01-1.01123E+00-1.80411E-14-6.57172E-13
 -1      1108 2.52741E+01 7.67816E+00 3.19695E-01 7.70690E-01-1.13937E-14-8.90122E-13
 -1      1109 2.40768E+01 7.27218E+00 1.63804E-01 1.84158E+00-7.16094E-15-1.07928E-12
 -1      1110 2.25907E+01 6.80204E+00 8.27277E-02 2.47861E+00-2.91434E-15-1.19867E-12
 -1      1111 2.11221E+01 6.35104E+00 4.80588E-02 2.92937E+00 1.36002E-15-1.23983E-12
 -1      1112 1.97825E+01 5.94434E+00 3.19561E-02 3.34072E+00 5.60663E-15-1.16019E-12
 -1      1113 1.87069E+01 5.61729E+00 1.73471E-02 3.79105E+00 9.85323E-15-8.92847E-13
 -1      1114 1.83013E+01 5.50325E+00 4.28441E-02 4.38123E+00 1.53696E-14-2.33237E-13
 -1      1115 2.17874E+01 6.89203E+00 1.18594E+00 5.78479E+00 7.34690E-14 1.43995E-12
 -1      1116 5.76474E+01 5.49351E+00 2.66368E+00-4.87761E+00-2.30094E-14 3.10824E-12
 -1      1117 4.97175E+01 1.38921E-01 4.42515E-01-1.08067E-01 4.57967E-15 3.67850E-12
 -1      1118 4.28265E+01 3.47420E-01 3.77537E-01-1.01357E+00-1.28109E-14 4.02900E-12
 -1      1119 3.04613E+01-5.69265E-02-1.34519E+00-1.42176E+00-2.44249E-14 3.87201E-12
 -1      1120 2.02060E+01-6.49963E-01-2.96960E+00-5.46480E-01-5.35960E-14 2.78932E-12
 -1      1121 1.97782E+01-5.66832E-01-2.65146E+00 8.31732E-01-4.09950E-14 1.26621E-12
 -1      1122 2.74589E+01-8.34626E-02-8.76738E-01 1.22903E+00 2.65066E-15 2.10942E-13
 -1      1123 3.49511E+01 3.33813E-01 4.97625E-01 7.27838E-01 2.35836E-14-2.12164E-13
 -1      1124 3.75180E+01 2.43617E-01 7.18657E-01 1.29667E-01 1.01152E-14 1.04750E-13
 -1      1125 3.50520E+01 3.81479E-02 2.99362E-01-1.60575E-01 7.72472E-15 4.15473E-13
 -1      1126 3.08250E+01-5.65909E-02-3.43438E-02-1.82428E-01 7.49227E-15 7.43322E-13
 -1      1127 2.71166E+01-7.53567E-02-1.39814E-01-1.25571E-01-3.60562E-15 9.59482E-13
 -1      1128 2.44175E+01-6.08396E-02-1.25762E-01-7.49535E-02 5.81653E-15 9.90888E-13
 -1      1129 2.26605E+01-4.69927E-02-8.88665E-02-3.60929E-02-1.82319E-15 9.83873E-13
 -1      1130 2.15989E+01-3.19761E-02-5.61258E-02-1.78595E-02-2.04069E-14 8.59195E-13
 -1      1131 2.09487E+01-2.09991E-02-3.40279E-02-8.22658E-03-4.64878E-14 6.04692E-13
 -1      1132 2.05557E+01-1.34917E-02-2.02943E-02-3.42695E-03-1.43028E-14 5.94908E-13
 -1      1133 2.03201E+01-8.67269E-03-1.20911E-02-1.15646E-03-6.54208E-16 4.17773E-13
 -1      1134 2.01777E+01-4.94823E-03-6.89010E-03-3.91959E-04 1.45962E-14 2.28757E-13
 -1      1135 2.00942E+01-3.27104E-03-4.07570E-03 2.96664E-04 4.07763E-14-3.03920E-14
 -1      1136 2.00471E+01-2.03501E-03-2.40747E-03 4.06466E-04-4.28628E-15 2.36758E-14
 -1      1137 2.00200E+01-1.26182E-03-1.41350E-03 3.96906E-04 4.92619E-14 2.38841E-13
 -1      1138 2.00049E+01-7.80312E-04-8.24255E-04 3.43434E-04-5.22993E-14 5.53847E-13
 -1      1139 1.99967E+01-4.81168E-04-4.76244E-04 2.80266E-04-2.99946E-14 2.07948E-13
 -1      1140 1.99927E+01-3.01515E-04-2.73011E-04 2.22254E-04-2.10759E-14-3.42090E-13
 -1      1141 1.99911E+01-1.65538E-04-1.44832E-04 1.65843E-04-6.20013E-15-7.25243E-14
 -1      1142 1.99909E+01-1.02827E-04-7.41139E-05 1.31648E-04-1.20209E-14-2.49702E-13
 -1      1143 1.99914E+01-5.92066E-05-3.39289E-05 1.02059E-04 5.51658E-14-1.48208E-13
 -1      1144 1.99922E+01-3.17353E-05-1.02147E-05 7.86815E-05 3.69141E-14-1.54921E-13
 -1      1145 1.99932E+01-1.47453E-05 3.24030E-06 6.05776E-05-3.97551E-14 5.41120E-15
 -1      1146 1.99942E+01-4.84982E-06 1.04064E-05 4.67445E-05 2.71493E-14 1.17155E-15
 -1      1147 1.99951E+01 1.98287E-06 1.36716E-05 3.61314E-05-4.65843E-15 2.40193E-13
 -1      1148 1.99960E+01 5.43417E-06 1.53711E-05 2.68857E-05-3.70349E-14-4.17692E-13
 -1      1149 1.99968E+01 6.95427E-06 1.50694E-05 2.05517E-05 9.03176E-14-8.12354E-13
 -1      1150 1.99974E+01 7.48092E-06 1.40812E-05 1.55156E-05 6.86469E-14-6.83978E-13
 -1      1151 1.99979E+01 7.34852E-06 1.26781E-05 1.15912E-05-2.40567E-14-5.19178E-13
 -1      1152 1.99984E+01 6.83115E-06 1.10994E-05 8.55185E-06 4.92090E-15-6.18551E-13
 -1      1153 1.99987E+01 6.15840E-06 9.52795E-06 6.24118E-06-3.13718E-15-9.19406E-13
 -1      1154 1.99990E+01 5.04499E-06 7.78147E-06 4.69550E-06-6.44448E-15-7.25840E-13
 -1      1155 1.99992E+01 4.46633E-06 6.50363E-06 3.01045E-06 7.30996E-14-5.27941E-13
 -1      1156 1.99994E+01 3.69850E-06 5.26079E-06 2.04384E-06 8.58332E-15-3.81234E-13
 -1      1157 1.99995E+01 3.01420E-06 4.19449E-06 1.32502E-06 1.38366E-14-7.52923E-13
 -1      1158 1.99996E+01 2.41921E-06 3.29603E-06 8.09652E-07 3.07066E-14-3.06599E-13
 -1      1159 1.99997E+01 1.94273E-06 2.56837E-06 4.51896E-07-7.10741E-14-2.75135E-13
 -1      1160 1.99997E+01 1.41377E-06 1.91987E-06 2.66327E-07 4.15882E-14-3.26480E-13
 -1      1161 1.99998E+01 1.14701E-06 1.48657E-06 2.27893E-08 5.55421E-14-6.28272E-13
 -1      1162 1.99998E+01 8.91165E-07 1.16338E-06-9.39517E-08-4.27718E-14-7.97220E-13
 -1      1163 1.99998E+01 6.96346E-07 9.39467E-07-1.98206E-07-3.43858E-15-1.20345E-12
 -1      1164 1.99998E+01 5.31403E-07 7.20871E-07-3.30735E-07 1.26454E-13-9.63378E-13
 -1      1165 1.99998E+01 2.72185E-07 2.23312E-07-5.08410E-07-1.22530E-14-7.34024E-13
 -1      1166 1.99998E+01 9.94311E-08-8.30545E-07-3.35590E-07-4.05366E-15-7.95993E-13
 -1      1167 2.38002E+01 4.33396E-01 4.04708E-01 1.89275E+00-3.62592E-14 2.91089E-12
 -1      1168 1.54937E+01-7.76677E-02-5.88542E-01 1.26693E-01 4.22162E-14 1.95130E-12
 -1      1169 1.39978E+01-5.33166E-02-2.27259E-01 2.99525E-02 2.82430E-14 1.12666E-12
 -1      1170 1.36199E+01-3.67531E-02-8.66064E-02 6.48023E-03 2.31100E-14 5.56971E-13
 -1      1171 1.38433E+01-2.65509E-02-4.43171E-02-5.90536E-03 1.45318E-14 1.82000E-13
 -1      1172 1.44488E+01-1.61829E-02-2.59267E-02-1.37369E-02 4.19478E-15-5.49144E-14
 -1      1173 1.52821E+01-7.02646E-03-1.15924E-02-1.93902E-02 1.12159E-14-3.09336E-13
 -1      1174 1.62112E+01 3.88485E-04 1.13131E-03-2.23345E-02 2.22370E-16-4.61471E-13
 -1      1175 1.71242E+01 5.49553E-03 1.08179E-02-2.24768E-02-1.52349E-15-5.71321E-13
 -1      1176 1.79393E+01 8.20025E-03 1.64178E-02-2.03164E-02 2.32240E-14-7.39867E-13
 -1      1177 1.86106E+01 8.88556E-03 1.80960E-02-1.67554E-02 2.27943E-15-7.46674E-13
 -1      1178 1.91248E+01 8.19768E-03 1.68671E-02-1.27312E-02 1.37185E-14-7.48547E-13
 -1      1179 1.94927E+01 6.79163E-03 1.40124E-02-8.95787E-03-9.72638E-16-7.32961E-13
 -1      1180 1.97387E+01 5.17720E-03 1.06329E-02-5.83565E-03-5.51772E-15-6.61908E-13
 -1      1181 1.98914E+01 3.67369E-03 7.45719E-03-3.49107E-03-6.46672E-16-6.88625E-13
 -1      1182 1.99779E+01 2.43473E-03 4.84817E-03-1.87207E-03-3.06083E-14-6.87823E-13
 -1      1183 2.00209E+01 1.49972E-03 2.90205E-03-8.41087E-04 1.64338E-14-7.71472E-13
 -1      1184 2.00371E+01 8.43497E-04 1.56206E-03-2.40838E-04 4.23133E-14-9.60904E-13
 -1      1185 2.00385E+01 4.13098E-04 7.06531E-04 6.94471E-05 1.24801E-14-1.02186E-12
 -1      1186 2.00327E+01 1.50403E-04 2.03465E-04 1.99768E-04-1.46593E-15-8.92654E-13
 -1      1187 2.00244E+01 3.78639E-06-6.21632E-05 2.28171E-04 1.68992E-15-8.37232E-13
 -1      1188 2.00162E+01-6.75403E-05-1.79042E-04 2.05719E-04-1.06114E-14-5.83776E-13
 -1      1189 2.00092E+01-9.32924E-05-2.09904E-04 1.63282E-04 1.87374E-14-4.73376E-13
 -1      1190 2.00038E+01-9.37415E-05-1.96073E-04 1.17883E-04 2.88160E-14-6.23435E-13
 -1      1191 2.00000E+01-8.18953E-05-1.62985E-04 7.77366E-05-7.40202E-15-5.35607E-13
 -1      1192 1.99976E+01-6.55691E-05-1.25128E-04 4.58635E-05 2.11398E-14-7.68341E-13
 -1      1193 1.99962E+01-4.90860E-05-8.99314E-05 2.24873E-05 3.92377E-14-9.87523E-13
 -1      1194 1.99956E+01-3.45522E-05-6.05432E-05 6.52681E-06-4.82526E-14-8.85081E-13
 -1      1195 1.99955E+01-2.27506E-05-3.77093E-05-3.54634E-06-7.93986E-15-4.22036E-13
 -1      1196 1.99957E+01-1.37340E-05-2.09579E-05-9.25691E-06 4.12658E-14-8.78917E-13
 -1      1197 1.99962E+01-7.19751E-06-9.30673E-06-1.19225E-05 1.31478E-14-1.35183E-12
 -1      1198 1.99967E+01-2.69963E-06-1.65572E-06-1.25889E-05-6.19524E-14-1.08332E-12
 -1      1199 1.99972E+01 2.15566E-07 3.01569E-06-1.20368E-05 1.21697E-14-6.47444E-13
 -1      1200 1.99977E+01 1.95847E-06 5.56677E-06-1.08194E-05 4.03407E-14-1.10946E-12
 -1      1201 1.99981E+01 2.87024E-06 6.67677E-06-9.30980E-06 9.35128E-14-1.78767E-12
 -1      1202 1.99985E+01 3.21935E-06 6.85776E-06-7.74576E-06-2.01675E-14-1.62938E-12
 -1      1203 1.99988E+01 3.20811E-06 6.48055E-06-6.26795E-06-2.36097E-14-1.16408E-12
 -1      1204 1.99990E+01 2.98328E-06 5.80356E-06-4.95046E-06-3.72500E-14-1.06382E-12
 -1      1205 1.99992E+01 2.64740E-06 4.99973E-06-3.82358E-06-3.23741E-14-1.15321E-12
 -1      1206 1.99994E+01 2.26926E-06 4.17930E-06-2.89043E-06 2.13071E-14-1.40125E-12
 -1      1207 1.99995E+01 1.89286E-06 3.40821E-06-2.13841E-06 2.80986E-14-1.22146E-12
 -1      1208 1.99996E+01 1.54460E-06 2.72234E-06-1.54700E-06-1.27888E-13-6.89918E-13
 -1      1209 1.99997E+01 1.23901E-06 2.13842E-06-1.09268E-06 1.91862E-14-4.44401E-13
 -1      1210 1.99997E+01 9.82811E-07 1.66227E-06-7.51409E-07 6.51504E-15-9.53149E-13
 -1      1211 1.99998E+01 7.77028E-07 1.29395E-06-4.98985E-07-1.00287E-14-4.23083E-13
 -1      1212 1.99998E+01 6.17539E-07 1.03186E-06-3.12562E-07-3.38228E-14-4.51167E-14
 -1      1213 1.99998E+01 4.96369E-07 8.64553E-07-1.59435E-07-9.37639E-15 6.35967E-14
 -1      1214 1.99998E+01 3.67863E-07 6.83144E-07 1.34309E-08-7.91232E-15-1.99761E-13
 -1      1215 1.99998E+01 9.19817E-08 1.51228E-07 3.12662E-07-2.52798E-14-6.34620E-13
 -1      1216 1.99998E+01-3.21858E-07-9.27205E-07 2.96057E-07 1.58641E-13-5.12815E-13
 -1      1217 1.99998E+01 9.54099E-07-8.32726E-07 3.52475E-07-8.04686E-13-9.19386E-14
 -1      1218 1.99998E+01 4.04329E-06 3.00668E-07 5.69382E-07-1.13894E-12-2.60275E-14
 -1      1219 1.99998E+01 3.66114E-06 7.62239E-07 1.74272E-07-6.81766E-13-7.13755E-14
 -1      1220 1.99998E+01-2.17424E-06 5.96434E-07-1.23121E-07-2.26595E-13-5.48824E-14
 -1      1221 1.99998E+01-1.18851E-05 2.36828E-07-2.86628E-07 1.61272E-13-1.57468E-13
 -1      1222 1.99998E+01-2.29913E-05-1.43351E-07-3.29432E-07 3.03447E-13-6.42032E-14
 -1      1223 1.99998E+01-3.30660E-05-4.62597E-07-2.78292E-07 6.59681E-13-1.28263E-15
 -1      1224 1.99998E+01-4.00637E-05-6.75501E-07-1.54174E-07 1.05182E-13-7.98309E-14
 -1      1225 1.99998E+01-4.24636E-05-7.47046E-07 5.65573E-09-4.64396E-13-4.70016E-14
 -1      1226 1.99998E+01-3.97869E-05-6.67599E-07 1.64469E-07 2.06062E-13-3.66916E-14
 -1      1227 1.99998E+01-3.25662E-05-4.47124E-07 2.84762E-07-1.91473E-13-1.38349E-13
 -1      1228 1.99998E+01-2.23642E-05-1.22620E-07 3.34011E-07-5.00375E-13 7.52367E-14
 -1      1229 1.99998E+01-1.12654E-05 2.59076E-07 2.82457E-07-6.08470E-13 9.17050E-14
 -1      1230 1.99998E+01-1.68996E-06 6.05074E-07 1.08186E-07-9.11522E-13-3.21597E-14
 -1      1231 1.99998E+01 3.87564E-06 7.17446E-07-1.89317E-07-4.58540E-13-9.72727E-14
 -1      1232 1.99998E+01 4.15580E-06 3.00820E-07-5.63050E-07 7.41891E-13-2.11664E-14
 -1      1233 1.99998E+01 8.80410E-07-8.10204E-07-2.30193E-07 9.06053E-13-1.70079E-13
 -1      1234-9.00304E-01-2.08961E+01-3.58722E+00-1.70214E+00-1.08946E-12 4.01137E-14
 -1      1235-1.08343E+00-1.07875E+01-2.70896E+00-2.50123E+00 9.72777E-13 5.27856E-13
 -1      1236 1.90039E+00 1.97139E+00-1.41369E+00 2.37532E+00 2.57527E-12 1.64380E-12
 -1      1237 1.18694E+01 1.10531E+01 2.16188E-01 1.11413E+01 2.80509E-12 2.65543E-12
 -1      1238 2.91768E+01 1.28397E+01 1.80641E+00 1.83500E+01 2.23022E-12 3.24518E-12
 -1      1239 4.87185E+01 8.53559E+00 3.07309E+00 1.87201E+01 1.25144E-12 2.90135E-12
 -1      1240 6.25780E+01 3.29824E+00 3.77005E+00 1.03423E+01 4.20615E-13 1.90742E-12
 -1      1241 6.44650E+01 1.77951E+00 3.67038E+00-2.48537E+00 5.40817E-14 4.32487E-13
 -1      1242 5.37643E+01 4.62910E+00 2.75548E+00-1.32871E+01 3.53051E-13-1.01308E-12
 -1      1243 3.52262E+01 9.23055E+00 1.27817E+00-1.68115E+01 9.95204E-13-1.83964E-12
 -1      1244 1.77897E+01 1.10282E+01-1.98834E-01-1.36316E+01 1.58940E-12-1.89715E-12
 -1      1245 6.38624E+00 8.93320E+00-1.19790E+00-7.61237E+00 1.60127E-12-1.33482E-12
 -1      1246 1.33561E+00 5.00758E+00-1.26734E+00-2.77463E+00 1.11045E-12-6.24834E-13
 -1      1247 4.01877E-02 1.13243E+00-8.19509E-01-4.26783E-01 3.66485E-13-1.58859E-13
 -1      1248-1.08724E-01-3.01938E+00-6.64293E-01-2.37190E-01-4.26770E-13-5.97127E-14
 -1      1249-8.93953E-01-8.36504E+00-1.63008E+00-2.19060E+00-1.22702E-12-3.18245E-13
 -1      1250-3.25009E+00-1.14948E+01-3.41315E+00-5.19273E+00-1.98686E-12-9.73985E-13
 -1      1251-4.59379E+00-8.72136E+00-4.60795E+00-5.35172E+00-2.51443E-12-1.90398E-12
 -1      1252 1.66829E+00-1.15318E+00-3.85522E+00 7.56479E-01-2.55884E-12-2.86793E-12
 -1      1253 2.05978E+01 5.08150E+00-1.06352E+00 1.02611E+01-2.01683E-12-3.44569E-12
 -1      1254 4.97640E+01 5.83973E+00 3.04129E+00 1.49927E+01-1.10956E-12-2.94742E-12
 -1      1255 7.73198E+01 3.42239E+00 6.65879E+00 8.84809E+00-3.49276E-13-1.74016E-12
 -1      1256 8.81360E+01 2.91675E+00 8.18296E+00-5.54202E+00-1.51656E-13 1.86129E-13
 -1      1257 7.53267E+01 6.84612E+00 6.64724E+00-1.84519E+01-7.95641E-13 2.35545E-12
 -1      1258 4.82784E+01 1.15375E+01 3.48739E+00-2.16739E+01-1.98452E-12 3.71059E-12
 -1      1259 2.16782E+01 1.12270E+01 3.00567E-01-1.51853E+01-3.34821E-12 4.11648E-12
 -1      1260 4.98055E+00 3.94470E+00-1.92741E+00-4.82101E+00-4.50862E-12 3.77209E-12
 -1      1261-1.54467E+00-7.53496E+00-3.20967E+00 2.80861E+00-4.86011E-12 2.68863E-12
 -1      1262-2.05788E+00-1.80310E+01-3.81936E+00 4.66944E+00-3.86735E-12 1.26302E-12
 -1      1263-1.09284E+00-2.32647E+01-3.93769E+00 2.11573E+00-2.66819E-12 3.20785E-13
 -1      1264 4.46627E+01 2.21489E+00-4.32246E-01-1.50676E+00 9.60343E-14 2.21900E-12
 -1      1265 2.75260E+01 4.90714E+00 1.01681E-01 7.11151E-03 1.81188E-13 6.97026E-13
 -1      1266 3.38938E+01 6.28414E+00 2.38232E-01-1.90722E+00 1.56541E-13 1.07486E-12
 -1      1267 1.46567E+01 3.61250E+00-1.70620E-01 1.15461E+00 1.96509E-13 6.33799E-14
 -1      1268 2.09647E+01 5.30289E+00 2.71207E-01 7.36937E-01 1.63869E-13 3.17829E-13
 -1      1269 2.50058E+01 3.09170E+00 2.28608E-02-2.86482E-01 2.90323E-13 6.07403E-13
 -1      1270 4.95966E+00 2.94348E+00-3.16642E-01 2.86197E-01 9.73666E-14-2.22822E-13
 -1      1271 9.35904E+00 4.12770E+00 3.39117E-02 8.62750E-01 9.74776E-14-1.41762E-13
 -1      1272 1.21427E+01 3.25674E+00-7.59300E-02 5.76917E-01 2.11609E-13 8.13238E-15
 -1      1273 6.26597E-01 2.52479E+00-2.75743E-01-1.99105E+00-9.43412E-14-2.47496E-13
 -1      1274 2.04439E+00 3.02843E+00-1.98740E-01-9.96749E-01-5.52336E-14-2.75391E-13
 -1      1275 2.86487E+00 3.46479E+00-1.31490E-01-6.17253E-01-2.58404E-14-2.76668E-13
 -1      1276 1.58783E+00 2.51745E+00-1.59338E-01-3.91383E+00-2.75224E-13-1.84394E-13
 -1      1277 6.70783E-01 2.40721E+00-2.21592E-01-3.13562E+00-2.19956E-13-2.15661E-13
 -1      1278-4.43572E-01 3.04028E+00-2.23902E-01-2.51148E+00-3.04482E-13-3.03035E-13
 -1      1279 6.36641E+00 3.24453E+00 6.65574E-03-5.42197E+00-4.36318E-13-1.57950E-13
 -1      1280 3.56308E+00 2.57015E+00-1.78763E-01-4.82861E+00-3.77143E-13-1.40957E-13
 -1      1281 1.86287E+00 3.19270E+00-3.86122E-02-4.19029E+00-5.32463E-13-2.13274E-13
 -1      1282 1.26469E+01 3.97754E+00 2.11961E-01-5.92184E+00-5.07372E-13-1.88859E-13
 -1      1283 9.34908E+00 3.07036E+00-8.23319E-02-5.86151E+00-4.90719E-13-1.32852E-13
 -1      1284 7.39483E+00 3.57300E+00 8.16765E-02-5.32630E+00-7.27085E-13-1.38292E-13
 -1      1285 2.02564E+01 4.66349E+00 3.43507E-01-4.87341E+00-4.86333E-13-2.85886E-13
 -1      1286 1.66892E+01 3.69197E+00 1.09331E-01-5.56512E+00-5.04485E-13-1.87631E-13
 -1      1287 1.49559E+01 3.42122E+00 7.22010E-02-5.39986E+00-8.00915E-13-9.84560E-14
 -1      1288 2.50805E+01 5.44342E+00 2.56765E-01-2.40021E+00-3.48888E-13-4.67633E-13
 -1      1289 2.32421E+01 4.89316E+00 2.98935E-01-3.59035E+00-3.93685E-13-3.41793E-13
 -1      1290 2.25914E+01 3.50595E+00 1.04810E-01-3.67806E+00-6.99829E-13-1.52225E-13
 -1      1291 2.61327E+01 6.18250E+00 1.21490E-01-1.99028E-01-2.11314E-13-7.27904E-13
 -1      1292 2.59887E+01 6.10785E+00 2.90633E-01-1.16536E+00-2.38587E-13-5.88619E-13
 -1      1293 2.63332E+01 4.50662E+00 1.18705E-01-1.27180E+00-4.64496E-13-3.40766E-13
 -1      1294 2.52738E+01 6.54569E+00 4.43434E-02 1.20665E+00-1.16476E-13-9.65002E-13
 -1      1295 2.58705E+01 6.69573E+00 1.76086E-01 5.91285E-01-1.39753E-13-8.49654E-13
 -1      1296 2.65350E+01 5.55627E+00 8.38367E-02 4.58394E-01-2.77419E-13-6.03483E-13
 -1      1297 2.38077E+01 6.51889E+00 1.54620E-02 2.00144E+00-5.03764E-14-1.12913E-12
 -1      1298 2.45857E+01 6.73544E+00 8.22208E-02 1.64027E+00-6.86534E-14-1.05256E-12
 -1      1299 2.52221E+01 6.06558E+00 3.82366E-02 1.46484E+00-1.42927E-13-8.16836E-13
 -1      1300 2.22634E+01 6.25550E+00 8.04323E-03 2.50653E+00 1.97342E-14-1.22045E-12
 -1      1301 2.30339E+01 6.47662E+00 3.28705E-02 2.26406E+00-4.09395E-15-1.17915E-12
 -1      1302 2.35740E+01 6.08303E+00 8.83089E-03 2.05837E+00-3.99472E-14-9.61904E-13
 -1      1303 2.08252E+01 5.88547E+00 7.67573E-03 2.91228E+00 7.88258E-14-1.24191E-12
 -1      1304 2.15253E+01 6.08648E+00 1.06725E-02 2.70662E+00 6.02157E-14-1.24734E-12
 -1      1305 2.19929E+01 5.81009E+00-6.20387E-03 2.48455E+00 8.12753E-14-1.02715E-12
 -1      1306 1.95517E+01 5.48287E+00 4.97798E-03 3.33343E+00 1.58484E-13-1.12528E-12
 -1      1307 2.01563E+01 5.65041E+00-1.70873E-03 3.11193E+00 1.26260E-13-1.20266E-12
 -1      1308 2.05838E+01 5.38679E+00-1.58837E-02 2.88228E+00 1.82070E-13-1.01664E-12
 -1      1309 1.86169E+01 5.12761E+00-2.77642E-03 3.82782E+00 2.28574E-13-7.98681E-13
 -1      1310 1.90243E+01 5.21481E+00-1.79162E-02 3.55727E+00 1.87808E-13-1.00416E-12
 -1      1311 1.94331E+01 4.88652E+00-2.65375E-02 3.32933E+00 2.98589E-13-8.55815E-13
 -1      1312 1.84949E+01 4.80795E+00-7.63656E-03 4.53149E+00 2.29580E-13-2.25098E-14
 -1      1313 1.84080E+01 4.76421E+00-4.05480E-02 4.07795E+00 2.18601E-13-5.02209E-13
 -1      1314 1.87807E+01 4.28585E+00-3.17258E-02 3.86830E+00 3.85117E-13-4.26340E-13
 -1      1315 2.37544E+01 3.20564E+00 9.75576E-01 4.75372E+00 1.60705E-13 1.68721E-12
 -1      1316 1.89890E+01 3.50761E+00-1.43828E-01 4.27486E+00 1.47410E-13 4.52388E-13
 -1      1317 1.92512E+01 2.83230E+00-4.19501E-02 4.07211E+00 4.45182E-13 3.33927E-13
 -1      1318 1.77326E+01 3.44287E-01-7.62916E-01 1.43892E+00 2.80290E-13 1.53133E-12
 -1      1319 4.61799E+01-1.01451E+00-4.87563E-02-1.35799E+00 1.76831E-13 2.54544E-12
 -1      1320 4.38378E+01-7.06421E-01 1.76349E-01-1.54189E+00 1.21896E-13 2.77556E-12
 -1      1321 4.32905E+01-9.66168E-01 2.40415E-01-3.09685E+00 6.48075E-14 2.84511E-12
 -1      1322 3.88435E+01-7.91585E-01-1.56754E-01-3.72284E+00-9.21485E-15 2.87359E-12
 -1      1323 4.06599E+01-1.79063E+00 9.19350E-02-4.07815E+00 2.03802E-13 1.89079E-12
 -1      1324 3.79746E+01-2.30977E-01-2.59181E-01-4.57533E+00-1.87628E-13 2.79621E-12
 -1      1325 3.29347E+01 4.33179E-01-8.28589E-01-4.48494E+00-3.18079E-13 2.54013E-12
 -1      1326 3.97554E+01-1.11698E+00-1.04991E-01-7.01992E+00-1.73250E-13 1.84890E-12
 -1      1327 3.17944E+01 1.27494E+00-9.56531E-01-2.94398E+00-4.74398E-13 2.28306E-12
 -1      1328 2.90797E+01 1.67097E+00-1.19506E+00-1.99204E+00-5.51725E-13 1.66411E-12
 -1      1329 3.87906E+01 1.89651E+00-8.11978E-02-6.54124E+00-7.27862E-13 1.53627E-12
 -1      1330 2.83467E+01 1.37465E+00-1.24386E+00 9.31587E-01-6.09179E-13 1.31290E-12
 -1      1331 3.00702E+01 1.03999E+00-8.23990E-01 1.58383E+00-5.38514E-13 6.92224E-13
 -1      1332 3.71281E+01 3.60066E+00-1.70156E-01-1.21292E+00-1.07225E-12 1.06111E-12
 -1      1333 2.96652E+01 1.84963E-01-7.85349E-01 2.79795E+00-3.62294E-13 3.48999E-13
 -1      1334 3.29474E+01-3.12607E-01-2.37991E-01 2.63634E+00-3.11334E-13 6.49480E-15
 -1      1335 3.60448E+01 1.57530E+00-8.75682E-02 3.44766E+00-9.31200E-13 4.28324E-13
 -1      1336 3.27252E+01-6.78955E-01-9.22837E-02 1.78859E+00-1.07046E-13-1.50380E-13
 -1      1337 3.49778E+01-8.12381E-01 2.21418E-01 1.27593E+00 1.20190E-14-2.05502E-13
 -1      1338 3.46409E+01-1.06688E+00-1.31651E-01 3.56429E+00-3.69926E-13-4.55608E-14
 -1      1339 3.41434E+01-6.21809E-01 2.11217E-01-1.98315E-01 1.53537E-13-2.14717E-13
 -1      1340 3.40505E+01-4.50642E-01 2.24841E-01-5.86381E-01 1.73889E-13-2.05044E-15
 -1      1341 3.30506E+01-1.49147E+00 9.85575E-02 6.09873E-01 1.17496E-13-2.95111E-13
 -1      1342 3.27486E+01-2.25777E-01 1.42093E-01-1.32220E+00 1.07123E-13 6.06494E-14
 -1      1343 3.10812E+01-3.46260E-02 6.64216E-02-1.40795E+00 1.29726E-13 2.04906E-13
 -1      1344 3.05996E+01-7.27475E-01 8.92991E-02-1.92818E+00 2.34458E-13-2.19336E-13
 -1      1345 2.97848E+01 2.11716E-02 2.25606E-02-1.42998E+00 1.28615E-13 2.94861E-13
 -1      1346 2.78953E+01 1.14782E-01-2.37832E-02-1.37431E+00 1.07426E-13 4.44492E-13
 -1      1347 2.79956E+01-7.08283E-02 1.01018E-02-2.70377E+00 2.16918E-13-1.71252E-14
 -1      1348 2.68204E+01 1.01572E-01-2.19942E-02-1.12772E+00 2.89890E-14 5.35738E-13
 -1      1349 2.52954E+01 1.26436E-01-3.85677E-02-1.04961E+00 3.26596E-14 6.04961E-13
 -1      1350 2.57064E+01 1.85078E-01-2.81112E-02-2.37775E+00 1.41103E-13 1.60639E-13
 -1      1351 2.44467E+01 9.74464E-02-2.28656E-02-7.70862E-01-2.61371E-14 6.25243E-13
 -1      1352 2.33494E+01 9.65213E-02-2.52330E-02-7.04378E-01-1.20598E-14 5.65520E-13
 -1      1353 2.38716E+01 2.09179E-01-2.95894E-02-1.74086E+00 3.60736E-14 3.00305E-13
 -1      1354 2.27937E+01 7.52570E-02-1.10968E-02-4.98534E-01 2.55785E-14 5.74572E-13
 -1      1355 2.21174E+01 6.52934E-02-1.29605E-02-4.55856E-01-4.19786E-14 5.88963E-13
 -1      1356 2.25380E+01 1.56836E-01-2.36606E-02-1.16138E+00 1.26565E-14 3.19602E-13
 -1      1357 2.17396E+01 5.12225E-02-4.08084E-03-3.14334E-01 1.90473E-14 5.65721E-13
 -1      1358 2.13154E+01 4.18808E-02-5.80534E-03-2.86675E-01-2.26928E-14 5.42261E-13
 -1      1359 2.16462E+01 1.05737E-01-1.50992E-02-7.48619E-01-5.12750E-14 3.30143E-13
 -1      1360 2.10679E+01 3.32786E-02-5.81396E-04-1.94592E-01-9.43486E-14 5.25235E-13
 -1      1361 2.08070E+01 2.60711E-02-2.23342E-03-1.77306E-01-3.76131E-14 4.35381E-13
 -1      1362 2.10506E+01 6.70912E-02-9.29832E-03-4.70762E-01-6.48370E-14 3.45863E-13
 -1      1363 2.06478E+01 2.10703E-02 7.03957E-04-1.19150E-01 9.99981E-15 4.26633E-13
 -1      1364 2.04893E+01 1.59591E-02-6.68676E-04-1.08520E-01-4.32150E-14 4.57055E-13
 -1      1365 2.06621E+01 4.12932E-02-5.70244E-03-2.91677E-01-3.19710E-15 4.13920E-13
 -1      1366 2.03881E+01 1.32511E-02 9.98179E-04-7.24134E-02-1.36246E-13 4.00649E-13
 -1      1367 2.02923E+01 9.57914E-03-1.43745E-04-6.59027E-02-3.13590E-14 2.55537E-13
 -1      1368 2.04124E+01 2.49357E-02-3.55101E-03-1.79000E-01-1.06831E-13 3.78413E-13
 -1      1369 2.02259E+01 7.96324E-03 8.38432E-04-4.28887E-02 5.46633E-15 1.77895E-13
 -1      1370 2.01670E+01 5.56220E-03 1.54219E-04-3.87501E-02-3.46815E-14 1.27473E-13
 -1      1371 2.02509E+01 1.52844E-02-1.98241E-03-1.08065E-01-9.18469E-14 2.32710E-13
 -1      1372 2.01282E+01 4.95234E-03 6.96156E-04-2.55064E-02-6.69045E-14 2.70159E-14
 -1      1373 2.00952E+01 3.43049E-03 2.23039E-04-2.32110E-02 1.41279E-14-3.11984E-14
 -1      1374 2.01497E+01 8.63994E-03-1.36312E-03-6.43303E-02-9.95432E-14 7.32074E-14
 -1      1375 2.00710E+01 2.99957E-03 4.85170E-04-1.51413E-02 4.64799E-14-9.30059E-14
 -1      1376 2.00517E+01 2.05530E-03 1.99809E-04-1.37455E-02 4.89387E-15-4.11631E-14
 -1      1377 2.00885E+01 5.17389E-03-8.42743E-04-3.85744E-02-1.84631E-14-1.15308E-13
 -1      1378 2.00369E+01 1.83579E-03 3.39672E-04-8.84930E-03 6.19505E-14-1.85226E-14
 -1      1379 2.00257E+01 1.22432E-03 1.61683E-04-8.01023E-03 8.56482E-14 1.62773E-13
 -1      1380 2.00505E+01 3.05564E-03-5.28260E-04-2.28746E-02 8.77127E-14-1.05593E-13
 -1      1381 2.00167E+01 1.12129E-03 2.34211E-04-5.05022E-03-7.61517E-17 9.22316E-14
 -1      1382 2.00105E+01 7.24645E-04 1.24054E-04-4.54761E-03-5.42475E-14 1.35970E-13
 -1      1383 2.00271E+01 1.79427E-03-3.31067E-04-1.33278E-02 1.08554E-13-2.14533E-13
 -1      1384 2.00050E+01 6.83022E-04 1.59666E-04-2.76632E-03-1.70560E-13 1.76465E-13
 -1      1385 2.00017E+01 4.23409E-04 9.14558E-05-2.46657E-03-1.36452E-13-1.28868E-13
 -1      1386 2.00129E+01 1.04492E-03-2.07274E-04-7.54393E-03-1.34305E-13-1.10585E-13
 -1      1387 1.99986E+01 4.20065E-04 1.09929E-04-1.40402E-03-4.41451E-14-2.08374E-13
 -1      1388 1.99970E+01 2.38719E-04 6.46969E-05-1.22434E-03-2.75986E-15-2.34359E-13
 -1      1389 2.00044E+01 5.95801E-04-1.30786E-04-4.05778E-03-1.85967E-13-2.30407E-13
 -1      1390 1.99952E+01 2.47060E-04 7.37897E-05-5.77338E-04 1.24564E-13-1.91198E-13
 -1      1391 1.99946E+01 1.24541E-04 4.63971E-05-4.67430E-04-2.72813E-14-1.40208E-13
 -1      1392 1.99995E+01 3.50629E-04-7.48509E-05-1.94619E-03 3.02863E-14-2.73934E-13
 -1      1393 1.99937E+01 1.46048E-04 4.90006E-05-1.16183E-04-7.43852E-14-8.02836E-14
 -1      1394 1.99937E+01 6.98356E-05 3.45752E-05-6.12011E-05 1.02253E-13-5.89264E-14
 -1      1395 1.99969E+01 1.73789E-04-4.82971E-05-7.00868E-04 1.54078E-14-5.44176E-14
 -1      1396 1.99934E+01 8.12525E-05 3.21465E-05 1.33558E-04 3.97262E-14-7.70121E-14
 -1      1397 1.99936E+01 3.24009E-05 2.50133E-05 1.62510E-04-7.35290E-14-7.01502E-14
 -1      1398 1.99957E+01 8.87237E-05-2.82680E-05-1.67412E-05-1.94286E-14 8.03238E-14
 -1      1399 1.99936E+01 4.33561E-05 2.15768E-05 2.61586E-04 1.33692E-13-1.51351E-13
 -1      1400 1.99940E+01 1.03571E-05 1.81065E-05 2.74443E-04 1.36200E-13-8.27933E-14
 -1      1401 1.99953E+01 3.66018E-05-1.59833E-05 3.55009E-04 1.69529E-14-2.35426E-14
 -1      1402 1.99942E+01 2.01071E-05 1.45074E-05 3.15807E-04-1.16755E-14-6.81497E-14
 -1      1403 1.99946E+01-2.37978E-06 1.30828E-05 3.19165E-04-7.09967E-16-3.85340E-14
 -1      1404 1.99954E+01 6.64487E-06-8.22702E-06 5.36829E-04 9.71527E-14-1.33419E-13
 -1      1405 1.99949E+01 6.52785E-06 9.92910E-06 3.26141E-04-3.61190E-14 4.31350E-14
 -1      1406 1.99953E+01-9.60867E-06 9.68217E-06 3.24328E-04 7.29987E-14 1.58843E-13
 -1      1407 1.99957E+01-1.04243E-05-3.42857E-06 6.04234E-04 2.87052E-14 2.00485E-13
 -1      1408 1.99956E+01-1.64801E-06 6.92807E-06 3.10624E-04 3.89791E-15 7.54050E-14
 -1      1409 1.99960E+01-1.33229E-05 6.84306E-06 3.05446E-04-1.56307E-13-5.17130E-14
 -1      1410 1.99962E+01-1.81170E-05-5.54812E-07 6.03465E-04-4.31814E-14 1.88846E-13
 -1      1411 1.99963E+01-6.84915E-06 4.30120E-06 2.82152E-04-2.14134E-13-1.56101E-13
 -1      1412 1.99967E+01-1.36792E-05 5.07898E-06 2.75526E-04-9.62592E-14-4.48282E-13
 -1      1413 1.99967E+01-2.26762E-05 1.49097E-06 5.63508E-04-3.10482E-13-1.04990E-13
 -1      1414 1.99969E+01-9.30345E-06 2.79820E-06 2.48013E-04-3.55865E-15-4.75363E-13
 -1      1415 1.99973E+01-1.35367E-05 3.74303E-06 2.40937E-04-5.80067E-15-5.31785E-13
 -1      1416 1.99972E+01-2.31687E-05 2.42219E-06 5.05173E-04-1.78814E-13-1.49887E-13
 -1      1417 1.99975E+01-1.00542E-05 1.80439E-06 2.12467E-04 3.08058E-14-5.88331E-13
 -1      1418 1.99978E+01-1.26494E-05 2.73651E-06 2.05540E-04 8.95816E-14-5.30279E-13
 -1      1419 1.99977E+01-2.22872E-05 2.82171E-06 4.39441E-04-3.65151E-15-2.87367E-13
 -1      1420 1.99980E+01-9.90744E-06 1.12398E-06 1.78178E-04 1.90090E-14-4.15387E-13
 -1      1421 1.99982E+01-1.13725E-05 1.98568E-06 1.71751E-04-4.09476E-14-4.06266E-13
 -1      1422 1.99981E+01-2.04526E-05 2.89418E-06 3.73210E-04 1.24463E-13-4.89297E-13
 -1      1423 1.99984E+01-9.23711E-06 6.60728E-07 1.46669E-04 2.69139E-14-4.59504E-13
 -1      1424 1.99986E+01-9.93144E-06 1.42608E-06 1.40919E-04 5.21572E-14-4.28062E-13
 -1      1425 1.99985E+01-1.81599E-05 2.76609E-06 3.10600E-04-5.07957E-14-1.89277E-13
 -1      1426 1.99987E+01-8.31308E-06 3.44033E-07 1.18685E-04-1.41605E-13-4.63570E-13
 -1      1427 1.99989E+01-8.44143E-06 1.08537E-06 1.13699E-04-7.52183E-14-6.22632E-13
 -1      1428 1.99988E+01-1.56940E-05 2.54118E-06 2.53890E-04-9.91038E-14-2.19218E-13
 -1      1429 1.99990E+01-7.03375E-06 2.12284E-07 9.36845E-05 1.39608E-14-6.77510E-13
 -1      1430 1.99991E+01-7.00463E-06 7.08809E-07 8.92035E-05 5.94895E-14-5.47549E-13
 -1      1431 1.99990E+01-1.34743E-05 2.07003E-06 2.03185E-04-4.28529E-14-3.24084E-13
 -1      1432 1.99992E+01-6.10555E-06-4.18191E-09 7.31360E-05 1.09226E-13-6.64149E-13
 -1      1433 1.99993E+01-5.75792E-06 4.61725E-07 6.96543E-05 9.48026E-14-4.08391E-13
 -1      1434 1.99992E+01-1.09163E-05 1.91692E-06 1.59505E-04 6.31335E-14-4.62237E-13
 -1      1435 1.99994E+01-5.06032E-06-6.31836E-08 5.63896E-05-4.37857E-14-4.14421E-13
 -1      1436 1.99994E+01-4.65118E-06 3.01440E-07 5.35239E-05-8.41722E-14-6.83420E-13
 -1      1437 1.99994E+01-8.94232E-06 1.59350E-06 1.24058E-04 1.34509E-14-4.04229E-13
 -1      1438 1.99995E+01-4.13611E-06-1.04540E-07 4.27433E-05-1.24107E-13-5.70962E-13
 -1      1439 1.99995E+01-3.69646E-06 1.84082E-07 4.04369E-05 1.09616E-13-5.68277E-13
 -1      1440 1.99995E+01-7.18881E-06 1.30969E-06 9.49414E-05-5.73127E-14-4.82258E-13
 -1      1441 1.99996E+01-3.32701E-06-1.24359E-07 3.18124E-05 2.14771E-13-5.07051E-13
 -1      1442 1.99996E+01-2.89126E-06 1.04095E-07 2.99843E-05 2.13680E-14-1.98985E-13
 -1      1443 1.99996E+01-5.68983E-06 1.05875E-06 7.14062E-05 2.35246E-13-2.71106E-13
 -1      1444 1.99997E+01-2.66147E-06-1.35686E-07 2.31868E-05-1.11944E-13-1.53672E-14
 -1      1445 1.99997E+01-2.21334E-06 6.66175E-08 2.17523E-05-9.83833E-14-2.05163E-13
 -1      1446 1.99996E+01-4.42315E-06 8.49472E-07 5.26744E-05 2.99588E-14-9.29999E-14
 -1      1447 1.99997E+01-2.03424E-06-1.14762E-07 1.62490E-05-1.07429E-13-1.12497E-13
 -1      1448 1.99997E+01-1.66281E-06 1.96034E-08 1.50763E-05-1.34280E-14-1.57754E-13
 -1      1449 1.99997E+01-3.48796E-06 6.22032E-07 3.77152E-05-1.45696E-13 4.13226E-14
 -1      1450 1.99997E+01-1.60539E-06-1.11396E-07 1.10350E-05-2.00419E-13-1.95823E-13
 -1      1451 1.99998E+01-1.28826E-06-4.00868E-09 1.02026E-05 7.59660E-14-4.25802E-13
 -1      1452 1.99997E+01-2.57425E-06 5.14052E-07 2.60364E-05-1.33105E-13-8.03388E-14
 -1      1453 1.99998E+01-1.24507E-06-7.87509E-08 7.08406E-06 4.85533E-14-4.28147E-13
 -1      1454 1.99998E+01-9.89723E-07 8.77773E-10 6.43242E-06-3.89458E-14-7.15764E-13
 -1      1455 1.99998E+01-1.99633E-06 3.97016E-07 1.73086E-05 2.93676E-14-1.57497E-13
 -1      1456 1.99998E+01-9.95765E-07-4.04907E-08 3.99947E-06-1.49737E-14-5.82884E-13
 -1      1457 1.99998E+01-7.70729E-07 1.82132E-08 3.47550E-06 4.55677E-14-6.07250E-13
 -1      1458 1.99998E+01-1.57135E-06 3.15498E-07 1.05423E-05-4.26458E-14-4.26333E-13
 -1      1459 1.99998E+01-8.14163E-07-3.42615E-09 1.56193E-06 1.08925E-13-5.79664E-13
 -1      1460 1.99998E+01-5.79550E-07 6.51645E-09 1.12404E-06 1.40653E-13-3.93601E-13
 -1      1461 1.99998E+01-1.27012E-06 2.51475E-07 5.24018E-06 9.96040E-14-1.43465E-13
 -1      1462 1.99998E+01-5.52362E-07-2.53386E-08-2.34350E-07-7.51751E-14-4.74514E-13
 -1      1463 1.99998E+01-3.30772E-07-1.88149E-07-5.07475E-07-1.89467E-13-5.16934E-13
 -1      1464 1.99998E+01-9.24013E-07 1.62748E-07 1.19579E-06 9.99878E-15-8.20090E-14
 -1      1465 1.99998E+01-4.30061E-08-2.20117E-07-1.03151E-06-1.55958E-13-4.21958E-13
 -1      1466 1.99998E+01 2.39750E-07-6.21129E-07-6.39253E-07 1.29020E-13-1.08708E-13
 -1      1467 1.99998E+01 1.32248E-06-1.85857E-07-1.00661E-06 4.83420E-13 1.14114E-13
 -1      1468 1.99998E+01-4.81530E-07-4.99292E-08-9.60992E-07-1.38108E-13 3.94649E-15
 -1      1469 1.60990E+01 8.40303E-02-1.81544E-01 6.01979E-01 2.43840E-13 1.00361E-12
 -1      1470 1.76052E+01 2.88829E-01-2.21684E-01 8.40834E-01 2.04697E-13 1.43063E-12
 -1      1471 1.83686E+01 9.07891E-01-1.18159E-01 2.39958E+00 4.43860E-13 7.77656E-13
 -1      1472 1.50204E+01 4.85092E-02-4.15627E-02 1.95375E-01 1.53245E-13 5.39048E-13
 -1      1473 1.55086E+01 1.43439E-01-7.79295E-02 2.72217E-01 1.57898E-13 8.42593E-13
 -1      1474 1.66912E+01 2.35980E-01-7.44855E-02 9.09762E-01 3.56208E-13 4.62536E-13
 -1      1475 1.47604E+01 3.07068E-02-6.18474E-03-2.90716E-02 1.10131E-13 2.21073E-13
 -1      1476 1.48189E+01 7.97161E-02-8.52361E-03 2.17453E-02 1.17618E-13 4.27946E-13
 -1      1477 1.58966E+01 1.10269E-01-2.76619E-02 2.37567E-01 2.52229E-13 2.25372E-13
 -1      1478 1.49948E+01 1.93401E-02-1.52262E-04-1.66894E-01 6.00743E-14-6.50868E-15
 -1      1479 1.48061E+01 5.16271E-02 6.17136E-03-1.30608E-01 7.48152E-14 1.33747E-13
 -1      1480 1.57277E+01 5.35864E-02-1.68703E-02-1.46479E-01 1.78845E-13 4.16472E-14
 -1      1481 1.55401E+01 8.92195E-03 1.61131E-03-2.51618E-01 6.60600E-14-1.94528E-13
 -1      1482 1.51975E+01 3.36108E-02 6.21026E-03-2.27122E-01 6.16993E-14-7.71640E-14
 -1      1483 1.59561E+01 2.93294E-02-1.22938E-02-3.80324E-01 1.33463E-13-1.21680E-13
 -1      1484 1.62582E+01-2.72913E-04 3.75538E-03-2.91379E-01 4.57199E-14-3.57350E-13
 -1      1485 1.58336E+01 1.85307E-02 5.31936E-03-2.77598E-01 6.00752E-14-2.46001E-13
 -1      1486 1.64349E+01 1.13316E-02-7.60587E-03-5.11988E-01 1.18106E-13-2.80519E-13
 -1      1487 1.70336E+01-7.32584E-03 5.90361E-03-2.93081E-01 2.74766E-14-4.54397E-13
 -1      1488 1.65879E+01 5.63513E-03 5.14041E-03-2.88836E-01 2.58297E-14-3.99170E-13
 -1      1489 1.70413E+01-3.75774E-03-3.05612E-03-5.60576E-01 8.67459E-14-3.52663E-13
 -1      1490 1.77758E+01-1.16595E-02 7.20346E-03-2.66373E-01 2.56346E-14-5.29198E-13
 -1      1491 1.73566E+01-4.26136E-03 5.09473E-03-2.69501E-01 2.76374E-14-4.57474E-13
 -1      1492 1.76792E+01-1.49961E-02 7.52732E-04-5.42624E-01 4.61042E-14-4.24454E-13
 -1      1493 1.84241E+01-1.32701E-02 7.37243E-03-2.22761E-01-3.64184E-15-5.73314E-13
 -1      1494 1.80628E+01-1.05164E-02 4.71648E-03-2.30508E-01 1.58484E-14-5.28333E-13
 -1      1495 1.82772E+01-2.14959E-02 3.30145E-03-4.78622E-01 4.73406E-14-4.14930E-13
 -1      1496 1.89484E+01-1.27305E-02 6.59986E-03-1.73128E-01 1.15608E-14-5.59934E-13
 -1      1497 1.86596E+01-1.32742E-02 3.94995E-03-1.82851E-01 6.55270E-15-5.52617E-13
 -1      1498 1.87908E+01-2.34345E-02 4.51806E-03-3.90427E-01 1.20771E-14-3.72642E-13
 -1      1499 1.93442E+01-1.08751E-02 5.29572E-03-1.25718E-01-6.38812E-15-5.45265E-13
 -1      1500 1.91288E+01-1.33203E-02 2.96395E-03-1.35398E-01-1.64272E-14-5.39846E-13
 -1      1501 1.92005E+01-2.18926E-02 4.66809E-03-2.96960E-01 3.78170E-16-3.77617E-13
 -1      1502 1.96241E+01-8.48902E-03 3.86135E-03-8.53963E-02-3.80423E-14-5.12119E-13
 -1      1503 1.94737E+01-1.16864E-02 1.97595E-03-9.38141E-02-2.66866E-15-5.43655E-13
 -1      1504 1.95064E+01-1.83233E-02 4.14728E-03-2.11431E-01-1.86318E-14-3.51724E-13
 -1      1505 1.98095E+01-6.13646E-03 2.57151E-03-5.40348E-02-1.58901E-15-4.88059E-13
 -1      1506 1.97114E+01-9.30773E-03 1.14299E-03-6.06766E-02-2.73377E-14-4.84535E-13
 -1      1507 1.97208E+01-1.40420E-02 3.32116E-03-1.40863E-01-4.19528E-14-3.19997E-13
 -1      1508 1.99236E+01-4.12993E-03 1.55618E-03-3.14240E-02 2.14612E-14-5.04588E-13
 -1      1509 1.98643E+01-6.85187E-03 5.32585E-04-3.62656E-02 3.17372E-14-4.67437E-13
 -1      1510 1.98615E+01-9.96177E-03 2.45026E-03-8.72586E-02 2.12020E-14-3.39879E-13
 -1      1511 1.99876E+01-2.58186E-03 8.36140E-04-1.62355E-02-2.09647E-14-4.79192E-13
 -1      1512 1.99553E+01-4.69834E-03 1.40771E-04-1.95204E-02-3.13560E-14-4.98472E-13
 -1      1513 1.99475E+01-6.56373E-03 1.68170E-03-4.93851E-02 7.65208E-15-3.08674E-13
 -1      1514 2.00189E+01-1.47947E-03 3.71252E-04-6.75521E-03 4.47521E-14-5.85144E-13
 -1      1515 2.00039E+01-2.99984E-03-7.51092E-05-8.82712E-03 1.22316E-14-4.98602E-13
 -1      1516 1.99952E+01-3.99606E-03 1.07449E-03-2.44296E-02 1.87952E-14-3.44891E-13
 -1      1517 2.00303E+01-7.49227E-04 9.93262E-05-1.33330E-03 1.95062E-15-6.43373E-13
 -1      1518 2.00255E+01-1.76496E-03-1.68576E-04-2.53325E-03 5.44831E-14-5.68209E-13
 -1      1519 2.00180E+01-2.20547E-03 6.32836E-04-9.17806E-03 8.73935E-14-3.13295E-13
 -1      1520 2.00306E+01-3.00033E-04-4.07681E-05 1.40142E-03-8.15737E-15-5.94257E-13
 -1      1521 2.00314E+01-9.28777E-04-1.87530E-04 7.85220E-04-2.10175E-14-6.24316E-13
 -1      1522 2.00258E+01-1.04687E-03 3.33570E-04-6.92936E-04-5.52130E-16-3.04557E-13
 -1      1523 2.00258E+01-4.70630E-05-9.86950E-05 2.48261E-03-6.63205E-15-5.95182E-13
 -1      1524 2.00290E+01-4.01075E-04-1.67820E-04 2.23019E-03 9.24327E-15-5.95362E-13
 -1      1525 2.00254E+01-3.54812E-04 1.44352E-04 3.39337E-03-1.05714E-14-4.04582E-13
 -1      1526 2.00191E+01 7.82058E-05-1.10249E-04 2.63186E-03-6.48579E-14-5.56311E-13
 -1      1527 2.00230E+01-9.38406E-05-1.32889E-04 2.58793E-03-4.76452E-14-5.92838E-13
 -1      1528 2.00211E+01 1.88415E-05 3.37491E-05 4.82704E-03-1.16639E-14-3.92147E-13
 -1      1529 2.00126E+01 1.26156E-04-9.89165E-05 2.31938E-03-5.56450E-14-3.33203E-13
 -1      1530 2.00163E+01 6.62555E-05-9.61885E-05 2.38149E-03-9.74933E-14-4.82965E-13
 -1      1531 2.00155E+01 1.90508E-04-2.43178E-05 4.80558E-03-1.34616E-13-3.53320E-13
 -1      1532 2.00071E+01 1.31211E-04-7.88179E-05 1.83054E-03 9.81104E-14-4.34727E-13
 -1      1533 2.00101E+01 1.34571E-04-6.42356E-05 1.93558E-03 6.29562E-14-3.03010E-13
 -1      1534 2.00102E+01 2.43743E-04-4.94889E-05 4.09626E-03 3.71230E-14-2.71928E-13
 -1      1535 2.00028E+01 1.15388E-04-5.76505E-05 1.32419E-03-7.86683E-14-3.77294E-13
 -1      1536 2.00051E+01 1.49927E-04-3.92940E-05 1.43631E-03 1.76566E-14-4.44786E-13
 -1      1537 2.00057E+01 2.34265E-04-5.55378E-05 3.15603E-03 1.65911E-14-3.39828E-13
 -1      1538 1.99998E+01 9.18277E-05-3.90560E-05 8.78048E-04 6.94298E-14-4.20464E-13
 -1      1539 2.00014E+01 1.37856E-04-2.13324E-05 9.79106E-04 1.62454E-14-3.56016E-13
 -1      1540 2.00022E+01 1.96741E-04-5.15518E-05 2.23275E-03-9.40199E-15-2.95125E-13
 -1      1541 1.99979E+01 6.77263E-05-2.43151E-05 5.21183E-04 9.19872E-15-4.98627E-13
 -1      1542 1.99989E+01 1.14114E-04-9.28816E-06 6.03850E-04 1.05890E-15-4.76343E-13
 -1      1543 1.99998E+01 1.51157E-04-4.31735E-05 1.44217E-03 8.48075E-14-2.44205E-13
 -1      1544 1.99968E+01 4.65397E-05-1.34622E-05 2.55886E-04 6.28298E-14-5.62537E-13
 -1      1545 1.99973E+01 8.77224E-05-1.79706E-06 3.18921E-04 1.10313E-13-4.94261E-13
 -1      1546 1.99982E+01 1.07917E-04-3.36689E-05 8.22275E-04 1.27318E-13-1.51337E-13
 -1      1547 1.99963E+01 2.95209E-05-5.96768E-06 7.14574E-05-1.47979E-13-4.64970E-13
 -1      1548 1.99965E+01 6.33351E-05 2.43472E-06 1.16693E-04-1.04826E-13-6.17239E-13
 -1      1549 1.99973E+01 7.15692E-05-2.47553E-05 3.69222E-04-4.16169E-14-2.21834E-13
 -1      1550 1.99963E+01 1.67308E-05-1.12280E-06-4.76147E-05 7.47459E-14-3.29716E-13
 -1      1551 1.99962E+01 4.29404E-05 4.47676E-06-1.70967E-05 1.30567E-14-3.59473E-13
 -1      1552 1.99969E+01 4.33381E-05-1.71953E-05 5.97872E-05-3.26591E-14-2.43546E-13
 -1      1553 1.99965E+01 7.66298E-06 1.76330E-06-1.17191E-04 1.78158E-13-7.95325E-13
 -1      1554 1.99963E+01 2.70090E-05 5.14060E-06-9.80820E-05 1.77312E-13-5.37783E-13
 -1      1555 1.99969E+01 2.27457E-05-1.12009E-05-1.35572E-04 2.77756E-13-2.30605E-13
 -1      1556 1.99968E+01 1.60845E-06 3.27890E-06-1.51332E-04-1.26952E-13-8.56194E-13
 -1      1557 1.99966E+01 1.52306E-05 5.00348E-06-1.40609E-04 8.98062E-15-8.81664E-13
 -1      1558 1.99970E+01 8.58385E-06-6.69312E-06-2.45743E-04 1.64023E-13-4.15564E-13
 -1      1559 1.99972E+01-2.14984E-06 3.88607E-06-1.61499E-04-1.15924E-13-6.07868E-13
 -1      1560 1.99970E+01 6.95823E-06 4.45347E-06-1.56640E-04-9.99820E-14-8.10600E-13
 -1      1561 1.99973E+01-5.42238E-07-3.46185E-06-2.95735E-04-1.18030E-13-3.70529E-13
 -1      1562 1.99976E+01-4.24464E-06 3.92731E-06-1.56497E-04 1.82646E-13-7.20670E-13
 -1      1563 1.99974E+01 1.46051E-06 3.73702E-06-1.55518E-04 7.59465E-14-6.82772E-13
 -1      1564 1.99976E+01-5.93857E-06-1.25719E-06-3.05622E-04 7.48102E-14-5.42280E-13
 -1      1565 1.99980E+01-5.19162E-06 3.64455E-06-1.42759E-04 6.38054E-14-9.73582E-13
 -1      1566 1.99978E+01-1.94893E-06 3.00042E-06-1.44177E-04 1.28027E-13-7.70966E-13
 -1      1567 1.99980E+01-8.70644E-06 1.61654E-07-2.90639E-04 2.18326E-13-5.63930E-13
 -1      1568 1.99984E+01-5.38810E-06 3.20105E-06-1.24777E-04 1.05595E-13-1.19207E-12
 -1      1569 1.99982E+01-3.85483E-06 2.32270E-06-1.27528E-04 1.56002E-13-9.39428E-13
 -1      1570 1.99983E+01-9.71399E-06 1.00401E-06-2.61801E-04 2.22259E-13-5.20404E-13
 -1      1571 1.99987E+01-5.12668E-06 2.70168E-06-1.05528E-04-2.03815E-13-8.60124E-13
 -1      1572 1.99985E+01-4.72516E-06 1.73983E-06-1.08882E-04-1.61681E-13-1.06720E-12
 -1      1573 1.99986E+01-9.61182E-06 1.44041E-06-2.26708E-04-1.08632E-13-5.02026E-13
 -1      1574 1.99989E+01-4.61408E-06 2.20977E-06-8.68673E-05-3.72650E-14-6.92589E-13
 -1      1575 1.99988E+01-4.91728E-06 1.26176E-06-9.03487E-05-4.69948E-14-7.91899E-13
 -1      1576 1.99989E+01-8.86677E-06 1.60335E-06-1.90335E-04-1.25898E-13-3.27483E-13
 -1      1577 1.99992E+01-3.99030E-06 1.76024E-06-6.98502E-05 1.00390E-13-1.02888E-12
 -1      1578 1.99990E+01-4.69351E-06 8.83958E-07-7.31673E-05 2.60853E-14-9.29282E-13
 -1      1579 1.99991E+01-7.80004E-06 1.59187E-06-1.55722E-04 7.04340E-14-6.85825E-13
 -1      1580 1.99993E+01-3.34556E-06 1.36937E-06-5.49813E-05-4.76470E-15-1.00381E-12
 -1      1581 1.99992E+01-4.23940E-06 5.94708E-07-5.79735E-05-6.11849E-14-9.88823E-13
 -1      1582 1.99993E+01-6.62281E-06 1.47741E-06-1.24542E-04 1.96694E-14-8.54562E-13
 -1      1583 1.99995E+01-2.73439E-06 1.04177E-06-4.24054E-05-6.21961E-14-1.05869E-12
 -1      1584 1.99994E+01-3.68124E-06 3.79663E-07-4.50011E-05 5.86452E-14-9.41134E-13
 -1      1585 1.99994E+01-5.46623E-06 1.30974E-06-9.75415E-05 1.39056E-14-7.65149E-13
 -1      1586 1.99996E+01-2.18653E-06 7.75269E-07-3.20452E-05-1.22391E-13-6.81444E-13
 -1      1587 1.99995E+01-3.10125E-06 2.24440E-07-3.42301E-05-7.08015E-14-8.93899E-13
 -1      1588 1.99995E+01-4.40546E-06 1.12216E-06-7.48620E-05-1.04112E-13-4.60797E-13
 -1      1589 1.99996E+01-1.71535E-06 5.64251E-07-2.36962E-05-1.93896E-13-3.79034E-13
 -1      1590 1.99996E+01-2.55012E-06 1.16025E-07-2.54914E-05-1.68802E-13-5.82897E-13
 -1      1591 1.99996E+01-3.47811E-06 9.35973E-07-5.62806E-05-2.46473E-13-4.58992E-13
 -1      1592 1.99997E+01-1.32408E-06 4.01988E-07-1.70910E-05 1.80395E-13-7.69420E-13
 -1      1593 1.99997E+01-2.05698E-06 4.34946E-08-1.85379E-05 1.22712E-13-5.13900E-13
 -1      1594 1.99997E+01-2.69807E-06 7.64046E-07-4.13704E-05 1.72715E-13-7.04569E-13
 -1      1595 1.99997E+01-1.01017E-06 2.82444E-07-1.19385E-05-1.42697E-13-7.63067E-13
 -1      1596 1.99997E+01-1.63733E-06-1.57604E-09-1.30896E-05-1.37149E-15-8.21238E-13
 -1      1597 1.99997E+01-2.06580E-06 6.13675E-07-2.96076E-05 9.56622E-14-7.44446E-13
 -1      1598 1.99998E+01-7.66660E-07 2.01944E-07-7.94837E-06-1.31318E-13-4.12313E-13
 -1      1599 1.99998E+01-1.29748E-06-2.44750E-08-8.86120E-06-9.84216E-14-7.17412E-13
 -1      1600 1.99997E+01-1.57384E-06 4.89244E-07-2.04378E-05-2.07216E-13-8.05691E-13
 -1      1601 1.99998E+01-5.84522E-07 1.60561E-07-4.85131E-06 2.05002E-14-2.52237E-13
 -1      1602 1.99998E+01-1.03646E-06-2.65634E-08-5.58233E-06-3.86824E-14-3.62840E-13
 -1      1603 1.99998E+01-1.20894E-06 3.94239E-07-1.33205E-05-1.46583E-13-4.94756E-13
 -1      1604 1.99998E+01-4.50773E-07 1.47094E-07-2.39868E-06-8.10654E-14-1.29565E-13
 -1      1605 1.99998E+01-8.51987E-07-6.67642E-09-3.00932E-06-9.33026E-15-1.80040E-13
 -1      1606 1.99998E+01-9.54471E-07 3.30279E-07-7.76897E-06-1.83120E-14-3.23601E-13
 -1      1607 1.99998E+01-3.20896E-07 8.80610E-08-4.40872E-07 1.45901E-13-3.33729E-13
 -1      1608 1.99998E+01-7.06646E-07 1.09858E-08-9.72449E-07 1.47592E-13-1.57933E-13
 -1      1609 1.99998E+01-7.96818E-07 2.63093E-07-3.37985E-06 1.66806E-13-1.25547E-13
 -1      1610 1.99998E+01-1.40525E-07-2.10100E-07 8.53353E-07 8.13497E-15-4.44694E-13
 -1      1611 1.99998E+01-4.63672E-07-6.58010E-08 4.43228E-07-1.56264E-13-5.94541E-13
 -1      1612 1.99998E+01-5.12929E-07 1.32854E-07-1.11789E-07 3.78612E-14-3.19848E-13
 -1      1613 1.99998E+01 5.29284E-07-4.19800E-07 7.04080E-07-2.46354E-13-2.25968E-13
 -1      1614 1.99998E+01 9.97292E-07 7.96752E-08-6.80139E-09-6.81712E-13-1.18073E-13
 -1      1615 1.99998E+01 5.11141E-07-1.44953E-07 3.00123E-07-5.63954E-13-9.01512E-14
 -1      1616 1.99998E+01-2.57300E-06 1.11745E-07-1.93577E-06-4.08145E-13 3.93225E-14
 -1      1617 1.99998E+01-8.45388E-07 7.24240E-08-1.46554E-06-5.26874E-13-2.24196E-16
 -1      1618 1.99998E+01-3.01727E-06 1.37315E-07-1.78694E-06-2.92552E-13 3.40167E-14
 -1      1619 1.99998E+01-9.53767E-06 8.33563E-08-3.58094E-06-1.86308E-13-4.70041E-15
 -1      1620 1.99998E+01-5.76521E-06 8.59762E-08-3.27135E-06-2.34354E-13 2.31563E-13
 -1      1621 1.99998E+01-8.18100E-06 1.93819E-07-5.23764E-06-1.79330E-13 1.76630E-13
 -1      1622 1.99998E+01-1.87178E-05 4.27467E-08-4.47418E-06 1.52191E-13-2.17781E-13
 -1      1623 1.99998E+01-1.37266E-05 4.59565E-08-4.36620E-06 3.79405E-14 8.06472E-14
 -1      1624 1.99998E+01-1.57263E-05 9.26093E-08-7.81621E-06-8.56584E-14 2.25632E-13
 -1      1625 1.99998E+01-2.80767E-05 1.70126E-08-4.39590E-06 4.24181E-14 9.37821E-14
 -1      1626 1.99998E+01-2.30815E-05 1.90810E-08-4.48464E-06 8.92297E-14-3.30817E-13
 -1      1627 1.99998E+01-2.44114E-05-1.55802E-08-8.73560E-06-4.46953E-14-1.97595E-13
 -1      1628 1.99998E+01-3.60620E-05 1.49107E-10-3.41302E-06 2.09033E-13-1.37301E-13
 -1      1629 1.99998E+01-3.19818E-05 1.35486E-09-3.67272E-06 1.43257E-13 6.91510E-14
 -1      1630 1.99998E+01-3.27718E-05-1.20576E-07-7.84596E-06-2.38209E-13 1.28440E-13
 -1      1631 1.99998E+01-4.09392E-05-8.52041E-09-1.74778E-06-8.48604E-14-1.87333E-13
 -1      1632 1.99998E+01-3.87064E-05-7.98379E-09-2.11906E-06 2.86391E-14-2.63763E-14
 -1      1633 1.99998E+01-3.93746E-05-2.00894E-07-5.37264E-06-1.23400E-13-2.66029E-13
 -1      1634 1.99998E+01-4.17793E-05-1.08580E-08 2.59611E-07 8.84499E-14 2.09147E-13
 -1      1635 1.99998E+01-4.18448E-05-1.10958E-08-1.49336E-07-6.30680E-14-6.03091E-14
 -1      1636 1.99998E+01-4.29514E-05-2.43643E-07-1.84222E-06 1.51277E-13-2.26802E-13
 -1      1637 1.99998E+01-3.84294E-05-7.01799E-09 2.21673E-06-1.30621E-13-8.63014E-14
 -1      1638 1.99998E+01-4.07814E-05-8.38859E-09 1.84974E-06-1.02545E-13 9.78002E-14
 -1      1639 1.99998E+01-4.28595E-05-2.42525E-07 2.04626E-06 1.30940E-14 8.36926E-14
 -1      1640 1.99998E+01-3.15454E-05 4.02054E-09 3.73831E-06-2.55484E-13-5.46426E-14
 -1      1641 1.99998E+01-3.57100E-05 9.51594E-11 3.48766E-06-1.37071E-13-4.15534E-14
 -1      1642 1.99998E+01-3.91159E-05-1.97329E-07 5.53840E-06-2.70404E-13-1.46874E-13
 -1      1643 1.99998E+01-2.26518E-05 2.16017E-08 4.50092E-06-1.34286E-13 2.31694E-14
 -1      1644 1.99998E+01-2.76736E-05 1.84820E-08 4.42126E-06-9.53780E-14-2.39563E-14
 -1      1645 1.99998E+01-3.24612E-05-1.17807E-07 7.93082E-06-7.86651E-14 7.76279E-15
 -1      1646 1.99998E+01-1.32411E-05 5.06443E-08 4.33483E-06-4.24644E-13-2.82764E-13
 -1      1647 1.99998E+01-1.82032E-05 4.76475E-08 4.45437E-06-1.94863E-13-1.52099E-14
 -1      1648 1.99998E+01-2.40544E-05-9.90843E-09 8.73617E-06 8.28146E-14-2.30009E-13
 -1      1649 1.99998E+01-5.41622E-06 7.22631E-08 3.20981E-06-5.64436E-13-2.04824E-14
 -1      1650 1.99998E+01-9.08697E-06 8.81817E-08 3.52080E-06-5.16701E-13 5.96117E-14
 -1      1651 1.99998E+01-1.53240E-05 1.02056E-07 7.72679E-06-4.07432E-14-1.82826E-13
 -1      1652 1.99998E+01-6.60803E-07 4.64378E-08 1.38033E-06-1.65414E-13 1.17114E-13
 -1      1653 1.99998E+01-2.24502E-06 1.28873E-07 1.80654E-06-5.40967E-13 1.19336E-13
 -1      1654 1.99998E+01-7.84366E-06 1.79343E-07 5.06383E-06-3.21256E-13 1.14510E-13
 -1      1655 1.99998E+01 7.39917E-07-1.08373E-07-2.16995E-07 4.02901E-13 3.06479E-13
 -1      1656 1.99998E+01 1.15920E-06 1.02591E-07 7.05772E-08-3.49991E-15 1.30306E-13
 -1      1657 1.99998E+01-2.94782E-06 1.53938E-07 1.74934E-06-2.18659E-13 3.13672E-13
 -1      1658 1.99998E+01-4.59102E-07-2.94204E-08-5.39018E-07-3.17705E-14 2.17529E-13
 -1      1659-2.24242E-01-1.18313E+01-1.63093E+00-1.58908E-03-4.24216E-13 4.41980E-13
 -1      1660-3.68966E-01-1.46639E+01-1.93289E+00 9.66152E-01-1.31145E-12 4.31766E-13
 -1      1661 2.39600E+00-4.51970E+00-1.02739E+00 2.19882E+00 8.53095E-13 9.93428E-13
 -1      1662 1.27502E+00-1.00216E+01-1.61771E+00 1.11755E+00-1.05138E-13 5.66814E-13
 -1      1663 8.46288E+00 2.94945E+00-3.40616E-01 6.59818E+00 1.66667E-12 1.47149E-12
 -1      1664 4.98756E+00-2.30922E+00-1.12446E+00 3.43970E+00 1.20570E-12 9.82492E-13
 -1      1665 1.94919E+01 7.55152E+00 4.18650E-01 1.18317E+01 1.74305E-12 1.94356E-12
 -1      1666 1.25657E+01 4.73332E+00-4.51059E-01 8.09770E+00 1.77414E-12 1.59428E-12
 -1      1667 3.40313E+01 7.64173E+00 1.08357E+00 1.38244E+01 1.31589E-12 1.97597E-12
 -1      1668 2.51181E+01 7.82466E+00 3.16009E-01 1.22058E+01 1.55831E-12 1.92224E-12
 -1      1669 4.70133E+01 5.89328E+00 1.60459E+00 1.17745E+01 8.54407E-13 1.68943E-12
 -1      1670 3.89377E+01 7.90096E+00 1.05933E+00 1.37343E+01 1.24004E-12 1.96265E-12
 -1      1671 5.36930E+01 3.85646E+00 1.62955E+00 4.50093E+00 4.64434E-13 9.11396E-13
 -1      1672 5.00000E+01 5.38786E+00 1.50401E+00 9.50845E+00 6.97095E-13 1.44035E-12
 -1      1673 5.17772E+01 3.93978E+00 1.31778E+00-3.69326E+00 3.79557E-13 1.21014E-14
 -1      1674 5.38226E+01 3.69410E+00 1.54901E+00 1.70888E+00 4.11338E-13 6.14869E-13
 -1      1675 4.28416E+01 5.56836E+00 7.53219E-01-9.96936E+00 5.73971E-13-7.62945E-13
 -1      1676 4.98694E+01 3.94294E+00 1.33167E+00-6.46426E+00 3.73590E-13-2.59237E-13
 -1      1677 2.97921E+01 6.98339E+00 2.47870E-04-1.12985E+01 7.96585E-13-1.02118E-12
 -1      1678 3.82814E+01 5.77009E+00 7.02861E-01-1.11105E+01 5.84699E-13-8.57869E-13
 -1      1679 1.70712E+01 7.67390E+00-6.35527E-01-1.01184E+01 9.48464E-13-1.05205E-12
 -1      1680 2.42074E+01 7.86056E+00 2.02727E-02-1.22236E+01 8.52873E-13-1.17661E-12
 -1      1681 8.15068E+00 6.39694E+00-8.76066E-01-6.63337E+00 7.24865E-13-6.74683E-13
 -1      1682 1.25678E+01 7.99373E+00-4.55567E-01-9.15699E+00 8.80518E-13-1.00303E-12
 -1      1683 3.29111E+00 4.09835E+00-6.39043E-01-3.54179E+00 1.84130E-13-3.01009E-13
 -1      1684 5.41582E+00 6.04303E+00-5.56312E-01-5.30142E+00 5.22249E-13-5.83006E-13
 -1      1685 7.40739E-01 1.32319E+00-3.90148E-01-1.63518E+00-2.29983E-13-1.38401E-13
 -1      1686 1.41150E+00 3.27863E+00-4.13396E-01-2.25906E+00 1.65867E-13-2.79537E-13
 -1      1687-3.26792E-01-2.07557E+00-4.52697E-01-1.71231E+00-6.90226E-13-2.03809E-13
 -1      1688 1.08972E-01 2.52677E-01-2.09974E-01-1.41980E+00-3.06533E-13-1.69101E-13
 -1      1689-1.40907E+00-5.07986E+00-1.10180E+00-2.86406E+00-1.15163E-12-5.01349E-13
 -1      1690-8.21859E-01-2.98266E+00-5.07595E-01-1.82595E+00-7.70384E-13-2.98067E-13
 -1      1691-1.49177E+00-5.34034E+00-1.91006E+00-3.05911E+00-1.49525E-12-1.03084E-12
 -1      1692-1.32857E+00-5.25810E+00-1.39649E+00-2.50084E+00-1.17226E-12-6.71130E-13
 -1      1693 2.26924E+00-3.51425E+00-2.28787E+00-6.56505E-01-1.70441E-12-1.62864E-12
 -1      1694 5.07990E-01-5.98333E+00-2.38307E+00-1.95582E+00-1.54665E-12-1.20539E-12
 -1      1695 1.45159E+01-6.15000E-01-1.51197E+00 4.14213E+00-1.52789E-12-1.96043E-12
 -1      1696 7.71467E+00-3.95365E+00-2.45662E+00 6.08337E-01-1.61293E-12-1.65201E-12
 -1      1697 3.26369E+01 1.60996E+00 1.23434E-01 7.65728E+00-1.21325E-12-2.02616E-12
 -1      1698 2.13265E+01-2.07041E-01-1.45319E+00 4.61684E+00-1.45606E-12-1.99663E-12
 -1      1699 5.28044E+01 2.33691E+00 2.10334E+00 6.72104E+00-7.49345E-13-1.43507E-12
 -1      1700 3.96546E+01 2.54796E+00 4.19422E-01 7.06778E+00-1.15441E-12-1.83631E-12
 -1      1701 6.63671E+01 3.08201E+00 3.50734E+00-1.41096E-01-4.95270E-13-3.50275E-13
 -1      1702 5.73726E+01 3.42469E+00 2.29540E+00 4.35996E+00-6.76542E-13-1.03650E-12
 -1      1703 6.82413E+01 4.49601E+00 3.70256E+00-7.21885E+00-6.94611E-13 8.93285E-13
 -1      1704 6.88068E+01 3.69034E+00 3.70624E+00-1.25193E+00-5.97689E-13-5.98965E-14
 -1      1705 5.64746E+01 6.14631E+00 2.37178E+00-1.20911E+01-1.24183E-12 1.97642E-12
 -1      1706 6.58542E+01 4.58043E+00 3.56959E+00-8.52540E+00-8.34610E-13 1.20415E-12
 -1      1707 3.86051E+01 6.26454E+00 7.24423E-01-1.25158E+01-1.90481E-12 2.55107E-12
 -1      1708 5.12626E+01 5.69064E+00 2.21874E+00-1.32051E+01-1.38511E-12 2.12030E-12
 -1      1709 2.10389E+01 4.21789E+00-6.54903E-01-9.53898E+00-2.77312E-12 2.76001E-12
 -1      1710 3.13399E+01 6.34096E+00 6.45822E-01-1.33073E+01-2.22400E-12 2.78111E-12
 -1      1711 9.55900E+00-1.83602E+00-1.46064E+00-4.40486E+00-3.13682E-12 2.35012E-12
 -1      1712 1.56385E+01 2.77349E+00-5.07672E-01-8.34414E+00-2.86726E-12 2.57616E-12
 -1      1713 2.40327E+00-8.30165E+00-1.96439E+00-4.20356E-01-3.16625E-12 1.73128E-12
 -1      1714 4.59337E+00-3.01120E+00-1.36909E+00-2.61005E+00-3.35287E-12 2.23599E-12
 -1      1715 2.64165E-02-1.35108E+01-2.05532E+00 8.14776E-01-2.42906E-12 1.01516E-12
 -1      1716 3.24312E-01-9.82389E+00-1.79328E+00 8.28863E-01-3.00071E-12 1.50190E-12
 -1      1717-5.82117E-01-1.50125E+01-1.94676E+00 3.65597E-01-1.61890E-12 3.94518E-13
 -1      1718-7.15511E-01-1.42786E+01-1.95570E+00 1.58744E+00-2.20707E-12 6.60999E-13
 -1      1719 4.34890E+01 1.74218E+00 4.34171E-01-1.68370E+00 1.87239E-13 2.03781E-12
 -1      1720 3.71568E+01 1.30153E+00 3.42643E-01-2.42434E+00 3.13860E-13 1.37249E-12
 -1      1721-1.14151E+00-9.62405E+00-1.39876E+00 1.22823E+00-1.01741E-12 8.99558E-13
 -1      1722 1.56245E+01 4.71249E-02-1.81938E-01 8.10752E+00 7.20424E-13 1.11278E-12
 -1      1723 1.99998E+01 7.03848E-07-1.71691E-07 1.12738E-06-3.25138E-13-3.00418E-13
 -1      1724 1.99998E+01-1.15156E-06-1.45531E-07 6.10143E-07 3.57154E-14-4.33339E-13
 -1      1725 1.39487E+00-7.65918E+00-1.11929E+00 3.65960E+00-4.24549E-13 9.94732E-13
 -1      1726 7.17447E+00-4.17586E+00-7.17714E-01 6.03117E+00 1.94400E-13 1.10137E-12
 -1      1727 2.63092E+01 3.45337E+00 4.56249E-01 9.05469E+00 8.62421E-13 1.10290E-12
 -1      1728 3.62086E+01 5.87147E+00 9.13558E-01 8.30822E+00 8.69249E-13 9.79883E-13
 -1      1729 4.38709E+01 7.37850E+00 1.33389E+00 6.26119E+00 8.07909E-13 8.23674E-13
 -1      1730 4.65323E+01 7.70632E+00 1.35906E+00 2.29092E+00 6.95000E-13 4.01602E-13
 -1      1731 4.50056E+01 7.05120E+00 1.17821E+00-1.88139E+00 6.52756E-13 4.00791E-14
 -1      1732 3.88191E+01 5.82370E+00 7.08686E-01-5.23476E+00 5.22672E-13-2.34590E-13
 -1      1733 2.96049E+01 5.18700E+00 2.52550E-01-7.91119E+00 4.00957E-13-4.17444E-13
 -1      1734 1.88397E+01 5.09801E+00-2.50368E-01-8.48188E+00 2.18270E-13-5.51725E-13
 -1      1735 9.98190E+00 4.57389E+00-4.83624E-01-6.67939E+00-1.28841E-13-4.27464E-13
 -1      1736 4.14102E+00 3.67429E+00-2.93374E-01-4.38550E+00-3.13971E-13-3.18953E-13
 -1      1737 7.57275E-01 1.74470E+00-1.85991E-01-3.02945E+00-4.69624E-13-2.97290E-13
 -1      1738-1.21343E+00-3.27192E-01-4.24381E-01-2.71106E+00-6.36990E-13-4.33126E-13
 -1      1739-1.75665E+00-1.71962E+00-9.66884E-01-2.04058E+00-7.57429E-13-6.59695E-13
 -1      1740 1.42077E+00-3.03263E+00-1.56655E+00-1.54579E-01-8.02469E-13-9.49130E-13
 -1      1741 1.12072E+01-4.49640E+00-1.57358E+00 1.97696E+00-8.13127E-13-1.04253E-12
 -1      1742 2.51912E+01-4.29329E+00-8.98879E-01 2.26436E+00-7.53952E-13-9.96758E-13
 -1      1743 4.01574E+01-1.29728E+00 5.33401E-01 7.87974E-01-8.03135E-13-7.81375E-13
 -1      1744 5.09493E+01 3.49053E+00 1.89487E+00-2.31647E+00-8.32001E-13-1.82521E-13
 -1      1745 5.68077E+01 7.46252E+00 2.83723E+00-3.44533E+00-1.01419E-12 3.63043E-13
 -1      1746 5.70599E+01 8.01717E+00 2.94980E+00-3.69234E+00-1.25733E-12 8.10962E-13
 -1      1747 4.98963E+01 5.07506E+00 1.92085E+00-4.11227E+00-1.39966E-12 1.13176E-12
 -1      1748 3.91110E+01 1.70785E+00 9.53216E-01-6.73670E+00-1.61443E-12 1.51235E-12
 -1      1749 2.49104E+01-1.67210E+00-2.18797E-01-7.38435E+00-1.85096E-12 1.54976E-12
 -1      1750 1.29017E+01-4.58402E+00-8.50816E-01-6.08490E+00-1.91325E-12 1.52123E-12
 -1      1751 3.95772E+00-7.39003E+00-1.31988E+00-3.40845E+00-1.86207E-12 1.45892E-12
 -1      1752-2.65487E-01-9.35557E+00-1.44703E+00-1.00478E+00-1.49081E-12 1.13953E-12
 -1      1753 8.68703E+00 2.04093E+00-1.89872E-01 1.02229E+00 1.41442E-13-2.44971E-13
 -1      1754 1.53572E+01 1.79231E+00 4.29002E-02 1.01963E+00 1.87628E-13-1.38778E-14
 -1      1755 2.32873E+01 7.49231E-01-4.11094E-02 1.48618E-01 3.52440E-13 4.44256E-13
 -1      1756 3.00225E+01 7.69400E-01-3.78392E-02-8.36874E-01 3.11751E-13 8.23369E-13
 -1      1757 3.52061E+01-1.52036E+00 5.67799E-02-1.84419E+00 3.15192E-13 1.23851E-12
 -1      1758 2.03910E+01-1.04691E+00-1.91451E-01 9.15940E-01 1.83853E-13 1.91236E-13
 -1      1759-9.50257E-01 1.94422E+00-7.00315E-02-2.89263E+00-5.19945E-13-3.51802E-13
 -1      1760-8.84236E-01 2.23711E+00-4.06682E-02-2.37027E+00-3.73854E-13-4.32376E-13
 -1      1761 3.15254E+00 3.21372E+00-3.54743E-02-4.06219E+00-6.54254E-13-2.48843E-13
 -1      1762 8.05095E-01 3.02981E+00-5.11229E-02-3.46390E+00-5.17753E-13-2.52187E-13
 -1      1763 9.10363E+00 4.02702E+00 1.75874E-02-5.67070E+00-6.87561E-13-1.90223E-13
 -1      1764 5.41347E+00 3.92626E+00-1.01998E-01-5.05733E+00-6.22058E-13-1.98078E-13
 -1      1765 2.55055E+01 2.77152E+00 9.41609E-03-2.93571E+00-6.87131E-13-5.00208E-15
 -1      1766 2.24521E+01 2.59053E+00 2.52387E-02-4.17751E+00-7.95614E-13 4.78046E-14
 -1      1767 2.74342E+01 3.91775E+00-6.71029E-02-2.63856E-01-4.28099E-13-2.00999E-13
 -1      1768 2.70860E+01 3.44117E+00 7.61209E-02-1.19611E+00-5.68490E-13-6.20109E-14
 -1      1769 2.72109E+01 2.67315E+00-1.64008E-02-1.59948E+00-5.78024E-13 7.20118E-14
 -1      1770 2.65789E+01 5.08981E+00-6.46254E-02 1.12232E+00-2.46664E-13-4.87776E-13
 -1      1771 2.72587E+01 4.73306E+00 3.06304E-02 5.85989E-01-3.38686E-13-3.51091E-13
 -1      1772 2.79305E+01 4.02539E+00 4.70128E-03 6.71667E-01-3.56454E-13-1.86651E-13
 -1      1773 2.49402E+01 5.63423E+00-4.38964E-02 1.75219E+00-1.14641E-13-6.73867E-13
 -1      1774 2.58205E+01 5.51751E+00-7.05473E-03 1.45288E+00-1.81629E-13-5.88217E-13
 -1      1775 2.65359E+01 5.05296E+00 8.94219E-03 1.55099E+00-1.98529E-13-4.68799E-13
 -1      1776 2.32505E+01 5.65363E+00-2.81180E-02 2.11752E+00 1.23929E-14-7.97893E-13
 -1      1777 2.40902E+01 5.71763E+00-2.00819E-02 1.91099E+00-5.94108E-14-7.41761E-13
 -1      1778 2.47169E+01 5.41074E+00 7.36782E-04 1.87325E+00-7.19286E-14-6.60319E-13
 -1      1779 2.17179E+01 5.35435E+00-2.00861E-02 2.42938E+00 1.42119E-13-8.48297E-13
 -1      1780 2.24600E+01 5.52186E+00-2.29031E-02 2.24510E+00 7.22686E-14-8.36612E-13
 -1      1781 2.30087E+01 5.28727E+00-5.65952E-03 2.08656E+00 6.96474E-14-7.66840E-13
 -1      1782 2.03723E+01 4.86103E+00-2.14640E-02 2.77947E+00 2.77316E-13-8.10713E-13
 -1      1783 2.10145E+01 5.08822E+00-2.56418E-02 2.57466E+00 1.99783E-13-8.37389E-13
 -1      1784 2.15111E+01 4.86597E+00-9.93144E-03 2.33272E+00 2.01139E-13-7.97539E-13
 -1      1785 1.93152E+01 4.22013E+00-3.78184E-02 3.18864E+00 4.02752E-13-6.32300E-13
 -1      1786 1.98060E+01 4.49440E+00-3.35302E-02 2.94232E+00 3.29466E-13-7.43721E-13
 -1      1787 2.02651E+01 4.24344E+00-1.14302E-02 2.63648E+00 3.44340E-13-7.19119E-13
 -1      1788 1.88096E+01 3.21477E+00-6.13180E-02 3.57178E+00 4.72537E-13-1.58623E-13
 -1      1789 1.89575E+01 3.68698E+00-4.91735E-02 3.32578E+00 4.35210E-13-4.54053E-13
 -1      1790 1.93443E+01 3.37930E+00-1.07824E-02 2.93317E+00 4.72370E-13-4.86621E-13
 -1      1791 1.88770E+01 1.41821E+00-1.26038E-01 2.83509E+00 4.77264E-13 4.74953E-13
 -1      1792 1.88232E+01 2.66714E+00 1.25419E-02 3.37676E+00 4.78762E-13 6.90004E-14
 -1      1793 1.87828E+01 2.17071E+00-2.70012E-02 2.78174E+00 5.30526E-13-1.20001E-13
 -1      1794 1.79170E+01 9.38708E-01-8.69288E-02 1.89431E+00 4.78777E-13 3.36672E-13
 -1      1795 1.69695E+01 4.26362E-01-1.21501E-02 7.56040E-01 3.42740E-13 1.47011E-13
 -1      1796 1.75880E+01 5.93622E-01-1.40932E-02 1.24361E+00 3.87093E-13 2.82585E-13
 -1      1797 1.81433E+01 1.10547E+00-3.67902E-03 1.75818E+00 4.59854E-13 4.28928E-14
 -1      1798 4.42269E+01 1.85214E+00 2.09998E-01-5.82221E+00-6.77902E-13 1.02629E-12
 -1      1799 4.35699E+01 4.26842E+00 1.72284E-01-4.35999E+00-8.93619E-13 8.31724E-13
 -1      1800 3.69908E+01-8.38277E-01 1.99330E-01 2.30436E+00-7.08600E-13 1.32866E-13
 -1      1801 3.56569E+01-2.60251E+00 5.75445E-02 1.28451E+00-3.29064E-13-2.00673E-14
 -1      1802 3.23775E+01-2.90754E+00 6.46889E-03-1.17167E-01-6.60583E-14-2.01637E-13
 -1      1803 3.12232E+01-2.47655E+00 1.36269E-01-1.63289E+00 1.50532E-13-2.43514E-13
 -1      1804 2.89694E+01-1.61074E+00 2.76564E-02-2.61033E+00 2.56475E-13-2.78420E-13
 -1      1805 2.77475E+01-6.91809E-01 1.29833E-01-3.33243E+00 3.02251E-13-1.90254E-13
 -1      1806 2.77438E+01-2.76774E+00-2.36380E-02-3.39880E+00 1.47174E-13-1.91298E-13
 -1      1807 2.62029E+01-1.64984E-01 2.08994E-02-3.50196E+00 2.85785E-13-1.02663E-13
 -1      1808 2.50344E+01 3.20343E-01 3.92992E-02-3.45717E+00 2.78680E-13-9.79425E-15
 -1      1809 2.45300E+01 4.89655E-01 2.65654E-02-3.08203E+00 1.95553E-13 4.00478E-14
 -1      1810 2.35026E+01 5.88632E-01-2.35323E-03-2.76426E+00 1.26990E-13 9.60291E-14
 -1      1811 2.26280E+01 5.39119E-01-4.29882E-03-3.92042E+00 2.76680E-13 3.84094E-14
 -1      1812 2.32188E+01 5.75951E-01 2.89117E-02-2.30068E+00 1.41571E-13 8.64760E-14
 -1      1813 2.23981E+01 5.28616E-01-6.22294E-03-1.94492E+00 1.44518E-13 2.08008E-13
 -1      1814 2.18973E+01 8.66336E-01 3.96889E-03-2.99493E+00 1.47776E-13 5.13123E-14
 -1      1815 2.22160E+01 4.65693E-01 2.81656E-02-1.58240E+00 5.18387E-14 2.23531E-13
 -1      1816 2.16537E+01 3.89026E-01-2.76373E-03-1.31345E+00-7.75595E-15 1.97460E-13
 -1      1817 2.14066E+01 7.48099E-01 1.70802E-03-2.10916E+00 1.40998E-13 1.58479E-13
 -1      1818 2.15049E+01 3.29444E-01 2.32681E-02-1.04741E+00-2.54354E-14 2.85451E-13
 -1      1819 2.11188E+01 2.63879E-01-1.13453E-04-8.58033E-01-6.01186E-14 3.01684E-13
 -1      1820 2.10353E+01 5.46531E-01 7.91266E-04-1.43031E+00 4.02907E-14 2.05292E-13
 -1      1821 2.10018E+01 2.19119E-01 1.74854E-02-6.74993E-01-5.47305E-14 2.75419E-13
 -1      1822 2.07450E+01 1.71468E-01 1.07352E-03-5.49246E-01-5.85148E-14 3.09190E-13
 -1      1823 2.07429E+01 3.69062E-01-9.11330E-05-9.41821E-01-8.97251E-14 3.13647E-13
 -1      1824 2.06563E+01 1.40953E-01 1.22484E-02-4.27918E-01-6.96288E-14 3.46045E-13
 -1      1825 2.04890E+01 1.08794E-01 1.30817E-03-3.46998E-01 1.09929E-14 2.91448E-13
 -1      1826 2.05204E+01 2.39159E-01-6.52480E-04-6.08452E-01-8.03689E-14 2.20239E-13
 -1      1827 2.04242E+01 8.90483E-02 8.22084E-03-2.68383E-01-9.47146E-14 2.56379E-13
 -1      1828 2.03164E+01 6.79217E-02 1.00364E-03-2.17194E-01-1.25456E-13 2.25765E-13
 -1      1829 2.03571E+01 1.51431E-01-8.84373E-04-3.88081E-01-8.20986E-14 1.15572E-13
 -1      1830 2.02681E+01 5.46231E-02 5.26126E-03-1.64762E-01-1.06113E-13 1.81166E-13
 -1      1831 2.01977E+01 4.10905E-02 7.96622E-04-1.31746E-01-1.32832E-13 7.62886E-14
 -1      1832 2.02388E+01 9.42082E-02-6.12062E-04-2.42930E-01-1.66564E-13 6.88977E-14
 -1      1833 2.01666E+01 3.37323E-02 3.37510E-03-1.00823E-01-1.43887E-13 1.46504E-13
 -1      1834 2.01246E+01 2.54574E-02 6.49080E-04-8.14027E-02-1.10358E-13 9.38494E-14
 -1      1835 2.01565E+01 5.71229E-02-7.87987E-04-1.50313E-01-1.21653E-13 1.28856E-13
 -1      1836 2.01031E+01 2.07383E-02 2.10261E-03-6.18805E-02-4.82312E-14 1.12138E-13
 -1      1837 2.00769E+01 1.56731E-02 4.71446E-04-4.98939E-02-2.56446E-14 5.61081E-14
 -1      1838 2.01020E+01 3.52264E-02-6.19475E-04-9.36533E-02-6.54177E-14 1.87161E-13
 -1      1839 2.00623E+01 1.27506E-02 1.31665E-03-3.76645E-02 3.98927E-15-9.47579E-15
 -1      1840 2.00461E+01 9.61243E-03 3.31929E-04-3.02749E-02 8.43743E-14 1.55433E-14
 -1      1841 2.00652E+01 2.16163E-02-4.68017E-04-5.79134E-02-2.38917E-14 2.03491E-13
 -1      1842 2.00364E+01 7.81750E-03 8.20458E-04-2.26398E-02 2.42061E-14-4.81381E-14
 -1      1843 2.00264E+01 5.87792E-03 2.31275E-04-1.80983E-02-2.81344E-14-1.72623E-13
 -1      1844 2.00407E+01 1.32200E-02-3.43149E-04-3.54579E-02-6.37853E-14 7.70353E-14
 -1      1845 2.00200E+01 4.77742E-03 5.08808E-04-1.33447E-02-3.82078E-15-2.25223E-13
 -1      1846 2.00140E+01 3.57824E-03 1.59055E-04-1.05628E-02-9.35677E-14-1.78650E-13
 -1      1847 2.00245E+01 8.05698E-03-2.46291E-04-2.13899E-02-3.94483E-14-1.18603E-13
 -1      1848 2.00099E+01 2.91260E-03 3.16185E-04-7.61577E-03-1.77426E-13-1.80328E-13
 -1      1849 2.00063E+01 2.15690E-03 1.04236E-04-5.91581E-03-1.90287E-13-1.96519E-13
 -1      1850 2.00139E+01 4.88213E-03-1.75045E-04-1.26032E-02-1.64547E-13-1.06558E-13
 -1      1851 2.00035E+01 1.72566E-03 1.91957E-04-4.02276E-03-4.98293E-15-2.37161E-13
 -1      1852 2.00015E+01 1.25111E-03 6.97839E-05-2.96350E-03 1.13877E-13-1.86070E-13
 -1      1853 2.00070E+01 2.93711E-03-1.10762E-04-7.05234E-03-1.25589E-13-1.32124E-13
 -1      1854 1.99999E+01 1.02061E-03 1.15818E-04-1.88507E-03 3.22930E-14-1.55113E-13
 -1      1855 1.99989E+01 7.36517E-04 4.93084E-05-1.29138E-03 5.73660E-14-1.29091E-13
 -1      1856 2.00027E+01 1.69609E-03-8.30639E-05-3.62955E-03 8.02271E-14-2.43662E-13
 -1      1857 1.99979E+01 5.85941E-04 6.75705E-05-6.41779E-04 6.94215E-16-5.13663E-14
 -1      1858 1.99975E+01 4.14662E-04 3.36234E-05-3.00857E-04-2.14764E-14-6.75955E-14
 -1      1859 2.00001E+01 9.83684E-04-5.61533E-05-1.61774E-03 2.02777E-14-1.78817E-13
 -1      1860 1.99970E+01 3.21339E-04 3.89332E-05 7.65276E-05-7.64911E-14 1.57542E-14
 -1      1861 1.99969E+01 2.15495E-04 2.23324E-05 2.62337E-04 1.13499E-13 3.94651E-14
 -1      1862 1.99987E+01 5.43516E-04-3.76548E-05-4.16858E-04-4.22035E-14-5.72142E-14
 -1      1863 1.99966E+01 1.58693E-04 2.12878E-05 4.68721E-04 1.40633E-13-5.61978E-14
 -1      1864 1.99967E+01 9.35848E-05 1.44884E-05 5.58824E-04 1.15342E-14 7.75708E-15
 -1      1865 1.99979E+01 2.73586E-04-2.48743E-05 2.72740E-04-1.09585E-14-4.77679E-14
 -1      1866 1.99966E+01 6.04490E-05 1.06920E-05 6.58269E-04 8.95724E-14 6.28436E-14
 -1      1867 1.99968E+01 1.97726E-05 9.07540E-06 6.90656E-04 1.67034E-13 1.57178E-13
 -1      1868 1.99977E+01 1.09099E-04-1.61390E-05 6.40817E-04 1.13494E-13-6.41842E-14
 -1      1869 1.99968E+01 4.28897E-07 4.23553E-06 7.24790E-04-7.29477E-14 2.25624E-13
 -1      1870 1.99971E+01-2.45097E-05 5.35725E-06 7.21590E-04-2.14122E-13 9.39101E-14
 -1      1871 1.99976E+01 1.22551E-05-9.70017E-06 8.09677E-04 3.63731E-14-6.37945E-14
 -1      1872 1.99972E+01-3.34375E-05-1.51615E-09 7.14656E-04-2.49991E-13 1.18281E-13
 -1      1873 1.99974E+01-4.58792E-05 3.09151E-06 6.91688E-04-2.90345E-13 1.33503E-13
 -1      1874 1.99978E+01-4.58686E-05-5.67077E-06 8.52841E-04-2.04935E-13 2.28805E-13
 -1      1875 1.99975E+01-5.05737E-05-2.25271E-06 6.63557E-04-2.98569E-13 7.71629E-14
 -1      1876 1.99978E+01-5.59897E-05 1.57730E-06 6.30836E-04-1.45506E-13-4.16416E-14
 -1      1877 1.99980E+01-7.38460E-05-2.94685E-06 8.22046E-04-2.72000E-13 2.44474E-13
 -1      1878 1.99979E+01-5.73624E-05-3.32693E-06 5.91893E-04-1.19077E-13 1.25859E-13
 -1      1879 1.99981E+01-5.87106E-05 5.48228E-07 5.55542E-04 6.26004E-14 2.92609E-14
 -1      1880 1.99982E+01-8.58680E-05-1.18823E-06 7.52177E-04-8.39644E-14 2.74306E-13
 -1      1881 1.99982E+01-5.79590E-05-3.73722E-06 5.12557E-04 1.46558E-13-9.80338E-14
 -1      1882 1.99984E+01-5.68338E-05-8.62254E-08 4.76201E-04 8.29251E-14 4.03348E-14
 -1      1883 1.99985E+01-8.78604E-05-9.48109E-08 6.63730E-04 9.27471E-14 4.06511E-13
 -1      1884 1.99985E+01-5.48664E-05-3.74801E-06 4.33402E-04-9.90284E-15-2.42649E-14
 -1      1885 1.99987E+01-5.23322E-05-4.58666E-07 3.99214E-04-1.41315E-13-1.38776E-13
 -1      1886 1.99987E+01-8.38192E-05 5.51825E-07 5.69661E-04 1.37963E-14 2.17446E-13
 -1      1887 1.99988E+01-4.97519E-05-3.52901E-06 3.59087E-04-5.25073E-14-1.47045E-13
 -1      1888 1.99989E+01-4.65093E-05-5.84289E-07 3.28274E-04-7.20246E-16-1.03828E-13
 -1      1889 1.99989E+01-7.64115E-05 9.03413E-07 4.77941E-04-1.28902E-13-1.28191E-13
 -1      1890 1.99990E+01-4.32555E-05-3.09544E-06 2.90350E-04-5.44497E-14-1.11223E-13
 -1      1891 1.99991E+01-3.99079E-05-6.82018E-07 2.62254E-04-8.16803E-14-1.00433E-13
 -1      1892 1.99991E+01-6.73498E-05 8.92361E-07 3.91371E-04-1.15615E-13-1.22551E-13
 -1      1893 1.99992E+01-3.71381E-05-2.77289E-06 2.31048E-04-1.75547E-14-1.61208E-13
 -1      1894 1.99993E+01-3.36465E-05-7.08671E-07 2.08218E-04-3.58312E-14-3.18956E-13
 -1      1895 1.99993E+01-5.73900E-05 1.08384E-06 3.14161E-04-1.00186E-13-1.79389E-13
 -1      1896 1.99994E+01-3.10374E-05-2.33938E-06 1.81683E-04-1.56548E-14-3.04926E-13
 -1      1897 1.99994E+01-2.78471E-05-6.61564E-07 1.62632E-04 6.96809E-14-3.92317E-13
 -1      1898 1.99994E+01-4.82219E-05 1.01125E-06 2.49396E-04 4.14048E-14-3.41656E-13
 -1      1899 1.99995E+01-2.54978E-05-1.94898E-06 1.40549E-04 2.02917E-14-4.46186E-13
 -1      1900 1.99995E+01-2.26447E-05-5.93634E-07 1.24942E-04 8.62291E-15-3.08103E-13
 -1      1901 1.99995E+01-3.97340E-05 9.10361E-07 1.94743E-04 7.13440E-14-3.31985E-13
 -1      1902 1.99996E+01-2.05958E-05-1.59461E-06 1.06899E-04 2.51929E-13-3.04727E-13
 -1      1903 1.99996E+01-1.81167E-05-5.14855E-07 9.43222E-05 4.43622E-13-2.00683E-13
 -1      1904 1.99996E+01-3.21850E-05 7.92262E-07 1.49544E-04 1.55888E-13-2.83364E-13
 -1      1905 1.99996E+01-1.64063E-05-1.29076E-06 7.98241E-05 1.73310E-13-2.83166E-13
 -1      1906 1.99997E+01-1.42734E-05-4.16757E-07 6.98324E-05-1.11849E-13-1.94061E-13
 -1      1907 1.99996E+01-2.56527E-05 6.75858E-07 1.12820E-04 3.37748E-13-2.13706E-13
 -1      1908 1.99997E+01-1.27217E-05-1.00228E-06 5.78089E-05-6.88545E-14-2.18410E-13
 -1      1909 1.99997E+01-1.09819E-05-3.51622E-07 4.96679E-05 2.16637E-14-6.12259E-15
 -1      1910 1.99997E+01-2.01768E-05 5.06350E-07 8.28835E-05-1.03872E-13-2.22944E-13
 -1      1911 1.99997E+01-9.88923E-06-7.89290E-07 4.08070E-05-1.46355E-13 3.32517E-14
 -1      1912 1.99997E+01-8.50538E-06-3.02939E-07 3.48027E-05-2.34612E-13 2.18293E-14
 -1      1913 1.99997E+01-1.54915E-05 4.51841E-07 5.92437E-05-3.76570E-14-1.93711E-13
 -1      1914 1.99998E+01-7.62535E-06-5.93067E-07 2.79118E-05 8.05036E-15 7.32681E-14
 -1      1915 1.99998E+01-6.58596E-06-2.50939E-07 2.32674E-05 1.76698E-13-4.46114E-14
 -1      1916 1.99997E+01-1.19968E-05 3.55065E-07 4.13696E-05-4.48731E-14 9.57028E-14
 -1      1917 1.99998E+01-5.92014E-06-4.36134E-07 1.79314E-05 2.65575E-14-2.52459E-13
 -1      1918 1.99998E+01-5.14390E-06-2.00652E-07 1.43229E-05-5.67197E-14-1.92749E-13
 -1      1919 1.99998E+01-9.30116E-06 2.76363E-07 2.75041E-05 1.21875E-14 8.37843E-14
 -1      1920 1.99998E+01-4.64391E-06-3.03666E-07 1.01862E-05 1.00011E-13-1.92298E-13
 -1      1921 1.99998E+01-4.01807E-06-1.51447E-07 7.39307E-06 1.91578E-13-1.27108E-13
 -1      1922 1.99998E+01-7.30971E-06 1.94172E-07 1.67796E-05 1.46916E-13-1.05901E-13
 -1      1923 1.99998E+01-3.53790E-06-2.08236E-07 4.23303E-06 8.30045E-14-2.24021E-14
 -1      1924 1.99998E+01-2.78340E-06-1.00978E-07 2.26792E-06-3.51775E-14-3.39088E-15
 -1      1925 1.99998E+01-5.59276E-06 1.38964E-07 8.54486E-06 4.81856E-14-6.36613E-14
 -1      1926 1.99998E+01-1.62917E-06-1.32585E-07 1.43844E-07-4.66599E-14 6.69749E-14
 -1      1927 1.67781E+01 2.41130E-01 1.45592E-02-2.38497E-01 1.91062E-13-1.30428E-13
 -1      1928 1.67706E+01 3.04236E-01 2.36363E-02-5.35341E-02 2.34795E-13-4.92106E-14
 -1      1929 1.69654E+01 1.45284E-01 1.00606E-02-5.52183E-01 1.59956E-13-2.37831E-13
 -1      1930 1.68027E+01 1.93593E-01 1.81235E-02-4.40666E-01 1.80218E-13-1.53871E-13
 -1      1931 1.76465E+01 3.40581E-01-1.00030E-02-3.88786E-01 2.32241E-13-2.52872E-13
 -1      1932 1.73420E+01 6.37235E-02 5.60720E-03-7.26894E-01 1.30391E-13-3.21338E-13
 -1      1933 1.70833E+01 1.04992E-01 1.03975E-02-6.70946E-01 1.46177E-13-2.70117E-13
 -1      1934 1.77903E+01 1.94024E-01-7.21250E-03-7.57501E-01 1.91912E-13-3.04088E-13
 -1      1935 1.78153E+01-3.62146E-03 2.54644E-03-7.82892E-01 9.60640E-14-3.64769E-13
 -1      1936 1.75136E+01 2.91636E-02 4.41423E-03-7.72940E-01 1.31087E-13-3.28024E-13
 -1      1937 1.80847E+01 7.20507E-02-3.60148E-03-9.48742E-01 1.62721E-13-3.42125E-13
 -1      1938 1.83066E+01-5.19581E-02 5.89463E-04-7.46305E-01 2.89176E-14-4.00022E-13
 -1      1939 1.80037E+01-2.99027E-02-1.24601E-04-7.70883E-01 5.17136E-14-3.73464E-13
 -1      1940 1.84496E+01-2.55042E-02-4.29415E-04-9.91819E-01 9.40582E-14-3.25464E-13
 -1      1941 1.87595E+01-7.90569E-02-5.25570E-04-6.48917E-01 6.58024E-15-3.29203E-13
 -1      1942 1.84845E+01-6.82006E-02-3.35329E-03-6.94662E-01 3.07287E-14-3.60213E-13
 -1      1943 1.88203E+01-9.26105E-02 1.70905E-03-9.24315E-01 2.47294E-14-3.28849E-13
 -1      1944 1.91415E+01-8.71633E-02-1.06642E-03-5.22474E-01-4.29951E-15-2.94801E-13
 -1      1945 1.89111E+01-8.57261E-02-5.26155E-03-5.76734E-01 4.46691E-17-2.93195E-13
 -1      1946 1.91536E+01-1.27681E-01 2.74171E-03-7.88814E-01-1.76803E-14-2.84084E-13
 -1      1947 1.94411E+01-8.15938E-02-1.24127E-03-3.92785E-01-2.86778E-14-2.44509E-13
 -1      1948 1.92609E+01-8.65035E-02-5.97136E-03-4.45845E-01 4.73753E-15-2.62790E-13
 -1      1949 1.94277E+01-1.35230E-01 2.93083E-03-6.25035E-01-1.89219E-14-2.19238E-13
 -1      1950 1.96612E+01-6.84034E-02-1.20003E-03-2.76751E-01-3.89773E-14-2.65779E-13
 -1      1951 1.95289E+01-7.64985E-02-5.76449E-03-3.22686E-01 8.42165E-15-2.60494E-13
 -1      1952 1.96374E+01-1.23685E-01 2.62688E-03-4.63309E-01-1.30243E-14-1.83767E-13
 -1      1953 1.98132E+01-5.26414E-02-1.04445E-03-1.82593E-01-3.92611E-14-2.53978E-13
 -1      1954 1.97220E+01-6.14537E-02-4.99307E-03-2.18896E-01-5.27239E-14-2.64195E-13
 -1      1955 1.97880E+01-1.02048E-01 2.11548E-03-3.22208E-01-3.29656E-14-2.09032E-13
 -1      1956 1.99117E+01-3.76461E-02-8.41509E-04-1.11967E-01 1.43741E-14-2.58589E-13
 -1      1957 1.98528E+01-4.56458E-02-3.97799E-03-1.38563E-01-2.43098E-14-2.66346E-13
 -1      1958 1.98896E+01-7.75643E-02 1.57776E-03-2.09812E-01-1.76638E-14-2.29039E-13
 -1      1959 1.99709E+01-2.51227E-02-6.34108E-04-6.25599E-02 1.01078E-14-2.43822E-13
 -1      1960 1.99356E+01-3.16037E-02-2.95285E-03-8.07379E-02 2.53418E-14-2.03917E-13
 -1      1961 1.99540E+01-5.48724E-02 1.10522E-03-1.26736E-01 2.36235E-14-2.21162E-13
 -1      1962 2.00031E+01-1.55866E-02-4.47846E-04-3.02749E-02 2.87231E-14-2.35445E-13
 -1      1963 1.99840E+01-2.04094E-02-2.05417E-03-4.18553E-02-8.39335E-15-2.39113E-13
 -1      1964 1.99915E+01-3.62317E-02 7.29643E-04-6.93504E-02-1.15040E-14-1.39454E-13
 -1      1965 2.00179E+01-8.85223E-03-2.94981E-04-1.07028E-02 6.32239E-14-2.38372E-13
 -1      1966 2.00092E+01-1.21914E-02-1.33896E-03-1.75056E-02 1.08062E-13-2.19477E-13
 -1      1967 2.00110E+01-2.22128E-02 4.51247E-04-3.23083E-02 4.09921E-14-1.83284E-13
 -1      1968 2.00223E+01-4.41489E-03-1.78427E-04 7.68032E-05-4.27918E-14-3.16631E-13
 -1      1969 2.00198E+01-6.57306E-03-8.11548E-04-3.50055E-03 4.32227E-14-2.71039E-13
 -1      1970 2.00190E+01-1.24183E-02 2.56333E-04-1.01629E-02 8.26255E-14-2.80848E-13
 -1      1971 2.00210E+01-1.69538E-03-9.53257E-05 5.17501E-03-2.67570E-14-2.81778E-13
 -1      1972 2.00218E+01-2.98966E-03-4.47875E-04 3.62796E-03-4.45859E-14-2.98767E-13
 -1      1973 2.00203E+01-6.03278E-03 1.27016E-04 1.79623E-03-5.60196E-14-2.45804E-13
 -1      1974 2.00172E+01-1.69471E-04-4.00012E-05 6.86542E-03 3.30492E-16-2.78372E-13
 -1      1975 2.00194E+01-8.74757E-04-2.13102E-04 6.49730E-03 3.73654E-15-2.78740E-13
 -1      1976 2.00181E+01-2.16656E-03 4.61149E-05 7.24396E-03-5.09224E-14-1.74024E-13
 -1      1977 2.00126E+01 5.80813E-04-5.97951E-06 6.69856E-03-1.10558E-13-2.46856E-13
 -1      1978 2.00152E+01 2.51191E-04-7.22351E-05 6.94274E-03-6.83198E-14-2.80789E-13
 -1      1979 2.00145E+01-3.28146E-05-8.29316E-07 8.83339E-03-4.28559E-14-2.18169E-13
 -1      1980 2.00083E+01 8.61196E-04 1.27908E-05 5.66463E-03-1.40847E-15-2.34431E-13
 -1      1981 2.00107E+01 7.54337E-04 4.62369E-06 6.16867E-03-7.70324E-14-2.98910E-13
 -1      1982 2.00105E+01 9.86831E-04-2.50688E-05 8.35672E-03-9.02401E-14-2.34072E-13
 -1      1983 2.00047E+01 8.80447E-04 2.13475E-05 4.35201E-03-3.08153E-14-1.79149E-13
 -1      1984 2.00067E+01 8.93765E-04 4.05820E-05 4.91327E-03 8.78504E-14-1.75791E-13
 -1      1985 2.00070E+01 1.33971E-03-3.49110E-05 6.94833E-03 5.27579E-15-1.19041E-13
 -1      1986 2.00020E+01 7.72407E-04 2.35481E-05 3.07900E-03 3.98023E-14-1.05595E-13
 -1      1987 2.00034E+01 8.41296E-04 5.22147E-05 3.59312E-03-7.90149E-14-1.24696E-13
 -1      1988 2.00040E+01 1.32828E-03-3.62229E-05 5.27542E-03-5.05754E-14 4.80605E-15
 -1      1989 2.00000E+01 6.17319E-04 2.21517E-05 1.99339E-03 4.76968E-14-7.92690E-14
 -1      1990 2.00010E+01 7.03847E-04 5.06781E-05 2.41643E-03 1.34415E-13-5.22939E-14
 -1      1991 2.00018E+01 1.14451E-03-3.29618E-05 3.69351E-03 1.03065E-14 1.31415E-13
 -1      1992 1.99987E+01 4.59426E-04 1.90109E-05 1.14245E-03 1.06893E-13-3.70040E-14
 -1      1993 1.99994E+01 5.43289E-04 4.30296E-05 1.46493E-03 5.00509E-14-7.98529E-14
 -1      1994 2.00002E+01 9.02064E-04-2.76656E-05 2.36272E-03 1.02498E-14 3.92575E-14
 -1      1995 1.99980E+01 3.20196E-04 1.52889E-05 5.19377E-04-2.54561E-14-4.53894E-14
 -1      1996 1.99983E+01 3.92051E-04 3.34336E-05 7.49475E-04 1.12914E-13 5.26886E-15
 -1      1997 1.99991E+01 6.62570E-04-2.18667E-05 1.32895E-03 3.11964E-14 1.95394E-14
 -1      1998 1.99976E+01 2.07571E-04 1.16570E-05 9.22597E-05 2.40005E-14-8.67068E-14
 -1      1999 1.99977E+01 2.64455E-04 2.41331E-05 2.45585E-04-4.99319E-14-1.10309E-13
 -1      2000 1.99985E+01 4.55022E-04-1.64146E-05 5.77413E-04-1.93493E-14-6.64607E-16
 -1      2001 1.99975E+01 1.22081E-04 8.45646E-06-1.78948E-04 3.66903E-13-1.37172E-13
 -1      2002 1.99975E+01 1.64429E-04 1.61675E-05-8.51519E-05 2.50684E-13-5.08017E-14
 -1      2003 1.99981E+01 2.89283E-04-1.17158E-05 6.58610E-05 1.35055E-13-2.05749E-14
 -1      2004 1.99976E+01 6.06689E-05 5.81986E-06-3.33344E-04 3.72061E-14-3.85434E-14
 -1      2005 1.99975E+01 9.04756E-05 9.87090E-06-2.83153E-04 2.10971E-13-6.95073E-14
 -1      2006 1.99981E+01 1.64905E-04-7.90500E-06-2.56110E-04 2.54301E-13 4.96066E-14
 -1      2007 1.99978E+01 1.89349E-05 3.75746E-06-4.04841E-04-1.52827E-13-1.06160E-13
 -1      2008 1.99977E+01 3.86967E-05 5.19856E-06-3.84901E-04-4.82191E-14-2.32957E-14
 -1      2009 1.99981E+01 7.65985E-05-4.96159E-06-4.36782E-04-3.53064E-14 1.23498E-13
 -1      2010 1.99981E+01-7.63545E-06 2.21509E-06-4.20755E-04 1.78557E-13-2.23630E-13
 -1      2011 1.99979E+01 4.51815E-06 1.92965E-06-4.20569E-04 1.12451E-14-2.15552E-13
 -1      2012 1.99982E+01 1.74113E-05-2.78624E-06-5.17634E-04-5.27607E-14-2.84890E-14
 -1      2013 1.99983E+01-2.30756E-05 1.11086E-06-4.01906E-04 2.47320E-13-3.01588E-13
 -1      2014 1.99982E+01-1.64129E-05-2.14650E-07-4.13640E-04 2.67800E-13-1.63273E-13
 -1      2015 1.99984E+01-1.95699E-05-1.24873E-06-5.31886E-04 1.68980E-13 1.06285E-13
 -1      2016 1.99986E+01-3.07126E-05 3.56906E-07-3.63434E-04 1.26761E-13-1.46228E-13
 -1      2017 1.99984E+01-2.78278E-05-1.50777E-06-3.81500E-04 1.59695E-13-2.22612E-13
 -1      2018 1.99986E+01-4.04150E-05-2.15792E-07-5.04765E-04 1.33542E-13 9.44592E-14
 -1      2019 1.99988E+01-3.31425E-05-1.28736E-07-3.15852E-04-2.14079E-13-1.68538E-13
 -1      2020 1.99987E+01-3.27200E-05-2.18812E-06-3.36451E-04-2.39583E-14-1.37380E-13
 -1      2021 1.99988E+01-5.00704E-05 4.34126E-07-4.54556E-04-9.95680E-15 9.51982E-14
 -1      2022 1.99990E+01-3.23028E-05-4.16724E-07-2.66094E-04 8.63215E-14-2.63994E-13
 -1      2023 1.99989E+01-3.33751E-05-2.44902E-06-2.86782E-04-1.40173E-13-2.17780E-13
 -1      2024 1.99990E+01-5.23579E-05 8.04344E-07-3.93920E-04-9.30248E-14-1.22828E-13
 -1      2025 1.99992E+01-2.95840E-05-5.64732E-07-2.18448E-04 1.64199E-13-3.89719E-13
 -1      2026 1.99991E+01-3.14672E-05-2.43907E-06-2.37767E-04 2.83609E-13-1.96326E-13
 -1      2027 1.99992E+01-5.01045E-05 9.78404E-07-3.31180E-04 1.54875E-13-2.13553E-13
 -1      2028 1.99993E+01-2.59449E-05-6.17926E-07-1.75309E-04 2.24700E-14-3.42030E-13
 -1      2029 1.99993E+01-2.81756E-05-2.26757E-06-1.92493E-04 6.61203E-14-3.23116E-13
 -1      2030 1.99993E+01-4.53203E-05 1.02118E-06-2.71453E-04 1.16285E-13-9.89368E-15
 -1      2031 1.99995E+01-2.20183E-05-6.10458E-07-1.37784E-04-1.34034E-13-1.87130E-13
 -1      2032 1.99994E+01-2.42976E-05-2.01157E-06-1.52529E-04-5.86660E-14-3.04800E-13
 -1      2033 1.99994E+01-3.93774E-05 9.81285E-07-2.17573E-04-8.96967E-14 2.64173E-14
 -1      2034 1.99996E+01-1.81995E-05-5.67334E-07-1.06133E-04-1.53287E-13-1.98057E-13
 -1      2035 1.99995E+01-2.03465E-05-1.72306E-06-1.18431E-04-1.60091E-14-1.69732E-13
 -1      2036 1.99995E+01-3.31698E-05 8.93908E-07-1.70815E-04-5.92249E-14 5.34992E-14
 -1      2037 1.99996E+01-1.47166E-05-5.06299E-07-8.00934E-05-5.97363E-14-4.70639E-13
 -1      2038 1.99996E+01-1.66322E-05-1.43520E-06-9.01155E-05-1.54568E-13-3.86887E-13
 -1      2039 1.99996E+01-2.72464E-05 7.83588E-07-1.31439E-04-5.30632E-14-1.50949E-13
 -1      2040 1.99997E+01-1.16861E-05-4.39501E-07-5.91110E-05 3.33970E-13-6.55111E-13
 -1      2041 1.99997E+01-1.33248E-05-1.16754E-06-6.71220E-05 1.19490E-13-6.21257E-13
 -1      2042 1.99997E+01-2.19160E-05 6.66668E-07-9.90764E-05 7.19468E-14-4.96500E-13
 -1      2043 1.99997E+01-9.15336E-06-3.75001E-07-4.24852E-05-1.36244E-13-4.98882E-13
 -1      2044 1.99997E+01-1.05026E-05-9.30117E-07-4.87928E-05 2.74636E-13-5.62261E-13
 -1      2045 1.99997E+01-1.73285E-05 5.53244E-07-7.30093E-05 1.57300E-13-4.51118E-13
 -1      2046 1.99998E+01-7.11620E-06-3.15303E-07-2.94670E-05-2.10461E-13-4.15841E-13
 -1      2047 1.99997E+01-8.18830E-06-7.26681E-07-3.43886E-05-2.29151E-13-4.91051E-13
 -1      2048 1.99997E+01-1.35344E-05 4.48494E-07-5.23517E-05-1.49697E-13-2.60650E-13
 -1      2049 1.99998E+01-5.53940E-06-2.63462E-07-1.93359E-05-4.78122E-14-4.62813E-13
 -1      2050 1.99998E+01-6.36206E-06-5.55325E-07-2.31712E-05-2.28263E-13-4.67693E-13
 -1      2051 1.99998E+01-1.05029E-05 3.58109E-07-3.61723E-05-1.84570E-13-3.05993E-13
 -1      2052 1.99998E+01-4.37976E-06-2.14435E-07-1.14143E-05-1.89443E-14-3.26507E-13
 -1      2053 1.99998E+01-4.97747E-06-4.03756E-07-1.44428E-05 1.51221E-14-4.16921E-13
 -1      2054 1.99998E+01-8.13387E-06 3.17312E-07-2.36351E-05-9.17150E-14-3.98122E-13
 -1      2055 1.99998E+01-3.38040E-06-1.46012E-07-5.34159E-06 1.04143E-13-4.16487E-13
 -1      2056 1.99998E+01-3.87336E-06-2.71795E-07-7.66116E-06-3.77745E-14-3.68738E-13
 -1      2057 1.99998E+01-6.37704E-06 2.23049E-07-1.39450E-05-6.15579E-14-4.64505E-13
 -1      2058 1.99998E+01-2.10975E-06-1.17383E-07-1.20773E-06 8.79669E-14-3.16839E-13
 -1      2059 1.99998E+01-2.81441E-06-1.88517E-07-2.68126E-06 1.85083E-13-1.53480E-13
 -1      2060 1.99998E+01-4.92971E-06 9.27846E-08-6.70128E-06 2.15120E-14-3.59193E-13
 -1      2061 1.99998E+01-2.92678E-06-2.26334E-08-1.84086E-06-1.59042E-14-3.10726E-14
 -1      2062 1.99998E+01-2.13971E-05 7.26017E-08-1.20514E-05-8.64300E-14 6.97401E-14
 -1      2063 1.99998E+01-1.75257E-05-1.38859E-07-1.10773E-05-2.16979E-13 2.92223E-13
 -1      2064 1.99998E+01-1.30034E-05 1.31626E-08-9.28708E-06-6.15496E-14 2.93833E-13
 -1      2065 1.99998E+01-9.83579E-06-6.91839E-08-7.54407E-06-2.44832E-13 2.25434E-13
 -1      2066 1.99998E+01-1.83979E-05-1.96909E-08-1.36974E-05-8.64058E-14 2.33438E-13
 -1      2067 1.99998E+01-5.07990E-06-9.01425E-08-3.94526E-06-5.26633E-14-8.87460E-14
 -1      2068 1.99998E+01-2.99900E-05 1.28345E-07-1.24793E-05-6.61657E-14-1.87598E-13
 -1      2069 1.99998E+01-2.59915E-05-7.96088E-08-1.25404E-05-2.12225E-13-8.95618E-15
 -1      2070 1.99998E+01-2.73741E-05-3.52792E-08-1.61273E-05-2.42867E-13-3.41838E-14
 -1      2071 1.99998E+01-3.77872E-05 1.72565E-07-1.05274E-05-1.32324E-13 8.83261E-14
 -1      2072 1.99998E+01-3.42290E-05-2.39686E-09-1.16112E-05-1.64827E-13 1.08256E-13
 -1      2073 1.99998E+01-3.61705E-05-9.93632E-08-1.56353E-05 1.53376E-13-5.18389E-14
 -1      2074 1.99998E+01-4.34002E-05 1.92092E-07-6.58888E-06 6.40193E-15-3.80120E-13
 -1      2075 1.99998E+01-4.09906E-05 7.74581E-08-8.46681E-06-8.82643E-14-1.60852E-13
 -1      2076 1.99998E+01-4.35889E-05-1.58351E-07-1.22549E-05 5.04241E-16-6.82487E-14
 -1      2077 1.99998E+01-4.59349E-05 1.81460E-07-1.42676E-06 1.83215E-13 4.74215E-14
 -1      2078 1.99998E+01-4.51099E-05 1.42528E-07-3.73041E-06 2.85570E-14-2.90046E-13
 -1      2079 1.99998E+01-4.84940E-05-1.99831E-07-6.64257E-06 1.70688E-13-3.35514E-13
 -1      2080 1.99998E+01-4.49907E-05 1.40837E-07 3.99505E-06-8.24677E-14-1.92959E-13
 -1      2081 1.99998E+01-4.59001E-05 1.82148E-07 1.70301E-06 1.38020E-13-2.66790E-14
 -1      2082 1.99998E+01-5.01666E-05-2.13730E-07 1.72469E-07 8.18159E-14-1.02608E-14
 -1      2083 1.99998E+01-4.07347E-05 7.67084E-08 8.67092E-06-7.13492E-14-1.41803E-13
 -1      2084 1.99998E+01-4.32187E-05 1.90204E-07 6.82687E-06-1.53053E-13-1.11429E-13
 -1      2085 1.99998E+01-4.83616E-05-1.98110E-07 6.95663E-06 1.73899E-13-2.93619E-13
 -1      2086 1.99998E+01-3.40151E-05-3.11570E-09 1.16817E-05-1.49714E-13 4.96806E-14
 -1      2087 1.99998E+01-3.75454E-05 1.70742E-07 1.06544E-05-2.41008E-13 2.51278E-13
 -1      2088 1.99998E+01-4.34013E-05-1.59994E-07 1.24514E-05-1.44857E-14-1.53779E-13
 -1      2089 1.99998E+01-2.56917E-05-8.09349E-08 1.25219E-05 7.15245E-14-5.76449E-14
 -1      2090 1.99998E+01-2.97616E-05 1.28225E-07 1.25066E-05-1.10309E-13 1.00076E-13
 -1      2091 1.99998E+01-3.59836E-05-9.54188E-08 1.56974E-05-2.00474E-13 8.21829E-14
 -1      2092 1.99998E+01-1.71632E-05-1.30743E-07 1.09294E-05 1.79011E-13-1.23616E-13
 -1      2093 1.99998E+01-2.10131E-05 7.35734E-08 1.19707E-05 2.44917E-13-2.94798E-13
 -1      2094 1.99998E+01-2.70905E-05-2.34686E-08 1.60943E-05 2.11416E-13 4.96389E-14
 -1      2095 1.99998E+01-9.66469E-06-1.44388E-07 7.28272E-06-1.60796E-13-2.50781E-14
 -1      2096 1.99998E+01-1.27049E-05 1.64162E-08 9.14699E-06-7.56398E-14-4.53839E-14
 -1      2097 1.99998E+01-1.80128E-05 4.32699E-08 1.35339E-05 6.28751E-14-2.04286E-13
 -1      2098 1.67114E+01 3.12658E-01 1.60548E-02 1.80305E-01 2.61954E-13-1.46706E-14
 -1      2099 1.69313E+01 4.06619E-01 2.16162E-02 4.61212E-01 3.00687E-13 9.30991E-14
 -1      2100 1.76016E+01 6.32117E-01-7.14493E-03 7.54106E-01 3.65201E-13-5.71886E-14
 -1      2101 1.75847E+01 4.70395E-01-1.08513E-02 1.25854E-01 2.99561E-13-1.92913E-13
 -1      2102 1.17487E+01-2.56428E+00-9.99033E-02 7.89897E+00-4.28546E-14 8.76098E-13
 -1      2103 8.05397E+00-4.17162E+00-3.31511E-01 6.65836E+00-3.52440E-13 9.39845E-13
 -1      2104 2.90498E+01 1.48670E+00 1.49499E-01 7.09712E+00 4.12587E-13 4.96825E-13
 -1      2105 2.41967E+01 8.24334E-03-1.04277E-01 7.28859E+00 3.48888E-13 5.97633E-13
 -1      2106 4.36873E+00-3.89601E+00-2.46247E-01 5.54919E+00-3.72091E-13 1.01280E-12
 -1      2107 2.10792E+00-5.20016E+00-4.50716E-01 3.88804E+00-6.59139E-13 9.46021E-13
 -1      2108 1.39413E+01 3.13325E+00-5.50864E-02-5.85787E+00-8.83266E-13-5.20001E-14
 -1      2109 1.23252E+01 3.73239E+00-1.76620E-01-6.07030E+00-5.95302E-13-1.32941E-13
 -1      2110 1.63849E+01 4.09287E+00 1.17619E-03-6.97440E+00-4.08229E-13-2.18464E-13
 -1      2111 1.87802E+01 3.15949E+00 1.46815E-01-5.48039E+00-8.45629E-13-3.78538E-14
 -1      2112 9.02590E-01-4.69660E+00-3.54856E-01 2.19695E+00-5.89945E-13 9.45688E-13
 -1      2113 5.82300E-01-4.96241E+00-4.01994E-01 5.97782E-01-8.78419E-13 9.26592E-13
 -1      2114-2.10586E-01 1.83149E+00-2.67281E-01-1.25992E+00-3.64153E-13-5.02764E-13
 -1      2115 3.25106E+00 1.96567E+00-1.94136E-01-3.17768E-01-2.10609E-13-4.86722E-13
 -1      2116 3.63164E+01 4.83156E+00 3.61227E-01 5.42873E+00 6.49827E-13 3.94351E-13
 -1      2117 3.20625E+01 3.38969E+00 4.47040E-02 5.59299E+00 5.67130E-13 3.95461E-13
 -1      2118 3.99424E+01 6.75457E+00 3.21460E-01 3.30764E+00 6.80234E-13 2.63484E-13
 -1      2119 3.77386E+01 6.07070E+00 2.34237E-01 4.58996E+00 7.12180E-13 4.17832E-13
 -1      2120 3.50479E+01 5.17112E+00 2.92277E-01 2.48875E+00 5.11313E-13-1.74305E-14
 -1      2121 4.03596E+01 7.62670E+00 2.14026E-01 1.04206E+00 7.14429E-13 6.53505E-14
 -1      2122 4.04619E+01 7.58627E+00 3.06296E-01 2.38320E+00 7.15428E-13 2.19574E-13
 -1      2123 3.87464E+01 6.53767E+00 1.19832E-01-1.14660E+00 6.13121E-13-1.29896E-14
 -1      2124 4.00476E+01 7.18093E+00 2.01445E-01 3.27668E-01 6.64246E-13 1.05888E-13
 -1      2125 3.41332E+01 4.84770E+00-6.32979E-02-3.29424E+00 3.77420E-13-4.44089E-14
 -1      2126 3.79176E+01 5.46900E+00 1.72458E-01-2.38341E+00 4.96048E-13 8.10463E-15
 -1      2127 2.66310E+01 3.63135E+00-2.11383E-01-6.10984E+00 4.01068E-14-1.30618E-13
 -1      2128 3.12079E+01 3.74204E+00-6.32729E-02-5.06234E+00 1.47077E-13-4.94604E-14
 -1      2129 1.88569E+01 3.58718E+00-3.04839E-01-6.77803E+00-2.70228E-13-1.65090E-13
 -1      2130 2.37898E+01 3.71023E+00-6.40302E-02-7.08804E+00-1.11577E-13-1.97065E-13
 -1      2131 2.66295E+01 2.68210E+00 6.40151E-03-4.62970E+00-3.50608E-13 7.95752E-14
 -1      2132 2.05575E+01 2.58018E+00-1.26150E-01-5.74518E+00-6.90642E-13 2.47025E-15
 -1      2133 9.46697E+00-1.42021E+00-5.04092E-01 1.59923E+00-4.05453E-13-6.39239E-13
 -1      2134 5.18255E+00-5.26639E-01-5.88251E-01 6.57145E-01-3.58436E-13-5.49893E-13
 -1      2135 3.24094E+01-4.37942E+00-3.08131E-01 5.83652E-01-3.68483E-13-2.31148E-13
 -1      2136 2.52910E+01-4.75741E+00-7.25908E-01 9.58506E-01-3.03202E-13-2.96152E-13
 -1      2137 4.22533E+01-1.82496E+00 1.39982E-01-3.00145E+00-5.57984E-13 1.30562E-13
 -1      2138 3.60832E+01-3.39756E+00-4.05947E-01-1.80202E+00-4.80505E-13-2.42029E-14
 -1      2139 4.21331E+01-1.31379E-01 1.07716E-02-5.38777E+00-6.02129E-13 7.23532E-13
 -1      2140 4.57693E+01 5.39383E+00 5.72802E-01-3.58358E+00-1.02840E-12 9.67497E-13
 -1      2141 4.28297E+01 4.19199E+00 1.26860E-01-2.21490E-01-1.22069E-12 8.10740E-13
 -1      2142 4.47313E+01 5.07649E+00 4.34366E-01-9.86334E-01-1.13753E-12 6.99191E-13
 -1      2143 3.39347E+01-2.00548E+00-2.25442E-01-3.23542E+00-1.17933E-12 8.48988E-13
 -1      2144 3.94013E+01-7.48748E-01 4.54996E-02-1.94102E+00-1.07074E-12 6.60361E-13
 -1      2145 1.30211E+01-4.97155E+00-5.44306E-01-6.02728E+00-1.08547E-12 9.83658E-13
 -1      2146 1.86598E+01-3.89353E+00-2.27650E-01-7.02783E+00-1.04705E-12 8.28698E-13
 -1      2147 5.66633E+00-5.38921E+00-5.51626E-01-4.39376E+00-1.01358E-12 1.10770E-12
 -1      2148 9.28302E+00-4.39244E+00-3.26512E-01-5.82489E+00-1.16884E-12 1.13172E-12
 -1      2149 1.41741E+01-4.24466E+00-1.74263E-01-6.75162E+00-4.62352E-13 7.08392E-13
 -1      2150 1.29984E+00-5.10991E+00-4.43386E-01-1.36566E+00-8.08117E-13 9.42857E-13
 -1      2151 2.79197E+00-4.71525E+00-3.79450E-01-2.94270E+00-1.04211E-12 1.13731E-12
 -1      2152 2.09185E+01-4.17591E-01 8.26608E-02 8.42763E+00 3.11973E-13 6.99163E-13
 -1      2153 1.60764E+01-2.27985E+00-2.48198E-01 7.61661E+00 1.31228E-13 7.13513E-13
 -1      2154 2.47781E+01-1.90461E+00 1.12009E-01 6.82865E+00-1.05582E-13 3.61933E-13
 -1      2155-7.46790E-02 2.49173E+00 7.14449E-02-3.18284E+00-5.19029E-13-3.17774E-13
 -1      2156 2.17094E+01 2.51887E+00-5.78538E-02-4.78369E+00-7.33469E-13 6.35603E-14
 -1      2157 2.46759E+00-2.33569E+00-1.78022E-01-7.36441E-01-4.96714E-13 1.03606E-12
 -1      2158 1.67135E+01-3.24534E+00-2.62167E-02 8.14620E+00-4.13447E-13 7.06171E-13
 -1      2159 3.91080E+01 3.44148E-01-1.49274E-01 9.48264E-01-1.02685E-12 5.87308E-13
 -1      2160 3.71895E+01-2.68146E+00 1.33567E-01-2.33889E+00 2.72338E-13 1.25619E-12
 -1      2161 3.73865E+01-3.39510E+00-3.94975E-02-3.54485E+00 1.10245E-13 1.27669E-12
 -1      2162 4.06972E+01-3.05071E+00 2.73477E-02-5.23031E+00-9.45771E-14 1.34925E-12
 -1      2163 4.08102E+01-1.03939E+00 2.15320E-01-6.30092E+00-3.67234E-13 1.29374E-12
 -1      2164 3.29159E+01-3.59408E+00-9.49749E-02-1.16790E+00-3.27682E-13-8.32667E-17
 -1      2165 4.21170E+01 2.15285E+00 1.75430E-01 9.52005E-01-1.07381E-12 4.94382E-13
 -1      2166 1.99998E+01-3.29589E-06 4.97492E-08 2.54399E-06-4.32160E-14 1.91889E-13
 -1      2167 2.43523E+01-6.56517E-01-1.45321E-02-4.29963E+00 3.42865E-13-1.16476E-13
 -1      2168 1.99998E+01-8.80047E-06 1.05983E-09-7.90391E-06-1.92846E-15-1.00711E-13
 -1      2169 8.13468E+00-3.20747E+00-1.15055E-01 7.09693E+00-5.70100E-13 1.04428E-12
 -1      2170 1.99998E+01-5.38269E-06-1.05993E-07 4.15737E-06-7.58131E-14 3.40916E-13
 -1      2171 1.99998E+01-7.23088E-06-2.52409E-08 5.92683E-06-1.94179E-13 4.80668E-13
 -1      2172 1.99998E+01-1.14035E-05 5.30096E-08 1.00017E-05-5.78263E-14 2.46714E-13
 -1      2173 1.99998E+01-7.11672E-06-1.16797E-07 6.83449E-06-1.40298E-13 3.19281E-13
 -1      2174 3.09724E+01 1.08440E+00 1.69011E-01 4.38684E+00 1.98397E-13 8.42104E-14
 -1      2175 2.93807E+00-2.56896E+00-1.79227E-01 3.61417E+00-5.94191E-13 1.07825E-12
 -1      2176 6.51704E+00-3.22930E+00-2.06143E-01-4.73059E+00-4.48364E-13 1.00930E-12
 -1      2177 3.24764E+01 4.08723E+00 1.12015E-01-2.15349E+00 1.02892E-13 1.21347E-13
 -1      2178 3.57251E+01 6.76662E+00 2.15638E-01 1.74069E-01 5.16337E-13 7.02494E-14
 -1      2179 3.68329E+01 7.89597E+00 3.07934E-01 1.64881E+00 6.72740E-13-4.52416E-14
 -1      2180 3.03079E+01-2.84206E+00-1.30149E-01-8.36223E-01 2.58016E-13 6.86007E-13
 -1      2181 3.67800E+01 8.45471E+00 2.53518E-01 1.10795E+00 6.77292E-13-1.69031E-14
 -1      2182 3.68018E+01-4.13348E+00-2.52013E-03-2.96618E+00-1.03750E-13 5.28688E-13
 -1      2183 1.90554E+01-3.40545E+00-5.58752E-01 2.34161E+00-3.25295E-13-4.61076E-13
 -1      2184 1.23785E+01-2.71908E+00-8.33926E-01 1.68659E+00-3.42670E-13-5.34850E-13
 -1      2185 2.89688E+01-3.00523E+00-1.17021E-01-6.07495E+00-1.10889E-12 8.65530E-13
 -1      2186 3.25636E+01-3.81857E+00 1.10818E-01-2.57752E+00-5.89917E-13 2.65399E-13
 -1      2187 2.90349E+01-4.44766E+00 3.01197E-02-3.53411E+00-1.64618E-13 6.98885E-14
 -1      2188 2.30213E+01-4.37152E+00-4.27587E-01-5.76708E+00-9.98868E-13 7.77378E-13
 -1      2189 2.30233E+01-4.69184E+00-2.75539E-02-6.12794E+00-4.23828E-13 3.88439E-13
 -1      2190 2.59122E+01-4.04704E+00-3.02523E-01 5.92612E-01 4.58522E-14 1.08663E-13
 -1      2191 3.33675E+01 7.96076E+00-1.25888E-01 1.25732E+00 5.98410E-13-1.10190E-13
 -1      2192 3.35972E+01 8.26290E+00-1.32812E-01 1.12444E+00 6.22724E-13-2.06755E-13
 -1      2193 2.42422E+01 5.21234E+00-2.95009E-02 1.89658E+00 9.51236E-15-6.48677E-13
 -1      2194 2.51360E+01 5.15182E+00-4.12706E-02 1.82173E+00-6.93638E-14-5.82449E-13
 -1      2195 2.26345E+01 4.89451E+00-1.73635E-02 1.96337E+00 1.28684E-13-7.40004E-13
 -1      2196 2.34079E+01 5.02312E+00-3.16424E-02 1.87380E+00 5.57714E-14-7.04667E-13
 -1      2197 2.38840E+01 4.95856E+00-1.91256E-03 1.78053E+00 5.80352E-14-6.16104E-13
 -1      2198 2.12274E+01 4.31868E+00-1.67142E-02 2.12723E+00 2.55667E-13-7.39842E-13
 -1      2199 2.19015E+01 4.57991E+00-2.53919E-02 1.99970E+00 1.75055E-13-7.44784E-13
 -1      2200 2.23510E+01 4.43327E+00-8.09649E-04 1.75749E+00 1.71593E-13-6.83457E-13
 -1      2201 2.00540E+01 3.53972E+00-2.64070E-02 2.34465E+00 3.92613E-13-6.47617E-13
 -1      2202 2.06138E+01 3.91378E+00-2.35441E-02 2.20050E+00 3.05823E-13-7.06105E-13
 -1      2203 2.10423E+01 3.72082E+00 2.45557E-03 1.84779E+00 2.82683E-13-6.57107E-13
 -1      2204 1.91283E+01 2.48515E+00-2.67982E-02 2.45787E+00 4.88229E-13-3.79592E-13
 -1      2205 1.95585E+01 3.03987E+00-1.60407E-02 2.39946E+00 4.27020E-13-5.40000E-13
 -1      2206 1.99255E+01 2.81693E+00 1.05116E-02 1.94675E+00 3.96133E-13-5.29776E-13
 -1      2207 1.85881E+01 1.44220E+00-2.34834E-02 2.00288E+00 4.73573E-13-9.63986E-14
 -1      2208 1.88655E+01 2.09053E+00-3.31804E-04 2.30703E+00 4.79641E-13-2.68431E-13
 -1      2209 1.90156E+01 1.86903E+00-5.98715E-04 1.78110E+00 4.56872E-13-3.50701E-13
 -1      2210 1.81932E+01 1.08171E+00-5.99731E-03 1.34710E+00 4.28071E-13-1.28860E-13
 -1      2211 1.99998E+01-1.04155E-05-2.01679E-07-1.12135E-05-3.32049E-14-9.29905E-14
 -1      2212 2.26433E+01-9.81788E-01 7.11776E-02-4.85017E+00 3.13222E-13-2.43069E-14
 -1      2213 2.13160E+01 1.77760E-01 1.17031E-01-4.78084E+00 4.18048E-13 1.02765E-14
 -1      2214 2.05192E+01 1.31904E+00 3.70740E-02-3.19095E+00 1.83049E-13 1.11340E-13
 -1      2215 2.02154E+01 1.27011E+00-1.17427E-02-2.72218E+00 1.33471E-13 9.26698E-14
 -1      2216 2.05406E+01 1.16340E+00 2.59249E-02-2.29010E+00 1.39264E-13 1.24218E-13
 -1      2217 2.03168E+01 1.01176E+00-1.27717E-02-1.91299E+00 1.41072E-13 1.80743E-13
 -1      2218 1.91975E+01 1.60735E+00 3.03534E-02-2.48410E+00 1.39859E-13 1.45958E-13
 -1      2219 2.05188E+01 8.72766E-01 2.00572E-02-1.59178E+00 8.18425E-14 1.87973E-13
 -1      2220 2.03399E+01 7.24685E-01-9.06313E-03-1.30640E+00 5.73794E-14 2.58333E-13
 -1      2221 1.96636E+01 1.24848E+00 1.84429E-02-1.75835E+00 1.18910E-13 1.88678E-13
 -1      2222 2.04497E+01 6.06095E-01 1.56458E-02-1.07522E+00-3.25673E-14 2.10402E-13
 -1      2223 2.03094E+01 4.90792E-01-5.54369E-03-8.73381E-01-1.63841E-13 2.12851E-13
 -1      2224 1.99220E+01 8.87276E-01 1.08638E-02-1.21764E+00 1.02902E-14 1.05539E-13
 -1      2225 2.03610E+01 4.03566E-01 1.16480E-02-7.11834E-01-1.05292E-13 1.89674E-13
 -1      2226 2.02554E+01 3.21989E-01-3.17779E-03-5.74823E-01-2.80678E-14 1.53142E-13
 -1      2227 2.00441E+01 6.00307E-01 6.02689E-03-8.27150E-01-1.13512E-13 1.51611E-13
 -1      2228 2.02746E+01 2.62098E-01 8.24701E-03-4.64550E-01-4.43352E-14 6.73182E-14
 -1      2229 2.01974E+01 2.06922E-01-1.96403E-03-3.73844E-01-1.70930E-13 2.09011E-14
 -1      2230 2.00889E+01 3.94567E-01 3.11513E-03-5.53156E-01-1.11953E-13 1.13966E-13
 -1      2231 2.01999E+01 1.65439E-01 5.56502E-03-2.96601E-01-2.07108E-13 9.20539E-14
 -1      2232 2.01440E+01 1.28544E-01-1.08498E-03-2.35672E-01-1.53613E-13 3.28550E-14
 -1      2233 2.00949E+01 2.52489E-01 1.64493E-03-3.62029E-01-1.50463E-13-9.57242E-16
 -1      2234 2.01404E+01 1.03900E-01 3.73816E-03-1.88048E-01-1.07123E-13 8.10041E-14
 -1      2235 2.01035E+01 8.12492E-02-4.93270E-04-1.50903E-01-2.75362E-14 1.27439E-13
 -1      2236 2.00832E+01 1.58603E-01 4.53790E-04-2.34009E-01-9.23552E-14 1.13215E-14
 -1      2237 2.00973E+01 6.53636E-02 2.44153E-03-1.19625E-01 1.81092E-14 1.19088E-13
 -1      2238 2.00722E+01 5.10171E-02-2.35136E-04-9.59225E-02 3.27398E-14 1.51294E-13
 -1      2239 2.00668E+01 1.00340E-01 3.51835E-05-1.51846E-01 1.04051E-14 1.03743E-13
 -1      2240 2.00659E+01 4.09691E-02 1.58781E-03-7.55869E-02-3.42759E-14 1.88962E-13
 -1      2241 2.00491E+01 3.19203E-02-9.96721E-05-6.05216E-02-4.66108E-14 1.74975E-13
 -1      2242 2.00507E+01 6.31526E-02-1.33876E-04-9.78090E-02 7.39731E-14 1.56898E-13
 -1      2243 2.00436E+01 2.56025E-02 1.02576E-03-4.73649E-02-7.33610E-14 1.76930E-13
 -1      2244 2.00325E+01 1.99193E-02-3.00795E-05-3.78216E-02-1.19031E-13 7.79888E-14
 -1      2245 2.00369E+01 3.96053E-02-1.83258E-04-6.25090E-02-7.84629E-14 1.42992E-13
 -1      2246 2.00281E+01 1.59581E-02 6.58810E-04-2.93384E-02-1.25869E-13 3.94676E-14
 -1      2247 2.00208E+01 1.23964E-02 2.48055E-06-2.33096E-02-8.85809E-14 2.59426E-14
 -1      2248 2.00259E+01 2.47676E-02-1.78564E-04-3.95548E-02-1.31937E-13 1.04409E-13
 -1      2249 2.00175E+01 9.92146E-03 4.22480E-04-1.78566E-02-9.54494E-14-3.35653E-14
 -1      2250 2.00127E+01 7.67131E-03 7.34848E-06-1.40538E-02-1.98545E-13-2.41480E-14
 -1      2251 2.00176E+01 1.54424E-02-1.52754E-04-2.46814E-02-1.23053E-13 1.50403E-13
 -1      2252 2.00101E+01 6.04614E-03 2.65847E-04-1.04106E-02-2.35425E-13-3.46379E-14
 -1      2253 2.00070E+01 4.60566E-03 1.26341E-05-7.94906E-03-1.43376E-13-1.27262E-13
 -1      2254 2.00113E+01 9.52714E-03-1.06702E-04-1.49153E-02-1.90744E-13-1.07738E-14
 -1      2255 2.00053E+01 3.67653E-03 1.67944E-04-5.78247E-03-8.96009E-14-9.82074E-14
 -1      2256 2.00035E+01 2.81267E-03 1.79651E-05-4.33590E-03-2.75144E-14-2.11849E-13
 -1      2257 2.00069E+01 5.76610E-03-9.39883E-05-8.65584E-03-1.86332E-13-4.77723E-14
 -1      2258 2.00023E+01 2.21453E-03 1.03680E-04-2.96361E-03 7.27980E-14-2.08025E-13
 -1      2259 2.00012E+01 1.67750E-03 1.58150E-05-2.07836E-03 2.15670E-14-1.69620E-13
 -1      2260 2.00039E+01 3.51188E-03-6.97858E-05-4.79806E-03 5.55894E-14-1.86553E-13
 -1      2261 2.00004E+01 1.29987E-03 6.40327E-05-1.22637E-03-1.56909E-14-1.13089E-13
 -1      2262 1.99998E+01 9.62798E-04 1.25588E-05-6.97666E-04-2.69166E-14-8.01833E-14
 -1      2263 2.00019E+01 2.08964E-03-5.07889E-05-2.36315E-03 7.26121E-14-2.80519E-13
 -1      2264 1.99993E+01 7.24981E-04 3.86850E-05-1.83414E-04-7.55077E-14 2.76792E-14
 -1      2265 1.99990E+01 5.14018E-04 9.42061E-06 1.18363E-04 5.50004E-14-6.72275E-14
 -1      2266 2.00006E+01 1.19377E-03-3.62717E-05-8.56175E-04 4.07787E-14-1.76956E-13
 -1      2267 1.99987E+01 3.66109E-04 2.27616E-05 4.13701E-04 1.06190E-13-9.63063E-15
 -1      2268 1.99986E+01 2.33459E-04 6.45498E-06 5.72278E-04 1.35329E-13-1.07131E-13
 -1      2269 1.99998E+01 6.30504E-04-2.54829E-05 4.61561E-05 6.51672E-14-3.13065E-14
 -1      2270 1.99984E+01 1.38427E-04 1.24282E-05 7.32271E-04 1.35022E-13-1.62587E-13
 -1      2271 1.99984E+01 5.56781E-05 4.39197E-06 8.01596E-04 9.90492E-14-2.38909E-14
 -1      2272 1.99993E+01 2.77817E-04-1.64882E-05 5.62693E-04 1.01251E-13-1.18752E-13
 -1      2273 1.99984E+01 4.05657E-06 5.68010E-06 8.62979E-04-2.31424E-14 1.85196E-13
 -1      2274 1.99984E+01-4.15155E-05 3.23963E-06 8.73377E-04-1.47850E-13 2.93549E-13
 -1      2275 1.99990E+01 5.80216E-05-1.14572E-05 8.20809E-04 1.31918E-13-2.08610E-15
 -1      2276 1.99984E+01-7.20601E-05 1.53566E-06 8.81548E-04-2.67986E-13 4.40656E-13
 -1      2277 1.99985E+01-9.58500E-05 2.18622E-06 8.60167E-04-1.63963E-13 3.76480E-13
 -1      2278 1.99990E+01-6.41606E-05-7.34398E-06 9.11679E-04-8.08935E-14 1.92739E-13
 -1      2279 1.99986E+01-1.11485E-04-7.90085E-07 8.36577E-04 2.90741E-14 3.80648E-13
 -1      2280 1.99987E+01-1.21950E-04 1.36984E-06 7.98084E-04 1.27633E-13 5.82720E-13
 -1      2281 1.99990E+01-1.31244E-04-4.50867E-06 9.06802E-04-3.72654E-14 3.86652E-13
 -1      2282 1.99987E+01-1.27973E-04-2.08315E-06 7.57302E-04-1.20713E-13 3.78815E-13
 -1      2283 1.99988E+01-1.30056E-04 7.98634E-07 7.11095E-04-9.52231E-14 2.18376E-13
 -1      2284 1.99990E+01-1.62585E-04-2.57303E-06 8.46433E-04-8.04358E-14 4.34129E-13
 -1      2285 1.99989E+01-1.30065E-04-2.70655E-06 6.62646E-04-1.10951E-13 2.17968E-15
 -1      2286 1.99990E+01-1.27084E-04 4.03517E-07 6.14672E-04-1.78339E-13-7.03417E-14
 -1      2287 1.99991E+01-1.71315E-04-1.28068E-06 7.57163E-04-1.95341E-13-2.80793E-14
 -1      2288 1.99990E+01-1.23465E-04-2.89518E-06 5.64598E-04-1.57337E-13-2.18849E-13
 -1      2289 1.99991E+01-1.17656E-04 2.19904E-07 5.18514E-04-7.85414E-14-1.61343E-13
 -1      2290 1.99992E+01-1.66229E-04-4.46980E-07 6.56270E-04-2.82311E-13-2.80067E-13
 -1      2291 1.99992E+01-1.11542E-04-2.76346E-06 4.68093E-04-1.26474E-14-3.24034E-13
 -1      2292 1.99993E+01-1.04221E-04 3.12746E-08 4.24057E-04-1.32282E-13-3.44685E-13
 -1      2293 1.99993E+01-1.52811E-04-5.09183E-08 5.52281E-04-1.06424E-13-4.13357E-13
 -1      2294 1.99993E+01-9.77749E-05-2.62545E-06 3.80558E-04-1.43549E-13-3.36724E-13
 -1      2295 1.99994E+01-9.01142E-05-9.05522E-08 3.43541E-04-5.42834E-14-3.45998E-13
 -1      2296 1.99994E+01-1.35036E-04 3.94150E-07 4.54246E-04-1.30231E-13-4.51964E-13
 -1      2297 1.99994E+01-8.35759E-05-2.32576E-06 3.05292E-04-3.09667E-14-2.72586E-13
 -1      2298 1.99995E+01-7.61292E-05-1.35096E-07 2.73520E-04-5.48956E-14-3.23158E-13
 -1      2299 1.99995E+01-1.16429E-04 5.36251E-07 3.68336E-04-7.57611E-15-3.52529E-13
 -1      2300 1.99995E+01-6.98984E-05-2.00644E-06 2.40786E-04-1.13497E-14-3.02748E-13
 -1      2301 1.99996E+01-6.30317E-05-1.54047E-07 2.14129E-04 1.81509E-13-3.40394E-13
 -1      2302 1.99996E+01-9.80987E-05 5.85762E-07 2.93445E-04-3.57886E-14-3.04161E-13
 -1      2303 1.99996E+01-5.73636E-05-1.69140E-06 1.86741E-04 2.02583E-13-2.05105E-13
 -1      2304 1.99996E+01-5.12616E-05-1.55276E-07 1.64808E-04 3.24489E-13-6.31851E-14
 -1      2305 1.99996E+01-8.10281E-05 5.76066E-07 2.29819E-04 2.17557E-13-1.84990E-13
 -1      2306 1.99996E+01-4.63008E-05-1.40091E-06 1.42335E-04 3.37467E-13-1.20895E-13
 -1      2307 1.99997E+01-4.09974E-05-1.16528E-07 1.24587E-04 2.22005E-13-1.99620E-13
 -1      2308 1.99997E+01-6.57562E-05 5.33558E-07 1.76922E-04 1.91769E-13-1.11469E-13
 -1      2309 1.99997E+01-3.64997E-05-1.11512E-06 1.05605E-04-5.38583E-14-1.27827E-13
 -1      2310 1.99997E+01-3.19596E-05-1.12500E-07 9.08976E-05-2.57659E-13-2.08098E-13
 -1      2311 1.99997E+01-5.23712E-05 4.11642E-07 1.32884E-04 1.64792E-13-2.63233E-13
 -1      2312 1.99997E+01-2.85315E-05-8.95938E-07 7.66818E-05-3.15646E-14-1.99915E-13
 -1      2313 1.99997E+01-2.49541E-05-1.18419E-07 6.57010E-05 1.00494E-13-1.11254E-14
 -1      2314 1.99997E+01-4.08956E-05 4.02814E-07 9.75685E-05-1.69239E-13-2.70351E-14
 -1      2315 1.99997E+01-2.21556E-05-6.90375E-07 5.45400E-05 1.33008E-13 1.06028E-13
 -1      2316 1.99998E+01-1.93458E-05-1.06609E-07 4.59927E-05 1.90455E-13 3.18650E-13
 -1      2317 1.99997E+01-3.18924E-05 3.30797E-07 7.04697E-05 1.58559E-13 1.57034E-13
 -1      2318 1.99998E+01-1.71623E-05-5.25343E-07 3.73232E-05 1.72970E-13 2.60422E-13
 -1      2319 1.99998E+01-1.49959E-05-8.98208E-08 3.07027E-05 1.05703E-13 1.96429E-13
 -1      2320 1.99998E+01-2.47293E-05 2.60386E-07 4.92970E-05 2.13417E-13 2.75118E-13
 -1      2321 1.99998E+01-1.32465E-05-3.62877E-07 2.40277E-05-5.31681E-14 4.28582E-13
 -1      2322 1.99998E+01-1.16637E-05-8.19203E-08 1.89852E-05 7.11024E-14 4.04181E-13
 -1      2323 1.99998E+01-1.91264E-05 2.02646E-07 3.29075E-05 1.46904E-13 6.12065E-13
 -1      2324 1.99998E+01-1.00720E-05-2.54172E-07 1.42562E-05 2.44446E-13 3.54640E-13
 -1      2325 1.99998E+01-8.74445E-06-1.16033E-07 1.05111E-05 8.76987E-14 4.56184E-13
 -1      2326 1.99998E+01-1.09302E-05-2.62536E-08 1.22787E-05 5.89105E-14 6.99332E-13
 -1      2327 1.99998E+01-1.49293E-05 2.47379E-08 2.10012E-05 1.07567E-13 7.15392E-13
 -1      2328 1.87978E+01 8.79966E-02-7.57705E-04-1.08587E+00 1.41459E-13-3.33823E-13
 -1      2329 1.86477E+01 1.89783E-01 9.49117E-03-1.02293E+00 1.69982E-13-3.28389E-13
 -1      2330 1.85635E+01 2.94265E-01 1.09786E-03-9.00162E-01 1.67743E-13-3.48706E-13
 -1      2331 1.84717E+01 4.15235E-01 1.53419E-02-7.47543E-01 1.90718E-13-3.14467E-13
 -1      2332 1.92373E+01 3.34577E-01-4.25854E-03-1.05259E+00 1.73726E-13-3.56966E-13
 -1      2333 1.99998E+01-1.57370E-05 1.95239E-07-1.66297E-05 1.90751E-14 1.54327E-13
 -1      2334 1.99998E+01-1.17407E-05-1.09745E-07-1.58013E-05-2.46530E-14-1.89206E-13
 -1      2335 1.84344E+01 5.33909E-01 4.21911E-03-5.14879E-01 2.16449E-13-3.35098E-13
 -1      2336 1.84413E+01 6.70113E-01 2.11024E-02-2.58347E-01 2.46827E-13-3.01847E-13
 -1      2337 1.91301E+01 6.46864E-01-7.56973E-03-6.67945E-01 2.11396E-13-3.76598E-13
 -1      2338 1.90724E+01-7.17993E-02-1.50738E-03-1.10521E+00 5.38118E-14-3.12080E-13
 -1      2339 1.88989E+01 3.68564E-03 4.16580E-03-1.11365E+00 1.14813E-13-3.20084E-13
 -1      2340 1.94123E+01 7.00279E-02-1.23307E-03-1.21552E+00 1.29512E-13-3.09348E-13
 -1      2341 1.93363E+01-1.74519E-01-1.31786E-03-1.00544E+00-9.28587E-15-3.05977E-13
 -1      2342 1.91659E+01-1.29566E-01-3.11760E-04-1.06245E+00 2.71321E-14-3.02050E-13
 -1      2343 1.96003E+01-1.27814E-01 8.41999E-04-1.20011E+00 4.83446E-14-3.02287E-13
 -1      2344 1.95590E+01-2.21160E-01-7.16834E-04-8.38508E-01-2.94283E-14-2.40787E-13
 -1      2345 1.94085E+01-2.04526E-01-3.49840E-03-9.20800E-01-2.22619E-14-2.75873E-13
 -1      2346 1.97632E+01-2.48989E-01 1.69112E-03-1.06453E+00-1.65338E-14-2.89821E-13
 -1      2347 1.97295E+01-2.23406E-01-1.05066E-04-6.49854E-01-4.54296E-14-1.94693E-13
 -1      2348 1.96069E+01-2.27931E-01-5.22974E-03-7.38091E-01-3.60263E-14-2.18304E-13
 -1      2349 1.98843E+01-2.98221E-01 1.67025E-03-8.68339E-01-3.35467E-14-2.26808E-13
 -1      2350 1.98502E+01-1.97538E-01 3.18196E-04-4.71426E-01-1.86124E-14-1.91944E-13
 -1      2351 1.97569E+01-2.14517E-01-5.69634E-03-5.52564E-01-1.78859E-14-1.75299E-13
 -1      2352 1.99636E+01-2.92724E-01 1.26747E-03-6.59641E-01-3.86508E-14-2.21068E-13
 -1      2353 1.99297E+01-1.58725E-01 5.19222E-04-3.20790E-01-2.65870E-14-1.87523E-13
 -1      2354 1.98629E+01-1.80611E-01-5.29196E-03-3.88042E-01-1.68318E-14-1.47642E-13
 -1      2355 2.00093E+01-2.54071E-01 8.11870E-04-4.69631E-01-2.15555E-14-1.88047E-13
 -1      2356 1.99785E+01-1.18036E-01 5.51393E-04-2.03994E-01-2.79493E-14-1.79334E-13
 -1      2357 1.99334E+01-1.39639E-01-4.42539E-03-2.55414E-01-2.23391E-14-1.79690E-13
 -1      2358 2.00317E+01-2.01389E-01 4.50894E-04-3.13627E-01-3.93627E-14-1.90138E-13
 -1      2359 2.00058E+01-8.19172E-02 4.88621E-04-1.19659E-01-1.21008E-14-1.38277E-13
 -1      2360 1.99773E+01-1.00427E-01-3.41547E-03-1.56333E-01 1.39529E-14-1.83936E-13
 -1      2361 2.00397E+01-1.48119E-01 2.15783E-04-1.95316E-01-1.87788E-14-1.11371E-13
 -1      2362 2.00190E+01-5.30971E-02 3.88726E-04-6.26545E-02-6.55628E-15-1.40190E-13
 -1      2363 2.00024E+01-6.74988E-02-2.46334E-03-8.71355E-02 5.14497E-15-1.23125E-13
 -1      2364 2.00396E+01-1.01786E-01 8.12471E-05-1.11489E-01-9.49203E-15-1.51129E-13
 -1      2365 2.00235E+01-3.18876E-02 2.87261E-04-2.66744E-02 9.68204E-14-2.41397E-13
 -1      2366 2.00149E+01-4.22704E-02-1.66791E-03-4.19038E-02 1.89457E-14-2.15109E-13
 -1      2367 2.00356E+01-6.53235E-02 1.13781E-05-5.58276E-02 5.07828E-14-3.00546E-13
 -1      2368 2.00230E+01-1.73308E-02 2.01152E-04-5.73838E-03 5.44533E-14-2.14927E-13
 -1      2369 2.00195E+01-2.43238E-02-1.05779E-03-1.44295E-02 1.31821E-13-2.12207E-13
 -1      2370 2.00299E+01-3.87756E-02-2.17076E-05-2.13630E-02 1.04931E-13-1.97657E-13
 -1      2371 2.00200E+01-7.99499E-03 1.35424E-04 5.11625E-03-1.22369E-13-1.10277E-13
 -1      2372 2.00195E+01-1.23929E-02-6.21194E-04 7.50514E-04-6.46102E-14-1.74265E-13
 -1      2373 2.00240E+01-2.07249E-02-3.58534E-05-1.79946E-03-3.60647E-14-6.96477E-14
 -1      2374 2.00161E+01-2.44232E-03 8.87193E-05 9.65395E-03-1.57512E-14-1.34693E-13
 -1      2375 2.00171E+01-4.99693E-03-3.27929E-04 7.95749E-03-7.74651E-14-1.24957E-13
 -1      2376 2.00186E+01-9.25649E-03-4.08579E-05 7.93613E-03-7.37252E-14-4.77666E-14
 -1      2377 2.00121E+01 5.48134E-04 5.72010E-05 1.05360E-02-8.22298E-14-1.24324E-13
 -1      2378 2.00138E+01-7.80616E-04-1.43293E-04 1.03526E-02 3.60379E-16-1.39605E-13
 -1      2379 2.00138E+01-2.51110E-03-4.14987E-05 1.16154E-02-1.18294E-14 2.45800E-14
 -1      2380 2.00085E+01 1.91288E-03 3.67196E-05 9.52893E-03-7.22054E-14-8.58323E-14
 -1      2381 2.00103E+01 1.34723E-03-3.55533E-05 1.01013E-02-4.87344E-14-9.95544E-14
 -1      2382 2.00099E+01 1.06273E-03-3.98405E-05 1.18638E-02-5.32842E-14 5.81170E-15
 -1      2383 2.00055E+01 2.31863E-03 2.37562E-05 7.73239E-03-4.90900E-14 1.25988E-14
 -1      2384 2.00071E+01 2.19272E-03 2.09828E-05 8.59642E-03-5.63303E-14-6.26994E-14
 -1      2385 2.00067E+01 2.64156E-03-3.67730E-05 1.04014E-02-8.38374E-14 8.58088E-14
 -1      2386 2.00031E+01 2.21086E-03 1.56642E-05 5.78058E-03-1.35785E-13 1.31659E-13
 -1      2387 2.00044E+01 2.31233E-03 4.54860E-05 6.67445E-03-1.27285E-13 3.30694E-15
 -1      2388 2.00043E+01 3.05574E-03-3.28168E-05 8.28398E-03-1.07315E-13 8.84948E-14
 -1      2389 2.00014E+01 1.86938E-03 1.06075E-05 4.00151E-03 2.75699E-14 1.65709E-13
 -1      2390 2.00024E+01 2.06728E-03 5.13764E-05 4.79451E-03 6.04786E-15 1.48465E-13
 -1      2391 2.00024E+01 2.85592E-03-2.83754E-05 6.10998E-03-7.64425E-14 5.88746E-14
 -1      2392 2.00001E+01 1.45806E-03 7.39085E-06 2.53380E-03 4.08560E-14 1.01666E-13
 -1      2393 2.00008E+01 1.67743E-03 4.75147E-05 3.17503E-03 6.56080E-14 1.17778E-13
 -1      2394 2.00011E+01 2.38525E-03-2.37881E-05 4.17980E-03 9.26224E-14 1.34966E-13
 -1      2395 1.99993E+01 1.06434E-03 5.27404E-06 1.40707E-03 5.44601E-14-2.20806E-14
 -1      2396 1.99998E+01 1.26653E-03 3.94093E-05 1.89053E-03 7.65980E-14 1.17104E-14
 -1      2397 2.00002E+01 1.84279E-03-1.93370E-05 2.61160E-03 1.25733E-13 1.09717E-13
 -1      2398 1.99989E+01 7.28144E-04 3.81812E-06 5.94408E-04-5.86227E-14-8.36224E-14
 -1      2399 1.99991E+01 8.96688E-04 3.02506E-05 9.36554E-04 1.98267E-14-5.42150E-14
 -1      2400 1.99996E+01 1.33322E-03-1.52343E-05 1.42015E-03 4.25436E-14-7.03895E-14
 -1      2401 1.99986E+01 4.61712E-04 2.77124E-06 4.45295E-05 2.49418E-13-2.18670E-14
 -1      2402 1.99987E+01 5.92788E-04 2.17135E-05 2.70756E-04 5.20735E-15-6.04224E-14
 -1      2403 1.99992E+01 9.02964E-04-1.16163E-05 5.67797E-04 9.73256E-15-1.00671E-13
 -1      2404 1.99985E+01 2.62551E-04 1.99166E-06-2.99648E-04 2.08201E-13 1.76698E-13
 -1      2405 1.99986E+01 3.58845E-04 1.45358E-05-1.62650E-04 2.41009E-13 2.04721E-13
 -1      2406 1.99990E+01 5.64800E-04-8.54872E-06-4.46223E-06 8.32754E-14 3.93117E-14
 -1      2407 1.99986E+01 1.21392E-04 1.39925E-06-4.91359E-04-8.91429E-14 1.68092E-13
 -1      2408 1.99985E+01 1.88392E-04 8.91337E-06-4.19427E-04 9.85045E-14 1.75085E-13
 -1      2409 1.99989E+01 3.13841E-04-6.03991E-06-3.59273E-04 1.48589E-13 3.07925E-13
 -1      2410 1.99987E+01 2.68074E-05 9.46795E-07-5.75739E-04-2.25235E-14 8.42525E-14
 -1      2411 1.99986E+01 7.06951E-05 4.75668E-06-5.48799E-04-4.43680E-14 1.07245E-13
 -1      2412 1.99989E+01 1.37282E-04-4.05695E-06-5.53870E-04 6.96648E-15 2.36785E-13
 -1      2413 1.99988E+01-3.23355E-05 6.03991E-07-5.88683E-04 2.26251E-13 9.37298E-14
 -1      2414 1.99987E+01-5.76837E-06 1.84811E-06-5.91027E-04 1.66268E-13 2.79044E-14
 -1      2415 1.99990E+01 2.00171E-05-2.54168E-06-6.36242E-04 8.32817E-14 4.12067E-14
 -1      2416 1.99989E+01-6.57281E-05 3.49096E-07-5.57345E-04 3.16525E-14 1.14062E-13
 -1      2417 1.99988E+01-5.15555E-05-6.68154E-08-5.77267E-04 1.86166E-13 9.33439E-14
 -1      2418 1.99991E+01-5.24029E-05-1.42387E-06-6.44304E-04 2.24526E-13 3.17454E-14
 -1      2419 1.99991E+01-8.12428E-05 1.64853E-07-5.01374E-04-7.52096E-14 2.70078E-14
 -1      2420 1.99990E+01-7.55302E-05-1.23116E-06-5.30532E-04-4.81583E-14 5.57674E-14
 -1      2421 1.99992E+01-9.24330E-05-6.30907E-07-6.06612E-04 1.97208E-14-1.04956E-13
 -1      2422 1.99992E+01-8.49586E-05 3.67246E-08-4.34365E-04 7.48311E-15-2.07701E-13
 -1      2423 1.99991E+01-8.47103E-05-1.85449E-06-4.67087E-04-1.23721E-15-8.15795E-14
 -1      2424 1.99993E+01-1.10120E-04-9.42854E-08-5.43764E-04-3.47305E-16-2.01959E-13
 -1      2425 1.99993E+01-8.13780E-05-4.77771E-08-3.65257E-04 2.00747E-13-1.05640E-13
 -1      2426 1.99992E+01-8.44041E-05-2.10598E-06-3.97895E-04 1.05925E-13-1.30001E-13
 -1      2427 1.99994E+01-1.13180E-04 2.46789E-07-4.69967E-04 5.46442E-14-1.37562E-13
 -1      2428 1.99994E+01-7.37097E-05-9.93270E-08-2.99548E-04-3.76661E-14 5.91472E-14
 -1      2429 1.99994E+01-7.84707E-05-2.11565E-06-3.29928E-04 1.61008E-13-4.58273E-14
 -1      2430 1.99994E+01-1.07300E-04 4.43725E-07-3.94534E-04 4.44011E-14 1.72353E-14
 -1      2431 1.99995E+01-6.41515E-05-1.26889E-07-2.40284E-04-2.09310E-13 1.56218E-13
 -1      2432 1.99995E+01-6.96096E-05-1.97932E-06-2.67268E-04-1.88215E-13 6.95579E-14
 -1      2433 1.99995E+01-9.65124E-05 5.38311E-07-3.23165E-04-1.30709E-13 8.21562E-14
 -1      2434 1.99996E+01-5.41421E-05-1.37809E-07-1.88834E-04-6.80456E-14 1.60552E-13
 -1      2435 1.99995E+01-5.96313E-05-1.76480E-06-2.11983E-04-6.35576E-14 9.67214E-14
 -1      2436 1.99996E+01-8.35652E-05 5.63340E-07-2.58990E-04-1.71824E-13-4.90830E-15
 -1      2437 1.99996E+01-4.45695E-05-1.37920E-07-1.45470E-04 1.81162E-14-7.40272E-14
 -1      2438 1.99996E+01-4.96907E-05-1.51807E-06-1.64791E-04-1.07472E-14 3.11724E-14
 -1      2439 1.99996E+01-7.02432E-05 5.43698E-07-2.03383E-04 7.65996E-14 1.24799E-13
 -1      2440 1.99997E+01-3.59368E-05-1.31675E-07-1.09792E-04 1.04214E-13-2.26314E-13
 -1      2441 1.99997E+01-4.04745E-05-1.26862E-06-1.25557E-04 1.16948E-13-1.51923E-13
 -1      2442 1.99997E+01-5.76376E-05 4.97639E-07-1.56574E-04 1.24235E-13-5.39053E-14
 -1      2443 1.99997E+01-2.84900E-05-1.22446E-07-8.10158E-05 3.85925E-14-1.22227E-13
 -1      2444 1.99997E+01-3.23493E-05-1.03389E-06-9.36428E-05 4.53809E-14-2.09309E-13
 -1      2445 1.99997E+01-4.63565E-05 4.37937E-07-1.18088E-04 6.90989E-14-2.16423E-14
 -1      2446 1.99997E+01-2.23127E-05-1.14742E-07-5.81826E-05-1.57953E-13-3.00678E-13
 -1      2447 1.99997E+01-2.54725E-05-8.23497E-07-6.81471E-05-4.69816E-14-1.23505E-13
 -1      2448 1.99997E+01-3.66871E-05 3.72391E-07-8.70618E-05-4.45148E-14 1.91800E-14
 -1      2449 1.99998E+01-1.73562E-05-1.12371E-07-4.02689E-05-2.72970E-14-3.41653E-13
 -1      2450 1.99998E+01-1.98791E-05-6.46508E-07-4.80590E-05-2.16482E-13-3.02436E-13
 -1      2451 1.99998E+01-2.87201E-05 3.01550E-07-6.24545E-05-1.35188E-13-5.19617E-14
 -1      2452 1.99998E+01-1.35525E-05-1.55307E-07-2.64135E-05-1.88501E-13-1.92596E-13
 -1      2453 1.99998E+01-1.54749E-05-5.19570E-07-3.23916E-05-1.69530E-13-1.97957E-13
 -1      2454 1.99998E+01-2.21917E-05 3.11835E-07-4.31038E-05-1.41816E-13-1.06374E-13
 -1      2455 1.99998E+01-1.32605E-05-3.33461E-07-2.05060E-05-4.95834E-14-7.78905E-14
 -1      2456 1.99998E+01-4.24022E-05 2.25265E-07-1.89009E-05 2.48068E-13-3.95353E-15
 -1      2457 1.99998E+01-3.86288E-05-8.89154E-08-2.00827E-05 1.98932E-13-6.09695E-14
 -1      2458 1.99998E+01-3.32547E-05 1.79777E-07-2.07470E-05 6.93637E-14 3.34766E-14
 -1      2459 1.99998E+01-2.90712E-05-1.23295E-07-2.02617E-05-4.84858E-14 1.10871E-13
 -1      2460 1.99998E+01-4.07076E-05-1.12232E-07-2.45691E-05 5.57678E-14 7.82757E-14
 -1      2461 1.99998E+01-2.45678E-05 1.48751E-07-2.00411E-05 3.26475E-15 1.83774E-13
 -1      2462 1.99998E+01-2.04217E-05-1.31488E-07-1.80856E-05-7.61875E-15 2.21916E-13
 -1      2463 1.99998E+01-2.25645E-05-1.78291E-07-2.34540E-05-9.22150E-15 2.00677E-13
 -1      2464 1.99998E+01-3.12842E-05-1.58212E-07-2.51014E-05 7.86052E-14 1.68197E-13
 -1      2465 1.12724E+01-2.41346E+00 9.74486E-03 7.91670E+00-6.28664E-13 9.21735E-13
 -1      2466 7.76795E+00-1.91235E+00 7.09189E-02 6.47129E+00-6.79179E-13 1.00725E-12
 -1      2467 1.99998E+01-4.96938E-05 2.29712E-07-1.38487E-05 3.00962E-13-1.12721E-14
 -1      2468 1.99998E+01-4.68650E-05-1.87809E-08-1.64355E-05 2.23908E-13 7.52450E-15
 -1      2469 1.99998E+01-5.01416E-05-1.54471E-07-2.11232E-05 2.93787E-13-8.86942E-14
 -1      2470 1.99998E+01-5.41208E-05 2.01319E-07-6.40546E-06 1.87692E-13-2.60948E-13
 -1      2471 1.99998E+01-5.26133E-05 6.86187E-08-9.94429E-06 1.05508E-13-2.05942E-13
 -1      2472 1.99998E+01-5.72761E-05-2.17425E-07-1.41632E-05 1.15133E-13-1.09140E-13
 -1      2473 1.99998E+01-5.50808E-05 1.44572E-07 2.12958E-06 1.75867E-13-6.72976E-14
 -1      2474 1.99998E+01-5.51120E-05 1.46683E-07-1.73118E-06 1.32844E-13 4.32421E-14
 -1      2475 1.99998E+01-6.10422E-05-2.43402E-07-4.83844E-06 2.35271E-13-1.84053E-13
 -1      2476 1.99998E+01-5.24580E-05 6.90914E-08 1.02897E-05 1.11560E-13-2.64159E-13
 -1      2477 1.99998E+01-5.40306E-05 2.01295E-07 6.78522E-06 1.96063E-13-2.92392E-13
 -1      2478 1.99998E+01-6.09858E-05-2.42439E-07 5.28154E-06 1.88155E-13-1.49043E-13
 -1      2479 1.99998E+01-4.67422E-05-1.83690E-08 1.65892E-05 1.01322E-13-3.27979E-13
 -1      2480 1.99998E+01-4.95529E-05 2.29202E-07 1.40874E-05 1.70768E-13-2.87308E-13
 -1      2481 1.99998E+01-5.71703E-05-2.19177E-07 1.44655E-05 2.42492E-13-3.25189E-13
 -1      2482 1.99998E+01-3.84875E-05-1.03675E-07 2.01398E-05 8.38284E-14 2.57755E-13
 -1      2483 1.99998E+01-4.22479E-05 2.24784E-07 1.90158E-05 1.19466E-13-1.13785E-14
 -1      2484 1.99998E+01-5.00493E-05-1.65631E-07 2.12801E-05 3.19998E-13-1.76488E-13
 -1      2485 1.99998E+01-2.88116E-05-1.52390E-07 2.01872E-05 9.63877E-14-7.53578E-14
 -1      2486 1.99998E+01-3.29852E-05 1.90410E-07 2.06865E-05 1.88061E-15 3.15370E-13
 -1      2487 1.99998E+01-4.03943E-05-9.52195E-08 2.46286E-05 1.50748E-13 1.43705E-13
 -1      2488 1.99998E+01-1.88823E-05-1.44160E-07 1.68357E-05-4.49414E-14-1.72920E-13
 -1      2489 1.99998E+01-2.30310E-05 1.05748E-07 1.88344E-05-1.18509E-14-3.16472E-13
 -1      2490 1.99998E+01-2.95166E-05-3.63349E-08 2.38703E-05-1.11632E-13-2.12629E-13
 -1      2491 2.61700E+01-2.51937E+00-9.75353E-02 5.61479E+00-2.67952E-13 2.19824E-14
 -1      2492 2.34502E+01-3.11876E+00 2.52317E-02 6.50142E+00-3.94518E-13 1.65756E-13
 -1      2493 3.89966E+00-1.72009E-01 8.95008E-02 2.86691E-01-3.19998E-13 8.53595E-13
 -1      2494 4.79341E+00-3.86712E-01 9.46566E-02-2.12889E+00-2.79360E-13 9.20874E-13
 -1      2495 2.05599E+01 8.99339E-01 5.34659E-02-4.20360E+00 3.50121E-13 3.76990E-14
 -1      2496 2.01079E+01 1.26682E+00 1.73203E-02-3.75715E+00 2.42721E-13 7.06865E-14
 -1      2497 1.84870E+01 1.72060E+00 4.89225E-02-3.43123E+00 2.30143E-13 1.31865E-13
 -1      2498 2.61437E+01-3.64319E+00 7.16034E-02-4.39500E+00 2.44527E-14-6.64746E-15
 -1      2499 2.41584E+01-2.15186E+00 1.65807E-01-4.92767E+00 2.04808E-13-6.82371E-14
 -1      2500 2.60669E+01 5.14120E+00-6.30728E-02 1.86542E+00-9.01241E-14-4.94728E-13
 -1      2501 2.70681E+01 4.81479E+00-4.28384E-02 1.70782E+00-1.71535E-13-3.82237E-13
 -1      2502 2.56856E+01 5.22200E+00-5.34730E-03 1.92962E+00-2.03223E-14-4.93605E-13
 -1      2503 2.80293E+01 4.42045E+00-1.22716E-01 1.52227E+00-1.82694E-13-2.24588E-13
 -1      2504 2.88533E+01 3.83094E+00-2.75673E-02 9.10260E-01-2.91879E-13-6.19921E-14
 -1      2505 2.78363E+01 5.03889E+00-2.25467E-02 1.99817E+00-6.44346E-14-2.37279E-13
 -1      2506 1.50543E+01-1.63190E+00-5.63149E-01 1.86551E+00 5.98410E-14-1.94261E-13
 -1      2507 3.74624E+01-3.58296E+00-9.80336E-03-3.58533E+00 5.24025E-14 1.13271E-12
 -1      2508 5.62397E+00-8.15380E-01 8.52201E-02 4.94275E+00-5.20889E-13 1.00991E-12
 -1      2509 4.35776E+00-3.21710E-01 1.08297E-01 2.72319E+00-5.02987E-13 9.39193E-13
 -1      2510 3.33511E+01 5.06867E+00-9.54657E-02 1.12443E+00 4.46754E-13-2.74863E-13
 -1      2511 3.22741E+01 3.52929E+00-7.12421E-02 1.39451E+00 3.40367E-13-2.81997E-13
 -1      2512 3.36941E+01 7.82619E+00-1.25308E-01 7.69891E-01 6.21558E-13-2.69326E-13
 -1      2513 3.36269E+01 6.71854E+00-8.20757E-02 8.70846E-01 5.59608E-13-2.91572E-13
 -1      2514 3.29138E+01 5.81319E+00-9.98832E-02 7.74446E-01 3.55910E-13 9.78106E-14
 -1      2515 3.33592E+01 6.81024E+00-1.77553E-01 1.20401E+00 4.96381E-13-1.81244E-14
 -1      2516 3.02651E+01 3.23102E+00-4.50594E-02-1.51569E+00-1.50735E-13 1.77636E-13
 -1      2517 3.22710E+01 4.12539E+00-1.98442E-01-3.21505E-01 1.30881E-13 1.48853E-13
 -1      2518 2.47678E+01 2.34785E+00 2.31121E-02-4.34759E+00-6.27054E-13 8.13516E-14
 -1      2519 6.99706E+00-1.17908E+00 5.16184E-02-4.21554E+00-9.55902E-14 8.52096E-13
 -1      2520 1.03085E+01-1.94248E+00 5.49277E-02-5.94140E+00-1.09801E-13 7.43711E-13
 -1      2521 2.41763E+01-4.19506E+00-8.47261E-02-5.51382E+00-1.31173E-13 1.80685E-13
 -1      2522 3.12689E+01 1.13795E+00-9.60074E-02 2.56982E+00 1.55119E-13-2.38143E-13
 -1      2523 2.88911E+01-7.97476E-01-1.39187E-02 3.69968E+00-9.73804E-14-1.59484E-13
 -1      2524 2.03442E+01-3.80800E+00 6.47305E-02-6.29436E+00-8.42659E-14 2.97651E-13
 -1      2525 1.31393E+01-2.76759E+00 3.04068E-02-6.29130E+00-5.79259E-14 5.97633E-13
 -1      2526 1.69031E+01-3.26161E+00 9.91772E-03-6.71874E+00-8.25451E-14 3.96516E-13
 -1      2527 1.88664E+01-2.59624E+00 1.10611E-01-6.32329E+00 1.28730E-13 2.40918E-13
 -1      2528 1.32682E+01-1.26500E+00 1.35688E-01-5.86883E+00 2.16882E-13 5.30909E-13
 -1      2529 1.99526E+01-3.24095E+00-1.29379E-02 7.83482E+00-5.18696E-13 4.27429E-13
 -1      2530 1.58601E+01-3.19438E+00 7.79727E-02 7.93397E+00-7.28251E-13 6.56520E-13
 -1      2531 2.24050E+01-3.45392E+00 8.93766E-02 6.63243E+00-6.68604E-13 1.91729E-13
 -1      2532 2.98615E+01 4.25233E+00-5.30345E-02 1.21990E+00-9.30506E-14 6.48370E-14
 -1      2533 2.92259E+01 3.09284E+00-1.82894E-01-1.20721E-02-3.05303E-13 6.41640E-14
 -1      2534 2.86443E+01 2.72521E+00 9.30764E-03-1.65213E+00-4.23474E-13 1.53794E-13
 -1      2535 2.02331E+01-1.68534E+00 7.93055E-03-5.70439E+00 2.43472E-13 1.41595E-13
 -1      2536 1.81774E+01 9.20537E-01 1.34629E-02 9.29898E-01 3.68514E-13-1.49595E-13
 -1      2537 1.86213E+01 1.27253E+00 5.54715E-03 1.16126E+00 3.99172E-13-2.69065E-13
 -1      2538 1.81086E+01 8.25956E-01 1.57773E-02 5.72021E-01 3.37704E-13-2.16947E-13
 -1      2539 6.23143E+00 9.14878E-01 1.76234E-01 1.47970E+00-3.19793E-13 8.41771E-13
 -1      2540 1.50095E+01-2.47042E+00 1.13089E-01 7.73603E+00-7.28417E-13 7.60558E-13
 -1      2541 1.91386E+01 1.02050E+00-6.75220E-03-4.54573E-02 2.67281E-13-3.65077E-13
 -1      2542 1.84727E+01 8.26667E-01 9.04746E-03 9.07336E-02 2.64071E-13-3.15146E-13
 -1      2543 1.99998E+01-1.85190E-05 2.68938E-07-2.80875E-05-1.31134E-13 2.17010E-14
 -1      2544 1.83765E+01 7.62520E-01 1.18424E-02-4.77859E+00 3.75817E-13 1.00815E-13
 -1      2545 8.70873E+00-4.09933E-01 1.57828E-01 5.65489E+00-5.89390E-13 9.76441E-13
 -1      2546 2.78631E+01-2.08487E+00 3.35065E-02 3.69360E+00-3.11612E-13-2.42584E-13
 -1      2547 1.84320E+01 9.26708E-01 1.92191E-02 3.94117E-01 3.09445E-13-2.70360E-13
 -1      2548 1.99998E+01-1.33768E-05 4.20999E-09 1.38801E-05 7.96074E-14 3.33713E-13
 -1      2549 8.08959E+00 3.33929E-01 1.72685E-01-3.28518E+00 2.59792E-14 7.59309E-13
 -1      2550 1.99998E+01-1.82397E-05 4.20802E-08 1.93936E-05 2.12996E-13 1.86134E-13
 -1      2551 3.13754E+01 4.99798E+00-3.78012E-02 1.06111E+00 1.11522E-13 8.57925E-14
 -1      2552 3.16018E+01 7.88261E+00-6.75463E-02 7.18086E-01 5.45591E-13-3.70801E-13
 -1      2553 3.16960E+01 5.65337E+00-3.79873E-02 8.52103E-02 3.97266E-13-4.87388E-13
 -1      2554 3.08484E+01 1.74093E+00-1.88750E-02 1.00626E+00 9.57567E-14-4.26464E-13
 -1      2555 3.15628E+01 7.42852E+00-4.73986E-02 1.60717E+00 4.56135E-13-1.45967E-13
 -1      2556 2.69918E+01 2.25558E+00-1.79918E-01-3.62105E+00-4.27103E-13 1.40082E-13
 -1      2557 2.33932E+01 4.71097E+00-2.69620E-03 1.48986E+00 1.09720E-13-6.09347E-13
 -1      2558 2.41697E+01 4.90008E+00-2.77340E-02 1.54005E+00 4.92822E-14-5.67920E-13
 -1      2559 1.90442E+01 1.58585E+00 4.39158E-03 1.31587E+00 3.93491E-13-3.37314E-13
 -1      2560 1.93674E+01 1.98440E+00-3.47766E-03 1.48503E+00 4.10382E-13-4.22716E-13
 -1      2561 1.89916E+01 1.39875E+00 2.51437E-03 8.68796E-01 3.60260E-13-3.62286E-13
 -1      2562 1.79451E+01 1.96456E+00 1.14555E-02-2.19798E+00 9.99608E-14 1.21587E-13
 -1      2563 1.82474E+01 1.75884E+00-2.59450E-02-1.84034E+00 8.07736E-14 8.63688E-14
 -1      2564 2.07418E+01 3.12737E+00-1.13732E-02 1.49120E+00 3.17461E-13-5.94429E-13
 -1      2565 2.13399E+01 3.53386E+00-1.28580E-02 1.44161E+00 2.36979E-13-6.19229E-13
 -1      2566 8.47135E+00 1.62322E+00 1.66942E-01-2.17220E+00 5.46160E-14 6.62220E-13
 -1      2567 1.06808E+01 6.83573E-01 1.05686E-01-4.42864E+00 1.49464E-13 5.79009E-13
 -1      2568 1.88543E+01 1.54991E+00 4.07280E-03-1.60714E+00 7.17165E-14 5.35383E-14
 -1      2569 1.90336E+01 1.32343E+00-1.96740E-02-1.32902E+00 1.13679E-13 6.17481E-14
 -1      2570 1.78657E+01 1.94982E+00 3.91795E-02-1.35076E+00 5.07784E-14-3.75524E-15
 -1      2571 1.94128E+01 1.12548E+00 3.40991E-03-1.15382E+00 8.92281E-14-3.36146E-15
 -1      2572 1.95027E+01 9.35360E-01-1.33906E-02-9.43993E-01-7.34234E-14 1.34357E-14
 -1      2573 1.87681E+01 1.44741E+00 2.42468E-02-1.01863E+00 4.98492E-14-3.71448E-14
 -1      2574 1.97323E+01 7.79125E-01 3.73966E-03-8.11215E-01-1.07191E-13 5.20472E-14
 -1      2575 1.97679E+01 6.36578E-01-8.71476E-03-6.58461E-01-7.53794E-14 7.82154E-14
 -1      2576 1.93159E+01 1.02139E+00 1.48992E-02-7.51884E-01-8.10364E-14-4.16420E-15
 -1      2577 1.99024E+01 5.23266E-01 3.46312E-03-5.59811E-01-1.54170E-13 5.25619E-14
 -1      2578 1.99094E+01 4.22562E-01-5.72182E-03-4.51894E-01-1.83948E-13 2.47827E-14
 -1      2579 1.96381E+01 6.97445E-01 9.00804E-03-5.42454E-01-1.25297E-13-9.33109E-14
 -1      2580 1.99880E+01 3.40907E-01 2.88023E-03-3.76954E-01-1.40012E-13-2.45749E-14
 -1      2581 1.99821E+01 2.70401E-01-3.59452E-03-3.00087E-01-1.66993E-13-1.55795E-14
 -1      2582 1.98243E+01 4.61214E-01 5.26971E-03-3.80276E-01-1.93887E-13-2.24063E-14
 -1      2583 2.00231E+01 2.19477E-01 2.27537E-03-2.50600E-01-1.45895E-13-3.88625E-15
 -1      2584 2.00128E+01 1.75006E-01-2.15522E-03-2.01171E-01-6.44582E-14 1.35893E-14
 -1      2585 1.99246E+01 2.99684E-01 2.81031E-03-2.61806E-01-1.28025E-13-2.39781E-14
 -1      2586 2.00339E+01 1.41515E-01 1.69974E-03-1.66615E-01-1.39828E-14 1.04930E-13
 -1      2587 2.00233E+01 1.12401E-01-1.32172E-03-1.33601E-01 3.86653E-14 1.32067E-13
 -1      2588 1.99747E+01 1.94870E-01 1.47317E-03-1.79550E-01 1.44055E-14 3.95676E-14
 -1      2589 2.00336E+01 9.06946E-02 1.22198E-03-1.09877E-01 8.19376E-14 1.37084E-13
 -1      2590 2.00244E+01 7.18561E-02-7.98226E-04-8.80006E-02 5.94911E-14 9.15617E-14
 -1      2591 1.99988E+01 1.25861E-01 7.36031E-04-1.21757E-01 7.46408E-14-2.23381E-15
 -1      2592 2.00287E+01 5.78989E-02 8.60346E-04-7.18706E-02-6.74868E-14 1.61564E-13
 -1      2593 2.00213E+01 4.57905E-02-4.74583E-04-5.74630E-02-7.91844E-14 1.12007E-13
 -1      2594 2.00089E+01 8.08994E-02 3.34697E-04-8.17422E-02-3.73794E-14 1.32786E-14
 -1      2595 2.00226E+01 3.68594E-02 5.96502E-04-4.65721E-02-7.38536E-14 1.19328E-13
 -1      2596 2.00170E+01 2.91090E-02-2.77182E-04-3.71253E-02-1.15210E-13 1.17166E-13
 -1      2597 2.00118E+01 5.18249E-02 1.24575E-04-5.43187E-02-9.12849E-14 2.88812E-14
 -1      2598 2.00169E+01 2.34076E-02 4.08161E-04-2.98104E-02-1.95903E-13 1.10326E-13
 -1      2599 2.00127E+01 1.84350E-02-1.69821E-04-2.36303E-02-1.98867E-13 1.85437E-14
 -1      2600 2.00114E+01 3.31159E-02 2.30241E-05-3.56662E-02-1.37165E-13-1.37702E-14
 -1      2601 2.00120E+01 1.46301E-02 2.74009E-04-1.85196E-02-2.30780E-13-3.85656E-14
 -1      2602 2.00088E+01 1.13720E-02-9.64667E-05-1.43650E-02-2.88768E-13 5.22685E-15
 -1      2603 2.00095E+01 2.09192E-02-8.14190E-06-2.28311E-02-2.86625E-13-1.32288E-13
 -1      2604 2.00080E+01 9.12794E-03 1.85641E-04-1.11957E-02-2.89201E-13-1.07670E-13
 -1      2605 2.00060E+01 7.14389E-03-4.78435E-05-8.64706E-03-2.45983E-13-6.07986E-14
 -1      2606 2.00073E+01 1.30748E-02-4.30090E-05-1.42360E-02-3.59922E-13-1.31350E-13
 -1      2607 2.00052E+01 5.69314E-03 1.23050E-04-6.54725E-03-9.87474E-14-1.21418E-13
 -1      2608 2.00038E+01 4.42659E-03-2.43206E-05-4.91302E-03-1.08169E-14-2.07158E-13
 -1      2609 2.00054E+01 8.23054E-03-4.46650E-05-8.68831E-03-2.69774E-13-1.55120E-13
 -1      2610 2.00031E+01 3.49554E-03 8.16704E-05-3.54306E-03-9.92341E-16-2.11372E-13
 -1      2611 2.00022E+01 2.68349E-03-1.15337E-05-2.50848E-03-1.40132E-15-2.12321E-13
 -1      2612 2.00037E+01 5.11226E-03-3.96398E-05-5.01683E-03-3.80730E-14-1.20788E-13
 -1      2613 2.00017E+01 2.08582E-03 5.36368E-05-1.63059E-03 1.19917E-13-3.21867E-13
 -1      2614 2.00011E+01 1.56544E-03-4.62247E-06-9.90690E-04 1.40147E-13-1.66278E-13
 -1      2615 2.00024E+01 3.10311E-03-3.26108E-05-2.62022E-03 4.43939E-14-1.79859E-13
 -1      2616 2.00007E+01 1.18330E-03 3.48753E-05-4.43840E-04 8.18948E-14-1.01899E-13
 -1      2617 2.00004E+01 8.48838E-04-1.76508E-06-6.22452E-05 5.87216E-14-5.83307E-14
 -1      2618 2.00015E+01 1.80877E-03-2.55552E-05-1.08769E-03 1.40152E-13-2.16341E-13
 -1      2619 2.00001E+01 5.94668E-04 2.18652E-05 2.76415E-04 5.80399E-14-1.88672E-13
 -1      2620 1.99999E+01 3.78280E-04 1.64207E-07 4.93987E-04 1.26487E-13-9.46081E-14
 -1      2621 2.00008E+01 9.68781E-04-1.77508E-05-1.24179E-04 1.01746E-14-1.05081E-13
 -1      2622 1.99997E+01 2.32111E-04 1.31602E-05 6.65571E-04 1.04476E-13-5.28153E-14
 -1      2623 1.99996E+01 1.05421E-04 1.60642E-06 7.63404E-04 1.47229E-13-6.50851E-15
 -1      2624 2.00003E+01 4.30793E-04-1.41232E-05 4.38474E-04 1.22008E-13-1.88893E-13
 -1      2625 1.99995E+01 1.48416E-05 7.25022E-06 8.42490E-04 1.47037E-13 4.96392E-14
 -1      2626 1.99995E+01-5.91383E-05 1.93380E-06 8.72549E-04 5.14546E-14 1.86119E-13
 -1      2627 2.00000E+01 1.11197E-04-1.01016E-05 7.25571E-04 1.54585E-13-1.18321E-13
 -1      2628 1.99994E+01-1.11372E-04 3.56578E-06 8.92198E-04-5.50375E-14 3.45015E-13
 -1      2629 1.99994E+01-1.51521E-04 1.88894E-06 8.81213E-04 4.21058E-14 4.18367E-13
 -1      2630 1.99998E+01-8.03774E-05-7.07125E-06 8.47350E-04 1.11368E-13 3.72066E-14
 -1      2631 1.99994E+01-1.78498E-04 1.21294E-06 8.64724E-04-1.54985E-13 3.29424E-13
 -1      2632 1.99994E+01-1.96688E-04 1.72585E-06 8.30361E-04-2.14987E-13 2.27157E-13
 -1      2633 1.99997E+01-1.87268E-04-4.83024E-06 8.64953E-04-1.51742E-13 1.18601E-13
 -1      2634 1.99994E+01-2.07332E-04-2.35608E-07 7.93555E-04-3.10151E-13 7.51460E-14
 -1      2635 1.99994E+01-2.11577E-04 1.50265E-06 7.47520E-04-3.76767E-13-9.11675E-14
 -1      2636 1.99997E+01-2.38824E-04-3.20353E-06 8.20197E-04-4.10829E-13 1.42914E-13
 -1      2637 1.99994E+01-2.11844E-04-1.04648E-06 7.00900E-04-2.80466E-13-1.97253E-13
 -1      2638 1.99995E+01-2.07656E-04 1.33328E-06 6.50829E-04-2.16575E-13-2.58219E-13
 -1      2639 1.99996E+01-2.54949E-04-2.05392E-06 7.41352E-04-4.09059E-13-9.62074E-15
 -1      2640 1.99995E+01-2.01228E-04-1.43280E-06 5.98644E-04-1.56107E-13-1.94899E-13
 -1      2641 1.99995E+01-1.91765E-04 1.09784E-06 5.46924E-04-1.57548E-13-2.99886E-13
 -1      2642 1.99996E+01-2.48525E-04-1.30014E-06 6.44696E-04-1.93773E-13 2.21395E-14
 -1      2643 1.99995E+01-1.82335E-04-1.64955E-06 4.98814E-04-1.16314E-13-2.82236E-13
 -1      2644 1.99995E+01-1.70745E-04 8.89431E-07 4.52992E-04-3.67506E-14-1.06328E-13
 -1      2645 1.99996E+01-2.29083E-04-6.61859E-07 5.44858E-04-1.43175E-13 5.46789E-14
 -1      2646 1.99996E+01-1.60016E-04-1.64033E-06 4.08797E-04-9.04748E-14-2.59995E-13
 -1      2647 1.99996E+01-1.47679E-04 7.30394E-07 3.67934E-04-1.35609E-13-3.41657E-13
 -1      2648 1.99997E+01-2.03492E-04-2.98101E-07 4.51848E-04-1.18322E-13 1.81460E-13
 -1      2649 1.99996E+01-1.36726E-04-1.52725E-06 3.28828E-04-5.88958E-14-4.58594E-13
 -1      2650 1.99996E+01-1.24704E-04 5.87704E-07 2.93484E-04 1.22037E-13-3.40560E-13
 -1      2651 1.99997E+01-1.75611E-04-6.98468E-08 3.67288E-04-1.84952E-13-2.59317E-13
 -1      2652 1.99996E+01-1.14269E-04-1.36382E-06 2.59881E-04 1.41740E-13-3.21919E-13
 -1      2653 1.99997E+01-1.03168E-04 4.65898E-07 2.30053E-04 1.44529E-13-2.88351E-13
 -1      2654 1.99997E+01-1.47993E-04 6.60876E-08 2.93101E-04 9.35071E-14-3.24913E-13
 -1      2655 1.99997E+01-9.36883E-05-1.17980E-06 2.01859E-04 1.44955E-13-3.65974E-13
 -1      2656 1.99997E+01-8.37893E-05 3.99956E-07 1.77194E-04 2.57242E-13-3.16667E-13
 -1      2657 1.99997E+01-1.22220E-04 1.38365E-07 2.29801E-04 1.82745E-13-2.29312E-13
 -1      2658 1.99997E+01-7.50198E-05-9.78402E-07 1.52905E-04 3.36459E-13-3.71834E-13
 -1      2659 1.99997E+01-6.62343E-05 3.05355E-07 1.32072E-04 1.15512E-13-3.39015E-13
 -1      2660 1.99997E+01-9.87449E-05 1.13131E-07 1.75904E-04 3.08008E-13-2.95231E-13
 -1      2661 1.99997E+01-5.92779E-05-8.13918E-07 1.13594E-04-1.33930E-13-1.80273E-13
 -1      2662 1.99997E+01-5.22401E-05 2.11819E-07 9.77796E-05-1.52304E-13-1.21674E-13
 -1      2663 1.99998E+01-7.82573E-05 1.81782E-07 1.31925E-04 8.84957E-14-4.00693E-13
 -1      2664 1.99998E+01-4.64632E-05-6.49594E-07 8.30817E-05 7.00484E-14-1.56085E-14
 -1      2665 1.99998E+01-4.07494E-05 1.57851E-07 7.06287E-05 1.99959E-13 7.73529E-14
 -1      2666 1.99998E+01-6.16380E-05 1.70050E-07 9.76311E-05 4.78761E-14-3.49748E-13
 -1      2667 1.99998E+01-3.60941E-05-5.10174E-07 5.91183E-05 1.67716E-13 1.17607E-13
 -1      2668 1.99998E+01-3.15779E-05 1.08738E-07 4.94388E-05 2.62381E-13 1.75057E-13
 -1      2669 1.99998E+01-4.80170E-05 1.56321E-07 7.04946E-05 1.17923E-13-6.58545E-14
 -1      2670 1.99998E+01-2.79804E-05-4.09597E-07 4.05018E-05 3.08462E-13 1.63358E-13
 -1      2671 1.99998E+01-2.44121E-05 7.99827E-08 3.29886E-05 7.12506E-14 2.59160E-13
 -1      2672 1.99998E+01-3.72516E-05 1.09001E-07 4.93597E-05 2.43988E-13-6.64144E-14
 -1      2673 1.99998E+01-2.08358E-05-1.71100E-07 2.43647E-05 6.76888E-14 1.87660E-13
 -1      2674 1.98704E+01 3.61559E-01-5.16304E-03-1.16771E+00 1.34188E-13-3.55975E-13
 -1      2675 1.98212E+01 5.70207E-01 1.23569E-02-1.02665E+00 1.69537E-13-3.67454E-13
 -1      2676 2.00002E+01 1.29068E-02-4.45958E-03-1.28518E+00 9.11738E-14-3.23632E-13
 -1      2677 1.99257E+01 1.80532E-01 7.97738E-03-1.25078E+00 1.18762E-13-3.32413E-13
 -1      2678 2.04548E+01 3.48368E-01-3.66863E-04-1.26192E+00 1.14826E-13-3.46877E-13
 -1      2679 1.97527E+01 1.23889E+00-2.44311E-03-2.17101E-01 2.12874E-13-4.11976E-13
 -1      2680 1.98073E+01 1.48818E+00 1.16421E-02 1.69594E-01 2.44028E-13-4.30675E-13
 -1      2681 1.99998E+01-2.47917E-05-1.11995E-07-3.07102E-05-9.46351E-14 2.35831E-13
 -1      2682 1.99998E+01-2.64788E-05-3.26295E-07-3.77824E-05-1.36667E-13 1.40150E-13
 -1      2683 1.99998E+01-2.90478E-05 2.30302E-07-3.21153E-05 1.79778E-15 3.04977E-13
 -1      2684 2.01861E+01-3.68152E-01-3.42582E-04-1.04364E+00-5.16978E-14-2.60434E-13
 -1      2685 2.01189E+01-3.13462E-01-7.16541E-04-1.13320E+00-2.39092E-14-2.75583E-13
 -1      2686 2.02121E+01-4.06814E-01 1.35048E-03-8.21590E-01-2.32198E-14-2.50666E-13
 -1      2687 2.01614E+01-3.98356E-01-3.19348E-03-9.27746E-01-1.87061E-14-2.45529E-13
 -1      2688 2.05217E+01-4.68679E-01 1.05814E-03-1.00044E+00-4.60919E-14-3.17632E-13
 -1      2689 2.02037E+01-3.79476E-01 2.30110E-03-6.02545E-01-4.49463E-14-2.62699E-13
 -1      2690 2.01692E+01-4.00887E-01-4.20974E-03-7.04999E-01-3.64885E-14-2.46968E-13
 -1      2691 2.04547E+01-4.96003E-01 5.16092E-06-7.62735E-01-2.31019E-14-3.03674E-13
 -1      2692 2.01758E+01-3.16997E-01 2.57008E-03-4.13765E-01-4.31004E-14-2.31890E-13
 -1      2693 2.01546E+01-3.52798E-01-4.19428E-03-5.01281E-01-4.28749E-14-2.36327E-13
 -1      2694 2.03686E+01-4.50686E-01-7.76681E-04-5.42203E-01-4.31240E-14-3.04237E-13
 -1      2695 2.01411E+01-2.43529E-01 2.37856E-03-2.65591E-01-3.91654E-14-2.06397E-13
 -1      2696 2.01292E+01-2.82326E-01-3.62112E-03-3.34073E-01-3.07143E-14-2.41586E-13
 -1      2697 2.02813E+01-3.69436E-01-1.16227E-03-3.60498E-01-4.70631E-14-2.70770E-13
 -1      2698 2.01074E+01-1.74282E-01 1.96335E-03-1.57568E-01-5.42336E-14-1.41459E-13
 -1      2699 2.01018E+01-2.09344E-01-2.84504E-03-2.07471E-01-4.87971E-14-1.92073E-13
 -1      2700 2.02043E+01-2.79569E-01-1.21644E-03-2.23015E-01-7.03556E-14-2.47569E-13
 -1      2701 2.00787E+01-1.16689E-01 1.49247E-03-8.38138E-02 1.03171E-14-1.82830E-13
 -1      2702 2.00768E+01-1.45047E-01-2.08131E-03-1.17899E-01 2.38545E-14-1.28577E-13
 -1      2703 2.01424E+01-1.97455E-01-1.06981E-03-1.25968E-01-4.19890E-14-2.07348E-13
 -1      2704 2.00560E+01-7.28294E-02 1.06166E-03-3.66838E-02 1.20544E-13-2.00886E-13
 -1      2705 2.00563E+01-9.39623E-02-1.43165E-03-5.84737E-02 6.08883E-14-1.83661E-13
 -1      2706 2.00959E+01-1.30531E-01-8.46781E-04-6.17424E-02 4.76018E-14-1.50825E-13
 -1      2707 2.00391E+01-4.17456E-02 7.12070E-04-8.79462E-03 2.35916E-14-1.31322E-13
 -1      2708 2.00405E+01-5.64423E-02-9.26582E-04-2.16890E-02 3.31593E-14-1.87671E-13
 -1      2709 2.00628E+01-8.03314E-02-6.21427E-04-2.20762E-02 9.78837E-14-1.37682E-13
 -1      2710 2.00268E+01-2.11238E-02 4.51394E-04 6.04553E-03-6.26176E-14-6.18599E-14
 -1      2711 2.00287E+01-3.06947E-02-5.59847E-04-8.10708E-04 3.92646E-14-7.10223E-14
 -1      2712 2.00402E+01-4.52032E-02-4.30761E-04 3.87928E-04-2.87501E-14-1.55281E-13
 -1      2713 2.00182E+01-8.35260E-03 2.69491E-04 1.25793E-02-8.17381E-14-1.02850E-13
 -1      2714 2.00201E+01-1.41575E-02-3.08700E-04 9.56674E-03-1.11141E-13-1.24787E-13
 -1      2715 2.00253E+01-2.21752E-02-2.85701E-04 1.15156E-02-5.40291E-14-2.00162E-13
 -1      2716 2.00121E+01-1.07566E-03 1.49703E-04 1.41978E-02-6.14296E-14 1.52697E-15
 -1      2717 2.00140E+01-4.29237E-03-1.46349E-04 1.34566E-02-5.11273E-14-7.83562E-14
 -1      2718 2.00157E+01-8.09870E-03-1.83459E-04 1.56403E-02-1.33152E-13-2.26732E-13
 -1      2719 2.00079E+01 2.59187E-03 7.51387E-05 1.31850E-02-8.17029E-14 1.08105E-13
 -1      2720 2.00095E+01 1.04558E-03-4.79571E-05 1.36554E-02-7.50933E-14 5.12850E-14
 -1      2721 2.00096E+01-2.14798E-04-1.15522E-04 1.57729E-02-1.25461E-13-9.79249E-14
 -1      2722 2.00050E+01 4.03931E-03 3.15387E-05 1.09916E-02-6.23231E-14 5.62660E-14
 -1      2723 2.00064E+01 3.50004E-03 6.79388E-06 1.20012E-02-5.21513E-14 9.34924E-14
 -1      2724 2.00058E+01 3.64455E-03-7.22992E-05 1.38924E-02-8.22539E-14 4.38177E-14
 -1      2725 2.00030E+01 4.22650E-03 7.98170E-06 8.47759E-03-1.10172E-13 2.79645E-14
 -1      2726 2.00041E+01 4.24363E-03 3.32916E-05 9.62900E-03-4.44313E-14 5.03767E-14
 -1      2727 2.00035E+01 5.05738E-03-4.57076E-05 1.12243E-02-1.37847E-14-6.84652E-14
 -1      2728 2.00016E+01 3.77809E-03-3.32550E-06 6.10736E-03 1.44720E-14-3.84365E-14
 -1      2729 2.00025E+01 4.06329E-03 4.25803E-05 7.18735E-03-7.21421E-14-5.81430E-14
 -1      2730 2.00020E+01 5.10289E-03-2.97291E-05 8.47340E-03-3.88996E-14-1.24128E-13
 -1      2731 2.00007E+01 3.07583E-03-7.61300E-06 4.09442E-03 3.70847E-14-1.05490E-14
 -1      2732 2.00013E+01 3.45620E-03 4.21948E-05 5.00619E-03 3.68056E-14-2.32562E-14
 -1      2733 2.00011E+01 4.47682E-03-2.01847E-05 6.00214E-03 5.62169E-14-1.06003E-13
 -1      2734 2.00001E+01 2.33586E-03-8.20458E-06 2.50334E-03 1.07675E-13-1.92743E-14
 -1      2735 2.00005E+01 2.71600E-03 3.70116E-05 3.21890E-03 8.37962E-14-3.52948E-14
 -1      2736 2.00005E+01 3.59994E-03-1.43790E-05 3.96063E-03 9.46266E-14-1.86179E-13
 -1      2737 1.99997E+01 1.66762E-03-7.09707E-06 1.31747E-03 8.32396E-14-1.24110E-13
 -1      2738 2.00000E+01 2.00128E-03 3.00130E-05 1.84606E-03 1.08728E-13-2.56853E-14
 -1      2739 2.00001E+01 2.70722E-03-1.06805E-05 2.37589E-03 1.36733E-13-7.27420E-14
 -1      2740 1.99995E+01 1.11574E-03-5.41354E-06 4.81802E-04-3.42355E-14-5.12062E-14
 -1      2741 1.99996E+01 1.38597E-03 2.28958E-05 8.49959E-04-4.44255E-14-7.25859E-14
 -1      2742 1.99999E+01 1.91490E-03-8.15397E-06 1.21032E-03 1.80337E-14-1.08689E-13
 -1      2743 1.99993E+01 6.88134E-04-3.73145E-06-7.15228E-05 1.88499E-14 1.53975E-13
 -1      2744 1.99994E+01 8.94215E-04 1.65233E-05 1.68234E-04-6.45504E-14 5.43472E-14
 -1      2745 1.99997E+01 1.26769E-03-6.29347E-06 3.98029E-04-1.07849E-13 4.57997E-14
 -1      2746 1.99993E+01 3.74078E-04-2.30568E-06-4.09175E-04 3.61748E-14 2.90316E-13
 -1      2747 1.99993E+01 5.23186E-04 1.12467E-05-2.66703E-04 1.70315E-13 2.48448E-13
 -1      2748 1.99996E+01 7.70374E-04-4.83974E-06-1.33895E-04-1.98490E-14 1.97421E-13
 -1      2749 1.99993E+01 1.55020E-04-1.21264E-06-5.89792E-04 9.48702E-14 1.19845E-13
 -1      2750 1.99993E+01 2.57349E-04 7.12261E-06-5.17474E-04 5.56146E-14 1.95638E-13
 -1      2751 1.99996E+01 4.07747E-04-3.66527E-06-4.53955E-04 9.35132E-14 2.11984E-13
 -1      2752 1.99993E+01 1.07596E-05-4.38825E-07-6.61482E-04 1.69922E-13 1.49924E-14
 -1      2753 1.99993E+01 7.67902E-05 4.05333E-06-6.37236E-04 6.35825E-14 7.88553E-14
 -1      2754 1.99996E+01 1.56680E-04-2.70755E-06-6.21026E-04 1.21944E-13 1.53878E-13
 -1      2755 1.99993E+01-7.73983E-05 6.74432E-08-6.61725E-04 1.84113E-13 3.94061E-14
 -1      2756 1.99993E+01-3.82426E-05 1.87464E-06-6.68486E-04 2.30758E-13 1.21384E-13
 -1      2757 1.99996E+01-7.18338E-06-1.93266E-06-6.82742E-04 1.50819E-13-1.28690E-14
 -1      2758 1.99994E+01-1.25289E-04 3.67771E-07-6.18487E-04 1.79094E-13-2.12399E-13
 -1      2759 1.99993E+01-1.05173E-04 4.06334E-07-6.43632E-04 1.64484E-13-5.61249E-14
 -1      2760 1.99996E+01-1.06029E-04-1.31724E-06-6.75887E-04 2.22931E-13-1.65847E-13
 -1      2761 1.99995E+01-1.45555E-04 5.19747E-07-5.51791E-04-1.24990E-13-1.25112E-13
 -1      2762 1.99994E+01-1.38308E-04-5.20623E-07-5.86375E-04 7.35114E-14-1.28813E-13
 -1      2763 1.99996E+01-1.58470E-04-8.40827E-07-6.27729E-04 1.14156E-13-1.83243E-13
 -1      2764 1.99995E+01-1.47841E-04 5.71290E-07-4.75371E-04-2.76093E-14 4.73754E-14
 -1      2765 1.99995E+01-1.48811E-04-1.05170E-06-5.13334E-04-1.93652E-13-6.89172E-14
 -1      2766 1.99996E+01-1.79274E-04-4.83229E-07-5.57700E-04-2.09171E-13 1.91472E-13
 -1      2767 1.99996E+01-1.39224E-04 5.59396E-07-3.98168E-04 1.11845E-13 1.54649E-13
 -1      2768 1.99995E+01-1.45036E-04-1.30510E-06-4.35634E-04 2.20620E-13 2.22000E-13
 -1      2769 1.99996E+01-1.79648E-04-2.24428E-07-4.79064E-04-1.01022E-15 1.99799E-13
 -1      2770 1.99996E+01-1.24706E-04 5.11023E-07-3.25611E-04-1.82848E-13 1.28469E-13
 -1      2771 1.99996E+01-1.33001E-04-1.37267E-06-3.60286E-04-5.39242E-14 9.44806E-14
 -1      2772 1.99997E+01-1.67780E-04-4.53516E-08-4.00414E-04 3.45645E-14 2.82105E-13
 -1      2773 1.99997E+01-1.07683E-04 4.44797E-07-2.60639E-04-1.11478E-13-1.31786E-13
 -1      2774 1.99996E+01-1.16881E-04-1.32308E-06-2.91341E-04-1.98016E-13-1.08066E-13
 -1      2775 1.99997E+01-1.49430E-04 7.14073E-08-3.26927E-04-1.75566E-16 1.97318E-14
 -1      2776 1.99997E+01-9.03530E-05 3.72940E-07-2.04493E-04 1.31845E-13-1.91503E-13
 -1      2777 1.99997E+01-9.94485E-05-1.20590E-06-2.30789E-04 5.74391E-14-5.88001E-14
 -1      2778 1.99997E+01-1.28489E-04 1.40998E-07-2.61364E-04-9.50137E-14-3.10318E-13
 -1      2779 1.99997E+01-7.40525E-05 3.03146E-07-1.57314E-04 8.85665E-14-1.14970E-13
 -1      2780 1.99997E+01-8.24508E-05-1.05545E-06-1.79248E-04 1.05864E-13-7.58675E-14
 -1      2781 1.99997E+01-1.07459E-04 1.76082E-07-2.04850E-04 1.28206E-14-2.29941E-13
 -1      2782 1.99997E+01-5.95168E-05 2.40291E-07-1.18572E-04-5.33042E-14-5.25861E-14
 -1      2783 1.99997E+01-6.69052E-05-8.94350E-07-1.36472E-04 7.06981E-14-9.42184E-14
 -1      2784 1.99997E+01-8.78469E-05 1.87063E-07-1.57446E-04 9.43374E-14-1.26605E-13
 -1      2785 1.99998E+01-4.70876E-05 1.83464E-07-8.73749E-05-8.62034E-14 1.41879E-13
 -1      2786 1.99997E+01-5.33332E-05-7.36152E-07-1.01715E-04-2.67344E-14 6.09509E-14
 -1      2787 1.99998E+01-7.04641E-05 1.81777E-07-1.18574E-04-1.48647E-14 1.42516E-13
 -1      2788 1.99998E+01-3.68859E-05 8.52512E-08-6.26810E-05-7.84662E-14 1.60929E-13
 -1      2789 1.99998E+01-4.19156E-05-5.84411E-07-7.39686E-05-7.86284E-14 2.03188E-13
 -1      2790 1.99998E+01-5.56793E-05 1.64889E-07-8.73163E-05-1.26625E-13 1.80786E-13
 -1      2791 1.99998E+01-2.94821E-05-1.67668E-08-4.49254E-05-1.85073E-13 2.78936E-13
 -1      2792 1.99998E+01-3.34123E-05-4.89811E-07-5.38466E-05-1.79901E-13 2.37611E-13
 -1      2793 1.99998E+01-4.39791E-05 2.97251E-07-6.42731E-05-7.61186E-14 4.66808E-13
 -1      2794 1.99998E+01-3.52770E-05 3.37100E-07-4.75205E-05-1.04305E-13 4.36158E-13
 -1      2795 1.51705E+01 8.00071E-01 1.49863E-01-4.68345E+00 2.87909E-13 3.48818E-13
 -1      2796 1.47342E+01 1.83122E+00 8.35334E-02-3.75286E+00 2.56257E-13 2.60986E-13
 -1      2797 1.99998E+01-4.78598E-05 2.73963E-07-2.93595E-05 1.05931E-14-6.05505E-14
 -1      2798 1.99998E+01-4.29092E-05-2.62555E-08-3.00071E-05 2.83001E-14 1.41126E-13
 -1      2799 1.99998E+01-6.51181E-05 2.45146E-07-1.45749E-05 6.06420E-14-2.18640E-13
 -1      2800 1.99998E+01-6.26644E-05-1.76159E-08-1.91026E-05 2.20447E-13-1.97647E-13
 -1      2801 1.99998E+01-6.84097E-05 1.74624E-07-3.06473E-06 2.47890E-14-1.25874E-13
 -1      2802 1.99998E+01-6.75717E-05 8.65815E-08-8.43119E-06 6.73511E-14-1.29784E-13
 -1      2803 1.99998E+01-7.46402E-05-2.83405E-07-1.33260E-05 1.25764E-13-1.96129E-13
 -1      2804 1.99998E+01-5.79597E-05 2.69045E-07-2.37776E-05 2.06919E-13 7.27548E-15
 -1      2805 1.99998E+01-5.41827E-05-1.05946E-07-2.66084E-05 1.87115E-13-1.06884E-14
 -1      2806 1.99998E+01-5.73333E-05 4.08674E-08-3.26173E-05 6.95002E-14 1.31433E-13
 -1      2807 1.99998E+01-6.78767E-05-2.64250E-07-2.49478E-05 4.19350E-14-1.58526E-13
 -1      2808 2.01144E+01-2.33570E-01-2.51087E-03-1.22040E+00 2.11455E-14-2.94642E-13
 -1      2809 2.00366E+01-1.21675E-01 3.24485E-03-1.26441E+00 7.60774E-14-2.89917E-13
 -1      2810 2.05234E+01-5.63413E-02 1.61519E-03-1.32499E+00 6.26147E-14-3.07165E-13
 -1      2811 2.05489E+01-3.30407E-01 1.89212E-03-1.21075E+00-1.33585E-15-2.63914E-13
 -1      2812 1.99998E+01-6.74887E-05 8.74437E-08 8.90961E-06 2.48580E-13 6.75698E-14
 -1      2813 1.99998E+01-6.83870E-05 1.75119E-07 3.56257E-06 7.72242E-14 2.55037E-14
 -1      2814 1.99998E+01-7.69463E-05-2.97594E-07 2.72475E-07-1.18359E-13-5.51698E-14
 -1      2815 1.99998E+01-6.25831E-05-1.12508E-08 1.93193E-05 2.38132E-13-4.58018E-13
 -1      2816 1.99998E+01-6.50363E-05 2.45013E-07 1.49138E-05 2.42162E-13-1.28777E-13
 -1      2817 1.99998E+01-7.45894E-05-2.81755E-07 1.37311E-05 1.58510E-13-3.46149E-14
 -1      2818 1.99998E+01-5.40892E-05-1.08737E-07 2.68714E-05 3.03313E-13-1.17799E-14
 -1      2819 1.99998E+01-5.79048E-05 2.83911E-07 2.39743E-05 3.00163E-13-2.23465E-13
 -1      2820 1.99998E+01-6.78364E-05-2.39880E-07 2.51323E-05 2.21957E-13-2.57217E-13
 -1      2821 1.99998E+01-4.30045E-05-1.78035E-07 3.01236E-05-1.08245E-14-1.81257E-13
 -1      2822 1.99998E+01-4.77141E-05 2.80668E-07 2.93313E-05 2.48284E-13-1.57624E-14
 -1      2823 1.99998E+01-5.73313E-05-1.88830E-07 3.28352E-05 9.62326E-14-1.07794E-13
 -1      2824 1.78429E+01-9.86104E-01 1.79622E-01-5.92684E+00 2.94820E-13 2.84731E-13
 -1      2825 2.99347E+01 5.31070E+00-1.91159E-01 1.79588E+00 1.32352E-13-2.73670E-14
 -1      2826 7.97653E+00 1.65237E+00 1.60726E-01 2.50986E+00-2.56323E-13 6.84119E-13
 -1      2827 7.65880E+00 1.80736E+00 1.44375E-01-8.03287E-02-1.34490E-13 6.61637E-13
 -1      2828 1.67294E+01 2.12761E+00 5.57828E-02-2.94849E+00 2.37548E-13 1.51389E-13
 -1      2829 1.70215E+01 2.08851E+00-2.05875E-02-2.52520E+00 1.58483E-13 1.32644E-13
 -1      2830 1.64526E+01 2.40526E+00 6.95212E-02-1.78726E+00 1.31195E-13 1.61509E-13
 -1      2831 2.46019E+01-1.85117E+00 2.66890E-02 6.73026E-01 2.05724E-13 2.71339E-13
 -1      2832 2.50133E+01 5.30617E+00-2.16570E-02 1.68739E+00 6.14907E-14-5.27929E-13
 -1      2833 2.59736E+01 5.36031E+00-4.48406E-02 1.79568E+00 2.36651E-14-4.46837E-13
 -1      2834 2.45066E+01 5.07890E+00-2.00882E-02 1.36720E+00 8.32737E-14-5.27373E-13
 -1      2835 2.70541E+01 5.63693E+00-9.20589E-02 2.01186E+00 7.80140E-14-3.46071E-13
 -1      2836 2.84037E+01 5.50219E+00-5.77379E-02 1.96680E+00 5.46785E-14-2.06075E-13
 -1      2837 2.93616E+01 6.31936E+00-1.18942E-01 2.03363E+00 2.64982E-13-1.28050E-13
 -1      2838 2.64487E+01 5.85115E+00-5.39317E-02 1.78602E+00 1.28147E-13-3.77287E-13
 -1      2839 2.82011E+01-1.79287E+00-1.52579E-01 2.23568E+00-2.85869E-13-4.34444E-13
 -1      2840 2.64667E+01-2.79948E+00 6.68008E-02 3.69615E+00-4.73534E-13-2.95430E-13
 -1      2841 2.99412E+01 2.28677E+00-1.73648E-01 5.00206E-03 1.10148E-13-6.09790E-13
 -1      2842 2.94079E+01 4.09901E-01-2.71459E-02 7.47239E-01-9.48963E-14-5.78718E-13
 -1      2843 1.73437E+01-2.66983E+00-2.75865E-02 7.42934E+00-7.54022E-13 5.39971E-13
 -1      2844 1.37697E+01-1.48823E+00 1.63426E-01 7.14929E+00-7.02272E-13 7.08156E-13
 -1      2845 2.97697E+01 7.73491E+00-1.47621E-01 7.45937E-01 4.97324E-13-4.05129E-13
 -1      2846 3.00429E+01 7.17090E+00-1.35995E-01 1.16243E-01 4.61992E-13-4.99621E-13
 -1      2847 3.00643E+01 5.82583E+00-1.78061E-01-2.72738E-01 3.81972E-13-5.80626E-13
 -1      2848 3.01333E+01 4.41520E+00-9.59417E-02-4.09223E-01 2.69562E-13-6.40765E-13
 -1      2849 2.90573E+01 7.11634E+00-1.67007E-01 1.65623E+00 3.89896E-13-2.64219E-13
 -1      2850 3.25370E+01-4.70640E+00-2.34921E-01-1.10072E+00 8.17124E-14 5.15976E-13
 -1      2851 1.97696E+01 7.85655E-01-3.99549E-03-8.15508E-01 1.88294E-13-3.84595E-13
 -1      2852 1.97702E+01 1.01492E+00 1.54621E-02-5.46192E-01 2.05519E-13-3.84849E-13
 -1      2853 2.03471E+01 1.38479E+00-9.15382E-03-3.79152E-01 2.06679E-13-4.36363E-13
 -1      2854 2.03775E+01 8.53287E-01-3.19979E-03-9.57601E-01 1.77124E-13-3.94885E-13
 -1      2855 2.36995E+01-3.56833E+00-1.06830E-01 5.62258E+00-6.07500E-13 2.20310E-14
 -1      2856 2.12412E+01-3.17859E+00 1.53664E-01 6.54568E+00-7.85899E-13 2.79970E-13
 -1      2857 1.11500E+01-5.09477E-01 9.52806E-02 6.49820E+00-6.10137E-13 8.38385E-13
 -1      2858 9.13059E+00 6.47904E-01 1.38785E-01 4.77171E+00-5.01044E-13 8.56704E-13
 -1      2859 1.40676E+01-6.08613E-01 1.65748E-01 6.31044E+00-6.33327E-13 6.63233E-13
 -1      2860 2.19822E+01 3.97910E+00-3.30780E-03 1.44325E+00 2.07365E-13-6.52997E-13
 -1      2861 2.26599E+01 4.28624E+00-1.85888E-02 1.42548E+00 1.39053E-13-6.38581E-13
 -1      2862 2.29932E+01 4.27870E+00-7.93622E-03 1.15830E+00 1.26109E-13-5.79891E-13
 -1      2863 2.16899E+01 3.44652E+00 1.47444E-03 1.09042E+00 2.23666E-13-5.80187E-13
 -1      2864 2.60094E+01-3.36750E+00-2.14155E-01 3.45566E-01 1.17018E-13 2.67994E-13
 -1      2865 1.99998E+01-2.81313E-05 5.85303E-08 3.09699E-05 7.51990E-14-3.19320E-13
 -1      2866 1.99504E+01 2.49277E+00-2.85457E-04 1.49114E+00 3.45833E-13-5.23716E-13
 -1      2867 2.02710E+01 2.38450E+00 1.16362E-02 1.07897E+00 3.07487E-13-4.97837E-13
 -1      2868 2.52145E+01-2.99145E+00 4.11712E-02 3.97502E+00-5.82201E-13-2.31398E-13
 -1      2869 1.35308E+01 2.37816E+00 1.10522E-01-2.60806E+00 1.70619E-13 3.03757E-13
 -1      2870 1.99998E+01-3.94395E-05 1.71235E-07-3.27192E-05 5.39019E-14 1.10497E-13
 -1      2871 1.99998E+01-3.51804E-05-6.00469E-08-3.27243E-05 1.96984E-14 2.62771E-13
 -1      2872 1.99998E+01-3.86349E-05-2.76235E-07-4.08562E-05-5.39654E-14 2.53109E-13
 -1      2873 2.88290E+01 6.02789E+00-1.13206E-01-2.97141E-01 3.24907E-13-5.98376E-13
 -1      2874 1.99998E+01-3.02899E-05-2.39681E-08 2.85245E-05-1.77639E-13-3.62784E-13
 -1      2875 1.99998E+01-3.56822E-05 2.32373E-07 3.01322E-05-2.02930E-14-3.80108E-13
 -1      2876 1.02460E+01 1.56265E+00 1.71483E-01 3.37752E+00-3.44821E-13 6.85299E-13
 -1      2877 1.96576E+01-2.57789E+00 9.60584E-02 6.47771E+00-7.56534E-13 3.63432E-13
 -1      2878 2.90127E+01 2.89886E+00-7.33367E-02-5.67959E-01 8.67501E-14-7.04090E-13
 -1      2879 2.81722E+01-8.66645E-01-3.99661E-02 9.58188E-01-2.69751E-13-6.51396E-13
 -1      2880 1.99998E+01-4.43040E-05-4.02696E-09 3.55079E-05-1.39681E-13-3.17830E-13
 -1      2881 9.99306E+00 2.17517E+00 1.31778E-01-1.15737E+00 7.93809E-14 5.54945E-13
 -1      2882 2.70930E+01 6.33347E+00-6.48702E-02 1.53830E+00 2.20754E-13-3.89770E-13
 -1      2883 2.85818E+01 7.15950E+00-1.31986E-01 1.22866E+00 3.90299E-13-3.58286E-13
 -1      2884 2.74780E+01 6.84314E+00-9.35051E-02 6.82829E-01 3.35787E-13-4.94721E-13
 -1      2885 2.58684E+01 5.97139E+00-5.47439E-02 1.31888E+00 1.73896E-13-4.82434E-13
 -1      2886 1.99998E+01-4.81238E-05-1.92373E-07-3.81848E-05-5.69640E-14-3.89273E-14
 -1      2887 1.99998E+01-3.52551E-05-1.96124E-07 3.76663E-05 1.01973E-13-2.40602E-13
 -1      2888 1.51675E+01-2.19343E-01 1.58512E-01-5.50894E+00 2.95292E-13 4.15515E-13
 -1      2889 1.99998E+01-8.59160E-05 1.46310E-07 3.97471E-06-6.73964E-14-1.40180E-13
 -1      2890 1.99998E+01-8.59474E-05 1.39585E-07-3.41072E-06 1.48671E-14-1.70796E-13
 -1      2891 1.81942E+01 1.57686E+00-1.22629E-02-7.09147E-01 1.15719E-14-9.61975E-15
 -1      2892 1.85623E+01 1.34767E+00-1.47579E-02-5.98360E-01-6.23742E-16-4.47594E-14
 -1      2893 1.89364E+01 1.14055E+00-7.50378E-03-5.73808E-01-1.62045E-14-1.54734E-14
 -1      2894 1.91564E+01 9.55881E-01-1.01432E-02-4.78727E-01-4.42078E-14 3.16278E-14
 -1      2895 1.85660E+01 1.33715E+00 2.07974E-02-2.97217E-01-1.30797E-14-5.57150E-15
 -1      2896 1.93926E+01 7.96866E-01-3.85347E-03-4.45268E-01-1.11842E-13 5.65444E-14
 -1      2897 1.95190E+01 6.58809E-01-6.86166E-03-3.67582E-01-1.45223E-13 9.07377E-15
 -1      2898 1.91373E+01 9.55877E-01 1.39224E-02-2.86304E-01-1.10197E-13 6.46432E-14
 -1      2899 1.96710E+01 5.38500E-01-1.61640E-03-3.31616E-01-1.94918E-13 2.65835E-14
 -1      2900 1.97427E+01 4.36426E-01-4.57633E-03-2.69188E-01-2.13504E-13-2.97264E-14
 -1      2901 1.94988E+01 6.57993E-01 8.56694E-03-2.44548E-01-1.87782E-13 9.75577E-14
 -1      2902 1.98301E+01 3.57472E-01-4.66814E-04-2.39549E-01-1.43325E-13 3.37030E-14
 -1      2903 1.98652E+01 2.90694E-01-2.99838E-03-1.95220E-01-9.02413E-14 3.64101E-14
 -1      2904 1.97177E+01 4.44187E-01 5.28492E-03-1.95329E-01-1.41721E-13 3.79044E-14
 -1      2905 1.99172E+01 2.37105E-01 1.10976E-04-1.70995E-01-1.43309E-14 2.34125E-14
 -1      2906 1.99342E+01 1.91710E-01-1.97108E-03-1.38890E-01 8.31195E-14 5.43760E-14
 -1      2907 1.98442E+01 2.98245E-01 3.13488E-03-1.49899E-01-5.38647E-14 1.64166E-13
 -1      2908 1.99646E+01 1.55900E-01 3.02183E-04-1.20109E-01 8.28937E-14-2.98423E-15
 -1      2909 1.99718E+01 1.25609E-01-1.27051E-03-9.73238E-02 5.97323E-14-2.04861E-14
 -1      2910 1.99180E+01 1.98375E-01 1.83395E-03-1.11503E-01 4.12019E-14 6.95347E-14
 -1      2911 1.99890E+01 1.01944E-01 3.40159E-04-8.32276E-02 7.98259E-16 2.12464E-14
 -1      2912 1.99913E+01 8.19319E-02-8.08396E-04-6.72908E-02-3.21022E-14 5.70196E-14
 -1      2913 1.99600E+01 1.31043E-01 1.04666E-03-8.10141E-02 5.42037E-14-3.12266E-14
 -1      2914 2.00007E+01 6.64130E-02 3.10716E-04-5.69492E-02-1.64610E-13-1.09094E-15
 -1      2915 2.00006E+01 5.32792E-02-5.07137E-04-4.59201E-02-9.67462E-14-2.05282E-14
 -1      2916 1.99829E+01 8.61537E-02 5.78575E-04-5.77318E-02-1.27240E-13 5.33883E-14
 -1      2917 2.00055E+01 4.31376E-02 2.53958E-04-3.84553E-02-1.43227E-13-6.55419E-14
 -1      2918 2.00044E+01 3.45329E-02-3.25182E-04-3.08740E-02-2.78216E-13-1.59423E-13
 -1      2919 1.99949E+01 5.64618E-02 3.10564E-04-4.04179E-02-2.53381E-13-1.10336E-13
 -1      2920 2.00068E+01 2.76316E-02 1.97413E-04-2.53034E-02-2.42615E-13-1.96906E-13
 -1      2921 2.00054E+01 2.18468E-02-1.99850E-04-1.99593E-02-2.64580E-13-2.48769E-13
 -1      2922 2.00008E+01 3.65490E-02 1.63988E-04-2.75445E-02-2.38585E-13-2.01985E-13
 -1      2923 2.00064E+01 1.76622E-02 1.51716E-04-1.62968E-02-3.13307E-13-2.28055E-13
 -1      2924 2.00051E+01 1.40763E-02-1.16526E-04-1.28620E-02-3.54376E-13-2.27674E-13
 -1      2925 2.00032E+01 2.35033E-02 6.33598E-05-1.83330E-02-3.14285E-13-2.76142E-13
 -1      2926 2.00053E+01 1.13351E-02 1.12393E-04-1.03009E-02-3.06772E-13-8.17172E-14
 -1      2927 2.00042E+01 8.98911E-03-6.99974E-05-7.99489E-03-1.43596E-13-8.41437E-14
 -1      2928 2.00038E+01 1.52184E-02 1.81914E-05-1.20087E-02-2.58411E-13-1.21958E-13
 -1      2929 2.00041E+01 7.19786E-03 8.16002E-05-6.23417E-03-1.75722E-13-1.24301E-13
 -1      2930 2.00033E+01 5.66100E-03-4.14516E-05-4.70182E-03-9.03540E-14-1.88180E-13
 -1      2931 2.00036E+01 9.76796E-03-2.90262E-06-7.58246E-03-2.05937E-13-4.79354E-14
 -1      2932 2.00031E+01 4.48872E-03 5.82689E-05-3.51088E-03-6.39986E-14-2.04551E-13
 -1      2933 2.00024E+01 3.48145E-03-2.39541E-05-2.50901E-03 1.12939E-13-2.15532E-13
 -1      2934 2.00031E+01 6.17619E-03-1.17205E-05-4.53171E-03-1.51281E-13-2.16869E-13
 -1      2935 2.00022E+01 2.71475E-03 4.09725E-05-1.72093E-03 2.05459E-13-2.84690E-13
 -1      2936 2.00017E+01 2.05295E-03-1.44071E-05-1.08039E-03 7.48298E-14-2.53754E-13
 -1      2937 2.00024E+01 3.80839E-03-1.40542E-05-2.46760E-03 5.35315E-14-1.75900E-13
 -1      2938 2.00014E+01 1.53042E-03 2.79872E-05-5.52701E-04-5.29539E-14-2.02678E-13
 -1      2939 2.00011E+01 1.08833E-03-7.66296E-06-1.47251E-04 1.69486E-15-2.44273E-13
 -1      2940 2.00019E+01 2.22709E-03-1.16346E-05-1.08207E-03 1.12058E-13-3.38538E-13
 -1      2941 2.00009E+01 7.75980E-04 1.88608E-05 1.52682E-04 1.41856E-14-2.26649E-13
 -1      2942 2.00007E+01 5.07069E-04-2.91281E-06 3.73112E-04 1.85566E-13-1.90534E-13
 -1      2943 2.00014E+01 1.19046E-03-1.18486E-05-2.02748E-04-4.21591E-15-1.61894E-13
 -1      2944 2.00005E+01 3.07059E-04 1.21330E-05 5.43377E-04 1.43544E-13-1.82669E-13
 -1      2945 2.00004E+01 1.39964E-04-6.04771E-07 6.55557E-04 1.47399E-13-2.28296E-13
 -1      2946 2.00010E+01 5.47571E-04-9.71553E-06 3.09000E-04 1.97770E-13-9.27266E-14
 -1      2947 2.00003E+01 1.72892E-05 7.58372E-06 7.37959E-04 1.05099E-13-1.43523E-13
 -1      2948 2.00002E+01-8.22993E-05 6.33608E-07 7.80228E-04 1.00675E-13-5.15309E-14
 -1      2949 2.00007E+01 1.42285E-04-7.66054E-06 5.91063E-04 1.71021E-13-3.47684E-13
 -1      2950 2.00001E+01-1.53161E-04 4.44028E-06 8.05537E-04 6.89819E-14-1.72529E-13
 -1      2951 2.00000E+01-2.07780E-04 1.28417E-06 8.04131E-04-2.17520E-13-6.69029E-14
 -1      2952 2.00004E+01-1.02876E-04-5.88940E-06 7.19958E-04 2.58470E-14-2.31858E-13
 -1      2953 1.99999E+01-2.44285E-04 2.31232E-06 7.94006E-04-3.74543E-13 1.30463E-13
 -1      2954 1.99999E+01-2.69359E-04 1.55750E-06 7.66921E-04-4.14479E-13 1.35116E-15
 -1      2955 2.00002E+01-2.40795E-04-4.44058E-06 7.50153E-04-1.90017E-13-2.57410E-13
 -1      2956 1.99999E+01-2.83349E-04 9.44394E-07 7.36326E-04-5.04120E-13 7.73513E-14
 -1      2957 1.99999E+01-2.89643E-04 1.64015E-06 6.95791E-04-3.77785E-13-4.89766E-14
 -1      2958 2.00001E+01-3.07801E-04-3.30339E-06 7.19890E-04-4.37332E-13-1.09480E-13
 -1      2959 1.99998E+01-2.89258E-04 6.42328E-08 6.52667E-04-2.51150E-13 1.59228E-13
 -1      2960 1.99998E+01-2.83272E-04 1.56430E-06 6.04292E-04-3.72885E-14 1.38107E-13
 -1      2961 2.00000E+01-3.28482E-04-2.39249E-06 6.53507E-04-2.94920E-13 9.72094E-14
 -1      2962 1.99998E+01-2.74200E-04-4.91313E-07 5.59764E-04-1.17327E-13 6.03948E-14
 -1      2963 1.99998E+01-2.61782E-04 1.42978E-06 5.13309E-04-1.50588E-13 9.38789E-14
 -1      2964 1.99999E+01-3.20234E-04-1.71396E-06 5.70799E-04-1.89949E-13 7.44990E-14
 -1      2965 1.99998E+01-2.48498E-04-7.83993E-07 4.69698E-04-1.25737E-13 2.00875E-13
 -1      2966 1.99998E+01-2.32818E-04 1.27280E-06 4.26017E-04-2.21565E-13 1.42625E-13
 -1      2967 1.99999E+01-2.95214E-04-1.20676E-06 4.85662E-04-1.52153E-13 6.05306E-14
 -1      2968 1.99998E+01-2.17657E-04-8.93006E-07 3.85669E-04-3.38456E-13 2.63434E-13
 -1      2969 1.99998E+01-2.01014E-04 1.09487E-06 3.46408E-04-1.09265E-13 2.36401E-13
 -1      2970 1.99999E+01-2.61973E-04-8.38868E-07 4.03454E-04-2.40121E-13 3.28567E-13
 -1      2971 1.99998E+01-1.85622E-04-9.00485E-07 3.10571E-04-5.96834E-14 7.91753E-14
 -1      2972 1.99998E+01-1.69410E-04 9.19325E-07 2.76431E-04-2.03233E-14-4.27094E-14
 -1      2973 1.99998E+01-2.25739E-04-5.72730E-07 3.28226E-04-1.90423E-13 4.20542E-13
 -1      2974 1.99998E+01-1.54805E-04-8.41787E-07 2.45571E-04 6.11085E-14-4.01171E-14
 -1      2975 1.99998E+01-1.39822E-04 7.94135E-07 2.16645E-04 1.52846E-13-1.03069E-13
 -1      2976 1.99998E+01-1.89920E-04-3.86503E-07 2.61970E-04-4.07409E-14 1.34853E-13
 -1      2977 1.99998E+01-1.25933E-04-7.47113E-07 1.89472E-04 2.86286E-13-2.40265E-13
 -1      2978 1.99998E+01-1.12147E-04 6.39969E-07 1.64523E-04 3.13842E-13-1.64512E-13
 -1      2979 1.99998E+01-1.55859E-04-2.99173E-07 2.04077E-04 1.81593E-13 9.67674E-15
 -1      2980 1.99998E+01-1.00750E-04-6.51580E-07 1.43470E-04 2.52250E-13-2.31396E-13
 -1      2981 1.99998E+01-8.94707E-05 4.88990E-07 1.24197E-04-5.67176E-15-2.87228E-13
 -1      2982 1.99998E+01-1.25354E-04-1.47901E-07 1.55889E-04 1.67026E-13-6.10103E-14
 -1      2983 1.99998E+01-7.98125E-05-5.47413E-07 1.07216E-04-1.30040E-14-2.80960E-13
 -1      2984 1.99998E+01-7.04100E-05 3.86375E-07 9.18200E-05 1.01846E-13-2.57354E-13
 -1      2985 1.99998E+01-9.98379E-05-8.15456E-08 1.17633E-04 7.28956E-15-9.13732E-14
 -1      2986 1.99998E+01-6.25255E-05-4.64760E-07 7.83768E-05 1.99063E-13-3.48480E-13
 -1      2987 1.99998E+01-5.48193E-05 3.21298E-07 6.62075E-05 2.95366E-13-2.42088E-13
 -1      2988 1.99998E+01-7.84242E-05-2.07685E-08 8.70037E-05 1.31611E-13-4.24549E-13
 -1      2989 1.99998E+01-4.83787E-05-3.51434E-07 5.58037E-05 2.95639E-13-2.47508E-14
 -1      2990 1.99998E+01-4.23332E-05 1.98079E-07 4.63903E-05 2.73232E-13-3.96849E-14
 -1      2991 1.99998E+01-6.07819E-05 1.03581E-07 6.28583E-05 4.56230E-13-2.61211E-13
 -1      2992 1.99998E+01-7.37937E-05-6.60158E-08 3.21116E-05 1.88077E-14-2.80110E-13
 -1      2993 1.99998E+01-7.78474E-05 3.06360E-07 2.68243E-05-1.06915E-13-1.42284E-13
 -1      2994 2.07160E+01 2.34070E+00-1.57568E-03 5.34307E-01 2.39472E-13-5.04641E-13
 -1      2995 2.01735E+01 2.10589E+00 2.39534E-03 7.26902E-01 2.79872E-13-4.84122E-13
 -1      2996 2.10041E+01 2.66114E-01-8.74400E-03-1.32521E+00 7.40021E-14-3.60731E-13
 -1      2997 2.09900E+01 5.65845E-01 1.06341E-02-1.23745E+00 1.14592E-13-3.72854E-13
 -1      2998 2.06932E+01-5.94283E-01 3.89702E-03-6.36090E-01-7.02651E-14-2.86233E-13
 -1      2999 2.07282E+01-6.12930E-01-3.43004E-03-7.51257E-01-4.89369E-14-2.95155E-13
 -1      3000 2.08484E+01-6.04233E-01 2.18359E-03-8.83511E-01-2.63312E-14-3.15314E-13
 -1      3001 2.08720E+01-5.66033E-01-2.20236E-03-1.00009E+00-3.52605E-14-3.08550E-13
 -1      3002 2.10742E+01-7.12162E-01-1.06211E-03-7.51694E-01-4.08460E-14-2.67448E-13
 -1      3003 2.03877E+01-4.03846E-01 4.01015E-03-2.63484E-01-7.53066E-14-2.38239E-13
 -1      3004 2.04243E+01-4.61897E-01-2.77496E-03-3.40025E-01-5.17374E-14-2.53447E-13
 -1      3005 2.02694E+01-2.95227E-01 3.27799E-03-1.48677E-01-8.93019E-14-2.26798E-13
 -1      3006 2.03003E+01-3.50068E-01-2.02956E-03-2.03914E-01-5.31091E-14-2.32855E-13
 -1      3007 2.04320E+01-4.37166E-01-3.12377E-03-1.80819E-01-4.96166E-14-2.00481E-13
 -1      3008 2.01795E+01-2.01943E-01 2.47226E-03-7.25512E-02-3.85410E-14-2.50115E-13
 -1      3009 2.02037E+01-2.47570E-01-1.36813E-03-1.09924E-01-9.05440E-14-2.73589E-13
 -1      3010 2.02896E+01-3.13827E-01-2.65039E-03-8.87603E-02-5.89859E-14-2.67290E-13
 -1      3011 2.01152E+01-1.29128E-01 1.74865E-03-2.54721E-02 2.63236E-14-1.85878E-13
 -1      3012 2.01329E+01-1.63910E-01-8.63722E-04-4.91361E-02-1.71861E-14-2.09486E-13
 -1      3013 2.01860E+01-2.10979E-01-2.05911E-03-3.15722E-02-4.25721E-14-3.31423E-13
 -1      3014 2.00713E+01-7.63759E-02 1.16715E-03 1.25155E-03 4.97386E-14-1.11381E-13
 -1      3015 2.00837E+01-1.01078E-01-5.07578E-04-1.26021E-02 8.58766E-14-1.04929E-13
 -1      3016 2.01146E+01-1.32415E-01-1.49256E-03 1.05117E-03-2.74992E-15-2.29352E-13
 -1      3017 2.00426E+01-4.05816E-02 7.36403E-04 1.45644E-02-2.20268E-14-1.26184E-13
 -1      3018 2.00511E+01-5.70299E-02-2.71906E-04 7.31883E-03 1.34657E-14-8.26550E-14
 -1      3019 2.00677E+01-7.65045E-02-1.02291E-03 1.74737E-02 2.42222E-14-3.27479E-14
 -1      3020 2.00246E+01-1.78317E-02 4.36738E-04 1.95790E-02-5.38858E-14-1.20275E-13
 -1      3021 2.00302E+01-2.80761E-02-1.23501E-04 1.65196E-02 1.71760E-14-6.38994E-14
 -1      3022 2.00382E+01-3.91859E-02-6.67479E-04 2.38600E-02-1.74838E-14 1.42794E-15
 -1      3023 2.00138E+01-4.41932E-03 2.39527E-04 1.98363E-02-1.57614E-13-1.13538E-13
 -1      3024 2.00174E+01-1.03067E-02-3.51135E-05 1.92445E-02-1.30114E-13-1.06821E-13
 -1      3025 2.00204E+01-1.58710E-02-4.15889E-04 2.44652E-02-6.28197E-14-2.82654E-14
 -1      3026 2.00074E+01 2.71320E-03 1.16555E-04 1.76595E-02-1.76110E-13-4.41835E-15
 -1      3027 2.00098E+01-2.95440E-04 1.38825E-05 1.83816E-02-1.46640E-13-7.34192E-14
 -1      3028 2.00103E+01-2.41604E-03-2.48093E-04 2.20714E-02-1.78424E-13 3.74427E-14
 -1      3029 2.00039E+01 5.87455E-03 4.45184E-05 1.44931E-02-1.26846E-14-1.23114E-14
 -1      3030 2.00054E+01 4.65181E-03 3.80460E-05 1.57958E-02-7.39641E-14 8.42833E-15
 -1      3031 2.00048E+01 4.50552E-03-1.41445E-04 1.84049E-02-1.33820E-13-8.23674E-14
 -1      3032 2.00020E+01 6.69821E-03 5.68568E-06 1.11771E-02-4.14825E-14-5.66989E-14
 -1      3033 2.00029E+01 6.50158E-03 4.70184E-05 1.26242E-02 1.04745E-14-5.98412E-14
 -1      3034 2.00020E+01 7.35857E-03-7.66878E-05 1.44776E-02 2.51405E-14-1.53989E-13
 -1      3035 2.00010E+01 6.27431E-03-1.26919E-05 8.15297E-03 3.66399E-14-1.20710E-13
 -1      3036 2.00016E+01 6.60521E-03 4.71929E-05 9.50810E-03-3.73405E-14-8.31148E-14
 -1      3037 2.00007E+01 7.86148E-03-3.93816E-05 1.08323E-02-5.78771E-14 2.35702E-14
 -1      3038 2.00004E+01 5.28842E-03-1.92341E-05 5.61282E-03 7.56143E-14-1.62665E-13
 -1      3039 2.00009E+01 5.83890E-03 4.27380E-05 6.76664E-03 4.52769E-14-1.25045E-13
 -1      3040 2.00002E+01 7.14639E-03-1.90804E-05 7.71666E-03 4.21046E-14-1.10242E-13
 -1      3041 2.00002E+01 4.14364E-03-1.94758E-05 3.60230E-03 1.72466E-13-2.76268E-13
 -1      3042 2.00005E+01 4.73667E-03 3.62458E-05 4.52168E-03 1.71033E-13-2.31761E-13
 -1      3043 2.00001E+01 5.91566E-03-8.77157E-06 5.20321E-03 1.55643E-13-2.05782E-13
 -1      3044 2.00000E+01 3.05634E-03-1.67934E-05 2.08807E-03 6.60115E-14-1.16107E-13
 -1      3045 2.00002E+01 3.60011E-03 2.92674E-05 2.78199E-03 1.21842E-13-2.18004E-13
 -1      3046 2.00001E+01 4.57549E-03-4.00999E-06 3.26791E-03 1.16214E-13-2.71223E-13
 -1      3047 2.00000E+01 2.12597E-03-1.31236E-05 1.00021E-03-4.77155E-14-1.65911E-14
 -1      3048 2.00001E+01 2.58114E-03 2.26748E-05 1.49795E-03-1.42593E-15-3.29717E-14
 -1      3049 2.00001E+01 3.33850E-03-2.11286E-06 1.83969E-03-1.78627E-14-1.18020E-13
 -1      3050 1.99999E+01 1.38329E-03-9.48801E-06 2.57469E-04-1.27650E-13 4.17495E-15
 -1      3051 2.00000E+01 1.74072E-03 1.69005E-05 5.95431E-04-1.38076E-13 2.50697E-14
 -1      3052 2.00001E+01 2.29755E-03-1.54717E-06 8.30289E-04-1.19902E-13 1.45727E-14
 -1      3053 1.99999E+01 8.21891E-04-6.35507E-06-2.18766E-04-6.07726E-14 1.06177E-13
 -1      3054 1.99999E+01 1.08826E-03 1.21042E-05-4.43148E-06-1.25763E-13 1.50744E-13
 -1      3055 2.00001E+01 1.47604E-03-1.49883E-06 1.51311E-04-2.10616E-13-1.72849E-14
 -1      3056 1.99998E+01 4.17907E-04-3.87825E-06-4.97625E-04 9.00669E-14 1.33233E-13
 -1      3057 1.99999E+01 6.06917E-04 8.28450E-06-3.74750E-04 1.46873E-13 1.78739E-13
 -1      3058 2.00001E+01 8.60603E-04-1.57259E-06-2.77048E-04 2.34660E-14 1.26349E-13
 -1      3059 1.99998E+01 1.41609E-04-2.04519E-06-6.36251E-04 1.39123E-13 1.27410E-13
 -1      3060 1.99998E+01 2.68840E-04 5.35261E-06-5.78103E-04 8.89503E-14 1.64355E-13
 -1      3061 2.00001E+01 4.21320E-04-1.60535E-06-5.22284E-04 1.05260E-13 1.23470E-13
 -1      3062 1.99998E+01-3.62968E-05-7.67943E-07-6.79723E-04 2.00937E-13-1.39050E-13
 -1      3063 1.99998E+01 4.39355E-05 3.18015E-06-6.65181E-04 1.86060E-13-7.67075E-14
 -1      3064 2.00000E+01 1.23443E-04-1.55257E-06-6.38843E-04 2.40728E-13-2.18657E-14
 -1      3065 1.99998E+01-1.41632E-04 6.57472E-08-6.62241E-04 2.34407E-13-1.95806E-13
 -1      3066 1.99998E+01-9.56563E-05 1.62858E-06-6.75302E-04 2.06215E-13-9.24964E-14
 -1      3067 2.00000E+01-6.63104E-05-1.42260E-06-6.68994E-04 1.96584E-13-1.11913E-13
 -1      3068 1.99998E+01-1.95651E-04 5.65552E-07-6.08827E-04-2.02641E-13 1.44594E-13
 -1      3069 1.99998E+01-1.73601E-04 5.66013E-07-6.37821E-04 6.11664E-14-4.95859E-14
 -1      3070 1.99999E+01-1.76838E-04-1.24232E-06-6.44445E-04 4.97864E-14-2.88810E-15
 -1      3071 1.99998E+01-2.15000E-04 8.26445E-07-5.37113E-04-2.33012E-13 3.36563E-13
 -1      3072 1.99998E+01-2.08881E-04-1.24007E-07-5.73864E-04-1.99973E-13 2.48051E-13
 -1      3073 1.99999E+01-2.31695E-04-1.03990E-06-5.88196E-04-2.52091E-13 4.10140E-13
 -1      3074 1.99998E+01-2.12202E-04 9.24872E-07-4.59012E-04 5.28248E-14 2.74459E-13
 -1      3075 1.99997E+01-2.16063E-04-5.39322E-07-4.98042E-04-9.98840E-14 2.45328E-13
 -1      3076 1.99999E+01-2.49208E-04-8.37745E-07-5.16344E-04-7.46745E-14 3.92414E-13
 -1      3077 1.99998E+01-1.96341E-04 9.19175E-07-3.82149E-04 2.82249E-14 8.58158E-14
 -1      3078 1.99997E+01-2.05909E-04-7.58915E-07-4.19998E-04 1.64472E-13 2.14473E-13
 -1      3079 1.99999E+01-2.43087E-04-6.51017E-07-4.39686E-04 1.24776E-13 1.54388E-13
 -1      3080 1.99998E+01-1.73764E-04 8.51958E-07-3.11041E-04 1.56154E-13-1.52475E-13
 -1      3081 1.99998E+01-1.86084E-04-8.44324E-07-3.45702E-04 7.28287E-14 8.75250E-14
 -1      3082 1.99998E+01-2.23228E-04-4.88250E-07-3.65075E-04 1.15328E-13-1.01194E-13
 -1      3083 1.99998E+01-1.48733E-04 7.53013E-07-2.48022E-04-6.70819E-14-1.86299E-13
 -1      3084 1.99998E+01-1.61849E-04-8.42068E-07-2.78504E-04 4.64929E-14-1.67707E-13
 -1      3085 1.99998E+01-1.96514E-04-3.52694E-07-2.96520E-04 1.27401E-13-8.11827E-14
 -1      3086 1.99998E+01-1.23963E-04 6.42304E-07-1.93959E-04-1.17140E-13-1.12850E-13
 -1      3087 1.99998E+01-1.36650E-04-7.86361E-07-2.19946E-04-7.72356E-14-1.87578E-13
 -1      3088 1.99998E+01-1.67537E-04-2.44449E-07-2.36041E-04-1.00942E-13-3.49893E-14
 -1      3089 1.99998E+01-1.01067E-04 5.33371E-07-1.48774E-04 7.75799E-14 3.37633E-14
 -1      3090 1.99998E+01-1.12619E-04-7.01267E-07-1.70378E-04 2.60624E-14-1.40989E-14
 -1      3091 1.99998E+01-1.39203E-04-1.61264E-07-1.84326E-04-1.59627E-13 3.77184E-14
 -1      3092 1.99998E+01-8.08932E-05 4.33609E-07-1.11832E-04-1.64527E-13 3.41458E-13
 -1      3093 1.99998E+01-9.09562E-05-6.03102E-07-1.29415E-04-3.45419E-15 1.76304E-13
 -1      3094 1.99998E+01-1.13207E-04-9.82812E-08-1.41212E-04-1.46806E-13 2.68151E-13
 -1      3095 1.99998E+01-6.39080E-05 2.52630E-07-8.22662E-05-1.09254E-13 2.69340E-13
 -1      3096 1.99998E+01-7.22177E-05-4.98210E-07-9.62508E-05-1.25170E-13 3.38030E-13
 -1      3097 1.99998E+01-9.04110E-05-4.35297E-08-1.06042E-04-1.17284E-13 4.82845E-13
 -1      3098 1.99998E+01-4.52638E-05-1.47185E-07 4.35894E-05 4.43964E-14-2.07102E-13
 -1      3099 1.99998E+01-8.43711E-05 2.44443E-07-1.21708E-05-2.78392E-14-2.31501E-13
 -1      3100 1.99998E+01-8.23248E-05 1.70508E-08-1.90332E-05 8.36830E-14-4.22565E-13
 -1      3101 1.99998E+01-9.57535E-05-3.56037E-07-8.94275E-06-5.21412E-14-3.38941E-13
 -1      3102 1.93049E+01 1.46440E+00-1.12633E-03 6.79649E-01 3.27278E-13-3.83860E-13
 -1      3103 1.99998E+01-6.14765E-05-1.75558E-07 4.02861E-05-6.44639E-14-9.48884E-14
 -1      3104 1.99998E+01-6.68879E-05 3.66906E-07 3.72458E-05 9.28562E-14-1.64951E-13
 -1      3105 1.99998E+01-7.92029E-05-3.23873E-07 3.99545E-05-7.76790E-14-1.83515E-13
 -1      3106 2.09909E+01 2.12467E+00 8.70711E-03-9.35561E-03 1.83740E-13-4.88779E-13
 -1      3107 2.13387E+01 2.76862E+00 1.86171E-03 5.37928E-01 2.23923E-13-5.23681E-13
 -1      3108 2.19455E+01 3.21376E+00-5.11868E-04 5.49080E-01 1.67783E-13-5.45496E-13
 -1      3109 1.20688E+01 1.26722E+00 8.81592E-02 4.28069E+00-3.48790E-13 6.17742E-13
 -1      3110 1.09397E+01 2.21220E+00 7.71415E-02 2.11208E+00-1.70019E-13 5.25413E-13
 -1      3111 1.99998E+01-4.91537E-05 1.59691E-07-4.82433E-05-1.50824E-13 1.84412E-13
 -1      3112 1.99998E+01-4.31147E-05 3.24952E-08-4.80307E-05 2.56586E-14 2.49034E-13
 -1      3113 1.99998E+01-4.79415E-05-3.93573E-07-5.57590E-05-3.27178E-14 3.21135E-13
 -1      3114 1.52020E+01 2.49415E+00-9.86829E-03-1.05085E+00 1.26473E-13 1.76907E-13
 -1      3115 1.61332E+01 2.30677E+00-2.56793E-02-8.72461E-01 9.39006E-14 1.12703E-13
 -1      3116 1.99998E+01-8.22700E-05 3.92539E-08 1.93581E-05-1.14872E-13-1.01533E-13
 -1      3117 1.99998E+01-8.43682E-05 2.36783E-07 1.26620E-05-8.45729E-14-3.99221E-14
 -1      3118 1.99998E+01-9.57373E-05-3.32827E-07 9.46597E-06-4.24252E-14-1.00649E-13
 -1      3119 1.99998E+01-9.00363E-05-3.10686E-07 2.65267E-05-1.39558E-13-1.45775E-13
 -1      3120 1.89007E+01 1.15509E+00 6.83684E-04 5.43568E-01 3.26187E-13-3.43365E-13
 -1      3121 2.40043E+01 4.78714E+00 9.43634E-03 8.68657E-01 1.33147E-13-5.46439E-13
 -1      3122 2.47824E+01 5.17952E+00-1.45193E-02 9.62547E-01 1.03688E-13-5.19890E-13
 -1      3123 1.99998E+01-5.75920E-05-1.50513E-07-4.12507E-05 1.08868E-13 4.22959E-14
 -1      3124 1.99998E+01-5.35727E-05 1.53810E-07-4.43835E-05 3.62415E-14 1.25252E-13
 -1      3125 1.99998E+01-5.96493E-05-2.01131E-07-5.17574E-05 1.98633E-14 2.61371E-13
 -1      3126 2.05325E+01-5.13008E-01 4.36580E-03-4.25296E-01-7.38639E-14-2.42380E-13
 -1      3127 2.05713E+01-5.61629E-01-3.38911E-03-5.23798E-01-6.92173E-14-2.70750E-13
 -1      3128 2.08367E+01-6.74492E-01-2.58926E-03-5.10201E-01-8.69319E-14-2.15210E-13
 -1      3129 2.06163E+01-5.67038E-01-3.18559E-03-3.18761E-01-5.30375E-14-2.19599E-13
 -1      3130 1.17262E+01 2.48879E+00 7.45473E-02-1.26985E+00 6.59672E-14 4.27020E-13
 -1      3131 1.39757E+01 2.66865E+00 1.27546E-03-9.44219E-01 6.73246E-14 2.53970E-13
 -1      3132 1.43041E+01 2.70953E+00 1.08791E-01 1.09633E-01 3.24133E-14 2.35437E-13
 -1      3133 1.13419E+01 2.71856E+00 1.72429E-01 7.49687E-01-6.49827E-14 4.89789E-13
 -1      3134 2.76610E+01 6.19991E+00-1.41993E-01-1.39217E-01 3.21396E-13-5.88592E-13
 -1      3135 2.79375E+01 5.09117E+00-7.58821E-02-7.44369E-01 2.33952E-13-6.99961E-13
 -1      3136 1.70263E+01 2.07264E+00-1.18875E-02-8.32965E-01 6.56177E-14 4.36487E-14
 -1      3137 1.76113E+01 1.81925E+00-2.03723E-02-7.11542E-01 3.78725E-14 4.31038E-14
 -1      3138 1.76659E+01 1.79538E+00 2.97535E-02-2.44323E-01-1.75478E-15-4.61436E-15
 -1      3139 2.78127E+01-1.12977E-01-1.25628E-01-1.87700E-02-1.89654E-13-7.40762E-13
 -1      3140 2.71231E+01-1.53370E+00 6.65742E-04 1.11167E+00-3.54737E-13-6.48277E-13
 -1      3141 2.56545E+01-2.80937E+00-7.94690E-02 2.81598E+00-5.28997E-13-4.79543E-13
 -1      3142 2.39502E+01-2.99232E+00 9.96203E-02 4.34130E+00-6.96668E-13-1.59220E-13
 -1      3143 2.78736E+01 3.39401E+00-1.50516E-01-8.63298E-01 1.20084E-13-7.40019E-13
 -1      3144 2.80605E+01 1.85680E+00-1.86169E-02-7.22512E-01-2.74225E-14-7.61433E-13
 -1      3145 1.99998E+01-5.19910E-05 2.26636E-07 4.35143E-05 2.27832E-15-1.63780E-13
 -1      3146 1.59062E+01-9.83655E-01 1.92379E-03 6.17473E+00-6.49591E-13 4.64878E-13
 -1      3147 1.38354E+01 1.92921E-01 8.94899E-02 5.39893E+00-5.50848E-13 5.91832E-13
 -1      3148 2.12753E+01-2.89835E+00-8.82447E-02 5.55858E+00-7.65971E-13 1.78378E-13
 -1      3149 1.85755E+01-1.83939E+00 1.13395E-01 6.10781E+00-7.55535E-13 3.53634E-13
 -1      3150 1.82767E+01-1.11367E+00 9.49515E-02 5.38688E+00-6.58008E-13 3.20743E-13
 -1      3151 2.62348E+01-1.46447E+00-1.45683E-02 6.03831E-01-3.65647E-13-6.46648E-13
 -1      3152 2.63351E+01-2.28655E+00-6.14487E-03 1.67355E+00-4.32364E-13-5.78471E-13
 -1      3153 2.50792E+01-2.48226E+00-1.17056E-02 2.21212E+00-5.12312E-13-4.92924E-13
 -1      3154 2.52757E+01 5.56695E+00-7.07419E-02 7.92352E-01 1.80349E-13-5.16760E-13
 -1      3155 1.99998E+01-6.32546E-05 2.51068E-07-3.85202E-05 1.29226E-13 1.56001E-13
 -1      3156 1.99998E+01-8.99858E-05-3.13179E-07-2.61078E-05-1.03899E-14-3.61280E-13
 -1      3157 1.99998E+01-7.77953E-05 3.83969E-07-2.65151E-05 1.00451E-13-1.80027E-13
 -1      3158 1.99998E+01-7.42221E-05-1.92312E-07-3.20582E-05 4.73672E-14 5.62727E-14
 -1      3159 1.99998E+01-6.33368E-05-2.43775E-07 4.93796E-05 1.84003E-13-1.40185E-13
 -1      3160 2.15096E+01 8.60215E-01 9.14010E-04-1.18807E+00 9.44882E-14-4.31736E-13
 -1      3161 2.09453E+01 8.72537E-01-1.13903E-02-1.08852E+00 1.28935E-13-4.07411E-13
 -1      3162 2.09499E+01 1.22372E+00 1.62535E-02-8.74371E-01 1.49893E-13-4.41700E-13
 -1      3163 2.12949E+01-6.18556E-01 1.21103E-03-1.01704E+00-1.85820E-14-3.12207E-13
 -1      3164 2.09678E+01-4.89744E-01-8.99994E-04-1.13083E+00-3.72583E-14-3.20743E-13
 -1      3165 2.09742E+01-3.68273E-01 9.26825E-04-1.22045E+00 3.43268E-14-3.08480E-13
 -1      3166 1.99998E+01-5.26985E-05 8.49712E-08-6.35237E-05-6.46635E-14 3.15541E-13
 -1      3167 1.99998E+01-5.85231E-05-4.38581E-07-7.29965E-05-1.34800E-13 2.48657E-13
 -1      3168 1.99998E+01-7.28969E-05 1.35799E-07-8.09554E-05-1.48718E-13 2.84156E-13
 -1      3169 1.99998E+01-6.03648E-05 1.42015E-07-6.34296E-05 4.97278E-14 2.18720E-13
 -1      3170 1.62847E+01 2.29381E+00 4.84299E-02-1.53538E-01 2.65300E-14 9.99279E-14
 -1      3171 2.10225E+01-2.04120E-01-4.97089E-03-1.30956E+00 4.76025E-14-3.50432E-13
 -1      3172 2.10126E+01 1.35433E-02 5.66901E-03-1.33175E+00 5.85984E-14-3.57112E-13
 -1      3173 2.15252E+01 1.72196E-01 3.47561E-03-1.33936E+00 7.29909E-14-3.99754E-13
 -1      3174 2.09636E+01 1.78285E+00-1.00580E-02-3.76010E-01 1.66536E-13-4.73528E-13
 -1      3175 2.71160E+01 3.93166E+00-2.51658E-02-9.60083E-01 1.05374E-13-7.23574E-13
 -1      3176 1.43129E+01 9.73905E-01 1.07670E-01 4.22423E+00-3.93453E-13 4.85736E-13
 -1      3177 2.67896E+01 6.00259E+00-5.87835E-02 2.31102E-01 2.43389E-13-5.69008E-13
 -1      3178 2.25881E+01 3.75424E+00 4.90318E-03 6.52215E-01 1.59281E-13-5.68264E-13
 -1      3179 2.32451E+01 4.16218E+00-1.05877E-02 6.99779E-01 1.07617E-13-5.49521E-13
 -1      3180 2.35255E+01 4.12799E+00-2.64195E-02 3.10261E-01 1.23317E-13-5.52472E-13
 -1      3181 2.22104E+01 3.03640E+00-1.29131E-02 9.94040E-02 1.38532E-13-5.21893E-13
 -1      3182 1.27704E+01 2.33519E+00 5.58825E-02 1.57585E+00-1.40788E-13 4.23141E-13
 -1      3183 2.71989E+01 6.48057E-01-4.99510E-02-5.47933E-01-1.49155E-13-7.38562E-13
 -1      3184 2.26799E+01-2.59436E+00 5.08938E-02 4.34681E+00-6.96651E-13-6.76820E-14
 -1      3185 1.89122E+01 9.75168E-01-1.14291E-02-8.17731E-02-4.17365E-14 4.58539E-14
 -1      3186 1.91521E+01 8.29111E-01-4.37826E-03-8.57540E-02-1.10976E-13 5.06874E-14
 -1      3187 1.93441E+01 6.90694E-01-6.68416E-03-1.24044E-01-1.80267E-13 7.61123E-14
 -1      3188 1.94964E+01 5.73842E-01-3.32207E-03-1.11981E-01-2.19866E-13 8.59766E-14
 -1      3189 1.92294E+01 7.61646E-01 9.95703E-03 5.57688E-02-1.16712E-13 8.80194E-14
 -1      3190 1.96140E+01 4.76973E-01-3.80540E-03-1.25404E-01-1.32970E-13 8.16211E-14
 -1      3191 1.97002E+01 3.96358E-01-2.48644E-03-1.08477E-01-4.38338E-14 1.69416E-13
 -1      3192 1.95274E+01 5.40038E-01 6.74554E-03-1.89357E-02-1.38336E-13 1.07407E-13
 -1      3193 1.97757E+01 3.27530E-01-2.00672E-03-1.10435E-01-7.16788E-14 2.35409E-13
 -1      3194 1.98263E+01 2.70055E-01-1.80073E-03-9.35245E-02-2.96259E-14 1.80969E-13
 -1      3195 1.97127E+01 3.77746E-01 4.29507E-03-4.79227E-02-2.81724E-14 1.82271E-13
 -1      3196 1.98738E+01 2.22168E-01-1.02995E-03-9.01882E-02-1.07315E-13 1.07723E-13
 -1      3197 1.99026E+01 1.82263E-01-1.25781E-03-7.54677E-02 2.98267E-14 1.82940E-14
 -1      3198 1.98294E+01 2.60609E-01 2.71397E-03-5.46593E-02-1.36988E-13 4.75460E-14
 -1      3199 1.99319E+01 1.49488E-01-4.82247E-04-7.02181E-02 1.61088E-13-5.95894E-14
 -1      3200 1.99478E+01 1.22198E-01-8.60962E-04-5.82872E-02 2.33904E-14-2.71256E-14
 -1      3201 1.99015E+01 1.77959E-01 1.68472E-03-5.08395E-02-2.02446E-15-1.09204E-13
 -1      3202 1.99655E+01 1.00030E-01-1.87223E-04-5.28326E-02-1.56417E-13-9.04364E-14
 -1      3203 1.99739E+01 8.15576E-02-5.77501E-04-4.35789E-02-2.66096E-13-1.61917E-13
 -1      3204 1.99453E+01 1.20644E-01 1.02473E-03-4.28698E-02-8.62958E-14-1.65413E-13
 -1      3205 1.99844E+01 6.66528E-02-4.49723E-05-3.86812E-02-1.99051E-13-2.15846E-13
 -1      3206 1.99885E+01 5.42247E-02-3.87454E-04-3.17041E-02-2.90302E-13-2.67377E-13
 -1      3207 1.99712E+01 8.13898E-02 6.17059E-04-3.40382E-02-2.67874E-13-3.06538E-13
 -1      3208 1.99948E+01 4.38263E-02 2.49332E-05-2.74217E-02-3.17780E-13-1.86482E-13
 -1      3209 1.99966E+01 3.52242E-02-2.52631E-04-2.20975E-02-2.19235E-13-2.27296E-13
 -1      3210 1.99864E+01 5.41590E-02 3.56171E-04-2.56981E-02-2.54269E-13-3.29479E-13
 -1      3211 1.99999E+01 2.87309E-02 5.52835E-05-1.89285E-02-2.79122E-13-1.70179E-13
 -1      3212 2.00004E+01 2.32756E-02-1.61421E-04-1.52605E-02-2.76751E-13-1.60615E-13
 -1      3213 1.99948E+01 3.58636E-02 1.96081E-04-1.86852E-02-2.22310E-13-3.53649E-13
 -1      3214 2.00021E+01 1.89408E-02 6.21100E-05-1.28279E-02-1.91912E-13-3.18358E-14
 -1      3215 2.00021E+01 1.52794E-02-1.04656E-04-1.02115E-02-1.59727E-13 6.02906E-14
 -1      3216 1.99991E+01 2.38792E-02 1.03184E-04-1.32391E-02-1.39399E-13-1.43458E-13
 -1      3217 2.00029E+01 1.23852E-02 5.62298E-05-8.40359E-03-2.35201E-13 6.05778E-14
 -1      3218 2.00026E+01 9.93012E-03-6.70341E-05-6.56471E-03-2.28031E-13-2.91390E-14
 -1      3219 2.00012E+01 1.57906E-02 5.12769E-05-9.04876E-03-2.06873E-13 9.33000E-14
 -1      3220 2.00029E+01 7.99469E-03 4.68717E-05-5.25503E-03-1.35221E-13-1.20587E-14
 -1      3221 2.00026E+01 6.34784E-03-4.23455E-05-3.98482E-03-5.72533E-14 8.69299E-14
 -1      3222 2.00021E+01 1.03245E-02 2.23743E-05-5.92420E-03-1.95301E-13 1.14577E-13
 -1      3223 2.00026E+01 5.05280E-03 3.68605E-05-3.06060E-03-5.15342E-14 1.35819E-13
 -1      3224 2.00023E+01 3.94650E-03-2.75153E-05-2.20026E-03 4.57701E-14 7.06364E-14
 -1      3225 2.00023E+01 6.63109E-03 7.22594E-06-3.65884E-03-5.87598E-14 3.01123E-13
 -1      3226 2.00022E+01 3.04331E-03 2.77651E-05-1.53822E-03 1.44766E-13-1.44010E-13
 -1      3227 2.00019E+01 2.28295E-03-1.66651E-05-9.54534E-04 1.03138E-13-9.88859E-14
 -1      3228 2.00022E+01 4.09602E-03 1.08957E-06-2.03389E-03-3.89286E-14 1.55801E-13
 -1      3229 2.00018E+01 1.72548E-03 2.06245E-05-5.47848E-04 6.42212E-15-1.63965E-13
 -1      3230 2.00015E+01 1.24914E-03-8.92694E-06-1.99130E-04 6.35719E-14-6.36045E-14
 -1      3231 2.00019E+01 2.39574E-03-4.59732E-06-9.29934E-04 2.33596E-14-9.01620E-14
 -1      3232 2.00014E+01 8.82323E-04 1.46623E-05 5.67869E-05 2.46468E-13-1.78739E-13
 -1      3233 2.00012E+01 5.73777E-04-4.58252E-06 2.63258E-04 1.66667E-13-1.94125E-13
 -1      3234 2.00016E+01 1.30471E-03-5.87210E-06-2.31722E-04 1.25686E-13-2.82677E-13
 -1      3235 2.00010E+01 3.39115E-04 1.01720E-05 4.11421E-04 1.30720E-13-2.93463E-13
 -1      3236 2.00009E+01 1.44897E-04-1.88602E-06 5.21265E-04 1.21823E-13-3.21267E-13
 -1      3237 2.00013E+01 5.91420E-04-5.86333E-06 2.00505E-04 6.23325E-14-2.10045E-13
 -1      3238 2.00007E+01 3.98795E-07 6.81958E-06 5.95479E-04 7.06602E-14-2.90466E-13
 -1      3239 2.00006E+01-1.15938E-04-2.22168E-07 6.41257E-04-4.66598E-14-3.62417E-13
 -1      3240 2.00010E+01 1.37812E-04-5.32625E-06 4.45578E-04 9.18671E-14-4.05985E-13
 -1      3241 2.00005E+01-1.99316E-04 4.37611E-06 6.66497E-04-9.57178E-14-3.84010E-13
 -1      3242 2.00004E+01-2.63103E-04 7.42491E-07 6.71411E-04-2.29326E-13-2.74796E-13
 -1      3243 2.00008E+01-1.37876E-04-4.59592E-06 5.62960E-04-1.04307E-13-3.14627E-13
 -1      3244 2.00003E+01-3.05430E-04 2.66939E-06 6.65717E-04-3.36097E-13-2.52766E-13
 -1      3245 2.00003E+01-3.34617E-04 1.24177E-06 6.46158E-04-3.98739E-13-1.21342E-13
 -1      3246 2.00006E+01-2.92790E-04-3.84341E-06 5.96457E-04-2.52912E-13-2.83298E-13
 -1      3247 2.00002E+01-3.50626E-04 1.44150E-06 6.20863E-04-3.35761E-13-1.40317E-13
 -1      3248 2.00002E+01-3.56803E-04 1.47378E-06 5.85956E-04-2.60338E-14-4.58568E-14
 -1      3249 2.00004E+01-3.67326E-04-3.04188E-06 5.76391E-04-3.06539E-13-3.62116E-13
 -1      3250 2.00001E+01-3.54465E-04 6.36361E-07 5.52405E-04-8.89990E-14-5.71620E-14
 -1      3251 2.00001E+01-3.46597E-04 1.54132E-06 5.13329E-04-2.46232E-13-3.34856E-14
 -1      3252 2.00003E+01-3.88650E-04-2.51041E-06 5.25931E-04-1.08438E-13-2.98193E-13
 -1      3253 2.00000E+01-3.34766E-04 9.74752E-08 4.76702E-04-1.74248E-13 1.40120E-13
 -1      3254 2.00000E+01-3.19121E-04 1.48188E-06 4.36755E-04-8.34850E-14 1.22856E-13
 -1      3255 2.00001E+01-3.76215E-04-1.98297E-06 4.61900E-04-7.57642E-14-1.31739E-14
 -1      3256 2.00000E+01-3.02102E-04-2.06660E-07 4.00567E-04-7.24853E-14 1.35309E-13
 -1      3257 1.99999E+01-2.82797E-04 1.34656E-06 3.62665E-04-1.47465E-13 2.47663E-13
 -1      3258 2.00001E+01-3.45408E-04-1.55345E-06 3.93542E-04-3.61332E-14 1.25005E-13
 -1      3259 1.99999E+01-2.63665E-04-3.72316E-07 3.29068E-04-3.74960E-13 3.65074E-13
 -1      3260 1.99999E+01-2.43335E-04 1.17915E-06 2.94811E-04-1.96554E-13 2.54079E-13
 -1      3261 2.00000E+01-3.05364E-04-1.20555E-06 3.27020E-04-2.40388E-13 1.96212E-13
 -1      3262 1.99999E+01-2.24068E-04-4.35945E-07 2.64926E-04-6.21966E-14 2.26835E-13
 -1      3263 1.99999E+01-2.04358E-04 1.03840E-06 2.35031E-04 1.12905E-13 2.32738E-13
 -1      3264 1.99999E+01-2.62223E-04-9.33131E-07 2.65902E-04-9.81984E-14 4.15711E-13
 -1      3265 1.99998E+01-1.85329E-04-4.50857E-07 2.08035E-04 1.55942E-13 1.73301E-13
 -1      3266 1.99998E+01-1.66466E-04 8.63097E-07 1.81617E-04 2.55429E-13 2.59784E-13
 -1      3267 1.99999E+01-2.18884E-04-7.41577E-07 2.10756E-04 5.65441E-14 3.93553E-13
 -1      3268 1.99998E+01-1.50303E-04-4.28520E-07 1.60262E-04 1.60280E-13 1.87726E-13
 -1      3269 1.99998E+01-1.34476E-04 6.86385E-07 1.39441E-04-9.25248E-14 4.48231E-15
 -1      3270 1.99999E+01-1.78747E-04-5.22860E-07 1.63761E-04 1.53994E-13 3.28816E-13
 -1      3271 1.99998E+01-1.20464E-04-3.91205E-07 1.21928E-04 4.79885E-14-5.53121E-15
 -1      3272 1.99998E+01-1.06936E-04 5.47076E-07 1.05029E-04 6.13015E-14 6.29063E-14
 -1      3273 1.99998E+01-1.44114E-04-3.76950E-07 1.25671E-04-1.08758E-14 1.78375E-13
 -1      3274 1.99998E+01-9.52021E-05-3.69049E-07 9.09100E-05-3.63395E-14 6.68260E-15
 -1      3275 1.99998E+01-8.40121E-05 3.66973E-07 7.75040E-05 2.17064E-13-4.21020E-14
 -1      3276 1.99998E+01-1.14350E-04-2.13491E-07 9.46646E-05 2.36924E-14 3.62076E-13
 -1      3277 1.99998E+01-7.80328E-05-3.96878E-07 6.77804E-05 3.31519E-13-1.14895E-13
 -1      3278 1.99998E+01-6.89138E-05 1.52538E-07 5.72206E-05 3.40715E-13-8.28253E-14
 -1      3279 1.99998E+01-7.79613E-05 3.38918E-07 5.30552E-05 1.72360E-14 7.79164E-14
 -1      3280 1.99998E+01-9.28949E-05 1.50297E-07 7.09027E-05 1.20646E-13 3.23288E-13
 -1      3281 1.39047E+01 2.07787E+00 7.34328E-02 2.37311E+00-1.67266E-13 3.97845E-13
 -1      3282 1.37683E+01 2.35316E+00-1.51509E-02 1.07323E+00-6.32276E-14 3.23963E-13
 -1      3283 1.50150E+01 2.32651E+00 1.47258E-02 7.55237E-01-2.37735E-14 2.25101E-13
 -1      3284 1.82585E+01 1.32446E+00-1.65542E-02 3.44801E-02-2.82582E-14-7.75931E-15
 -1      3285 1.86359E+01 1.14621E+00-5.46163E-03-3.42572E-03 2.46552E-14 1.09655E-14
 -1      3286 1.87720E+01 1.04467E+00 1.49328E-02 2.09976E-01-1.77017E-14 4.66142E-14
 -1      3287 2.03075E+01-2.98179E-01 3.25739E-03-8.54930E-03-1.62365E-14-2.49880E-13
 -1      3288 2.03664E+01-3.63134E-01-3.73336E-04-4.02399E-02-1.96855E-14-2.12699E-13
 -1      3289 2.04722E+01-4.31645E-01 4.45951E-03-6.75806E-02-4.39604E-14-1.85676E-13
 -1      3290 2.05502E+01-5.08706E-01-1.08675E-03-1.18138E-01-3.00012E-14-1.88697E-13
 -1      3291 2.04581E+01-4.36310E-01-4.57768E-03 2.17831E-02-1.64677E-14-1.98319E-13
 -1      3292 2.01137E+01-1.15488E-01 1.45826E-03 3.51869E-02-9.98180E-15-1.15513E-13
 -1      3293 2.01423E+01-1.51324E-01 2.05216E-04 2.58724E-02-5.61324E-14-2.10045E-13
 -1      3294 2.00641E+01-6.25603E-02 8.96408E-04 3.79220E-02-3.17496E-14-4.07282E-14
 -1      3295 2.00826E+01-8.66515E-02 2.58869E-04 3.41677E-02 2.12921E-14-8.32997E-14
 -1      3296 2.00991E+01-1.07582E-01-1.72035E-03 5.81656E-02-2.24701E-15-5.26649E-14
 -1      3297 2.00338E+01-2.85035E-02 5.16493E-04 3.52652E-02-5.23327E-14-5.91033E-14
 -1      3298 2.00454E+01-4.36856E-02 2.47656E-04 3.47428E-02-4.35645E-14-7.80004E-14
 -1      3299 2.00528E+01-5.54651E-02-1.11677E-03 5.07790E-02-4.25078E-14-5.21160E-14
 -1      3300 2.00164E+01-8.09728E-03 2.72796E-04 3.02073E-02-1.60546E-13-6.42173E-15
 -1      3301 2.00232E+01-1.69652E-02 2.10472E-04 3.13868E-02-9.68072E-14-4.99436E-14
 -1      3302 2.00256E+01-2.27126E-02-6.90979E-04 4.17691E-02-1.10695E-13-5.49245E-14
 -1      3303 2.00069E+01 3.02663E-03 1.24140E-04 2.44679E-02-2.31821E-13 2.25856E-14
 -1      3304 2.00108E+01-1.62495E-03 1.67577E-04 2.63986E-02-1.90653E-13 1.99404E-14
 -1      3305 2.00106E+01-3.64297E-03-4.06954E-04 3.29510E-02-2.16543E-13 5.25390E-14
 -1      3306 2.00021E+01 8.19349E-03 3.88366E-05 1.89659E-02-6.64709E-14-5.98001E-14
 -1      3307 2.00042E+01 6.19669E-03 1.29062E-04 2.10849E-02-1.32033E-13-1.97828E-14
 -1      3308 2.00030E+01 6.31153E-03-2.26609E-04 2.51393E-02-1.38082E-13 1.93574E-15
 -1      3309 2.00001E+01 9.78389E-03-5.73319E-06 1.41400E-02 3.68665E-15-9.16594E-14
 -1      3310 2.00012E+01 9.34321E-03 9.76388E-05 1.61391E-02 5.79650E-14-1.07545E-13
 -1      3311 1.99996E+01 1.05385E-02-1.16497E-04 1.86145E-02 1.07225E-14-1.48969E-14
 -1      3312 1.99994E+01 9.41082E-03-2.56693E-05 1.01436E-02-5.15736E-14-5.79561E-14
 -1      3313 1.99999E+01 9.79495E-03 7.31230E-05 1.18767E-02-5.61640E-14-5.67356E-14
 -1      3314 1.99986E+01 1.14108E-02-5.33080E-05 1.33822E-02-4.43698E-14-2.34435E-14
 -1      3315 1.99994E+01 8.10482E-03-3.16202E-05 6.97243E-03 9.27925E-14-6.25494E-14
 -1      3316 1.99996E+01 8.85491E-03 5.45565E-05 8.39071E-03-7.17268E-15-2.19996E-14
 -1      3317 1.99986E+01 1.05096E-02-1.93838E-05 9.31325E-03-2.87965E-14-9.93635E-15
 -1      3318 1.99997E+01 6.48492E-03-3.02756E-05 4.54500E-03 1.98843E-13-1.06492E-13
 -1      3319 1.99997E+01 7.33121E-03 4.06103E-05 5.65397E-03 1.99044E-13-3.83936E-14
 -1      3320 1.99990E+01 8.82528E-03-2.86894E-06 6.23105E-03 1.15052E-13-7.70880E-15
 -1      3321 1.99999E+01 4.89420E-03-2.56650E-05 2.74828E-03 9.01745E-14-1.28860E-13
 -1      3322 2.00000E+01 5.69180E-03 3.01208E-05 3.58116E-03 2.03990E-13-1.35138E-13
 -1      3323 1.99995E+01 6.94032E-03 3.87145E-06 3.95406E-03 1.88548E-13 1.74813E-15
 -1      3324 2.00001E+01 3.49970E-03-2.00861E-05 1.46352E-03-1.08686E-13-1.83696E-14
 -1      3325 2.00002E+01 4.18212E-03 2.21998E-05 2.06475E-03 4.59203E-15-9.29429E-14
 -1      3326 2.00000E+01 5.16753E-03 5.51878E-06 2.31539E-03 4.23698E-15-2.91019E-14
 -1      3327 2.00003E+01 2.36249E-03-1.47362E-05 5.80013E-04-7.66037E-14-4.53096E-15
 -1      3328 2.00003E+01 2.90946E-03 1.61942E-05 9.95627E-04-5.68463E-14 2.64367E-15
 -1      3329 2.00003E+01 3.65058E-03 4.84753E-06 1.17063E-03-7.13266E-14 5.67640E-14
 -1      3330 2.00003E+01 1.48438E-03-1.01560E-05 1.34541E-06-2.28790E-13-8.48334E-14
 -1      3331 2.00004E+01 1.90079E-03 1.16325E-05 2.73845E-04-1.85657E-13-1.50938E-14
 -1      3332 2.00005E+01 2.43301E-03 3.36149E-06 3.99619E-04-1.47641E-13 9.43214E-14
 -1      3333 2.00003E+01 8.37603E-04-6.51351E-06-3.52651E-04 9.62111E-14-7.22747E-14
 -1      3334 2.00004E+01 1.14032E-03 8.17738E-06-1.86643E-04-9.54705E-14-1.46209E-13
 -1      3335 2.00005E+01 1.50389E-03 1.81957E-06-9.48801E-05-1.45149E-13-1.57313E-13
 -1      3336 2.00003E+01 3.82774E-04-3.77709E-06-5.46246E-04 6.91655E-14-7.64207E-15
 -1      3337 2.00003E+01 5.92739E-04 5.57896E-06-4.56685E-04 1.22303E-13 4.04501E-14
 -1      3338 2.00005E+01 8.26272E-04 5.47153E-07-3.89749E-04-6.60064E-15-1.12011E-13
 -1      3339 2.00002E+01 7.89863E-05-1.82444E-06-6.29412E-04 2.44378E-13-6.41967E-14
 -1      3340 2.00003E+01 2.16919E-04 3.64791E-06-5.92586E-04 1.86758E-13 5.88980E-15
 -1      3341 2.00005E+01 3.54209E-04-3.63695E-07-5.44481E-04 1.16465E-13 3.99782E-14
 -1      3342 2.00002E+01-1.11004E-04-5.03575E-07-6.39924E-04 1.09555E-13-1.41578E-13
 -1      3343 2.00002E+01-2.67199E-05 2.23733E-06-6.37744E-04 2.60581E-13-1.16775E-13
 -1      3344 2.00004E+01 4.21887E-05-9.34201E-07-6.04180E-04 2.87524E-13-3.48271E-14
 -1      3345 2.00001E+01-2.18613E-04 3.34035E-07-6.05554E-04-2.60218E-13 1.40465E-13
 -1      3346 2.00001E+01-1.72732E-04 1.23015E-06-6.24649E-04-1.20124E-13-8.03901E-14
 -1      3347 2.00003E+01-1.50255E-04-1.22899E-06-6.02313E-04-8.51077E-14-6.49127E-14
 -1      3348 2.00000E+01-2.68980E-04 8.17969E-07-5.46118E-04-2.69185E-13 4.19519E-13
 -1      3349 2.00001E+01-2.49456E-04 5.32406E-07-5.76929E-04-2.76213E-13 3.66521E-13
 -1      3350 2.00002E+01-2.56773E-04-1.32392E-06-5.63142E-04-4.00424E-13 1.92897E-13
 -1      3351 2.00000E+01-2.81413E-04 1.05396E-06-4.75281E-04 6.66172E-14 2.65612E-13
 -1      3352 2.00000E+01-2.79091E-04 6.83633E-08-5.11225E-04-8.86798E-14 3.95371E-13
 -1      3353 2.00001E+01-3.04031E-04-1.28639E-06-5.03787E-04-1.79577E-13 2.91863E-13
 -1      3354 1.99999E+01-2.70210E-04 1.12435E-06-4.02070E-04 1.94230E-13 8.97043E-14
 -1      3355 2.00000E+01-2.78375E-04-2.22840E-07-4.38812E-04 1.60423E-13 2.93101E-13
 -1      3356 2.00001E+01-3.12359E-04-1.17070E-06-4.35931E-04 8.56840E-14 8.44414E-14
 -1      3357 1.99999E+01-2.45598E-04 1.09056E-06-3.32107E-04 8.16354E-14 1.07911E-13
 -1      3358 1.99999E+01-2.59495E-04-3.89201E-07-3.66969E-04 3.42974E-14 1.02580E-13
 -1      3359 2.00000E+01-2.96722E-04-1.01664E-06-3.67210E-04 2.02122E-13 2.66422E-13
 -1      3360 1.99999E+01-2.14635E-04 9.97052E-07-2.68583E-04 3.98840E-14 1.09017E-13
 -1      3361 1.99999E+01-2.31018E-04-4.67853E-07-3.00069E-04 1.58700E-13 9.36336E-14
 -1      3362 2.00000E+01-2.67768E-04-8.51531E-07-3.02314E-04 9.03601E-14 2.39963E-13
 -1      3363 1.99999E+01-1.81979E-04 8.74372E-07-2.13012E-04-1.87274E-13 7.59590E-14
 -1      3364 1.99999E+01-1.98735E-04-4.87288E-07-2.40437E-04-1.34411E-14 1.36113E-13
 -1      3365 1.99999E+01-2.32793E-04-6.91546E-07-2.43846E-04 1.36849E-13 2.26703E-13
 -1      3366 1.99998E+01-1.50545E-04 7.42445E-07-1.65791E-04-3.31824E-13 1.02461E-13
 -1      3367 1.99998E+01-1.66379E-04-4.69329E-07-1.89011E-04-3.15654E-13 2.71660E-14
 -1      3368 1.99999E+01-1.96588E-04-5.48036E-07-1.92973E-04-2.30701E-13 2.72509E-13
 -1      3369 1.99998E+01-1.21984E-04 6.21041E-07-1.26620E-04-2.49522E-13 3.89498E-13
 -1      3370 1.99998E+01-1.36194E-04-4.29147E-07-1.45818E-04-2.73501E-13 2.04194E-13
 -1      3371 1.99999E+01-1.62107E-04-4.22961E-07-1.49925E-04-4.46981E-13 1.23012E-13
 -1      3372 1.99998E+01-9.73054E-05 4.05314E-07-9.48764E-05-2.03902E-13 3.48491E-13
 -1      3373 1.99998E+01-1.09405E-04-3.88509E-07-1.10363E-04-2.94822E-13 3.29482E-13
 -1      3374 1.99998E+01-1.30962E-04-2.98465E-07-1.14323E-04-3.04359E-13 2.33105E-13
 -1      3375 1.99998E+01-1.07357E-04 2.36638E-07-5.58518E-06-1.89422E-13-2.14758E-13
 -1      3376 1.99998E+01-1.06101E-04 6.81310E-08-1.52120E-05-1.53728E-13-4.28115E-13
 -1      3377 1.59010E+01 2.11701E+00-2.13244E-02 4.99954E-01-3.24159E-14 1.44060E-13
 -1      3378 1.67716E+01 1.92403E+00-6.20914E-03 3.93595E-01-6.63311E-14 3.73100E-14
 -1      3379 1.58590E+01 2.00875E+00 4.53662E-02 1.38082E+00-9.21724E-14 2.48634E-13
 -1      3380 1.99998E+01-8.68263E-05 7.54942E-08 4.66543E-05 9.97104E-14 3.73694E-14
 -1      3381 1.99998E+01-9.30623E-05 3.16147E-07 4.07992E-05-8.64914E-14-1.75767E-13
 -1      3382 1.99998E+01-9.48483E-05-4.31327E-07 5.48209E-05 1.37054E-13 9.09021E-14
 -1      3383 1.60799E+01 2.99006E-01 1.17638E-02 4.46803E+00-4.40991E-13 3.34961E-13
 -1      3384 1.45258E+01 1.31574E+00 1.20812E-02 3.39606E+00-2.68839E-13 3.89605E-13
 -1      3385 1.55826E+01 1.50943E+00 4.92107E-02 2.70054E+00-2.30104E-13 3.15664E-13
 -1      3386 1.99998E+01-6.98902E-05 1.65217E-07-5.42831E-05 1.09600E-13 2.71497E-13
 -1      3387 1.99998E+01-6.55749E-05 2.50900E-07-5.82486E-05-3.83613E-14 3.10840E-13
 -1      3388 1.99998E+01-7.24163E-05-2.50835E-07-6.63309E-05-9.90091E-14 2.84560E-13
 -1      3389 2.01914E+01-1.92683E-01 2.24394E-03 2.21921E-02-8.66581E-14-2.43525E-13
 -1      3390 2.02335E+01-2.42711E-01 1.90611E-05 3.95651E-03-4.29855E-14-2.71367E-13
 -1      3391 2.01738E+01-1.85350E-01-2.52713E-03 6.04599E-02-8.67500E-14-1.03922E-13
 -1      3392 2.54292E+01 5.15776E+00-4.99504E-02-4.27408E-02 1.85546E-13-5.97505E-13
 -1      3393 2.12857E+01-8.26804E-01 5.63157E-03-5.49126E-01-9.19429E-14-2.73821E-13
 -1      3394 2.13960E+01-8.35357E-01-3.84214E-03-6.74388E-01-5.37811E-14-2.87983E-13
 -1      3395 1.73070E+01 1.71591E+00-2.27051E-02 2.27182E-01-4.48036E-15-2.46910E-14
 -1      3396 1.78903E+01 1.51692E+00-6.73244E-03 1.36381E-01-3.64049E-14-4.24779E-14
 -1      3397 1.81360E+01 1.35938E+00 2.07800E-02 4.51047E-01-1.25811E-14-3.75637E-14
 -1      3398 1.72495E+01 1.68950E+00 2.96336E-02 8.05129E-01-9.89983E-14-3.83378E-14
 -1      3399 2.44818E+01 4.34631E+00 1.75857E-02-1.87031E-01 1.28325E-13-5.70735E-13
 -1      3400 2.56651E+01 4.36013E+00-9.26461E-02-6.41934E-01 1.55750E-13-6.09146E-13
 -1      3401 1.99998E+01-7.51268E-05-1.23548E-07-4.15862E-05 1.12836E-13-3.00328E-14
 -1      3402 2.33384E+01-2.63445E+00-5.01867E-02 3.37472E+00-6.36232E-13-2.49190E-13
 -1      3403 2.15868E+01-2.10291E+00 6.97126E-02 4.32512E+00-6.98008E-13 6.69126E-15
 -1      3404 2.15303E+01 1.89391E+00 1.05389E-03-5.57593E-01 1.41331E-13-4.97274E-13
 -1      3405 1.95564E+01-1.59673E+00-5.78164E-02 4.82866E+00-6.49415E-13 2.16705E-13
 -1      3406 1.76225E+01-4.94587E-01 4.48810E-02 4.77388E+00-5.48990E-13 2.66060E-13
 -1      3407 1.78413E+01-4.70578E-03 6.73008E-02 3.99508E+00-4.64575E-13 2.12682E-13
 -1      3408 2.58488E+01 3.26497E+00-1.15970E-02-1.00441E+00 7.31498E-14-6.68801E-13
 -1      3409 2.63521E+01 1.29428E+00-9.29946E-02-1.03678E+00-5.17988E-14-6.85686E-13
 -1      3410 2.64023E+01-5.69155E-02 3.55944E-03-4.84786E-01-2.00888E-13-6.67864E-13
 -1      3411 1.99998E+01-1.02180E-04 3.39054E-07-2.60680E-05-1.55966E-13-4.61729E-13
 -1      3412 1.99998E+01-9.86362E-05-1.70849E-07-3.43005E-05-1.63286E-13-2.73328E-13
 -1      3413 1.99999E+01-1.16568E-04-4.45414E-07-2.34559E-05-2.45956E-13-4.66303E-13
 -1      3414 2.45975E+01-2.17044E+00-1.83392E-02 1.52096E+00-4.25182E-13-3.95265E-13
 -1      3415 2.42523E+01-2.47656E+00 3.28156E-02 2.50784E+00-5.58516E-13-3.35940E-13
 -1      3416 2.31423E+01-2.22801E+00-8.38680E-04 2.67577E+00-5.29066E-13-2.30683E-13
 -1      3417 2.36738E+01 3.76607E+00-1.21006E-02-2.29136E-01 1.19186E-13-5.61521E-13
 -1      3418 2.39376E+01 3.08792E+00-1.93376E-02-8.21075E-01 8.66425E-14-5.86538E-13
 -1      3419 2.30381E+01 3.18538E+00 1.09889E-02-3.28240E-01 1.29795E-13-5.25372E-13
 -1      3420 2.20423E+01 7.39310E-01-1.44894E-02-1.27600E+00 5.59754E-14-4.48173E-13
 -1      3421 2.20450E+01 1.20046E+00 1.13806E-02-1.12086E+00 8.07965E-14-4.58817E-13
 -1      3422 2.16037E+01-7.97837E-01 3.24341E-03-8.27429E-01-5.03736E-14-3.12845E-13
 -1      3423 2.16977E+01-7.11531E-01-2.93980E-03-9.55993E-01-4.70793E-14-3.47233E-13
 -1      3424 2.17879E+01-9.34579E-01-2.90469E-03-6.15953E-01-7.72439E-14-3.69756E-13
 -1      3425 2.02890E+01-2.94298E-01-3.52076E-03 5.15815E-02-4.21660E-14-2.19519E-13
 -1      3426 2.06938E+01-6.05642E-01-5.45925E-03-4.29540E-02-4.34684E-14-2.17700E-13
 -1      3427 2.06934E+01-5.84467E-01 5.62574E-03-1.68633E-01-5.66640E-14-2.16673E-13
 -1      3428 2.07898E+01-6.63615E-01-2.08541E-03-2.43759E-01-6.60299E-14-2.37713E-13
 -1      3429 1.99998E+01-8.91291E-05-2.94243E-07-8.52305E-05-8.12544E-14 3.13326E-13
 -1      3430 1.99998E+01-1.06746E-04-1.06246E-07-8.87442E-05-1.96993E-13 2.66642E-13
 -1      3431 1.99998E+01-8.12371E-05 2.79016E-07-7.57098E-05-9.40135E-14 1.96572E-13
 -1      3432 1.99998E+01-1.07399E-04 1.98586E-07 6.09457E-06-1.76272E-13 3.83372E-14
 -1      3433 1.99999E+01-1.20261E-04-3.92269E-07 2.49343E-07-2.70256E-13 3.19593E-14
 -1      3434 1.99998E+01-1.05948E-04 1.45833E-07 1.55669E-05-8.77346E-14 8.74171E-14
 -1      3435 2.14561E+01-3.33071E-01 3.37006E-03-1.24550E+00 4.16784E-14-3.77459E-13
 -1      3436 2.54469E+01-2.41443E-01 1.93113E-03-6.55959E-01-1.68609E-13-5.10831E-13
 -1      3437 2.60279E+01-9.61135E-01-2.74984E-02-8.40048E-02-2.55743E-13-5.83475E-13
 -1      3438 2.53245E+01-1.50803E+00-1.18693E-02 4.22464E-01-2.92715E-13-5.01132E-13
 -1      3439 1.99998E+01-9.87009E-05 1.18117E-07 3.30800E-05-5.03870E-14-2.08752E-13
 -1      3440 1.99998E+01-1.02733E-04 2.67971E-07 2.48790E-05-1.13548E-14-1.03006E-13
 -1      3441 1.99999E+01-1.17023E-04-3.54964E-07 2.21664E-05-1.53221E-13-6.40039E-14
 -1      3442 1.99998E+01-1.08601E-04-3.81802E-07 3.98526E-05 1.21554E-13-2.61976E-13
 -1      3443 2.09698E+01-7.31661E-01 6.26344E-03-3.26361E-01-1.15389E-13-2.08699E-13
 -1      3444 2.10790E+01-7.92257E-01-3.22591E-03-4.28776E-01-9.25071E-14-2.05977E-13
 -1      3445 2.13777E+01-9.14740E-01-4.91358E-03-3.50038E-01-1.33430E-13-2.78639E-13
 -1      3446 2.10028E+01-7.80428E-01-5.74173E-03-1.61360E-01-8.12538E-14-2.72811E-13
 -1      3447 2.23962E+01 2.64951E+00 5.85553E-03-4.05371E-01 1.40816E-13-5.14328E-13
 -1      3448 2.52837E+01 2.18639E+00-1.55286E-02-1.02910E+00 1.40634E-14-6.03718E-13
 -1      3449 2.09040E+01-1.55696E+00 5.05398E-02 3.92178E+00-6.50160E-13 2.31446E-14
 -1      3450 2.20211E+01-4.38241E-02-7.32061E-03-1.31199E+00 4.44390E-14-4.07842E-13
 -1      3451 2.20468E+01 3.24913E-01 6.89905E-03-1.31039E+00 5.62128E-14-4.11431E-13
 -1      3452 2.25834E+01 6.17602E-01 7.50409E-03-1.29853E+00 5.26573E-14-4.57944E-13
 -1      3453 1.99998E+01-9.00707E-05 4.47497E-07-4.28617E-05-8.27882E-14-2.77212E-14
 -1      3454 1.99998E+01-8.00327E-05-8.34477E-08-5.02064E-05 7.41158E-14-1.18605E-14
 -1      3455 1.99998E+01-8.70923E-05-4.76532E-08-5.65319E-05-2.49389E-13-4.98974E-14
 -1      3456 1.99998E+01-1.04846E-04-1.23333E-08-4.34582E-05-2.89279E-13-2.67642E-13
 -1      3457 2.23399E+01 1.86066E+00-1.46225E-02-9.20178E-01 1.17817E-13-4.94942E-13
 -1      3458 2.43951E+01 2.56690E+00-2.99295E-02-1.06456E+00 5.95704E-14-5.76496E-13
 -1      3459 2.49893E+01 1.09701E+00 1.56219E-04-1.15841E+00-2.17291E-14-5.72789E-13
 -1      3460 1.69035E+01 8.91423E-01 1.55655E-02 2.98793E+00-2.98210E-13 1.32807E-13
 -1      3461 1.60634E+01 1.50591E+00-2.06149E-02 2.11209E+00-1.70835E-13 1.68582E-13
 -1      3462 1.69608E+01 1.45271E+00 1.23553E-02 1.69090E+00-1.51253E-13 6.43244E-14
 -1      3463 1.94511E+01 5.26807E-01-6.81141E-03 9.22924E-02-1.93491E-13-2.16829E-14
 -1      3464 1.95757E+01 4.50144E-01-5.47329E-04 6.13961E-02-9.77359E-14 5.87722E-15
 -1      3465 1.96555E+01 3.79285E-01-4.08584E-03 2.12303E-02-4.50162E-14 3.33400E-14
 -1      3466 1.97344E+01 3.20451E-01-6.79926E-04 8.40613E-03-3.52571E-14 2.06770E-14
 -1      3467 1.96299E+01 3.96464E-01 4.27554E-03 1.19176E-01-7.32954E-14-6.71493E-14
 -1      3468 1.97883E+01 2.68077E-01-2.46655E-03-1.27250E-02-1.28600E-13 4.67288E-14
 -1      3469 1.98373E+01 2.24784E-01-6.38235E-04-1.60248E-02-1.91522E-13-8.42323E-16
 -1      3470 1.97636E+01 2.87843E-01 2.91305E-03 4.83202E-02-1.09691E-13-4.07771E-15
 -1      3471 1.98729E+01 1.87118E-01-1.44636E-03-2.61052E-02-1.01460E-13-2.93718E-15
 -1      3472 1.99028E+01 1.56042E-01-5.33599E-04-2.48259E-02 3.46817E-14-6.38761E-14
 -1      3473 1.98523E+01 2.05508E-01 1.94294E-03 1.10358E-02-1.44523E-13-8.77017E-15
 -1      3474 1.99258E+01 1.29478E-01-8.18763E-04-2.87600E-02-1.04605E-13-1.38492E-13
 -1      3475 1.99436E+01 1.07549E-01-4.14415E-04-2.56171E-02-2.41849E-13-1.20792E-13
 -1      3476 1.99098E+01 1.44994E-01 1.26894E-03-6.76464E-03-1.49598E-13-1.55210E-13
 -1      3477 1.99583E+01 8.90039E-02-4.51865E-04-2.63271E-02-3.06044E-13-1.67017E-13
 -1      3478 1.99687E+01 7.37084E-02-3.03694E-04-2.27378E-02-2.76406E-13-2.06775E-13
 -1      3479 1.99465E+01 1.01456E-01 8.20974E-04-1.37094E-02-2.61509E-13-1.77840E-13
 -1      3480 1.99782E+01 6.03373E-02-2.29710E-04-2.18516E-02-2.16350E-13-3.36613E-13
 -1      3481 1.99842E+01 4.93570E-02-2.18496E-04-1.83579E-02-2.94241E-13-3.41354E-13
 -1      3482 1.99698E+01 6.98382E-02 4.94864E-04-1.49546E-02-3.13772E-13-2.43480E-13
 -1      3483 1.99897E+01 4.07086E-02-1.00458E-04-1.69589E-02-2.81799E-13-2.51341E-13
 -1      3484 1.99928E+01 3.35336E-02-1.58539E-04-1.41221E-02-1.77897E-13-2.50901E-13
 -1      3485 1.99841E+01 4.78343E-02 3.10734E-04-1.34801E-02-2.70681E-13-1.19061E-13
 -1      3486 1.99961E+01 2.76102E-02-2.95098E-05-1.26388E-02-8.29633E-14-2.60233E-13
 -1      3487 1.99976E+01 2.26463E-02-1.12467E-04-1.03618E-02-4.86470E-14-1.43731E-13
 -1      3488 1.99923E+01 3.28511E-02 1.84301E-04-1.10227E-02-1.40857E-13-2.00971E-13
 -1      3489 1.99995E+01 1.85848E-02 2.46102E-06-9.02507E-03-1.49953E-13-3.94034E-14
 -1      3490 2.00002E+01 1.51630E-02-7.79606E-05-7.27002E-03-1.98739E-13 8.87662E-15
 -1      3491 1.99971E+01 2.24036E-02 1.07822E-04-8.42743E-03-1.46756E-14-1.45265E-13
 -1      3492 2.00012E+01 1.23766E-02 1.62306E-05-6.16417E-03-1.70095E-13 2.09260E-14
 -1      3493 2.00014E+01 1.00196E-02-5.31308E-05-4.85508E-03-5.01100E-14 2.14076E-14
 -1      3494 1.99998E+01 1.51232E-02 6.11737E-05-6.09219E-03-1.09783E-13 1.47568E-14
 -1      3495 2.00020E+01 8.10715E-03 1.97768E-05-3.99214E-03-3.04228E-14 7.45185E-14
 -1      3496 2.00019E+01 6.48420E-03-3.66641E-05-3.04314E-03-1.81525E-13 1.44372E-14
 -1      3497 2.00012E+01 1.00588E-02 3.35869E-05-4.16575E-03-4.86076E-14-2.19905E-14
 -1      3498 2.00022E+01 5.11724E-03 1.89692E-05-2.37001E-03-9.19207E-14 1.40897E-13
 -1      3499 2.00020E+01 3.96961E-03-2.39719E-05-1.68169E-03 1.12283E-13 1.02542E-13
 -1      3500 2.00018E+01 6.47791E-03 1.78729E-05-2.63936E-03-7.28851E-14 6.72457E-14
 -1      3501 2.00021E+01 3.10024E-03 1.67515E-05-1.23483E-03 3.68741E-14 1.80294E-13
 -1      3502 2.00019E+01 2.36164E-03-1.46487E-05-7.92698E-04-1.95571E-14 3.29034E-14
 -1      3503 2.00020E+01 4.01558E-03 6.53178E-06-1.51336E-03 4.95458E-14 1.82528E-13
 -1      3504 2.00019E+01 1.77498E-03 1.35843E-05-4.88061E-04-6.44129E-14 4.17916E-14
 -1      3505 2.00017E+01 1.28043E-03-8.82556E-06-2.02036E-04 1.41570E-14-2.07354E-14
 -1      3506 2.00019E+01 2.38512E-03 1.02738E-06-7.42548E-04-5.62597E-14 2.25657E-13
 -1      3507 2.00016E+01 8.92446E-04 1.04301E-05-6.77824E-06-3.50611E-14-9.62989E-14
 -1      3508 2.00014E+01 5.68724E-04-4.88598E-06 1.67229E-04 6.42793E-14-1.74758E-13
 -1      3509 2.00017E+01 1.28559E-03-1.72405E-06-2.23222E-04-9.43571E-14 3.37504E-14
 -1      3510 2.00013E+01 3.19072E-04 7.71227E-06 2.82654E-04 5.46919E-14-2.87573E-13
 -1      3511 2.00011E+01 1.14373E-04-2.26356E-06 3.78305E-04-5.40402E-14-4.41364E-13
 -1      3512 2.00015E+01 5.59664E-04-3.01126E-06 1.06259E-04-1.20766E-13-1.61176E-13
 -1      3513 2.00010E+01-3.94420E-05 5.51219E-06 4.37616E-04-4.52391E-14-4.96141E-13
 -1      3514 2.00009E+01-1.61876E-04-5.79981E-07 4.80216E-04-4.01059E-14-4.23057E-13
 -1      3515 2.00012E+01 9.58345E-05-3.46907E-06 2.97981E-04-6.02421E-14-4.06531E-13
 -1      3516 2.00008E+01-2.49870E-04 3.82241E-06 5.01681E-04-1.44186E-13-2.74586E-13
 -1      3517 2.00007E+01-3.16545E-04 3.99838E-07 5.09973E-04-1.91954E-13-2.54418E-13
 -1      3518 2.00010E+01-1.85613E-04-3.45030E-06 3.93500E-04-7.82672E-15-4.32766E-13
 -1      3519 2.00006E+01-3.61969E-04 2.49275E-06 5.06818E-04-3.60789E-13-2.50938E-13
 -1      3520 2.00005E+01-3.91198E-04 1.00789E-06 4.92733E-04-2.49981E-13-2.56483E-13
 -1      3521 2.00008E+01-3.43669E-04-3.05452E-06 4.24406E-04-2.50156E-13-2.62762E-13
 -1      3522 2.00004E+01-4.04242E-04 1.59886E-06 4.74966E-04-1.49404E-13-2.39347E-13
 -1      3523 2.00004E+01-4.08166E-04 1.34049E-06 4.49883E-04-6.93614E-14-3.13336E-13
 -1      3524 2.00006E+01-4.16107E-04-2.85988E-06 4.14031E-04-1.66470E-13-1.32882E-13
 -1      3525 2.00003E+01-4.03710E-04 9.19663E-07 4.25123E-04-1.86575E-14-2.93240E-13
 -1      3526 2.00002E+01-3.93081E-04 1.43618E-06 3.94848E-04 5.40614E-15-1.34679E-13
 -1      3527 2.00004E+01-4.31345E-04-2.46209E-06 3.80008E-04-5.41444E-14-3.83112E-13
 -1      3528 2.00002E+01-3.78144E-04 4.79931E-07 3.67431E-04 4.34947E-14-2.09151E-14
 -1      3529 2.00001E+01-3.59486E-04 1.39453E-06 3.36050E-04-5.75734E-15 4.56652E-14
 -1      3530 2.00003E+01-4.13556E-04-2.07461E-06 3.34506E-04 1.38912E-13-2.96124E-13
 -1      3531 2.00001E+01-3.39132E-04 1.90851E-07 3.08848E-04-5.33995E-14 7.43618E-14
 -1      3532 2.00000E+01-3.16786E-04 1.27808E-06 2.78847E-04-6.68510E-14 3.02829E-13
 -1      3533 2.00002E+01-3.76947E-04-1.71810E-06 2.85175E-04 6.91766E-14-1.44585E-14
 -1      3534 2.00000E+01-2.94373E-04 2.20145E-08 2.53558E-04-1.64632E-13 2.20252E-13
 -1      3535 2.00000E+01-2.71189E-04 1.15305E-06 2.26328E-04-8.10364E-14 2.80001E-13
 -1      3536 2.00001E+01-3.31286E-04-1.40847E-06 2.36828E-04-1.32360E-13 1.61920E-13
 -1      3537 1.99999E+01-2.47873E-04-9.58410E-08 2.02732E-04 3.31669E-15 1.61113E-13
 -1      3538 1.99999E+01-2.24602E-04 9.86402E-07 1.77929E-04 6.51415E-14 9.49829E-14
 -1      3539 2.00000E+01-2.81753E-04-1.14075E-06 1.91212E-04-8.35310E-14-1.39975E-13
 -1      3540 1.99999E+01-2.03996E-04-1.45747E-07 1.58801E-04 9.15178E-14 5.18322E-15
 -1      3541 1.99999E+01-1.83880E-04 8.06525E-07 1.38785E-04-5.83387E-14-3.78841E-14
 -1      3542 1.99999E+01-2.33800E-04-8.83789E-07 1.51148E-04-9.58742E-15-2.59491E-13
 -1      3543 1.99999E+01-1.65554E-04-1.78260E-07 1.22793E-04-1.68025E-14 7.43910E-15
 -1      3544 1.99999E+01-1.47899E-04 6.63805E-07 1.06226E-04 4.78292E-14 2.12229E-14
 -1      3545 1.99999E+01-1.90988E-04-6.79435E-07 1.17856E-04-4.95152E-14-3.02447E-13
 -1      3546 1.99998E+01-1.32196E-04-2.26512E-07 9.31445E-05 1.11916E-13 1.21049E-13
 -1      3547 1.99998E+01-1.17367E-04 4.11446E-07 7.98738E-05 1.81441E-13 1.94933E-13
 -1      3548 1.99999E+01-1.53187E-04-4.38002E-07 9.01905E-05 1.54260E-13-1.94628E-13
 -1      3549 1.99998E+01-1.10296E-04-3.41200E-07 7.16624E-05 8.73763E-14 1.93294E-13
 -1      3550 1.99998E+01-1.01465E-04 1.66473E-07 6.16220E-05 1.02978E-14 3.44011E-14
 -1      3551 1.99998E+01-1.09889E-04 2.37642E-07 5.44012E-05 2.45143E-13-4.56295E-13
 -1      3552 1.99999E+01-1.26810E-04 8.81283E-09 6.95487E-05 1.43890E-13-2.02641E-13
 -1      3553 2.04361E+01-3.89247E-01 3.82107E-03 1.25537E-01-1.80396E-14-2.12791E-13
 -1      3554 2.05356E+01-4.74443E-01 1.00167E-03 1.10765E-01-1.87822E-14-2.12389E-13
 -1      3555 1.86656E+01 9.50551E-01-1.46910E-02 4.84652E-01 7.06591E-15 3.21109E-14
 -1      3556 1.89609E+01 8.39336E-01 1.18455E-03 3.62000E-01 2.53691E-14 6.27031E-14
 -1      3557 2.00405E+01-3.53884E-02 4.35789E-04 6.35745E-02-5.99094E-14-1.84510E-14
 -1      3558 2.00592E+01-5.48716E-02 8.11409E-04 6.93122E-02-2.38078E-14 2.20093E-14
 -1      3559 2.00826E+01-7.97208E-02 8.42360E-04 8.22045E-02-2.59570E-14-1.59494E-14
 -1      3560 2.01131E+01-1.10788E-01 1.04873E-03 8.73388E-02-4.54575E-14-5.15709E-14
 -1      3561 2.00604E+01-6.30546E-02-1.52026E-03 9.62815E-02-6.04175E-14-3.12424E-14
 -1      3562 2.00046E+01 5.47350E-03 5.67038E-05 3.49960E-02-2.02595E-13 2.07654E-15
 -1      3563 2.00105E+01-4.19715E-04 4.14459E-04 3.96468E-02-1.84619E-13-1.42162E-14
 -1      3564 1.99990E+01 1.21120E-02-1.43051E-05 2.51252E-02-1.52525E-13 8.41450E-15
 -1      3565 2.00019E+01 9.63064E-03 2.80998E-04 2.89469E-02-1.58561E-13 1.40566E-14
 -1      3566 1.99989E+01 1.11927E-02-2.93264E-04 3.49243E-02-2.06627E-13-9.32845E-14
 -1      3567 1.99971E+01 1.40786E-02-4.52757E-05 1.76645E-02 9.26265E-14-4.31305E-14
 -1      3568 1.99983E+01 1.36008E-02 1.86640E-04 2.06955E-02-4.86431E-14 3.01287E-14
 -1      3569 1.99957E+01 1.58367E-02-1.42959E-04 2.40296E-02-6.48923E-14-7.92742E-14
 -1      3570 1.99970E+01 1.34752E-02-5.41228E-05 1.21363E-02-1.55662E-13-1.36403E-15
 -1      3571 1.99974E+01 1.40582E-02 1.21635E-04 1.44793E-02-2.34464E-14-4.33434E-14
 -1      3572 1.99952E+01 1.64199E-02-5.89858E-05 1.62539E-02-1.66630E-15-8.13169E-14
 -1      3573 1.99977E+01 1.16434E-02-5.17727E-05 8.10364E-03-5.44881E-14 2.18643E-14
 -1      3574 1.99976E+01 1.26975E-02 7.87672E-05 9.87568E-03-1.40518E-13 2.62629E-14
 -1      3575 1.99961E+01 1.48944E-02-1.46065E-05 1.07731E-02-1.44648E-13 5.03700E-14
 -1      3576 1.99985E+01 9.39338E-03-4.44361E-05 5.20669E-03 2.05000E-13 7.30326E-14
 -1      3577 1.99984E+01 1.05700E-02 5.09937E-05 6.51940E-03 8.76535E-14 6.09811E-14
 -1      3578 1.99973E+01 1.24657E-02 6.24437E-06 6.94945E-03 1.07677E-14 8.31943E-14
 -1      3579 1.99993E+01 7.17872E-03-3.55617E-05 3.16045E-03 7.21866E-14 2.37537E-13
 -1      3580 1.99991E+01 8.28885E-03 3.32066E-05 4.11194E-03 2.07856E-13 1.76154E-13
 -1      3581 1.99985E+01 9.84013E-03 1.38847E-05 4.31011E-03 1.83453E-13 2.26586E-13
 -1      3582 1.99999E+01 5.22410E-03-2.69790E-05 1.74392E-03-4.26222E-14 3.27657E-13
 -1      3583 1.99998E+01 6.17972E-03 2.18657E-05 2.41686E-03 2.88993E-14 2.99880E-13
 -1      3584 1.99994E+01 7.39629E-03 1.46946E-05 2.51125E-03-3.51252E-14 3.93921E-13
 -1      3585 2.00004E+01 3.61451E-03-1.95158E-05 7.88497E-04-8.13802E-14 3.09264E-13
 -1      3586 2.00003E+01 4.38776E-03 1.46148E-05 1.25035E-03 3.01359E-14 2.77292E-13
 -1      3587 2.00001E+01 5.30667E-03 1.24480E-05 1.30547E-03 3.43930E-14 4.31369E-13
 -1      3588 2.00006E+01 2.35627E-03-1.34357E-05 1.66705E-04-1.46683E-13 1.34671E-13
 -1      3589 2.00006E+01 2.95234E-03 9.90773E-06 4.71535E-04-8.17568E-14 1.68882E-13
 -1      3590 2.00006E+01 3.62131E-03 9.21504E-06 5.16451E-04-1.95523E-14 3.28967E-13
 -1      3591 2.00007E+01 1.41523E-03-8.72685E-06-2.17271E-04-6.10099E-14 1.03947E-14
 -1      3592 2.00007E+01 1.85550E-03 6.79199E-06-2.68934E-05-1.54245E-13 8.40445E-16
 -1      3593 2.00008E+01 2.32360E-03 6.05009E-06 1.83751E-05 7.91036E-15 8.97463E-14
 -1      3594 2.00007E+01 7.40493E-04-5.23154E-06-4.34866E-04-1.03538E-13-1.55930E-15
 -1      3595 2.00007E+01 1.05224E-03 4.67605E-06-3.25982E-04-1.38407E-13-6.12725E-14
 -1      3596 2.00009E+01 1.36475E-03 3.40779E-06-2.78580E-04-1.05886E-13 3.40167E-14
 -1      3597 2.00006E+01 2.78048E-04-2.73975E-06-5.38891E-04 2.07252E-13 4.36303E-14
 -1      3598 2.00007E+01 4.88700E-04 3.20181E-06-4.86393E-04 4.64778E-14 2.19841E-14
 -1      3599 2.00009E+01 6.84669E-04 1.41432E-06-4.38513E-04-2.08314E-14-1.15459E-13
 -1      3600 2.00006E+01-2.20921E-05-1.03989E-06-5.67972E-04 3.58309E-13-4.76290E-14
 -1      3601 2.00006E+01 1.12144E-04 2.15342E-06-5.53067E-04 3.27831E-13 3.11544E-14
 -1      3602 2.00008E+01 2.23706E-04 3.43431E-08-5.07133E-04 2.32973E-13-1.16715E-13
 -1      3603 2.00004E+01-2.02722E-04 6.04159E-08-5.49950E-04-3.97469E-13 8.95279E-14
 -1      3604 2.00005E+01-1.24161E-04 1.39975E-06-5.58858E-04 1.36910E-14-1.06599E-14
 -1      3605 2.00007E+01-7.15338E-05-8.36437E-07-5.16907E-04 1.31161E-13-8.03205E-14
 -1      3606 2.00003E+01-2.98565E-04 7.22184E-07-5.04542E-04-3.51207E-13 1.52646E-13
 -1      3607 2.00004E+01-2.59067E-04 8.57460E-07-5.27376E-04-4.22634E-13 2.92057E-14
 -1      3608 2.00005E+01-2.45837E-04-1.31864E-06-4.90683E-04-3.50273E-13-8.33852E-14
 -1      3609 2.00002E+01-3.36696E-04 1.07366E-06-4.45376E-04-4.05672E-14 2.41157E-13
 -1      3610 2.00003E+01-3.23447E-04 4.71645E-07-4.75245E-04-2.75816E-13 1.71694E-13
 -1      3611 2.00004E+01-3.35060E-04-1.52119E-06-4.44343E-04-3.45767E-13 3.04648E-14
 -1      3612 2.00001E+01-3.37489E-04 1.21430E-06-3.81557E-04 6.21730E-14 1.60377E-13
 -1      3613 2.00002E+01-3.40936E-04 2.02380E-07-4.13828E-04 9.48657E-14 1.58388E-13
 -1      3614 2.00003E+01-3.66894E-04-1.53846E-06-3.88668E-04 4.91635E-14 2.98917E-13
 -1      3615 2.00001E+01-3.15781E-04 1.21882E-06-3.18903E-04 1.18106E-13 3.75855E-13
 -1      3616 2.00001E+01-3.29031E-04 2.05150E-08-3.50603E-04 1.41840E-13 2.95375E-13
 -1      3617 2.00002E+01-3.62016E-04-1.44246E-06-3.30750E-04 3.66027E-14 1.42714E-13
 -1      3618 2.00000E+01-2.82026E-04 1.14082E-06-2.60877E-04 2.37139E-13 1.55456E-13
 -1      3619 2.00000E+01-3.00269E-04-9.59345E-08-2.90235E-04 2.88431E-13 3.53124E-13
 -1      3620 2.00001E+01-3.35379E-04-1.28522E-06-2.75033E-04 1.32594E-13 3.25460E-13
 -1      3621 2.00000E+01-2.43318E-04 1.01969E-06-2.09287E-04 1.31499E-13 1.50485E-13
 -1      3622 2.00000E+01-2.63332E-04-1.64112E-07-2.35377E-04 1.61419E-13 8.99870E-14
 -1      3623 2.00000E+01-2.97459E-04-1.10263E-06-2.24090E-04 2.11734E-13 1.07579E-13
 -1      3624 1.99999E+01-2.04248E-04 8.77865E-07-1.64840E-04-3.57836E-13 1.27366E-13
 -1      3625 1.99999E+01-2.23971E-04-1.97828E-07-1.87299E-04 5.85873E-16 1.39883E-13
 -1      3626 2.00000E+01-2.55299E-04-9.17029E-07-1.79190E-04-1.68046E-14 9.24058E-14
 -1      3627 1.99999E+01-1.67577E-04 7.48533E-07-1.27489E-04-4.63297E-13 1.04787E-13
 -1      3628 1.99999E+01-1.85826E-04-2.12753E-07-1.46346E-04-5.88215E-13 1.87038E-14
 -1      3629 1.99999E+01-2.13438E-04-7.47627E-07-1.40745E-04-4.49974E-13 4.38102E-15
 -1      3630 1.99999E+01-1.35030E-04 5.60723E-07-9.69518E-05-3.10830E-13 7.84001E-14
 -1      3631 1.99999E+01-1.51058E-04-2.46941E-07-1.12354E-04-1.32600E-13 1.65355E-13
 -1      3632 1.99999E+01-1.74419E-04-5.87823E-07-1.08652E-04-3.83646E-13 1.20004E-13
 -1      3633 1.99998E+01-8.75119E-05-2.35759E-07-6.99867E-05-2.09452E-13 9.36471E-14
 -1      3634 2.18685E+01-5.59344E-01-9.18897E-04-1.11465E+00-1.03494E-14-3.54837E-13
 -1      3635 2.19298E+01-3.38210E-01 7.69451E-04-1.20687E+00 2.07303E-14-3.78699E-13
 -1      3636 2.24605E+01-2.29022E-01 5.46924E-03-1.20676E+00 1.57222E-14-3.69523E-13
 -1      3637 2.21748E+01-7.38112E-01 6.48359E-04-9.29104E-01-3.02737E-14-3.46549E-13
 -1      3638 2.01531E+01-1.48835E-01 1.49100E-03 1.02027E-01-1.04369E-13-1.03897E-13
 -1      3639 2.02006E+01-1.95323E-01 1.24603E-03 1.04667E-01-1.40985E-13-1.65982E-13
 -1      3640 2.01206E+01-1.27342E-01-2.38958E-03 1.28600E-01-1.10020E-13-1.13845E-13
 -1      3641 2.00168E+01-8.91429E-03 1.92842E-04 4.77229E-02-1.78094E-13-8.35812E-15
 -1      3642 2.00277E+01-2.02275E-02 5.93177E-04 5.31106E-02-8.35354E-14-7.07915E-14
 -1      3643 2.00259E+01-2.32219E-02-9.28177E-04 7.00697E-02-4.34597E-14-9.71588E-14
 -1      3644 2.00076E+01-4.13299E-04-5.35941E-04 4.99092E-02-1.53718E-13-6.79816E-14
 -1      3645 1.91295E+01 7.23110E-01-1.05405E-02 2.33511E-01-7.24294E-14 1.15489E-14
 -1      3646 1.93330E+01 6.21993E-01 1.40592E-04 1.65967E-01-1.90957E-13-5.86027E-14
 -1      3647 1.94294E+01 5.35443E-01 6.16372E-03 2.48052E-01-1.43359E-13-1.12733E-13
 -1      3648 1.91354E+01 6.97913E-01 7.64313E-03 4.73627E-01-7.92813E-14-4.97801E-14
 -1      3649 2.37006E+01 2.07764E+00-8.50854E-03-1.01381E+00 6.12947E-14-5.37883E-13
 -1      3650 1.89654E+01-5.50960E-01-2.88784E-02 3.66067E+00-4.55093E-13 1.35511E-13
 -1      3651 1.76973E+01 2.81430E-01-2.37606E-03 3.35095E+00-3.73560E-13 1.61515E-13
 -1      3652 1.82027E+01 4.73807E-01 3.37655E-02 2.71272E+00-2.90590E-13 8.05063E-14
 -1      3653 2.16540E+01-1.82354E+00-3.79525E-02 3.15974E+00-5.46341E-13-1.49276E-13
 -1      3654 2.02300E+01-1.10805E+00 2.22699E-02 3.57061E+00-5.11183E-13 2.49353E-14
 -1      3655 2.01060E+01-7.28309E-01 3.24051E-02 3.00468E+00-3.91338E-13-9.95861E-15
 -1      3656 2.29046E+01 1.83588E+00-3.10350E-04-1.05374E+00 8.18015E-14-5.03151E-13
 -1      3657 2.02655E+01-2.50109E-01 2.47040E-03 1.19137E-01-1.22527E-13-1.39111E-13
 -1      3658 2.03359E+01-3.15508E-01 1.26005E-03 1.15865E-01-6.02491E-14-1.59521E-13
 -1      3659 2.03767E+01-3.62991E-01-5.17914E-03 2.00786E-01-7.92260E-14-1.44522E-13
 -1      3660 2.33457E+01 1.29545E+00-1.65595E-02-1.24747E+00 3.37013E-14-5.08635E-13
 -1      3661 2.48245E+01-1.86404E+00 7.85317E-03 7.90430E-01-3.25967E-13-4.36635E-13
 -1      3662 2.39534E+01-1.95728E+00-1.12369E-02 1.16506E+00-3.27221E-13-3.15313E-13
 -1      3663 2.46126E+01-1.34134E+00-9.46705E-04 5.28345E-02-2.20440E-13-3.85006E-13
 -1      3664 1.77616E+01 1.00411E+00 1.59847E-02 1.95224E+00-1.53855E-13 2.81778E-14
 -1      3665 1.72992E+01 1.35937E+00-2.40404E-02 1.32543E+00-8.96891E-14 4.00684E-14
 -1      3666 1.78567E+01 1.26159E+00 3.44976E-03 1.07667E+00-6.96497E-14 1.05287E-14
 -1      3667 1.99999E+01-1.25563E-04-2.83015E-07 5.20550E-05 2.02206E-13-3.38747E-13
 -1      3668 1.99999E+01-1.16647E-04 1.48061E-07 4.52350E-05 3.00093E-13-3.06917E-13
 -1      3669 1.99999E+01-1.21795E-04 2.28536E-07 3.70342E-05 2.48659E-13-2.07002E-13
 -1      3670 1.99998E+01-9.72956E-05-1.84966E-08-6.48174E-05-2.81783E-13-6.19545E-15
 -1      3671 2.02202E+01-2.24582E-01-3.58167E-03 1.65278E-01-1.38202E-13-1.52305E-13
 -1      3672 2.06827E+01-5.66101E-01 5.66312E-03 1.08353E-01-7.77730E-14-1.71554E-13
 -1      3673 2.08159E+01-6.68671E-01 7.61148E-05 7.40157E-02-6.07320E-14-1.91016E-13
 -1      3674 2.06111E+01-5.46494E-01-7.14046E-03 2.23826E-01-4.10942E-14-1.58906E-13
 -1      3675 2.41404E+01 8.94225E-01 1.43233E-02-1.23416E+00-7.19737E-15-5.36651E-13
 -1      3676 2.48702E+01 2.73096E-01-2.77218E-02-1.01932E+00-5.96903E-14-5.46459E-13
 -1      3677 2.46035E+01-3.71493E-01-6.42943E-03-7.36175E-01-1.17698E-13-4.54680E-13
 -1      3678 1.99998E+01-1.24178E-04-2.05400E-07-8.78608E-05-3.27132E-13-4.34795E-14
 -1      3679 1.99999E+01-1.43935E-04-3.61934E-07-8.55618E-05-2.25102E-13-1.21421E-13
 -1      3680 1.99998E+01-1.13535E-04 3.89625E-07-7.81679E-05-2.25988E-13 2.12664E-14
 -1      3681 2.29970E+01-1.97370E+00-2.40231E-02 1.90496E+00-4.21108E-13-1.78615E-13
 -1      3682 2.24574E+01-1.89651E+00 2.67193E-02 2.61021E+00-5.14658E-13-1.35397E-13
 -1      3683 2.17991E+01-1.55426E+00 4.18116E-03 2.42263E+00-4.22775E-13-6.59659E-14
 -1      3684 1.99999E+01-1.33534E-04 1.72172E-07 6.53581E-06-1.53275E-13 2.06030E-13
 -1      3685 1.99999E+01-1.33456E-04 1.75223E-07-6.17205E-06-1.70944E-13-2.54244E-14
 -1      3686 2.33268E+01 6.87452E-01-3.36085E-03-1.21376E+00 3.43475E-16-4.98713E-13
 -1      3687 1.80902E+01 1.16845E+00-1.85427E-02 8.19206E-01-1.16726E-14 3.00267E-14
 -1      3688 1.84810E+01 1.05440E+00 1.19554E-03 6.58007E-01 2.33808E-14 7.09990E-15
 -1      3689 1.87685E+01 8.51564E-01 1.03089E-02 8.07841E-01-8.51519E-15 5.09981E-14
 -1      3690 1.83397E+01 9.56352E-01 1.21412E-02 1.27384E+00-9.94951E-15 9.28813E-14
 -1      3691 2.19466E+01-1.07152E+00 8.17059E-03-3.20090E-01-1.18600E-13-3.14561E-13
 -1      3692 2.21448E+01-1.06676E+00-4.47898E-03-4.58445E-01-7.12498E-14-3.17274E-13
 -1      3693 1.99999E+01-1.47414E-04-4.44773E-07-1.55534E-05-3.65998E-14-3.79019E-13
 -1      3694 1.99999E+01-1.31044E-04 3.82241E-07-2.12682E-05-1.97854E-13-6.21985E-13
 -1      3695 1.99999E+01-1.27911E-04-4.51940E-09-3.29654E-05-1.71949E-13-5.86017E-13
 -1      3696 2.14493E+01-9.61205E-01 8.97912E-03-9.10812E-02-1.91529E-13-2.68771E-13
 -1      3697 2.16401E+01-1.03652E+00-3.21866E-03-1.92914E-01-1.73274E-13-3.16332E-13
 -1      3698 2.19438E+01-1.16970E+00-1.06384E-02-4.32249E-02-1.49586E-13-2.66435E-13
 -1      3699 2.32934E+01 1.39995E-01-7.67655E-03-1.22875E+00-2.85243E-15-4.74172E-13
 -1      3700 1.97418E+01 2.70808E-01-3.56293E-03 1.04740E-01-9.04640E-14-3.62278E-14
 -1      3701 1.98015E+01 2.34154E-01 5.52884E-04 7.60683E-02-1.16466E-13-5.20761E-14
 -1      3702 1.98332E+01 1.99304E-01-2.28570E-03 4.70317E-02-1.66757E-13-9.15532E-14
 -1      3703 1.98722E+01 1.70693E-01 1.76872E-04 3.20778E-02-1.69853E-13-8.73927E-14
 -1      3704 1.98333E+01 1.97953E-01 1.56646E-03 9.63135E-02-1.52725E-13-1.10435E-13
 -1      3705 1.98947E+01 1.44424E-01-1.42671E-03 1.56362E-02-1.78667E-13-1.14235E-13
 -1      3706 1.99196E+01 1.22882E-01-3.80858E-08 8.61422E-03-2.40779E-13-2.13177E-13
 -1      3707 1.98902E+01 1.48109E-01 1.10042E-03 4.71765E-02-2.41936E-13-1.26953E-13
 -1      3708 1.99351E+01 1.03512E-01-8.73367E-04-9.11638E-05-2.28028E-13-1.35389E-13
 -1      3709 1.99508E+01 8.76209E-02-4.80044E-05-2.72361E-03-2.39311E-13-1.30906E-13
 -1      3710 1.99294E+01 1.09265E-01 8.16944E-04 1.95892E-02-1.81420E-13-4.49541E-14
 -1      3711 1.99617E+01 7.29545E-02-5.19987E-04-7.10375E-03-3.42330E-13-1.26706E-13
 -1      3712 1.99717E+01 6.09521E-02-7.51689E-05-7.43139E-03-3.42894E-13-1.33779E-13
 -1      3713 1.99563E+01 7.87207E-02 5.03286E-04 4.82415E-03-3.24901E-13 2.87912E-14
 -1      3714 1.99784E+01 5.10068E-02-2.90793E-04-9.03817E-03-1.81868E-13-9.25503E-14
 -1      3715 1.99841E+01 4.28202E-02-9.01019E-05-8.29281E-03-1.56486E-13-3.97649E-14
 -1      3716 1.99740E+01 5.63001E-02 3.54601E-04-2.12143E-03-1.98567E-13 8.29321E-14
 -1      3717 1.99885E+01 3.57590E-02-1.51041E-04-8.62042E-03-1.94243E-13-3.77116E-14
 -1      3718 1.99918E+01 2.98635E-02-8.03043E-05-7.50872E-03-1.48696E-13-5.80361E-14
 -1      3719 1.99851E+01 4.01580E-02 2.27943E-04-4.66327E-03-1.64101E-13-4.20384E-14
 -1      3720 1.99946E+01 2.48492E-02-7.47306E-05-7.22975E-03-3.17242E-14-4.61734E-14
 -1      3721 1.99965E+01 2.06364E-02-6.50080E-05-6.09265E-03 9.64725E-14-4.30325E-15
 -1      3722 1.99921E+01 2.83760E-02 1.45396E-04-5.07062E-03-3.95788E-14 4.34848E-14
 -1      3723 1.99983E+01 1.70826E-02-3.19212E-05-5.58395E-03 4.59544E-14-9.04177E-14
 -1      3724 1.99992E+01 1.40830E-02-4.99602E-05-4.57691E-03-1.69756E-14 1.11071E-14
 -1      3725 1.99965E+01 1.98196E-02 9.11643E-05-4.49053E-03 8.69991E-14-4.25737E-14
 -1      3726 2.00003E+01 1.15684E-02-1.00218E-05-4.03508E-03-8.65611E-14-1.72952E-14
 -1      3727 2.00008E+01 9.44018E-03-3.75086E-05-3.21212E-03-9.02499E-14-4.72815E-14
 -1      3728 1.99992E+01 1.36418E-02 5.64173E-05-3.55547E-03-6.18185E-14-1.73381E-13
 -1      3729 2.00014E+01 7.59076E-03 1.14909E-06-2.70507E-03-2.19427E-14 4.64028E-14
 -1      3730 2.00015E+01 6.03777E-03-2.66783E-05-2.04914E-03 1.65661E-13 1.11177E-13
 -1      3731 2.00007E+01 9.11557E-03 3.34272E-05-2.56991E-03 1.84243E-15-4.91485E-14
 -1      3732 2.00018E+01 4.82437E-03 6.57855E-06-1.66816E-03 1.41606E-13 1.35166E-13
 -1      3733 2.00018E+01 3.79648E-03-1.81814E-05-1.21097E-03 5.58730E-14 1.86105E-13
 -1      3734 2.00015E+01 5.90961E-03 1.82770E-05-1.71102E-03 1.66488E-13 8.89830E-14
 -1      3735 2.00019E+01 2.95639E-03 8.21472E-06-9.24565E-04-3.22480E-14 7.54376E-14
 -1      3736 2.00018E+01 2.24681E-03-1.20522E-05-6.04684E-04-4.67364E-14 6.48283E-14
 -1      3737 2.00018E+01 3.71655E-03 8.93675E-06-1.04811E-03-3.68357E-14 2.09647E-14
 -1      3738 2.00018E+01 1.67450E-03 7.76435E-06-4.03248E-04-1.85565E-13 7.65439E-14
 -1      3739 2.00017E+01 1.19458E-03-7.49843E-06-1.90299E-04-1.75724E-13-7.10144E-14
 -1      3740 2.00018E+01 2.19262E-03 3.45437E-06-5.55767E-04-1.60996E-13-6.46710E-14
 -1      3741 2.00016E+01 8.13240E-04 6.63857E-06-5.75528E-05-1.48159E-13-7.94123E-14
 -1      3742 2.00015E+01 4.97428E-04-4.24790E-06 7.54636E-05-1.41704E-13-1.03797E-13
 -1      3743 2.00017E+01 1.15339E-03 2.20201E-07-2.11766E-04-1.70872E-13 1.03157E-13
 -1      3744 2.00014E+01 2.51579E-04 5.34717E-06 1.55962E-04-1.18515E-13-2.16128E-13
 -1      3745 2.00013E+01 5.20171E-05-2.00646E-06 2.31485E-04-9.75359E-14-3.48177E-13
 -1      3746 2.00015E+01 4.63557E-04-1.59409E-06 1.35171E-05-1.89900E-13-1.16099E-13
 -1      3747 2.00012E+01-9.87205E-05 4.12275E-06 2.74248E-04-8.52583E-16-3.24030E-13
 -1      3748 2.00010E+01-2.17364E-04-5.94814E-07 3.10156E-04-4.08276E-15-2.75813E-13
 -1      3749 2.00013E+01 2.31324E-05-2.50287E-06 1.49309E-04-5.55414E-14-1.98368E-13
 -1      3750 2.00009E+01-3.05811E-04 3.01134E-06 3.27575E-04-1.63462E-13-2.98785E-13
 -1      3751 2.00008E+01-3.69629E-04 3.67410E-07 3.36817E-04-3.27185E-13-1.40413E-13
 -1      3752 2.00011E+01-2.45519E-04-2.68244E-06 2.21371E-04-4.69046E-14-2.03801E-13
 -1      3753 2.00007E+01-4.07718E-04 2.25099E-06 3.35938E-04-2.55772E-13 1.01271E-13
 -1      3754 2.00006E+01-4.31583E-04 9.57723E-07 3.28506E-04-1.72721E-13 7.91059E-14
 -1      3755 2.00008E+01-3.90039E-04-2.89460E-06 2.48966E-04-1.46993E-13 3.23240E-14
 -1      3756 2.00005E+01-4.41536E-04 1.58205E-06 3.18069E-04-2.21521E-13 8.94443E-14
 -1      3757 2.00005E+01-4.41913E-04 1.22392E-06 3.01590E-04-2.07756E-14 1.79479E-14
 -1      3758 2.00006E+01-4.48688E-04-2.71792E-06 2.47329E-04-1.81900E-13 2.20707E-13
 -1      3759 2.00004E+01-4.34097E-04 1.09711E-06 2.86026E-04 1.72742E-13-1.00241E-13
 -1      3760 2.00003E+01-4.20370E-04 1.29859E-06 2.65288E-04 1.89622E-13-2.19814E-14
 -1      3761 2.00005E+01-4.55690E-04-2.43691E-06 2.29410E-04-1.51088E-14 2.48217E-13
 -1      3762 2.00002E+01-4.02323E-04 7.40877E-07 2.47738E-04 2.98495E-14-1.02038E-13
 -1      3763 2.00002E+01-3.80964E-04 1.25586E-06 2.25854E-04 6.85704E-15-9.52803E-14
 -1      3764 2.00003E+01-4.31156E-04-2.11744E-06 2.03054E-04 7.26044E-14-8.23822E-15
 -1      3765 2.00001E+01-3.57826E-04 4.99224E-07 2.08313E-04-6.29299E-14-1.35645E-13
 -1      3766 2.00001E+01-3.33221E-04 1.16429E-06 1.87203E-04-1.22284E-13-1.79571E-13
 -1      3767 2.00002E+01-3.89196E-04-1.80302E-06 1.73526E-04-3.14717E-14-4.40070E-13
 -1      3768 2.00000E+01-3.07289E-04 2.98277E-07 1.70027E-04-1.95102E-13-7.07631E-15
 -1      3769 2.00000E+01-2.80996E-04 1.02563E-06 1.49955E-04-6.27568E-14-4.54431E-14
 -1      3770 2.00001E+01-3.37977E-04-1.48416E-06 1.43370E-04-3.41709E-14-1.91775E-13
 -1      3771 2.00000E+01-2.56916E-04 1.86154E-07 1.35551E-04-1.61966E-13-3.89930E-14
 -1      3772 2.00000E+01-2.33327E-04 8.58927E-07 1.18845E-04-1.29333E-13-1.42834E-13
 -1      3773 2.00000E+01-2.85263E-04-1.19978E-06 1.15584E-04-1.26261E-13 1.34364E-13
 -1      3774 1.99999E+01-2.11241E-04 8.16696E-08 1.06537E-04-2.61786E-14-2.72657E-13
 -1      3775 1.99999E+01-1.89969E-04 7.19884E-07 9.23754E-05 1.17976E-14-2.35316E-13
 -1      3776 2.00000E+01-2.36229E-04-9.63160E-07 9.16886E-05-5.48429E-14 4.13865E-14
 -1      3777 1.99999E+01-1.70667E-04-5.49589E-08 8.21327E-05 5.36858E-14-3.41673E-13
 -1      3778 1.99999E+01-1.52288E-04 4.74631E-07 7.06018E-05 1.81428E-13-2.77305E-13
 -1      3779 1.99999E+01-1.91688E-04-6.99699E-07 7.12854E-05 2.13593E-15-1.82284E-13
 -1      3780 1.99999E+01-1.43244E-04-1.62794E-07 6.50898E-05 3.17083E-13-3.01222E-13
 -1      3781 1.99999E+01-1.33872E-04 1.86918E-07 5.68998E-05 1.29791E-13-2.93468E-13
 -1      3782 1.99999E+01-1.40969E-04-1.80920E-07 4.69921E-05 1.62073E-13 4.60793E-14
 -1      3783 1.99999E+01-1.60795E-04-3.26237E-07 5.67971E-05 2.49121E-13-2.78247E-13
 -1      3784 2.31047E+01-2.80072E-01-5.72966E-03-1.07037E+00-1.90189E-14-4.24792E-13
 -1      3785 2.38665E+01-2.38121E-01 9.00262E-03-9.91255E-01-7.81802E-14-4.87618E-13
 -1      3786 2.44073E+01-8.21631E-01 4.77429E-03-5.70936E-01-1.73757E-13-4.12788E-13
 -1      3787 2.30049E+01-6.29924E-01 3.05533E-03-9.59522E-01-3.77962E-14-3.91128E-13
 -1      3788 1.99921E+01 2.06473E-02-1.33037E-04 2.17634E-02-4.21486E-14-1.50801E-13
 -1      3789 1.99934E+01 2.07132E-02 3.07242E-04 2.64424E-02-6.51306E-14-1.28155E-13
 -1      3790 1.99928E+01 1.95172E-02-1.44856E-04 3.31515E-02-1.69075E-13-1.77891E-13
 -1      3791 1.99963E+01 1.74021E-02 4.77563E-04 3.97866E-02-2.00209E-13-1.77590E-13
 -1      3792 1.99887E+01 2.51014E-02-1.16813E-04 3.04552E-02-1.61958E-13-1.89342E-13
 -1      3793 1.99951E+01 1.61651E-02-8.74547E-05 8.88512E-03-1.20444E-13 4.16034E-14
 -1      3794 1.99947E+01 1.77596E-02 1.12219E-04 1.11436E-02-1.09219E-13 1.09577E-13
 -1      3795 1.99968E+01 1.29658E-02-6.64235E-05 5.45107E-03 9.04449E-14 5.90552E-14
 -1      3796 1.99964E+01 1.46209E-02 6.55505E-05 7.00093E-03-3.13992E-14 2.12204E-14
 -1      3797 1.99949E+01 1.70834E-02 2.50354E-05 7.18506E-03-3.66311E-14-3.10333E-15
 -1      3798 1.99983E+01 9.92424E-03-4.88704E-05 3.19143E-03-2.77158E-14 2.24847E-13
 -1      3799 1.99979E+01 1.14404E-02 3.75088E-05 4.24562E-03 9.44788E-14 1.11535E-13
 -1      3800 1.99970E+01 1.33599E-02 2.86702E-05 4.18584E-03-2.48326E-14 7.09391E-14
 -1      3801 1.99995E+01 7.27874E-03-3.48721E-05 1.72218E-03-1.96191E-15 2.83420E-13
 -1      3802 1.99991E+01 8.56701E-03 2.11208E-05 2.43090E-03-6.75522E-14 2.14277E-13
 -1      3803 1.99986E+01 1.00291E-02 2.60902E-05 2.29911E-03-9.32084E-14 1.56284E-13
 -1      3804 2.00002E+01 5.10968E-03-2.41532E-05 7.82060E-04 4.10637E-14 2.55657E-13
 -1      3805 2.00000E+01 6.14860E-03 1.18715E-05 1.25041E-03 7.12128E-14 2.70015E-13
 -1      3806 1.99997E+01 7.23587E-03 2.06772E-05 1.12808E-03-7.47594E-15 1.76888E-14
 -1      3807 2.00007E+01 3.41083E-03-1.61180E-05 1.96094E-04 9.51529E-14 6.72121E-14
 -1      3808 2.00006E+01 4.21372E-03 6.76652E-06 4.97657E-04 1.04953E-13 2.15453E-13
 -1      3809 2.00005E+01 5.00227E-03 1.50129E-05 4.14816E-04 1.32808E-13 1.07878E-14
 -1      3810 2.00009E+01 2.13163E-03-1.02545E-05-1.54112E-04-7.14941E-14 1.05713E-13
 -1      3811 2.00009E+01 2.72911E-03 4.02868E-06 3.22919E-05-2.42917E-14 1.47701E-13
 -1      3812 2.00009E+01 3.28482E-03 9.98726E-06-6.15321E-06-2.63575E-14 5.60057E-14
 -1      3813 2.00010E+01 1.20383E-03-6.08137E-06-3.48386E-04 2.02123E-15 1.13256E-13
 -1      3814 2.00010E+01 1.63221E-03 2.57189E-06-2.40798E-04-3.48242E-14 1.43594E-13
 -1      3815 2.00011E+01 2.01039E-03 5.94691E-06-2.41701E-04-5.29062E-14 1.67736E-13
 -1      3816 2.00010E+01 5.56988E-04-3.19235E-06-4.40806E-04 9.61252E-14-1.50884E-13
 -1      3817 2.00010E+01 8.51920E-04 1.78085E-06-3.86357E-04 7.92639E-14 9.14001E-15
 -1      3818 2.00012E+01 1.09770E-03 2.92692E-06-3.60279E-04 9.90483E-14 5.79914E-14
 -1      3819 2.00009E+01 1.26450E-04-1.25519E-06-4.68142E-04 2.44529E-13-1.25094E-13
 -1      3820 2.00010E+01 3.19749E-04 1.32361E-06-4.48672E-04 1.93710E-13-1.31147E-13
 -1      3821 2.00011E+01 4.69156E-04 8.13652E-07-4.05996E-04 1.42049E-13-1.92094E-13
 -1      3822 2.00008E+01-1.43189E-04-1.61890E-08-4.55450E-04-3.87093E-14 6.41604E-14
 -1      3823 2.00008E+01-2.47299E-05 1.02443E-06-4.58160E-04 1.85319E-13 5.64019E-15
 -1      3824 2.00010E+01 5.64595E-05-5.61295E-07-4.07410E-04 9.00889E-14 9.26430E-14
 -1      3825 2.00006E+01-2.97026E-04 7.26649E-07-4.19687E-04-3.41816E-13 6.48837E-14
 -1      3826 2.00007E+01-2.31890E-04 8.04370E-07-4.35602E-04-2.78306E-13 9.78191E-14
 -1      3827 2.00008E+01-1.97456E-04-1.38674E-06-3.83095E-04-1.95201E-13 1.80124E-13
 -1      3828 2.00005E+01-3.70531E-04 1.12511E-06-3.72272E-04-3.52543E-13 2.38204E-13
 -1      3829 2.00005E+01-3.41964E-04 6.31711E-07-3.95221E-04-3.97340E-13 1.85782E-13
 -1      3830 2.00007E+01-3.38138E-04-1.78751E-06-3.45134E-04-3.54369E-13 3.48322E-13
 -1      3831 2.00004E+01-3.90662E-04 1.29163E-06-3.20692E-04 8.02748E-14 1.85713E-13
 -1      3832 2.00004E+01-3.86049E-04 4.85570E-07-3.46520E-04-1.10276E-13 1.81335E-13
 -1      3833 2.00005E+01-4.01084E-04-1.91082E-06-3.01314E-04-1.62496E-13 1.90102E-13
 -1      3834 2.00002E+01-3.77304E-04 1.30790E-06-2.69706E-04 1.31164E-13 7.14694E-14
 -1      3835 2.00003E+01-3.87422E-04 3.61359E-07-2.95715E-04 2.16079E-13 1.47546E-13
 -1      3836 2.00004E+01-4.12966E-04-1.85790E-06-2.56568E-04 1.33304E-13 4.12230E-14
 -1      3837 2.00001E+01-3.44676E-04 1.23394E-06-2.22160E-04 1.68740E-13 6.86410E-14
 -1      3838 2.00002E+01-3.62991E-04 2.57268E-07-2.46692E-04 3.98413E-14 1.82680E-14
 -1      3839 2.00003E+01-3.93302E-04-1.70290E-06-2.13897E-04 1.20325E-13 8.68703E-14
 -1      3840 2.00001E+01-3.02660E-04 1.10809E-06-1.79601E-04 2.29575E-13 5.11554E-14
 -1      3841 2.00001E+01-3.24666E-04 1.72880E-07-2.01735E-04 1.92240E-13 5.14500E-14
 -1      3842 2.00002E+01-3.55942E-04-1.49905E-06-1.75017E-04 1.00443E-13 6.49368E-14
 -1      3843 2.00000E+01-2.57758E-04 9.69102E-07-1.42634E-04-1.64218E-13 9.96465E-14
 -1      3844 2.00000E+01-2.80554E-04 1.05842E-07-1.61950E-04 5.90120E-14 1.88457E-13
 -1      3845 2.00001E+01-3.10420E-04-1.26996E-06-1.40735E-04 8.53892E-14 1.94757E-14
 -1      3846 1.99999E+01-2.14209E-04 7.81677E-07-1.11390E-04-4.50223E-13 4.53459E-14
 -1      3847 2.00000E+01-2.35877E-04 5.44780E-08-1.27789E-04-3.49271E-13 2.84677E-14
 -1      3848 2.00000E+01-2.62927E-04-1.03638E-06-1.11289E-04-1.49853E-13 1.17855E-13
 -1      3849 1.99999E+01-1.74222E-04 6.60109E-07-8.53044E-05-2.91296E-13-6.68469E-14
 -1      3850 1.99999E+01-1.93966E-04 8.39156E-10-9.89272E-05-4.64741E-13-1.21125E-13
 -1      3851 1.99999E+01-2.17606E-04-7.90258E-07-8.67368E-05-3.46286E-13-2.66133E-13
 -1      3852 2.01686E+01-1.61960E-01 1.12930E-03 2.06583E-01-1.24316E-13-1.14282E-13
 -1      3853 2.02342E+01-2.16517E-01 2.69614E-03 2.30079E-01-1.36163E-13-1.11113E-13
 -1      3854 2.10201E+01-7.69522E-01 7.55604E-03 4.47406E-02-7.20563E-14-2.50269E-13
 -1      3855 2.11856E+01-8.73660E-01-1.58026E-03-1.91349E-02-1.15600E-13-2.57814E-13
 -1      3856 2.13959E+01-9.97551E-01-8.76398E-03 1.37835E-01-1.50629E-13-3.04882E-13
 -1      3857 2.09467E+01-7.67717E-01-8.20109E-03 2.13886E-01-1.05531E-13-2.08427E-13
 -1      3858 1.99998E+01-1.13934E-04-2.96644E-07-6.33711E-05-2.31705E-13-1.24070E-13
 -1      3859 2.00357E+01-3.10793E-02 1.17439E-04 1.06177E-01-1.26297E-14-7.23217E-14
 -1      3860 2.00607E+01-5.26623E-02 1.57233E-03 1.22602E-01-1.02620E-13-7.48246E-14
 -1      3861 2.06064E+01-1.00016E+00-2.21072E-02 2.57828E+00-3.03331E-13-4.01693E-14
 -1      3862 1.96472E+01-3.83400E-01 9.40337E-03 2.65423E+00-2.65579E-13 4.35155E-14
 -1      3863 2.00842E+01-8.14184E-02 4.59120E-04 1.50247E-01-1.81534E-13 2.59516E-15
 -1      3864 2.01257E+01-1.16830E-01 2.12998E-03 1.70737E-01-1.40166E-13-5.76930E-14
 -1      3865 2.00480E+01-5.12830E-02-1.72163E-03 1.60523E-01-1.45482E-13 1.67362E-14
 -1      3866 1.99933E+01 1.90263E-02-1.10779E-04 1.40547E-02-1.02757E-13 6.52947E-14
 -1      3867 1.99934E+01 2.01815E-02 1.87402E-04 1.73198E-02-1.53018E-14-2.51533E-14
 -1      3868 1.99925E+01 2.08404E-02 8.22841E-06 1.18980E-02-1.29887E-13 1.25893E-13
 -1      3869 1.99999E+01-1.21983E-04 1.99794E-07-5.45446E-05-2.85695E-13-2.03951E-13
 -1      3870 1.96089E+01 3.59836E-01-5.49943E-03 2.05438E-01-5.47428E-14-3.38867E-14
 -1      3871 1.96983E+01 3.15344E-01 1.24149E-03 1.53999E-01-6.57917E-14-1.47255E-14
 -1      3872 1.97527E+01 2.58329E-01 2.08177E-03 1.80037E-01-9.78731E-14-5.64942E-14
 -1      3873 1.89357E+01 1.45229E-02-1.38212E-02 2.60693E+00-2.51906E-13 1.27045E-13
 -1      3874 1.81717E+01 5.69885E-01-1.27345E-02 2.28036E+00-1.76233E-13 9.58214E-14
 -1      3875 1.85350E+01 6.26725E-01 1.62992E-02 1.87339E+00-8.13802E-14 8.34681E-14
 -1      3876 1.96527E+01-1.91025E-01 1.79684E-02 2.23863E+00-1.87826E-13 1.13046E-13
 -1      3877 1.99999E+01-1.27402E-04 1.33794E-07 2.73633E-05 4.01780E-14-5.76913E-14
 -1      3878 1.99999E+01-1.30076E-04 2.48180E-07 1.74940E-05-1.03920E-13 2.19831E-13
 -1      3879 1.99999E+01-1.45990E-04-3.72520E-07 1.16441E-05-4.63507E-14 5.18788E-14
 -1      3880 1.99999E+01-1.37290E-04-3.59780E-08 3.25882E-05 2.29973E-13-8.23536E-15
 -1      3881 2.03076E+01-2.82998E-01 2.26419E-03 2.73243E-01-1.52877E-13-8.39196E-14
 -1      3882 2.04069E+01-3.62592E-01 2.91331E-03 2.96657E-01-7.44778E-14-1.34204E-13
 -1      3883 2.02247E+01-2.30866E-01-4.44553E-03 3.18491E-01-1.25859E-13-7.41016E-14
 -1      3884 2.34865E+01-1.69100E+00-1.58589E-02 6.24146E-01-2.16295E-13-2.57761E-13
 -1      3885 2.34105E+01-1.89530E+00 1.56774E-02 1.30808E+00-3.40165E-13-2.27819E-13
 -1      3886 2.26854E+01-1.71340E+00-6.12805E-03 1.38437E+00-2.85187E-13-9.91026E-14
 -1      3887 2.05254E+01-4.51304E-01 4.50288E-03 3.41730E-01-3.04017E-14-1.21510E-13
 -1      3888 2.06685E+01-5.57410E-01 3.62832E-03 3.60991E-01-9.69578E-15-9.57112E-14
 -1      3889 2.04065E+01-3.94574E-01-7.90427E-03 4.21009E-01-7.42297E-14-7.50916E-14
 -1      3890 1.94167E+01 4.66051E-01-7.88033E-03 3.79859E-01-1.62179E-13-3.99608E-14
 -1      3891 1.95502E+01 4.15182E-01 2.61192E-03 2.88146E-01-1.07148E-13-5.49175E-14
 -1      3892 1.96410E+01 3.27358E-01 2.75480E-03 3.19974E-01-4.95638E-14-2.15736E-14
 -1      3893 1.88742E+01 6.44446E-01-1.17918E-02 1.04586E+00-7.77839E-14 2.22173E-14
 -1      3894 1.90845E+01 6.22225E-01 7.37333E-03 8.49151E-01-3.48688E-14-1.04554E-14
 -1      3895 1.99901E+01 2.39246E-02-3.29964E-05 1.92204E-02-1.59616E-13-1.15546E-13
 -1      3896 1.99999E+01-1.39302E-04-1.65364E-07-5.42697E-05-1.79851E-13-3.86286E-13
 -1      3897 2.00099E+01-1.90449E-03-4.66093E-05 7.32863E-02-3.80491E-14-1.02761E-13
 -1      3898 2.00240E+01-1.39535E-02 1.09786E-03 8.58329E-02-4.05867E-14-6.27544E-14
 -1      3899 2.00132E+01-9.86550E-03-9.46753E-04 1.09260E-01-7.48638E-14-1.04256E-13
 -1      3900 1.99898E+01 2.21392E-02-3.08928E-04 4.75035E-02-1.35881E-13 6.12859E-15
 -1      3901 1.99975E+01 1.31695E-02-1.23622E-04 4.96970E-02-1.82547E-13-4.05130E-14
 -1      3902 2.00050E+01 7.27549E-03 7.31084E-04 5.89069E-02-6.97337E-14-1.76918E-14
 -1      3903 2.01126E+01-1.20983E-01-2.82687E-03 2.29895E-01-1.84459E-13 9.27437E-15
 -1      3904 1.99999E+01-1.50126E-04 4.16907E-07-6.46507E-05-1.06371E-13-1.77312E-13
 -1      3905 1.99999E+01-1.63291E-04-1.00213E-07-7.29590E-05-1.02156E-13-1.63266E-13
 -1      3906 1.99999E+01-1.81427E-04 2.19832E-07-6.31023E-05-1.86404E-13-4.01341E-13
 -1      3907 1.99999E+01-1.56461E-04 1.73751E-08-4.04395E-05 2.89298E-14-7.09623E-13
 -1      3908 2.39243E+01-1.20535E+00-7.03620E-03-2.17181E-01-1.82401E-13-3.68271E-13
 -1      3909 2.25013E+01-1.01059E+00 8.46104E-03-6.14902E-01-3.96366E-14-3.35900E-13
 -1      3910 2.26649E+01-8.64903E-01-5.61622E-03-7.65394E-01-2.66035E-14-3.23262E-13
 -1      3911 2.32962E+01-9.37571E-01-5.45442E-03-6.27993E-01-6.74346E-14-3.83923E-13
 -1      3912 2.25981E+01-1.20967E+00-1.34329E-02-3.02413E-01-6.35149E-14-2.64552E-13
 -1      3913 1.99999E+01-1.59816E-04-1.81375E-07 2.15076E-05 6.70694E-14 1.45296E-13
 -1      3914 1.99999E+01-1.62483E-04 2.99004E-07 9.73197E-06-7.59391E-14 9.64318E-14
 -1      3915 1.91618E+01 5.74385E-01-9.75719E-03 6.56904E-01-7.33256E-14-4.95876E-14
 -1      3916 1.93502E+01 5.24191E-01 5.05720E-03 5.04760E-01-1.55656E-13-9.84118E-14
 -1      3917 1.94969E+01 3.90437E-01 2.57533E-03 5.39317E-01-1.03982E-13 3.81454E-14
 -1      3918 1.93272E+01 4.26340E-01 1.43744E-03 8.67129E-01-1.16944E-13-4.99289E-14
 -1      3919 2.17635E+01-1.42873E+00-1.54030E-02 1.85049E+00-3.15345E-13-7.30887E-14
 -1      3920 2.12537E+01-1.19608E+00 2.07768E-02 2.29278E+00-3.10808E-13-3.35189E-14
 -1      3921 2.07889E+01-8.95687E-01-3.66970E-04 2.03978E+00-2.24269E-13-3.65890E-14
 -1      3922 1.99999E+01-1.62724E-04 1.63116E-07-7.81384E-06-3.26808E-14-1.48791E-13
 -1      3923 1.99999E+01-1.60404E-04 2.53887E-07-2.38733E-05 1.31842E-13-7.10366E-13
 -1      3924 1.99999E+01-1.73790E-04-4.66667E-07-3.33682E-05 5.61305E-14-6.12275E-13
 -1      3925 1.99999E+01-1.78734E-04-4.50634E-07 2.08458E-06-6.04813E-14-5.06956E-14
 -1      3926 2.19273E+01-1.20271E+00 1.29725E-02 3.19941E-01-1.49409E-13-2.18016E-13
 -1      3927 2.22366E+01-1.28838E+00 4.43429E-03 1.98909E-01-1.25986E-13-1.82699E-13
 -1      3928 2.26680E+01-1.40778E+00 1.27391E-02 2.86454E-01-1.42463E-13-2.15796E-13
 -1      3929 2.30333E+01-1.43353E+00-6.69345E-04 1.68650E-01-1.21674E-13-2.26870E-13
 -1      3930 2.25038E+01-1.50393E+00-6.47717E-03 7.05698E-01-2.03726E-13-1.19634E-13
 -1      3931 1.99999E+01-1.46236E-04 1.90022E-07 3.69465E-05 1.28382E-13 9.00968E-14
 -1      3932 1.99999E+01-1.63985E-04 1.82136E-07 3.65755E-05 1.17562E-13 1.40647E-13
 -1      3933 1.98854E+01 1.35243E-01-2.04364E-03 7.38286E-02-1.86639E-13-9.74299E-14
 -1      3934 1.99123E+01 1.19498E-01 5.89365E-04 5.45641E-02-1.91334E-13 1.49519E-14
 -1      3935 1.99240E+01 1.03305E-01-1.16932E-03 3.70622E-02-1.57403E-13 2.99944E-15
 -1      3936 1.99421E+01 9.02799E-02 4.16677E-04 2.62442E-02-1.48362E-13 8.23923E-14
 -1      3937 1.99285E+01 9.82999E-02 4.64046E-04 6.07504E-02-1.09360E-13 9.34685E-14
 -1      3938 1.99507E+01 7.69898E-02-8.55176E-04 1.57991E-02-2.13221E-13 1.47210E-13
 -1      3939 1.99634E+01 6.62915E-02 2.22228E-04 1.00826E-02-3.42310E-13 1.94792E-13
 -1      3940 1.99515E+01 7.65463E-02 4.37998E-04 3.11684E-02-1.86565E-13 1.17008E-13
 -1      3941 1.99694E+01 5.65060E-02-5.30317E-04 4.71504E-03-2.66050E-13 1.94090E-13
 -1      3942 1.99771E+01 4.86630E-02 7.48126E-05 2.25866E-03-1.29753E-13 1.71901E-13
 -1      3943 1.99684E+01 5.82879E-02 4.03892E-04 1.43529E-02-2.19704E-13 2.14668E-13
 -1      3944 1.99815E+01 4.13439E-02-3.09008E-04-5.02725E-04-1.87659E-13 4.74258E-14
 -1      3945 1.99865E+01 3.53214E-02 1.18141E-05-1.35433E-03-2.00788E-13 1.06160E-15
 -1      3946 1.99799E+01 4.38180E-02 3.07679E-04 5.51238E-03-2.31219E-13 1.18261E-13
 -1      3947 1.99896E+01 2.98653E-02-1.77664E-04-2.61737E-03-7.64946E-14-7.51832E-15
 -1      3948 1.99926E+01 2.53204E-02-1.57853E-05-2.65687E-03 2.56397E-14 4.12709E-14
 -1      3949 1.99879E+01 3.24134E-02 2.26845E-04 1.04474E-03-1.52731E-13 8.98963E-14
 -1      3950 1.99947E+01 2.12840E-02-9.75954E-05-3.10816E-03 5.30957E-15-1.44505E-15
 -1      3951 1.99966E+01 1.78901E-02-2.56639E-05-2.78620E-03 7.83116E-14-7.31548E-14
 -1      3952 1.99933E+01 2.35852E-02 1.61934E-04-9.46253E-04 1.18440E-14 7.66722E-15
 -1      3953 1.99980E+01 1.49246E-02-5.06972E-05-2.83297E-03 1.05503E-14-9.12019E-14
 -1      3954 1.99990E+01 1.24168E-02-2.58307E-05-2.39338E-03-1.11363E-13-1.10422E-13
 -1      3955 1.99969E+01 1.68555E-02 1.12012E-04-1.61072E-03 2.02063E-14-3.15435E-14
 -1      3956 2.00000E+01 1.01575E-02-2.36517E-05-2.25206E-03 4.50446E-15-8.38983E-14
 -1      3957 2.00005E+01 8.25388E-03-2.26744E-05-1.80593E-03 1.38020E-13-1.63399E-14
 -1      3958 1.99992E+01 1.16938E-02 7.44271E-05-1.61754E-03 2.02766E-14-1.04643E-13
 -1      3959 2.00011E+01 6.72129E-03-7.74459E-06-1.62235E-03 1.76742E-13-2.43946E-14
 -1      3960 2.00013E+01 5.41842E-03-1.82953E-05-1.25917E-03 1.72706E-13-1.69680E-14
 -1      3961 2.00006E+01 7.89038E-03 4.83247E-05-1.34350E-03 1.72981E-13-1.80427E-13
 -1      3962 2.00016E+01 4.32766E-03 4.02768E-07-1.08305E-03-8.73262E-14-7.08345E-14
 -1      3963 2.00016E+01 3.39911E-03-1.33940E-05-7.98266E-04-2.07710E-13-1.54158E-13
 -1      3964 2.00013E+01 5.18876E-03 2.87515E-05-1.00217E-03-5.31777E-14-2.44021E-13
 -1      3965 2.00018E+01 2.63407E-03 3.68043E-06-6.53732E-04-1.23050E-13-6.70735E-14
 -1      3966 2.00017E+01 1.98613E-03-9.05573E-06-4.44084E-04-1.56467E-13-3.87412E-14
 -1      3967 2.00016E+01 3.24988E-03 1.55939E-05-6.82795E-04-9.69014E-14-1.16469E-13
 -1      3968 2.00017E+01 1.46034E-03 4.77669E-06-3.36346E-04-2.39608E-13 7.84265E-14
 -1      3969 2.00016E+01 1.01926E-03-5.62168E-06-1.90568E-04-1.80650E-13 3.15783E-14
 -1      3970 2.00017E+01 1.88552E-03 6.89844E-06-4.21869E-04-1.51983E-13-1.41473E-13
 -1      3971 2.00016E+01 6.67805E-04 4.77353E-06-1.16560E-04-1.56770E-13-5.62979E-14
 -1      3972 2.00015E+01 3.77425E-04-3.06936E-06-2.12487E-05-6.13615E-14-5.83001E-14
 -1      3973 2.00016E+01 9.49301E-04 1.35464E-06-2.26459E-04-1.53153E-13-7.33789E-14
 -1      3974 2.00014E+01 1.51644E-04 4.29092E-06 2.52739E-05-4.84959E-14-2.17960E-13
 -1      3975 2.00013E+01-3.10015E-05-1.34155E-06 8.31891E-05-5.84756E-14-1.08786E-13
 -1      3976 2.00014E+01 3.27773E-04-1.98387E-06-9.02473E-05-1.63216E-13 9.23773E-14
 -1      3977 2.00012E+01-1.74044E-04 3.51031E-06 1.10414E-04 8.78228E-14-1.34403E-13
 -1      3978 2.00010E+01-2.82662E-04-8.13366E-08 1.41647E-04 8.65088E-14 2.40494E-14
 -1      3979 2.00012E+01-7.26630E-05-3.76270E-06-2.72078E-07 9.25404E-14-1.02404E-14
 -1      3980 2.00009E+01-3.54692E-04 2.97498E-06 1.52229E-04-9.47663E-14 1.65674E-13
 -1      3981 2.00008E+01-4.06338E-04 6.97270E-07 1.63954E-04-9.11187E-14 1.96936E-13
 -1      3982 2.00010E+01-3.07430E-04-4.85924E-06 5.28865E-05 1.85721E-13 1.18452E-13
 -1      3983 2.00007E+01-4.37744E-04 2.33477E-06 1.65487E-04-1.24188E-13 1.24806E-13
 -1      3984 2.00006E+01-4.55195E-04 1.11112E-06 1.65684E-04-1.11036E-13 2.23097E-13
 -1      3985 2.00008E+01-4.23766E-04-5.01027E-06 7.87055E-05-1.41821E-13 1.64311E-13
 -1      3986 2.00006E+01-4.60007E-04 1.80377E-06 1.61600E-04-1.20568E-13 2.34286E-13
 -1      3987 2.00005E+01-4.55798E-04 1.28419E-06 1.54978E-04-1.81914E-14 1.57130E-13
 -1      3988 2.00006E+01-4.66858E-04-4.76212E-06 8.78282E-05-8.65454E-14 1.56426E-13
 -1      3989 2.00004E+01-4.44280E-04 1.37330E-06 1.47890E-04 2.83957E-14 2.36589E-14
 -1      3990 2.00003E+01-4.27284E-04 1.30377E-06 1.37711E-04-2.66628E-14-1.32859E-13
 -1      3991 2.00005E+01-4.63126E-04-4.30579E-06 8.65162E-05-1.20090E-13 1.46241E-14
 -1      3992 2.00003E+01-4.06621E-04 1.03791E-06 1.29404E-04-1.68970E-13-1.21091E-13
 -1      3993 2.00002E+01-3.83040E-04 1.22764E-06 1.17825E-04-1.08232E-13-1.74407E-13
 -1      3994 2.00003E+01-4.31408E-04-3.75133E-06 7.92715E-05-7.87211E-14-5.27011E-14
 -1      3995 2.00002E+01-3.56994E-04 7.40196E-07 1.09024E-04 1.15083E-13-1.41595E-13
 -1      3996 2.00001E+01-3.29487E-04 1.11359E-06 9.68809E-05 1.31314E-13 3.76044E-14
 -1      3997 2.00002E+01-3.83428E-04-3.12875E-06 6.89496E-05 1.47428E-13 1.88573E-13
 -1      3998 2.00001E+01-3.03716E-04 5.63463E-07 8.90690E-05-8.43158E-14 6.35571E-14
 -1      3999 2.00000E+01-2.77874E-04 9.32933E-07 7.83138E-05-7.81487E-14 6.75514E-14
 -1      4000 2.00001E+01-3.29746E-04-2.61901E-06 5.78347E-05-2.18309E-14 6.42461E-14
 -1      4001 2.00000E+01-2.53098E-04 4.48246E-07 7.12568E-05 3.40163E-15 1.37127E-13
 -1      4002 2.00000E+01-2.29093E-04 7.16726E-07 6.17824E-05 6.83930E-14 1.86011E-13
 -1      4003 2.00000E+01-2.77031E-04-1.97293E-06 4.72454E-05 7.10544E-14 1.16081E-13
 -1      4004 1.99988E+01 9.63458E-03-4.67983E-05 1.27655E-03-1.17706E-13 5.36680E-15
 -1      4005 1.99982E+01 1.13428E-02 2.06053E-05 1.97270E-03-8.94055E-14 6.00732E-14
 -1      4006 1.99841E+01 3.08103E-02-3.39165E-04 2.58253E-02-1.44339E-13-4.60800E-14
 -1      4007 1.99849E+01 3.25731E-02 4.89346E-04 3.26671E-02-1.41438E-13-4.09202E-14
 -1      4008 1.99878E+01 2.67790E-02-2.38268E-04 1.54787E-02-1.80762E-13-7.16247E-15
 -1      4009 1.99875E+01 2.92447E-02 2.95368E-04 1.99105E-02-1.52196E-13-9.08112E-14
 -1      4010 1.99825E+01 3.53407E-02 1.53517E-04 2.15384E-02-1.44906E-13-2.97817E-14
 -1      4011 1.99970E+01 1.31545E-02-7.22985E-05 2.68202E-03-5.79372E-14 3.62304E-14
 -1      4012 1.99962E+01 1.52316E-02 4.58760E-05 3.80686E-03-2.66950E-14 9.85555E-15
 -1      4013 1.99976E+01 1.31510E-02 7.38761E-05 1.53002E-03-7.32764E-14-2.15954E-14
 -1      4014 1.99946E+01 1.73352E-02-1.09946E-04 5.06410E-03-1.81003E-14 2.43757E-14
 -1      4015 1.99937E+01 1.97388E-02 9.05145E-05 6.85891E-03-2.57146E-14 4.66895E-14
 -1      4016 1.99951E+01 1.77105E-02 9.82383E-05 3.36743E-03 2.04704E-14 6.89917E-14
 -1      4017 2.00000E+01 6.80397E-03-2.88277E-05 4.64819E-04 7.41450E-14-1.21426E-13
 -1      4018 1.99995E+01 8.15621E-03 7.99808E-06 8.92804E-04-3.14610E-14-6.68391E-14
 -1      4019 1.99993E+01 9.45895E-03 5.25326E-05 5.30320E-04-6.63067E-14-4.11775E-14
 -1      4020 2.00007E+01 4.60438E-03-1.73866E-05 1.46818E-05 6.84448E-14-1.87514E-13
 -1      4021 2.00004E+01 5.63949E-03 1.82226E-06 2.72390E-04 9.70620E-14-1.72427E-13
 -1      4022 2.00003E+01 6.56164E-03 3.42020E-05 1.49045E-05 7.15170E-14-2.81209E-13
 -1      4023 2.00011E+01 2.95128E-03-9.86134E-06-2.21373E-04-1.32891E-13-1.62721E-15
 -1      4024 2.00010E+01 3.71995E-03-4.05602E-07-7.09520E-05-3.65815E-14-9.50811E-14
 -1      4025 2.00010E+01 4.36214E-03 2.09129E-05-2.28684E-04-7.45785E-14-2.66378E-13
 -1      4026 2.00013E+01 1.74755E-03-5.01327E-06-3.31403E-04 8.30086E-14-1.13044E-13
 -1      4027 2.00012E+01 2.30077E-03-9.38643E-07-2.48503E-04-5.64217E-14-5.91571E-14
 -1      4028 2.00013E+01 2.73722E-03 1.13950E-05-3.25086E-04-1.75738E-14-1.99383E-13
 -1      4029 2.00013E+01 9.00273E-04-1.95821E-06-3.68588E-04 4.02847E-14-8.64562E-14
 -1      4030 2.00013E+01 1.28488E-03-7.33477E-07-3.28017E-04 1.43273E-13-7.80732E-14
 -1      4031 2.00014E+01 1.57160E-03 4.83043E-06-3.44812E-04 5.29541E-14-1.84576E-13
 -1      4032 2.00012E+01 3.26979E-04-9.47573E-08-3.64826E-04-1.09109E-14 4.64065E-14
 -1      4033 2.00012E+01 5.83444E-04-3.03730E-07-3.50507E-04-3.42551E-14-4.54683E-14
 -1      4034 2.00014E+01 7.62610E-04 5.13308E-07-3.27153E-04 2.83053E-15 3.41309E-14
 -1      4035 2.00010E+01-4.16793E-05 1.06227E-06-3.39271E-04-4.49233E-15 3.61930E-13
 -1      4036 2.00011E+01 1.20049E-04 1.19508E-07-3.40790E-04 8.15267E-14 2.01959E-13
 -1      4037 2.00012E+01 2.23304E-04-2.17190E-06-2.93305E-04-5.37552E-14 3.17845E-13
 -1      4038 2.00009E+01-2.62030E-04 1.59979E-06-3.03093E-04-2.33420E-13 2.53973E-13
 -1      4039 2.00010E+01-1.68399E-04 3.63521E-07-3.13774E-04-2.80587E-14 2.22502E-13
 -1      4040 2.00011E+01-1.17778E-04-3.75831E-06-2.53999E-04-3.72521E-15 3.36192E-13
 -1      4041 2.00007E+01-3.78208E-04 1.79689E-06-2.63206E-04-2.76078E-13 9.10766E-14
 -1      4042 2.00008E+01-3.31764E-04 5.69440E-07-2.78746E-04-2.52299E-13 1.66173E-13
 -1      4043 2.00009E+01-3.15865E-04-4.38393E-06-2.15509E-04-1.36784E-13-1.75061E-14
 -1      4044 2.00005E+01-4.23820E-04 1.79672E-06-2.23534E-04-2.24817E-14-1.51392E-13
 -1      4045 2.00006E+01-4.08896E-04 6.63552E-07-2.41101E-04-1.78068E-13-4.47063E-14
 -1      4046 2.00007E+01-4.15039E-04-4.46492E-06-1.79915E-04-1.47973E-13-3.15217E-13
 -1      4047 2.00004E+01-4.23886E-04 1.68290E-06-1.86316E-04 1.46662E-13-3.24088E-14
 -1      4048 2.00005E+01-4.28942E-04 6.75332E-07-2.04101E-04 6.17537E-14-2.60156E-14
 -1      4049 2.00005E+01-4.48098E-04-4.22581E-06-1.48234E-04-3.59315E-14-2.07185E-13
 -1      4050 2.00003E+01-3.96532E-04 1.50081E-06-1.52726E-04 1.81134E-13 1.29622E-13
 -1      4051 2.00003E+01-4.13278E-04 6.33391E-07-1.69621E-04 1.74112E-13 1.42737E-13
 -1      4052 2.00004E+01-4.39150E-04-3.81181E-06-1.20702E-04 2.29741E-14 7.41232E-14
 -1      4053 2.00002E+01-3.54374E-04 1.32179E-06-1.23275E-04-4.96734E-15 2.18038E-13
 -1      4054 2.00002E+01-3.77080E-04 5.80905E-07-1.38596E-04 1.34345E-13 1.69294E-13
 -1      4055 2.00003E+01-4.05563E-04-3.34324E-06-9.71533E-05 1.20722E-13 3.23660E-13
 -1      4056 2.00001E+01-3.06243E-04 1.09933E-06-9.79535E-05-9.83487E-14 2.12465E-13
 -1      4057 2.00001E+01-3.31063E-04 4.72809E-07-1.11519E-04-8.37244E-14 1.08636E-13
 -1      4058 2.00002E+01-3.59163E-04-2.80230E-06-7.72191E-05-5.81175E-15 1.60341E-13
 -1      4059 2.00000E+01-2.57553E-04 8.83132E-07-7.66760E-05-1.20259E-13-2.59023E-14
 -1      4060 2.00000E+01-2.82017E-04 3.91586E-07-8.83460E-05-5.62604E-15 1.13177E-13
 -1      4061 2.00001E+01-3.08021E-04-2.24051E-06-6.08059E-05 7.22355E-15 1.48584E-13
 -1      4062 1.99999E+01-2.12388E-04 3.88048E-08-5.92086E-05-2.83298E-13-4.56540E-13
 -1      4063 2.00000E+01-2.34300E-04 2.92972E-07-6.87948E-05-2.13461E-13-2.22190E-13
 -1      4064 2.00000E+01-2.57009E-04-1.41243E-06-4.75198E-05 5.62111E-14-1.62631E-13
 -1      4065 2.23921E+01-1.51280E+00-1.99552E-03 1.01387E+00-2.57223E-13-6.75783E-14
 -1      4066 2.21290E+01-1.49558E+00 1.26127E-02 1.54770E+00-3.20915E-13-8.75038E-15
 -1      4067 2.15523E+01-1.24903E+00-1.09832E-02 1.49603E+00-2.80369E-13-1.72310E-14
 -1      4068 2.19647E+01-1.34443E+00-7.55765E-03 8.90757E-01-2.24803E-13-2.86893E-14
 -1      4069 2.15608E+01-1.07946E+00-4.08276E-04 3.58720E-01-1.97461E-13-1.97033E-13
 -1      4070 2.17329E+01-1.19326E+00-7.33373E-03 6.13202E-01-1.88859E-13-5.79137E-14
 -1      4071 2.13145E+01-9.42671E-01 1.00463E-02 4.05383E-01-1.86839E-13-1.64959E-13
 -1      4072 2.01309E+01-1.37451E-01-3.64583E-04 3.46580E-01-1.14803E-13-2.80940E-14
 -1      4073 2.02124E+01-1.92914E-01 5.46423E-03 4.00542E-01-9.25689E-14 1.90938E-14
 -1      4074 2.00071E+01-6.58688E-03-8.19420E-04 1.60626E-01-6.26377E-14-7.77426E-14
 -1      4075 2.00364E+01-2.53494E-02 2.91727E-03 1.92300E-01-1.85173E-13-1.92545E-14
 -1      4076 1.85628E+01 6.49585E-01-1.35702E-02 1.55957E+00-3.00672E-14 3.79952E-14
 -1      4077 1.88184E+01 6.64491E-01 1.03139E-02 1.27699E+00-4.57716E-14 2.27739E-14
 -1      4078 1.91608E+01 4.12648E-01 2.30345E-03 1.30253E+00-6.78189E-14-4.32436E-14
 -1      4079 1.90204E+01 2.92956E-01-4.70729E-03 1.85477E+00-8.80152E-14 4.93915E-14
 -1      4080 2.35948E+01-1.37607E+00 1.84948E-02-4.44845E-02-1.44379E-13-3.17840E-13
 -1      4081 2.00494E+01-5.46410E-02-7.37553E-04 2.39422E-01-2.74585E-13 3.34966E-14
 -1      4082 2.00996E+01-8.84344E-02 4.12231E-03 2.82224E-01-1.58557E-13-1.02132E-14
 -1      4083 1.99989E+01-9.01083E-03-2.15272E-03 2.39244E-01-1.53508E-13-6.46505E-14
 -1      4084 1.99915E+01 2.20144E-02-1.63440E-04 9.02126E-03-1.44625E-13 4.90592E-14
 -1      4085 1.99907E+01 2.46026E-02 1.67613E-04 1.18574E-02-1.71859E-13 1.54395E-14
 -1      4086 1.99918E+01 2.31156E-02 1.24869E-04 6.61784E-03-5.26322E-14-2.57825E-14
 -1      4087 1.98328E+01 1.72825E-01-3.08212E-03 1.36192E-01-1.68055E-13-1.02868E-13
 -1      4088 1.98726E+01 1.55262E-01 1.42635E-03 1.02984E-01-1.91605E-13-1.34472E-13
 -1      4089 1.98985E+01 1.21361E-01 2.51725E-04 1.09323E-01-1.62111E-13-1.39323E-13
 -1      4090 1.97627E+01 2.13560E-01-4.50817E-03 2.37814E-01-8.83166E-14-9.03573E-14
 -1      4091 1.98188E+01 1.96195E-01 2.47575E-03 1.82988E-01-1.00364E-13-9.51671E-14
 -1      4092 1.98608E+01 1.44231E-01-1.22322E-04 1.87983E-01-1.43740E-13-1.56560E-13
 -1      4093 1.99999E+01-1.74532E-04 6.66360E-08 4.16726E-05 7.96066E-14 1.47542E-13
 -1      4094 1.99999E+01-2.06998E-04 1.81884E-07 5.60806E-05-1.87842E-13 4.11206E-13
 -1      4095 1.99999E+01-1.85575E-04 4.92796E-07 4.78764E-05-1.34414E-13 2.88929E-13
 -1      4096 1.99999E+01-1.89543E-04-5.42287E-08 2.64773E-05-2.48638E-13 5.28092E-13
 -1      4097 1.99772E+01 4.06299E-02 1.37711E-04 3.67237E-02-5.93045E-14-1.05029E-14
 -1      4098 1.99812E+01 3.28906E-02-4.06749E-04 4.20875E-02-1.00153E-13 1.37995E-14
 -1      4099 1.99840E+01 3.25976E-02 6.11926E-04 5.26537E-02-4.99648E-14 8.95939E-14
 -1      4100 2.02771E+01-2.70661E-01 4.88768E-04 4.84987E-01-7.49408E-14 9.26548E-15
 -1      4101 2.04099E+01-3.56614E-01 7.44644E-03 5.40917E-01-4.10279E-14-9.09602E-15
 -1      4102 2.01508E+01-1.84124E-01-5.77287E-03 5.19196E-01-8.53523E-14 2.47218E-14
 -1      4103 2.08537E+01-6.80102E-01 6.65132E-03 3.96746E-01-9.12970E-14-1.14928E-13
 -1      4104 2.10434E+01-8.10866E-01 6.33881E-04 3.90621E-01-1.47143E-13-1.20735E-13
 -1      4105 2.07004E+01-6.23536E-01-1.11706E-02 5.25968E-01-4.78052E-14-2.55874E-14
 -1      4106 1.99964E+01 1.21482E-02-5.45703E-04 7.27164E-02-9.07659E-14 4.71267E-14
 -1      4107 1.99999E+01-1.98751E-04-2.61076E-08-4.62667E-05-1.89471E-13-5.66404E-13
 -1      4108 2.16491E+01-1.16569E+00 9.22360E-03 8.99345E-01-2.66776E-13 2.27441E-14
 -1      4109 2.00039E+01 9.37931E-03 1.89490E-03 1.27551E-01-6.62347E-14-4.46332E-14
 -1      4110 1.99772E+01 2.47785E-02-1.06173E-03 1.55660E-01-9.40542E-14-5.42166E-14
 -1      4111 1.99886E+01 1.90172E-02-4.48125E-04 1.05268E-01-1.07499E-13-6.52941E-15
 -1      4112 2.00490E+01-7.40652E-02-4.09909E-03 3.57641E-01-1.50387E-13 1.62010E-14
 -1      4113 1.99876E+01 2.91633E-02 1.47267E-04 1.22006E-02-2.67289E-13-4.94836E-14
 -1      4114 1.94534E+01 1.45808E-01-5.31448E-03 1.43962E+00-6.51846E-14-6.22026E-14
 -1      4115 1.95353E+01 2.07669E-01 1.07765E-02 1.19597E+00-6.89503E-14-4.21301E-14
 -1      4116 1.94857E+01 2.48745E-01-7.37344E-03 9.89926E-01-8.34371E-14-2.70854E-14
 -1      4117 1.95949E+01 2.70075E-01 9.50057E-03 7.90358E-01-8.35262E-14 3.54206E-14
 -1      4118 1.97717E+01 3.90952E-02 3.35938E-03 1.10667E+00-6.78016E-14-2.78782E-14
 -1      4119 1.96734E+01 2.51967E-01-5.73431E-03 4.03973E-01-8.84947E-14-2.76438E-14
 -1      4120 1.97499E+01 2.38005E-01 4.10310E-03 3.12749E-01-9.47918E-14-9.91359E-14
 -1      4121 1.98163E+01 1.60075E-01-1.05999E-03 3.12887E-01-1.01161E-13-1.92950E-13
 -1      4122 2.08494E+01-8.65335E-01-9.40120E-03 1.67069E+00-2.30305E-13-7.42889E-14
 -1      4123 2.04004E+01-5.76192E-01 1.48602E-02 1.89567E+00-2.46801E-13 1.53851E-14
 -1      4124 1.99629E+01-3.76932E-01-1.25204E-02 1.96950E+00-2.17435E-13 2.41534E-14
 -1      4125 1.94042E+01 3.69814E-02 3.22312E-03 1.92051E+00-1.61250E-13 3.59375E-14
 -1      4126 1.94605E+01 1.37303E-01 1.27641E-02 1.61059E+00-1.11361E-13-3.96363E-15
 -1      4127 2.01192E+01-3.67701E-01-5.28150E-03 1.63373E+00-2.21344E-13 1.61468E-14
 -1      4128 2.00000E+01-2.25544E-04-6.73049E-07 3.66593E-05-1.92764E-14 4.54847E-13
 -1      4129 1.99999E+01-2.07098E-04-2.23952E-07 2.04030E-05-2.20765E-13 2.45042E-13
 -1      4130 1.99999E+01-1.94862E-04 9.95031E-08 1.40363E-05-1.49207E-13 7.52376E-14
 -1      4131 1.99999E+01-1.94586E-04 5.47115E-07-4.47291E-06-1.64135E-13-2.63445E-13
 -1      4132 2.00000E+01-2.32025E-04-6.47595E-07 2.37915E-05 8.13490E-14 1.61990E-13
 -1      4133 1.99335E+01 8.53070E-02-4.85262E-04 7.81819E-02-1.39317E-13-1.46445E-13
 -1      4134 1.99471E+01 7.64777E-02 4.29950E-04 5.87333E-02-8.98133E-14-7.99530E-14
 -1      4135 1.99573E+01 6.21828E-02-5.77461E-04 4.61665E-02-8.75847E-14-1.10960E-13
 -1      4136 1.99669E+01 5.56331E-02 3.03883E-04 3.46149E-02-1.09628E-13 3.73178E-15
 -1      4137 1.99691E+01 5.07161E-02-5.56708E-04 2.51720E-02-1.12141E-13-9.22031E-15
 -1      4138 1.99763E+01 4.49122E-02 1.26675E-04 1.87776E-02-1.18915E-13 2.83151E-14
 -1      4139 1.99789E+01 4.01983E-02-3.82622E-04 1.29924E-02-1.96024E-13-1.78963E-14
 -1      4140 1.99840E+01 3.51659E-02 3.06913E-05 9.55058E-03-2.61314E-13 2.11904E-14
 -1      4141 1.99863E+01 3.10289E-02-2.58564E-04 6.10195E-03-2.95147E-13 2.01174E-14
 -1      4142 1.99898E+01 2.68557E-02-1.36996E-05 4.38089E-03-1.71851E-13-2.58258E-14
 -1      4143 1.99917E+01 2.33887E-02-1.70853E-04 2.38378E-03 3.11763E-14-3.19670E-14
 -1      4144 1.99941E+01 2.00326E-02-3.07094E-05 1.63129E-03 9.20953E-14 2.11344E-15
 -1      4145 1.99955E+01 1.72241E-02-1.10303E-04 5.11601E-04 1.83751E-14-3.08648E-14
 -1      4146 1.99971E+01 1.45888E-02-3.40235E-05 2.74891E-04-1.46982E-14-6.01875E-14
 -1      4147 1.99981E+01 1.23764E-02-6.86417E-05-3.31871E-04-8.46094E-14-6.72858E-14
 -1      4148 1.99991E+01 1.02565E-02-3.03559E-05-3.20319E-04-3.67647E-14-4.56525E-14
 -1      4149 1.99998E+01 8.56458E-03-4.09338E-05-6.28158E-04 8.79878E-14-1.75655E-13
 -1      4150 2.00003E+01 7.05341E-03-2.43729E-05-5.08225E-04 1.04273E-13-2.31537E-13
 -1      4151 2.00008E+01 5.78269E-03-2.23293E-05-6.51931E-04 4.94480E-14-2.72097E-13
 -1      4152 2.00011E+01 4.66588E-03-1.72200E-05-5.08488E-04-1.11105E-13-2.95380E-13
 -1      4153 2.00013E+01 3.73127E-03-1.11158E-05-5.65775E-04-7.54318E-14-2.45361E-13
 -1      4154 2.00014E+01 2.92561E-03-1.09602E-05-4.33469E-04 4.61631E-14-1.25739E-13
 -1      4155 2.00015E+01 2.25475E-03-4.21139E-06-4.47031E-04-1.58803E-14-2.59919E-13
 -1      4156 2.00015E+01 1.68797E-03-6.12142E-06-3.39136E-04-1.03356E-13-1.19538E-13
 -1      4157 2.00016E+01 1.21992E-03-1.24866E-07-3.32418E-04-5.44581E-14-8.24027E-14
 -1      4158 2.00015E+01 8.33200E-04-2.61206E-06-2.51137E-04-6.08536E-14-8.93455E-14
 -1      4159 2.00014E+01 5.17861E-04 2.15094E-06-2.36326E-04-1.84757E-13 7.37249E-14
 -1      4160 2.00014E+01 2.64218E-04-2.30548E-07-1.78858E-04-1.09112E-13 7.44072E-14
 -1      4161 2.00013E+01 6.12205E-05 3.32973E-06-1.62073E-04-8.76272E-15 1.47362E-13
 -1      4162 2.00012E+01-1.02490E-04 1.26879E-06-1.22725E-04 2.28003E-13 2.93304E-13
 -1      4163 2.00011E+01-2.22649E-04 3.91735E-06-1.06573E-04 1.93009E-13 1.34124E-13
 -1      4164 2.00010E+01-3.10053E-04 2.19711E-06-8.32797E-05 9.23744E-15 9.59541E-14
 -1      4165 2.00009E+01-3.74460E-04 3.82567E-06-6.85384E-05-6.76776E-14-5.94577E-14
 -1      4166 2.00008E+01-4.15630E-04 2.58178E-06-5.54187E-05-1.23066E-13 1.19290E-15
 -1      4167 2.00007E+01-4.42019E-04 3.50671E-06-4.26859E-05-1.34178E-13-9.38671E-14
 -1      4168 2.00006E+01-4.52678E-04 2.64440E-06-3.64408E-05-7.14975E-14-1.00615E-13
 -1      4169 2.00005E+01-4.54439E-04 3.08889E-06-2.56321E-05-1.82073E-13 4.11490E-14
 -1      4170 2.00004E+01-4.46033E-04 2.51016E-06-2.37968E-05-1.58116E-13-1.87074E-14
 -1      4171 2.00004E+01-4.32833E-04 2.64202E-06-1.47109E-05 8.32650E-14 1.08366E-13
 -1      4172 2.00003E+01-4.13422E-04 2.28595E-06-1.55452E-05 1.31557E-13 1.69637E-13
 -1      4173 2.00002E+01-3.92211E-04 2.16737E-06-7.94605E-06 4.76826E-14 1.13679E-13
 -1      4174 2.00002E+01-3.66145E-04 1.96801E-06-1.02106E-05 1.85437E-13 1.35147E-13
 -1      4175 2.00001E+01-3.41219E-04 1.77264E-06-3.94013E-06 7.87510E-14 3.94930E-14
 -1      4176 2.00001E+01-3.14842E-04 1.64018E-06-6.75075E-06-2.03641E-14 8.91829E-14
 -1      4177 2.00000E+01-2.89577E-04 1.31934E-06-1.63817E-06 6.74423E-14 4.18728E-14
 -1      4178 2.00000E+01-2.64323E-04 1.07660E-06-4.28790E-06 1.67290E-13 9.46014E-14
 -1      4179 2.11274E+01-8.94208E-01-1.04104E-02 6.06311E-01-1.90607E-13 1.30936E-14
 -1      4180 2.14326E+01-1.11622E+00-4.60475E-03 1.20806E+00-2.66647E-13-4.59582E-15
 -1      4181 2.11847E+01-9.81895E-01 1.39904E-02 1.49243E+00-2.58834E-13-7.70082E-14
 -1      4182 2.07577E+01-7.56249E-01-8.47626E-03 1.40599E+00-1.86239E-13-8.33710E-14
 -1      4183 1.99818E+01 3.01041E-02-3.78503E-04 6.71406E-02-1.44036E-13 5.47117E-14
 -1      4184 1.99884E+01 2.64857E-02 9.92893E-04 8.26135E-02-1.46125E-13-3.04368E-14
 -1      4185 1.99715E+01 4.04968E-02-5.16246E-05 9.78736E-02-1.72334E-13-2.10008E-14
 -1      4186 1.99725E+01 4.23228E-02-3.26170E-04 6.04803E-02-9.25276E-14-5.65652E-14
 -1      4187 1.97987E+01-7.95405E-02 5.41221E-03 1.49610E+00-1.40438E-13-5.30784E-14
 -1      4188 1.99999E+01-2.03279E-04-4.71278E-08-2.85073E-05-1.10227E-13-5.48627E-13
 -1      4189 1.95780E+01 2.70636E-01-6.64487E-03 6.41106E-01-9.68787E-14 4.60198E-15
 -1      4190 1.96706E+01 2.69648E-01 6.45120E-03 5.07564E-01-6.69379E-14 4.89295E-15
 -1      4191 1.97732E+01 1.56144E-01-2.94234E-03 4.95490E-01-1.27002E-13-2.92266E-14
 -1      4192 1.97499E+01 1.15606E-01-4.51752E-03 7.47733E-01-8.07765E-14 2.89027E-14
 -1      4193 2.12473E+01-9.82321E-01-3.54700E-03 9.31729E-01-2.29058E-13-9.59064E-15
 -1      4194 1.99159E+01 7.91462E-02-1.15758E-03 2.20067E-01-5.77465E-14-1.72703E-13
 -1      4195 1.99361E+01 7.04830E-02 3.88153E-03 2.71290E-01-1.14635E-13-8.44076E-14
 -1      4196 2.00000E+01-2.21787E-04 3.21404E-07-1.70478E-05-9.93639E-14-1.77135E-13
 -1      4197 1.99154E+01 6.05455E-02-9.22495E-04 3.48499E-01-1.78461E-13-4.30352E-14
 -1      4198 1.99557E+01 3.73807E-02 5.88434E-03 4.21705E-01-1.40197E-13-2.85025E-14
 -1      4199 1.99274E+01 8.06158E-02-1.00994E-03 1.35629E-01-1.68338E-13-5.46501E-14
 -1      4200 1.99431E+01 7.63002E-02 1.04197E-03 1.03843E-01-1.44853E-13-9.22913E-14
 -1      4201 1.99357E+01 7.94800E-02 2.32845E-03 1.70701E-01-1.40595E-13-1.47191E-13
 -1      4202 2.00000E+01-2.40471E-04 6.61735E-07-6.18478E-07 1.10931E-13 3.55923E-14
 -1      4203 1.99395E+01 1.07563E-02-7.87597E-04 5.24877E-01-8.56978E-14-3.42670E-14
 -1      4204 2.07616E+01-7.09661E-01-7.23184E-03 1.14060E+00-1.43975E-13-1.20119E-13
 -1      4205 2.05286E+01-5.29666E-01 1.32413E-02 1.30291E+00-1.57068E-13-7.61513E-14
 -1      4206 2.00114E+01-3.36208E-02 8.35693E-03 6.25310E-01-9.01827E-14-6.29817E-14
 -1      4207 2.05466E+01-4.96127E-01 1.60853E-03 7.48519E-01-5.55090E-14-5.58981E-14
 -1      4208 2.07325E+01-6.36652E-01 5.21504E-04 8.21416E-01-8.82131E-14-5.18087E-14
 -1      4209 2.03533E+01-3.73208E-01-3.70039E-03 8.26768E-01-8.85699E-14-4.95423E-14
 -1      4210 2.10090E+01-8.01295E-01 1.00644E-02 8.81033E-01-1.52697E-13-2.07766E-14
 -1      4211 2.01198E+01-3.19609E-01-5.05452E-03 1.44929E+00-1.72057E-13-1.99348E-14
 -1      4212 2.01471E+01-3.04130E-01-9.95515E-03 1.20903E+00-1.16596E-13 6.22972E-15
 -1      4213 2.01216E+01-1.93941E-01 5.89018E-03 1.00709E+00-7.99535E-14-4.13381E-14
 -1      4214 1.99957E+01-9.34925E-02-5.12309E-03 7.64168E-01-1.05451E-13-5.35069E-14
 -1      4215 1.99651E+01 5.31335E-02 2.41120E-04 5.94330E-02-1.03138E-13-1.55052E-13
 -1      4216 1.99620E+01 5.34931E-02-2.12500E-04 7.53605E-02-1.62838E-13-1.97993E-13
 -1      4217 1.99615E+01 5.18294E-02-8.86317E-05 9.78329E-02-1.70339E-13-9.66510E-14
 -3
    1PSTEP                         3           1           1          
  100CL  101 1.000000000        4217                     0    1           1
 -4  TOSTRAIN    6    1
 -5  EXX         1    4    1    1
 -5  EYY         1    4    2    2
 -5  EZZ         1    4    3    3
 -5  EXY         1    4    1    2
 -5  EYZ         1    4    2    3
 -5  EZX         1    4    3    1
 -1         1 5.27182E-07-3.77544E-05 2.53804E-06-3.49284E-05-1.42540E-17-8.43425E-18
 -1         2 3.38956E-05-1.01194E-04 1.67735E-05 6.07386E-07-1.22862E-17-3.50460E-20
 -1         3 9.52371E-05-2.85711E-05-2.85711E-05-1.96306E-13-2.30091E-18-2.54013E-18
 -1         4 9.52371E-05-2.85711E-05-2.85711E-05 3.92417E-13 2.53822E-18-2.39655E-18
 -1         5 1.26189E-04-1.87954E-05-3.66694E-05 3.69760E-05-2.85874E-19 1.80512E-17
 -1         6 2.63640E-04 5.99994E-10-8.09087E-05-7.05513E-05-6.03087E-19 1.87640E-17
 -1         7 1.56140E-04-3.70211E-06-6.28689E-05-1.63963E-05 3.30766E-19 8.06677E-18
 -1         8 1.00354E-04 1.26386E-07-4.17385E-05 7.06455E-06 1.52042E-19 3.00835E-18
 -1         9 5.03925E-05 1.79312E-06-2.31791E-05 1.03586E-05 2.40981E-19-1.31704E-19
 -1        10 1.66863E-05 2.85360E-06-1.07314E-05 3.65430E-07 2.01806E-19-1.15952E-18
 -1        11 5.55134E-06 2.81073E-06-5.97265E-06-1.56413E-05-3.30078E-20-9.01676E-19
 -1        12 1.34062E-05 1.92462E-06-8.31006E-06-2.86474E-05-2.73592E-19-5.07241E-19
 -1        13 3.62286E-05 6.23045E-07-1.63206E-05-3.76280E-05-5.08008E-19-5.79119E-19
 -1        14 6.17371E-05-2.47119E-07-2.54564E-05-3.85242E-05-5.17114E-19-1.11366E-18
 -1        15 9.01611E-05-9.50952E-07-3.61583E-05-2.94464E-05-4.53586E-19-2.07502E-18
 -1        16 1.07200E-04-1.02500E-06-4.35500E-05-1.34026E-05-2.63745E-19-3.39596E-18
 -1        17 1.10614E-04-6.60390E-07-4.59164E-05 1.21347E-07-1.70558E-19-4.95563E-18
 -1        18 1.06946E-04-3.06491E-07-4.50976E-05 8.75915E-06-9.64559E-20-6.32979E-18
 -1        19 1.00906E-04-1.04433E-07-4.29054E-05 1.36940E-05-4.58986E-20-7.24940E-18
 -1        20 9.44529E-05-4.88259E-09-4.03111E-05 1.68456E-05-1.85288E-21-7.79255E-18
 -1        21 8.83498E-05 5.13229E-08-3.77655E-05 1.93764E-05 3.11814E-20-7.73154E-18
 -1        22 8.29032E-05 1.19051E-07-3.54982E-05 2.19770E-05 1.01009E-19-6.87361E-18
 -1        23 7.89404E-05 2.95043E-07-3.39576E-05 2.49328E-05 1.44790E-19-4.42891E-18
 -1        24 7.93795E-05 4.90244E-07-3.41145E-05 2.95759E-05-6.88744E-20 1.59738E-18
 -1        25 2.56082E-04-8.84602E-05-7.39063E-05-5.43481E-07 4.43528E-19 2.02836E-17
 -1        26 2.23656E-04-6.77892E-05-6.48097E-05-3.23367E-06 3.82753E-20 2.40451E-17
 -1        27 1.76705E-04-5.23431E-05-5.45284E-05-9.11949E-06 3.15619E-20 2.47655E-17
 -1        28 1.21542E-04-3.30905E-05-4.52329E-05-7.86412E-06-3.21767E-19 2.13067E-17
 -1        29 9.36902E-05-2.37941E-05-3.98514E-05 1.36229E-06-6.47768E-19 1.24018E-17
 -1        30 1.13276E-04-3.15774E-05-4.09363E-05 8.10977E-06 1.93494E-20 3.83939E-18
 -1        31 1.50078E-04-4.48231E-05-4.55498E-05 6.64691E-06-1.41706E-19-7.63812E-19
 -1        32 1.74743E-04-5.30736E-05-4.99543E-05 2.34099E-06 3.23911E-19-1.10326E-18
 -1        33 1.73989E-04-5.26846E-05-5.04321E-05-7.03912E-07 9.79746E-20 1.78933E-18
 -1        34 1.56677E-04-4.71030E-05-4.66773E-05-1.30571E-06 9.80788E-20 3.44859E-18
 -1        35 1.37530E-04-4.12255E-05-4.15749E-05-9.43488E-07-6.18152E-20 5.40179E-18
 -1        36 1.22438E-04-3.67054E-05-3.71175E-05-5.49361E-07-4.68002E-20 6.24433E-18
 -1        37 1.11735E-04-3.35160E-05-3.37886E-05-2.57499E-07 1.93944E-19 5.71068E-18
 -1        38 1.05255E-04-3.15929E-05-3.17383E-05-1.21164E-07-9.38263E-20 5.59981E-18
 -1        39 1.01231E-04-3.03888E-05-3.04605E-05-5.17118E-08-4.71471E-19 4.70668E-18
 -1        40 9.87787E-05-2.96507E-05-2.96835E-05-1.85918E-08-4.37864E-20 3.10798E-18
 -1        41 9.73003E-05-2.92032E-05-2.92172E-05-3.84342E-09-4.27264E-19 3.67983E-18
 -1        42 9.64146E-05-2.89341E-05-2.89392E-05 6.84549E-10 4.96859E-19 1.57634E-18
 -1        43 9.58709E-05-2.87675E-05-2.87688E-05 4.40217E-09-1.13058E-19 6.50278E-19
 -1        44 9.55708E-05-2.86756E-05-2.86752E-05 4.08002E-09 5.05480E-19-3.41308E-19
 -1        45 9.53960E-05-2.86217E-05-2.86209E-05 3.55063E-09-1.67225E-19 3.60232E-19
 -1        46 9.52964E-05-2.85908E-05-2.85900E-05 2.88072E-09 1.50766E-19 2.95792E-18
 -1        47 9.52415E-05-2.85737E-05-2.85729E-05 2.25021E-09-4.00413E-19 3.06234E-18
 -1        48 9.52128E-05-2.85647E-05-2.85640E-05 1.72320E-09 4.12384E-21-1.04192E-18
 -1        49 9.51996E-05-2.85604E-05-2.85599E-05 1.25894E-09 3.98390E-19-1.18234E-18
 -1        50 9.51951E-05-2.85589E-05-2.85585E-05 9.90338E-10-9.19138E-19-9.36872E-19
 -1        51 9.51958E-05-2.85590E-05-2.85587E-05 7.34801E-10 9.46115E-19-1.36965E-18
 -1        52 9.51990E-05-2.85598E-05-2.85596E-05 5.56768E-10-2.65329E-22-1.21747E-18
 -1        53 9.52034E-05-2.85611E-05-2.85609E-05 4.22398E-10-1.22390E-19-2.11735E-19
 -1        54 9.52081E-05-2.85625E-05-2.85624E-05 3.20940E-10-3.87736E-19-3.51280E-19
 -1        55 9.52127E-05-2.85638E-05-2.85638E-05 2.43356E-10 7.37905E-19 9.73874E-19
 -1        56 9.52172E-05-2.85652E-05-2.85651E-05 1.82791E-10-7.43052E-19-1.91570E-19
 -1        57 9.52209E-05-2.85663E-05-2.85662E-05 1.37262E-10 4.39584E-19-4.58955E-18
 -1        58 9.52242E-05-2.85673E-05-2.85672E-05 1.02954E-10 2.57925E-19-5.19353E-18
 -1        59 9.52270E-05-2.85681E-05-2.85681E-05 7.63939E-11 3.05712E-19-3.04932E-18
 -1        60 9.52293E-05-2.85688E-05-2.85688E-05 5.59902E-11-1.15203E-20-3.90175E-18
 -1        61 9.52311E-05-2.85693E-05-2.85693E-05 4.04083E-11-1.24452E-19-3.83362E-18
 -1        62 9.52327E-05-2.85698E-05-2.85698E-05 2.97577E-11 1.29582E-19-5.81175E-18
 -1        63 9.52339E-05-2.85702E-05-2.85702E-05 1.90615E-11 5.18004E-19-4.44618E-18
 -1        64 9.52348E-05-2.85704E-05-2.85704E-05 1.28974E-11 2.81432E-19-1.64750E-18
 -1        65 9.52355E-05-2.85706E-05-2.85706E-05 8.24165E-12-6.87563E-19-4.41063E-18
 -1        66 9.52360E-05-2.85708E-05-2.85708E-05 4.90653E-12 1.09765E-18-4.24044E-18
 -1        67 9.52364E-05-2.85709E-05-2.85709E-05 2.58902E-12-9.19414E-19-4.48295E-19
 -1        68 9.52367E-05-2.85710E-05-2.85710E-05 1.38299E-12-5.64462E-19-2.49925E-18
 -1        69 9.52369E-05-2.85711E-05-2.85711E-05-1.45700E-13-4.19479E-19-2.01794E-18
 -1        70 9.52370E-05-2.85711E-05-2.85711E-05-6.99768E-13 1.25956E-18-4.11544E-18
 -1        71 9.52371E-05-2.85711E-05-2.85711E-05-1.19882E-12-3.60035E-20-6.48324E-18
 -1        72 9.52372E-05-2.85711E-05-2.85711E-05-1.77376E-12 2.67048E-19-6.84924E-18
 -1        73 9.52372E-05-2.85711E-05-2.85711E-05-2.69104E-12 4.89506E-19-4.49935E-18
 -1        74 9.52372E-05-2.85711E-05-2.85711E-05-4.13290E-12-1.35576E-18-5.81575E-18
 -1        75 8.17255E-05-2.45776E-05-2.79286E-05-1.88230E-06 3.40494E-19 1.48917E-17
 -1        76 6.97178E-05-2.06732E-05-2.21524E-05-2.21304E-07 2.31548E-19 9.02074E-18
 -1        77 6.55535E-05-1.96308E-05-2.00169E-05-7.95020E-08 1.26272E-19 4.83738E-18
 -1        78 6.52687E-05-1.96012E-05-1.96953E-05-1.03330E-07 8.26461E-20 2.04554E-18
 -1        79 6.73156E-05-2.02127E-05-2.02510E-05-1.31461E-07-2.74649E-20 2.68377E-19
 -1        80 7.08025E-05-2.12499E-05-2.12663E-05-1.53046E-07 7.49889E-20-1.08508E-18
 -1        81 7.50495E-05-2.25197E-05-2.25106E-05-1.63054E-07-3.14825E-20-2.56524E-18
 -1        82 7.94696E-05-2.38445E-05-2.38104E-05-1.56838E-07 3.08113E-20-3.13279E-18
 -1        83 8.35997E-05-2.50833E-05-2.50321E-05-1.36788E-07 3.19090E-20-4.04718E-18
 -1        84 8.71373E-05-2.61443E-05-2.60869E-05-1.08820E-07 2.32272E-21-4.70915E-18
 -1        85 8.99463E-05-2.69863E-05-2.69321E-05-7.93091E-08 4.06375E-20-4.55978E-18
 -1        86 9.20270E-05-2.76095E-05-2.75644E-05-5.29627E-08 1.35622E-19-4.67448E-18
 -1        87 9.34679E-05-2.80409E-05-2.80069E-05-3.21568E-08-1.63616E-19-4.20762E-18
 -1        88 9.43985E-05-2.83194E-05-2.82961E-05-1.73143E-08 5.66408E-20-3.89980E-18
 -1        89 9.49534E-05-2.84854E-05-2.84708E-05-7.67859E-09-1.05603E-19-4.46047E-18
 -1        90 9.52508E-05-2.85745E-05-2.85662E-05-2.02226E-09-1.09280E-19-4.07523E-18
 -1        91 9.53842E-05-2.86145E-05-2.86105E-05 8.90923E-10 3.11688E-19-5.22274E-18
 -1        92 9.54215E-05-2.86258E-05-2.86244E-05 2.08321E-09-5.59370E-20-6.38399E-18
 -1        93 9.54084E-05-2.86221E-05-2.86220E-05 2.30152E-09 2.47303E-20-5.49939E-18
 -1        94 9.53737E-05-2.86118E-05-2.86124E-05 2.04099E-09-1.04178E-19-5.25063E-18
 -1        95 9.53339E-05-2.86000E-05-2.86008E-05 1.60111E-09-3.80222E-20-4.66803E-18
 -1        96 9.52976E-05-2.85892E-05-2.85899E-05 1.14519E-09 2.08776E-20-2.37019E-18
 -1        97 9.52682E-05-2.85804E-05-2.85811E-05 7.49788E-10 5.47625E-19-3.72715E-18
 -1        98 9.52466E-05-2.85740E-05-2.85745E-05 4.40853E-10-3.35620E-19-3.19354E-18
 -1        99 9.52319E-05-2.85696E-05-2.85699E-05 2.17650E-10 1.60955E-19-4.13676E-18
 -1       100 9.52230E-05-2.85669E-05-2.85672E-05 6.75320E-11 2.23376E-19-5.11455E-18
 -1       101 9.52184E-05-2.85655E-05-2.85657E-05-2.57130E-11 8.40792E-20-6.27347E-18
 -1       102 9.52168E-05-2.85651E-05-2.85651E-05-7.76144E-11-4.32762E-19-3.68313E-18
 -1       103 9.52172E-05-2.85652E-05-2.85652E-05-1.01221E-10 9.27986E-20-3.44032E-18
 -1       104 9.52188E-05-2.85657E-05-2.85657E-05-1.06645E-10 4.58485E-19-7.66613E-18
 -1       105 9.52210E-05-2.85663E-05-2.85663E-05-1.01268E-10-4.89947E-19-7.94565E-18
 -1       106 9.52234E-05-2.85670E-05-2.85670E-05-9.02041E-11-5.37759E-19-4.48330E-18
 -1       107 9.52258E-05-2.85677E-05-2.85677E-05-7.68164E-11 6.84551E-19-5.33653E-18
 -1       108 9.52280E-05-2.85684E-05-2.85684E-05-6.31880E-11 1.45085E-19-8.59135E-18
 -1       109 9.52299E-05-2.85690E-05-2.85690E-05-5.05063E-11 1.57435E-19-1.14343E-17
 -1       110 9.52316E-05-2.85695E-05-2.85695E-05-3.93599E-11-3.73361E-19-8.47024E-18
 -1       111 9.52329E-05-2.85699E-05-2.85699E-05-2.99558E-11-4.27912E-19-6.10005E-18
 -1       112 9.52340E-05-2.85702E-05-2.85702E-05-2.22720E-11 9.36059E-20-7.17904E-18
 -1       113 9.52349E-05-2.85705E-05-2.85705E-05-1.61611E-11 3.57772E-19-7.14620E-18
 -1       114 9.52356E-05-2.85707E-05-2.85707E-05-1.14179E-11-1.75060E-19-9.05234E-18
 -1       115 9.52361E-05-2.85708E-05-2.85708E-05-7.82133E-12-2.03497E-19-5.79364E-18
 -1       116 9.52364E-05-2.85709E-05-2.85709E-05-5.15823E-12-7.99762E-19-1.88839E-18
 -1       117 9.52367E-05-2.85710E-05-2.85710E-05-3.23532E-12 6.98358E-19-5.33448E-18
 -1       118 9.52369E-05-2.85711E-05-2.85711E-05-1.87673E-12-4.77487E-19-4.59909E-18
 -1       119 9.52370E-05-2.85711E-05-2.85711E-05-9.19351E-13-1.06760E-19-1.36967E-18
 -1       120 9.52371E-05-2.85711E-05-2.85711E-05-2.13796E-13 2.61923E-19 1.03660E-19
 -1       121 9.52372E-05-2.85711E-05-2.85711E-05 5.04945E-13-3.61108E-19-3.49182E-19
 -1       122 9.52372E-05-2.85712E-05-2.85711E-05 1.62631E-12-4.22683E-19-3.71612E-18
 -1       123 9.52372E-05-2.85711E-05-2.85711E-05 3.80750E-12 1.85666E-18-3.04009E-18
 -1       124 9.52371E-05-2.85711E-05-2.85711E-05 5.18500E-12-5.98350E-18 4.73529E-19
 -1       125 9.52371E-05-2.85711E-05-2.85711E-05 2.34574E-12-5.80512E-18-9.00401E-19
 -1       126 9.52371E-05-2.85711E-05-2.85711E-05-1.33793E-13-2.90552E-18 6.66723E-19
 -1       127 9.52372E-05-2.85712E-05-2.85711E-05-1.50858E-12-6.84295E-19-5.22218E-19
 -1       128 9.52372E-05-2.85712E-05-2.85711E-05-2.13435E-12 1.72800E-18-2.88375E-18
 -1       129 9.52372E-05-2.85713E-05-2.85711E-05-2.06257E-12 2.68732E-18 1.32399E-18
 -1       130 9.52372E-05-2.85713E-05-2.85711E-05-1.44954E-12 2.45821E-18 6.06148E-20
 -1       131 9.52372E-05-2.85713E-05-2.85711E-05-4.96772E-13-1.93053E-18-7.17548E-19
 -1       132 9.52372E-05-2.85713E-05-2.85711E-05 5.67202E-13-3.17484E-19 1.14165E-18
 -1       133 9.52372E-05-2.85713E-05-2.85711E-05 1.50490E-12 2.10754E-19-8.27128E-19
 -1       134 9.52372E-05-2.85713E-05-2.85711E-05 2.10317E-12-2.28399E-18-3.50224E-19
 -1       135 9.52372E-05-2.85712E-05-2.85711E-05 2.12638E-12-3.15591E-18 1.64120E-18
 -1       136 9.52371E-05-2.85712E-05-2.85711E-05 1.46327E-12-5.27030E-18-3.54737E-19
 -1       137 9.52371E-05-2.85711E-05-2.85711E-05-4.60927E-15-5.23185E-18-9.70202E-19
 -1       138 9.52371E-05-2.85711E-05-2.85711E-05-2.55667E-12 5.31411E-19-1.14548E-18
 -1       139 9.52371E-05-2.85711E-05-2.85711E-05-4.10108E-12 6.80215E-18 6.82121E-19
 -1       140 2.17364E-05-7.09359E-05 1.08435E-05-1.80239E-05-5.82335E-19 2.29334E-19
 -1       141 5.82542E-06-1.41988E-05-3.16998E-06-5.18078E-06 1.22159E-17 6.04210E-18
 -1       142 1.49175E-05 3.00103E-05-2.15097E-05 4.03607E-05 1.76539E-17 1.30532E-17
 -1       143 7.12686E-05 3.33229E-05-4.19602E-05 9.60116E-05 1.58001E-17 1.83484E-17
 -1       144 1.64371E-04-5.69570E-06-6.06044E-05 1.23374E-04 1.09039E-17 1.94940E-17
 -1       145 2.55438E-04-6.00032E-05-7.32791E-05 9.69274E-05 4.63586E-18 1.51087E-17
 -1       146 3.01111E-04-9.15079E-05-7.84801E-05 2.50310E-05 9.07861E-19 7.28522E-18
 -1       147 2.78183E-04-7.98676E-05-7.53191E-05-5.34428E-05 4.98492E-19-1.91345E-18
 -1       148 1.98662E-04-3.38901E-05-6.48632E-05-1.01624E-04 4.01420E-18-9.45077E-18
 -1       149 1.05178E-04 1.33383E-05-4.98491E-05-9.97830E-05 8.14422E-18-1.19406E-17
 -1       150 3.73218E-05 3.61953E-05-3.45247E-05-6.70584E-05 1.03404E-17-1.01049E-17
 -1       151 5.60563E-06 3.25025E-05-2.08338E-05-3.10835E-05 8.77823E-18-5.61022E-18
 -1       152-2.44553E-06 1.67526E-05-9.58120E-06-7.49191E-06 4.52697E-18-1.76003E-18
 -1       153 1.30335E-06-1.91399E-06-1.64785E-06 7.02326E-08-2.47969E-19-2.14008E-20
 -1       154 7.63402E-06-2.42464E-05 4.22393E-06-4.95133E-06-5.12815E-18-5.25955E-19
 -1       155 8.81922E-06-4.23730E-05 6.55786E-06-2.24343E-05-1.00109E-17-3.33419E-18
 -1       156-2.09614E-06-1.13859E-05-8.93696E-06-1.77640E-05-1.61398E-17-1.45656E-17
 -1       157 4.43866E-05 4.49165E-06-2.99125E-05 3.74965E-05-1.43475E-17-1.96198E-17
 -1       158 1.49875E-04-1.94485E-05-5.37171E-05 8.74756E-05-9.98737E-18-2.04177E-17
 -1       159 2.90689E-04-7.78081E-05-7.60090E-05 8.50330E-05-3.78952E-18-1.49493E-17
 -1       160 3.89125E-04-1.22115E-04-9.03035E-05 1.38791E-05-5.98641E-19-5.37019E-18
 -1       161 3.79173E-04-1.11041E-04-9.11257E-05-7.89986E-05-1.89669E-18 8.15481E-18
 -1       162 2.74635E-04-5.24806E-05-7.95052E-05-1.34578E-04-8.04004E-18 1.93479E-17
 -1       163 1.37385E-04 8.90378E-06-5.77695E-05-1.21316E-04-1.60907E-17 2.48977E-17
 -1       164 4.32262E-05 2.67122E-05-3.34681E-05-6.32792E-05-2.46059E-17 2.44632E-17
 -1       165 6.29339E-06-1.61029E-06-1.07365E-05-2.62717E-06-2.96838E-17 2.01331E-17
 -1       166 1.18963E-05-5.18164E-05 5.65795E-06 2.73550E-05-2.76129E-17 1.17055E-17
 -1       167 2.82431E-05-9.20706E-05 1.49275E-05 2.32844E-05-2.00551E-17 3.93392E-18
 -1       168 1.47480E-04-3.03252E-05-5.00090E-05-9.38405E-06 1.82027E-18 5.71726E-18
 -1       169 8.19451E-05-1.06228E-05-3.04596E-05 3.11347E-06 1.95411E-18 1.31608E-18
 -1       170 2.47935E-05 9.31180E-06-1.46483E-05 1.99238E-06 9.86688E-19-1.40004E-18
 -1       171-6.12893E-06 1.88212E-05-5.37408E-06-1.05051E-05-8.90523E-19-2.06380E-18
 -1       172-5.96832E-06 1.69101E-05-4.52594E-06-2.11373E-05-2.81101E-18-1.59592E-18
 -1       173 1.45079E-05 1.10882E-05-1.07611E-05-2.99979E-05-4.49722E-18-1.08314E-18
 -1       174 4.54876E-05 1.53575E-06-1.98982E-05-3.52724E-05-5.30412E-18-7.98302E-19
 -1       175 8.78345E-05-1.26050E-05-3.18221E-05-3.05377E-05-5.23689E-18-6.79572E-19
 -1       176 1.16181E-04-1.88897E-05-4.13286E-05-1.50521E-05-3.91761E-18-1.38121E-18
 -1       177 1.21125E-04-1.49421E-05-4.53209E-05-1.49425E-06-2.35456E-18-2.99748E-18
 -1       178 1.15452E-04-9.39442E-06-4.54073E-05 6.71974E-06-1.32300E-18-4.59255E-18
 -1       179 1.07406E-04-5.76472E-06-4.35836E-05 1.12548E-05-5.99818E-19-5.65626E-18
 -1       180 9.97611E-05-4.03956E-06-4.10726E-05 1.41769E-05 1.24421E-19-6.31713E-18
 -1       181 9.31387E-05-3.57159E-06-3.84484E-05 1.65862E-05 8.15759E-19-6.53235E-18
 -1       182 8.75690E-05-3.90559E-06-3.59438E-05 1.91408E-05 1.58679E-18-6.11981E-18
 -1       183 8.36428E-05-4.97330E-06-3.38585E-05 2.21906E-05 2.28195E-18-4.57276E-18
 -1       184 8.36117E-05-8.20287E-06-3.24759E-05 2.61117E-05 2.65483E-18-7.57221E-19
 -1       185 9.00600E-05-2.04400E-05-3.08536E-05 2.18467E-05 2.61563E-18 4.46926E-18
 -1       186 1.98039E-04-6.55147E-05-5.62706E-05-1.72762E-05 1.90424E-18 1.11139E-17
 -1       187 1.97106E-04-6.86843E-05-5.48494E-05-3.58793E-05 4.17733E-19 1.17641E-17
 -1       188 1.87256E-04-5.55409E-05-5.70846E-05-4.99359E-05-2.87091E-18 1.09059E-17
 -1       189 1.73982E-04-3.66863E-05-5.98892E-05-2.76142E-05-5.87333E-18 8.19396E-18
 -1       190 1.67346E-04-3.71600E-05-5.72505E-05 1.20742E-05-6.88744E-18 4.57572E-18
 -1       191 1.67817E-04-5.07727E-05-5.12488E-05 2.90287E-05-4.30875E-18 4.96679E-19
 -1       192 1.64860E-04-5.74991E-05-4.60508E-05 1.44123E-05-5.16703E-19-1.35222E-18
 -1       193 1.53450E-04-5.16974E-05-4.33429E-05-6.12993E-06 1.69461E-18-1.95219E-18
 -1       194 1.39628E-04-4.31823E-05-4.11819E-05-1.63003E-05 1.40759E-18-8.18326E-19
 -1       195 1.27302E-04-3.74205E-05-3.85122E-05-1.64482E-05 1.30553E-18 3.13614E-19
 -1       196 1.17491E-04-3.40910E-05-3.57581E-05-1.28245E-05 4.78140E-19 1.29331E-18
 -1       197 1.09886E-04-3.20209E-05-3.33696E-05-8.73817E-06 5.53218E-20 1.88663E-18
 -1       198 1.04848E-04-3.08016E-05-3.17225E-05-5.70766E-06-2.10332E-19 1.81840E-18
 -1       199 1.01422E-04-3.00051E-05-3.05927E-05-3.61686E-06-1.51700E-19 1.90126E-18
 -1       200 9.91627E-05-2.94860E-05-2.98488E-05-2.25162E-06-5.17512E-19 2.42101E-18
 -1       201 9.76995E-05-2.91487E-05-2.93695E-05-1.38617E-06 1.74535E-21 2.34383E-18
 -1       202 9.67620E-05-2.89305E-05-2.90642E-05-8.46879E-07-7.37043E-19 1.93026E-18
 -1       203 9.61466E-05-2.87863E-05-2.88643E-05-5.01360E-07-5.49772E-19 7.74163E-19
 -1       204 9.57829E-05-2.87002E-05-2.87470E-05-3.01626E-07-4.68244E-19-8.71271E-20
 -1       205 9.55553E-05-2.86458E-05-2.86737E-05-1.79948E-07 1.42821E-19-9.84789E-19
 -1       206 9.54144E-05-2.86119E-05-2.86285E-05-1.05798E-07 9.37190E-19-5.77237E-19
 -1       207 9.53281E-05-2.85911E-05-2.86009E-05-6.07945E-08-8.51567E-21-1.55223E-18
 -1       208 9.52762E-05-2.85785E-05-2.85843E-05-3.35925E-08-1.39242E-18-9.58885E-19
 -1       209 9.52458E-05-2.85712E-05-2.85745E-05-1.72742E-08-5.85694E-19-1.49871E-18
 -1       210 9.52282E-05-2.85671E-05-2.85689E-05-7.21201E-09 4.90214E-19-1.14425E-18
 -1       211 9.52198E-05-2.85652E-05-2.85662E-05-1.71232E-09 9.45845E-20 3.72655E-19
 -1       212 9.52164E-05-2.85645E-05-2.85650E-05 1.34827E-09-5.99856E-19 9.48420E-20
 -1       213 9.52159E-05-2.85646E-05-2.85648E-05 2.93965E-09 1.45931E-18-3.89565E-19
 -1       214 9.52170E-05-2.85651E-05-2.85651E-05 3.63589E-09-9.08919E-20 4.30180E-20
 -1       215 9.52190E-05-2.85657E-05-2.85657E-05 3.79696E-09 3.44215E-19 1.89697E-18
 -1       216 9.52214E-05-2.85665E-05-2.85664E-05 3.63855E-09-1.23586E-18-2.07250E-19
 -1       217 9.52238E-05-2.85673E-05-2.85671E-05 3.31849E-09-1.91647E-18-6.34578E-19
 -1       218 9.52261E-05-2.85679E-05-2.85678E-05 2.92356E-09-4.92803E-19-1.32823E-18
 -1       219 9.52282E-05-2.85686E-05-2.85684E-05 2.50911E-09 7.67675E-19-2.97114E-18
 -1       220 9.52300E-05-2.85691E-05-2.85689E-05 2.10709E-09 1.07248E-19-1.50501E-18
 -1       221 9.52315E-05-2.85695E-05-2.85694E-05 1.73633E-09-1.71854E-19-1.59868E-18
 -1       222 9.52328E-05-2.85699E-05-2.85698E-05 1.40663E-09-6.93571E-19-1.32656E-18
 -1       223 9.52339E-05-2.85702E-05-2.85701E-05 1.10815E-09 2.34099E-19-2.14920E-18
 -1       224 9.52347E-05-2.85705E-05-2.85704E-05 8.67995E-10 1.59626E-19-2.81870E-18
 -1       225 9.52353E-05-2.85706E-05-2.85706E-05 6.69363E-10-2.13275E-19-3.61416E-18
 -1       226 9.52359E-05-2.85708E-05-2.85707E-05 5.07594E-10 1.50134E-19-2.14296E-18
 -1       227 9.52362E-05-2.85709E-05-2.85709E-05 3.77928E-10 1.78626E-18-1.49697E-18
 -1       228 9.52365E-05-2.85710E-05-2.85710E-05 2.75601E-10-9.35939E-19-3.78400E-19
 -1       229 9.52368E-05-2.85710E-05-2.85710E-05 1.92274E-10-4.56141E-19 2.21568E-19
 -1       230 9.52369E-05-2.85711E-05-2.85711E-05 1.31098E-10-9.91938E-19-2.89533E-19
 -1       231 9.52370E-05-2.85711E-05-2.85711E-05 8.39522E-11 4.38005E-19-2.36239E-18
 -1       232 9.52371E-05-2.85711E-05-2.85711E-05 4.71444E-11-2.92955E-19-1.15423E-18
 -1       233 9.52371E-05-2.85711E-05-2.85711E-05 1.82078E-11 1.10114E-18-3.95347E-19
 -1       234 9.52371E-05-2.85711E-05-2.85711E-05-2.17897E-12-1.15548E-18-1.06057E-18
 -1       235 9.52371E-05-2.85711E-05-2.85711E-05-8.92607E-12-6.37441E-19 8.63527E-19
 -1       236 8.26727E-05-2.32166E-05-2.57479E-05 8.64372E-06 2.60513E-18 3.62643E-18
 -1       237 7.68909E-05-2.22770E-05-2.34058E-05 2.93366E-06 1.79462E-18 1.90592E-18
 -1       238 7.49313E-05-2.20498E-05-2.26244E-05 1.28561E-08 1.31484E-18 7.18013E-19
 -1       239 7.52569E-05-2.23296E-05-2.26570E-05-1.79566E-06 8.47188E-19-2.75617E-19
 -1       240 7.70453E-05-2.29748E-05-2.31578E-05-2.88729E-06 7.66120E-19-1.30783E-18
 -1       241 7.97085E-05-2.38721E-05-2.39206E-05-3.42163E-06 6.59067E-19-1.92946E-18
 -1       242 8.27312E-05-2.48602E-05-2.47959E-05-3.48915E-06 3.58594E-19-2.49671E-18
 -1       243 8.57110E-05-2.58094E-05-2.56684E-05-3.20475E-06 2.91819E-19-2.63058E-18
 -1       244 8.83718E-05-2.66342E-05-2.64572E-05-2.70513E-06 9.76148E-20-2.35261E-18
 -1       245 9.05659E-05-2.72946E-05-2.71162E-05-2.12130E-06 1.47104E-19-2.32775E-18
 -1       246 9.22540E-05-2.77869E-05-2.76299E-05-1.55449E-06-1.02830E-19-2.12882E-18
 -1       247 9.34723E-05-2.81305E-05-2.80055E-05-1.06637E-06-2.95031E-19-2.09592E-18
 -1       248 9.42976E-05-2.83549E-05-2.82632E-05-6.82530E-07-1.41258E-19-1.97760E-18
 -1       249 9.48200E-05-2.84910E-05-2.84286E-05-4.02875E-07 3.02351E-19-1.81114E-18
 -1       250 9.51246E-05-2.85661E-05-2.85267E-05-2.12960E-07-8.83855E-20-2.03323E-18
 -1       251 9.52829E-05-2.86017E-05-2.85789E-05-9.29320E-08 4.69653E-19-1.93389E-18
 -1       252 9.53493E-05-2.86136E-05-2.86019E-05-2.31639E-08 3.10587E-19-1.80351E-18
 -1       253 9.53628E-05-2.86126E-05-2.86078E-05 1.29370E-08-2.67935E-19-2.09531E-18
 -1       254 9.53492E-05-2.86056E-05-2.86047E-05 2.80469E-08 3.14983E-20-2.34667E-18
 -1       255 9.53246E-05-2.85968E-05-2.85978E-05 3.11212E-08-4.05139E-19-2.38398E-18
 -1       256 9.52982E-05-2.85882E-05-2.85901E-05 2.80660E-08-6.86686E-19-1.84710E-18
 -1       257 9.52746E-05-2.85810E-05-2.85830E-05 2.25144E-08 6.91299E-19-1.70903E-18
 -1       258 9.52558E-05-2.85755E-05-2.85773E-05 1.65250E-08-6.03058E-19-1.78334E-18
 -1       259 9.52420E-05-2.85716E-05-2.85730E-05 1.11346E-08 8.66374E-19-1.59956E-18
 -1       260 9.52327E-05-2.85691E-05-2.85701E-05 6.75893E-09 1.31580E-19-1.32314E-18
 -1       261 9.52271E-05-2.85676E-05-2.85683E-05 3.46519E-09 8.89143E-19-7.90224E-19
 -1       262 9.52241E-05-2.85669E-05-2.85674E-05 1.14673E-09-9.82736E-19-1.58780E-18
 -1       263 9.52232E-05-2.85667E-05-2.85670E-05-3.72426E-10 7.49964E-19-1.02738E-18
 -1       264 9.52235E-05-2.85669E-05-2.85671E-05-1.27936E-09 2.15546E-18-2.21865E-18
 -1       265 9.52246E-05-2.85673E-05-2.85674E-05-1.74330E-09-2.23555E-19-2.35567E-18
 -1       266 9.52261E-05-2.85678E-05-2.85678E-05-1.90408E-09-7.74396E-19-2.45079E-18
 -1       267 9.52277E-05-2.85683E-05-2.85683E-05-1.87028E-09 1.49089E-18-3.48827E-18
 -1       268 9.52293E-05-2.85688E-05-2.85688E-05-1.72201E-09 1.14065E-18-3.85998E-18
 -1       269 9.52308E-05-2.85693E-05-2.85692E-05-1.51571E-09 1.01447E-18-2.78900E-18
 -1       270 9.52321E-05-2.85697E-05-2.85696E-05-1.28924E-09-1.80889E-18-2.21625E-18
 -1       271 9.52332E-05-2.85700E-05-2.85700E-05-1.06651E-09 4.92059E-19-2.27052E-18
 -1       272 9.52342E-05-2.85703E-05-2.85702E-05-8.61417E-10 6.12504E-19-5.22757E-18
 -1       273 9.52349E-05-2.85705E-05-2.85705E-05-6.80906E-10-1.68616E-19-5.01012E-18
 -1       274 9.52355E-05-2.85707E-05-2.85706E-05-5.27337E-10-3.01062E-19-3.43073E-18
 -1       275 9.52360E-05-2.85708E-05-2.85708E-05-4.00191E-10-1.35471E-18-2.65102E-18
 -1       276 9.52364E-05-2.85709E-05-2.85709E-05-2.97272E-10-1.02096E-18-2.93064E-18
 -1       277 9.52366E-05-2.85710E-05-2.85710E-05-2.15522E-10 2.33771E-18-4.79224E-18
 -1       278 9.52368E-05-2.85711E-05-2.85710E-05-1.51530E-10-1.25276E-18-4.65775E-18
 -1       279 9.52370E-05-2.85711E-05-2.85711E-05-1.01856E-10-1.38694E-18-4.06803E-18
 -1       280 9.52370E-05-2.85711E-05-2.85711E-05-6.32899E-11 1.33010E-19-2.73998E-18
 -1       281 9.52371E-05-2.85711E-05-2.85711E-05-3.28802E-11-2.37247E-19-1.24191E-18
 -1       282 9.52371E-05-2.85711E-05-2.85711E-05-8.86120E-12 2.02020E-18-1.41545E-18
 -1       283 9.52371E-05-2.85711E-05-2.85711E-05 7.09400E-12-1.43045E-19-3.35243E-18
 -1       284 9.52371E-05-2.85711E-05-2.85711E-05-7.13217E-13-1.23094E-18-7.45713E-19
 -1       285 9.52371E-05-2.85712E-05-2.85711E-05-2.23997E-11-1.75329E-18 5.73115E-19
 -1       286 9.52372E-05-2.85712E-05-2.85711E-05-4.20572E-11-9.87729E-19 1.90449E-18
 -1       287 9.52372E-05-2.85712E-05-2.85711E-05-5.35203E-11 2.05227E-20 3.38742E-19
 -1       288 9.52372E-05-2.85713E-05-2.85711E-05-5.35206E-11-1.04109E-18-6.54431E-19
 -1       289 9.52372E-05-2.85713E-05-2.85711E-05-4.26139E-11-9.70929E-19-4.59985E-19
 -1       290 9.52372E-05-2.85713E-05-2.85711E-05-2.32401E-11-6.03218E-19-2.12588E-18
 -1       291 9.52372E-05-2.85714E-05-2.85711E-05 6.55727E-13 1.82684E-18 7.74395E-19
 -1       292 9.52372E-05-2.85713E-05-2.85711E-05 2.44275E-11-1.73163E-18-4.12834E-19
 -1       293 9.52372E-05-2.85713E-05-2.85711E-05 4.34543E-11-1.15523E-18 9.94603E-20
 -1       294 9.52372E-05-2.85713E-05-2.85711E-05 5.37538E-11 4.85927E-19-5.28103E-19
 -1       295 9.52372E-05-2.85712E-05-2.85711E-05 5.32410E-11 4.06150E-19-2.31470E-18
 -1       296 9.52372E-05-2.85712E-05-2.85711E-05 4.13860E-11-8.19631E-19 4.77174E-19
 -1       297 9.52371E-05-2.85712E-05-2.85711E-05 2.06922E-11-2.01259E-18 1.96810E-18
 -1       298 9.52371E-05-2.85711E-05-2.85711E-05 1.73425E-12-6.32168E-19 1.94516E-18
 -1       299 1.18386E-05-3.80974E-05 7.83726E-06 1.46631E-05-4.32940E-18 5.47480E-18
 -1       300 2.77319E-05-3.10028E-05-9.69926E-07 3.13265E-05-9.23901E-19 6.68722E-18
 -1       301 5.51241E-05-2.37869E-05-1.47967E-05 4.46346E-05 3.09696E-18 6.19859E-18
 -1       302 9.45087E-05-1.99396E-05-3.18163E-05 5.58723E-05 5.25711E-18 6.67991E-18
 -1       303 1.41433E-04-2.48929E-05-4.86041E-05 5.30716E-05 4.91830E-18 5.71641E-18
 -1       304 1.80588E-04-2.77084E-05-6.27868E-05 4.85774E-05 5.42462E-18 5.79265E-18
 -1       305 2.03735E-04-3.21025E-05-7.04659E-05 2.64536E-05 4.48747E-18 3.55759E-18
 -1       306 2.04687E-04-3.25826E-05-7.11410E-05 1.60991E-06 4.24671E-18 1.24334E-18
 -1       307 1.91583E-04-3.30335E-05-6.59421E-05-2.43418E-05 3.67263E-18-7.45601E-19
 -1       308 1.54980E-04-2.58962E-05-5.47649E-05-3.95997E-05 2.70177E-18-1.53927E-18
 -1       309 1.06508E-04-9.81538E-06-4.19636E-05-5.49964E-05 1.98830E-18-3.08998E-18
 -1       310 5.96986E-05 4.82357E-06-2.89262E-05-4.87971E-05 3.75765E-19-2.86159E-18
 -1       311 2.64307E-05 1.19327E-05-1.74299E-05-3.48458E-05-2.29398E-18-1.89992E-18
 -1       312 5.27465E-06 1.14631E-05-7.69450E-06-2.03994E-05-2.67493E-18-1.80995E-18
 -1       313-1.87031E-06 4.26148E-06-1.46030E-06-1.73846E-05-3.42699E-18-2.19186E-18
 -1       314-6.98786E-06 6.74051E-08 1.57794E-06-1.64579E-05-4.28260E-18-3.19289E-18
 -1       315-7.13019E-07-3.52751E-06-1.31064E-06-6.33329E-06-4.39282E-18-4.82290E-18
 -1       316 3.31208E-05-2.14729E-05-9.60871E-06 7.64918E-06-5.14213E-18-6.43896E-18
 -1       317 9.49568E-05-4.60167E-05-2.48952E-05 1.70310E-05-4.42215E-18-5.85490E-18
 -1       318 1.60635E-04-6.20344E-05-4.36679E-05 1.18995E-05-4.60172E-18-5.41000E-18
 -1       319 2.16643E-04-6.52643E-05-6.21516E-05-4.68700E-06-5.02561E-18-3.17044E-18
 -1       320 2.40169E-04-5.32423E-05-7.47475E-05-2.23501E-05-5.33546E-18 1.35843E-18
 -1       321 2.55759E-04-4.87883E-05-8.11260E-05-2.10802E-05-7.06404E-18 3.67072E-18
 -1       322 2.39158E-04-4.89537E-05-7.58588E-05-2.12597E-05-8.35153E-18 5.97285E-18
 -1       323 2.06549E-04-5.38786E-05-6.25835E-05-2.97645E-05-8.64585E-18 7.45474E-18
 -1       324 1.47964E-04-4.44566E-05-4.42586E-05-4.77032E-05-1.10913E-17 1.00098E-17
 -1       325 9.53145E-05-4.19959E-05-2.46172E-05-4.40087E-05-1.07747E-17 8.45191E-18
 -1       326 4.51691E-05-3.55818E-05-7.29581E-06-3.03557E-05-1.18959E-17 9.19708E-18
 -1       327 1.96065E-05-3.80659E-05 4.13939E-06-1.42974E-05-1.03230E-17 8.30675E-18
 -1       328 9.67285E-06-3.98778E-05 9.20410E-06 4.70878E-07-7.74172E-18 5.21603E-18
 -1       329 5.66235E-05-1.67704E-05-1.79750E-05 1.16593E-05 2.57604E-19-1.75728E-18
 -1       330 1.38956E-04-4.82924E-05-3.89013E-05-2.08263E-06 2.10975E-18 4.07963E-18
 -1       331 1.19229E-04-2.68353E-05-3.97262E-05-2.10873E-05-4.40367E-18 8.19623E-19
 -1       332 1.30376E-04-2.54271E-05-4.51872E-05-5.28436E-07-2.96469E-18-1.88117E-19
 -1       333 1.23945E-04-1.73736E-05-4.58202E-05 8.13011E-06-1.72238E-18-2.21735E-18
 -1       334 1.14360E-04-1.13849E-05-4.42407E-05 1.09462E-05-8.49978E-19-3.61764E-18
 -1       335 1.05646E-04-8.31272E-06-4.17960E-05 1.22823E-05-4.55280E-21-4.51748E-18
 -1       336 9.84401E-05-7.36778E-06-3.91002E-05 1.36052E-05 8.16967E-19-4.98245E-18
 -1       337 9.25956E-05-7.90774E-06-3.63668E-05 1.53320E-05 1.70768E-18-4.86759E-18
 -1       338 8.83737E-05-9.76214E-06-3.37782E-05 1.73598E-05 2.59906E-18-4.05265E-18
 -1       339 8.63475E-05-1.38119E-05-3.12107E-05 1.87295E-05 3.22092E-18-1.93828E-18
 -1       340 8.62223E-05-1.93213E-05-2.87985E-05 1.51129E-05 3.24122E-18 4.71215E-19
 -1       341 8.34147E-05-2.19291E-05-2.63324E-05 6.81658E-06 2.46215E-18-4.37099E-20
 -1       342 1.77906E-04-6.57582E-05-4.83275E-05 1.13500E-06-4.20811E-18 1.02819E-18
 -1       343 1.49058E-04-6.16317E-05-3.74060E-05-1.50373E-05-2.73168E-20-9.48492E-19
 -1       344 1.25664E-04-4.43453E-05-3.46382E-05-2.55681E-05 1.87308E-18-1.38262E-18
 -1       345 1.09800E-04-3.19013E-05-3.32752E-05-2.67020E-05 2.36028E-18-2.59907E-19
 -1       346 1.04452E-04-2.75764E-05-3.29076E-05-2.16050E-05 1.11491E-18 3.23312E-19
 -1       347 1.01746E-04-2.68279E-05-3.20741E-05-1.55221E-05 1.06568E-18 3.88773E-19
 -1       348 1.00089E-04-2.72005E-05-3.12086E-05-1.06970E-05 4.67941E-19 9.26707E-19
 -1       349 9.88112E-05-2.76885E-05-3.04570E-05-7.11523E-06-9.43482E-21 1.91156E-18
 -1       350 9.78103E-05-2.80578E-05-2.98760E-05-4.62707E-06-6.70317E-19 1.56027E-18
 -1       351 9.70469E-05-2.82921E-05-2.94540E-05-2.96436E-06-8.78954E-20 1.19468E-18
 -1       352 9.64820E-05-2.84269E-05-2.91585E-05-1.87893E-06-1.24104E-18 5.90031E-19
 -1       353 9.60624E-05-2.85040E-05-2.89485E-05-1.15514E-06-9.65731E-19 3.40830E-19
 -1       354 9.57851E-05-2.85405E-05-2.88160E-05-7.21910E-07-4.85535E-19 1.05937E-18
 -1       355 9.55938E-05-2.85578E-05-2.87278E-05-4.48002E-07-1.97711E-19 1.52544E-18
 -1       356 9.54639E-05-2.85652E-05-2.86697E-05-2.75645E-07-4.81280E-21 9.47120E-19
 -1       357 9.53768E-05-2.85677E-05-2.86318E-05-1.67541E-07-6.77221E-19-1.51050E-19
 -1       358 9.53193E-05-2.85681E-05-2.86072E-05-9.99187E-08-2.30509E-19-1.01930E-18
 -1       359 9.52817E-05-2.85677E-05-2.85915E-05-5.77645E-08-1.47574E-18-4.61069E-19
 -1       360 9.52569E-05-2.85672E-05-2.85812E-05-3.06202E-08 3.58462E-19-1.21585E-18
 -1       361 9.52425E-05-2.85669E-05-2.85752E-05-1.49517E-08 2.24100E-19-1.48371E-18
 -1       362 9.52340E-05-2.85669E-05-2.85716E-05-5.48867E-09-1.29913E-19-7.47606E-19
 -1       363 9.52294E-05-2.85670E-05-2.85696E-05 6.21180E-11-5.01307E-19 2.93738E-19
 -1       364 9.52273E-05-2.85673E-05-2.85685E-05 3.14584E-09 3.56180E-19-4.59829E-19
 -1       365 9.52267E-05-2.85677E-05-2.85681E-05 4.68064E-09 1.10561E-18-7.40678E-19
 -1       366 9.52271E-05-2.85682E-05-2.85681E-05 5.27129E-09-7.59248E-19 6.99618E-19
 -1       367 9.52280E-05-2.85687E-05-2.85683E-05 5.24951E-09-1.84366E-18 2.02044E-18
 -1       368 9.52291E-05-2.85691E-05-2.85686E-05 4.90549E-09-1.04142E-18 1.14237E-18
 -1       369 9.52303E-05-2.85695E-05-2.85689E-05 4.39515E-09 2.10312E-20 3.10772E-18
 -1       370 9.52315E-05-2.85698E-05-2.85693E-05 3.81764E-09 5.02862E-19 1.84579E-18
 -1       371 9.52325E-05-2.85701E-05-2.85696E-05 3.23508E-09-6.46018E-19 5.05595E-20
 -1       372 9.52335E-05-2.85704E-05-2.85699E-05 2.68465E-09-7.42321E-20-6.66006E-19
 -1       373 9.52343E-05-2.85706E-05-2.85702E-05 2.16377E-09-9.94041E-19-8.46051E-19
 -1       374 9.52349E-05-2.85707E-05-2.85704E-05 1.73081E-09-3.14749E-19-1.27087E-18
 -1       375 9.52355E-05-2.85708E-05-2.85706E-05 1.36183E-09 1.67440E-20-2.06975E-18
 -1       376 9.52359E-05-2.85709E-05-2.85707E-05 1.05394E-09 4.40997E-19-2.14523E-18
 -1       377 9.52362E-05-2.85710E-05-2.85708E-05 8.01780E-10 2.89725E-18-1.15940E-18
 -1       378 9.52365E-05-2.85711E-05-2.85709E-05 5.98709E-10 3.56406E-19-1.21656E-18
 -1       379 9.52367E-05-2.85711E-05-2.85710E-05 4.30478E-10-3.11003E-19-2.04058E-18
 -1       380 9.52369E-05-2.85711E-05-2.85710E-05 3.05623E-10-8.30468E-19-3.30466E-20
 -1       381 9.52370E-05-2.85711E-05-2.85711E-05 2.08637E-10 7.46616E-19 1.45255E-18
 -1       382 9.52370E-05-2.85711E-05-2.85711E-05 1.33527E-10-3.97557E-19-1.92429E-19
 -1       383 9.52371E-05-2.85712E-05-2.85711E-05 7.54114E-11 1.49201E-18-7.74942E-19
 -1       384 9.52371E-05-2.85712E-05-2.85711E-05 3.15376E-11-3.61490E-19 6.06152E-19
 -1       385 8.35729E-05-2.31671E-05-2.58552E-05-8.87663E-07 1.57112E-18-1.43485E-18
 -1       386 8.39396E-05-2.39924E-05-2.56705E-05-3.78735E-06 1.28455E-18-1.69026E-18
 -1       387 8.52045E-05-2.49738E-05-2.58029E-05-5.48860E-06 1.06684E-18-2.02575E-18
 -1       388 8.69625E-05-2.60083E-05-2.61199E-05-6.17143E-06 8.70738E-19-2.09208E-18
 -1       389 8.88536E-05-2.69553E-05-2.65294E-05-6.04329E-06 2.45767E-19-2.06707E-18
 -1       390 9.06124E-05-2.77124E-05-2.69618E-05-5.36088E-06-2.53212E-20-1.84643E-18
 -1       391 9.20881E-05-2.82430E-05-2.73685E-05-4.38915E-06-1.47058E-19-1.47978E-18
 -1       392 9.32299E-05-2.85658E-05-2.77199E-05-3.35072E-06-1.61517E-19-1.04511E-18
 -1       393 9.40550E-05-2.87291E-05-2.80030E-05-2.39725E-06-7.30897E-20-1.11285E-18
 -1       394 9.46144E-05-2.87868E-05-2.82170E-05-1.60805E-06-1.66874E-19-1.30958E-18
 -1       395 9.49696E-05-2.87839E-05-2.83693E-05-1.00576E-06-4.58423E-21-1.47537E-18
 -1       396 9.51783E-05-2.87525E-05-2.84711E-05-5.77292E-07 5.90338E-20-8.71587E-19
 -1       397 9.52880E-05-2.87124E-05-2.85344E-05-2.92226E-07-1.96335E-19-8.83704E-19
 -1       398 9.53348E-05-2.86739E-05-2.85702E-05-1.15655E-07 6.89169E-19-1.31130E-18
 -1       399 9.53447E-05-2.86416E-05-2.85878E-05-1.54824E-08 4.97751E-20-1.82254E-18
 -1       400 9.53349E-05-2.86166E-05-2.85940E-05 3.43780E-08-5.43231E-19-1.06810E-18
 -1       401 9.53167E-05-2.85984E-05-2.85937E-05 5.33662E-08 7.27932E-20-1.32587E-18
 -1       402 9.52964E-05-2.85858E-05-2.85903E-05 5.49896E-08-5.87813E-19-1.17220E-18
 -1       403 9.52776E-05-2.85775E-05-2.85857E-05 4.80462E-08-4.75342E-19-1.42543E-18
 -1       404 9.52619E-05-2.85723E-05-2.85812E-05 3.78883E-08 3.15479E-20-3.51657E-19
 -1       405 9.52498E-05-2.85692E-05-2.85773E-05 2.75080E-08-3.14776E-19 7.04935E-19
 -1       406 9.52410E-05-2.85676E-05-2.85742E-05 1.83768E-08 2.80021E-19 6.81416E-19
 -1       407 9.52351E-05-2.85670E-05-2.85720E-05 1.10481E-08 8.53631E-20 1.91331E-19
 -1       408 9.52314E-05-2.85669E-05-2.85705E-05 5.56465E-09 2.54594E-19 3.55575E-19
 -1       409 9.52294E-05-2.85672E-05-2.85695E-05 1.71757E-09-5.01489E-19-1.20097E-19
 -1       410 9.52287E-05-2.85676E-05-2.85690E-05-7.97791E-10 2.30105E-18 2.63674E-19
 -1       411 9.52288E-05-2.85681E-05-2.85689E-05-2.29573E-09 7.80589E-19 8.37909E-19
 -1       412 9.52294E-05-2.85686E-05-2.85689E-05-3.05753E-09-8.15768E-19 5.89348E-19
 -1       413 9.52302E-05-2.85691E-05-2.85691E-05-3.31489E-09 4.19242E-19 1.09989E-19
 -1       414 9.52312E-05-2.85695E-05-2.85693E-05-3.24769E-09 1.54484E-18 7.28602E-19
 -1       415 9.52321E-05-2.85698E-05-2.85696E-05-2.98901E-09 2.01524E-19 9.32256E-19
 -1       416 9.52330E-05-2.85701E-05-2.85698E-05-2.63291E-09-6.59283E-19 4.11286E-19
 -1       417 9.52339E-05-2.85704E-05-2.85701E-05-2.24278E-09-3.47408E-20-1.44428E-18
 -1       418 9.52346E-05-2.85706E-05-2.85703E-05-1.85891E-09 1.88729E-18-6.01043E-19
 -1       419 9.52352E-05-2.85707E-05-2.85705E-05-1.50486E-09-2.09791E-19 1.43088E-19
 -1       420 9.52356E-05-2.85709E-05-2.85706E-05-1.19254E-09-8.06015E-19 6.09078E-19
 -1       421 9.52360E-05-2.85709E-05-2.85708E-05-9.26128E-10-2.99124E-19 1.59247E-19
 -1       422 9.52363E-05-2.85710E-05-2.85709E-05-7.04857E-10-2.59219E-20-2.04273E-18
 -1       423 9.52366E-05-2.85711E-05-2.85709E-05-5.25088E-10 9.60818E-19-3.34178E-18
 -1       424 9.52368E-05-2.85711E-05-2.85710E-05-3.81668E-10 1.78123E-19-1.59569E-18
 -1       425 9.52369E-05-2.85711E-05-2.85710E-05-2.68831E-10-1.41511E-18-1.84003E-18
 -1       426 9.52370E-05-2.85711E-05-2.85711E-05-1.80941E-10-6.40372E-19-2.51507E-18
 -1       427 9.52371E-05-2.85711E-05-2.85711E-05-1.13268E-10-3.52939E-19-2.20524E-18
 -1       428 9.52371E-05-2.85712E-05-2.85711E-05-6.07019E-11-4.17729E-19-3.37526E-18
 -1       429 9.52371E-05-2.85712E-05-2.85711E-05-2.39104E-11 1.05747E-18-1.27377E-18
 -1       430 9.52372E-05-2.85712E-05-2.85711E-05-9.57990E-11-1.08880E-18 6.23434E-19
 -1       431 9.52371E-05-2.85712E-05-2.85711E-05-7.28429E-11-4.62918E-19 1.64444E-18
 -1       432 9.52372E-05-2.85713E-05-2.85711E-05-1.02176E-10-1.36056E-19-7.03115E-19
 -1       433 9.52372E-05-2.85713E-05-2.85711E-05-8.96583E-11 2.82144E-19 5.12099E-19
 -1       434 9.52372E-05-2.85714E-05-2.85711E-05-6.07386E-11 8.12289E-19-1.33128E-18
 -1       435 9.52372E-05-2.85714E-05-2.85711E-05-2.07897E-11 6.87933E-19-6.54236E-19
 -1       436 9.52372E-05-2.85714E-05-2.85711E-05 2.29031E-11 1.08869E-18-1.44995E-18
 -1       437 9.52372E-05-2.85714E-05-2.85711E-05 6.24750E-11 5.65209E-19-1.42020E-18
 -1       438 9.52372E-05-2.85713E-05-2.85711E-05 9.03639E-11-1.12049E-18 1.91740E-20
 -1       439 9.52372E-05-2.85713E-05-2.85711E-05 1.02239E-10-3.85971E-19 1.72418E-18
 -1       440 9.52372E-05-2.85712E-05-2.85711E-05 9.52047E-11 1.72825E-18-1.63135E-18
 -1       441 9.52371E-05-2.85712E-05-2.85711E-05 7.09686E-11-1.27731E-19-8.43349E-19
 -1       442 8.29066E-05-2.24718E-05-2.58504E-05 2.54058E-06 2.02557E-18-8.67937E-19
 -1       443 6.25159E-05-3.29549E-05-1.27146E-05 5.14145E-05-3.64965E-18 5.40195E-18
 -1       444 1.33655E-04-4.53357E-05-3.78424E-05 3.51026E-05-1.99635E-19 9.73453E-19
 -1       445 2.52616E-05-1.89488E-05-2.89290E-06 3.53061E-05-3.78761E-18 6.66170E-18
 -1       446 8.06548E-05-1.14947E-05-2.96684E-05-3.75639E-05-5.21973E-18-1.05968E-19
 -1       447 1.13671E-05-1.08912E-05-2.61306E-07 9.51183E-06-3.19518E-18 6.13051E-18
 -1       448 1.54120E-04-3.25820E-05-5.18855E-05 1.85932E-05 2.48985E-18-3.85082E-19
 -1       449 1.61511E-04-2.05018E-05-6.01684E-05 1.22432E-05 3.75638E-18-3.30449E-19
 -1       450 1.61254E-04-1.13888E-05-6.41049E-05 7.70712E-06 4.49203E-18-5.14751E-19
 -1       451 1.59860E-04-1.47046E-05-6.22508E-05 5.59778E-06 3.96877E-18 1.76500E-19
 -1       452 1.57133E-04-2.45492E-05-5.68962E-05-3.90388E-06 2.30155E-18 9.43171E-19
 -1       453 1.35271E-04-2.82979E-05-4.61920E-05-2.22865E-05-1.03452E-18 9.56353E-19
 -1       454 1.09374E-04-2.20974E-05-3.76254E-05-3.37228E-05-3.43604E-18 3.45907E-19
 -1       455 1.62858E-04-7.06251E-05-4.03467E-05-5.57343E-06 2.62263E-19 2.20409E-18
 -1       456 1.96403E-04-7.29766E-05-5.29880E-05-2.94710E-05-1.66095E-18 4.72157E-18
 -1       457 9.41895E-05-4.77801E-05-2.01907E-05-4.33376E-05-2.29525E-18 2.79104E-18
 -1       458 5.35953E-05-3.14218E-05-9.78801E-06-3.96950E-05-2.67345E-18 5.42249E-18
 -1       459 1.99901E-05-1.51657E-05-2.18851E-06-1.88841E-05-2.64243E-18 6.40897E-18
 -1       460 1.05189E-04-4.36412E-05-2.62944E-05 4.87283E-05-1.34826E-18 2.81517E-18
 -1       461 1.61450E-04-6.62697E-05-4.12483E-05-8.23479E-06 1.05964E-18 4.13013E-18
 -1       462 9.52371E-05-2.85712E-05-2.85711E-05 5.26831E-11-5.28487E-19 3.68834E-18
 -1       463 9.61214E-05-3.93123E-05-2.55522E-05 1.12754E-05 5.54807E-19-5.47977E-19
 -1       464 1.37621E-04-6.29763E-05-3.23157E-05-3.05364E-05-2.48191E-18 1.66315E-18
 -1       465 1.36510E-04-5.10904E-06-5.68673E-05 8.13727E-06 3.49539E-18-1.69630E-18
 -1       466 1.10289E-04-1.08495E-05-4.26882E-05 1.13845E-05 7.34387E-20-3.54556E-18
 -1       467 1.03052E-04-1.04281E-05-3.97378E-05 1.07836E-05 7.13446E-19-4.15469E-18
 -1       468 9.71860E-05-1.13999E-05-3.67982E-05 1.10657E-05 1.39324E-18-4.28610E-18
 -1       469 9.26321E-05-1.35268E-05-3.39280E-05 1.18363E-05 2.15534E-18-3.89687E-18
 -1       470 8.88933E-05-1.68123E-05-3.09081E-05 1.20997E-05 2.80223E-18-2.69063E-18
 -1       471 8.68719E-05-1.98020E-05-2.87384E-05 9.89565E-06 2.76216E-18-1.55200E-18
 -1       472 9.18723E-05-2.84023E-05-2.67894E-05-3.41365E-05 2.51709E-18 9.45620E-19
 -1       473 8.71375E-05-1.86236E-05-2.93083E-05-1.80231E-05 9.55639E-19 8.41686E-19
 -1       474 9.05288E-05-2.09913E-05-2.97790E-05-1.28711E-05 8.29866E-19 9.66627E-19
 -1       475 9.28205E-05-2.33319E-05-2.97666E-05-8.99693E-06 7.27186E-19 1.04698E-18
 -1       476 9.41813E-05-2.51468E-05-2.95759E-05-6.15920E-06-7.67106E-19 6.11266E-19
 -1       477 9.49077E-05-2.64071E-05-2.93501E-05-4.14401E-06-4.15484E-19 1.09441E-18
 -1       478 9.52535E-05-2.72330E-05-2.91469E-05-2.74855E-06-8.18358E-19-2.11918E-20
 -1       479 9.53959E-05-2.77766E-05-2.89767E-05-1.76733E-06-1.14920E-18 3.13677E-20
 -1       480 9.54263E-05-2.80924E-05-2.88555E-05-1.15084E-06-2.61488E-19 2.91794E-19
 -1       481 9.54109E-05-2.82849E-05-2.87671E-05-7.43589E-07 4.93721E-19 9.53057E-19
 -1       482 9.53791E-05-2.84007E-05-2.87043E-05-4.76930E-07-1.46818E-19 1.07628E-18
 -1       483 9.53450E-05-2.84698E-05-2.86604E-05-3.03251E-07-6.12233E-19 8.43249E-19
 -1       484 9.53148E-05-2.85108E-05-2.86300E-05-1.90554E-07-9.41671E-19 9.95600E-19
 -1       485 9.52902E-05-2.85348E-05-2.86093E-05-1.17619E-07-8.09162E-19 1.81574E-19
 -1       486 9.52707E-05-2.85496E-05-2.85947E-05-6.88265E-08-1.40209E-18-2.70455E-19
 -1       487 9.52573E-05-2.85577E-05-2.85855E-05-3.94055E-08-6.70847E-19-2.85811E-19
 -1       488 9.52479E-05-2.85626E-05-2.85794E-05-2.07109E-08 6.44585E-19-1.79004E-18
 -1       489 9.52416E-05-2.85656E-05-2.85754E-05-9.01636E-09 3.43361E-19-1.71326E-18
 -1       490 9.52376E-05-2.85674E-05-2.85729E-05-1.88964E-09 2.13937E-19-3.95699E-19
 -1       491 9.52352E-05-2.85686E-05-2.85714E-05 2.26405E-09 6.10857E-19-4.47334E-19
 -1       492 9.52338E-05-2.85695E-05-2.85704E-05 4.56743E-09 8.09600E-19-4.79639E-19
 -1       493 9.52333E-05-2.85700E-05-2.85700E-05 5.51807E-09 3.30266E-19 6.25353E-19
 -1       494 9.52333E-05-2.85704E-05-2.85698E-05 5.72090E-09-1.14871E-18 2.47138E-18
 -1       495 9.52335E-05-2.85707E-05-2.85698E-05 5.47751E-09 5.51213E-19 3.32044E-18
 -1       496 9.52339E-05-2.85709E-05-2.85699E-05 4.98720E-09-1.26839E-18 1.26691E-18
 -1       497 9.52344E-05-2.85711E-05-2.85700E-05 4.38124E-09-1.66117E-18-1.28891E-18
 -1       498 9.52348E-05-2.85711E-05-2.85701E-05 3.74341E-09-1.10436E-18-1.98109E-18
 -1       499 9.52353E-05-2.85712E-05-2.85703E-05 3.09673E-09-5.60549E-19-3.41319E-18
 -1       500 9.52356E-05-2.85712E-05-2.85705E-05 2.53243E-09-4.07653E-19-2.52154E-18
 -1       501 9.52360E-05-2.85713E-05-2.85706E-05 2.03374E-09-4.85286E-19-2.17364E-18
 -1       502 9.52362E-05-2.85713E-05-2.85707E-05 1.60531E-09 7.71932E-19-1.63962E-18
 -1       503 9.52365E-05-2.85713E-05-2.85708E-05 1.24570E-09 1.22293E-18-9.15381E-19
 -1       504 9.52366E-05-2.85712E-05-2.85709E-05 9.49733E-10 1.68574E-18-1.31172E-18
 -1       505 9.52368E-05-2.85712E-05-2.85709E-05 6.99990E-10-1.07898E-18-7.45624E-19
 -1       506 9.52369E-05-2.85712E-05-2.85710E-05 5.11727E-10-4.28909E-21 4.88009E-19
 -1       507 9.52370E-05-2.85712E-05-2.85710E-05 3.63864E-10 1.39085E-18 1.52606E-18
 -1       508 9.52370E-05-2.85712E-05-2.85711E-05 2.49013E-10 1.79439E-18 2.28765E-18
 -1       509 9.52371E-05-2.85712E-05-2.85711E-05 1.60853E-10-2.51707E-19 4.81819E-18
 -1       510 9.52371E-05-2.85712E-05-2.85711E-05 1.00017E-10 1.77991E-18 4.53632E-18
 -1       511 9.17597E-05-2.66982E-05-2.78800E-05-7.27881E-06 9.36112E-19-2.05256E-18
 -1       512 9.06432E-05-2.50720E-05-2.80952E-05-5.62751E-06 1.15311E-18-2.24534E-18
 -1       513 9.52371E-05-2.85712E-05-2.85711E-05-1.34966E-10-1.61374E-19 8.71230E-19
 -1       514 8.99303E-05-2.33915E-05-2.85025E-05-2.50329E-06 1.44052E-18-2.29506E-18
 -1       515 9.29819E-05-2.81012E-05-2.78056E-05-7.66839E-06 5.68212E-19-1.86183E-18
 -1       516 9.40563E-05-2.91266E-05-2.78285E-05-7.12250E-06 2.94344E-20-1.90373E-18
 -1       517 9.48475E-05-2.97213E-05-2.79139E-05-6.02485E-06-1.89119E-19-1.44749E-18
 -1       518 9.53395E-05-2.99393E-05-2.80319E-05-4.72084E-06-2.98328E-19-1.35060E-18
 -1       519 9.55880E-05-2.98926E-05-2.81583E-05-3.45801E-06-2.00656E-19-1.30201E-18
 -1       520 9.56710E-05-2.96995E-05-2.82762E-05-2.37616E-06-1.79339E-19-1.10238E-18
 -1       521 9.56586E-05-2.94534E-05-2.83758E-05-1.52792E-06-1.98878E-19-9.59260E-19
 -1       522 9.56016E-05-2.92141E-05-2.84534E-05-9.09137E-07-7.46640E-20-6.37937E-19
 -1       523 9.55308E-05-2.90114E-05-2.85094E-05-4.86344E-07 4.76878E-20-1.25509E-18
 -1       524 9.54627E-05-2.88549E-05-2.85469E-05-2.16086E-07 4.95467E-19-1.70364E-18
 -1       525 9.54042E-05-2.87424E-05-2.85698E-05-5.61930E-08 6.26164E-19-6.95660E-19
 -1       526 9.53572E-05-2.86662E-05-2.85821E-05 2.88545E-08-7.78159E-19-2.26964E-19
 -1       527 9.53209E-05-2.86176E-05-2.85873E-05 6.63375E-08-1.79919E-19-1.69088E-19
 -1       528 9.52937E-05-2.85884E-05-2.85880E-05 7.57757E-08-2.26994E-19 1.42636E-19
 -1       529 9.52738E-05-2.85723E-05-2.85863E-05 7.02973E-08-3.19835E-19 4.72945E-19
 -1       530 9.52595E-05-2.85644E-05-2.85836E-05 5.82027E-08-4.62000E-19 6.05179E-19
 -1       531 9.52494E-05-2.85614E-05-2.85806E-05 4.43777E-08-1.06027E-18 3.98432E-19
 -1       532 9.52426E-05-2.85611E-05-2.85777E-05 3.14295E-08 2.63639E-19 6.56493E-19
 -1       533 9.52380E-05-2.85621E-05-2.85754E-05 2.05313E-08 5.94380E-19 8.07589E-19
 -1       534 9.52352E-05-2.85636E-05-2.85735E-05 1.20137E-08 7.07365E-19 1.13296E-19
 -1       535 9.52335E-05-2.85652E-05-2.85721E-05 5.75502E-09-5.07795E-21-7.26192E-19
 -1       536 9.52328E-05-2.85667E-05-2.85712E-05 1.42631E-09 3.34191E-19-5.51126E-19
 -1       537 9.52325E-05-2.85679E-05-2.85706E-05-1.36511E-09 1.19226E-18 1.44037E-18
 -1       538 9.52327E-05-2.85689E-05-2.85702E-05-2.99789E-09-1.14143E-19 1.70251E-18
 -1       539 9.52330E-05-2.85696E-05-2.85700E-05-3.80029E-09-1.11972E-19 8.74586E-19
 -1       540 9.52335E-05-2.85701E-05-2.85700E-05-4.03800E-09 1.49217E-18 1.41304E-19
 -1       541 9.52340E-05-2.85705E-05-2.85701E-05-3.91526E-09 8.11777E-19 1.69206E-19
 -1       542 9.52345E-05-2.85708E-05-2.85702E-05-3.58221E-09 1.05634E-19-8.47562E-19
 -1       543 9.52350E-05-2.85710E-05-2.85703E-05-3.14458E-09-3.09169E-19-1.69095E-18
 -1       544 9.52354E-05-2.85711E-05-2.85704E-05-2.67339E-09 9.52488E-19 3.77756E-20
 -1       545 9.52358E-05-2.85712E-05-2.85705E-05-2.21360E-09-3.10156E-20 2.86214E-19
 -1       546 9.52361E-05-2.85712E-05-2.85707E-05-1.79138E-09-1.91055E-18 4.82190E-19
 -1       547 9.52363E-05-2.85712E-05-2.85708E-05-1.41974E-09-3.86981E-20 8.75564E-19
 -1       548 9.52365E-05-2.85712E-05-2.85708E-05-1.10300E-09 6.49441E-19 2.51273E-20
 -1       549 9.52367E-05-2.85712E-05-2.85709E-05-8.39927E-10 1.07119E-18-2.74757E-19
 -1       550 9.52368E-05-2.85712E-05-2.85710E-05-6.26047E-10-9.75459E-20-9.68463E-20
 -1       551 9.52369E-05-2.85712E-05-2.85710E-05-4.55245E-10-4.13917E-19 4.38794E-20
 -1       552 9.52370E-05-2.85712E-05-2.85711E-05-3.20753E-10-8.54725E-19-9.91059E-19
 -1       553 9.52370E-05-2.85712E-05-2.85711E-05-2.15471E-10-1.40565E-18-2.33504E-19
 -1       554 9.52372E-05-2.85714E-05-2.85711E-05-1.46379E-10 1.11578E-18-7.28435E-19
 -1       555 9.52372E-05-2.85713E-05-2.85711E-05-1.55180E-10 6.17328E-19 1.03815E-18
 -1       556 9.52371E-05-2.85713E-05-2.85711E-05-1.53263E-10 3.25440E-19 1.71382E-18
 -1       557 5.34906E-05-2.26131E-05-1.27628E-05 4.56803E-05-4.36815E-18 5.82409E-18
 -1       558 9.52373E-05-2.85714E-05-2.85711E-05-1.13128E-10 2.18317E-18-6.51025E-20
 -1       559 9.52373E-05-2.85714E-05-2.85711E-05-6.08720E-11 5.22281E-19-1.48437E-18
 -1       560 9.52373E-05-2.85715E-05-2.85711E-05 1.41792E-12 1.03787E-18-4.16289E-19
 -1       561 9.52373E-05-2.85714E-05-2.85711E-05 6.34646E-11 1.39396E-18-1.05852E-18
 -1       562 9.52373E-05-2.85714E-05-2.85711E-05 1.14283E-10 1.69926E-18-2.72680E-18
 -1       563 9.52372E-05-2.85714E-05-2.85711E-05 1.47141E-10 2.07580E-18 6.95623E-19
 -1       564 9.52372E-05-2.85713E-05-2.85711E-05 1.55332E-10 2.13523E-20-4.22312E-20
 -1       565 9.52371E-05-2.85712E-05-2.85711E-05 1.38084E-10-5.00968E-19-2.10138E-18
 -1       566 1.25484E-04-5.27784E-05-3.11880E-05 3.34757E-05-3.15933E-18-4.63803E-19
 -1       567 2.61172E-05-2.88857E-06-9.28469E-06-6.71102E-06-9.15126E-19 4.98606E-18
 -1       568 8.32417E-05-1.78276E-05-2.78963E-05-2.46826E-05 1.93480E-18 6.18016E-19
 -1       569 1.08472E-04-4.65120E-05-2.62684E-05-3.67688E-05 7.25060E-19 6.48510E-19
 -1       570 1.19456E-04-1.32802E-05-4.56638E-05 1.26321E-05-2.94397E-19-2.49094E-18
 -1       571 1.31424E-04-1.91916E-05-4.84111E-05 1.16003E-05-5.19165E-19-4.95303E-19
 -1       572 3.05093E-05-6.01766E-06-9.83437E-06 2.46954E-05-2.74817E-18 5.70254E-18
 -1       573 1.44056E-04-2.60887E-05-5.09733E-05 7.04879E-07 1.76003E-18-3.13265E-18
 -1       574 1.40074E-04-1.08164E-05-5.59120E-05 6.99623E-07 3.21078E-18-2.88822E-18
 -1       575 1.40909E-04-1.48200E-05-5.45647E-05 1.12504E-05 2.09847E-18 4.21928E-20
 -1       576 1.41752E-04-2.71457E-05-4.94710E-05 1.48440E-06-7.72587E-19 1.07044E-18
 -1       577 5.01476E-05-1.69254E-05-1.37233E-05-3.35065E-05 1.14429E-18 4.07497E-18
 -1       578 1.42891E-04-4.51695E-05-4.21037E-05 1.22618E-05-7.33484E-19-2.49224E-18
 -1       579 7.85342E-05-3.25641E-05-1.91656E-05-3.98855E-05 1.36563E-18 2.22754E-18
 -1       580 9.57864E-05-4.33732E-05-2.21531E-05 4.78049E-05-5.02386E-18 2.88019E-18
 -1       581 8.70068E-05-2.14305E-05-2.80685E-05 4.52478E-06 2.21001E-18-1.87759E-18
 -1       582 8.97786E-05-2.15985E-05-2.92040E-05 2.12082E-06 1.79934E-18-2.38864E-18
 -1       583 1.06109E-04-1.14443E-05-4.05986E-05 7.64360E-06 5.93330E-19-3.45494E-18
 -1       584 8.99910E-05-1.95730E-05-3.01625E-05 6.40382E-06 2.19810E-18-2.55488E-18
 -1       585 7.87134E-05-1.42417E-05-2.76076E-05-9.52247E-06 5.18517E-19 4.01589E-19
 -1       586 9.60884E-05-1.58425E-05-3.43969E-05 6.73774E-06 1.67893E-18-3.47647E-18
 -1       587 4.96637E-05-6.71671E-06-1.79312E-05-2.05663E-05 1.19551E-18 3.06954E-18
 -1       588 8.49681E-05-1.83110E-05-2.85616E-05-7.23930E-06 2.96199E-19-3.70370E-20
 -1       589 8.90615E-05-2.15560E-05-2.89283E-05-5.40231E-06-3.89379E-20-4.23927E-19
 -1       590 9.16363E-05-2.39216E-05-2.90184E-05-3.93739E-06-4.84265E-19-3.81632E-20
 -1       591 9.32044E-05-2.55576E-05-2.89899E-05-2.80483E-06-1.14199E-18-3.11956E-19
 -1       592 9.41645E-05-2.66915E-05-2.89161E-05-1.92813E-06-1.12759E-18-2.40084E-19
 -1       593 9.46818E-05-2.73856E-05-2.88406E-05-1.33011E-06-4.88304E-19-1.78681E-19
 -1       594 9.49697E-05-2.78302E-05-2.87737E-05-9.05947E-07 4.03192E-19 4.32837E-19
 -1       595 9.51238E-05-2.81111E-05-2.87195E-05-6.10796E-07 3.27762E-19 3.11829E-20
 -1       596 9.52020E-05-2.82869E-05-2.86777E-05-4.07754E-07-6.65470E-19 4.03613E-19
 -1       597 9.52384E-05-2.83961E-05-2.86466E-05-2.69258E-07-2.19203E-19 2.95573E-19
 -1       598 9.52527E-05-2.84637E-05-2.86238E-05-1.75304E-07-1.71536E-18-4.55628E-19
 -1       599 9.52561E-05-2.85071E-05-2.86067E-05-1.09539E-07-2.02783E-18-8.38745E-19
 -1       600 9.52543E-05-2.85321E-05-2.85952E-05-6.80615E-08-2.44454E-18-8.14817E-19
 -1       601 9.52509E-05-2.85476E-05-2.85871E-05-4.04524E-08-7.48323E-19-9.18514E-19
 -1       602 9.52474E-05-2.85571E-05-2.85815E-05-2.23030E-08-2.82030E-19-8.04163E-19
 -1       603 9.52442E-05-2.85631E-05-2.85776E-05-1.05723E-08 1.45029E-18-1.63373E-18
 -1       604 9.52418E-05-2.85668E-05-2.85750E-05-3.18247E-09 1.20545E-19-6.10898E-19
 -1       605 9.52399E-05-2.85691E-05-2.85732E-05 1.44035E-09 3.69787E-19-1.29130E-18
 -1       606 9.52386E-05-2.85705E-05-2.85720E-05 3.86485E-09 9.74900E-19-8.55408E-19
 -1       607 9.52378E-05-2.85713E-05-2.85713E-05 5.03577E-09 1.14233E-18-3.91634E-19
 -1       608 9.52372E-05-2.85718E-05-2.85709E-05 5.40274E-09 4.36987E-19 9.37345E-19
 -1       609 9.52369E-05-2.85720E-05-2.85707E-05 5.27488E-09-2.28633E-18 1.26868E-18
 -1       610 9.52368E-05-2.85721E-05-2.85706E-05 4.86301E-09-3.16988E-18 4.39952E-19
 -1       611 9.52367E-05-2.85721E-05-2.85705E-05 4.30791E-09-1.96344E-18-4.60105E-19
 -1       612 9.52367E-05-2.85721E-05-2.85706E-05 3.67239E-09-5.79773E-19 1.94469E-19
 -1       613 9.52368E-05-2.85720E-05-2.85706E-05 3.07610E-09-5.75841E-19 1.10932E-18
 -1       614 9.52368E-05-2.85719E-05-2.85707E-05 2.52280E-09-1.63291E-18-3.40305E-19
 -1       615 9.52369E-05-2.85718E-05-2.85708E-05 2.03006E-09 2.78310E-19-1.79822E-18
 -1       616 9.52369E-05-2.85717E-05-2.85708E-05 1.60453E-09 8.54683E-19-1.73120E-18
 -1       617 9.52370E-05-2.85716E-05-2.85709E-05 1.24591E-09 1.48797E-18-2.00536E-18
 -1       618 9.52370E-05-2.85715E-05-2.85709E-05 9.37145E-10 2.07522E-18-2.29078E-18
 -1       619 9.52370E-05-2.85714E-05-2.85710E-05 7.00500E-10-8.16131E-19-2.43993E-18
 -1       620 9.52371E-05-2.85714E-05-2.85710E-05 5.11984E-10 1.08972E-18-1.09360E-18
 -1       621 9.52371E-05-2.85713E-05-2.85710E-05 3.64043E-10 1.12261E-18-1.19520E-19
 -1       622 9.52371E-05-2.85713E-05-2.85711E-05 2.48870E-10 1.54082E-18-9.19076E-19
 -1       623 9.64111E-05-2.63935E-05-3.00045E-05-7.19875E-06 9.14102E-19-2.25959E-18
 -1       624 9.74467E-05-2.87331E-05-2.94476E-05-8.28195E-06 4.72753E-19-2.04645E-18
 -1       625 9.45561E-05-2.10261E-05-3.15074E-05-1.22791E-07 1.26927E-18-2.86828E-18
 -1       626 9.52371E-05-2.85713E-05-2.85711E-05-2.48491E-10-2.98924E-19 1.99689E-18
 -1       627 9.84577E-05-3.14133E-05-2.87339E-05-6.91722E-06-3.70260E-19-1.78692E-18
 -1       628 9.83213E-05-3.16873E-05-2.85585E-05-5.45746E-06-1.10058E-19-1.90017E-18
 -1       629 9.79108E-05-3.14777E-05-2.84725E-05-3.99815E-06-2.70123E-19-1.95045E-18
 -1       630 9.73815E-05-3.10071E-05-2.84472E-05-2.73771E-06-3.28139E-19-1.69834E-18
 -1       631 9.68519E-05-3.04539E-05-2.84572E-05-1.75031E-06-3.42158E-19-1.61806E-18
 -1       632 9.63906E-05-2.99315E-05-2.84831E-05-1.03275E-06-6.27858E-19-1.42734E-18
 -1       633 9.60243E-05-2.94957E-05-2.85127E-05-5.44300E-07 8.90622E-20-1.06827E-18
 -1       634 9.57525E-05-2.91622E-05-2.85390E-05-2.32988E-07 7.56299E-19-6.90574E-19
 -1       635 9.55616E-05-2.89238E-05-2.85593E-05-4.92210E-08-4.23398E-21-9.70684E-19
 -1       636 9.54336E-05-2.87635E-05-2.85730E-05 4.82442E-08-2.47877E-20-8.48153E-19
 -1       637 9.53513E-05-2.86622E-05-2.85811E-05 9.08115E-08-7.69102E-19-1.46112E-18
 -1       638 9.53004E-05-2.86023E-05-2.85849E-05 1.00862E-07-7.70339E-19-1.13072E-18
 -1       639 9.52700E-05-2.85699E-05-2.85858E-05 9.34610E-08-7.51282E-19 1.65725E-19
 -1       640 9.52527E-05-2.85548E-05-2.85848E-05 7.81950E-08-2.49582E-19 1.02619E-19
 -1       641 9.52432E-05-2.85498E-05-2.85829E-05 6.07758E-08-4.18994E-19-4.24220E-19
 -1       642 9.52383E-05-2.85502E-05-2.85806E-05 4.43102E-08 1.84433E-19-8.29002E-19
 -1       643 9.52360E-05-2.85531E-05-2.85784E-05 3.02465E-08 4.17983E-19-9.21579E-19
 -1       644 9.52351E-05-2.85569E-05-2.85764E-05 1.90407E-08 8.49683E-19-1.14061E-18
 -1       645 9.52348E-05-2.85605E-05-2.85747E-05 1.06012E-08 6.86030E-19-4.87103E-19
 -1       646 9.52349E-05-2.85637E-05-2.85734E-05 4.57209E-09-5.42650E-19-2.18235E-19
 -1       647 9.52351E-05-2.85663E-05-2.85724E-05 5.04053E-10-6.18766E-19 9.93393E-19
 -1       648 9.52354E-05-2.85682E-05-2.85717E-05-2.05058E-09 5.42040E-19 1.47318E-18
 -1       649 9.52357E-05-2.85696E-05-2.85712E-05-3.48997E-09 6.58579E-19 9.23721E-19
 -1       650 9.52359E-05-2.85705E-05-2.85709E-05-4.14424E-09 7.68299E-19 2.80613E-19
 -1       651 9.52361E-05-2.85711E-05-2.85707E-05-4.27338E-09 1.29669E-18-5.19330E-20
 -1       652 9.52363E-05-2.85715E-05-2.85706E-05-4.07360E-09 1.54662E-18-1.43946E-18
 -1       653 9.52364E-05-2.85717E-05-2.85706E-05-3.68723E-09-6.15349E-19 1.46186E-19
 -1       654 9.52366E-05-2.85718E-05-2.85706E-05-3.21343E-09-1.44012E-18 9.91363E-19
 -1       655 9.52367E-05-2.85718E-05-2.85707E-05-2.71806E-09 1.28622E-18 2.15591E-18
 -1       656 9.52368E-05-2.85717E-05-2.85707E-05-2.24231E-09-4.92719E-19 1.41369E-18
 -1       657 9.52369E-05-2.85717E-05-2.85708E-05-1.80961E-09-2.09802E-19-1.54585E-18
 -1       658 9.52369E-05-2.85716E-05-2.85709E-05-1.43113E-09 3.24497E-21-2.01998E-18
 -1       659 9.52370E-05-2.85715E-05-2.85709E-05-1.10991E-09 1.91393E-19-8.51587E-19
 -1       660 9.52370E-05-2.85714E-05-2.85710E-05-8.43896E-10 3.73296E-19-2.20344E-19
 -1       661 9.52370E-05-2.85714E-05-2.85710E-05-6.28166E-10-6.56433E-19 1.36097E-18
 -1       662 9.52371E-05-2.85713E-05-2.85710E-05-4.56661E-10-5.62257E-19 1.80289E-18
 -1       663 9.52371E-05-2.85713E-05-2.85711E-05-3.42124E-10-1.05030E-18 3.35381E-18
 -1       664 9.52372E-05-2.85714E-05-2.85711E-05-2.18007E-10-1.70264E-19-7.90904E-20
 -1       665 9.52373E-05-2.85715E-05-2.85711E-05-1.22148E-10 9.66847E-19-1.93835E-18
 -1       666 9.52374E-05-2.85715E-05-2.85711E-05-4.17090E-11-2.40349E-19-6.12681E-19
 -1       667 9.52373E-05-2.85715E-05-2.85711E-05-1.83719E-10 4.94673E-19 9.23462E-19
 -1       668 9.81789E-05-3.04536E-05-2.90249E-05-8.02202E-06 3.08818E-19-1.72118E-18
 -1       669 9.52374E-05-2.85715E-05-2.85711E-05 4.50717E-11 1.32853E-19 4.08547E-19
 -1       670 9.52373E-05-2.85715E-05-2.85711E-05 1.23802E-10 6.31270E-19-1.25175E-18
 -1       671 9.52373E-05-2.85715E-05-2.85711E-05 1.85172E-10 1.45248E-18-9.83698E-19
 -1       672 9.52372E-05-2.85714E-05-2.85711E-05 2.18216E-10-4.86938E-19-8.90381E-19
 -1       673 4.07972E-05-1.84783E-06-1.60918E-05 6.63995E-06-5.60865E-19 3.51606E-18
 -1       674 6.97305E-05-9.93175E-06-2.55386E-05-1.27518E-05 1.03891E-18 1.13424E-18
 -1       675 1.12674E-04-9.87686E-06-4.41651E-05 9.45836E-06 5.29008E-19-2.99013E-18
 -1       676 1.22398E-04-9.62824E-06-4.86803E-05 1.25791E-05 1.20292E-18-1.79706E-18
 -1       677 1.33068E-04-5.08760E-05-3.53160E-05 1.39254E-05-2.71197E-18-3.32263E-18
 -1       678 1.36255E-04-3.63737E-05-4.31060E-05-1.69098E-06-4.76840E-19-4.60879E-18
 -1       679 7.99413E-05-3.16608E-05-2.03683E-05 4.34569E-05-4.55672E-18 3.30833E-18
 -1       680 1.25751E-04-6.23666E-06-5.17144E-05 1.31256E-06 2.57810E-18-3.21433E-18
 -1       681 1.31015E-04-1.85468E-05-4.86321E-05-4.87658E-06 1.53871E-18-4.37808E-18
 -1       682 9.53535E-05-2.37317E-05-3.06902E-05-4.46078E-06 1.17280E-18-2.56792E-18
 -1       683 1.13342E-04-4.85820E-05-2.76268E-05 3.50111E-05-4.66347E-18 6.46693E-19
 -1       684 5.42884E-05-1.43560E-05-1.66290E-05 3.45097E-05-3.32381E-18 4.84640E-18
 -1       685 1.00686E-04-1.34004E-05-3.74179E-05 6.82379E-06 1.08798E-18-3.75584E-18
 -1       686 9.52372E-05-2.85713E-05-2.85711E-05-2.53937E-10-5.84976E-19 6.55017E-19
 -1       687 9.52372E-05-2.85713E-05-2.85711E-05 2.18196E-10-6.80523E-19-2.55793E-18
 -1       688 1.17263E-04-7.34032E-06-4.73844E-05 6.86443E-06 1.52308E-18-2.97802E-18
 -1       689 9.52375E-05-2.85717E-05-2.85711E-05 1.87881E-12-3.38705E-19-1.30598E-18
 -1       690 8.42151E-05-1.86624E-05-2.80970E-05-1.78322E-06-2.44067E-19-2.13860E-19
 -1       691 8.82734E-05-2.16869E-05-2.85376E-05-1.86335E-06-8.90543E-21 1.47608E-19
 -1       692 9.09276E-05-2.39105E-05-2.87215E-05-1.66728E-06-9.95457E-19 4.27934E-19
 -1       693 9.26844E-05-2.55353E-05-2.87782E-05-1.35919E-06-1.38291E-18 2.47280E-19
 -1       694 9.37182E-05-2.65808E-05-2.87731E-05-1.06152E-06-5.34372E-19 9.44221E-19
 -1       695 9.43534E-05-2.72805E-05-2.87454E-05-7.99023E-07 4.52874E-20 8.03119E-19
 -1       696 9.47363E-05-2.77411E-05-2.87122E-05-5.86018E-07 8.18697E-19-1.19055E-19
 -1       697 9.49626E-05-2.80406E-05-2.86809E-05-4.20976E-07-1.34299E-19 3.95218E-19
 -1       698 9.50936E-05-2.82337E-05-2.86543E-05-2.97007E-07-1.23233E-18-2.02984E-19
 -1       699 9.51675E-05-2.83575E-05-2.86329E-05-2.05765E-07-2.01695E-18-9.61292E-19
 -1       700 9.52093E-05-2.84396E-05-2.86156E-05-1.37187E-07-1.41493E-18-1.54066E-18
 -1       701 9.52296E-05-2.84887E-05-2.86032E-05-9.10847E-08-1.92368E-18-1.43522E-18
 -1       702 9.52394E-05-2.85200E-05-2.85940E-05-5.85740E-08-1.14894E-18 9.95219E-21
 -1       703 9.52435E-05-2.85400E-05-2.85872E-05-3.60087E-08-1.20168E-18-1.17878E-18
 -1       704 9.52447E-05-2.85527E-05-2.85823E-05-2.06019E-08-2.61331E-19-9.71027E-19
 -1       705 9.52444E-05-2.85608E-05-2.85787E-05-1.02974E-08 1.16228E-18-1.86078E-18
 -1       706 9.52436E-05-2.85661E-05-2.85760E-05-3.35936E-09 1.62260E-19-1.52703E-18
 -1       707 9.52425E-05-2.85692E-05-2.85743E-05 6.84255E-10 9.36238E-19-4.48726E-19
 -1       708 9.52416E-05-2.85711E-05-2.85730E-05 3.02543E-09 1.07434E-18-1.53483E-18
 -1       709 9.52407E-05-2.85722E-05-2.85722E-05 4.21491E-09 7.42698E-19-1.36810E-18
 -1       710 9.52400E-05-2.85728E-05-2.85716E-05 4.64903E-09-1.76404E-19-2.25702E-18
 -1       711 9.52393E-05-2.85730E-05-2.85713E-05 4.60830E-09-2.16834E-18-9.70658E-19
 -1       712 9.52389E-05-2.85731E-05-2.85711E-05 4.28764E-09-2.99626E-18-1.33106E-20
 -1       713 9.52384E-05-2.85730E-05-2.85709E-05 3.79555E-09-3.68689E-19 1.18915E-18
 -1       714 9.52381E-05-2.85728E-05-2.85709E-05 3.26987E-09-1.46204E-18 3.08024E-19
 -1       715 9.52379E-05-2.85726E-05-2.85709E-05 2.74495E-09-9.61923E-19 8.17920E-19
 -1       716 9.52377E-05-2.85724E-05-2.85709E-05 2.25399E-09-1.83103E-18 3.13735E-18
 -1       717 9.52376E-05-2.85722E-05-2.85709E-05 1.81455E-09-8.78398E-19 1.20234E-18
 -1       718 9.52374E-05-2.85720E-05-2.85709E-05 1.43370E-09 5.14183E-19 5.63614E-19
 -1       719 9.52374E-05-2.85718E-05-2.85709E-05 1.09821E-09 1.87955E-18 7.67849E-20
 -1       720 9.52373E-05-2.85717E-05-2.85710E-05 8.36175E-10 1.40568E-19-1.06277E-18
 -1       721 9.52372E-05-2.85716E-05-2.85710E-05 6.24212E-10-9.14306E-20-1.20618E-18
 -1       722 9.52372E-05-2.85715E-05-2.85710E-05 4.56540E-10 2.33730E-18-2.68954E-18
 -1       723 9.52372E-05-2.85714E-05-2.85711E-05 3.24981E-10 2.24481E-18-8.26798E-19
 -1       724 9.52374E-05-2.85716E-05-2.85711E-05 2.11987E-10-1.29126E-18-1.60223E-18
 -1       725 1.01849E-04-2.84893E-05-3.14400E-05-8.19876E-06 4.84738E-19-2.48561E-18
 -1       726 1.00839E-04-3.33479E-05-2.89254E-05-3.85133E-06-4.61671E-19-1.48456E-18
 -1       727 1.01947E-04-3.36386E-05-2.92754E-05-5.47355E-06-8.24508E-20-1.74105E-18
 -1       728 9.84404E-05-3.16952E-05-2.86054E-05-1.48095E-06-2.91937E-19-1.27710E-18
 -1       729 9.74687E-05-3.08358E-05-2.85572E-05-7.82463E-07-3.21554E-19-1.31476E-18
 -1       730 9.67186E-05-3.01160E-05-2.85441E-05-3.34686E-07-2.49888E-19-2.01531E-18
 -1       731 9.61749E-05-2.95626E-05-2.85482E-05-6.88431E-08-3.07014E-19-1.89609E-18
 -1       732 9.58017E-05-2.91655E-05-2.85584E-05 7.36633E-08 2.56467E-19-6.47991E-19
 -1       733 9.55580E-05-2.88972E-05-2.85689E-05 1.37671E-07-1.37269E-19-2.67172E-19
 -1       734 9.54066E-05-2.87266E-05-2.85772E-05 1.54900E-07-4.73367E-20-5.59568E-20
 -1       735 9.53174E-05-2.86250E-05-2.85824E-05 1.46564E-07-8.95870E-19 3.75831E-20
 -1       736 9.52681E-05-2.85697E-05-2.85850E-05 1.26120E-07-1.20205E-18 1.11158E-19
 -1       737 9.52432E-05-2.85436E-05-2.85855E-05 1.01668E-07-5.00287E-20-6.96473E-19
 -1       738 9.52323E-05-2.85347E-05-2.85847E-05 7.77589E-08-1.82416E-19-4.51458E-19
 -1       739 9.52290E-05-2.85352E-05-2.85830E-05 5.66519E-08-1.38935E-19-2.58860E-19
 -1       740 9.52293E-05-2.85402E-05-2.85810E-05 3.92136E-08 6.79078E-19-9.26287E-19
 -1       741 9.52310E-05-2.85466E-05-2.85790E-05 2.55149E-08 1.21105E-18-1.74587E-18
 -1       742 9.52331E-05-2.85529E-05-2.85772E-05 1.52124E-08 3.38137E-19-1.33539E-18
 -1       743 9.52349E-05-2.85585E-05-2.85756E-05 7.78412E-09-5.61168E-19-1.68827E-19
 -1       744 9.52362E-05-2.85629E-05-2.85743E-05 2.66786E-09-1.12361E-18-2.75738E-19
 -1       745 9.52372E-05-2.85663E-05-2.85732E-05-6.64414E-10-1.22881E-18 2.28644E-19
 -1       746 9.52378E-05-2.85687E-05-2.85725E-05-2.67104E-09 1.13057E-18 9.74774E-19
 -1       747 9.52381E-05-2.85704E-05-2.85719E-05-3.72907E-09 8.74224E-19 5.21232E-19
 -1       748 9.52382E-05-2.85714E-05-2.85715E-05-4.13611E-09 1.69660E-18-8.26487E-19
 -1       749 9.52382E-05-2.85720E-05-2.85712E-05-4.11879E-09 9.11679E-19-7.70783E-19
 -1       750 9.52381E-05-2.85724E-05-2.85710E-05-3.84404E-09-1.15998E-18 1.76117E-18
 -1       751 9.52380E-05-2.85725E-05-2.85709E-05-3.43065E-09-1.39040E-18 2.89165E-18
 -1       752 9.52378E-05-2.85724E-05-2.85709E-05-2.95997E-09 3.08728E-19 2.00987E-18
 -1       753 9.52377E-05-2.85723E-05-2.85709E-05-2.48504E-09 8.24131E-19-2.81487E-19
 -1       754 9.52376E-05-2.85722E-05-2.85709E-05-2.03824E-09 1.27943E-18-5.02830E-19
 -1       755 9.52375E-05-2.85720E-05-2.85709E-05-1.63726E-09-6.23923E-20-3.23674E-19
 -1       756 9.52374E-05-2.85719E-05-2.85709E-05-1.28978E-09-1.36321E-18-5.83217E-19
 -1       757 9.52373E-05-2.85717E-05-2.85710E-05-9.96862E-10-6.90510E-19 8.80905E-19
 -1       758 9.52373E-05-2.85716E-05-2.85710E-05-7.55647E-10-1.15976E-18 2.74679E-18
 -1       759 9.52372E-05-2.85715E-05-2.85710E-05-5.61590E-10-5.68030E-19 2.49848E-18
 -1       760 9.52374E-05-2.85716E-05-2.85711E-05-1.11995E-10-3.34640E-19-2.82670E-18
 -1       761 9.52373E-05-2.85715E-05-2.85711E-05 2.80184E-10 1.65395E-19-2.99442E-19
 -1       762 9.91721E-05-1.87515E-05-3.44672E-05-8.25658E-08 9.61285E-19-3.14250E-18
 -1       763 5.76732E-05-8.93529E-06-2.06487E-05 1.87713E-05-1.33682E-18 3.08037E-18
 -1       764 9.52372E-05-2.85714E-05-2.85711E-05-3.44840E-10-1.14387E-19 1.49128E-18
 -1       765 6.92236E-05-9.94899E-06-2.53428E-05-7.57256E-07 3.82791E-19 9.32744E-19
 -1       766 9.52374E-05-2.85716E-05-2.85711E-05 1.14643E-10-4.98974E-19-4.73326E-19
 -1       767 1.08269E-04-1.14344E-05-4.15381E-05 2.71593E-06 8.65234E-19-3.42907E-18
 -1       768 9.52373E-05-2.85715E-05-2.85711E-05-2.96151E-10 1.50805E-18 9.37189E-19
 -1       769 9.96007E-05-3.25977E-05-2.87159E-05-2.49560E-06-5.49192E-19-1.29674E-18
 -1       770 5.71789E-05-5.11361E-06-2.20812E-05 2.15094E-06-2.09671E-19 2.16905E-18
 -1       771 1.20613E-04-1.29483E-05-4.64155E-05-3.85076E-06 1.37878E-18-4.14544E-18
 -1       772 7.81226E-05-1.47382E-05-2.71613E-05-1.19580E-06 1.22044E-19 2.65870E-19
 -1       773 1.29740E-04-4.25619E-05-3.75201E-05 5.51623E-07-1.85730E-18-4.45228E-18
 -1       774 1.21338E-04-4.89079E-05-3.10048E-05 2.00716E-05-3.96957E-18-2.37091E-18
 -1       775 1.25824E-04-2.73030E-05-4.24403E-05-6.82992E-06 6.02055E-20-4.76340E-18
 -1       776 7.59094E-05-2.34417E-05-2.22786E-05 3.29414E-05-3.52360E-18 2.57325E-18
 -1       777 1.00287E-04-3.94835E-05-2.59618E-05 3.29547E-05-4.64128E-18 1.32634E-18
 -1       778 1.24564E-04-4.64002E-05-3.35274E-05 7.11493E-06-2.54637E-18-3.42531E-18
 -1       779 9.52374E-05-2.85716E-05-2.85711E-05-2.10677E-10 1.38426E-19-4.15345E-19
 -1       780 1.00571E-04-2.48173E-05-3.24585E-05-6.39027E-06 7.24948E-19-2.87611E-18
 -1       781 1.02636E-04-3.30936E-05-2.98038E-05-7.10561E-06-3.62719E-21-2.14440E-18
 -1       782 9.52372E-05-2.85714E-05-2.85710E-05-4.43639E-10-4.81606E-19 1.27912E-18
 -1       783 1.02632E-04-3.13929E-05-3.05305E-05-8.24682E-06 3.51012E-19-2.50361E-18
 -1       784 1.03707E-04-1.56217E-05-3.77826E-05 1.14757E-06 7.87906E-19-3.32766E-18
 -1       785 8.92599E-05-2.29681E-05-2.84113E-05 6.99192E-07-1.74185E-19 5.50691E-19
 -1       786 9.14511E-05-2.47266E-05-2.85964E-05 3.18349E-08-1.38855E-18 4.18149E-19
 -1       787 9.28301E-05-2.59379E-05-2.86681E-05-2.46183E-07-2.55123E-19 9.74151E-19
 -1       788 9.37329E-05-2.67934E-05-2.86884E-05-3.37033E-07-2.53641E-19 9.34148E-19
 -1       789 9.43132E-05-2.73841E-05-2.86839E-05-3.35069E-07-1.02435E-18-5.61327E-20
 -1       790 9.46800E-05-2.77851E-05-2.86693E-05-2.92763E-07 5.13679E-19-7.79110E-19
 -1       791 9.49083E-05-2.80539E-05-2.86519E-05-2.37906E-07-1.68053E-18-1.50084E-18
 -1       792 9.50485E-05-2.82327E-05-2.86353E-05-1.83981E-07-1.25747E-18-2.15602E-18
 -1       793 9.51361E-05-2.83555E-05-2.86203E-05-1.34962E-07-1.71130E-18-2.16204E-18
 -1       794 9.51848E-05-2.84315E-05-2.86086E-05-9.71186E-08-1.18265E-18-1.55907E-18
 -1       795 9.52131E-05-2.84816E-05-2.85992E-05-6.74883E-08-7.76509E-19 1.80292E-19
 -1       796 9.52291E-05-2.85145E-05-2.85920E-05-4.51124E-08-1.59028E-18 6.22584E-19
 -1       797 9.52377E-05-2.85361E-05-2.85864E-05-2.86877E-08-2.53903E-19 1.43120E-18
 -1       798 9.52420E-05-2.85503E-05-2.85821E-05-1.69497E-08-1.00164E-18 1.53677E-18
 -1       799 9.52438E-05-2.85599E-05-2.85788E-05-8.50238E-09 5.37085E-19 1.88564E-19
 -1       800 9.52442E-05-2.85657E-05-2.85765E-05-3.19463E-09-1.01892E-19-1.05059E-18
 -1       801 9.52440E-05-2.85694E-05-2.85748E-05 1.89081E-10 8.19177E-19-1.65556E-18
 -1       802 9.52433E-05-2.85716E-05-2.85736E-05 2.19756E-09 8.32105E-19-1.89625E-18
 -1       803 9.52425E-05-2.85729E-05-2.85727E-05 3.25404E-09-2.06545E-19-2.55154E-18
 -1       804 9.52417E-05-2.85735E-05-2.85721E-05 3.67348E-09-9.93326E-19-1.93056E-18
 -1       805 9.52409E-05-2.85738E-05-2.85716E-05 3.68513E-09-2.10237E-18-1.89830E-18
 -1       806 9.52402E-05-2.85737E-05-2.85714E-05 3.43648E-09-1.12535E-18-1.80335E-18
 -1       807 9.52396E-05-2.85736E-05-2.85712E-05 3.06839E-09-5.26078E-19-1.44362E-18
 -1       808 9.52391E-05-2.85733E-05-2.85711E-05 2.64856E-09-3.13835E-19 7.63863E-19
 -1       809 9.52387E-05-2.85730E-05-2.85710E-05 2.22506E-09-4.16721E-19 5.44785E-19
 -1       810 9.52383E-05-2.85727E-05-2.85710E-05 1.82674E-09-1.62880E-18 2.20187E-18
 -1       811 9.52380E-05-2.85725E-05-2.85710E-05 1.46895E-09 3.99669E-20 2.91598E-18
 -1       812 9.52378E-05-2.85722E-05-2.85710E-05 1.14499E-09 1.22267E-18 2.04574E-18
 -1       813 9.52376E-05-2.85720E-05-2.85710E-05 8.86347E-10-2.81213E-19 1.37199E-18
 -1       814 9.52375E-05-2.85718E-05-2.85710E-05 6.73325E-10 5.53246E-19 1.61746E-18
 -1       815 9.52374E-05-2.85717E-05-2.85710E-05 5.02487E-10 3.45915E-19 2.52644E-18
 -1       816 9.52373E-05-2.85716E-05-2.85710E-05 3.79658E-10 4.90158E-19 1.20502E-18
 -1       817 6.75840E-05-1.10718E-05-2.41388E-05 1.08362E-05-6.95163E-19 2.04657E-18
 -1       818 8.61746E-05-2.07500E-05-2.80395E-05 1.97665E-06 9.14254E-20-1.49515E-20
 -1       819 9.74991E-05-3.07789E-05-2.85945E-05 2.61775E-07-5.45213E-21-1.34478E-18
 -1       820 9.86879E-05-3.18157E-05-2.86595E-05-9.30422E-09-2.37678E-19-1.16007E-18
 -1       821 9.60684E-05-2.94152E-05-2.85657E-05 3.76852E-07-2.67491E-19-4.51355E-19
 -1       822 9.56948E-05-2.90318E-05-2.85699E-05 3.41018E-07-6.84984E-21-1.56631E-19
 -1       823 9.54657E-05-2.87880E-05-2.85761E-05 2.87056E-07-3.22785E-19-5.49177E-19
 -1       824 9.53333E-05-2.86431E-05-2.85815E-05 2.30318E-07-1.19910E-18 3.13610E-20
 -1       825 9.52624E-05-2.85641E-05-2.85850E-05 1.78228E-07-1.25094E-18 3.60454E-19
 -1       826 9.52287E-05-2.85269E-05-2.85865E-05 1.33714E-07-6.10963E-19 1.73575E-19
 -1       827 9.52162E-05-2.85145E-05-2.85864E-05 9.74318E-08 5.37596E-19-3.01950E-19
 -1       828 9.52147E-05-2.85156E-05-2.85853E-05 6.88553E-08-5.47743E-19-2.12689E-19
 -1       829 9.52182E-05-2.85231E-05-2.85836E-05 4.69597E-08 1.39746E-19-2.97588E-20
 -1       830 9.52234E-05-2.85329E-05-2.85816E-05 3.05998E-08 1.48950E-18-5.25500E-20
 -1       831 9.52284E-05-2.85425E-05-2.85797E-05 1.86821E-08 7.23345E-19 1.35921E-19
 -1       832 9.52326E-05-2.85510E-05-2.85778E-05 1.02373E-08-3.07734E-19 3.44304E-19
 -1       833 9.52357E-05-2.85579E-05-2.85762E-05 4.44722E-09-4.79155E-19 4.93155E-19
 -1       834 9.52378E-05-2.85631E-05-2.85749E-05 6.41683E-10-1.58741E-18-1.53102E-19
 -1       835 9.52391E-05-2.85669E-05-2.85738E-05-1.71452E-09-2.50020E-19-1.15060E-18
 -1       836 9.52398E-05-2.85696E-05-2.85730E-05-3.03954E-09 4.20359E-20 5.98003E-20
 -1       837 9.52400E-05-2.85713E-05-2.85723E-05-3.65334E-09 1.58846E-18 4.41918E-19
 -1       838 9.52400E-05-2.85723E-05-2.85718E-05-3.79579E-09 1.58874E-18-7.22479E-19
 -1       839 9.52397E-05-2.85729E-05-2.85715E-05-3.64264E-09-2.56552E-18 2.78954E-19
 -1       840 9.52394E-05-2.85731E-05-2.85713E-05-3.31955E-09-2.04287E-18 1.94963E-18
 -1       841 9.52391E-05-2.85731E-05-2.85711E-05-2.91371E-09 1.88979E-19 1.28159E-18
 -1       842 9.52387E-05-2.85730E-05-2.85710E-05-2.48331E-09 1.32249E-18 1.09289E-18
 -1       843 9.52384E-05-2.85728E-05-2.85710E-05-2.06525E-09 6.64222E-19 1.96720E-18
 -1       844 9.52381E-05-2.85725E-05-2.85710E-05-1.68114E-09 8.57363E-19 1.12149E-18
 -1       845 9.52379E-05-2.85723E-05-2.85710E-05-1.34192E-09 2.42404E-19 1.61432E-18
 -1       846 9.52377E-05-2.85721E-05-2.85710E-05-1.05138E-09-2.97337E-18 7.80299E-19
 -1       847 9.52376E-05-2.85719E-05-2.85710E-05-8.08667E-10-1.62869E-18 1.56713E-18
 -1       848 9.52374E-05-2.85717E-05-2.85710E-05-6.11239E-10-2.44134E-18 1.11258E-18
 -1       849 9.52376E-05-2.85718E-05-2.85711E-05-7.40510E-11-1.67942E-18-2.06469E-18
 -1       850 7.65502E-05-1.50271E-05-2.63525E-05 6.37459E-06-6.94974E-19 5.17814E-19
 -1       851 9.52375E-05-2.85717E-05-2.85711E-05 2.95842E-10 1.19454E-18-1.43790E-18
 -1       852 7.68559E-05-1.97488E-05-2.43925E-05 2.26029E-05-2.20382E-18 1.59649E-18
 -1       853 9.52373E-05-2.85715E-05-2.85710E-05-3.77362E-10-9.98868E-19 1.65609E-18
 -1       854 9.66469E-05-2.99839E-05-2.85699E-05 3.66427E-07-6.35832E-19-1.05532E-18
 -1       855 1.04200E-04-3.54133E-05-2.94805E-05-2.89756E-06-7.12477E-19-2.14310E-18
 -1       856 8.21558E-05-1.81472E-05-2.74303E-05 3.68214E-06-3.11599E-19-3.76074E-19
 -1       857 1.12191E-04-1.76585E-05-4.06145E-05-5.11778E-06 6.63348E-19-3.65445E-18
 -1       858 1.09958E-04-4.25310E-05-2.88544E-05 2.11901E-05-3.98558E-18-1.12042E-18
 -1       859 9.24480E-05-3.16150E-05-2.60224E-05 2.65904E-05-3.54404E-18 1.12697E-18
 -1       860 1.21902E-04-3.43545E-05-3.76082E-05-6.19765E-06-6.21907E-19-3.73215E-18
 -1       861 9.52375E-05-2.85717E-05-2.85711E-05-2.13662E-10-1.74177E-18-2.54936E-18
 -1       862 1.16451E-04-4.44868E-05-3.08511E-05 1.15951E-05-2.80114E-18-1.78786E-18
 -1       863 1.06746E-04-2.05732E-05-3.69407E-05-5.14600E-06 6.79187E-19-3.29604E-18
 -1       864 1.05941E-04-2.70139E-05-3.38401E-05-7.76603E-06 3.17981E-19-2.96122E-18
 -1       865 1.06063E-04-3.57082E-05-3.01521E-05-4.76099E-06-3.47486E-19-2.26813E-18
 -1       866 1.00251E-04-3.30606E-05-2.87961E-05-5.51735E-07-2.75608E-19-1.58925E-18
 -1       867 9.52374E-05-2.85716E-05-2.85710E-05-4.90332E-10-8.61257E-19 1.01923E-18
 -1       868 9.52376E-05-2.85718E-05-2.85711E-05 7.69442E-11-1.56294E-18 1.43540E-18
 -1       869 1.21072E-04-4.05416E-05-3.45226E-05-1.96854E-06-1.28630E-18-2.61913E-18
 -1       870 9.52375E-05-2.85718E-05-2.85711E-05 1.96380E-10 1.43120E-19-1.53683E-18
 -1       871 1.02142E-04-3.43590E-05-2.90501E-05-1.48509E-06-8.46869E-19-1.47832E-18
 -1       872 1.07251E-04-3.16991E-05-3.23781E-05-8.11077E-06 2.81825E-19-2.55342E-18
 -1       873 9.52374E-05-2.85716E-05-2.85711E-05-3.19188E-10-1.33899E-18-7.83623E-19
 -1       874 1.12838E-04-2.71008E-05-3.67569E-05-7.78205E-06 1.35065E-19-3.35450E-18
 -1       875 8.12919E-05-2.00465E-05-2.62276E-05 1.46669E-05-1.40358E-18 1.54153E-19
 -1       876 9.23820E-05-2.57534E-05-2.85551E-05 1.03861E-06-7.30673E-19-5.60856E-19
 -1       877 9.33392E-05-2.65650E-05-2.86175E-05 4.63452E-07-3.11770E-19-2.07329E-19
 -1       878 9.39977E-05-2.71667E-05-2.86419E-05 1.51222E-07-1.03362E-18-5.65197E-20
 -1       879 9.44411E-05-2.76003E-05-2.86461E-05-5.26474E-09-5.10678E-19-7.65016E-20
 -1       880 9.47342E-05-2.79062E-05-2.86406E-05-7.33906E-08-1.60981E-18-1.27387E-18
 -1       881 9.49253E-05-2.81194E-05-2.86311E-05-9.37634E-08-1.94744E-18-1.07050E-18
 -1       882 9.50528E-05-2.82720E-05-2.86203E-05-9.00924E-08-1.80247E-18-1.70571E-18
 -1       883 9.51288E-05-2.83705E-05-2.86107E-05-7.64521E-08-1.38460E-18-6.13265E-19
 -1       884 9.51765E-05-2.84378E-05-2.86023E-05-6.00510E-08-3.92752E-19-1.36184E-18
 -1       885 9.52059E-05-2.84836E-05-2.85953E-05-4.44745E-08-3.32424E-19-5.21060E-19
 -1       886 9.52238E-05-2.85147E-05-2.85896E-05-3.11954E-08-4.66153E-19 3.05251E-19
 -1       887 9.52342E-05-2.85358E-05-2.85851E-05-2.06081E-08-7.72541E-19-2.50358E-19
 -1       888 9.52403E-05-2.85505E-05-2.85813E-05-1.22829E-08 6.86276E-19 8.77529E-19
 -1       889 9.52432E-05-2.85598E-05-2.85786E-05-6.61815E-09-1.28312E-19 1.62888E-18
 -1       890 9.52444E-05-2.85658E-05-2.85765E-05-2.70821E-09-5.56912E-19 1.31291E-18
 -1       891 9.52446E-05-2.85697E-05-2.85750E-05-1.54476E-10-6.26617E-19-6.90385E-19
 -1       892 9.52442E-05-2.85721E-05-2.85738E-05 1.39877E-09-6.18651E-19-1.65605E-18
 -1       893 9.52435E-05-2.85734E-05-2.85729E-05 2.24113E-09-8.89412E-22-3.23925E-18
 -1       894 9.52427E-05-2.85740E-05-2.85723E-05 2.59850E-09-4.39443E-19-1.96179E-18
 -1       895 9.52418E-05-2.85743E-05-2.85718E-05 2.63613E-09-2.16813E-18-8.23508E-19
 -1       896 9.52410E-05-2.85742E-05-2.85715E-05 2.47878E-09-8.13377E-19-1.32146E-18
 -1       897 9.52403E-05-2.85739E-05-2.85713E-05 2.22054E-09 5.44725E-19-2.44858E-18
 -1       898 9.52397E-05-2.85736E-05-2.85712E-05 1.91924E-09 8.42207E-19-5.97546E-19
 -1       899 9.52392E-05-2.85733E-05-2.85711E-05 1.61223E-09 8.49051E-20 7.98510E-19
 -1       900 9.52387E-05-2.85729E-05-2.85710E-05 1.32179E-09-1.36208E-18 1.88510E-19
 -1       901 9.52383E-05-2.85726E-05-2.85710E-05 1.04898E-09-5.71470E-20-1.30644E-18
 -1       902 9.52380E-05-2.85723E-05-2.85710E-05 8.25232E-10-4.27584E-19-2.32502E-18
 -1       903 9.52378E-05-2.85721E-05-2.85710E-05 6.36833E-10 3.15562E-19-1.47416E-18
 -1       904 9.52376E-05-2.85719E-05-2.85710E-05 4.83506E-10 1.59864E-18-9.56659E-19
 -1       905 9.52375E-05-2.85718E-05-2.85710E-05 3.80944E-10 2.94563E-19-2.29970E-18
 -1       906 9.81851E-05-3.13496E-05-2.86441E-05 1.33803E-06-1.28072E-19-1.27266E-18
 -1       907 8.90641E-05-2.33585E-05-2.81577E-05 3.86648E-06 1.16139E-19 9.84009E-20
 -1       908 9.54861E-05-2.88061E-05-2.85771E-05 5.06816E-07-9.08088E-20-1.61775E-20
 -1       909 9.57775E-05-2.91072E-05-2.85730E-05 6.88724E-07-7.30649E-19-3.77224E-19
 -1       910 9.52382E-05-2.85372E-05-2.85861E-05 2.56628E-07-1.35484E-18-6.15688E-19
 -1       911 9.52014E-05-2.84955E-05-2.85883E-05 1.77863E-07-8.24834E-19-4.76772E-19
 -1       912 9.51911E-05-2.84841E-05-2.85887E-05 1.21243E-07 2.70709E-19-4.82861E-19
 -1       913 9.51940E-05-2.84888E-05-2.85879E-05 8.11517E-08-7.59532E-19 1.37606E-19
 -1       914 9.52024E-05-2.85010E-05-2.85863E-05 5.30589E-08-7.89461E-19 2.91819E-19
 -1       915 9.52121E-05-2.85154E-05-2.85843E-05 3.35725E-08 1.07037E-18 7.96727E-19
 -1       916 9.52210E-05-2.85294E-05-2.85821E-05 2.02095E-08 3.02628E-19 1.94765E-18
 -1       917 9.52283E-05-2.85414E-05-2.85801E-05 1.11771E-08 6.69054E-20 3.14096E-18
 -1       918 9.52336E-05-2.85512E-05-2.85782E-05 5.19346E-09 9.25763E-20 2.71710E-18
 -1       919 9.52373E-05-2.85587E-05-2.85765E-05 1.34581E-09 1.77290E-19 1.05408E-18
 -1       920 9.52397E-05-2.85643E-05-2.85752E-05-1.01784E-09-2.22350E-19 4.01046E-19
 -1       921 9.52410E-05-2.85681E-05-2.85741E-05-2.36271E-09-6.29742E-19-1.66437E-19
 -1       922 9.52415E-05-2.85707E-05-2.85732E-05-3.02080E-09 6.43933E-19-7.15023E-19
 -1       923 9.52416E-05-2.85723E-05-2.85725E-05-3.22858E-09 2.06778E-18-7.17794E-19
 -1       924 9.52413E-05-2.85732E-05-2.85720E-05-3.15327E-09-1.43161E-18-2.41668E-21
 -1       925 9.52408E-05-2.85736E-05-2.85717E-05-2.91192E-09-2.42400E-18-4.13376E-19
 -1       926 9.52403E-05-2.85737E-05-2.85714E-05-2.58496E-09-1.34414E-18 1.28496E-18
 -1       927 9.52398E-05-2.85735E-05-2.85713E-05-2.22618E-09 6.55452E-19 1.42242E-18
 -1       928 9.52393E-05-2.85733E-05-2.85711E-05-1.87011E-09 1.04384E-19 1.35282E-18
 -1       929 9.52389E-05-2.85730E-05-2.85711E-05-1.53764E-09 1.85198E-18 1.39237E-18
 -1       930 9.52385E-05-2.85727E-05-2.85710E-05-1.23999E-09 9.53934E-19 8.30712E-19
 -1       931 9.52382E-05-2.85725E-05-2.85710E-05-9.81955E-10-1.49267E-18 1.37547E-19
 -1       932 9.52379E-05-2.85722E-05-2.85710E-05-7.63812E-10-3.67465E-18 2.47373E-19
 -1       933 9.52377E-05-2.85720E-05-2.85710E-05-5.85492E-10-1.00884E-18 3.70406E-19
 -1       934 1.07252E-04-3.46448E-05-3.11146E-05-6.74263E-06-7.78398E-20-2.09734E-18
 -1       935 9.62629E-05-2.95885E-05-2.85747E-05 9.06424E-07-8.15483E-19-1.05166E-18
 -1       936 9.53223E-05-2.86304E-05-2.85822E-05 3.63995E-07-4.79613E-19-6.10107E-19
 -1       937 9.09895E-05-2.46765E-05-2.84197E-05 2.08131E-06-1.07956E-18-7.47270E-19
 -1       938 9.04909E-05-2.77763E-05-2.68665E-05 1.89033E-05-2.16038E-18 5.60643E-19
 -1       939 1.02553E-04-3.66091E-05-2.82556E-05 1.78654E-05-2.64143E-18-5.57796E-19
 -1       940 9.70301E-05-3.03148E-05-2.85922E-05 1.14049E-06-8.54297E-19-6.53538E-19
 -1       941 1.17246E-04-4.24645E-05-3.20518E-05 2.59429E-06-1.45294E-18-2.09852E-18
 -1       942 8.46392E-05-2.11402E-05-2.72087E-05 9.67972E-06-2.88888E-19 3.31605E-19
 -1       943 9.52376E-05-2.85719E-05-2.85710E-05 2.62965E-10 2.05516E-18-3.83619E-19
 -1       944 9.98299E-05-3.27242E-05-2.87595E-05 1.42048E-06-4.22182E-19-9.11047E-19
 -1       945 1.14317E-04-3.34538E-05-3.46582E-05-7.12387E-06-2.42301E-19-3.24372E-18
 -1       946 9.52376E-05-2.85718E-05-2.85710E-05-4.74512E-10-1.43830E-18-7.96305E-19
 -1       947 1.08979E-04-4.01223E-05-2.95177E-05 1.19211E-05-2.38982E-18-3.82111E-19
 -1       948 9.52378E-05-2.85720E-05-2.85710E-05 7.11851E-13-5.08530E-19 5.54921E-19
 -1       949 8.70279E-05-2.21884E-05-2.77858E-05 6.22546E-06-8.03776E-20 5.24416E-19
 -1       950 1.07835E-04-3.76148E-05-3.00971E-05-1.06654E-06-6.37538E-19-1.58594E-18
 -1       951 9.52377E-05-2.85719E-05-2.85710E-05-1.92462E-10-2.48166E-19-5.41515E-18
 -1       952 1.04792E-04-3.61915E-05-2.93985E-05 4.54073E-07-1.21008E-18-1.91669E-18
 -1       953 9.39409E-05-2.72126E-05-2.85978E-05 8.00818E-07-7.18734E-19-4.40327E-19
 -1       954 9.43457E-05-2.75716E-05-2.86175E-05 4.09626E-07-1.30526E-18-8.95630E-19
 -1       955 9.46358E-05-2.78481E-05-2.86233E-05 1.85189E-07-1.37296E-18-7.24849E-19
 -1       956 9.48391E-05-2.80552E-05-2.86217E-05 6.35158E-08-1.15594E-18 6.85160E-20
 -1       957 9.49838E-05-2.82128E-05-2.86162E-05 4.06345E-10-2.36377E-18 3.50506E-19
 -1       958 9.50763E-05-2.83204E-05-2.86097E-05-2.47763E-08-5.13296E-19 1.86880E-19
 -1       959 9.51382E-05-2.83977E-05-2.86031E-05-3.19751E-08-9.99490E-19-5.49019E-20
 -1       960 9.51790E-05-2.84527E-05-2.85970E-05-3.03633E-08 3.45374E-19 2.80684E-19
 -1       961 9.52056E-05-2.84916E-05-2.85917E-05-2.51021E-08 4.58724E-19-7.12609E-19
 -1       962 9.52226E-05-2.85190E-05-2.85872E-05-1.89287E-08-8.02159E-19-8.35967E-19
 -1       963 9.52335E-05-2.85389E-05-2.85834E-05-1.29675E-08 8.75850E-19 3.98356E-19
 -1       964 9.52395E-05-2.85519E-05-2.85804E-05-8.31734E-09 7.20343E-19 9.23401E-19
 -1       965 9.52428E-05-2.85607E-05-2.85781E-05-4.75820E-09-7.04602E-19-5.59942E-19
 -1       966 9.52444E-05-2.85665E-05-2.85762E-05-2.20492E-09-1.42390E-18 4.80679E-19
 -1       967 9.52448E-05-2.85702E-05-2.85748E-05-4.81342E-10-1.05659E-18 6.54930E-20
 -1       968 9.52446E-05-2.85725E-05-2.85737E-05 6.00962E-10-5.84032E-19-1.48776E-18
 -1       969 9.52439E-05-2.85738E-05-2.85729E-05 1.21424E-09 1.17796E-19-1.14970E-18
 -1       970 9.52431E-05-2.85744E-05-2.85723E-05 1.50543E-09-1.03909E-18-6.17311E-19
 -1       971 9.52422E-05-2.85745E-05-2.85719E-05 1.56334E-09-7.56462E-19 1.06665E-18
 -1       972 9.52414E-05-2.85744E-05-2.85716E-05 1.49081E-09-1.16059E-18 2.07434E-18
 -1       973 9.52406E-05-2.85741E-05-2.85714E-05 1.34554E-09 1.07393E-18 7.74821E-19
 -1       974 9.52399E-05-2.85738E-05-2.85712E-05 1.16726E-09-1.48647E-19-1.42796E-18
 -1       975 9.52393E-05-2.85734E-05-2.85711E-05 9.81374E-10-2.45726E-19-2.68110E-18
 -1       976 9.52388E-05-2.85730E-05-2.85711E-05 7.95787E-10-2.52951E-19 3.13333E-19
 -1       977 9.52384E-05-2.85726E-05-2.85710E-05 6.37100E-10-1.10017E-18 5.64405E-19
 -1       978 9.52381E-05-2.85723E-05-2.85710E-05 4.99810E-10-7.56242E-20-2.69696E-19
 -1       979 9.52378E-05-2.85721E-05-2.85710E-05 3.85743E-10 7.79943E-19-1.58943E-18
 -1       980 9.52377E-05-2.85720E-05-2.85710E-05 3.20362E-10 1.31887E-18-7.00150E-19
 -1       981 1.13681E-04-3.71217E-05-3.28096E-05-5.09288E-06-6.51205E-19-2.72183E-18
 -1       982 9.51506E-05-2.84360E-05-2.85920E-05 1.47722E-07-7.95991E-19-1.07030E-18
 -1       983 9.51486E-05-2.84357E-05-2.85913E-05 2.32491E-07-1.13272E-18-1.01525E-18
 -1       984 9.51809E-05-2.84720E-05-2.85895E-05 5.63813E-08-7.15091E-19 5.63551E-19
 -1       985 9.51973E-05-2.84937E-05-2.85873E-05 3.34427E-08 3.65751E-20 4.54870E-20
 -1       986 9.52113E-05-2.85134E-05-2.85848E-05 1.89366E-08-4.55824E-19 8.50663E-19
 -1       987 9.52223E-05-2.85300E-05-2.85824E-05 9.88133E-09-5.36759E-19 4.52380E-19
 -1       988 9.52304E-05-2.85433E-05-2.85802E-05 4.30863E-09 4.94692E-19 2.31401E-19
 -1       989 9.52359E-05-2.85534E-05-2.85782E-05 9.67650E-10 7.73655E-19-1.65199E-19
 -1       990 9.52395E-05-2.85608E-05-2.85766E-05-9.55742E-10-8.88137E-19 9.75742E-19
 -1       991 9.52416E-05-2.85661E-05-2.85752E-05-1.98184E-09 4.58274E-19 7.80131E-19
 -1       992 9.52426E-05-2.85696E-05-2.85741E-05-2.44506E-09 5.67823E-19-7.75435E-19
 -1       993 9.52428E-05-2.85719E-05-2.85732E-05-2.56140E-09 1.05215E-18-4.80403E-19
 -1       994 9.52426E-05-2.85732E-05-2.85726E-05-2.47147E-09 1.14196E-19 1.26798E-18
 -1       995 9.52421E-05-2.85739E-05-2.85721E-05-2.26617E-09-2.05009E-18 1.78325E-18
 -1       996 9.52415E-05-2.85741E-05-2.85717E-05-2.00501E-09-2.29346E-18 1.99204E-18
 -1       997 9.52408E-05-2.85740E-05-2.85715E-05-1.72586E-09 1.03813E-20 3.00169E-19
 -1       998 9.52402E-05-2.85738E-05-2.85713E-05-1.45233E-09 1.39464E-18 5.60181E-19
 -1       999 9.52396E-05-2.85735E-05-2.85712E-05-1.19824E-09 8.74502E-19-2.11130E-19
 -1      1000 9.52391E-05-2.85732E-05-2.85711E-05-9.71293E-10 5.97912E-19 7.70074E-20
 -1      1001 9.52387E-05-2.85728E-05-2.85711E-05-7.73829E-10-2.35014E-19 1.09483E-18
 -1      1002 9.52383E-05-2.85725E-05-2.85710E-05-6.07075E-10-1.98223E-18-1.23397E-19
 -1      1003 9.52380E-05-2.85722E-05-2.85710E-05-4.68618E-10-2.23622E-18-2.20433E-18
 -1      1004 9.62460E-05-2.95714E-05-2.85747E-05 1.67417E-06-7.70823E-19-4.06178E-19
 -1      1005 1.02045E-04-3.44082E-05-2.89868E-05 1.19409E-06-7.35124E-19-1.61335E-18
 -1      1006 9.54065E-05-2.87250E-05-2.85777E-05 8.13964E-07-2.75252E-19-5.45497E-19
 -1      1007 9.73057E-05-3.18722E-05-2.80385E-05 1.40541E-05-1.35728E-18 1.57631E-19
 -1      1008 9.57110E-05-2.90412E-05-2.85726E-05 1.18412E-06-1.57110E-18 4.07746E-19
 -1      1009 9.51640E-05-2.84511E-05-2.85912E-05 9.22636E-08-8.94281E-19 3.79663E-19
 -1      1010 9.33936E-05-2.67675E-05-2.85539E-05 1.45593E-06-3.65117E-19-1.63361E-19
 -1      1011 9.00961E-05-2.61187E-05-2.74167E-05 1.35099E-05-8.62157E-19 8.23947E-19
 -1      1012 9.52377E-05-2.85719E-05-2.85710E-05 1.40282E-10 5.05896E-19 8.32730E-19
 -1      1013 9.71274E-05-3.04034E-05-2.85961E-05 2.28396E-06-7.13934E-19-3.14802E-19
 -1      1014 1.11807E-04-4.07813E-05-3.04388E-05 4.97809E-06-1.33398E-18-9.87654E-19
 -1      1015 9.85283E-05-3.16425E-05-2.86660E-05 2.93191E-06-1.13477E-19-2.73872E-19
 -1      1016 9.26679E-05-2.62435E-05-2.84670E-05 2.55218E-06-5.60011E-19 1.10330E-19
 -1      1017 9.09599E-05-2.54045E-05-2.80921E-05 6.63520E-06-5.41370E-19-2.73777E-19
 -1      1018 9.52459E-05-2.85500E-05-2.85838E-05 5.46381E-07-5.43768E-19-3.33868E-19
 -1      1019 9.51728E-05-2.84662E-05-2.85885E-05 3.59667E-07-6.78800E-19 7.23016E-19
 -1      1020 9.52379E-05-2.85721E-05-2.85710E-05-3.13876E-10-8.20950E-20-2.91720E-18
 -1      1021 1.11116E-04-3.83405E-05-3.11878E-05-2.79204E-06-2.82022E-19-1.88272E-18
 -1      1022 9.52379E-05-2.85721E-05-2.85710E-05 1.26187E-10-1.36396E-19 1.88042E-18
 -1      1023 9.18437E-05-2.57519E-05-2.83234E-05 4.18561E-06-7.08831E-19-2.06790E-19
 -1      1024 1.02937E-04-3.57621E-05-2.87913E-05 1.09825E-05-1.51939E-18-4.66968E-19
 -1      1025 9.52379E-05-2.85721E-05-2.85710E-05-9.97139E-11 1.11650E-19-2.83456E-18
 -1      1026 1.07212E-04-3.79874E-05-2.96729E-05 3.63222E-06-9.78169E-19-6.02363E-19
 -1      1027 9.46696E-05-2.79257E-05-2.86048E-05 4.96424E-07-8.75018E-19-3.24197E-19
 -1      1028 9.48320E-05-2.80768E-05-2.86093E-05 2.66363E-07-6.56293E-19 4.01328E-19
 -1      1029 9.49549E-05-2.82008E-05-2.86089E-05 1.28414E-07-1.42191E-18 1.16339E-18
 -1      1030 9.50440E-05-2.82969E-05-2.86059E-05 5.51051E-08-1.12416E-18 1.17660E-18
 -1      1031 9.51087E-05-2.83715E-05-2.86017E-05 1.66275E-08-1.67146E-18 5.95226E-19
 -1      1032 9.51548E-05-2.84284E-05-2.85971E-05-1.70928E-09-2.16612E-19 1.58480E-19
 -1      1033 9.51871E-05-2.84710E-05-2.85926E-05-8.94442E-09 1.89020E-19-1.58272E-19
 -1      1034 9.52092E-05-2.85026E-05-2.85885E-05-1.04760E-08-2.25369E-19-5.40163E-19
 -1      1035 9.52245E-05-2.85266E-05-2.85848E-05-9.32386E-09 8.10548E-19-7.02260E-19
 -1      1036 9.52337E-05-2.85428E-05-2.85818E-05-7.27747E-09 9.81678E-19-1.23851E-18
 -1      1037 9.52394E-05-2.85543E-05-2.85793E-05-5.16519E-09-1.31681E-18-1.68585E-18
 -1      1038 9.52426E-05-2.85622E-05-2.85773E-05-3.34922E-09-2.11703E-19-8.83549E-19
 -1      1039 9.52442E-05-2.85675E-05-2.85757E-05-1.93868E-09-1.28954E-18-1.38389E-19
 -1      1040 9.52447E-05-2.85709E-05-2.85745E-05-9.23045E-10-1.04496E-18 1.47261E-20
 -1      1041 9.52445E-05-2.85730E-05-2.85735E-05-2.40810E-10-5.39519E-19-3.86525E-19
 -1      1042 9.52438E-05-2.85741E-05-2.85727E-05 1.98247E-10 1.94725E-18 3.80138E-19
 -1      1043 9.52430E-05-2.85746E-05-2.85722E-05 4.25595E-10-2.79034E-19 1.19710E-18
 -1      1044 9.52422E-05-2.85746E-05-2.85718E-05 5.26569E-10-8.79312E-19 1.06685E-18
 -1      1045 9.52414E-05-2.85744E-05-2.85715E-05 5.45544E-10-6.96543E-19 8.67864E-19
 -1      1046 9.52406E-05-2.85741E-05-2.85713E-05 5.15529E-10-3.56141E-19-6.78587E-19
 -1      1047 9.52399E-05-2.85737E-05-2.85712E-05 4.59442E-10-6.21373E-19 4.88773E-19
 -1      1048 9.52393E-05-2.85733E-05-2.85711E-05 3.90346E-10 1.43311E-18 6.83051E-19
 -1      1049 9.52388E-05-2.85729E-05-2.85711E-05 3.23460E-10-4.49012E-19 4.45297E-19
 -1      1050 9.52384E-05-2.85726E-05-2.85711E-05 2.58069E-10 1.15212E-18 1.60179E-18
 -1      1051 9.52149E-05-2.85167E-05-2.85850E-05 5.61629E-09-8.36457E-19 5.10901E-20
 -1      1052 9.50862E-05-2.83608E-05-2.85966E-05 1.72268E-07-5.19189E-19-2.01047E-19
 -1      1053 9.51203E-05-2.83971E-05-2.85956E-05 9.90590E-08-1.27095E-18-2.94533E-19
 -1      1054 9.51992E-05-2.84943E-05-2.85878E-05 1.38911E-08-1.22418E-19-1.43164E-19
 -1      1055 9.51783E-05-2.84665E-05-2.85908E-05 2.88018E-08 4.32305E-19 2.57412E-19
 -1      1056 9.52262E-05-2.85341E-05-2.85823E-05 1.23607E-09 4.12158E-19-1.11756E-18
 -1      1057 9.52339E-05-2.85473E-05-2.85800E-05-9.15251E-10 1.24996E-19-1.98879E-18
 -1      1058 9.52388E-05-2.85569E-05-2.85780E-05-1.85512E-09-3.78969E-19-1.04654E-18
 -1      1059 9.52418E-05-2.85636E-05-2.85763E-05-2.14927E-09 9.64256E-20-1.59332E-18
 -1      1060 9.52432E-05-2.85682E-05-2.85750E-05-2.11865E-09 5.50924E-19-7.12288E-19
 -1      1061 9.52438E-05-2.85712E-05-2.85739E-05-1.93868E-09-7.67649E-19 1.00850E-18
 -1      1062 9.52436E-05-2.85730E-05-2.85731E-05-1.70261E-09 2.30196E-19 2.69744E-18
 -1      1063 9.52432E-05-2.85740E-05-2.85725E-05-1.45640E-09-3.54494E-19 1.02857E-18
 -1      1064 9.52425E-05-2.85744E-05-2.85720E-05-1.22341E-09-9.46287E-19-1.05497E-18
 -1      1065 9.52417E-05-2.85744E-05-2.85717E-05-1.01327E-09-3.51672E-19-2.32454E-18
 -1      1066 9.52410E-05-2.85742E-05-2.85715E-05-8.29064E-10-4.93055E-19-4.46973E-19
 -1      1067 9.52403E-05-2.85739E-05-2.85713E-05-6.70757E-10 1.18157E-18 1.70021E-18
 -1      1068 9.52396E-05-2.85735E-05-2.85712E-05-5.36121E-10 3.10578E-19 1.46704E-18
 -1      1069 9.52391E-05-2.85732E-05-2.85711E-05-4.23627E-10-4.56055E-19 1.05191E-18
 -1      1070 9.52386E-05-2.85728E-05-2.85711E-05-3.31771E-10 6.26336E-19 4.60460E-20
 -1      1071 9.52383E-05-2.85725E-05-2.85711E-05-2.57842E-10-8.49800E-19-2.49750E-18
 -1      1072 1.05957E-04-3.75622E-05-2.93147E-05 7.34497E-06-1.74709E-18 2.17861E-19
 -1      1073 1.03468E-04-3.55462E-05-2.91113E-05 3.92318E-06-1.49128E-18-8.53983E-20
 -1      1074 9.58587E-05-2.92379E-05-2.85511E-05 2.66279E-06-5.81862E-19 1.67703E-19
 -1      1075 9.51544E-05-2.84814E-05-2.85739E-05 1.18929E-06-4.78179E-19-8.37454E-19
 -1      1076 9.03415E-05-2.54583E-05-2.78049E-05 9.58297E-06-2.99335E-19-1.07940E-19
 -1      1077 9.53873E-05-2.87439E-05-2.85612E-05 1.80546E-06-1.30847E-18 1.44083E-19
 -1      1078 9.51518E-05-2.84336E-05-2.85935E-05 5.48442E-08-1.50727E-18-3.17750E-19
 -1      1079 9.44774E-05-2.77648E-05-2.85914E-05 8.78800E-07-1.22536E-18-8.22207E-19
 -1      1080 9.42533E-05-2.76022E-05-2.85652E-05 1.48325E-06-3.99800E-19-1.12934E-18
 -1      1081 9.52381E-05-2.85723E-05-2.85710E-05 2.01256E-10-2.13792E-18 4.47828E-18
 -1      1082 9.50560E-05-2.83330E-05-2.85957E-05 2.88150E-07-2.34389E-19-2.26679E-19
 -1      1083 9.67211E-05-3.00834E-05-2.85561E-05 3.79231E-06-5.07258E-19-4.91719E-20
 -1      1084 1.00598E-04-3.33773E-05-2.88133E-05 3.55360E-06-7.30275E-19 2.97816E-21
 -1      1085 9.50578E-05-2.83587E-05-2.85847E-05 7.60133E-07-7.94266E-19 1.26317E-19
 -1      1086 9.43791E-05-2.85333E-05-2.82215E-05 8.19387E-06-5.41737E-19-2.80003E-19
 -1      1087 9.39030E-05-2.77525E-05-2.83476E-05 5.61168E-06-4.05999E-19 2.55590E-20
 -1      1088 9.40271E-05-2.74866E-05-2.85181E-05 2.44417E-06-9.50511E-19-6.23779E-19
 -1      1089 9.83790E-05-3.20537E-05-2.84277E-05 9.66895E-06-1.33737E-18-1.40700E-19
 -1      1090 9.43586E-05-2.88570E-05-2.80659E-05 1.03889E-05-1.17693E-18-4.43940E-20
 -1      1091 9.52382E-05-2.85724E-05-2.85711E-05 4.72062E-11-1.06132E-18-4.15994E-19
 -1      1092 9.49242E-05-2.81991E-05-2.85968E-05 4.59392E-07-8.66121E-19-1.39914E-18
 -1      1093 1.01552E-04-3.43511E-05-2.88006E-05 7.55605E-06-1.31237E-18-4.87313E-19
 -1      1094 9.50392E-05-2.83242E-05-2.85922E-05 4.70683E-07-1.10603E-18-4.58284E-19
 -1      1095 9.38859E-05-2.75077E-05-2.84492E-05 3.75498E-06-4.88927E-19-1.51714E-19
 -1      1096 9.84255E-05-3.17526E-05-2.85730E-05 6.58305E-06-6.27809E-19-5.39139E-19
 -1      1097 2.08770E-04 5.99994E-10-7.24755E-05-4.53133E-05 3.21873E-20 1.33331E-17
 -1      1098 1.28434E-04 1.73304E-10-5.17237E-05-2.28836E-06-3.72694E-20 5.89291E-18
 -1      1099 7.52854E-05 4.38743E-11-3.22552E-05 9.89210E-06 7.79270E-20 1.49562E-18
 -1      1100 3.38908E-05-6.22836E-11-1.67197E-05 6.26684E-06 7.45389E-20-6.07336E-19
 -1      1101 1.13842E-05-1.09528E-10-8.06264E-06-7.46832E-06-3.38813E-21-1.01257E-18
 -1      1102 9.72004E-06-9.86940E-11-6.99857E-06-2.22713E-05-9.59265E-20-7.05486E-19
 -1      1103 2.50523E-05-6.46186E-11-1.21689E-05-3.37990E-05-1.62630E-19-5.51379E-19
 -1      1104 4.92177E-05-7.91976E-12-2.08719E-05-3.86426E-05-1.90582E-19-8.19081E-19
 -1      1105 7.54332E-05 6.56565E-11-3.08262E-05-3.44849E-05-2.02441E-19-1.50908E-18
 -1      1106 9.83958E-05 9.95458E-11-3.99964E-05-2.13440E-05-1.71101E-19-2.63704E-18
 -1      1107 1.08957E-04 8.10577E-11-4.48387E-05-6.25997E-06-1.11808E-19-4.06823E-18
 -1      1108 1.08928E-04 5.12549E-11-4.55524E-05 4.77094E-06-7.05684E-20-5.51028E-18
 -1      1109 1.04028E-04 3.08282E-11-4.40042E-05 1.14002E-05-4.44692E-20-6.68124E-18
 -1      1110 9.77396E-05 2.08540E-11-4.15958E-05 1.53438E-05-1.84230E-20-7.42036E-18
 -1      1111 9.14397E-05 1.77855E-11-3.90184E-05 1.81342E-05 8.25857E-21-7.67515E-18
 -1      1112 8.56647E-05 1.88568E-11-3.66004E-05 2.06807E-05 3.47284E-20-7.18211E-18
 -1      1113 8.10312E-05 2.31438E-11-3.46663E-05 2.34684E-05 6.06687E-20-5.52714E-18
 -1      1114 7.92261E-05 3.64908E-11-3.38025E-05 2.71219E-05 9.50000E-20-1.44385E-18
 -1      1115 9.22096E-05 1.18739E-10-3.53233E-05 3.58106E-05 4.54433E-19 8.91417E-18
 -1      1116 2.62858E-04-5.99991E-05-7.75171E-05-3.01947E-05-1.42937E-19 1.92416E-17
 -1      1117 2.35919E-04-7.09957E-05-6.91163E-05-6.68987E-07 2.81109E-20 2.27712E-17
 -1      1118 2.02900E-04-6.00657E-05-5.98792E-05-6.27450E-06-7.92902E-20 2.49417E-17
 -1      1119 1.47057E-04-4.18655E-05-4.98405E-05-8.80136E-06-1.51090E-19 2.39710E-17
 -1      1120 1.01390E-04-2.77185E-05-4.20782E-05-3.38297E-06-3.31613E-19 1.72668E-17
 -1      1121 9.87796E-05-2.71660E-05-4.00709E-05 5.14881E-06-2.54004E-19 7.83844E-18
 -1      1122 1.32128E-04-3.83719E-05-4.32827E-05 7.60830E-06 1.66230E-20 1.30612E-18
 -1      1123 1.65246E-04-4.90515E-05-4.80374E-05 4.50566E-06 1.45981E-19-1.31290E-18
 -1      1124 1.77282E-04-5.34637E-05-5.05230E-05 8.02698E-07 6.25878E-20 6.48615E-19
 -1      1125 1.66432E-04-5.03203E-05-4.87032E-05-9.94038E-07 4.78243E-20 2.57191E-18
 -1      1126 1.46916E-04-4.42561E-05-4.41184E-05-1.12932E-06 4.63784E-20 4.60193E-18
 -1      1127 1.29434E-04-3.88971E-05-3.92961E-05-7.77342E-07-2.23273E-20 5.93961E-18
 -1      1128 1.16540E-04-3.49921E-05-3.53940E-05-4.63998E-07 3.60121E-20 6.13400E-18
 -1      1129 1.08101E-04-3.24689E-05-3.27281E-05-2.23432E-07-1.12861E-20 6.09059E-18
 -1      1130 1.02978E-04-3.09276E-05-3.10771E-05-1.10559E-07-1.26327E-19 5.31881E-18
 -1      1131 9.98341E-05-2.99780E-05-3.00587E-05-5.09264E-08-2.87783E-19 3.74335E-18
 -1      1132 9.79323E-05-2.94005E-05-2.94426E-05-2.12145E-08-8.85422E-20 3.68277E-18
 -1      1133 9.67921E-05-2.90528E-05-2.90739E-05-7.15907E-09-4.05070E-21 2.58621E-18
 -1      1134 9.61010E-05-2.88389E-05-2.88510E-05-2.42641E-09 9.03571E-20 1.41611E-18
 -1      1135 9.56969E-05-2.87157E-05-2.87207E-05 1.83649E-09 2.52425E-19-1.88141E-19
 -1      1136 9.54687E-05-2.86449E-05-2.86472E-05 2.51622E-09-2.65343E-20 1.46564E-19
 -1      1137 9.53373E-05-2.86040E-05-2.86050E-05 2.45704E-09 3.04955E-19 1.47854E-18
 -1      1138 9.52635E-05-2.85809E-05-2.85812E-05 2.12602E-09-3.23758E-19 3.42858E-18
 -1      1139 9.52239E-05-2.85684E-05-2.85683E-05 1.73498E-09-1.85681E-19 1.28730E-18
 -1      1140 9.52043E-05-2.85621E-05-2.85619E-05 1.37586E-09-1.30470E-19-2.11770E-18
 -1      1141 9.51961E-05-2.85593E-05-2.85592E-05 1.02664E-09-3.83818E-20-4.48960E-19
 -1      1142 9.51948E-05-2.85588E-05-2.85586E-05 8.14966E-10-7.44149E-20-1.54577E-18
 -1      1143 9.51971E-05-2.85593E-05-2.85592E-05 6.31793E-10 3.41502E-19-9.17480E-19
 -1      1144 9.52010E-05-2.85604E-05-2.85603E-05 4.87076E-10 2.28516E-19-9.59037E-19
 -1      1145 9.52057E-05-2.85618E-05-2.85617E-05 3.75004E-10-2.46103E-19 3.34979E-20
 -1      1146 9.52104E-05-2.85632E-05-2.85631E-05 2.89370E-10 1.68067E-19 7.25241E-21
 -1      1147 9.52150E-05-2.85645E-05-2.85644E-05 2.23670E-10-2.88379E-20 1.48691E-18
 -1      1148 9.52191E-05-2.85657E-05-2.85657E-05 1.66435E-10-2.29263E-19-2.58571E-18
 -1      1149 9.52226E-05-2.85668E-05-2.85667E-05 1.27225E-10 5.59109E-19-5.02886E-18
 -1      1150 9.52257E-05-2.85677E-05-2.85676E-05 9.60492E-11 4.24957E-19-4.23415E-18
 -1      1151 9.52282E-05-2.85684E-05-2.85684E-05 7.17548E-11-1.48923E-19-3.21396E-18
 -1      1152 9.52303E-05-2.85691E-05-2.85690E-05 5.29400E-11 3.04627E-20-3.82913E-18
 -1      1153 9.52319E-05-2.85696E-05-2.85696E-05 3.86359E-11-1.94206E-20-5.69156E-18
 -1      1154 9.52333E-05-2.85700E-05-2.85700E-05 2.90674E-11-3.98944E-20-4.49330E-18
 -1      1155 9.52344E-05-2.85703E-05-2.85703E-05 1.86361E-11 4.52521E-19-3.26821E-18
 -1      1156 9.52352E-05-2.85705E-05-2.85705E-05 1.26523E-11 5.31348E-20-2.36002E-18
 -1      1157 9.52358E-05-2.85707E-05-2.85707E-05 8.20251E-12 8.56552E-20-4.66095E-18
 -1      1158 9.52362E-05-2.85709E-05-2.85709E-05 5.01213E-12 1.90089E-19-1.89799E-18
 -1      1159 9.52366E-05-2.85710E-05-2.85710E-05 2.79745E-12-4.39983E-19-1.70321E-18
 -1      1160 9.52368E-05-2.85710E-05-2.85710E-05 1.64869E-12 2.57451E-19-2.02107E-18
 -1      1161 9.52370E-05-2.85711E-05-2.85711E-05 1.41077E-13 3.43832E-19-3.88930E-18
 -1      1162 9.52371E-05-2.85711E-05-2.85711E-05-5.81606E-13-2.64778E-19-4.93517E-18
 -1      1163 9.52371E-05-2.85711E-05-2.85711E-05-1.22699E-12-2.12865E-20-7.44996E-18
 -1      1164 9.52372E-05-2.85711E-05-2.85711E-05-2.04741E-12 7.82812E-19-5.96377E-18
 -1      1165 9.52372E-05-2.85711E-05-2.85711E-05-3.14730E-12-7.58519E-20-4.54396E-18
 -1      1166 9.52371E-05-2.85711E-05-2.85711E-05-2.07746E-12-2.50941E-20-4.92758E-18
 -1      1167 1.12137E-04-3.25147E-05-3.26923E-05 1.17170E-05-2.24464E-19 1.80194E-17
 -1      1168 7.47311E-05-2.16629E-05-2.48254E-05 7.84287E-07 2.61310E-19 1.20793E-17
 -1      1169 6.70570E-05-1.99261E-05-2.10029E-05 1.85420E-07 1.74826E-19 6.97458E-18
 -1      1170 6.50330E-05-1.95083E-05-1.98169E-05 4.01157E-08 1.43066E-19 3.44787E-18
 -1      1171 6.60216E-05-1.98392E-05-1.99492E-05-3.65570E-08 8.99559E-20 1.12666E-18
 -1      1172 6.88639E-05-2.06811E-05-2.07415E-05-8.50382E-08 2.59685E-20-3.39872E-19
 -1      1173 7.27985E-05-2.18485E-05-2.18767E-05-1.20035E-07 6.94327E-20-1.91493E-18
 -1      1174 7.71942E-05-2.31587E-05-2.31541E-05-1.38261E-07 1.37643E-21-2.85667E-18
 -1      1175 8.15205E-05-2.44524E-05-2.44195E-05-1.39142E-07-9.43151E-21-3.53673E-18
 -1      1176 8.53901E-05-2.56120E-05-2.55611E-05-1.25768E-07 1.43768E-19-4.58020E-18
 -1      1177 8.85832E-05-2.65701E-05-2.65130E-05-1.03724E-07 1.41092E-20-4.62227E-18
 -1      1178 9.10345E-05-2.73062E-05-2.72525E-05-7.88120E-08 8.49233E-20-4.63388E-18
 -1      1179 9.27927E-05-2.78344E-05-2.77897E-05-5.54535E-08-6.02229E-21-4.53739E-18
 -1      1180 9.39712E-05-2.81887E-05-2.81549E-05-3.61255E-08-3.41568E-20-4.09753E-18
 -1      1181 9.47050E-05-2.84094E-05-2.83860E-05-2.16114E-08-4.00314E-21-4.26292E-18
 -1      1182 9.51227E-05-2.85353E-05-2.85203E-05-1.15890E-08-1.89480E-19-4.25795E-18
 -1      1183 9.53311E-05-2.85982E-05-2.85895E-05-5.20673E-09 1.01733E-19-4.77578E-18
 -1      1184 9.54112E-05-2.86226E-05-2.86182E-05-1.49090E-09 2.61940E-19-5.94845E-18
 -1      1185 9.54196E-05-2.86254E-05-2.86236E-05 4.29911E-10 7.72578E-20-6.32579E-18
 -1      1186 9.53933E-05-2.86177E-05-2.86174E-05 1.23666E-09-9.07477E-21-5.52595E-18
 -1      1187 9.53546E-05-2.86062E-05-2.86066E-05 1.41249E-09 1.04614E-20-5.18286E-18
 -1      1188 9.53157E-05-2.85947E-05-2.85954E-05 1.27350E-09-6.56897E-20-3.61385E-18
 -1      1189 9.52824E-05-2.85847E-05-2.85855E-05 1.01079E-09 1.15993E-19-2.93043E-18
 -1      1190 9.52568E-05-2.85771E-05-2.85777E-05 7.29749E-10 1.78385E-19-3.85936E-18
 -1      1191 9.52387E-05-2.85717E-05-2.85722E-05 4.81227E-10-4.58220E-20-3.31566E-18
 -1      1192 9.52270E-05-2.85681E-05-2.85685E-05 2.83917E-10 1.30865E-19-4.75640E-18
 -1      1193 9.52203E-05-2.85661E-05-2.85664E-05 1.39207E-10 2.42900E-19-6.11324E-18
 -1      1194 9.52173E-05-2.85652E-05-2.85654E-05 4.04041E-11-2.98707E-19-5.47907E-18
 -1      1195 9.52168E-05-2.85651E-05-2.85652E-05-2.19535E-11-4.91516E-20-2.61260E-18
 -1      1196 9.52178E-05-2.85654E-05-2.85654E-05-5.73047E-11 2.55455E-19-5.44092E-18
 -1      1197 9.52198E-05-2.85660E-05-2.85660E-05-7.38060E-11 8.13908E-20-8.36847E-18
 -1      1198 9.52222E-05-2.85667E-05-2.85666E-05-7.79314E-11-3.83515E-19-6.70627E-18
 -1      1199 9.52246E-05-2.85674E-05-2.85674E-05-7.45132E-11 7.53363E-20-4.00799E-18
 -1      1200 9.52269E-05-2.85681E-05-2.85680E-05-6.69771E-11 2.49728E-19-6.86811E-18
 -1      1201 9.52290E-05-2.85687E-05-2.85687E-05-5.76321E-11 5.78889E-19-1.10665E-17
 -1      1202 9.52308E-05-2.85692E-05-2.85692E-05-4.79499E-11-1.24846E-19-1.00866E-17
 -1      1203 9.52323E-05-2.85697E-05-2.85697E-05-3.88016E-11-1.46155E-19-7.20620E-18
 -1      1204 9.52335E-05-2.85700E-05-2.85700E-05-3.06457E-11-2.30595E-19-6.58558E-18
 -1      1205 9.52345E-05-2.85703E-05-2.85703E-05-2.36698E-11-2.00411E-19-7.13894E-18
 -1      1206 9.52352E-05-2.85706E-05-2.85706E-05-1.78931E-11 1.31901E-19-8.67439E-18
 -1      1207 9.52358E-05-2.85707E-05-2.85707E-05-1.32378E-11 1.73944E-19-7.56142E-18
 -1      1208 9.52363E-05-2.85709E-05-2.85709E-05-9.57667E-12-7.91689E-19-4.27092E-18
 -1      1209 9.52366E-05-2.85710E-05-2.85710E-05-6.76422E-12 1.18771E-19-2.75105E-18
 -1      1210 9.52368E-05-2.85710E-05-2.85710E-05-4.65158E-12 4.03312E-20-5.90045E-18
 -1      1211 9.52370E-05-2.85711E-05-2.85711E-05-3.08895E-12-6.20825E-20-2.61909E-18
 -1      1212 9.52371E-05-2.85711E-05-2.85711E-05-1.93491E-12-2.09379E-19-2.79294E-19
 -1      1213 9.52371E-05-2.85711E-05-2.85711E-05-9.86980E-13-5.80443E-20 3.93694E-19
 -1      1214 9.52372E-05-2.85711E-05-2.85711E-05 8.31438E-14-4.89810E-20-1.23662E-18
 -1      1215 9.52372E-05-2.85711E-05-2.85711E-05 1.93553E-12-1.56494E-19-3.92860E-18
 -1      1216 9.52371E-05-2.85711E-05-2.85711E-05 1.83273E-12 9.82061E-19-3.17457E-18
 -1      1217 9.52371E-05-2.85711E-05-2.85711E-05 2.18199E-12-4.98139E-18-5.69144E-19
 -1      1218 9.52371E-05-2.85711E-05-2.85711E-05 3.52475E-12-7.05057E-18-1.61123E-19
 -1      1219 9.52371E-05-2.85711E-05-2.85711E-05 1.07883E-12-4.22045E-18-4.41849E-19
 -1      1220 9.52371E-05-2.85712E-05-2.85711E-05-7.62176E-13-1.40273E-18-3.39748E-19
 -1      1221 9.52372E-05-2.85712E-05-2.85711E-05-1.77437E-12 9.98353E-19-9.74804E-19
 -1      1222 9.52372E-05-2.85713E-05-2.85711E-05-2.03934E-12 1.87848E-18-3.97448E-19
 -1      1223 9.52372E-05-2.85713E-05-2.85711E-05-1.72276E-12 4.08374E-18-7.94010E-21
 -1      1224 9.52372E-05-2.85713E-05-2.85711E-05-9.54410E-13 6.51124E-19-4.94191E-19
 -1      1225 9.52372E-05-2.85713E-05-2.85711E-05 3.50117E-14-2.87483E-18-2.90962E-19
 -1      1226 9.52372E-05-2.85713E-05-2.85711E-05 1.01814E-12 1.27562E-18-2.27139E-19
 -1      1227 9.52372E-05-2.85713E-05-2.85711E-05 1.76281E-12-1.18531E-18-8.56448E-19
 -1      1228 9.52372E-05-2.85712E-05-2.85711E-05 2.06769E-12-3.09756E-18 4.65751E-19
 -1      1229 9.52372E-05-2.85712E-05-2.85711E-05 1.74854E-12-3.76672E-18 5.67698E-19
 -1      1230 9.52371E-05-2.85712E-05-2.85711E-05 6.69723E-13-5.64275E-18-1.99084E-19
 -1      1231 9.52371E-05-2.85711E-05-2.85711E-05-1.17196E-12-2.83858E-18-6.02164E-19
 -1      1232 9.52371E-05-2.85711E-05-2.85711E-05-3.48555E-12 4.59266E-18-1.31030E-19
 -1      1233 9.52371E-05-2.85711E-05-2.85711E-05-1.42501E-12 5.60890E-18-1.05287E-18
 -1      1234 3.06890E-05-9.30943E-05 1.40556E-05-1.05371E-05-6.74450E-18 2.48313E-19
 -1      1235 1.41215E-05-4.59516E-05 4.05874E-06-1.54838E-05 6.02325E-18 3.26701E-18
 -1      1236 8.25278E-06 8.69227E-06-1.22630E-05 1.47044E-05 1.59395E-17 1.01763E-17
 -1      1237 4.04221E-05 3.53685E-05-3.17170E-05 6.89698E-05 1.73625E-17 1.64375E-17
 -1      1238 1.18014E-04 1.68798E-05-5.14216E-05 1.13595E-04 1.38066E-17 2.00899E-17
 -1      1239 2.15409E-04-3.33424E-05-6.71578E-05 1.15886E-04 7.74739E-18 1.79588E-17
 -1      1240 2.87893E-04-7.90771E-05-7.61563E-05 6.40238E-05 2.60386E-18 1.18085E-17
 -1      1241 2.99191E-04-8.88624E-05-7.71570E-05-1.53856E-05 3.34710E-19 2.67662E-18
 -1      1242 2.45471E-04-5.86992E-05-7.02978E-05-8.22533E-05 2.18535E-18-6.27313E-18
 -1      1243 1.52731E-04-8.19411E-06-5.74231E-05-1.04071E-04 6.16005E-18-1.13884E-17
 -1      1244 6.92425E-05 2.73854E-05-4.21153E-05-8.43859E-05 9.83913E-18-1.17458E-17
 -1      1245 1.93602E-05 3.51271E-05-2.75892E-05-4.71242E-05 9.91113E-18-8.26238E-18
 -1      1246 1.01683E-06 2.37481E-05-1.50967E-05-1.71763E-05 6.87452E-18-3.86776E-18
 -1      1247-2.55657E-07 6.50583E-06-5.57759E-06-2.64199E-06 2.26793E-18-9.83405E-19
 -1      1248 4.74466E-06-1.32737E-05 1.30543E-06-1.46832E-06-2.64274E-18-3.69796E-19
 -1      1249 1.00218E-05-3.62278E-05 5.46485E-06-1.35609E-05-7.59450E-18-1.96978E-18
 -1      1250 5.82044E-06-4.52182E-05 4.81101E-06-3.21455E-05-1.22997E-17-6.02950E-18
 -1      1251-2.83333E-06-2.83850E-05-2.92095E-06-3.31297E-05-1.55655E-17-1.17860E-17
 -1      1252 1.50991E-05-2.36714E-06-1.90940E-05 4.68296E-06-1.58387E-17-1.77538E-17
 -1      1253 9.23448E-05-3.70851E-06-4.17491E-05 6.35213E-05-1.24853E-17-2.13317E-17
 -1      1254 2.24284E-04-4.76279E-05-6.49516E-05 9.28120E-05-6.86944E-18-1.82451E-17
 -1      1255 3.53788E-04-1.03672E-04-8.36375E-05 5.47739E-05-2.16195E-18-1.07709E-17
 -1      1256 4.03838E-04-1.23709E-04-9.11088E-05-3.43078E-05-9.38830E-19 1.15154E-18
 -1      1257 3.39422E-04-8.45050E-05-8.57362E-05-1.14226E-04-4.92550E-18 1.45808E-17
 -1      1258 2.08433E-04-1.90109E-05-6.88446E-05-1.34172E-04-1.22845E-17 2.29715E-17
 -1      1259 8.67617E-05 2.20636E-05-4.55762E-05-9.40040E-05-2.07252E-17 2.54855E-17
 -1      1260 2.08351E-05 1.44227E-05-2.19285E-05-2.98444E-05-2.79114E-17 2.33510E-17
 -1      1261 7.99391E-06-2.90888E-05-2.31326E-06 1.73866E-05-3.00832E-17 1.66450E-17
 -1      1262 2.14154E-05-7.74660E-05 1.05110E-05 2.89061E-05-2.39388E-17 7.81854E-18
 -1      1263 3.36565E-05-1.03598E-04 1.60455E-05 1.30974E-05-1.65172E-17 1.98566E-18
 -1      1264 2.10133E-04-5.26392E-05-6.90263E-05-9.32758E-06 5.92923E-19 1.37368E-17
 -1      1265 1.23921E-04-1.61007E-05-4.58489E-05 4.40237E-08 1.11893E-18 4.31457E-18
 -1      1266 1.52081E-04-1.88356E-05-5.62626E-05-1.18066E-05 9.68159E-19 6.65387E-18
 -1      1267 6.48769E-05-3.49206E-06-2.69113E-05 7.14758E-06 1.21803E-18 3.92600E-19
 -1      1268 9.18689E-05-5.08515E-06-3.62337E-05 4.56199E-06 1.01390E-18 1.96745E-18
 -1      1269 1.14626E-04-2.10329E-05-4.00305E-05-1.77346E-06 1.79698E-18 3.76019E-18
 -1      1270 1.98648E-05 7.38369E-06-1.27980E-05 1.77170E-06 6.02664E-19-1.37939E-18
 -1      1271 3.86217E-05 6.23720E-06-1.91053E-05 5.34083E-06 6.01393E-19-8.77844E-19
 -1      1272 5.32784E-05-1.72998E-06-2.23608E-05 3.57139E-06 1.30951E-18 5.03985E-20
 -1      1273-2.29124E-07 1.15216E-05-5.81504E-06-1.23255E-05-5.84135E-19-1.53218E-18
 -1      1274 5.69280E-06 1.17844E-05-8.19327E-06-6.17035E-06-3.42201E-19-1.70487E-18
 -1      1275 8.88040E-06 1.25942E-05-9.66852E-06-3.82109E-06-1.60089E-19-1.71312E-18
 -1      1276 4.19235E-06 9.94717E-06-6.62344E-06-2.42284E-05-1.70381E-18-1.14138E-18
 -1      1277 7.18879E-08 1.08212E-05-5.45234E-06-1.94110E-05-1.36174E-18-1.33492E-18
 -1      1278-6.13564E-06 1.54310E-05-4.77578E-06-1.55472E-05-1.88510E-18-1.87575E-18
 -1      1279 2.56717E-05 6.34574E-06-1.36982E-05-3.35646E-05-2.70119E-18-9.77741E-19
 -1      1280 1.35508E-05 7.40406E-06-9.61301E-06-2.98914E-05-2.33442E-18-8.72603E-19
 -1      1281 4.36497E-06 1.25972E-05-7.40610E-06-2.59399E-05-3.29602E-18-1.32052E-18
 -1      1282 5.42382E-05 5.70920E-07-2.27398E-05-3.66590E-05-3.14122E-18-1.16909E-18
 -1      1283 4.02508E-05 1.38255E-06-1.81341E-05-3.62855E-05-3.03915E-18-8.22416E-19
 -1      1284 2.99925E-05 6.33356E-06-1.52794E-05-3.29724E-05-4.50113E-18-8.56033E-19
 -1      1285 8.93061E-05-7.22133E-06-3.39641E-05-3.01687E-05-3.01120E-18-1.76980E-18
 -1      1286 7.40420E-05-6.41710E-06-2.85954E-05-3.44508E-05-3.12216E-18-1.16157E-18
 -1      1287 6.62282E-05-5.17727E-06-2.59093E-05-3.34277E-05-4.95768E-18-6.09546E-19
 -1      1288 1.11288E-04-1.02751E-05-4.23829E-05-1.48585E-05-2.15972E-18-2.89492E-18
 -1      1289 1.03260E-04-1.03293E-05-3.87698E-05-2.22260E-05-2.43776E-18-2.11586E-18
 -1      1290 1.02420E-04-1.57281E-05-3.67828E-05-2.27689E-05-4.33194E-18-9.42377E-19
 -1      1291 1.15436E-04-8.06553E-06-4.55860E-05-1.23208E-06-1.30808E-18-4.50603E-18
 -1      1292 1.14615E-04-8.45688E-06-4.44682E-05-7.21411E-06-1.47680E-18-3.64384E-18
 -1      1293 1.18789E-04-1.63284E-05-4.34917E-05-7.87304E-06-2.87536E-18-2.10943E-18
 -1      1294 1.10937E-04-4.99874E-06-4.52452E-05 7.46975E-06-7.21037E-19-5.97375E-18
 -1      1295 1.13376E-04-5.32499E-06-4.56847E-05 3.66033E-06-8.65125E-19-5.25970E-18
 -1      1296 1.18300E-04-1.15685E-05-4.54455E-05 2.83768E-06-1.71735E-18-3.73587E-18
 -1      1297 1.04035E-04-2.99080E-06-4.32501E-05 1.23899E-05-3.11708E-19-6.98986E-18
 -1      1298 1.07335E-04-3.16639E-06-4.43530E-05 1.01540E-05-4.25105E-19-6.51589E-18
 -1      1299 1.11385E-04-7.20241E-06-4.45145E-05 9.06804E-06-8.84779E-19-5.05660E-18
 -1      1300 9.70681E-05-2.02819E-06-4.07030E-05 1.55166E-05 1.21973E-19-7.55514E-18
 -1      1301 1.00386E-04-2.11148E-06-4.20013E-05 1.40156E-05-2.53051E-20-7.29952E-18
 -1      1302 1.03555E-04-4.72299E-06-4.23252E-05 1.27423E-05-2.47387E-19-5.95464E-18
 -1      1303 9.07489E-05-1.73524E-06-3.81216E-05 1.80284E-05 4.87891E-19-7.68803E-18
 -1      1304 9.37910E-05-1.78235E-06-3.93945E-05 1.67552E-05 3.72589E-19-7.72166E-18
 -1      1305 9.64368E-05-3.74246E-06-3.97481E-05 1.53805E-05 5.03032E-19-6.35860E-18
 -1      1306 8.52637E-05-1.82925E-06-3.57400E-05 2.06355E-05 9.81182E-19-6.96605E-18
 -1      1307 8.79129E-05-1.88560E-06-3.68749E-05 1.92643E-05 7.81388E-19-7.44505E-18
 -1      1308 9.03455E-05-3.73138E-06-3.71765E-05 1.78427E-05 1.12714E-18-6.29348E-18
 -1      1309 8.13309E-05-2.17446E-06-3.39340E-05 2.36960E-05 1.41500E-18-4.94424E-18
 -1      1310 8.31675E-05-2.31948E-06-3.47125E-05 2.20212E-05 1.16255E-18-6.21623E-18
 -1      1311 8.55957E-05-4.45450E-06-3.48687E-05 2.06101E-05 1.84841E-18-5.29790E-18
 -1      1312 8.12135E-05-3.51542E-06-3.33262E-05 2.80521E-05 1.42122E-18-1.39390E-19
 -1      1313 8.09089E-05-3.55246E-06-3.32962E-05 2.52444E-05 1.35320E-18-3.10903E-18
 -1      1314 8.33546E-05-6.37544E-06-3.31033E-05 2.39466E-05 2.38407E-18-2.63930E-18
 -1      1315 1.07143E-04-2.00637E-05-3.38688E-05 2.94278E-05 9.94946E-19 1.04443E-17
 -1      1316 8.56185E-05-1.02188E-05-3.28229E-05 2.64634E-05 9.12466E-19 2.80029E-18
 -1      1317 8.76861E-05-1.39546E-05-3.17476E-05 2.52083E-05 2.75595E-18 2.06718E-18
 -1      1318 8.50392E-05-2.26030E-05-2.94571E-05 8.90757E-06 1.73513E-18 9.47999E-18
 -1      1319 2.21423E-04-7.07326E-05-6.47541E-05-8.40661E-06 1.09468E-18 1.57571E-17
 -1      1320 2.09508E-04-6.62412E-05-6.07764E-05-9.54504E-06 7.54653E-19 1.71816E-17
 -1      1321 2.07182E-04-6.67878E-05-5.93185E-05-1.91710E-05 4.01229E-19 1.76124E-17
 -1      1322 1.86324E-04-5.90362E-05-5.51063E-05-2.30462E-05-5.70159E-20 1.77890E-17
 -1      1323 1.96045E-04-6.67437E-05-5.50898E-05-2.52457E-05 1.26160E-18 1.17048E-17
 -1      1324 1.81532E-04-5.49791E-05-5.51537E-05-2.83235E-05-1.16171E-18 1.73104E-17
 -1      1325 1.57397E-04-4.38031E-05-5.16141E-05-2.77639E-05-1.96956E-18 1.57252E-17
 -1      1326 1.91057E-04-6.19624E-05-5.56977E-05-4.34567E-05-1.07277E-18 1.14457E-17
 -1      1327 1.50947E-04-3.79829E-05-5.17968E-05-1.82247E-05-2.93624E-18 1.41327E-17
 -1      1328 1.37795E-04-3.18783E-05-4.96203E-05-1.23317E-05-3.41608E-18 1.03016E-17
 -1      1329 1.82124E-04-4.62681E-05-5.85110E-05-4.04934E-05-4.50579E-18 9.51006E-18
 -1      1330 1.34798E-04-3.21724E-05-4.83823E-05 5.76697E-06-3.77099E-18 8.12755E-18
 -1      1331 1.42883E-04-3.68279E-05-4.83668E-05 9.80465E-06-3.33307E-18 4.28514E-18
 -1      1332 1.71900E-04-3.56511E-05-5.89942E-05-7.50857E-06-6.63820E-18 6.56885E-18
 -1      1333 1.42121E-04-4.03762E-05-4.63829E-05 1.73206E-05-2.24273E-18 2.16078E-18
 -1      1334 1.57679E-04-4.82164E-05-4.77545E-05 1.63202E-05-1.92721E-18 3.98105E-20
 -1      1335 1.69517E-04-4.38661E-05-5.41601E-05 2.13427E-05-5.76491E-18 2.65153E-18
 -1      1336 1.56936E-04-4.98515E-05-4.62197E-05 1.10722E-05-6.62671E-19-9.31736E-19
 -1      1337 1.67405E-04-5.41531E-05-4.77534E-05 7.89864E-06 7.44132E-20-1.27182E-18
 -1      1338 1.66669E-04-5.43792E-05-4.85897E-05 2.20646E-05-2.29017E-18-2.82009E-19
 -1      1339 1.63174E-04-5.20391E-05-4.68822E-05-1.22766E-06 9.50477E-19-1.32899E-18
 -1      1340 1.62468E-04-5.11107E-05-4.69291E-05-3.62998E-06 1.07647E-18-1.26790E-20
 -1      1341 1.59374E-04-5.44582E-05-4.46151E-05 3.77540E-06 7.27403E-19-1.82684E-18
 -1      1342 1.56065E-04-4.80619E-05-4.57846E-05-8.18506E-06 6.63147E-19 3.75474E-19
 -1      1343 1.47960E-04-4.46614E-05-4.40359E-05-8.71586E-06 8.03053E-19 1.26843E-18
 -1      1344 1.46624E-04-4.73054E-05-4.22492E-05-1.19363E-05 1.45144E-18-1.35780E-18
 -1      1345 1.41770E-04-4.24812E-05-4.24726E-05-8.85223E-06 7.96193E-19 1.82536E-18
 -1      1346 1.32705E-04-3.92699E-05-4.01277E-05-8.50765E-06 6.65020E-19 2.75180E-18
 -1      1347 1.33399E-04-4.03455E-05-3.98445E-05-1.67376E-05 1.34281E-18-1.06038E-19
 -1      1348 1.27603E-04-3.77998E-05-3.85647E-05-6.98112E-06 1.79439E-19 3.31635E-18
 -1      1349 1.20329E-04-3.54791E-05-3.65006E-05-6.49756E-06 2.02203E-19 3.74500E-18
 -1      1350 1.22187E-04-3.58019E-05-3.71216E-05-1.47194E-05 8.73503E-19 9.94390E-19
 -1      1351 1.16306E-04-3.44271E-05-3.51719E-05-4.77200E-06-1.61810E-19 3.87062E-18
 -1      1352 1.11086E-04-3.28607E-05-3.36144E-05-4.36044E-06-7.46514E-20 3.50084E-18
 -1      1353 1.13418E-04-3.30639E-05-3.45420E-05-1.07767E-05 2.23299E-19 1.85904E-18
 -1      1354 1.08450E-04-3.21882E-05-3.27228E-05-3.08617E-06 1.58342E-19 3.55685E-18
 -1      1355 1.05246E-04-3.12668E-05-3.17512E-05-2.82196E-06-2.59867E-19 3.64595E-18
 -1      1356 1.07134E-04-3.14165E-05-3.25339E-05-7.18950E-06 7.83373E-20 1.97849E-18
 -1      1357 1.03454E-04-3.08068E-05-3.11491E-05-1.94588E-06 1.17903E-19 3.50206E-18
 -1      1358 1.01450E-04-3.02428E-05-3.05380E-05-1.77465E-06-1.40482E-19 3.35683E-18
 -1      1359 1.02948E-04-3.03980E-05-3.11461E-05-4.63431E-06-3.17419E-19 2.04374E-18
 -1      1360 1.00277E-04-2.99377E-05-3.01473E-05-1.20462E-06-5.84066E-19 3.25145E-18
 -1      1361 9.90470E-05-2.95970E-05-2.97722E-05-1.09761E-06-2.32845E-19 2.69522E-18
 -1      1362 1.00158E-04-2.97395E-05-3.02124E-05-2.91424E-06-4.01368E-19 2.14105E-18
 -1      1363 9.82915E-05-2.93975E-05-2.95235E-05-7.37598E-07 6.19062E-20 2.64106E-18
 -1      1364 9.75461E-05-2.91934E-05-2.92964E-05-6.71792E-07-2.67522E-19 2.82939E-18
 -1      1365 9.83399E-05-2.93124E-05-2.96034E-05-1.80562E-06-1.97928E-20 2.56236E-18
 -1      1366 9.70657E-05-2.90641E-05-2.91400E-05-4.48273E-07-8.43433E-19 2.48021E-18
 -1      1367 9.66164E-05-2.89431E-05-2.90033E-05-4.07969E-07-1.94129E-19 1.58190E-18
 -1      1368 9.71713E-05-2.90367E-05-2.92131E-05-1.10810E-06-6.61334E-19 2.34256E-18
 -1      1369 9.63010E-05-2.88574E-05-2.89015E-05-2.65502E-07 3.38383E-20 1.10125E-18
 -1      1370 9.60250E-05-2.87837E-05-2.88172E-05-2.39882E-07-2.14695E-19 7.89120E-19
 -1      1371 9.64141E-05-2.88543E-05-2.89612E-05-6.68973E-07-5.68576E-19 1.44059E-18
 -1      1372 9.58404E-05-2.87320E-05-2.87583E-05-1.57897E-07-4.14171E-19 1.67241E-19
 -1      1373 9.56863E-05-2.86914E-05-2.87113E-05-1.43687E-07 8.74582E-20-1.93132E-19
 -1      1374 9.59406E-05-2.87422E-05-2.88041E-05-3.98235E-07-6.16219E-19 4.53189E-19
 -1      1375 9.55714E-05-2.86593E-05-2.86749E-05-9.37316E-08 2.87732E-19-5.75750E-19
 -1      1376 9.54812E-05-2.86358E-05-2.86473E-05-8.50914E-08 3.02951E-20-2.54820E-19
 -1      1377 9.56534E-05-2.86720E-05-2.87093E-05-2.38794E-07-1.14295E-19-7.13812E-19
 -1      1378 9.54105E-05-2.86158E-05-2.86251E-05-5.47814E-08 3.83503E-19-1.14664E-19
 -1      1379 9.53587E-05-2.86026E-05-2.86092E-05-4.95871E-08 5.30203E-19 1.00764E-18
 -1      1380 9.54749E-05-2.86282E-05-2.86504E-05-1.41605E-07 5.42984E-19-6.53670E-19
 -1      1381 9.53156E-05-2.85903E-05-2.85957E-05-3.12633E-08-4.71493E-22 5.70958E-19
 -1      1382 9.52867E-05-2.85831E-05-2.85868E-05-2.81519E-08-3.35818E-19 8.41721E-19
 -1      1383 9.53650E-05-2.86011E-05-2.86143E-05-8.25052E-08 6.71999E-19-1.32806E-18
 -1      1384 9.52609E-05-2.85756E-05-2.85789E-05-1.71248E-08-1.05585E-18 1.09240E-18
 -1      1385 9.52456E-05-2.85720E-05-2.85741E-05-1.52692E-08-8.44705E-19-7.97753E-19
 -1      1386 9.52982E-05-2.85845E-05-2.85923E-05-4.67005E-08-8.31413E-19-6.84573E-19
 -1      1387 9.52306E-05-2.85676E-05-2.85695E-05-8.69154E-09-2.73279E-19-1.28993E-18
 -1      1388 9.52233E-05-2.85661E-05-2.85671E-05-7.57926E-09-1.70848E-20-1.45079E-18
 -1      1389 9.52585E-05-2.85747E-05-2.85792E-05-2.51196E-08-1.15122E-18-1.42633E-18
 -1      1390 9.52147E-05-2.85635E-05-2.85646E-05-3.57399E-09 7.71110E-19-1.18360E-18
 -1      1391 9.52120E-05-2.85631E-05-2.85636E-05-2.89362E-09-1.68884E-19-8.67955E-19
 -1      1392 9.52354E-05-2.85690E-05-2.85716E-05-1.20478E-08 1.87486E-19-1.69578E-18
 -1      1393 9.52080E-05-2.85619E-05-2.85625E-05-7.19228E-10-4.60480E-19-4.96994E-19
 -1      1394 9.52080E-05-2.85622E-05-2.85624E-05-3.78864E-10 6.32993E-19-3.64783E-19
 -1      1395 9.52231E-05-2.85661E-05-2.85675E-05-4.33871E-09 9.53815E-20-3.36871E-19
 -1      1396 9.52064E-05-2.85616E-05-2.85619E-05 8.26787E-10 2.45924E-19-4.76741E-19
 -1      1397 9.52078E-05-2.85622E-05-2.85623E-05 1.00602E-09-4.55180E-19-4.34263E-19
 -1      1398 9.52175E-05-2.85648E-05-2.85655E-05-1.03636E-10-1.20272E-19 4.97242E-19
 -1      1399 9.52076E-05-2.85621E-05-2.85623E-05 1.61934E-09 8.27615E-19-9.36935E-19
 -1      1400 9.52096E-05-2.85629E-05-2.85628E-05 1.69893E-09 8.43143E-19-5.12530E-19
 -1      1401 9.52158E-05-2.85645E-05-2.85649E-05 2.19768E-09 1.04946E-19-1.45740E-19
 -1      1402 9.52103E-05-2.85630E-05-2.85631E-05 1.95500E-09-7.22770E-20-4.21879E-19
 -1      1403 9.52125E-05-2.85638E-05-2.85637E-05 1.97578E-09-4.39504E-21-2.38544E-19
 -1      1404 9.52162E-05-2.85648E-05-2.85649E-05 3.32323E-09 6.01421E-19-8.25928E-19
 -1      1405 9.52136E-05-2.85641E-05-2.85640E-05 2.01897E-09-2.23594E-19 2.67026E-19
 -1      1406 9.52158E-05-2.85648E-05-2.85647E-05 2.00774E-09 4.51897E-19 9.83311E-19
 -1      1407 9.52179E-05-2.85654E-05-2.85654E-05 3.74050E-09 1.77699E-19 1.24110E-18
 -1      1408 9.52171E-05-2.85652E-05-2.85651E-05 1.92291E-09 2.41299E-20 4.66793E-19
 -1      1409 9.52193E-05-2.85658E-05-2.85657E-05 1.89086E-09-9.67613E-19-3.20128E-19
 -1      1410 9.52202E-05-2.85661E-05-2.85660E-05 3.73574E-09-2.67313E-19 1.16905E-18
 -1      1411 9.52205E-05-2.85662E-05-2.85661E-05 1.74666E-09-1.32559E-18-9.66337E-19
 -1      1412 9.52223E-05-2.85668E-05-2.85667E-05 1.70564E-09-5.95890E-19-2.77508E-18
 -1      1413 9.52226E-05-2.85669E-05-2.85667E-05 3.48839E-09-1.92203E-18-6.49936E-19
 -1      1414 9.52235E-05-2.85671E-05-2.85670E-05 1.53532E-09-2.20297E-20-2.94272E-18
 -1      1415 9.52251E-05-2.85676E-05-2.85675E-05 1.49152E-09-3.59089E-20-3.29200E-18
 -1      1416 9.52250E-05-2.85676E-05-2.85674E-05 3.12726E-09-1.10695E-18-9.27869E-19
 -1      1417 9.52262E-05-2.85679E-05-2.85678E-05 1.31527E-09 1.90703E-19-3.64205E-18
 -1      1418 9.52275E-05-2.85683E-05-2.85682E-05 1.27239E-09 5.54553E-19-3.28268E-18
 -1      1419 9.52272E-05-2.85682E-05-2.85681E-05 2.72035E-09-2.26046E-20-1.77894E-18
 -1      1420 9.52285E-05-2.85686E-05-2.85685E-05 1.10300E-09 1.17675E-19-2.57144E-18
 -1      1421 9.52296E-05-2.85689E-05-2.85688E-05 1.06322E-09-2.53485E-19-2.51498E-18
 -1      1422 9.52291E-05-2.85688E-05-2.85687E-05 2.31035E-09 7.70484E-19-3.02898E-18
 -1      1423 9.52304E-05-2.85692E-05-2.85691E-05 9.07948E-10 1.66610E-19-2.84455E-18
 -1      1424 9.52313E-05-2.85694E-05-2.85694E-05 8.72356E-10 3.22878E-19-2.64991E-18
 -1      1425 9.52308E-05-2.85693E-05-2.85692E-05 1.92276E-09-3.14450E-19-1.17172E-18
 -1      1426 9.52319E-05-2.85696E-05-2.85696E-05 7.34719E-10-8.76603E-19-2.86972E-18
 -1      1427 9.52327E-05-2.85698E-05-2.85698E-05 7.03850E-10-4.65637E-19-3.85439E-18
 -1      1428 9.52322E-05-2.85697E-05-2.85696E-05 1.57170E-09-6.13500E-19-1.35706E-18
 -1      1429 9.52332E-05-2.85700E-05-2.85700E-05 5.79951E-10 8.64238E-20-4.19411E-18
 -1      1430 9.52339E-05-2.85702E-05-2.85701E-05 5.52212E-10 3.68268E-19-3.38959E-18
 -1      1431 9.52333E-05-2.85701E-05-2.85700E-05 1.25781E-09-2.65280E-19-2.00623E-18
 -1      1432 9.52343E-05-2.85703E-05-2.85703E-05 4.52747E-10 6.76159E-19-4.11140E-18
 -1      1433 9.52347E-05-2.85704E-05-2.85704E-05 4.31193E-10 5.86873E-19-2.52813E-18
 -1      1434 9.52343E-05-2.85703E-05-2.85703E-05 9.87413E-10 3.90827E-19-2.86147E-18
 -1      1435 9.52351E-05-2.85705E-05-2.85705E-05 3.49078E-10-2.71054E-19-2.56547E-18
 -1      1436 9.52354E-05-2.85706E-05-2.85706E-05 3.31338E-10-5.21066E-19-4.23070E-18
 -1      1437 9.52350E-05-2.85706E-05-2.85705E-05 7.67980E-10 8.32675E-20-2.50237E-18
 -1      1438 9.52357E-05-2.85707E-05-2.85707E-05 2.64601E-10-7.68281E-19-3.53453E-18
 -1      1439 9.52359E-05-2.85708E-05-2.85708E-05 2.50324E-10 6.78576E-19-3.51791E-18
 -1      1440 9.52356E-05-2.85707E-05-2.85707E-05 5.87732E-10-3.54793E-19-2.98541E-18
 -1      1441 9.52361E-05-2.85709E-05-2.85708E-05 1.96934E-10 1.32953E-18-3.13889E-18
 -1      1442 9.52363E-05-2.85709E-05-2.85709E-05 1.85617E-10 1.32278E-19-1.23181E-18
 -1      1443 9.52361E-05-2.85708E-05-2.85708E-05 4.42039E-10 1.45629E-18-1.67827E-18
 -1      1444 9.52365E-05-2.85710E-05-2.85709E-05 1.43537E-10-6.92986E-19-9.51302E-20
 -1      1445 9.52366E-05-2.85710E-05-2.85710E-05 1.34657E-10-6.09039E-19-1.27006E-18
 -1      1446 9.52364E-05-2.85709E-05-2.85709E-05 3.26080E-10 1.85459E-19-5.75714E-19
 -1      1447 9.52367E-05-2.85710E-05-2.85710E-05 1.00589E-10-6.65039E-19-6.96411E-19
 -1      1448 9.52368E-05-2.85711E-05-2.85710E-05 9.33292E-11-8.31257E-20-9.76574E-19
 -1      1449 9.52367E-05-2.85710E-05-2.85710E-05 2.33475E-10-9.01928E-19 2.55806E-19
 -1      1450 9.52369E-05-2.85711E-05-2.85711E-05 6.83121E-11-1.24069E-18-1.21224E-18
 -1      1451 9.52370E-05-2.85711E-05-2.85711E-05 6.31590E-11 4.70266E-19-2.63592E-18
 -1      1452 9.52368E-05-2.85711E-05-2.85710E-05 1.61177E-10-8.23986E-19-4.97335E-19
 -1      1453 9.52370E-05-2.85711E-05-2.85711E-05 4.38537E-11 3.00568E-19-2.65044E-18
 -1      1454 9.52371E-05-2.85711E-05-2.85711E-05 3.98197E-11-2.41093E-19-4.43092E-18
 -1      1455 9.52370E-05-2.85711E-05-2.85711E-05 1.07149E-10 1.81799E-19-9.74984E-19
 -1      1456 9.52371E-05-2.85711E-05-2.85711E-05 2.47586E-11-9.26946E-20-3.60833E-18
 -1      1457 9.52371E-05-2.85711E-05-2.85711E-05 2.15150E-11 2.82086E-19-3.75916E-18
 -1      1458 9.52371E-05-2.85711E-05-2.85711E-05 6.52621E-11-2.63998E-19-2.63920E-18
 -1      1459 9.52371E-05-2.85711E-05-2.85711E-05 9.66906E-12 6.74298E-19-3.58840E-18
 -1      1460 9.52371E-05-2.85711E-05-2.85711E-05 6.95834E-12 8.70712E-19-2.43658E-18
 -1      1461 9.52371E-05-2.85711E-05-2.85711E-05 3.24392E-11 6.16596E-19-8.88116E-19
 -1      1462 9.52371E-05-2.85711E-05-2.85711E-05-1.45074E-12-4.65370E-19-2.93747E-18
 -1      1463 9.52371E-05-2.85711E-05-2.85711E-05-3.14151E-12-1.17289E-18-3.20007E-18
 -1      1464 9.52371E-05-2.85711E-05-2.85711E-05 7.40252E-12 6.18972E-20-5.07675E-19
 -1      1465 9.52371E-05-2.85711E-05-2.85711E-05-6.38555E-12-9.65457E-19-2.61212E-18
 -1      1466 9.52371E-05-2.85711E-05-2.85711E-05-3.95728E-12 7.98697E-19-6.72955E-19
 -1      1467 9.52371E-05-2.85711E-05-2.85711E-05-6.23140E-12 2.99260E-18 7.06421E-19
 -1      1468 9.52371E-05-2.85711E-05-2.85711E-05-5.94900E-12-8.54952E-19 2.44307E-20
 -1      1469 7.68012E-05-2.23391E-05-2.39831E-05 3.72654E-06 1.50952E-18 6.21277E-18
 -1      1470 8.37386E-05-2.34583E-05-2.66186E-05 5.20516E-06 1.26711E-18 8.85615E-18
 -1      1471 8.63413E-05-2.17488E-05-2.81005E-05 1.48545E-05 2.74772E-18 4.81432E-18
 -1      1472 7.15159E-05-2.11674E-05-2.17249E-05 1.20946E-06 9.48677E-19 3.33698E-18
 -1      1473 7.37567E-05-2.13607E-05-2.27311E-05 1.68516E-06 9.77476E-19 5.21606E-18
 -1      1474 7.92512E-05-2.26145E-05-2.45364E-05 5.63186E-06 2.20520E-18 2.86335E-18
 -1      1475 7.02524E-05-2.09312E-05-2.11595E-05-1.79967E-07 6.81762E-19 1.36851E-18
 -1      1476 7.04643E-05-2.07780E-05-2.13243E-05 1.34614E-07 7.28111E-19 2.64920E-18
 -1      1477 7.55800E-05-2.21448E-05-2.29987E-05 1.47065E-06 1.56145E-18 1.39518E-18
 -1      1478 7.13765E-05-2.13289E-05-2.14495E-05-1.03316E-06 3.71887E-19-4.03135E-20
 -1      1479 7.04227E-05-2.09145E-05-2.11959E-05-8.08527E-07 4.63142E-19 8.27922E-19
 -1      1480 7.48413E-05-2.21889E-05-2.26250E-05-9.06776E-07 1.10714E-18 2.57789E-19
 -1      1481 7.39854E-05-2.21600E-05-2.22052E-05-1.55763E-06 4.08945E-19-1.20424E-18
 -1      1482 7.23120E-05-2.15595E-05-2.17291E-05-1.40600E-06 3.81956E-19-4.77700E-19
 -1      1483 7.59572E-05-2.26372E-05-2.28949E-05-2.35439E-06 8.26195E-19-7.53237E-19
 -1      1484 7.74150E-05-2.32327E-05-2.32077E-05-1.80378E-06 2.83026E-19-2.21221E-18
 -1      1485 7.53640E-05-2.25388E-05-2.26206E-05-1.71846E-06 3.71894E-19-1.52281E-18
 -1      1486 7.82560E-05-2.34136E-05-2.35308E-05-3.16945E-06 7.31135E-19-1.73655E-18
 -1      1487 8.11146E-05-2.43771E-05-2.42952E-05-1.81431E-06 1.70093E-19-2.81294E-18
 -1      1488 7.89747E-05-2.36775E-05-2.36806E-05-1.78803E-06 1.59898E-19-2.47101E-18
 -1      1489 8.11586E-05-2.43582E-05-2.43538E-05-3.47023E-06 5.36999E-19-2.18315E-18
 -1      1490 8.46531E-05-2.54598E-05-2.53431E-05-1.64898E-06 1.58691E-19-3.27598E-18
 -1      1491 8.26495E-05-2.48228E-05-2.47649E-05-1.66834E-06 1.71089E-19-2.83198E-18
 -1      1492 8.42069E-05-2.53285E-05-2.52310E-05-3.35910E-06 2.85405E-19-2.62758E-18
 -1      1493 8.77421E-05-2.63938E-05-2.62661E-05-1.37900E-06-2.25456E-20-3.54909E-18
 -1      1494 8.60217E-05-2.58608E-05-2.57665E-05-1.42695E-06 9.81102E-20-3.27063E-18
 -1      1495 8.70604E-05-2.62174E-05-2.60639E-05-2.96290E-06 2.93065E-19-2.56862E-18
 -1      1496 9.02391E-05-2.71392E-05-2.70195E-05-1.07175E-06 7.15710E-20-3.46626E-18
 -1      1497 8.88687E-05-2.67255E-05-2.66189E-05-1.13194E-06 4.05666E-20-3.42098E-18
 -1      1498 8.95071E-05-2.69621E-05-2.67890E-05-2.41693E-06 7.47606E-20-2.30684E-18
 -1      1499 9.21231E-05-2.76939E-05-2.75938E-05-7.78252E-07-3.95459E-20-3.37545E-18
 -1      1500 9.11042E-05-2.73945E-05-2.72937E-05-8.38176E-07-1.01690E-19-3.34192E-18
 -1      1501 9.14557E-05-2.75402E-05-2.73758E-05-1.83832E-06 2.34588E-21-2.33763E-18
 -1      1502 9.34548E-05-2.80804E-05-2.80039E-05-5.28644E-07-2.35500E-19-3.17027E-18
 -1      1503 9.27459E-05-2.78781E-05-2.77935E-05-5.80754E-07-1.65205E-20-3.36549E-18
 -1      1504 9.29078E-05-2.79595E-05-2.78204E-05-1.30886E-06-1.15344E-19-2.17734E-18
 -1      1505 9.43359E-05-2.83321E-05-2.82782E-05-3.34501E-07-9.83518E-21-3.02132E-18
 -1      1506 9.38754E-05-2.82051E-05-2.81404E-05-3.75617E-07-1.69234E-19-2.99951E-18
 -1      1507 9.39237E-05-2.82441E-05-2.81366E-05-8.72010E-07-2.59705E-19-1.98093E-18
 -1      1508 9.48778E-05-2.84841E-05-2.84489E-05-1.94530E-07 1.32856E-19-3.12364E-18
 -1      1509 9.46011E-05-2.84110E-05-2.83653E-05-2.24501E-07 1.96469E-19-2.89366E-18
 -1      1510 9.45895E-05-2.84246E-05-2.83477E-05-5.40173E-07 1.31249E-19-2.10401E-18
 -1      1511 9.51816E-05-2.85672E-05-2.85461E-05-1.00506E-07-1.29781E-19-2.96643E-18
 -1      1512 9.50317E-05-2.85301E-05-2.85002E-05-1.20841E-07-1.94109E-19-3.08578E-18
 -1      1513 9.49949E-05-2.85300E-05-2.84790E-05-3.05717E-07 4.73710E-20-1.91084E-18
 -1      1514 9.53297E-05-2.86060E-05-2.85946E-05-4.18180E-08 2.77037E-19-3.62232E-18
 -1      1515 9.52609E-05-2.85911E-05-2.85730E-05-5.46441E-08 7.57197E-20-3.08658E-18
 -1      1516 9.52193E-05-2.85851E-05-2.85537E-05-1.51231E-07 1.16350E-19-2.13504E-18
 -1      1517 9.53832E-05-2.86184E-05-2.86131E-05-8.25377E-09 1.20752E-20-3.98279E-18
 -1      1518 9.53624E-05-2.86161E-05-2.86062E-05-1.56820E-08 3.37276E-19-3.51748E-18
 -1      1519 9.53261E-05-2.86086E-05-2.85910E-05-5.68166E-08 5.41007E-19-1.93945E-18
 -1      1520 9.53845E-05-2.86166E-05-2.86150E-05 8.67547E-09-5.04981E-20-3.67873E-18
 -1      1521 9.53892E-05-2.86204E-05-2.86158E-05 4.86088E-09-1.30108E-19-3.86481E-18
 -1      1522 9.53620E-05-2.86138E-05-2.86052E-05-4.28961E-09-3.41791E-21-1.88535E-18
 -1      1523 9.53610E-05-2.86083E-05-2.86086E-05 1.53685E-08-4.10556E-20-3.68446E-18
 -1      1524 9.53769E-05-2.86145E-05-2.86131E-05 1.38060E-08 5.72203E-20-3.68558E-18
 -1      1525 9.53592E-05-2.86096E-05-2.86065E-05 2.10066E-08-6.54424E-20-2.50455E-18
 -1      1526 9.53292E-05-2.85982E-05-2.85994E-05 1.62925E-08-4.01501E-19-3.44383E-18
 -1      1527 9.53481E-05-2.86046E-05-2.86048E-05 1.60205E-08-2.94947E-19-3.66995E-18
 -1      1528 9.53383E-05-2.86015E-05-2.86014E-05 2.98817E-08-7.22049E-20-2.42758E-18
 -1      1529 9.52980E-05-2.85887E-05-2.85901E-05 1.43581E-08-3.44469E-19-2.06269E-18
 -1      1530 9.53155E-05-2.85942E-05-2.85952E-05 1.47426E-08-6.03530E-19-2.98979E-18
 -1      1531 9.53117E-05-2.85926E-05-2.85940E-05 2.97488E-08-8.33340E-19-2.18722E-18
 -1      1532 9.52716E-05-2.85808E-05-2.85821E-05 1.13319E-08 6.07350E-19-2.69117E-18
 -1      1533 9.52859E-05-2.85851E-05-2.85863E-05 1.19822E-08 3.89729E-19-1.87577E-18
 -1      1534 9.52862E-05-2.85847E-05-2.85865E-05 2.53578E-08 2.29809E-19-1.68337E-18
 -1      1535 9.52514E-05-2.85748E-05-2.85759E-05 8.19738E-09-4.86994E-19-2.33563E-18
 -1      1536 9.52620E-05-2.85779E-05-2.85791E-05 8.89144E-09 1.09303E-19-2.75344E-18
 -1      1537 9.52648E-05-2.85783E-05-2.85801E-05 1.95373E-08 1.02707E-19-2.10370E-18
 -1      1538 9.52372E-05-2.85707E-05-2.85715E-05 5.43553E-09 4.29804E-19-2.60287E-18
 -1      1539 9.52444E-05-2.85727E-05-2.85737E-05 6.06113E-09 1.00567E-19-2.20391E-18
 -1      1540 9.52484E-05-2.85736E-05-2.85751E-05 1.38218E-08-5.82028E-20-1.82697E-18
 -1      1541 9.52280E-05-2.85681E-05-2.85686E-05 3.22637E-09 5.69444E-20-3.08674E-18
 -1      1542 9.52325E-05-2.85692E-05-2.85700E-05 3.73812E-09 6.55512E-21-2.94879E-18
 -1      1543 9.52369E-05-2.85703E-05-2.85715E-05 8.92773E-09 5.24999E-19-1.51174E-18
 -1      1544 9.52229E-05-2.85666E-05-2.85670E-05 1.58406E-09 3.88947E-19-3.48237E-18
 -1      1545 9.52252E-05-2.85672E-05-2.85677E-05 1.97428E-09 6.82893E-19-3.05971E-18
 -1      1546 9.52295E-05-2.85683E-05-2.85692E-05 5.09028E-09 7.88156E-19-9.36847E-19
 -1      1547 9.52206E-05-2.85660E-05-2.85663E-05 4.42355E-10-9.16058E-19-2.87839E-18
 -1      1548 9.52214E-05-2.85662E-05-2.85665E-05 7.22387E-10-6.48922E-19-3.82100E-18
 -1      1549 9.52253E-05-2.85672E-05-2.85678E-05 2.28566E-09-2.57628E-19-1.37326E-18
 -1      1550 9.52203E-05-2.85660E-05-2.85661E-05-2.94758E-10 4.62713E-19-2.04110E-18
 -1      1551 9.52201E-05-2.85659E-05-2.85661E-05-1.05837E-10 8.08274E-20-2.22531E-18
 -1      1552 9.52234E-05-2.85668E-05-2.85672E-05 3.70111E-10-2.02176E-19-1.50766E-18
 -1      1553 9.52212E-05-2.85663E-05-2.85664E-05-7.25470E-10 1.10288E-18-4.92344E-18
 -1      1554 9.52205E-05-2.85660E-05-2.85662E-05-6.07174E-10 1.09764E-18-3.32913E-18
 -1      1555 9.52232E-05-2.85668E-05-2.85670E-05-8.39254E-10 1.71944E-18-1.42755E-18
 -1      1556 9.52228E-05-2.85668E-05-2.85668E-05-9.36817E-10-7.85895E-19-5.30025E-18
 -1      1557 9.52218E-05-2.85665E-05-2.85665E-05-8.70438E-10 5.55943E-20-5.45792E-18
 -1      1558 9.52239E-05-2.85671E-05-2.85672E-05-1.52126E-09 1.01538E-18-2.57254E-18
 -1      1559 9.52248E-05-2.85674E-05-2.85674E-05-9.99758E-10-7.17622E-19-3.76299E-18
 -1      1560 9.52236E-05-2.85671E-05-2.85671E-05-9.69674E-10-6.18936E-19-5.01800E-18
 -1      1561 9.52253E-05-2.85676E-05-2.85676E-05-1.83074E-09-7.30663E-19-2.29375E-18
 -1      1562 9.52268E-05-2.85681E-05-2.85680E-05-9.68789E-10 1.13066E-18-4.46129E-18
 -1      1563 9.52256E-05-2.85677E-05-2.85677E-05-9.62728E-10 4.70145E-19-4.22668E-18
 -1      1564 9.52269E-05-2.85681E-05-2.85681E-05-1.89195E-09 4.63111E-19-3.35697E-18
 -1      1565 9.52287E-05-2.85686E-05-2.85686E-05-8.83748E-10 3.94986E-19-6.02693E-18
 -1      1566 9.52276E-05-2.85683E-05-2.85683E-05-8.92525E-10 7.92549E-19-4.77265E-18
 -1      1567 9.52285E-05-2.85686E-05-2.85685E-05-1.79919E-09 1.35154E-18-3.49100E-18
 -1      1568 9.52304E-05-2.85691E-05-2.85691E-05-7.72428E-10 6.53684E-19-7.37951E-18
 -1      1569 9.52294E-05-2.85688E-05-2.85688E-05-7.89459E-10 9.65724E-19-5.81551E-18
 -1      1570 9.52301E-05-2.85691E-05-2.85690E-05-1.62067E-09 1.37589E-18-3.22155E-18
 -1      1571 9.52318E-05-2.85696E-05-2.85695E-05-6.53266E-10-1.26171E-18-5.32458E-18
 -1      1572 9.52310E-05-2.85693E-05-2.85693E-05-6.74032E-10-1.00088E-18-6.60649E-18
 -1      1573 9.52315E-05-2.85695E-05-2.85694E-05-1.40343E-09-6.72484E-19-3.10778E-18
 -1      1574 9.52331E-05-2.85699E-05-2.85699E-05-5.37750E-10-2.30688E-19-4.28745E-18
 -1      1575 9.52324E-05-2.85697E-05-2.85697E-05-5.59301E-10-2.90920E-19-4.90223E-18
 -1      1576 9.52327E-05-2.85698E-05-2.85698E-05-1.17826E-09-7.79369E-19-2.02727E-18
 -1      1577 9.52341E-05-2.85702E-05-2.85702E-05-4.32406E-10 6.21460E-19-6.36925E-18
 -1      1578 9.52336E-05-2.85701E-05-2.85701E-05-4.52940E-10 1.61480E-19-5.75270E-18
 -1      1579 9.52337E-05-2.85702E-05-2.85701E-05-9.63990E-10 4.36020E-19-4.24559E-18
 -1      1580 9.52349E-05-2.85705E-05-2.85705E-05-3.40360E-10-2.94957E-20-6.21407E-18
 -1      1581 9.52345E-05-2.85704E-05-2.85703E-05-3.58884E-10-3.78764E-19-6.12129E-18
 -1      1582 9.52346E-05-2.85704E-05-2.85704E-05-7.70976E-10 1.21763E-19-5.29015E-18
 -1      1583 9.52355E-05-2.85707E-05-2.85707E-05-2.62510E-10-3.85023E-19-6.55381E-18
 -1      1584 9.52352E-05-2.85706E-05-2.85706E-05-2.78578E-10 3.63041E-19-5.82607E-18
 -1      1585 9.52352E-05-2.85706E-05-2.85706E-05-6.03828E-10 8.60822E-20-4.73664E-18
 -1      1586 9.52360E-05-2.85708E-05-2.85708E-05-1.98375E-10-7.57661E-19-4.21846E-18
 -1      1587 9.52358E-05-2.85707E-05-2.85707E-05-2.11900E-10-4.38295E-19-5.53366E-18
 -1      1588 9.52358E-05-2.85708E-05-2.85707E-05-4.63431E-10-6.44505E-19-2.85255E-18
 -1      1589 9.52364E-05-2.85709E-05-2.85709E-05-1.46691E-10-1.20031E-18-2.34640E-18
 -1      1590 9.52362E-05-2.85709E-05-2.85709E-05-1.57804E-10-1.04497E-18-3.60841E-18
 -1      1591 9.52362E-05-2.85709E-05-2.85708E-05-3.48404E-10-1.52578E-18-2.84138E-18
 -1      1592 9.52367E-05-2.85710E-05-2.85710E-05-1.05802E-10 1.11673E-18-4.76308E-18
 -1      1593 9.52365E-05-2.85710E-05-2.85710E-05-1.14758E-10 7.59647E-19-3.18129E-18
 -1      1594 9.52365E-05-2.85710E-05-2.85709E-05-2.56103E-10 1.06919E-18-4.36162E-18
 -1      1595 9.52369E-05-2.85711E-05-2.85711E-05-7.39047E-11-8.83362E-19-4.72375E-18
 -1      1596 9.52368E-05-2.85710E-05-2.85710E-05-8.10310E-11-8.49020E-21-5.08385E-18
 -1      1597 9.52367E-05-2.85710E-05-2.85710E-05-1.83285E-10 5.92194E-19-4.60848E-18
 -1      1598 9.52370E-05-2.85711E-05-2.85711E-05-4.92042E-11-8.12920E-19-2.55241E-18
 -1      1599 9.52369E-05-2.85711E-05-2.85711E-05-5.48551E-11-6.09276E-19-4.44112E-18
 -1      1600 9.52369E-05-2.85711E-05-2.85711E-05-1.26520E-10-1.28277E-18-4.98761E-18
 -1      1601 9.52371E-05-2.85711E-05-2.85711E-05-3.00319E-11 1.26906E-19-1.56147E-18
 -1      1602 9.52370E-05-2.85711E-05-2.85711E-05-3.45573E-11-2.39463E-19-2.24615E-18
 -1      1603 9.52370E-05-2.85711E-05-2.85711E-05-8.24600E-11-9.07420E-19-3.06278E-18
 -1      1604 9.52371E-05-2.85711E-05-2.85711E-05-1.48490E-11-5.01833E-19-8.02071E-19
 -1      1605 9.52371E-05-2.85711E-05-2.85711E-05-1.86291E-11-5.77587E-20-1.11453E-18
 -1      1606 9.52371E-05-2.85711E-05-2.85711E-05-4.80936E-11-1.13360E-19-2.00325E-18
 -1      1607 9.52371E-05-2.85711E-05-2.85711E-05-2.72921E-12 9.03198E-19-2.06594E-18
 -1      1608 9.52371E-05-2.85711E-05-2.85711E-05-6.01992E-12 9.13666E-19-9.77678E-19
 -1      1609 9.52371E-05-2.85711E-05-2.85711E-05-2.09229E-11 1.03261E-18-7.77193E-19
 -1      1610 9.52371E-05-2.85711E-05-2.85711E-05 5.28266E-12 5.03593E-20-2.75287E-18
 -1      1611 9.52372E-05-2.85711E-05-2.85711E-05 2.74379E-12-9.67351E-19-3.68049E-18
 -1      1612 9.52371E-05-2.85711E-05-2.85711E-05-6.92030E-13 2.34379E-19-1.98001E-18
 -1      1613 9.52371E-05-2.85711E-05-2.85711E-05 4.35859E-12-1.52505E-18-1.39885E-18
 -1      1614 9.52371E-05-2.85711E-05-2.85711E-05-4.21039E-14-4.22012E-18-7.30929E-19
 -1      1615 9.52371E-05-2.85711E-05-2.85711E-05 1.85790E-12-3.49114E-18-5.58079E-19
 -1      1616 9.52371E-05-2.85712E-05-2.85711E-05-1.19833E-11-2.52661E-18 2.43425E-19
 -1      1617 9.52371E-05-2.85711E-05-2.85711E-05-9.07237E-12-3.26160E-18-1.38788E-21
 -1      1618 9.52371E-05-2.85712E-05-2.85711E-05-1.10620E-11-1.81104E-18 2.10579E-19
 -1      1619 9.52372E-05-2.85712E-05-2.85711E-05-2.21677E-11-1.15333E-18-2.90978E-20
 -1      1620 9.52371E-05-2.85712E-05-2.85711E-05-2.02512E-11-1.45076E-18 1.43348E-18
 -1      1621 9.52371E-05-2.85712E-05-2.85711E-05-3.24235E-11-1.11014E-18 1.09342E-18
 -1      1622 9.52372E-05-2.85712E-05-2.85711E-05-2.76973E-11 9.42132E-19-1.34817E-18
 -1      1623 9.52372E-05-2.85712E-05-2.85711E-05-2.70289E-11 2.34870E-19 4.99245E-19
 -1      1624 9.52372E-05-2.85712E-05-2.85711E-05-4.83861E-11-5.30266E-19 1.39677E-18
 -1      1625 9.52372E-05-2.85713E-05-2.85711E-05-2.72127E-11 2.62588E-19 5.80556E-19
 -1      1626 9.52372E-05-2.85713E-05-2.85711E-05-2.77621E-11 5.52375E-19-2.04791E-18
 -1      1627 9.52372E-05-2.85713E-05-2.85711E-05-5.40775E-11-2.76685E-19-1.22321E-18
 -1      1628 9.52372E-05-2.85713E-05-2.85711E-05-2.11282E-11 1.29401E-18-8.49958E-19
 -1      1629 9.52372E-05-2.85713E-05-2.85711E-05-2.27359E-11 8.86828E-19 4.28077E-19
 -1      1630 9.52372E-05-2.85713E-05-2.85711E-05-4.85702E-11-1.47463E-18 7.95106E-19
 -1      1631 9.52372E-05-2.85713E-05-2.85711E-05-1.08196E-11-5.25326E-19-1.15968E-18
 -1      1632 9.52372E-05-2.85713E-05-2.85711E-05-1.31180E-11 1.77290E-19-1.63282E-19
 -1      1633 9.52372E-05-2.85713E-05-2.85711E-05-3.32592E-11-7.63903E-19-1.64685E-18
 -1      1634 9.52372E-05-2.85713E-05-2.85711E-05 1.60711E-12 5.47547E-19 1.29472E-18
 -1      1635 9.52372E-05-2.85713E-05-2.85711E-05-9.24461E-13-3.90421E-19-3.73342E-19
 -1      1636 9.52372E-05-2.85713E-05-2.85711E-05-1.14042E-11 9.36477E-19-1.40401E-18
 -1      1637 9.52372E-05-2.85713E-05-2.85711E-05 1.37226E-11-8.08605E-19-5.34247E-19
 -1      1638 9.52372E-05-2.85713E-05-2.85711E-05 1.14508E-11-6.34801E-19 6.05430E-19
 -1      1639 9.52372E-05-2.85713E-05-2.85711E-05 1.26673E-11 8.10580E-20 5.18097E-19
 -1      1640 9.52372E-05-2.85713E-05-2.85711E-05 2.31419E-11-1.58157E-18-3.38263E-19
 -1      1641 9.52372E-05-2.85713E-05-2.85711E-05 2.15903E-11-8.48534E-19-2.57235E-19
 -1      1642 9.52372E-05-2.85713E-05-2.85711E-05 3.42853E-11-1.67393E-18-9.09221E-19
 -1      1643 9.52372E-05-2.85713E-05-2.85711E-05 2.78629E-11-8.31295E-19 1.43430E-19
 -1      1644 9.52372E-05-2.85713E-05-2.85711E-05 2.73697E-11-5.90435E-19-1.48301E-19
 -1      1645 9.52372E-05-2.85713E-05-2.85711E-05 4.90956E-11-4.86975E-19 4.80554E-20
 -1      1646 9.52372E-05-2.85712E-05-2.85711E-05 2.68346E-11-2.62875E-18-1.75044E-18
 -1      1647 9.52372E-05-2.85712E-05-2.85711E-05 2.75747E-11-1.20629E-18-9.41562E-20
 -1      1648 9.52372E-05-2.85713E-05-2.85711E-05 5.40810E-11 5.12662E-19-1.42387E-18
 -1      1649 9.52371E-05-2.85712E-05-2.85711E-05 1.98702E-11-3.49413E-18-1.26796E-19
 -1      1650 9.52372E-05-2.85712E-05-2.85711E-05 2.17954E-11-3.19863E-18 3.69025E-19
 -1      1651 9.52372E-05-2.85712E-05-2.85711E-05 4.78325E-11-2.52220E-19-1.13178E-18
 -1      1652 9.52371E-05-2.85711E-05-2.85711E-05 8.54491E-12-1.02399E-18 7.24990E-19
 -1      1653 9.52371E-05-2.85712E-05-2.85711E-05 1.11833E-11-3.34884E-18 7.38749E-19
 -1      1654 9.52371E-05-2.85712E-05-2.85711E-05 3.13475E-11-1.98873E-18 7.08872E-19
 -1      1655 9.52371E-05-2.85711E-05-2.85711E-05-1.34330E-12 2.49415E-18 1.89725E-18
 -1      1656 9.52371E-05-2.85711E-05-2.85711E-05 4.36907E-13-2.16661E-20 8.06659E-19
 -1      1657 9.52371E-05-2.85712E-05-2.85711E-05 1.08293E-11-1.35360E-18 1.94178E-18
 -1      1658 9.52371E-05-2.85711E-05-2.85711E-05-3.33678E-12-1.96675E-19 1.34661E-18
 -1      1659 1.81639E-05-5.36892E-05 9.45584E-06-9.83717E-09-2.62623E-18 2.73592E-18
 -1      1660 2.19528E-05-6.65399E-05 1.22713E-05 5.98094E-06-8.11923E-18 2.67281E-18
 -1      1661 1.93339E-05-2.34776E-05-1.85845E-06 1.36118E-05 5.28040E-18 6.14988E-18
 -1      1662 2.26991E-05-4.72323E-05 4.79174E-06 6.91817E-06-6.49674E-19 3.50875E-18
 -1      1663 3.65725E-05 2.44178E-06-1.79253E-05 4.08459E-05 1.03169E-17 9.10899E-18
 -1      1664 2.86555E-05-1.65150E-05-9.18078E-06 2.12934E-05 7.46321E-18 6.08170E-18
 -1      1665 8.14326E-05 7.51601E-06-3.66399E-05 7.32439E-05 1.07904E-17 1.20296E-17
 -1      1666 5.37189E-05 5.23305E-06-2.68607E-05 5.01286E-05 1.09843E-17 9.86793E-18
 -1      1667 1.49589E-04-1.37749E-05-5.43731E-05 8.55793E-05 8.14592E-18 1.22328E-17
 -1      1668 1.07980E-04 9.25877E-07-4.55562E-05 7.55597E-05 9.64601E-18 1.18983E-17
 -1      1669 2.13162E-04-4.13909E-05-6.79400E-05 7.28899E-05 5.28930E-18 1.04575E-17
 -1      1670 1.72617E-04-1.95150E-05-6.18679E-05 8.50221E-05 7.67666E-18 1.21498E-17
 -1      1671 2.47844E-04-6.06682E-05-7.44538E-05 2.78629E-05 2.87504E-18 5.64187E-18
 -1      1672 2.28250E-04-4.79206E-05-7.19635E-05 5.88618E-05 4.31563E-18 8.91714E-18
 -1      1673 2.39047E-04-5.70891E-05-7.33205E-05-2.28630E-05 2.34967E-18 7.49624E-20
 -1      1674 2.48808E-04-6.15113E-05-7.47904E-05 1.05788E-05 2.54639E-18 3.80646E-18
 -1      1675 1.94977E-04-3.57623E-05-6.55703E-05-6.17151E-05 3.55341E-18-4.72306E-18
 -1      1676 2.29938E-04-5.43684E-05-7.05335E-05-4.00168E-05 2.31277E-18-1.60428E-18
 -1      1677 1.31891E-04-9.30627E-06-5.25352E-05-6.99430E-05 4.93058E-18-6.32056E-18
 -1      1678 1.73045E-04-2.82152E-05-5.95838E-05-6.87792E-05 3.61937E-18-5.31259E-18
 -1      1679 7.12366E-05 1.30629E-05-3.83765E-05-6.26378E-05 5.87206E-18-6.51368E-18
 -1      1680 1.04015E-04 2.82032E-06-4.57148E-05-7.56698E-05 5.28040E-18-7.28448E-18
 -1      1681 3.09258E-05 2.00693E-05-2.49541E-05-4.10637E-05 4.48631E-18-4.17672E-18
 -1      1682 4.90776E-05 2.07622E-05-3.15429E-05-5.66862E-05 5.44981E-18-6.20875E-18
 -1      1683 1.07301E-05 1.57273E-05-1.35994E-05-2.19254E-05 1.14011E-18-1.86347E-18
 -1      1684 1.79514E-05 2.18342E-05-1.90189E-05-3.28183E-05 3.23312E-18-3.60900E-18
 -1      1685 2.19441E-06 5.80006E-06-4.80632E-06-1.01226E-05-1.42386E-18-8.56787E-19
 -1      1686 2.62824E-06 1.41866E-05-8.66873E-06-1.39846E-05 1.02660E-18-1.73049E-18
 -1      1687 2.05566E-06-8.77012E-06 1.27625E-06-1.06000E-05-4.27243E-18-1.26187E-18
 -1      1688 4.57913E-07 1.34751E-06-1.51652E-06-8.78923E-06-1.89693E-18-1.04693E-18
 -1      1689 2.12111E-06-2.06029E-05 4.02323E-06-1.77299E-05-7.12905E-18-3.10374E-18
 -1      1690 1.07246E-06-1.23039E-05 3.01790E-06-1.13035E-05-4.76795E-18-1.84484E-18
 -1      1691 3.25404E-06-2.05704E-05 6.64632E-07-1.89373E-05-9.25638E-18-6.38112E-18
 -1      1692 3.18003E-06-2.11456E-05 2.75958E-06-1.54814E-05-7.25695E-18-4.15470E-18
 -1      1693 1.90947E-05-1.67079E-05-9.11603E-06-4.06408E-06-1.05498E-17-1.00810E-17
 -1      1694 1.43710E-05-2.58133E-05-3.52606E-06-1.21075E-05-9.57401E-18-7.46214E-18
 -1      1695 7.21618E-05-2.15056E-05-2.70583E-05 2.56418E-05-9.45628E-18-1.21354E-17
 -1      1696 4.58941E-05-2.63384E-05-1.70711E-05 3.76589E-06-9.98398E-18-1.02262E-17
 -1      1697 1.52937E-04-3.91339E-05-4.83363E-05 4.74022E-05-7.51064E-18-1.25429E-17
 -1      1698 1.03927E-04-2.93764E-05-3.70906E-05 2.85804E-05-9.01243E-18-1.23616E-17
 -1      1699 2.45107E-04-6.73116E-05-6.87575E-05 4.16064E-05-4.63920E-18-8.88199E-18
 -1      1700 1.84592E-04-4.51154E-05-5.82921E-05 4.37529E-05-7.14726E-18-1.13638E-17
 -1      1701 3.06620E-04-8.51444E-05-8.25114E-05-8.73451E-07-3.06626E-18-2.16840E-18
 -1      1702 2.65031E-04-6.89320E-05-7.59228E-05 2.69902E-05-4.18815E-18-6.41373E-18
 -1      1703 3.13247E-04-8.13675E-05-8.62793E-05-4.46881E-05-4.29996E-18 5.52922E-18
 -1      1704 3.17085E-04-8.60170E-05-8.59186E-05-7.75007E-06-3.70069E-18-3.71000E-19
 -1      1705 2.56758E-04-5.47981E-05-7.81642E-05-7.48496E-05-7.68767E-18 1.22354E-17
 -1      1706 3.01949E-04-7.73653E-05-8.36230E-05-5.27763E-05-5.16690E-18 7.45389E-18
 -1      1707 1.73849E-04-2.63538E-05-6.06498E-05-7.74790E-05-1.17915E-17 1.57921E-17
 -1      1708 2.32809E-04-4.93037E-05-7.07964E-05-8.17461E-05-8.57451E-18 1.31273E-17
 -1      1709 9.50953E-05-9.03482E-06-3.91997E-05-5.90508E-05-1.71677E-17 1.70830E-17
 -1      1710 1.39257E-04-1.54989E-05-5.07545E-05-8.23784E-05-1.37660E-17 1.72151E-17
 -1      1711 5.02285E-05-2.03120E-05-1.79883E-05-2.72682E-05-1.94191E-17 1.45486E-17
 -1      1712 7.12321E-05-8.40836E-06-2.87203E-05-5.16542E-05-1.77504E-17 1.59462E-17
 -1      1713 2.61099E-05-4.01586E-05-9.27968E-07-2.60220E-06-1.95995E-17 1.07173E-17
 -1      1714 2.81307E-05-1.89452E-05-8.77969E-06-1.61574E-05-2.07548E-17 1.38414E-17
 -1      1715 2.23631E-05-6.14386E-05 9.47613E-06 5.04385E-06-1.50374E-17 6.28446E-18
 -1      1716 1.81403E-05-4.46819E-05 5.03139E-06 5.13106E-06-1.85737E-17 9.29730E-18
 -1      1717 2.14555E-05-6.78753E-05 1.30077E-05 2.26322E-06-1.00220E-17 2.44178E-18
 -1      1718 1.97847E-05-6.41776E-05 1.21074E-05 9.82702E-06-1.36624E-17 4.09159E-18
 -1      1719 2.03981E-04-5.44513E-05-6.25484E-05-1.04229E-05 1.15938E-18 1.26153E-17
 -1      1720 1.74588E-04-4.73728E-05-5.33088E-05-1.50078E-05 1.94267E-18 8.49616E-18
 -1      1721 1.03111E-05-4.21998E-05 8.71860E-06 7.60334E-06-6.29833E-18 5.56839E-18
 -1      1722 7.45949E-05-2.18364E-05-2.32544E-05 5.01894E-05 4.45878E-18 6.88892E-18
 -1      1723 9.52371E-05-2.85711E-05-2.85711E-05 6.97899E-12-2.01276E-18-1.85973E-18
 -1      1724 9.52371E-05-2.85711E-05-2.85711E-05 3.77708E-12 2.21095E-19-2.68258E-18
 -1      1725 1.91829E-05-3.68660E-05 3.61907E-06 2.26547E-05-2.62750E-18 6.15793E-18
 -1      1726 4.11550E-05-2.91090E-05-7.70141E-06 3.73358E-05 1.20279E-18 6.81777E-18
 -1      1727 1.19697E-04-2.17918E-05-4.03454E-05 5.60528E-05 5.33885E-18 6.82878E-18
 -1      1728 1.62729E-04-2.50723E-05-5.57642E-05 5.14318E-05 5.38099E-18 6.06645E-18
 -1      1729 1.96463E-04-2.94425E-05-6.68616E-05 3.87598E-05 5.00131E-18 5.09914E-18
 -1      1730 2.08632E-04-3.17194E-05-7.10120E-05 1.41819E-05 4.30250E-18 2.48636E-18
 -1      1731 2.02556E-04-3.23998E-05-6.87564E-05-1.16467E-05 4.04119E-18 2.47334E-19
 -1      1732 1.75521E-04-2.87364E-05-6.04007E-05-3.24056E-05 3.23565E-18-1.45139E-18
 -1      1733 1.33205E-04-1.79534E-05-4.85000E-05-4.89740E-05 2.48244E-18-2.58387E-18
 -1      1734 8.27876E-05-2.27995E-06-3.53889E-05-5.25069E-05 1.35186E-18-3.41608E-18
 -1      1735 4.16896E-05 8.21145E-06-2.30969E-05-4.13486E-05-7.97905E-19-2.64634E-18
 -1      1736 1.48892E-05 1.20000E-05-1.25617E-05-2.71484E-05-1.94436E-18-1.97438E-18
 -1      1737 1.37934E-06 7.49198E-06-4.45992E-06-1.87537E-05-2.90786E-18-1.84039E-18
 -1      1738-4.70458E-06 7.81680E-07 1.80029E-07-1.67828E-05-3.94315E-18-2.68086E-18
 -1      1739-4.52715E-06-4.29790E-06 3.61895E-07-1.26322E-05-4.68875E-18-4.08397E-18
 -1      1740 1.33358E-05-1.42328E-05-5.15709E-06-9.56918E-07-4.96700E-18-5.87544E-18
 -1      1741 6.20392E-05-3.51738E-05-1.70801E-05 1.22383E-05-5.03476E-18-6.45376E-18
 -1      1742 1.27376E-04-5.51476E-05-3.41346E-05 1.40174E-05-4.66800E-18-6.16979E-18
 -1      1743 1.92317E-04-6.43073E-05-5.29745E-05 4.87793E-06-4.97124E-18-4.83995E-18
 -1      1744 2.34923E-04-5.88702E-05-6.87481E-05-1.43401E-05-5.15060E-18-1.13079E-18
 -1      1745 2.55799E-04-4.96713E-05-7.83040E-05-2.13283E-05-6.27906E-18 2.24803E-18
 -1      1746 2.56047E-04-4.75511E-05-7.89206E-05-2.28573E-05-7.78339E-18 5.02036E-18
 -1      1747 2.27607E-04-4.98575E-05-6.93836E-05-2.54569E-05-8.66494E-18 7.00581E-18
 -1      1748 1.82441E-04-4.91020E-05-5.37736E-05-4.17034E-05-9.99457E-18 9.35971E-18
 -1      1749 1.21322E-04-4.32361E-05-3.42395E-05-4.57127E-05-1.14587E-17 9.59350E-18
 -1      1750 6.92007E-05-3.90442E-05-1.59339E-05-3.76684E-05-1.18424E-17 9.41752E-18
 -1      1751 3.12890E-05-3.89590E-05-1.38183E-06-2.10999E-05-1.15264E-17 9.03117E-18
 -1      1752 1.41681E-05-4.21039E-05 6.85373E-06-6.22009E-06-9.22906E-18 7.05451E-18
 -1      1753 3.87224E-05-2.42007E-06-1.62298E-05 6.32846E-06 8.75409E-19-1.51661E-18
 -1      1754 7.05078E-05-1.34653E-05-2.42950E-05 6.31201E-06 1.16086E-18-8.57621E-20
 -1      1755 1.09880E-04-2.96411E-05-3.45337E-05 9.20018E-07 2.18069E-18 2.75032E-18
 -1      1756 1.41919E-04-3.91714E-05-4.41686E-05-5.18065E-06 1.93039E-18 5.09702E-18
 -1      1757 1.69739E-04-5.76153E-05-4.78521E-05-1.14164E-05 1.95156E-18 7.66692E-18
 -1      1758 9.88692E-05-3.38418E-05-2.85461E-05 5.67011E-06 1.13757E-18 1.18394E-18
 -1      1759-7.20245E-06 1.07158E-05-1.75343E-06-1.79067E-05-3.21873E-18-2.17751E-18
 -1      1760-7.34842E-06 1.19742E-05-2.12633E-06-1.46731E-05-2.31431E-18-2.67641E-18
 -1      1761 1.04717E-05 1.08505E-05-9.26359E-06-2.51469E-05-4.05030E-18-1.54044E-18
 -1      1762-4.21486E-07 1.33506E-05-5.72188E-06-2.14432E-05-3.20560E-18-1.56151E-18
 -1      1763 3.75726E-05 6.14600E-06-1.86743E-05-3.51043E-05-4.25613E-18-1.17759E-18
 -1      1764 2.03152E-05 1.11086E-05-1.38282E-05-3.13073E-05-3.85061E-18-1.22608E-18
 -1      1765 1.17482E-04-2.32521E-05-4.03509E-05-1.81734E-05-4.25338E-18-3.09763E-20
 -1      1766 1.03178E-04-1.97746E-05-3.56550E-05-2.58608E-05-4.92507E-18 2.95932E-19
 -1      1767 1.25138E-04-2.04399E-05-4.51080E-05-1.63340E-06-2.65013E-18-1.24426E-18
 -1      1768 1.23956E-04-2.24166E-05-4.32478E-05-7.40451E-06-3.51905E-18-3.83878E-19
 -1      1769 1.25780E-04-2.61200E-05-4.27696E-05-9.90154E-06-3.57826E-18 4.45830E-19
 -1      1770 1.19387E-04-1.36403E-05-4.55487E-05 6.94770E-06-1.52696E-18-3.01962E-18
 -1      1771 1.22998E-04-1.64464E-05-4.55567E-05 3.62755E-06-2.09662E-18-2.17341E-18
 -1      1772 1.27245E-04-2.07390E-05-4.56289E-05 4.15794E-06-2.20668E-18-1.15546E-18
 -1      1773 1.10777E-04-8.73657E-06-4.38869E-05 1.08469E-05-7.09708E-19-4.17158E-18
 -1      1774 1.15083E-04-1.06025E-05-4.48021E-05 8.99404E-06-1.12440E-18-3.64134E-18
 -1      1775 1.19130E-04-1.38594E-05-4.50843E-05 9.60134E-06-1.22899E-18-2.90212E-18
 -1      1776 1.02680E-04-6.25287E-06-4.14256E-05 1.31084E-05 7.67359E-20-4.93935E-18
 -1      1777 1.06576E-04-7.15909E-06-4.26782E-05 1.18300E-05-3.67798E-19-4.59185E-18
 -1      1778 1.09969E-04-9.54553E-06-4.30360E-05 1.15963E-05-4.45288E-19-4.08768E-18
 -1      1779 9.57981E-05-5.49993E-06-3.87703E-05 1.50390E-05 8.79723E-19-5.25141E-18
 -1      1780 9.90968E-05-5.75843E-06-4.00832E-05 1.38983E-05 4.47339E-19-5.17904E-18
 -1      1781 1.02020E-04-7.68406E-06-4.04498E-05 1.29168E-05 4.31160E-19-4.74710E-18
 -1      1782 9.00972E-05-5.92485E-06-3.61498E-05 1.72062E-05 1.71672E-18-5.01874E-18
 -1      1783 9.28366E-05-5.75439E-06-3.74116E-05 1.59384E-05 1.23676E-18-5.18384E-18
 -1      1784 9.54966E-05-7.54467E-06-3.77288E-05 1.44407E-05 1.24515E-18-4.93717E-18
 -1      1785 8.60023E-05-7.44323E-06-3.38019E-05 1.97392E-05 2.49322E-18-3.91419E-18
 -1      1786 8.79417E-05-6.84452E-06-3.48746E-05 1.82144E-05 2.03955E-18-4.60402E-18
 -1      1787 9.04547E-05-8.72694E-06-3.50666E-05 1.63211E-05 2.13163E-18-4.45174E-18
 -1      1788 8.50645E-05-1.14748E-05-3.17554E-05 2.21110E-05 2.92523E-18-9.81923E-19
 -1      1789 8.50771E-05-9.45489E-06-3.25834E-05 2.05882E-05 2.69416E-18-2.81083E-18
 -1      1790 8.73035E-05-1.15274E-05-3.25136E-05 1.81577E-05 2.92420E-18-3.01239E-18
 -1      1791 8.80443E-05-2.00336E-05-2.95933E-05 1.75506E-05 2.95450E-18 2.94047E-18
 -1      1792 8.58063E-05-1.42076E-05-3.06408E-05 2.09038E-05 2.96379E-18 4.27328E-19
 -1      1793 8.63794E-05-1.64573E-05-3.00621E-05 1.72203E-05 3.28420E-18-7.42901E-19
 -1      1794 8.41022E-05-2.10015E-05-2.73507E-05 1.17267E-05 2.96382E-18 2.08418E-18
 -1      1795 8.02154E-05-2.21945E-05-2.49091E-05 4.68025E-06 2.12174E-18 9.10071E-19
 -1      1796 8.29243E-05-2.22787E-05-2.60408E-05 7.69854E-06 2.39636E-18 1.74936E-18
 -1      1797 8.48225E-05-2.06495E-05-2.75157E-05 1.08840E-05 2.84672E-18 2.65518E-19
 -1      1798 2.07658E-04-5.46616E-05-6.48272E-05-3.60423E-05-4.19620E-18 6.35275E-18
 -1      1799 2.01132E-04-4.21631E-05-6.75201E-05-2.69904E-05-5.53197E-18 5.14827E-18
 -1      1800 1.77059E-04-5.71206E-05-5.06973E-05 1.42651E-05-4.38678E-18 8.22681E-19
 -1      1801 1.73430E-04-6.34135E-05-4.69465E-05 7.95170E-06-2.03701E-18-1.24514E-19
 -1      1802 1.58323E-04-6.01083E-05-4.20691E-05-7.25317E-07-4.08693E-19-1.24824E-18
 -1      1803 1.52025E-04-5.65923E-05-4.04177E-05-1.01083E-05 9.31895E-19-1.50745E-18
 -1      1804 1.40211E-04-4.90945E-05-3.89520E-05-1.61592E-05 1.58776E-18-1.72355E-18
 -1      1805 1.32934E-04-4.31191E-05-3.80327E-05-2.06293E-05 1.87115E-18-1.17776E-18
 -1      1806 1.36101E-04-5.27800E-05-3.57927E-05-2.10402E-05 9.10984E-19-1.18426E-18
 -1      1807 1.24982E-04-3.82483E-05-3.70975E-05-2.16788E-05 1.76919E-18-6.35553E-19
 -1      1808 1.18698E-04-3.42942E-05-3.60340E-05-2.14015E-05 1.72517E-18-6.06158E-20
 -1      1809 1.16072E-04-3.27490E-05-3.56158E-05-1.90793E-05 1.21057E-18 2.47903E-19
 -1      1810 1.11080E-04-3.07687E-05-3.44272E-05-1.71121E-05 7.86126E-19 5.94472E-19
 -1      1811 1.06989E-04-2.97524E-05-3.31164E-05-2.42693E-05 1.71279E-18 2.37778E-19
 -1      1812 1.09701E-04-3.04683E-05-3.38548E-05-1.42423E-05 8.76401E-19 5.35338E-19
 -1      1813 1.05911E-04-2.94711E-05-3.27820E-05-1.20400E-05 8.94626E-19 1.28767E-18
 -1      1814 1.03030E-04-2.71621E-05-3.25006E-05-1.85400E-05 9.14809E-19 3.17651E-19
 -1      1815 1.05085E-04-2.95597E-05-3.22682E-05-9.79579E-06 3.20920E-19 1.38376E-18
 -1      1816 1.02561E-04-2.90774E-05-3.15028E-05-8.13090E-06-4.80162E-20 1.22237E-18
 -1      1817 1.00865E-04-2.70209E-05-3.16414E-05-1.30567E-05 8.72828E-19 9.81063E-19
 -1      1818 1.01900E-04-2.91857E-05-3.10811E-05-6.48396E-06-1.57462E-19 1.76707E-18
 -1      1819 1.00189E-04-2.89130E-05-3.05473E-05-5.31163E-06-3.72152E-19 1.86757E-18
 -1      1820 9.93863E-05-2.74491E-05-3.08274E-05-8.85430E-06 2.49425E-19 1.27085E-18
 -1      1821 9.96705E-05-2.89841E-05-3.02323E-05-4.17852E-06-3.38813E-19 1.70498E-18
 -1      1822 9.85391E-05-2.88207E-05-2.98755E-05-3.40010E-06-3.62229E-19 1.91403E-18
 -1      1823 9.82485E-05-2.78751E-05-3.01603E-05-5.83032E-06-5.55435E-19 1.94162E-18
 -1      1824 9.81443E-05-2.88553E-05-2.96520E-05-2.64901E-06-4.31037E-19 2.14219E-18
 -1      1825 9.74095E-05-2.87538E-05-2.94192E-05-2.14809E-06 6.80604E-20 1.80420E-18
 -1      1826 9.73753E-05-2.81750E-05-2.96596E-05-3.76661E-06-4.97526E-19 1.36339E-18
 -1      1827 9.71192E-05-2.87651E-05-2.92655E-05-1.66142E-06-5.86324E-19 1.58711E-18
 -1      1828 9.66464E-05-2.87014E-05-2.91157E-05-1.34453E-06-7.76635E-19 1.39759E-18
 -1      1829 9.67236E-05-2.83592E-05-2.93021E-05-2.40241E-06-5.08225E-19 7.15443E-19
 -1      1830 9.64292E-05-2.87018E-05-2.90074E-05-1.01996E-06-6.56892E-19 1.12151E-18
 -1      1831 9.61196E-05-2.86593E-05-2.89087E-05-8.15572E-07-8.22292E-19 4.72263E-19
 -1      1832 9.62413E-05-2.84630E-05-2.90500E-05-1.50385E-06-1.03111E-18 4.26510E-19
 -1      1833 9.59785E-05-2.86536E-05-2.88416E-05-6.24143E-07-8.90729E-19 9.06928E-19
 -1      1834 9.57941E-05-2.86291E-05-2.87827E-05-5.03921E-07-6.83167E-19 5.80972E-19
 -1      1835 9.59026E-05-2.85218E-05-2.88803E-05-9.30511E-07-7.53090E-19 7.97680E-19
 -1      1836 9.56964E-05-2.86230E-05-2.87383E-05-3.83070E-07-2.98574E-19 6.94190E-19
 -1      1837 9.55811E-05-2.86073E-05-2.87014E-05-3.08867E-07-1.58752E-19 3.47336E-19
 -1      1838 9.56744E-05-2.85485E-05-2.87704E-05-5.79759E-07-4.04967E-19 1.15862E-18
 -1      1839 9.55149E-05-2.86017E-05-2.86724E-05-2.33161E-07 2.46949E-20-5.86597E-20
 -1      1840 9.54433E-05-2.85920E-05-2.86494E-05-1.87416E-07 5.22317E-19 9.62202E-20
 -1      1841 9.55186E-05-2.85610E-05-2.86977E-05-3.58512E-07-1.47901E-19 1.25970E-18
 -1      1842 9.53990E-05-2.85874E-05-2.86307E-05-1.40151E-07 1.49848E-19-2.97998E-19
 -1      1843 9.53551E-05-2.85815E-05-2.86165E-05-1.12037E-07-1.74165E-19-1.06862E-18
 -1      1844 9.54134E-05-2.85661E-05-2.86501E-05-2.19501E-07-3.94862E-19 4.76886E-19
 -1      1845 9.53259E-05-2.85780E-05-2.86044E-05-8.26103E-08-2.36527E-20-1.39423E-18
 -1      1846 9.52994E-05-2.85746E-05-2.85958E-05-6.53889E-08-5.79229E-19-1.10593E-18
 -1      1847 9.53434E-05-2.85677E-05-2.86191E-05-1.32413E-07-2.44204E-19-7.34209E-19
 -1      1848 9.52804E-05-2.85721E-05-2.85882E-05-4.71453E-08-1.09835E-18-1.11631E-18
 -1      1849 9.52648E-05-2.85703E-05-2.85830E-05-3.66217E-08-1.17797E-18-1.21655E-18
 -1      1850 9.52974E-05-2.85678E-05-2.85991E-05-7.80199E-08-1.01862E-18-6.59648E-19
 -1      1851 9.52522E-05-2.85686E-05-2.85780E-05-2.49028E-08-3.08467E-20-1.46814E-18
 -1      1852 9.52432E-05-2.85677E-05-2.85750E-05-1.83454E-08 7.04952E-19-1.15186E-18
 -1      1853 9.52672E-05-2.85672E-05-2.85861E-05-4.36573E-08-7.77457E-19-8.17911E-19
 -1      1854 9.52359E-05-2.85666E-05-2.85722E-05-1.16695E-08 1.99909E-19-9.60225E-19
 -1      1855 9.52316E-05-2.85664E-05-2.85706E-05-7.99428E-09 3.55123E-19-7.99134E-19
 -1      1856 9.52484E-05-2.85670E-05-2.85780E-05-2.24686E-08 4.96644E-19-1.50839E-18
 -1      1857 9.52273E-05-2.85658E-05-2.85690E-05-3.97292E-09 4.29751E-21-3.17982E-19
 -1      1858 9.52254E-05-2.85659E-05-2.85683E-05-1.86245E-09-1.32949E-19-4.18448E-19
 -1      1859 9.52374E-05-2.85669E-05-2.85733E-05-1.00146E-08 1.25529E-19-1.10696E-18
 -1      1860 9.52231E-05-2.85656E-05-2.85674E-05 4.73742E-10-4.73516E-19 9.75260E-20
 -1      1861 9.52228E-05-2.85659E-05-2.85671E-05 1.62399E-09 7.02611E-19 2.44308E-19
 -1      1862 9.52311E-05-2.85669E-05-2.85705E-05-2.58055E-09-2.61260E-19-3.54183E-19
 -1      1863 9.52217E-05-2.85659E-05-2.85667E-05 2.90160E-09 8.70586E-19-3.47891E-19
 -1      1864 9.52222E-05-2.85663E-05-2.85668E-05 3.45939E-09 7.14023E-20 4.80200E-20
 -1      1865 9.52280E-05-2.85672E-05-2.85690E-05 1.68839E-09-6.78385E-20-2.95706E-19
 -1      1866 9.52219E-05-2.85663E-05-2.85666E-05 4.07500E-09 5.54496E-19 3.89032E-19
 -1      1867 9.52229E-05-2.85668E-05-2.85669E-05 4.27549E-09 1.03402E-18 9.73006E-19
 -1      1868 9.52268E-05-2.85675E-05-2.85683E-05 3.96696E-09 7.02581E-19-3.97331E-19
 -1      1869 9.52231E-05-2.85669E-05-2.85669E-05 4.48680E-09-4.51581E-19 1.39672E-18
 -1      1870 9.52243E-05-2.85674E-05-2.85672E-05 4.46698E-09-1.32552E-18 5.81348E-19
 -1      1871 9.52268E-05-2.85680E-05-2.85681E-05 5.01229E-09 2.25167E-19-3.94918E-19
 -1      1872 9.52247E-05-2.85676E-05-2.85674E-05 4.42406E-09-1.54756E-18 7.32218E-19
 -1      1873 9.52259E-05-2.85680E-05-2.85677E-05 4.28188E-09-1.79737E-18 8.26449E-19
 -1      1874 9.52275E-05-2.85684E-05-2.85682E-05 5.27949E-09-1.26865E-18 1.41641E-18
 -1      1875 9.52265E-05-2.85682E-05-2.85679E-05 4.10774E-09-1.84829E-18 4.77675E-19
 -1      1876 9.52276E-05-2.85685E-05-2.85682E-05 3.90517E-09-9.00753E-19-2.57781E-19
 -1      1877 9.52285E-05-2.85689E-05-2.85684E-05 5.08886E-09-1.68381E-18 1.51341E-18
 -1      1878 9.52282E-05-2.85687E-05-2.85684E-05 3.66410E-09-7.37146E-19 7.79127E-19
 -1      1879 9.52292E-05-2.85690E-05-2.85687E-05 3.43907E-09 3.87527E-19 1.81139E-19
 -1      1880 9.52297E-05-2.85693E-05-2.85688E-05 4.65633E-09-5.19780E-19 1.69809E-18
 -1      1881 9.52298E-05-2.85692E-05-2.85688E-05 3.17297E-09 9.07267E-19-6.06876E-19
 -1      1882 9.52307E-05-2.85695E-05-2.85691E-05 2.94791E-09 5.13346E-19 2.49692E-19
 -1      1883 9.52309E-05-2.85697E-05-2.85691E-05 4.10880E-09 5.74149E-19 2.51650E-18
 -1      1884 9.52312E-05-2.85696E-05-2.85693E-05 2.68297E-09-6.13033E-20-1.50211E-19
 -1      1885 9.52320E-05-2.85698E-05-2.85695E-05 2.47133E-09-8.74807E-19-8.59090E-19
 -1      1886 9.52320E-05-2.85700E-05-2.85694E-05 3.52647E-09 8.54055E-20 1.34609E-18
 -1      1887 9.52325E-05-2.85699E-05-2.85697E-05 2.22292E-09-3.25045E-19-9.10278E-19
 -1      1888 9.52331E-05-2.85701E-05-2.85698E-05 2.03217E-09-4.45867E-21-6.42746E-19
 -1      1889 9.52330E-05-2.85702E-05-2.85698E-05 2.95868E-09-7.97965E-19-7.93566E-19
 -1      1890 9.52335E-05-2.85702E-05-2.85700E-05 1.79741E-09-3.37069E-19-6.88526E-19
 -1      1891 9.52341E-05-2.85704E-05-2.85701E-05 1.62348E-09-5.05640E-19-6.21731E-19
 -1      1892 9.52339E-05-2.85705E-05-2.85700E-05 2.42277E-09-7.15711E-19-7.58647E-19
 -1      1893 9.52344E-05-2.85705E-05-2.85703E-05 1.43030E-09-1.08672E-19-9.97954E-19
 -1      1894 9.52348E-05-2.85706E-05-2.85704E-05 1.28897E-09-2.21812E-19-1.97449E-18
 -1      1895 9.52346E-05-2.85706E-05-2.85703E-05 1.94481E-09-6.20199E-19-1.11051E-18
 -1      1896 9.52351E-05-2.85707E-05-2.85705E-05 1.12471E-09-9.69106E-20-1.88764E-18
 -1      1897 9.52354E-05-2.85707E-05-2.85706E-05 1.00677E-09 4.31358E-19-2.42863E-18
 -1      1898 9.52352E-05-2.85708E-05-2.85705E-05 1.54388E-09 2.56315E-19-2.11501E-18
 -1      1899 9.52356E-05-2.85708E-05-2.85706E-05 8.70068E-10 1.25615E-19-2.76210E-18
 -1      1900 9.52359E-05-2.85709E-05-2.85707E-05 7.73449E-10 5.33799E-20-1.90730E-18
 -1      1901 9.52357E-05-2.85709E-05-2.85706E-05 1.20555E-09 4.41653E-19-2.05514E-18
 -1      1902 9.52360E-05-2.85709E-05-2.85708E-05 6.61758E-10 1.55956E-18-1.88641E-18
 -1      1903 9.52362E-05-2.85709E-05-2.85708E-05 5.83899E-10 2.74623E-18-1.24232E-18
 -1      1904 9.52361E-05-2.85710E-05-2.85708E-05 9.25746E-10 9.65023E-19-1.75416E-18
 -1      1905 9.52364E-05-2.85710E-05-2.85709E-05 4.94149E-10 1.07287E-18-1.75293E-18
 -1      1906 9.52365E-05-2.85710E-05-2.85709E-05 4.32296E-10-6.92397E-19-1.20133E-18
 -1      1907 9.52364E-05-2.85710E-05-2.85709E-05 6.98408E-10 2.09082E-18-1.32294E-18
 -1      1908 9.52366E-05-2.85710E-05-2.85710E-05 3.57865E-10-4.26242E-19-1.35206E-18
 -1      1909 9.52367E-05-2.85711E-05-2.85710E-05 3.07468E-10 1.34108E-19-3.79018E-20
 -1      1910 9.52366E-05-2.85711E-05-2.85709E-05 5.13088E-10-6.43020E-19-1.38013E-18
 -1      1911 9.52368E-05-2.85711E-05-2.85710E-05 2.52615E-10-9.06008E-19 2.05844E-19
 -1      1912 9.52369E-05-2.85711E-05-2.85710E-05 2.15445E-10-1.45236E-18 1.35134E-19
 -1      1913 9.52368E-05-2.85711E-05-2.85710E-05 3.66747E-10-2.33115E-19-1.19916E-18
 -1      1914 9.52369E-05-2.85711E-05-2.85711E-05 1.72787E-10 4.98356E-20 4.53565E-19
 -1      1915 9.52370E-05-2.85711E-05-2.85711E-05 1.44036E-10 1.09385E-18-2.76166E-19
 -1      1916 9.52369E-05-2.85711E-05-2.85711E-05 2.56097E-10-2.77786E-19 5.92446E-19
 -1      1917 9.52370E-05-2.85711E-05-2.85711E-05 1.11004E-10 1.64403E-19-1.56284E-18
 -1      1918 9.52371E-05-2.85711E-05-2.85711E-05 8.86654E-11-3.51122E-19-1.19321E-18
 -1      1919 9.52370E-05-2.85711E-05-2.85711E-05 1.70263E-10 7.54466E-20 5.18665E-19
 -1      1920 9.52371E-05-2.85711E-05-2.85711E-05 6.30575E-11 6.19113E-19-1.19041E-18
 -1      1921 9.52371E-05-2.85711E-05-2.85711E-05 4.57666E-11 1.18596E-18-7.86858E-19
 -1      1922 9.52371E-05-2.85712E-05-2.85711E-05 1.03874E-10 9.09482E-19-6.55576E-19
 -1      1923 9.52371E-05-2.85712E-05-2.85711E-05 2.62045E-11 5.13837E-19-1.38680E-19
 -1      1924 9.52371E-05-2.85712E-05-2.85711E-05 1.40395E-11-2.17765E-19-2.09912E-20
 -1      1925 9.52371E-05-2.85712E-05-2.85711E-05 5.28968E-11 2.98292E-19-3.94094E-19
 -1      1926 9.52371E-05-2.85711E-05-2.85711E-05 8.90462E-13-2.88847E-19 4.14607E-19
 -1      1927 7.95304E-05-2.28413E-05-2.42438E-05-1.47641E-06 1.18276E-18-8.07414E-19
 -1      1928 7.93915E-05-2.25430E-05-2.42800E-05-3.31402E-07 1.45348E-18-3.04647E-19
 -1      1929 8.05657E-05-2.35588E-05-2.43959E-05-3.41828E-06 9.90205E-19-1.47229E-18
 -1      1930 7.97106E-05-2.31079E-05-2.41942E-05-2.72793E-06 1.11564E-18-9.52522E-19
 -1      1931 8.35585E-05-2.35731E-05-2.57434E-05-2.40677E-06 1.43769E-18-1.56539E-18
 -1      1932 8.24819E-05-2.44788E-05-2.48386E-05-4.49982E-06 8.07179E-19-1.98923E-18
 -1      1933 8.11841E-05-2.39196E-05-2.45052E-05-4.15347E-06 9.04906E-19-1.67216E-18
 -1      1934 8.44488E-05-2.44805E-05-2.57262E-05-4.68929E-06 1.18803E-18-1.88245E-18
 -1      1935 8.48363E-05-2.54713E-05-2.54331E-05-4.84648E-06 5.94682E-19-2.25810E-18
 -1      1936 8.33503E-05-2.48869E-05-2.50401E-05-4.78487E-06 8.11487E-19-2.03063E-18
 -1      1937 8.60199E-05-2.54871E-05-2.59554E-05-5.87317E-06 1.00732E-18-2.11792E-18
 -1      1938 8.72476E-05-2.64005E-05-2.60752E-05-4.61998E-06 1.79014E-19-2.47633E-18
 -1      1939 8.57747E-05-2.58617E-05-2.56774E-05-4.77213E-06 3.20131E-19-2.31192E-18
 -1      1940 8.78921E-05-2.64774E-05-2.63221E-05-6.13983E-06 5.82265E-19-2.01478E-18
 -1      1941 8.94445E-05-2.71750E-05-2.66888E-05-4.01711E-06 4.07337E-20-2.03792E-18
 -1      1942 8.81236E-05-2.67264E-05-2.63250E-05-4.30029E-06 1.90225E-19-2.22989E-18
 -1      1943 8.97501E-05-2.73295E-05-2.67456E-05-5.72195E-06 1.53087E-19-2.03573E-18
 -1      1944 9.12762E-05-2.77586E-05-2.72256E-05-3.23436E-06-2.66154E-20-1.82496E-18
 -1      1945 9.01828E-05-2.74166E-05-2.69184E-05-3.57026E-06 2.72970E-22-1.81502E-18
 -1      1946 9.13861E-05-2.79742E-05-2.71668E-05-4.88313E-06-1.09451E-19-1.75862E-18
 -1      1947 9.26948E-05-2.81597E-05-2.76623E-05-2.43153E-06-1.77531E-19-1.51363E-18
 -1      1948 9.18505E-05-2.79189E-05-2.74204E-05-2.75999E-06 2.93252E-20-1.62679E-18
 -1      1949 9.27019E-05-2.84020E-05-2.75467E-05-3.86927E-06-1.17135E-19-1.35719E-18
 -1      1950 9.37240E-05-2.84114E-05-2.79954E-05-1.71322E-06-2.41292E-19-1.64530E-18
 -1      1951 9.31124E-05-2.82545E-05-2.78166E-05-1.99758E-06 5.21322E-20-1.61258E-18
 -1      1952 9.36844E-05-2.86462E-05-2.78642E-05-2.86810E-06-8.06269E-20-1.13761E-18
 -1      1953 9.44252E-05-2.85537E-05-2.82343E-05-1.13034E-06-2.43047E-19-1.57225E-18
 -1      1954 9.40092E-05-2.84598E-05-2.81103E-05-1.35507E-06-3.26386E-19-1.63550E-18
 -1      1955 9.43712E-05-2.87575E-05-2.81127E-05-1.99462E-06-2.04074E-19-1.29401E-18
 -1      1956 9.48724E-05-2.86233E-05-2.83955E-05-6.93129E-07 8.89831E-20-1.60079E-18
 -1      1957 9.46078E-05-2.85728E-05-2.83148E-05-8.57769E-07-1.50490E-19-1.64881E-18
 -1      1958 9.48212E-05-2.87854E-05-2.82955E-05-1.29884E-06-1.09348E-19-1.41786E-18
 -1      1959 9.51362E-05-2.86486E-05-2.84970E-05-3.87275E-07 6.25729E-20-1.50937E-18
 -1      1960 9.49809E-05-2.86257E-05-2.84484E-05-4.99806E-07 1.56878E-19-1.26235E-18
 -1      1961 9.50957E-05-2.87686E-05-2.84220E-05-7.84558E-07 1.46241E-19-1.36910E-18
 -1      1962 9.52757E-05-2.86494E-05-2.85557E-05-1.87416E-07 1.77809E-19-1.45752E-18
 -1      1963 9.51942E-05-2.86429E-05-2.85293E-05-2.59104E-07-5.19594E-20-1.48022E-18
 -1      1964 9.52484E-05-2.87329E-05-2.85041E-05-4.29312E-07-7.12157E-20-8.63285E-19
 -1      1965 9.53364E-05-2.86387E-05-2.85857E-05-6.62552E-08 3.91386E-19-1.47563E-18
 -1      1966 9.53014E-05-2.86408E-05-2.85736E-05-1.08368E-07 6.68957E-19-1.35867E-18
 -1      1967 9.53215E-05-2.86935E-05-2.85532E-05-2.00004E-07 2.53760E-19-1.13462E-18
 -1      1968 9.53507E-05-2.86240E-05-2.85978E-05 4.75448E-10-2.64901E-19-1.96010E-18
 -1      1969 9.53428E-05-2.86298E-05-2.85941E-05-2.16701E-08 2.67569E-19-1.67786E-18
 -1      1970 9.53460E-05-2.86581E-05-2.85796E-05-6.29133E-08 5.11491E-19-1.73858E-18
 -1      1971 9.53407E-05-2.86094E-05-2.85995E-05 3.20358E-08-1.65638E-19-1.74434E-18
 -1      1972 9.53467E-05-2.86161E-05-2.86004E-05 2.24588E-08-2.76008E-19-1.84951E-18
 -1      1973 9.53433E-05-2.86294E-05-2.85912E-05 1.11195E-08-3.46788E-19-1.52164E-18
 -1      1974 9.53203E-05-2.85967E-05-2.85959E-05 4.25002E-08 2.04590E-21-1.72325E-18
 -1      1975 9.53321E-05-2.86030E-05-2.85989E-05 4.02214E-08 2.31309E-20-1.72553E-18
 -1      1976 9.53275E-05-2.86077E-05-2.85940E-05 4.48435E-08-3.15234E-19-1.07729E-18
 -1      1977 9.52974E-05-2.85867E-05-2.85903E-05 4.14673E-08-6.84404E-19-1.52815E-18
 -1      1978 9.53104E-05-2.85919E-05-2.85939E-05 4.29789E-08-4.22932E-19-1.73822E-18
 -1      1979 9.53071E-05-2.85923E-05-2.85921E-05 5.46829E-08-2.65298E-19-1.35057E-18
 -1      1980 9.52765E-05-2.85792E-05-2.85845E-05 3.50667E-08-8.71905E-21-1.45124E-18
 -1      1981 9.52882E-05-2.85832E-05-2.85878E-05 3.81870E-08-4.76867E-19-1.85040E-18
 -1      1982 9.52869E-05-2.85817E-05-2.85880E-05 5.17321E-08-5.58629E-19-1.44902E-18
 -1      1983 9.52593E-05-2.85740E-05-2.85793E-05 2.69410E-08-1.90761E-19-1.10902E-18
 -1      1984 9.52687E-05-2.85768E-05-2.85821E-05 3.04155E-08 5.43836E-19-1.08823E-18
 -1      1985 9.52694E-05-2.85749E-05-2.85835E-05 4.30135E-08 3.26596E-20-7.36921E-19
 -1      1986 9.52463E-05-2.85706E-05-2.85752E-05 1.90605E-08 2.46395E-19-6.53686E-19
 -1      1987 9.52532E-05-2.85724E-05-2.85773E-05 2.22431E-08-4.89140E-19-7.71930E-19
 -1      1988 9.52554E-05-2.85708E-05-2.85792E-05 3.26574E-08-3.13086E-19 2.97517E-20
 -1      1989 9.52372E-05-2.85685E-05-2.85722E-05 1.23401E-08 2.95266E-19-4.90713E-19
 -1      1990 9.52419E-05-2.85696E-05-2.85737E-05 1.49588E-08 8.32094E-19-3.23724E-19
 -1      1991 9.52449E-05-2.85684E-05-2.85757E-05 2.28646E-08 6.38019E-20 8.13521E-19
 -1      1992 9.52313E-05-2.85674E-05-2.85702E-05 7.07233E-09 6.61718E-19-2.29072E-19
 -1      1993 9.52342E-05-2.85680E-05-2.85711E-05 9.06861E-09 3.09839E-19-4.94327E-19
 -1      1994 9.52376E-05-2.85673E-05-2.85731E-05 1.46263E-08 6.34511E-20 2.43023E-19
 -1      1995 9.52280E-05-2.85670E-05-2.85689E-05 3.21519E-09-1.57585E-19-2.80982E-19
 -1      1996 9.52295E-05-2.85672E-05-2.85694E-05 4.63961E-09 6.98993E-19 3.26168E-20
 -1      1997 9.52329E-05-2.85670E-05-2.85712E-05 8.22681E-09 1.93121E-19 1.20958E-19
 -1      1998 9.52264E-05-2.85671E-05-2.85683E-05 5.71132E-10 1.48575E-19-5.36757E-19
 -1      1999 9.52270E-05-2.85670E-05-2.85685E-05 1.52029E-09-3.09102E-19-6.82865E-19
 -1      2000 9.52302E-05-2.85670E-05-2.85700E-05 3.57446E-09-1.19781E-19-4.11423E-21
 -1      2001 9.52262E-05-2.85673E-05-2.85680E-05-1.10777E-09 2.27130E-18-8.49162E-19
 -1      2002 9.52260E-05-2.85671E-05-2.85680E-05-5.27131E-10 1.55185E-18-3.14487E-19
 -1      2003 9.52289E-05-2.85674E-05-2.85693E-05 4.07711E-10 8.36054E-19-1.27369E-19
 -1      2004 9.52267E-05-2.85678E-05-2.85681E-05-2.06356E-09 2.30323E-19-2.38602E-19
 -1      2005 9.52262E-05-2.85675E-05-2.85680E-05-1.75285E-09 1.30601E-18-4.30283E-19
 -1      2006 9.52286E-05-2.85679E-05-2.85689E-05-1.58545E-09 1.57424E-18 3.07088E-19
 -1      2007 9.52277E-05-2.85682E-05-2.85683E-05-2.50616E-09-9.46069E-19-6.57178E-19
 -1      2008 9.52270E-05-2.85679E-05-2.85681E-05-2.38272E-09-2.98499E-19-1.44211E-19
 -1      2009 9.52290E-05-2.85684E-05-2.85689E-05-2.70389E-09-2.18563E-19 7.64514E-19
 -1      2010 9.52289E-05-2.85687E-05-2.85687E-05-2.60467E-09 1.10535E-18-1.38438E-18
 -1      2011 9.52281E-05-2.85684E-05-2.85684E-05-2.60352E-09 6.96124E-20-1.33437E-18
 -1      2012 9.52297E-05-2.85688E-05-2.85690E-05-3.20440E-09-3.26614E-19-1.76360E-19
 -1      2013 9.52302E-05-2.85692E-05-2.85690E-05-2.48799E-09 1.53103E-18-1.86698E-18
 -1      2014 9.52294E-05-2.85689E-05-2.85688E-05-2.56063E-09 1.65781E-18-1.01074E-18
 -1      2015 9.52307E-05-2.85693E-05-2.85692E-05-3.29263E-09 1.04607E-18 6.57955E-19
 -1      2016 9.52315E-05-2.85696E-05-2.85694E-05-2.24983E-09 7.84713E-19-9.05220E-19
 -1      2017 9.52307E-05-2.85693E-05-2.85692E-05-2.36167E-09 9.88591E-19-1.37807E-18
 -1      2018 9.52316E-05-2.85697E-05-2.85694E-05-3.12473E-09 8.26691E-19 5.84748E-19
 -1      2019 9.52326E-05-2.85699E-05-2.85697E-05-1.95527E-09-1.32525E-18-1.04333E-18
 -1      2020 9.52319E-05-2.85697E-05-2.85695E-05-2.08279E-09-1.48313E-19-8.50449E-19
 -1      2021 9.52326E-05-2.85700E-05-2.85697E-05-2.81392E-09-6.16373E-20 5.89322E-19
 -1      2022 9.52335E-05-2.85702E-05-2.85700E-05-1.64725E-09 5.34371E-19-1.63425E-18
 -1      2023 9.52330E-05-2.85700E-05-2.85698E-05-1.77532E-09-8.67735E-19-1.34816E-18
 -1      2024 9.52335E-05-2.85703E-05-2.85699E-05-2.43855E-09-5.75868E-19-7.60362E-19
 -1      2025 9.52343E-05-2.85704E-05-2.85703E-05-1.35230E-09 1.01647E-18-2.41255E-18
 -1      2026 9.52339E-05-2.85703E-05-2.85701E-05-1.47189E-09 1.75567E-18-1.21535E-18
 -1      2027 9.52342E-05-2.85705E-05-2.85702E-05-2.05016E-09 9.58749E-19-1.32200E-18
 -1      2028 9.52350E-05-2.85706E-05-2.85705E-05-1.08525E-09 1.39100E-19-2.11733E-18
 -1      2029 9.52346E-05-2.85705E-05-2.85704E-05-1.19162E-09 4.09316E-19-2.00024E-18
 -1      2030 9.52349E-05-2.85707E-05-2.85704E-05-1.68042E-09 7.19859E-19-6.12466E-20
 -1      2031 9.52356E-05-2.85708E-05-2.85706E-05-8.52950E-10-8.29732E-19-1.15842E-18
 -1      2032 9.52353E-05-2.85707E-05-2.85705E-05-9.44225E-10-3.63171E-19-1.88686E-18
 -1      2033 9.52354E-05-2.85708E-05-2.85705E-05-1.34688E-09-5.55265E-19 1.63536E-19
 -1      2034 9.52360E-05-2.85709E-05-2.85708E-05-6.57011E-10-9.48919E-19-1.22607E-18
 -1      2035 9.52358E-05-2.85708E-05-2.85707E-05-7.33143E-10-9.91039E-20-1.05072E-18
 -1      2036 9.52358E-05-2.85709E-05-2.85707E-05-1.05743E-09-3.66630E-19 3.31185E-19
 -1      2037 9.52363E-05-2.85710E-05-2.85709E-05-4.95816E-10-3.69796E-19-2.91348E-18
 -1      2038 9.52362E-05-2.85709E-05-2.85708E-05-5.57858E-10-9.56848E-19-2.39501E-18
 -1      2039 9.52362E-05-2.85710E-05-2.85708E-05-8.13670E-10-3.28487E-19-9.34445E-19
 -1      2040 9.52366E-05-2.85710E-05-2.85710E-05-3.65925E-10 2.06743E-18-4.05545E-18
 -1      2041 9.52365E-05-2.85710E-05-2.85709E-05-4.15517E-10 7.39698E-19-3.84588E-18
 -1      2042 9.52365E-05-2.85710E-05-2.85709E-05-6.13330E-10 4.45385E-19-3.07357E-18
 -1      2043 9.52368E-05-2.85711E-05-2.85710E-05-2.63004E-10-8.43416E-19-3.08832E-18
 -1      2044 9.52367E-05-2.85710E-05-2.85710E-05-3.02051E-10 1.70013E-18-3.48066E-18
 -1      2045 9.52367E-05-2.85711E-05-2.85710E-05-4.51963E-10 9.73763E-19-2.79263E-18
 -1      2046 9.52369E-05-2.85711E-05-2.85711E-05-1.82415E-10-1.30286E-18-2.57426E-18
 -1      2047 9.52368E-05-2.85711E-05-2.85710E-05-2.12882E-10-1.41855E-18-3.03984E-18
 -1      2048 9.52368E-05-2.85711E-05-2.85710E-05-3.24082E-10-9.26698E-19-1.61355E-18
 -1      2049 9.52370E-05-2.85711E-05-2.85711E-05-1.19698E-10-2.95980E-19-2.86503E-18
 -1      2050 9.52370E-05-2.85711E-05-2.85711E-05-1.43441E-10-1.41306E-18-2.89524E-18
 -1      2051 9.52369E-05-2.85711E-05-2.85711E-05-2.23924E-10-1.14257E-18-1.89425E-18
 -1      2052 9.52371E-05-2.85711E-05-2.85711E-05-7.06602E-11-1.17274E-19-2.02123E-18
 -1      2053 9.52370E-05-2.85711E-05-2.85711E-05-8.94078E-11 9.36129E-20-2.58094E-18
 -1      2054 9.52370E-05-2.85711E-05-2.85711E-05-1.46313E-10-5.67760E-19-2.46456E-18
 -1      2055 9.52371E-05-2.85711E-05-2.85711E-05-3.30670E-11 6.44698E-19-2.57825E-18
 -1      2056 9.52371E-05-2.85711E-05-2.85711E-05-4.74262E-11-2.33842E-19-2.28266E-18
 -1      2057 9.52371E-05-2.85712E-05-2.85711E-05-8.63262E-11-3.81072E-19-2.87551E-18
 -1      2058 9.52371E-05-2.85711E-05-2.85711E-05-7.47640E-12 5.44557E-19-1.96139E-18
 -1      2059 9.52371E-05-2.85712E-05-2.85711E-05-1.65983E-11 1.14575E-18-9.50113E-19
 -1      2060 9.52371E-05-2.85712E-05-2.85711E-05-4.14841E-11 1.33169E-19-2.22358E-18
 -1      2061 9.52371E-05-2.85712E-05-2.85711E-05-1.13958E-11-9.84545E-20-1.92354E-19
 -1      2062 9.52372E-05-2.85712E-05-2.85711E-05-7.46040E-11-5.35043E-19 4.31725E-19
 -1      2063 9.52372E-05-2.85712E-05-2.85711E-05-6.85738E-11-1.34320E-18 1.80900E-18
 -1      2064 9.52371E-05-2.85712E-05-2.85711E-05-5.74914E-11-3.81021E-19 1.81897E-18
 -1      2065 9.52371E-05-2.85712E-05-2.85711E-05-4.67014E-11-1.51563E-18 1.39555E-18
 -1      2066 9.52371E-05-2.85712E-05-2.85711E-05-8.47937E-11-5.34893E-19 1.44509E-18
 -1      2067 9.52371E-05-2.85712E-05-2.85711E-05-2.44230E-11-3.26011E-19-5.49380E-19
 -1      2068 9.52372E-05-2.85713E-05-2.85711E-05-7.72530E-11-4.09597E-19-1.16132E-18
 -1      2069 9.52372E-05-2.85713E-05-2.85711E-05-7.76311E-11-1.31378E-18-5.54430E-20
 -1      2070 9.52372E-05-2.85713E-05-2.85711E-05-9.98359E-11-1.50346E-18-2.11614E-19
 -1      2071 9.52372E-05-2.85713E-05-2.85711E-05-6.51695E-11-8.19147E-19 5.46781E-19
 -1      2072 9.52372E-05-2.85713E-05-2.85711E-05-7.18788E-11-1.02036E-18 6.70158E-19
 -1      2073 9.52372E-05-2.85713E-05-2.85711E-05-9.67898E-11 9.49468E-19-3.20907E-19
 -1      2074 9.52372E-05-2.85714E-05-2.85711E-05-4.07883E-11 3.96310E-20-2.35312E-18
 -1      2075 9.52372E-05-2.85713E-05-2.85711E-05-5.24136E-11-5.46398E-19-9.95749E-19
 -1      2076 9.52372E-05-2.85714E-05-2.85711E-05-7.58639E-11 3.12149E-21-4.22492E-19
 -1      2077 9.52372E-05-2.85714E-05-2.85711E-05-8.83235E-12 1.13419E-18 2.93562E-19
 -1      2078 9.52372E-05-2.85714E-05-2.85711E-05-2.30930E-11 1.76782E-19-1.79552E-18
 -1      2079 9.52372E-05-2.85714E-05-2.85711E-05-4.11207E-11 1.05664E-18-2.07699E-18
 -1      2080 9.52372E-05-2.85714E-05-2.85711E-05 2.47312E-11-5.10514E-19-1.19451E-18
 -1      2081 9.52372E-05-2.85714E-05-2.85711E-05 1.05424E-11 8.54406E-19-1.65156E-19
 -1      2082 9.52372E-05-2.85714E-05-2.85711E-05 1.06766E-12 5.06480E-19-6.35190E-20
 -1      2083 9.52372E-05-2.85713E-05-2.85711E-05 5.36771E-11-4.41685E-19-8.77831E-19
 -1      2084 9.52372E-05-2.85714E-05-2.85711E-05 4.22616E-11-9.47472E-19-6.89801E-19
 -1      2085 9.52372E-05-2.85714E-05-2.85711E-05 4.30648E-11 1.07652E-18-1.81764E-18
 -1      2086 9.52372E-05-2.85713E-05-2.85711E-05 7.23155E-11-9.26803E-19 3.07547E-19
 -1      2087 9.52372E-05-2.85713E-05-2.85711E-05 6.59558E-11-1.49196E-18 1.55553E-18
 -1      2088 9.52372E-05-2.85714E-05-2.85711E-05 7.70798E-11-8.96734E-20-9.51968E-19
 -1      2089 9.52372E-05-2.85713E-05-2.85711E-05 7.75163E-11 4.42771E-19-3.56849E-19
 -1      2090 9.52372E-05-2.85713E-05-2.85711E-05 7.74217E-11-6.82866E-19 6.19515E-19
 -1      2091 9.52372E-05-2.85713E-05-2.85711E-05 9.71742E-11-1.24103E-18 5.08751E-19
 -1      2092 9.52372E-05-2.85712E-05-2.85711E-05 6.76582E-11 1.10816E-18-7.65239E-19
 -1      2093 9.52372E-05-2.85712E-05-2.85711E-05 7.41045E-11 1.51615E-18-1.82494E-18
 -1      2094 9.52372E-05-2.85713E-05-2.85711E-05 9.96314E-11 1.30877E-18 3.07288E-19
 -1      2095 9.52371E-05-2.85712E-05-2.85711E-05 4.50835E-11-9.95404E-19-1.55246E-19
 -1      2096 9.52371E-05-2.85712E-05-2.85711E-05 5.66242E-11-4.68246E-19-2.80948E-19
 -1      2097 9.52371E-05-2.85712E-05-2.85711E-05 8.37813E-11 3.89227E-19-1.26463E-18
 -1      2098 7.91086E-05-2.24075E-05-2.42437E-05 1.11617E-06 1.62163E-18-9.08178E-20
 -1      2099 8.00135E-05-2.22822E-05-2.46655E-05 2.85512E-06 1.86139E-18 5.76327E-19
 -1      2100 8.29244E-05-2.21249E-05-2.60822E-05 4.66828E-06 2.26076E-18-3.54027E-19
 -1      2101 8.30804E-05-2.28656E-05-2.58447E-05 7.79094E-07 1.85442E-18-1.19422E-18
 -1      2102 5.97522E-05-2.88520E-05-1.35963E-05 4.88984E-05-2.65121E-19 5.42350E-18
 -1      2103 4.47853E-05-3.08970E-05-7.12483E-06 4.12184E-05-2.18111E-18 5.81816E-18
 -1      2104 1.35995E-04-3.46338E-05-4.29117E-05 4.39346E-05 2.55423E-18 3.07558E-18
 -1      2105 1.15359E-04-3.43784E-05-3.50750E-05 4.51198E-05 2.16036E-18 3.69942E-18
 -1      2106 2.67210E-05-2.44417E-05-1.84791E-06 3.43521E-05-2.30308E-18 6.26931E-18
 -1      2107 1.81104E-05-2.71301E-05 2.27123E-06 2.40688E-05-4.07995E-18 5.85639E-18
 -1      2108 6.19900E-05-4.91726E-06-2.46546E-05-3.62630E-05-5.46760E-18-3.21873E-19
 -1      2109 5.36116E-05 4.18234E-07-2.37804E-05-3.75781E-05-3.68502E-18-8.23015E-19
 -1      2110 7.21745E-05-3.91878E-06-2.92483E-05-4.31748E-05-2.52712E-18-1.35250E-18
 -1      2111 8.47061E-05-1.19934E-05-3.06432E-05-3.39262E-05-5.23530E-18-2.34330E-19
 -1      2112 1.15144E-05-2.31472E-05 3.73022E-06 1.36002E-05-3.65198E-18 5.85384E-18
 -1      2113 1.04363E-05-2.38881E-05 4.34304E-06 3.70056E-06-5.43786E-18 5.73611E-18
 -1      2114-3.23737E-06 9.40403E-06-3.58834E-06-7.79949E-06-2.25422E-18-3.11200E-18
 -1      2115 1.29505E-05 4.99332E-06-8.37694E-06-1.96713E-06-1.30358E-18-3.01332E-18
 -1      2116 1.65517E-04-2.93891E-05-5.70626E-05 3.36064E-05 4.02272E-18 2.44073E-18
 -1      2117 1.47772E-04-2.97261E-05-5.04331E-05 3.46233E-05 3.51074E-18 2.44793E-18
 -1      2118 1.80093E-04-2.53552E-05-6.51792E-05 2.04758E-05 4.21166E-18 1.63117E-18
 -1      2119 1.70701E-04-2.53388E-05-6.14693E-05 2.84141E-05 4.40923E-18 2.58642E-18
 -1      2120 1.59090E-04-2.58615E-05-5.60639E-05 1.54065E-05 3.16536E-18-1.07573E-19
 -1      2121 1.80987E-04-2.16447E-05-6.75326E-05 6.45082E-06 4.42278E-18 4.04564E-19
 -1      2122 1.81401E-04-2.21152E-05-6.71817E-05 1.47531E-05 4.42871E-18 1.35938E-18
 -1      2123 1.74996E-04-2.43914E-05-6.41209E-05-7.09801E-06 3.79534E-18-8.00446E-20
 -1      2124 1.80157E-04-2.33037E-05-6.65100E-05 2.02842E-06 4.11277E-18 6.55604E-19
 -1      2125 1.55704E-04-2.55870E-05-5.59884E-05-2.03929E-05 2.33649E-18-2.74862E-19
 -1      2126 1.72501E-04-2.83715E-05-6.11596E-05-1.47544E-05 3.07071E-18 5.03985E-20
 -1      2127 1.21929E-04-2.04502E-05-4.42385E-05-3.78228E-05 2.48181E-19-8.08493E-19
 -1      2128 1.43354E-04-2.66731E-05-5.02297E-05-3.13383E-05 9.10349E-19-3.06202E-19
 -1      2129 8.51059E-05-9.42119E-06-3.35147E-05-4.19592E-05-1.67225E-18-1.02195E-18
 -1      2130 1.08076E-04-1.62262E-05-3.95906E-05-4.38783E-05-6.90332E-19-1.21930E-18
 -1      2131 1.22967E-04-2.52794E-05-4.18433E-05-2.86601E-05-2.17031E-18 4.92550E-19
 -1      2132 9.43869E-05-1.69010E-05-3.36545E-05-3.55654E-05-4.27540E-18 1.53525E-20
 -1      2133 4.78298E-05-1.95670E-05-1.38958E-05 9.89997E-06-2.51018E-18-3.95713E-18
 -1      2134 2.62715E-05-9.07109E-06-9.45249E-06 4.06804E-06-2.21880E-18-3.40423E-18
 -1      2135 1.61027E-04-6.67133E-05-4.15101E-05 3.61308E-06-2.28106E-18-1.43064E-18
 -1      2136 1.28267E-04-5.77473E-05-3.27904E-05 5.93361E-06-1.87745E-18-1.83383E-18
 -1      2137 2.03613E-04-6.92521E-05-5.70882E-05-1.85804E-05-3.45431E-18 8.08069E-19
 -1      2138 1.77258E-04-6.71463E-05-4.86268E-05-1.11553E-05-2.97478E-18-1.50772E-19
 -1      2139 2.00806E-04-6.08311E-05-5.99512E-05-3.33529E-05-3.72716E-18 4.47996E-18
 -1      2140 2.09425E-04-4.05181E-05-7.03626E-05-2.21841E-05-6.36630E-18 5.98924E-18
 -1      2141 1.97781E-04-4.14047E-05-6.65698E-05-1.37113E-06-7.55638E-18 5.01909E-18
 -1      2142 2.05134E-04-4.03487E-05-6.90856E-05-6.10588E-06-7.04223E-18 4.32855E-18
 -1      2143 1.64781E-04-5.77060E-05-4.66867E-05-2.00288E-05-7.30058E-18 5.25499E-18
 -1      2144 1.88630E-04-5.99181E-05-5.50013E-05-1.20159E-05-6.62840E-18 4.08778E-18
 -1      2145 6.98851E-05-4.14980E-05-1.40913E-05-3.73117E-05-6.71909E-18 6.08932E-18
 -1      2146 9.47438E-05-4.48723E-05-2.21788E-05-4.35056E-05-6.48107E-18 5.13006E-18
 -1      2147 3.54694E-05-3.29696E-05-3.02268E-06-2.71995E-05-6.27440E-18 6.85694E-18
 -1      2148 5.09462E-05-3.37114E-05-8.54136E-06-3.60588E-05-7.23536E-18 7.00602E-18
 -1      2149 7.38083E-05-4.02124E-05-1.50147E-05-4.17957E-05-2.86255E-18 4.38530E-18
 -1      2150 1.41230E-05-2.55564E-05 3.33160E-06-8.45407E-06-5.00247E-18 5.83648E-18
 -1      2151 2.05732E-05-2.59000E-05 9.40642E-07-1.82167E-05-6.45100E-18 7.04096E-18
 -1      2152 1.00090E-04-3.19902E-05-2.88934E-05 5.21711E-05 1.93081E-18 4.32791E-18
 -1      2153 8.01658E-05-3.34682E-05-2.08913E-05 4.71504E-05 8.11881E-19 4.41685E-18
 -1      2154 1.20552E-04-4.46269E-05-3.21431E-05 4.22726E-05-6.54121E-19 2.24083E-18
 -1      2155-4.01730E-06 1.18700E-05-3.11272E-06-1.97033E-05-3.21322E-18-1.96702E-18
 -1      2156 9.98626E-05-1.89362E-05-3.48874E-05-2.96133E-05-4.54052E-18 3.93500E-19
 -1      2157 1.53415E-05-1.43932E-05-1.03616E-06-4.55892E-06-3.07473E-18 6.41373E-18
 -1      2158 8.42616E-05-3.92929E-05-1.93650E-05 5.04289E-05-2.55931E-18 4.37170E-18
 -1      2159 1.85950E-04-5.40165E-05-5.70710E-05 5.87020E-06-6.35698E-18 3.63504E-18
 -1      2160 1.80733E-04-6.60876E-05-4.86612E-05-1.44789E-05 1.68623E-18 7.77645E-18
 -1      2161 1.82938E-04-6.95200E-05-4.87473E-05-2.19443E-05 6.82497E-19 7.90324E-18
 -1      2162 1.98115E-04-7.27051E-05-5.36504E-05-3.23781E-05-5.85538E-19 8.35280E-18
 -1      2163 1.95511E-04-6.35573E-05-5.57901E-05-3.90057E-05-2.27322E-18 8.00870E-18
 -1      2164 1.62012E-04-6.40017E-05-4.23406E-05-7.22989E-06-2.02843E-18-6.35275E-22
 -1      2165 1.97231E-04-5.01661E-05-6.24073E-05 5.89336E-06-6.64751E-18 3.05991E-18
 -1      2166 9.52371E-05-2.85712E-05-2.85711E-05 1.57485E-11-2.67528E-19 1.18788E-18
 -1      2167 1.16922E-04-3.78945E-05-3.39203E-05-2.66168E-05 2.12245E-18-7.21037E-19
 -1      2168 9.52371E-05-2.85712E-05-2.85711E-05-4.89290E-11-1.19381E-20-6.23446E-19
 -1      2169 4.34830E-05-2.67302E-05-7.58675E-06 4.39334E-05-3.52832E-18 6.46477E-18
 -1      2170 9.52371E-05-2.85712E-05-2.85711E-05 2.57361E-11-4.69319E-19 2.11043E-18
 -1      2171 9.52371E-05-2.85712E-05-2.85711E-05 3.66899E-11-1.20206E-18 2.97556E-18
 -1      2172 9.52371E-05-2.85712E-05-2.85711E-05 6.19150E-11-3.57972E-19 1.52728E-18
 -1      2173 9.52371E-05-2.85712E-05-2.85711E-05 4.23088E-11-8.68511E-19 1.97650E-18
 -1      2174 1.45697E-04-3.93239E-05-4.49906E-05 2.71566E-05 1.22820E-18 5.20502E-19
 -1      2175 1.79168E-05-1.61743E-05-1.38077E-06 2.23734E-05-3.67803E-18 6.67462E-18
 -1      2176 3.59413E-05-2.43932E-05-5.67840E-06-2.92846E-05-2.77530E-18 6.24814E-18
 -1      2177 1.48651E-04-2.70919E-05-5.17004E-05-1.33311E-05 6.36916E-19 7.51318E-19
 -1      2178 1.60145E-04-1.91219E-05-5.96757E-05 1.07757E-06 3.19649E-18 4.34951E-19
 -1      2179 1.63675E-04-1.54584E-05-6.24320E-05 1.02069E-05 4.16401E-18-2.80474E-19
 -1      2180 1.48569E-04-5.66447E-05-3.98567E-05-5.17662E-06 1.59793E-18 4.24660E-18
 -1      2181 1.62703E-04-1.26445E-05-6.34138E-05 6.85873E-06 4.19197E-18-1.04503E-19
 -1      2182 1.81155E-04-7.22536E-05-4.66810E-05-1.83621E-05-6.42263E-19 3.27336E-18
 -1      2183 9.64031E-05-4.26402E-05-2.50178E-05 1.44957E-05-2.01424E-18-2.85408E-18
 -1      2184 6.40212E-05-2.94403E-05-1.77703E-05 1.04408E-05-2.12139E-18-3.31095E-18
 -1      2185 1.42407E-04-5.55275E-05-3.76481E-05-3.76068E-05-6.86478E-18 5.35875E-18
 -1      2186 1.60362E-04-6.48614E-05-4.05367E-05-1.59561E-05-3.65177E-18 1.64240E-18
 -1      2187 1.44572E-04-6.27008E-05-3.49813E-05-2.18778E-05-1.01919E-18 4.32410E-19
 -1      2188 1.16481E-04-5.30934E-05-2.86786E-05-3.57010E-05-6.18334E-18 4.81284E-18
 -1      2189 1.16377E-04-5.51932E-05-2.63191E-05-3.79349E-05-2.62326E-18 2.40462E-18
 -1      2190 1.29605E-04-5.58570E-05-3.26766E-05 3.66855E-06 2.83333E-19 6.72650E-19
 -1      2191 1.47700E-04-9.57965E-06-5.96399E-05 7.78339E-06 3.70429E-18-6.82179E-19
 -1      2192 1.48372E-04-8.45908E-06-6.04325E-05 6.96080E-06 3.85464E-18-1.27992E-18
 -1      2193 1.08035E-04-9.76884E-06-4.22183E-05 1.17407E-05 5.88886E-20-4.01562E-18
 -1      2194 1.12394E-04-1.13171E-05-4.34648E-05 1.12774E-05-4.29413E-19-3.60563E-18
 -1      2195 1.00816E-04-9.00298E-06-3.94098E-05 1.21542E-05 7.96615E-19-4.58098E-18
 -1      2196 1.04336E-04-9.47507E-06-4.07665E-05 1.15997E-05 3.45272E-19-4.36223E-18
 -1      2197 1.06653E-04-1.05052E-05-4.12128E-05 1.10223E-05 3.59274E-19-3.81399E-18
 -1      2198 9.49370E-05-9.73579E-06-3.65739E-05 1.31686E-05 1.58270E-18-4.57999E-18
 -1      2199 9.77864E-05-9.44250E-06-3.79515E-05 1.23791E-05 1.08367E-18-4.61057E-18
 -1      2200 1.00101E-04-1.08181E-05-3.82671E-05 1.08797E-05 1.06224E-18-4.23092E-18
 -1      2201 9.04761E-05-1.17550E-05-3.38310E-05 1.45145E-05 2.43046E-18-4.00903E-18
 -1      2202 9.26033E-05-1.07775E-05-3.51515E-05 1.36222E-05 1.89319E-18-4.37113E-18
 -1      2203 9.48826E-05-1.23458E-05-3.53642E-05 1.14387E-05 1.74994E-18-4.06780E-18
 -1      2204 8.75753E-05-1.54538E-05-3.10040E-05 1.52154E-05 3.02236E-18-2.34983E-18
 -1      2205 8.88158E-05-1.34422E-05-3.23597E-05 1.48538E-05 2.64346E-18-3.34288E-18
 -1      2206 9.08441E-05-1.50660E-05-3.24391E-05 1.20513E-05 2.45225E-18-3.27955E-18
 -1      2207 8.64881E-05-1.96533E-05-2.87266E-05 1.23988E-05 2.93166E-18-5.96761E-19
 -1      2208 8.68496E-05-1.69953E-05-2.99387E-05 1.42816E-05 2.96922E-18-1.66175E-18
 -1      2209 8.78813E-05-1.82642E-05-2.98380E-05 1.10259E-05 2.82826E-18-2.17101E-18
 -1      2210 8.50978E-05-2.08308E-05-2.75642E-05 8.33922E-06 2.64997E-18-7.97693E-19
 -1      2211 9.52371E-05-2.85712E-05-2.85711E-05-6.94170E-11-2.05554E-19-5.75655E-19
 -1      2212 1.09126E-04-3.71245E-05-3.06061E-05-3.00249E-05 1.93896E-18-1.50454E-19
 -1      2213 1.01084E-04-2.97721E-05-3.01481E-05-2.95956E-05 2.58790E-18 6.36334E-20
 -1      2214 9.57731E-05-2.30849E-05-3.10209E-05-1.97535E-05 1.13316E-18 6.89247E-19
 -1      2215 9.44663E-05-2.28143E-05-3.07495E-05-1.68516E-05 8.26250E-19 5.73670E-19
 -1      2216 9.61136E-05-2.38408E-05-3.08823E-05-1.41768E-05 8.62101E-19 7.68971E-19
 -1      2217 9.53196E-05-2.41879E-05-3.05302E-05-1.18423E-05 8.73298E-19 1.11888E-18
 -1      2218 8.90772E-05-1.98143E-05-2.95767E-05-1.53778E-05 8.65791E-19 9.03556E-19
 -1      2219 9.64330E-05-2.51852E-05-3.04638E-05-9.85388E-06 5.06645E-19 1.16364E-18
 -1      2220 9.58342E-05-2.55931E-05-3.01354E-05-8.08721E-06 3.55205E-19 1.59920E-18
 -1      2221 9.18265E-05-2.21721E-05-2.97866E-05-1.08850E-05 7.36110E-19 1.16801E-18
 -1      2222 9.64912E-05-2.63500E-05-3.00052E-05-6.65611E-06-2.01600E-19 1.30249E-18
 -1      2223 9.60180E-05-2.66683E-05-2.97409E-05-5.40664E-06-1.01425E-18 1.31765E-18
 -1      2224 9.35836E-05-2.42504E-05-2.96758E-05-7.53778E-06 6.37012E-20 6.53335E-19
 -1      2225 9.63641E-05-2.71821E-05-2.96082E-05-4.40659E-06-6.51807E-19 1.17417E-18
 -1      2226 9.59986E-05-2.73984E-05-2.94113E-05-3.55843E-06-1.73754E-19 9.48021E-19
 -1      2227 9.45818E-05-2.57844E-05-2.94633E-05-5.12045E-06-7.02688E-19 9.38547E-19
 -1      2228 9.61596E-05-2.77274E-05-2.92989E-05-2.87578E-06-2.74455E-19 4.16732E-19
 -1      2229 9.58855E-05-2.78653E-05-2.91584E-05-2.31427E-06-1.05814E-18 1.29388E-19
 -1      2230 9.50932E-05-2.68240E-05-2.92472E-05-3.42430E-06-6.93044E-19 7.05505E-19
 -1      2231 9.59459E-05-2.80772E-05-2.90669E-05-1.83610E-06-1.28210E-18 5.69858E-19
 -1      2232 9.57416E-05-2.81634E-05-2.89659E-05-1.45892E-06-9.50935E-19 2.03388E-19
 -1      2233 9.53268E-05-2.75070E-05-2.90598E-05-2.24113E-06-9.31437E-19-5.92582E-21
 -1      2234 9.57527E-05-2.82825E-05-2.89026E-05-1.16410E-06-6.63142E-19 5.01455E-19
 -1      2235 9.56157E-05-2.83317E-05-2.88377E-05-9.34161E-07-1.70462E-19 7.88909E-19
 -1      2236 9.54068E-05-2.79356E-05-2.89146E-05-1.44863E-06-5.71723E-19 7.00855E-20
 -1      2237 9.56044E-05-2.84026E-05-2.87921E-05-7.40533E-07 1.12105E-19 7.37213E-19
 -1      2238 9.55094E-05-2.84313E-05-2.87486E-05-5.93806E-07 2.02675E-19 9.36579E-19
 -1      2239 9.54129E-05-2.81891E-05-2.88100E-05-9.40000E-07 6.44130E-20 6.42220E-19
 -1      2240 9.54912E-05-2.84728E-05-2.87166E-05-4.67919E-07-2.12184E-19 1.16977E-18
 -1      2241 9.54264E-05-2.84894E-05-2.86876E-05-3.74657E-07-2.88543E-19 1.08318E-18
 -1      2242 9.53896E-05-2.83430E-05-2.87347E-05-6.05485E-07 4.57928E-19 9.71276E-19
 -1      2243 9.54079E-05-2.85133E-05-2.86655E-05-2.93211E-07-4.54140E-19 1.09528E-18
 -1      2244 9.53643E-05-2.85229E-05-2.86464E-05-2.34134E-07-7.36859E-19 4.82788E-19
 -1      2245 9.53576E-05-2.84353E-05-2.86816E-05-3.86961E-07-4.85723E-19 8.85187E-19
 -1      2246 9.53483E-05-2.85365E-05-2.86313E-05-1.81619E-07-7.79190E-19 2.44323E-19
 -1      2247 9.53193E-05-2.85421E-05-2.86188E-05-1.44298E-07-5.48358E-19 1.60597E-19
 -1      2248 9.53264E-05-2.84903E-05-2.86447E-05-2.44863E-07-8.16752E-19 6.46339E-19
 -1      2249 9.53065E-05-2.85497E-05-2.86085E-05-1.10541E-07-5.90878E-19-2.07785E-19
 -1      2250 9.52875E-05-2.85530E-05-2.86005E-05-8.70000E-08-1.22909E-18-1.49488E-19
 -1      2251 9.52999E-05-2.85228E-05-2.86193E-05-1.52790E-07-7.61755E-19 9.31063E-19
 -1      2252 9.52773E-05-2.85575E-05-2.85933E-05-6.44466E-08-1.45739E-18-2.14425E-19
 -1      2253 9.52648E-05-2.85595E-05-2.85879E-05-4.92085E-08-8.87567E-19-7.87814E-19
 -1      2254 9.52785E-05-2.85421E-05-2.86017E-05-9.23330E-08-1.18080E-18-6.66948E-20
 -1      2255 9.52579E-05-2.85618E-05-2.85835E-05-3.57963E-08-5.54672E-19-6.07950E-19
 -1      2256 9.52506E-05-2.85630E-05-2.85803E-05-2.68413E-08-1.70327E-19-1.31144E-18
 -1      2257 9.52627E-05-2.85536E-05-2.85899E-05-5.35838E-08-1.15349E-18-2.95733E-19
 -1      2258 9.52458E-05-2.85643E-05-2.85774E-05-1.83462E-08 4.50654E-19-1.28777E-18
 -1      2259 9.52414E-05-2.85652E-05-2.85755E-05-1.28660E-08 1.33510E-19-1.05003E-18
 -1      2260 9.52516E-05-2.85601E-05-2.85823E-05-2.97023E-08 3.44125E-19-1.15485E-18
 -1      2261 9.52382E-05-2.85659E-05-2.85736E-05-7.59179E-09-9.71339E-20-7.00072E-19
 -1      2262 9.52358E-05-2.85666E-05-2.85725E-05-4.31888E-09-1.66627E-19-4.96373E-19
 -1      2263 9.52441E-05-2.85641E-05-2.85773E-05-1.46290E-08 4.49503E-19-1.73655E-18
 -1      2264 9.52337E-05-2.85670E-05-2.85713E-05-1.13542E-09-4.67429E-19 1.71347E-19
 -1      2265 9.52326E-05-2.85676E-05-2.85707E-05 7.32725E-10 3.40479E-19-4.16170E-19
 -1      2266 9.52391E-05-2.85665E-05-2.85741E-05-5.30013E-09 2.52439E-19-1.09544E-18
 -1      2267 9.52314E-05-2.85679E-05-2.85700E-05 2.56100E-09 6.57369E-19-5.96182E-20
 -1      2268 9.52310E-05-2.85683E-05-2.85697E-05 3.54268E-09 8.37754E-19-6.63189E-19
 -1      2269 9.52361E-05-2.85680E-05-2.85721E-05 2.85728E-10 4.03416E-19-1.93802E-19
 -1      2270 9.52304E-05-2.85685E-05-2.85693E-05 4.53311E-09 8.35852E-19-1.00649E-18
 -1      2271 9.52305E-05-2.85689E-05-2.85692E-05 4.96226E-09 6.13161E-19-1.47896E-19
 -1      2272 9.52343E-05-2.85691E-05-2.85709E-05 3.48334E-09 6.26794E-19-7.35134E-19
 -1      2273 9.52303E-05-2.85691E-05-2.85691E-05 5.34225E-09-1.43262E-19 1.14645E-18
 -1      2274 9.52307E-05-2.85694E-05-2.85691E-05 5.40662E-09-9.15262E-19 1.81721E-18
 -1      2275 9.52335E-05-2.85698E-05-2.85702E-05 5.08120E-09 8.16636E-19-1.29139E-20
 -1      2276 9.52307E-05-2.85695E-05-2.85691E-05 5.45720E-09-1.65896E-18 2.72787E-18
 -1      2277 9.52312E-05-2.85698E-05-2.85692E-05 5.32485E-09-1.01501E-18 2.33059E-18
 -1      2278 9.52332E-05-2.85702E-05-2.85699E-05 5.64372E-09-5.00769E-19 1.19315E-18
 -1      2279 9.52313E-05-2.85699E-05-2.85692E-05 5.17881E-09 1.79983E-19 2.35639E-18
 -1      2280 9.52319E-05-2.85701E-05-2.85693E-05 4.94052E-09 7.90107E-19 3.60731E-18
 -1      2281 9.52334E-05-2.85706E-05-2.85698E-05 5.61353E-09-2.30691E-19 2.39356E-18
 -1      2282 9.52321E-05-2.85702E-05-2.85694E-05 4.68806E-09-7.47270E-19 2.34505E-18
 -1      2283 9.52327E-05-2.85704E-05-2.85696E-05 4.40202E-09-5.89477E-19 1.35185E-18
 -1      2284 9.52337E-05-2.85708E-05-2.85698E-05 5.23983E-09-4.97936E-19 2.68747E-18
 -1      2285 9.52329E-05-2.85704E-05-2.85696E-05 4.10210E-09-6.86842E-19 1.34933E-20
 -1      2286 9.52334E-05-2.85706E-05-2.85698E-05 3.80511E-09-1.10400E-18-4.35449E-19
 -1      2287 9.52341E-05-2.85710E-05-2.85699E-05 4.68720E-09-1.20925E-18-1.73824E-19
 -1      2288 9.52337E-05-2.85706E-05-2.85699E-05 3.49513E-09-9.73989E-19-1.35478E-18
 -1      2289 9.52341E-05-2.85707E-05-2.85700E-05 3.20985E-09-4.86209E-19-9.98792E-19
 -1      2290 9.52346E-05-2.85711E-05-2.85701E-05 4.06262E-09-1.74764E-18-1.73375E-18
 -1      2291 9.52344E-05-2.85708E-05-2.85701E-05 2.89772E-09-7.82937E-20-2.00592E-18
 -1      2292 9.52348E-05-2.85709E-05-2.85702E-05 2.62511E-09-8.18890E-19-2.13376E-18
 -1      2293 9.52350E-05-2.85712E-05-2.85702E-05 3.41888E-09-6.58813E-19-2.55888E-18
 -1      2294 9.52350E-05-2.85709E-05-2.85703E-05 2.35584E-09-8.88636E-19-2.08448E-18
 -1      2295 9.52353E-05-2.85710E-05-2.85704E-05 2.12668E-09-3.36040E-19-2.14189E-18
 -1      2296 9.52355E-05-2.85712E-05-2.85704E-05 2.81200E-09-8.06190E-19-2.79787E-18
 -1      2297 9.52354E-05-2.85710E-05-2.85705E-05 1.88990E-09-1.91699E-19-1.68744E-18
 -1      2298 9.52357E-05-2.85710E-05-2.85706E-05 1.69322E-09-3.39830E-19-2.00050E-18
 -1      2299 9.52358E-05-2.85712E-05-2.85705E-05 2.28017E-09-4.68997E-20-2.18232E-18
 -1      2300 9.52358E-05-2.85711E-05-2.85706E-05 1.49058E-09-7.02601E-20-1.87415E-18
 -1      2301 9.52361E-05-2.85711E-05-2.85707E-05 1.32556E-09 1.12363E-18-2.10720E-18
 -1      2302 9.52361E-05-2.85713E-05-2.85706E-05 1.81656E-09-2.21549E-19-1.88290E-18
 -1      2303 9.52362E-05-2.85711E-05-2.85708E-05 1.15602E-09 1.25409E-18-1.26970E-18
 -1      2304 9.52363E-05-2.85711E-05-2.85708E-05 1.02024E-09 2.00874E-18-3.91146E-19
 -1      2305 9.52364E-05-2.85713E-05-2.85708E-05 1.42269E-09 1.34678E-18-1.14517E-18
 -1      2306 9.52364E-05-2.85711E-05-2.85709E-05 8.81120E-10 2.08908E-18-7.48396E-19
 -1      2307 9.52366E-05-2.85711E-05-2.85709E-05 7.71255E-10 1.37432E-18-1.23574E-18
 -1      2308 9.52366E-05-2.85713E-05-2.85708E-05 1.09523E-09 1.18714E-18-6.90049E-19
 -1      2309 9.52366E-05-2.85711E-05-2.85709E-05 6.53744E-10-3.33408E-19-7.91313E-19
 -1      2310 9.52367E-05-2.85712E-05-2.85710E-05 5.62699E-10-1.59503E-18-1.28823E-18
 -1      2311 9.52367E-05-2.85712E-05-2.85709E-05 8.22617E-10 1.02014E-18-1.62954E-18
 -1      2312 9.52368E-05-2.85712E-05-2.85710E-05 4.74697E-10-1.95400E-19-1.23757E-18
 -1      2313 9.52369E-05-2.85712E-05-2.85710E-05 4.06721E-10 6.22105E-19-6.88714E-20
 -1      2314 9.52368E-05-2.85712E-05-2.85710E-05 6.03995E-10-1.04767E-18-1.67360E-19
 -1      2315 9.52369E-05-2.85712E-05-2.85710E-05 3.37629E-10 8.23380E-19 6.56362E-19
 -1      2316 9.52370E-05-2.85712E-05-2.85711E-05 2.84717E-10 1.17901E-18 1.97259E-18
 -1      2317 9.52369E-05-2.85712E-05-2.85710E-05 4.36241E-10 9.81554E-19 9.72114E-19
 -1      2318 9.52370E-05-2.85712E-05-2.85711E-05 2.31048E-10 1.07077E-18 1.61214E-18
 -1      2319 9.52370E-05-2.85712E-05-2.85711E-05 1.90064E-10 6.54349E-19 1.21599E-18
 -1      2320 9.52370E-05-2.85712E-05-2.85711E-05 3.05172E-10 1.32115E-18 1.70311E-18
 -1      2321 9.52371E-05-2.85712E-05-2.85711E-05 1.48743E-10-3.29136E-19 2.65312E-18
 -1      2322 9.52371E-05-2.85712E-05-2.85711E-05 1.17527E-10 4.40158E-19 2.50207E-18
 -1      2323 9.52371E-05-2.85712E-05-2.85711E-05 2.03713E-10 9.09408E-19 3.78897E-18
 -1      2324 9.52371E-05-2.85712E-05-2.85711E-05 8.82529E-11 1.51324E-18 2.19539E-18
 -1      2325 9.52371E-05-2.85712E-05-2.85711E-05 6.50685E-11 5.42897E-19 2.82400E-18
 -1      2326 9.52371E-05-2.85712E-05-2.85711E-05 7.60112E-11 3.64684E-19 4.32920E-18
 -1      2327 9.52371E-05-2.85712E-05-2.85711E-05 1.30008E-10 6.65891E-19 4.42862E-18
 -1      2328 8.93885E-05-2.64338E-05-2.69833E-05-6.72204E-06 8.75701E-19-2.06652E-18
 -1      2329 8.85138E-05-2.57494E-05-2.68655E-05-6.33242E-06 1.05227E-18-2.03288E-18
 -1      2330 8.79755E-05-2.51195E-05-2.69344E-05-5.57243E-06 1.03841E-18-2.15865E-18
 -1      2331 8.73453E-05-2.44327E-05-2.69083E-05-4.62764E-06 1.18063E-18-1.94670E-18
 -1      2332 9.11342E-05-2.58825E-05-2.79801E-05-6.51601E-06 1.07545E-18-2.20979E-18
 -1      2333 9.52371E-05-2.85712E-05-2.85711E-05-1.02946E-10 1.18084E-19 9.55355E-19
 -1      2334 9.52371E-05-2.85712E-05-2.85711E-05-9.78174E-11-1.52614E-19-1.17127E-18
 -1      2335 8.70139E-05-2.37984E-05-2.70774E-05-3.18734E-06 1.33992E-18-2.07442E-18
 -1      2336 8.68281E-05-2.31838E-05-2.72015E-05-1.59929E-06 1.52797E-18-1.86858E-18
 -1      2337 9.01823E-05-2.42376E-05-2.82888E-05-4.13489E-06 1.30863E-18-2.33132E-18
 -1      2338 9.09255E-05-2.75860E-05-2.71509E-05-6.84179E-06 3.33121E-19-1.93192E-18
 -1      2339 8.99834E-05-2.69868E-05-2.69838E-05-6.89404E-06 7.10746E-19-1.98147E-18
 -1      2340 9.23411E-05-2.73966E-05-2.78377E-05-7.52468E-06 8.01744E-19-1.91501E-18
 -1      2341 9.23288E-05-2.84524E-05-2.73802E-05-6.22413E-06-5.74824E-20-1.89415E-18
 -1      2342 9.14516E-05-2.79963E-05-2.71962E-05-6.57707E-06 1.67960E-19-1.86984E-18
 -1      2343 9.35160E-05-2.86102E-05-2.78138E-05-7.42926E-06 2.99276E-19-1.87130E-18
 -1      2344 9.34549E-05-2.89935E-05-2.76289E-05-5.19077E-06-1.82177E-19-1.49059E-18
 -1      2345 9.27185E-05-2.86953E-05-2.74509E-05-5.70019E-06-1.37812E-19-1.70779E-18
 -1      2346 9.44638E-05-2.94212E-05-2.78694E-05-6.58997E-06-1.02352E-19-1.79413E-18
 -1      2347 9.42693E-05-2.92487E-05-2.78663E-05-4.02291E-06-2.81230E-19-1.20524E-18
 -1      2348 9.36994E-05-2.90878E-05-2.77092E-05-4.56914E-06-2.23020E-19-1.35141E-18
 -1      2349 9.51110E-05-2.98287E-05-2.79722E-05-5.37543E-06-2.07670E-19-1.40405E-18
 -1      2350 9.48064E-05-2.92985E-05-2.80737E-05-2.91835E-06-1.15220E-19-1.18822E-18
 -1      2351 9.43949E-05-2.92375E-05-2.79448E-05-3.42063E-06-1.10723E-19-1.08519E-18
 -1      2352 9.54811E-05-2.99152E-05-2.80952E-05-4.08349E-06-2.39268E-19-1.36852E-18
 -1      2353 9.51296E-05-2.92276E-05-2.82418E-05-1.98585E-06-1.64587E-19-1.16086E-18
 -1      2354 9.48508E-05-2.92281E-05-2.81428E-05-2.40217E-06-1.04197E-19-9.13974E-19
 -1      2355 9.56442E-05-2.97958E-05-2.82179E-05-2.90724E-06-1.33439E-19-1.16410E-18
 -1      2356 9.53036E-05-2.91036E-05-2.83695E-05-1.26282E-06-1.73020E-19-1.11016E-18
 -1      2357 9.51269E-05-2.91349E-05-2.82979E-05-1.58113E-06-1.38291E-19-1.11236E-18
 -1      2358 9.56763E-05-2.95764E-05-2.83269E-05-1.94150E-06-2.43675E-19-1.17704E-18
 -1      2359 9.53820E-05-2.89705E-05-2.84604E-05-7.40746E-07-7.49103E-20-8.56001E-19
 -1      2360 9.52784E-05-2.90123E-05-2.84118E-05-9.67776E-07 8.63754E-20-1.13865E-18
 -1      2361 9.56386E-05-2.93338E-05-2.84156E-05-1.20910E-06-1.16250E-19-6.89438E-19
 -1      2362 9.54038E-05-2.88519E-05-2.85208E-05-3.87861E-07-4.05873E-20-8.67841E-19
 -1      2363 9.53494E-05-2.88927E-05-2.84901E-05-5.39410E-07 3.18493E-20-7.62205E-19
 -1      2364 9.55721E-05-2.91129E-05-2.84823E-05-6.90168E-07-5.87600E-20-9.35560E-19
 -1      2365 9.53950E-05-2.87572E-05-2.85580E-05-1.65127E-07 5.99364E-19-1.49436E-18
 -1      2366 9.53718E-05-2.87916E-05-2.85403E-05-2.59404E-07 1.17283E-19-1.33163E-18
 -1      2367 9.55007E-05-2.89333E-05-2.85289E-05-3.45600E-07 3.14370E-19-1.86052E-18
 -1      2368 9.53721E-05-2.86871E-05-2.85786E-05-3.55233E-08 3.37092E-19-1.33050E-18
 -1      2369 9.53673E-05-2.87136E-05-2.85696E-05-8.93252E-08 8.16038E-19-1.31367E-18
 -1      2370 9.54360E-05-2.87988E-05-2.85589E-05-1.32247E-07 6.49572E-19-1.22359E-18
 -1      2371 9.53447E-05-2.86383E-05-2.85880E-05 3.16720E-08-7.57523E-19-6.82669E-19
 -1      2372 9.53496E-05-2.86574E-05-2.85846E-05 4.64604E-09-3.99968E-19-1.07879E-18
 -1      2373 9.53822E-05-2.87044E-05-2.85763E-05-1.11395E-08-2.23258E-19-4.31153E-19
 -1      2374 9.53181E-05-2.86062E-05-2.85905E-05 5.97626E-08-9.75073E-20-8.33814E-19
 -1      2375 9.53273E-05-2.86192E-05-2.85903E-05 4.92607E-08-4.79546E-19-7.73546E-19
 -1      2376 9.53398E-05-2.86420E-05-2.85849E-05 4.91284E-08-4.56394E-19-2.95698E-19
 -1      2377 9.52948E-05-2.85862E-05-2.85892E-05 6.52228E-08-5.09041E-19-7.69628E-19
 -1      2378 9.53049E-05-2.85946E-05-2.85907E-05 6.40877E-08 2.23091E-21-8.64223E-19
 -1      2379 9.53076E-05-2.86031E-05-2.85878E-05 7.19047E-08-7.32298E-20 1.52162E-19
 -1      2380 9.52757E-05-2.85745E-05-2.85861E-05 5.89886E-08-4.46986E-19-5.31343E-19
 -1      2381 9.52851E-05-2.85796E-05-2.85882E-05 6.25316E-08-3.01689E-19-6.16289E-19
 -1      2382 9.52837E-05-2.85804E-05-2.85873E-05 7.34428E-08-3.29855E-19 3.59772E-20
 -1      2383 9.52608E-05-2.85683E-05-2.85825E-05 4.78672E-08-3.03890E-19 7.79929E-20
 -1      2384 9.52687E-05-2.85711E-05-2.85846E-05 5.32159E-08-3.48711E-19-3.88139E-19
 -1      2385 9.52664E-05-2.85684E-05-2.85850E-05 6.43894E-08-5.18993E-19 5.31198E-19
 -1      2386 9.52498E-05-2.85654E-05-2.85790E-05 3.57845E-08-8.40576E-19 8.15035E-19
 -1      2387 9.52558E-05-2.85668E-05-2.85809E-05 4.13180E-08-7.87953E-19 2.04715E-20
 -1      2388 9.52542E-05-2.85629E-05-2.85821E-05 5.12818E-08-6.64331E-19 5.47825E-19
 -1      2389 9.52420E-05-2.85645E-05-2.85760E-05 2.47713E-08 1.70671E-19 1.02582E-18
 -1      2390 9.52464E-05-2.85650E-05-2.85775E-05 2.96803E-08 3.74391E-20 9.19067E-19
 -1      2391 9.52457E-05-2.85613E-05-2.85791E-05 3.78237E-08-4.73216E-19 3.64462E-19
 -1      2392 9.52367E-05-2.85647E-05-2.85737E-05 1.56854E-08 2.52918E-19 6.29362E-19
 -1      2393 9.52397E-05-2.85647E-05-2.85748E-05 1.96550E-08 4.06144E-19 7.29104E-19
 -1      2394 9.52400E-05-2.85616E-05-2.85765E-05 2.58749E-08 5.73377E-19 8.35506E-19
 -1      2395 9.52334E-05-2.85654E-05-2.85720E-05 8.71046E-09 3.37134E-19-1.36689E-19
 -1      2396 9.52353E-05-2.85652E-05-2.85728E-05 1.17033E-08 4.74178E-19 7.24930E-20
 -1      2397 9.52363E-05-2.85629E-05-2.85744E-05 1.61670E-08 7.78347E-19 6.79202E-19
 -1      2398 9.52316E-05-2.85663E-05-2.85708E-05 3.67967E-09-3.62902E-19-5.17662E-19
 -1      2399 9.52326E-05-2.85659E-05-2.85713E-05 5.79772E-09 1.22737E-19-3.35617E-19
 -1      2400 9.52342E-05-2.85644E-05-2.85728E-05 8.79142E-09 2.63365E-19-4.35744E-19
 -1      2401 9.52308E-05-2.85672E-05-2.85701E-05 2.75659E-10 1.54402E-18-1.35367E-19
 -1      2402 9.52312E-05-2.85668E-05-2.85704E-05 1.67611E-09 3.22360E-20-3.74044E-19
 -1      2403 9.52330E-05-2.85660E-05-2.85716E-05 3.51493E-09 6.02492E-20-6.23199E-19
 -1      2404 9.52307E-05-2.85681E-05-2.85697E-05-1.85496E-09 1.28886E-18 1.09384E-18
 -1      2405 9.52307E-05-2.85677E-05-2.85698E-05-1.00688E-09 1.49196E-18 1.26732E-18
 -1      2406 9.52325E-05-2.85673E-05-2.85708E-05-2.76233E-11 5.15514E-19 2.43358E-19
 -1      2407 9.52311E-05-2.85688E-05-2.85695E-05-3.04175E-09-5.51837E-19 1.04057E-18
 -1      2408 9.52308E-05-2.85684E-05-2.85695E-05-2.59646E-09 6.09790E-19 1.08386E-18
 -1      2409 9.52325E-05-2.85684E-05-2.85704E-05-2.22407E-09 9.19836E-19 1.90620E-18
 -1      2410 9.52316E-05-2.85694E-05-2.85695E-05-3.56410E-09-1.39431E-19 5.21563E-19
 -1      2411 9.52312E-05-2.85691E-05-2.85695E-05-3.39733E-09-2.74659E-19 6.63895E-19
 -1      2412 9.52328E-05-2.85692E-05-2.85701E-05-3.42872E-09 4.31258E-20 1.46581E-18
 -1      2413 9.52323E-05-2.85698E-05-2.85696E-05-3.64423E-09 1.40060E-18 5.80232E-19
 -1      2414 9.52319E-05-2.85696E-05-2.85695E-05-3.65874E-09 1.02928E-18 1.72741E-19
 -1      2415 9.52332E-05-2.85699E-05-2.85700E-05-3.93864E-09 5.15553E-19 2.55089E-19
 -1      2416 9.52331E-05-2.85702E-05-2.85698E-05-3.45023E-09 1.95944E-19 7.06100E-19
 -1      2417 9.52326E-05-2.85700E-05-2.85697E-05-3.57356E-09 1.15245E-18 5.77843E-19
 -1      2418 9.52337E-05-2.85703E-05-2.85700E-05-3.98855E-09 1.38992E-18 1.96519E-19
 -1      2419 9.52338E-05-2.85705E-05-2.85700E-05-3.10374E-09-4.65583E-19 1.67191E-19
 -1      2420 9.52333E-05-2.85703E-05-2.85699E-05-3.28425E-09-2.98123E-19 3.45227E-19
 -1      2421 9.52342E-05-2.85707E-05-2.85701E-05-3.75522E-09 1.22081E-19-6.49730E-19
 -1      2422 9.52344E-05-2.85707E-05-2.85702E-05-2.68892E-09 4.63240E-20-1.28577E-18
 -1      2423 9.52340E-05-2.85706E-05-2.85701E-05-2.89149E-09-7.65892E-21-5.05016E-19
 -1      2424 9.52347E-05-2.85709E-05-2.85702E-05-3.36615E-09-2.14998E-21-1.25022E-18
 -1      2425 9.52350E-05-2.85708E-05-2.85703E-05-2.26111E-09 1.24272E-18-6.53960E-19
 -1      2426 9.52346E-05-2.85707E-05-2.85702E-05-2.46316E-09 6.55726E-19-8.04765E-19
 -1      2427 9.52352E-05-2.85710E-05-2.85703E-05-2.90932E-09 3.38274E-19-8.51574E-19
 -1      2428 9.52354E-05-2.85710E-05-2.85705E-05-1.85434E-09-2.33171E-19 3.66149E-19
 -1      2429 9.52352E-05-2.85709E-05-2.85704E-05-2.04241E-09 9.96716E-19-2.83693E-19
 -1      2430 9.52356E-05-2.85711E-05-2.85705E-05-2.44235E-09 2.74864E-19 1.06695E-19
 -1      2431 9.52358E-05-2.85710E-05-2.85706E-05-1.48747E-09-1.29573E-18 9.67066E-19
 -1      2432 9.52356E-05-2.85710E-05-2.85706E-05-1.65452E-09-1.16514E-18 4.30597E-19
 -1      2433 9.52359E-05-2.85712E-05-2.85706E-05-2.00055E-09-8.09152E-19 5.08586E-19
 -1      2434 9.52362E-05-2.85711E-05-2.85708E-05-1.16897E-09-4.21234E-19 9.93894E-19
 -1      2435 9.52360E-05-2.85710E-05-2.85707E-05-1.31228E-09-3.93452E-19 5.98752E-19
 -1      2436 9.52362E-05-2.85712E-05-2.85707E-05-1.60327E-09-1.06367E-18-3.03847E-20
 -1      2437 9.52364E-05-2.85711E-05-2.85708E-05-9.00531E-10 1.12148E-19-4.58264E-19
 -1      2438 9.52363E-05-2.85711E-05-2.85708E-05-1.02014E-09-6.65300E-20 1.92972E-19
 -1      2439 9.52364E-05-2.85712E-05-2.85708E-05-1.25904E-09 4.74188E-19 7.72567E-19
 -1      2440 9.52366E-05-2.85711E-05-2.85709E-05-6.79663E-10 6.45133E-19-1.40099E-18
 -1      2441 9.52365E-05-2.85711E-05-2.85709E-05-7.77260E-10 7.23962E-19-9.40475E-19
 -1      2442 9.52366E-05-2.85712E-05-2.85709E-05-9.69265E-10 7.69074E-19-3.33700E-19
 -1      2443 9.52368E-05-2.85712E-05-2.85710E-05-5.01526E-10 2.38906E-19-7.56645E-19
 -1      2444 9.52367E-05-2.85711E-05-2.85710E-05-5.79694E-10 2.80929E-19-1.29572E-18
 -1      2445 9.52368E-05-2.85712E-05-2.85709E-05-7.31020E-10 4.27755E-19-1.33976E-19
 -1      2446 9.52369E-05-2.85712E-05-2.85710E-05-3.60178E-10-9.77806E-19-1.86134E-18
 -1      2447 9.52368E-05-2.85712E-05-2.85710E-05-4.21863E-10-2.90839E-19-7.64553E-19
 -1      2448 9.52369E-05-2.85712E-05-2.85710E-05-5.38954E-10-2.75568E-19 1.18734E-19
 -1      2449 9.52370E-05-2.85712E-05-2.85711E-05-2.49283E-10-1.68982E-19-2.11500E-18
 -1      2450 9.52369E-05-2.85712E-05-2.85710E-05-2.97508E-10-1.34013E-18-1.87223E-18
 -1      2451 9.52370E-05-2.85712E-05-2.85710E-05-3.86623E-10-8.36878E-19-3.21667E-19
 -1      2452 9.52370E-05-2.85712E-05-2.85711E-05-1.63512E-10-1.16691E-18-1.19226E-18
 -1      2453 9.52370E-05-2.85712E-05-2.85711E-05-2.00519E-10-1.04947E-18-1.22545E-18
 -1      2454 9.52370E-05-2.85712E-05-2.85711E-05-2.66833E-10-8.77907E-19-6.58509E-19
 -1      2455 9.52371E-05-2.85712E-05-2.85711E-05-1.26942E-10-3.06945E-19-4.82179E-19
 -1      2456 9.52372E-05-2.85714E-05-2.85711E-05-1.17005E-10 1.53566E-18-2.44743E-20
 -1      2457 9.52372E-05-2.85713E-05-2.85711E-05-1.24321E-10 1.23149E-18-3.77430E-19
 -1      2458 9.52372E-05-2.85713E-05-2.85711E-05-1.28434E-10 4.29394E-19 2.07236E-19
 -1      2459 9.52372E-05-2.85713E-05-2.85711E-05-1.25430E-10-3.00150E-19 6.86343E-19
 -1      2460 9.52372E-05-2.85713E-05-2.85711E-05-1.52094E-10 3.45229E-19 4.84564E-19
 -1      2461 9.52372E-05-2.85713E-05-2.85711E-05-1.24064E-10 2.02104E-20 1.13765E-18
 -1      2462 9.52371E-05-2.85712E-05-2.85711E-05-1.11959E-10-4.71637E-20 1.37376E-18
 -1      2463 9.52371E-05-2.85712E-05-2.85711E-05-1.45191E-10-5.70855E-20 1.24229E-18
 -1      2464 9.52372E-05-2.85713E-05-2.85711E-05-1.55389E-10 4.86604E-19 1.04122E-18
 -1      2465 5.71119E-05-2.76100E-05-1.26092E-05 4.90082E-05-3.89212E-18 5.70583E-18
 -1      2466 3.96209E-05-2.03048E-05-8.02744E-06 4.00604E-05-4.20446E-18 6.23564E-18
 -1      2467 9.52373E-05-2.85714E-05-2.85711E-05-8.57299E-11 1.86310E-18-6.97795E-20
 -1      2468 9.52372E-05-2.85714E-05-2.85711E-05-1.01743E-10 1.38609E-18 4.65802E-20
 -1      2469 9.52372E-05-2.85714E-05-2.85711E-05-1.30762E-10 1.81868E-18-5.49059E-19
 -1      2470 9.52373E-05-2.85714E-05-2.85711E-05-3.96528E-11 1.16191E-18-1.61539E-18
 -1      2471 9.52373E-05-2.85714E-05-2.85711E-05-6.15599E-11 6.53146E-19-1.27488E-18
 -1      2472 9.52373E-05-2.85714E-05-2.85711E-05-8.76768E-11 7.12726E-19-6.75626E-19
 -1      2473 9.52373E-05-2.85714E-05-2.85711E-05 1.31831E-11 1.08870E-18-4.16604E-19
 -1      2474 9.52373E-05-2.85714E-05-2.85711E-05-1.07168E-11 8.22369E-19 2.67689E-19
 -1      2475 9.52373E-05-2.85715E-05-2.85711E-05-2.99522E-11 1.45644E-18-1.13938E-18
 -1      2476 9.52373E-05-2.85714E-05-2.85711E-05 6.36984E-11 6.90607E-19-1.63527E-18
 -1      2477 9.52373E-05-2.85714E-05-2.85711E-05 4.20037E-11 1.21372E-18-1.81004E-18
 -1      2478 9.52373E-05-2.85715E-05-2.85711E-05 3.26953E-11 1.16477E-18-9.22644E-19
 -1      2479 9.52372E-05-2.85714E-05-2.85711E-05 1.02695E-10 6.27229E-19-2.03035E-18
 -1      2480 9.52373E-05-2.85714E-05-2.85711E-05 8.72077E-11 1.05713E-18-1.77857E-18
 -1      2481 9.52373E-05-2.85714E-05-2.85711E-05 8.95483E-11 1.50114E-18-2.01308E-18
 -1      2482 9.52372E-05-2.85713E-05-2.85711E-05 1.24675E-10 5.18938E-19 1.59563E-18
 -1      2483 9.52372E-05-2.85714E-05-2.85711E-05 1.17717E-10 7.39549E-19-7.04381E-20
 -1      2484 9.52372E-05-2.85714E-05-2.85711E-05 1.31734E-10 1.98094E-18-1.09254E-18
 -1      2485 9.52372E-05-2.85713E-05-2.85711E-05 1.24969E-10 5.96686E-19-4.66500E-19
 -1      2486 9.52372E-05-2.85713E-05-2.85711E-05 1.28059E-10 1.16418E-20 1.95229E-18
 -1      2487 9.52372E-05-2.85713E-05-2.85711E-05 1.52463E-10 9.33205E-19 8.89599E-19
 -1      2488 9.52371E-05-2.85712E-05-2.85711E-05 1.04221E-10-2.78208E-19-1.07046E-18
 -1      2489 9.52371E-05-2.85712E-05-2.85711E-05 1.16594E-10-7.33626E-20-1.95911E-18
 -1      2490 9.52372E-05-2.85713E-05-2.85711E-05 1.47768E-10-6.91056E-19-1.31628E-18
 -1      2491 1.28357E-04-4.92434E-05-3.42511E-05 3.47582E-05-1.65881E-18 1.36161E-19
 -1      2492 1.16087E-04-4.83875E-05-2.89247E-05 4.02469E-05-2.44242E-18 1.02629E-18
 -1      2493 1.86877E-05-6.51789E-06-4.89903E-06 1.77475E-06-1.98091E-18 5.28464E-18
 -1      2494 2.32430E-05-8.82444E-06-5.84453E-06-1.31788E-05-1.72922E-18 5.70138E-18
 -1      2495 9.65433E-05-2.51651E-05-3.04015E-05-2.60223E-05 2.16745E-18 2.33384E-19
 -1      2496 9.39173E-05-2.27178E-05-3.04528E-05-2.32585E-05 1.50256E-18 4.37598E-19
 -1      2497 8.55054E-05-1.82865E-05-2.86350E-05-2.12409E-05 1.42470E-18 8.16315E-19
 -1      2498 1.29596E-04-5.47989E-05-3.18026E-05-2.72072E-05 1.50984E-19-4.11737E-20
 -1      2499 1.17877E-04-4.49959E-05-3.06484E-05-3.05046E-05 1.26790E-18-4.22484E-19
 -1      2500 1.16874E-04-1.26664E-05-4.48834E-05 1.15478E-05-5.57930E-19-3.06259E-18
 -1      2501 1.22079E-04-1.56799E-05-4.57509E-05 1.05722E-05-1.06189E-18-2.36624E-18
 -1      2502 1.14860E-04-1.18195E-05-4.41792E-05 1.19453E-05-1.25811E-19-3.05565E-18
 -1      2503 1.27333E-04-1.88168E-05-4.69412E-05 9.42358E-06-1.13100E-18-1.39031E-18
 -1      2504 1.31963E-04-2.29371E-05-4.68231E-05 5.63494E-06-1.80691E-18-3.83785E-19
 -1      2505 1.25387E-04-1.57392E-05-4.70719E-05 1.23696E-05-3.98847E-19-1.46886E-18
 -1      2506 7.48231E-05-2.84727E-05-2.18566E-05 1.15484E-05 3.70577E-19-1.20236E-18
 -1      2507 1.83525E-04-7.05654E-05-4.84459E-05-2.21949E-05 3.24414E-19 7.01216E-18
 -1      2508 2.78239E-05-1.20387E-05-6.46360E-06 3.05980E-05-3.22444E-18 6.25195E-18
 -1      2509 2.10561E-05-7.91204E-06-5.25009E-06 1.68579E-05-3.11375E-18 5.81319E-18
 -1      2510 1.51710E-04-2.33715E-05-5.53400E-05 6.96073E-06 2.76556E-18-1.70148E-18
 -1      2511 1.48746E-04-2.91979E-05-5.14870E-05 8.63270E-06 2.10721E-18-1.74552E-18
 -1      2512 1.49447E-04-1.06878E-05-5.99114E-05 4.76599E-06 3.84744E-18-1.66717E-18
 -1      2513 1.50648E-04-1.59282E-05-5.80272E-05 5.39095E-06 3.46415E-18-1.80503E-18
 -1      2514 1.48571E-04-1.91952E-05-5.57999E-05 4.79419E-06 2.20303E-18 6.05417E-19
 -1      2515 1.49378E-04-1.49726E-05-5.82304E-05 7.45337E-06 3.07261E-18-1.12020E-19
 -1      2516 1.39568E-04-2.77856E-05-4.80661E-05-9.38284E-06-9.33205E-19 1.09945E-18
 -1      2517 1.48062E-04-2.61733E-05-5.29398E-05-1.99027E-06 8.10187E-19 9.21784E-19
 -1      2518 1.14555E-04-2.42353E-05-3.86265E-05-2.69136E-05-3.88163E-18 5.03455E-19
 -1      2519 3.49300E-05-1.56842E-05-8.06559E-06-2.60962E-05-5.91547E-19 5.27532E-18
 -1      2520 5.17848E-05-2.40549E-05-1.16900E-05-3.67801E-05-6.79532E-19 4.60384E-18
 -1      2521 1.21239E-04-5.43931E-05-2.89481E-05-3.41332E-05-8.12516E-19 1.11848E-18
 -1      2522 1.47411E-04-3.91139E-05-4.67527E-05 1.59084E-05 9.60271E-19-1.47468E-18
 -1      2523 1.38736E-04-4.50506E-05-4.02000E-05 2.29028E-05-6.02849E-19-9.87217E-19
 -1      2524 1.02224E-04-4.72889E-05-2.33148E-05-3.89651E-05-5.22196E-19 1.84261E-18
 -1      2525 6.64784E-05-3.19929E-05-1.46719E-05-3.89461E-05-3.59142E-19 3.69963E-18
 -1      2526 8.51365E-05-3.96930E-05-1.94407E-05-4.15922E-05-5.10761E-19 2.45470E-18
 -1      2527 9.33909E-05-3.94731E-05-2.27163E-05-3.91442E-05 7.96846E-19 1.49141E-18
 -1      2528 6.47953E-05-2.51723E-05-1.65013E-05-3.63308E-05 1.34276E-18 3.28649E-18
 -1      2529 9.96610E-05-4.39184E-05-2.39354E-05 4.85013E-05-3.21068E-18 2.64608E-18
 -1      2530 7.99764E-05-3.79800E-05-1.77226E-05 4.91151E-05-4.50833E-18 4.06409E-18
 -1      2531 1.11497E-04-4.85820E-05-2.66474E-05 4.10579E-05-4.13881E-18 1.18685E-18
 -1      2532 1.36198E-04-2.23343E-05-4.89865E-05 7.55174E-06-5.76088E-19 4.01229E-19
 -1      2533 1.35014E-04-2.67622E-05-4.70406E-05-7.47320E-08-1.88999E-18 3.97047E-19
 -1      2534 1.32495E-04-2.79566E-05-4.47693E-05-1.02274E-05-2.62162E-18 9.52065E-19
 -1      2535 9.87446E-05-3.69412E-05-2.64591E-05-3.53129E-05 1.50730E-18 8.76467E-19
 -1      2536 8.52249E-05-2.16035E-05-2.72187E-05 5.75651E-06 2.28125E-18-9.26058E-19
 -1      2537 8.68470E-05-2.05501E-05-2.83933E-05 7.18875E-06 2.47105E-18-1.66564E-18
 -1      2538 8.50291E-05-2.19589E-05-2.69743E-05 3.54108E-06 2.09053E-18-1.34300E-18
 -1      2539 2.81147E-05-4.79724E-06-9.36980E-06 9.16008E-06-1.97973E-18 5.21095E-18
 -1      2540 7.48415E-05-3.33676E-05-1.73745E-05 4.78897E-05-4.50918E-18 4.70813E-18
 -1      2541 8.96881E-05-2.24717E-05-2.88309E-05-2.81403E-07 1.65460E-18-2.26000E-18
 -1      2542 8.67714E-05-2.24660E-05-2.75275E-05 5.61684E-07 1.63472E-18-1.95091E-18
 -1      2543 9.52371E-05-2.85712E-05-2.85711E-05-1.73875E-10-8.11784E-19 1.34340E-19
 -1      2544 8.64009E-05-2.26380E-05-2.72851E-05-2.95817E-05 2.32646E-18 6.24052E-19
 -1      2545 4.18303E-05-1.46186E-05-1.11039E-05 3.50065E-05-3.64870E-18 6.04464E-18
 -1      2546 1.35612E-04-4.97802E-05-3.66664E-05 2.28651E-05-1.92901E-18-1.50158E-18
 -1      2547 8.64201E-05-2.19460E-05-2.75638E-05 2.43977E-06 1.91560E-18-1.67365E-18
 -1      2548 9.52371E-05-2.85712E-05-2.85711E-05 8.59247E-11 4.92807E-19 2.06584E-18
 -1      2549 3.77981E-05-1.02131E-05-1.12113E-05-2.03368E-05 1.60830E-19 4.70019E-18
 -1      2550 9.52371E-05-2.85712E-05-2.85711E-05 1.20056E-10 1.31854E-18 1.15226E-18
 -1      2551 1.42321E-04-2.09682E-05-5.21420E-05 6.56879E-06 6.90226E-19 5.31090E-19
 -1      2552 1.39321E-04-7.51274E-06-5.67280E-05 4.44529E-06 3.37733E-18-2.29538E-18
 -1      2553 1.42911E-04-1.83049E-05-5.35371E-05 5.27493E-07 2.45936E-18-3.01734E-18
 -1      2554 1.44437E-04-3.57520E-05-4.66461E-05 6.22925E-06 5.92658E-19-2.63999E-18
 -1      2555 1.39755E-04-9.64813E-06-5.59276E-05 9.94916E-06 2.82358E-18-9.03678E-19
 -1      2556 1.25567E-04-2.75618E-05-4.26387E-05-2.24160E-05-2.64412E-18 8.67150E-19
 -1      2557 1.04670E-04-1.09819E-05-4.01617E-05 9.22292E-06 6.79223E-19-3.77216E-18
 -1      2558 1.08133E-04-1.11548E-05-4.16603E-05 9.53367E-06 3.05084E-19-3.51569E-18
 -1      2559 8.84148E-05-1.96606E-05-2.94506E-05 8.14589E-06 2.43591E-18-2.08814E-18
 -1      2560 8.93957E-05-1.82132E-05-3.05191E-05 9.19303E-06 2.54046E-18-2.61680E-18
 -1      2561 8.84341E-05-2.04737E-05-2.91170E-05 5.37826E-06 2.23018E-18-2.24272E-18
 -1      2562 8.26300E-05-1.62972E-05-2.83878E-05-1.36065E-05 6.18804E-19 7.52688E-19
 -1      2563 8.44169E-05-1.76552E-05-2.87039E-05-1.13926E-05 5.00029E-19 5.34663E-19
 -1      2564 9.43190E-05-1.47227E-05-3.41530E-05 9.23122E-06 1.96523E-18-3.67980E-18
 -1      2565 9.65884E-05-1.36393E-05-3.55951E-05 8.92425E-06 1.46702E-18-3.83332E-18
 -1      2566 3.77824E-05-4.61082E-06-1.36259E-05-1.34470E-05 3.38098E-19 4.09922E-18
 -1      2567 4.97334E-05-1.21541E-05-1.57315E-05-2.74154E-05 9.25383E-19 3.58422E-18
 -1      2568 8.75624E-05-1.95600E-05-2.91295E-05-9.94894E-06 4.43964E-19 3.31423E-19
 -1      2569 8.87735E-05-2.08606E-05-2.91751E-05-8.22729E-06 7.03729E-19 3.82251E-19
 -1      2570 8.22332E-05-1.62935E-05-2.81213E-05-8.36186E-06 3.14344E-19-2.32537E-20
 -1      2571 9.08291E-05-2.23780E-05-2.93241E-05-7.14272E-06 5.52371E-19-2.08069E-20
 -1      2572 9.15527E-05-2.33877E-05-2.92609E-05-5.84376E-06-4.54525E-19 8.31738E-20
 -1      2573 8.72697E-05-1.99539E-05-2.87639E-05-6.30579E-06 3.08591E-19-2.29945E-19
 -1      2574 9.28450E-05-2.44842E-05-2.92842E-05-5.02181E-06-6.63561E-19 3.22198E-19
 -1      2575 9.32359E-05-2.51961E-05-2.91907E-05-4.07619E-06-4.66634E-19 4.84190E-19
 -1      2576 9.05000E-05-2.27517E-05-2.89823E-05-4.65452E-06-5.01652E-19-2.57783E-20
 -1      2577 9.40211E-05-2.59453E-05-2.91631E-05-3.46550E-06-9.54384E-19 3.25383E-19
 -1      2578 9.42113E-05-2.64217E-05-2.90729E-05-2.79744E-06-1.13872E-18 1.53417E-19
 -1      2579 9.25058E-05-2.47462E-05-2.90080E-05-3.35805E-06-7.75647E-19-5.77638E-19
 -1      2580 9.46897E-05-2.69350E-05-2.90275E-05-2.33352E-06-8.66741E-19-1.52130E-19
 -1      2581 9.47719E-05-2.72531E-05-2.89493E-05-1.85768E-06-1.03376E-18-9.64446E-20
 -1      2582 9.37352E-05-2.61318E-05-2.89543E-05-2.35409E-06-1.20025E-18-1.38706E-19
 -1      2583 9.50313E-05-2.75626E-05-2.89071E-05-1.55133E-06-9.03160E-19-2.40579E-20
 -1      2584 9.50521E-05-2.77533E-05-2.88500E-05-1.24534E-06-3.99027E-19 8.41238E-20
 -1      2585 9.44467E-05-2.70406E-05-2.88784E-05-1.62071E-06-7.92534E-19-1.48436E-19
 -1      2586 9.51950E-05-2.79484E-05-2.88139E-05-1.03143E-06-8.65600E-20 6.49565E-19
 -1      2587 9.51906E-05-2.80676E-05-2.87716E-05-8.27051E-07 2.39357E-19 8.17555E-19
 -1      2588 9.48373E-05-2.76095E-05-2.88067E-05-1.11150E-06 8.91766E-20 2.44942E-19
 -1      2589 9.52666E-05-2.81892E-05-2.87431E-05-6.80194E-07 5.07233E-19 8.48614E-19
 -1      2590 9.52526E-05-2.82629E-05-2.87127E-05-5.44766E-07 3.68278E-19 5.66810E-19
 -1      2591 9.50517E-05-2.79715E-05-2.87461E-05-7.53732E-07 4.62062E-19-1.38283E-20
 -1      2592 9.52909E-05-2.83380E-05-2.86911E-05-4.44913E-07-4.17775E-19 1.00016E-18
 -1      2593 9.52748E-05-2.83831E-05-2.86695E-05-3.55723E-07-4.90189E-19 6.93374E-19
 -1      2594 9.51645E-05-2.81994E-05-2.86981E-05-5.06023E-07-2.31396E-19 8.22008E-20
 -1      2595 9.52924E-05-2.84291E-05-2.86536E-05-2.88304E-07-4.57189E-19 7.38697E-19
 -1      2596 9.52778E-05-2.84567E-05-2.86386E-05-2.29823E-07-7.13206E-19 7.25312E-19
 -1      2597 9.52202E-05-2.83417E-05-2.86618E-05-3.36259E-07-5.65097E-19 1.78789E-19
 -1      2598 9.52845E-05-2.84847E-05-2.86271E-05-1.84541E-07-1.21273E-18 6.82973E-19
 -1      2599 9.52724E-05-2.85015E-05-2.86167E-05-1.46283E-07-1.23108E-18 1.14794E-19
 -1      2600 9.52449E-05-2.84300E-05-2.86349E-05-2.20791E-07-8.49116E-19-8.52441E-20
 -1      2601 9.52737E-05-2.85192E-05-2.86081E-05-1.14645E-07-1.42864E-18-2.38739E-19
 -1      2602 9.52641E-05-2.85298E-05-2.86008E-05-8.89264E-08-1.78761E-18 3.23567E-20
 -1      2603 9.52536E-05-2.84854E-05-2.86150E-05-1.41336E-07-1.77435E-18-8.18928E-19
 -1      2604 9.52631E-05-2.85397E-05-2.85951E-05-6.93069E-08-1.79029E-18-6.66531E-19
 -1      2605 9.52564E-05-2.85459E-05-2.85904E-05-5.35294E-08-1.52275E-18-3.76372E-19
 -1      2606 9.52544E-05-2.85196E-05-2.86008E-05-8.81276E-08-2.22809E-18-8.13121E-19
 -1      2607 9.52546E-05-2.85519E-05-2.85864E-05-4.05306E-08-6.11293E-19-7.51635E-19
 -1      2608 9.52499E-05-2.85557E-05-2.85833E-05-3.04140E-08-6.69620E-20-1.28241E-18
 -1      2609 9.52519E-05-2.85398E-05-2.85911E-05-5.37848E-08-1.67003E-18-9.60267E-19
 -1      2610 9.52480E-05-2.85594E-05-2.85805E-05-2.19332E-08-6.14307E-21-1.30849E-18
 -1      2611 9.52448E-05-2.85618E-05-2.85785E-05-1.55287E-08-8.67482E-21-1.31437E-18
 -1      2612 9.52486E-05-2.85523E-05-2.85842E-05-3.10566E-08-2.35690E-19-7.47737E-19
 -1      2613 9.52432E-05-2.85640E-05-2.85766E-05-1.00941E-08 7.42344E-19-1.99251E-18
 -1      2614 9.52411E-05-2.85655E-05-2.85753E-05-6.13284E-09 8.67579E-19-1.02934E-18
 -1      2615 9.52454E-05-2.85601E-05-2.85795E-05-1.62204E-08 2.74819E-19-1.11341E-18
 -1      2616 9.52399E-05-2.85669E-05-2.85740E-05-2.74758E-09 5.06968E-19-6.30806E-19
 -1      2617 9.52386E-05-2.85679E-05-2.85732E-05-3.85328E-10 3.63515E-19-3.61095E-19
 -1      2618 9.52427E-05-2.85649E-05-2.85763E-05-6.73335E-09 8.67610E-19-1.33925E-18
 -1      2619 9.52376E-05-2.85688E-05-2.85723E-05 1.71114E-09 3.59295E-19-1.16797E-18
 -1      2620 9.52370E-05-2.85694E-05-2.85718E-05 3.05802E-09 7.83017E-19-5.85669E-19
 -1      2621 9.52406E-05-2.85679E-05-2.85740E-05-7.68727E-10 6.29858E-20-6.50499E-19
 -1      2622 9.52363E-05-2.85699E-05-2.85713E-05 4.12020E-09 6.46754E-19-3.26952E-19
 -1      2623 9.52360E-05-2.85704E-05-2.85710E-05 4.72583E-09 9.11415E-19-4.02908E-20
 -1      2624 9.52391E-05-2.85698E-05-2.85726E-05 2.71436E-09 7.55287E-19-1.16934E-18
 -1      2625 9.52356E-05-2.85706E-05-2.85707E-05 5.21542E-09 9.10232E-19 3.07290E-19
 -1      2626 9.52356E-05-2.85709E-05-2.85706E-05 5.40149E-09 3.18528E-19 1.15216E-18
 -1      2627 9.52381E-05-2.85709E-05-2.85717E-05 4.49163E-09 9.56953E-19-7.32464E-19
 -1      2628 9.52353E-05-2.85711E-05-2.85704E-05 5.52313E-09-3.40709E-19 2.13581E-18
 -1      2629 9.52354E-05-2.85713E-05-2.85703E-05 5.45513E-09 2.60655E-19 2.58989E-18
 -1      2630 9.52374E-05-2.85716E-05-2.85711E-05 5.24550E-09 6.89421E-19 2.30326E-19
 -1      2631 9.52353E-05-2.85714E-05-2.85702E-05 5.35305E-09-9.59434E-19 2.03929E-18
 -1      2632 9.52355E-05-2.85715E-05-2.85703E-05 5.14033E-09-1.33087E-18 1.40621E-18
 -1      2633 9.52370E-05-2.85719E-05-2.85708E-05 5.35447E-09-9.39357E-19 7.34194E-19
 -1      2634 9.52354E-05-2.85715E-05-2.85702E-05 4.91248E-09-1.91998E-18 4.65189E-19
 -1      2635 9.52356E-05-2.85716E-05-2.85703E-05 4.62751E-09-2.33237E-18-5.64370E-19
 -1      2636 9.52368E-05-2.85721E-05-2.85706E-05 5.07741E-09-2.54322E-18 8.84707E-19
 -1      2637 9.52356E-05-2.85716E-05-2.85703E-05 4.33891E-09-1.73622E-18-1.22109E-18
 -1      2638 9.52358E-05-2.85716E-05-2.85703E-05 4.02894E-09-1.34070E-18-1.59850E-18
 -1      2639 9.52367E-05-2.85721E-05-2.85706E-05 4.58932E-09-2.53227E-18-5.95570E-20
 -1      2640 9.52358E-05-2.85716E-05-2.85704E-05 3.70589E-09-9.66378E-19-1.20652E-18
 -1      2641 9.52360E-05-2.85716E-05-2.85704E-05 3.38572E-09-9.75300E-19-1.85644E-18
 -1      2642 9.52367E-05-2.85721E-05-2.85706E-05 3.99098E-09-1.19955E-18 1.37054E-19
 -1      2643 9.52360E-05-2.85716E-05-2.85705E-05 3.08790E-09-7.20042E-19-1.74718E-18
 -1      2644 9.52362E-05-2.85716E-05-2.85705E-05 2.80423E-09-2.27504E-19-6.58219E-19
 -1      2645 9.52367E-05-2.85720E-05-2.85706E-05 3.37293E-09-8.86319E-19 3.38489E-19
 -1      2646 9.52362E-05-2.85716E-05-2.85706E-05 2.53065E-09-5.60082E-19-1.60949E-18
 -1      2647 9.52364E-05-2.85716E-05-2.85706E-05 2.27769E-09-8.39486E-19-2.11502E-18
 -1      2648 9.52368E-05-2.85719E-05-2.85707E-05 2.79715E-09-7.32471E-19 1.12332E-18
 -1      2649 9.52364E-05-2.85715E-05-2.85707E-05 2.03560E-09-3.64593E-19-2.83891E-18
 -1      2650 9.52365E-05-2.85715E-05-2.85707E-05 1.81681E-09 7.55468E-19-2.10823E-18
 -1      2651 9.52368E-05-2.85718E-05-2.85707E-05 2.27369E-09-1.14494E-18-1.60530E-18
 -1      2652 9.52366E-05-2.85715E-05-2.85708E-05 1.60879E-09 8.77439E-19-1.99283E-18
 -1      2653 9.52367E-05-2.85715E-05-2.85708E-05 1.42414E-09 8.94701E-19-1.78503E-18
 -1      2654 9.52369E-05-2.85717E-05-2.85708E-05 1.81444E-09 5.78854E-19-2.01137E-18
 -1      2655 9.52367E-05-2.85714E-05-2.85708E-05 1.24961E-09 8.97338E-19-2.26555E-18
 -1      2656 9.52368E-05-2.85714E-05-2.85709E-05 1.09692E-09 1.59245E-18-1.96032E-18
 -1      2657 9.52369E-05-2.85716E-05-2.85709E-05 1.42258E-09 1.13128E-18-1.41955E-18
 -1      2658 9.52368E-05-2.85714E-05-2.85709E-05 9.46553E-10 2.08284E-18-2.30183E-18
 -1      2659 9.52369E-05-2.85714E-05-2.85709E-05 8.17588E-10 7.15077E-19-2.09867E-18
 -1      2660 9.52370E-05-2.85715E-05-2.85709E-05 1.08893E-09 1.90672E-18-1.82762E-18
 -1      2661 9.52369E-05-2.85713E-05-2.85710E-05 7.03199E-10-8.29093E-19-1.11597E-18
 -1      2662 9.52370E-05-2.85713E-05-2.85710E-05 6.05302E-10-9.42836E-19-7.53219E-19
 -1      2663 9.52370E-05-2.85714E-05-2.85710E-05 8.16676E-10 5.47830E-19-2.48048E-18
 -1      2664 9.52370E-05-2.85713E-05-2.85710E-05 5.14315E-10 4.33633E-19-9.66239E-20
 -1      2665 9.52370E-05-2.85713E-05-2.85710E-05 4.37225E-10 1.23784E-18 4.78851E-19
 -1      2666 9.52371E-05-2.85714E-05-2.85710E-05 6.04383E-10 2.96376E-19-2.16511E-18
 -1      2667 9.52370E-05-2.85713E-05-2.85710E-05 3.65970E-10 1.03824E-18 7.28045E-19
 -1      2668 9.52371E-05-2.85713E-05-2.85711E-05 3.06049E-10 1.62426E-18 1.08369E-18
 -1      2669 9.52371E-05-2.85713E-05-2.85710E-05 4.36395E-10 7.30003E-19-4.07671E-19
 -1      2670 9.52371E-05-2.85712E-05-2.85711E-05 2.50725E-10 1.90953E-18 1.01126E-18
 -1      2671 9.52371E-05-2.85712E-05-2.85711E-05 2.04215E-10 4.41075E-19 1.60432E-18
 -1      2672 9.52371E-05-2.85713E-05-2.85711E-05 3.05560E-10 1.51040E-18-4.11137E-19
 -1      2673 9.52371E-05-2.85712E-05-2.85711E-05 1.50829E-10 4.19026E-19 1.16170E-18
 -1      2674 9.41117E-05-2.66572E-05-2.89273E-05-7.22869E-06 8.30687E-19-2.20365E-18
 -1      2675 9.35546E-05-2.56184E-05-2.90718E-05-6.35547E-06 1.04951E-18-2.27471E-18
 -1      2676 9.52268E-05-2.85038E-05-2.86113E-05-7.95585E-06 5.64409E-19-2.00344E-18
 -1      2677 9.46149E-05-2.76170E-05-2.86852E-05-7.74290E-06 7.35193E-19-2.05779E-18
 -1      2678 9.69067E-05-2.75617E-05-2.97206E-05-7.81191E-06 7.10830E-19-2.14733E-18
 -1      2679 9.22943E-05-2.23152E-05-2.99997E-05-1.34396E-06 1.31779E-18-2.55033E-18
 -1      2680 9.21781E-05-2.12263E-05-3.03667E-05 1.04987E-06 1.51065E-18-2.66608E-18
 -1      2681 9.52371E-05-2.85712E-05-2.85711E-05-1.90110E-10-5.85836E-19 1.45991E-18
 -1      2682 9.52371E-05-2.85712E-05-2.85711E-05-2.33891E-10-8.46036E-19 8.67598E-19
 -1      2683 9.52371E-05-2.85713E-05-2.85711E-05-1.98809E-10 1.11291E-20 1.88795E-18
 -1      2684 9.66506E-05-3.05899E-05-2.83129E-05-6.46065E-06-3.20033E-19-1.61221E-18
 -1      2685 9.62533E-05-3.02330E-05-2.82970E-05-7.01502E-06-1.48009E-19-1.70599E-18
 -1      2686 9.68273E-05-3.08136E-05-2.82868E-05-5.08603E-06-1.43741E-19-1.55174E-18
 -1      2687 9.65803E-05-3.06944E-05-2.82481E-05-5.74319E-06-1.15799E-19-1.51994E-18
 -1      2688 9.83903E-05-3.15500E-05-2.86421E-05-6.19320E-06-2.85330E-19-1.96630E-18
 -1      2689 9.67468E-05-3.06727E-05-2.83093E-05-3.73004E-06-2.78238E-19-1.62623E-18
 -1      2690 9.66228E-05-3.07162E-05-2.82606E-05-4.36428E-06-2.25881E-19-1.52885E-18
 -1      2691 9.81119E-05-3.15829E-05-2.85124E-05-4.72169E-06-1.43012E-19-1.87988E-18
 -1      2692 9.65246E-05-3.03358E-05-2.83575E-05-2.56140E-06-2.66812E-19-1.43551E-18
 -1      2693 9.64841E-05-3.04662E-05-2.83082E-05-3.10317E-06-2.65417E-19-1.46297E-18
 -1      2694 9.76381E-05-3.12430E-05-2.84578E-05-3.35649E-06-2.66958E-19-1.88337E-18
 -1      2695 9.62543E-05-2.99360E-05-2.84137E-05-1.64414E-06-2.42452E-19-1.27770E-18
 -1      2696 9.62620E-05-3.00953E-05-2.83700E-05-2.06807E-06-1.90136E-19-1.49553E-18
 -1      2697 9.71070E-05-3.07308E-05-2.84510E-05-2.23165E-06-2.91343E-19-1.67619E-18
 -1      2698 9.59956E-05-2.95575E-05-2.84665E-05-9.75418E-07-3.35731E-19-8.75702E-19
 -1      2699 9.60258E-05-2.97096E-05-2.84313E-05-1.28434E-06-3.02078E-19-1.18902E-18
 -1      2700 9.66120E-05-3.01928E-05-2.84697E-05-1.38057E-06-4.35535E-19-1.53257E-18
 -1      2701 9.57772E-05-2.92416E-05-2.85100E-05-5.18847E-07 6.38676E-20-1.13180E-18
 -1      2702 9.58141E-05-2.93689E-05-2.84839E-05-7.29852E-07 1.47671E-19-7.95951E-19
 -1      2703 9.61997E-05-2.97136E-05-2.84978E-05-7.79802E-07-2.59932E-19-1.28358E-18
 -1      2704 9.56074E-05-2.89998E-05-2.85424E-05-2.27090E-07 7.46227E-19-1.24358E-18
 -1      2705 9.56426E-05-2.90973E-05-2.85245E-05-3.61980E-07 3.76927E-19-1.13695E-18
 -1      2706 9.58825E-05-2.93288E-05-2.85260E-05-3.82215E-07 2.94678E-19-9.33679E-19
 -1      2707 9.54828E-05-2.88271E-05-2.85642E-05-5.44429E-08 1.46043E-19-8.12947E-19
 -1      2708 9.55129E-05-2.88967E-05-2.85531E-05-1.34265E-07 2.05272E-19-1.16177E-18
 -1      2709 9.56528E-05-2.90428E-05-2.85494E-05-1.36662E-07 6.05947E-19-8.52315E-19
 -1      2710 9.53954E-05-2.87110E-05-2.85774E-05 3.74247E-08-3.87633E-19-3.82942E-19
 -1      2711 9.54194E-05-2.87578E-05-2.85713E-05-5.01867E-09 2.43067E-19-4.39662E-19
 -1      2712 9.54948E-05-2.88435E-05-2.85664E-05 2.40146E-09-1.77977E-19-9.61266E-19
 -1      2713 9.53361E-05-2.86375E-05-2.85842E-05 7.78721E-08-5.05998E-19-6.36691E-19
 -1      2714 9.53546E-05-2.86672E-05-2.85814E-05 5.92227E-08-6.88017E-19-7.72490E-19
 -1      2715 9.53907E-05-2.87128E-05-2.85773E-05 7.12873E-08-3.34466E-19-1.23910E-18
 -1      2716 9.52971E-05-2.85941E-05-2.85865E-05 8.78909E-08-3.80279E-19 9.45267E-21
 -1      2717 9.53109E-05-2.86116E-05-2.85859E-05 8.33029E-08-3.16503E-19-4.85062E-19
 -1      2718 9.53247E-05-2.86322E-05-2.85832E-05 9.68208E-08-8.24274E-19-1.40358E-18
 -1      2719 9.52720E-05-2.85705E-05-2.85861E-05 8.16215E-08-5.05780E-19 6.69223E-19
 -1      2720 9.52821E-05-2.85800E-05-2.85868E-05 8.45337E-08-4.64864E-19 3.17479E-19
 -1      2721 9.52845E-05-2.85861E-05-2.85854E-05 9.76419E-08-7.76665E-19-6.06202E-19
 -1      2722 9.52562E-05-2.85594E-05-2.85842E-05 6.80431E-08-3.85809E-19 3.48313E-19
 -1      2723 9.52634E-05-2.85639E-05-2.85855E-05 7.42931E-08-3.22841E-19 5.78762E-19
 -1      2724 9.52608E-05-2.85623E-05-2.85853E-05 8.60003E-08-5.09191E-19 2.71253E-19
 -1      2725 9.52464E-05-2.85556E-05-2.85817E-05 5.24803E-08-6.82014E-19 1.73114E-19
 -1      2726 9.52515E-05-2.85571E-05-2.85832E-05 5.96081E-08-2.75051E-19 3.11856E-19
 -1      2727 9.52476E-05-2.85523E-05-2.85839E-05 6.94837E-08-8.53337E-20-4.23832E-19
 -1      2728 9.52405E-05-2.85558E-05-2.85792E-05 3.78075E-08 8.95883E-20-2.37940E-19
 -1      2729 9.52440E-05-2.85557E-05-2.85806E-05 4.44931E-08-4.46594E-19-3.59933E-19
 -1      2730 9.52405E-05-2.85500E-05-2.85817E-05 5.24544E-08-2.40807E-19-7.68409E-19
 -1      2731 9.52371E-05-2.85578E-05-2.85769E-05 2.53464E-08 2.29572E-19-6.53031E-20
 -1      2732 9.52394E-05-2.85569E-05-2.85781E-05 3.09907E-08 2.27844E-19-1.43967E-19
 -1      2733 9.52369E-05-2.85516E-05-2.85795E-05 3.71561E-08 3.48010E-19-6.56209E-19
 -1      2734 9.52352E-05-2.85604E-05-2.85749E-05 1.54968E-08 6.66559E-19-1.19317E-19
 -1      2735 9.52366E-05-2.85593E-05-2.85759E-05 1.99265E-08 5.18738E-19-2.18492E-19
 -1      2736 9.52353E-05-2.85550E-05-2.85774E-05 2.45182E-08 5.85784E-19-1.15254E-18
 -1      2737 9.52343E-05-2.85630E-05-2.85734E-05 8.15574E-09 5.15293E-19-7.68298E-19
 -1      2738 9.52351E-05-2.85619E-05-2.85741E-05 1.14280E-08 6.73081E-19-1.59004E-19
 -1      2739 9.52348E-05-2.85587E-05-2.85755E-05 1.47079E-08 8.46444E-19-4.50307E-19
 -1      2740 9.52339E-05-2.85653E-05-2.85723E-05 2.98259E-09-2.11934E-19-3.16991E-19
 -1      2741 9.52343E-05-2.85643E-05-2.85728E-05 5.26165E-09-2.75015E-19-4.49341E-19
 -1      2742 9.52348E-05-2.85621E-05-2.85740E-05 7.49249E-09 1.11637E-19-6.72835E-19
 -1      2743 9.52339E-05-2.85672E-05-2.85715E-05-4.42760E-10 1.16690E-19 9.53180E-19
 -1      2744 9.52340E-05-2.85664E-05-2.85718E-05 1.04145E-09-3.99597E-19 3.36435E-19
 -1      2745 9.52349E-05-2.85650E-05-2.85729E-05 2.46399E-09-6.67639E-19 2.83522E-19
 -1      2746 9.52341E-05-2.85686E-05-2.85709E-05-2.53299E-09 2.23939E-19 1.79719E-18
 -1      2747 9.52340E-05-2.85680E-05-2.85711E-05-1.65102E-09 1.05433E-18 1.53801E-18
 -1      2748 9.52352E-05-2.85672E-05-2.85720E-05-8.28873E-10-1.22875E-19 1.22213E-18
 -1      2749 9.52344E-05-2.85696E-05-2.85706E-05-3.65110E-09 5.87291E-19 7.41897E-19
 -1      2750 9.52342E-05-2.85692E-05-2.85707E-05-3.20341E-09 3.44281E-19 1.21109E-18
 -1      2751 9.52355E-05-2.85689E-05-2.85714E-05-2.81020E-09 5.78891E-19 1.31228E-18
 -1      2752 9.52347E-05-2.85704E-05-2.85704E-05-4.09489E-09 1.05190E-18 9.28102E-20
 -1      2753 9.52345E-05-2.85700E-05-2.85705E-05-3.94480E-09 3.93606E-19 4.88152E-19
 -1      2754 9.52357E-05-2.85700E-05-2.85710E-05-3.84445E-09 7.54893E-19 9.52581E-19
 -1      2755 9.52351E-05-2.85709E-05-2.85704E-05-4.09640E-09 1.13974E-18 2.43943E-19
 -1      2756 9.52348E-05-2.85706E-05-2.85704E-05-4.13825E-09 1.42850E-18 7.51424E-19
 -1      2757 9.52360E-05-2.85708E-05-2.85708E-05-4.22650E-09 9.33643E-19-7.96654E-20
 -1      2758 9.52354E-05-2.85712E-05-2.85704E-05-3.82873E-09 1.10867E-18-1.31485E-18
 -1      2759 9.52351E-05-2.85710E-05-2.85703E-05-3.98439E-09 1.01823E-18-3.47440E-19
 -1      2760 9.52362E-05-2.85713E-05-2.85707E-05-4.18406E-09 1.38005E-18-1.02667E-18
 -1      2761 9.52357E-05-2.85713E-05-2.85704E-05-3.41585E-09-7.73746E-19-7.74503E-19
 -1      2762 9.52355E-05-2.85712E-05-2.85704E-05-3.62994E-09 4.55071E-19-7.97412E-19
 -1      2763 9.52363E-05-2.85716E-05-2.85706E-05-3.88594E-09 7.06677E-19-1.13436E-18
 -1      2764 9.52360E-05-2.85714E-05-2.85705E-05-2.94277E-09-1.70915E-19 2.93276E-19
 -1      2765 9.52358E-05-2.85714E-05-2.85705E-05-3.17778E-09-1.19880E-18-4.26630E-19
 -1      2766 9.52365E-05-2.85717E-05-2.85706E-05-3.45243E-09-1.29487E-18 1.18530E-18
 -1      2767 9.52362E-05-2.85715E-05-2.85706E-05-2.46485E-09 6.92372E-19 9.57348E-19
 -1      2768 9.52360E-05-2.85714E-05-2.85705E-05-2.69678E-09 1.36574E-18 1.37429E-18
 -1      2769 9.52366E-05-2.85718E-05-2.85707E-05-2.96563E-09-6.25372E-21 1.23685E-18
 -1      2770 9.52364E-05-2.85715E-05-2.85707E-05-2.01569E-09-1.13192E-18 7.95286E-19
 -1      2771 9.52363E-05-2.85715E-05-2.85706E-05-2.23034E-09-3.33816E-19 5.84880E-19
 -1      2772 9.52367E-05-2.85717E-05-2.85707E-05-2.47875E-09 2.13971E-19 1.74637E-18
 -1      2773 9.52366E-05-2.85714E-05-2.85708E-05-1.61348E-09-6.90102E-19-8.15815E-19
 -1      2774 9.52365E-05-2.85714E-05-2.85707E-05-1.80354E-09-1.22581E-18-6.68978E-19
 -1      2775 9.52368E-05-2.85717E-05-2.85708E-05-2.02383E-09-1.08684E-21 1.22150E-19
 -1      2776 9.52367E-05-2.85714E-05-2.85708E-05-1.26591E-09 8.16186E-19-1.18550E-18
 -1      2777 9.52366E-05-2.85714E-05-2.85708E-05-1.42869E-09 3.55575E-19-3.64000E-19
 -1      2778 9.52369E-05-2.85716E-05-2.85708E-05-1.61797E-09-5.88180E-19-1.92102E-18
 -1      2779 9.52368E-05-2.85714E-05-2.85709E-05-9.73848E-10 5.48269E-19-7.11719E-19
 -1      2780 9.52367E-05-2.85714E-05-2.85709E-05-1.10963E-09 6.55349E-19-4.69656E-19
 -1      2781 9.52369E-05-2.85715E-05-2.85709E-05-1.26812E-09 7.93657E-20-1.42344E-18
 -1      2782 9.52369E-05-2.85713E-05-2.85710E-05-7.34020E-10-3.29978E-19-3.25533E-19
 -1      2783 9.52369E-05-2.85713E-05-2.85709E-05-8.44825E-10 4.37655E-19-5.83257E-19
 -1      2784 9.52370E-05-2.85715E-05-2.85709E-05-9.74665E-10 5.83994E-19-7.83746E-19
 -1      2785 9.52370E-05-2.85713E-05-2.85710E-05-5.40892E-10-5.33640E-19 8.78298E-19
 -1      2786 9.52369E-05-2.85713E-05-2.85710E-05-6.29662E-10-1.65499E-19 3.77315E-19
 -1      2787 9.52370E-05-2.85714E-05-2.85710E-05-7.34027E-10-9.20197E-20 8.82240E-19
 -1      2788 9.52370E-05-2.85713E-05-2.85710E-05-3.88025E-10-4.85743E-19 9.96230E-19
 -1      2789 9.52370E-05-2.85713E-05-2.85710E-05-4.57901E-10-4.86747E-19 1.25783E-18
 -1      2790 9.52371E-05-2.85714E-05-2.85710E-05-5.40530E-10-7.83866E-19 1.11915E-18
 -1      2791 9.52371E-05-2.85712E-05-2.85711E-05-2.78109E-10-1.14569E-18 1.72675E-18
 -1      2792 9.52370E-05-2.85713E-05-2.85711E-05-3.33336E-10-1.11367E-18 1.47092E-18
 -1      2793 9.52371E-05-2.85713E-05-2.85710E-05-3.97881E-10-4.71210E-19 2.88976E-18
 -1      2794 9.52371E-05-2.85713E-05-2.85711E-05-2.94174E-10-6.45699E-19 2.70003E-18
 -1      2795 7.08833E-05-1.80763E-05-2.21014E-05-2.89928E-05 1.78226E-18 2.15940E-18
 -1      2796 6.74273E-05-1.24480E-05-2.32671E-05-2.32320E-05 1.58636E-18 1.61550E-18
 -1      2797 9.52372E-05-2.85714E-05-2.85711E-05-1.81749E-10 6.55764E-20-3.74836E-19
 -1      2798 9.52372E-05-2.85713E-05-2.85711E-05-1.85758E-10 1.75191E-19 8.73634E-19
 -1      2799 9.52373E-05-2.85715E-05-2.85711E-05-9.02255E-11 3.75403E-19-1.35348E-18
 -1      2800 9.52373E-05-2.85715E-05-2.85711E-05-1.18254E-10 1.36467E-18-1.22353E-18
 -1      2801 9.52373E-05-2.85715E-05-2.85711E-05-1.89722E-11 1.53456E-19-7.79223E-19
 -1      2802 9.52373E-05-2.85715E-05-2.85711E-05-5.21931E-11 4.16935E-19-8.03422E-19
 -1      2803 9.52374E-05-2.85715E-05-2.85711E-05-8.24945E-11 7.78540E-19-1.21413E-18
 -1      2804 9.52373E-05-2.85714E-05-2.85711E-05-1.47195E-10 1.28092E-18 4.50387E-20
 -1      2805 9.52373E-05-2.85714E-05-2.85711E-05-1.64719E-10 1.15833E-18-6.61662E-20
 -1      2806 9.52373E-05-2.85714E-05-2.85711E-05-2.01916E-10 4.30239E-19 8.13631E-19
 -1      2807 9.52373E-05-2.85715E-05-2.85711E-05-1.54439E-10 2.59598E-19-9.81350E-19
 -1      2808 9.61202E-05-2.98435E-05-2.84132E-05-7.55485E-06 1.30901E-19-1.82398E-18
 -1      2809 9.55815E-05-2.92077E-05-2.84344E-05-7.82729E-06 4.70955E-19-1.79472E-18
 -1      2810 9.78086E-05-2.95897E-05-2.92310E-05-8.20233E-06 3.87616E-19-1.90150E-18
 -1      2811 9.83210E-05-3.09316E-05-2.88745E-05-7.49515E-06-8.26932E-21-1.63375E-18
 -1      2812 9.52373E-05-2.85715E-05-2.85711E-05 5.51547E-11 1.53883E-18 4.18289E-19
 -1      2813 9.52373E-05-2.85715E-05-2.85711E-05 2.20540E-11 4.78055E-19 1.57880E-19
 -1      2814 9.52374E-05-2.85715E-05-2.85711E-05 1.68675E-12-7.32701E-19-3.41528E-19
 -1      2815 9.52373E-05-2.85715E-05-2.85711E-05 1.19596E-10 1.47415E-18-2.83535E-18
 -1      2816 9.52373E-05-2.85715E-05-2.85711E-05 9.23236E-11 1.49910E-18-7.97191E-19
 -1      2817 9.52374E-05-2.85715E-05-2.85711E-05 8.50022E-11 9.81251E-19-2.14283E-19
 -1      2818 9.52373E-05-2.85714E-05-2.85711E-05 1.66347E-10 1.87765E-18-7.29233E-20
 -1      2819 9.52373E-05-2.85714E-05-2.85711E-05 1.48413E-10 1.85815E-18-1.38335E-18
 -1      2820 9.52373E-05-2.85715E-05-2.85711E-05 1.55581E-10 1.37402E-18-1.59229E-18
 -1      2821 9.52372E-05-2.85713E-05-2.85711E-05 1.86480E-10-6.70086E-20-1.12206E-18
 -1      2822 9.52372E-05-2.85714E-05-2.85711E-05 1.81575E-10 1.53699E-18-9.75770E-20
 -1      2823 9.52373E-05-2.85714E-05-2.85711E-05 2.03266E-10 5.95725E-19-6.67298E-19
 -1      2824 8.61181E-05-3.04421E-05-2.32257E-05-3.66899E-05 1.82514E-18 1.76268E-18
 -1      2825 1.35233E-04-1.72018E-05-5.12609E-05 1.11173E-05 8.19293E-19-1.69407E-19
 -1      2826 3.53933E-05-3.75621E-06-1.29902E-05 1.55372E-05-1.58670E-18 4.23495E-18
 -1      2827 3.36823E-05-2.54092E-06-1.28356E-05-4.97273E-07-8.32554E-19 4.09583E-18
 -1      2828 7.65448E-05-1.38474E-05-2.66730E-05-1.82525E-05 1.47053E-18 9.37189E-19
 -1      2829 7.81005E-05-1.43417E-05-2.73980E-05-1.56322E-05 9.81089E-19 8.21119E-19
 -1      2830 7.48105E-05-1.21495E-05-2.66088E-05-1.10640E-05 8.12166E-19 9.99813E-19
 -1      2831 1.19758E-04-4.39987E-05-3.23739E-05 4.16635E-06 1.27309E-18 1.67967E-18
 -1      2832 1.11562E-04-1.04349E-05-4.34167E-05 1.04458E-05 3.80635E-19-3.26812E-18
 -1      2833 1.16090E-04-1.15157E-05-4.49762E-05 1.11161E-05 1.46510E-19-2.76613E-18
 -1      2834 1.09471E-04-1.07954E-05-4.23606E-05 8.46362E-06 5.15506E-19-3.26469E-18
 -1      2835 1.20908E-04-1.16747E-05-4.71398E-05 1.24544E-05 4.83073E-19-2.14234E-18
 -1      2836 1.27478E-04-1.42933E-05-4.87119E-05 1.21755E-05 3.38548E-19-1.27566E-18
 -1      2837 1.30960E-04-1.16831E-05-5.15392E-05 1.25891E-05 1.64039E-18-7.92823E-19
 -1      2838 1.17664E-04-9.84415E-06-4.63994E-05 1.10563E-05 7.93352E-19-2.33559E-18
 -1      2839 1.37070E-04-4.86067E-05-3.84526E-05 1.38399E-05-1.76965E-18-2.68938E-18
 -1      2840 1.29936E-04-5.12358E-05-3.34922E-05 2.28809E-05-2.93140E-18-1.82885E-18
 -1      2841 1.39559E-04-3.16357E-05-4.68669E-05 3.09651E-08 6.81650E-19-3.77480E-18
 -1      2842 1.39491E-04-4.00206E-05-4.27261E-05 4.62576E-06-5.87470E-19-3.58253E-18
 -1      2843 8.64425E-05-3.74508E-05-2.10940E-05 4.59911E-05-4.66768E-18 3.34271E-18
 -1      2844 6.74624E-05-2.69912E-05-1.67667E-05 4.42575E-05-4.34750E-18 4.38382E-18
 -1      2845 1.30922E-04-5.48439E-06-5.42810E-05 4.61771E-06 3.07875E-18-2.50793E-18
 -1      2846 1.33012E-04-8.57699E-06-5.38102E-05 7.19602E-07 2.85979E-18-3.09294E-18
 -1      2847 1.35095E-04-1.49526E-05-5.21195E-05-1.68838E-06 2.36492E-18-3.59444E-18
 -1      2848 1.37322E-04-2.18858E-05-4.98119E-05-2.53328E-06 1.66865E-18-3.96655E-18
 -1      2849 1.28440E-04-7.38445E-06-5.24718E-05 1.02529E-05 2.41383E-18-1.63567E-18
 -1      2850 1.61997E-04-6.85573E-05-4.08767E-05-6.81397E-06 5.05255E-19 3.19437E-18
 -1      2851 9.30245E-05-2.44954E-05-2.93837E-05-5.04838E-06 1.16563E-18-2.38083E-18
 -1      2852 9.26718E-05-2.34323E-05-2.96194E-05-3.38119E-06 1.27225E-18-2.38240E-18
 -1      2853 9.49259E-05-2.24600E-05-3.10892E-05-2.34713E-06 1.27944E-18-2.70130E-18
 -1      2854 9.58211E-05-2.50428E-05-3.03449E-05-5.92801E-06 1.09648E-18-2.44453E-18
 -1      2855 1.18105E-04-5.06959E-05-2.92675E-05 3.48064E-05-3.76061E-18 1.36399E-19
 -1      2856 1.05470E-04-4.57003E-05-2.50720E-05 4.05209E-05-4.86504E-18 1.73314E-18
 -1      2857 5.36870E-05-1.84908E-05-1.47471E-05 4.02270E-05-3.77713E-18 5.18977E-18
 -1      2858 4.23552E-05-1.01567E-05-1.33084E-05 2.95392E-05-3.10178E-18 5.30327E-18
 -1      2859 6.76213E-05-2.32315E-05-1.84379E-05 3.90646E-05-3.92070E-18 4.10567E-18
 -1      2860 9.89975E-05-1.24503E-05-3.71034E-05 8.93440E-06 1.28369E-18-4.04236E-18
 -1      2861 1.01808E-04-1.19341E-05-3.85830E-05 8.82442E-06 8.60801E-19-3.95313E-18
 -1      2862 1.03390E-04-1.24613E-05-3.89976E-05 7.17044E-06 7.80678E-19-3.58980E-18
 -1      2863 9.83594E-05-1.45756E-05-3.59021E-05 6.75020E-06 1.38460E-18-3.59164E-18
 -1      2864 1.28971E-04-5.28861E-05-3.33654E-05 2.13922E-06 7.24213E-19 1.65897E-18
 -1      2865 9.52371E-05-2.85713E-05-2.85711E-05 1.91718E-10 4.65517E-19-1.97675E-18
 -1      2866 9.14410E-05-1.66298E-05-3.20630E-05 9.23090E-06 2.14088E-18-3.24204E-18
 -1      2867 9.31058E-05-1.76205E-05-3.23097E-05 6.67934E-06 1.90349E-18-3.08185E-18
 -1      2868 1.24284E-04-5.03246E-05-3.15512E-05 2.46073E-05-3.60413E-18-1.43244E-18
 -1      2869 6.08769E-05-8.16296E-06-2.22007E-05-1.61451E-05 1.05620E-18 1.88031E-18
 -1      2870 9.52372E-05-2.85713E-05-2.85711E-05-2.02547E-10 3.33678E-19 6.84029E-19
 -1      2871 9.52372E-05-2.85713E-05-2.85711E-05-2.02579E-10 1.21942E-19 1.62668E-18
 -1      2872 9.52371E-05-2.85713E-05-2.85711E-05-2.52919E-10-3.34072E-19 1.56687E-18
 -1      2873 1.28831E-04-1.23183E-05-5.03346E-05-1.83945E-06 2.01139E-18-3.70429E-18
 -1      2874 9.52371E-05-2.85713E-05-2.85711E-05 1.76580E-10-1.09967E-18-2.24580E-18
 -1      2875 9.52372E-05-2.85713E-05-2.85711E-05 1.86533E-10-1.25623E-19-2.35305E-18
 -1      2876 4.63132E-05-7.44094E-06-1.60529E-05 2.09084E-05-2.13460E-18 4.24226E-18
 -1      2877 9.71533E-05-4.04952E-05-2.39422E-05 4.01001E-05-4.68314E-18 2.24985E-18
 -1      2878 1.34119E-04-2.75379E-05-4.59372E-05-3.51593E-06 5.36966E-19-4.35867E-18
 -1      2879 1.35448E-04-4.43158E-05-3.91982E-05 5.93164E-06-1.66991E-18-4.03241E-18
 -1      2880 9.52372E-05-2.85714E-05-2.85711E-05 2.19811E-10-8.64693E-19-1.96752E-18
 -1      2881 4.42904E-05-4.10609E-06-1.67557E-05-7.16465E-06 4.91398E-19 3.43557E-18
 -1      2882 1.20059E-04-8.45218E-06-4.80609E-05 9.52282E-06 1.36658E-18-2.41288E-18
 -1      2883 1.26065E-04-6.54982E-06-5.16876E-05 7.60600E-06 2.41627E-18-2.21798E-18
 -1      2884 1.21205E-04-6.53433E-06-4.94755E-05 4.22704E-06 2.07872E-18-3.06255E-18
 -1      2885 1.14731E-04-8.44154E-06-4.57462E-05 8.16451E-06 1.07647E-18-2.98651E-18
 -1      2886 9.52372E-05-2.85714E-05-2.85711E-05-2.36382E-10-3.52634E-19-2.40979E-19
 -1      2887 9.52371E-05-2.85713E-05-2.85711E-05 2.33172E-10 6.31259E-19-1.48944E-18
 -1      2888 7.23132E-05-2.29388E-05-2.05997E-05-3.41030E-05 1.82811E-18 2.57233E-18
 -1      2889 9.52374E-05-2.85716E-05-2.85711E-05 2.46053E-11-4.17216E-19-8.67779E-19
 -1      2890 9.52374E-05-2.85716E-05-2.85711E-05-2.11140E-11 9.20342E-20-1.05731E-18
 -1      2891 8.44041E-05-1.84654E-05-2.83028E-05-4.38996E-06 7.16355E-20-5.95525E-20
 -1      2892 8.64877E-05-2.00790E-05-2.85131E-05-3.70413E-06-3.86376E-21-2.77084E-19
 -1      2893 8.85545E-05-2.16100E-05-2.87170E-05-3.55214E-06-1.00316E-19-9.57871E-20
 -1      2894 8.98701E-05-2.28001E-05-2.87802E-05-2.96355E-06-2.73667E-19 1.95790E-19
 -1      2895 8.64697E-05-2.01852E-05-2.83341E-05-1.83992E-06-8.09690E-20-3.44885E-20
 -1      2896 9.12127E-05-2.39036E-05-2.88604E-05-2.75642E-06-6.92354E-19 3.50035E-19
 -1      2897 9.20161E-05-2.47372E-05-2.88581E-05-2.27551E-06-8.99000E-19 5.61715E-20
 -1      2898 8.97447E-05-2.28071E-05-2.86383E-05-1.77236E-06-6.82173E-19 4.00172E-19
 -1      2899 9.29043E-05-2.55348E-05-2.88784E-05-2.05286E-06-1.20664E-18 1.64564E-19
 -1      2900 9.33960E-05-2.61191E-05-2.88491E-05-1.66640E-06-1.32170E-18-1.84020E-19
 -1      2901 9.18993E-05-2.47344E-05-2.87547E-05-1.51387E-06-1.16246E-18 6.03928E-19
 -1      2902 9.39191E-05-2.66258E-05-2.88416E-05-1.48293E-06-8.87252E-19 2.08638E-19
 -1      2903 9.41850E-05-2.69903E-05-2.88084E-05-1.20850E-06-5.58637E-19 2.25396E-19
 -1      2904 9.32518E-05-2.60606E-05-2.87776E-05-1.20918E-06-8.77319E-19 2.34646E-19
 -1      2905 9.45051E-05-2.73243E-05-2.87914E-05-1.05854E-06-8.87154E-20 1.44934E-19
 -1      2906 9.46537E-05-2.75617E-05-2.87607E-05-8.59793E-07 5.14549E-19 3.36613E-19
 -1      2907 9.40657E-05-2.69331E-05-2.87600E-05-9.27947E-07-3.33448E-19 1.01627E-18
 -1      2908 9.48463E-05-2.77789E-05-2.87421E-05-7.43530E-07 5.13151E-19-1.84738E-20
 -1      2909 9.49261E-05-2.79312E-05-2.87166E-05-6.02481E-07 3.69772E-19-1.26819E-19
 -1      2910 9.45618E-05-2.75123E-05-2.87290E-05-6.90254E-07 2.55059E-19 4.30453E-19
 -1      2911 9.50398E-05-2.80708E-05-2.86998E-05-5.15218E-07 4.94164E-21 1.31525E-19
 -1      2912 9.50806E-05-2.81676E-05-2.86798E-05-4.16562E-07-1.98728E-19 3.52979E-19
 -1      2913 9.48587E-05-2.78917E-05-2.86964E-05-5.01516E-07 3.35547E-19-1.93308E-19
 -1      2914 9.51462E-05-2.82566E-05-2.86659E-05-3.52542E-07-1.01901E-18-6.75345E-21
 -1      2915 9.51654E-05-2.83178E-05-2.86508E-05-2.84267E-07-5.98905E-19-1.27079E-19
 -1      2916 9.50330E-05-2.81376E-05-2.86674E-05-3.57387E-07-7.87676E-19 3.30499E-19
 -1      2917 9.52023E-05-2.83742E-05-2.86397E-05-2.38057E-07-8.86645E-19-4.05736E-19
 -1      2918 9.52100E-05-2.84128E-05-2.86286E-05-1.91125E-07-1.72229E-18-9.86902E-19
 -1      2919 9.51329E-05-2.82958E-05-2.86434E-05-2.50206E-07-1.56855E-18-6.83034E-19
 -1      2920 9.52308E-05-2.84499E-05-2.86197E-05-1.56640E-07-1.50190E-18-1.21894E-18
 -1      2921 9.52328E-05-2.84748E-05-2.86113E-05-1.23558E-07-1.63788E-18-1.54000E-18
 -1      2922 9.51895E-05-2.83988E-05-2.86240E-05-1.70514E-07-1.47695E-18-1.25038E-18
 -1      2923 9.52429E-05-2.84966E-05-2.86050E-05-1.00885E-07-1.93952E-18-1.41177E-18
 -1      2924 9.52422E-05-2.85114E-05-2.85993E-05-7.96218E-08-2.19376E-18-1.40941E-18
 -1      2925 9.52196E-05-2.84642E-05-2.86093E-05-1.13490E-07-1.94557E-18-1.70945E-18
 -1      2926 9.52470E-05-2.85252E-05-2.85947E-05-6.37676E-08-1.89906E-18-5.05869E-19
 -1      2927 9.52454E-05-2.85345E-05-2.85906E-05-4.94922E-08-8.88926E-19-5.20890E-19
 -1      2928 9.52344E-05-2.85044E-05-2.85985E-05-7.43394E-08-1.59969E-18-7.54975E-19
 -1      2929 9.52474E-05-2.85432E-05-2.85872E-05-3.85925E-08-1.08780E-18-7.69480E-19
 -1      2930 9.52457E-05-2.85491E-05-2.85844E-05-2.91065E-08-5.59334E-19-1.16492E-18
 -1      2931 9.52412E-05-2.85300E-05-2.85905E-05-4.69390E-08-1.27485E-18-2.96743E-19
 -1      2932 9.52462E-05-2.85545E-05-2.85819E-05-2.17340E-08-3.96182E-19-1.26627E-18
 -1      2933 9.52446E-05-2.85583E-05-2.85800E-05-1.55320E-08 6.99145E-19-1.33425E-18
 -1      2934 9.52438E-05-2.85464E-05-2.85847E-05-2.80534E-08-9.36499E-19-1.34252E-18
 -1      2935 9.52445E-05-2.85617E-05-2.85782E-05-1.06534E-08 1.27189E-18-1.76236E-18
 -1      2936 9.52432E-05-2.85641E-05-2.85768E-05-6.68815E-09 4.63232E-19-1.57086E-18
 -1      2937 9.52443E-05-2.85568E-05-2.85804E-05-1.52756E-08 3.31385E-19-1.08891E-18
 -1      2938 9.52428E-05-2.85663E-05-2.85756E-05-3.42149E-09-3.27810E-19-1.25467E-18
 -1      2939 9.52418E-05-2.85678E-05-2.85746E-05-9.11556E-10 1.04920E-20-1.51217E-18
 -1      2940 9.52438E-05-2.85635E-05-2.85773E-05-6.69851E-09 6.93693E-19-2.09571E-18
 -1      2941 9.52413E-05-2.85691E-05-2.85737E-05 9.45175E-10 8.78157E-20-1.40306E-18
 -1      2942 9.52407E-05-2.85700E-05-2.85732E-05 2.30974E-09 1.14874E-18-1.17949E-18
 -1      2943 9.52429E-05-2.85677E-05-2.85751E-05-1.25510E-09-2.60985E-20-1.00220E-18
 -1      2944 9.52401E-05-2.85707E-05-2.85726E-05 3.36377E-09 8.88609E-19-1.13081E-18
 -1      2945 9.52397E-05-2.85713E-05-2.85722E-05 4.05821E-09 9.12469E-19-1.41326E-18
 -1      2946 9.52419E-05-2.85702E-05-2.85736E-05 1.91286E-09 1.22429E-18-5.74022E-19
 -1      2947 9.52393E-05-2.85717E-05-2.85718E-05 4.56832E-09 6.50616E-19-8.88475E-19
 -1      2948 9.52390E-05-2.85721E-05-2.85715E-05 4.82999E-09 6.23227E-19-3.19001E-19
 -1      2949 9.52410E-05-2.85717E-05-2.85726E-05 3.65896E-09 1.05870E-18-2.15233E-18
 -1      2950 9.52386E-05-2.85723E-05-2.85713E-05 4.98666E-09 4.27031E-19-1.06804E-18
 -1      2951 9.52385E-05-2.85724E-05-2.85712E-05 4.97795E-09-1.34656E-18-4.14161E-19
 -1      2952 9.52402E-05-2.85725E-05-2.85719E-05 4.45688E-09 1.60005E-19-1.43531E-18
 -1      2953 9.52382E-05-2.85725E-05-2.85710E-05 4.91528E-09-2.31860E-18 8.07626E-19
 -1      2954 9.52381E-05-2.85726E-05-2.85709E-05 4.74760E-09-2.56582E-18 8.36434E-21
 -1      2955 9.52396E-05-2.85729E-05-2.85715E-05 4.64380E-09-1.17629E-18-1.59349E-18
 -1      2956 9.52378E-05-2.85726E-05-2.85708E-05 4.55821E-09-3.12074E-18 4.78842E-19
 -1      2957 9.52378E-05-2.85726E-05-2.85708E-05 4.30728E-09-2.33867E-18-3.03188E-19
 -1      2958 9.52391E-05-2.85730E-05-2.85712E-05 4.45646E-09-2.70729E-18-6.77734E-19
 -1      2959 9.52376E-05-2.85725E-05-2.85707E-05 4.04032E-09-1.55474E-18 9.85695E-19
 -1      2960 9.52376E-05-2.85725E-05-2.85707E-05 3.74085E-09-2.30834E-19 8.54951E-19
 -1      2961 9.52386E-05-2.85730E-05-2.85710E-05 4.04552E-09-1.82570E-18 6.01772E-19
 -1      2962 9.52374E-05-2.85724E-05-2.85707E-05 3.46521E-09-7.26308E-19 3.73873E-19
 -1      2963 9.52375E-05-2.85724E-05-2.85707E-05 3.17763E-09-9.32213E-19 5.81155E-19
 -1      2964 9.52383E-05-2.85729E-05-2.85709E-05 3.53352E-09-1.17587E-18 4.61185E-19
 -1      2965 9.52373E-05-2.85723E-05-2.85707E-05 2.90765E-09-7.78372E-19 1.24351E-18
 -1      2966 9.52374E-05-2.85722E-05-2.85708E-05 2.63725E-09-1.37160E-18 8.82918E-19
 -1      2967 9.52380E-05-2.85727E-05-2.85709E-05 3.00648E-09-9.41902E-19 3.74713E-19
 -1      2968 9.52373E-05-2.85721E-05-2.85708E-05 2.38747E-09-2.09520E-18 1.63078E-18
 -1      2969 9.52373E-05-2.85721E-05-2.85708E-05 2.14443E-09-6.76402E-19 1.46343E-18
 -1      2970 9.52378E-05-2.85725E-05-2.85709E-05 2.49757E-09-1.48646E-18 2.03399E-18
 -1      2971 9.52372E-05-2.85720E-05-2.85708E-05 1.92258E-09-3.69469E-19 4.90133E-19
 -1      2972 9.52372E-05-2.85719E-05-2.85709E-05 1.71124E-09-1.25811E-19-2.64391E-19
 -1      2973 9.52376E-05-2.85723E-05-2.85709E-05 2.03188E-09-1.17881E-18 2.60335E-18
 -1      2974 9.52372E-05-2.85718E-05-2.85709E-05 1.52020E-09 3.78291E-19-2.48344E-19
 -1      2975 9.52372E-05-2.85718E-05-2.85709E-05 1.34114E-09 9.46189E-19-6.38045E-19
 -1      2976 9.52375E-05-2.85721E-05-2.85709E-05 1.62172E-09-2.52205E-19 8.34807E-19
 -1      2977 9.52372E-05-2.85717E-05-2.85709E-05 1.17292E-09 1.77225E-18-1.48736E-18
 -1      2978 9.52372E-05-2.85716E-05-2.85709E-05 1.01848E-09 1.94283E-18-1.01841E-18
 -1      2979 9.52374E-05-2.85719E-05-2.85709E-05 1.26333E-09 1.12414E-18 5.99036E-20
 -1      2980 9.52371E-05-2.85716E-05-2.85710E-05 8.88148E-10 1.56155E-18-1.43245E-18
 -1      2981 9.52372E-05-2.85715E-05-2.85710E-05 7.68840E-10-3.51109E-20-1.77808E-18
 -1      2982 9.52373E-05-2.85717E-05-2.85710E-05 9.65024E-10 1.03397E-18-3.77683E-19
 -1      2983 9.52371E-05-2.85715E-05-2.85710E-05 6.63719E-10-8.05009E-20-1.73928E-18
 -1      2984 9.52372E-05-2.85715E-05-2.85710E-05 5.68410E-10 6.30473E-19-1.59314E-18
 -1      2985 9.52373E-05-2.85716E-05-2.85710E-05 7.28203E-10 4.51259E-20-5.65644E-19
 -1      2986 9.52371E-05-2.85714E-05-2.85710E-05 4.85189E-10 1.23229E-18-2.15726E-18
 -1      2987 9.52371E-05-2.85714E-05-2.85710E-05 4.09856E-10 1.82846E-18-1.49864E-18
 -1      2988 9.52372E-05-2.85715E-05-2.85710E-05 5.38594E-10 8.14738E-19-2.62816E-18
 -1      2989 9.52371E-05-2.85714E-05-2.85711E-05 3.45451E-10 1.83014E-18-1.53220E-19
 -1      2990 9.52371E-05-2.85713E-05-2.85711E-05 2.87178E-10 1.69144E-18-2.45668E-19
 -1      2991 9.52372E-05-2.85714E-05-2.85710E-05 3.89123E-10 2.82428E-18-1.61702E-18
 -1      2992 9.52373E-05-2.85715E-05-2.85711E-05 1.98786E-10 1.16429E-19-1.73401E-18
 -1      2993 9.52374E-05-2.85715E-05-2.85711E-05 1.66055E-10-6.61858E-19-8.80807E-19
 -1      2994 9.53060E-05-1.84458E-05-3.29456E-05 3.30762E-06 1.48244E-18-3.12397E-18
 -1      2995 9.30523E-05-1.87946E-05-3.18162E-05 4.49987E-06 1.73254E-18-2.99695E-18
 -1      2996 9.96519E-05-2.87262E-05-3.04277E-05-8.20367E-06 4.58109E-19-2.23310E-18
 -1      2997 9.91286E-05-2.73063E-05-3.07434E-05-7.66038E-06 7.09380E-19-2.30814E-18
 -1      2998 9.93825E-05-3.23972E-05-2.86942E-05-3.93770E-06-4.34974E-19-1.77192E-18
 -1      2999 9.95864E-05-3.25256E-05-2.87525E-05-4.65064E-06-3.02943E-19-1.82715E-18
 -1      3000 1.00138E-04-3.26639E-05-2.89098E-05-5.46935E-06-1.63003E-19-1.95194E-18
 -1      3001 1.00202E-04-3.25094E-05-2.90191E-05-6.19100E-06-2.18279E-19-1.91007E-18
 -1      3002 1.01372E-04-3.34957E-05-2.90936E-05-4.65334E-06-2.52857E-19-1.65563E-18
 -1      3003 9.76556E-05-3.10541E-05-2.85293E-05-1.63109E-06-4.66183E-19-1.47481E-18
 -1      3004 9.79225E-05-3.13731E-05-2.85310E-05-2.10492E-06-3.20280E-19-1.56896E-18
 -1      3005 9.69380E-05-3.03668E-05-2.85189E-05-9.20379E-07-5.52821E-19-1.40399E-18
 -1      3006 9.71711E-05-3.06645E-05-2.85100E-05-1.26233E-06-3.28771E-19-1.44148E-18
 -1      3007 9.79244E-05-3.12659E-05-2.85790E-05-1.11936E-06-3.07150E-19-1.24107E-18
 -1      3008 9.63780E-05-2.97931E-05-2.85276E-05-4.49126E-07-2.38587E-19-1.54833E-18
 -1      3009 9.65637E-05-3.00394E-05-2.85153E-05-6.80481E-07-5.60511E-19-1.69365E-18
 -1      3010 9.70690E-05-3.04757E-05-2.85494E-05-5.49468E-07-3.65151E-19-1.65465E-18
 -1      3011 9.59685E-05-2.93533E-05-2.85432E-05-1.57684E-07 1.62955E-19-1.15067E-18
 -1      3012 9.61065E-05-2.95406E-05-2.85313E-05-3.04176E-07-1.06390E-19-1.29682E-18
 -1      3013 9.64282E-05-2.98389E-05-2.85456E-05-1.95447E-07-2.63541E-19-2.05166E-18
 -1      3014 9.56849E-05-2.90386E-05-2.85586E-05 7.74771E-09 3.07905E-19-6.89499E-19
 -1      3015 9.57820E-05-2.91717E-05-2.85491E-05-7.80132E-08 5.31617E-19-6.49558E-19
 -1      3016 9.59752E-05-2.93636E-05-2.85531E-05 6.50723E-09-1.70233E-20-1.41980E-18
 -1      3017 9.54980E-05-2.88266E-05-2.85708E-05 9.01607E-08-1.36356E-19-7.81142E-19
 -1      3018 9.55631E-05-2.89156E-05-2.85642E-05 4.53071E-08 8.33591E-20-5.11674E-19
 -1      3019 9.56711E-05-2.90309E-05-2.85637E-05 1.08170E-07 1.49947E-19-2.02725E-19
 -1      3020 9.53803E-05-2.86922E-05-2.85791E-05 1.21204E-07-3.33578E-19-7.44558E-19
 -1      3021 9.54222E-05-2.87481E-05-2.85751E-05 1.02264E-07 1.06328E-19-3.95568E-19
 -1      3022 9.54767E-05-2.88116E-05-2.85731E-05 1.47705E-07-1.08233E-19 8.83959E-21
 -1      3023 9.53097E-05-2.86125E-05-2.85837E-05 1.22796E-07-9.75707E-19-7.02854E-19
 -1      3024 9.53357E-05-2.86453E-05-2.85817E-05 1.19133E-07-8.05468E-19-6.61271E-19
 -1      3025 9.53586E-05-2.86756E-05-2.85799E-05 1.51451E-07-3.88884E-19-1.74976E-19
 -1      3026 9.52695E-05-2.85693E-05-2.85854E-05 1.09321E-07-1.09021E-18-2.73517E-20
 -1      3027 9.52850E-05-2.85868E-05-2.85849E-05 1.13791E-07-9.07768E-19-4.54500E-19
 -1      3028 9.52908E-05-2.85972E-05-2.85838E-05 1.36632E-07-1.10453E-18 2.31788E-19
 -1      3029 9.52482E-05-2.85491E-05-2.85852E-05 8.97190E-08-7.85236E-20-7.62134E-20
 -1      3030 9.52570E-05-2.85570E-05-2.85856E-05 9.77833E-08-4.57873E-19 5.21754E-20
 -1      3031 9.52545E-05-2.85566E-05-2.85853E-05 1.13935E-07-8.28411E-19-5.09894E-19
 -1      3032 9.52379E-05-2.85424E-05-2.85838E-05 6.91915E-08-2.56796E-19-3.50993E-19
 -1      3033 9.52427E-05-2.85447E-05-2.85847E-05 7.81499E-08 6.48420E-20-3.70446E-19
 -1      3034 9.52371E-05-2.85391E-05-2.85851E-05 8.96230E-08 1.55632E-19-9.53265E-19
 -1      3035 9.52337E-05-2.85429E-05-2.85818E-05 5.04708E-08 2.26818E-19-7.47253E-19
 -1      3036 9.52362E-05-2.85423E-05-2.85829E-05 5.88597E-08-2.31156E-19-5.14520E-19
 -1      3037 9.52303E-05-2.85350E-05-2.85839E-05 6.70570E-08-3.58287E-19 1.45911E-19
 -1      3038 9.52327E-05-2.85469E-05-2.85797E-05 3.47460E-08 4.68088E-19-1.00697E-18
 -1      3039 9.52339E-05-2.85449E-05-2.85808E-05 4.18887E-08 2.80285E-19-7.74088E-19
 -1      3040 9.52290E-05-2.85377E-05-2.85820E-05 4.77698E-08 2.60647E-19-6.82453E-19
 -1      3041 9.52331E-05-2.85519E-05-2.85777E-05 2.22999E-08 1.06765E-18-1.71023E-18
 -1      3042 9.52336E-05-2.85496E-05-2.85787E-05 2.79914E-08 1.05877E-18-1.43471E-18
 -1      3043 9.52301E-05-2.85434E-05-2.85800E-05 3.22103E-08 9.63503E-19-1.27389E-18
 -1      3044 9.52340E-05-2.85569E-05-2.85759E-05 1.29261E-08 4.08643E-19-7.18757E-19
 -1      3045 9.52341E-05-2.85547E-05-2.85768E-05 1.72219E-08 7.54258E-19-1.34955E-18
 -1      3046 9.52320E-05-2.85498E-05-2.85781E-05 2.02299E-08 7.19423E-19-1.67900E-18
 -1      3047 9.52349E-05-2.85612E-05-2.85745E-05 6.19178E-09-2.95382E-19-1.02707E-19
 -1      3048 9.52349E-05-2.85593E-05-2.85752E-05 9.27302E-09-8.82716E-21-2.04111E-19
 -1      3049 9.52339E-05-2.85557E-05-2.85764E-05 1.13885E-08-1.10579E-19-7.30601E-19
 -1      3050 9.52357E-05-2.85647E-05-2.85733E-05 1.59385E-09-7.90214E-19 2.58449E-20
 -1      3051 9.52356E-05-2.85632E-05-2.85738E-05 3.68600E-09-8.54758E-19 1.55193E-19
 -1      3052 9.52355E-05-2.85607E-05-2.85749E-05 5.13988E-09-7.42249E-19 9.02122E-20
 -1      3053 9.52363E-05-2.85673E-05-2.85725E-05-1.35426E-09-3.76212E-19 6.57284E-19
 -1      3054 9.52362E-05-2.85662E-05-2.85728E-05-2.74330E-11-7.78534E-19 9.33180E-19
 -1      3055 9.52367E-05-2.85646E-05-2.85738E-05 9.36688E-10-1.30382E-18-1.07002E-19
 -1      3056 9.52367E-05-2.85692E-05-2.85718E-05-3.08054E-09 5.57557E-19 8.24779E-19
 -1      3057 9.52366E-05-2.85684E-05-2.85721E-05-2.31988E-09 9.09213E-19 1.10648E-18
 -1      3058 9.52375E-05-2.85675E-05-2.85728E-05-1.71506E-09 1.45266E-19 7.82162E-19
 -1      3059 9.52370E-05-2.85705E-05-2.85714E-05-3.93870E-09 8.61235E-19 7.88729E-19
 -1      3060 9.52369E-05-2.85699E-05-2.85715E-05-3.57873E-09 5.50645E-19 1.01743E-18
 -1      3061 9.52379E-05-2.85695E-05-2.85722E-05-3.23318E-09 6.51608E-19 7.64337E-19
 -1      3062 9.52372E-05-2.85713E-05-2.85711E-05-4.20781E-09 1.24390E-18-8.60788E-19
 -1      3063 9.52371E-05-2.85709E-05-2.85712E-05-4.11779E-09 1.15180E-18-4.74856E-19
 -1      3064 9.52381E-05-2.85709E-05-2.85717E-05-3.95474E-09 1.49022E-18-1.35359E-19
 -1      3065 9.52372E-05-2.85718E-05-2.85709E-05-4.09959E-09 1.45109E-18-1.21213E-18
 -1      3066 9.52371E-05-2.85716E-05-2.85710E-05-4.18044E-09 1.27657E-18-5.72597E-19
 -1      3067 9.52382E-05-2.85717E-05-2.85713E-05-4.14139E-09 1.21695E-18-6.92792E-19
 -1      3068 9.52373E-05-2.85720E-05-2.85708E-05-3.76893E-09-1.25445E-18 8.95104E-19
 -1      3069 9.52372E-05-2.85719E-05-2.85708E-05-3.94842E-09 3.78649E-19-3.06960E-19
 -1      3070 9.52381E-05-2.85722E-05-2.85711E-05-3.98942E-09 3.08201E-19-1.78787E-20
 -1      3071 9.52373E-05-2.85721E-05-2.85708E-05-3.32498E-09-1.44246E-18 2.08349E-18
 -1      3072 9.52372E-05-2.85721E-05-2.85708E-05-3.55249E-09-1.23793E-18 1.53555E-18
 -1      3073 9.52380E-05-2.85724E-05-2.85710E-05-3.64122E-09-1.56056E-18 2.53896E-18
 -1      3074 9.52373E-05-2.85721E-05-2.85708E-05-2.84150E-09 3.27011E-19 1.69903E-18
 -1      3075 9.52372E-05-2.85721E-05-2.85708E-05-3.08312E-09-6.18329E-19 1.51870E-18
 -1      3076 9.52379E-05-2.85724E-05-2.85709E-05-3.19642E-09-4.62271E-19 2.42923E-18
 -1      3077 9.52372E-05-2.85720E-05-2.85708E-05-2.36569E-09 1.74726E-19 5.31241E-19
 -1      3078 9.52372E-05-2.85720E-05-2.85708E-05-2.59999E-09 1.01816E-18 1.32769E-18
 -1      3079 9.52377E-05-2.85724E-05-2.85709E-05-2.72186E-09 7.72420E-19 9.55737E-19
 -1      3080 9.52372E-05-2.85719E-05-2.85708E-05-1.92549E-09 9.66669E-19-9.43893E-19
 -1      3081 9.52372E-05-2.85720E-05-2.85708E-05-2.14006E-09 4.50844E-19 5.41821E-19
 -1      3082 9.52376E-05-2.85723E-05-2.85709E-05-2.25999E-09 7.13936E-19-6.26441E-19
 -1      3083 9.52372E-05-2.85718E-05-2.85709E-05-1.53538E-09-4.15269E-19-1.15328E-18
 -1      3084 9.52372E-05-2.85718E-05-2.85709E-05-1.72407E-09 2.87813E-19-1.03819E-18
 -1      3085 9.52375E-05-2.85721E-05-2.85709E-05-1.83560E-09 7.88675E-19-5.02559E-19
 -1      3086 9.52372E-05-2.85717E-05-2.85709E-05-1.20070E-09-7.25155E-19-6.98598E-19
 -1      3087 9.52371E-05-2.85717E-05-2.85709E-05-1.36157E-09-4.78125E-19-1.16119E-18
 -1      3088 9.52374E-05-2.85720E-05-2.85709E-05-1.46121E-09-6.24882E-19-2.16600E-19
 -1      3089 9.52372E-05-2.85716E-05-2.85710E-05-9.20980E-10 4.80256E-19 2.09011E-19
 -1      3090 9.52371E-05-2.85716E-05-2.85709E-05-1.05472E-09 1.61338E-19-8.72789E-20
 -1      3091 9.52374E-05-2.85718E-05-2.85709E-05-1.14107E-09-9.88169E-19 2.33495E-19
 -1      3092 9.52372E-05-2.85715E-05-2.85710E-05-6.92294E-10-1.01850E-18 2.11379E-18
 -1      3093 9.52371E-05-2.85715E-05-2.85710E-05-8.01141E-10-2.13831E-20 1.09141E-18
 -1      3094 9.52373E-05-2.85717E-05-2.85710E-05-8.74170E-10-9.08799E-19 1.65998E-18
 -1      3095 9.52371E-05-2.85714E-05-2.85710E-05-5.09267E-10-6.76333E-19 1.66734E-18
 -1      3096 9.52371E-05-2.85715E-05-2.85710E-05-5.95838E-10-7.74862E-19 2.09256E-18
 -1      3097 9.52373E-05-2.85716E-05-2.85710E-05-6.56453E-10-7.26045E-19 2.98904E-18
 -1      3098 9.52372E-05-2.85713E-05-2.85711E-05 2.69839E-10 2.74835E-19-1.28206E-18
 -1      3099 9.52374E-05-2.85716E-05-2.85711E-05-7.53433E-11-1.72338E-19-1.43310E-18
 -1      3100 9.52374E-05-2.85716E-05-2.85711E-05-1.17824E-10 5.18038E-19-2.61588E-18
 -1      3101 9.52375E-05-2.85717E-05-2.85711E-05-5.53599E-11-3.22779E-19-2.09821E-18
 -1      3102 8.98375E-05-2.06034E-05-2.96757E-05 4.20735E-06 2.02601E-18-2.37628E-18
 -1      3103 9.52373E-05-2.85714E-05-2.85711E-05 2.49390E-10-3.99062E-19-5.87405E-19
 -1      3104 9.52373E-05-2.85715E-05-2.85711E-05 2.30569E-10 5.74824E-19-1.02113E-18
 -1      3105 9.52374E-05-2.85715E-05-2.85711E-05 2.47338E-10-4.80870E-19-1.13604E-18
 -1      3106 9.69089E-05-1.98820E-05-3.29808E-05-5.79157E-08 1.13744E-18-3.02577E-18
 -1      3107 9.76551E-05-1.73027E-05-3.44302E-05 3.33003E-06 1.38619E-18-3.24183E-18
 -1      3108 9.99120E-05-1.60463E-05-3.59442E-05 3.39907E-06 1.03866E-18-3.37688E-18
 -1      3109 5.55344E-05-1.13328E-05-1.86317E-05 2.64995E-05-2.15925E-18 3.82404E-18
 -1      3110 4.88232E-05-5.20401E-06-1.84210E-05 1.30748E-05-1.05252E-18 3.25261E-18
 -1      3111 9.52372E-05-2.85714E-05-2.85711E-05-2.98649E-10-9.33670E-19 1.14160E-18
 -1      3112 9.52371E-05-2.85713E-05-2.85711E-05-2.97333E-10 1.58839E-19 1.54164E-18
 -1      3113 9.52371E-05-2.85713E-05-2.85711E-05-3.45174E-10-2.02539E-19 1.98798E-18
 -1      3114 6.88415E-05-9.82613E-06-2.53272E-05-6.50524E-06 7.82921E-19 1.09516E-18
 -1      3115 7.35662E-05-1.20262E-05-2.64651E-05-5.40095E-06 5.81293E-19 6.97677E-19
 -1      3116 9.52374E-05-2.85716E-05-2.85711E-05 1.19836E-10-7.11114E-19-6.28538E-19
 -1      3117 9.52374E-05-2.85716E-05-2.85711E-05 7.83840E-11-5.23546E-19-2.47137E-19
 -1      3118 9.52375E-05-2.85717E-05-2.85711E-05 5.85989E-11-2.62632E-19-6.23064E-19
 -1      3119 9.52374E-05-2.85716E-05-2.85711E-05 1.64213E-10-8.63928E-19-9.02418E-19
 -1      3120 8.83521E-05-2.15015E-05-2.86478E-05 3.36495E-06 2.01925E-18-2.12558E-18
 -1      3121 1.07454E-04-1.15094E-05-4.10856E-05 5.37740E-06 8.24256E-19-3.38271E-18
 -1      3122 1.10633E-04-1.07183E-05-4.28718E-05 5.95863E-06 6.41839E-19-3.21836E-18
 -1      3123 9.52372E-05-2.85714E-05-2.85711E-05-2.55362E-10 6.73947E-19 2.61832E-19
 -1      3124 9.52372E-05-2.85714E-05-2.85711E-05-2.74755E-10 2.24352E-19 7.75368E-19
 -1      3125 9.52372E-05-2.85714E-05-2.85711E-05-3.20403E-10 1.22963E-19 1.61801E-18
 -1      3126 9.85005E-05-3.17813E-05-2.85785E-05-2.63278E-06-4.57253E-19-1.50045E-18
 -1      3127 9.87659E-05-3.20572E-05-2.86014E-05-3.24256E-06-4.28488E-19-1.67607E-18
 -1      3128 1.00189E-04-3.29748E-05-2.88154E-05-3.15839E-06-5.38149E-19-1.33225E-18
 -1      3129 9.89876E-05-3.21475E-05-2.86570E-05-1.97329E-06-3.28327E-19-1.35942E-18
 -1      3130 5.21771E-05-5.00685E-06-1.99521E-05-7.86097E-06 4.08376E-19 2.64348E-18
 -1      3131 6.27369E-05-7.25926E-06-2.37716E-05-5.84517E-06 4.16727E-19 1.57225E-18
 -1      3132 6.40888E-05-7.68738E-06-2.37872E-05 6.78678E-07 2.00644E-19 1.45748E-18
 -1      3133 4.98788E-05-3.50344E-06-1.92652E-05 4.64092E-06-4.02288E-19 3.03201E-18
 -1      3134 1.23065E-04-9.78954E-06-4.90489E-05-8.61817E-07 1.98979E-18-3.64367E-18
 -1      3135 1.25871E-04-1.55587E-05-4.75452E-05-4.60800E-06 1.44832E-18-4.33300E-18
 -1      3136 7.81338E-05-1.44366E-05-2.73408E-05-5.15645E-06 4.06212E-19 2.70199E-19
 -1      3137 8.12936E-05-1.64668E-05-2.78550E-05-4.40478E-06 2.34451E-19 2.66829E-19
 -1      3138 8.15158E-05-1.67300E-05-2.76601E-05-1.51247E-06-1.08584E-20-2.85642E-20
 -1      3139 1.32782E-04-4.00910E-05-4.01693E-05-1.16195E-07-1.17404E-18-4.58568E-18
 -1      3140 1.31348E-04-4.60515E-05-3.65531E-05 6.88175E-06-2.19599E-18-4.01314E-18
 -1      3141 1.26291E-04-4.99137E-05-3.30143E-05 1.74322E-05-3.27479E-18-2.96860E-18
 -1      3142 1.18181E-04-4.86060E-05-2.94654E-05 2.68747E-05-4.31272E-18-9.85682E-19
 -1      3143 1.28098E-04-2.34425E-05-4.53848E-05-5.34422E-06 7.43430E-19-4.58112E-18
 -1      3144 1.30996E-04-3.12180E-05-4.28277E-05-4.47270E-06-1.69830E-19-4.71369E-18
 -1      3145 9.52372E-05-2.85714E-05-2.85711E-05 2.69374E-10 1.41039E-20-1.01388E-18
 -1      3146 7.71461E-05-2.74099E-05-2.13087E-05 3.82245E-05-4.02134E-18 2.87785E-18
 -1      3147 6.54794E-05-1.89740E-05-1.96143E-05 3.34220E-05-3.41002E-18 3.66374E-18
 -1      3148 1.05578E-04-4.40689E-05-2.66730E-05 3.44102E-05-4.74169E-18 1.10424E-18
 -1      3149 9.09206E-05-3.54575E-05-2.33688E-05 3.78102E-05-4.67716E-18 2.18918E-18
 -1      3150 8.84874E-05-3.15484E-05-2.40665E-05 3.33473E-05-4.07341E-18 1.98555E-18
 -1      3151 1.27040E-04-4.44311E-05-3.54555E-05 3.73800E-06-2.26351E-18-4.00308E-18
 -1      3152 1.28680E-04-4.85011E-05-3.43843E-05 1.03601E-05-2.67654E-18-3.58102E-18
 -1      3153 1.22988E-04-4.76310E-05-3.23371E-05 1.36941E-05-3.17146E-18-3.05143E-18
 -1      3154 1.12509E-04-9.49783E-06-4.43978E-05 4.90504E-06 1.11643E-18-3.19902E-18
 -1      3155 9.52373E-05-2.85715E-05-2.85711E-05-2.38458E-10 7.99969E-19 9.65719E-19
 -1      3156 9.52374E-05-2.85716E-05-2.85711E-05-1.61620E-10-6.43183E-20-2.23650E-18
 -1      3157 9.52374E-05-2.85715E-05-2.85711E-05-1.64141E-10 6.21841E-19-1.11445E-18
 -1      3158 9.52373E-05-2.85715E-05-2.85711E-05-1.98455E-10 2.93225E-19 3.48355E-19
 -1      3159 9.52373E-05-2.85714E-05-2.85711E-05 3.05683E-10 1.13907E-18-8.67815E-19
 -1      3160 1.01196E-04-2.66330E-05-3.19525E-05-7.35470E-06 5.84928E-19-2.67265E-18
 -1      3161 9.85095E-05-2.57507E-05-3.12226E-05-6.73843E-06 7.98168E-19-2.52207E-18
 -1      3162 9.79902E-05-2.41244E-05-3.15992E-05-5.41277E-06 9.27910E-19-2.73433E-18
 -1      3163 1.02286E-04-3.33685E-05-2.95319E-05-6.29595E-06-1.15032E-19-1.93271E-18
 -1      3164 1.00548E-04-3.22849E-05-2.92587E-05-7.00035E-06-2.30647E-19-1.98555E-18
 -1      3165 1.00402E-04-3.17181E-05-2.94326E-05-7.55518E-06 2.12500E-19-1.90964E-18
 -1      3166 9.52371E-05-2.85714E-05-2.85710E-05-3.93242E-10-4.00298E-19 1.95335E-18
 -1      3167 9.52371E-05-2.85714E-05-2.85710E-05-4.51883E-10-8.34479E-19 1.53931E-18
 -1      3168 9.52372E-05-2.85715E-05-2.85710E-05-5.01152E-10-9.20636E-19 1.75906E-18
 -1      3169 9.52372E-05-2.85714E-05-2.85710E-05-3.92659E-10 3.07839E-19 1.35398E-18
 -1      3170 7.42001E-05-1.24101E-05-2.63101E-05-9.50472E-07 1.64232E-19 6.18602E-19
 -1      3171 1.00406E-04-3.09970E-05-2.97642E-05-8.10677E-06 2.94683E-19-2.16934E-18
 -1      3172 1.00033E-04-2.99616E-05-3.00103E-05-8.24419E-06 3.62752E-19-2.21069E-18
 -1      3173 1.02250E-04-2.99352E-05-3.09797E-05-8.29126E-06 4.51847E-19-2.47467E-18
 -1      3174 9.72939E-05-2.14438E-05-3.25428E-05-2.32768E-06 1.03094E-18-2.93136E-18
 -1      3175 1.23543E-04-1.99790E-05-4.44736E-05-5.94337E-06 6.52268E-19-4.47922E-18
 -1      3176 6.66116E-05-1.59632E-05-2.13256E-05 2.61500E-05-2.43564E-18 3.00681E-18
 -1      3177 1.19078E-04-9.60303E-06-4.71258E-05 1.43063E-06 1.50655E-18-3.52244E-18
 -1      3178 1.02192E-04-1.43984E-05-3.76086E-05 4.03752E-06 9.86025E-19-3.51782E-18
 -1      3179 1.04760E-04-1.33722E-05-3.92036E-05 4.33196E-06 6.66203E-19-3.40180E-18
 -1      3180 1.06167E-04-1.39131E-05-3.96308E-05 1.92066E-06 7.63395E-19-3.42007E-18
 -1      3181 1.01445E-04-1.72517E-05-3.61284E-05 6.15358E-07 8.57581E-19-3.23076E-18
 -1      3182 5.73958E-05-7.20334E-06-2.13134E-05 9.75524E-06-8.71544E-19 2.61940E-18
 -1      3183 1.28664E-04-3.56982E-05-4.00192E-05-3.39197E-06-9.23359E-19-4.57202E-18
 -1      3184 1.11633E-04-4.48266E-05-2.84512E-05 2.69088E-05-4.31259E-18-4.18997E-19
 -1      3185 8.86813E-05-2.23574E-05-2.84649E-05-5.06215E-07-2.58368E-19 2.83858E-19
 -1      3186 9.00224E-05-2.34058E-05-2.85655E-05-5.30858E-07-6.86996E-19 3.13779E-19
 -1      3187 9.11376E-05-2.43358E-05-2.86529E-05-7.67891E-07-1.11594E-18 4.71172E-19
 -1      3188 9.20248E-05-2.51146E-05-2.86876E-05-6.93215E-07-1.36108E-18 5.32236E-19
 -1      3189 9.04665E-05-2.38580E-05-2.85113E-05 3.45236E-07-7.22505E-19 5.44885E-19
 -1      3190 9.27238E-05-2.57432E-05-2.87194E-05-7.76310E-07-8.23147E-19 5.05273E-19
 -1      3191 9.32480E-05-2.62522E-05-2.87213E-05-6.71521E-07-2.71352E-19 1.04877E-18
 -1      3192 9.22066E-05-2.53343E-05-2.86357E-05-1.17221E-07-8.56363E-19 6.64902E-19
 -1      3193 9.37051E-05-2.66885E-05-2.87285E-05-6.83647E-07-4.43726E-19 1.45730E-18
 -1      3194 9.40276E-05-2.70347E-05-2.87176E-05-5.78961E-07-1.83398E-19 1.12029E-18
 -1      3195 9.33240E-05-2.63683E-05-2.86801E-05-2.96665E-07-1.74401E-19 1.12834E-18
 -1      3196 9.43210E-05-2.73317E-05-2.87134E-05-5.58308E-07-6.64328E-19 6.66855E-19
 -1      3197 9.45157E-05-2.75626E-05-2.86986E-05-4.67181E-07 1.84641E-19 1.13249E-19
 -1      3198 9.40494E-05-2.70906E-05-2.86870E-05-3.38367E-07-8.48020E-19 2.94332E-19
 -1      3199 9.47009E-05-2.77616E-05-2.86900E-05-4.34683E-07 9.97212E-19-3.68887E-19
 -1      3200 9.48162E-05-2.79137E-05-2.86755E-05-3.60825E-07 1.44798E-19-1.67920E-19
 -1      3201 9.45126E-05-2.75857E-05-2.86770E-05-3.14721E-07-1.25323E-20-6.76023E-19
 -1      3202 9.49314E-05-2.80456E-05-2.86660E-05-3.27059E-07-9.68293E-19-5.59844E-19
 -1      3203 9.49982E-05-2.81450E-05-2.86534E-05-2.69774E-07-1.64726E-18-1.00234E-18
 -1      3204 9.48036E-05-2.79202E-05-2.86607E-05-2.65384E-07-5.34212E-19-1.02399E-18
 -1      3205 9.50687E-05-2.82317E-05-2.86446E-05-2.39455E-07-1.23222E-18-1.33619E-18
 -1      3206 9.51065E-05-2.82963E-05-2.86343E-05-1.96264E-07-1.79711E-18-1.65519E-18
 -1      3207 9.49837E-05-2.81436E-05-2.86436E-05-2.10712E-07-1.65827E-18-1.89762E-18
 -1      3208 9.51506E-05-2.83553E-05-2.86265E-05-1.69754E-07-1.96721E-18-1.15441E-18
 -1      3209 9.51719E-05-2.83985E-05-2.86181E-05-1.36794E-07-1.35717E-18-1.40707E-18
 -1      3210 9.50956E-05-2.82946E-05-2.86277E-05-1.59083E-07-1.57405E-18-2.03963E-18
 -1      3211 9.51965E-05-2.84346E-05-2.86121E-05-1.17177E-07-1.72790E-18-1.05349E-18
 -1      3212 9.52069E-05-2.84609E-05-2.86060E-05-9.44695E-08-1.71322E-18-9.94284E-19
 -1      3213 9.51619E-05-2.83935E-05-2.86143E-05-1.15670E-07-1.37620E-18-2.18926E-18
 -1      3214 9.52211E-05-2.84844E-05-2.86012E-05-7.94109E-08-1.18803E-18-1.97079E-19
 -1      3215 9.52262E-05-2.85015E-05-2.85967E-05-6.32139E-08-9.88785E-19 3.73227E-19
 -1      3216 9.51997E-05-2.84566E-05-2.86038E-05-8.19562E-08-8.62943E-19-8.88071E-19
 -1      3217 9.52342E-05-2.85167E-05-2.85930E-05-5.20222E-08-1.45601E-18 3.75005E-19
 -1      3218 9.52363E-05-2.85277E-05-2.85896E-05-4.06387E-08-1.41162E-18-1.80385E-19
 -1      3219 9.52214E-05-2.84981E-05-2.85955E-05-5.60161E-08-1.28064E-18 5.77571E-19
 -1      3220 9.52406E-05-2.85376E-05-2.85868E-05-3.25311E-08-8.37080E-19-7.46491E-20
 -1      3221 9.52413E-05-2.85448E-05-2.85843E-05-2.46679E-08-3.54425E-19 5.38138E-19
 -1      3222 9.52334E-05-2.85253E-05-2.85891E-05-3.66736E-08-1.20900E-18 7.09288E-19
 -1      3223 9.52434E-05-2.85512E-05-2.85822E-05-1.89466E-08-3.19021E-19 8.40784E-19
 -1      3224 9.52433E-05-2.85558E-05-2.85804E-05-1.36207E-08 2.83339E-19 4.37273E-19
 -1      3225 9.52398E-05-2.85432E-05-2.85842E-05-2.26500E-08-3.63751E-19 1.86409E-18
 -1      3226 9.52442E-05-2.85601E-05-2.85788E-05-9.52229E-09 8.96173E-19-8.91493E-19
 -1      3227 9.52438E-05-2.85632E-05-2.85774E-05-5.90902E-09 6.38474E-19-6.12151E-19
 -1      3228 9.52428E-05-2.85551E-05-2.85804E-05-1.25907E-08-2.40986E-19 9.64480E-19
 -1      3229 9.52440E-05-2.85658E-05-2.85763E-05-3.39144E-09 3.97560E-20-1.01502E-18
 -1      3230 9.52435E-05-2.85676E-05-2.85754E-05-1.23271E-09 3.93540E-19-3.93742E-19
 -1      3231 9.52439E-05-2.85628E-05-2.85777E-05-5.75674E-09 1.44607E-19-5.58146E-19
 -1      3232 9.52433E-05-2.85692E-05-2.85746E-05 3.51538E-10 1.52575E-18-1.10648E-18
 -1      3233 9.52428E-05-2.85703E-05-2.85739E-05 1.62969E-09 1.03175E-18-1.20173E-18
 -1      3234 9.52440E-05-2.85675E-05-2.85756E-05-1.43447E-09 7.78059E-19-1.74991E-18
 -1      3235 9.52425E-05-2.85713E-05-2.85733E-05 2.54689E-09 8.09219E-19-1.81668E-18
 -1      3236 9.52420E-05-2.85720E-05-2.85729E-05 3.22688E-09 7.54144E-19-1.98880E-18
 -1      3237 9.52435E-05-2.85705E-05-2.85742E-05 1.24122E-09 3.85868E-19-1.30028E-18
 -1      3238 9.52416E-05-2.85725E-05-2.85725E-05 3.68630E-09 4.37420E-19-1.79812E-18
 -1      3239 9.52413E-05-2.85729E-05-2.85722E-05 3.96968E-09-2.88846E-19-2.24353E-18
 -1      3240 9.52428E-05-2.85722E-05-2.85731E-05 2.75834E-09 5.68701E-19-2.51324E-18
 -1      3241 9.52409E-05-2.85731E-05-2.85719E-05 4.12593E-09-5.92539E-19-2.37720E-18
 -1      3242 9.52406E-05-2.85733E-05-2.85717E-05 4.15636E-09-1.41964E-18-1.70112E-18
 -1      3243 9.52421E-05-2.85732E-05-2.85724E-05 3.48499E-09-6.45708E-19-1.94769E-18
 -1      3244 9.52402E-05-2.85734E-05-2.85715E-05 4.12110E-09-2.08060E-18-1.56474E-18
 -1      3245 9.52399E-05-2.85734E-05-2.85714E-05 4.00003E-09-2.46839E-18-7.51165E-19
 -1      3246 9.52413E-05-2.85736E-05-2.85719E-05 3.69235E-09-1.56565E-18-1.75375E-18
 -1      3247 9.52396E-05-2.85734E-05-2.85712E-05 3.84343E-09-2.07852E-18-8.68626E-19
 -1      3248 9.52394E-05-2.85734E-05-2.85711E-05 3.62735E-09-1.61162E-19-2.83875E-19
 -1      3249 9.52405E-05-2.85737E-05-2.85715E-05 3.56813E-09-1.89762E-18-2.24167E-18
 -1      3250 9.52390E-05-2.85733E-05-2.85711E-05 3.41965E-09-5.50946E-19-3.53860E-19
 -1      3251 9.52389E-05-2.85732E-05-2.85710E-05 3.17775E-09-1.52429E-18-2.07292E-19
 -1      3252 9.52399E-05-2.85736E-05-2.85713E-05 3.25576E-09-6.71283E-19-1.84595E-18
 -1      3253 9.52386E-05-2.85730E-05-2.85710E-05 2.95101E-09-1.07868E-18 8.67412E-19
 -1      3254 9.52385E-05-2.85729E-05-2.85710E-05 2.70372E-09-5.16812E-19 7.60540E-19
 -1      3255 9.52393E-05-2.85734E-05-2.85711E-05 2.85938E-09-4.69017E-19-8.15528E-20
 -1      3256 9.52383E-05-2.85728E-05-2.85709E-05 2.47970E-09-4.48718E-19 8.37629E-19
 -1      3257 9.52382E-05-2.85727E-05-2.85709E-05 2.24507E-09-9.12881E-19 1.53315E-18
 -1      3258 9.52389E-05-2.85732E-05-2.85710E-05 2.43622E-09-2.23682E-19 7.73838E-19
 -1      3259 9.52380E-05-2.85725E-05-2.85709E-05 2.03709E-09-2.32118E-18 2.25998E-18
 -1      3260 9.52379E-05-2.85724E-05-2.85709E-05 1.82502E-09-1.21676E-18 1.57287E-18
 -1      3261 9.52385E-05-2.85729E-05-2.85710E-05 2.02441E-09-1.48811E-18 1.21465E-18
 -1      3262 9.52378E-05-2.85723E-05-2.85709E-05 1.64002E-09-3.85026E-19 1.40421E-18
 -1      3263 9.52377E-05-2.85722E-05-2.85709E-05 1.45495E-09 6.98938E-19 1.44076E-18
 -1      3264 9.52382E-05-2.85726E-05-2.85710E-05 1.64606E-09-6.07895E-19 2.57345E-18
 -1      3265 9.52376E-05-2.85721E-05-2.85709E-05 1.28783E-09 9.65356E-19 1.07281E-18
 -1      3266 9.52376E-05-2.85720E-05-2.85710E-05 1.12430E-09 1.58123E-18 1.60819E-18
 -1      3267 9.52379E-05-2.85723E-05-2.85710E-05 1.30468E-09 3.50035E-19 2.43628E-18
 -1      3268 9.52375E-05-2.85719E-05-2.85710E-05 9.92096E-10 9.92208E-19 1.16211E-18
 -1      3269 9.52375E-05-2.85718E-05-2.85710E-05 8.63206E-10-5.72773E-19 2.77476E-20
 -1      3270 9.52377E-05-2.85721E-05-2.85710E-05 1.01376E-09 9.53297E-19 2.03553E-18
 -1      3271 9.52374E-05-2.85717E-05-2.85710E-05 7.54794E-10 2.97072E-19-3.42408E-20
 -1      3272 9.52374E-05-2.85717E-05-2.85710E-05 6.50178E-10 3.79486E-19 3.89420E-19
 -1      3273 9.52376E-05-2.85719E-05-2.85710E-05 7.77963E-10-6.73265E-20 1.10423E-18
 -1      3274 9.52373E-05-2.85716E-05-2.85710E-05 5.62776E-10-2.24959E-19 4.13685E-20
 -1      3275 9.52373E-05-2.85716E-05-2.85710E-05 4.79787E-10 1.34373E-18-2.60631E-19
 -1      3276 9.52374E-05-2.85717E-05-2.85710E-05 5.86019E-10 1.46667E-19 2.24143E-18
 -1      3277 9.52373E-05-2.85715E-05-2.85710E-05 4.19593E-10 2.05226E-18-7.11257E-19
 -1      3278 9.52373E-05-2.85715E-05-2.85711E-05 3.54223E-10 2.10919E-18-5.12728E-19
 -1      3279 9.52373E-05-2.85715E-05-2.85711E-05 3.28437E-10 1.06699E-19 4.82340E-19
 -1      3280 9.52374E-05-2.85716E-05-2.85710E-05 4.38922E-10 7.46857E-19 2.00130E-18
 -1      3281 6.31395E-05-1.00741E-05-2.24825E-05 1.46907E-05-1.03545E-18 2.46285E-18
 -1      3282 6.22233E-05-8.44183E-06-2.31028E-05 6.64381E-06-3.91409E-19 2.00543E-18
 -1      3283 6.81552E-05-1.03924E-05-2.47034E-05 4.67528E-06-1.47182E-19 1.39349E-18
 -1      3284 8.50766E-05-1.97529E-05-2.80544E-05 2.13448E-07-1.74931E-19-4.80356E-20
 -1      3285 8.71128E-05-2.11568E-05-2.82862E-05-2.12068E-08 1.52630E-19 6.78810E-20
 -1      3286 8.78769E-05-2.18639E-05-2.82385E-05 1.29985E-06-1.09579E-19 2.88564E-19
 -1      3287 9.71235E-05-3.04352E-05-2.85692E-05-5.29243E-08-1.00512E-19-1.54688E-18
 -1      3288 9.75023E-05-3.08236E-05-2.85779E-05-2.49104E-07-1.21863E-19-1.31671E-18
 -1      3289 9.80969E-05-3.13078E-05-2.86081E-05-4.18356E-07-2.72136E-19-1.14942E-18
 -1      3290 9.85865E-05-3.17783E-05-2.86359E-05-7.31333E-07-1.85722E-19-1.16812E-18
 -1      3291 9.80492E-05-3.12969E-05-2.86243E-05 1.34848E-07-1.01943E-19-1.22769E-18
 -1      3292 9.59426E-05-2.92859E-05-2.85620E-05 2.17824E-07-6.17921E-20-7.15081E-19
 -1      3293 9.61316E-05-2.94956E-05-2.85576E-05 1.60162E-07-3.47486E-19-1.30028E-18
 -1      3294 9.56314E-05-2.89622E-05-2.85693E-05 2.34755E-07-1.96545E-19-2.52127E-19
 -1      3295 9.57550E-05-2.91025E-05-2.85644E-05 2.11514E-07 1.31808E-19-5.15665E-19
 -1      3296 9.58659E-05-2.92228E-05-2.85674E-05 3.60073E-07-1.39100E-20-3.26021E-19
 -1      3297 9.54392E-05-2.87562E-05-2.85766E-05 2.18308E-07-3.23965E-19-3.65877E-19
 -1      3298 9.55162E-05-2.88446E-05-2.85726E-05 2.15074E-07-2.69685E-19-4.82860E-19
 -1      3299 9.55703E-05-2.89094E-05-2.85729E-05 3.14346E-07-2.63143E-19-3.22623E-19
 -1      3300 9.53272E-05-2.86337E-05-2.85819E-05 1.86998E-07-9.93855E-19-3.97536E-20
 -1      3301 9.53726E-05-2.86857E-05-2.85794E-05 1.94299E-07-5.99283E-19-3.09175E-19
 -1      3302 9.53934E-05-2.87152E-05-2.85788E-05 2.58571E-07-6.85254E-19-3.40009E-19
 -1      3303 9.52663E-05-2.85670E-05-2.85850E-05 1.51468E-07-1.43508E-18 1.39816E-19
 -1      3304 9.52914E-05-2.85948E-05-2.85837E-05 1.63420E-07-1.18023E-18 1.23440E-19
 -1      3305 9.52943E-05-2.86033E-05-2.85833E-05 2.03982E-07-1.34050E-18 3.25242E-19
 -1      3306 9.52365E-05-2.85355E-05-2.85860E-05 1.17408E-07-4.11487E-19-3.70191E-19
 -1      3307 9.52492E-05-2.85482E-05-2.85857E-05 1.30526E-07-8.17349E-19-1.22465E-19
 -1      3308 9.52436E-05-2.85453E-05-2.85858E-05 1.55625E-07-8.54795E-19 1.19831E-20
 -1      3309 9.52245E-05-2.85249E-05-2.85855E-05 8.75334E-08 2.28221E-20-5.67415E-19
 -1      3310 9.52301E-05-2.85287E-05-2.85860E-05 9.99085E-08 3.58831E-19-6.65755E-19
 -1      3311 9.52215E-05-2.85206E-05-2.85865E-05 1.15233E-07 6.63776E-20-9.22187E-20
 -1      3312 9.52220E-05-2.85258E-05-2.85842E-05 6.27936E-08-3.19265E-19-3.58776E-19
 -1      3313 9.52237E-05-2.85248E-05-2.85850E-05 7.35227E-08-3.47682E-19-3.51220E-19
 -1      3314 9.52150E-05-2.85150E-05-2.85859E-05 8.28419E-08-2.74670E-19-1.45127E-19
 -1      3315 9.52238E-05-2.85320E-05-2.85823E-05 4.31626E-08 5.74430E-19-3.87211E-19
 -1      3316 9.52237E-05-2.85288E-05-2.85833E-05 5.19425E-08-4.44023E-20-1.36188E-19
 -1      3317 9.52163E-05-2.85193E-05-2.85845E-05 5.76535E-08-1.78264E-19-6.15107E-20
 -1      3318 9.52272E-05-2.85400E-05-2.85803E-05 2.81357E-08 1.23093E-18-6.59238E-19
 -1      3319 9.52263E-05-2.85362E-05-2.85813E-05 3.50007E-08 1.23218E-18-2.37675E-19
 -1      3320 9.52208E-05-2.85280E-05-2.85826E-05 3.85732E-08 7.12227E-19-4.77212E-20
 -1      3321 9.52307E-05-2.85480E-05-2.85784E-05 1.70132E-08 5.58223E-19-7.97705E-19
 -1      3322 9.52297E-05-2.85443E-05-2.85794E-05 2.21691E-08 1.26279E-18-8.36566E-19
 -1      3323 9.52259E-05-2.85377E-05-2.85806E-05 2.44775E-08 1.16720E-18 1.08218E-20
 -1      3324 9.52337E-05-2.85549E-05-2.85767E-05 9.05986E-09-6.72820E-19-1.13716E-19
 -1      3325 9.52328E-05-2.85518E-05-2.85775E-05 1.27818E-08 2.84268E-20-5.75361E-19
 -1      3326 9.52305E-05-2.85468E-05-2.85787E-05 1.43334E-08 2.62289E-20-1.80155E-19
 -1      3327 9.52360E-05-2.85605E-05-2.85752E-05 3.59055E-09-4.74214E-19-2.80488E-20
 -1      3328 9.52353E-05-2.85580E-05-2.85759E-05 6.16340E-09-3.51906E-19 1.63656E-20
 -1      3329 9.52342E-05-2.85544E-05-2.85770E-05 7.24673E-09-4.41546E-19 3.51396E-19
 -1      3330 9.52375E-05-2.85648E-05-2.85741E-05 8.32873E-12-1.41632E-18-5.25159E-19
 -1      3331 9.52370E-05-2.85629E-05-2.85746E-05 1.69523E-09-1.14931E-18-9.34379E-20
 -1      3332 9.52368E-05-2.85605E-05-2.85755E-05 2.47383E-09-9.13966E-19 5.83895E-19
 -1      3333 9.52385E-05-2.85679E-05-2.85731E-05-2.18308E-09 5.95593E-19-4.47415E-19
 -1      3334 9.52382E-05-2.85665E-05-2.85735E-05-1.15541E-09-5.91008E-19-9.05105E-19
 -1      3335 9.52385E-05-2.85650E-05-2.85743E-05-5.87353E-10-8.98541E-19-9.73844E-19
 -1      3336 9.52390E-05-2.85700E-05-2.85724E-05-3.38152E-09 4.28168E-19-4.73080E-20
 -1      3337 9.52388E-05-2.85691E-05-2.85727E-05-2.82710E-09 7.57111E-19 2.50405E-19
 -1      3338 9.52395E-05-2.85683E-05-2.85734E-05-2.41273E-09-4.08611E-20-6.93404E-19
 -1      3339 9.52391E-05-2.85714E-05-2.85719E-05-3.89636E-09 1.51281E-18-3.97408E-19
 -1      3340 9.52391E-05-2.85708E-05-2.85721E-05-3.66839E-09 1.15612E-18 3.64607E-20
 -1      3341 9.52399E-05-2.85704E-05-2.85726E-05-3.37059E-09 7.20976E-19 2.47484E-19
 -1      3342 9.52391E-05-2.85722E-05-2.85715E-05-3.96144E-09 6.78200E-19-8.76436E-19
 -1      3343 9.52391E-05-2.85718E-05-2.85717E-05-3.94794E-09 1.61312E-18-7.22895E-19
 -1      3344 9.52400E-05-2.85718E-05-2.85721E-05-3.74016E-09 1.77991E-18-2.15596E-19
 -1      3345 9.52389E-05-2.85726E-05-2.85713E-05-3.74867E-09-1.61087E-18 8.69543E-19
 -1      3346 9.52390E-05-2.85724E-05-2.85714E-05-3.86687E-09-7.43623E-19-4.97653E-19
 -1      3347 9.52398E-05-2.85726E-05-2.85717E-05-3.72861E-09-5.26857E-19-4.01840E-19
 -1      3348 9.52387E-05-2.85728E-05-2.85711E-05-3.38073E-09-1.66638E-18 2.59702E-18
 -1      3349 9.52388E-05-2.85727E-05-2.85712E-05-3.57147E-09-1.70989E-18 2.26894E-18
 -1      3350 9.52396E-05-2.85730E-05-2.85714E-05-3.48612E-09-2.47882E-18 1.19412E-18
 -1      3351 9.52385E-05-2.85728E-05-2.85710E-05-2.94222E-09 4.12392E-19 1.64427E-18
 -1      3352 9.52385E-05-2.85728E-05-2.85710E-05-3.16472E-09-5.48970E-19 2.44753E-18
 -1      3353 9.52392E-05-2.85731E-05-2.85712E-05-3.11868E-09-1.11167E-18 1.80677E-18
 -1      3354 9.52382E-05-2.85726E-05-2.85710E-05-2.48901E-09 1.20237E-18 5.55312E-19
 -1      3355 9.52383E-05-2.85727E-05-2.85710E-05-2.71646E-09 9.93095E-19 1.81444E-18
 -1      3356 9.52389E-05-2.85730E-05-2.85711E-05-2.69862E-09 5.30425E-19 5.22732E-19
 -1      3357 9.52380E-05-2.85725E-05-2.85709E-05-2.05590E-09 5.05362E-19 6.68019E-19
 -1      3358 9.52381E-05-2.85725E-05-2.85709E-05-2.27171E-09 2.12317E-19 6.35020E-19
 -1      3359 9.52386E-05-2.85729E-05-2.85710E-05-2.27320E-09 1.25123E-18 1.64928E-18
 -1      3360 9.52378E-05-2.85723E-05-2.85709E-05-1.66266E-09 2.46901E-19 6.74867E-19
 -1      3361 9.52379E-05-2.85724E-05-2.85709E-05-1.85757E-09 9.82426E-19 5.79637E-19
 -1      3362 9.52383E-05-2.85726E-05-2.85710E-05-1.87147E-09 5.59372E-19 1.48549E-18
 -1      3363 9.52377E-05-2.85721E-05-2.85710E-05-1.31864E-09-1.15932E-18 4.70222E-19
 -1      3364 9.52377E-05-2.85722E-05-2.85709E-05-1.48842E-09-8.32067E-20 8.42604E-19
 -1      3365 9.52380E-05-2.85724E-05-2.85710E-05-1.50952E-09 8.47163E-19 1.40340E-18
 -1      3366 9.52375E-05-2.85719E-05-2.85710E-05-1.02633E-09-2.05415E-18 6.34285E-19
 -1      3367 9.52376E-05-2.85720E-05-2.85710E-05-1.17007E-09-1.95405E-18 1.68170E-19
 -1      3368 9.52378E-05-2.85722E-05-2.85710E-05-1.19460E-09-1.42815E-18 1.68696E-18
 -1      3369 9.52374E-05-2.85718E-05-2.85710E-05-7.83837E-10-1.54466E-18 2.41118E-18
 -1      3370 9.52374E-05-2.85718E-05-2.85710E-05-9.02685E-10-1.69310E-18 1.26406E-18
 -1      3371 9.52376E-05-2.85720E-05-2.85710E-05-9.28106E-10-2.76703E-18 7.61506E-19
 -1      3372 9.52373E-05-2.85716E-05-2.85710E-05-5.87330E-10-1.26225E-18 2.15732E-18
 -1      3373 9.52374E-05-2.85717E-05-2.85710E-05-6.83200E-10-1.82509E-18 2.03965E-18
 -1      3374 9.52375E-05-2.85718E-05-2.85710E-05-7.07717E-10-1.88413E-18 1.44303E-18
 -1      3375 9.52375E-05-2.85717E-05-2.85711E-05-3.45749E-11-1.17261E-18-1.32945E-18
 -1      3376 9.52375E-05-2.85717E-05-2.85711E-05-9.41694E-11-9.51647E-19-2.65023E-18
 -1      3377 7.27250E-05-1.26042E-05-2.58415E-05 3.09496E-06-2.00671E-19 8.91793E-19
 -1      3378 7.71250E-05-1.47885E-05-2.67376E-05 2.43654E-06-4.10622E-19 2.30965E-19
 -1      3379 7.25846E-05-1.31551E-05-2.53093E-05 8.54792E-06-5.70588E-19 1.53915E-18
 -1      3380 9.52374E-05-2.85716E-05-2.85711E-05 2.88812E-10 6.17255E-19 2.31335E-19
 -1      3381 9.52374E-05-2.85716E-05-2.85711E-05 2.52566E-10-5.35423E-19-1.08808E-18
 -1      3382 9.52374E-05-2.85716E-05-2.85710E-05 3.39367E-10 8.48427E-19 5.62728E-19
 -1      3383 7.61272E-05-2.15643E-05-2.33425E-05 2.76592E-05-2.72995E-18 2.07354E-18
 -1      3384 6.72735E-05-1.45030E-05-2.25732E-05 2.10232E-05-1.66423E-18 2.41193E-18
 -1      3385 7.19761E-05-1.51434E-05-2.41828E-05 1.67176E-05-1.42446E-18 1.95414E-18
 -1      3386 9.52373E-05-2.85715E-05-2.85711E-05-3.36038E-10 6.78473E-19 1.68069E-18
 -1      3387 9.52373E-05-2.85715E-05-2.85711E-05-3.60586E-10-2.37475E-19 1.92425E-18
 -1      3388 9.52373E-05-2.85715E-05-2.85710E-05-4.10620E-10-6.12913E-19 1.76156E-18
 -1      3389 9.64218E-05-2.97657E-05-2.85590E-05 1.37380E-07-5.36455E-19-1.50754E-18
 -1      3390 9.66968E-05-3.00608E-05-2.85582E-05 2.44927E-08-2.66101E-19-1.67989E-18
 -1      3391 9.63342E-05-2.96988E-05-2.85670E-05 3.74275E-07-5.37024E-19-6.43330E-19
 -1      3392 1.13795E-04-1.16953E-05-4.39335E-05-2.64586E-07 1.14858E-18-3.69885E-18
 -1      3393 1.02534E-04-3.43534E-05-2.92002E-05-3.39935E-06-5.69171E-19-1.69509E-18
 -1      3394 1.03085E-04-3.45382E-05-2.93907E-05-4.17478E-06-3.32931E-19-1.78275E-18
 -1      3395 7.99954E-05-1.65208E-05-2.72837E-05 1.40636E-06-2.77370E-20-1.52849E-19
 -1      3396 8.30343E-05-1.83245E-05-2.77566E-05 8.44261E-07-2.25365E-19-2.62956E-19
 -1      3397 8.43903E-05-1.94650E-05-2.77516E-05 2.79220E-06-7.78819E-20-2.32537E-19
 -1      3398 7.96848E-05-1.66393E-05-2.69147E-05 4.98413E-06-6.12850E-19-2.37326E-19
 -1      3399 1.10346E-04-1.43025E-05-4.10993E-05-1.15781E-06 7.94404E-19-3.53312E-18
 -1      3400 1.16119E-04-1.57696E-05-4.33344E-05-3.97387E-06 9.64135E-19-3.77090E-18
 -1      3401 9.52373E-05-2.85715E-05-2.85711E-05-2.57439E-10 6.98510E-19-1.85917E-19
 -1      3402 1.14971E-04-4.58139E-05-2.98161E-05 2.08911E-05-3.93857E-18-1.54261E-18
 -1      3403 1.05699E-04-4.09517E-05-2.75022E-05 2.67745E-05-4.32100E-18 4.14186E-20
 -1      3404 9.98180E-05-2.17404E-05-3.34581E-05-3.45177E-06 8.74906E-19-3.07837E-18
 -1      3405 9.54894E-05-3.54586E-05-2.59320E-05 2.98917E-05-4.02018E-18 1.34149E-18
 -1      3406 8.45591E-05-2.75943E-05-2.42547E-05 2.95526E-05-3.39851E-18 1.64703E-18
 -1      3407 8.48692E-05-2.56061E-05-2.51604E-05 2.47315E-05-2.87594E-18 1.31661E-18
 -1      3408 1.18442E-04-2.13629E-05-4.16463E-05-6.21778E-06 4.52792E-19-4.14022E-18
 -1      3409 1.23770E-04-3.13498E-05-3.99377E-05-6.41815E-06-3.20628E-19-4.24472E-18
 -1      3410 1.25801E-04-3.79937E-05-3.76193E-05-3.00106E-06-1.24359E-18-4.13437E-18
 -1      3411 9.52375E-05-2.85717E-05-2.85711E-05-1.61374E-10-9.65503E-19-2.85832E-18
 -1      3412 9.52375E-05-2.85717E-05-2.85711E-05-2.12336E-10-1.01082E-18-1.69203E-18
 -1      3413 9.52376E-05-2.85718E-05-2.85711E-05-1.45203E-10-1.52259E-18-2.88664E-18
 -1      3414 1.20258E-04-4.54485E-05-3.21260E-05 9.41548E-06-2.63208E-18-2.44688E-18
 -1      3415 1.18978E-04-4.64861E-05-3.09519E-05 1.55247E-05-3.45748E-18-2.07962E-18
 -1      3416 1.13386E-04-4.36688E-05-2.98816E-05 1.65643E-05-3.27517E-18-1.42802E-18
 -1      3417 1.07370E-04-1.58688E-05-3.92574E-05-1.41846E-06 7.37819E-19-3.47608E-18
 -1      3418 1.09605E-04-1.94646E-05-3.87000E-05-5.08284E-06 5.36351E-19-3.63094E-18
 -1      3419 1.05139E-04-1.77589E-05-3.74099E-05-2.03196E-06 8.03495E-19-3.25230E-18
 -1      3420 1.03928E-04-2.79478E-05-3.26142E-05-7.89907E-06 3.46513E-19-2.77440E-18
 -1      3421 1.03245E-04-2.57926E-05-3.31535E-05-6.93866E-06 5.00167E-19-2.84030E-18
 -1      3422 1.04010E-04-3.46663E-05-2.97072E-05-5.12218E-06-3.11837E-19-1.93666E-18
 -1      3423 1.04343E-04-3.43808E-05-2.99943E-05-5.91805E-06-2.91443E-19-2.14954E-18
 -1      3424 1.05091E-04-3.55718E-05-2.98043E-05-3.81304E-06-4.78177E-19-2.28896E-18
 -1      3425 9.70398E-05-3.03807E-05-2.85806E-05 3.19314E-07-2.61027E-19-1.35893E-18
 -1      3426 9.94150E-05-3.24388E-05-2.87234E-05-2.65906E-07-2.69091E-19-1.34766E-18
 -1      3427 9.93669E-05-3.23532E-05-2.87003E-05-1.04392E-06-3.50777E-19-1.34131E-18
 -1      3428 9.99501E-05-3.28568E-05-2.87616E-05-1.50899E-06-4.08756E-19-1.47156E-18
 -1      3429 9.52373E-05-2.85716E-05-2.85710E-05-5.27617E-10-5.03004E-19 1.93964E-18
 -1      3430 9.52374E-05-2.85717E-05-2.85710E-05-5.49369E-10-1.21948E-18 1.65064E-18
 -1      3431 9.52373E-05-2.85715E-05-2.85710E-05-4.68680E-10-5.81989E-19 1.21688E-18
 -1      3432 9.52375E-05-2.85717E-05-2.85711E-05 3.77283E-11-1.09121E-18 2.37325E-19
 -1      3433 9.52376E-05-2.85718E-05-2.85711E-05 1.54355E-12-1.67301E-18 1.97843E-19
 -1      3434 9.52375E-05-2.85717E-05-2.85711E-05 9.63664E-11-5.43119E-19 5.41153E-19
 -1      3435 1.02643E-04-3.22424E-05-3.01597E-05-7.71023E-06 2.58009E-19-2.33665E-18
 -1      3436 1.21518E-04-3.75053E-05-3.59986E-05-4.06070E-06-1.04376E-18-3.16229E-18
 -1      3437 1.25355E-04-4.17202E-05-3.59406E-05-5.20030E-07-1.58317E-18-3.61200E-18
 -1      3438 1.22764E-04-4.33420E-05-3.40801E-05 2.61525E-06-1.81204E-18-3.10224E-18
 -1      3439 9.52375E-05-2.85717E-05-2.85711E-05 2.04781E-10-3.11919E-19-1.29227E-18
 -1      3440 9.52375E-05-2.85717E-05-2.85711E-05 1.54013E-10-7.02914E-20-6.37659E-19
 -1      3441 9.52376E-05-2.85718E-05-2.85711E-05 1.37221E-10-9.48510E-19-3.96215E-19
 -1      3442 9.52375E-05-2.85717E-05-2.85711E-05 2.46706E-10 7.52480E-19-1.62176E-18
 -1      3443 1.00893E-04-3.34500E-05-2.88819E-05-2.02033E-06-7.14313E-19-1.29195E-18
 -1      3444 1.01513E-04-3.38809E-05-2.89964E-05-2.65433E-06-5.72663E-19-1.27510E-18
 -1      3445 1.03112E-04-3.48884E-05-2.92562E-05-2.16690E-06-8.25997E-19-1.72491E-18
 -1      3446 1.01137E-04-3.37122E-05-2.89165E-05-9.98893E-07-5.03000E-19-1.68883E-18
 -1      3447 1.02855E-04-1.93862E-05-3.57517E-05-2.50944E-06 8.71716E-19-3.18394E-18
 -1      3448 1.17297E-04-2.56860E-05-3.93170E-05-6.37060E-06 8.70591E-20-3.73732E-18
 -1      3449 1.01695E-04-3.73492E-05-2.73980E-05 2.42777E-05-4.02479E-18 1.43286E-19
 -1      3450 1.04935E-04-3.16569E-05-3.14310E-05-8.12183E-06 2.75099E-19-2.52474E-18
 -1      3451 1.04511E-04-2.99581E-05-3.19267E-05-8.11192E-06 3.47983E-19-2.54695E-18
 -1      3452 1.06647E-04-2.93317E-05-3.31085E-05-8.03854E-06 3.25970E-19-2.83489E-18
 -1      3453 9.52374E-05-2.85716E-05-2.85711E-05-2.65334E-10-5.12498E-19-1.71607E-19
 -1      3454 9.52373E-05-2.85716E-05-2.85711E-05-3.10802E-10 4.58812E-19-7.34219E-20
 -1      3455 9.52374E-05-2.85716E-05-2.85710E-05-3.49960E-10-1.54384E-18-3.08889E-19
 -1      3456 9.52375E-05-2.85717E-05-2.85711E-05-2.69027E-10-1.79078E-18-1.65683E-18
 -1      3457 1.03743E-04-2.30329E-05-3.46418E-05-5.69634E-06 7.29338E-19-3.06393E-18
 -1      3458 1.12543E-04-2.25840E-05-3.86596E-05-6.59012E-06 3.68757E-19-3.56878E-18
 -1      3459 1.17429E-04-3.04753E-05-3.72653E-05-7.17113E-06-1.34546E-19-3.54584E-18
 -1      3460 7.91973E-05-1.99253E-05-2.53472E-05 1.84967E-05-1.84606E-18 8.22138E-19
 -1      3461 7.43708E-05-1.57473E-05-2.51973E-05 1.30749E-05-1.05755E-18 1.04360E-18
 -1      3462 7.86728E-05-1.73297E-05-2.62462E-05 1.04675E-05-9.36327E-19 3.98196E-19
 -1      3463 9.18814E-05-2.52689E-05-2.85723E-05 5.71334E-07-1.19780E-18-1.34228E-19
 -1      3464 9.25755E-05-2.58210E-05-2.86110E-05 3.80071E-07-6.05032E-19 3.63825E-20
 -1      3465 9.30616E-05-2.62673E-05-2.86406E-05 1.31426E-07-2.78672E-19 2.06390E-19
 -1      3466 9.35164E-05-2.66650E-05-2.86530E-05 5.20379E-08-2.18258E-19 1.28001E-19
 -1      3467 9.29032E-05-2.61609E-05-2.85887E-05 7.37754E-07-4.53733E-19-4.15686E-19
 -1      3468 9.38504E-05-2.69889E-05-2.86637E-05-7.87739E-08-7.96094E-19 2.89274E-19
 -1      3469 9.41431E-05-2.72677E-05-2.86631E-05-9.92011E-08-1.18561E-18-5.21452E-21
 -1      3470 9.36972E-05-2.68673E-05-2.86311E-05 2.99125E-07-6.79037E-19-2.52430E-20
 -1      3471 9.43676E-05-2.74967E-05-2.86641E-05-1.61603E-07-6.28085E-19-1.81826E-20
 -1      3472 9.45529E-05-2.76887E-05-2.86580E-05-1.53684E-07 2.14696E-19-3.95423E-19
 -1      3473 9.42383E-05-2.73846E-05-2.86447E-05 6.83169E-08-8.94663E-19-5.42917E-20
 -1      3474 9.47011E-05-2.78478E-05-2.86544E-05-1.78038E-07-6.47552E-19-8.57330E-19
 -1      3475 9.48166E-05-2.79782E-05-2.86465E-05-1.58582E-07-1.49716E-18-7.47757E-19
 -1      3476 9.45997E-05-2.77540E-05-2.86437E-05-4.18763E-08-9.26085E-19-9.60824E-19
 -1      3477 9.49131E-05-2.80874E-05-2.86412E-05-1.62977E-07-1.89456E-18-1.03391E-18
 -1      3478 9.49841E-05-2.81753E-05-2.86334E-05-1.40758E-07-1.71108E-18-1.28004E-18
 -1      3479 9.48372E-05-2.80130E-05-2.86360E-05-8.48678E-08-1.61887E-18-1.10091E-18
 -1      3480 9.50485E-05-2.82527E-05-2.86276E-05-1.35272E-07-1.33931E-18-2.08380E-18
 -1      3481 9.50928E-05-2.83136E-05-2.86205E-05-1.13644E-07-1.82149E-18-2.11314E-18
 -1      3482 9.49940E-05-2.81965E-05-2.86258E-05-9.25760E-08-1.94240E-18-1.50726E-18
 -1      3483 9.51312E-05-2.83628E-05-2.86154E-05-1.04983E-07-1.74447E-18-1.55592E-18
 -1      3484 9.51560E-05-2.84012E-05-2.86098E-05-8.74226E-08-1.10127E-18-1.55320E-18
 -1      3485 9.50934E-05-2.83213E-05-2.86155E-05-8.34480E-08-1.67565E-18-7.37042E-19
 -1      3486 9.51800E-05-2.84343E-05-2.86054E-05-7.82400E-08-5.13582E-19-1.61097E-18
 -1      3487 9.51944E-05-2.84600E-05-2.86009E-05-6.41444E-08-3.01148E-19-8.89764E-19
 -1      3488 9.51542E-05-2.84042E-05-2.86065E-05-6.82355E-08-8.71972E-19-1.24410E-18
 -1      3489 9.52092E-05-2.84822E-05-2.85973E-05-5.58694E-08-9.28279E-19-2.43926E-19
 -1      3490 9.52173E-05-2.84993E-05-2.85937E-05-4.50049E-08-1.23029E-18 5.49505E-20
 -1      3491 9.51921E-05-2.84607E-05-2.85988E-05-5.21698E-08-9.08488E-20-8.99260E-19
 -1      3492 9.52263E-05-2.85143E-05-2.85908E-05-3.81592E-08-1.05297E-18 1.29542E-19
 -1      3493 9.52306E-05-2.85257E-05-2.85880E-05-3.00552E-08-3.10204E-19 1.32523E-19
 -1      3494 9.52153E-05-2.84992E-05-2.85924E-05-3.77136E-08-6.79612E-19 9.13516E-20
 -1      3495 9.52359E-05-2.85357E-05-2.85857E-05-2.47132E-08-1.88331E-19 4.61305E-19
 -1      3496 9.52381E-05-2.85433E-05-2.85836E-05-1.88385E-08-1.12372E-18 8.93730E-20
 -1      3497 9.52292E-05-2.85252E-05-2.85873E-05-2.57880E-08-3.00904E-19-1.36132E-19
 -1      3498 9.52411E-05-2.85502E-05-2.85818E-05-1.46715E-08-5.69033E-19 8.72223E-19
 -1      3499 9.52421E-05-2.85554E-05-2.85801E-05-1.04104E-08 6.95086E-19 6.34786E-19
 -1      3500 9.52374E-05-2.85432E-05-2.85832E-05-1.63389E-08-4.51194E-19 4.16283E-19
 -1      3501 9.52436E-05-2.85597E-05-2.85788E-05-7.64417E-09 2.28268E-19 1.11611E-18
 -1      3502 9.52438E-05-2.85629E-05-2.85776E-05-4.90718E-09-1.21068E-19 2.03687E-19
 -1      3503 9.52418E-05-2.85551E-05-2.85800E-05-9.36839E-09 3.06712E-19 1.12993E-18
 -1      3504 9.52444E-05-2.85656E-05-2.85765E-05-3.02133E-09-3.98747E-19 2.58710E-19
 -1      3505 9.52442E-05-2.85677E-05-2.85757E-05-1.25070E-09 8.76389E-20-1.28362E-19
 -1      3506 9.52438E-05-2.85628E-05-2.85776E-05-4.59672E-09-3.48274E-19 1.39692E-18
 -1      3507 9.52443E-05-2.85694E-05-2.85749E-05-4.19605E-11-2.17045E-19-5.96136E-19
 -1      3508 9.52440E-05-2.85707E-05-2.85743E-05 1.03523E-09 3.97920E-19-1.08184E-18
 -1      3509 9.52445E-05-2.85678E-05-2.85757E-05-1.38185E-09-5.84116E-19 2.08931E-19
 -1      3510 9.52438E-05-2.85718E-05-2.85737E-05 1.74976E-09 3.38569E-19-1.78021E-18
 -1      3511 9.52434E-05-2.85725E-05-2.85732E-05 2.34189E-09-3.34535E-19-2.73225E-18
 -1      3512 9.52444E-05-2.85709E-05-2.85744E-05 6.57793E-10-7.47601E-19-9.97758E-19
 -1      3513 9.52431E-05-2.85731E-05-2.85728E-05 2.70905E-09-2.80051E-19-3.07135E-18
 -1      3514 9.52426E-05-2.85735E-05-2.85725E-05 2.97276E-09-2.48275E-19-2.61893E-18
 -1      3515 9.52438E-05-2.85727E-05-2.85733E-05 1.84465E-09-3.72927E-19-2.51662E-18
 -1      3516 9.52422E-05-2.85738E-05-2.85722E-05 3.10564E-09-8.92581E-19-1.69982E-18
 -1      3517 9.52419E-05-2.85739E-05-2.85720E-05 3.15697E-09-1.18829E-18-1.57497E-18
 -1      3518 9.52431E-05-2.85737E-05-2.85726E-05 2.43595E-09-4.84511E-20-2.67903E-18
 -1      3519 9.52414E-05-2.85740E-05-2.85717E-05 3.13745E-09-2.23346E-18-1.55343E-18
 -1      3520 9.52411E-05-2.85740E-05-2.85716E-05 3.05025E-09-1.54750E-18-1.58775E-18
 -1      3521 9.52422E-05-2.85742E-05-2.85720E-05 2.62728E-09-1.54858E-18-1.62662E-18
 -1      3522 9.52407E-05-2.85739E-05-2.85714E-05 2.94026E-09-9.24881E-19-1.48167E-18
 -1      3523 9.52403E-05-2.85739E-05-2.85713E-05 2.78499E-09-4.29380E-19-1.93970E-18
 -1      3524 9.52414E-05-2.85742E-05-2.85717E-05 2.56305E-09-1.03053E-18-8.22601E-19
 -1      3525 9.52400E-05-2.85737E-05-2.85712E-05 2.63172E-09-1.15499E-19-1.81529E-18
 -1      3526 9.52397E-05-2.85736E-05-2.85712E-05 2.44430E-09 3.34666E-20-8.33728E-19
 -1      3527 9.52407E-05-2.85741E-05-2.85714E-05 2.35243E-09-3.35180E-19-2.37165E-18
 -1      3528 9.52394E-05-2.85735E-05-2.85711E-05 2.27457E-09 2.69253E-19-1.29474E-19
 -1      3529 9.52392E-05-2.85733E-05-2.85711E-05 2.08031E-09-3.56407E-20 2.82689E-19
 -1      3530 9.52400E-05-2.85738E-05-2.85712E-05 2.07075E-09 8.59932E-19-1.83315E-18
 -1      3531 9.52389E-05-2.85731E-05-2.85710E-05 1.91191E-09-3.30568E-19 4.60335E-19
 -1      3532 9.52387E-05-2.85730E-05-2.85710E-05 1.72620E-09-4.13839E-19 1.87466E-18
 -1      3533 9.52394E-05-2.85735E-05-2.85711E-05 1.76537E-09 4.28236E-19-8.95051E-20
 -1      3534 9.52385E-05-2.85728E-05-2.85710E-05 1.56964E-09-1.01915E-18 1.36346E-18
 -1      3535 9.52384E-05-2.85727E-05-2.85710E-05 1.40108E-09-5.01654E-19 1.73334E-18
 -1      3536 9.52389E-05-2.85731E-05-2.85711E-05 1.46608E-09-8.19370E-19 1.00236E-18
 -1      3537 9.52382E-05-2.85725E-05-2.85710E-05 1.25501E-09 2.05319E-20 9.97368E-19
 -1      3538 9.52381E-05-2.85724E-05-2.85710E-05 1.10147E-09 4.03257E-19 5.87989E-19
 -1      3539 9.52385E-05-2.85728E-05-2.85710E-05 1.18369E-09-5.17097E-19-8.66509E-19
 -1      3540 9.52379E-05-2.85723E-05-2.85710E-05 9.83053E-10 5.66539E-19 3.20866E-20
 -1      3541 9.52378E-05-2.85721E-05-2.85710E-05 8.59143E-10-3.61145E-19-2.34521E-19
 -1      3542 9.52382E-05-2.85725E-05-2.85710E-05 9.35677E-10-5.93507E-20-1.60637E-18
 -1      3543 9.52377E-05-2.85720E-05-2.85710E-05 7.60148E-10-1.04015E-19 4.60516E-20
 -1      3544 9.52376E-05-2.85719E-05-2.85710E-05 6.57588E-10 2.96086E-19 1.31380E-19
 -1      3545 9.52379E-05-2.85722E-05-2.85710E-05 7.29582E-10-3.06523E-19-1.87229E-18
 -1      3546 9.52376E-05-2.85718E-05-2.85710E-05 5.76609E-10 6.92814E-19 7.49353E-19
 -1      3547 9.52375E-05-2.85718E-05-2.85710E-05 4.94457E-10 1.12321E-18 1.20673E-18
 -1      3548 9.52377E-05-2.85720E-05-2.85710E-05 5.58322E-10 9.54940E-19-1.20484E-18
 -1      3549 9.52375E-05-2.85717E-05-2.85710E-05 4.43625E-10 5.40901E-19 1.19658E-18
 -1      3550 9.52374E-05-2.85717E-05-2.85710E-05 3.81469E-10 6.37482E-20 2.12959E-19
 -1      3551 9.52375E-05-2.85717E-05-2.85710E-05 3.36769E-10 1.51755E-18-2.82468E-18
 -1      3552 9.52376E-05-2.85718E-05-2.85710E-05 4.30540E-10 8.90749E-19-1.25445E-18
 -1      3553 9.78656E-05-3.10535E-05-2.86202E-05 7.77132E-07-1.11674E-19-1.31728E-18
 -1      3554 9.84649E-05-3.15973E-05-2.86540E-05 6.85690E-07-1.16271E-19-1.31479E-18
 -1      3555 8.75466E-05-2.21177E-05-2.80930E-05 3.00023E-06 4.37413E-20 1.98783E-19
 -1      3556 8.90894E-05-2.30919E-05-2.82804E-05 2.24095E-06 1.57049E-19 3.88163E-19
 -1      3557 9.54809E-05-2.87984E-05-2.85767E-05 3.93556E-07-3.70868E-19-1.14220E-19
 -1      3558 9.55970E-05-2.89184E-05-2.85737E-05 4.29076E-07-1.47381E-19 1.36248E-19
 -1      3559 9.57441E-05-2.90703E-05-2.85715E-05 5.08885E-07-1.60686E-19-9.87346E-20
 -1      3560 9.59333E-05-2.92620E-05-2.85697E-05 5.40669E-07-2.81404E-19-3.19249E-19
 -1      3561 9.56178E-05-2.89558E-05-2.85748E-05 5.96028E-07-3.74013E-19-1.93405E-19
 -1      3562 9.52519E-05-2.85520E-05-2.85855E-05 2.16642E-07-1.25416E-18 1.28548E-20
 -1      3563 9.52880E-05-2.85890E-05-2.85838E-05 2.45433E-07-1.14288E-18-8.80050E-20
 -1      3564 9.52159E-05-2.85123E-05-2.85873E-05 1.55537E-07-9.44204E-19 5.20898E-20
 -1      3565 9.52331E-05-2.85287E-05-2.85866E-05 1.79195E-07-9.81570E-19 8.70170E-20
 -1      3566 9.52173E-05-2.85161E-05-2.85872E-05 2.16198E-07-1.27912E-18-5.77476E-19
 -1      3567 9.52040E-05-2.85001E-05-2.85876E-05 1.09352E-07 5.73402E-19-2.66998E-19
 -1      3568 9.52105E-05-2.85046E-05-2.85876E-05 1.28115E-07-3.01124E-19 1.86511E-19
 -1      3569 9.51951E-05-2.84896E-05-2.85885E-05 1.48755E-07-4.01714E-19-4.90745E-19
 -1      3570 9.52045E-05-2.85029E-05-2.85866E-05 7.51297E-08-9.63621E-19-8.44398E-21
 -1      3571 9.52054E-05-2.85009E-05-2.85872E-05 8.96337E-08-1.45144E-19-2.68316E-19
 -1      3572 9.51921E-05-2.84864E-05-2.85884E-05 1.00620E-07-1.03152E-20-5.03390E-19
 -1      3573 9.52104E-05-2.85126E-05-2.85850E-05 5.01654E-08-3.37307E-19 1.35350E-19
 -1      3574 9.52086E-05-2.85077E-05-2.85858E-05 6.11351E-08-8.69874E-19 1.62580E-19
 -1      3575 9.51981E-05-2.84949E-05-2.85872E-05 6.66906E-08-8.95441E-19 3.11814E-19
 -1      3576 9.52177E-05-2.85245E-05-2.85830E-05 3.22319E-08 1.26905E-18 4.52107E-19
 -1      3577 9.52152E-05-2.85188E-05-2.85840E-05 4.03582E-08 5.42617E-19 3.77502E-19
 -1      3578 9.52073E-05-2.85082E-05-2.85853E-05 4.30204E-08 6.66569E-20 5.15013E-19
 -1      3579 9.52247E-05-2.85362E-05-2.85809E-05 1.95647E-08 4.46869E-19 1.47047E-18
 -1      3580 9.52222E-05-2.85308E-05-2.85819E-05 2.54548E-08 1.28673E-18 1.09048E-18
 -1      3581 9.52167E-05-2.85224E-05-2.85832E-05 2.66816E-08 1.13566E-18 1.40268E-18
 -1      3582 9.52304E-05-2.85464E-05-2.85789E-05 1.07957E-08-2.63852E-19 2.02835E-18
 -1      3583 9.52283E-05-2.85417E-05-2.85799E-05 1.49615E-08 1.78901E-19 1.85640E-18
 -1      3584 9.52248E-05-2.85354E-05-2.85811E-05 1.55458E-08-2.17442E-19 2.43856E-18
 -1      3585 9.52347E-05-2.85547E-05-2.85772E-05 4.88117E-09-5.03782E-19 1.91449E-18
 -1      3586 9.52331E-05-2.85509E-05-2.85780E-05 7.74024E-09 1.86555E-19 1.71657E-18
 -1      3587 9.52310E-05-2.85463E-05-2.85791E-05 8.08145E-09 2.12909E-19 2.67038E-18
 -1      3588 9.52376E-05-2.85610E-05-2.85757E-05 1.03198E-09-9.08040E-19 8.33677E-19
 -1      3589 9.52365E-05-2.85582E-05-2.85764E-05 2.91903E-09-5.06113E-19 1.04546E-18
 -1      3590 9.52355E-05-2.85550E-05-2.85773E-05 3.19708E-09-1.21038E-19 2.03646E-18
 -1      3591 9.52394E-05-2.85657E-05-2.85745E-05-1.34501E-09-3.77680E-19 6.43482E-20
 -1      3592 9.52387E-05-2.85636E-05-2.85750E-05-1.66483E-10-9.54849E-19 5.20275E-21
 -1      3593 9.52385E-05-2.85615E-05-2.85759E-05 1.13751E-10 4.89689E-20 5.55572E-19
 -1      3594 9.52404E-05-2.85689E-05-2.85735E-05-2.69203E-09-6.40952E-19-9.65282E-21
 -1      3595 9.52401E-05-2.85675E-05-2.85739E-05-2.01799E-09-8.56806E-19-3.79306E-19
 -1      3596 9.52403E-05-2.85662E-05-2.85746E-05-1.72454E-09-6.55483E-19 2.10579E-19
 -1      3597 9.52408E-05-2.85710E-05-2.85728E-05-3.33599E-09 1.28299E-18 2.70092E-19
 -1      3598 9.52407E-05-2.85701E-05-2.85731E-05-3.01100E-09 2.87720E-19 1.36092E-19
 -1      3599 9.52412E-05-2.85694E-05-2.85736E-05-2.71461E-09-1.28957E-19-7.14747E-19
 -1      3600 9.52408E-05-2.85723E-05-2.85722E-05-3.51601E-09 2.21810E-18-2.94846E-19
 -1      3601 9.52408E-05-2.85718E-05-2.85724E-05-3.42375E-09 2.02943E-18 1.92861E-19
 -1      3602 9.52415E-05-2.85715E-05-2.85729E-05-3.13940E-09 1.44221E-18-7.22522E-19
 -1      3603 9.52405E-05-2.85730E-05-2.85718E-05-3.40445E-09-2.46053E-18 5.54220E-19
 -1      3604 9.52406E-05-2.85727E-05-2.85720E-05-3.45959E-09 8.47541E-20-6.59900E-20
 -1      3605 9.52414E-05-2.85727E-05-2.85723E-05-3.19990E-09 8.11948E-19-4.97222E-19
 -1      3606 9.52401E-05-2.85733E-05-2.85715E-05-3.12336E-09-2.17414E-18 9.44953E-19
 -1      3607 9.52403E-05-2.85732E-05-2.85716E-05-3.26471E-09-2.61630E-18 1.80797E-19
 -1      3608 9.52410E-05-2.85734E-05-2.85719E-05-3.03756E-09-2.16836E-18-5.16194E-19
 -1      3609 9.52397E-05-2.85734E-05-2.85713E-05-2.75709E-09-2.51131E-19 1.49288E-18
 -1      3610 9.52399E-05-2.85734E-05-2.85714E-05-2.94199E-09-1.70743E-18 1.06287E-18
 -1      3611 9.52406E-05-2.85736E-05-2.85716E-05-2.75069E-09-2.14046E-18 1.88592E-19
 -1      3612 9.52393E-05-2.85732E-05-2.85712E-05-2.36202E-09 3.84881E-19 9.92813E-19
 -1      3613 9.52395E-05-2.85733E-05-2.85712E-05-2.56179E-09 5.87264E-19 9.80495E-19
 -1      3614 9.52401E-05-2.85736E-05-2.85713E-05-2.40604E-09 3.04345E-19 1.85044E-18
 -1      3615 9.52389E-05-2.85730E-05-2.85711E-05-1.97416E-09 7.31131E-19 2.32672E-18
 -1      3616 9.52390E-05-2.85731E-05-2.85711E-05-2.17040E-09 8.78058E-19 1.82851E-18
 -1      3617 9.52395E-05-2.85734E-05-2.85712E-05-2.04750E-09 2.26588E-19 8.83468E-19
 -1      3618 9.52385E-05-2.85728E-05-2.85710E-05-1.61496E-09 1.46800E-18 9.62347E-19
 -1      3619 9.52387E-05-2.85729E-05-2.85710E-05-1.79669E-09 1.78552E-18 2.18601E-18
 -1      3620 9.52391E-05-2.85732E-05-2.85711E-05-1.70258E-09 8.20819E-19 2.01475E-18
 -1      3621 9.52382E-05-2.85725E-05-2.85710E-05-1.29558E-09 8.14044E-19 9.31571E-19
 -1      3622 9.52383E-05-2.85726E-05-2.85710E-05-1.45709E-09 9.99258E-19 5.57062E-19
 -1      3623 9.52387E-05-2.85729E-05-2.85711E-05-1.38723E-09 1.31074E-18 6.65967E-19
 -1      3624 9.52380E-05-2.85723E-05-2.85710E-05-1.02044E-09-2.21518E-18 7.88459E-19
 -1      3625 9.52381E-05-2.85724E-05-2.85710E-05-1.15947E-09 3.62683E-21 8.65942E-19
 -1      3626 9.52383E-05-2.85726E-05-2.85710E-05-1.10927E-09-1.04029E-19 5.72036E-19
 -1      3627 9.52377E-05-2.85721E-05-2.85710E-05-7.89218E-10-2.86803E-18 6.48681E-19
 -1      3628 9.52378E-05-2.85722E-05-2.85710E-05-9.05952E-10-3.64133E-18 1.15785E-19
 -1      3629 9.52380E-05-2.85723E-05-2.85710E-05-8.71279E-10-2.78556E-18 2.71206E-20
 -1      3630 9.52376E-05-2.85719E-05-2.85710E-05-6.00178E-10-1.92419E-18 4.85334E-19
 -1      3631 9.52376E-05-2.85719E-05-2.85710E-05-6.95522E-10-8.20859E-19 1.02363E-18
 -1      3632 9.52378E-05-2.85721E-05-2.85710E-05-6.72609E-10-2.37495E-18 7.42882E-19
 -1      3633 9.52373E-05-2.85716E-05-2.85710E-05-4.33251E-10-1.29661E-18 5.79720E-19
 -1      3634 1.04936E-04-3.39030E-05-3.04461E-05-6.90020E-06-6.40664E-20-2.19661E-18
 -1      3635 1.04910E-04-3.29399E-05-3.08414E-05-7.47112E-06 1.28331E-19-2.34433E-18
 -1      3636 1.07274E-04-3.31849E-05-3.17333E-05-7.47041E-06 9.73281E-20-2.28752E-18
 -1      3637 1.06648E-04-3.51941E-05-3.06208E-05-5.75160E-06-1.87409E-19-2.14530E-18
 -1      3638 9.61778E-05-2.95011E-05-2.85705E-05 6.31596E-07-6.46095E-19-6.43172E-19
 -1      3639 9.64704E-05-2.97898E-05-2.85730E-05 6.47937E-07-8.72764E-19-1.02751E-18
 -1      3640 9.59979E-05-2.93468E-05-2.85732E-05 7.96097E-07-6.81074E-19-7.04752E-19
 -1      3641 9.53307E-05-2.86382E-05-2.85818E-05 2.95427E-07-1.10248E-18-5.17407E-20
 -1      3642 9.53979E-05-2.87081E-05-2.85792E-05 3.28780E-07-5.17124E-19-4.38233E-19
 -1      3643 9.53958E-05-2.87176E-05-2.85796E-05 4.33765E-07-2.69036E-19-6.01459E-19
 -1      3644 9.52755E-05-2.85834E-05-2.85842E-05 3.08962E-07-9.51587E-19-4.20838E-19
 -1      3645 9.00747E-05-2.38694E-05-2.84110E-05 1.44554E-06-4.48372E-19 7.14928E-20
 -1      3646 9.11733E-05-2.46570E-05-2.85065E-05 1.02741E-06-1.18211E-18-3.62779E-19
 -1      3647 9.17474E-05-2.52154E-05-2.84919E-05 1.53556E-06-8.87463E-19-6.97873E-19
 -1      3648 9.01132E-05-2.40239E-05-2.82970E-05 2.93198E-06-4.90789E-19-3.08163E-19
 -1      3649 1.09904E-04-2.39523E-05-3.68665E-05-6.27598E-06 3.79444E-19-3.32976E-18
 -1      3650 9.11396E-05-2.96758E-05-2.64438E-05 2.26613E-05-2.81725E-18 8.38880E-19
 -1      3651 8.38741E-05-2.39383E-05-2.56952E-05 2.07440E-05-2.31252E-18 9.99843E-19
 -1      3652 8.59546E-05-2.37959E-05-2.65200E-05 1.67930E-05-1.79889E-18 4.98373E-19
 -1      3653 1.05774E-04-3.95636E-05-2.85100E-05 1.95603E-05-3.38211E-18-9.24093E-19
 -1      3654 9.78847E-05-3.42083E-05-2.72111E-05 2.21038E-05-3.16447E-18 1.54355E-19
 -1      3655 9.67370E-05-3.22373E-05-2.75281E-05 1.86004E-05-2.42257E-18-6.16489E-20
 -1      3656 1.06447E-04-2.39782E-05-3.53451E-05-6.52315E-06 5.06390E-19-3.11475E-18
 -1      3657 9.68561E-05-3.01452E-05-2.85816E-05 7.37514E-07-7.58500E-19-8.61162E-19
 -1      3658 9.72867E-05-3.05555E-05-2.85946E-05 7.17258E-07-3.72971E-19-9.87513E-19
 -1      3659 9.75578E-05-3.08307E-05-2.86157E-05 1.24296E-06-4.90447E-19-8.94660E-19
 -1      3660 1.09343E-04-2.71585E-05-3.52805E-05-7.72241E-06 2.08641E-19-3.14870E-18
 -1      3661 1.20864E-04-4.43512E-05-3.27633E-05 4.89314E-06-2.01789E-18-2.70298E-18
 -1      3662 1.16876E-04-4.35235E-05-3.14765E-05 7.21229E-06-2.02565E-18-1.95194E-18
 -1      3663 1.19121E-04-4.15469E-05-3.32492E-05 3.27071E-07-1.36463E-18-2.38337E-18
 -1      3664 8.31219E-05-2.06151E-05-2.67321E-05 1.20853E-05-9.52439E-19 1.74434E-19
 -1      3665 8.04697E-05-1.82057E-05-2.67696E-05 8.20503E-06-5.55215E-19 2.48043E-19
 -1      3666 8.32247E-05-1.95069E-05-2.72954E-05 6.66513E-06-4.31166E-19 6.51818E-20
 -1      3667 9.52376E-05-2.85718E-05-2.85710E-05 3.22245E-10 1.25175E-18-2.09700E-18
 -1      3668 9.52375E-05-2.85718E-05-2.85710E-05 2.80026E-10 1.85772E-18-1.89996E-18
 -1      3669 9.52376E-05-2.85718E-05-2.85710E-05 2.29260E-10 1.53932E-18-1.28144E-18
 -1      3670 9.52374E-05-2.85716E-05-2.85710E-05-4.01251E-10-1.74437E-18-3.83528E-20
 -1      3671 9.66125E-05-2.99503E-05-2.85822E-05 1.02315E-06-8.55536E-19-9.42840E-19
 -1      3672 9.92897E-05-3.22505E-05-2.87110E-05 6.70759E-07-4.81452E-19-1.06200E-18
 -1      3673 1.00078E-04-3.29212E-05-2.87813E-05 4.58193E-07-3.75960E-19-1.18248E-18
 -1      3674 9.89390E-05-3.20366E-05-2.86977E-05 1.38559E-06-2.54393E-19-9.83701E-19
 -1      3675 1.13656E-04-3.02485E-05-3.56955E-05-7.64001E-06-4.45486E-20-3.32213E-18
 -1      3676 1.18079E-04-3.41889E-05-3.60511E-05-6.31009E-06-3.69505E-19-3.38284E-18
 -1      3677 1.17699E-04-3.69076E-05-3.46477E-05-4.55727E-06-7.28604E-19-2.81469E-18
 -1      3678 9.52375E-05-2.85718E-05-2.85710E-05-5.43900E-10-2.02511E-18-2.69159E-19
 -1      3679 9.52377E-05-2.85719E-05-2.85710E-05-5.29668E-10-1.39349E-18-7.51654E-19
 -1      3680 9.52375E-05-2.85717E-05-2.85710E-05-4.83896E-10-1.39897E-18 1.31649E-19
 -1      3681 1.12364E-04-4.22172E-05-3.01477E-05 1.17926E-05-2.60686E-18-1.10571E-18
 -1      3682 1.09611E-04-4.11512E-05-2.92455E-05 1.61584E-05-3.18598E-18-8.38174E-19
 -1      3683 1.06020E-04-3.85488E-05-2.89013E-05 1.49973E-05-2.61718E-18-4.08366E-19
 -1      3684 9.52377E-05-2.85719E-05-2.85711E-05 4.04598E-11-9.48843E-19 1.27542E-18
 -1      3685 9.52377E-05-2.85719E-05-2.85711E-05-3.82079E-11-1.05822E-18-1.57389E-19
 -1      3686 1.10103E-04-3.00456E-05-3.43220E-05-7.51376E-06 2.12420E-21-3.08727E-18
 -1      3687 8.45012E-05-2.02526E-05-2.76007E-05 5.07127E-06-7.22600E-20 1.85879E-19
 -1      3688 8.64966E-05-2.13821E-05-2.79020E-05 4.07338E-06 1.44738E-19 4.39531E-20
 -1      3689 8.81427E-05-2.27718E-05-2.79796E-05 5.00092E-06-5.27139E-20 3.15703E-19
 -1      3690 8.59483E-05-2.16628E-05-2.75080E-05 7.88568E-06-6.15935E-20 5.74980E-19
 -1      3691 1.06027E-04-3.64665E-05-2.97827E-05-1.98151E-06-7.34191E-19-1.94728E-18
 -1      3692 1.06982E-04-3.67088E-05-3.01328E-05-2.83799E-06-4.41070E-19-1.96408E-18
 -1      3693 9.52377E-05-2.85720E-05-2.85710E-05-9.62827E-11-2.26570E-19-2.34631E-18
 -1      3694 9.52377E-05-2.85719E-05-2.85711E-05-1.31660E-10-1.22481E-18-3.85038E-18
 -1      3695 9.52376E-05-2.85718E-05-2.85711E-05-2.04071E-10-1.06444E-18-3.62773E-18
 -1      3696 1.03500E-04-3.52318E-05-2.92259E-05-5.63836E-07-1.18566E-18-1.66382E-18
 -1      3697 1.04534E-04-3.58457E-05-2.94491E-05-1.19423E-06-1.07265E-18-1.95825E-18
 -1      3698 1.06181E-04-3.69031E-05-2.97280E-05-2.67583E-07-9.26006E-19-1.64936E-18
 -1      3699 1.10732E-04-3.25987E-05-3.35129E-05-7.60653E-06-1.76595E-20-2.93535E-18
 -1      3700 9.36270E-05-2.69080E-05-2.86065E-05 6.48388E-07-5.60015E-19-2.24268E-19
 -1      3701 9.39574E-05-2.71736E-05-2.86197E-05 4.70899E-07-7.20982E-19-3.22376E-19
 -1      3702 9.41626E-05-2.73809E-05-2.86288E-05 2.91148E-07-1.03230E-18-5.66758E-19
 -1      3703 9.43854E-05-2.75763E-05-2.86319E-05 1.98577E-07-1.05147E-18-5.41003E-19
 -1      3704 9.41591E-05-2.73929E-05-2.86086E-05 5.96226E-07-9.45438E-19-6.83643E-19
 -1      3705 9.45323E-05-2.77312E-05-2.86341E-05 9.67956E-08-1.10604E-18-7.07167E-19
 -1      3706 9.46796E-05-2.78714E-05-2.86321E-05 5.33261E-08-1.49054E-18-1.31967E-18
 -1      3707 9.45021E-05-2.77109E-05-2.86209E-05 2.92045E-07-1.49770E-18-7.85902E-19
 -1      3708 9.47824E-05-2.79845E-05-2.86307E-05-5.64348E-10-1.41160E-18-8.38123E-19
 -1      3709 9.48788E-05-2.80839E-05-2.86266E-05-1.68604E-08-1.48145E-18-8.10369E-19
 -1      3710 9.47448E-05-2.79515E-05-2.86228E-05 1.21267E-07-1.12308E-18-2.78287E-19
 -1      3711 9.49521E-05-2.81685E-05-2.86234E-05-4.39756E-08-2.11919E-18-7.84372E-19
 -1      3712 9.50162E-05-2.82406E-05-2.86184E-05-4.60039E-08-2.12268E-18-8.28155E-19
 -1      3713 9.49168E-05-2.81349E-05-2.86191E-05 2.98638E-08-2.01129E-18 1.78231E-19
 -1      3714 9.50629E-05-2.82973E-05-2.86148E-05-5.59506E-08-1.12585E-18-5.72930E-19
 -1      3715 9.51013E-05-2.83447E-05-2.86103E-05-5.13364E-08-9.68721E-19-2.46164E-19
 -1      3716 9.50332E-05-2.82666E-05-2.86130E-05-1.31326E-08-1.22922E-18 5.13389E-19
 -1      3717 9.51325E-05-2.83845E-05-2.86068E-05-5.33645E-08-1.20246E-18-2.33453E-19
 -1      3718 9.51566E-05-2.84174E-05-2.86028E-05-4.64826E-08-9.20497E-19-3.59271E-19
 -1      3719 9.51093E-05-2.83592E-05-2.86064E-05-2.88678E-08-1.01587E-18-2.60238E-19
 -1      3720 9.51772E-05-2.84453E-05-2.85996E-05-4.47556E-08-1.96388E-19-2.85835E-19
 -1      3721 9.51921E-05-2.84681E-05-2.85962E-05-3.77164E-08 5.97211E-19-2.66392E-20
 -1      3722 9.51599E-05-2.84253E-05-2.86000E-05-3.13896E-08-2.45012E-19 2.69192E-19
 -1      3723 9.52054E-05-2.84875E-05-2.85935E-05-3.45673E-08 2.84480E-19-5.59729E-19
 -1      3724 9.52144E-05-2.85032E-05-2.85907E-05-2.83332E-08-1.05087E-19 6.87584E-20
 -1      3725 9.51931E-05-2.84722E-05-2.85943E-05-2.77985E-08 5.38566E-19-2.63551E-19
 -1      3726 9.52230E-05-2.85167E-05-2.85884E-05-2.49791E-08-5.35854E-19-1.07065E-19
 -1      3727 9.52283E-05-2.85275E-05-2.85862E-05-1.98846E-08-5.58690E-19-2.92695E-19
 -1      3728 9.52145E-05-2.85053E-05-2.85894E-05-2.20101E-08-3.82686E-19-1.07331E-18
 -1      3729 9.52338E-05-2.85372E-05-2.85842E-05-1.67457E-08-1.35835E-19 2.87255E-19
 -1      3730 9.52368E-05-2.85448E-05-2.85824E-05-1.26851E-08 1.02552E-18 6.88236E-19
 -1      3731 9.52283E-05-2.85290E-05-2.85853E-05-1.59090E-08 1.14055E-20-3.04253E-19
 -1      3732 9.52399E-05-2.85511E-05-2.85809E-05-1.03267E-08 8.76607E-19 8.36740E-19
 -1      3733 9.52414E-05-2.85559E-05-2.85795E-05-7.49650E-09 3.45880E-19 1.15208E-18
 -1      3734 9.52366E-05-2.85454E-05-2.85819E-05-1.05920E-08 1.03064E-18 5.50847E-19
 -1      3735 9.52430E-05-2.85601E-05-2.85784E-05-5.72350E-09-1.99630E-19 4.66995E-19
 -1      3736 9.52436E-05-2.85633E-05-2.85773E-05-3.74328E-09-2.89321E-19 4.01318E-19
 -1      3737 9.52412E-05-2.85563E-05-2.85792E-05-6.48830E-09-2.28031E-19 1.29782E-19
 -1      3738 9.52444E-05-2.85661E-05-2.85764E-05-2.49630E-09-1.14874E-18 4.73843E-19
 -1      3739 9.52445E-05-2.85682E-05-2.85756E-05-1.17804E-09-1.08782E-18-4.39613E-19
 -1      3740 9.52436E-05-2.85636E-05-2.85771E-05-3.44046E-09-9.96643E-19-4.00344E-19
 -1      3741 9.52447E-05-2.85699E-05-2.85749E-05-3.56279E-10-9.17174E-19-4.91600E-19
 -1      3742 9.52445E-05-2.85712E-05-2.85743E-05 4.67155E-10-8.77213E-19-6.42552E-19
 -1      3743 9.52446E-05-2.85684E-05-2.85755E-05-1.31093E-09-1.05778E-18 6.38589E-19
 -1      3744 9.52444E-05-2.85722E-05-2.85738E-05 9.65477E-10-7.33663E-19-1.33794E-18
 -1      3745 9.52441E-05-2.85730E-05-2.85733E-05 1.43300E-09-6.03794E-19-2.15538E-18
 -1      3746 9.52446E-05-2.85714E-05-2.85743E-05 8.36773E-11-1.17557E-18-7.18708E-19
 -1      3747 9.52438E-05-2.85736E-05-2.85729E-05 1.69773E-09-5.27789E-21-2.00590E-18
 -1      3748 9.52433E-05-2.85739E-05-2.85726E-05 1.92001E-09-2.52742E-20-1.70741E-18
 -1      3749 9.52442E-05-2.85732E-05-2.85733E-05 9.24293E-10-3.43828E-19-1.22799E-18
 -1      3750 9.52429E-05-2.85742E-05-2.85723E-05 2.02785E-09-1.01191E-18-1.84962E-18
 -1      3751 9.52425E-05-2.85743E-05-2.85721E-05 2.08506E-09-2.02543E-18-8.69226E-19
 -1      3752 9.52435E-05-2.85741E-05-2.85726E-05 1.37039E-09-2.90362E-19-1.26163E-18
 -1      3753 9.52421E-05-2.85744E-05-2.85718E-05 2.07961E-09-1.58335E-18 6.26915E-19
 -1      3754 9.52417E-05-2.85744E-05-2.85717E-05 2.03361E-09-1.06922E-18 4.89703E-19
 -1      3755 9.52426E-05-2.85745E-05-2.85721E-05 1.54122E-09-9.09958E-19 2.00101E-19
 -1      3756 9.52412E-05-2.85743E-05-2.85715E-05 1.96900E-09-1.37132E-18 5.53703E-19
 -1      3757 9.52409E-05-2.85742E-05-2.85714E-05 1.86698E-09-1.28611E-19 1.11106E-19
 -1      3758 9.52418E-05-2.85745E-05-2.85717E-05 1.53108E-09-1.12605E-18 1.36628E-18
 -1      3759 9.52405E-05-2.85740E-05-2.85713E-05 1.77063E-09 1.06936E-18-6.20537E-19
 -1      3760 9.52402E-05-2.85739E-05-2.85713E-05 1.64226E-09 1.17385E-18-1.36075E-19
 -1      3761 9.52410E-05-2.85743E-05-2.85715E-05 1.42016E-09-9.35304E-20 1.53658E-18
 -1      3762 9.52398E-05-2.85737E-05-2.85712E-05 1.53361E-09 1.84783E-19-6.31663E-19
 -1      3763 9.52396E-05-2.85735E-05-2.85712E-05 1.39814E-09 4.24483E-20-5.89831E-19
 -1      3764 9.52403E-05-2.85739E-05-2.85713E-05 1.25700E-09 4.49456E-19-5.09985E-20
 -1      3765 9.52393E-05-2.85733E-05-2.85711E-05 1.28955E-09-3.89566E-19-8.39706E-19
 -1      3766 9.52390E-05-2.85732E-05-2.85711E-05 1.15888E-09-7.56999E-19-1.11163E-18
 -1      3767 9.52396E-05-2.85736E-05-2.85712E-05 1.07421E-09-1.94825E-19-2.72424E-18
 -1      3768 9.52388E-05-2.85730E-05-2.85711E-05 1.05255E-09-1.20777E-18-4.38057E-20
 -1      3769 9.52386E-05-2.85728E-05-2.85710E-05 9.28295E-10-3.88495E-19-2.81314E-19
 -1      3770 9.52391E-05-2.85732E-05-2.85711E-05 8.87528E-10-2.11534E-19-1.18718E-18
 -1      3771 9.52384E-05-2.85726E-05-2.85710E-05 8.39124E-10-1.00265E-18-2.41385E-19
 -1      3772 9.52382E-05-2.85725E-05-2.85710E-05 7.35708E-10-8.00630E-19-8.84210E-19
 -1      3773 9.52386E-05-2.85728E-05-2.85711E-05 7.15520E-10-7.81613E-19 8.31777E-19
 -1      3774 9.52381E-05-2.85723E-05-2.85710E-05 6.59515E-10-1.62058E-19-1.68788E-18
 -1      3775 9.52379E-05-2.85722E-05-2.85710E-05 5.71848E-10 7.30328E-20-1.45672E-18
 -1      3776 9.52383E-05-2.85725E-05-2.85710E-05 5.67596E-10-3.39504E-19 2.56202E-19
 -1      3777 9.52378E-05-2.85721E-05-2.85710E-05 5.08441E-10 3.32341E-19-2.11512E-18
 -1      3778 9.52377E-05-2.85720E-05-2.85710E-05 4.37059E-10 1.12313E-18-1.71665E-18
 -1      3779 9.52380E-05-2.85722E-05-2.85710E-05 4.41290E-10 1.32224E-20-1.12842E-18
 -1      3780 9.52377E-05-2.85719E-05-2.85710E-05 4.02937E-10 1.96289E-18-1.86471E-18
 -1      3781 9.52376E-05-2.85719E-05-2.85710E-05 3.52237E-10 8.03467E-19-1.81671E-18
 -1      3782 9.52377E-05-2.85719E-05-2.85710E-05 2.90903E-10 1.00331E-18 2.85253E-19
 -1      3783 9.52378E-05-2.85720E-05-2.85710E-05 3.51601E-10 1.54218E-18-1.72248E-18
 -1      3784 1.10431E-04-3.43323E-05-3.26340E-05-6.62609E-06-1.17736E-19-2.62966E-18
 -1      3785 1.13978E-04-3.52418E-05-3.37120E-05-6.13634E-06-4.83971E-19-3.01858E-18
 -1      3786 1.17392E-04-3.87869E-05-3.36710E-05-3.53437E-06-1.07564E-18-2.55536E-18
 -1      3787 1.10443E-04-3.58682E-05-3.19497E-05-5.93990E-06-2.33979E-19-2.42127E-18
 -1      3788 9.51713E-05-2.84617E-05-2.85903E-05 1.34726E-07-2.60920E-19-9.33532E-19
 -1      3789 9.51767E-05-2.84638E-05-2.85901E-05 1.63691E-07-4.03189E-19-7.93341E-19
 -1      3790 9.51761E-05-2.84680E-05-2.85897E-05 2.05224E-07-1.04665E-18-1.10123E-18
 -1      3791 9.51948E-05-2.84839E-05-2.85887E-05 2.46298E-07-1.23939E-18-1.09937E-18
 -1      3792 9.51486E-05-2.84356E-05-2.85917E-05 1.88532E-07-1.00259E-18-1.17212E-18
 -1      3793 9.51916E-05-2.84873E-05-2.85879E-05 5.50031E-08-7.45605E-19 2.57545E-19
 -1      3794 9.51875E-05-2.84795E-05-2.85887E-05 6.89843E-08-6.76115E-19 6.78335E-19
 -1      3795 9.52046E-05-2.85051E-05-2.85858E-05 3.37447E-08 5.59897E-19 3.65580E-19
 -1      3796 9.51998E-05-2.84967E-05-2.85868E-05 4.33391E-08-1.94376E-19 1.31364E-19
 -1      3797 9.51893E-05-2.84828E-05-2.85884E-05 4.44789E-08-2.26764E-19-1.92111E-20
 -1      3798 9.52161E-05-2.85217E-05-2.85835E-05 1.97564E-08-1.71574E-19 1.39191E-18
 -1      3799 9.52116E-05-2.85140E-05-2.85846E-05 2.62824E-08 5.84869E-19 6.90455E-19
 -1      3800 9.52045E-05-2.85035E-05-2.85860E-05 2.59123E-08-1.53726E-19 4.39147E-19
 -1      3801 9.52252E-05-2.85360E-05-2.85812E-05 1.06611E-08-1.21452E-20 1.75451E-18
 -1      3802 9.52216E-05-2.85294E-05-2.85823E-05 1.50484E-08-4.18180E-19 1.32648E-18
 -1      3803 9.52170E-05-2.85217E-05-2.85836E-05 1.42326E-08-5.77004E-19 9.67473E-19
 -1      3804 9.52319E-05-2.85474E-05-2.85792E-05 4.84133E-09 2.54204E-19 1.58264E-18
 -1      3805 9.52292E-05-2.85422E-05-2.85801E-05 7.74063E-09 4.40841E-19 1.67152E-18
 -1      3806 9.52265E-05-2.85366E-05-2.85813E-05 6.98336E-09-4.62797E-20 1.09502E-19
 -1      3807 9.52366E-05-2.85562E-05-2.85774E-05 1.21391E-09 5.89042E-19 4.16075E-19
 -1      3808 9.52347E-05-2.85522E-05-2.85782E-05 3.08073E-09 6.49710E-19 1.33376E-18
 -1      3809 9.52333E-05-2.85483E-05-2.85792E-05 2.56791E-09 8.22142E-19 6.67815E-20
 -1      3810 9.52396E-05-2.85626E-05-2.85759E-05-9.54024E-10-4.42582E-19 6.54413E-19
 -1      3811 9.52384E-05-2.85597E-05-2.85766E-05 1.99902E-10-1.50377E-19 9.14337E-19
 -1      3812 9.52378E-05-2.85571E-05-2.85774E-05-3.80913E-11-1.63165E-19 3.46702E-19
 -1      3813 9.52413E-05-2.85672E-05-2.85746E-05-2.15668E-09 1.25124E-20 7.01112E-19
 -1      3814 9.52406E-05-2.85651E-05-2.85752E-05-1.49066E-09-2.15578E-19 8.88916E-19
 -1      3815 9.52406E-05-2.85635E-05-2.85759E-05-1.49624E-09-3.27515E-19 1.03836E-18
 -1      3816 9.52420E-05-2.85702E-05-2.85737E-05-2.72880E-09 5.95061E-19-9.34043E-19
 -1      3817 9.52418E-05-2.85688E-05-2.85741E-05-2.39173E-09 4.90681E-19 5.65810E-20
 -1      3818 9.52421E-05-2.85679E-05-2.85746E-05-2.23030E-09 6.13156E-19 3.58994E-19
 -1      3819 9.52422E-05-2.85721E-05-2.85729E-05-2.89802E-09 1.51375E-18-7.74389E-19
 -1      3820 9.52422E-05-2.85713E-05-2.85732E-05-2.77750E-09 1.19916E-18-8.11860E-19
 -1      3821 9.52427E-05-2.85708E-05-2.85737E-05-2.51331E-09 8.79349E-19-1.18915E-18
 -1      3822 9.52420E-05-2.85732E-05-2.85723E-05-2.81945E-09-2.39629E-19 3.97184E-19
 -1      3823 9.52421E-05-2.85727E-05-2.85726E-05-2.83623E-09 1.14721E-18 3.49154E-20
 -1      3824 9.52427E-05-2.85726E-05-2.85729E-05-2.52206E-09 5.57693E-19 5.73504E-19
 -1      3825 9.52415E-05-2.85737E-05-2.85719E-05-2.59806E-09-2.11600E-18 4.01661E-19
 -1      3826 9.52417E-05-2.85735E-05-2.85721E-05-2.69659E-09-1.72285E-18 6.05547E-19
 -1      3827 9.52423E-05-2.85735E-05-2.85723E-05-2.37154E-09-1.20839E-18 1.11505E-18
 -1      3828 9.52409E-05-2.85739E-05-2.85716E-05-2.30454E-09-2.18241E-18 1.47459E-18
 -1      3829 9.52412E-05-2.85738E-05-2.85717E-05-2.44661E-09-2.45972E-18 1.15008E-18
 -1      3830 9.52418E-05-2.85740E-05-2.85719E-05-2.13654E-09-2.19371E-18 2.15628E-18
 -1      3831 9.52403E-05-2.85738E-05-2.85714E-05-1.98524E-09 4.96940E-19 1.14965E-18
 -1      3832 9.52406E-05-2.85738E-05-2.85715E-05-2.14513E-09-6.82663E-19 1.12255E-18
 -1      3833 9.52411E-05-2.85741E-05-2.85716E-05-1.86528E-09-1.00593E-18 1.17682E-18
 -1      3834 9.52398E-05-2.85736E-05-2.85712E-05-1.66961E-09 8.11969E-19 4.42430E-19
 -1      3835 9.52400E-05-2.85737E-05-2.85713E-05-1.83061E-09 1.33763E-18 9.13381E-19
 -1      3836 9.52405E-05-2.85739E-05-2.85714E-05-1.58828E-09 8.25216E-19 2.55190E-19
 -1      3837 9.52393E-05-2.85733E-05-2.85711E-05-1.37528E-09 1.04458E-18 4.24921E-19
 -1      3838 9.52395E-05-2.85734E-05-2.85712E-05-1.52714E-09 2.46636E-19 1.13088E-19
 -1      3839 9.52399E-05-2.85737E-05-2.85712E-05-1.32413E-09 7.44871E-19 5.37769E-19
 -1      3840 9.52388E-05-2.85730E-05-2.85711E-05-1.11182E-09 1.42118E-18 3.16676E-19
 -1      3841 9.52390E-05-2.85731E-05-2.85711E-05-1.24884E-09 1.19006E-18 3.18500E-19
 -1      3842 9.52393E-05-2.85733E-05-2.85711E-05-1.08344E-09 6.21790E-19 4.01990E-19
 -1      3843 9.52384E-05-2.85726E-05-2.85710E-05-8.82971E-10-1.01659E-18 6.16859E-19
 -1      3844 9.52386E-05-2.85728E-05-2.85711E-05-1.00255E-09 3.65313E-19 1.16664E-18
 -1      3845 9.52389E-05-2.85730E-05-2.85711E-05-8.71216E-10 5.28600E-19 1.20564E-19
 -1      3846 9.52381E-05-2.85724E-05-2.85710E-05-6.89557E-10-2.78710E-18 2.80713E-19
 -1      3847 9.52382E-05-2.85725E-05-2.85710E-05-7.91076E-10-2.16216E-18 1.76229E-19
 -1      3848 9.52385E-05-2.85727E-05-2.85711E-05-6.88931E-10-9.27662E-19 7.29581E-19
 -1      3849 9.52379E-05-2.85721E-05-2.85710E-05-5.28075E-10-1.80326E-18-4.13814E-19
 -1      3850 9.52380E-05-2.85722E-05-2.85710E-05-6.12407E-10-2.87697E-18-7.49820E-19
 -1      3851 9.52381E-05-2.85724E-05-2.85710E-05-5.36942E-10-2.14368E-18-1.64749E-18
 -1      3852 9.62705E-05-2.95851E-05-2.85755E-05 1.27885E-06-7.69574E-19-7.07460E-19
 -1      3853 9.66590E-05-2.99409E-05-2.85839E-05 1.42430E-06-8.42915E-19-6.87845E-19
 -1      3854 1.01184E-04-3.37039E-05-2.88934E-05 2.76966E-07-4.46063E-19-1.54929E-18
 -1      3855 1.02134E-04-3.44231E-05-2.90245E-05-1.18454E-07-7.15619E-19-1.59599E-18
 -1      3856 1.03323E-04-3.53033E-05-2.91823E-05 8.53262E-07-9.32465E-19-1.88737E-18
 -1      3857 1.00855E-04-3.35680E-05-2.88662E-05 1.32406E-06-6.53286E-19-1.29026E-18
 -1      3858 9.52375E-05-2.85717E-05-2.85710E-05-3.92297E-10-1.43436E-18-7.68052E-19
 -1      3859 9.54526E-05-2.87707E-05-2.85775E-05 6.57286E-07-7.81839E-20-4.47705E-19
 -1      3860 9.56003E-05-2.89112E-05-2.85755E-05 7.58968E-07-6.35266E-19-4.63200E-19
 -1      3861 9.95863E-05-3.41688E-05-2.81142E-05 1.59608E-05-1.87776E-18-2.48670E-19
 -1      3862 9.40925E-05-2.99066E-05-2.74750E-05 1.64309E-05-1.64406E-18 2.69384E-19
 -1      3863 9.57545E-05-2.90800E-05-2.85732E-05 9.30103E-07-1.12378E-18 1.60653E-20
 -1      3864 9.60004E-05-2.93103E-05-2.85739E-05 1.05695E-06-8.67692E-19-3.57147E-19
 -1      3865 9.55422E-05-2.88817E-05-2.85749E-05 9.93713E-07-9.00603E-19 1.03605E-19
 -1      3866 9.51791E-05-2.84711E-05-2.85895E-05 8.70051E-08-6.36117E-19 4.04205E-19
 -1      3867 9.51778E-05-2.84662E-05-2.85900E-05 1.07218E-07-9.47252E-20-1.55711E-19
 -1      3868 9.51725E-05-2.84615E-05-2.85904E-05 7.36544E-08-8.04064E-19 7.79337E-19
 -1      3869 9.52376E-05-2.85718E-05-2.85710E-05-3.37657E-10-1.76859E-18-1.26255E-18
 -1      3870 9.28695E-05-2.62913E-05-2.85529E-05 1.27176E-06-3.38884E-19-2.09775E-19
 -1      3871 9.33493E-05-2.66406E-05-2.85850E-05 9.53328E-07-4.07282E-19-9.11576E-20
 -1      3872 9.36887E-05-2.69910E-05-2.85773E-05 1.11451E-06-6.05881E-19-3.49726E-19
 -1      3873 9.01692E-05-2.69622E-05-2.71376E-05 1.61382E-05-1.55942E-18 7.86465E-19
 -1      3874 8.57359E-05-2.32276E-05-2.68343E-05 1.41165E-05-1.09096E-18 5.93181E-19
 -1      3875 8.73431E-05-2.35174E-05-2.72962E-05 1.15972E-05-5.03782E-19 5.16707E-19
 -1      3876 9.38314E-05-2.90106E-05-2.77168E-05 1.38582E-05-1.16273E-18 6.99808E-19
 -1      3877 9.52376E-05-2.85718E-05-2.85711E-05 1.69392E-10 2.48721E-19-3.57136E-19
 -1      3878 9.52376E-05-2.85719E-05-2.85711E-05 1.08296E-10-6.43315E-19 1.36086E-18
 -1      3879 9.52377E-05-2.85720E-05-2.85710E-05 7.20824E-11-2.86933E-19 3.21154E-19
 -1      3880 9.52377E-05-2.85719E-05-2.85710E-05 2.01736E-10 1.42364E-18-5.09808E-20
 -1      3881 9.71038E-05-3.03617E-05-2.85958E-05 1.69151E-06-9.46381E-19-5.19502E-19
 -1      3882 9.76896E-05-3.08835E-05-2.86209E-05 1.83645E-06-4.61053E-19-8.30786E-19
 -1      3883 9.66444E-05-2.99855E-05-2.85838E-05 1.97161E-06-7.79127E-19-4.58724E-19
 -1      3884 1.14279E-04-4.15818E-05-3.12119E-05 3.86376E-06-1.33897E-18-1.59566E-18
 -1      3885 1.14164E-04-4.24913E-05-3.06614E-05 8.09766E-06-2.10578E-18-1.41031E-18
 -1      3886 1.10482E-04-4.05580E-05-2.99892E-05 8.56993E-06-1.76544E-18-6.13489E-19
 -1      3887 9.83784E-05-3.14775E-05-2.86559E-05 2.11547E-06-1.88201E-19-7.52205E-19
 -1      3888 9.92124E-05-3.21859E-05-2.87128E-05 2.23471E-06-6.00213E-20-5.92497E-19
 -1      3889 9.77489E-05-3.10198E-05-2.86262E-05 2.60625E-06-4.59517E-19-4.64852E-19
 -1      3890 9.18061E-05-2.55077E-05-2.84415E-05 2.35151E-06-1.00397E-18-2.47377E-19
 -1      3891 9.24994E-05-2.59556E-05-2.85096E-05 1.78376E-06-6.63298E-19-3.39965E-19
 -1      3892 9.30569E-05-2.65036E-05-2.85131E-05 1.98079E-06-3.06824E-19-1.33551E-19
 -1      3893 8.89732E-05-2.38775E-05-2.79399E-05 6.47437E-06-4.81519E-19 1.37537E-19
 -1      3894 8.99790E-05-2.43111E-05-2.81173E-05 5.25665E-06-2.15855E-19-6.47244E-20
 -1      3895 9.51570E-05-2.84434E-05-2.85917E-05 1.18983E-07-9.88096E-19-7.15283E-19
 -1      3896 9.52377E-05-2.85719E-05-2.85710E-05-3.35955E-10-1.11336E-18-2.39129E-18
 -1      3897 9.52878E-05-2.85945E-05-2.85830E-05 4.53677E-07-2.35542E-19-6.36141E-19
 -1      3898 9.53708E-05-2.86737E-05-2.85806E-05 5.31346E-07-2.51251E-19-3.88479E-19
 -1      3899 9.53165E-05-2.86359E-05-2.85807E-05 6.76370E-07-4.63443E-19-6.45397E-19
 -1      3900 9.51583E-05-2.84510E-05-2.85900E-05 2.94069E-07-8.41170E-19 3.79389E-20
 -1      3901 9.52076E-05-2.85050E-05-2.85873E-05 3.07648E-07-1.13005E-18-2.50795E-19
 -1      3902 9.52502E-05-2.85449E-05-2.85854E-05 3.64662E-07-4.31685E-19-1.09521E-19
 -1      3903 9.59512E-05-2.93044E-05-2.85729E-05 1.42316E-06-1.14189E-18 5.74126E-20
 -1      3904 9.52377E-05-2.85720E-05-2.85710E-05-4.00219E-10-6.58487E-19-1.09765E-18
 -1      3905 9.52378E-05-2.85720E-05-2.85710E-05-4.51651E-10-6.32394E-19-1.01070E-18
 -1      3906 9.52379E-05-2.85722E-05-2.85710E-05-3.90633E-10-1.15393E-18-2.48449E-18
 -1      3907 9.52378E-05-2.85720E-05-2.85710E-05-2.50340E-10 1.79089E-19-4.39290E-18
 -1      3908 1.15657E-04-3.99072E-05-3.24891E-05-1.34446E-06-1.12915E-18-2.27977E-18
 -1      3909 1.08581E-04-3.69692E-05-3.06607E-05-3.80654E-06-2.45369E-19-2.07938E-18
 -1      3910 1.09172E-04-3.64890E-05-3.11696E-05-4.73815E-06-1.64688E-19-2.00114E-18
 -1      3911 1.12282E-04-3.77371E-05-3.19669E-05-3.88758E-06-4.17454E-19-2.37666E-18
 -1      3912 1.09357E-04-3.80241E-05-3.06188E-05-1.87208E-06-3.93187E-19-1.63770E-18
 -1      3913 9.52378E-05-2.85720E-05-2.85710E-05 1.33142E-10 4.15192E-19 8.99453E-19
 -1      3914 9.52378E-05-2.85721E-05-2.85710E-05 6.02456E-11-4.70099E-19 5.96959E-19
 -1      3915 9.04403E-05-2.46250E-05-2.82411E-05 4.06655E-06-4.53920E-19-3.06970E-19
 -1      3916 9.13879E-05-2.51543E-05-2.83680E-05 3.12470E-06-9.63587E-19-6.09215E-19
 -1      3917 9.22811E-05-2.59972E-05-2.83983E-05 3.33863E-06-6.43698E-19 2.36139E-19
 -1      3918 9.14232E-05-2.55822E-05-2.82125E-05 5.36794E-06-7.23938E-19-3.09084E-19
 -1      3919 1.05699E-04-3.78722E-05-2.91230E-05 1.14554E-05-1.95214E-18-4.52453E-19
 -1      3920 1.02887E-04-3.60877E-05-2.85548E-05 1.41934E-05-1.92405E-18-2.07496E-19
 -1      3921 1.00275E-04-3.39631E-05-2.84207E-05 1.26272E-05-1.38833E-18-2.26506E-19
 -1      3922 9.52378E-05-2.85721E-05-2.85710E-05-4.83714E-11-2.02310E-19-9.21088E-19
 -1      3923 9.52378E-05-2.85720E-05-2.85710E-05-1.47787E-10 8.16162E-19-4.39750E-18
 -1      3924 9.52379E-05-2.85721E-05-2.85710E-05-2.06565E-10 3.47474E-19-3.79028E-18
 -1      3925 9.52379E-05-2.85722E-05-2.85710E-05 1.29046E-11-3.74408E-19-3.13830E-19
 -1      3926 1.06115E-04-3.70704E-05-2.95448E-05 1.98059E-06-9.24913E-19-1.34962E-18
 -1      3927 1.07723E-04-3.79081E-05-2.99049E-05 1.23134E-06-7.79912E-19-1.13099E-18
 -1      3928 1.09936E-04-3.91048E-05-3.03111E-05 1.77329E-06-8.81913E-19-1.33588E-18
 -1      3929 1.11731E-04-3.97301E-05-3.08600E-05 1.04402E-06-7.53219E-19-1.40443E-18
 -1      3930 1.09319E-04-3.93005E-05-3.00306E-05 4.36861E-06-1.26116E-18-7.40590E-19
 -1      3931 9.52377E-05-2.85720E-05-2.85710E-05 2.28716E-10 7.94746E-19 5.57742E-19
 -1      3932 9.52378E-05-2.85721E-05-2.85710E-05 2.26420E-10 7.27767E-19 8.70674E-19
 -1      3933 9.45021E-05-2.77608E-05-2.86107E-05 4.57034E-07-1.15538E-18-6.03137E-19
 -1      3934 9.46491E-05-2.78780E-05-2.86141E-05 3.37778E-07-1.18445E-18 9.25593E-20
 -1      3935 9.47304E-05-2.79693E-05-2.86160E-05 2.29432E-07-9.74398E-19 1.85680E-20
 -1      3936 9.48327E-05-2.80594E-05-2.86157E-05 1.62464E-07-9.18430E-19 5.10048E-19
 -1      3937 9.47566E-05-2.80019E-05-2.86075E-05 3.76074E-07-6.76993E-19 5.78615E-19
 -1      3938 9.48947E-05-2.81332E-05-2.86151E-05 9.78038E-08-1.31994E-18 9.11298E-19
 -1      3939 9.49686E-05-2.82037E-05-2.86127E-05 6.24161E-08-2.11906E-18 1.20586E-18
 -1      3940 9.48969E-05-2.81382E-05-2.86093E-05 1.92947E-07-1.15493E-18 7.24334E-19
 -1      3941 9.50123E-05-2.82578E-05-2.86109E-05 2.91884E-08-1.64698E-18 1.20151E-18
 -1      3942 9.50596E-05-2.83072E-05-2.86079E-05 1.39822E-08-8.03231E-19 1.06415E-18
 -1      3943 9.50036E-05-2.82492E-05-2.86076E-05 8.88510E-08-1.36007E-18 1.32890E-18
 -1      3944 9.50915E-05-2.83477E-05-2.86056E-05-3.11211E-09-1.16170E-18 2.93588E-19
 -1      3945 9.51231E-05-2.83839E-05-2.86025E-05-8.38397E-09-1.24297E-18 6.57180E-21
 -1      3946 9.50794E-05-2.83345E-05-2.86039E-05 3.41243E-08-1.43136E-18 7.32091E-19
 -1      3947 9.51460E-05-2.84140E-05-2.86000E-05-1.62028E-08-4.73538E-19-4.65420E-20
 -1      3948 9.51668E-05-2.84403E-05-2.85971E-05-1.64473E-08 1.58722E-19 2.55487E-19
 -1      3949 9.51339E-05-2.84001E-05-2.85994E-05 6.46746E-09-9.45475E-19 5.56501E-19
 -1      3950 9.51827E-05-2.84624E-05-2.85948E-05-1.92410E-08 3.28688E-20-8.94554E-21
 -1      3951 9.51962E-05-2.84813E-05-2.85922E-05-1.72479E-08 4.84786E-19-4.52863E-19
 -1      3952 9.51724E-05-2.84498E-05-2.85948E-05-5.85776E-09 7.33202E-20 4.74637E-20
 -1      3953 9.52072E-05-2.84974E-05-2.85901E-05-1.75374E-08 6.53114E-20-5.64583E-19
 -1      3954 9.52158E-05-2.85109E-05-2.85879E-05-1.48162E-08-6.89390E-19-6.83565E-19
 -1      3955 9.51991E-05-2.84869E-05-2.85905E-05-9.97113E-09 1.25087E-19-1.95269E-19
 -1      3956 9.52234E-05-2.85230E-05-2.85860E-05-1.39413E-08 2.78847E-20-5.19370E-19
 -1      3957 9.52289E-05-2.85329E-05-2.85841E-05-1.11796E-08 8.54411E-19-1.01152E-19
 -1      3958 9.52175E-05-2.85147E-05-2.85866E-05-1.00134E-08 1.25522E-19-6.47788E-19
 -1      3959 9.52336E-05-2.85409E-05-2.85826E-05-1.00431E-08 1.09412E-18-1.51014E-19
 -1      3960 9.52366E-05-2.85475E-05-2.85811E-05-7.79489E-09 1.06913E-18-1.05040E-19
 -1      3961 9.52294E-05-2.85347E-05-2.85833E-05-8.31692E-09 1.07083E-18-1.11693E-18
 -1      3962 9.52395E-05-2.85531E-05-2.85799E-05-6.70460E-09-5.40591E-19-4.38499E-19
 -1      3963 9.52411E-05-2.85576E-05-2.85787E-05-4.94164E-09-1.28583E-18-9.54310E-19
 -1      3964 9.52368E-05-2.85486E-05-2.85805E-05-6.20391E-09-3.29195E-19-1.51061E-18
 -1      3965 9.52427E-05-2.85614E-05-2.85777E-05-4.04692E-09-7.61741E-19-4.15217E-19
 -1      3966 9.52435E-05-2.85644E-05-2.85768E-05-2.74909E-09-9.68605E-19-2.39826E-19
 -1      3967 9.52411E-05-2.85583E-05-2.85783E-05-4.22682E-09-5.99866E-19-7.21002E-19
 -1      3968 9.52443E-05-2.85670E-05-2.85760E-05-2.08214E-09-1.48329E-18 4.85498E-19
 -1      3969 9.52445E-05-2.85689E-05-2.85753E-05-1.17971E-09-1.11831E-18 1.95485E-19
 -1      3970 9.52434E-05-2.85649E-05-2.85765E-05-2.61157E-09-9.40850E-19-8.75783E-19
 -1      3971 9.52447E-05-2.85705E-05-2.85746E-05-7.21565E-10-9.70478E-19-3.48511E-19
 -1      3972 9.52446E-05-2.85717E-05-2.85741E-05-1.31539E-10-3.79857E-19-3.60906E-19
 -1      3973 9.52444E-05-2.85692E-05-2.85751E-05-1.40189E-09-9.48092E-19-4.54251E-19
 -1      3974 9.52445E-05-2.85727E-05-2.85736E-05 1.56457E-10-3.00213E-19-1.34928E-18
 -1      3975 9.52442E-05-2.85734E-05-2.85732E-05 5.14980E-10-3.61992E-19-6.73436E-19
 -1      3976 9.52445E-05-2.85719E-05-2.85740E-05-5.58674E-10-1.01039E-18 5.71859E-19
 -1      3977 9.52439E-05-2.85739E-05-2.85728E-05 6.83516E-10 5.43665E-19-8.32019E-19
 -1      3978 9.52435E-05-2.85743E-05-2.85725E-05 8.76865E-10 5.35531E-19 1.48877E-19
 -1      3979 9.52441E-05-2.85735E-05-2.85731E-05-1.68429E-12 5.72869E-19-6.33930E-20
 -1      3980 9.52431E-05-2.85745E-05-2.85723E-05 9.42372E-10-5.86649E-19 1.02560E-18
 -1      3981 9.52426E-05-2.85746E-05-2.85720E-05 1.01495E-09-5.64068E-19 1.21913E-18
 -1      3982 9.52434E-05-2.85743E-05-2.85725E-05 3.27392E-10 1.14970E-18 7.33272E-19
 -1      3983 9.52422E-05-2.85746E-05-2.85718E-05 1.02444E-09-7.68784E-19 7.72611E-19
 -1      3984 9.52418E-05-2.85745E-05-2.85717E-05 1.02566E-09-6.87363E-19 1.38108E-18
 -1      3985 9.52426E-05-2.85746E-05-2.85720E-05 4.87225E-10-8.77937E-19 1.01716E-18
 -1      3986 9.52414E-05-2.85744E-05-2.85716E-05 1.00038E-09-7.46370E-19 1.45034E-18
 -1      3987 9.52410E-05-2.85743E-05-2.85714E-05 9.59390E-10-1.12614E-19 9.72712E-19
 -1      3988 9.52417E-05-2.85745E-05-2.85717E-05 5.43699E-10-5.35758E-19 9.68353E-19
 -1      3989 9.52406E-05-2.85741E-05-2.85714E-05 9.15511E-10 1.75783E-19 1.46460E-19
 -1      3990 9.52403E-05-2.85739E-05-2.85713E-05 8.52498E-10-1.65055E-19-8.22461E-19
 -1      3991 9.52409E-05-2.85743E-05-2.85714E-05 5.35577E-10-7.43415E-19 9.05304E-20
 -1      3992 9.52399E-05-2.85737E-05-2.85712E-05 8.01072E-10-1.04600E-18-7.49614E-19
 -1      3993 9.52396E-05-2.85735E-05-2.85712E-05 7.29391E-10-6.70010E-19-1.07966E-18
 -1      3994 9.52402E-05-2.85739E-05-2.85713E-05 4.90728E-10-4.87321E-19-3.26245E-19
 -1      3995 9.52393E-05-2.85733E-05-2.85711E-05 6.74908E-10 7.12418E-19-8.76543E-19
 -1      3996 9.52391E-05-2.85731E-05-2.85711E-05 5.99739E-10 8.12898E-19 2.32789E-19
 -1      3997 9.52396E-05-2.85735E-05-2.85712E-05 4.26831E-10 9.12652E-19 1.16736E-18
 -1      3998 9.52388E-05-2.85730E-05-2.85711E-05 5.51379E-10-5.21955E-19 3.93449E-19
 -1      3999 9.52386E-05-2.85728E-05-2.85711E-05 4.84800E-10-4.83778E-19 4.18175E-19
 -1      4000 9.52390E-05-2.85731E-05-2.85711E-05 3.58024E-10-1.35144E-19 3.97714E-19
 -1      4001 9.52384E-05-2.85726E-05-2.85711E-05 4.41113E-10 2.10577E-20 8.48882E-19
 -1      4002 9.52383E-05-2.85725E-05-2.85710E-05 3.82462E-10 4.23385E-19 1.15150E-18
 -1      4003 9.52386E-05-2.85728E-05-2.85711E-05 2.92471E-10 4.39861E-19 7.18597E-19
 -1      4004 9.52186E-05-2.85237E-05-2.85837E-05 7.90247E-09-7.28654E-19 3.32230E-20
 -1      4005 9.52131E-05-2.85148E-05-2.85849E-05 1.22120E-08-5.53463E-19 3.71882E-19
 -1      4006 9.51186E-05-2.84014E-05-2.85943E-05 1.59871E-07-8.93528E-19-2.85257E-19
 -1      4007 9.51189E-05-2.83954E-05-2.85940E-05 2.02225E-07-8.75572E-19-2.53316E-19
 -1      4008 9.51422E-05-2.84262E-05-2.85934E-05 9.58208E-08-1.11900E-18-4.43391E-20
 -1      4009 9.51362E-05-2.84147E-05-2.85939E-05 1.23255E-07-9.42165E-19-5.62165E-19
 -1      4010 9.51042E-05-2.83784E-05-2.85962E-05 1.33333E-07-8.97036E-19-1.84363E-19
 -1      4011 9.52052E-05-2.85044E-05-2.85863E-05 1.66030E-08-3.58659E-19 2.24283E-19
 -1      4012 9.51983E-05-2.84936E-05-2.85876E-05 2.35663E-08-1.65255E-19 6.10105E-20
 -1      4013 9.52076E-05-2.85054E-05-2.85864E-05 9.47158E-09-4.53616E-19-1.33686E-19
 -1      4014 9.51877E-05-2.84810E-05-2.85890E-05 3.13492E-08-1.12050E-19 1.50897E-19
 -1      4015 9.51797E-05-2.84686E-05-2.85902E-05 4.24599E-08-1.59186E-19 2.89030E-19
 -1      4016 9.51895E-05-2.84803E-05-2.85893E-05 2.08460E-08 1.26722E-19 4.27092E-19
 -1      4017 9.52282E-05-2.85389E-05-2.85812E-05 2.87745E-09 4.58993E-19-7.51684E-19
 -1      4018 9.52242E-05-2.85319E-05-2.85824E-05 5.52688E-09-1.94759E-19-4.13766E-19
 -1      4019 9.52210E-05-2.85254E-05-2.85836E-05 3.28293E-09-4.10470E-19-2.54908E-19
 -1      4020 9.52349E-05-2.85505E-05-2.85791E-05 9.08871E-11 4.23706E-19-1.16080E-18
 -1      4021 9.52321E-05-2.85452E-05-2.85801E-05 1.68622E-09 6.00860E-19-1.06740E-18
 -1      4022 9.52303E-05-2.85407E-05-2.85811E-05 9.22662E-11 4.42724E-19-1.74082E-18
 -1      4023 9.52392E-05-2.85589E-05-2.85773E-05-1.37040E-09-8.22657E-19-1.00732E-20
 -1      4024 9.52374E-05-2.85551E-05-2.85781E-05-4.39227E-10-2.26457E-19-5.88597E-19
 -1      4025 9.52365E-05-2.85521E-05-2.85790E-05-1.41567E-09-4.61676E-19-1.64901E-18
 -1      4026 9.52417E-05-2.85649E-05-2.85758E-05-2.05155E-09 5.13863E-19-6.99796E-19
 -1      4027 9.52406E-05-2.85622E-05-2.85765E-05-1.53835E-09-3.49277E-19-3.66211E-19
 -1      4028 9.52404E-05-2.85603E-05-2.85771E-05-2.01243E-09-1.08790E-19-1.23427E-18
 -1      4029 9.52429E-05-2.85690E-05-2.85746E-05-2.28174E-09 2.49381E-19-5.35205E-19
 -1      4030 9.52424E-05-2.85671E-05-2.85751E-05-2.03058E-09 8.86927E-19-4.83310E-19
 -1      4031 9.52425E-05-2.85660E-05-2.85757E-05-2.13455E-09 3.27811E-19-1.14261E-18
 -1      4032 9.52433E-05-2.85716E-05-2.85736E-05-2.25845E-09-6.75439E-20 2.87278E-19
 -1      4033 9.52431E-05-2.85704E-05-2.85740E-05-2.16981E-09-2.12055E-19-2.81470E-19
 -1      4034 9.52435E-05-2.85697E-05-2.85745E-05-2.02523E-09 1.75223E-20 2.11287E-19
 -1      4035 9.52431E-05-2.85731E-05-2.85729E-05-2.10025E-09-2.78097E-20 2.24052E-18
 -1      4036 9.52432E-05-2.85724E-05-2.85732E-05-2.10966E-09 5.04689E-19 1.25022E-18
 -1      4037 9.52437E-05-2.85721E-05-2.85735E-05-1.81569E-09-3.32770E-19 1.96761E-18
 -1      4038 9.52426E-05-2.85739E-05-2.85723E-05-1.87629E-09-1.44498E-18 1.57221E-18
 -1      4039 9.52429E-05-2.85736E-05-2.85725E-05-1.94241E-09-1.73697E-19 1.37739E-18
 -1      4040 9.52433E-05-2.85735E-05-2.85728E-05-1.57237E-09-2.30608E-20 2.08119E-18
 -1      4041 9.52420E-05-2.85742E-05-2.85719E-05-1.62937E-09-1.70905E-18 5.63808E-19
 -1      4042 9.52423E-05-2.85741E-05-2.85721E-05-1.72557E-09-1.56185E-18 1.02869E-18
 -1      4043 9.52428E-05-2.85742E-05-2.85723E-05-1.33410E-09-8.46758E-19-1.08371E-19
 -1      4044 9.52413E-05-2.85742E-05-2.85716E-05-1.38378E-09-1.39172E-19-9.37188E-19
 -1      4045 9.52416E-05-2.85743E-05-2.85717E-05-1.49253E-09-1.10233E-18-2.76753E-19
 -1      4046 9.52420E-05-2.85744E-05-2.85719E-05-1.11376E-09-9.16026E-19-1.95134E-18
 -1      4047 9.52406E-05-2.85740E-05-2.85714E-05-1.15338E-09 9.07910E-19-2.00626E-19
 -1      4048 9.52409E-05-2.85741E-05-2.85715E-05-1.26348E-09 3.82285E-19-1.61049E-19
 -1      4049 9.52413E-05-2.85743E-05-2.85716E-05-9.17638E-10-2.22433E-19-1.28257E-18
 -1      4050 9.52399E-05-2.85737E-05-2.85712E-05-9.45448E-10 1.12131E-18 8.02422E-19
 -1      4051 9.52402E-05-2.85739E-05-2.85713E-05-1.05003E-09 1.07784E-18 8.83607E-19
 -1      4052 9.52406E-05-2.85741E-05-2.85714E-05-7.47200E-10 1.42221E-19 4.58858E-19
 -1      4053 9.52394E-05-2.85733E-05-2.85711E-05-7.63129E-10-3.07502E-20 1.34976E-18
 -1      4054 9.52396E-05-2.85735E-05-2.85712E-05-8.57972E-10 8.31662E-19 1.04801E-18
 -1      4055 9.52399E-05-2.85737E-05-2.85712E-05-6.01425E-10 7.47329E-19 2.00361E-18
 -1      4056 9.52389E-05-2.85730E-05-2.85711E-05-6.06379E-10-6.08825E-19 1.31526E-18
 -1      4057 9.52391E-05-2.85732E-05-2.85711E-05-6.90356E-10-5.18294E-19 6.72509E-19
 -1      4058 9.52393E-05-2.85734E-05-2.85711E-05-4.78023E-10-3.59775E-20 9.92587E-19
 -1      4059 9.52385E-05-2.85727E-05-2.85711E-05-4.74661E-10-7.44463E-19-1.60347E-19
 -1      4060 9.52387E-05-2.85728E-05-2.85711E-05-5.46904E-10-3.48279E-20 7.00622E-19
 -1      4061 9.52388E-05-2.85730E-05-2.85711E-05-3.76417E-10 4.47172E-20 9.19806E-19
 -1      4062 9.52381E-05-2.85724E-05-2.85710E-05-3.66530E-10-1.75375E-18-2.82620E-18
 -1      4063 9.52383E-05-2.85725E-05-2.85710E-05-4.25872E-10-1.32143E-18-1.37546E-18
 -1      4064 9.52384E-05-2.85726E-05-2.85711E-05-2.94170E-10 3.47973E-19-1.00676E-18
 -1      4065 1.08793E-04-3.91897E-05-2.98371E-05 6.27634E-06-1.59233E-18-4.18341E-19
 -1      4066 1.07495E-04-3.87527E-05-2.94162E-05 9.58103E-06-1.98661E-18-5.41671E-20
 -1      4067 1.04430E-04-3.67211E-05-2.90570E-05 9.26116E-06-1.73562E-18-1.06671E-19
 -1      4068 1.06525E-04-3.77694E-05-2.94935E-05 5.51421E-06-1.39164E-18-1.77601E-19
 -1      4069 1.04213E-04-3.59409E-05-2.92611E-05 2.22065E-06-1.22238E-18-1.21973E-18
 -1      4070 1.05205E-04-3.67187E-05-2.93772E-05 3.79601E-06-1.16912E-18-3.58513E-19
 -1      4071 1.02830E-04-3.49525E-05-2.90547E-05 2.50951E-06-1.15662E-18-1.02118E-18
 -1      4072 9.60585E-05-2.94125E-05-2.85639E-05 2.14550E-06-7.10686E-19-1.73915E-19
 -1      4073 9.65173E-05-2.98013E-05-2.85732E-05 2.47954E-06-5.73046E-19 1.18200E-19
 -1      4074 9.52826E-05-2.86118E-05-2.85761E-05 9.94352E-07-3.87757E-19-4.81264E-19
 -1      4075 9.54435E-05-2.87483E-05-2.85733E-05 1.19043E-06-1.14631E-18-1.19195E-19
 -1      4076 8.74858E-05-2.34057E-05-2.75109E-05 9.65445E-06-1.86130E-19 2.35207E-19
 -1      4077 8.86476E-05-2.37340E-05-2.77836E-05 7.90519E-06-2.83348E-19 1.40981E-19
 -1      4078 9.06491E-05-2.54109E-05-2.79511E-05 8.06329E-06-4.19831E-19-2.67697E-19
 -1      4079 9.01616E-05-2.57703E-05-2.76129E-05 1.14819E-05-5.44856E-19 3.05756E-19
 -1      4080 1.14295E-04-4.02859E-05-3.16529E-05-2.75380E-07-8.93774E-19-1.96758E-18
 -1      4081 9.55524E-05-2.89011E-05-2.85674E-05 1.48214E-06-1.69981E-18 2.07360E-19
 -1      4082 9.58328E-05-2.91407E-05-2.85677E-05 1.74710E-06-9.81540E-19-6.32244E-20
 -1      4083 9.52489E-05-2.86097E-05-2.85673E-05 1.48103E-06-9.50288E-19-4.00217E-19
 -1      4084 9.51663E-05-2.84542E-05-2.85915E-05 5.58459E-08-8.95295E-19 3.03700E-19
 -1      4085 9.51582E-05-2.84412E-05-2.85924E-05 7.34029E-08-1.06389E-18 9.55780E-20
 -1      4086 9.51660E-05-2.84499E-05-2.85922E-05 4.09676E-08-3.25819E-19-1.59606E-19
 -1      4087 9.41994E-05-2.75052E-05-2.85941E-05 8.43091E-07-1.04034E-18-6.36801E-19
 -1      4088 9.44076E-05-2.76521E-05-2.86044E-05 6.37520E-07-1.18613E-18-8.32448E-19
 -1      4089 9.45811E-05-2.78489E-05-2.85986E-05 6.76761E-07-1.00355E-18-8.62475E-19
 -1      4090 9.38093E-05-2.72090E-05-2.85589E-05 1.47218E-06-5.46722E-19-5.59355E-19
 -1      4091 9.40913E-05-2.73818E-05-2.85810E-05 1.13278E-06-6.21303E-19-5.89129E-19
 -1      4092 9.43692E-05-2.76855E-05-2.85792E-05 1.16371E-06-8.89816E-19-9.69179E-19
 -1      4093 9.52379E-05-2.85721E-05-2.85710E-05 2.57973E-10 4.92803E-19 9.13355E-19
 -1      4094 9.52381E-05-2.85723E-05-2.85710E-05 3.47165E-10-1.16283E-18 2.54556E-18
 -1      4095 9.52380E-05-2.85722E-05-2.85710E-05 2.96378E-10-8.32087E-19 1.78861E-18
 -1      4096 9.52380E-05-2.85722E-05-2.85710E-05 1.63907E-10-1.53919E-18 3.26914E-18
 -1      4097 9.50715E-05-2.83456E-05-2.85963E-05 2.27337E-07-3.67123E-19-6.50178E-20
 -1      4098 9.51020E-05-2.83873E-05-2.85935E-05 2.60542E-07-6.19993E-19 8.54254E-20
 -1      4099 9.51144E-05-2.83942E-05-2.85922E-05 3.25952E-07-3.09306E-19 5.54629E-19
 -1      4100 9.69437E-05-3.02569E-05-2.85783E-05 3.00230E-06-4.63919E-19 5.73577E-20
 -1      4101 9.76890E-05-3.08659E-05-2.86122E-05 3.34853E-06-2.53983E-19-5.63095E-20
 -1      4102 9.62275E-05-2.96554E-05-2.85513E-05 3.21407E-06-5.28372E-19 1.53040E-19
 -1      4103 1.00265E-04-3.30390E-05-2.87877E-05 2.45605E-06-5.65171E-19-7.11458E-19
 -1      4104 1.01364E-04-3.39242E-05-2.89006E-05 2.41813E-06-9.10885E-19-7.47407E-19
 -1      4105 9.94799E-05-3.25252E-05-2.87344E-05 3.25600E-06-2.95937E-19-1.58397E-19
 -1      4106 9.52043E-05-2.85076E-05-2.85862E-05 4.50149E-07-5.61884E-19 2.91737E-19
 -1      4107 9.52381E-05-2.85723E-05-2.85710E-05-2.86413E-10-1.17292E-18-3.50631E-18
 -1      4108 1.04743E-04-3.64914E-05-2.92181E-05 5.56737E-06-1.65147E-18 1.40798E-19
 -1      4109 9.52403E-05-2.85350E-05-2.85813E-05 7.89599E-07-4.10024E-19-2.76301E-19
 -1      4110 9.50958E-05-2.84194E-05-2.85794E-05 9.63612E-07-5.82240E-19-3.35627E-19
 -1      4111 9.51573E-05-2.84639E-05-2.85844E-05 6.51658E-07-6.65472E-19-4.04201E-20
 -1      4112 9.55829E-05-2.89882E-05-2.85551E-05 2.21397E-06-9.30970E-19 1.00292E-19
 -1      4113 9.51371E-05-2.84150E-05-2.85947E-05 7.55274E-08-1.65465E-18-3.06327E-19
 -1      4114 9.24343E-05-2.70886E-05-2.80241E-05 8.91194E-06-4.03524E-19-3.85063E-19
 -1      4115 9.27130E-05-2.69340E-05-2.81529E-05 7.40362E-06-4.26835E-19-2.60805E-19
 -1      4116 9.24440E-05-2.66416E-05-2.82271E-05 6.12811E-06-5.16514E-19-1.67672E-19
 -1      4117 9.29094E-05-2.67202E-05-2.83332E-05 4.89270E-06-5.17065E-19 2.19270E-19
 -1      4118 9.40902E-05-2.80639E-05-2.82851E-05 6.85082E-06-4.19724E-19-1.72579E-19
 -1      4119 9.33312E-05-2.68969E-05-2.84921E-05 2.50078E-06-5.47824E-19-1.71129E-19
 -1      4120 9.37014E-05-2.70867E-05-2.85347E-05 1.93606E-06-5.86806E-19-6.13698E-19
 -1      4121 9.41363E-05-2.75453E-05-2.85428E-05 1.93692E-06-6.26232E-19-1.19445E-18
 -1      4122 1.00532E-04-3.38920E-05-2.85934E-05 1.03424E-05-1.42570E-18-4.59885E-19
 -1      4123 9.79469E-05-3.19085E-05-2.82496E-05 1.17351E-05-1.52781E-18 9.52428E-20
 -1      4124 9.56177E-05-3.02954E-05-2.80395E-05 1.21921E-05-1.34603E-18 1.49521E-19
 -1      4125 9.23433E-05-2.75487E-05-2.77577E-05 1.18888E-05-9.98213E-19 2.22472E-19
 -1      4126 9.24546E-05-2.71651E-05-2.79361E-05 9.97030E-06-6.89381E-19-2.45371E-20
 -1      4127 9.63386E-05-3.04851E-05-2.82416E-05 1.01136E-05-1.37023E-18 9.99565E-20
 -1      4128 9.52382E-05-2.85724E-05-2.85711E-05 2.26939E-10-1.19330E-19 2.81572E-18
 -1      4129 9.52381E-05-2.85723E-05-2.85710E-05 1.26304E-10-1.36664E-18 1.51692E-18
 -1      4130 9.52380E-05-2.85723E-05-2.85710E-05 8.68911E-11-9.23664E-19 4.65756E-19
 -1      4131 9.52380E-05-2.85723E-05-2.85710E-05-2.76894E-11-1.01607E-18-1.63085E-18
 -1      4132 9.52383E-05-2.85725E-05-2.85711E-05 1.47281E-10 5.03589E-19 1.00279E-18
 -1      4133 9.48003E-05-2.80695E-05-2.86006E-05 4.83983E-07-8.62438E-19-9.06563E-19
 -1      4134 9.48764E-05-2.81323E-05-2.86031E-05 3.63587E-07-5.55987E-19-4.94947E-19
 -1      4135 9.49466E-05-2.82135E-05-2.86020E-05 2.85793E-07-5.42191E-19-6.86898E-19
 -1      4136 9.50005E-05-2.82596E-05-2.86022E-05 2.14283E-07-6.78649E-19 2.31015E-20
 -1      4137 9.50191E-05-2.82849E-05-2.86023E-05 1.55827E-07-6.94206E-19-5.70782E-20
 -1      4138 9.50611E-05-2.83239E-05-2.86012E-05 1.16242E-07-7.36143E-19 1.75284E-19
 -1      4139 9.50805E-05-2.83493E-05-2.86005E-05 8.04291E-08-1.21348E-18-1.10786E-19
 -1      4140 9.51116E-05-2.83811E-05-2.85986E-05 5.91226E-08-1.61766E-18 1.31178E-19
 -1      4141 9.51288E-05-2.84037E-05-2.85974E-05 3.77740E-08-1.82710E-18 1.24536E-19
 -1      4142 9.51512E-05-2.84290E-05-2.85953E-05 2.71198E-08-1.06384E-18-1.59874E-19
 -1      4143 9.51654E-05-2.84480E-05-2.85938E-05 1.47568E-08 1.92996E-19-1.97891E-19
 -1      4144 9.51813E-05-2.84675E-05-2.85917E-05 1.00985E-08 5.70114E-19 1.30832E-20
 -1      4145 9.51923E-05-2.84828E-05-2.85901E-05 3.16705E-09 1.13750E-19-1.91068E-19
 -1      4146 9.52033E-05-2.84977E-05-2.85882E-05 1.70170E-09-9.09888E-20-3.72589E-19
 -1      4147 9.52114E-05-2.85097E-05-2.85867E-05-2.05444E-09-5.23772E-19-4.16531E-19
 -1      4148 9.52192E-05-2.85212E-05-2.85849E-05-1.98292E-09-2.27591E-19-2.82611E-19
 -1      4149 9.52249E-05-2.85303E-05-2.85836E-05-3.88860E-09 5.44686E-19-1.08739E-18
 -1      4150 9.52297E-05-2.85383E-05-2.85821E-05-3.14616E-09 6.45500E-19-1.43332E-18
 -1      4151 9.52336E-05-2.85450E-05-2.85809E-05-4.03576E-09 3.06107E-19-1.68441E-18
 -1      4152 9.52365E-05-2.85507E-05-2.85797E-05-3.14778E-09-6.87790E-19-1.82854E-18
 -1      4153 9.52390E-05-2.85555E-05-2.85787E-05-3.50242E-09-4.66959E-19-1.51890E-18
 -1      4154 9.52407E-05-2.85595E-05-2.85777E-05-2.68338E-09 2.85772E-19-7.78386E-19
 -1      4155 9.52422E-05-2.85629E-05-2.85769E-05-2.76734E-09-9.83069E-20-1.60902E-18
 -1      4156 9.52430E-05-2.85656E-05-2.85761E-05-2.09941E-09-6.39823E-19-7.39995E-19
 -1      4157 9.52437E-05-2.85678E-05-2.85754E-05-2.05782E-09-3.37122E-19-5.10112E-19
 -1      4158 9.52440E-05-2.85696E-05-2.85748E-05-1.55466E-09-3.76713E-19-5.53091E-19
 -1      4159 9.52443E-05-2.85710E-05-2.85742E-05-1.46297E-09-1.14373E-18 4.56392E-19
 -1      4160 9.52442E-05-2.85721E-05-2.85737E-05-1.10721E-09-6.75457E-19 4.60616E-19
 -1      4161 9.52441E-05-2.85730E-05-2.85733E-05-1.00331E-09-5.42454E-20 9.12240E-19
 -1      4162 9.52438E-05-2.85736E-05-2.85730E-05-7.59727E-10 1.41144E-18 1.81569E-18
 -1      4163 9.52436E-05-2.85740E-05-2.85726E-05-6.59740E-10 1.19482E-18 8.30292E-19
 -1      4164 9.52432E-05-2.85743E-05-2.85724E-05-5.15541E-10 5.71841E-20 5.94001E-19
 -1      4165 9.52428E-05-2.85745E-05-2.85721E-05-4.24286E-10-4.18956E-19-3.68072E-19
 -1      4166 9.52424E-05-2.85745E-05-2.85719E-05-3.43068E-10-7.61838E-19 7.38460E-21
 -1      4167 9.52420E-05-2.85745E-05-2.85718E-05-2.64246E-10-8.30624E-19-5.81082E-19
 -1      4168 9.52416E-05-2.85744E-05-2.85716E-05-2.25586E-10-4.42603E-19-6.22856E-19
 -1      4169 9.52412E-05-2.85743E-05-2.85715E-05-1.58675E-10-1.12712E-18 2.54732E-19
 -1      4170 9.52408E-05-2.85742E-05-2.85714E-05-1.47314E-10-9.78812E-19-1.15808E-19
 -1      4171 9.52405E-05-2.85740E-05-2.85713E-05-9.10677E-11 5.15450E-19 6.70840E-19
 -1      4172 9.52401E-05-2.85738E-05-2.85713E-05-9.62324E-11 8.14401E-19 1.05013E-18
 -1      4173 9.52398E-05-2.85736E-05-2.85712E-05-4.91898E-11 2.95178E-19 7.03729E-19
 -1      4174 9.52395E-05-2.85734E-05-2.85712E-05-6.32086E-11 1.14794E-18 8.36622E-19
 -1      4175 9.52392E-05-2.85732E-05-2.85711E-05-2.43913E-11 4.87506E-19 2.44481E-19
 -1      4176 9.52390E-05-2.85731E-05-2.85711E-05-4.17904E-11-1.26063E-19 5.52085E-19
 -1      4177 9.52387E-05-2.85729E-05-2.85711E-05-1.01410E-11 4.17500E-19 2.59213E-19
 -1      4178 9.52385E-05-2.85727E-05-2.85711E-05-2.65441E-11 1.03561E-18 5.85628E-19
 -1      4179 1.01899E-04-3.44253E-05-2.89542E-05 3.75335E-06-1.17995E-18 8.10563E-20
 -1      4180 1.03661E-04-3.59267E-05-2.90453E-05 7.47844E-06-1.65067E-18-2.84517E-20
 -1      4181 1.02262E-04-3.49596E-05-2.87946E-05 9.23883E-06-1.60230E-18-4.76717E-19
 -1      4182 9.99389E-05-3.32430E-05-2.86139E-05 8.70377E-06-1.15291E-18-5.16106E-19
 -1      4183 9.51090E-05-2.84015E-05-2.85903E-05 4.15632E-07-8.91654E-19 3.38691E-19
 -1      4184 9.51437E-05-2.84302E-05-2.85880E-05 5.11417E-07-9.04581E-19-1.88419E-19
 -1      4185 9.50446E-05-2.83378E-05-2.85888E-05 6.05884E-07-1.06683E-18-1.30005E-19
 -1      4186 9.50472E-05-2.83301E-05-2.85942E-05 3.74402E-07-5.72790E-19-3.50165E-19
 -1      4187 9.43856E-05-2.86704E-05-2.81445E-05 9.26156E-06-8.69375E-19-3.28582E-19
 -1      4188 9.52381E-05-2.85723E-05-2.85710E-05-1.76474E-10-6.82355E-19-3.39626E-18
 -1      4189 9.28517E-05-2.66704E-05-2.83869E-05 3.96875E-06-5.99725E-19 2.84887E-20
 -1      4190 9.32750E-05-2.68260E-05-2.84553E-05 3.14206E-06-4.14377E-19 3.02905E-20
 -1      4191 9.39394E-05-2.74997E-05-2.84846E-05 3.06732E-06-7.86203E-19-1.80927E-19
 -1      4192 9.38883E-05-2.76572E-05-2.84008E-05 4.62882E-06-5.00045E-19 1.78922E-19
 -1      4193 1.02586E-04-3.50260E-05-2.89669E-05 5.76785E-06-1.41798E-18-5.93701E-20
 -1      4194 9.47260E-05-2.80727E-05-2.85698E-05 1.36232E-06-3.57478E-19-1.06911E-18
 -1      4195 9.48278E-05-2.81501E-05-2.85624E-05 1.67941E-06-7.09643E-19-5.22523E-19
 -1      4196 9.52382E-05-2.85724E-05-2.85711E-05-1.05534E-10-6.15110E-19-1.09655E-18
 -1      4197 9.47499E-05-2.81609E-05-2.85414E-05 2.15738E-06-1.10476E-18-2.66409E-19
 -1      4198 9.49656E-05-2.83386E-05-2.85336E-05 2.61055E-06-8.67884E-19-1.76444E-19
 -1      4199 9.47786E-05-2.80824E-05-2.85877E-05 8.39607E-07-1.04209E-18-3.38310E-19
 -1      4200 9.48568E-05-2.81283E-05-2.85942E-05 6.42836E-07-8.96712E-19-5.71327E-19
 -1      4201 9.48152E-05-2.81045E-05-2.85821E-05 1.05672E-06-8.70348E-19-9.11181E-19
 -1      4202 9.52384E-05-2.85725E-05-2.85711E-05-3.82868E-12 6.86714E-19 2.20333E-19
 -1      4203 9.49359E-05-2.84327E-05-2.85042E-05 3.24924E-06-5.30510E-19-2.12129E-19
 -1      4204 9.98887E-05-3.30284E-05-2.86800E-05 7.06087E-06-8.91275E-19-7.43593E-19
 -1      4205 9.84928E-05-3.18677E-05-2.85068E-05 8.06561E-06-9.72324E-19-4.71414E-19
 -1      4206 9.53286E-05-2.87598E-05-2.84999E-05 3.87097E-06-5.58274E-19-3.89887E-19
 -1      4207 9.85476E-05-3.17171E-05-2.86359E-05 4.63369E-06-3.43627E-19-3.46035E-19
 -1      4208 9.96348E-05-3.26502E-05-2.87058E-05 5.08495E-06-5.46081E-19-3.20719E-19
 -1      4209 9.74589E-05-3.08480E-05-2.85606E-05 5.11809E-06-5.48289E-19-3.06690E-19
 -1      4210 1.01173E-04-3.38429E-05-2.88202E-05 5.45402E-06-9.45270E-19-1.28617E-19
 -1      4211 9.62726E-05-3.02574E-05-2.83101E-05 8.97179E-06-1.06511E-18-1.23405E-19
 -1      4212 9.63875E-05-3.02157E-05-2.83946E-05 7.48445E-06-7.21782E-19 3.85656E-20
 -1      4213 9.60858E-05-2.96771E-05-2.84400E-05 6.23435E-06-4.94951E-19-2.55902E-19
 -1      4214 9.53584E-05-2.90031E-05-2.84561E-05 4.73056E-06-6.52792E-19-3.31232E-19
 -1      4215 9.49958E-05-2.82689E-05-2.85964E-05 3.67919E-07-6.38474E-19-9.59847E-19
 -1      4216 9.49809E-05-2.82621E-05-2.85945E-05 4.66518E-07-1.00805E-18-1.22567E-18
 -1      4217 9.49806E-05-2.82694E-05-2.85908E-05 6.05632E-07-1.05448E-18-5.98316E-19
 -3
    1PSTEP                         4           1           1          
  100CL  101 1.000000000        4217                     0    1           1
 -4  ERROR       1    1
 -5  STR(%)      1    1    0    0
 -1         1 3.56391E+01
 -1         2 2.61690E+01
 -1         3 2.64111E-06
 -1         4 2.78672E-06
 -1         5 1.62918E+01
 -1         6 1.31600E+01
 -1         7 1.32311E+01
 -1         8 1.42131E+01
 -1         9 2.20575E+01
 -1        10 2.21362E+01
 -1        11 2.36829E+01
 -1        12 2.06065E+01
 -1        13 1.45375E+01
 -1        14 1.11248E+01
 -1        15 8.47408E+00
 -1        16 4.28060E+00
 -1        17 1.54842E+00
 -1        18 1.45544E+00
 -1        19 1.57630E+00
 -1        20 1.54223E+00
 -1        21 1.46668E+00
 -1        22 1.35263E+00
 -1        23 2.09305E+00
 -1        24 8.90153E+00
 -1        25 1.32311E+01
 -1        26 5.62541E+00
 -1        27 1.01657E+01
 -1        28 1.63015E+01
 -1        29 1.63015E+01
 -1        30 1.50517E+01
 -1        31 8.35921E+00
 -1        32 4.51899E+00
 -1        33 5.31514E+00
 -1        34 5.31514E+00
 -1        35 4.22073E+00
 -1        36 3.07836E+00
 -1        37 2.18506E+00
 -1        38 1.49508E+00
 -1        39 1.01238E+00
 -1        40 6.56231E-01
 -1        41 4.13588E-01
 -1        42 2.55958E-01
 -1        43 1.60340E-01
 -1        44 9.63139E-02
 -1        45 6.66693E-02
 -1        46 4.60642E-02
 -1        47 3.18543E-02
 -1        48 2.20801E-02
 -1        49 1.53463E-02
 -1        50 1.05532E-02
 -1        51 7.31231E-03
 -1        52 5.70495E-03
 -1        53 4.44252E-03
 -1        54 3.44379E-03
 -1        55 2.65430E-03
 -1        56 2.06351E-03
 -1        57 1.55950E-03
 -1        58 1.20521E-03
 -1        59 9.19573E-04
 -1        60 6.92357E-04
 -1        61 5.13570E-04
 -1        62 3.83465E-04
 -1        63 3.19067E-04
 -1        64 2.38429E-04
 -1        65 1.84722E-04
 -1        66 1.40736E-04
 -1        67 1.05357E-04
 -1        68 7.73429E-05
 -1        69 5.72769E-05
 -1        70 4.36518E-05
 -1        71 3.51933E-05
 -1        72 2.69068E-05
 -1        73 1.80401E-05
 -1        74 1.00484E-05
 -1        75 1.62918E+01
 -1        76 5.90225E+00
 -1        77 5.08564E+00
 -1        78 4.16568E+00
 -1        79 3.83878E+00
 -1        80 3.42153E+00
 -1        81 2.87419E+00
 -1        82 2.27085E+00
 -1        83 1.72505E+00
 -1        84 1.27061E+00
 -1        85 8.86290E-01
 -1        86 5.84299E-01
 -1        87 3.96974E-01
 -1        88 2.63881E-01
 -1        89 1.64165E-01
 -1        90 9.40068E-02
 -1        91 5.29249E-02
 -1        92 3.52159E-02
 -1        93 2.38233E-02
 -1        94 1.88753E-02
 -1        95 1.33773E-02
 -1        96 8.52892E-03
 -1        97 7.25436E-03
 -1        98 5.66492E-03
 -1        99 4.05452E-03
 -1       100 3.34542E-03
 -1       101 2.90987E-03
 -1       102 2.39696E-03
 -1       103 1.95035E-03
 -1       104 1.78451E-03
 -1       105 1.55314E-03
 -1       106 1.30180E-03
 -1       107 1.05830E-03
 -1       108 8.52703E-04
 -1       109 6.82679E-04
 -1       110 5.33893E-04
 -1       111 4.08301E-04
 -1       112 3.05334E-04
 -1       113 2.24689E-04
 -1       114 1.76383E-04
 -1       115 1.35689E-04
 -1       116 1.02271E-04
 -1       117 7.54106E-05
 -1       118 5.41952E-05
 -1       119 3.76355E-05
 -1       120 2.69068E-05
 -1       121 2.14181E-05
 -1       122 1.49091E-05
 -1       123 8.76474E-06
 -1       124 2.80618E-06
 -1       125 3.45365E-06
 -1       126 3.45365E-06
 -1       127 2.62783E-06
 -1       128 1.05724E-06
 -1       129 2.21322E-06
 -1       130 3.09354E-06
 -1       131 3.36831E-06
 -1       132 3.36831E-06
 -1       133 3.06071E-06
 -1       134 2.14733E-06
 -1       135 1.14623E-06
 -1       136 2.62810E-06
 -1       137 3.28839E-06
 -1       138 3.28839E-06
 -1       139 2.12048E-06
 -1       140 2.61690E+01
 -1       141 4.10980E+01
 -1       142 4.10980E+01
 -1       143 1.58740E+01
 -1       144 1.14172E+01
 -1       145 1.15791E+01
 -1       146 1.16614E+01
 -1       147 1.16614E+01
 -1       148 1.12698E+01
 -1       149 1.04427E+01
 -1       150 1.43364E+01
 -1       151 2.58242E+01
 -1       152 4.70274E+01
 -1       153 4.70274E+01
 -1       154 3.73470E+01
 -1       155 3.56391E+01
 -1       156 4.46047E+01
 -1       157 4.46047E+01
 -1       158 1.74017E+01
 -1       159 1.39130E+01
 -1       160 1.39130E+01
 -1       161 1.38047E+01
 -1       162 1.38047E+01
 -1       163 1.44964E+01
 -1       164 3.22888E+01
 -1       165 3.22888E+01
 -1       166 2.72229E+01
 -1       167 2.72229E+01
 -1       168 1.32311E+01
 -1       169 2.05280E+01
 -1       170 3.12851E+01
 -1       171 4.57476E+01
 -1       172 3.99452E+01
 -1       173 2.06065E+01
 -1       174 1.43365E+01
 -1       175 1.16357E+01
 -1       176 6.30333E+00
 -1       177 2.31838E+00
 -1       178 1.52208E+00
 -1       179 1.62295E+00
 -1       180 1.62295E+00
 -1       181 1.54746E+00
 -1       182 1.44504E+00
 -1       183 1.23234E+00
 -1       184 3.15507E+00
 -1       185 1.62918E+01
 -1       186 9.44741E+00
 -1       187 8.31509E+00
 -1       188 1.01657E+01
 -1       189 1.63015E+01
 -1       190 1.51343E+01
 -1       191 1.23663E+01
 -1       192 5.69299E+00
 -1       193 5.63429E+00
 -1       194 5.31514E+00
 -1       195 4.41312E+00
 -1       196 3.88576E+00
 -1       197 3.02913E+00
 -1       198 2.02739E+00
 -1       199 1.30817E+00
 -1       200 8.04570E-01
 -1       201 4.77270E-01
 -1       202 2.95280E-01
 -1       203 1.92722E-01
 -1       204 1.15083E-01
 -1       205 7.15462E-02
 -1       206 4.60642E-02
 -1       207 3.18543E-02
 -1       208 2.20801E-02
 -1       209 1.58044E-02
 -1       210 1.14320E-02
 -1       211 8.21014E-03
 -1       212 5.94078E-03
 -1       213 4.44252E-03
 -1       214 3.44379E-03
 -1       215 2.69072E-03
 -1       216 2.13771E-03
 -1       217 1.62904E-03
 -1       218 1.28922E-03
 -1       219 1.01801E-03
 -1       220 7.93629E-04
 -1       221 6.10553E-04
 -1       222 4.63079E-04
 -1       223 3.55833E-04
 -1       224 2.49990E-04
 -1       225 1.84722E-04
 -1       226 1.41818E-04
 -1       227 1.09118E-04
 -1       228 8.25225E-05
 -1       229 6.33461E-05
 -1       230 4.36518E-05
 -1       231 3.51933E-05
 -1       232 2.69068E-05
 -1       233 1.80401E-05
 -1       234 1.06397E-05
 -1       235 4.04153E-06
 -1       236 5.90225E+00
 -1       237 5.08564E+00
 -1       238 4.16568E+00
 -1       239 3.83878E+00
 -1       240 3.42153E+00
 -1       241 2.87419E+00
 -1       242 2.27085E+00
 -1       243 1.72505E+00
 -1       244 1.30969E+00
 -1       245 9.53079E-01
 -1       246 6.58366E-01
 -1       247 4.30434E-01
 -1       248 2.64358E-01
 -1       249 1.64165E-01
 -1       250 9.96929E-02
 -1       251 5.54221E-02
 -1       252 3.52159E-02
 -1       253 2.38233E-02
 -1       254 1.88753E-02
 -1       255 1.33773E-02
 -1       256 8.52892E-03
 -1       257 7.25436E-03
 -1       258 5.66492E-03
 -1       259 4.05452E-03
 -1       260 3.37538E-03
 -1       261 3.02384E-03
 -1       262 2.55977E-03
 -1       263 2.07461E-03
 -1       264 1.78451E-03
 -1       265 1.55314E-03
 -1       266 1.30180E-03
 -1       267 1.05830E-03
 -1       268 8.52703E-04
 -1       269 6.87651E-04
 -1       270 5.50227E-04
 -1       271 4.30332E-04
 -1       272 3.29276E-04
 -1       273 2.46464E-04
 -1       274 1.80231E-04
 -1       275 1.35689E-04
 -1       276 1.02271E-04
 -1       277 7.54106E-05
 -1       278 5.53603E-05
 -1       279 3.97172E-05
 -1       280 2.74499E-05
 -1       281 2.15888E-05
 -1       282 1.51936E-05
 -1       283 8.76474E-06
 -1       284 5.31796E-06
 -1       285 6.02277E-06
 -1       286 6.02277E-06
 -1       287 3.88808E-06
 -1       288 4.46883E-06
 -1       289 6.28010E-06
 -1       290 7.02182E-06
 -1       291 7.02182E-06
 -1       292 7.01514E-06
 -1       293 6.19992E-06
 -1       294 4.42179E-06
 -1       295 4.06381E-06
 -1       296 5.92769E-06
 -1       297 6.78357E-06
 -1       298 6.82517E-06
 -1       299 3.56962E+01
 -1       300 3.62381E+01
 -1       301 4.10980E+01
 -1       302 1.58740E+01
 -1       303 1.07156E+01
 -1       304 1.14172E+01
 -1       305 1.15791E+01
 -1       306 1.16614E+01
 -1       307 1.12698E+01
 -1       308 1.01556E+01
 -1       309 1.04427E+01
 -1       310 1.56958E+01
 -1       311 2.58242E+01
 -1       312 4.70274E+01
 -1       313 3.99452E+01
 -1       314 4.57476E+01
 -1       315 4.57476E+01
 -1       316 4.32484E+01
 -1       317 4.46047E+01
 -1       318 1.74017E+01
 -1       319 1.15613E+01
 -1       320 1.40170E+01
 -1       321 1.51343E+01
 -1       322 1.51343E+01
 -1       323 1.26988E+01
 -1       324 1.44964E+01
 -1       325 3.22888E+01
 -1       326 3.59080E+01
 -1       327 3.59080E+01
 -1       328 3.56962E+01
 -1       329 4.32484E+01
 -1       330 1.97306E+01
 -1       331 8.40091E+00
 -1       332 3.27017E+00
 -1       333 1.83087E+00
 -1       334 1.80807E+00
 -1       335 1.68447E+00
 -1       336 1.60577E+00
 -1       337 1.54746E+00
 -1       338 1.35531E+00
 -1       339 1.17184E+00
 -1       340 3.25344E+00
 -1       341 3.21185E+00
 -1       342 8.13471E+00
 -1       343 8.97460E+00
 -1       344 7.43949E+00
 -1       345 5.61156E+00
 -1       346 5.20534E+00
 -1       347 3.83782E+00
 -1       348 2.61696E+00
 -1       349 1.73020E+00
 -1       350 1.10568E+00
 -1       351 6.89589E-01
 -1       352 4.21737E-01
 -1       353 2.56121E-01
 -1       354 1.45482E-01
 -1       355 8.37074E-02
 -1       356 4.67953E-02
 -1       357 3.05433E-02
 -1       358 1.98835E-02
 -1       359 1.42529E-02
 -1       360 1.03485E-02
 -1       361 7.52423E-03
 -1       362 5.74790E-03
 -1       363 4.42855E-03
 -1       364 3.37538E-03
 -1       365 2.54796E-03
 -1       366 2.02994E-03
 -1       367 1.61482E-03
 -1       368 1.31371E-03
 -1       369 1.06812E-03
 -1       370 8.61805E-04
 -1       371 6.84932E-04
 -1       372 5.36400E-04
 -1       373 4.20559E-04
 -1       374 3.10237E-04
 -1       375 2.31822E-04
 -1       376 1.70080E-04
 -1       377 1.22214E-04
 -1       378 8.56900E-05
 -1       379 6.33461E-05
 -1       380 4.36086E-05
 -1       381 3.18415E-05
 -1       382 2.28887E-05
 -1       383 1.58453E-05
 -1       384 1.04408E-05
 -1       385 3.17785E+00
 -1       386 2.94307E+00
 -1       387 2.55106E+00
 -1       388 2.08848E+00
 -1       389 1.68777E+00
 -1       390 1.31815E+00
 -1       391 9.80989E-01
 -1       392 7.37214E-01
 -1       393 5.27630E-01
 -1       394 3.58870E-01
 -1       395 2.30952E-01
 -1       396 1.39429E-01
 -1       397 7.76276E-02
 -1       398 3.83941E-02
 -1       399 1.80809E-02
 -1       400 1.31651E-02
 -1       401 1.01169E-02
 -1       402 7.33388E-03
 -1       403 6.20302E-03
 -1       404 5.21947E-03
 -1       405 3.99442E-03
 -1       406 3.37538E-03
 -1       407 3.02384E-03
 -1       408 2.55977E-03
 -1       409 2.07461E-03
 -1       410 1.68609E-03
 -1       411 1.48193E-03
 -1       412 1.25311E-03
 -1       413 1.02695E-03
 -1       414 8.48031E-04
 -1       415 6.87336E-04
 -1       416 5.60588E-04
 -1       417 4.51613E-04
 -1       418 3.55644E-04
 -1       419 2.74062E-04
 -1       420 2.06675E-04
 -1       421 1.52375E-04
 -1       422 1.09594E-04
 -1       423 7.66130E-05
 -1       424 5.53603E-05
 -1       425 3.97172E-05
 -1       426 2.90984E-05
 -1       427 2.15888E-05
 -1       428 1.51936E-05
 -1       429 8.58335E-06
 -1       430 6.93319E-06
 -1       431 1.04541E-05
 -1       432 6.43579E-06
 -1       433 9.20283E-06
 -1       434 1.06094E-05
 -1       435 1.06094E-05
 -1       436 1.05601E-05
 -1       437 1.05601E-05
 -1       438 9.19226E-06
 -1       439 6.31014E-06
 -1       440 7.62702E-06
 -1       441 9.67874E-06
 -1       442 3.36516E+00
 -1       443 2.49660E+01
 -1       444 7.41195E+00
 -1       445 2.72218E+01
 -1       446 1.56958E+01
 -1       447 3.56962E+01
 -1       448 7.66835E+00
 -1       449 9.32390E+00
 -1       450 9.46390E+00
 -1       451 9.13815E+00
 -1       452 7.53145E+00
 -1       453 5.68362E+00
 -1       454 1.00610E+01
 -1       455 1.46059E+01
 -1       456 8.35871E+00
 -1       457 2.07219E+01
 -1       458 3.59080E+01
 -1       459 3.14188E+01
 -1       460 1.47138E+01
 -1       461 1.38336E+01
 -1       462 9.67874E-06
 -1       463 2.62728E+01
 -1       464 1.20234E+01
 -1       465 6.95815E+00
 -1       466 1.93543E+00
 -1       467 1.61100E+00
 -1       468 1.51768E+00
 -1       469 1.77993E+00
 -1       470 1.64784E+00
 -1       471 1.82229E+00
 -1       472 1.26843E+01
 -1       473 5.05499E+00
 -1       474 3.11462E+00
 -1       475 1.93846E+00
 -1       476 1.21174E+00
 -1       477 7.49561E-01
 -1       478 4.71198E-01
 -1       479 2.98580E-01
 -1       480 1.86798E-01
 -1       481 1.16561E-01
 -1       482 7.16704E-02
 -1       483 4.32121E-02
 -1       484 2.53677E-02
 -1       485 1.43178E-02
 -1       486 8.87212E-03
 -1       487 6.90493E-03
 -1       488 5.48295E-03
 -1       489 4.28777E-03
 -1       490 3.31269E-03
 -1       491 2.65172E-03
 -1       492 2.12869E-03
 -1       493 1.67653E-03
 -1       494 1.31371E-03
 -1       495 1.06974E-03
 -1       496 8.66905E-04
 -1       497 6.91803E-04
 -1       498 5.52011E-04
 -1       499 4.43876E-04
 -1       500 3.43528E-04
 -1       501 2.66026E-04
 -1       502 2.02616E-04
 -1       503 1.51677E-04
 -1       504 1.11437E-04
 -1       505 8.14008E-05
 -1       506 5.53092E-05
 -1       507 3.77264E-05
 -1       508 2.49510E-05
 -1       509 1.59145E-05
 -1       510 1.44054E-05
 -1       511 1.83975E+00
 -1       512 2.04797E+00
 -1       513 1.67237E-05
 -1       514 2.13775E+00
 -1       515 1.56593E+00
 -1       516 1.32007E+00
 -1       517 1.04732E+00
 -1       518 7.83994E-01
 -1       519 5.54886E-01
 -1       520 3.87629E-01
 -1       521 2.62063E-01
 -1       522 1.67782E-01
 -1       523 1.00833E-01
 -1       524 5.69380E-02
 -1       525 3.08290E-02
 -1       526 1.66487E-02
 -1       527 1.06700E-02
 -1       528 6.94329E-03
 -1       529 5.66772E-03
 -1       530 4.30069E-03
 -1       531 3.39684E-03
 -1       532 2.63391E-03
 -1       533 1.89858E-03
 -1       534 1.83502E-03
 -1       535 1.67449E-03
 -1       536 1.45557E-03
 -1       537 1.21754E-03
 -1       538 1.09233E-03
 -1       539 9.61501E-04
 -1       540 8.16670E-04
 -1       541 6.86742E-04
 -1       542 5.68794E-04
 -1       543 4.59432E-04
 -1       544 3.66993E-04
 -1       545 2.93358E-04
 -1       546 2.29597E-04
 -1       547 1.76040E-04
 -1       548 1.32194E-04
 -1       549 9.71167E-05
 -1       550 6.96622E-05
 -1       551 4.86530E-05
 -1       552 3.29490E-05
 -1       553 2.09829E-05
 -1       554 1.18520E-05
 -1       555 9.89582E-06
 -1       556 1.15055E-05
 -1       557 1.87107E+01
 -1       558 1.45848E-05
 -1       559 1.46823E-05
 -1       560 1.47057E-05
 -1       561 1.47057E-05
 -1       562 1.45453E-05
 -1       563 1.22146E-05
 -1       564 1.02732E-05
 -1       565 1.45760E-05
 -1       566 7.38383E+00
 -1       567 2.60161E+01
 -1       568 1.00283E+01
 -1       569 9.52745E+00
 -1       570 2.60810E+00
 -1       571 2.90626E+00
 -1       572 2.72218E+01
 -1       573 5.53478E+00
 -1       574 6.76150E+00
 -1       575 5.37095E+00
 -1       576 5.62771E+00
 -1       577 2.27595E+01
 -1       578 4.86611E+00
 -1       579 1.32722E+01
 -1       580 1.24090E+01
 -1       581 2.06133E+00
 -1       582 2.46297E+00
 -1       583 1.73572E+00
 -1       584 2.39617E+00
 -1       585 4.31775E+00
 -1       586 2.39617E+00
 -1       587 1.58759E+01
 -1       588 2.71051E+00
 -1       589 1.67666E+00
 -1       590 1.04148E+00
 -1       591 6.42772E-01
 -1       592 3.89358E-01
 -1       593 2.30662E-01
 -1       594 1.38575E-01
 -1       595 8.46339E-02
 -1       596 5.05907E-02
 -1       597 3.08955E-02
 -1       598 1.95450E-02
 -1       599 1.19772E-02
 -1       600 6.85571E-03
 -1       601 3.93085E-03
 -1       602 3.38818E-03
 -1       603 2.92851E-03
 -1       604 2.44794E-03
 -1       605 1.98595E-03
 -1       606 1.59010E-03
 -1       607 1.33957E-03
 -1       608 1.10486E-03
 -1       609 8.94966E-04
 -1       610 7.13710E-04
 -1       611 5.60995E-04
 -1       612 4.43876E-04
 -1       613 3.43528E-04
 -1       614 2.66026E-04
 -1       615 2.06075E-04
 -1       616 1.59063E-04
 -1       617 1.20657E-04
 -1       618 8.99969E-05
 -1       619 6.45715E-05
 -1       620 4.60747E-05
 -1       621 3.21393E-05
 -1       622 2.17901E-05
 -1       623 1.55408E+00
 -1       624 1.40806E+00
 -1       625 2.11037E+00
 -1       626 1.79353E-05
 -1       627 1.03995E+00
 -1       628 8.74915E-01
 -1       629 6.92994E-01
 -1       630 5.18154E-01
 -1       631 3.66686E-01
 -1       632 2.45886E-01
 -1       633 1.56109E-01
 -1       634 9.33514E-02
 -1       635 5.39990E-02
 -1       636 2.89835E-02
 -1       637 1.66796E-02
 -1       638 1.06700E-02
 -1       639 6.64136E-03
 -1       640 5.08315E-03
 -1       641 3.69486E-03
 -1       642 2.41624E-03
 -1       643 1.58430E-03
 -1       644 1.15562E-03
 -1       645 1.08074E-03
 -1       646 1.10059E-03
 -1       647 1.04229E-03
 -1       648 9.37000E-04
 -1       649 8.29865E-04
 -1       650 7.49101E-04
 -1       651 6.50283E-04
 -1       652 5.49345E-04
 -1       653 4.58466E-04
 -1       654 3.73321E-04
 -1       655 2.97343E-04
 -1       656 2.31966E-04
 -1       657 1.80534E-04
 -1       658 1.39661E-04
 -1       659 1.05939E-04
 -1       660 7.87446E-05
 -1       661 5.72806E-05
 -1       662 4.06284E-05
 -1       663 2.64389E-05
 -1       664 1.45479E-05
 -1       665 2.03753E-05
 -1       666 2.03753E-05
 -1       667 2.02265E-05
 -1       668 1.24913E+00
 -1       669 2.03416E-05
 -1       670 2.03416E-05
 -1       671 1.90683E-05
 -1       672 1.88097E-05
 -1       673 1.38438E+01
 -1       674 8.94276E+00
 -1       675 2.96951E+00
 -1       676 5.00732E+00
 -1       677 5.13120E+00
 -1       678 2.57824E+00
 -1       679 9.85591E+00
 -1       680 4.84424E+00
 -1       681 3.87182E+00
 -1       682 1.60107E+00
 -1       683 8.15317E+00
 -1       684 1.32030E+01
 -1       685 1.48116E+00
 -1       686 1.62034E-05
 -1       687 1.55729E-05
 -1       688 4.84424E+00
 -1       689 2.69701E-05
 -1       690 1.68953E+00
 -1       691 1.03844E+00
 -1       692 6.73332E-01
 -1       693 4.33706E-01
 -1       694 2.74990E-01
 -1       695 1.74729E-01
 -1       696 1.09311E-01
 -1       697 6.71442E-02
 -1       698 4.19242E-02
 -1       699 2.60138E-02
 -1       700 1.54523E-02
 -1       701 8.86243E-03
 -1       702 5.19400E-03
 -1       703 3.15088E-03
 -1       704 1.92789E-03
 -1       705 1.82074E-03
 -1       706 1.67257E-03
 -1       707 1.46427E-03
 -1       708 1.24353E-03
 -1       709 1.03149E-03
 -1       710 8.79514E-04
 -1       711 7.41037E-04
 -1       712 6.11313E-04
 -1       713 4.93337E-04
 -1       714 3.90016E-04
 -1       715 3.05553E-04
 -1       716 2.35728E-04
 -1       717 1.78927E-04
 -1       718 1.33477E-04
 -1       719 9.71701E-05
 -1       720 6.87652E-05
 -1       721 4.85827E-05
 -1       722 3.38824E-05
 -1       723 3.01683E-05
 -1       724 3.01516E-05
 -1       725 1.28352E+00
 -1       726 8.22636E-01
 -1       727 9.95549E-01
 -1       728 4.62769E-01
 -1       729 3.18320E-01
 -1       730 2.07369E-01
 -1       731 1.27654E-01
 -1       732 7.35905E-02
 -1       733 4.52006E-02
 -1       734 2.79181E-02
 -1       735 1.66796E-02
 -1       736 9.44524E-03
 -1       737 6.41301E-03
 -1       738 4.59275E-03
 -1       739 3.07497E-03
 -1       740 1.87819E-03
 -1       741 1.06247E-03
 -1       742 6.09092E-04
 -1       743 6.35797E-04
 -1       744 7.49586E-04
 -1       745 7.76745E-04
 -1       746 7.44588E-04
 -1       747 6.76337E-04
 -1       748 6.03728E-04
 -1       749 5.41765E-04
 -1       750 4.68399E-04
 -1       751 3.92933E-04
 -1       752 3.21243E-04
 -1       753 2.56654E-04
 -1       754 2.00690E-04
 -1       755 1.53677E-04
 -1       756 1.15195E-04
 -1       757 8.44149E-05
 -1       758 6.03145E-05
 -1       759 4.25189E-05
 -1       760 2.75902E-05
 -1       761 3.01683E-05
 -1       762 1.82387E+00
 -1       763 9.07412E+00
 -1       764 2.20515E-05
 -1       765 4.47120E+00
 -1       766 2.84740E-05
 -1       767 3.44467E+00
 -1       768 3.09816E-05
 -1       769 6.35819E-01
 -1       770 7.41528E+00
 -1       771 3.44467E+00
 -1       772 2.73248E+00
 -1       773 2.13104E+00
 -1       774 4.95541E+00
 -1       775 3.08835E+00
 -1       776 7.40375E+00
 -1       777 5.95005E+00
 -1       778 2.97749E+00
 -1       779 3.09816E-05
 -1       780 1.78801E+00
 -1       781 1.11702E+00
 -1       782 3.16001E-05
 -1       783 1.18838E+00
 -1       784 1.82387E+00
 -1       785 7.73959E-01
 -1       786 5.09734E-01
 -1       787 3.01285E-01
 -1       788 1.84586E-01
 -1       789 1.11315E-01
 -1       790 7.15787E-02
 -1       791 4.69683E-02
 -1       792 3.01291E-02
 -1       793 1.94710E-02
 -1       794 1.24385E-02
 -1       795 7.75374E-03
 -1       796 4.62319E-03
 -1       797 2.56943E-03
 -1       798 1.40676E-03
 -1       799 1.03718E-03
 -1       800 1.09018E-03
 -1       801 1.03950E-03
 -1       802 9.37772E-04
 -1       803 8.15223E-04
 -1       804 6.89498E-04
 -1       805 5.90902E-04
 -1       806 4.99668E-04
 -1       807 4.11408E-04
 -1       808 3.33949E-04
 -1       809 2.66350E-04
 -1       810 2.08811E-04
 -1       811 1.60933E-04
 -1       812 1.21314E-04
 -1       813 8.92345E-05
 -1       814 6.49348E-05
 -1       815 4.62722E-05
 -1       816 3.63421E-05
 -1       817 5.38655E+00
 -1       818 1.06908E+00
 -1       819 2.52063E-01
 -1       820 3.51981E-01
 -1       821 1.13035E-01
 -1       822 7.00804E-02
 -1       823 4.11492E-02
 -1       824 2.36458E-02
 -1       825 1.39557E-02
 -1       826 9.52100E-03
 -1       827 6.22864E-03
 -1       828 3.96178E-03
 -1       829 2.68374E-03
 -1       830 1.79557E-03
 -1       831 1.13650E-03
 -1       832 8.13710E-04
 -1       833 5.31328E-04
 -1       834 5.51073E-04
 -1       835 6.12557E-04
 -1       836 6.13007E-04
 -1       837 5.74292E-04
 -1       838 5.22649E-04
 -1       839 4.72544E-04
 -1       840 4.11508E-04
 -1       841 3.47753E-04
 -1       842 2.86516E-04
 -1       843 2.30819E-04
 -1       844 1.82129E-04
 -1       845 1.40866E-04
 -1       846 1.06774E-04
 -1       847 7.92413E-05
 -1       848 5.74946E-05
 -1       849 3.82297E-05
 -1       850 3.56769E+00
 -1       851 3.63421E-05
 -1       852 5.90475E+00
 -1       853 3.07695E-05
 -1       854 1.73277E-01
 -1       855 9.19451E-01
 -1       856 1.93330E+00
 -1       857 3.08835E+00
 -1       858 3.96388E+00
 -1       859 4.68553E+00
 -1       860 1.87964E+00
 -1       861 3.82297E-05
 -1       862 2.67069E+00
 -1       863 1.82387E+00
 -1       864 1.75311E+00
 -1       865 1.09971E+00
 -1       866 5.16900E-01
 -1       867 4.16097E-05
 -1       868 3.27344E-05
 -1       869 2.13104E+00
 -1       870 3.24655E-05
 -1       871 7.12969E-01
 -1       872 1.65436E+00
 -1       873 3.74732E-05
 -1       874 1.79112E+00
 -1       875 3.80260E+00
 -1       876 3.34287E-01
 -1       877 2.17453E-01
 -1       878 1.41929E-01
 -1       879 9.05725E-02
 -1       880 5.66371E-02
 -1       881 3.47149E-02
 -1       882 2.20842E-02
 -1       883 1.29649E-02
 -1       884 8.97643E-03
 -1       885 5.99985E-03
 -1       886 3.84746E-03
 -1       887 2.33624E-03
 -1       888 1.27424E-03
 -1       889 6.63620E-04
 -1       890 6.74380E-04
 -1       891 7.10847E-04
 -1       892 6.83352E-04
 -1       893 6.21436E-04
 -1       894 5.43777E-04
 -1       895 4.59635E-04
 -1       896 3.89400E-04
 -1       897 3.27844E-04
 -1       898 2.69895E-04
 -1       899 2.17710E-04
 -1       900 1.72338E-04
 -1       901 1.33423E-04
 -1       902 1.00856E-04
 -1       903 7.54875E-05
 -1       904 5.55897E-05
 -1       905 4.21869E-05
 -1       906 3.46163E-01
 -1       907 8.65778E-01
 -1       908 5.58267E-02
 -1       909 9.30359E-02
 -1       910 2.32121E-02
 -1       911 1.44516E-02
 -1       912 8.61294E-03
 -1       913 5.63638E-03
 -1       914 3.96178E-03
 -1       915 2.66992E-03
 -1       916 1.80454E-03
 -1       917 1.26716E-03
 -1       918 8.26180E-04
 -1       919 5.79546E-04
 -1       920 5.24283E-04
 -1       921 5.11203E-04
 -1       922 5.18065E-04
 -1       923 4.89758E-04
 -1       924 4.48678E-04
 -1       925 4.02454E-04
 -1       926 3.48767E-04
 -1       927 2.93951E-04
 -1       928 2.41944E-04
 -1       929 1.94967E-04
 -1       930 1.54048E-04
 -1       931 1.19425E-04
 -1       932 9.07799E-05
 -1       933 6.75376E-05
 -1       934 1.43297E+00
 -1       935 1.49525E-01
 -1       936 3.59839E-02
 -1       937 5.84249E-01
 -1       938 3.45796E+00
 -1       939 2.91593E+00
 -1       940 2.33195E-01
 -1       941 2.06155E+00
 -1       942 2.25803E+00
 -1       943 3.79626E-05
 -1       944 4.86196E-01
 -1       945 1.80389E+00
 -1       946 5.63231E-05
 -1       947 1.67366E+00
 -1       948 4.29368E-05
 -1       949 1.32949E+00
 -1       950 1.07409E+00
 -1       951 4.88537E-05
 -1       952 8.44873E-01
 -1       953 1.66079E-01
 -1       954 9.82236E-02
 -1       955 6.26447E-02
 -1       956 4.15029E-02
 -1       957 2.80325E-02
 -1       958 1.68159E-02
 -1       959 1.07619E-02
 -1       960 6.84670E-03
 -1       961 4.25573E-03
 -1       962 2.91200E-03
 -1       963 1.87017E-03
 -1       964 1.12269E-03
 -1       965 6.07750E-04
 -1       966 4.44298E-04
 -1       967 4.65858E-04
 -1       968 4.78791E-04
 -1       969 4.54355E-04
 -1       970 4.08135E-04
 -1       971 3.53827E-04
 -1       972 2.98708E-04
 -1       973 2.46312E-04
 -1       974 2.03452E-04
 -1       975 1.65176E-04
 -1       976 1.30940E-04
 -1       977 1.01294E-04
 -1       978 7.74386E-05
 -1       979 5.81841E-05
 -1       980 4.62260E-05
 -1       981 1.65436E+00
 -1       982 1.28506E-02
 -1       983 2.02722E-02
 -1       984 5.63638E-03
 -1       985 3.83351E-03
 -1       986 2.70056E-03
 -1       987 1.81274E-03
 -1       988 1.26716E-03
 -1       989 8.26180E-04
 -1       990 5.79546E-04
 -1       991 4.88325E-04
 -1       992 4.40338E-04
 -1       993 4.39123E-04
 -1       994 4.11082E-04
 -1       995 3.71783E-04
 -1       996 3.27149E-04
 -1       997 2.79655E-04
 -1       998 2.33351E-04
 -1       999 1.90642E-04
 -1      1000 1.52780E-04
 -1      1001 1.20236E-04
 -1      1002 9.29778E-05
 -1      1003 7.49919E-05
 -1      1004 2.14479E-01
 -1      1005 6.45684E-01
 -1      1006 9.32766E-02
 -1      1007 2.15281E+00
 -1      1008 1.44726E-01
 -1      1009 8.37514E-03
 -1      1010 2.75164E-01
 -1      1011 2.13053E+00
 -1      1012 4.29368E-05
 -1      1013 2.88820E-01
 -1      1014 1.67366E+00
 -1      1015 4.34583E-01
 -1      1016 4.38106E-01
 -1      1017 8.93145E-01
 -1      1018 5.74135E-02
 -1      1019 3.46695E-02
 -1      1020 8.27398E-05
 -1      1021 1.43297E+00
 -1      1022 4.86202E-05
 -1      1023 6.56906E-01
 -1      1024 1.36644E+00
 -1      1025 8.27398E-05
 -1      1026 1.31261E+00
 -1      1027 1.14162E-01
 -1      1028 4.90003E-02
 -1      1029 3.78409E-02
 -1      1030 1.92808E-02
 -1      1031 1.16326E-02
 -1      1032 7.86974E-03
 -1      1033 5.34958E-03
 -1      1034 3.54028E-03
 -1      1035 2.70477E-03
 -1      1036 1.95726E-03
 -1      1037 1.33237E-03
 -1      1038 8.44165E-04
 -1      1039 5.08369E-04
 -1      1040 3.90936E-04
 -1      1041 3.58770E-04
 -1      1042 3.39276E-04
 -1      1043 2.98370E-04
 -1      1044 2.69728E-04
 -1      1045 2.35453E-04
 -1      1046 1.99905E-04
 -1      1047 1.66747E-04
 -1      1048 1.42149E-04
 -1      1049 1.08603E-04
 -1      1050 8.48850E-05
 -1      1051 2.70477E-03
 -1      1052 2.58356E-02
 -1      1053 1.54532E-02
 -1      1054 3.83351E-03
 -1      1055 5.38464E-03
 -1      1056 1.95726E-03
 -1      1057 1.33237E-03
 -1      1058 8.44165E-04
 -1      1059 5.85506E-04
 -1      1060 4.13254E-04
 -1      1061 3.90936E-04
 -1      1062 3.61922E-04
 -1      1063 3.30975E-04
 -1      1064 2.91737E-04
 -1      1065 2.49830E-04
 -1      1066 2.14516E-04
 -1      1067 1.83150E-04
 -1      1068 1.52210E-04
 -1      1069 1.23949E-04
 -1      1070 9.85833E-05
 -1      1071 8.27398E-05
 -1      1072 1.36644E+00
 -1      1073 9.91607E-01
 -1      1074 4.91995E-01
 -1      1075 1.93742E-01
 -1      1076 1.31401E+00
 -1      1077 3.09212E-01
 -1      1078 8.99756E-03
 -1      1079 1.86492E-01
 -1      1080 2.96658E-01
 -1      1081 6.49558E-05
 -1      1082 4.67255E-02
 -1      1083 9.03278E-01
 -1      1084 7.01180E-01
 -1      1085 1.16723E-01
 -1      1086 9.26012E-01
 -1      1087 9.03278E-01
 -1      1088 4.42503E-01
 -1      1089 1.05090E+00
 -1      1090 1.31837E+00
 -1      1091 6.40451E-05
 -1      1092 6.12779E-02
 -1      1093 1.05090E+00
 -1      1094 4.19161E-02
 -1      1095 6.19249E-01
 -1      1096 9.26012E-01
 -1      1097 1.31955E+01
 -1      1098 1.37221E+01
 -1      1099 1.81353E+01
 -1      1100 2.20968E+01
 -1      1101 2.29095E+01
 -1      1102 2.21447E+01
 -1      1103 1.75720E+01
 -1      1104 1.28312E+01
 -1      1105 9.79943E+00
 -1      1106 6.37734E+00
 -1      1107 2.91451E+00
 -1      1108 1.50193E+00
 -1      1109 1.51587E+00
 -1      1110 1.55927E+00
 -1      1111 1.50446E+00
 -1      1112 1.40966E+00
 -1      1113 1.72284E+00
 -1      1114 5.49729E+00
 -1      1115 1.25967E+01
 -1      1116 1.31955E+01
 -1      1117 9.42823E+00
 -1      1118 7.89553E+00
 -1      1119 1.32336E+01
 -1      1120 1.63015E+01
 -1      1121 1.56766E+01
 -1      1122 1.17055E+01
 -1      1123 6.43910E+00
 -1      1124 4.91706E+00
 -1      1125 5.31514E+00
 -1      1126 4.76793E+00
 -1      1127 3.64955E+00
 -1      1128 2.63171E+00
 -1      1129 1.84007E+00
 -1      1130 1.25373E+00
 -1      1131 8.34307E-01
 -1      1132 5.34909E-01
 -1      1133 3.34773E-01
 -1      1134 2.08149E-01
 -1      1135 1.28327E-01
 -1      1136 8.14916E-02
 -1      1137 5.63668E-02
 -1      1138 3.89592E-02
 -1      1139 2.69672E-02
 -1      1140 1.87132E-02
 -1      1141 1.29498E-02
 -1      1142 8.93276E-03
 -1      1143 6.50863E-03
 -1      1144 5.07373E-03
 -1      1145 3.94315E-03
 -1      1146 3.04905E-03
 -1      1147 2.35891E-03
 -1      1148 1.81151E-03
 -1      1149 1.38236E-03
 -1      1150 1.06239E-03
 -1      1151 8.05965E-04
 -1      1152 6.02964E-04
 -1      1153 4.48518E-04
 -1      1154 3.51266E-04
 -1      1155 2.78748E-04
 -1      1156 2.11575E-04
 -1      1157 1.62729E-04
 -1      1158 1.23046E-04
 -1      1159 9.13498E-05
 -1      1160 6.73099E-05
 -1      1161 5.04643E-05
 -1      1162 3.94226E-05
 -1      1163 3.10501E-05
 -1      1164 2.24734E-05
 -1      1165 1.40443E-05
 -1      1166 6.41759E-06
 -1      1167 1.62918E+01
 -1      1168 1.10970E+01
 -1      1169 5.49394E+00
 -1      1170 4.62566E+00
 -1      1171 4.00223E+00
 -1      1172 3.63016E+00
 -1      1173 3.14786E+00
 -1      1174 2.57252E+00
 -1      1175 1.99795E+00
 -1      1176 1.49783E+00
 -1      1177 1.07845E+00
 -1      1178 7.35295E-01
 -1      1179 4.90637E-01
 -1      1180 3.30428E-01
 -1      1181 2.14023E-01
 -1      1182 1.29086E-01
 -1      1183 7.34658E-02
 -1      1184 4.40704E-02
 -1      1185 2.95196E-02
 -1      1186 2.13493E-02
 -1      1187 1.61263E-02
 -1      1188 1.09531E-02
 -1      1189 7.89164E-03
 -1      1190 6.45964E-03
 -1      1191 4.85972E-03
 -1      1192 3.69997E-03
 -1      1193 3.12765E-03
 -1      1194 2.65342E-03
 -1      1195 2.17366E-03
 -1      1196 1.86743E-03
 -1      1197 1.66883E-03
 -1      1198 1.42747E-03
 -1      1199 1.18005E-03
 -1      1200 9.55499E-04
 -1      1201 7.67691E-04
 -1      1202 6.08286E-04
 -1      1203 4.71097E-04
 -1      1204 3.56818E-04
 -1      1205 2.65011E-04
 -1      1206 2.00536E-04
 -1      1207 1.56036E-04
 -1      1208 1.18980E-04
 -1      1209 8.88408E-05
 -1      1210 6.48029E-05
 -1      1211 4.59154E-05
 -1      1212 3.22712E-05
 -1      1213 2.41624E-05
 -1      1214 1.81636E-05
 -1      1215 1.18369E-05
 -1      1216 5.70292E-06
 -1      1217 2.72364E-06
 -1      1218 3.12991E-06
 -1      1219 3.45365E-06
 -1      1220 3.04074E-06
 -1      1221 1.84253E-06
 -1      1222 1.63523E-06
 -1      1223 2.65338E-06
 -1      1224 3.23092E-06
 -1      1225 3.36831E-06
 -1      1226 3.21451E-06
 -1      1227 2.60402E-06
 -1      1228 1.64678E-06
 -1      1229 1.88716E-06
 -1      1230 2.95825E-06
 -1      1231 3.28839E-06
 -1      1232 2.70444E-06
 -1      1233 2.45360E-06
 -1      1234 2.61690E+01
 -1      1235 3.36335E+01
 -1      1236 4.10980E+01
 -1      1237 2.84860E+01
 -1      1238 1.36456E+01
 -1      1239 1.14981E+01
 -1      1240 1.16203E+01
 -1      1241 1.16614E+01
 -1      1242 1.14656E+01
 -1      1243 1.08563E+01
 -1      1244 1.23896E+01
 -1      1245 2.00803E+01
 -1      1246 3.64258E+01
 -1      1247 4.70274E+01
 -1      1248 4.21872E+01
 -1      1249 3.64931E+01
 -1      1250 3.56391E+01
 -1      1251 4.01219E+01
 -1      1252 4.46047E+01
 -1      1253 3.10032E+01
 -1      1254 1.56573E+01
 -1      1255 1.39130E+01
 -1      1256 1.38588E+01
 -1      1257 1.38047E+01
 -1      1258 1.41505E+01
 -1      1259 2.33926E+01
 -1      1260 3.22888E+01
 -1      1261 2.97559E+01
 -1      1262 2.72229E+01
 -1      1263 2.66960E+01
 -1      1264 1.32311E+01
 -1      1265 1.37221E+01
 -1      1266 1.32311E+01
 -1      1267 2.12928E+01
 -1      1268 1.73706E+01
 -1      1269 1.68795E+01
 -1      1270 2.67106E+01
 -1      1271 2.66713E+01
 -1      1272 2.59065E+01
 -1      1273 3.47152E+01
 -1      1274 3.39419E+01
 -1      1275 3.85164E+01
 -1      1276 3.02759E+01
 -1      1277 3.18140E+01
 -1      1278 4.28464E+01
 -1      1279 1.75720E+01
 -1      1280 2.06065E+01
 -1      1281 3.02759E+01
 -1      1282 1.27306E+01
 -1      1283 1.44370E+01
 -1      1284 1.74715E+01
 -1      1285 1.00549E+01
 -1      1286 1.13802E+01
 -1      1287 1.29861E+01
 -1      1288 5.29196E+00
 -1      1289 7.38870E+00
 -1      1290 8.96952E+00
 -1      1291 1.93340E+00
 -1      1292 3.29949E+00
 -1      1293 4.31085E+00
 -1      1294 1.48876E+00
 -1      1295 1.53525E+00
 -1      1296 1.92023E+00
 -1      1297 1.59962E+00
 -1      1298 1.53920E+00
 -1      1299 1.57251E+00
 -1      1300 1.58259E+00
 -1      1301 1.59962E+00
 -1      1302 1.62295E+00
 -1      1303 1.50707E+00
 -1      1304 1.54485E+00
 -1      1305 1.58521E+00
 -1      1306 1.39884E+00
 -1      1307 1.45586E+00
 -1      1308 1.49625E+00
 -1      1309 1.66269E+00
 -1      1310 1.29248E+00
 -1      1311 1.33869E+00
 -1      1312 6.02830E+00
 -1      1313 2.62406E+00
 -1      1314 2.19371E+00
 -1      1315 1.62918E+01
 -1      1316 1.25967E+01
 -1      1317 9.72345E+00
 -1      1318 1.62918E+01
 -1      1319 1.13392E+01
 -1      1320 7.53641E+00
 -1      1321 6.97025E+00
 -1      1322 9.24037E+00
 -1      1323 8.88125E+00
 -1      1324 1.01657E+01
 -1      1325 1.32336E+01
 -1      1326 9.24037E+00
 -1      1327 1.63015E+01
 -1      1328 1.63015E+01
 -1      1329 1.32336E+01
 -1      1330 1.57179E+01
 -1      1331 1.50930E+01
 -1      1332 1.57179E+01
 -1      1333 1.37090E+01
 -1      1334 1.03628E+01
 -1      1335 1.37503E+01
 -1      1336 7.02610E+00
 -1      1337 5.10599E+00
 -1      1338 9.02966E+00
 -1      1339 5.07664E+00
 -1      1340 5.47471E+00
 -1      1341 5.66364E+00
 -1      1342 5.31514E+00
 -1      1343 5.31514E+00
 -1      1344 5.47471E+00
 -1      1345 4.86412E+00
 -1      1346 4.31692E+00
 -1      1347 4.86412E+00
 -1      1348 4.05324E+00
 -1      1349 3.48206E+00
 -1      1350 4.14944E+00
 -1      1351 3.05375E+00
 -1      1352 2.60710E+00
 -1      1353 3.45745E+00
 -1      1354 2.10622E+00
 -1      1355 1.76123E+00
 -1      1356 2.52826E+00
 -1      1357 1.40162E+00
 -1      1358 1.16028E+00
 -1      1359 1.66778E+00
 -1      1360 9.08477E-01
 -1      1361 7.30400E-01
 -1      1362 1.05637E+00
 -1      1363 5.66750E-01
 -1      1364 4.45429E-01
 -1      1365 6.40920E-01
 -1      1366 3.54434E-01
 -1      1367 2.75619E-01
 -1      1368 3.86275E-01
 -1      1369 2.24340E-01
 -1      1370 1.76531E-01
 -1      1371 2.44001E-01
 -1      1372 1.37711E-01
 -1      1373 1.05698E-01
 -1      1374 1.53902E-01
 -1      1375 8.39300E-02
 -1      1376 6.91078E-02
 -1      1377 9.33144E-02
 -1      1378 5.63668E-02
 -1      1379 4.60642E-02
 -1      1380 5.88052E-02
 -1      1381 3.89592E-02
 -1      1382 3.18543E-02
 -1      1383 3.89592E-02
 -1      1384 2.69672E-02
 -1      1385 2.20801E-02
 -1      1386 2.69672E-02
 -1      1387 1.89422E-02
 -1      1388 1.55753E-02
 -1      1389 1.89422E-02
 -1      1390 1.33891E-02
 -1      1391 1.09926E-02
 -1      1392 1.36182E-02
 -1      1393 9.38168E-03
 -1      1394 7.76123E-03
 -1      1395 9.82106E-03
 -1      1396 6.62654E-03
 -1      1397 5.82286E-03
 -1      1398 7.07546E-03
 -1      1399 5.07373E-03
 -1      1400 4.44252E-03
 -1      1401 5.19165E-03
 -1      1402 3.94315E-03
 -1      1403 3.44379E-03
 -1      1404 3.94315E-03
 -1      1405 3.06726E-03
 -1      1406 2.67251E-03
 -1      1407 3.06726E-03
 -1      1408 2.39601E-03
 -1      1409 2.10061E-03
 -1      1410 2.41422E-03
 -1      1411 1.84628E-03
 -1      1412 1.59427E-03
 -1      1413 1.88338E-03
 -1      1414 1.42436E-03
 -1      1415 1.24721E-03
 -1      1416 1.45913E-03
 -1      1417 1.11161E-03
 -1      1418 9.68792E-04
 -1      1419 1.15361E-03
 -1      1420 8.56601E-04
 -1      1421 7.42993E-04
 -1      1422 9.05820E-04
 -1      1423 6.51455E-04
 -1      1424 5.62061E-04
 -1      1425 7.02091E-04
 -1      1426 4.88325E-04
 -1      1427 4.23272E-04
 -1      1428 5.36816E-04
 -1      1429 3.69649E-04
 -1      1430 3.37450E-04
 -1      1431 4.09456E-04
 -1      1432 2.84528E-04
 -1      1433 2.44209E-04
 -1      1434 3.02912E-04
 -1      1435 2.11575E-04
 -1      1436 1.84722E-04
 -1      1437 2.17356E-04
 -1      1438 1.63270E-04
 -1      1439 1.41277E-04
 -1      1440 1.63270E-04
 -1      1441 1.24927E-04
 -1      1442 1.07238E-04
 -1      1443 1.25468E-04
 -1      1444 9.39396E-05
 -1      1445 7.99327E-05
 -1      1446 9.58205E-05
 -1      1447 7.03445E-05
 -1      1448 6.03115E-05
 -1      1449 7.29343E-05
 -1      1450 5.04643E-05
 -1      1451 4.36518E-05
 -1      1452 5.34989E-05
 -1      1453 3.94226E-05
 -1      1454 3.51933E-05
 -1      1455 3.94226E-05
 -1      1456 3.10501E-05
 -1      1457 2.69068E-05
 -1      1458 3.10501E-05
 -1      1459 2.24734E-05
 -1      1460 1.80401E-05
 -1      1461 2.24734E-05
 -1      1462 1.43399E-05
 -1      1463 1.03441E-05
 -1      1464 1.43399E-05
 -1      1465 7.04499E-06
 -1      1466 3.41413E-06
 -1      1467 3.08101E-06
 -1      1468 7.34063E-06
 -1      1469 5.90225E+00
 -1      1470 1.10970E+01
 -1      1471 1.10970E+01
 -1      1472 5.08564E+00
 -1      1473 5.49394E+00
 -1      1474 5.49394E+00
 -1      1475 4.16568E+00
 -1      1476 4.62566E+00
 -1      1477 4.62566E+00
 -1      1478 3.83878E+00
 -1      1479 4.00223E+00
 -1      1480 4.00223E+00
 -1      1481 3.42153E+00
 -1      1482 3.63016E+00
 -1      1483 3.63016E+00
 -1      1484 2.87419E+00
 -1      1485 3.14786E+00
 -1      1486 3.14786E+00
 -1      1487 2.27085E+00
 -1      1488 2.57252E+00
 -1      1489 2.57252E+00
 -1      1490 1.72505E+00
 -1      1491 1.99795E+00
 -1      1492 1.99795E+00
 -1      1493 1.29015E+00
 -1      1494 1.51737E+00
 -1      1495 1.51737E+00
 -1      1496 9.19684E-01
 -1      1497 1.11184E+00
 -1      1498 1.13139E+00
 -1      1499 6.21333E-01
 -1      1500 7.72328E-01
 -1      1501 8.05722E-01
 -1      1502 4.13704E-01
 -1      1503 5.07367E-01
 -1      1504 5.44400E-01
 -1      1505 2.64120E-01
 -1      1506 3.30666E-01
 -1      1507 3.47396E-01
 -1      1508 1.64165E-01
 -1      1509 2.14023E-01
 -1      1510 2.14262E-01
 -1      1511 9.68498E-02
 -1      1512 1.31929E-01
 -1      1513 1.31929E-01
 -1      1514 5.41735E-02
 -1      1515 7.47144E-02
 -1      1516 7.75575E-02
 -1      1517 3.52159E-02
 -1      1518 4.40704E-02
 -1      1519 4.53190E-02
 -1      1520 2.38233E-02
 -1      1521 2.95196E-02
 -1      1522 2.95196E-02
 -1      1523 1.88753E-02
 -1      1524 2.13493E-02
 -1      1525 2.13493E-02
 -1      1526 1.33773E-02
 -1      1527 1.61263E-02
 -1      1528 1.61263E-02
 -1      1529 8.52892E-03
 -1      1530 1.09531E-02
 -1      1531 1.09531E-02
 -1      1532 7.25436E-03
 -1      1533 7.89164E-03
 -1      1534 7.89164E-03
 -1      1535 5.66492E-03
 -1      1536 6.45964E-03
 -1      1537 6.45964E-03
 -1      1538 4.05452E-03
 -1      1539 4.85972E-03
 -1      1540 4.85972E-03
 -1      1541 3.36040E-03
 -1      1542 3.71495E-03
 -1      1543 3.71495E-03
 -1      1544 2.96686E-03
 -1      1545 3.18463E-03
 -1      1546 3.19961E-03
 -1      1547 2.47836E-03
 -1      1548 2.73482E-03
 -1      1549 2.79181E-03
 -1      1550 2.01248E-03
 -1      1551 2.23579E-03
 -1      1552 2.31719E-03
 -1      1553 1.78451E-03
 -1      1554 1.86743E-03
 -1      1555 1.92956E-03
 -1      1556 1.55314E-03
 -1      1557 1.66883E-03
 -1      1558 1.66883E-03
 -1      1559 1.30180E-03
 -1      1560 1.42747E-03
 -1      1561 1.42747E-03
 -1      1562 1.05830E-03
 -1      1563 1.18005E-03
 -1      1564 1.18005E-03
 -1      1565 8.52703E-04
 -1      1566 9.55499E-04
 -1      1567 9.55499E-04
 -1      1568 6.85165E-04
 -1      1569 7.70177E-04
 -1      1570 7.70177E-04
 -1      1571 5.42060E-04
 -1      1572 6.16453E-04
 -1      1573 6.18939E-04
 -1      1574 4.19317E-04
 -1      1575 4.82112E-04
 -1      1576 4.90280E-04
 -1      1577 3.17305E-04
 -1      1578 3.68789E-04
 -1      1579 3.79804E-04
 -1      1580 2.35577E-04
 -1      1581 2.75899E-04
 -1      1582 2.87870E-04
 -1      1583 1.78307E-04
 -1      1584 2.02460E-04
 -1      1585 2.13348E-04
 -1      1586 1.35689E-04
 -1      1587 1.56036E-04
 -1      1588 1.57960E-04
 -1      1589 1.02271E-04
 -1      1590 1.18980E-04
 -1      1591 1.18980E-04
 -1      1592 7.54106E-05
 -1      1593 8.88408E-05
 -1      1594 8.88408E-05
 -1      1595 5.47777E-05
 -1      1596 6.53854E-05
 -1      1597 6.53854E-05
 -1      1598 3.86763E-05
 -1      1599 4.69562E-05
 -1      1600 4.75387E-05
 -1      1601 2.71784E-05
 -1      1602 3.25427E-05
 -1      1603 3.35835E-05
 -1      1604 2.15034E-05
 -1      1605 2.42478E-05
 -1      1606 2.45193E-05
 -1      1607 1.50514E-05
 -1      1608 1.83058E-05
 -1      1609 1.83912E-05
 -1      1610 8.76474E-06
 -1      1611 1.18369E-05
 -1      1612 1.19792E-05
 -1      1613 5.78546E-06
 -1      1614 4.38581E-06
 -1      1615 4.06207E-06
 -1      1616 4.73821E-06
 -1      1617 4.73821E-06
 -1      1618 5.67037E-06
 -1      1619 4.32530E-06
 -1      1620 4.73821E-06
 -1      1621 6.02277E-06
 -1      1622 2.47266E-06
 -1      1623 3.25795E-06
 -1      1624 4.95542E-06
 -1      1625 3.34103E-06
 -1      1626 2.76304E-06
 -1      1627 4.17845E-06
 -1      1628 4.68682E-06
 -1      1629 4.24666E-06
 -1      1630 5.37446E-06
 -1      1631 5.19506E-06
 -1      1632 5.05768E-06
 -1      1633 6.65096E-06
 -1      1634 5.19506E-06
 -1      1635 5.19506E-06
 -1      1636 7.02182E-06
 -1      1637 5.03792E-06
 -1      1638 5.19172E-06
 -1      1639 7.01848E-06
 -1      1640 4.17363E-06
 -1      1641 4.63032E-06
 -1      1642 6.60753E-06
 -1      1643 2.78401E-06
 -1      1644 3.28456E-06
 -1      1645 5.31086E-06
 -1      1646 3.34596E-06
 -1      1647 2.60502E-06
 -1      1648 4.24280E-06
 -1      1649 4.60804E-06
 -1      1650 4.27790E-06
 -1      1651 4.99575E-06
 -1      1652 5.03598E-06
 -1      1653 5.03598E-06
 -1      1654 6.35563E-06
 -1      1655 4.47283E-06
 -1      1656 5.05678E-06
 -1      1657 6.80437E-06
 -1      1658 5.43335E-06
 -1      1659 3.09326E+01
 -1      1660 3.09326E+01
 -1      1661 3.86681E+01
 -1      1662 3.12036E+01
 -1      1663 4.10980E+01
 -1      1664 4.10980E+01
 -1      1665 1.58740E+01
 -1      1666 2.84860E+01
 -1      1667 1.10664E+01
 -1      1668 1.32948E+01
 -1      1669 1.14981E+01
 -1      1670 1.14172E+01
 -1      1671 1.16203E+01
 -1      1672 1.15791E+01
 -1      1673 1.16614E+01
 -1      1674 1.16614E+01
 -1      1675 1.12698E+01
 -1      1676 1.14656E+01
 -1      1677 1.02992E+01
 -1      1678 1.07127E+01
 -1      1679 1.23896E+01
 -1      1680 1.04427E+01
 -1      1681 2.07600E+01
 -1      1682 1.50161E+01
 -1      1683 3.64258E+01
 -1      1684 2.58242E+01
 -1      1685 4.70274E+01
 -1      1686 4.70274E+01
 -1      1687 3.86461E+01
 -1      1688 4.34863E+01
 -1      1689 4.06934E+01
 -1      1690 4.15473E+01
 -1      1691 4.06934E+01
 -1      1692 4.06934E+01
 -1      1693 4.39265E+01
 -1      1694 3.94438E+01
 -1      1695 4.46047E+01
 -1      1696 4.46047E+01
 -1      1697 1.74017E+01
 -1      1698 3.10032E+01
 -1      1699 1.27371E+01
 -1      1700 1.44815E+01
 -1      1701 1.39650E+01
 -1      1702 1.39650E+01
 -1      1703 1.44695E+01
 -1      1704 1.45236E+01
 -1      1705 1.44695E+01
 -1      1706 1.44695E+01
 -1      1707 1.35976E+01
 -1      1708 1.32518E+01
 -1      1709 2.33926E+01
 -1      1710 1.44964E+01
 -1      1711 3.22888E+01
 -1      1712 3.22888E+01
 -1      1713 3.15655E+01
 -1      1714 3.40984E+01
 -1      1715 3.15655E+01
 -1      1716 3.15655E+01
 -1      1717 3.09326E+01
 -1      1718 3.14596E+01
 -1      1719 1.32311E+01
 -1      1720 1.13392E+01
 -1      1721 3.56962E+01
 -1      1722 2.84860E+01
 -1      1723 5.78546E-06
 -1      1724 7.04135E-06
 -1      1725 3.59672E+01
 -1      1726 3.86681E+01
 -1      1727 1.32948E+01
 -1      1728 1.10664E+01
 -1      1729 1.14981E+01
 -1      1730 1.16203E+01
 -1      1731 1.14656E+01
 -1      1732 1.07127E+01
 -1      1733 1.02992E+01
 -1      1734 1.30693E+01
 -1      1735 2.07600E+01
 -1      1736 3.64258E+01
 -1      1737 4.34863E+01
 -1      1738 4.28464E+01
 -1      1739 4.57476E+01
 -1      1740 4.44980E+01
 -1      1741 4.39265E+01
 -1      1742 3.10032E+01
 -1      1743 1.44815E+01
 -1      1744 1.27891E+01
 -1      1745 1.45756E+01
 -1      1746 1.51343E+01
 -1      1747 1.39166E+01
 -1      1748 1.35976E+01
 -1      1749 2.33926E+01
 -1      1750 3.40984E+01
 -1      1751 3.59080E+01
 -1      1752 3.58021E+01
 -1      1753 3.72667E+01
 -1      1754 3.18882E+01
 -1      1755 2.01293E+01
 -1      1756 1.64808E+01
 -1      1757 1.45890E+01
 -1      1758 3.14895E+01
 -1      1759 4.28464E+01
 -1      1760 4.57476E+01
 -1      1761 3.38169E+01
 -1      1762 4.34863E+01
 -1      1763 2.00804E+01
 -1      1764 2.32154E+01
 -1      1765 7.35212E+00
 -1      1766 1.00183E+01
 -1      1767 2.79427E+00
 -1      1768 4.78675E+00
 -1      1769 5.83554E+00
 -1      1770 1.67648E+00
 -1      1771 2.07462E+00
 -1      1772 2.55052E+00
 -1      1773 1.71551E+00
 -1      1774 1.66508E+00
 -1      1775 1.81947E+00
 -1      1776 1.65371E+00
 -1      1777 1.65371E+00
 -1      1778 1.74627E+00
 -1      1779 1.57662E+00
 -1      1780 1.61436E+00
 -1      1781 1.64512E+00
 -1      1782 1.49625E+00
 -1      1783 1.54746E+00
 -1      1784 1.57662E+00
 -1      1785 1.29383E+00
 -1      1786 1.40018E+00
 -1      1787 1.45139E+00
 -1      1788 2.16346E+00
 -1      1789 1.20209E+00
 -1      1790 1.26358E+00
 -1      1791 9.77263E+00
 -1      1792 3.20426E+00
 -1      1793 2.21264E+00
 -1      1794 4.57784E+00
 -1      1795 4.14874E+00
 -1      1796 4.55705E+00
 -1      1797 3.23264E+00
 -1      1798 1.20913E+01
 -1      1799 1.51592E+01
 -1      1800 1.02505E+01
 -1      1801 6.91385E+00
 -1      1802 7.33379E+00
 -1      1803 7.30444E+00
 -1      1804 6.53689E+00
 -1      1805 6.37731E+00
 -1      1806 8.20704E+00
 -1      1807 5.46335E+00
 -1      1808 5.01234E+00
 -1      1809 4.80923E+00
 -1      1810 4.54555E+00
 -1      1811 5.40845E+00
 -1      1812 3.86179E+00
 -1      1813 3.43348E+00
 -1      1814 4.52158E+00
 -1      1815 2.82305E+00
 -1      1816 2.32217E+00
 -1      1817 3.22739E+00
 -1      1818 1.87879E+00
 -1      1819 1.51918E+00
 -1      1820 2.17358E+00
 -1      1821 1.20692E+00
 -1      1822 9.55123E-01
 -1      1823 1.41794E+00
 -1      1824 7.47079E-01
 -1      1825 5.83429E-01
 -1      1826 8.97633E-01
 -1      1827 4.49503E-01
 -1      1828 3.58509E-01
 -1      1829 5.55663E-01
 -1      1830 2.75701E-01
 -1      1831 2.24422E-01
 -1      1832 3.38929E-01
 -1      1833 1.69102E-01
 -1      1834 1.30282E-01
 -1      1835 2.00801E-01
 -1      1836 9.93950E-02
 -1      1837 7.76268E-02
 -1      1838 1.14595E-01
 -1      1839 5.91707E-02
 -1      1840 4.64297E-02
 -1      1841 6.52513E-02
 -1      1842 3.83037E-02
 -1      1843 3.11988E-02
 -1      1844 3.86693E-02
 -1      1845 2.58689E-02
 -1      1846 2.09818E-02
 -1      1847 2.52134E-02
 -1      1848 1.81665E-02
 -1      1849 1.50286E-02
 -1      1850 1.70682E-02
 -1      1851 1.30764E-02
 -1      1852 1.08902E-02
 -1      1853 1.23007E-02
 -1      1854 9.47810E-03
 -1      1855 7.86719E-03
 -1      1856 8.93635E-03
 -1      1857 6.97902E-03
 -1      1858 5.84434E-03
 -1      1859 6.63607E-03
 -1      1860 5.18466E-03
 -1      1861 4.43553E-03
 -1      1862 5.08823E-03
 -1      1863 3.90895E-03
 -1      1864 3.40959E-03
 -1      1865 3.90196E-03
 -1      1866 2.99588E-03
 -1      1867 2.61934E-03
 -1      1868 2.96167E-03
 -1      1869 2.36033E-03
 -1      1870 2.08383E-03
 -1      1871 2.28895E-03
 -1      1872 1.87627E-03
 -1      1873 1.62193E-03
 -1      1874 1.82238E-03
 -1      1875 1.47137E-03
 -1      1876 1.30146E-03
 -1      1877 1.46426E-03
 -1      1878 1.17867E-03
 -1      1879 1.04307E-03
 -1      1880 1.19091E-03
 -1      1881 9.39909E-04
 -1      1882 8.27717E-04
 -1      1883 9.64963E-04
 -1      1884 7.39280E-04
 -1      1885 6.47742E-04
 -1      1886 7.73369E-04
 -1      1887 5.73476E-04
 -1      1888 4.99739E-04
 -1      1889 6.10666E-04
 -1      1890 4.41819E-04
 -1      1891 3.88196E-04
 -1      1892 4.78479E-04
 -1      1893 3.33035E-04
 -1      1894 2.80114E-04
 -1      1895 3.65398E-04
 -1      1896 2.40906E-04
 -1      1897 2.08272E-04
 -1      1898 2.71029E-04
 -1      1899 1.77401E-04
 -1      1900 1.55949E-04
 -1      1901 2.00951E-04
 -1      1902 1.32016E-04
 -1      1903 1.15666E-04
 -1      1904 1.46147E-04
 -1      1905 9.74042E-05
 -1      1906 8.41063E-05
 -1      1907 1.03952E-04
 -1      1908 7.29343E-05
 -1      1909 6.33461E-05
 -1      1910 7.45181E-05
 -1      1911 5.34774E-05
 -1      1912 4.36302E-05
 -1      1913 5.34774E-05
 -1      1914 3.77466E-05
 -1      1915 3.35174E-05
 -1      1916 3.77251E-05
 -1      1917 2.90410E-05
 -1      1918 2.48977E-05
 -1      1919 2.73651E-05
 -1      1920 2.13760E-05
 -1      1921 1.69427E-05
 -1      1922 1.93670E-05
 -1      1923 1.42405E-05
 -1      1924 1.05403E-05
 -1      1925 1.31431E-05
 -1      1926 8.73245E-06
 -1      1927 3.50831E+00
 -1      1928 3.67176E+00
 -1      1929 3.18230E+00
 -1      1930 3.39093E+00
 -1      1931 3.06046E+00
 -1      1932 2.71263E+00
 -1      1933 2.98630E+00
 -1      1934 2.74707E+00
 -1      1935 2.17967E+00
 -1      1936 2.48134E+00
 -1      1937 2.31977E+00
 -1      1938 1.70641E+00
 -1      1939 1.97931E+00
 -1      1940 1.88813E+00
 -1      1941 1.31392E+00
 -1      1942 1.52160E+00
 -1      1943 1.50296E+00
 -1      1944 9.67034E-01
 -1      1945 1.14534E+00
 -1      1946 1.14957E+00
 -1      1947 6.97790E-01
 -1      1948 8.45146E-01
 -1      1949 8.59101E-01
 -1      1950 4.79032E-01
 -1      1951 5.92998E-01
 -1      1952 6.32422E-01
 -1      1953 3.11614E-01
 -1      1954 3.94652E-01
 -1      1955 4.43250E-01
 -1      1956 1.97559E-01
 -1      1957 2.47655E-01
 -1      1958 2.94911E-01
 -1      1959 1.19561E-01
 -1      1960 1.51797E-01
 -1      1961 1.85191E-01
 -1      1962 6.65249E-02
 -1      1963 8.86603E-02
 -1      1964 1.08528E-01
 -1      1965 3.68050E-02
 -1      1966 4.69081E-02
 -1      1967 5.80109E-02
 -1      1968 2.09521E-02
 -1      1969 2.66484E-02
 -1      1970 2.82375E-02
 -1      1971 1.60202E-02
 -1      1972 1.84942E-02
 -1      1973 1.56230E-02
 -1      1974 1.17471E-02
 -1      1975 1.44961E-02
 -1      1976 1.16410E-02
 -1      1977 7.93140E-03
 -1      1978 1.03556E-02
 -1      1979 8.72537E-03
 -1      1980 6.72869E-03
 -1      1981 7.36597E-03
 -1      1982 6.76845E-03
 -1      1983 5.44220E-03
 -1      1984 6.23691E-03
 -1      1985 5.71125E-03
 -1      1986 4.02447E-03
 -1      1987 4.82967E-03
 -1      1988 4.60694E-03
 -1      1989 3.37538E-03
 -1      1990 3.71495E-03
 -1      1991 3.68490E-03
 -1      1992 3.02384E-03
 -1      1993 3.19961E-03
 -1      1994 3.19961E-03
 -1      1995 2.55977E-03
 -1      1996 2.79181E-03
 -1      1997 2.79181E-03
 -1      1998 2.07461E-03
 -1      1999 2.31719E-03
 -1      2000 2.31719E-03
 -1      2001 1.73530E-03
 -1      2002 1.88035E-03
 -1      2003 1.88035E-03
 -1      2004 1.51754E-03
 -1      2005 1.63322E-03
 -1      2006 1.58401E-03
 -1      2007 1.27746E-03
 -1      2008 1.40313E-03
 -1      2009 1.36752E-03
 -1      2010 1.04262E-03
 -1      2011 1.16437E-03
 -1      2012 1.14003E-03
 -1      2013 8.50367E-04
 -1      2014 9.53164E-04
 -1      2015 9.37490E-04
 -1      2016 6.87494E-04
 -1      2017 7.70019E-04
 -1      2018 7.67683E-04
 -1      2019 5.55407E-04
 -1      2020 6.24119E-04
 -1      2021 6.23962E-04
 -1      2022 4.40972E-04
 -1      2023 5.00920E-04
 -1      2024 5.06100E-04
 -1      2025 3.42460E-04
 -1      2026 3.92988E-04
 -1      2027 4.03629E-04
 -1      2028 2.60263E-04
 -1      2029 3.01669E-04
 -1      2030 3.14853E-04
 -1      2031 1.93453E-04
 -1      2032 2.26570E-04
 -1      2033 2.40369E-04
 -1      2034 1.44032E-04
 -1      2035 1.66303E-04
 -1      2036 1.79525E-04
 -1      2037 1.05933E-04
 -1      2038 1.22642E-04
 -1      2039 1.30985E-04
 -1      2040 7.60118E-05
 -1      2041 8.94420E-05
 -1      2042 9.31037E-05
 -1      2043 5.53603E-05
 -1      2044 6.53854E-05
 -1      2045 6.59866E-05
 -1      2046 3.97172E-05
 -1      2047 4.75387E-05
 -1      2048 4.75387E-05
 -1      2049 2.82742E-05
 -1      2050 3.44078E-05
 -1      2051 3.44078E-05
 -1      2052 2.15888E-05
 -1      2053 2.45193E-05
 -1      2054 2.53436E-05
 -1      2055 1.51936E-05
 -1      2056 1.83912E-05
 -1      2057 1.83912E-05
 -1      2058 8.67404E-06
 -1      2059 1.18885E-05
 -1      2060 1.18885E-05
 -1      2061 6.95066E-06
 -1      2062 5.41063E-06
 -1      2063 6.47798E-06
 -1      2064 8.23844E-06
 -1      2065 8.23844E-06
 -1      2066 8.69365E-06
 -1      2067 7.30306E-06
 -1      2068 5.45231E-06
 -1      2069 5.16193E-06
 -1      2070 6.68449E-06
 -1      2071 7.74146E-06
 -1      2072 6.83583E-06
 -1      2073 7.81931E-06
 -1      2074 8.81559E-06
 -1      2075 8.44473E-06
 -1      2076 9.90610E-06
 -1      2077 8.81559E-06
 -1      2078 8.81559E-06
 -1      2079 1.06094E-05
 -1      2080 8.78763E-06
 -1      2081 8.79097E-06
 -1      2082 1.05847E-05
 -1      2083 8.38002E-06
 -1      2084 8.78763E-06
 -1      2085 1.05601E-05
 -1      2086 6.80703E-06
 -1      2087 7.69610E-06
 -1      2088 9.87619E-06
 -1      2089 5.18698E-06
 -1      2090 5.36596E-06
 -1      2091 7.75120E-06
 -1      2092 6.77735E-06
 -1      2093 5.84542E-06
 -1      2094 6.96858E-06
 -1      2095 8.23116E-06
 -1      2096 7.80322E-06
 -1      2097 8.65288E-06
 -1      2098 3.76542E+00
 -1      2099 4.22540E+00
 -1      2100 3.28850E+00
 -1      2101 3.27150E+00
 -1      2102 3.30320E+01
 -1      2103 3.06021E+01
 -1      2104 9.06376E+00
 -1      2105 1.16430E+01
 -1      2106 3.17299E+01
 -1      2107 3.14590E+01
 -1      2108 1.50161E+01
 -1      2109 2.07600E+01
 -1      2110 1.56958E+01
 -1      2111 1.36658E+01
 -1      2112 3.56962E+01
 -1      2113 3.56962E+01
 -1      2114 4.57476E+01
 -1      2115 3.85164E+01
 -1      2116 9.54275E+00
 -1      2117 9.19195E+00
 -1      2118 1.04515E+01
 -1      2119 1.03705E+01
 -1      2120 8.49612E+00
 -1      2121 1.05627E+01
 -1      2122 1.05215E+01
 -1      2123 1.02040E+01
 -1      2124 1.03998E+01
 -1      2125 8.84354E+00
 -1      2126 9.40064E+00
 -1      2127 8.06318E+00
 -1      2128 7.91963E+00
 -1      2129 1.28784E+01
 -1      2130 1.02519E+01
 -1      2131 7.87233E+00
 -1      2132 1.28784E+01
 -1      2133 4.32484E+01
 -1      2134 4.44980E+01
 -1      2135 1.60038E+01
 -1      2136 2.96053E+01
 -1      2137 9.96000E+00
 -1      2138 1.28802E+01
 -1      2139 1.08635E+01
 -1      2140 1.57179E+01
 -1      2141 1.51343E+01
 -1      2142 1.51343E+01
 -1      2143 1.13155E+01
 -1      2144 1.04168E+01
 -1      2145 2.83150E+01
 -1      2146 2.65054E+01
 -1      2147 3.59080E+01
 -1      2148 3.59080E+01
 -1      2149 2.83150E+01
 -1      2150 3.35575E+01
 -1      2151 3.36634E+01
 -1      2152 1.52939E+01
 -1      2153 2.79059E+01
 -1      2154 1.10629E+01
 -1      2155 3.99452E+01
 -1      2156 1.20484E+01
 -1      2157 3.35575E+01
 -1      2158 1.98399E+01
 -1      2159 1.25326E+01
 -1      2160 1.16405E+01
 -1      2161 1.10743E+01
 -1      2162 8.33690E+00
 -1      2163 9.26218E+00
 -1      2164 8.55465E+00
 -1      2165 1.37503E+01
 -1      2166 8.63301E-06
 -1      2167 6.52552E+00
 -1      2168 9.51873E-06
 -1      2169 2.60939E+01
 -1      2170 8.25196E-06
 -1      2171 8.23116E-06
 -1      2172 9.67874E-06
 -1      2173 1.00598E-05
 -1      2174 7.54015E+00
 -1      2175 3.14590E+01
 -1      2176 3.36634E+01
 -1      2177 6.60754E+00
 -1      2178 8.33480E+00
 -1      2179 9.39390E+00
 -1      2180 1.67821E+01
 -1      2181 9.30103E+00
 -1      2182 1.14823E+01
 -1      2183 3.54388E+01
 -1      2184 3.47606E+01
 -1      2185 1.32599E+01
 -1      2186 1.00791E+01
 -1      2187 1.04990E+01
 -1      2188 2.21561E+01
 -1      2189 1.63726E+01
 -1      2190 2.04394E+01
 -1      2191 8.04815E+00
 -1      2192 8.21103E+00
 -1      2193 1.80995E+00
 -1      2194 1.87175E+00
 -1      2195 1.60839E+00
 -1      2196 1.64774E+00
 -1      2197 1.77321E+00
 -1      2198 1.53257E+00
 -1      2199 1.56173E+00
 -1      2200 1.56434E+00
 -1      2201 1.56762E+00
 -1      2202 1.66370E+00
 -1      2203 1.64881E+00
 -1      2204 1.40984E+00
 -1      2205 1.50158E+00
 -1      2206 1.71389E+00
 -1      2207 2.53786E+00
 -1      2208 1.49706E+00
 -1      2209 1.73506E+00
 -1      2210 2.51707E+00
 -1      2211 1.28239E-05
 -1      2212 1.00619E+01
 -1      2213 9.14792E+00
 -1      2214 5.13017E+00
 -1      2215 4.44641E+00
 -1      2216 3.47622E+00
 -1      2217 2.86579E+00
 -1      2218 4.08481E+00
 -1      2219 2.27771E+00
 -1      2220 1.83433E+00
 -1      2221 2.52654E+00
 -1      2222 1.47097E+00
 -1      2223 1.15871E+00
 -1      2224 1.57510E+00
 -1      2225 9.27619E-01
 -1      2226 7.19575E-01
 -1      2227 9.80649E-01
 -1      2228 5.80393E-01
 -1      2229 4.46467E-01
 -1      2230 6.10379E-01
 -1      2231 3.60159E-01
 -1      2232 2.77350E-01
 -1      2233 3.84889E-01
 -1      2234 2.21459E-01
 -1      2235 1.66140E-01
 -1      2236 2.42689E-01
 -1      2237 1.31021E-01
 -1      2238 1.00134E-01
 -1      2239 1.51679E-01
 -1      2240 7.76889E-02
 -1      2241 5.92328E-02
 -1      2242 9.41154E-02
 -1      2243 4.50037E-02
 -1      2244 3.68777E-02
 -1      2245 5.74413E-02
 -1      2246 2.79555E-02
 -1      2247 2.26256E-02
 -1      2248 3.42899E-02
 -1      2249 1.71007E-02
 -1      2250 1.42854E-02
 -1      2251 1.98428E-02
 -1      2252 1.15625E-02
 -1      2253 9.61029E-03
 -1      2254 1.15950E-02
 -1      2255 8.62670E-03
 -1      2256 7.21458E-03
 -1      2257 7.88853E-03
 -1      2258 6.50359E-03
 -1      2259 5.61543E-03
 -1      2260 6.19394E-03
 -1      2261 5.01784E-03
 -1      2262 4.35816E-03
 -1      2263 4.88536E-03
 -1      2264 3.87062E-03
 -1      2265 3.34403E-03
 -1      2266 3.80023E-03
 -1      2267 3.01355E-03
 -1      2268 2.59984E-03
 -1      2269 2.98221E-03
 -1      2270 2.33832E-03
 -1      2271 2.07931E-03
 -1      2272 2.39020E-03
 -1      2273 1.85324E-03
 -1      2274 1.64568E-03
 -1      2275 1.90261E-03
 -1      2276 1.46426E-03
 -1      2277 1.31371E-03
 -1      2278 1.49512E-03
 -1      2279 1.19172E-03
 -1      2280 1.06893E-03
 -1      2281 1.19172E-03
 -1      2282 9.67513E-04
 -1      2283 8.64355E-04
 -1      2284 9.68323E-04
 -1      2285 7.76804E-04
 -1      2286 6.88367E-04
 -1      2287 7.79354E-04
 -1      2288 6.18472E-04
 -1      2289 5.44205E-04
 -1      2290 6.21907E-04
 -1      2291 4.90138E-04
 -1      2292 4.32217E-04
 -1      2293 4.97944E-04
 -1      2294 3.82044E-04
 -1      2295 3.26883E-04
 -1      2296 3.93702E-04
 -1      2297 2.88131E-04
 -1      2298 2.48924E-04
 -1      2299 3.04777E-04
 -1      2300 2.17219E-04
 -1      2301 1.86348E-04
 -1      2302 2.34321E-04
 -1      2303 1.60879E-04
 -1      2304 1.36946E-04
 -1      2305 1.77147E-04
 -1      2306 1.16826E-04
 -1      2307 9.85637E-05
 -1      2308 1.31557E-04
 -1      2309 8.35454E-05
 -1      2310 7.23735E-05
 -1      2311 9.64191E-05
 -1      2312 5.93276E-05
 -1      2313 4.94589E-05
 -1      2314 6.83550E-05
 -1      2315 4.06675E-05
 -1      2316 3.47839E-05
 -1      2317 4.65178E-05
 -1      2318 2.83962E-05
 -1      2319 2.39198E-05
 -1      2320 3.13387E-05
 -1      2321 1.94016E-05
 -1      2322 1.58799E-05
 -1      2323 2.04327E-05
 -1      2324 1.51253E-05
 -1      2325 1.24231E-05
 -1      2326 1.20421E-05
 -1      2327 1.51599E-05
 -1      2328 1.96412E+00
 -1      2329 2.19541E+00
 -1      2330 2.29952E+00
 -1      2331 2.49552E+00
 -1      2332 1.94386E+00
 -1      2333 1.35889E-05
 -1      2334 1.59587E-05
 -1      2335 2.54041E+00
 -1      2336 2.65780E+00
 -1      2337 2.09286E+00
 -1      2338 1.62685E+00
 -1      2339 1.82721E+00
 -1      2340 1.70284E+00
 -1      2341 1.31911E+00
 -1      2342 1.50392E+00
 -1      2343 1.44300E+00
 -1      2344 1.01415E+00
 -1      2345 1.18273E+00
 -1      2346 1.18370E+00
 -1      2347 7.60604E-01
 -1      2348 8.82491E-01
 -1      2349 9.15656E-01
 -1      2350 5.41258E-01
 -1      2351 6.46050E-01
 -1      2352 6.69440E-01
 -1      2353 3.73250E-01
 -1      2354 4.57629E-01
 -1      2355 4.71258E-01
 -1      2356 2.46508E-01
 -1      2357 3.10467E-01
 -1      2358 3.24846E-01
 -1      2359 1.53606E-01
 -1      2360 1.99367E-01
 -1      2361 2.14923E-01
 -1      2362 8.92302E-02
 -1      2363 1.20131E-01
 -1      2364 1.34308E-01
 -1      2365 4.76660E-02
 -1      2366 6.72828E-02
 -1      2367 7.88853E-02
 -1      2368 2.44550E-02
 -1      2369 3.46116E-02
 -1      2370 4.38835E-02
 -1      2371 1.49069E-02
 -1      2372 1.73648E-02
 -1      2373 2.37389E-02
 -1      2374 1.03934E-02
 -1      2375 1.19176E-02
 -1      2376 1.36594E-02
 -1      2377 7.13859E-03
 -1      2378 8.53007E-03
 -1      2379 8.80667E-03
 -1      2380 5.93537E-03
 -1      2381 6.50080E-03
 -1      2382 6.30551E-03
 -1      2383 4.76008E-03
 -1      2384 5.25186E-03
 -1      2385 4.98421E-03
 -1      2386 3.69563E-03
 -1      2387 4.30816E-03
 -1      2388 3.84877E-03
 -1      2389 3.00464E-03
 -1      2390 3.31416E-03
 -1      2391 3.01537E-03
 -1      2392 2.46121E-03
 -1      2393 2.63698E-03
 -1      2394 2.26624E-03
 -1      2395 2.19739E-03
 -1      2396 2.42943E-03
 -1      2397 1.86680E-03
 -1      2398 1.87455E-03
 -1      2399 2.11713E-03
 -1      2400 1.75475E-03
 -1      2401 1.57083E-03
 -1      2402 1.76509E-03
 -1      2403 1.56503E-03
 -1      2404 1.34974E-03
 -1      2405 1.45182E-03
 -1      2406 1.33656E-03
 -1      2407 1.17272E-03
 -1      2408 1.28713E-03
 -1      2409 1.15494E-03
 -1      2410 9.94225E-04
 -1      2411 1.10731E-03
 -1      2412 1.02691E-03
 -1      2413 8.32351E-04
 -1      2414 9.21809E-04
 -1      2415 8.89085E-04
 -1      2416 6.87039E-04
 -1      2417 7.67387E-04
 -1      2418 7.51706E-04
 -1      2419 5.64691E-04
 -1      2420 6.28065E-04
 -1      2421 6.27768E-04
 -1      2422 4.55523E-04
 -1      2423 5.10010E-04
 -1      2424 5.14113E-04
 -1      2425 3.61319E-04
 -1      2426 4.09303E-04
 -1      2427 4.13213E-04
 -1      2428 2.83710E-04
 -1      2429 3.24501E-04
 -1      2430 3.30176E-04
 -1      2431 2.18136E-04
 -1      2432 2.51830E-04
 -1      2433 2.61478E-04
 -1      2434 1.64207E-04
 -1      2435 1.91357E-04
 -1      2436 2.02819E-04
 -1      2437 1.20894E-04
 -1      2438 1.42285E-04
 -1      2439 1.54117E-04
 -1      2440 8.68649E-05
 -1      2441 1.03356E-04
 -1      2442 1.14655E-04
 -1      2443 6.25112E-05
 -1      2444 7.31376E-05
 -1      2445 8.33894E-05
 -1      2446 4.41851E-05
 -1      2447 5.20066E-05
 -1      2448 5.91576E-05
 -1      2449 3.10237E-05
 -1      2450 3.63331E-05
 -1      2451 4.08010E-05
 -1      2452 2.12859E-05
 -1      2453 2.50407E-05
 -1      2454 2.69660E-05
 -1      2455 1.91563E-05
 -1      2456 1.05274E-05
 -1      2457 9.14388E-06
 -1      2458 8.16581E-06
 -1      2459 8.41450E-06
 -1      2460 1.08739E-05
 -1      2461 9.21932E-06
 -1      2462 1.09798E-05
 -1      2463 1.41146E-05
 -1      2464 1.07006E-05
 -1      2465 2.18384E+01
 -1      2466 2.29662E+01
 -1      2467 1.25971E-05
 -1      2468 1.18938E-05
 -1      2469 1.32184E-05
 -1      2470 1.26459E-05
 -1      2471 1.26459E-05
 -1      2472 1.46336E-05
 -1      2473 1.26329E-05
 -1      2474 1.26575E-05
 -1      2475 1.46940E-05
 -1      2476 1.26329E-05
 -1      2477 1.26329E-05
 -1      2478 1.47057E-05
 -1      2479 1.18688E-05
 -1      2480 1.25527E-05
 -1      2481 1.46255E-05
 -1      2482 9.26235E-06
 -1      2483 1.07034E-05
 -1      2484 1.33799E-05
 -1      2485 8.95012E-06
 -1      2486 8.29168E-06
 -1      2487 1.12439E-05
 -1      2488 1.21274E-05
 -1      2489 1.11015E-05
 -1      2490 1.24246E-05
 -1      2491 7.39789E+00
 -1      2492 1.10488E+01
 -1      2493 3.08561E+01
 -1      2494 2.87174E+01
 -1      2495 7.81994E+00
 -1      2496 7.61683E+00
 -1      2497 7.54166E+00
 -1      2498 9.25102E+00
 -1      2499 8.48347E+00
 -1      2500 2.20809E+00
 -1      2501 2.21948E+00
 -1      2502 2.27176E+00
 -1      2503 2.36857E+00
 -1      2504 3.08822E+00
 -1      2505 2.75718E+00
 -1      2506 3.47606E+01
 -1      2507 1.14605E+01
 -1      2508 2.72218E+01
 -1      2509 3.14590E+01
 -1      2510 7.42934E+00
 -1      2511 6.60156E+00
 -1      2512 8.11270E+00
 -1      2513 8.04270E+00
 -1      2514 6.45120E+00
 -1      2515 7.25455E+00
 -1      2516 5.65567E+00
 -1      2517 6.57958E+00
 -1      2518 9.23097E+00
 -1      2519 2.70891E+01
 -1      2520 2.93338E+01
 -1      2521 1.07754E+01
 -1      2522 6.26723E+00
 -1      2523 6.13903E+00
 -1      2524 1.51247E+01
 -1      2525 2.45901E+01
 -1      2526 1.69971E+01
 -1      2527 1.13998E+01
 -1      2528 1.80159E+01
 -1      2529 1.35614E+01
 -1      2530 1.86875E+01
 -1      2531 9.89640E+00
 -1      2532 4.26699E+00
 -1      2533 4.44894E+00
 -1      2534 7.01431E+00
 -1      2535 1.11059E+01
 -1      2536 2.63659E+00
 -1      2537 1.94181E+00
 -1      2538 2.71325E+00
 -1      2539 2.66189E+01
 -1      2540 1.55598E+01
 -1      2541 2.30036E+00
 -1      2542 2.82041E+00
 -1      2543 1.88533E-05
 -1      2544 1.13563E+01
 -1      2545 2.29662E+01
 -1      2546 6.12497E+00
 -1      2547 2.91406E+00
 -1      2548 1.20421E-05
 -1      2549 2.43878E+01
 -1      2550 1.44907E-05
 -1      2551 5.49933E+00
 -1      2552 6.85983E+00
 -1      2553 6.14814E+00
 -1      2554 5.20045E+00
 -1      2555 6.16455E+00
 -1      2556 7.04227E+00
 -1      2557 1.67336E+00
 -1      2558 1.83557E+00
 -1      2559 2.10923E+00
 -1      2560 2.02201E+00
 -1      2561 2.22875E+00
 -1      2562 4.68637E+00
 -1      2563 3.71619E+00
 -1      2564 2.08805E+00
 -1      2565 1.95693E+00
 -1      2566 2.09460E+01
 -1      2567 1.93177E+01
 -1      2568 2.91257E+00
 -1      2569 2.32448E+00
 -1      2570 3.51413E+00
 -1      2571 1.80756E+00
 -1      2572 1.44420E+00
 -1      2573 2.19358E+00
 -1      2574 1.12661E+00
 -1      2575 8.95523E-01
 -1      2576 1.35907E+00
 -1      2577 6.96167E-01
 -1      2578 5.56985E-01
 -1      2579 8.42128E-01
 -1      2580 4.30278E-01
 -1      2581 3.43969E-01
 -1      2582 5.16065E-01
 -1      2583 2.64621E-01
 -1      2584 2.08730E-01
 -1      2585 3.10010E-01
 -1      2586 1.62687E-01
 -1      2587 1.27568E-01
 -1      2588 1.84618E-01
 -1      2589 1.00597E-01
 -1      2590 7.81521E-02
 -1      2591 1.11605E-01
 -1      2592 6.11305E-02
 -1      2593 4.69014E-02
 -1      2594 6.76123E-02
 -1      2595 3.70538E-02
 -1      2596 2.81316E-02
 -1      2597 4.07431E-02
 -1      2598 2.24564E-02
 -1      2599 1.69314E-02
 -1      2600 2.52203E-02
 -1      2601 1.31475E-02
 -1      2602 1.04247E-02
 -1      2603 1.57611E-02
 -1      2604 7.86392E-03
 -1      2605 6.88032E-03
 -1      2606 9.41647E-03
 -1      2607 5.41789E-03
 -1      2608 4.70690E-03
 -1      2609 5.39328E-03
 -1      2610 4.43557E-03
 -1      2611 3.83798E-03
 -1      2612 3.65951E-03
 -1      2613 3.60814E-03
 -1      2614 3.12060E-03
 -1      2615 3.15834E-03
 -1      2616 2.88031E-03
 -1      2617 2.54983E-03
 -1      2618 2.68822E-03
 -1      2619 2.31884E-03
 -1      2620 2.05732E-03
 -1      2621 2.21694E-03
 -1      2622 1.85939E-03
 -1      2623 1.63332E-03
 -1      2624 1.78803E-03
 -1      2625 1.50805E-03
 -1      2626 1.32664E-03
 -1      2627 1.46484E-03
 -1      2628 1.20928E-03
 -1      2629 1.08730E-03
 -1      2630 1.22221E-03
 -1      2631 9.82354E-04
 -1      2632 8.80936E-04
 -1      2633 9.99914E-04
 -1      2634 7.90308E-04
 -1      2635 7.02756E-04
 -1      2636 8.04338E-04
 -1      2637 6.26399E-04
 -1      2638 5.56503E-04
 -1      2639 6.37353E-04
 -1      2640 4.97944E-04
 -1      2641 4.43876E-04
 -1      2642 5.02436E-04
 -1      2643 3.93702E-04
 -1      2644 3.43528E-04
 -1      2645 3.93702E-04
 -1      2646 3.04777E-04
 -1      2647 2.66026E-04
 -1      2648 3.04777E-04
 -1      2649 2.36050E-04
 -1      2650 2.04346E-04
 -1      2651 2.36050E-04
 -1      2652 1.80840E-04
 -1      2653 1.55370E-04
 -1      2654 1.82569E-04
 -1      2655 1.36167E-04
 -1      2656 1.16047E-04
 -1      2657 1.39860E-04
 -1      2658 1.00717E-04
 -1      2659 8.56989E-05
 -1      2660 1.05327E-04
 -1      2661 7.29861E-05
 -1      2662 5.99403E-05
 -1      2663 7.72842E-05
 -1      2664 5.06919E-05
 -1      2665 4.19005E-05
 -1      2666 5.53231E-05
 -1      2667 3.49328E-05
 -1      2668 2.85451E-05
 -1      2669 3.91070E-05
 -1      2670 2.33706E-05
 -1      2671 1.88523E-05
 -1      2672 2.69647E-05
 -1      2673 1.52452E-05
 -1      2674 1.69691E+00
 -1      2675 1.80102E+00
 -1      2676 1.48699E+00
 -1      2677 1.62391E+00
 -1      2678 1.48107E+00
 -1      2679 2.12406E+00
 -1      2680 2.28667E+00
 -1      2681 1.73295E-05
 -1      2682 1.94591E-05
 -1      2683 1.47204E-05
 -1      2684 1.04363E+00
 -1      2685 1.18001E+00
 -1      2686 8.29455E-01
 -1      2687 9.61116E-01
 -1      2688 9.57433E-01
 -1      2689 6.23940E-01
 -1      2690 7.38494E-01
 -1      2691 7.83955E-01
 -1      2692 4.52891E-01
 -1      2693 5.36520E-01
 -1      2694 6.05574E-01
 -1      2695 3.14375E-01
 -1      2696 3.77157E-01
 -1      2697 4.42420E-01
 -1      2698 2.06834E-01
 -1      2699 2.53975E-01
 -1      2700 3.06286E-01
 -1      2701 1.28471E-01
 -1      2702 1.61946E-01
 -1      2703 2.00998E-01
 -1      2704 7.51447E-02
 -1      2705 9.70920E-02
 -1      2706 1.24730E-01
 -1      2707 4.24140E-02
 -1      2708 5.54685E-02
 -1      2709 7.36752E-02
 -1      2710 2.28161E-02
 -1      2711 2.99063E-02
 -1      2712 4.14912E-02
 -1      2713 1.36748E-02
 -1      2714 1.66641E-02
 -1      2715 2.28315E-02
 -1      2716 8.80667E-03
 -1      2717 1.06700E-02
 -1      2718 1.36748E-02
 -1      2719 6.15454E-03
 -1      2720 6.79233E-03
 -1      2721 8.65570E-03
 -1      2722 4.69192E-03
 -1      2723 5.37543E-03
 -1      2724 5.86225E-03
 -1      2725 3.54585E-03
 -1      2726 3.99778E-03
 -1      2727 4.38900E-03
 -1      2728 2.52507E-03
 -1      2729 2.90654E-03
 -1      2730 3.05555E-03
 -1      2731 1.74144E-03
 -1      2732 2.10910E-03
 -1      2733 2.00027E-03
 -1      2734 1.49532E-03
 -1      2735 1.52710E-03
 -1      2736 1.36996E-03
 -1      2737 1.37762E-03
 -1      2738 1.45788E-03
 -1      2739 1.11818E-03
 -1      2740 1.27808E-03
 -1      2741 1.38754E-03
 -1      2742 1.09067E-03
 -1      2743 1.12992E-03
 -1      2744 1.24893E-03
 -1      2745 1.07144E-03
 -1      2746 1.01466E-03
 -1      2747 1.07727E-03
 -1      2748 9.89646E-04
 -1      2749 8.95683E-04
 -1      2750 9.61097E-04
 -1      2751 8.83432E-04
 -1      2752 7.82885E-04
 -1      2753 8.55301E-04
 -1      2754 7.89483E-04
 -1      2755 6.68513E-04
 -1      2756 7.33477E-04
 -1      2757 6.99692E-04
 -1      2758 5.59069E-04
 -1      2759 6.18043E-04
 -1      2760 5.99814E-04
 -1      2761 4.58949E-04
 -1      2762 5.13630E-04
 -1      2763 5.03905E-04
 -1      2764 3.70157E-04
 -1      2765 4.16377E-04
 -1      2766 4.15894E-04
 -1      2767 2.95351E-04
 -1      2768 3.32168E-04
 -1      2769 3.35332E-04
 -1      2770 2.30782E-04
 -1      2771 2.62662E-04
 -1      2772 2.64654E-04
 -1      2773 1.78287E-04
 -1      2774 2.05066E-04
 -1      2775 2.06250E-04
 -1      2776 1.35928E-04
 -1      2777 1.57850E-04
 -1      2778 1.60098E-04
 -1      2779 1.01528E-04
 -1      2780 1.19067E-04
 -1      2781 1.22800E-04
 -1      2782 7.42034E-05
 -1      2783 8.79307E-05
 -1      2784 9.23420E-05
 -1      2785 5.29668E-05
 -1      2786 6.34714E-05
 -1      2787 6.80126E-05
 -1      2788 3.67887E-05
 -1      2789 4.46407E-05
 -1      2790 4.89545E-05
 -1      2791 2.37109E-05
 -1      2792 2.96939E-05
 -1      2793 3.35336E-05
 -1      2794 2.21871E-05
 -1      2795 1.42801E+01
 -1      2796 1.29521E+01
 -1      2797 1.32000E-05
 -1      2798 1.22219E-05
 -1      2799 1.75288E-05
 -1      2800 1.74800E-05
 -1      2801 1.75405E-05
 -1      2802 1.75288E-05
 -1      2803 2.03753E-05
 -1      2804 1.74056E-05
 -1      2805 1.60392E-05
 -1      2806 1.73872E-05
 -1      2807 2.03009E-05
 -1      2808 1.28460E+00
 -1      2809 1.40753E+00
 -1      2810 1.32860E+00
 -1      2811 1.14454E+00
 -1      2812 1.75236E-05
 -1      2813 1.75236E-05
 -1      2814 2.03584E-05
 -1      2815 1.74434E-05
 -1      2816 1.75236E-05
 -1      2817 2.03416E-05
 -1      2818 1.56414E-05
 -1      2819 1.68068E-05
 -1      2820 1.97049E-05
 -1      2821 1.45415E-05
 -1      2822 1.55122E-05
 -1      2823 1.89390E-05
 -1      2824 1.29783E+01
 -1      2825 4.13861E+00
 -1      2826 2.05328E+01
 -1      2827 1.99299E+01
 -1      2828 9.48554E+00
 -1      2829 6.99887E+00
 -1      2830 6.63025E+00
 -1      2831 2.30017E+01
 -1      2832 2.45247E+00
 -1      2833 2.78880E+00
 -1      2834 2.35261E+00
 -1      2835 3.80771E+00
 -1      2836 3.95679E+00
 -1      2837 5.18914E+00
 -1      2838 3.98842E+00
 -1      2839 4.99866E+00
 -1      2840 6.25752E+00
 -1      2841 4.05651E+00
 -1      2842 3.72217E+00
 -1      2843 1.11324E+01
 -1      2844 1.42833E+01
 -1      2845 5.90120E+00
 -1      2846 5.80287E+00
 -1      2847 5.31666E+00
 -1      2848 4.70330E+00
 -1      2849 5.98274E+00
 -1      2850 1.42198E+01
 -1      2851 1.82452E+00
 -1      2852 1.86941E+00
 -1      2853 1.85572E+00
 -1      2854 1.57757E+00
 -1      2855 7.76850E+00
 -1      2856 1.02811E+01
 -1      2857 1.59569E+01
 -1      2858 2.02124E+01
 -1      2859 1.15295E+01
 -1      2860 1.49942E+00
 -1      2861 1.54608E+00
 -1      2862 1.60844E+00
 -1      2863 1.93867E+00
 -1      2864 2.00532E+01
 -1      2865 1.81831E-05
 -1      2866 2.08805E+00
 -1      2867 2.39617E+00
 -1      2868 6.64219E+00
 -1      2869 1.24093E+01
 -1      2870 1.30496E-05
 -1      2871 1.38544E-05
 -1      2872 1.70693E-05
 -1      2873 4.35803E+00
 -1      2874 1.50744E-05
 -1      2875 1.29231E-05
 -1      2876 1.35234E+01
 -1      2877 9.00454E+00
 -1      2878 3.22503E+00
 -1      2879 3.85472E+00
 -1      2880 1.71913E-05
 -1      2881 1.48598E+01
 -1      2882 4.92578E+00
 -1      2883 5.90120E+00
 -1      2884 4.84424E+00
 -1      2885 3.90687E+00
 -1      2886 1.53757E-05
 -1      2887 1.86815E-05
 -1      2888 1.77219E+01
 -1      2889 2.36558E-05
 -1      2890 2.36727E-05
 -1      2891 2.20002E+00
 -1      2892 1.68309E+00
 -1      2893 1.35755E+00
 -1      2894 1.03996E+00
 -1      2895 1.36398E+00
 -1      2896 8.57408E-01
 -1      2897 6.58052E-01
 -1      2898 8.55886E-01
 -1      2899 5.38239E-01
 -1      2900 4.11532E-01
 -1      2901 5.53519E-01
 -1      2902 3.32174E-01
 -1      2903 2.52826E-01
 -1      2904 3.54348E-01
 -1      2905 2.02695E-01
 -1      2906 1.56652E-01
 -1      2907 2.24860E-01
 -1      2908 1.23943E-01
 -1      2909 9.69724E-02
 -1      2910 1.42020E-01
 -1      2911 7.58891E-02
 -1      2912 5.88674E-02
 -1      2913 8.82275E-02
 -1      2914 4.62574E-02
 -1      2915 3.64099E-02
 -1      2916 5.45342E-02
 -1      2917 2.84547E-02
 -1      2918 2.27794E-02
 -1      2919 3.39690E-02
 -1      2920 1.74987E-02
 -1      2921 1.37148E-02
 -1      2922 2.07331E-02
 -1      2923 1.04198E-02
 -1      2924 7.85907E-03
 -1      2925 1.21574E-02
 -1      2926 6.02485E-03
 -1      2927 4.56242E-03
 -1      2928 7.02821E-03
 -1      2929 3.54087E-03
 -1      2930 3.26953E-03
 -1      2931 4.17244E-03
 -1      2932 2.65804E-03
 -1      2933 2.42820E-03
 -1      2934 2.53939E-03
 -1      2935 2.37462E-03
 -1      2936 2.13434E-03
 -1      2937 1.87431E-03
 -1      2938 2.06025E-03
 -1      2939 1.82926E-03
 -1      2940 1.74665E-03
 -1      2941 1.72511E-03
 -1      2942 1.52719E-03
 -1      2943 1.56842E-03
 -1      2944 1.41682E-03
 -1      2945 1.29155E-03
 -1      2946 1.35390E-03
 -1      2947 1.18553E-03
 -1      2948 1.06818E-03
 -1      2949 1.13751E-03
 -1      2950 9.92188E-04
 -1      2951 8.87240E-04
 -1      2952 9.55505E-04
 -1      2953 8.18002E-04
 -1      2954 7.27374E-04
 -1      2955 8.10276E-04
 -1      2956 6.62511E-04
 -1      2957 5.86154E-04
 -1      2958 6.76175E-04
 -1      2959 5.27166E-04
 -1      2960 4.68607E-04
 -1      2961 5.52325E-04
 -1      2962 4.16946E-04
 -1      2963 3.66772E-04
 -1      2964 4.41676E-04
 -1      2965 3.24541E-04
 -1      2966 2.85789E-04
 -1      2967 3.47784E-04
 -1      2968 2.50877E-04
 -1      2969 2.20901E-04
 -1      2970 2.70641E-04
 -1      2971 1.92501E-04
 -1      2972 1.68995E-04
 -1      2973 2.07328E-04
 -1      2974 1.46270E-04
 -1      2975 1.27067E-04
 -1      2976 1.56202E-04
 -1      2977 1.08913E-04
 -1      2978 9.35835E-05
 -1      2979 1.15323E-04
 -1      2980 7.93811E-05
 -1      2981 6.66683E-05
 -1      2982 8.29677E-05
 -1      2983 5.65771E-05
 -1      2984 4.73287E-05
 -1      2985 5.86740E-05
 -1      2986 3.99785E-05
 -1      2987 3.30108E-05
 -1      2988 4.12326E-05
 -1      2989 3.11538E-05
 -1      2990 2.59792E-05
 -1      2991 3.20253E-05
 -1      2992 2.46099E-05
 -1      2993 2.52466E-05
 -1      2994 2.25327E+00
 -1      2995 2.42957E+00
 -1      2996 1.34579E+00
 -1      2997 1.41880E+00
 -1      2998 7.57815E-01
 -1      2999 8.48776E-01
 -1      3000 9.35232E-01
 -1      3001 1.01775E+00
 -1      3002 9.09093E-01
 -1      3003 4.14727E-01
 -1      3004 4.90461E-01
 -1      3005 2.82103E-01
 -1      3006 3.42503E-01
 -1      3007 3.90544E-01
 -1      3008 1.81739E-01
 -1      3009 2.26628E-01
 -1      3010 2.62845E-01
 -1      3011 1.10503E-01
 -1      3012 1.41882E-01
 -1      3013 1.67512E-01
 -1      3014 6.37947E-02
 -1      3015 8.34709E-02
 -1      3016 1.00622E-01
 -1      3017 3.70920E-02
 -1      3018 4.95998E-02
 -1      3019 5.93955E-02
 -1      3020 2.22988E-02
 -1      3021 2.84508E-02
 -1      3022 3.65594E-02
 -1      3023 1.36748E-02
 -1      3024 1.66796E-02
 -1      3025 2.22988E-02
 -1      3026 8.04330E-03
 -1      3027 1.00576E-02
 -1      3028 1.30624E-02
 -1      3029 5.74808E-03
 -1      3030 6.52719E-03
 -1      3031 7.92913E-03
 -1      3032 4.14381E-03
 -1      3033 4.83795E-03
 -1      3034 5.50288E-03
 -1      3035 2.74561E-03
 -1      3036 3.38492E-03
 -1      3037 3.83386E-03
 -1      3038 1.73124E-03
 -1      3039 2.14721E-03
 -1      3040 2.47658E-03
 -1      3041 1.10904E-03
 -1      3042 1.32338E-03
 -1      3043 1.47033E-03
 -1      3044 8.44918E-04
 -1      3045 8.82357E-04
 -1      3046 8.35780E-04
 -1      3047 8.68195E-04
 -1      3048 8.58271E-04
 -1      3049 6.22445E-04
 -1      3050 8.95939E-04
 -1      3051 9.25089E-04
 -1      3052 6.92691E-04
 -1      3053 8.56872E-04
 -1      3054 9.09519E-04
 -1      3055 7.63165E-04
 -1      3056 7.87226E-04
 -1      3057 8.40794E-04
 -1      3058 7.60667E-04
 -1      3059 7.12719E-04
 -1      3060 7.53101E-04
 -1      3061 7.10462E-04
 -1      3062 6.27006E-04
 -1      3063 6.76415E-04
 -1      3064 6.40033E-04
 -1      3065 5.45555E-04
 -1      3066 5.96024E-04
 -1      3067 5.72747E-04
 -1      3068 4.63433E-04
 -1      3069 5.08872E-04
 -1      3070 5.05082E-04
 -1      3071 3.83127E-04
 -1      3072 4.25699E-04
 -1      3073 4.30666E-04
 -1      3074 3.09293E-04
 -1      3075 3.47282E-04
 -1      3076 3.57088E-04
 -1      3077 2.44310E-04
 -1      3078 2.76999E-04
 -1      3079 2.88949E-04
 -1      3080 1.90612E-04
 -1      3081 2.16328E-04
 -1      3082 2.28672E-04
 -1      3083 1.46669E-04
 -1      3084 1.67106E-04
 -1      3085 1.77184E-04
 -1      3086 1.10567E-04
 -1      3087 1.27428E-04
 -1      3088 1.34436E-04
 -1      3089 8.15797E-05
 -1      3090 9.51772E-05
 -1      3091 9.98048E-05
 -1      3092 5.87975E-05
 -1      3093 6.95295E-05
 -1      3094 7.23647E-05
 -1      3095 4.15736E-05
 -1      3096 4.98997E-05
 -1      3097 5.14167E-05
 -1      3098 2.28706E-05
 -1      3099 2.39827E-05
 -1      3100 2.39827E-05
 -1      3101 2.72801E-05
 -1      3102 2.42957E+00
 -1      3103 2.44890E-05
 -1      3104 2.46183E-05
 -1      3105 3.01599E-05
 -1      3106 1.96712E+00
 -1      3107 2.11002E+00
 -1      3108 1.65251E+00
 -1      3109 1.11386E+01
 -1      3110 1.14589E+01
 -1      3111 1.91274E-05
 -1      3112 1.99934E-05
 -1      3113 2.42452E-05
 -1      3114 6.70698E+00
 -1      3115 4.39448E+00
 -1      3116 2.44078E-05
 -1      3117 2.44078E-05
 -1      3118 2.77221E-05
 -1      3119 2.93128E-05
 -1      3120 2.26215E+00
 -1      3121 2.59019E+00
 -1      3122 3.20709E+00
 -1      3123 2.27648E-05
 -1      3124 2.35925E-05
 -1      3125 2.65165E-05
 -1      3126 5.76986E-01
 -1      3127 6.64407E-01
 -1      3128 7.29228E-01
 -1      3129 5.49294E-01
 -1      3130 1.16456E+01
 -1      3131 8.17902E+00
 -1      3132 5.94324E+00
 -1      3133 1.06295E+01
 -1      3134 4.14445E+00
 -1      3135 3.65824E+00
 -1      3136 3.52511E+00
 -1      3137 2.72149E+00
 -1      3138 2.21100E+00
 -1      3139 2.35464E+00
 -1      3140 3.63112E+00
 -1      3141 5.04331E+00
 -1      3142 6.55429E+00
 -1      3143 3.48008E+00
 -1      3144 2.83329E+00
 -1      3145 2.44890E-05
 -1      3146 8.62983E+00
 -1      3147 1.03034E+01
 -1      3148 7.05161E+00
 -1      3149 7.90298E+00
 -1      3150 6.67690E+00
 -1      3151 2.55426E+00
 -1      3152 4.05435E+00
 -1      3153 3.96645E+00
 -1      3154 4.14445E+00
 -1      3155 2.56040E-05
 -1      3156 2.92859E-05
 -1      3157 2.56784E-05
 -1      3158 2.56040E-05
 -1      3159 3.01683E-05
 -1      3160 1.53576E+00
 -1      3161 1.67104E+00
 -1      3162 1.69454E+00
 -1      3163 1.05629E+00
 -1      3164 1.07849E+00
 -1      3165 1.18308E+00
 -1      3166 2.90195E-05
 -1      3167 3.61143E-05
 -1      3168 3.70595E-05
 -1      3169 2.68258E-05
 -1      3170 3.60184E+00
 -1      3171 1.21876E+00
 -1      3172 1.29822E+00
 -1      3173 1.23595E+00
 -1      3174 1.71247E+00
 -1      3175 3.26651E+00
 -1      3176 8.23893E+00
 -1      3177 4.14445E+00
 -1      3178 1.65251E+00
 -1      3179 1.77979E+00
 -1      3180 2.63427E+00
 -1      3181 1.82387E+00
 -1      3182 8.24470E+00
 -1      3183 2.60969E+00
 -1      3184 5.45273E+00
 -1      3185 9.06200E-01
 -1      3186 7.23645E-01
 -1      3187 5.91533E-01
 -1      3188 4.71720E-01
 -1      3189 6.41846E-01
 -1      3190 3.67495E-01
 -1      3191 2.88137E-01
 -1      3192 4.05509E-01
 -1      3193 2.29788E-01
 -1      3194 1.79658E-01
 -1      3195 2.42935E-01
 -1      3196 1.43022E-01
 -1      3197 1.10313E-01
 -1      3198 1.47950E-01
 -1      3199 9.04448E-02
 -1      3200 6.93614E-02
 -1      3201 9.14466E-02
 -1      3202 5.70562E-02
 -1      3203 4.44462E-02
 -1      3204 5.92735E-02
 -1      3205 3.60267E-02
 -1      3206 2.80715E-02
 -1      3207 3.85487E-02
 -1      3208 2.27424E-02
 -1      3209 1.74616E-02
 -1      3210 2.48001E-02
 -1      3211 1.39454E-02
 -1      3212 1.06505E-02
 -1      3213 1.59547E-02
 -1      3214 8.30808E-03
 -1      3215 6.47387E-03
 -1      3216 1.00961E-02
 -1      3217 4.90859E-03
 -1      3218 3.88704E-03
 -1      3219 6.18846E-03
 -1      3220 2.86016E-03
 -1      3221 2.24866E-03
 -1      3222 3.59631E-03
 -1      3223 1.66733E-03
 -1      3224 1.61375E-03
 -1      3225 1.98810E-03
 -1      3226 1.42896E-03
 -1      3227 1.35487E-03
 -1      3228 1.22197E-03
 -1      3229 1.38137E-03
 -1      3230 1.27723E-03
 -1      3231 1.06368E-03
 -1      3232 1.25189E-03
 -1      3233 1.14152E-03
 -1      3234 1.06484E-03
 -1      3235 1.09065E-03
 -1      3236 9.84634E-04
 -1      3237 9.88638E-04
 -1      3238 9.23359E-04
 -1      3239 8.47368E-04
 -1      3240 8.76497E-04
 -1      3241 7.84506E-04
 -1      3242 7.15268E-04
 -1      3243 7.52360E-04
 -1      3244 6.65969E-04
 -1      3245 6.01107E-04
 -1      3246 6.40200E-04
 -1      3247 5.55491E-04
 -1      3248 4.96503E-04
 -1      3249 5.45285E-04
 -1      3250 4.52373E-04
 -1      3251 4.00712E-04
 -1      3252 4.55538E-04
 -1      3253 3.61982E-04
 -1      3254 3.19751E-04
 -1      3255 3.72679E-04
 -1      3256 2.85951E-04
 -1      3257 2.51039E-04
 -1      3258 3.00149E-04
 -1      3259 2.22269E-04
 -1      3260 1.93869E-04
 -1      3261 2.37580E-04
 -1      3262 1.69930E-04
 -1      3263 1.47205E-04
 -1      3264 1.84872E-04
 -1      3265 1.27395E-04
 -1      3266 1.09242E-04
 -1      3267 1.41123E-04
 -1      3268 9.32023E-05
 -1      3269 7.89999E-05
 -1      3270 1.05274E-04
 -1      3271 6.68500E-05
 -1      3272 5.67588E-05
 -1      3273 7.70847E-05
 -1      3274 4.74274E-05
 -1      3275 4.00773E-05
 -1      3276 5.56035E-05
 -1      3277 3.51122E-05
 -1      3278 3.32552E-05
 -1      3279 3.32552E-05
 -1      3280 4.13071E-05
 -1      3281 7.23034E+00
 -1      3282 6.40092E+00
 -1      3283 4.92888E+00
 -1      3284 1.37930E+00
 -1      3285 1.05376E+00
 -1      3286 9.21519E-01
 -1      3287 2.29716E-01
 -1      3288 2.85192E-01
 -1      3289 3.35151E-01
 -1      3290 4.07375E-01
 -1      3291 3.02022E-01
 -1      3292 9.33127E-02
 -1      3293 1.20345E-01
 -1      3294 5.76405E-02
 -1      3295 7.18355E-02
 -1      3296 9.15577E-02
 -1      3297 3.45337E-02
 -1      3298 4.31749E-02
 -1      3299 5.56148E-02
 -1      3300 2.01627E-02
 -1      3301 2.57820E-02
 -1      3302 3.23975E-02
 -1      3303 1.17005E-02
 -1      3304 1.53176E-02
 -1      3305 1.88008E-02
 -1      3306 7.96701E-03
 -1      3307 9.48312E-03
 -1      3308 1.17384E-02
 -1      3309 5.41070E-03
 -1      3310 6.32083E-03
 -1      3311 7.87482E-03
 -1      3312 3.51838E-03
 -1      3313 4.27727E-03
 -1      3314 5.09521E-03
 -1      3315 2.28097E-03
 -1      3316 2.87936E-03
 -1      3317 3.32276E-03
 -1      3318 1.42902E-03
 -1      3319 1.83688E-03
 -1      3320 2.23966E-03
 -1      3321 8.72794E-04
 -1      3322 1.09948E-03
 -1      3323 1.46603E-03
 -1      3324 7.24754E-04
 -1      3325 7.11401E-04
 -1      3326 9.75103E-04
 -1      3327 6.40457E-04
 -1      3328 5.83562E-04
 -1      3329 6.72519E-04
 -1      3330 6.63909E-04
 -1      3331 6.50329E-04
 -1      3332 5.41200E-04
 -1      3333 6.78572E-04
 -1      3334 6.94651E-04
 -1      3335 5.81815E-04
 -1      3336 6.44672E-04
 -1      3337 6.78797E-04
 -1      3338 6.12782E-04
 -1      3339 5.89010E-04
 -1      3340 6.25315E-04
 -1      3341 5.93650E-04
 -1      3342 5.32207E-04
 -1      3343 5.63189E-04
 -1      3344 5.48471E-04
 -1      3345 4.70472E-04
 -1      3346 5.07155E-04
 -1      3347 4.97597E-04
 -1      3348 4.02220E-04
 -1      3349 4.39953E-04
 -1      3350 4.42026E-04
 -1      3351 3.34498E-04
 -1      3352 3.70343E-04
 -1      3353 3.79630E-04
 -1      3354 2.71585E-04
 -1      3355 3.03879E-04
 -1      3356 3.17134E-04
 -1      3357 2.15755E-04
 -1      3358 2.43737E-04
 -1      3359 2.58667E-04
 -1      3360 1.67903E-04
 -1      3361 1.91410E-04
 -1      3362 2.06474E-04
 -1      3363 1.28030E-04
 -1      3364 1.47271E-04
 -1      3365 1.61497E-04
 -1      3366 9.55946E-05
 -1      3367 1.10985E-04
 -1      3368 1.23820E-04
 -1      3369 6.97779E-05
 -1      3370 8.18281E-05
 -1      3371 9.30078E-05
 -1      3372 5.00067E-05
 -1      3373 5.89045E-05
 -1      3374 6.83680E-05
 -1      3375 3.25999E-05
 -1      3376 3.29099E-05
 -1      3377 4.01945E+00
 -1      3378 3.15008E+00
 -1      3379 4.47712E+00
 -1      3380 3.32552E-05
 -1      3381 3.32468E-05
 -1      3382 3.63421E-05
 -1      3383 6.65425E+00
 -1      3384 7.48944E+00
 -1      3385 5.64565E+00
 -1      3386 3.08755E-05
 -1      3387 2.64105E-05
 -1      3388 3.11848E-05
 -1      3389 1.50466E-01
 -1      3390 1.90323E-01
 -1      3391 1.43156E-01
 -1      3392 3.44467E+00
 -1      3393 8.71044E-01
 -1      3394 9.57500E-01
 -1      3395 2.33289E+00
 -1      3396 1.81141E+00
 -1      3397 1.50119E+00
 -1      3398 2.75050E+00
 -1      3399 3.26651E+00
 -1      3400 3.26651E+00
 -1      3401 3.09816E-05
 -1      3402 4.45965E+00
 -1      3403 4.95696E+00
 -1      3404 1.80594E+00
 -1      3405 5.31779E+00
 -1      3406 6.04464E+00
 -1      3407 5.29514E+00
 -1      3408 3.08835E+00
 -1      3409 2.48399E+00
 -1      3410 2.00534E+00
 -1      3411 3.29099E-05
 -1      3412 3.46056E-05
 -1      3413 3.82297E-05
 -1      3414 2.82409E+00
 -1      3415 3.81305E+00
 -1      3416 3.31729E+00
 -1      3417 2.63427E+00
 -1      3418 2.45611E+00
 -1      3419 1.82387E+00
 -1      3420 1.51831E+00
 -1      3421 1.77056E+00
 -1      3422 1.04763E+00
 -1      3423 1.10837E+00
 -1      3424 1.00958E+00
 -1      3425 2.12670E-01
 -1      3426 4.34441E-01
 -1      3427 4.89835E-01
 -1      3428 5.76360E-01
 -1      3429 4.20643E-05
 -1      3430 4.95522E-05
 -1      3431 3.66049E-05
 -1      3432 2.98522E-05
 -1      3433 3.54820E-05
 -1      3434 3.06042E-05
 -1      3435 1.15270E+00
 -1      3436 2.00534E+00
 -1      3437 2.13104E+00
 -1      3438 2.55426E+00
 -1      3439 3.13085E-05
 -1      3440 3.04697E-05
 -1      3441 3.25999E-05
 -1      3442 3.44038E-05
 -1      3443 6.74394E-01
 -1      3444 7.67803E-01
 -1      3445 8.16210E-01
 -1      3446 6.14935E-01
 -1      3447 1.82387E+00
 -1      3448 2.48399E+00
 -1      3449 4.32470E+00
 -1      3450 1.42137E+00
 -1      3451 1.46894E+00
 -1      3452 1.70373E+00
 -1      3453 3.42274E-05
 -1      3454 3.42274E-05
 -1      3455 3.41213E-05
 -1      3456 3.78514E-05
 -1      3457 1.80594E+00
 -1      3458 2.43973E+00
 -1      3459 1.83538E+00
 -1      3460 4.85368E+00
 -1      3461 4.59458E+00
 -1      3462 3.68515E+00
 -1      3463 4.22010E-01
 -1      3464 3.17786E-01
 -1      3465 2.59369E-01
 -1      3466 2.01020E-01
 -1      3467 2.75870E-01
 -1      3468 1.63257E-01
 -1      3469 1.26622E-01
 -1      3470 1.79691E-01
 -1      3471 1.00944E-01
 -1      3472 8.10756E-02
 -1      3473 1.16251E-01
 -1      3474 6.41079E-02
 -1      3475 5.18027E-02
 -1      3476 7.36048E-02
 -1      3477 4.08416E-02
 -1      3478 3.24220E-02
 -1      3479 4.56760E-02
 -1      3480 2.61066E-02
 -1      3481 2.07776E-02
 -1      3482 2.83995E-02
 -1      3483 1.62180E-02
 -1      3484 1.27017E-02
 -1      3485 1.75245E-02
 -1      3486 1.07075E-02
 -1      3487 8.36508E-03
 -1      3488 1.09707E-02
 -1      3489 6.87680E-03
 -1      3490 5.31152E-03
 -1      3491 7.48814E-03
 -1      3492 4.23532E-03
 -1      3493 3.20844E-03
 -1      3494 4.92365E-03
 -1      3495 2.45283E-03
 -1      3496 1.87150E-03
 -1      3497 3.09185E-03
 -1      3498 1.34050E-03
 -1      3499 1.15571E-03
 -1      3500 1.80524E-03
 -1      3501 8.50400E-04
 -1      3502 8.76901E-04
 -1      3503 9.68932E-04
 -1      3504 8.82281E-04
 -1      3505 8.56942E-04
 -1      3506 6.69000E-04
 -1      3507 8.75175E-04
 -1      3508 8.24309E-04
 -1      3509 6.92613E-04
 -1      3510 8.10562E-04
 -1      3511 7.49287E-04
 -1      3512 6.97099E-04
 -1      3513 7.18329E-04
 -1      3514 6.55467E-04
 -1      3515 6.52394E-04
 -1      3516 6.16638E-04
 -1      3517 5.67339E-04
 -1      3518 5.82606E-04
 -1      3519 5.25268E-04
 -1      3520 4.79652E-04
 -1      3521 5.01706E-04
 -1      3522 4.44534E-04
 -1      3523 4.00404E-04
 -1      3524 4.24517E-04
 -1      3525 3.69626E-04
 -1      3526 3.30896E-04
 -1      3527 3.58622E-04
 -1      3528 3.01922E-04
 -1      3529 2.68123E-04
 -1      3530 2.98869E-04
 -1      3531 2.42030E-04
 -1      3532 2.13260E-04
 -1      3533 2.43803E-04
 -1      3534 1.90574E-04
 -1      3535 1.66636E-04
 -1      3536 1.95024E-04
 -1      3537 1.47178E-04
 -1      3538 1.27369E-04
 -1      3539 1.52881E-04
 -1      3540 1.11085E-04
 -1      3541 9.50452E-05
 -1      3542 1.17139E-04
 -1      3543 8.23610E-05
 -1      3544 7.02112E-05
 -1      3545 8.81717E-05
 -1      3546 6.02623E-05
 -1      3547 5.09309E-05
 -1      3548 6.55386E-05
 -1      3549 4.42295E-05
 -1      3550 3.92645E-05
 -1      3551 3.92645E-05
 -1      3552 4.88883E-05
 -1      3553 2.99113E-01
 -1      3554 3.49072E-01
 -1      3555 9.67429E-01
 -1      3556 8.19869E-01
 -1      3557 4.84880E-02
 -1      3558 6.29536E-02
 -1      3559 8.15581E-02
 -1      3560 1.03035E-01
 -1      3561 7.44313E-02
 -1      3562 1.85839E-02
 -1      3563 2.34290E-02
 -1      3564 1.19863E-02
 -1      3565 1.42037E-02
 -1      3566 1.88318E-02
 -1      3567 7.42079E-03
 -1      3568 9.06697E-03
 -1      3569 1.15323E-02
 -1      3570 4.79908E-03
 -1      3571 5.93251E-03
 -1      3572 7.12466E-03
 -1      3573 3.32276E-03
 -1      3574 3.96178E-03
 -1      3575 4.79908E-03
 -1      3576 2.23274E-03
 -1      3577 2.67683E-03
 -1      3578 3.31585E-03
 -1      3579 1.47052E-03
 -1      3580 1.80005E-03
 -1      3581 2.23723E-03
 -1      3582 1.04043E-03
 -1      3583 1.20183E-03
 -1      3584 1.53585E-03
 -1      3585 6.78754E-04
 -1      3586 8.19945E-04
 -1      3587 1.04667E-03
 -1      3588 5.65310E-04
 -1      3589 5.55437E-04
 -1      3590 7.02863E-04
 -1      3591 5.68420E-04
 -1      3592 5.37678E-04
 -1      3593 5.51915E-04
 -1      3594 5.62105E-04
 -1      3595 5.61880E-04
 -1      3596 5.17743E-04
 -1      3597 5.46179E-04
 -1      3598 5.65536E-04
 -1      3599 5.14634E-04
 -1      3600 5.06204E-04
 -1      3601 5.32025E-04
 -1      3602 5.03912E-04
 -1      3603 4.60611E-04
 -1      3604 4.85664E-04
 -1      3605 4.69218E-04
 -1      3606 4.06981E-04
 -1      3607 4.37499E-04
 -1      3608 4.25566E-04
 -1      3609 3.48260E-04
 -1      3610 3.80137E-04
 -1      3611 3.75611E-04
 -1      3612 2.90233E-04
 -1      3613 3.20852E-04
 -1      3614 3.21359E-04
 -1      3615 2.36381E-04
 -1      3616 2.64230E-04
 -1      3617 2.67947E-04
 -1      3618 1.88548E-04
 -1      3619 2.12893E-04
 -1      3620 2.18455E-04
 -1      3621 1.47457E-04
 -1      3622 1.68088E-04
 -1      3623 1.74508E-04
 -1      3624 1.13099E-04
 -1      3625 1.30145E-04
 -1      3626 1.36736E-04
 -1      3627 8.50106E-05
 -1      3628 9.87771E-05
 -1      3629 1.05102E-04
 -1      3630 6.25161E-05
 -1      3631 7.33895E-05
 -1      3632 7.91588E-05
 -1      3633 3.61896E-05
 -1      3634 1.27500E+00
 -1      3635 1.31068E+00
 -1      3636 1.54367E+00
 -1      3637 1.26634E+00
 -1      3638 1.31280E-01
 -1      3639 1.61401E-01
 -1      3640 1.21281E-01
 -1      3641 2.98149E-02
 -1      3642 3.85665E-02
 -1      3643 4.59053E-02
 -1      3644 2.95980E-02
 -1      3645 6.79104E-01
 -1      3646 5.46991E-01
 -1      3647 4.59268E-01
 -1      3648 7.25014E-01
 -1      3649 1.80749E+00
 -1      3650 4.07174E+00
 -1      3651 4.68136E+00
 -1      3652 3.63028E+00
 -1      3653 3.43991E+00
 -1      3654 3.80073E+00
 -1      3655 3.18695E+00
 -1      3656 1.78849E+00
 -1      3657 2.03236E-01
 -1      3658 2.42629E-01
 -1      3659 2.89679E-01
 -1      3660 1.77211E+00
 -1      3661 2.51952E+00
 -1      3662 2.36612E+00
 -1      3663 2.09630E+00
 -1      3664 3.03032E+00
 -1      3665 2.91286E+00
 -1      3666 2.09567E+00
 -1      3667 4.00748E-05
 -1      3668 3.71523E-05
 -1      3669 3.52140E-05
 -1      3670 3.95415E-05
 -1      3671 1.91360E-01
 -1      3672 4.19089E-01
 -1      3673 5.01548E-01
 -1      3674 4.16179E-01
 -1      3675 1.79751E+00
 -1      3676 1.84177E+00
 -1      3677 1.96746E+00
 -1      3678 5.69088E-05
 -1      3679 6.19303E-05
 -1      3680 4.89664E-05
 -1      3681 2.17218E+00
 -1      3682 2.81877E+00
 -1      3683 2.29480E+00
 -1      3684 3.78356E-05
 -1      3685 4.05832E-05
 -1      3686 1.77850E+00
 -1      3687 1.63139E+00
 -1      3688 1.19928E+00
 -1      3689 1.09763E+00
 -1      3690 1.79376E+00
 -1      3691 9.96773E-01
 -1      3692 1.08690E+00
 -1      3693 4.58953E-05
 -1      3694 4.35417E-05
 -1      3695 4.35417E-05
 -1      3696 7.78921E-01
 -1      3697 8.82162E-01
 -1      3698 9.59484E-01
 -1      3699 1.72913E+00
 -1      3700 1.91766E-01
 -1      3701 1.54004E-01
 -1      3702 1.20076E-01
 -1      3703 9.43981E-02
 -1      3704 1.32151E-01
 -1      3705 7.66086E-02
 -1      3706 5.96409E-02
 -1      3707 8.04342E-02
 -1      3708 4.90700E-02
 -1      3709 3.81089E-02
 -1      3710 5.20738E-02
 -1      3711 3.13737E-02
 -1      3712 2.50583E-02
 -1      3713 3.47677E-02
 -1      3714 1.94500E-02
 -1      3715 1.48904E-02
 -1      3716 2.24242E-02
 -1      3717 1.18634E-02
 -1      3718 9.86918E-03
 -1      3719 1.37889E-02
 -1      3720 7.91156E-03
 -1      3721 6.42328E-03
 -1      3722 8.80432E-03
 -1      3723 5.12779E-03
 -1      3724 4.05160E-03
 -1      3725 5.55122E-03
 -1      3726 3.37973E-03
 -1      3727 2.62412E-03
 -1      3728 3.58387E-03
 -1      3729 2.10320E-03
 -1      3730 1.57221E-03
 -1      3731 2.39109E-03
 -1      3732 1.19847E-03
 -1      3733 8.93154E-04
 -1      3734 1.49643E-03
 -1      3735 6.35685E-04
 -1      3736 6.41065E-04
 -1      3737 8.65220E-04
 -1      3738 5.59339E-04
 -1      3739 5.77572E-04
 -1      3740 5.26024E-04
 -1      3741 5.88352E-04
 -1      3742 5.74605E-04
 -1      3743 4.55078E-04
 -1      3744 5.81071E-04
 -1      3745 5.50113E-04
 -1      3746 4.72324E-04
 -1      3747 5.37895E-04
 -1      3748 4.99066E-04
 -1      3749 4.66573E-04
 -1      3750 4.75956E-04
 -1      3751 4.33885E-04
 -1      3752 4.31245E-04
 -1      3753 4.06731E-04
 -1      3754 3.71613E-04
 -1      3755 3.80981E-04
 -1      3756 3.44054E-04
 -1      3757 3.13276E-04
 -1      3758 3.26268E-04
 -1      3759 2.87078E-04
 -1      3760 2.58104E-04
 -1      3761 2.72510E-04
 -1      3762 2.36674E-04
 -1      3763 2.10581E-04
 -1      3764 2.24882E-04
 -1      3765 1.91443E-04
 -1      3766 1.68757E-04
 -1      3767 1.84314E-04
 -1      3768 1.51639E-04
 -1      3769 1.32182E-04
 -1      3770 1.48058E-04
 -1      3771 1.17359E-04
 -1      3772 1.01075E-04
 -1      3773 1.16117E-04
 -1      3774 8.91472E-05
 -1      3775 7.64631E-05
 -1      3776 8.93665E-05
 -1      3777 6.68358E-05
 -1      3778 5.68869E-05
 -1      3779 6.78114E-05
 -1      3780 5.09078E-05
 -1      3781 4.42065E-05
 -1      3782 4.20943E-05
 -1      3783 5.22051E-05
 -1      3784 1.65436E+00
 -1      3785 1.72913E+00
 -1      3786 1.89270E+00
 -1      3787 1.54367E+00
 -1      3788 1.07318E-02
 -1      3789 1.36511E-02
 -1      3790 1.73619E-02
 -1      3791 2.17422E-02
 -1      3792 1.65614E-02
 -1      3793 4.79908E-03
 -1      3794 5.63638E-03
 -1      3795 3.25171E-03
 -1      3796 3.89764E-03
 -1      3797 4.73494E-03
 -1      3798 2.25255E-03
 -1      3799 2.68524E-03
 -1      3800 3.26703E-03
 -1      3801 1.53995E-03
 -1      3802 1.80864E-03
 -1      3803 2.25665E-03
 -1      3804 1.04667E-03
 -1      3805 1.26716E-03
 -1      3806 1.53995E-03
 -1      3807 7.02863E-04
 -1      3808 8.26180E-04
 -1      3809 1.04667E-03
 -1      3810 5.51915E-04
 -1      3811 5.79546E-04
 -1      3812 7.02863E-04
 -1      3813 4.99764E-04
 -1      3814 5.06304E-04
 -1      3815 5.33936E-04
 -1      3816 4.79202E-04
 -1      3817 4.75771E-04
 -1      3818 4.64332E-04
 -1      3819 4.64440E-04
 -1      3820 4.78594E-04
 -1      3821 4.39731E-04
 -1      3822 4.29880E-04
 -1      3823 4.50420E-04
 -1      3824 4.25103E-04
 -1      3825 3.87118E-04
 -1      3826 4.10230E-04
 -1      3827 3.91433E-04
 -1      3828 3.37958E-04
 -1      3829 3.64801E-04
 -1      3830 3.49466E-04
 -1      3831 2.86803E-04
 -1      3832 3.14211E-04
 -1      3833 3.03402E-04
 -1      3834 2.37647E-04
 -1      3835 2.63651E-04
 -1      3836 2.56503E-04
 -1      3837 1.92805E-04
 -1      3838 2.16293E-04
 -1      3839 2.11997E-04
 -1      3840 1.53414E-04
 -1      3841 1.73874E-04
 -1      3842 1.71711E-04
 -1      3843 1.19830E-04
 -1      3844 1.37142E-04
 -1      3845 1.36508E-04
 -1      3846 9.18789E-05
 -1      3847 1.06201E-04
 -1      3848 1.06607E-04
 -1      3849 7.12648E-05
 -1      3850 8.28859E-05
 -1      3851 8.39849E-05
 -1      3852 1.82002E-01
 -1      3853 2.23837E-01
 -1      3854 5.81292E-01
 -1      3855 6.79327E-01
 -1      3856 7.45279E-01
 -1      3857 5.65940E-01
 -1      3858 4.68981E-05
 -1      3859 7.45516E-02
 -1      3860 9.31562E-02
 -1      3861 2.53437E+00
 -1      3862 2.80538E+00
 -1      3863 1.18881E-01
 -1      3864 1.47126E-01
 -1      3865 1.19001E-01
 -1      3866 7.00576E-03
 -1      3867 8.49404E-03
 -1      3868 7.00576E-03
 -1      3869 4.72764E-05
 -1      3870 3.04726E-01
 -1      3871 2.46309E-01
 -1      3872 2.20622E-01
 -1      3873 2.79425E+00
 -1      3874 2.96657E+00
 -1      3875 2.19428E+00
 -1      3876 2.14167E+00
 -1      3877 3.77011E-05
 -1      3878 3.78356E-05
 -1      3879 4.29368E-05
 -1      3880 4.04497E-05
 -1      3881 2.61007E-01
 -1      3882 3.17491E-01
 -1      3883 2.51649E-01
 -1      3884 1.86761E+00
 -1      3885 2.17218E+00
 -1      3886 1.67366E+00
 -1      3887 3.90373E-01
 -1      3888 4.60390E-01
 -1      3889 3.61702E-01
 -1      3890 5.11177E-01
 -1      3891 3.86196E-01
 -1      3892 3.56635E-01
 -1      3893 1.11132E+00
 -1      3894 8.79462E-01
 -1      3895 1.06129E-02
 -1      3896 5.25884E-05
 -1      3897 4.66987E-02
 -1      3898 5.66201E-02
 -1      3899 7.53450E-02
 -1      3900 2.74709E-02
 -1      3901 2.89408E-02
 -1      3902 3.53267E-02
 -1      3903 1.79602E-01
 -1      3904 6.95315E-05
 -1      3905 7.51387E-05
 -1      3906 7.88659E-05
 -1      3907 6.57968E-05
 -1      3908 1.85796E+00
 -1      3909 1.26634E+00
 -1      3910 1.43297E+00
 -1      3911 1.54367E+00
 -1      3912 1.25353E+00
 -1      3913 4.57785E-05
 -1      3914 4.57785E-05
 -1      3915 7.61342E-01
 -1      3916 6.20577E-01
 -1      3917 5.47506E-01
 -1      3918 7.75025E-01
 -1      3919 1.52005E+00
 -1      3920 2.14119E+00
 -1      3921 1.75962E+00
 -1      3922 6.28383E-05
 -1      3923 6.57968E-05
 -1      3924 8.27398E-05
 -1      3925 6.56800E-05
 -1      3926 1.07874E+00
 -1      3927 1.19335E+00
 -1      3928 1.37388E+00
 -1      3929 1.55332E+00
 -1      3930 1.49313E+00
 -1      3931 4.45814E-05
 -1      3932 4.74231E-05
 -1      3933 1.06193E-01
 -1      3934 8.84034E-02
 -1      3935 5.58225E-02
 -1      3936 4.52516E-02
 -1      3937 8.15812E-02
 -1      3938 3.96719E-02
 -1      3939 3.29367E-02
 -1      3940 4.34206E-02
 -1      3941 2.36567E-02
 -1      3942 1.80484E-02
 -1      3943 2.85609E-02
 -1      3944 1.42243E-02
 -1      3945 1.11973E-02
 -1      3946 1.54567E-02
 -1      3947 9.31584E-03
 -1      3948 7.35822E-03
 -1      3949 9.75119E-03
 -1      3950 6.09814E-03
 -1      3951 4.80265E-03
 -1      3952 6.60966E-03
 -1      3953 3.89800E-03
 -1      3954 3.22614E-03
 -1      3955 4.44493E-03
 -1      3956 2.80839E-03
 -1      3957 2.28747E-03
 -1      3958 3.12252E-03
 -1      3959 1.91371E-03
 -1      3960 1.53997E-03
 -1      3961 2.33101E-03
 -1      3962 1.22753E-03
 -1      3963 9.70059E-04
 -1      3964 1.64481E-03
 -1      3965 7.25957E-04
 -1      3966 6.44231E-04
 -1      3967 1.08827E-03
 -1      3968 4.76333E-04
 -1      3969 4.87113E-04
 -1      3970 6.76267E-04
 -1      3971 4.28397E-04
 -1      3972 4.34863E-04
 -1      3973 4.49652E-04
 -1      3974 4.18780E-04
 -1      3975 4.06562E-04
 -1      3976 3.74853E-04
 -1      3977 3.96815E-04
 -1      3978 3.73705E-04
 -1      3979 3.49023E-04
 -1      3980 3.53252E-04
 -1      3981 3.26098E-04
 -1      3982 3.18823E-04
 -1      3983 3.11777E-04
 -1      3984 2.84218E-04
 -1      3985 2.84049E-04
 -1      3986 2.67081E-04
 -1      3987 2.40883E-04
 -1      3988 2.52591E-04
 -1      3989 2.23108E-04
 -1      3990 2.01679E-04
 -1      3991 2.17679E-04
 -1      3992 1.85100E-04
 -1      3993 1.65962E-04
 -1      3994 1.83326E-04
 -1      3995 1.53663E-04
 -1      3996 1.36545E-04
 -1      3997 1.54448E-04
 -1      3998 1.19771E-04
 -1      3999 1.04949E-04
 -1      4000 1.25376E-04
 -1      4001 9.30897E-05
 -1      4002 8.11618E-05
 -1      4003 9.67439E-05
 -1      4004 2.25875E-03
 -1      4005 2.70266E-03
 -1      4006 1.93431E-02
 -1      4007 2.30539E-02
 -1      4008 1.19141E-02
 -1      4009 1.41519E-02
 -1      4010 2.06444E-02
 -1      4011 3.26703E-03
 -1      4012 3.83351E-03
 -1      4013 3.26914E-03
 -1      4014 4.60907E-03
 -1      4015 5.51051E-03
 -1      4016 4.60907E-03
 -1      4017 1.61221E-03
 -1      4018 1.88500E-03
 -1      4019 2.33101E-03
 -1      4020 1.07927E-03
 -1      4021 1.29976E-03
 -1      4022 1.64481E-03
 -1      4023 7.11855E-04
 -1      4024 8.35172E-04
 -1      4025 1.08827E-03
 -1      4026 5.36916E-04
 -1      4027 5.82526E-04
 -1      4028 7.14835E-04
 -1      4029 4.26796E-04
 -1      4030 4.50789E-04
 -1      4031 4.99380E-04
 -1      4032 4.15029E-04
 -1      4033 4.15637E-04
 -1      4034 4.02095E-04
 -1      4035 3.86502E-04
 -1      4036 4.00523E-04
 -1      4037 3.76429E-04
 -1      4038 3.51379E-04
 -1      4039 3.71029E-04
 -1      4040 3.46449E-04
 -1      4041 3.09443E-04
 -1      4042 3.31760E-04
 -1      4043 3.11356E-04
 -1      4044 2.64742E-04
 -1      4045 2.88489E-04
 -1      4046 2.70783E-04
 -1      4047 2.23933E-04
 -1      4048 2.47085E-04
 -1      4049 2.32173E-04
 -1      4050 1.86896E-04
 -1      4051 2.08251E-04
 -1      4052 1.98833E-04
 -1      4053 1.52495E-04
 -1      4054 1.71426E-04
 -1      4055 1.67680E-04
 -1      4056 1.22093E-04
 -1      4057 1.38365E-04
 -1      4058 1.38080E-04
 -1      4059 9.57806E-05
 -1      4060 1.09410E-04
 -1      4061 1.11266E-04
 -1      4062 7.88659E-05
 -1      4063 8.78588E-05
 -1      4064 9.06616E-05
 -1      4065 1.52005E+00
 -1      4066 1.52005E+00
 -1      4067 1.36644E+00
 -1      4068 1.33952E+00
 -1      4069 9.18240E-01
 -1      4070 1.15211E+00
 -1      4071 8.18646E-01
 -1      4072 3.53237E-01
 -1      4073 3.90407E-01
 -1      4074 1.43509E-01
 -1      4075 1.69234E-01
 -1      4076 1.78602E+00
 -1      4077 1.32175E+00
 -1      4078 1.10358E+00
 -1      4079 1.72227E+00
 -1      4080 1.74726E+00
 -1      4081 2.26969E-01
 -1      4082 2.61845E-01
 -1      4083 2.51477E-01
 -1      4084 7.31697E-03
 -1      4085 8.68635E-03
 -1      4086 7.19110E-03
 -1      4087 1.76285E-01
 -1      4088 1.42358E-01
 -1      4089 1.50327E-01
 -1      4090 2.85911E-01
 -1      4091 2.31369E-01
 -1      4092 2.41575E-01
 -1      4093 5.34021E-05
 -1      4094 7.11972E-05
 -1      4095 6.15699E-05
 -1      4096 5.67880E-05
 -1      4097 3.62806E-02
 -1      4098 3.34989E-02
 -1      4099 4.06975E-02
 -1      4100 5.96049E-01
 -1      4101 6.68931E-01
 -1      4102 6.97636E-01
 -1      4103 5.93688E-01
 -1      4104 6.73432E-01
 -1      4105 5.67882E-01
 -1      4106 4.60415E-02
 -1      4107 8.27398E-05
 -1      4108 1.17902E+00
 -1      4109 1.05000E-01
 -1      4110 1.55233E-01
 -1      4111 8.70684E-02
 -1      4112 4.00604E-01
 -1      4113 1.22254E-02
 -1      4114 1.12001E+00
 -1      4115 9.09579E-01
 -1      4116 8.98212E-01
 -1      4117 7.80092E-01
 -1      4118 9.14645E-01
 -1      4119 4.40305E-01
 -1      4120 3.58834E-01
 -1      4121 3.69581E-01
 -1      4122 1.20867E+00
 -1      4123 1.60186E+00
 -1      4124 1.73559E+00
 -1      4125 1.72445E+00
 -1      4126 1.31619E+00
 -1      4127 1.18464E+00
 -1      4128 7.49204E-05
 -1      4129 6.45004E-05
 -1      4130 5.63326E-05
 -1      4131 7.33924E-05
 -1      4132 7.44650E-05
 -1      4133 8.77200E-02
 -1      4134 5.51391E-02
 -1      4135 4.78629E-02
 -1      4136 4.22832E-02
 -1      4137 3.18383E-02
 -1      4138 2.25582E-02
 -1      4139 1.73670E-02
 -1      4140 1.35429E-02
 -1      4141 1.03151E-02
 -1      4142 8.43365E-03
 -1      4143 6.62719E-03
 -1      4144 5.36711E-03
 -1      4145 4.59154E-03
 -1      4146 3.68689E-03
 -1      4147 3.12252E-03
 -1      4148 2.70477E-03
 -1      4149 2.33101E-03
 -1      4150 1.95726E-03
 -1      4151 1.64481E-03
 -1      4152 1.33237E-03
 -1      4153 1.08827E-03
 -1      4154 8.44165E-04
 -1      4155 7.14835E-04
 -1      4156 5.46937E-04
 -1      4157 4.60811E-04
 -1      4158 4.02095E-04
 -1      4159 3.90936E-04
 -1      4160 3.74853E-04
 -1      4161 3.60346E-04
 -1      4162 3.50599E-04
 -1      4163 3.35125E-04
 -1      4164 3.14673E-04
 -1      4165 2.95053E-04
 -1      4166 2.80732E-04
 -1      4167 2.59779E-04
 -1      4168 2.42641E-04
 -1      4169 2.24985E-04
 -1      4170 2.07210E-04
 -1      4171 1.91527E-04
 -1      4172 1.74949E-04
 -1      4173 1.59479E-04
 -1      4174 1.47180E-04
 -1      4175 1.33049E-04
 -1      4176 1.16276E-04
 -1      4177 1.03593E-04
 -1      4178 9.17341E-05
 -1      4179 8.46393E-01
 -1      4180 1.20867E+00
 -1      4181 1.20867E+00
 -1      4182 1.05090E+00
 -1      4183 3.82928E-02
 -1      4184 4.96648E-02
 -1      4185 7.93198E-02
 -1      4186 4.43208E-02
 -1      4187 1.12219E+00
 -1      4188 8.27398E-05
 -1      4189 6.38077E-01
 -1      4190 5.28677E-01
 -1      4191 5.30876E-01
 -1      4192 7.61263E-01
 -1      4193 1.02125E+00
 -1      4194 2.45200E-01
 -1      4195 3.02935E-01
 -1      4196 7.33924E-05
 -1      4197 3.75858E-01
 -1      4198 4.67249E-01
 -1      4199 1.51607E-01
 -1      4200 1.15443E-01
 -1      4201 1.90117E-01
 -1      4202 8.38124E-05
 -1      4203 5.55622E-01
 -1      4204 9.88457E-01
 -1      4205 9.88457E-01
 -1      4206 7.61263E-01
 -1      4207 6.80298E-01
 -1      4208 8.13596E-01
 -1      4209 9.14645E-01
 -1      4210 8.76041E-01
 -1      4211 9.88457E-01
 -1      4212 9.26012E-01
 -1      4213 9.14645E-01
 -1      4214 9.03278E-01
 -1      4215 5.40017E-02
 -1      4216 5.15970E-02
 -1      4217 8.90007E-02
 -3
 9999
