    1C
    1UUSER                                                              
    1UDATE              27.october.2022                                 
    1UTIME              00:41:32                                        
    1UHOST                                                              
    1UPGM               CalculiX                                        
    1UVERSION           Version 2.17                             
    1UCOMPILETIME       Thu Jul 23 21:43:50 CEST 2020                    
    1UDIR                                                               
    1UDBN                                                               
    1UMAT    1SOLIDMATERIAL                                             
    2C                          4368                                     1
 -1         1 9.81818E+01 3.00785E+01 0.00000E+00
 -1         2 1.10187E+02 2.51852E+01 0.00000E+00
 -1         3 1.50000E+02 0.00000E+00 0.00000E+00
 -1         4 1.50000E+02 5.00000E+01 0.00000E+00
 -1         5 0.00000E+00 0.00000E+00 0.00000E+00
 -1         6 0.00000E+00 5.00000E+01 0.00000E+00
 -1         7 0.00000E+00 4.70500E+01 0.00000E+00
 -1         8 0.00000E+00 4.41000E+01 0.00000E+00
 -1         9 0.00000E+00 4.11500E+01 0.00000E+00
 -1        10 0.00000E+00 3.82000E+01 0.00000E+00
 -1        11 0.00000E+00 3.52500E+01 0.00000E+00
 -1        12 0.00000E+00 3.23500E+01 0.00000E+00
 -1        13 0.00000E+00 2.94000E+01 0.00000E+00
 -1        14 0.00000E+00 2.64500E+01 0.00000E+00
 -1        15 0.00000E+00 2.35000E+01 0.00000E+00
 -1        16 0.00000E+00 2.05500E+01 0.00000E+00
 -1        17 0.00000E+00 1.76000E+01 0.00000E+00
 -1        18 0.00000E+00 1.47000E+01 0.00000E+00
 -1        19 0.00000E+00 1.17500E+01 0.00000E+00
 -1        20 0.00000E+00 8.80000E+00 0.00000E+00
 -1        21 0.00000E+00 5.85000E+00 0.00000E+00
 -1        22 0.00000E+00 2.90000E+00 0.00000E+00
 -1        23 3.15000E+00 5.00000E+01 0.00000E+00
 -1        24 6.15000E+00 5.00000E+01 0.00000E+00
 -1        25 9.15000E+00 5.00000E+01 0.00000E+00
 -1        26 1.21500E+01 5.00000E+01 0.00000E+00
 -1        27 1.51500E+01 5.00000E+01 0.00000E+00
 -1        28 1.81500E+01 5.00000E+01 0.00000E+00
 -1        29 2.11500E+01 5.00000E+01 0.00000E+00
 -1        30 2.41500E+01 5.00000E+01 0.00000E+00
 -1        31 2.71500E+01 5.00000E+01 0.00000E+00
 -1        32 3.01500E+01 5.00000E+01 0.00000E+00
 -1        33 3.31500E+01 5.00000E+01 0.00000E+00
 -1        34 3.61500E+01 5.00000E+01 0.00000E+00
 -1        35 3.91500E+01 5.00000E+01 0.00000E+00
 -1        36 4.21500E+01 5.00000E+01 0.00000E+00
 -1        37 4.51500E+01 5.00000E+01 0.00000E+00
 -1        38 4.81500E+01 5.00000E+01 0.00000E+00
 -1        39 5.11500E+01 5.00000E+01 0.00000E+00
 -1        40 5.41500E+01 5.00000E+01 0.00000E+00
 -1        41 5.71500E+01 5.00000E+01 0.00000E+00
 -1        42 6.01500E+01 5.00000E+01 0.00000E+00
 -1        43 6.31500E+01 5.00000E+01 0.00000E+00
 -1        44 6.61500E+01 5.00000E+01 0.00000E+00
 -1        45 6.91500E+01 5.00000E+01 0.00000E+00
 -1        46 7.21500E+01 5.00000E+01 0.00000E+00
 -1        47 7.51500E+01 5.00000E+01 0.00000E+00
 -1        48 7.81500E+01 5.00000E+01 0.00000E+00
 -1        49 8.11500E+01 5.00000E+01 0.00000E+00
 -1        50 8.41500E+01 5.00000E+01 0.00000E+00
 -1        51 8.71500E+01 5.00000E+01 0.00000E+00
 -1        52 9.01500E+01 5.00000E+01 0.00000E+00
 -1        53 9.31500E+01 5.00000E+01 0.00000E+00
 -1        54 9.61500E+01 5.00000E+01 0.00000E+00
 -1        55 9.91500E+01 5.00000E+01 0.00000E+00
 -1        56 1.02150E+02 5.00000E+01 0.00000E+00
 -1        57 1.05150E+02 5.00000E+01 0.00000E+00
 -1        58 1.08150E+02 5.00000E+01 0.00000E+00
 -1        59 1.11150E+02 5.00000E+01 0.00000E+00
 -1        60 1.14150E+02 5.00000E+01 0.00000E+00
 -1        61 1.17150E+02 5.00000E+01 0.00000E+00
 -1        62 1.20150E+02 5.00000E+01 0.00000E+00
 -1        63 1.23150E+02 5.00000E+01 0.00000E+00
 -1        64 1.26150E+02 5.00000E+01 0.00000E+00
 -1        65 1.29150E+02 5.00000E+01 0.00000E+00
 -1        66 1.32150E+02 5.00000E+01 0.00000E+00
 -1        67 1.35150E+02 5.00000E+01 0.00000E+00
 -1        68 1.38150E+02 5.00000E+01 0.00000E+00
 -1        69 1.41150E+02 5.00000E+01 0.00000E+00
 -1        70 1.44150E+02 5.00000E+01 0.00000E+00
 -1        71 1.47150E+02 5.00000E+01 0.00000E+00
 -1        72 3.15000E+00 0.00000E+00 0.00000E+00
 -1        73 6.15000E+00 0.00000E+00 0.00000E+00
 -1        74 9.15000E+00 0.00000E+00 0.00000E+00
 -1        75 1.21500E+01 0.00000E+00 0.00000E+00
 -1        76 1.51500E+01 0.00000E+00 0.00000E+00
 -1        77 1.81500E+01 0.00000E+00 0.00000E+00
 -1        78 2.11500E+01 0.00000E+00 0.00000E+00
 -1        79 2.41500E+01 0.00000E+00 0.00000E+00
 -1        80 2.71500E+01 0.00000E+00 0.00000E+00
 -1        81 3.01500E+01 0.00000E+00 0.00000E+00
 -1        82 3.31500E+01 0.00000E+00 0.00000E+00
 -1        83 3.61500E+01 0.00000E+00 0.00000E+00
 -1        84 3.91500E+01 0.00000E+00 0.00000E+00
 -1        85 4.21500E+01 0.00000E+00 0.00000E+00
 -1        86 4.51500E+01 0.00000E+00 0.00000E+00
 -1        87 4.81500E+01 0.00000E+00 0.00000E+00
 -1        88 5.11500E+01 0.00000E+00 0.00000E+00
 -1        89 5.41500E+01 0.00000E+00 0.00000E+00
 -1        90 5.71500E+01 0.00000E+00 0.00000E+00
 -1        91 6.01500E+01 0.00000E+00 0.00000E+00
 -1        92 6.31500E+01 0.00000E+00 0.00000E+00
 -1        93 6.61500E+01 0.00000E+00 0.00000E+00
 -1        94 6.91500E+01 0.00000E+00 0.00000E+00
 -1        95 7.21500E+01 0.00000E+00 0.00000E+00
 -1        96 7.51500E+01 0.00000E+00 0.00000E+00
 -1        97 7.81500E+01 0.00000E+00 0.00000E+00
 -1        98 8.11500E+01 0.00000E+00 0.00000E+00
 -1        99 8.41500E+01 0.00000E+00 0.00000E+00
 -1       100 8.71500E+01 0.00000E+00 0.00000E+00
 -1       101 9.01500E+01 0.00000E+00 0.00000E+00
 -1       102 9.31500E+01 0.00000E+00 0.00000E+00
 -1       103 9.61500E+01 0.00000E+00 0.00000E+00
 -1       104 9.91500E+01 0.00000E+00 0.00000E+00
 -1       105 1.02150E+02 0.00000E+00 0.00000E+00
 -1       106 1.05150E+02 0.00000E+00 0.00000E+00
 -1       107 1.08150E+02 0.00000E+00 0.00000E+00
 -1       108 1.11150E+02 0.00000E+00 0.00000E+00
 -1       109 1.14150E+02 0.00000E+00 0.00000E+00
 -1       110 1.17150E+02 0.00000E+00 0.00000E+00
 -1       111 1.20150E+02 0.00000E+00 0.00000E+00
 -1       112 1.23150E+02 0.00000E+00 0.00000E+00
 -1       113 1.26150E+02 0.00000E+00 0.00000E+00
 -1       114 1.29150E+02 0.00000E+00 0.00000E+00
 -1       115 1.32150E+02 0.00000E+00 0.00000E+00
 -1       116 1.35150E+02 0.00000E+00 0.00000E+00
 -1       117 1.38150E+02 0.00000E+00 0.00000E+00
 -1       118 1.41150E+02 0.00000E+00 0.00000E+00
 -1       119 1.44150E+02 0.00000E+00 0.00000E+00
 -1       120 1.47150E+02 0.00000E+00 0.00000E+00
 -1       121 1.50000E+02 2.95000E+00 0.00000E+00
 -1       122 1.50000E+02 5.90000E+00 0.00000E+00
 -1       123 1.50000E+02 8.85000E+00 0.00000E+00
 -1       124 1.50000E+02 1.18000E+01 0.00000E+00
 -1       125 1.50000E+02 1.47500E+01 0.00000E+00
 -1       126 1.50000E+02 1.76500E+01 0.00000E+00
 -1       127 1.50000E+02 2.06000E+01 0.00000E+00
 -1       128 1.50000E+02 2.35500E+01 0.00000E+00
 -1       129 1.50000E+02 2.65000E+01 0.00000E+00
 -1       130 1.50000E+02 2.94500E+01 0.00000E+00
 -1       131 1.50000E+02 3.24000E+01 0.00000E+00
 -1       132 1.50000E+02 3.53000E+01 0.00000E+00
 -1       133 1.50000E+02 3.82500E+01 0.00000E+00
 -1       134 1.50000E+02 4.12000E+01 0.00000E+00
 -1       135 1.50000E+02 4.41500E+01 0.00000E+00
 -1       136 1.50000E+02 4.71000E+01 0.00000E+00
 -1       137 1.10027E+02 2.36960E+01 0.00000E+00
 -1       138 1.09571E+02 2.23123E+01 0.00000E+00
 -1       139 1.08831E+02 2.10442E+01 0.00000E+00
 -1       140 1.07730E+02 1.98593E+01 0.00000E+00
 -1       141 1.06429E+02 1.89812E+01 0.00000E+00
 -1       142 1.04814E+02 1.83769E+01 0.00000E+00
 -1       143 1.03349E+02 1.81871E+01 0.00000E+00
 -1       144 1.01805E+02 1.83231E+01 0.00000E+00
 -1       145 1.00412E+02 1.87591E+01 0.00000E+00
 -1       146 9.90186E+01 1.95620E+01 0.00000E+00
 -1       147 9.79405E+01 2.05517E+01 0.00000E+00
 -1       148 9.70727E+01 2.17779E+01 0.00000E+00
 -1       149 9.65080E+01 2.30910E+01 0.00000E+00
 -1       150 9.62167E+01 2.45457E+01 0.00000E+00
 -1       151 9.62368E+01 2.60151E+01 0.00000E+00
 -1       152 9.65855E+01 2.75121E+01 0.00000E+00
 -1       153 9.72974E+01 2.89677E+01 0.00000E+00
 -1       154 9.92309E+01 3.09599E+01 0.00000E+00
 -1       155 1.00406E+02 3.16090E+01 0.00000E+00
 -1       156 1.01710E+02 3.20276E+01 0.00000E+00
 -1       157 1.03045E+02 3.21838E+01 0.00000E+00
 -1       158 1.04391E+02 3.20811E+01 0.00000E+00
 -1       159 1.05773E+02 3.16901E+01 0.00000E+00
 -1       160 1.07065E+02 3.10131E+01 0.00000E+00
 -1       161 1.08165E+02 3.01074E+01 0.00000E+00
 -1       162 1.09017E+02 2.90596E+01 0.00000E+00
 -1       163 1.09660E+02 2.78497E+01 0.00000E+00
 -1       164 1.10049E+02 2.65717E+01 0.00000E+00
 -1       165 2.59800E+00 4.55750E+01 0.00000E+00
 -1       166 2.59800E+00 4.26250E+01 0.00000E+00
 -1       167 2.59800E+00 3.96750E+01 0.00000E+00
 -1       168 2.59800E+00 3.67250E+01 0.00000E+00
 -1       169 2.59800E+00 3.38250E+01 0.00000E+00
 -1       170 2.59800E+00 3.08750E+01 0.00000E+00
 -1       171 2.59800E+00 2.79250E+01 0.00000E+00
 -1       172 2.59800E+00 2.49750E+01 0.00000E+00
 -1       173 2.59800E+00 2.20250E+01 0.00000E+00
 -1       174 2.59800E+00 1.90750E+01 0.00000E+00
 -1       175 2.59800E+00 1.61750E+01 0.00000E+00
 -1       176 2.59800E+00 1.32250E+01 0.00000E+00
 -1       177 2.59800E+00 1.02750E+01 0.00000E+00
 -1       178 2.59800E+00 7.32500E+00 0.00000E+00
 -1       179 2.59800E+00 4.37500E+00 0.00000E+00
 -1       180 2.87400E+00 2.18750E+00 0.00000E+00
 -1       181 4.65000E+00 4.74020E+01 0.00000E+00
 -1       182 7.65000E+00 4.74020E+01 0.00000E+00
 -1       183 1.06500E+01 4.74020E+01 0.00000E+00
 -1       184 1.36500E+01 4.74020E+01 0.00000E+00
 -1       185 1.66500E+01 4.74020E+01 0.00000E+00
 -1       186 1.96500E+01 4.74020E+01 0.00000E+00
 -1       187 2.26500E+01 4.74020E+01 0.00000E+00
 -1       188 2.56500E+01 4.74020E+01 0.00000E+00
 -1       189 2.86500E+01 4.74020E+01 0.00000E+00
 -1       190 3.16500E+01 4.74020E+01 0.00000E+00
 -1       191 3.46500E+01 4.74020E+01 0.00000E+00
 -1       192 3.76500E+01 4.74020E+01 0.00000E+00
 -1       193 4.06500E+01 4.74020E+01 0.00000E+00
 -1       194 4.36500E+01 4.74020E+01 0.00000E+00
 -1       195 4.66500E+01 4.74020E+01 0.00000E+00
 -1       196 4.96500E+01 4.74020E+01 0.00000E+00
 -1       197 5.26500E+01 4.74020E+01 0.00000E+00
 -1       198 5.56500E+01 4.74020E+01 0.00000E+00
 -1       199 5.86500E+01 4.74020E+01 0.00000E+00
 -1       200 6.16500E+01 4.74020E+01 0.00000E+00
 -1       201 6.46500E+01 4.74020E+01 0.00000E+00
 -1       202 6.76500E+01 4.74020E+01 0.00000E+00
 -1       203 7.06500E+01 4.74020E+01 0.00000E+00
 -1       204 7.36500E+01 4.74020E+01 0.00000E+00
 -1       205 7.66500E+01 4.74020E+01 0.00000E+00
 -1       206 7.96500E+01 4.74020E+01 0.00000E+00
 -1       207 8.26500E+01 4.74020E+01 0.00000E+00
 -1       208 8.56500E+01 4.74020E+01 0.00000E+00
 -1       209 8.86500E+01 4.74020E+01 0.00000E+00
 -1       210 9.16500E+01 4.74020E+01 0.00000E+00
 -1       211 9.46500E+01 4.74020E+01 0.00000E+00
 -1       212 9.76500E+01 4.74020E+01 0.00000E+00
 -1       213 1.00650E+02 4.74020E+01 0.00000E+00
 -1       214 1.03650E+02 4.74020E+01 0.00000E+00
 -1       215 1.06650E+02 4.74020E+01 0.00000E+00
 -1       216 1.09650E+02 4.74020E+01 0.00000E+00
 -1       217 1.12650E+02 4.74020E+01 0.00000E+00
 -1       218 1.15650E+02 4.74020E+01 0.00000E+00
 -1       219 1.18650E+02 4.74020E+01 0.00000E+00
 -1       220 1.21650E+02 4.74020E+01 0.00000E+00
 -1       221 1.24650E+02 4.74020E+01 0.00000E+00
 -1       222 1.27650E+02 4.74020E+01 0.00000E+00
 -1       223 1.30650E+02 4.74020E+01 0.00000E+00
 -1       224 1.33650E+02 4.74020E+01 0.00000E+00
 -1       225 1.36650E+02 4.74020E+01 0.00000E+00
 -1       226 1.39650E+02 4.74020E+01 0.00000E+00
 -1       227 1.42650E+02 4.74020E+01 0.00000E+00
 -1       228 1.45650E+02 4.74020E+01 0.00000E+00
 -1       229 5.87400E+00 2.18750E+00 0.00000E+00
 -1       230 8.87400E+00 2.18750E+00 0.00000E+00
 -1       231 1.18740E+01 2.18750E+00 0.00000E+00
 -1       232 1.48740E+01 2.18750E+00 0.00000E+00
 -1       233 1.78740E+01 2.18750E+00 0.00000E+00
 -1       234 2.08740E+01 2.18750E+00 0.00000E+00
 -1       235 2.38740E+01 2.18750E+00 0.00000E+00
 -1       236 2.68740E+01 2.18750E+00 0.00000E+00
 -1       237 2.98740E+01 2.18750E+00 0.00000E+00
 -1       238 3.28740E+01 2.18750E+00 0.00000E+00
 -1       239 3.58740E+01 2.18750E+00 0.00000E+00
 -1       240 3.88740E+01 2.18750E+00 0.00000E+00
 -1       241 4.18740E+01 2.18750E+00 0.00000E+00
 -1       242 4.48740E+01 2.18750E+00 0.00000E+00
 -1       243 4.78740E+01 2.18750E+00 0.00000E+00
 -1       244 5.08740E+01 2.18750E+00 0.00000E+00
 -1       245 5.38740E+01 2.18750E+00 0.00000E+00
 -1       246 5.68740E+01 2.18750E+00 0.00000E+00
 -1       247 5.98740E+01 2.18750E+00 0.00000E+00
 -1       248 6.28740E+01 2.18750E+00 0.00000E+00
 -1       249 6.58740E+01 2.18750E+00 0.00000E+00
 -1       250 6.88740E+01 2.18750E+00 0.00000E+00
 -1       251 7.18740E+01 2.18750E+00 0.00000E+00
 -1       252 7.48740E+01 2.18750E+00 0.00000E+00
 -1       253 7.78740E+01 2.18750E+00 0.00000E+00
 -1       254 8.08740E+01 2.18750E+00 0.00000E+00
 -1       255 8.38740E+01 2.18750E+00 0.00000E+00
 -1       256 8.68740E+01 2.18750E+00 0.00000E+00
 -1       257 8.98740E+01 2.18750E+00 0.00000E+00
 -1       258 9.28740E+01 2.18750E+00 0.00000E+00
 -1       259 9.58740E+01 2.18750E+00 0.00000E+00
 -1       260 9.88740E+01 2.18750E+00 0.00000E+00
 -1       261 1.01874E+02 2.18750E+00 0.00000E+00
 -1       262 1.04874E+02 2.18750E+00 0.00000E+00
 -1       263 1.07874E+02 2.18750E+00 0.00000E+00
 -1       264 1.10874E+02 2.18750E+00 0.00000E+00
 -1       265 1.13874E+02 2.18750E+00 0.00000E+00
 -1       266 1.16874E+02 2.18750E+00 0.00000E+00
 -1       267 1.19874E+02 2.18750E+00 0.00000E+00
 -1       268 1.22874E+02 2.18750E+00 0.00000E+00
 -1       269 1.25874E+02 2.18750E+00 0.00000E+00
 -1       270 1.28874E+02 2.18750E+00 0.00000E+00
 -1       271 1.31874E+02 2.18750E+00 0.00000E+00
 -1       272 1.34874E+02 2.18750E+00 0.00000E+00
 -1       273 1.37874E+02 2.18750E+00 0.00000E+00
 -1       274 1.40874E+02 2.18750E+00 0.00000E+00
 -1       275 1.43874E+02 2.18750E+00 0.00000E+00
 -1       276 1.46874E+02 2.18750E+00 0.00000E+00
 -1       277 1.47402E+02 4.42500E+00 0.00000E+00
 -1       278 1.47402E+02 7.37500E+00 0.00000E+00
 -1       279 1.47402E+02 1.03250E+01 0.00000E+00
 -1       280 1.47402E+02 1.32750E+01 0.00000E+00
 -1       281 1.47402E+02 1.61750E+01 0.00000E+00
 -1       282 1.47402E+02 1.91250E+01 0.00000E+00
 -1       283 1.47402E+02 2.20750E+01 0.00000E+00
 -1       284 1.47402E+02 2.50250E+01 0.00000E+00
 -1       285 1.47402E+02 2.79750E+01 0.00000E+00
 -1       286 1.47402E+02 3.09250E+01 0.00000E+00
 -1       287 1.47402E+02 3.38250E+01 0.00000E+00
 -1       288 1.47402E+02 3.67750E+01 0.00000E+00
 -1       289 1.47402E+02 3.97250E+01 0.00000E+00
 -1       290 1.47402E+02 4.26750E+01 0.00000E+00
 -1       291 1.46526E+02 4.50385E+01 0.00000E+00
 -1       292 1.11396E+02 2.43019E+01 0.00000E+00
 -1       293 1.11030E+02 2.25981E+01 0.00000E+00
 -1       294 1.10248E+02 2.10675E+01 0.00000E+00
 -1       295 1.09291E+02 1.95123E+01 0.00000E+00
 -1       296 1.07758E+02 1.84154E+01 0.00000E+00
 -1       297 1.06105E+02 1.73866E+01 0.00000E+00
 -1       298 1.04237E+02 1.70797E+01 0.00000E+00
 -1       299 1.02456E+02 1.68804E+01 0.00000E+00
 -1       300 1.00746E+02 1.73840E+01 0.00000E+00
 -1       301 9.90261E+01 1.79649E+01 0.00000E+00
 -1       302 9.76596E+01 1.91637E+01 0.00000E+00
 -1       303 9.63801E+01 2.03676E+01 0.00000E+00
 -1       304 9.56766E+01 2.19555E+01 0.00000E+00
 -1       305 9.50914E+01 2.35638E+01 0.00000E+00
 -1       306 9.49307E+01 2.52981E+01 0.00000E+00
 -1       307 9.50671E+01 2.70766E+01 0.00000E+00
 -1       308 9.56265E+01 2.88830E+01 0.00000E+00
 -1       309 9.67911E+01 3.02783E+01 0.00000E+00
 -1       310 9.79265E+01 3.14475E+01 0.00000E+00
 -1       311 9.92324E+01 3.23457E+01 0.00000E+00
 -1       312 1.00688E+02 3.29727E+01 0.00000E+00
 -1       313 1.02237E+02 3.33099E+01 0.00000E+00
 -1       314 1.03810E+02 3.33413E+01 0.00000E+00
 -1       315 1.05457E+02 3.32135E+01 0.00000E+00
 -1       316 1.06982E+02 3.24255E+01 0.00000E+00
 -1       317 1.08439E+02 3.15608E+01 0.00000E+00
 -1       318 1.09531E+02 3.03489E+01 0.00000E+00
 -1       319 1.10410E+02 2.90236E+01 0.00000E+00
 -1       320 1.11015E+02 2.75631E+01 0.00000E+00
 -1       321 1.11408E+02 2.60075E+01 0.00000E+00
 -1       322 5.19600E+00 4.11500E+01 0.00000E+00
 -1       323 5.19600E+00 4.41000E+01 0.00000E+00
 -1       324 5.19600E+00 3.52750E+01 0.00000E+00
 -1       325 5.19600E+00 3.23250E+01 0.00000E+00
 -1       326 5.19600E+00 2.93750E+01 0.00000E+00
 -1       327 5.19600E+00 2.64250E+01 0.00000E+00
 -1       328 5.19600E+00 2.34750E+01 0.00000E+00
 -1       329 5.19600E+00 2.05250E+01 0.00000E+00
 -1       330 5.19600E+00 1.76250E+01 0.00000E+00
 -1       331 5.19600E+00 1.46750E+01 0.00000E+00
 -1       332 5.19600E+00 1.17250E+01 0.00000E+00
 -1       333 5.19600E+00 8.77500E+00 0.00000E+00
 -1       334 5.19600E+00 5.82500E+00 0.00000E+00
 -1       335 5.53500E+00 4.00625E+00 0.00000E+00
 -1       336 8.53500E+00 4.00625E+00 0.00000E+00
 -1       337 9.15000E+00 4.48040E+01 0.00000E+00
 -1       338 1.21500E+01 4.48040E+01 0.00000E+00
 -1       339 1.51500E+01 4.48040E+01 0.00000E+00
 -1       340 1.81500E+01 4.48040E+01 0.00000E+00
 -1       341 2.11500E+01 4.48040E+01 0.00000E+00
 -1       342 2.41500E+01 4.48040E+01 0.00000E+00
 -1       343 2.71500E+01 4.48040E+01 0.00000E+00
 -1       344 3.01500E+01 4.48040E+01 0.00000E+00
 -1       345 3.31500E+01 4.48040E+01 0.00000E+00
 -1       346 3.61500E+01 4.48040E+01 0.00000E+00
 -1       347 3.91500E+01 4.48040E+01 0.00000E+00
 -1       348 4.21500E+01 4.48040E+01 0.00000E+00
 -1       349 4.51500E+01 4.48040E+01 0.00000E+00
 -1       350 4.81500E+01 4.48040E+01 0.00000E+00
 -1       351 5.11500E+01 4.48040E+01 0.00000E+00
 -1       352 5.41500E+01 4.48040E+01 0.00000E+00
 -1       353 5.71500E+01 4.48040E+01 0.00000E+00
 -1       354 6.01500E+01 4.48040E+01 0.00000E+00
 -1       355 6.31500E+01 4.48040E+01 0.00000E+00
 -1       356 6.61500E+01 4.48040E+01 0.00000E+00
 -1       357 6.91500E+01 4.48040E+01 0.00000E+00
 -1       358 7.21500E+01 4.48040E+01 0.00000E+00
 -1       359 7.51500E+01 4.48040E+01 0.00000E+00
 -1       360 7.81500E+01 4.48040E+01 0.00000E+00
 -1       361 8.11500E+01 4.48040E+01 0.00000E+00
 -1       362 8.41500E+01 4.48040E+01 0.00000E+00
 -1       363 8.71500E+01 4.48040E+01 0.00000E+00
 -1       364 9.01500E+01 4.48040E+01 0.00000E+00
 -1       365 9.31500E+01 4.48040E+01 0.00000E+00
 -1       366 9.61500E+01 4.48040E+01 0.00000E+00
 -1       367 9.91500E+01 4.48040E+01 0.00000E+00
 -1       368 1.02150E+02 4.48040E+01 0.00000E+00
 -1       369 1.05150E+02 4.48040E+01 0.00000E+00
 -1       370 1.08150E+02 4.48040E+01 0.00000E+00
 -1       371 1.11150E+02 4.48040E+01 0.00000E+00
 -1       372 1.14150E+02 4.48040E+01 0.00000E+00
 -1       373 1.17150E+02 4.48040E+01 0.00000E+00
 -1       374 1.20150E+02 4.48040E+01 0.00000E+00
 -1       375 1.23150E+02 4.48040E+01 0.00000E+00
 -1       376 1.26150E+02 4.48040E+01 0.00000E+00
 -1       377 1.29150E+02 4.48040E+01 0.00000E+00
 -1       378 1.32150E+02 4.48040E+01 0.00000E+00
 -1       379 1.35150E+02 4.48040E+01 0.00000E+00
 -1       380 1.38150E+02 4.48040E+01 0.00000E+00
 -1       381 1.41150E+02 4.48040E+01 0.00000E+00
 -1       382 1.43838E+02 4.49212E+01 0.00000E+00
 -1       383 1.15350E+01 4.00625E+00 0.00000E+00
 -1       384 1.45350E+01 4.00625E+00 0.00000E+00
 -1       385 1.75350E+01 4.00625E+00 0.00000E+00
 -1       386 2.05350E+01 4.00625E+00 0.00000E+00
 -1       387 2.35350E+01 4.00625E+00 0.00000E+00
 -1       388 2.65350E+01 4.00625E+00 0.00000E+00
 -1       389 2.95350E+01 4.00625E+00 0.00000E+00
 -1       390 3.25350E+01 4.00625E+00 0.00000E+00
 -1       391 3.55350E+01 4.00625E+00 0.00000E+00
 -1       392 3.85350E+01 4.00625E+00 0.00000E+00
 -1       393 4.15350E+01 4.00625E+00 0.00000E+00
 -1       394 4.45350E+01 4.00625E+00 0.00000E+00
 -1       395 4.75350E+01 4.00625E+00 0.00000E+00
 -1       396 5.05350E+01 4.00625E+00 0.00000E+00
 -1       397 5.35350E+01 4.00625E+00 0.00000E+00
 -1       398 5.65350E+01 4.00625E+00 0.00000E+00
 -1       399 5.95350E+01 4.00625E+00 0.00000E+00
 -1       400 6.25350E+01 4.00625E+00 0.00000E+00
 -1       401 6.55350E+01 4.00625E+00 0.00000E+00
 -1       402 6.85350E+01 4.00625E+00 0.00000E+00
 -1       403 7.15350E+01 4.00625E+00 0.00000E+00
 -1       404 7.45350E+01 4.00625E+00 0.00000E+00
 -1       405 7.75350E+01 4.00625E+00 0.00000E+00
 -1       406 8.05350E+01 4.00625E+00 0.00000E+00
 -1       407 8.35350E+01 4.00625E+00 0.00000E+00
 -1       408 8.65350E+01 4.00625E+00 0.00000E+00
 -1       409 8.95350E+01 4.00625E+00 0.00000E+00
 -1       410 9.25350E+01 4.00625E+00 0.00000E+00
 -1       411 9.55350E+01 4.00625E+00 0.00000E+00
 -1       412 9.85350E+01 4.00625E+00 0.00000E+00
 -1       413 1.01535E+02 4.00625E+00 0.00000E+00
 -1       414 1.04535E+02 4.00625E+00 0.00000E+00
 -1       415 1.07535E+02 4.00625E+00 0.00000E+00
 -1       416 1.10535E+02 4.00625E+00 0.00000E+00
 -1       417 1.13535E+02 4.00625E+00 0.00000E+00
 -1       418 1.16535E+02 4.00625E+00 0.00000E+00
 -1       419 1.19535E+02 4.00625E+00 0.00000E+00
 -1       420 1.22535E+02 4.00625E+00 0.00000E+00
 -1       421 1.25535E+02 4.00625E+00 0.00000E+00
 -1       422 1.28535E+02 4.00625E+00 0.00000E+00
 -1       423 1.31535E+02 4.00625E+00 0.00000E+00
 -1       424 1.34535E+02 4.00625E+00 0.00000E+00
 -1       425 1.37535E+02 4.00625E+00 0.00000E+00
 -1       426 1.40535E+02 4.00625E+00 0.00000E+00
 -1       427 1.43535E+02 4.00625E+00 0.00000E+00
 -1       428 1.45469E+02 4.21562E+00 0.00000E+00
 -1       429 1.44804E+02 1.18000E+01 0.00000E+00
 -1       430 1.44804E+02 8.85000E+00 0.00000E+00
 -1       431 1.45136E+02 6.53281E+00 0.00000E+00
 -1       432 1.44804E+02 1.47000E+01 0.00000E+00
 -1       433 1.44804E+02 1.76500E+01 0.00000E+00
 -1       434 1.44804E+02 2.06000E+01 0.00000E+00
 -1       435 1.44804E+02 2.35500E+01 0.00000E+00
 -1       436 1.44804E+02 2.65000E+01 0.00000E+00
 -1       437 1.44804E+02 2.94500E+01 0.00000E+00
 -1       438 1.44804E+02 3.23500E+01 0.00000E+00
 -1       439 1.44804E+02 3.53000E+01 0.00000E+00
 -1       440 1.44804E+02 3.82500E+01 0.00000E+00
 -1       441 1.44804E+02 4.12000E+01 0.00000E+00
 -1       442 1.12092E+02 2.10908E+01 0.00000E+00
 -1       443 1.12782E+02 2.51452E+01 0.00000E+00
 -1       444 1.12480E+02 2.31777E+01 0.00000E+00
 -1       445 1.11135E+02 1.95357E+01 0.00000E+00
 -1       446 1.09620E+02 1.74326E+01 0.00000E+00
 -1       447 5.19600E+00 3.82125E+01 0.00000E+00
 -1       448 1.05395E+02 1.58714E+01 0.00000E+00
 -1       449 1.03519E+02 1.54421E+01 0.00000E+00
 -1       450 1.01117E+02 1.54870E+01 0.00000E+00
 -1       451 9.93964E+01 1.60679E+01 0.00000E+00
 -1       452 9.73775E+01 1.74640E+01 0.00000E+00
 -1       453 9.60980E+01 1.86679E+01 0.00000E+00
 -1       454 9.47667E+01 2.06025E+01 0.00000E+00
 -1       455 9.41659E+01 2.23164E+01 0.00000E+00
 -1       456 9.37204E+01 2.43113E+01 0.00000E+00
 -1       457 9.36230E+01 2.62929E+01 0.00000E+00
 -1       458 9.41086E+01 2.83632E+01 0.00000E+00
 -1       459 9.50851E+01 3.05186E+01 0.00000E+00
 -1       460 9.64289E+01 3.17659E+01 0.00000E+00
 -1       461 9.78449E+01 3.29646E+01 0.00000E+00
 -1       462 9.94141E+01 3.39266E+01 0.00000E+00
 -1       463 1.01169E+02 3.44897E+01 0.00000E+00
 -1       464 1.02993E+02 3.48728E+01 0.00000E+00
 -1       465 1.04640E+02 3.47450E+01 0.00000E+00
 -1       466 1.06853E+02 3.40454E+01 0.00000E+00
 -1       467 1.08310E+02 3.31807E+01 0.00000E+00
 -1       468 1.10072E+02 3.19349E+01 0.00000E+00
 -1       469 1.11051E+02 3.04023E+01 0.00000E+00
 -1       470 1.12297E+02 2.89498E+01 0.00000E+00
 -1       471 1.12690E+02 2.73942E+01 0.00000E+00
 -1       472 1.07967E+02 1.64038E+01 0.00000E+00
 -1       473 9.35672E+01 2.99989E+01 0.00000E+00
 -1       474 1.00350E+01 6.60425E+00 0.00000E+00
 -1       475 7.79400E+00 3.08500E+01 0.00000E+00
 -1       476 7.79400E+00 3.38000E+01 0.00000E+00
 -1       477 7.79400E+00 2.49500E+01 0.00000E+00
 -1       478 7.79400E+00 2.20000E+01 0.00000E+00
 -1       479 7.79400E+00 1.91000E+01 0.00000E+00
 -1       480 7.79400E+00 1.61500E+01 0.00000E+00
 -1       481 7.79400E+00 1.32000E+01 0.00000E+00
 -1       482 7.79400E+00 1.02500E+01 0.00000E+00
 -1       483 1.30350E+01 6.60425E+00 0.00000E+00
 -1       484 1.06500E+01 4.22060E+01 0.00000E+00
 -1       485 1.07029E+02 1.44581E+01 0.00000E+00
 -1       486 1.36500E+01 4.22060E+01 0.00000E+00
 -1       487 1.66500E+01 4.22060E+01 0.00000E+00
 -1       488 1.96500E+01 4.22060E+01 0.00000E+00
 -1       489 2.26500E+01 4.22060E+01 0.00000E+00
 -1       490 2.56500E+01 4.22060E+01 0.00000E+00
 -1       491 2.86500E+01 4.22060E+01 0.00000E+00
 -1       492 3.16500E+01 4.22060E+01 0.00000E+00
 -1       493 3.46500E+01 4.22060E+01 0.00000E+00
 -1       494 3.76500E+01 4.22060E+01 0.00000E+00
 -1       495 4.06500E+01 4.22060E+01 0.00000E+00
 -1       496 4.36500E+01 4.22060E+01 0.00000E+00
 -1       497 4.66500E+01 4.22060E+01 0.00000E+00
 -1       498 4.96500E+01 4.22060E+01 0.00000E+00
 -1       499 5.26500E+01 4.22060E+01 0.00000E+00
 -1       500 5.56500E+01 4.22060E+01 0.00000E+00
 -1       501 5.86500E+01 4.22060E+01 0.00000E+00
 -1       502 6.16500E+01 4.22060E+01 0.00000E+00
 -1       503 6.46500E+01 4.22060E+01 0.00000E+00
 -1       504 6.76500E+01 4.22060E+01 0.00000E+00
 -1       505 7.06500E+01 4.22060E+01 0.00000E+00
 -1       506 7.36500E+01 4.22060E+01 0.00000E+00
 -1       507 7.66500E+01 4.22060E+01 0.00000E+00
 -1       508 7.96500E+01 4.22060E+01 0.00000E+00
 -1       509 8.26500E+01 4.22060E+01 0.00000E+00
 -1       510 8.56500E+01 4.22060E+01 0.00000E+00
 -1       511 8.86500E+01 4.22060E+01 0.00000E+00
 -1       512 9.16500E+01 4.22060E+01 0.00000E+00
 -1       513 9.46500E+01 4.22060E+01 0.00000E+00
 -1       514 9.76500E+01 4.22060E+01 0.00000E+00
 -1       515 1.00650E+02 4.22060E+01 0.00000E+00
 -1       516 1.03650E+02 4.22060E+01 0.00000E+00
 -1       517 1.06650E+02 4.22060E+01 0.00000E+00
 -1       518 1.09650E+02 4.22060E+01 0.00000E+00
 -1       519 1.12650E+02 4.22060E+01 0.00000E+00
 -1       520 1.15650E+02 4.22060E+01 0.00000E+00
 -1       521 1.18650E+02 4.22060E+01 0.00000E+00
 -1       522 1.21650E+02 4.22060E+01 0.00000E+00
 -1       523 1.24650E+02 4.22060E+01 0.00000E+00
 -1       524 1.27650E+02 4.22060E+01 0.00000E+00
 -1       525 1.30650E+02 4.22060E+01 0.00000E+00
 -1       526 1.33650E+02 4.22060E+01 0.00000E+00
 -1       527 1.36650E+02 4.22060E+01 0.00000E+00
 -1       528 1.39650E+02 4.22060E+01 0.00000E+00
 -1       529 1.90350E+01 6.60425E+00 0.00000E+00
 -1       530 2.20350E+01 6.60425E+00 0.00000E+00
 -1       531 2.50350E+01 6.60425E+00 0.00000E+00
 -1       532 2.80350E+01 6.60425E+00 0.00000E+00
 -1       533 3.10350E+01 6.60425E+00 0.00000E+00
 -1       534 3.40350E+01 6.60425E+00 0.00000E+00
 -1       535 3.70350E+01 6.60425E+00 0.00000E+00
 -1       536 4.00350E+01 6.60425E+00 0.00000E+00
 -1       537 4.30350E+01 6.60425E+00 0.00000E+00
 -1       538 4.60350E+01 6.60425E+00 0.00000E+00
 -1       539 4.90350E+01 6.60425E+00 0.00000E+00
 -1       540 5.20350E+01 6.60425E+00 0.00000E+00
 -1       541 5.50350E+01 6.60425E+00 0.00000E+00
 -1       542 5.80350E+01 6.60425E+00 0.00000E+00
 -1       543 6.10350E+01 6.60425E+00 0.00000E+00
 -1       544 6.40350E+01 6.60425E+00 0.00000E+00
 -1       545 6.70350E+01 6.60425E+00 0.00000E+00
 -1       546 7.00350E+01 6.60425E+00 0.00000E+00
 -1       547 7.30350E+01 6.60425E+00 0.00000E+00
 -1       548 7.60350E+01 6.60425E+00 0.00000E+00
 -1       549 7.90350E+01 6.60425E+00 0.00000E+00
 -1       550 8.20350E+01 6.60425E+00 0.00000E+00
 -1       551 8.50350E+01 6.60425E+00 0.00000E+00
 -1       552 8.80350E+01 6.60425E+00 0.00000E+00
 -1       553 9.10350E+01 6.60425E+00 0.00000E+00
 -1       554 9.40350E+01 6.60425E+00 0.00000E+00
 -1       555 9.70350E+01 6.60425E+00 0.00000E+00
 -1       556 1.00035E+02 6.60425E+00 0.00000E+00
 -1       557 1.03035E+02 6.60425E+00 0.00000E+00
 -1       558 1.06035E+02 6.60425E+00 0.00000E+00
 -1       559 1.09035E+02 6.60425E+00 0.00000E+00
 -1       560 1.12035E+02 6.60425E+00 0.00000E+00
 -1       561 1.15035E+02 6.60425E+00 0.00000E+00
 -1       562 1.18035E+02 6.60425E+00 0.00000E+00
 -1       563 1.21035E+02 6.60425E+00 0.00000E+00
 -1       564 1.24035E+02 6.60425E+00 0.00000E+00
 -1       565 1.27035E+02 6.60425E+00 0.00000E+00
 -1       566 1.30035E+02 6.60425E+00 0.00000E+00
 -1       567 1.33035E+02 6.60425E+00 0.00000E+00
 -1       568 1.36035E+02 6.60425E+00 0.00000E+00
 -1       569 1.39035E+02 6.60425E+00 0.00000E+00
 -1       570 1.42035E+02 6.60425E+00 0.00000E+00
 -1       571 1.42206E+02 1.61750E+01 0.00000E+00
 -1       572 1.42206E+02 1.91250E+01 0.00000E+00
 -1       573 1.42206E+02 1.03250E+01 0.00000E+00
 -1       574 1.42206E+02 1.32500E+01 0.00000E+00
 -1       575 1.42206E+02 2.20750E+01 0.00000E+00
 -1       576 1.42206E+02 2.50250E+01 0.00000E+00
 -1       577 1.42206E+02 2.79750E+01 0.00000E+00
 -1       578 1.42206E+02 3.08750E+01 0.00000E+00
 -1       579 1.42206E+02 3.38250E+01 0.00000E+00
 -1       580 1.42206E+02 3.67750E+01 0.00000E+00
 -1       581 1.42206E+02 3.97250E+01 0.00000E+00
 -1       582 1.14078E+02 2.39396E+01 0.00000E+00
 -1       583 1.13807E+02 2.18511E+01 0.00000E+00
 -1       584 1.14198E+02 2.63296E+01 0.00000E+00
 -1       585 1.60350E+01 6.60425E+00 0.00000E+00
 -1       586 1.13003E+02 1.94584E+01 0.00000E+00
 -1       587 1.11633E+02 1.75796E+01 0.00000E+00
 -1       588 1.13103E+02 3.09017E+01 0.00000E+00
 -1       589 1.09877E+02 1.51777E+01 0.00000E+00
 -1       590 1.01763E+02 3.61958E+01 0.00000E+00
 -1       591 1.04802E+02 1.41482E+01 0.00000E+00
 -1       592 7.79400E+00 2.79000E+01 0.00000E+00
 -1       593 1.02289E+02 1.39173E+01 0.00000E+00
 -1       594 9.30850E+01 2.09753E+01 0.00000E+00
 -1       595 9.96543E+01 1.39937E+01 0.00000E+00
 -1       596 9.74591E+01 1.54242E+01 0.00000E+00
 -1       597 9.53328E+01 1.65728E+01 0.00000E+00
 -1       598 1.12124E+02 3.24343E+01 0.00000E+00
 -1       599 9.40015E+01 1.85074E+01 0.00000E+00
 -1       600 9.24328E+01 2.29765E+01 0.00000E+00
 -1       601 9.20423E+01 2.52220E+01 0.00000E+00
 -1       602 9.24407E+01 2.76624E+01 0.00000E+00
 -1       603 9.47042E+01 3.22766E+01 0.00000E+00
 -1       604 9.61202E+01 3.34752E+01 0.00000E+00
 -1       605 9.77331E+01 3.49078E+01 0.00000E+00
 -1       606 9.98186E+01 3.56817E+01 0.00000E+00
 -1       607 1.03930E+02 3.62683E+01 0.00000E+00
 -1       608 1.06213E+02 3.58708E+01 0.00000E+00
 -1       609 1.08457E+02 3.50879E+01 0.00000E+00
 -1       610 1.10219E+02 3.38421E+01 0.00000E+00
 -1       611 1.14318E+02 2.86333E+01 0.00000E+00
 -1       612 7.92300E+00 4.16780E+01 0.00000E+00
 -1       613 7.61550E+00 6.21462E+00 0.00000E+00
 -1       614 7.79400E+00 3.67375E+01 0.00000E+00
 -1       615 9.18993E+01 2.92980E+01 0.00000E+00
 -1       616 9.31864E+01 3.17568E+01 0.00000E+00
 -1       617 1.41678E+02 4.22645E+01 0.00000E+00
 -1       618 1.03920E+01 2.05500E+01 0.00000E+00
 -1       619 1.03920E+01 2.35000E+01 0.00000E+00
 -1       620 1.03920E+01 1.46750E+01 0.00000E+00
 -1       621 1.03920E+01 1.17250E+01 0.00000E+00
 -1       622 1.15350E+01 9.20225E+00 0.00000E+00
 -1       623 1.12410E+02 1.51686E+01 0.00000E+00
 -1       624 1.45350E+01 9.20225E+00 0.00000E+00
 -1       625 1.15031E+02 2.01081E+01 0.00000E+00
 -1       626 1.51500E+01 3.96080E+01 0.00000E+00
 -1       627 1.81500E+01 3.96080E+01 0.00000E+00
 -1       628 2.11500E+01 3.96080E+01 0.00000E+00
 -1       629 2.41500E+01 3.96080E+01 0.00000E+00
 -1       630 2.71500E+01 3.96080E+01 0.00000E+00
 -1       631 3.01500E+01 3.96080E+01 0.00000E+00
 -1       632 3.31500E+01 3.96080E+01 0.00000E+00
 -1       633 3.61500E+01 3.96080E+01 0.00000E+00
 -1       634 3.91500E+01 3.96080E+01 0.00000E+00
 -1       635 4.21500E+01 3.96080E+01 0.00000E+00
 -1       636 4.51500E+01 3.96080E+01 0.00000E+00
 -1       637 4.81500E+01 3.96080E+01 0.00000E+00
 -1       638 5.11500E+01 3.96080E+01 0.00000E+00
 -1       639 5.41500E+01 3.96080E+01 0.00000E+00
 -1       640 5.71500E+01 3.96080E+01 0.00000E+00
 -1       641 6.01500E+01 3.96080E+01 0.00000E+00
 -1       642 6.31500E+01 3.96080E+01 0.00000E+00
 -1       643 6.61500E+01 3.96080E+01 0.00000E+00
 -1       644 6.91500E+01 3.96080E+01 0.00000E+00
 -1       645 7.21500E+01 3.96080E+01 0.00000E+00
 -1       646 7.51500E+01 3.96080E+01 0.00000E+00
 -1       647 7.81500E+01 3.96080E+01 0.00000E+00
 -1       648 8.11500E+01 3.96080E+01 0.00000E+00
 -1       649 8.41500E+01 3.96080E+01 0.00000E+00
 -1       650 8.71500E+01 3.96080E+01 0.00000E+00
 -1       651 9.01500E+01 3.96080E+01 0.00000E+00
 -1       652 9.31500E+01 3.96080E+01 0.00000E+00
 -1       653 9.61500E+01 3.96080E+01 0.00000E+00
 -1       654 9.91500E+01 3.96080E+01 0.00000E+00
 -1       655 1.02150E+02 3.96080E+01 0.00000E+00
 -1       656 1.05150E+02 3.96080E+01 0.00000E+00
 -1       657 1.08150E+02 3.96080E+01 0.00000E+00
 -1       658 1.11150E+02 3.96080E+01 0.00000E+00
 -1       659 1.14150E+02 3.96080E+01 0.00000E+00
 -1       660 1.17150E+02 3.96080E+01 0.00000E+00
 -1       661 1.20150E+02 3.96080E+01 0.00000E+00
 -1       662 1.23150E+02 3.96080E+01 0.00000E+00
 -1       663 1.26150E+02 3.96080E+01 0.00000E+00
 -1       664 1.29150E+02 3.96080E+01 0.00000E+00
 -1       665 1.32150E+02 3.96080E+01 0.00000E+00
 -1       666 1.35150E+02 3.96080E+01 0.00000E+00
 -1       667 1.38150E+02 3.96080E+01 0.00000E+00
 -1       668 2.35350E+01 9.20225E+00 0.00000E+00
 -1       669 1.39206E+02 1.03250E+01 0.00000E+00
 -1       670 2.05350E+01 9.20225E+00 0.00000E+00
 -1       671 2.95350E+01 9.20225E+00 0.00000E+00
 -1       672 3.25350E+01 9.20225E+00 0.00000E+00
 -1       673 3.55350E+01 9.20225E+00 0.00000E+00
 -1       674 3.85350E+01 9.20225E+00 0.00000E+00
 -1       675 4.15350E+01 9.20225E+00 0.00000E+00
 -1       676 4.45350E+01 9.20225E+00 0.00000E+00
 -1       677 4.75350E+01 9.20225E+00 0.00000E+00
 -1       678 5.05350E+01 9.20225E+00 0.00000E+00
 -1       679 5.35350E+01 9.20225E+00 0.00000E+00
 -1       680 5.65350E+01 9.20225E+00 0.00000E+00
 -1       681 5.95350E+01 9.20225E+00 0.00000E+00
 -1       682 6.25350E+01 9.20225E+00 0.00000E+00
 -1       683 6.55350E+01 9.20225E+00 0.00000E+00
 -1       684 6.85350E+01 9.20225E+00 0.00000E+00
 -1       685 7.15350E+01 9.20225E+00 0.00000E+00
 -1       686 7.45350E+01 9.20225E+00 0.00000E+00
 -1       687 7.75350E+01 9.20225E+00 0.00000E+00
 -1       688 8.05350E+01 9.20225E+00 0.00000E+00
 -1       689 8.35350E+01 9.20225E+00 0.00000E+00
 -1       690 8.65350E+01 9.20225E+00 0.00000E+00
 -1       691 8.95350E+01 9.20225E+00 0.00000E+00
 -1       692 9.25350E+01 9.20225E+00 0.00000E+00
 -1       693 9.55350E+01 9.20225E+00 0.00000E+00
 -1       694 9.85350E+01 9.20225E+00 0.00000E+00
 -1       695 1.01535E+02 9.20225E+00 0.00000E+00
 -1       696 1.04535E+02 9.20225E+00 0.00000E+00
 -1       697 1.07535E+02 9.20225E+00 0.00000E+00
 -1       698 1.10535E+02 9.20225E+00 0.00000E+00
 -1       699 1.13535E+02 9.20225E+00 0.00000E+00
 -1       700 1.16535E+02 9.20225E+00 0.00000E+00
 -1       701 1.19535E+02 9.20225E+00 0.00000E+00
 -1       702 1.22535E+02 9.20225E+00 0.00000E+00
 -1       703 1.25535E+02 9.20225E+00 0.00000E+00
 -1       704 1.28535E+02 9.20225E+00 0.00000E+00
 -1       705 1.31535E+02 9.20225E+00 0.00000E+00
 -1       706 1.34535E+02 9.20225E+00 0.00000E+00
 -1       707 1.36870E+02 9.76363E+00 0.00000E+00
 -1       708 1.39608E+02 2.35500E+01 0.00000E+00
 -1       709 1.40178E+02 3.96665E+01 0.00000E+00
 -1       710 1.39608E+02 1.76500E+01 0.00000E+00
 -1       711 1.39608E+02 2.65000E+01 0.00000E+00
 -1       712 1.39608E+02 2.06000E+01 0.00000E+00
 -1       713 1.39608E+02 2.94000E+01 0.00000E+00
 -1       714 1.39608E+02 3.23500E+01 0.00000E+00
 -1       715 1.39608E+02 3.53000E+01 0.00000E+00
 -1       716 1.15971E+02 2.73921E+01 0.00000E+00
 -1       717 1.14059E+02 3.25910E+01 0.00000E+00
 -1       718 9.31162E+01 1.64728E+01 0.00000E+00
 -1       719 9.12079E+01 2.14705E+01 0.00000E+00
 -1       720 1.08996E+02 1.26676E+01 0.00000E+00
 -1       721 9.58433E+01 3.54112E+01 0.00000E+00
 -1       722 9.53419E+01 1.40472E+01 0.00000E+00
 -1       723 1.75350E+01 9.20225E+00 0.00000E+00
 -1       724 1.15560E+02 2.26859E+01 0.00000E+00
 -1       725 2.65350E+01 9.20225E+00 0.00000E+00
 -1       726 1.21500E+01 3.96080E+01 0.00000E+00
 -1       727 1.02789E+02 3.79462E+01 0.00000E+00
 -1       728 1.13704E+02 1.75086E+01 0.00000E+00
 -1       729 1.05351E+02 3.76767E+01 0.00000E+00
 -1       730 1.12191E+02 3.45175E+01 0.00000E+00
 -1       731 1.03920E+01 1.76125E+01 0.00000E+00
 -1       732 1.03920E+01 3.23250E+01 0.00000E+00
 -1       733 1.06175E+02 1.24384E+01 0.00000E+00
 -1       734 9.75370E+01 1.26167E+01 0.00000E+00
 -1       735 1.15275E+02 3.03226E+01 0.00000E+00
 -1       736 9.03827E+01 2.37767E+01 0.00000E+00
 -1       737 1.00912E+02 1.19061E+01 0.00000E+00
 -1       738 9.81209E+01 3.70598E+01 0.00000E+00
 -1       739 1.16018E+02 2.50398E+01 0.00000E+00
 -1       740 9.17783E+01 1.90859E+01 0.00000E+00
 -1       741 9.03834E+01 2.67455E+01 0.00000E+00
 -1       742 9.44273E+01 3.42125E+01 0.00000E+00
 -1       743 1.08010E+02 3.74152E+01 0.00000E+00
 -1       744 1.00374E+02 3.75158E+01 0.00000E+00
 -1       745 1.10429E+02 3.57633E+01 0.00000E+00
 -1       746 1.03662E+02 1.22075E+01 0.00000E+00
 -1       747 1.03920E+01 3.52625E+01 0.00000E+00
 -1       748 1.03920E+01 2.64500E+01 0.00000E+00
 -1       749 9.15185E+01 3.10559E+01 0.00000E+00
 -1       750 1.39608E+02 1.47250E+01 0.00000E+00
 -1       751 8.98420E+01 2.83811E+01 0.00000E+00
 -1       752 1.16927E+02 2.90814E+01 0.00000E+00
 -1       753 1.05210E+01 3.87342E+01 0.00000E+00
 -1       754 1.11529E+02 1.26586E+01 0.00000E+00
 -1       755 9.29095E+01 3.36927E+01 0.00000E+00
 -1       756 1.03920E+01 2.93875E+01 0.00000E+00
 -1       757 1.38879E+02 3.74540E+01 0.00000E+00
 -1       758 1.14851E+02 1.53467E+01 0.00000E+00
 -1       759 1.29900E+01 1.32000E+01 0.00000E+00
 -1       760 8.81652E+01 2.52616E+01 0.00000E+00
 -1       761 1.36500E+01 3.70100E+01 0.00000E+00
 -1       762 1.96500E+01 3.70100E+01 0.00000E+00
 -1       763 2.26500E+01 3.70100E+01 0.00000E+00
 -1       764 2.56500E+01 3.70100E+01 0.00000E+00
 -1       765 2.86500E+01 3.70100E+01 0.00000E+00
 -1       766 3.16500E+01 3.70100E+01 0.00000E+00
 -1       767 3.46500E+01 3.70100E+01 0.00000E+00
 -1       768 3.76500E+01 3.70100E+01 0.00000E+00
 -1       769 4.06500E+01 3.70100E+01 0.00000E+00
 -1       770 4.36500E+01 3.70100E+01 0.00000E+00
 -1       771 4.66500E+01 3.70100E+01 0.00000E+00
 -1       772 4.96500E+01 3.70100E+01 0.00000E+00
 -1       773 5.26500E+01 3.70100E+01 0.00000E+00
 -1       774 5.56500E+01 3.70100E+01 0.00000E+00
 -1       775 5.86500E+01 3.70100E+01 0.00000E+00
 -1       776 6.16500E+01 3.70100E+01 0.00000E+00
 -1       777 6.46500E+01 3.70100E+01 0.00000E+00
 -1       778 6.76500E+01 3.70100E+01 0.00000E+00
 -1       779 7.06500E+01 3.70100E+01 0.00000E+00
 -1       780 7.36500E+01 3.70100E+01 0.00000E+00
 -1       781 7.66500E+01 3.70100E+01 0.00000E+00
 -1       782 7.96500E+01 3.70100E+01 0.00000E+00
 -1       783 8.26500E+01 3.70100E+01 0.00000E+00
 -1       784 8.56500E+01 3.70100E+01 0.00000E+00
 -1       785 8.86500E+01 3.70100E+01 0.00000E+00
 -1       786 9.16500E+01 3.70100E+01 0.00000E+00
 -1       787 1.12650E+02 3.72226E+01 0.00000E+00
 -1       788 1.15650E+02 3.72226E+01 0.00000E+00
 -1       789 1.18650E+02 3.72226E+01 0.00000E+00
 -1       790 1.21650E+02 3.72226E+01 0.00000E+00
 -1       791 1.24650E+02 3.72226E+01 0.00000E+00
 -1       792 1.27650E+02 3.72226E+01 0.00000E+00
 -1       793 1.30650E+02 3.72226E+01 0.00000E+00
 -1       794 1.33650E+02 3.72226E+01 0.00000E+00
 -1       795 1.36264E+02 3.73383E+01 0.00000E+00
 -1       796 9.03240E+01 1.66922E+01 0.00000E+00
 -1       797 1.37010E+02 2.79500E+01 0.00000E+00
 -1       798 2.20350E+01 1.18003E+01 0.00000E+00
 -1       799 3.40350E+01 1.18003E+01 0.00000E+00
 -1       800 3.10350E+01 1.18003E+01 0.00000E+00
 -1       801 4.00350E+01 1.18003E+01 0.00000E+00
 -1       802 4.30350E+01 1.18003E+01 0.00000E+00
 -1       803 4.60350E+01 1.18003E+01 0.00000E+00
 -1       804 4.90350E+01 1.18003E+01 0.00000E+00
 -1       805 5.20350E+01 1.18003E+01 0.00000E+00
 -1       806 5.50350E+01 1.18003E+01 0.00000E+00
 -1       807 5.80350E+01 1.18003E+01 0.00000E+00
 -1       808 6.10350E+01 1.18003E+01 0.00000E+00
 -1       809 6.40350E+01 1.18003E+01 0.00000E+00
 -1       810 6.70350E+01 1.18003E+01 0.00000E+00
 -1       811 7.00350E+01 1.18003E+01 0.00000E+00
 -1       812 7.30350E+01 1.18003E+01 0.00000E+00
 -1       813 7.60350E+01 1.18003E+01 0.00000E+00
 -1       814 7.90350E+01 1.18003E+01 0.00000E+00
 -1       815 8.20350E+01 1.18003E+01 0.00000E+00
 -1       816 8.50350E+01 1.18003E+01 0.00000E+00
 -1       817 8.80350E+01 1.18003E+01 0.00000E+00
 -1       818 9.10350E+01 1.18003E+01 0.00000E+00
 -1       819 1.18035E+02 1.18003E+01 0.00000E+00
 -1       820 1.21035E+02 1.18003E+01 0.00000E+00
 -1       821 1.24035E+02 1.18003E+01 0.00000E+00
 -1       822 1.27035E+02 1.18003E+01 0.00000E+00
 -1       823 1.30035E+02 1.18003E+01 0.00000E+00
 -1       824 1.33035E+02 1.18003E+01 0.00000E+00
 -1       825 1.16178E+02 1.79462E+01 0.00000E+00
 -1       826 1.29900E+01 2.20250E+01 0.00000E+00
 -1       827 1.37010E+02 3.38250E+01 0.00000E+00
 -1       828 1.37010E+02 2.50000E+01 0.00000E+00
 -1       829 9.37024E+01 3.65046E+01 0.00000E+00
 -1       830 1.37625E+01 1.12011E+01 0.00000E+00
 -1       831 9.24715E+01 1.36472E+01 0.00000E+00
 -1       832 1.14477E+02 3.48649E+01 0.00000E+00
 -1       833 1.16326E+02 3.23461E+01 0.00000E+00
 -1       834 1.37010E+02 3.08875E+01 0.00000E+00
 -1       835 1.17473E+02 2.35353E+01 0.00000E+00
 -1       836 8.94991E+01 1.98012E+01 0.00000E+00
 -1       837 3.70350E+01 1.18003E+01 0.00000E+00
 -1       838 8.86740E+01 2.21073E+01 0.00000E+00
 -1       839 1.20210E+01 3.61362E+01 0.00000E+00
 -1       840 1.17710E+02 2.62504E+01 0.00000E+00
 -1       841 1.66500E+01 3.70100E+01 0.00000E+00
 -1       842 1.17468E+02 2.09506E+01 0.00000E+00
 -1       843 9.39385E+01 1.16247E+01 0.00000E+00
 -1       844 1.29900E+01 2.49750E+01 0.00000E+00
 -1       845 1.29900E+01 1.61375E+01 0.00000E+00
 -1       846 9.12416E+01 3.29919E+01 0.00000E+00
 -1       847 1.37010E+02 1.61875E+01 0.00000E+00
 -1       848 1.37010E+02 1.91375E+01 0.00000E+00
 -1       849 9.22797E+01 3.53514E+01 0.00000E+00
 -1       850 1.90350E+01 1.18003E+01 0.00000E+00
 -1       851 2.80350E+01 1.18003E+01 0.00000E+00
 -1       852 1.15035E+02 1.18003E+01 0.00000E+00
 -1       853 1.35370E+02 1.23616E+01 0.00000E+00
 -1       854 1.29900E+01 1.90875E+01 0.00000E+00
 -1       855 1.37010E+02 2.20688E+01 0.00000E+00
 -1       856 8.94612E+01 3.01391E+01 0.00000E+00
 -1       857 1.18666E+02 2.79397E+01 0.00000E+00
 -1       858 1.17979E+02 3.11049E+01 0.00000E+00
 -1       859 8.76238E+01 2.68972E+01 0.00000E+00
 -1       860 1.36940E+02 1.29756E+01 0.00000E+00
 -1       861 2.50350E+01 1.18003E+01 0.00000E+00
 -1       862 1.63988E+01 1.15007E+01 0.00000E+00
 -1       863 1.29900E+01 3.08563E+01 0.00000E+00
 -1       864 1.36637E+02 3.55817E+01 0.00000E+00
 -1       865 1.25055E+01 3.34963E+01 0.00000E+00
 -1       866 1.17107E+02 1.48732E+01 0.00000E+00
 -1       867 1.19634E+02 2.47149E+01 0.00000E+00
 -1       868 2.41500E+01 3.44120E+01 0.00000E+00
 -1       869 2.71500E+01 3.44120E+01 0.00000E+00
 -1       870 3.01500E+01 3.44120E+01 0.00000E+00
 -1       871 3.31500E+01 3.44120E+01 0.00000E+00
 -1       872 3.61500E+01 3.44120E+01 0.00000E+00
 -1       873 3.91500E+01 3.44120E+01 0.00000E+00
 -1       874 4.21500E+01 3.44120E+01 0.00000E+00
 -1       875 4.51500E+01 3.44120E+01 0.00000E+00
 -1       876 4.81500E+01 3.44120E+01 0.00000E+00
 -1       877 5.11500E+01 3.44120E+01 0.00000E+00
 -1       878 5.41500E+01 3.44120E+01 0.00000E+00
 -1       879 5.71500E+01 3.44120E+01 0.00000E+00
 -1       880 6.01500E+01 3.44120E+01 0.00000E+00
 -1       881 6.31500E+01 3.44120E+01 0.00000E+00
 -1       882 6.61500E+01 3.44120E+01 0.00000E+00
 -1       883 6.91500E+01 3.44120E+01 0.00000E+00
 -1       884 7.21500E+01 3.44120E+01 0.00000E+00
 -1       885 7.51500E+01 3.44120E+01 0.00000E+00
 -1       886 7.81500E+01 3.44120E+01 0.00000E+00
 -1       887 8.11500E+01 3.44120E+01 0.00000E+00
 -1       888 8.41500E+01 3.44120E+01 0.00000E+00
 -1       889 8.71500E+01 3.44120E+01 0.00000E+00
 -1       890 8.97149E+01 3.48817E+01 0.00000E+00
 -1       891 1.20150E+02 3.46246E+01 0.00000E+00
 -1       892 1.23150E+02 3.46246E+01 0.00000E+00
 -1       893 1.26150E+02 3.46246E+01 0.00000E+00
 -1       894 1.29150E+02 3.46246E+01 0.00000E+00
 -1       895 1.32150E+02 3.46246E+01 0.00000E+00
 -1       896 8.73139E+01 2.03200E+01 0.00000E+00
 -1       897 4.45350E+01 1.43982E+01 0.00000E+00
 -1       898 4.15350E+01 1.43982E+01 0.00000E+00
 -1       899 5.05350E+01 1.43982E+01 0.00000E+00
 -1       900 5.35350E+01 1.43982E+01 0.00000E+00
 -1       901 5.65350E+01 1.43982E+01 0.00000E+00
 -1       902 5.95350E+01 1.43982E+01 0.00000E+00
 -1       903 6.25350E+01 1.43982E+01 0.00000E+00
 -1       904 6.55350E+01 1.43982E+01 0.00000E+00
 -1       905 6.85350E+01 1.43982E+01 0.00000E+00
 -1       906 7.15350E+01 1.43982E+01 0.00000E+00
 -1       907 7.45350E+01 1.43982E+01 0.00000E+00
 -1       908 7.75350E+01 1.43982E+01 0.00000E+00
 -1       909 8.05350E+01 1.43982E+01 0.00000E+00
 -1       910 8.35350E+01 1.43982E+01 0.00000E+00
 -1       911 8.65350E+01 1.43982E+01 0.00000E+00
 -1       912 1.20107E+02 1.48732E+01 0.00000E+00
 -1       913 1.28535E+02 1.43982E+01 0.00000E+00
 -1       914 1.31535E+02 1.43982E+01 0.00000E+00
 -1       915 1.34412E+02 2.64750E+01 0.00000E+00
 -1       916 1.25535E+02 1.43982E+01 0.00000E+00
 -1       917 1.22821E+02 1.46357E+01 0.00000E+00
 -1       918 4.75350E+01 1.43982E+01 0.00000E+00
 -1       919 8.60647E+01 2.33046E+01 0.00000E+00
 -1       920 3.25350E+01 1.43982E+01 0.00000E+00
 -1       921 1.18707E+02 1.86396E+01 0.00000E+00
 -1       922 8.81388E+01 1.72111E+01 0.00000E+00
 -1       923 1.29900E+01 2.79188E+01 0.00000E+00
 -1       924 1.41345E+01 3.43700E+01 0.00000E+00
 -1       925 1.17488E+02 3.47844E+01 0.00000E+00
 -1       926 1.81500E+01 3.44120E+01 0.00000E+00
 -1       927 1.56263E+01 1.34996E+01 0.00000E+00
 -1       928 1.19629E+02 2.21302E+01 0.00000E+00
 -1       929 2.11500E+01 3.44120E+01 0.00000E+00
 -1       930 8.91795E+01 1.42462E+01 0.00000E+00
 -1       931 2.35350E+01 1.43982E+01 0.00000E+00
 -1       932 8.91843E+01 3.20750E+01 0.00000E+00
 -1       933 1.55880E+01 2.93875E+01 0.00000E+00
 -1       934 1.34394E+02 3.51031E+01 0.00000E+00
 -1       935 2.95350E+01 1.43982E+01 0.00000E+00
 -1       936 3.85350E+01 1.43982E+01 0.00000E+00
 -1       937 2.05350E+01 1.43982E+01 0.00000E+00
 -1       938 1.20590E+02 2.64042E+01 0.00000E+00
 -1       939 1.33870E+02 1.49596E+01 0.00000E+00
 -1       940 1.34412E+02 2.35438E+01 0.00000E+00
 -1       941 1.34412E+02 2.94125E+01 0.00000E+00
 -1       942 1.55880E+01 2.05562E+01 0.00000E+00
 -1       943 1.48612E+01 3.18787E+01 0.00000E+00
 -1       944 8.72430E+01 2.86552E+01 0.00000E+00
 -1       945 1.19717E+02 2.99632E+01 0.00000E+00
 -1       946 8.55232E+01 2.49403E+01 0.00000E+00
 -1       947 3.55350E+01 1.43982E+01 0.00000E+00
 -1       948 1.20868E+02 1.98192E+01 0.00000E+00
 -1       949 1.19065E+02 3.28648E+01 0.00000E+00
 -1       950 1.34412E+02 1.76625E+01 0.00000E+00
 -1       951 1.55880E+01 2.35063E+01 0.00000E+00
 -1       952 1.34580E+02 3.27561E+01 0.00000E+00
 -1       953 1.32077E+02 1.71011E+01 0.00000E+00
 -1       954 2.86500E+01 3.18140E+01 0.00000E+00
 -1       955 3.16500E+01 3.18140E+01 0.00000E+00
 -1       956 3.46500E+01 3.18140E+01 0.00000E+00
 -1       957 3.76500E+01 3.18140E+01 0.00000E+00
 -1       958 4.06500E+01 3.18140E+01 0.00000E+00
 -1       959 4.36500E+01 3.18140E+01 0.00000E+00
 -1       960 4.66500E+01 3.18140E+01 0.00000E+00
 -1       961 4.96500E+01 3.18140E+01 0.00000E+00
 -1       962 5.26500E+01 3.18140E+01 0.00000E+00
 -1       963 5.56500E+01 3.18140E+01 0.00000E+00
 -1       964 5.86500E+01 3.18140E+01 0.00000E+00
 -1       965 6.16500E+01 3.18140E+01 0.00000E+00
 -1       966 6.46500E+01 3.18140E+01 0.00000E+00
 -1       967 6.76500E+01 3.18140E+01 0.00000E+00
 -1       968 7.06500E+01 3.18140E+01 0.00000E+00
 -1       969 7.36500E+01 3.18140E+01 0.00000E+00
 -1       970 7.66500E+01 3.18140E+01 0.00000E+00
 -1       971 7.96500E+01 3.18140E+01 0.00000E+00
 -1       972 8.26500E+01 3.18140E+01 0.00000E+00
 -1       973 8.56500E+01 3.18140E+01 0.00000E+00
 -1       974 1.22065E+02 3.28648E+01 0.00000E+00
 -1       975 8.47980E+01 2.10207E+01 0.00000E+00
 -1       976 1.25065E+02 3.28648E+01 0.00000E+00
 -1       977 1.28065E+02 3.28648E+01 0.00000E+00
 -1       978 1.31065E+02 3.28648E+01 0.00000E+00
 -1       979 5.50350E+01 1.69963E+01 0.00000E+00
 -1       980 5.20350E+01 1.69963E+01 0.00000E+00
 -1       981 6.10350E+01 1.69963E+01 0.00000E+00
 -1       982 6.40350E+01 1.69963E+01 0.00000E+00
 -1       983 6.70350E+01 1.69963E+01 0.00000E+00
 -1       984 7.00350E+01 1.69963E+01 0.00000E+00
 -1       985 7.30350E+01 1.69963E+01 0.00000E+00
 -1       986 7.60350E+01 1.69963E+01 0.00000E+00
 -1       987 7.90350E+01 1.69963E+01 0.00000E+00
 -1       988 8.20350E+01 1.69963E+01 0.00000E+00
 -1       989 8.50350E+01 1.69963E+01 0.00000E+00
 -1       990 1.61458E+01 1.66550E+01 0.00000E+00
 -1       991 4.30350E+01 1.69963E+01 0.00000E+00
 -1       992 1.29077E+02 1.71011E+01 0.00000E+00
 -1       993 2.65350E+01 1.43982E+01 0.00000E+00
 -1       994 2.26500E+01 3.18140E+01 0.00000E+00
 -1       995 1.55880E+01 2.64469E+01 0.00000E+00
 -1       996 1.96500E+01 3.18140E+01 0.00000E+00
 -1       997 1.26076E+02 1.71011E+01 0.00000E+00
 -1       998 1.22017E+02 2.34180E+01 0.00000E+00
 -1       999 1.80806E+01 1.39489E+01 0.00000E+00
 -1      1000 5.80350E+01 1.69963E+01 0.00000E+00
 -1      1001 1.34412E+02 2.06031E+01 0.00000E+00
 -1      1002 2.56500E+01 3.18140E+01 0.00000E+00
 -1      1003 1.21844E+02 1.72274E+01 0.00000E+00
 -1      1004 8.34918E+01 2.32383E+01 0.00000E+00
 -1      1005 8.51424E+01 2.66982E+01 0.00000E+00
 -1      1006 2.50350E+01 1.69963E+01 0.00000E+00
 -1      1007 3.10350E+01 1.69963E+01 0.00000E+00
 -1      1008 4.00350E+01 1.69963E+01 0.00000E+00
 -1      1009 2.20350E+01 1.69963E+01 0.00000E+00
 -1      1010 4.90350E+01 1.69963E+01 0.00000E+00
 -1      1011 4.60350E+01 1.69963E+01 0.00000E+00
 -1      1012 1.31814E+02 2.50094E+01 0.00000E+00
 -1      1013 1.96500E+01 2.88734E+01 0.00000E+00
 -1      1014 1.31814E+02 2.79469E+01 0.00000E+00
 -1      1015 1.21642E+02 2.84277E+01 0.00000E+00
 -1      1016 1.23960E+02 1.71643E+01 0.00000E+00
 -1      1017 1.23256E+02 2.11070E+01 0.00000E+00
 -1      1018 1.32077E+02 2.00417E+01 0.00000E+00
 -1      1019 1.84387E+01 1.89733E+01 0.00000E+00
 -1      1020 1.84387E+01 2.19233E+01 0.00000E+00
 -1      1021 3.40350E+01 1.69963E+01 0.00000E+00
 -1      1022 8.64465E+01 3.02346E+01 0.00000E+00
 -1      1023 3.31500E+01 2.92160E+01 0.00000E+00
 -1      1024 3.61500E+01 2.92160E+01 0.00000E+00
 -1      1025 3.91500E+01 2.92160E+01 0.00000E+00
 -1      1026 4.21500E+01 2.92160E+01 0.00000E+00
 -1      1027 4.51500E+01 2.92160E+01 0.00000E+00
 -1      1028 4.81500E+01 2.92160E+01 0.00000E+00
 -1      1029 5.11500E+01 2.92160E+01 0.00000E+00
 -1      1030 5.41500E+01 2.92160E+01 0.00000E+00
 -1      1031 5.71500E+01 2.92160E+01 0.00000E+00
 -1      1032 6.01500E+01 2.92160E+01 0.00000E+00
 -1      1033 6.31500E+01 2.92160E+01 0.00000E+00
 -1      1034 6.61500E+01 2.92160E+01 0.00000E+00
 -1      1035 6.91500E+01 2.92160E+01 0.00000E+00
 -1      1036 7.21500E+01 2.92160E+01 0.00000E+00
 -1      1037 7.51500E+01 2.92160E+01 0.00000E+00
 -1      1038 7.81500E+01 2.92160E+01 0.00000E+00
 -1      1039 8.11500E+01 2.92160E+01 0.00000E+00
 -1      1040 8.37982E+01 2.97253E+01 0.00000E+00
 -1      1041 2.71500E+01 2.92160E+01 0.00000E+00
 -1      1042 1.26565E+02 3.02668E+01 0.00000E+00
 -1      1043 1.29565E+02 3.02668E+01 0.00000E+00
 -1      1044 2.80350E+01 1.69963E+01 0.00000E+00
 -1      1045 6.55350E+01 1.95942E+01 0.00000E+00
 -1      1046 6.25350E+01 1.95942E+01 0.00000E+00
 -1      1047 7.15350E+01 1.95942E+01 0.00000E+00
 -1      1048 7.45350E+01 1.95942E+01 0.00000E+00
 -1      1049 7.75350E+01 1.95942E+01 0.00000E+00
 -1      1050 8.05350E+01 1.95942E+01 0.00000E+00
 -1      1051 1.94869E+01 1.66858E+01 0.00000E+00
 -1      1052 1.84387E+01 2.48640E+01 0.00000E+00
 -1      1053 6.85350E+01 1.95942E+01 0.00000E+00
 -1      1054 1.23353E+02 3.06462E+01 0.00000E+00
 -1      1055 1.27576E+02 1.96991E+01 0.00000E+00
 -1      1056 5.35350E+01 1.95942E+01 0.00000E+00
 -1      1057 1.23456E+02 2.59394E+01 0.00000E+00
 -1      1058 5.95350E+01 1.95942E+01 0.00000E+00
 -1      1059 1.31945E+02 2.25256E+01 0.00000E+00
 -1      1060 8.31110E+01 2.49962E+01 0.00000E+00
 -1      1061 3.70350E+01 1.69963E+01 0.00000E+00
 -1      1062 2.41500E+01 2.92160E+01 0.00000E+00
 -1      1063 3.01500E+01 2.92160E+01 0.00000E+00
 -1      1064 5.65350E+01 1.95942E+01 0.00000E+00
 -1      1065 1.23608E+02 1.91356E+01 0.00000E+00
 -1      1066 1.24695E+02 2.36284E+01 0.00000E+00
 -1      1067 2.65350E+01 1.95942E+01 0.00000E+00
 -1      1068 4.15350E+01 1.95942E+01 0.00000E+00
 -1      1069 8.44703E+01 2.82117E+01 0.00000E+00
 -1      1070 2.35350E+01 1.95942E+01 0.00000E+00
 -1      1071 5.05350E+01 1.95942E+01 0.00000E+00
 -1      1072 7.99960E+01 2.30532E+01 0.00000E+00
 -1      1073 4.45350E+01 1.95942E+01 0.00000E+00
 -1      1074 2.95350E+01 1.95942E+01 0.00000E+00
 -1      1075 1.25592E+02 1.94174E+01 0.00000E+00
 -1      1076 1.29285E+02 2.36304E+01 0.00000E+00
 -1      1077 3.25350E+01 1.95942E+01 0.00000E+00
 -1      1078 2.10367E+01 2.04483E+01 0.00000E+00
 -1      1079 1.29285E+02 2.65679E+01 0.00000E+00
 -1      1080 3.46500E+01 2.66180E+01 0.00000E+00
 -1      1081 2.80350E+01 2.21922E+01 0.00000E+00
 -1      1082 7.00350E+01 2.21922E+01 0.00000E+00
 -1      1083 3.76500E+01 2.66180E+01 0.00000E+00
 -1      1084 4.06500E+01 2.66180E+01 0.00000E+00
 -1      1085 4.36500E+01 2.66180E+01 0.00000E+00
 -1      1086 4.66500E+01 2.66180E+01 0.00000E+00
 -1      1087 4.96500E+01 2.66180E+01 0.00000E+00
 -1      1088 5.26500E+01 2.66180E+01 0.00000E+00
 -1      1089 5.56500E+01 2.66180E+01 0.00000E+00
 -1      1090 5.86500E+01 2.66180E+01 0.00000E+00
 -1      1091 6.16500E+01 2.66180E+01 0.00000E+00
 -1      1092 6.46500E+01 2.66180E+01 0.00000E+00
 -1      1093 6.76500E+01 2.66180E+01 0.00000E+00
 -1      1094 7.06500E+01 2.66180E+01 0.00000E+00
 -1      1095 7.36500E+01 2.66180E+01 0.00000E+00
 -1      1096 7.66500E+01 2.66180E+01 0.00000E+00
 -1      1097 7.96500E+01 2.66180E+01 0.00000E+00
 -1      1098 1.28065E+02 2.76688E+01 0.00000E+00
 -1      1099 3.16500E+01 2.66180E+01 0.00000E+00
 -1      1100 2.29387E+01 2.52066E+01 0.00000E+00
 -1      1101 3.85350E+01 1.95942E+01 0.00000E+00
 -1      1102 6.40350E+01 2.21922E+01 0.00000E+00
 -1      1103 7.60350E+01 2.21922E+01 0.00000E+00
 -1      1104 7.30350E+01 2.21922E+01 0.00000E+00
 -1      1105 6.10350E+01 2.21922E+01 0.00000E+00
 -1      1106 4.75350E+01 1.95942E+01 0.00000E+00
 -1      1107 5.80350E+01 2.21922E+01 0.00000E+00
 -1      1108 1.24853E+02 2.80482E+01 0.00000E+00
 -1      1109 2.86500E+01 2.66180E+01 0.00000E+00
 -1      1110 2.19877E+01 2.28275E+01 0.00000E+00
 -1      1111 5.50350E+01 2.21922E+01 0.00000E+00
 -1      1112 6.70350E+01 2.21922E+01 0.00000E+00
 -1      1113 2.50350E+01 2.21922E+01 0.00000E+00
 -1      1114 8.26499E+01 2.66180E+01 0.00000E+00
 -1      1115 4.00350E+01 2.21922E+01 0.00000E+00
 -1      1116 2.56500E+01 2.66180E+01 0.00000E+00
 -1      1117 5.20350E+01 2.21922E+01 0.00000E+00
 -1      1118 1.28431E+02 2.16648E+01 0.00000E+00
 -1      1119 1.25240E+02 2.13887E+01 0.00000E+00
 -1      1120 1.26835E+02 2.15267E+01 0.00000E+00
 -1      1121 1.26380E+02 2.56486E+01 0.00000E+00
 -1      1122 3.55350E+01 1.95942E+01 0.00000E+00
 -1      1123 3.10350E+01 2.21922E+01 0.00000E+00
 -1      1124 4.30350E+01 2.21922E+01 0.00000E+00
 -1      1125 1.27690E+02 2.34924E+01 0.00000E+00
 -1      1126 3.91500E+01 2.40200E+01 0.00000E+00
 -1      1127 4.81500E+01 2.40200E+01 0.00000E+00
 -1      1128 3.31500E+01 2.40200E+01 0.00000E+00
 -1      1129 3.70350E+01 2.21922E+01 0.00000E+00
 -1      1130 3.61500E+01 2.40200E+01 0.00000E+00
 -1      1131 1.26608E+02 2.35877E+01 0.00000E+00
 -1      1132 4.55925E+01 2.31061E+01 0.00000E+00
 -1      1133 3.43425E+01 2.18071E+01 0.00000E+00
 -1      1134 0.00000E+00 4.85250E+01 0.00000E+00
 -1      1135 0.00000E+00 4.55750E+01 0.00000E+00
 -1      1136 0.00000E+00 4.26250E+01 0.00000E+00
 -1      1137 0.00000E+00 3.96750E+01 0.00000E+00
 -1      1138 0.00000E+00 3.67250E+01 0.00000E+00
 -1      1139 0.00000E+00 3.38000E+01 0.00000E+00
 -1      1140 0.00000E+00 3.08750E+01 0.00000E+00
 -1      1141 0.00000E+00 2.79250E+01 0.00000E+00
 -1      1142 0.00000E+00 2.49750E+01 0.00000E+00
 -1      1143 0.00000E+00 2.20250E+01 0.00000E+00
 -1      1144 0.00000E+00 1.90750E+01 0.00000E+00
 -1      1145 0.00000E+00 1.61500E+01 0.00000E+00
 -1      1146 0.00000E+00 1.32250E+01 0.00000E+00
 -1      1147 0.00000E+00 1.02750E+01 0.00000E+00
 -1      1148 0.00000E+00 7.32500E+00 0.00000E+00
 -1      1149 0.00000E+00 4.37500E+00 0.00000E+00
 -1      1150 0.00000E+00 1.45000E+00 0.00000E+00
 -1      1151 1.57500E+00 5.00000E+01 0.00000E+00
 -1      1152 4.65000E+00 5.00000E+01 0.00000E+00
 -1      1153 7.65000E+00 5.00000E+01 0.00000E+00
 -1      1154 1.06500E+01 5.00000E+01 0.00000E+00
 -1      1155 1.36500E+01 5.00000E+01 0.00000E+00
 -1      1156 1.66500E+01 5.00000E+01 0.00000E+00
 -1      1157 1.96500E+01 5.00000E+01 0.00000E+00
 -1      1158 2.26500E+01 5.00000E+01 0.00000E+00
 -1      1159 2.56500E+01 5.00000E+01 0.00000E+00
 -1      1160 2.86500E+01 5.00000E+01 0.00000E+00
 -1      1161 3.16500E+01 5.00000E+01 0.00000E+00
 -1      1162 3.46500E+01 5.00000E+01 0.00000E+00
 -1      1163 3.76500E+01 5.00000E+01 0.00000E+00
 -1      1164 4.06500E+01 5.00000E+01 0.00000E+00
 -1      1165 4.36500E+01 5.00000E+01 0.00000E+00
 -1      1166 4.66500E+01 5.00000E+01 0.00000E+00
 -1      1167 4.96500E+01 5.00000E+01 0.00000E+00
 -1      1168 5.26500E+01 5.00000E+01 0.00000E+00
 -1      1169 5.56500E+01 5.00000E+01 0.00000E+00
 -1      1170 5.86500E+01 5.00000E+01 0.00000E+00
 -1      1171 6.16500E+01 5.00000E+01 0.00000E+00
 -1      1172 6.46500E+01 5.00000E+01 0.00000E+00
 -1      1173 6.76500E+01 5.00000E+01 0.00000E+00
 -1      1174 7.06500E+01 5.00000E+01 0.00000E+00
 -1      1175 7.36500E+01 5.00000E+01 0.00000E+00
 -1      1176 7.66500E+01 5.00000E+01 0.00000E+00
 -1      1177 7.96500E+01 5.00000E+01 0.00000E+00
 -1      1178 8.26500E+01 5.00000E+01 0.00000E+00
 -1      1179 8.56500E+01 5.00000E+01 0.00000E+00
 -1      1180 8.86500E+01 5.00000E+01 0.00000E+00
 -1      1181 9.16500E+01 5.00000E+01 0.00000E+00
 -1      1182 9.46500E+01 5.00000E+01 0.00000E+00
 -1      1183 9.76500E+01 5.00000E+01 0.00000E+00
 -1      1184 1.00650E+02 5.00000E+01 0.00000E+00
 -1      1185 1.03650E+02 5.00000E+01 0.00000E+00
 -1      1186 1.06650E+02 5.00000E+01 0.00000E+00
 -1      1187 1.09650E+02 5.00000E+01 0.00000E+00
 -1      1188 1.12650E+02 5.00000E+01 0.00000E+00
 -1      1189 1.15650E+02 5.00000E+01 0.00000E+00
 -1      1190 1.18650E+02 5.00000E+01 0.00000E+00
 -1      1191 1.21650E+02 5.00000E+01 0.00000E+00
 -1      1192 1.24650E+02 5.00000E+01 0.00000E+00
 -1      1193 1.27650E+02 5.00000E+01 0.00000E+00
 -1      1194 1.30650E+02 5.00000E+01 0.00000E+00
 -1      1195 1.33650E+02 5.00000E+01 0.00000E+00
 -1      1196 1.36650E+02 5.00000E+01 0.00000E+00
 -1      1197 1.39650E+02 5.00000E+01 0.00000E+00
 -1      1198 1.42650E+02 5.00000E+01 0.00000E+00
 -1      1199 1.45650E+02 5.00000E+01 0.00000E+00
 -1      1200 1.48575E+02 5.00000E+01 0.00000E+00
 -1      1201 1.57500E+00 0.00000E+00 0.00000E+00
 -1      1202 4.65000E+00 0.00000E+00 0.00000E+00
 -1      1203 7.65000E+00 0.00000E+00 0.00000E+00
 -1      1204 1.06500E+01 0.00000E+00 0.00000E+00
 -1      1205 1.36500E+01 0.00000E+00 0.00000E+00
 -1      1206 1.66500E+01 0.00000E+00 0.00000E+00
 -1      1207 1.96500E+01 0.00000E+00 0.00000E+00
 -1      1208 2.26500E+01 0.00000E+00 0.00000E+00
 -1      1209 2.56500E+01 0.00000E+00 0.00000E+00
 -1      1210 2.86500E+01 0.00000E+00 0.00000E+00
 -1      1211 3.16500E+01 0.00000E+00 0.00000E+00
 -1      1212 3.46500E+01 0.00000E+00 0.00000E+00
 -1      1213 3.76500E+01 0.00000E+00 0.00000E+00
 -1      1214 4.06500E+01 0.00000E+00 0.00000E+00
 -1      1215 4.36500E+01 0.00000E+00 0.00000E+00
 -1      1216 4.66500E+01 0.00000E+00 0.00000E+00
 -1      1217 4.96500E+01 0.00000E+00 0.00000E+00
 -1      1218 5.26500E+01 0.00000E+00 0.00000E+00
 -1      1219 5.56500E+01 0.00000E+00 0.00000E+00
 -1      1220 5.86500E+01 0.00000E+00 0.00000E+00
 -1      1221 6.16500E+01 0.00000E+00 0.00000E+00
 -1      1222 6.46500E+01 0.00000E+00 0.00000E+00
 -1      1223 6.76500E+01 0.00000E+00 0.00000E+00
 -1      1224 7.06500E+01 0.00000E+00 0.00000E+00
 -1      1225 7.36500E+01 0.00000E+00 0.00000E+00
 -1      1226 7.66500E+01 0.00000E+00 0.00000E+00
 -1      1227 7.96500E+01 0.00000E+00 0.00000E+00
 -1      1228 8.26500E+01 0.00000E+00 0.00000E+00
 -1      1229 8.56500E+01 0.00000E+00 0.00000E+00
 -1      1230 8.86500E+01 0.00000E+00 0.00000E+00
 -1      1231 9.16500E+01 0.00000E+00 0.00000E+00
 -1      1232 9.46500E+01 0.00000E+00 0.00000E+00
 -1      1233 9.76500E+01 0.00000E+00 0.00000E+00
 -1      1234 1.00650E+02 0.00000E+00 0.00000E+00
 -1      1235 1.03650E+02 0.00000E+00 0.00000E+00
 -1      1236 1.06650E+02 0.00000E+00 0.00000E+00
 -1      1237 1.09650E+02 0.00000E+00 0.00000E+00
 -1      1238 1.12650E+02 0.00000E+00 0.00000E+00
 -1      1239 1.15650E+02 0.00000E+00 0.00000E+00
 -1      1240 1.18650E+02 0.00000E+00 0.00000E+00
 -1      1241 1.21650E+02 0.00000E+00 0.00000E+00
 -1      1242 1.24650E+02 0.00000E+00 0.00000E+00
 -1      1243 1.27650E+02 0.00000E+00 0.00000E+00
 -1      1244 1.30650E+02 0.00000E+00 0.00000E+00
 -1      1245 1.33650E+02 0.00000E+00 0.00000E+00
 -1      1246 1.36650E+02 0.00000E+00 0.00000E+00
 -1      1247 1.39650E+02 0.00000E+00 0.00000E+00
 -1      1248 1.42650E+02 0.00000E+00 0.00000E+00
 -1      1249 1.45650E+02 0.00000E+00 0.00000E+00
 -1      1250 1.48575E+02 0.00000E+00 0.00000E+00
 -1      1251 1.50000E+02 1.47500E+00 0.00000E+00
 -1      1252 1.50000E+02 4.42500E+00 0.00000E+00
 -1      1253 1.50000E+02 7.37500E+00 0.00000E+00
 -1      1254 1.50000E+02 1.03250E+01 0.00000E+00
 -1      1255 1.50000E+02 1.32750E+01 0.00000E+00
 -1      1256 1.50000E+02 1.62000E+01 0.00000E+00
 -1      1257 1.50000E+02 1.91250E+01 0.00000E+00
 -1      1258 1.50000E+02 2.20750E+01 0.00000E+00
 -1      1259 1.50000E+02 2.50250E+01 0.00000E+00
 -1      1260 1.50000E+02 2.79750E+01 0.00000E+00
 -1      1261 1.50000E+02 3.09250E+01 0.00000E+00
 -1      1262 1.50000E+02 3.38500E+01 0.00000E+00
 -1      1263 1.50000E+02 3.67750E+01 0.00000E+00
 -1      1264 1.50000E+02 3.97250E+01 0.00000E+00
 -1      1265 1.50000E+02 4.26750E+01 0.00000E+00
 -1      1266 1.50000E+02 4.56250E+01 0.00000E+00
 -1      1267 1.50000E+02 4.85500E+01 0.00000E+00
 -1      1268 1.10147E+02 2.44363E+01 0.00000E+00
 -1      1269 1.09835E+02 2.29922E+01 0.00000E+00
 -1      1270 1.09234E+02 2.16588E+01 0.00000E+00
 -1      1271 1.08315E+02 2.04198E+01 0.00000E+00
 -1      1272 1.07104E+02 1.93837E+01 0.00000E+00
 -1      1273 1.05640E+02 1.86291E+01 0.00000E+00
 -1      1274 1.04087E+02 1.82433E+01 0.00000E+00
 -1      1275 1.02573E+02 1.82122E+01 0.00000E+00
 -1      1276 1.01097E+02 1.85047E+01 0.00000E+00
 -1      1277 9.96920E+01 1.91204E+01 0.00000E+00
 -1      1278 9.84536E+01 2.00286E+01 0.00000E+00
 -1      1279 9.74736E+01 2.11415E+01 0.00000E+00
 -1      1280 9.67568E+01 2.24200E+01 0.00000E+00
 -1      1281 9.63237E+01 2.38106E+01 0.00000E+00
 -1      1282 9.61881E+01 2.52809E+01 0.00000E+00
 -1      1283 9.63699E+01 2.67732E+01 0.00000E+00
 -1      1284 9.68991E+01 2.82606E+01 0.00000E+00
 -1      1285 9.77114E+01 2.95456E+01 0.00000E+00
 -1      1286 9.86848E+01 3.05449E+01 0.00000E+00
 -1      1287 9.98030E+01 3.13127E+01 0.00000E+00
 -1      1288 1.01048E+02 3.18503E+01 0.00000E+00
 -1      1289 1.02374E+02 3.21378E+01 0.00000E+00
 -1      1290 1.03720E+02 3.21649E+01 0.00000E+00
 -1      1291 1.05092E+02 3.19212E+01 0.00000E+00
 -1      1292 1.06437E+02 3.13853E+01 0.00000E+00
 -1      1293 1.07638E+02 3.05883E+01 0.00000E+00
 -1      1294 1.08616E+02 2.96041E+01 0.00000E+00
 -1      1295 1.09369E+02 2.84704E+01 0.00000E+00
 -1      1296 1.09885E+02 2.72200E+01 0.00000E+00
 -1      1297 1.10153E+02 2.58819E+01 0.00000E+00
 -1      1298 1.57500E+00 4.85250E+01 0.00000E+00
 -1      1299 1.29900E+00 4.48375E+01 0.00000E+00
 -1      1300 1.29900E+00 4.63125E+01 0.00000E+00
 -1      1301 1.29900E+00 4.18875E+01 0.00000E+00
 -1      1302 1.29900E+00 4.33625E+01 0.00000E+00
 -1      1303 2.59800E+00 4.41000E+01 0.00000E+00
 -1      1304 1.29900E+00 3.89375E+01 0.00000E+00
 -1      1305 1.29900E+00 4.04125E+01 0.00000E+00
 -1      1306 2.59800E+00 4.11500E+01 0.00000E+00
 -1      1307 1.29900E+00 3.59875E+01 0.00000E+00
 -1      1308 1.29900E+00 3.74625E+01 0.00000E+00
 -1      1309 2.59800E+00 3.82000E+01 0.00000E+00
 -1      1310 1.29900E+00 3.30875E+01 0.00000E+00
 -1      1311 1.29900E+00 3.45375E+01 0.00000E+00
 -1      1312 2.59800E+00 3.52750E+01 0.00000E+00
 -1      1313 1.29900E+00 3.01375E+01 0.00000E+00
 -1      1314 1.29900E+00 3.16125E+01 0.00000E+00
 -1      1315 2.59800E+00 3.23500E+01 0.00000E+00
 -1      1316 1.29900E+00 2.71875E+01 0.00000E+00
 -1      1317 1.29900E+00 2.86625E+01 0.00000E+00
 -1      1318 2.59800E+00 2.94000E+01 0.00000E+00
 -1      1319 1.29900E+00 2.42375E+01 0.00000E+00
 -1      1320 1.29900E+00 2.57125E+01 0.00000E+00
 -1      1321 2.59800E+00 2.64500E+01 0.00000E+00
 -1      1322 1.29900E+00 2.12875E+01 0.00000E+00
 -1      1323 1.29900E+00 2.27625E+01 0.00000E+00
 -1      1324 2.59800E+00 2.35000E+01 0.00000E+00
 -1      1325 1.29900E+00 1.83375E+01 0.00000E+00
 -1      1326 1.29900E+00 1.98125E+01 0.00000E+00
 -1      1327 2.59800E+00 2.05500E+01 0.00000E+00
 -1      1328 1.29900E+00 1.54375E+01 0.00000E+00
 -1      1329 1.29900E+00 1.68875E+01 0.00000E+00
 -1      1330 2.59800E+00 1.76250E+01 0.00000E+00
 -1      1331 1.29900E+00 1.24875E+01 0.00000E+00
 -1      1332 1.29900E+00 1.39625E+01 0.00000E+00
 -1      1333 2.59800E+00 1.47000E+01 0.00000E+00
 -1      1334 1.29900E+00 9.53750E+00 0.00000E+00
 -1      1335 1.29900E+00 1.10125E+01 0.00000E+00
 -1      1336 2.59800E+00 1.17500E+01 0.00000E+00
 -1      1337 1.29900E+00 6.58750E+00 0.00000E+00
 -1      1338 1.29900E+00 8.06250E+00 0.00000E+00
 -1      1339 2.59800E+00 8.80000E+00 0.00000E+00
 -1      1340 1.29900E+00 3.63750E+00 0.00000E+00
 -1      1341 1.29900E+00 5.11250E+00 0.00000E+00
 -1      1342 2.59800E+00 5.85000E+00 0.00000E+00
 -1      1343 1.43700E+00 1.09375E+00 0.00000E+00
 -1      1344 1.43700E+00 2.54375E+00 0.00000E+00
 -1      1345 2.73600E+00 3.28125E+00 0.00000E+00
 -1      1346 3.01200E+00 1.09375E+00 0.00000E+00
 -1      1347 3.90000E+00 4.87010E+01 0.00000E+00
 -1      1348 5.40000E+00 4.87010E+01 0.00000E+00
 -1      1349 6.90000E+00 4.87010E+01 0.00000E+00
 -1      1350 8.40000E+00 4.87010E+01 0.00000E+00
 -1      1351 6.15000E+00 4.74020E+01 0.00000E+00
 -1      1352 9.90000E+00 4.87010E+01 0.00000E+00
 -1      1353 1.14000E+01 4.87010E+01 0.00000E+00
 -1      1354 9.15000E+00 4.74020E+01 0.00000E+00
 -1      1355 1.29000E+01 4.87010E+01 0.00000E+00
 -1      1356 1.44000E+01 4.87010E+01 0.00000E+00
 -1      1357 1.21500E+01 4.74020E+01 0.00000E+00
 -1      1358 1.59000E+01 4.87010E+01 0.00000E+00
 -1      1359 1.74000E+01 4.87010E+01 0.00000E+00
 -1      1360 1.51500E+01 4.74020E+01 0.00000E+00
 -1      1361 1.89000E+01 4.87010E+01 0.00000E+00
 -1      1362 2.04000E+01 4.87010E+01 0.00000E+00
 -1      1363 1.81500E+01 4.74020E+01 0.00000E+00
 -1      1364 2.19000E+01 4.87010E+01 0.00000E+00
 -1      1365 2.34000E+01 4.87010E+01 0.00000E+00
 -1      1366 2.11500E+01 4.74020E+01 0.00000E+00
 -1      1367 2.49000E+01 4.87010E+01 0.00000E+00
 -1      1368 2.64000E+01 4.87010E+01 0.00000E+00
 -1      1369 2.41500E+01 4.74020E+01 0.00000E+00
 -1      1370 2.79000E+01 4.87010E+01 0.00000E+00
 -1      1371 2.94000E+01 4.87010E+01 0.00000E+00
 -1      1372 2.71500E+01 4.74020E+01 0.00000E+00
 -1      1373 3.09000E+01 4.87010E+01 0.00000E+00
 -1      1374 3.24000E+01 4.87010E+01 0.00000E+00
 -1      1375 3.01500E+01 4.74020E+01 0.00000E+00
 -1      1376 3.39000E+01 4.87010E+01 0.00000E+00
 -1      1377 3.54000E+01 4.87010E+01 0.00000E+00
 -1      1378 3.31500E+01 4.74020E+01 0.00000E+00
 -1      1379 3.69000E+01 4.87010E+01 0.00000E+00
 -1      1380 3.84000E+01 4.87010E+01 0.00000E+00
 -1      1381 3.61500E+01 4.74020E+01 0.00000E+00
 -1      1382 3.99000E+01 4.87010E+01 0.00000E+00
 -1      1383 4.14000E+01 4.87010E+01 0.00000E+00
 -1      1384 3.91500E+01 4.74020E+01 0.00000E+00
 -1      1385 4.29000E+01 4.87010E+01 0.00000E+00
 -1      1386 4.44000E+01 4.87010E+01 0.00000E+00
 -1      1387 4.21500E+01 4.74020E+01 0.00000E+00
 -1      1388 4.59000E+01 4.87010E+01 0.00000E+00
 -1      1389 4.74000E+01 4.87010E+01 0.00000E+00
 -1      1390 4.51500E+01 4.74020E+01 0.00000E+00
 -1      1391 4.89000E+01 4.87010E+01 0.00000E+00
 -1      1392 5.04000E+01 4.87010E+01 0.00000E+00
 -1      1393 4.81500E+01 4.74020E+01 0.00000E+00
 -1      1394 5.19000E+01 4.87010E+01 0.00000E+00
 -1      1395 5.34000E+01 4.87010E+01 0.00000E+00
 -1      1396 5.11500E+01 4.74020E+01 0.00000E+00
 -1      1397 5.49000E+01 4.87010E+01 0.00000E+00
 -1      1398 5.64000E+01 4.87010E+01 0.00000E+00
 -1      1399 5.41500E+01 4.74020E+01 0.00000E+00
 -1      1400 5.79000E+01 4.87010E+01 0.00000E+00
 -1      1401 5.94000E+01 4.87010E+01 0.00000E+00
 -1      1402 5.71500E+01 4.74020E+01 0.00000E+00
 -1      1403 6.09000E+01 4.87010E+01 0.00000E+00
 -1      1404 6.24000E+01 4.87010E+01 0.00000E+00
 -1      1405 6.01500E+01 4.74020E+01 0.00000E+00
 -1      1406 6.39000E+01 4.87010E+01 0.00000E+00
 -1      1407 6.54000E+01 4.87010E+01 0.00000E+00
 -1      1408 6.31500E+01 4.74020E+01 0.00000E+00
 -1      1409 6.69000E+01 4.87010E+01 0.00000E+00
 -1      1410 6.84000E+01 4.87010E+01 0.00000E+00
 -1      1411 6.61500E+01 4.74020E+01 0.00000E+00
 -1      1412 6.99000E+01 4.87010E+01 0.00000E+00
 -1      1413 7.14000E+01 4.87010E+01 0.00000E+00
 -1      1414 6.91500E+01 4.74020E+01 0.00000E+00
 -1      1415 7.29000E+01 4.87010E+01 0.00000E+00
 -1      1416 7.44000E+01 4.87010E+01 0.00000E+00
 -1      1417 7.21500E+01 4.74020E+01 0.00000E+00
 -1      1418 7.59000E+01 4.87010E+01 0.00000E+00
 -1      1419 7.74000E+01 4.87010E+01 0.00000E+00
 -1      1420 7.51500E+01 4.74020E+01 0.00000E+00
 -1      1421 7.89000E+01 4.87010E+01 0.00000E+00
 -1      1422 8.04000E+01 4.87010E+01 0.00000E+00
 -1      1423 7.81500E+01 4.74020E+01 0.00000E+00
 -1      1424 8.19000E+01 4.87010E+01 0.00000E+00
 -1      1425 8.34000E+01 4.87010E+01 0.00000E+00
 -1      1426 8.11500E+01 4.74020E+01 0.00000E+00
 -1      1427 8.49000E+01 4.87010E+01 0.00000E+00
 -1      1428 8.64000E+01 4.87010E+01 0.00000E+00
 -1      1429 8.41500E+01 4.74020E+01 0.00000E+00
 -1      1430 8.79000E+01 4.87010E+01 0.00000E+00
 -1      1431 8.94000E+01 4.87010E+01 0.00000E+00
 -1      1432 8.71500E+01 4.74020E+01 0.00000E+00
 -1      1433 9.09000E+01 4.87010E+01 0.00000E+00
 -1      1434 9.24000E+01 4.87010E+01 0.00000E+00
 -1      1435 9.01500E+01 4.74020E+01 0.00000E+00
 -1      1436 9.39000E+01 4.87010E+01 0.00000E+00
 -1      1437 9.54000E+01 4.87010E+01 0.00000E+00
 -1      1438 9.31500E+01 4.74020E+01 0.00000E+00
 -1      1439 9.69000E+01 4.87010E+01 0.00000E+00
 -1      1440 9.84000E+01 4.87010E+01 0.00000E+00
 -1      1441 9.61500E+01 4.74020E+01 0.00000E+00
 -1      1442 9.99000E+01 4.87010E+01 0.00000E+00
 -1      1443 1.01400E+02 4.87010E+01 0.00000E+00
 -1      1444 9.91500E+01 4.74020E+01 0.00000E+00
 -1      1445 1.02900E+02 4.87010E+01 0.00000E+00
 -1      1446 1.04400E+02 4.87010E+01 0.00000E+00
 -1      1447 1.02150E+02 4.74020E+01 0.00000E+00
 -1      1448 1.05900E+02 4.87010E+01 0.00000E+00
 -1      1449 1.07400E+02 4.87010E+01 0.00000E+00
 -1      1450 1.05150E+02 4.74020E+01 0.00000E+00
 -1      1451 1.08900E+02 4.87010E+01 0.00000E+00
 -1      1452 1.10400E+02 4.87010E+01 0.00000E+00
 -1      1453 1.08150E+02 4.74020E+01 0.00000E+00
 -1      1454 1.11900E+02 4.87010E+01 0.00000E+00
 -1      1455 1.13400E+02 4.87010E+01 0.00000E+00
 -1      1456 1.11150E+02 4.74020E+01 0.00000E+00
 -1      1457 1.14900E+02 4.87010E+01 0.00000E+00
 -1      1458 1.16400E+02 4.87010E+01 0.00000E+00
 -1      1459 1.14150E+02 4.74020E+01 0.00000E+00
 -1      1460 1.17900E+02 4.87010E+01 0.00000E+00
 -1      1461 1.19400E+02 4.87010E+01 0.00000E+00
 -1      1462 1.17150E+02 4.74020E+01 0.00000E+00
 -1      1463 1.20900E+02 4.87010E+01 0.00000E+00
 -1      1464 1.22400E+02 4.87010E+01 0.00000E+00
 -1      1465 1.20150E+02 4.74020E+01 0.00000E+00
 -1      1466 1.23900E+02 4.87010E+01 0.00000E+00
 -1      1467 1.25400E+02 4.87010E+01 0.00000E+00
 -1      1468 1.23150E+02 4.74020E+01 0.00000E+00
 -1      1469 1.26900E+02 4.87010E+01 0.00000E+00
 -1      1470 1.28400E+02 4.87010E+01 0.00000E+00
 -1      1471 1.26150E+02 4.74020E+01 0.00000E+00
 -1      1472 1.29900E+02 4.87010E+01 0.00000E+00
 -1      1473 1.31400E+02 4.87010E+01 0.00000E+00
 -1      1474 1.29150E+02 4.74020E+01 0.00000E+00
 -1      1475 1.32900E+02 4.87010E+01 0.00000E+00
 -1      1476 1.34400E+02 4.87010E+01 0.00000E+00
 -1      1477 1.32150E+02 4.74020E+01 0.00000E+00
 -1      1478 1.35900E+02 4.87010E+01 0.00000E+00
 -1      1479 1.37400E+02 4.87010E+01 0.00000E+00
 -1      1480 1.35150E+02 4.74020E+01 0.00000E+00
 -1      1481 1.38900E+02 4.87010E+01 0.00000E+00
 -1      1482 1.40400E+02 4.87010E+01 0.00000E+00
 -1      1483 1.38150E+02 4.74020E+01 0.00000E+00
 -1      1484 1.41900E+02 4.87010E+01 0.00000E+00
 -1      1485 1.43400E+02 4.87010E+01 0.00000E+00
 -1      1486 1.41150E+02 4.74020E+01 0.00000E+00
 -1      1487 1.44900E+02 4.87010E+01 0.00000E+00
 -1      1488 1.46400E+02 4.87010E+01 0.00000E+00
 -1      1489 1.44150E+02 4.74020E+01 0.00000E+00
 -1      1490 1.48575E+02 4.85500E+01 0.00000E+00
 -1      1491 1.47825E+02 4.72510E+01 0.00000E+00
 -1      1492 6.01200E+00 1.09375E+00 0.00000E+00
 -1      1493 4.51200E+00 1.09375E+00 0.00000E+00
 -1      1494 4.37400E+00 2.18750E+00 0.00000E+00
 -1      1495 9.01200E+00 1.09375E+00 0.00000E+00
 -1      1496 7.51200E+00 1.09375E+00 0.00000E+00
 -1      1497 7.37400E+00 2.18750E+00 0.00000E+00
 -1      1498 1.20120E+01 1.09375E+00 0.00000E+00
 -1      1499 1.05120E+01 1.09375E+00 0.00000E+00
 -1      1500 1.03740E+01 2.18750E+00 0.00000E+00
 -1      1501 1.50120E+01 1.09375E+00 0.00000E+00
 -1      1502 1.35120E+01 1.09375E+00 0.00000E+00
 -1      1503 1.33740E+01 2.18750E+00 0.00000E+00
 -1      1504 1.80120E+01 1.09375E+00 0.00000E+00
 -1      1505 1.65120E+01 1.09375E+00 0.00000E+00
 -1      1506 1.63740E+01 2.18750E+00 0.00000E+00
 -1      1507 2.10120E+01 1.09375E+00 0.00000E+00
 -1      1508 1.95120E+01 1.09375E+00 0.00000E+00
 -1      1509 1.93740E+01 2.18750E+00 0.00000E+00
 -1      1510 2.40120E+01 1.09375E+00 0.00000E+00
 -1      1511 2.25120E+01 1.09375E+00 0.00000E+00
 -1      1512 2.23740E+01 2.18750E+00 0.00000E+00
 -1      1513 2.70120E+01 1.09375E+00 0.00000E+00
 -1      1514 2.55120E+01 1.09375E+00 0.00000E+00
 -1      1515 2.53740E+01 2.18750E+00 0.00000E+00
 -1      1516 3.00120E+01 1.09375E+00 0.00000E+00
 -1      1517 2.85120E+01 1.09375E+00 0.00000E+00
 -1      1518 2.83740E+01 2.18750E+00 0.00000E+00
 -1      1519 3.30120E+01 1.09375E+00 0.00000E+00
 -1      1520 3.15120E+01 1.09375E+00 0.00000E+00
 -1      1521 3.13740E+01 2.18750E+00 0.00000E+00
 -1      1522 3.60120E+01 1.09375E+00 0.00000E+00
 -1      1523 3.45120E+01 1.09375E+00 0.00000E+00
 -1      1524 3.43740E+01 2.18750E+00 0.00000E+00
 -1      1525 3.90120E+01 1.09375E+00 0.00000E+00
 -1      1526 3.75120E+01 1.09375E+00 0.00000E+00
 -1      1527 3.73740E+01 2.18750E+00 0.00000E+00
 -1      1528 4.20120E+01 1.09375E+00 0.00000E+00
 -1      1529 4.05120E+01 1.09375E+00 0.00000E+00
 -1      1530 4.03740E+01 2.18750E+00 0.00000E+00
 -1      1531 4.50120E+01 1.09375E+00 0.00000E+00
 -1      1532 4.35120E+01 1.09375E+00 0.00000E+00
 -1      1533 4.33740E+01 2.18750E+00 0.00000E+00
 -1      1534 4.80120E+01 1.09375E+00 0.00000E+00
 -1      1535 4.65120E+01 1.09375E+00 0.00000E+00
 -1      1536 4.63740E+01 2.18750E+00 0.00000E+00
 -1      1537 5.10120E+01 1.09375E+00 0.00000E+00
 -1      1538 4.95120E+01 1.09375E+00 0.00000E+00
 -1      1539 4.93740E+01 2.18750E+00 0.00000E+00
 -1      1540 5.40120E+01 1.09375E+00 0.00000E+00
 -1      1541 5.25120E+01 1.09375E+00 0.00000E+00
 -1      1542 5.23740E+01 2.18750E+00 0.00000E+00
 -1      1543 5.70120E+01 1.09375E+00 0.00000E+00
 -1      1544 5.55120E+01 1.09375E+00 0.00000E+00
 -1      1545 5.53740E+01 2.18750E+00 0.00000E+00
 -1      1546 6.00120E+01 1.09375E+00 0.00000E+00
 -1      1547 5.85120E+01 1.09375E+00 0.00000E+00
 -1      1548 5.83740E+01 2.18750E+00 0.00000E+00
 -1      1549 6.30120E+01 1.09375E+00 0.00000E+00
 -1      1550 6.15120E+01 1.09375E+00 0.00000E+00
 -1      1551 6.13740E+01 2.18750E+00 0.00000E+00
 -1      1552 6.60120E+01 1.09375E+00 0.00000E+00
 -1      1553 6.45120E+01 1.09375E+00 0.00000E+00
 -1      1554 6.43740E+01 2.18750E+00 0.00000E+00
 -1      1555 6.90120E+01 1.09375E+00 0.00000E+00
 -1      1556 6.75120E+01 1.09375E+00 0.00000E+00
 -1      1557 6.73740E+01 2.18750E+00 0.00000E+00
 -1      1558 7.20120E+01 1.09375E+00 0.00000E+00
 -1      1559 7.05120E+01 1.09375E+00 0.00000E+00
 -1      1560 7.03740E+01 2.18750E+00 0.00000E+00
 -1      1561 7.50120E+01 1.09375E+00 0.00000E+00
 -1      1562 7.35120E+01 1.09375E+00 0.00000E+00
 -1      1563 7.33740E+01 2.18750E+00 0.00000E+00
 -1      1564 7.80120E+01 1.09375E+00 0.00000E+00
 -1      1565 7.65120E+01 1.09375E+00 0.00000E+00
 -1      1566 7.63740E+01 2.18750E+00 0.00000E+00
 -1      1567 8.10120E+01 1.09375E+00 0.00000E+00
 -1      1568 7.95120E+01 1.09375E+00 0.00000E+00
 -1      1569 7.93740E+01 2.18750E+00 0.00000E+00
 -1      1570 8.40120E+01 1.09375E+00 0.00000E+00
 -1      1571 8.25120E+01 1.09375E+00 0.00000E+00
 -1      1572 8.23740E+01 2.18750E+00 0.00000E+00
 -1      1573 8.70120E+01 1.09375E+00 0.00000E+00
 -1      1574 8.55120E+01 1.09375E+00 0.00000E+00
 -1      1575 8.53740E+01 2.18750E+00 0.00000E+00
 -1      1576 9.00120E+01 1.09375E+00 0.00000E+00
 -1      1577 8.85120E+01 1.09375E+00 0.00000E+00
 -1      1578 8.83740E+01 2.18750E+00 0.00000E+00
 -1      1579 9.30120E+01 1.09375E+00 0.00000E+00
 -1      1580 9.15120E+01 1.09375E+00 0.00000E+00
 -1      1581 9.13740E+01 2.18750E+00 0.00000E+00
 -1      1582 9.60120E+01 1.09375E+00 0.00000E+00
 -1      1583 9.45120E+01 1.09375E+00 0.00000E+00
 -1      1584 9.43740E+01 2.18750E+00 0.00000E+00
 -1      1585 9.90120E+01 1.09375E+00 0.00000E+00
 -1      1586 9.75120E+01 1.09375E+00 0.00000E+00
 -1      1587 9.73740E+01 2.18750E+00 0.00000E+00
 -1      1588 1.02012E+02 1.09375E+00 0.00000E+00
 -1      1589 1.00512E+02 1.09375E+00 0.00000E+00
 -1      1590 1.00374E+02 2.18750E+00 0.00000E+00
 -1      1591 1.05012E+02 1.09375E+00 0.00000E+00
 -1      1592 1.03512E+02 1.09375E+00 0.00000E+00
 -1      1593 1.03374E+02 2.18750E+00 0.00000E+00
 -1      1594 1.08012E+02 1.09375E+00 0.00000E+00
 -1      1595 1.06512E+02 1.09375E+00 0.00000E+00
 -1      1596 1.06374E+02 2.18750E+00 0.00000E+00
 -1      1597 1.11012E+02 1.09375E+00 0.00000E+00
 -1      1598 1.09512E+02 1.09375E+00 0.00000E+00
 -1      1599 1.09374E+02 2.18750E+00 0.00000E+00
 -1      1600 1.14012E+02 1.09375E+00 0.00000E+00
 -1      1601 1.12512E+02 1.09375E+00 0.00000E+00
 -1      1602 1.12374E+02 2.18750E+00 0.00000E+00
 -1      1603 1.17012E+02 1.09375E+00 0.00000E+00
 -1      1604 1.15512E+02 1.09375E+00 0.00000E+00
 -1      1605 1.15374E+02 2.18750E+00 0.00000E+00
 -1      1606 1.20012E+02 1.09375E+00 0.00000E+00
 -1      1607 1.18512E+02 1.09375E+00 0.00000E+00
 -1      1608 1.18374E+02 2.18750E+00 0.00000E+00
 -1      1609 1.23012E+02 1.09375E+00 0.00000E+00
 -1      1610 1.21512E+02 1.09375E+00 0.00000E+00
 -1      1611 1.21374E+02 2.18750E+00 0.00000E+00
 -1      1612 1.26012E+02 1.09375E+00 0.00000E+00
 -1      1613 1.24512E+02 1.09375E+00 0.00000E+00
 -1      1614 1.24374E+02 2.18750E+00 0.00000E+00
 -1      1615 1.29012E+02 1.09375E+00 0.00000E+00
 -1      1616 1.27512E+02 1.09375E+00 0.00000E+00
 -1      1617 1.27374E+02 2.18750E+00 0.00000E+00
 -1      1618 1.32012E+02 1.09375E+00 0.00000E+00
 -1      1619 1.30512E+02 1.09375E+00 0.00000E+00
 -1      1620 1.30374E+02 2.18750E+00 0.00000E+00
 -1      1621 1.35012E+02 1.09375E+00 0.00000E+00
 -1      1622 1.33512E+02 1.09375E+00 0.00000E+00
 -1      1623 1.33374E+02 2.18750E+00 0.00000E+00
 -1      1624 1.38012E+02 1.09375E+00 0.00000E+00
 -1      1625 1.36512E+02 1.09375E+00 0.00000E+00
 -1      1626 1.36374E+02 2.18750E+00 0.00000E+00
 -1      1627 1.41012E+02 1.09375E+00 0.00000E+00
 -1      1628 1.39512E+02 1.09375E+00 0.00000E+00
 -1      1629 1.39374E+02 2.18750E+00 0.00000E+00
 -1      1630 1.44012E+02 1.09375E+00 0.00000E+00
 -1      1631 1.42512E+02 1.09375E+00 0.00000E+00
 -1      1632 1.42374E+02 2.18750E+00 0.00000E+00
 -1      1633 1.47012E+02 1.09375E+00 0.00000E+00
 -1      1634 1.45512E+02 1.09375E+00 0.00000E+00
 -1      1635 1.45374E+02 2.18750E+00 0.00000E+00
 -1      1636 1.48575E+02 1.47500E+00 0.00000E+00
 -1      1637 1.48701E+02 5.16250E+00 0.00000E+00
 -1      1638 1.48701E+02 3.68750E+00 0.00000E+00
 -1      1639 1.48701E+02 8.11250E+00 0.00000E+00
 -1      1640 1.48701E+02 6.63750E+00 0.00000E+00
 -1      1641 1.47402E+02 5.90000E+00 0.00000E+00
 -1      1642 1.48701E+02 1.10625E+01 0.00000E+00
 -1      1643 1.48701E+02 9.58750E+00 0.00000E+00
 -1      1644 1.47402E+02 8.85000E+00 0.00000E+00
 -1      1645 1.48701E+02 1.40125E+01 0.00000E+00
 -1      1646 1.48701E+02 1.25375E+01 0.00000E+00
 -1      1647 1.47402E+02 1.18000E+01 0.00000E+00
 -1      1648 1.48701E+02 1.69125E+01 0.00000E+00
 -1      1649 1.48701E+02 1.54625E+01 0.00000E+00
 -1      1650 1.47402E+02 1.47250E+01 0.00000E+00
 -1      1651 1.48701E+02 1.98625E+01 0.00000E+00
 -1      1652 1.48701E+02 1.83875E+01 0.00000E+00
 -1      1653 1.47402E+02 1.76500E+01 0.00000E+00
 -1      1654 1.48701E+02 2.28125E+01 0.00000E+00
 -1      1655 1.48701E+02 2.13375E+01 0.00000E+00
 -1      1656 1.47402E+02 2.06000E+01 0.00000E+00
 -1      1657 1.48701E+02 2.57625E+01 0.00000E+00
 -1      1658 1.48701E+02 2.42875E+01 0.00000E+00
 -1      1659 1.47402E+02 2.35500E+01 0.00000E+00
 -1      1660 1.48701E+02 2.87125E+01 0.00000E+00
 -1      1661 1.48701E+02 2.72375E+01 0.00000E+00
 -1      1662 1.47402E+02 2.65000E+01 0.00000E+00
 -1      1663 1.48701E+02 3.16625E+01 0.00000E+00
 -1      1664 1.48701E+02 3.01875E+01 0.00000E+00
 -1      1665 1.47402E+02 2.94500E+01 0.00000E+00
 -1      1666 1.48701E+02 3.45625E+01 0.00000E+00
 -1      1667 1.48701E+02 3.31125E+01 0.00000E+00
 -1      1668 1.47402E+02 3.23750E+01 0.00000E+00
 -1      1669 1.48701E+02 3.75125E+01 0.00000E+00
 -1      1670 1.48701E+02 3.60375E+01 0.00000E+00
 -1      1671 1.47402E+02 3.53000E+01 0.00000E+00
 -1      1672 1.48701E+02 4.04625E+01 0.00000E+00
 -1      1673 1.48701E+02 3.89875E+01 0.00000E+00
 -1      1674 1.47402E+02 3.82500E+01 0.00000E+00
 -1      1675 1.48701E+02 4.34125E+01 0.00000E+00
 -1      1676 1.48701E+02 4.19375E+01 0.00000E+00
 -1      1677 1.47402E+02 4.12000E+01 0.00000E+00
 -1      1678 1.48263E+02 4.60692E+01 0.00000E+00
 -1      1679 1.48263E+02 4.45942E+01 0.00000E+00
 -1      1680 1.46964E+02 4.38568E+01 0.00000E+00
 -1      1681 1.46088E+02 4.62202E+01 0.00000E+00
 -1      1682 1.10712E+02 2.39990E+01 0.00000E+00
 -1      1683 1.10792E+02 2.47436E+01 0.00000E+00
 -1      1684 1.10300E+02 2.24552E+01 0.00000E+00
 -1      1685 1.10529E+02 2.31470E+01 0.00000E+00
 -1      1686 1.09540E+02 2.10558E+01 0.00000E+00
 -1      1687 1.09909E+02 2.16899E+01 0.00000E+00
 -1      1688 1.08511E+02 1.96858E+01 0.00000E+00
 -1      1689 1.09061E+02 2.02782E+01 0.00000E+00
 -1      1690 1.07094E+02 1.86983E+01 0.00000E+00
 -1      1691 1.07744E+02 1.91374E+01 0.00000E+00
 -1      1692 1.05460E+02 1.78817E+01 0.00000E+00
 -1      1693 1.06267E+02 1.81839E+01 0.00000E+00
 -1      1694 1.03793E+02 1.76334E+01 0.00000E+00
 -1      1695 1.04526E+02 1.77283E+01 0.00000E+00
 -1      1696 1.02131E+02 1.76018E+01 0.00000E+00
 -1      1697 1.02903E+02 1.75338E+01 0.00000E+00
 -1      1698 1.00579E+02 1.80715E+01 0.00000E+00
 -1      1699 1.01276E+02 1.78535E+01 0.00000E+00
 -1      1700 9.90224E+01 1.87634E+01 0.00000E+00
 -1      1701 9.97189E+01 1.83620E+01 0.00000E+00
 -1      1702 9.78000E+01 1.98577E+01 0.00000E+00
 -1      1703 9.83391E+01 1.93628E+01 0.00000E+00
 -1      1704 9.67264E+01 2.10728E+01 0.00000E+00
 -1      1705 9.71603E+01 2.04597E+01 0.00000E+00
 -1      1706 9.60923E+01 2.25232E+01 0.00000E+00
 -1      1707 9.63746E+01 2.18667E+01 0.00000E+00
 -1      1708 9.56541E+01 2.40547E+01 0.00000E+00
 -1      1709 9.57997E+01 2.33274E+01 0.00000E+00
 -1      1710 9.55837E+01 2.56566E+01 0.00000E+00
 -1      1711 9.55737E+01 2.49219E+01 0.00000E+00
 -1      1712 9.58263E+01 2.72944E+01 0.00000E+00
 -1      1713 9.56519E+01 2.65458E+01 0.00000E+00
 -1      1714 9.64619E+01 2.89254E+01 0.00000E+00
 -1      1715 9.61060E+01 2.81975E+01 0.00000E+00
 -1      1716 9.74865E+01 3.01784E+01 0.00000E+00
 -1      1717 9.70443E+01 2.96230E+01 0.00000E+00
 -1      1718 9.85787E+01 3.12037E+01 0.00000E+00
 -1      1719 9.80542E+01 3.07630E+01 0.00000E+00
 -1      1720 9.98193E+01 3.19774E+01 0.00000E+00
 -1      1721 9.92317E+01 3.16528E+01 0.00000E+00
 -1      1722 1.01199E+02 3.25002E+01 0.00000E+00
 -1      1723 1.00547E+02 3.22909E+01 0.00000E+00
 -1      1724 1.02641E+02 3.27469E+01 0.00000E+00
 -1      1725 1.01974E+02 3.26688E+01 0.00000E+00
 -1      1726 1.04100E+02 3.27112E+01 0.00000E+00
 -1      1727 1.03428E+02 3.27626E+01 0.00000E+00
 -1      1728 1.05615E+02 3.24518E+01 0.00000E+00
 -1      1729 1.04924E+02 3.26473E+01 0.00000E+00
 -1      1730 1.07023E+02 3.17193E+01 0.00000E+00
 -1      1731 1.06378E+02 3.20578E+01 0.00000E+00
 -1      1732 1.08302E+02 3.08341E+01 0.00000E+00
 -1      1733 1.07752E+02 3.12870E+01 0.00000E+00
 -1      1734 1.09274E+02 2.97042E+01 0.00000E+00
 -1      1735 1.08848E+02 3.02281E+01 0.00000E+00
 -1      1736 1.10035E+02 2.84366E+01 0.00000E+00
 -1      1737 1.09714E+02 2.90416E+01 0.00000E+00
 -1      1738 1.10532E+02 2.70674E+01 0.00000E+00
 -1      1739 1.10338E+02 2.77064E+01 0.00000E+00
 -1      1740 1.10798E+02 2.55964E+01 0.00000E+00
 -1      1741 1.10728E+02 2.62896E+01 0.00000E+00
 -1      1742 1.08525E+02 1.89639E+01 0.00000E+00
 -1      1743 1.09770E+02 2.02899E+01 0.00000E+00
 -1      1744 1.48437E+02 2.56875E+00 0.00000E+00
 -1      1745 1.47138E+02 3.30625E+00 0.00000E+00
 -1      1746 1.11213E+02 2.34500E+01 0.00000E+00
 -1      1747 1.10639E+02 2.18328E+01 0.00000E+00
 -1      1748 1.11402E+02 2.51547E+01 0.00000E+00
 -1      1749 1.06932E+02 1.79010E+01 0.00000E+00
 -1      1750 1.05171E+02 1.72331E+01 0.00000E+00
 -1      1751 1.03347E+02 1.69801E+01 0.00000E+00
 -1      1752 1.01601E+02 1.71322E+01 0.00000E+00
 -1      1753 9.98862E+01 1.76745E+01 0.00000E+00
 -1      1754 9.83429E+01 1.85643E+01 0.00000E+00
 -1      1755 9.70199E+01 1.97657E+01 0.00000E+00
 -1      1756 9.60284E+01 2.11616E+01 0.00000E+00
 -1      1757 9.53840E+01 2.27596E+01 0.00000E+00
 -1      1758 9.50110E+01 2.44309E+01 0.00000E+00
 -1      1759 9.49989E+01 2.61873E+01 0.00000E+00
 -1      1760 9.53468E+01 2.79798E+01 0.00000E+00
 -1      1761 9.62088E+01 2.95807E+01 0.00000E+00
 -1      1762 9.73588E+01 3.08629E+01 0.00000E+00
 -1      1763 9.85795E+01 3.18966E+01 0.00000E+00
 -1      1764 9.99601E+01 3.26592E+01 0.00000E+00
 -1      1765 1.01462E+02 3.31413E+01 0.00000E+00
 -1      1766 1.03024E+02 3.33256E+01 0.00000E+00
 -1      1767 1.04634E+02 3.32774E+01 0.00000E+00
 -1      1768 1.06220E+02 3.28195E+01 0.00000E+00
 -1      1769 1.07710E+02 3.19931E+01 0.00000E+00
 -1      1770 1.08985E+02 3.09548E+01 0.00000E+00
 -1      1771 1.09970E+02 2.96862E+01 0.00000E+00
 -1      1772 1.10712E+02 2.82934E+01 0.00000E+00
 -1      1773 1.11211E+02 2.67853E+01 0.00000E+00
 -1      1774 2.87400E+00 4.77875E+01 0.00000E+00
 -1      1775 3.89700E+00 4.04125E+01 0.00000E+00
 -1      1776 3.89700E+00 4.18875E+01 0.00000E+00
 -1      1777 3.89700E+00 4.33625E+01 0.00000E+00
 -1      1778 3.89700E+00 4.48375E+01 0.00000E+00
 -1      1779 5.19600E+00 4.26250E+01 0.00000E+00
 -1      1780 3.89700E+00 3.45500E+01 0.00000E+00
 -1      1781 3.89700E+00 3.60000E+01 0.00000E+00
 -1      1782 3.89700E+00 3.16000E+01 0.00000E+00
 -1      1783 3.89700E+00 3.30750E+01 0.00000E+00
 -1      1784 5.19600E+00 3.38000E+01 0.00000E+00
 -1      1785 3.89700E+00 2.86500E+01 0.00000E+00
 -1      1786 3.89700E+00 3.01250E+01 0.00000E+00
 -1      1787 5.19600E+00 3.08500E+01 0.00000E+00
 -1      1788 3.89700E+00 2.57000E+01 0.00000E+00
 -1      1789 3.89700E+00 2.71750E+01 0.00000E+00
 -1      1790 5.19600E+00 2.79000E+01 0.00000E+00
 -1      1791 3.89700E+00 2.27500E+01 0.00000E+00
 -1      1792 3.89700E+00 2.42250E+01 0.00000E+00
 -1      1793 5.19600E+00 2.49500E+01 0.00000E+00
 -1      1794 3.89700E+00 1.98000E+01 0.00000E+00
 -1      1795 3.89700E+00 2.12750E+01 0.00000E+00
 -1      1796 5.19600E+00 2.20000E+01 0.00000E+00
 -1      1797 3.89700E+00 1.69000E+01 0.00000E+00
 -1      1798 3.89700E+00 1.83500E+01 0.00000E+00
 -1      1799 5.19600E+00 1.90750E+01 0.00000E+00
 -1      1800 3.89700E+00 1.39500E+01 0.00000E+00
 -1      1801 3.89700E+00 1.54250E+01 0.00000E+00
 -1      1802 5.19600E+00 1.61500E+01 0.00000E+00
 -1      1803 3.89700E+00 1.10000E+01 0.00000E+00
 -1      1804 3.89700E+00 1.24750E+01 0.00000E+00
 -1      1805 5.19600E+00 1.32000E+01 0.00000E+00
 -1      1806 3.89700E+00 8.05000E+00 0.00000E+00
 -1      1807 3.89700E+00 9.52500E+00 0.00000E+00
 -1      1808 5.19600E+00 1.02500E+01 0.00000E+00
 -1      1809 3.89700E+00 5.10000E+00 0.00000E+00
 -1      1810 3.89700E+00 6.57500E+00 0.00000E+00
 -1      1811 5.19600E+00 7.30000E+00 0.00000E+00
 -1      1812 4.20450E+00 3.09687E+00 0.00000E+00
 -1      1813 4.06650E+00 4.19063E+00 0.00000E+00
 -1      1814 5.36550E+00 4.91563E+00 0.00000E+00
 -1      1815 5.70450E+00 3.09687E+00 0.00000E+00
 -1      1816 3.62400E+00 4.64885E+01 0.00000E+00
 -1      1817 8.70450E+00 3.09687E+00 0.00000E+00
 -1      1818 7.20450E+00 3.09687E+00 0.00000E+00
 -1      1819 7.03500E+00 4.00625E+00 0.00000E+00
 -1      1820 4.92300E+00 4.57510E+01 0.00000E+00
 -1      1821 8.40000E+00 4.61030E+01 0.00000E+00
 -1      1822 9.90000E+00 4.61030E+01 0.00000E+00
 -1      1823 1.14000E+01 4.61030E+01 0.00000E+00
 -1      1824 1.29000E+01 4.61030E+01 0.00000E+00
 -1      1825 1.06500E+01 4.48040E+01 0.00000E+00
 -1      1826 1.44000E+01 4.61030E+01 0.00000E+00
 -1      1827 1.59000E+01 4.61030E+01 0.00000E+00
 -1      1828 1.36500E+01 4.48040E+01 0.00000E+00
 -1      1829 1.74000E+01 4.61030E+01 0.00000E+00
 -1      1830 1.89000E+01 4.61030E+01 0.00000E+00
 -1      1831 1.66500E+01 4.48040E+01 0.00000E+00
 -1      1832 2.04000E+01 4.61030E+01 0.00000E+00
 -1      1833 2.19000E+01 4.61030E+01 0.00000E+00
 -1      1834 1.96500E+01 4.48040E+01 0.00000E+00
 -1      1835 2.34000E+01 4.61030E+01 0.00000E+00
 -1      1836 2.49000E+01 4.61030E+01 0.00000E+00
 -1      1837 2.26500E+01 4.48040E+01 0.00000E+00
 -1      1838 2.64000E+01 4.61030E+01 0.00000E+00
 -1      1839 2.79000E+01 4.61030E+01 0.00000E+00
 -1      1840 2.56500E+01 4.48040E+01 0.00000E+00
 -1      1841 2.94000E+01 4.61030E+01 0.00000E+00
 -1      1842 3.09000E+01 4.61030E+01 0.00000E+00
 -1      1843 2.86500E+01 4.48040E+01 0.00000E+00
 -1      1844 3.24000E+01 4.61030E+01 0.00000E+00
 -1      1845 3.39000E+01 4.61030E+01 0.00000E+00
 -1      1846 3.16500E+01 4.48040E+01 0.00000E+00
 -1      1847 3.54000E+01 4.61030E+01 0.00000E+00
 -1      1848 3.69000E+01 4.61030E+01 0.00000E+00
 -1      1849 3.46500E+01 4.48040E+01 0.00000E+00
 -1      1850 3.84000E+01 4.61030E+01 0.00000E+00
 -1      1851 3.99000E+01 4.61030E+01 0.00000E+00
 -1      1852 3.76500E+01 4.48040E+01 0.00000E+00
 -1      1853 4.14000E+01 4.61030E+01 0.00000E+00
 -1      1854 4.29000E+01 4.61030E+01 0.00000E+00
 -1      1855 4.06500E+01 4.48040E+01 0.00000E+00
 -1      1856 4.44000E+01 4.61030E+01 0.00000E+00
 -1      1857 4.59000E+01 4.61030E+01 0.00000E+00
 -1      1858 4.36500E+01 4.48040E+01 0.00000E+00
 -1      1859 4.74000E+01 4.61030E+01 0.00000E+00
 -1      1860 4.89000E+01 4.61030E+01 0.00000E+00
 -1      1861 4.66500E+01 4.48040E+01 0.00000E+00
 -1      1862 5.04000E+01 4.61030E+01 0.00000E+00
 -1      1863 5.19000E+01 4.61030E+01 0.00000E+00
 -1      1864 4.96500E+01 4.48040E+01 0.00000E+00
 -1      1865 5.34000E+01 4.61030E+01 0.00000E+00
 -1      1866 5.49000E+01 4.61030E+01 0.00000E+00
 -1      1867 5.26500E+01 4.48040E+01 0.00000E+00
 -1      1868 5.64000E+01 4.61030E+01 0.00000E+00
 -1      1869 5.79000E+01 4.61030E+01 0.00000E+00
 -1      1870 5.56500E+01 4.48040E+01 0.00000E+00
 -1      1871 5.94000E+01 4.61030E+01 0.00000E+00
 -1      1872 6.09000E+01 4.61030E+01 0.00000E+00
 -1      1873 5.86500E+01 4.48040E+01 0.00000E+00
 -1      1874 6.24000E+01 4.61030E+01 0.00000E+00
 -1      1875 6.39000E+01 4.61030E+01 0.00000E+00
 -1      1876 6.16500E+01 4.48040E+01 0.00000E+00
 -1      1877 6.54000E+01 4.61030E+01 0.00000E+00
 -1      1878 6.69000E+01 4.61030E+01 0.00000E+00
 -1      1879 6.46500E+01 4.48040E+01 0.00000E+00
 -1      1880 6.84000E+01 4.61030E+01 0.00000E+00
 -1      1881 6.99000E+01 4.61030E+01 0.00000E+00
 -1      1882 6.76500E+01 4.48040E+01 0.00000E+00
 -1      1883 7.14000E+01 4.61030E+01 0.00000E+00
 -1      1884 7.29000E+01 4.61030E+01 0.00000E+00
 -1      1885 7.06500E+01 4.48040E+01 0.00000E+00
 -1      1886 7.44000E+01 4.61030E+01 0.00000E+00
 -1      1887 7.59000E+01 4.61030E+01 0.00000E+00
 -1      1888 7.36500E+01 4.48040E+01 0.00000E+00
 -1      1889 7.74000E+01 4.61030E+01 0.00000E+00
 -1      1890 7.89000E+01 4.61030E+01 0.00000E+00
 -1      1891 7.66500E+01 4.48040E+01 0.00000E+00
 -1      1892 8.04000E+01 4.61030E+01 0.00000E+00
 -1      1893 8.19000E+01 4.61030E+01 0.00000E+00
 -1      1894 7.96500E+01 4.48040E+01 0.00000E+00
 -1      1895 8.34000E+01 4.61030E+01 0.00000E+00
 -1      1896 8.49000E+01 4.61030E+01 0.00000E+00
 -1      1897 8.26500E+01 4.48040E+01 0.00000E+00
 -1      1898 8.64000E+01 4.61030E+01 0.00000E+00
 -1      1899 8.79000E+01 4.61030E+01 0.00000E+00
 -1      1900 8.56500E+01 4.48040E+01 0.00000E+00
 -1      1901 8.94000E+01 4.61030E+01 0.00000E+00
 -1      1902 9.09000E+01 4.61030E+01 0.00000E+00
 -1      1903 8.86500E+01 4.48040E+01 0.00000E+00
 -1      1904 9.24000E+01 4.61030E+01 0.00000E+00
 -1      1905 9.39000E+01 4.61030E+01 0.00000E+00
 -1      1906 9.16500E+01 4.48040E+01 0.00000E+00
 -1      1907 9.54000E+01 4.61030E+01 0.00000E+00
 -1      1908 9.69000E+01 4.61030E+01 0.00000E+00
 -1      1909 9.46500E+01 4.48040E+01 0.00000E+00
 -1      1910 9.84000E+01 4.61030E+01 0.00000E+00
 -1      1911 9.99000E+01 4.61030E+01 0.00000E+00
 -1      1912 9.76500E+01 4.48040E+01 0.00000E+00
 -1      1913 1.01400E+02 4.61030E+01 0.00000E+00
 -1      1914 1.02900E+02 4.61030E+01 0.00000E+00
 -1      1915 1.00650E+02 4.48040E+01 0.00000E+00
 -1      1916 1.04400E+02 4.61030E+01 0.00000E+00
 -1      1917 1.05900E+02 4.61030E+01 0.00000E+00
 -1      1918 1.03650E+02 4.48040E+01 0.00000E+00
 -1      1919 1.07400E+02 4.61030E+01 0.00000E+00
 -1      1920 1.08900E+02 4.61030E+01 0.00000E+00
 -1      1921 1.06650E+02 4.48040E+01 0.00000E+00
 -1      1922 1.10400E+02 4.61030E+01 0.00000E+00
 -1      1923 1.11900E+02 4.61030E+01 0.00000E+00
 -1      1924 1.09650E+02 4.48040E+01 0.00000E+00
 -1      1925 1.13400E+02 4.61030E+01 0.00000E+00
 -1      1926 1.14900E+02 4.61030E+01 0.00000E+00
 -1      1927 1.12650E+02 4.48040E+01 0.00000E+00
 -1      1928 1.16400E+02 4.61030E+01 0.00000E+00
 -1      1929 1.17900E+02 4.61030E+01 0.00000E+00
 -1      1930 1.15650E+02 4.48040E+01 0.00000E+00
 -1      1931 1.19400E+02 4.61030E+01 0.00000E+00
 -1      1932 1.20900E+02 4.61030E+01 0.00000E+00
 -1      1933 1.18650E+02 4.48040E+01 0.00000E+00
 -1      1934 1.22400E+02 4.61030E+01 0.00000E+00
 -1      1935 1.23900E+02 4.61030E+01 0.00000E+00
 -1      1936 1.21650E+02 4.48040E+01 0.00000E+00
 -1      1937 1.25400E+02 4.61030E+01 0.00000E+00
 -1      1938 1.26900E+02 4.61030E+01 0.00000E+00
 -1      1939 1.24650E+02 4.48040E+01 0.00000E+00
 -1      1940 1.28400E+02 4.61030E+01 0.00000E+00
 -1      1941 1.29900E+02 4.61030E+01 0.00000E+00
 -1      1942 1.27650E+02 4.48040E+01 0.00000E+00
 -1      1943 1.31400E+02 4.61030E+01 0.00000E+00
 -1      1944 1.32900E+02 4.61030E+01 0.00000E+00
 -1      1945 1.30650E+02 4.48040E+01 0.00000E+00
 -1      1946 1.34400E+02 4.61030E+01 0.00000E+00
 -1      1947 1.35900E+02 4.61030E+01 0.00000E+00
 -1      1948 1.33650E+02 4.48040E+01 0.00000E+00
 -1      1949 1.37400E+02 4.61030E+01 0.00000E+00
 -1      1950 1.38900E+02 4.61030E+01 0.00000E+00
 -1      1951 1.36650E+02 4.48040E+01 0.00000E+00
 -1      1952 1.40400E+02 4.61030E+01 0.00000E+00
 -1      1953 1.41900E+02 4.61030E+01 0.00000E+00
 -1      1954 1.39650E+02 4.48040E+01 0.00000E+00
 -1      1955 1.43244E+02 4.61616E+01 0.00000E+00
 -1      1956 1.44744E+02 4.61616E+01 0.00000E+00
 -1      1957 1.45182E+02 4.49799E+01 0.00000E+00
 -1      1958 1.42494E+02 4.48626E+01 0.00000E+00
 -1      1959 1.17045E+01 3.09687E+00 0.00000E+00
 -1      1960 1.02045E+01 3.09687E+00 0.00000E+00
 -1      1961 1.00350E+01 4.00625E+00 0.00000E+00
 -1      1962 1.47045E+01 3.09687E+00 0.00000E+00
 -1      1963 1.32045E+01 3.09687E+00 0.00000E+00
 -1      1964 1.30350E+01 4.00625E+00 0.00000E+00
 -1      1965 1.77045E+01 3.09687E+00 0.00000E+00
 -1      1966 1.62045E+01 3.09687E+00 0.00000E+00
 -1      1967 1.60350E+01 4.00625E+00 0.00000E+00
 -1      1968 2.07045E+01 3.09687E+00 0.00000E+00
 -1      1969 1.92045E+01 3.09687E+00 0.00000E+00
 -1      1970 1.90350E+01 4.00625E+00 0.00000E+00
 -1      1971 2.37045E+01 3.09687E+00 0.00000E+00
 -1      1972 2.22045E+01 3.09687E+00 0.00000E+00
 -1      1973 2.20350E+01 4.00625E+00 0.00000E+00
 -1      1974 2.67045E+01 3.09687E+00 0.00000E+00
 -1      1975 2.52045E+01 3.09687E+00 0.00000E+00
 -1      1976 2.50350E+01 4.00625E+00 0.00000E+00
 -1      1977 2.97045E+01 3.09687E+00 0.00000E+00
 -1      1978 2.82045E+01 3.09687E+00 0.00000E+00
 -1      1979 2.80350E+01 4.00625E+00 0.00000E+00
 -1      1980 3.27045E+01 3.09687E+00 0.00000E+00
 -1      1981 3.12045E+01 3.09687E+00 0.00000E+00
 -1      1982 3.10350E+01 4.00625E+00 0.00000E+00
 -1      1983 3.57045E+01 3.09687E+00 0.00000E+00
 -1      1984 3.42045E+01 3.09687E+00 0.00000E+00
 -1      1985 3.40350E+01 4.00625E+00 0.00000E+00
 -1      1986 3.87045E+01 3.09687E+00 0.00000E+00
 -1      1987 3.72045E+01 3.09687E+00 0.00000E+00
 -1      1988 3.70350E+01 4.00625E+00 0.00000E+00
 -1      1989 4.17045E+01 3.09687E+00 0.00000E+00
 -1      1990 4.02045E+01 3.09687E+00 0.00000E+00
 -1      1991 4.00350E+01 4.00625E+00 0.00000E+00
 -1      1992 4.47045E+01 3.09687E+00 0.00000E+00
 -1      1993 4.32045E+01 3.09687E+00 0.00000E+00
 -1      1994 4.30350E+01 4.00625E+00 0.00000E+00
 -1      1995 4.77045E+01 3.09687E+00 0.00000E+00
 -1      1996 4.62045E+01 3.09687E+00 0.00000E+00
 -1      1997 4.60350E+01 4.00625E+00 0.00000E+00
 -1      1998 5.07045E+01 3.09687E+00 0.00000E+00
 -1      1999 4.92045E+01 3.09687E+00 0.00000E+00
 -1      2000 4.90350E+01 4.00625E+00 0.00000E+00
 -1      2001 5.37045E+01 3.09687E+00 0.00000E+00
 -1      2002 5.22045E+01 3.09687E+00 0.00000E+00
 -1      2003 5.20350E+01 4.00625E+00 0.00000E+00
 -1      2004 5.67045E+01 3.09687E+00 0.00000E+00
 -1      2005 5.52045E+01 3.09687E+00 0.00000E+00
 -1      2006 5.50350E+01 4.00625E+00 0.00000E+00
 -1      2007 5.97045E+01 3.09687E+00 0.00000E+00
 -1      2008 5.82045E+01 3.09687E+00 0.00000E+00
 -1      2009 5.80350E+01 4.00625E+00 0.00000E+00
 -1      2010 6.27045E+01 3.09687E+00 0.00000E+00
 -1      2011 6.12045E+01 3.09687E+00 0.00000E+00
 -1      2012 6.10350E+01 4.00625E+00 0.00000E+00
 -1      2013 6.57045E+01 3.09687E+00 0.00000E+00
 -1      2014 6.42045E+01 3.09687E+00 0.00000E+00
 -1      2015 6.40350E+01 4.00625E+00 0.00000E+00
 -1      2016 6.87045E+01 3.09687E+00 0.00000E+00
 -1      2017 6.72045E+01 3.09687E+00 0.00000E+00
 -1      2018 6.70350E+01 4.00625E+00 0.00000E+00
 -1      2019 7.17045E+01 3.09687E+00 0.00000E+00
 -1      2020 7.02045E+01 3.09687E+00 0.00000E+00
 -1      2021 7.00350E+01 4.00625E+00 0.00000E+00
 -1      2022 7.47045E+01 3.09687E+00 0.00000E+00
 -1      2023 7.32045E+01 3.09687E+00 0.00000E+00
 -1      2024 7.30350E+01 4.00625E+00 0.00000E+00
 -1      2025 7.77045E+01 3.09687E+00 0.00000E+00
 -1      2026 7.62045E+01 3.09687E+00 0.00000E+00
 -1      2027 7.60350E+01 4.00625E+00 0.00000E+00
 -1      2028 8.07045E+01 3.09687E+00 0.00000E+00
 -1      2029 7.92045E+01 3.09687E+00 0.00000E+00
 -1      2030 7.90350E+01 4.00625E+00 0.00000E+00
 -1      2031 8.37045E+01 3.09687E+00 0.00000E+00
 -1      2032 8.22045E+01 3.09687E+00 0.00000E+00
 -1      2033 8.20350E+01 4.00625E+00 0.00000E+00
 -1      2034 8.67045E+01 3.09687E+00 0.00000E+00
 -1      2035 8.52045E+01 3.09687E+00 0.00000E+00
 -1      2036 8.50350E+01 4.00625E+00 0.00000E+00
 -1      2037 8.97045E+01 3.09687E+00 0.00000E+00
 -1      2038 8.82045E+01 3.09687E+00 0.00000E+00
 -1      2039 8.80350E+01 4.00625E+00 0.00000E+00
 -1      2040 9.27045E+01 3.09687E+00 0.00000E+00
 -1      2041 9.12045E+01 3.09687E+00 0.00000E+00
 -1      2042 9.10350E+01 4.00625E+00 0.00000E+00
 -1      2043 9.57045E+01 3.09687E+00 0.00000E+00
 -1      2044 9.42045E+01 3.09687E+00 0.00000E+00
 -1      2045 9.40350E+01 4.00625E+00 0.00000E+00
 -1      2046 9.87045E+01 3.09687E+00 0.00000E+00
 -1      2047 9.72045E+01 3.09687E+00 0.00000E+00
 -1      2048 9.70350E+01 4.00625E+00 0.00000E+00
 -1      2049 1.01704E+02 3.09687E+00 0.00000E+00
 -1      2050 1.00204E+02 3.09687E+00 0.00000E+00
 -1      2051 1.00035E+02 4.00625E+00 0.00000E+00
 -1      2052 1.04704E+02 3.09687E+00 0.00000E+00
 -1      2053 1.03204E+02 3.09687E+00 0.00000E+00
 -1      2054 1.03035E+02 4.00625E+00 0.00000E+00
 -1      2055 1.07704E+02 3.09687E+00 0.00000E+00
 -1      2056 1.06204E+02 3.09687E+00 0.00000E+00
 -1      2057 1.06035E+02 4.00625E+00 0.00000E+00
 -1      2058 1.10704E+02 3.09687E+00 0.00000E+00
 -1      2059 1.09204E+02 3.09687E+00 0.00000E+00
 -1      2060 1.09035E+02 4.00625E+00 0.00000E+00
 -1      2061 1.13704E+02 3.09687E+00 0.00000E+00
 -1      2062 1.12204E+02 3.09687E+00 0.00000E+00
 -1      2063 1.12035E+02 4.00625E+00 0.00000E+00
 -1      2064 1.16704E+02 3.09687E+00 0.00000E+00
 -1      2065 1.15204E+02 3.09687E+00 0.00000E+00
 -1      2066 1.15035E+02 4.00625E+00 0.00000E+00
 -1      2067 1.19704E+02 3.09687E+00 0.00000E+00
 -1      2068 1.18204E+02 3.09687E+00 0.00000E+00
 -1      2069 1.18035E+02 4.00625E+00 0.00000E+00
 -1      2070 1.22704E+02 3.09687E+00 0.00000E+00
 -1      2071 1.21204E+02 3.09687E+00 0.00000E+00
 -1      2072 1.21035E+02 4.00625E+00 0.00000E+00
 -1      2073 1.25704E+02 3.09687E+00 0.00000E+00
 -1      2074 1.24204E+02 3.09687E+00 0.00000E+00
 -1      2075 1.24035E+02 4.00625E+00 0.00000E+00
 -1      2076 1.28704E+02 3.09687E+00 0.00000E+00
 -1      2077 1.27204E+02 3.09687E+00 0.00000E+00
 -1      2078 1.27035E+02 4.00625E+00 0.00000E+00
 -1      2079 1.31704E+02 3.09687E+00 0.00000E+00
 -1      2080 1.30204E+02 3.09687E+00 0.00000E+00
 -1      2081 1.30035E+02 4.00625E+00 0.00000E+00
 -1      2082 1.34704E+02 3.09687E+00 0.00000E+00
 -1      2083 1.33204E+02 3.09687E+00 0.00000E+00
 -1      2084 1.33035E+02 4.00625E+00 0.00000E+00
 -1      2085 1.37704E+02 3.09687E+00 0.00000E+00
 -1      2086 1.36204E+02 3.09687E+00 0.00000E+00
 -1      2087 1.36035E+02 4.00625E+00 0.00000E+00
 -1      2088 1.40704E+02 3.09687E+00 0.00000E+00
 -1      2089 1.39204E+02 3.09687E+00 0.00000E+00
 -1      2090 1.39035E+02 4.00625E+00 0.00000E+00
 -1      2091 1.43704E+02 3.09687E+00 0.00000E+00
 -1      2092 1.42204E+02 3.09687E+00 0.00000E+00
 -1      2093 1.42035E+02 4.00625E+00 0.00000E+00
 -1      2094 1.46171E+02 3.20156E+00 0.00000E+00
 -1      2095 1.44671E+02 3.20156E+00 0.00000E+00
 -1      2096 1.44502E+02 4.11094E+00 0.00000E+00
 -1      2097 1.46435E+02 4.32031E+00 0.00000E+00
 -1      2098 1.46103E+02 1.25375E+01 0.00000E+00
 -1      2099 1.46103E+02 1.10625E+01 0.00000E+00
 -1      2100 1.46103E+02 9.58750E+00 0.00000E+00
 -1      2101 1.46103E+02 8.11250E+00 0.00000E+00
 -1      2102 1.44804E+02 1.03250E+01 0.00000E+00
 -1      2103 1.46269E+02 6.95391E+00 0.00000E+00
 -1      2104 1.46269E+02 5.47891E+00 0.00000E+00
 -1      2105 1.45302E+02 5.37422E+00 0.00000E+00
 -1      2106 1.44970E+02 7.69141E+00 0.00000E+00
 -1      2107 1.46103E+02 1.54375E+01 0.00000E+00
 -1      2108 1.46103E+02 1.39875E+01 0.00000E+00
 -1      2109 1.44804E+02 1.32500E+01 0.00000E+00
 -1      2110 1.46103E+02 1.83875E+01 0.00000E+00
 -1      2111 1.46103E+02 1.69125E+01 0.00000E+00
 -1      2112 1.44804E+02 1.61750E+01 0.00000E+00
 -1      2113 1.46103E+02 2.13375E+01 0.00000E+00
 -1      2114 1.46103E+02 1.98625E+01 0.00000E+00
 -1      2115 1.44804E+02 1.91250E+01 0.00000E+00
 -1      2116 1.46103E+02 2.42875E+01 0.00000E+00
 -1      2117 1.46103E+02 2.28125E+01 0.00000E+00
 -1      2118 1.44804E+02 2.20750E+01 0.00000E+00
 -1      2119 1.46103E+02 2.72375E+01 0.00000E+00
 -1      2120 1.46103E+02 2.57625E+01 0.00000E+00
 -1      2121 1.44804E+02 2.50250E+01 0.00000E+00
 -1      2122 1.46103E+02 3.01875E+01 0.00000E+00
 -1      2123 1.46103E+02 2.87125E+01 0.00000E+00
 -1      2124 1.44804E+02 2.79750E+01 0.00000E+00
 -1      2125 1.46103E+02 3.30875E+01 0.00000E+00
 -1      2126 1.46103E+02 3.16375E+01 0.00000E+00
 -1      2127 1.44804E+02 3.09000E+01 0.00000E+00
 -1      2128 1.46103E+02 3.60375E+01 0.00000E+00
 -1      2129 1.46103E+02 3.45625E+01 0.00000E+00
 -1      2130 1.44804E+02 3.38250E+01 0.00000E+00
 -1      2131 1.46103E+02 3.89875E+01 0.00000E+00
 -1      2132 1.46103E+02 3.75125E+01 0.00000E+00
 -1      2133 1.44804E+02 3.67750E+01 0.00000E+00
 -1      2134 1.46103E+02 4.19375E+01 0.00000E+00
 -1      2135 1.46103E+02 4.04625E+01 0.00000E+00
 -1      2136 1.44804E+02 3.97250E+01 0.00000E+00
 -1      2137 1.11170E+02 2.10791E+01 0.00000E+00
 -1      2138 1.11561E+02 2.18445E+01 0.00000E+00
 -1      2139 1.12089E+02 2.47236E+01 0.00000E+00
 -1      2140 1.12095E+02 2.55763E+01 0.00000E+00
 -1      2141 1.11755E+02 2.28879E+01 0.00000E+00
 -1      2142 1.11938E+02 2.37398E+01 0.00000E+00
 -1      2143 1.10213E+02 1.95240E+01 0.00000E+00
 -1      2144 1.10692E+02 2.03016E+01 0.00000E+00
 -1      2145 1.11613E+02 2.03133E+01 0.00000E+00
 -1      2146 1.08689E+02 1.79240E+01 0.00000E+00
 -1      2147 1.09456E+02 1.84725E+01 0.00000E+00
 -1      2148 3.89700E+00 3.74688E+01 0.00000E+00
 -1      2149 3.89700E+00 3.89437E+01 0.00000E+00
 -1      2150 5.19600E+00 3.96813E+01 0.00000E+00
 -1      2151 5.19600E+00 3.67438E+01 0.00000E+00
 -1      2152 1.04816E+02 1.64755E+01 0.00000E+00
 -1      2153 1.05750E+02 1.66290E+01 0.00000E+00
 -1      2154 1.02988E+02 1.61613E+01 0.00000E+00
 -1      2155 1.03878E+02 1.62609E+01 0.00000E+00
 -1      2156 1.00932E+02 1.64355E+01 0.00000E+00
 -1      2157 1.01786E+02 1.61837E+01 0.00000E+00
 -1      2158 9.92113E+01 1.70164E+01 0.00000E+00
 -1      2159 1.00071E+02 1.67260E+01 0.00000E+00
 -1      2160 1.00257E+02 1.57774E+01 0.00000E+00
 -1      2161 9.75186E+01 1.83139E+01 0.00000E+00
 -1      2162 9.82018E+01 1.77145E+01 0.00000E+00
 -1      2163 9.62391E+01 1.95178E+01 0.00000E+00
 -1      2164 9.68788E+01 1.89158E+01 0.00000E+00
 -1      2165 9.67378E+01 1.80660E+01 0.00000E+00
 -1      2166 9.52216E+01 2.12790E+01 0.00000E+00
 -1      2167 9.55734E+01 2.04851E+01 0.00000E+00
 -1      2168 9.46287E+01 2.29401E+01 0.00000E+00
 -1      2169 9.49212E+01 2.21360E+01 0.00000E+00
 -1      2170 9.43255E+01 2.48047E+01 0.00000E+00
 -1      2171 9.44059E+01 2.39375E+01 0.00000E+00
 -1      2172 9.43450E+01 2.66848E+01 0.00000E+00
 -1      2173 9.42768E+01 2.57955E+01 0.00000E+00
 -1      2174 9.48675E+01 2.86231E+01 0.00000E+00
 -1      2175 9.45879E+01 2.77199E+01 0.00000E+00
 -1      2176 9.59381E+01 3.03985E+01 0.00000E+00
 -1      2177 9.53558E+01 2.97008E+01 0.00000E+00
 -1      2178 9.71777E+01 3.16067E+01 0.00000E+00
 -1      2179 9.66100E+01 3.10221E+01 0.00000E+00
 -1      2180 9.85386E+01 3.26551E+01 0.00000E+00
 -1      2181 9.78857E+01 3.22060E+01 0.00000E+00
 -1      2182 1.00051E+02 3.34497E+01 0.00000E+00
 -1      2183 9.93232E+01 3.31362E+01 0.00000E+00
 -1      2184 1.01703E+02 3.38998E+01 0.00000E+00
 -1      2185 1.00928E+02 3.37312E+01 0.00000E+00
 -1      2186 1.03402E+02 3.41071E+01 0.00000E+00
 -1      2187 1.02615E+02 3.40914E+01 0.00000E+00
 -1      2188 1.05049E+02 3.39792E+01 0.00000E+00
 -1      2189 1.04225E+02 3.40432E+01 0.00000E+00
 -1      2190 1.03816E+02 3.48089E+01 0.00000E+00
 -1      2191 1.06918E+02 3.32354E+01 0.00000E+00
 -1      2192 1.06155E+02 3.36294E+01 0.00000E+00
 -1      2193 1.08375E+02 3.23707E+01 0.00000E+00
 -1      2194 1.07646E+02 3.28031E+01 0.00000E+00
 -1      2195 1.07582E+02 3.36130E+01 0.00000E+00
 -1      2196 1.09802E+02 3.11419E+01 0.00000E+00
 -1      2197 1.09256E+02 3.17478E+01 0.00000E+00
 -1      2198 1.10730E+02 2.97129E+01 0.00000E+00
 -1      2199 1.10291E+02 3.03756E+01 0.00000E+00
 -1      2200 1.11656E+02 2.82565E+01 0.00000E+00
 -1      2201 1.11353E+02 2.89867E+01 0.00000E+00
 -1      2202 1.12049E+02 2.67008E+01 0.00000E+00
 -1      2203 1.11852E+02 2.74787E+01 0.00000E+00
 -1      2204 1.12493E+02 2.81720E+01 0.00000E+00
 -1      2205 1.07036E+02 1.68952E+01 0.00000E+00
 -1      2206 1.07863E+02 1.74096E+01 0.00000E+00
 -1      2207 1.08794E+02 1.69182E+01 0.00000E+00
 -1      2208 1.10378E+02 1.84842E+01 0.00000E+00
 -1      2209 6.42300E+00 4.57510E+01 0.00000E+00
 -1      2210 1.06681E+02 1.61376E+01 0.00000E+00
 -1      2211 7.17300E+00 4.44520E+01 0.00000E+00
 -1      2212 1.12286E+02 2.21343E+01 0.00000E+00
 -1      2213 1.12631E+02 2.41614E+01 0.00000E+00
 -1      2214 1.45665E+02 4.31193E+01 0.00000E+00
 -1      2215 1.12736E+02 2.62697E+01 0.00000E+00
 -1      2216 1.11674E+02 2.96760E+01 0.00000E+00
 -1      2217 1.09191E+02 3.25578E+01 0.00000E+00
 -1      2218 1.05747E+02 3.43952E+01 0.00000E+00
 -1      2219 1.02081E+02 3.46813E+01 0.00000E+00
 -1      2220 1.00291E+02 3.42081E+01 0.00000E+00
 -1      2221 9.86295E+01 3.34456E+01 0.00000E+00
 -1      2222 9.71369E+01 3.23652E+01 0.00000E+00
 -1      2223 9.57570E+01 3.11423E+01 0.00000E+00
 -1      2224 9.45968E+01 2.94409E+01 0.00000E+00
 -1      2225 9.38379E+01 2.91810E+01 0.00000E+00
 -1      2226 9.43261E+01 3.02588E+01 0.00000E+00
 -1      2227 9.38658E+01 2.73281E+01 0.00000E+00
 -1      2228 9.36717E+01 2.53021E+01 0.00000E+00
 -1      2229 9.39432E+01 2.33139E+01 0.00000E+00
 -1      2230 9.54324E+01 1.96352E+01 0.00000E+00
 -1      2231 9.83870E+01 1.67660E+01 0.00000E+00
 -1      2232 1.04457E+02 1.56568E+01 0.00000E+00
 -1      2233 1.02318E+02 1.54645E+01 0.00000E+00
 -1      2234 9.44663E+01 2.14595E+01 0.00000E+00
 -1      2235 1.10562E+02 3.11686E+01 0.00000E+00
 -1      2236 1.07850E+01 5.30525E+00 0.00000E+00
 -1      2237 9.28500E+00 5.30525E+00 0.00000E+00
 -1      2238 6.49500E+00 3.01125E+01 0.00000E+00
 -1      2239 6.49500E+00 3.15875E+01 0.00000E+00
 -1      2240 6.49500E+00 3.30625E+01 0.00000E+00
 -1      2241 6.49500E+00 3.45375E+01 0.00000E+00
 -1      2242 7.79400E+00 3.23250E+01 0.00000E+00
 -1      2243 6.49500E+00 2.42125E+01 0.00000E+00
 -1      2244 6.49500E+00 2.56875E+01 0.00000E+00
 -1      2245 6.49500E+00 2.12625E+01 0.00000E+00
 -1      2246 6.49500E+00 2.27375E+01 0.00000E+00
 -1      2247 7.79400E+00 2.34750E+01 0.00000E+00
 -1      2248 6.49500E+00 1.83625E+01 0.00000E+00
 -1      2249 6.49500E+00 1.98125E+01 0.00000E+00
 -1      2250 7.79400E+00 2.05500E+01 0.00000E+00
 -1      2251 6.49500E+00 1.54125E+01 0.00000E+00
 -1      2252 6.49500E+00 1.68875E+01 0.00000E+00
 -1      2253 7.79400E+00 1.76250E+01 0.00000E+00
 -1      2254 6.49500E+00 1.24625E+01 0.00000E+00
 -1      2255 6.49500E+00 1.39375E+01 0.00000E+00
 -1      2256 7.79400E+00 1.46750E+01 0.00000E+00
 -1      2257 6.49500E+00 9.51250E+00 0.00000E+00
 -1      2258 6.49500E+00 1.09875E+01 0.00000E+00
 -1      2259 7.79400E+00 1.17250E+01 0.00000E+00
 -1      2260 1.37850E+01 5.30525E+00 0.00000E+00
 -1      2261 1.22850E+01 5.30525E+00 0.00000E+00
 -1      2262 1.15350E+01 6.60425E+00 0.00000E+00
 -1      2263 9.90000E+00 4.35050E+01 0.00000E+00
 -1      2264 1.14000E+01 4.35050E+01 0.00000E+00
 -1      2265 1.06212E+02 1.51647E+01 0.00000E+00
 -1      2266 1.07498E+02 1.54309E+01 0.00000E+00
 -1      2267 1.29000E+01 4.35050E+01 0.00000E+00
 -1      2268 1.44000E+01 4.35050E+01 0.00000E+00
 -1      2269 1.21500E+01 4.22060E+01 0.00000E+00
 -1      2270 1.59000E+01 4.35050E+01 0.00000E+00
 -1      2271 1.74000E+01 4.35050E+01 0.00000E+00
 -1      2272 1.51500E+01 4.22060E+01 0.00000E+00
 -1      2273 1.89000E+01 4.35050E+01 0.00000E+00
 -1      2274 2.04000E+01 4.35050E+01 0.00000E+00
 -1      2275 1.81500E+01 4.22060E+01 0.00000E+00
 -1      2276 2.19000E+01 4.35050E+01 0.00000E+00
 -1      2277 2.34000E+01 4.35050E+01 0.00000E+00
 -1      2278 2.11500E+01 4.22060E+01 0.00000E+00
 -1      2279 2.49000E+01 4.35050E+01 0.00000E+00
 -1      2280 2.64000E+01 4.35050E+01 0.00000E+00
 -1      2281 2.41500E+01 4.22060E+01 0.00000E+00
 -1      2282 2.79000E+01 4.35050E+01 0.00000E+00
 -1      2283 2.94000E+01 4.35050E+01 0.00000E+00
 -1      2284 2.71500E+01 4.22060E+01 0.00000E+00
 -1      2285 3.09000E+01 4.35050E+01 0.00000E+00
 -1      2286 3.24000E+01 4.35050E+01 0.00000E+00
 -1      2287 3.01500E+01 4.22060E+01 0.00000E+00
 -1      2288 3.39000E+01 4.35050E+01 0.00000E+00
 -1      2289 3.54000E+01 4.35050E+01 0.00000E+00
 -1      2290 3.31500E+01 4.22060E+01 0.00000E+00
 -1      2291 3.69000E+01 4.35050E+01 0.00000E+00
 -1      2292 3.84000E+01 4.35050E+01 0.00000E+00
 -1      2293 3.61500E+01 4.22060E+01 0.00000E+00
 -1      2294 3.99000E+01 4.35050E+01 0.00000E+00
 -1      2295 4.14000E+01 4.35050E+01 0.00000E+00
 -1      2296 3.91500E+01 4.22060E+01 0.00000E+00
 -1      2297 4.29000E+01 4.35050E+01 0.00000E+00
 -1      2298 4.44000E+01 4.35050E+01 0.00000E+00
 -1      2299 4.21500E+01 4.22060E+01 0.00000E+00
 -1      2300 4.59000E+01 4.35050E+01 0.00000E+00
 -1      2301 4.74000E+01 4.35050E+01 0.00000E+00
 -1      2302 4.51500E+01 4.22060E+01 0.00000E+00
 -1      2303 4.89000E+01 4.35050E+01 0.00000E+00
 -1      2304 5.04000E+01 4.35050E+01 0.00000E+00
 -1      2305 4.81500E+01 4.22060E+01 0.00000E+00
 -1      2306 5.19000E+01 4.35050E+01 0.00000E+00
 -1      2307 5.34000E+01 4.35050E+01 0.00000E+00
 -1      2308 5.11500E+01 4.22060E+01 0.00000E+00
 -1      2309 5.49000E+01 4.35050E+01 0.00000E+00
 -1      2310 5.64000E+01 4.35050E+01 0.00000E+00
 -1      2311 5.41500E+01 4.22060E+01 0.00000E+00
 -1      2312 5.79000E+01 4.35050E+01 0.00000E+00
 -1      2313 5.94000E+01 4.35050E+01 0.00000E+00
 -1      2314 5.71500E+01 4.22060E+01 0.00000E+00
 -1      2315 6.09000E+01 4.35050E+01 0.00000E+00
 -1      2316 6.24000E+01 4.35050E+01 0.00000E+00
 -1      2317 6.01500E+01 4.22060E+01 0.00000E+00
 -1      2318 6.39000E+01 4.35050E+01 0.00000E+00
 -1      2319 6.54000E+01 4.35050E+01 0.00000E+00
 -1      2320 6.31500E+01 4.22060E+01 0.00000E+00
 -1      2321 6.69000E+01 4.35050E+01 0.00000E+00
 -1      2322 6.84000E+01 4.35050E+01 0.00000E+00
 -1      2323 6.61500E+01 4.22060E+01 0.00000E+00
 -1      2324 6.99000E+01 4.35050E+01 0.00000E+00
 -1      2325 7.14000E+01 4.35050E+01 0.00000E+00
 -1      2326 6.91500E+01 4.22060E+01 0.00000E+00
 -1      2327 7.29000E+01 4.35050E+01 0.00000E+00
 -1      2328 7.44000E+01 4.35050E+01 0.00000E+00
 -1      2329 7.21500E+01 4.22060E+01 0.00000E+00
 -1      2330 7.59000E+01 4.35050E+01 0.00000E+00
 -1      2331 7.74000E+01 4.35050E+01 0.00000E+00
 -1      2332 7.51500E+01 4.22060E+01 0.00000E+00
 -1      2333 7.89000E+01 4.35050E+01 0.00000E+00
 -1      2334 8.04000E+01 4.35050E+01 0.00000E+00
 -1      2335 7.81500E+01 4.22060E+01 0.00000E+00
 -1      2336 8.19000E+01 4.35050E+01 0.00000E+00
 -1      2337 8.34000E+01 4.35050E+01 0.00000E+00
 -1      2338 8.11500E+01 4.22060E+01 0.00000E+00
 -1      2339 8.49000E+01 4.35050E+01 0.00000E+00
 -1      2340 8.64000E+01 4.35050E+01 0.00000E+00
 -1      2341 8.41500E+01 4.22060E+01 0.00000E+00
 -1      2342 8.79000E+01 4.35050E+01 0.00000E+00
 -1      2343 8.94000E+01 4.35050E+01 0.00000E+00
 -1      2344 8.71500E+01 4.22060E+01 0.00000E+00
 -1      2345 9.09000E+01 4.35050E+01 0.00000E+00
 -1      2346 9.24000E+01 4.35050E+01 0.00000E+00
 -1      2347 9.01500E+01 4.22060E+01 0.00000E+00
 -1      2348 9.39000E+01 4.35050E+01 0.00000E+00
 -1      2349 9.54000E+01 4.35050E+01 0.00000E+00
 -1      2350 9.31500E+01 4.22060E+01 0.00000E+00
 -1      2351 9.69000E+01 4.35050E+01 0.00000E+00
 -1      2352 9.84000E+01 4.35050E+01 0.00000E+00
 -1      2353 9.61500E+01 4.22060E+01 0.00000E+00
 -1      2354 9.99000E+01 4.35050E+01 0.00000E+00
 -1      2355 1.01400E+02 4.35050E+01 0.00000E+00
 -1      2356 9.91500E+01 4.22060E+01 0.00000E+00
 -1      2357 1.02900E+02 4.35050E+01 0.00000E+00
 -1      2358 1.04400E+02 4.35050E+01 0.00000E+00
 -1      2359 1.02150E+02 4.22060E+01 0.00000E+00
 -1      2360 1.05900E+02 4.35050E+01 0.00000E+00
 -1      2361 1.07400E+02 4.35050E+01 0.00000E+00
 -1      2362 1.05150E+02 4.22060E+01 0.00000E+00
 -1      2363 1.08900E+02 4.35050E+01 0.00000E+00
 -1      2364 1.10400E+02 4.35050E+01 0.00000E+00
 -1      2365 1.08150E+02 4.22060E+01 0.00000E+00
 -1      2366 1.11900E+02 4.35050E+01 0.00000E+00
 -1      2367 1.13400E+02 4.35050E+01 0.00000E+00
 -1      2368 1.11150E+02 4.22060E+01 0.00000E+00
 -1      2369 1.14900E+02 4.35050E+01 0.00000E+00
 -1      2370 1.16400E+02 4.35050E+01 0.00000E+00
 -1      2371 1.14150E+02 4.22060E+01 0.00000E+00
 -1      2372 1.17900E+02 4.35050E+01 0.00000E+00
 -1      2373 1.19400E+02 4.35050E+01 0.00000E+00
 -1      2374 1.17150E+02 4.22060E+01 0.00000E+00
 -1      2375 1.20900E+02 4.35050E+01 0.00000E+00
 -1      2376 1.22400E+02 4.35050E+01 0.00000E+00
 -1      2377 1.20150E+02 4.22060E+01 0.00000E+00
 -1      2378 1.23900E+02 4.35050E+01 0.00000E+00
 -1      2379 1.25400E+02 4.35050E+01 0.00000E+00
 -1      2380 1.23150E+02 4.22060E+01 0.00000E+00
 -1      2381 1.26900E+02 4.35050E+01 0.00000E+00
 -1      2382 1.28400E+02 4.35050E+01 0.00000E+00
 -1      2383 1.26150E+02 4.22060E+01 0.00000E+00
 -1      2384 1.29900E+02 4.35050E+01 0.00000E+00
 -1      2385 1.31400E+02 4.35050E+01 0.00000E+00
 -1      2386 1.29150E+02 4.22060E+01 0.00000E+00
 -1      2387 1.32900E+02 4.35050E+01 0.00000E+00
 -1      2388 1.34400E+02 4.35050E+01 0.00000E+00
 -1      2389 1.32150E+02 4.22060E+01 0.00000E+00
 -1      2390 1.35900E+02 4.35050E+01 0.00000E+00
 -1      2391 1.37400E+02 4.35050E+01 0.00000E+00
 -1      2392 1.35150E+02 4.22060E+01 0.00000E+00
 -1      2393 1.38900E+02 4.35050E+01 0.00000E+00
 -1      2394 1.40400E+02 4.35050E+01 0.00000E+00
 -1      2395 1.38150E+02 4.22060E+01 0.00000E+00
 -1      2396 1.97850E+01 5.30525E+00 0.00000E+00
 -1      2397 1.82850E+01 5.30525E+00 0.00000E+00
 -1      2398 2.27850E+01 5.30525E+00 0.00000E+00
 -1      2399 2.12850E+01 5.30525E+00 0.00000E+00
 -1      2400 2.05350E+01 6.60425E+00 0.00000E+00
 -1      2401 2.57850E+01 5.30525E+00 0.00000E+00
 -1      2402 2.42850E+01 5.30525E+00 0.00000E+00
 -1      2403 2.35350E+01 6.60425E+00 0.00000E+00
 -1      2404 2.87850E+01 5.30525E+00 0.00000E+00
 -1      2405 2.72850E+01 5.30525E+00 0.00000E+00
 -1      2406 2.65350E+01 6.60425E+00 0.00000E+00
 -1      2407 3.17850E+01 5.30525E+00 0.00000E+00
 -1      2408 3.02850E+01 5.30525E+00 0.00000E+00
 -1      2409 2.95350E+01 6.60425E+00 0.00000E+00
 -1      2410 3.47850E+01 5.30525E+00 0.00000E+00
 -1      2411 3.32850E+01 5.30525E+00 0.00000E+00
 -1      2412 3.25350E+01 6.60425E+00 0.00000E+00
 -1      2413 3.77850E+01 5.30525E+00 0.00000E+00
 -1      2414 3.62850E+01 5.30525E+00 0.00000E+00
 -1      2415 3.55350E+01 6.60425E+00 0.00000E+00
 -1      2416 4.07850E+01 5.30525E+00 0.00000E+00
 -1      2417 3.92850E+01 5.30525E+00 0.00000E+00
 -1      2418 3.85350E+01 6.60425E+00 0.00000E+00
 -1      2419 4.37850E+01 5.30525E+00 0.00000E+00
 -1      2420 4.22850E+01 5.30525E+00 0.00000E+00
 -1      2421 4.15350E+01 6.60425E+00 0.00000E+00
 -1      2422 4.67850E+01 5.30525E+00 0.00000E+00
 -1      2423 4.52850E+01 5.30525E+00 0.00000E+00
 -1      2424 4.45350E+01 6.60425E+00 0.00000E+00
 -1      2425 4.97850E+01 5.30525E+00 0.00000E+00
 -1      2426 4.82850E+01 5.30525E+00 0.00000E+00
 -1      2427 4.75350E+01 6.60425E+00 0.00000E+00
 -1      2428 5.27850E+01 5.30525E+00 0.00000E+00
 -1      2429 5.12850E+01 5.30525E+00 0.00000E+00
 -1      2430 5.05350E+01 6.60425E+00 0.00000E+00
 -1      2431 5.57850E+01 5.30525E+00 0.00000E+00
 -1      2432 5.42850E+01 5.30525E+00 0.00000E+00
 -1      2433 5.35350E+01 6.60425E+00 0.00000E+00
 -1      2434 5.87850E+01 5.30525E+00 0.00000E+00
 -1      2435 5.72850E+01 5.30525E+00 0.00000E+00
 -1      2436 5.65350E+01 6.60425E+00 0.00000E+00
 -1      2437 6.17850E+01 5.30525E+00 0.00000E+00
 -1      2438 6.02850E+01 5.30525E+00 0.00000E+00
 -1      2439 5.95350E+01 6.60425E+00 0.00000E+00
 -1      2440 6.47850E+01 5.30525E+00 0.00000E+00
 -1      2441 6.32850E+01 5.30525E+00 0.00000E+00
 -1      2442 6.25350E+01 6.60425E+00 0.00000E+00
 -1      2443 6.77850E+01 5.30525E+00 0.00000E+00
 -1      2444 6.62850E+01 5.30525E+00 0.00000E+00
 -1      2445 6.55350E+01 6.60425E+00 0.00000E+00
 -1      2446 7.07850E+01 5.30525E+00 0.00000E+00
 -1      2447 6.92850E+01 5.30525E+00 0.00000E+00
 -1      2448 6.85350E+01 6.60425E+00 0.00000E+00
 -1      2449 7.37850E+01 5.30525E+00 0.00000E+00
 -1      2450 7.22850E+01 5.30525E+00 0.00000E+00
 -1      2451 7.15350E+01 6.60425E+00 0.00000E+00
 -1      2452 7.67850E+01 5.30525E+00 0.00000E+00
 -1      2453 7.52850E+01 5.30525E+00 0.00000E+00
 -1      2454 7.45350E+01 6.60425E+00 0.00000E+00
 -1      2455 7.97850E+01 5.30525E+00 0.00000E+00
 -1      2456 7.82850E+01 5.30525E+00 0.00000E+00
 -1      2457 7.75350E+01 6.60425E+00 0.00000E+00
 -1      2458 8.27850E+01 5.30525E+00 0.00000E+00
 -1      2459 8.12850E+01 5.30525E+00 0.00000E+00
 -1      2460 8.05350E+01 6.60425E+00 0.00000E+00
 -1      2461 8.57850E+01 5.30525E+00 0.00000E+00
 -1      2462 8.42850E+01 5.30525E+00 0.00000E+00
 -1      2463 8.35350E+01 6.60425E+00 0.00000E+00
 -1      2464 8.87850E+01 5.30525E+00 0.00000E+00
 -1      2465 8.72850E+01 5.30525E+00 0.00000E+00
 -1      2466 8.65350E+01 6.60425E+00 0.00000E+00
 -1      2467 9.17850E+01 5.30525E+00 0.00000E+00
 -1      2468 9.02850E+01 5.30525E+00 0.00000E+00
 -1      2469 8.95350E+01 6.60425E+00 0.00000E+00
 -1      2470 9.47850E+01 5.30525E+00 0.00000E+00
 -1      2471 9.32850E+01 5.30525E+00 0.00000E+00
 -1      2472 9.25350E+01 6.60425E+00 0.00000E+00
 -1      2473 9.77850E+01 5.30525E+00 0.00000E+00
 -1      2474 9.62850E+01 5.30525E+00 0.00000E+00
 -1      2475 9.55350E+01 6.60425E+00 0.00000E+00
 -1      2476 1.00785E+02 5.30525E+00 0.00000E+00
 -1      2477 9.92850E+01 5.30525E+00 0.00000E+00
 -1      2478 9.85350E+01 6.60425E+00 0.00000E+00
 -1      2479 1.03785E+02 5.30525E+00 0.00000E+00
 -1      2480 1.02285E+02 5.30525E+00 0.00000E+00
 -1      2481 1.01535E+02 6.60425E+00 0.00000E+00
 -1      2482 1.06785E+02 5.30525E+00 0.00000E+00
 -1      2483 1.05285E+02 5.30525E+00 0.00000E+00
 -1      2484 1.04535E+02 6.60425E+00 0.00000E+00
 -1      2485 1.09785E+02 5.30525E+00 0.00000E+00
 -1      2486 1.08285E+02 5.30525E+00 0.00000E+00
 -1      2487 1.07535E+02 6.60425E+00 0.00000E+00
 -1      2488 1.12785E+02 5.30525E+00 0.00000E+00
 -1      2489 1.11285E+02 5.30525E+00 0.00000E+00
 -1      2490 1.10535E+02 6.60425E+00 0.00000E+00
 -1      2491 1.15785E+02 5.30525E+00 0.00000E+00
 -1      2492 1.14285E+02 5.30525E+00 0.00000E+00
 -1      2493 1.13535E+02 6.60425E+00 0.00000E+00
 -1      2494 1.18785E+02 5.30525E+00 0.00000E+00
 -1      2495 1.17285E+02 5.30525E+00 0.00000E+00
 -1      2496 1.16535E+02 6.60425E+00 0.00000E+00
 -1      2497 1.21785E+02 5.30525E+00 0.00000E+00
 -1      2498 1.20285E+02 5.30525E+00 0.00000E+00
 -1      2499 1.19535E+02 6.60425E+00 0.00000E+00
 -1      2500 1.24785E+02 5.30525E+00 0.00000E+00
 -1      2501 1.23285E+02 5.30525E+00 0.00000E+00
 -1      2502 1.22535E+02 6.60425E+00 0.00000E+00
 -1      2503 1.27785E+02 5.30525E+00 0.00000E+00
 -1      2504 1.26285E+02 5.30525E+00 0.00000E+00
 -1      2505 1.25535E+02 6.60425E+00 0.00000E+00
 -1      2506 1.30785E+02 5.30525E+00 0.00000E+00
 -1      2507 1.29285E+02 5.30525E+00 0.00000E+00
 -1      2508 1.28535E+02 6.60425E+00 0.00000E+00
 -1      2509 1.33785E+02 5.30525E+00 0.00000E+00
 -1      2510 1.32285E+02 5.30525E+00 0.00000E+00
 -1      2511 1.31535E+02 6.60425E+00 0.00000E+00
 -1      2512 1.36785E+02 5.30525E+00 0.00000E+00
 -1      2513 1.35285E+02 5.30525E+00 0.00000E+00
 -1      2514 1.34535E+02 6.60425E+00 0.00000E+00
 -1      2515 1.39785E+02 5.30525E+00 0.00000E+00
 -1      2516 1.38285E+02 5.30525E+00 0.00000E+00
 -1      2517 1.37535E+02 6.60425E+00 0.00000E+00
 -1      2518 1.42785E+02 5.30525E+00 0.00000E+00
 -1      2519 1.41285E+02 5.30525E+00 0.00000E+00
 -1      2520 1.40535E+02 6.60425E+00 0.00000E+00
 -1      2521 1.44336E+02 5.26953E+00 0.00000E+00
 -1      2522 1.43505E+02 1.69125E+01 0.00000E+00
 -1      2523 1.43505E+02 1.54375E+01 0.00000E+00
 -1      2524 1.43505E+02 1.98625E+01 0.00000E+00
 -1      2525 1.43505E+02 1.83875E+01 0.00000E+00
 -1      2526 1.42206E+02 1.76500E+01 0.00000E+00
 -1      2527 1.43505E+02 1.10625E+01 0.00000E+00
 -1      2528 1.43505E+02 9.58750E+00 0.00000E+00
 -1      2529 1.43505E+02 1.39750E+01 0.00000E+00
 -1      2530 1.43505E+02 1.25250E+01 0.00000E+00
 -1      2531 1.42206E+02 1.17875E+01 0.00000E+00
 -1      2532 1.42206E+02 1.47125E+01 0.00000E+00
 -1      2533 1.43505E+02 2.28125E+01 0.00000E+00
 -1      2534 1.43505E+02 2.13375E+01 0.00000E+00
 -1      2535 1.42206E+02 2.06000E+01 0.00000E+00
 -1      2536 1.43505E+02 2.57625E+01 0.00000E+00
 -1      2537 1.43505E+02 2.42875E+01 0.00000E+00
 -1      2538 1.42206E+02 2.35500E+01 0.00000E+00
 -1      2539 1.43505E+02 2.87125E+01 0.00000E+00
 -1      2540 1.43505E+02 2.72375E+01 0.00000E+00
 -1      2541 1.42206E+02 2.65000E+01 0.00000E+00
 -1      2542 1.43505E+02 3.16125E+01 0.00000E+00
 -1      2543 1.43505E+02 3.01625E+01 0.00000E+00
 -1      2544 1.42206E+02 2.94250E+01 0.00000E+00
 -1      2545 1.43505E+02 3.45625E+01 0.00000E+00
 -1      2546 1.43505E+02 3.30875E+01 0.00000E+00
 -1      2547 1.42206E+02 3.23500E+01 0.00000E+00
 -1      2548 1.43505E+02 3.75125E+01 0.00000E+00
 -1      2549 1.43505E+02 3.60375E+01 0.00000E+00
 -1      2550 1.42206E+02 3.53000E+01 0.00000E+00
 -1      2551 1.43505E+02 4.04625E+01 0.00000E+00
 -1      2552 1.43505E+02 3.89875E+01 0.00000E+00
 -1      2553 1.42206E+02 3.82500E+01 0.00000E+00
 -1      2554 1.13279E+02 2.35586E+01 0.00000E+00
 -1      2555 1.13430E+02 2.45424E+01 0.00000E+00
 -1      2556 1.12950E+02 2.14710E+01 0.00000E+00
 -1      2557 1.13144E+02 2.25144E+01 0.00000E+00
 -1      2558 1.13490E+02 2.57374E+01 0.00000E+00
 -1      2559 1.13444E+02 2.68619E+01 0.00000E+00
 -1      2560 1.67850E+01 5.30525E+00 0.00000E+00
 -1      2561 1.52850E+01 5.30525E+00 0.00000E+00
 -1      2562 1.75350E+01 6.60425E+00 0.00000E+00
 -1      2563 1.44321E+02 4.30606E+01 0.00000E+00
 -1      2564 1.12069E+02 1.94970E+01 0.00000E+00
 -1      2565 1.12547E+02 2.02746E+01 0.00000E+00
 -1      2566 1.10627E+02 1.75061E+01 0.00000E+00
 -1      2567 1.11384E+02 1.85576E+01 0.00000E+00
 -1      2568 1.12700E+02 2.99258E+01 0.00000E+00
 -1      2569 1.12077E+02 3.06520E+01 0.00000E+00
 -1      2570 1.08922E+02 1.57907E+01 0.00000E+00
 -1      2571 1.09749E+02 1.63051E+01 0.00000E+00
 -1      2572 1.02378E+02 3.55343E+01 0.00000E+00
 -1      2573 1.01466E+02 3.53427E+01 0.00000E+00
 -1      2574 1.04160E+02 1.47952E+01 0.00000E+00
 -1      2575 1.05099E+02 1.50098E+01 0.00000E+00
 -1      2576 6.49500E+00 2.71625E+01 0.00000E+00
 -1      2577 6.49500E+00 2.86375E+01 0.00000E+00
 -1      2578 7.79400E+00 2.93750E+01 0.00000E+00
 -1      2579 7.79400E+00 2.64250E+01 0.00000E+00
 -1      2580 1.01703E+02 1.47021E+01 0.00000E+00
 -1      2581 1.02904E+02 1.46797E+01 0.00000E+00
 -1      2582 9.36255E+01 2.16459E+01 0.00000E+00
 -1      2583 9.39258E+01 2.07889E+01 0.00000E+00
 -1      2584 9.95253E+01 1.50308E+01 0.00000E+00
 -1      2585 1.00385E+02 1.47404E+01 0.00000E+00
 -1      2586 9.74183E+01 1.64441E+01 0.00000E+00
 -1      2587 9.84278E+01 1.57460E+01 0.00000E+00
 -1      2588 9.57154E+01 1.76203E+01 0.00000E+00
 -1      2589 9.63552E+01 1.70184E+01 0.00000E+00
 -1      2590 1.11588E+02 3.14183E+01 0.00000E+00
 -1      2591 1.11098E+02 3.21846E+01 0.00000E+00
 -1      2592 1.12614E+02 3.16680E+01 0.00000E+00
 -1      2593 9.43841E+01 1.95550E+01 0.00000E+00
 -1      2594 9.50498E+01 1.85876E+01 0.00000E+00
 -1      2595 9.46672E+01 1.75401E+01 0.00000E+00
 -1      2596 9.30766E+01 2.36439E+01 0.00000E+00
 -1      2597 9.32994E+01 2.26465E+01 0.00000E+00
 -1      2598 9.28326E+01 2.57574E+01 0.00000E+00
 -1      2599 9.28813E+01 2.47666E+01 0.00000E+00
 -1      2600 9.32747E+01 2.80128E+01 0.00000E+00
 -1      2601 9.30318E+01 2.69776E+01 0.00000E+00
 -1      2602 9.55666E+01 3.20212E+01 0.00000E+00
 -1      2603 9.48947E+01 3.13976E+01 0.00000E+00
 -1      2604 9.69825E+01 3.32199E+01 0.00000E+00
 -1      2605 9.62746E+01 3.26206E+01 0.00000E+00
 -1      2606 9.54122E+01 3.28759E+01 0.00000E+00
 -1      2607 9.85736E+01 3.44172E+01 0.00000E+00
 -1      2608 9.77890E+01 3.39362E+01 0.00000E+00
 -1      2609 1.00494E+02 3.50857E+01 0.00000E+00
 -1      2610 9.96164E+01 3.48041E+01 0.00000E+00
 -1      2611 1.04285E+02 3.55066E+01 0.00000E+00
 -1      2612 1.03461E+02 3.55706E+01 0.00000E+00
 -1      2613 1.06533E+02 3.49581E+01 0.00000E+00
 -1      2614 1.05426E+02 3.53079E+01 0.00000E+00
 -1      2615 1.08384E+02 3.41343E+01 0.00000E+00
 -1      2616 1.07655E+02 3.45666E+01 0.00000E+00
 -1      2617 1.10146E+02 3.28885E+01 0.00000E+00
 -1      2618 1.09265E+02 3.35114E+01 0.00000E+00
 -1      2619 1.09338E+02 3.44650E+01 0.00000E+00
 -1      2620 1.13504E+02 2.80138E+01 0.00000E+00
 -1      2621 1.13308E+02 2.87916E+01 0.00000E+00
 -1      2622 6.55950E+00 4.28890E+01 0.00000E+00
 -1      2623 8.53650E+00 4.32410E+01 0.00000E+00
 -1      2624 9.28650E+00 4.19420E+01 0.00000E+00
 -1      2625 6.55950E+00 4.14140E+01 0.00000E+00
 -1      2626 8.07525E+00 5.11044E+00 0.00000E+00
 -1      2627 6.57525E+00 5.11044E+00 0.00000E+00
 -1      2628 6.40575E+00 6.01981E+00 0.00000E+00
 -1      2629 8.82525E+00 6.40944E+00 0.00000E+00
 -1      2630 1.03546E+02 1.40327E+01 0.00000E+00
 -1      2631 7.79400E+00 3.52687E+01 0.00000E+00
 -1      2632 6.49500E+00 3.60062E+01 0.00000E+00
 -1      2633 6.49500E+00 3.74750E+01 0.00000E+00
 -1      2634 1.45350E+01 6.60425E+00 0.00000E+00
 -1      2635 6.40575E+00 7.49481E+00 0.00000E+00
 -1      2636 1.05071E+02 3.60695E+01 0.00000E+00
 -1      2637 1.00791E+02 3.59387E+01 0.00000E+00
 -1      2638 1.08453E+02 1.48179E+01 0.00000E+00
 -1      2639 9.69266E+01 3.41915E+01 0.00000E+00
 -1      2640 1.13405E+02 2.06548E+01 0.00000E+00
 -1      2641 9.30039E+01 2.88306E+01 0.00000E+00
 -1      2642 9.21700E+01 2.84802E+01 0.00000E+00
 -1      2643 9.27332E+01 2.96484E+01 0.00000E+00
 -1      2644 1.43586E+02 6.56853E+00 0.00000E+00
 -1      2645 1.43419E+02 7.72713E+00 0.00000E+00
 -1      2646 9.22415E+01 2.64422E+01 0.00000E+00
 -1      2647 1.14138E+02 2.51346E+01 0.00000E+00
 -1      2648 1.13943E+02 2.28954E+01 0.00000E+00
 -1      2649 1.14258E+02 2.74814E+01 0.00000E+00
 -1      2650 7.70475E+00 8.23231E+00 0.00000E+00
 -1      2651 1.10755E+02 1.63786E+01 0.00000E+00
 -1      2652 9.27589E+01 2.19759E+01 0.00000E+00
 -1      2653 1.12318E+02 1.85190E+01 0.00000E+00
 -1      2654 6.55950E+00 3.99453E+01 0.00000E+00
 -1      2655 1.11172E+02 3.31382E+01 0.00000E+00
 -1      2656 1.13711E+02 2.97675E+01 0.00000E+00
 -1      2657 9.63960E+01 1.59985E+01 0.00000E+00
 -1      2658 9.85567E+01 1.47090E+01 0.00000E+00
 -1      2659 1.05915E+02 1.43031E+01 0.00000E+00
 -1      2660 1.02846E+02 3.62320E+01 0.00000E+00
 -1      2661 9.41357E+01 3.11377E+01 0.00000E+00
 -1      2662 9.33768E+01 3.08778E+01 0.00000E+00
 -1      2663 9.39453E+01 3.20167E+01 0.00000E+00
 -1      2664 9.35432E+01 1.97413E+01 0.00000E+00
 -1      2665 1.00972E+02 1.39555E+01 0.00000E+00
 -1      2666 9.22376E+01 2.40993E+01 0.00000E+00
 -1      2667 9.87758E+01 3.52947E+01 0.00000E+00
 -1      2668 1.07335E+02 3.54793E+01 0.00000E+00
 -1      2669 1.42758E+02 4.35929E+01 0.00000E+00
 -1      2670 1.43241E+02 4.17323E+01 0.00000E+00
 -1      2671 1.41942E+02 4.09948E+01 0.00000E+00
 -1      2672 1.41414E+02 4.35342E+01 0.00000E+00
 -1      2673 1.42120E+02 8.46463E+00 0.00000E+00
 -1      2674 1.40664E+02 4.22352E+01 0.00000E+00
 -1      2675 9.09300E+00 1.98250E+01 0.00000E+00
 -1      2676 9.09300E+00 2.12750E+01 0.00000E+00
 -1      2677 9.09300E+00 2.27500E+01 0.00000E+00
 -1      2678 9.09300E+00 2.42250E+01 0.00000E+00
 -1      2679 1.03920E+01 2.20250E+01 0.00000E+00
 -1      2680 9.09300E+00 1.39375E+01 0.00000E+00
 -1      2681 9.09300E+00 1.54125E+01 0.00000E+00
 -1      2682 9.09300E+00 1.09875E+01 0.00000E+00
 -1      2683 9.09300E+00 1.24625E+01 0.00000E+00
 -1      2684 1.03920E+01 1.32000E+01 0.00000E+00
 -1      2685 1.22850E+01 7.90325E+00 0.00000E+00
 -1      2686 1.07850E+01 7.90325E+00 0.00000E+00
 -1      2687 1.11144E+02 1.51731E+01 0.00000E+00
 -1      2688 1.12022E+02 1.63741E+01 0.00000E+00
 -1      2689 1.52850E+01 7.90325E+00 0.00000E+00
 -1      2690 1.37850E+01 7.90325E+00 0.00000E+00
 -1      2691 1.30350E+01 9.20225E+00 0.00000E+00
 -1      2692 8.91450E+00 8.42712E+00 0.00000E+00
 -1      2693 1.14017E+02 1.97832E+01 0.00000E+00
 -1      2694 1.14419E+02 2.09796E+01 0.00000E+00
 -1      2695 1.44000E+01 4.09070E+01 0.00000E+00
 -1      2696 1.59000E+01 4.09070E+01 0.00000E+00
 -1      2697 1.74000E+01 4.09070E+01 0.00000E+00
 -1      2698 1.89000E+01 4.09070E+01 0.00000E+00
 -1      2699 1.66500E+01 3.96080E+01 0.00000E+00
 -1      2700 2.04000E+01 4.09070E+01 0.00000E+00
 -1      2701 2.19000E+01 4.09070E+01 0.00000E+00
 -1      2702 1.96500E+01 3.96080E+01 0.00000E+00
 -1      2703 2.34000E+01 4.09070E+01 0.00000E+00
 -1      2704 2.49000E+01 4.09070E+01 0.00000E+00
 -1      2705 2.26500E+01 3.96080E+01 0.00000E+00
 -1      2706 2.64000E+01 4.09070E+01 0.00000E+00
 -1      2707 2.79000E+01 4.09070E+01 0.00000E+00
 -1      2708 2.56500E+01 3.96080E+01 0.00000E+00
 -1      2709 2.94000E+01 4.09070E+01 0.00000E+00
 -1      2710 3.09000E+01 4.09070E+01 0.00000E+00
 -1      2711 2.86500E+01 3.96080E+01 0.00000E+00
 -1      2712 3.24000E+01 4.09070E+01 0.00000E+00
 -1      2713 3.39000E+01 4.09070E+01 0.00000E+00
 -1      2714 3.16500E+01 3.96080E+01 0.00000E+00
 -1      2715 3.54000E+01 4.09070E+01 0.00000E+00
 -1      2716 3.69000E+01 4.09070E+01 0.00000E+00
 -1      2717 3.46500E+01 3.96080E+01 0.00000E+00
 -1      2718 3.84000E+01 4.09070E+01 0.00000E+00
 -1      2719 3.99000E+01 4.09070E+01 0.00000E+00
 -1      2720 3.76500E+01 3.96080E+01 0.00000E+00
 -1      2721 4.14000E+01 4.09070E+01 0.00000E+00
 -1      2722 4.29000E+01 4.09070E+01 0.00000E+00
 -1      2723 4.06500E+01 3.96080E+01 0.00000E+00
 -1      2724 4.44000E+01 4.09070E+01 0.00000E+00
 -1      2725 4.59000E+01 4.09070E+01 0.00000E+00
 -1      2726 4.36500E+01 3.96080E+01 0.00000E+00
 -1      2727 4.74000E+01 4.09070E+01 0.00000E+00
 -1      2728 4.89000E+01 4.09070E+01 0.00000E+00
 -1      2729 4.66500E+01 3.96080E+01 0.00000E+00
 -1      2730 5.04000E+01 4.09070E+01 0.00000E+00
 -1      2731 5.19000E+01 4.09070E+01 0.00000E+00
 -1      2732 4.96500E+01 3.96080E+01 0.00000E+00
 -1      2733 5.34000E+01 4.09070E+01 0.00000E+00
 -1      2734 5.49000E+01 4.09070E+01 0.00000E+00
 -1      2735 5.26500E+01 3.96080E+01 0.00000E+00
 -1      2736 5.64000E+01 4.09070E+01 0.00000E+00
 -1      2737 5.79000E+01 4.09070E+01 0.00000E+00
 -1      2738 5.56500E+01 3.96080E+01 0.00000E+00
 -1      2739 5.94000E+01 4.09070E+01 0.00000E+00
 -1      2740 6.09000E+01 4.09070E+01 0.00000E+00
 -1      2741 5.86500E+01 3.96080E+01 0.00000E+00
 -1      2742 6.24000E+01 4.09070E+01 0.00000E+00
 -1      2743 6.39000E+01 4.09070E+01 0.00000E+00
 -1      2744 6.16500E+01 3.96080E+01 0.00000E+00
 -1      2745 6.54000E+01 4.09070E+01 0.00000E+00
 -1      2746 6.69000E+01 4.09070E+01 0.00000E+00
 -1      2747 6.46500E+01 3.96080E+01 0.00000E+00
 -1      2748 6.84000E+01 4.09070E+01 0.00000E+00
 -1      2749 6.99000E+01 4.09070E+01 0.00000E+00
 -1      2750 6.76500E+01 3.96080E+01 0.00000E+00
 -1      2751 7.14000E+01 4.09070E+01 0.00000E+00
 -1      2752 7.29000E+01 4.09070E+01 0.00000E+00
 -1      2753 7.06500E+01 3.96080E+01 0.00000E+00
 -1      2754 7.44000E+01 4.09070E+01 0.00000E+00
 -1      2755 7.59000E+01 4.09070E+01 0.00000E+00
 -1      2756 7.36500E+01 3.96080E+01 0.00000E+00
 -1      2757 7.74000E+01 4.09070E+01 0.00000E+00
 -1      2758 7.89000E+01 4.09070E+01 0.00000E+00
 -1      2759 7.66500E+01 3.96080E+01 0.00000E+00
 -1      2760 8.04000E+01 4.09070E+01 0.00000E+00
 -1      2761 8.19000E+01 4.09070E+01 0.00000E+00
 -1      2762 7.96500E+01 3.96080E+01 0.00000E+00
 -1      2763 8.34000E+01 4.09070E+01 0.00000E+00
 -1      2764 8.49000E+01 4.09070E+01 0.00000E+00
 -1      2765 8.26500E+01 3.96080E+01 0.00000E+00
 -1      2766 8.64000E+01 4.09070E+01 0.00000E+00
 -1      2767 8.79000E+01 4.09070E+01 0.00000E+00
 -1      2768 8.56500E+01 3.96080E+01 0.00000E+00
 -1      2769 8.94000E+01 4.09070E+01 0.00000E+00
 -1      2770 9.09000E+01 4.09070E+01 0.00000E+00
 -1      2771 8.86500E+01 3.96080E+01 0.00000E+00
 -1      2772 9.24000E+01 4.09070E+01 0.00000E+00
 -1      2773 9.39000E+01 4.09070E+01 0.00000E+00
 -1      2774 9.16500E+01 3.96080E+01 0.00000E+00
 -1      2775 9.54000E+01 4.09070E+01 0.00000E+00
 -1      2776 9.69000E+01 4.09070E+01 0.00000E+00
 -1      2777 9.46500E+01 3.96080E+01 0.00000E+00
 -1      2778 9.84000E+01 4.09070E+01 0.00000E+00
 -1      2779 9.99000E+01 4.09070E+01 0.00000E+00
 -1      2780 9.76500E+01 3.96080E+01 0.00000E+00
 -1      2781 1.01400E+02 4.09070E+01 0.00000E+00
 -1      2782 1.02900E+02 4.09070E+01 0.00000E+00
 -1      2783 1.00650E+02 3.96080E+01 0.00000E+00
 -1      2784 1.04400E+02 4.09070E+01 0.00000E+00
 -1      2785 1.05900E+02 4.09070E+01 0.00000E+00
 -1      2786 1.03650E+02 3.96080E+01 0.00000E+00
 -1      2787 1.07400E+02 4.09070E+01 0.00000E+00
 -1      2788 1.08900E+02 4.09070E+01 0.00000E+00
 -1      2789 1.06650E+02 3.96080E+01 0.00000E+00
 -1      2790 1.10400E+02 4.09070E+01 0.00000E+00
 -1      2791 1.11900E+02 4.09070E+01 0.00000E+00
 -1      2792 1.09650E+02 3.96080E+01 0.00000E+00
 -1      2793 1.13400E+02 4.09070E+01 0.00000E+00
 -1      2794 1.14900E+02 4.09070E+01 0.00000E+00
 -1      2795 1.12650E+02 3.96080E+01 0.00000E+00
 -1      2796 1.16400E+02 4.09070E+01 0.00000E+00
 -1      2797 1.17900E+02 4.09070E+01 0.00000E+00
 -1      2798 1.15650E+02 3.96080E+01 0.00000E+00
 -1      2799 1.19400E+02 4.09070E+01 0.00000E+00
 -1      2800 1.20900E+02 4.09070E+01 0.00000E+00
 -1      2801 1.18650E+02 3.96080E+01 0.00000E+00
 -1      2802 1.22400E+02 4.09070E+01 0.00000E+00
 -1      2803 1.23900E+02 4.09070E+01 0.00000E+00
 -1      2804 1.21650E+02 3.96080E+01 0.00000E+00
 -1      2805 1.25400E+02 4.09070E+01 0.00000E+00
 -1      2806 1.26900E+02 4.09070E+01 0.00000E+00
 -1      2807 1.24650E+02 3.96080E+01 0.00000E+00
 -1      2808 1.28400E+02 4.09070E+01 0.00000E+00
 -1      2809 1.29900E+02 4.09070E+01 0.00000E+00
 -1      2810 1.27650E+02 3.96080E+01 0.00000E+00
 -1      2811 1.31400E+02 4.09070E+01 0.00000E+00
 -1      2812 1.32900E+02 4.09070E+01 0.00000E+00
 -1      2813 1.30650E+02 3.96080E+01 0.00000E+00
 -1      2814 1.34400E+02 4.09070E+01 0.00000E+00
 -1      2815 1.35900E+02 4.09070E+01 0.00000E+00
 -1      2816 1.33650E+02 3.96080E+01 0.00000E+00
 -1      2817 1.37400E+02 4.09070E+01 0.00000E+00
 -1      2818 1.38900E+02 4.09070E+01 0.00000E+00
 -1      2819 1.36650E+02 3.96080E+01 0.00000E+00
 -1      2820 2.42850E+01 7.90325E+00 0.00000E+00
 -1      2821 2.27850E+01 7.90325E+00 0.00000E+00
 -1      2822 1.40706E+02 1.03250E+01 0.00000E+00
 -1      2823 1.40620E+02 8.46463E+00 0.00000E+00
 -1      2824 1.39120E+02 8.46463E+00 0.00000E+00
 -1      2825 2.12850E+01 7.90325E+00 0.00000E+00
 -1      2826 1.97850E+01 7.90325E+00 0.00000E+00
 -1      2827 2.20350E+01 9.20225E+00 0.00000E+00
 -1      2828 3.02850E+01 7.90325E+00 0.00000E+00
 -1      2829 2.87850E+01 7.90325E+00 0.00000E+00
 -1      2830 3.32850E+01 7.90325E+00 0.00000E+00
 -1      2831 3.17850E+01 7.90325E+00 0.00000E+00
 -1      2832 3.10350E+01 9.20225E+00 0.00000E+00
 -1      2833 3.62850E+01 7.90325E+00 0.00000E+00
 -1      2834 3.47850E+01 7.90325E+00 0.00000E+00
 -1      2835 3.40350E+01 9.20225E+00 0.00000E+00
 -1      2836 3.92850E+01 7.90325E+00 0.00000E+00
 -1      2837 3.77850E+01 7.90325E+00 0.00000E+00
 -1      2838 3.70350E+01 9.20225E+00 0.00000E+00
 -1      2839 4.22850E+01 7.90325E+00 0.00000E+00
 -1      2840 4.07850E+01 7.90325E+00 0.00000E+00
 -1      2841 4.00350E+01 9.20225E+00 0.00000E+00
 -1      2842 4.52850E+01 7.90325E+00 0.00000E+00
 -1      2843 4.37850E+01 7.90325E+00 0.00000E+00
 -1      2844 4.30350E+01 9.20225E+00 0.00000E+00
 -1      2845 4.82850E+01 7.90325E+00 0.00000E+00
 -1      2846 4.67850E+01 7.90325E+00 0.00000E+00
 -1      2847 4.60350E+01 9.20225E+00 0.00000E+00
 -1      2848 5.12850E+01 7.90325E+00 0.00000E+00
 -1      2849 4.97850E+01 7.90325E+00 0.00000E+00
 -1      2850 4.90350E+01 9.20225E+00 0.00000E+00
 -1      2851 5.42850E+01 7.90325E+00 0.00000E+00
 -1      2852 5.27850E+01 7.90325E+00 0.00000E+00
 -1      2853 5.20350E+01 9.20225E+00 0.00000E+00
 -1      2854 5.72850E+01 7.90325E+00 0.00000E+00
 -1      2855 5.57850E+01 7.90325E+00 0.00000E+00
 -1      2856 5.50350E+01 9.20225E+00 0.00000E+00
 -1      2857 6.02850E+01 7.90325E+00 0.00000E+00
 -1      2858 5.87850E+01 7.90325E+00 0.00000E+00
 -1      2859 5.80350E+01 9.20225E+00 0.00000E+00
 -1      2860 6.32850E+01 7.90325E+00 0.00000E+00
 -1      2861 6.17850E+01 7.90325E+00 0.00000E+00
 -1      2862 6.10350E+01 9.20225E+00 0.00000E+00
 -1      2863 6.62850E+01 7.90325E+00 0.00000E+00
 -1      2864 6.47850E+01 7.90325E+00 0.00000E+00
 -1      2865 6.40350E+01 9.20225E+00 0.00000E+00
 -1      2866 6.92850E+01 7.90325E+00 0.00000E+00
 -1      2867 6.77850E+01 7.90325E+00 0.00000E+00
 -1      2868 6.70350E+01 9.20225E+00 0.00000E+00
 -1      2869 7.22850E+01 7.90325E+00 0.00000E+00
 -1      2870 7.07850E+01 7.90325E+00 0.00000E+00
 -1      2871 7.00350E+01 9.20225E+00 0.00000E+00
 -1      2872 7.52850E+01 7.90325E+00 0.00000E+00
 -1      2873 7.37850E+01 7.90325E+00 0.00000E+00
 -1      2874 7.30350E+01 9.20225E+00 0.00000E+00
 -1      2875 7.82850E+01 7.90325E+00 0.00000E+00
 -1      2876 7.67850E+01 7.90325E+00 0.00000E+00
 -1      2877 7.60350E+01 9.20225E+00 0.00000E+00
 -1      2878 8.12850E+01 7.90325E+00 0.00000E+00
 -1      2879 7.97850E+01 7.90325E+00 0.00000E+00
 -1      2880 7.90350E+01 9.20225E+00 0.00000E+00
 -1      2881 8.42850E+01 7.90325E+00 0.00000E+00
 -1      2882 8.27850E+01 7.90325E+00 0.00000E+00
 -1      2883 8.20350E+01 9.20225E+00 0.00000E+00
 -1      2884 8.72850E+01 7.90325E+00 0.00000E+00
 -1      2885 8.57850E+01 7.90325E+00 0.00000E+00
 -1      2886 8.50350E+01 9.20225E+00 0.00000E+00
 -1      2887 9.02850E+01 7.90325E+00 0.00000E+00
 -1      2888 8.87850E+01 7.90325E+00 0.00000E+00
 -1      2889 8.80350E+01 9.20225E+00 0.00000E+00
 -1      2890 9.32850E+01 7.90325E+00 0.00000E+00
 -1      2891 9.17850E+01 7.90325E+00 0.00000E+00
 -1      2892 9.10350E+01 9.20225E+00 0.00000E+00
 -1      2893 9.62850E+01 7.90325E+00 0.00000E+00
 -1      2894 9.47850E+01 7.90325E+00 0.00000E+00
 -1      2895 9.40350E+01 9.20225E+00 0.00000E+00
 -1      2896 9.92850E+01 7.90325E+00 0.00000E+00
 -1      2897 9.77850E+01 7.90325E+00 0.00000E+00
 -1      2898 9.70350E+01 9.20225E+00 0.00000E+00
 -1      2899 1.02285E+02 7.90325E+00 0.00000E+00
 -1      2900 1.00785E+02 7.90325E+00 0.00000E+00
 -1      2901 1.00035E+02 9.20225E+00 0.00000E+00
 -1      2902 1.05285E+02 7.90325E+00 0.00000E+00
 -1      2903 1.03785E+02 7.90325E+00 0.00000E+00
 -1      2904 1.03035E+02 9.20225E+00 0.00000E+00
 -1      2905 1.08285E+02 7.90325E+00 0.00000E+00
 -1      2906 1.06785E+02 7.90325E+00 0.00000E+00
 -1      2907 1.06035E+02 9.20225E+00 0.00000E+00
 -1      2908 1.11285E+02 7.90325E+00 0.00000E+00
 -1      2909 1.09785E+02 7.90325E+00 0.00000E+00
 -1      2910 1.09035E+02 9.20225E+00 0.00000E+00
 -1      2911 1.14285E+02 7.90325E+00 0.00000E+00
 -1      2912 1.12785E+02 7.90325E+00 0.00000E+00
 -1      2913 1.12035E+02 9.20225E+00 0.00000E+00
 -1      2914 1.17285E+02 7.90325E+00 0.00000E+00
 -1      2915 1.15785E+02 7.90325E+00 0.00000E+00
 -1      2916 1.15035E+02 9.20225E+00 0.00000E+00
 -1      2917 1.20285E+02 7.90325E+00 0.00000E+00
 -1      2918 1.18785E+02 7.90325E+00 0.00000E+00
 -1      2919 1.18035E+02 9.20225E+00 0.00000E+00
 -1      2920 1.23285E+02 7.90325E+00 0.00000E+00
 -1      2921 1.21785E+02 7.90325E+00 0.00000E+00
 -1      2922 1.21035E+02 9.20225E+00 0.00000E+00
 -1      2923 1.26285E+02 7.90325E+00 0.00000E+00
 -1      2924 1.24785E+02 7.90325E+00 0.00000E+00
 -1      2925 1.24035E+02 9.20225E+00 0.00000E+00
 -1      2926 1.29285E+02 7.90325E+00 0.00000E+00
 -1      2927 1.27785E+02 7.90325E+00 0.00000E+00
 -1      2928 1.27035E+02 9.20225E+00 0.00000E+00
 -1      2929 1.32285E+02 7.90325E+00 0.00000E+00
 -1      2930 1.30785E+02 7.90325E+00 0.00000E+00
 -1      2931 1.30035E+02 9.20225E+00 0.00000E+00
 -1      2932 1.35285E+02 7.90325E+00 0.00000E+00
 -1      2933 1.33785E+02 7.90325E+00 0.00000E+00
 -1      2934 1.33035E+02 9.20225E+00 0.00000E+00
 -1      2935 1.37953E+02 8.18394E+00 0.00000E+00
 -1      2936 1.36453E+02 8.18394E+00 0.00000E+00
 -1      2937 1.35703E+02 9.48294E+00 0.00000E+00
 -1      2938 1.38038E+02 1.00443E+01 0.00000E+00
 -1      2939 1.40907E+02 2.42875E+01 0.00000E+00
 -1      2940 1.40907E+02 2.28125E+01 0.00000E+00
 -1      2941 1.39914E+02 4.09362E+01 0.00000E+00
 -1      2942 1.40928E+02 4.09655E+01 0.00000E+00
 -1      2943 1.39164E+02 3.96372E+01 0.00000E+00
 -1      2944 1.40907E+02 1.83875E+01 0.00000E+00
 -1      2945 1.40907E+02 1.69125E+01 0.00000E+00
 -1      2946 1.40907E+02 2.72375E+01 0.00000E+00
 -1      2947 1.40907E+02 2.57625E+01 0.00000E+00
 -1      2948 1.39608E+02 2.50250E+01 0.00000E+00
 -1      2949 1.40907E+02 2.13375E+01 0.00000E+00
 -1      2950 1.40907E+02 1.98625E+01 0.00000E+00
 -1      2951 1.39608E+02 1.91250E+01 0.00000E+00
 -1      2952 1.39608E+02 2.20750E+01 0.00000E+00
 -1      2953 1.40907E+02 3.01375E+01 0.00000E+00
 -1      2954 1.40907E+02 2.86875E+01 0.00000E+00
 -1      2955 1.39608E+02 2.79500E+01 0.00000E+00
 -1      2956 1.40907E+02 3.30875E+01 0.00000E+00
 -1      2957 1.40907E+02 3.16125E+01 0.00000E+00
 -1      2958 1.39608E+02 3.08750E+01 0.00000E+00
 -1      2959 1.40907E+02 3.60375E+01 0.00000E+00
 -1      2960 1.40907E+02 3.45625E+01 0.00000E+00
 -1      2961 1.39608E+02 3.38250E+01 0.00000E+00
 -1      2962 1.15085E+02 2.68608E+01 0.00000E+00
 -1      2963 1.15145E+02 2.80127E+01 0.00000E+00
 -1      2964 1.13581E+02 3.17464E+01 0.00000E+00
 -1      2965 1.13092E+02 3.25127E+01 0.00000E+00
 -1      2966 7.85850E+00 3.92077E+01 0.00000E+00
 -1      2967 9.35589E+01 1.74901E+01 0.00000E+00
 -1      2968 9.42245E+01 1.65228E+01 0.00000E+00
 -1      2969 9.18203E+01 2.22235E+01 0.00000E+00
 -1      2970 9.21464E+01 2.12229E+01 0.00000E+00
 -1      2971 1.08013E+02 1.35628E+01 0.00000E+00
 -1      2972 1.09437E+02 1.39226E+01 0.00000E+00
 -1      2973 9.67882E+01 3.51595E+01 0.00000E+00
 -1      2974 9.59817E+01 3.44432E+01 0.00000E+00
 -1      2975 9.53374E+01 1.53100E+01 0.00000E+00
 -1      2976 9.64005E+01 1.47357E+01 0.00000E+00
 -1      2977 1.82850E+01 7.90325E+00 0.00000E+00
 -1      2978 1.67850E+01 7.90325E+00 0.00000E+00
 -1      2979 1.60350E+01 9.20225E+00 0.00000E+00
 -1      2980 1.90350E+01 9.20225E+00 0.00000E+00
 -1      2981 1.14684E+02 2.22685E+01 0.00000E+00
 -1      2982 1.14819E+02 2.33127E+01 0.00000E+00
 -1      2983 2.72850E+01 7.90325E+00 0.00000E+00
 -1      2984 2.57850E+01 7.90325E+00 0.00000E+00
 -1      2985 2.50350E+01 9.20225E+00 0.00000E+00
 -1      2986 2.80350E+01 9.20225E+00 0.00000E+00
 -1      2987 1.14000E+01 4.09070E+01 0.00000E+00
 -1      2988 1.29000E+01 4.09070E+01 0.00000E+00
 -1      2989 1.36500E+01 3.96080E+01 0.00000E+00
 -1      2990 1.03359E+02 3.71072E+01 0.00000E+00
 -1      2991 1.02276E+02 3.70710E+01 0.00000E+00
 -1      2992 1.12669E+02 1.75441E+01 0.00000E+00
 -1      2993 1.13353E+02 1.84835E+01 0.00000E+00
 -1      2994 1.05782E+02 3.67737E+01 0.00000E+00
 -1      2995 1.04640E+02 3.69725E+01 0.00000E+00
 -1      2996 1.12158E+02 3.34759E+01 0.00000E+00
 -1      2997 1.11205E+02 3.41798E+01 0.00000E+00
 -1      2998 9.09300E+00 1.68813E+01 0.00000E+00
 -1      2999 9.09300E+00 1.83563E+01 0.00000E+00
 -1      3000 1.03920E+01 1.90812E+01 0.00000E+00
 -1      3001 1.03920E+01 1.61437E+01 0.00000E+00
 -1      3002 9.09300E+00 3.15875E+01 0.00000E+00
 -1      3003 9.09300E+00 3.30625E+01 0.00000E+00
 -1      3004 1.05489E+02 1.32933E+01 0.00000E+00
 -1      3005 1.06602E+02 1.34483E+01 0.00000E+00
 -1      3006 9.74981E+01 1.40204E+01 0.00000E+00
 -1      3007 9.85956E+01 1.33052E+01 0.00000E+00
 -1      3008 9.64395E+01 1.33319E+01 0.00000E+00
 -1      3009 1.14797E+02 2.94780E+01 0.00000E+00
 -1      3010 1.14189E+02 3.06122E+01 0.00000E+00
 -1      3011 1.14667E+02 3.14568E+01 0.00000E+00
 -1      3012 9.12125E+01 2.44993E+01 0.00000E+00
 -1      3013 9.14078E+01 2.33766E+01 0.00000E+00
 -1      3014 1.00283E+02 1.29499E+01 0.00000E+00
 -1      3015 1.01600E+02 1.29117E+01 0.00000E+00
 -1      3016 9.89697E+01 3.63707E+01 0.00000E+00
 -1      3017 9.79270E+01 3.59838E+01 0.00000E+00
 -1      3018 1.15048E+02 2.44897E+01 0.00000E+00
 -1      3019 1.15108E+02 2.56847E+01 0.00000E+00
 -1      3020 9.24316E+01 2.00306E+01 0.00000E+00
 -1      3021 9.28899E+01 1.87966E+01 0.00000E+00
 -1      3022 9.14120E+01 2.72039E+01 0.00000E+00
 -1      3023 9.12129E+01 2.59837E+01 0.00000E+00
 -1      3024 9.52738E+01 3.38439E+01 0.00000E+00
 -1      3025 9.45658E+01 3.32445E+01 0.00000E+00
 -1      3026 9.51353E+01 3.48118E+01 0.00000E+00
 -1      3027 1.08234E+02 3.62515E+01 0.00000E+00
 -1      3028 1.07112E+02 3.66430E+01 0.00000E+00
 -1      3029 1.01068E+02 3.68558E+01 0.00000E+00
 -1      3030 1.00096E+02 3.65988E+01 0.00000E+00
 -1      3031 1.10324E+02 3.48027E+01 0.00000E+00
 -1      3032 1.09443E+02 3.54256E+01 0.00000E+00
 -1      3033 1.11310E+02 3.51404E+01 0.00000E+00
 -1      3034 1.02975E+02 1.30624E+01 0.00000E+00
 -1      3035 1.04232E+02 1.31779E+01 0.00000E+00
 -1      3036 1.04918E+02 1.23230E+01 0.00000E+00
 -1      3037 1.41192E+02 3.96958E+01 0.00000E+00
 -1      3038 9.09300E+00 3.45313E+01 0.00000E+00
 -1      3039 9.09300E+00 3.60000E+01 0.00000E+00
 -1      3040 1.03920E+01 3.37938E+01 0.00000E+00
 -1      3041 1.03920E+01 2.49750E+01 0.00000E+00
 -1      3042 9.09300E+00 2.57000E+01 0.00000E+00
 -1      3043 9.09300E+00 2.71750E+01 0.00000E+00
 -1      3044 9.66450E+00 9.72612E+00 0.00000E+00
 -1      3045 1.13057E+02 1.63386E+01 0.00000E+00
 -1      3046 1.01581E+02 3.77310E+01 0.00000E+00
 -1      3047 1.14367E+02 1.88084E+01 0.00000E+00
 -1      3048 9.25428E+01 3.05274E+01 0.00000E+00
 -1      3049 9.17089E+01 3.01770E+01 0.00000E+00
 -1      3050 9.23524E+01 3.14064E+01 0.00000E+00
 -1      3051 1.39608E+02 1.61875E+01 0.00000E+00
 -1      3052 1.40907E+02 1.54500E+01 0.00000E+00
 -1      3053 1.40907E+02 1.39875E+01 0.00000E+00
 -1      3054 1.15789E+02 2.38628E+01 0.00000E+00
 -1      3055 1.40706E+02 1.17875E+01 0.00000E+00
 -1      3056 9.07953E+01 2.26236E+01 0.00000E+00
 -1      3057 9.08706E+01 2.88396E+01 0.00000E+00
 -1      3058 9.11413E+01 2.80217E+01 0.00000E+00
 -1      3059 9.01127E+01 2.75633E+01 0.00000E+00
 -1      3060 1.16449E+02 2.82368E+01 0.00000E+00
 -1      3061 1.15623E+02 2.88574E+01 0.00000E+00
 -1      3062 1.16101E+02 2.97020E+01 0.00000E+00
 -1      3063 1.15995E+02 2.62160E+01 0.00000E+00
 -1      3064 1.41192E+02 3.82207E+01 0.00000E+00
 -1      3065 9.14931E+01 2.02782E+01 0.00000E+00
 -1      3066 1.09635E+01 1.04636E+01 0.00000E+00
 -1      3067 1.13125E+02 3.35543E+01 0.00000E+00
 -1      3068 9.15750E+00 3.77359E+01 0.00000E+00
 -1      3069 9.22200E+00 4.02061E+01 0.00000E+00
 -1      3070 1.05855E+01 4.04701E+01 0.00000E+00
 -1      3071 1.04565E+01 3.69984E+01 0.00000E+00
 -1      3072 9.92472E+01 3.72878E+01 0.00000E+00
 -1      3073 9.92246E+01 1.22614E+01 0.00000E+00
 -1      3074 1.13355E+01 3.91711E+01 0.00000E+00
 -1      3075 9.24473E+01 1.77793E+01 0.00000E+00
 -1      3076 1.06681E+02 3.75459E+01 0.00000E+00
 -1      3077 9.42291E+01 1.52600E+01 0.00000E+00
 -1      3078 1.10263E+02 1.26631E+01 0.00000E+00
 -1      3079 1.10703E+02 1.39181E+01 0.00000E+00
 -1      3080 1.11970E+02 1.39136E+01 0.00000E+00
 -1      3081 9.69821E+01 3.62355E+01 0.00000E+00
 -1      3082 1.07586E+02 1.25530E+01 0.00000E+00
 -1      3083 9.38069E+01 3.29847E+01 0.00000E+00
 -1      3084 9.30479E+01 3.27248E+01 0.00000E+00
 -1      3085 9.36684E+01 3.39526E+01 0.00000E+00
 -1      3086 1.04070E+02 3.78114E+01 0.00000E+00
 -1      3087 9.09300E+00 2.86437E+01 0.00000E+00
 -1      3088 9.09300E+00 3.01187E+01 0.00000E+00
 -1      3089 1.03920E+01 3.08563E+01 0.00000E+00
 -1      3090 1.03920E+01 2.79188E+01 0.00000E+00
 -1      3091 9.03831E+01 2.52611E+01 0.00000E+00
 -1      3092 1.02287E+02 1.20568E+01 0.00000E+00
 -1      3093 1.39529E+02 3.85602E+01 0.00000E+00
 -1      3094 1.40542E+02 3.71145E+01 0.00000E+00
 -1      3095 1.39243E+02 3.63770E+01 0.00000E+00
 -1      3096 1.38514E+02 3.85310E+01 0.00000E+00
 -1      3097 1.09220E+02 3.65893E+01 0.00000E+00
 -1      3098 1.15296E+02 2.13970E+01 0.00000E+00
 -1      3099 1.13631E+02 1.52577E+01 0.00000E+00
 -1      3100 1.14278E+02 1.64277E+01 0.00000E+00
 -1      3101 1.16910E+01 1.24625E+01 0.00000E+00
 -1      3102 1.16910E+01 1.39375E+01 0.00000E+00
 -1      3103 8.92743E+01 2.60035E+01 0.00000E+00
 -1      3104 8.92740E+01 2.45191E+01 0.00000E+00
 -1      3105 1.29000E+01 3.83090E+01 0.00000E+00
 -1      3106 1.44000E+01 3.83090E+01 0.00000E+00
 -1      3107 1.89000E+01 3.83090E+01 0.00000E+00
 -1      3108 2.04000E+01 3.83090E+01 0.00000E+00
 -1      3109 2.19000E+01 3.83090E+01 0.00000E+00
 -1      3110 2.34000E+01 3.83090E+01 0.00000E+00
 -1      3111 2.11500E+01 3.70100E+01 0.00000E+00
 -1      3112 2.49000E+01 3.83090E+01 0.00000E+00
 -1      3113 2.64000E+01 3.83090E+01 0.00000E+00
 -1      3114 2.41500E+01 3.70100E+01 0.00000E+00
 -1      3115 2.79000E+01 3.83090E+01 0.00000E+00
 -1      3116 2.94000E+01 3.83090E+01 0.00000E+00
 -1      3117 2.71500E+01 3.70100E+01 0.00000E+00
 -1      3118 3.09000E+01 3.83090E+01 0.00000E+00
 -1      3119 3.24000E+01 3.83090E+01 0.00000E+00
 -1      3120 3.01500E+01 3.70100E+01 0.00000E+00
 -1      3121 3.39000E+01 3.83090E+01 0.00000E+00
 -1      3122 3.54000E+01 3.83090E+01 0.00000E+00
 -1      3123 3.31500E+01 3.70100E+01 0.00000E+00
 -1      3124 3.69000E+01 3.83090E+01 0.00000E+00
 -1      3125 3.84000E+01 3.83090E+01 0.00000E+00
 -1      3126 3.61500E+01 3.70100E+01 0.00000E+00
 -1      3127 3.99000E+01 3.83090E+01 0.00000E+00
 -1      3128 4.14000E+01 3.83090E+01 0.00000E+00
 -1      3129 3.91500E+01 3.70100E+01 0.00000E+00
 -1      3130 4.29000E+01 3.83090E+01 0.00000E+00
 -1      3131 4.44000E+01 3.83090E+01 0.00000E+00
 -1      3132 4.21500E+01 3.70100E+01 0.00000E+00
 -1      3133 4.59000E+01 3.83090E+01 0.00000E+00
 -1      3134 4.74000E+01 3.83090E+01 0.00000E+00
 -1      3135 4.51500E+01 3.70100E+01 0.00000E+00
 -1      3136 4.89000E+01 3.83090E+01 0.00000E+00
 -1      3137 5.04000E+01 3.83090E+01 0.00000E+00
 -1      3138 4.81500E+01 3.70100E+01 0.00000E+00
 -1      3139 5.19000E+01 3.83090E+01 0.00000E+00
 -1      3140 5.34000E+01 3.83090E+01 0.00000E+00
 -1      3141 5.11500E+01 3.70100E+01 0.00000E+00
 -1      3142 5.49000E+01 3.83090E+01 0.00000E+00
 -1      3143 5.64000E+01 3.83090E+01 0.00000E+00
 -1      3144 5.41500E+01 3.70100E+01 0.00000E+00
 -1      3145 5.79000E+01 3.83090E+01 0.00000E+00
 -1      3146 5.94000E+01 3.83090E+01 0.00000E+00
 -1      3147 5.71500E+01 3.70100E+01 0.00000E+00
 -1      3148 6.09000E+01 3.83090E+01 0.00000E+00
 -1      3149 6.24000E+01 3.83090E+01 0.00000E+00
 -1      3150 6.01500E+01 3.70100E+01 0.00000E+00
 -1      3151 6.39000E+01 3.83090E+01 0.00000E+00
 -1      3152 6.54000E+01 3.83090E+01 0.00000E+00
 -1      3153 6.31500E+01 3.70100E+01 0.00000E+00
 -1      3154 6.69000E+01 3.83090E+01 0.00000E+00
 -1      3155 6.84000E+01 3.83090E+01 0.00000E+00
 -1      3156 6.61500E+01 3.70100E+01 0.00000E+00
 -1      3157 6.99000E+01 3.83090E+01 0.00000E+00
 -1      3158 7.14000E+01 3.83090E+01 0.00000E+00
 -1      3159 6.91500E+01 3.70100E+01 0.00000E+00
 -1      3160 7.29000E+01 3.83090E+01 0.00000E+00
 -1      3161 7.44000E+01 3.83090E+01 0.00000E+00
 -1      3162 7.21500E+01 3.70100E+01 0.00000E+00
 -1      3163 7.59000E+01 3.83090E+01 0.00000E+00
 -1      3164 7.74000E+01 3.83090E+01 0.00000E+00
 -1      3165 7.51500E+01 3.70100E+01 0.00000E+00
 -1      3166 7.89000E+01 3.83090E+01 0.00000E+00
 -1      3167 8.04000E+01 3.83090E+01 0.00000E+00
 -1      3168 7.81500E+01 3.70100E+01 0.00000E+00
 -1      3169 8.19000E+01 3.83090E+01 0.00000E+00
 -1      3170 8.34000E+01 3.83090E+01 0.00000E+00
 -1      3171 8.11500E+01 3.70100E+01 0.00000E+00
 -1      3172 8.49000E+01 3.83090E+01 0.00000E+00
 -1      3173 8.64000E+01 3.83090E+01 0.00000E+00
 -1      3174 8.41500E+01 3.70100E+01 0.00000E+00
 -1      3175 8.79000E+01 3.83090E+01 0.00000E+00
 -1      3176 8.94000E+01 3.83090E+01 0.00000E+00
 -1      3177 8.71500E+01 3.70100E+01 0.00000E+00
 -1      3178 9.09000E+01 3.83090E+01 0.00000E+00
 -1      3179 9.24000E+01 3.83090E+01 0.00000E+00
 -1      3180 9.01500E+01 3.70100E+01 0.00000E+00
 -1      3181 9.71354E+01 3.83339E+01 0.00000E+00
 -1      3182 9.86354E+01 3.83339E+01 0.00000E+00
 -1      3183 1.02469E+02 3.87771E+01 0.00000E+00
 -1      3184 1.03969E+02 3.87771E+01 0.00000E+00
 -1      3185 1.06580E+02 3.85116E+01 0.00000E+00
 -1      3186 1.08080E+02 3.85116E+01 0.00000E+00
 -1      3187 1.09580E+02 3.85116E+01 0.00000E+00
 -1      3188 1.11900E+02 3.84153E+01 0.00000E+00
 -1      3189 1.13400E+02 3.84153E+01 0.00000E+00
 -1      3190 1.14900E+02 3.84153E+01 0.00000E+00
 -1      3191 1.16400E+02 3.84153E+01 0.00000E+00
 -1      3192 1.14150E+02 3.72226E+01 0.00000E+00
 -1      3193 1.17900E+02 3.84153E+01 0.00000E+00
 -1      3194 1.19400E+02 3.84153E+01 0.00000E+00
 -1      3195 1.17150E+02 3.72226E+01 0.00000E+00
 -1      3196 1.20900E+02 3.84153E+01 0.00000E+00
 -1      3197 1.22400E+02 3.84153E+01 0.00000E+00
 -1      3198 1.20150E+02 3.72226E+01 0.00000E+00
 -1      3199 1.23900E+02 3.84153E+01 0.00000E+00
 -1      3200 1.25400E+02 3.84153E+01 0.00000E+00
 -1      3201 1.23150E+02 3.72226E+01 0.00000E+00
 -1      3202 1.26900E+02 3.84153E+01 0.00000E+00
 -1      3203 1.28400E+02 3.84153E+01 0.00000E+00
 -1      3204 1.26150E+02 3.72226E+01 0.00000E+00
 -1      3205 1.29900E+02 3.84153E+01 0.00000E+00
 -1      3206 1.31400E+02 3.84153E+01 0.00000E+00
 -1      3207 1.29150E+02 3.72226E+01 0.00000E+00
 -1      3208 1.32900E+02 3.84153E+01 0.00000E+00
 -1      3209 1.34400E+02 3.84153E+01 0.00000E+00
 -1      3210 1.32150E+02 3.72226E+01 0.00000E+00
 -1      3211 1.35707E+02 3.84732E+01 0.00000E+00
 -1      3212 1.37207E+02 3.84732E+01 0.00000E+00
 -1      3213 1.37572E+02 3.73962E+01 0.00000E+00
 -1      3214 1.34957E+02 3.72805E+01 0.00000E+00
 -1      3215 9.10512E+01 1.78891E+01 0.00000E+00
 -1      3216 9.17201E+01 1.65825E+01 0.00000E+00
 -1      3217 1.38309E+02 2.86750E+01 0.00000E+00
 -1      3218 1.38309E+02 2.72250E+01 0.00000E+00
 -1      3219 2.27850E+01 1.05013E+01 0.00000E+00
 -1      3220 2.12850E+01 1.05013E+01 0.00000E+00
 -1      3221 1.12421E+02 3.58701E+01 0.00000E+00
 -1      3222 1.11540E+02 3.64930E+01 0.00000E+00
 -1      3223 3.47850E+01 1.05013E+01 0.00000E+00
 -1      3224 3.32850E+01 1.05013E+01 0.00000E+00
 -1      3225 3.17850E+01 1.05013E+01 0.00000E+00
 -1      3226 3.02850E+01 1.05013E+01 0.00000E+00
 -1      3227 3.25350E+01 1.18003E+01 0.00000E+00
 -1      3228 4.07850E+01 1.05013E+01 0.00000E+00
 -1      3229 3.92850E+01 1.05013E+01 0.00000E+00
 -1      3230 4.37850E+01 1.05013E+01 0.00000E+00
 -1      3231 4.22850E+01 1.05013E+01 0.00000E+00
 -1      3232 4.15350E+01 1.18003E+01 0.00000E+00
 -1      3233 4.67850E+01 1.05013E+01 0.00000E+00
 -1      3234 4.52850E+01 1.05013E+01 0.00000E+00
 -1      3235 4.45350E+01 1.18003E+01 0.00000E+00
 -1      3236 4.97850E+01 1.05013E+01 0.00000E+00
 -1      3237 4.82850E+01 1.05013E+01 0.00000E+00
 -1      3238 4.75350E+01 1.18003E+01 0.00000E+00
 -1      3239 5.27850E+01 1.05013E+01 0.00000E+00
 -1      3240 5.12850E+01 1.05013E+01 0.00000E+00
 -1      3241 5.05350E+01 1.18003E+01 0.00000E+00
 -1      3242 5.57850E+01 1.05013E+01 0.00000E+00
 -1      3243 5.42850E+01 1.05013E+01 0.00000E+00
 -1      3244 5.35350E+01 1.18003E+01 0.00000E+00
 -1      3245 5.87850E+01 1.05013E+01 0.00000E+00
 -1      3246 5.72850E+01 1.05013E+01 0.00000E+00
 -1      3247 5.65350E+01 1.18003E+01 0.00000E+00
 -1      3248 6.17850E+01 1.05013E+01 0.00000E+00
 -1      3249 6.02850E+01 1.05013E+01 0.00000E+00
 -1      3250 5.95350E+01 1.18003E+01 0.00000E+00
 -1      3251 6.47850E+01 1.05013E+01 0.00000E+00
 -1      3252 6.32850E+01 1.05013E+01 0.00000E+00
 -1      3253 6.25350E+01 1.18003E+01 0.00000E+00
 -1      3254 6.77850E+01 1.05013E+01 0.00000E+00
 -1      3255 6.62850E+01 1.05013E+01 0.00000E+00
 -1      3256 6.55350E+01 1.18003E+01 0.00000E+00
 -1      3257 7.07850E+01 1.05013E+01 0.00000E+00
 -1      3258 6.92850E+01 1.05013E+01 0.00000E+00
 -1      3259 6.85350E+01 1.18003E+01 0.00000E+00
 -1      3260 7.37850E+01 1.05013E+01 0.00000E+00
 -1      3261 7.22850E+01 1.05013E+01 0.00000E+00
 -1      3262 7.15350E+01 1.18003E+01 0.00000E+00
 -1      3263 7.67850E+01 1.05013E+01 0.00000E+00
 -1      3264 7.52850E+01 1.05013E+01 0.00000E+00
 -1      3265 7.45350E+01 1.18003E+01 0.00000E+00
 -1      3266 7.97850E+01 1.05013E+01 0.00000E+00
 -1      3267 7.82850E+01 1.05013E+01 0.00000E+00
 -1      3268 7.75350E+01 1.18003E+01 0.00000E+00
 -1      3269 8.27850E+01 1.05013E+01 0.00000E+00
 -1      3270 8.12850E+01 1.05013E+01 0.00000E+00
 -1      3271 8.05350E+01 1.18003E+01 0.00000E+00
 -1      3272 8.57850E+01 1.05013E+01 0.00000E+00
 -1      3273 8.42850E+01 1.05013E+01 0.00000E+00
 -1      3274 8.35350E+01 1.18003E+01 0.00000E+00
 -1      3275 8.87850E+01 1.05013E+01 0.00000E+00
 -1      3276 8.72850E+01 1.05013E+01 0.00000E+00
 -1      3277 8.65350E+01 1.18003E+01 0.00000E+00
 -1      3278 9.17850E+01 1.05013E+01 0.00000E+00
 -1      3279 9.02850E+01 1.05013E+01 0.00000E+00
 -1      3280 8.95350E+01 1.18003E+01 0.00000E+00
 -1      3281 9.80360E+01 1.09095E+01 0.00000E+00
 -1      3282 9.65360E+01 1.09095E+01 0.00000E+00
 -1      3283 1.01224E+02 1.05542E+01 0.00000E+00
 -1      3284 9.97235E+01 1.05542E+01 0.00000E+00
 -1      3285 1.04098E+02 1.07049E+01 0.00000E+00
 -1      3286 1.02598E+02 1.07049E+01 0.00000E+00
 -1      3287 1.06855E+02 1.08203E+01 0.00000E+00
 -1      3288 1.05355E+02 1.08203E+01 0.00000E+00
 -1      3289 1.09766E+02 1.09349E+01 0.00000E+00
 -1      3290 1.08266E+02 1.09349E+01 0.00000E+00
 -1      3291 1.12532E+02 1.09304E+01 0.00000E+00
 -1      3292 1.11032E+02 1.09304E+01 0.00000E+00
 -1      3293 1.18785E+02 1.05013E+01 0.00000E+00
 -1      3294 1.17285E+02 1.05013E+01 0.00000E+00
 -1      3295 1.21785E+02 1.05013E+01 0.00000E+00
 -1      3296 1.20285E+02 1.05013E+01 0.00000E+00
 -1      3297 1.19535E+02 1.18003E+01 0.00000E+00
 -1      3298 1.24785E+02 1.05013E+01 0.00000E+00
 -1      3299 1.23285E+02 1.05013E+01 0.00000E+00
 -1      3300 1.22535E+02 1.18003E+01 0.00000E+00
 -1      3301 1.27785E+02 1.05013E+01 0.00000E+00
 -1      3302 1.26285E+02 1.05013E+01 0.00000E+00
 -1      3303 1.25535E+02 1.18003E+01 0.00000E+00
 -1      3304 1.30785E+02 1.05013E+01 0.00000E+00
 -1      3305 1.29285E+02 1.05013E+01 0.00000E+00
 -1      3306 1.28535E+02 1.18003E+01 0.00000E+00
 -1      3307 1.33785E+02 1.05013E+01 0.00000E+00
 -1      3308 1.32285E+02 1.05013E+01 0.00000E+00
 -1      3309 1.31535E+02 1.18003E+01 0.00000E+00
 -1      3310 1.10790E+02 3.76857E+01 0.00000E+00
 -1      3311 1.14941E+02 1.77274E+01 0.00000E+00
 -1      3312 1.15605E+02 1.90271E+01 0.00000E+00
 -1      3313 1.15515E+02 1.66464E+01 0.00000E+00
 -1      3314 1.16910E+01 2.12875E+01 0.00000E+00
 -1      3315 1.16910E+01 2.27625E+01 0.00000E+00
 -1      3316 9.97618E+01 3.85619E+01 0.00000E+00
 -1      3317 1.38309E+02 3.45625E+01 0.00000E+00
 -1      3318 1.38309E+02 3.30875E+01 0.00000E+00
 -1      3319 1.38309E+02 2.57500E+01 0.00000E+00
 -1      3320 1.38309E+02 2.42750E+01 0.00000E+00
 -1      3321 1.37010E+02 2.64750E+01 0.00000E+00
 -1      3322 9.47728E+01 3.59579E+01 0.00000E+00
 -1      3323 9.40649E+01 3.53586E+01 0.00000E+00
 -1      3324 1.39407E+02 1.25250E+01 0.00000E+00
 -1      3325 1.26488E+01 1.02017E+01 0.00000E+00
 -1      3326 1.20772E+01 1.14631E+01 0.00000E+00
 -1      3327 1.33763E+01 1.22006E+01 0.00000E+00
 -1      3328 1.41488E+01 1.02017E+01 0.00000E+00
 -1      3329 9.27939E+01 1.50600E+01 0.00000E+00
 -1      3330 9.39067E+01 1.38472E+01 0.00000E+00
 -1      3331 1.14268E+02 3.37279E+01 0.00000E+00
 -1      3332 1.13334E+02 3.46912E+01 0.00000E+00
 -1      3333 1.15801E+02 3.13344E+01 0.00000E+00
 -1      3334 1.15193E+02 3.24686E+01 0.00000E+00
 -1      3335 1.38309E+02 3.16187E+01 0.00000E+00
 -1      3336 1.38309E+02 3.01437E+01 0.00000E+00
 -1      3337 1.37010E+02 2.94188E+01 0.00000E+00
 -1      3338 1.37010E+02 3.23563E+01 0.00000E+00
 -1      3339 1.16517E+02 2.31106E+01 0.00000E+00
 -1      3340 1.16746E+02 2.42876E+01 0.00000E+00
 -1      3341 1.01262E+02 3.85619E+01 0.00000E+00
 -1      3342 9.03535E+01 2.06358E+01 0.00000E+00
 -1      3343 9.06387E+01 1.94435E+01 0.00000E+00
 -1      3344 3.77850E+01 1.05013E+01 0.00000E+00
 -1      3345 3.62850E+01 1.05013E+01 0.00000E+00
 -1      3346 3.55350E+01 1.18003E+01 0.00000E+00
 -1      3347 3.85350E+01 1.18003E+01 0.00000E+00
 -1      3348 8.95284E+01 2.29420E+01 0.00000E+00
 -1      3349 8.99409E+01 2.17889E+01 0.00000E+00
 -1      3350 8.90865E+01 2.09543E+01 0.00000E+00
 -1      3351 1.12710E+01 3.74352E+01 0.00000E+00
 -1      3352 1.20855E+01 3.78721E+01 0.00000E+00
 -1      3353 1.12065E+01 3.56994E+01 0.00000E+00
 -1      3354 1.16864E+02 2.56451E+01 0.00000E+00
 -1      3355 1.16840E+02 2.68212E+01 0.00000E+00
 -1      3356 1.59000E+01 3.83090E+01 0.00000E+00
 -1      3357 1.74000E+01 3.83090E+01 0.00000E+00
 -1      3358 1.81500E+01 3.70100E+01 0.00000E+00
 -1      3359 1.16249E+02 2.05294E+01 0.00000E+00
 -1      3360 1.16514E+02 2.18182E+01 0.00000E+00
 -1      3361 9.59966E+01 3.75096E+01 0.00000E+00
 -1      3362 9.57377E+01 1.21207E+01 0.00000E+00
 -1      3363 9.47367E+01 1.04135E+01 0.00000E+00
 -1      3364 9.32367E+01 1.04135E+01 0.00000E+00
 -1      3365 9.46402E+01 1.28359E+01 0.00000E+00
 -1      3366 9.49262E+01 3.80563E+01 0.00000E+00
 -1      3367 1.16910E+01 2.42375E+01 0.00000E+00
 -1      3368 1.16910E+01 2.57125E+01 0.00000E+00
 -1      3369 1.29900E+01 2.35000E+01 0.00000E+00
 -1      3370 1.29900E+01 1.46687E+01 0.00000E+00
 -1      3371 1.16910E+01 1.54063E+01 0.00000E+00
 -1      3372 1.16910E+01 1.68750E+01 0.00000E+00
 -1      3373 8.84196E+01 2.36845E+01 0.00000E+00
 -1      3374 9.32050E+01 1.26360E+01 0.00000E+00
 -1      3375 9.22140E+01 3.23743E+01 0.00000E+00
 -1      3376 9.13800E+01 3.20239E+01 0.00000E+00
 -1      3377 9.20755E+01 3.33423E+01 0.00000E+00
 -1      3378 1.51500E+01 3.70100E+01 0.00000E+00
 -1      3379 9.26762E+01 3.67573E+01 0.00000E+00
 -1      3380 9.34262E+01 3.80563E+01 0.00000E+00
 -1      3381 1.38309E+02 1.69188E+01 0.00000E+00
 -1      3382 1.38309E+02 1.54563E+01 0.00000E+00
 -1      3383 1.17591E+02 2.48928E+01 0.00000E+00
 -1      3384 9.24867E+01 1.17125E+01 0.00000E+00
 -1      3385 1.05251E+02 3.86423E+01 0.00000E+00
 -1      3386 1.38309E+02 1.83937E+01 0.00000E+00
 -1      3387 1.37010E+02 1.76625E+01 0.00000E+00
 -1      3388 1.38309E+02 1.98687E+01 0.00000E+00
 -1      3389 1.16823E+02 1.94484E+01 0.00000E+00
 -1      3390 9.13977E+01 1.51697E+01 0.00000E+00
 -1      3391 1.17471E+02 2.22430E+01 0.00000E+00
 -1      3392 9.29911E+01 3.59280E+01 0.00000E+00
 -1      3393 9.33535E+01 3.47820E+01 0.00000E+00
 -1      3394 9.25946E+01 3.45221E+01 0.00000E+00
 -1      3395 9.19649E+01 3.61807E+01 0.00000E+00
 -1      3396 2.05350E+01 1.18003E+01 0.00000E+00
 -1      3397 1.97850E+01 1.05013E+01 0.00000E+00
 -1      3398 1.82850E+01 1.05013E+01 0.00000E+00
 -1      3399 2.95350E+01 1.18003E+01 0.00000E+00
 -1      3400 2.87850E+01 1.05013E+01 0.00000E+00
 -1      3401 2.72850E+01 1.05013E+01 0.00000E+00
 -1      3402 8.99116E+01 1.82467E+01 0.00000E+00
 -1      3403 1.16535E+02 1.18003E+01 0.00000E+00
 -1      3404 1.15785E+02 1.05013E+01 0.00000E+00
 -1      3405 1.14285E+02 1.05013E+01 0.00000E+00
 -1      3406 1.34953E+02 1.07819E+01 0.00000E+00
 -1      3407 1.34203E+02 1.20809E+01 0.00000E+00
 -1      3408 1.36120E+02 1.10626E+01 0.00000E+00
 -1      3409 1.16910E+01 1.98188E+01 0.00000E+00
 -1      3410 1.29900E+01 2.05562E+01 0.00000E+00
 -1      3411 1.16910E+01 1.83500E+01 0.00000E+00
 -1      3412 1.38309E+02 2.28094E+01 0.00000E+00
 -1      3413 1.38309E+02 2.13344E+01 0.00000E+00
 -1      3414 1.37010E+02 2.06031E+01 0.00000E+00
 -1      3415 1.37010E+02 2.35344E+01 0.00000E+00
 -1      3416 9.06802E+01 2.97185E+01 0.00000E+00
 -1      3417 8.96516E+01 2.92601E+01 0.00000E+00
 -1      3418 9.04898E+01 3.05975E+01 0.00000E+00
 -1      3419 1.17319E+02 2.76659E+01 0.00000E+00
 -1      3420 1.17797E+02 2.85106E+01 0.00000E+00
 -1      3421 1.18188E+02 2.70950E+01 0.00000E+00
 -1      3422 1.17453E+02 3.00932E+01 0.00000E+00
 -1      3423 1.16627E+02 3.07138E+01 0.00000E+00
 -1      3424 1.17153E+02 3.17255E+01 0.00000E+00
 -1      3425 8.90036E+01 2.68214E+01 0.00000E+00
 -1      3426 8.78945E+01 2.60794E+01 0.00000E+00
 -1      3427 8.87329E+01 2.76392E+01 0.00000E+00
 -1      3428 1.13282E+02 1.22294E+01 0.00000E+00
 -1      3429 1.15402E+02 3.36055E+01 0.00000E+00
 -1      3430 1.13563E+02 3.60437E+01 0.00000E+00
 -1      3431 1.38274E+02 1.38503E+01 0.00000E+00
 -1      3432 1.38073E+02 1.16503E+01 0.00000E+00
 -1      3433 1.36905E+02 1.13696E+01 0.00000E+00
 -1      3434 1.36975E+02 1.45815E+01 0.00000E+00
 -1      3435 2.42850E+01 1.05013E+01 0.00000E+00
 -1      3436 2.35350E+01 1.18003E+01 0.00000E+00
 -1      3437 2.57850E+01 1.05013E+01 0.00000E+00
 -1      3438 1.13723E+02 1.34844E+01 0.00000E+00
 -1      3439 1.69669E+01 1.03515E+01 0.00000E+00
 -1      3440 1.54669E+01 1.03515E+01 0.00000E+00
 -1      3441 1.50806E+01 1.13509E+01 0.00000E+00
 -1      3442 1.77169E+01 1.16505E+01 0.00000E+00
 -1      3443 1.14943E+02 1.35735E+01 0.00000E+00
 -1      3444 1.16910E+01 3.01219E+01 0.00000E+00
 -1      3445 1.16910E+01 3.15906E+01 0.00000E+00
 -1      3446 1.28355E+01 3.65731E+01 0.00000E+00
 -1      3447 1.37758E+02 3.65178E+01 0.00000E+00
 -1      3448 1.38123E+02 3.54408E+01 0.00000E+00
 -1      3449 1.36824E+02 3.47033E+01 0.00000E+00
 -1      3450 1.36451E+02 3.64600E+01 0.00000E+00
 -1      3451 1.14487E+01 3.29106E+01 0.00000E+00
 -1      3452 1.14487E+01 3.43794E+01 0.00000E+00
 -1      3453 1.22633E+01 3.48162E+01 0.00000E+00
 -1      3454 1.27478E+01 3.21763E+01 0.00000E+00
 -1      3455 1.16071E+02 1.33367E+01 0.00000E+00
 -1      3456 1.15979E+02 1.51099E+01 0.00000E+00
 -1      3457 1.16642E+02 1.64097E+01 0.00000E+00
 -1      3458 1.17571E+02 1.33367E+01 0.00000E+00
 -1      3459 1.18553E+02 2.41251E+01 0.00000E+00
 -1      3460 1.18672E+02 2.54826E+01 0.00000E+00
 -1      3461 2.34000E+01 3.57110E+01 0.00000E+00
 -1      3462 2.49000E+01 3.57110E+01 0.00000E+00
 -1      3463 2.64000E+01 3.57110E+01 0.00000E+00
 -1      3464 2.79000E+01 3.57110E+01 0.00000E+00
 -1      3465 2.56500E+01 3.44120E+01 0.00000E+00
 -1      3466 2.94000E+01 3.57110E+01 0.00000E+00
 -1      3467 3.09000E+01 3.57110E+01 0.00000E+00
 -1      3468 2.86500E+01 3.44120E+01 0.00000E+00
 -1      3469 3.24000E+01 3.57110E+01 0.00000E+00
 -1      3470 3.39000E+01 3.57110E+01 0.00000E+00
 -1      3471 3.16500E+01 3.44120E+01 0.00000E+00
 -1      3472 3.54000E+01 3.57110E+01 0.00000E+00
 -1      3473 3.69000E+01 3.57110E+01 0.00000E+00
 -1      3474 3.46500E+01 3.44120E+01 0.00000E+00
 -1      3475 3.84000E+01 3.57110E+01 0.00000E+00
 -1      3476 3.99000E+01 3.57110E+01 0.00000E+00
 -1      3477 3.76500E+01 3.44120E+01 0.00000E+00
 -1      3478 4.14000E+01 3.57110E+01 0.00000E+00
 -1      3479 4.29000E+01 3.57110E+01 0.00000E+00
 -1      3480 4.06500E+01 3.44120E+01 0.00000E+00
 -1      3481 4.44000E+01 3.57110E+01 0.00000E+00
 -1      3482 4.59000E+01 3.57110E+01 0.00000E+00
 -1      3483 4.36500E+01 3.44120E+01 0.00000E+00
 -1      3484 4.74000E+01 3.57110E+01 0.00000E+00
 -1      3485 4.89000E+01 3.57110E+01 0.00000E+00
 -1      3486 4.66500E+01 3.44120E+01 0.00000E+00
 -1      3487 5.04000E+01 3.57110E+01 0.00000E+00
 -1      3488 5.19000E+01 3.57110E+01 0.00000E+00
 -1      3489 4.96500E+01 3.44120E+01 0.00000E+00
 -1      3490 5.34000E+01 3.57110E+01 0.00000E+00
 -1      3491 5.49000E+01 3.57110E+01 0.00000E+00
 -1      3492 5.26500E+01 3.44120E+01 0.00000E+00
 -1      3493 5.64000E+01 3.57110E+01 0.00000E+00
 -1      3494 5.79000E+01 3.57110E+01 0.00000E+00
 -1      3495 5.56500E+01 3.44120E+01 0.00000E+00
 -1      3496 5.94000E+01 3.57110E+01 0.00000E+00
 -1      3497 6.09000E+01 3.57110E+01 0.00000E+00
 -1      3498 5.86500E+01 3.44120E+01 0.00000E+00
 -1      3499 6.24000E+01 3.57110E+01 0.00000E+00
 -1      3500 6.39000E+01 3.57110E+01 0.00000E+00
 -1      3501 6.16500E+01 3.44120E+01 0.00000E+00
 -1      3502 6.54000E+01 3.57110E+01 0.00000E+00
 -1      3503 6.69000E+01 3.57110E+01 0.00000E+00
 -1      3504 6.46500E+01 3.44120E+01 0.00000E+00
 -1      3505 6.84000E+01 3.57110E+01 0.00000E+00
 -1      3506 6.99000E+01 3.57110E+01 0.00000E+00
 -1      3507 6.76500E+01 3.44120E+01 0.00000E+00
 -1      3508 7.14000E+01 3.57110E+01 0.00000E+00
 -1      3509 7.29000E+01 3.57110E+01 0.00000E+00
 -1      3510 7.06500E+01 3.44120E+01 0.00000E+00
 -1      3511 7.44000E+01 3.57110E+01 0.00000E+00
 -1      3512 7.59000E+01 3.57110E+01 0.00000E+00
 -1      3513 7.36500E+01 3.44120E+01 0.00000E+00
 -1      3514 7.74000E+01 3.57110E+01 0.00000E+00
 -1      3515 7.89000E+01 3.57110E+01 0.00000E+00
 -1      3516 7.66500E+01 3.44120E+01 0.00000E+00
 -1      3517 8.04000E+01 3.57110E+01 0.00000E+00
 -1      3518 8.19000E+01 3.57110E+01 0.00000E+00
 -1      3519 7.96500E+01 3.44120E+01 0.00000E+00
 -1      3520 8.34000E+01 3.57110E+01 0.00000E+00
 -1      3521 8.49000E+01 3.57110E+01 0.00000E+00
 -1      3522 8.26500E+01 3.44120E+01 0.00000E+00
 -1      3523 8.64000E+01 3.57110E+01 0.00000E+00
 -1      3524 8.79000E+01 3.57110E+01 0.00000E+00
 -1      3525 8.56500E+01 3.44120E+01 0.00000E+00
 -1      3526 8.91824E+01 3.59458E+01 0.00000E+00
 -1      3527 9.06824E+01 3.59458E+01 0.00000E+00
 -1      3528 9.09973E+01 3.51165E+01 0.00000E+00
 -1      3529 8.84324E+01 3.46468E+01 0.00000E+00
 -1      3530 1.19400E+02 3.59236E+01 0.00000E+00
 -1      3531 1.20900E+02 3.59236E+01 0.00000E+00
 -1      3532 1.22400E+02 3.59236E+01 0.00000E+00
 -1      3533 1.23900E+02 3.59236E+01 0.00000E+00
 -1      3534 1.21650E+02 3.46246E+01 0.00000E+00
 -1      3535 1.25400E+02 3.59236E+01 0.00000E+00
 -1      3536 1.26900E+02 3.59236E+01 0.00000E+00
 -1      3537 1.24650E+02 3.46246E+01 0.00000E+00
 -1      3538 1.28400E+02 3.59236E+01 0.00000E+00
 -1      3539 1.29900E+02 3.59236E+01 0.00000E+00
 -1      3540 1.27650E+02 3.46246E+01 0.00000E+00
 -1      3541 1.31400E+02 3.59236E+01 0.00000E+00
 -1      3542 1.32900E+02 3.59236E+01 0.00000E+00
 -1      3543 1.30650E+02 3.46246E+01 0.00000E+00
 -1      3544 8.79939E+01 2.12137E+01 0.00000E+00
 -1      3545 8.84065E+01 2.00606E+01 0.00000E+00
 -1      3546 4.52850E+01 1.30992E+01 0.00000E+00
 -1      3547 4.37850E+01 1.30992E+01 0.00000E+00
 -1      3548 4.22850E+01 1.30992E+01 0.00000E+00
 -1      3549 4.07850E+01 1.30992E+01 0.00000E+00
 -1      3550 4.30350E+01 1.43982E+01 0.00000E+00
 -1      3551 5.12850E+01 1.30992E+01 0.00000E+00
 -1      3552 4.97850E+01 1.30992E+01 0.00000E+00
 -1      3553 5.42850E+01 1.30992E+01 0.00000E+00
 -1      3554 5.27850E+01 1.30992E+01 0.00000E+00
 -1      3555 5.20350E+01 1.43982E+01 0.00000E+00
 -1      3556 5.72850E+01 1.30992E+01 0.00000E+00
 -1      3557 5.57850E+01 1.30992E+01 0.00000E+00
 -1      3558 5.50350E+01 1.43982E+01 0.00000E+00
 -1      3559 6.02850E+01 1.30992E+01 0.00000E+00
 -1      3560 5.87850E+01 1.30992E+01 0.00000E+00
 -1      3561 5.80350E+01 1.43982E+01 0.00000E+00
 -1      3562 6.32850E+01 1.30992E+01 0.00000E+00
 -1      3563 6.17850E+01 1.30992E+01 0.00000E+00
 -1      3564 6.10350E+01 1.43982E+01 0.00000E+00
 -1      3565 6.62850E+01 1.30992E+01 0.00000E+00
 -1      3566 6.47850E+01 1.30992E+01 0.00000E+00
 -1      3567 6.40350E+01 1.43982E+01 0.00000E+00
 -1      3568 6.92850E+01 1.30992E+01 0.00000E+00
 -1      3569 6.77850E+01 1.30992E+01 0.00000E+00
 -1      3570 6.70350E+01 1.43982E+01 0.00000E+00
 -1      3571 7.22850E+01 1.30992E+01 0.00000E+00
 -1      3572 7.07850E+01 1.30992E+01 0.00000E+00
 -1      3573 7.00350E+01 1.43982E+01 0.00000E+00
 -1      3574 7.52850E+01 1.30992E+01 0.00000E+00
 -1      3575 7.37850E+01 1.30992E+01 0.00000E+00
 -1      3576 7.30350E+01 1.43982E+01 0.00000E+00
 -1      3577 7.82850E+01 1.30992E+01 0.00000E+00
 -1      3578 7.67850E+01 1.30992E+01 0.00000E+00
 -1      3579 7.60350E+01 1.43982E+01 0.00000E+00
 -1      3580 8.12850E+01 1.30992E+01 0.00000E+00
 -1      3581 7.97850E+01 1.30992E+01 0.00000E+00
 -1      3582 7.90350E+01 1.43982E+01 0.00000E+00
 -1      3583 8.42850E+01 1.30992E+01 0.00000E+00
 -1      3584 8.27850E+01 1.30992E+01 0.00000E+00
 -1      3585 8.20350E+01 1.43982E+01 0.00000E+00
 -1      3586 8.72850E+01 1.30992E+01 0.00000E+00
 -1      3587 8.57850E+01 1.30992E+01 0.00000E+00
 -1      3588 8.50350E+01 1.43982E+01 0.00000E+00
 -1      3589 1.20571E+02 1.33367E+01 0.00000E+00
 -1      3590 1.19071E+02 1.33367E+01 0.00000E+00
 -1      3591 1.18607E+02 1.48732E+01 0.00000E+00
 -1      3592 1.29285E+02 1.30992E+01 0.00000E+00
 -1      3593 1.27785E+02 1.30992E+01 0.00000E+00
 -1      3594 1.32285E+02 1.30992E+01 0.00000E+00
 -1      3595 1.30785E+02 1.30992E+01 0.00000E+00
 -1      3596 1.30035E+02 1.43982E+01 0.00000E+00
 -1      3597 1.35711E+02 2.72125E+01 0.00000E+00
 -1      3598 1.35711E+02 2.57375E+01 0.00000E+00
 -1      3599 1.26285E+02 1.30992E+01 0.00000E+00
 -1      3600 1.24785E+02 1.30992E+01 0.00000E+00
 -1      3601 1.27035E+02 1.43982E+01 0.00000E+00
 -1      3602 1.23428E+02 1.32180E+01 0.00000E+00
 -1      3603 1.21928E+02 1.32180E+01 0.00000E+00
 -1      3604 1.21464E+02 1.47545E+01 0.00000E+00
 -1      3605 1.24178E+02 1.45170E+01 0.00000E+00
 -1      3606 4.82850E+01 1.30992E+01 0.00000E+00
 -1      3607 4.67850E+01 1.30992E+01 0.00000E+00
 -1      3608 4.60350E+01 1.43982E+01 0.00000E+00
 -1      3609 4.90350E+01 1.43982E+01 0.00000E+00
 -1      3610 8.71150E+01 2.42831E+01 0.00000E+00
 -1      3611 8.73693E+01 2.27060E+01 0.00000E+00
 -1      3612 3.32850E+01 1.30992E+01 0.00000E+00
 -1      3613 3.17850E+01 1.30992E+01 0.00000E+00
 -1      3614 9.17532E+01 1.27237E+01 0.00000E+00
 -1      3615 1.15063E+02 3.60437E+01 0.00000E+00
 -1      3616 1.17443E+02 1.82929E+01 0.00000E+00
 -1      3617 1.18088E+02 1.97951E+01 0.00000E+00
 -1      3618 8.88190E+01 1.85061E+01 0.00000E+00
 -1      3619 8.92314E+01 1.69517E+01 0.00000E+00
 -1      3620 8.77264E+01 1.87656E+01 0.00000E+00
 -1      3621 1.16910E+01 2.86531E+01 0.00000E+00
 -1      3622 1.29900E+01 2.93875E+01 0.00000E+00
 -1      3623 1.16910E+01 2.71844E+01 0.00000E+00
 -1      3624 1.30778E+01 3.52531E+01 0.00000E+00
 -1      3625 1.38923E+01 3.56900E+01 0.00000E+00
 -1      3626 1.33200E+01 3.39331E+01 0.00000E+00
 -1      3627 1.53923E+01 3.56900E+01 0.00000E+00
 -1      3628 1.15982E+02 3.48246E+01 0.00000E+00
 -1      3629 1.16569E+02 3.60035E+01 0.00000E+00
 -1      3630 1.18069E+02 3.60035E+01 0.00000E+00
 -1      3631 1.16907E+02 3.35652E+01 0.00000E+00
 -1      3632 1.74000E+01 3.57110E+01 0.00000E+00
 -1      3633 1.89000E+01 3.57110E+01 0.00000E+00
 -1      3634 1.46944E+01 1.23503E+01 0.00000E+00
 -1      3635 1.43081E+01 1.33498E+01 0.00000E+00
 -1      3636 1.60125E+01 1.25001E+01 0.00000E+00
 -1      3637 1.18548E+02 2.15404E+01 0.00000E+00
 -1      3638 1.18551E+02 2.28327E+01 0.00000E+00
 -1      3639 1.19631E+02 2.34225E+01 0.00000E+00
 -1      3640 2.04000E+01 3.57110E+01 0.00000E+00
 -1      3641 2.19000E+01 3.57110E+01 0.00000E+00
 -1      3642 2.26500E+01 3.44120E+01 0.00000E+00
 -1      3643 9.08255E+01 1.39467E+01 0.00000E+00
 -1      3644 9.01073E+01 1.30232E+01 0.00000E+00
 -1      3645 8.86073E+01 1.30232E+01 0.00000E+00
 -1      3646 8.97518E+01 1.54692E+01 0.00000E+00
 -1      3647 1.43081E+01 1.48185E+01 0.00000E+00
 -1      3648 9.17607E+01 3.41716E+01 0.00000E+00
 -1      3649 8.78573E+01 1.43222E+01 0.00000E+00
 -1      3650 2.42850E+01 1.30992E+01 0.00000E+00
 -1      3651 2.27850E+01 1.30992E+01 0.00000E+00
 -1      3652 9.03514E+01 3.15655E+01 0.00000E+00
 -1      3653 8.93227E+01 3.11070E+01 0.00000E+00
 -1      3654 9.02129E+01 3.25335E+01 0.00000E+00
 -1      3655 1.61423E+01 3.43910E+01 0.00000E+00
 -1      3656 1.42890E+01 2.86531E+01 0.00000E+00
 -1      3657 1.42890E+01 3.01219E+01 0.00000E+00
 -1      3658 8.66893E+01 2.18123E+01 0.00000E+00
 -1      3659 1.34022E+02 3.61629E+01 0.00000E+00
 -1      3660 1.35329E+02 3.62207E+01 0.00000E+00
 -1      3661 1.35515E+02 3.53424E+01 0.00000E+00
 -1      3662 1.33272E+02 3.48639E+01 0.00000E+00
 -1      3663 1.18819E+02 3.47045E+01 0.00000E+00
 -1      3664 3.02850E+01 1.30992E+01 0.00000E+00
 -1      3665 2.87850E+01 1.30992E+01 0.00000E+00
 -1      3666 3.10350E+01 1.43982E+01 0.00000E+00
 -1      3667 4.00350E+01 1.43982E+01 0.00000E+00
 -1      3668 3.92850E+01 1.30992E+01 0.00000E+00
 -1      3669 3.77850E+01 1.30992E+01 0.00000E+00
 -1      3670 2.20350E+01 1.43982E+01 0.00000E+00
 -1      3671 2.12850E+01 1.30992E+01 0.00000E+00
 -1      3672 1.97850E+01 1.30992E+01 0.00000E+00
 -1      3673 1.20112E+02 2.55595E+01 0.00000E+00
 -1      3674 1.19150E+02 2.63273E+01 0.00000E+00
 -1      3675 1.19628E+02 2.71719E+01 0.00000E+00
 -1      3676 1.36155E+02 1.26686E+01 0.00000E+00
 -1      3677 1.34620E+02 1.36606E+01 0.00000E+00
 -1      3678 1.33453E+02 1.33799E+01 0.00000E+00
 -1      3679 1.32703E+02 1.46789E+01 0.00000E+00
 -1      3680 1.34412E+02 2.50094E+01 0.00000E+00
 -1      3681 1.35711E+02 2.42719E+01 0.00000E+00
 -1      3682 1.35711E+02 2.28062E+01 0.00000E+00
 -1      3683 1.35711E+02 2.86812E+01 0.00000E+00
 -1      3684 1.34412E+02 2.79438E+01 0.00000E+00
 -1      3685 1.35711E+02 3.01500E+01 0.00000E+00
 -1      3686 1.29900E+01 1.76125E+01 0.00000E+00
 -1      3687 1.42890E+01 1.98219E+01 0.00000E+00
 -1      3688 1.42890E+01 2.12906E+01 0.00000E+00
 -1      3689 2.65350E+01 1.18003E+01 0.00000E+00
 -1      3690 1.39256E+01 3.13675E+01 0.00000E+00
 -1      3691 1.36834E+01 3.26875E+01 0.00000E+00
 -1      3692 1.44979E+01 3.31244E+01 0.00000E+00
 -1      3693 1.52246E+01 3.06331E+01 0.00000E+00
 -1      3694 8.83521E+01 2.93971E+01 0.00000E+00
 -1      3695 8.85425E+01 2.85181E+01 0.00000E+00
 -1      3696 8.74334E+01 2.77762E+01 0.00000E+00
 -1      3697 1.29900E+01 2.64469E+01 0.00000E+00
 -1      3698 1.18322E+02 2.95223E+01 0.00000E+00
 -1      3699 1.18848E+02 3.05340E+01 0.00000E+00
 -1      3700 1.19192E+02 2.89514E+01 0.00000E+00
 -1      3701 8.65735E+01 2.59188E+01 0.00000E+00
 -1      3702 8.68442E+01 2.51009E+01 0.00000E+00
 -1      3703 8.57940E+01 2.41225E+01 0.00000E+00
 -1      3704 3.47850E+01 1.30992E+01 0.00000E+00
 -1      3705 3.40350E+01 1.43982E+01 0.00000E+00
 -1      3706 3.62850E+01 1.30992E+01 0.00000E+00
 -1      3707 1.17907E+02 1.67564E+01 0.00000E+00
 -1      3708 1.19788E+02 1.92294E+01 0.00000E+00
 -1      3709 1.19168E+02 2.03849E+01 0.00000E+00
 -1      3710 1.20248E+02 2.09747E+01 0.00000E+00
 -1      3711 8.86592E+01 1.57287E+01 0.00000E+00
 -1      3712 1.17695E+02 3.26054E+01 0.00000E+00
 -1      3713 1.18276E+02 3.38246E+01 0.00000E+00
 -1      3714 1.19607E+02 3.37447E+01 0.00000E+00
 -1      3715 1.18522E+02 3.19848E+01 0.00000E+00
 -1      3716 1.96500E+01 3.44120E+01 0.00000E+00
 -1      3717 1.35711E+02 1.84000E+01 0.00000E+00
 -1      3718 1.35711E+02 1.69250E+01 0.00000E+00
 -1      3719 1.34141E+02 1.63111E+01 0.00000E+00
 -1      3720 1.35440E+02 1.55736E+01 0.00000E+00
 -1      3721 1.42890E+01 2.27656E+01 0.00000E+00
 -1      3722 1.42890E+01 2.42406E+01 0.00000E+00
 -1      3723 1.55880E+01 2.20313E+01 0.00000E+00
 -1      3724 1.35702E+02 3.44641E+01 0.00000E+00
 -1      3725 1.34487E+02 3.39296E+01 0.00000E+00
 -1      3726 1.35795E+02 3.32905E+01 0.00000E+00
 -1      3727 1.35795E+02 3.18218E+01 0.00000E+00
 -1      3728 1.33365E+02 3.36903E+01 0.00000E+00
 -1      3729 1.33244E+02 1.73818E+01 0.00000E+00
 -1      3730 1.32973E+02 1.60304E+01 0.00000E+00
 -1      3731 1.31806E+02 1.57497E+01 0.00000E+00
 -1      3732 2.79000E+01 3.31130E+01 0.00000E+00
 -1      3733 2.94000E+01 3.31130E+01 0.00000E+00
 -1      3734 3.09000E+01 3.31130E+01 0.00000E+00
 -1      3735 3.24000E+01 3.31130E+01 0.00000E+00
 -1      3736 3.01500E+01 3.18140E+01 0.00000E+00
 -1      3737 3.39000E+01 3.31130E+01 0.00000E+00
 -1      3738 3.54000E+01 3.31130E+01 0.00000E+00
 -1      3739 3.31500E+01 3.18140E+01 0.00000E+00
 -1      3740 3.69000E+01 3.31130E+01 0.00000E+00
 -1      3741 3.84000E+01 3.31130E+01 0.00000E+00
 -1      3742 3.61500E+01 3.18140E+01 0.00000E+00
 -1      3743 3.99000E+01 3.31130E+01 0.00000E+00
 -1      3744 4.14000E+01 3.31130E+01 0.00000E+00
 -1      3745 3.91500E+01 3.18140E+01 0.00000E+00
 -1      3746 4.29000E+01 3.31130E+01 0.00000E+00
 -1      3747 4.44000E+01 3.31130E+01 0.00000E+00
 -1      3748 4.21500E+01 3.18140E+01 0.00000E+00
 -1      3749 4.59000E+01 3.31130E+01 0.00000E+00
 -1      3750 4.74000E+01 3.31130E+01 0.00000E+00
 -1      3751 4.51500E+01 3.18140E+01 0.00000E+00
 -1      3752 4.89000E+01 3.31130E+01 0.00000E+00
 -1      3753 5.04000E+01 3.31130E+01 0.00000E+00
 -1      3754 4.81500E+01 3.18140E+01 0.00000E+00
 -1      3755 5.19000E+01 3.31130E+01 0.00000E+00
 -1      3756 5.34000E+01 3.31130E+01 0.00000E+00
 -1      3757 5.11500E+01 3.18140E+01 0.00000E+00
 -1      3758 5.49000E+01 3.31130E+01 0.00000E+00
 -1      3759 5.64000E+01 3.31130E+01 0.00000E+00
 -1      3760 5.41500E+01 3.18140E+01 0.00000E+00
 -1      3761 5.79000E+01 3.31130E+01 0.00000E+00
 -1      3762 5.94000E+01 3.31130E+01 0.00000E+00
 -1      3763 5.71500E+01 3.18140E+01 0.00000E+00
 -1      3764 6.09000E+01 3.31130E+01 0.00000E+00
 -1      3765 6.24000E+01 3.31130E+01 0.00000E+00
 -1      3766 6.01500E+01 3.18140E+01 0.00000E+00
 -1      3767 6.39000E+01 3.31130E+01 0.00000E+00
 -1      3768 6.54000E+01 3.31130E+01 0.00000E+00
 -1      3769 6.31500E+01 3.18140E+01 0.00000E+00
 -1      3770 6.69000E+01 3.31130E+01 0.00000E+00
 -1      3771 6.84000E+01 3.31130E+01 0.00000E+00
 -1      3772 6.61500E+01 3.18140E+01 0.00000E+00
 -1      3773 6.99000E+01 3.31130E+01 0.00000E+00
 -1      3774 7.14000E+01 3.31130E+01 0.00000E+00
 -1      3775 6.91500E+01 3.18140E+01 0.00000E+00
 -1      3776 7.29000E+01 3.31130E+01 0.00000E+00
 -1      3777 7.44000E+01 3.31130E+01 0.00000E+00
 -1      3778 7.21500E+01 3.18140E+01 0.00000E+00
 -1      3779 7.59000E+01 3.31130E+01 0.00000E+00
 -1      3780 7.74000E+01 3.31130E+01 0.00000E+00
 -1      3781 7.51500E+01 3.18140E+01 0.00000E+00
 -1      3782 7.89000E+01 3.31130E+01 0.00000E+00
 -1      3783 8.04000E+01 3.31130E+01 0.00000E+00
 -1      3784 7.81500E+01 3.18140E+01 0.00000E+00
 -1      3785 8.19000E+01 3.31130E+01 0.00000E+00
 -1      3786 8.34000E+01 3.31130E+01 0.00000E+00
 -1      3787 8.11500E+01 3.18140E+01 0.00000E+00
 -1      3788 8.49000E+01 3.31130E+01 0.00000E+00
 -1      3789 8.64000E+01 3.31130E+01 0.00000E+00
 -1      3790 8.41500E+01 3.18140E+01 0.00000E+00
 -1      3791 1.21107E+02 3.37447E+01 0.00000E+00
 -1      3792 1.22607E+02 3.37447E+01 0.00000E+00
 -1      3793 1.20565E+02 3.28648E+01 0.00000E+00
 -1      3794 8.54313E+01 2.21627E+01 0.00000E+00
 -1      3795 8.60560E+01 2.06704E+01 0.00000E+00
 -1      3796 1.24107E+02 3.37447E+01 0.00000E+00
 -1      3797 1.25607E+02 3.37447E+01 0.00000E+00
 -1      3798 1.23565E+02 3.28648E+01 0.00000E+00
 -1      3799 1.27107E+02 3.37447E+01 0.00000E+00
 -1      3800 1.28607E+02 3.37447E+01 0.00000E+00
 -1      3801 1.26565E+02 3.28648E+01 0.00000E+00
 -1      3802 1.30107E+02 3.37447E+01 0.00000E+00
 -1      3803 1.31607E+02 3.37447E+01 0.00000E+00
 -1      3804 1.29565E+02 3.28648E+01 0.00000E+00
 -1      3805 5.57850E+01 1.56973E+01 0.00000E+00
 -1      3806 5.42850E+01 1.56973E+01 0.00000E+00
 -1      3807 5.27850E+01 1.56973E+01 0.00000E+00
 -1      3808 5.12850E+01 1.56973E+01 0.00000E+00
 -1      3809 5.35350E+01 1.69963E+01 0.00000E+00
 -1      3810 6.17850E+01 1.56973E+01 0.00000E+00
 -1      3811 6.02850E+01 1.56973E+01 0.00000E+00
 -1      3812 6.47850E+01 1.56973E+01 0.00000E+00
 -1      3813 6.32850E+01 1.56973E+01 0.00000E+00
 -1      3814 6.25350E+01 1.69963E+01 0.00000E+00
 -1      3815 6.77850E+01 1.56973E+01 0.00000E+00
 -1      3816 6.62850E+01 1.56973E+01 0.00000E+00
 -1      3817 6.55350E+01 1.69963E+01 0.00000E+00
 -1      3818 7.07850E+01 1.56973E+01 0.00000E+00
 -1      3819 6.92850E+01 1.56973E+01 0.00000E+00
 -1      3820 6.85350E+01 1.69963E+01 0.00000E+00
 -1      3821 7.37850E+01 1.56973E+01 0.00000E+00
 -1      3822 7.22850E+01 1.56973E+01 0.00000E+00
 -1      3823 7.15350E+01 1.69963E+01 0.00000E+00
 -1      3824 7.67850E+01 1.56973E+01 0.00000E+00
 -1      3825 7.52850E+01 1.56973E+01 0.00000E+00
 -1      3826 7.45350E+01 1.69963E+01 0.00000E+00
 -1      3827 7.97850E+01 1.56973E+01 0.00000E+00
 -1      3828 7.82850E+01 1.56973E+01 0.00000E+00
 -1      3829 7.75350E+01 1.69963E+01 0.00000E+00
 -1      3830 8.27850E+01 1.56973E+01 0.00000E+00
 -1      3831 8.12850E+01 1.56973E+01 0.00000E+00
 -1      3832 8.05350E+01 1.69963E+01 0.00000E+00
 -1      3833 8.57850E+01 1.56973E+01 0.00000E+00
 -1      3834 8.42850E+01 1.56973E+01 0.00000E+00
 -1      3835 8.35350E+01 1.69963E+01 0.00000E+00
 -1      3836 1.19407E+02 1.67564E+01 0.00000E+00
 -1      3837 1.58860E+01 1.50773E+01 0.00000E+00
 -1      3838 1.45679E+01 1.63963E+01 0.00000E+00
 -1      3839 8.73369E+01 1.58047E+01 0.00000E+00
 -1      3840 4.37850E+01 1.56973E+01 0.00000E+00
 -1      3841 4.22850E+01 1.56973E+01 0.00000E+00
 -1      3842 1.30306E+02 1.57497E+01 0.00000E+00
 -1      3843 1.28806E+02 1.57497E+01 0.00000E+00
 -1      3844 1.30577E+02 1.71011E+01 0.00000E+00
 -1      3845 2.72850E+01 1.30992E+01 0.00000E+00
 -1      3846 2.57850E+01 1.30992E+01 0.00000E+00
 -1      3847 2.50350E+01 1.43982E+01 0.00000E+00
 -1      3848 2.19000E+01 3.31130E+01 0.00000E+00
 -1      3849 2.34000E+01 3.31130E+01 0.00000E+00
 -1      3850 1.42890E+01 2.57109E+01 0.00000E+00
 -1      3851 1.42890E+01 2.71828E+01 0.00000E+00
 -1      3852 1.55880E+01 2.79172E+01 0.00000E+00
 -1      3853 1.55880E+01 2.49766E+01 0.00000E+00
 -1      3854 1.89000E+01 3.31130E+01 0.00000E+00
 -1      3855 2.04000E+01 3.31130E+01 0.00000E+00
 -1      3856 2.11500E+01 3.18140E+01 0.00000E+00
 -1      3857 8.61745E+01 1.86581E+01 0.00000E+00
 -1      3858 8.65869E+01 1.71037E+01 0.00000E+00
 -1      3859 1.35405E+02 1.39676E+01 0.00000E+00
 -1      3860 1.27306E+02 1.57497E+01 0.00000E+00
 -1      3861 1.25806E+02 1.57497E+01 0.00000E+00
 -1      3862 1.27576E+02 1.71011E+01 0.00000E+00
 -1      3863 1.20823E+02 2.27741E+01 0.00000E+00
 -1      3864 1.20825E+02 2.40664E+01 0.00000E+00
 -1      3865 1.85578E+01 1.28746E+01 0.00000E+00
 -1      3866 1.72397E+01 1.27248E+01 0.00000E+00
 -1      3867 1.68534E+01 1.37242E+01 0.00000E+00
 -1      3868 1.93078E+01 1.41736E+01 0.00000E+00
 -1      3869 1.45679E+01 1.78713E+01 0.00000E+00
 -1      3870 5.87850E+01 1.56973E+01 0.00000E+00
 -1      3871 5.72850E+01 1.56973E+01 0.00000E+00
 -1      3872 5.95350E+01 1.69963E+01 0.00000E+00
 -1      3873 1.35711E+02 2.13359E+01 0.00000E+00
 -1      3874 1.35711E+02 1.98703E+01 0.00000E+00
 -1      3875 1.34412E+02 1.91328E+01 0.00000E+00
 -1      3876 1.34412E+02 2.20734E+01 0.00000E+00
 -1      3877 9.04782E+01 3.39368E+01 0.00000E+00
 -1      3878 1.65056E+01 3.31454E+01 0.00000E+00
 -1      3879 2.49000E+01 3.31130E+01 0.00000E+00
 -1      3880 2.64000E+01 3.31130E+01 0.00000E+00
 -1      3881 2.41500E+01 3.18140E+01 0.00000E+00
 -1      3882 1.20976E+02 1.60503E+01 0.00000E+00
 -1      3883 1.20276E+02 1.79335E+01 0.00000E+00
 -1      3884 1.21356E+02 1.85233E+01 0.00000E+00
 -1      3885 1.22333E+02 1.59316E+01 0.00000E+00
 -1      3886 8.94496E+01 3.34784E+01 0.00000E+00
 -1      3887 1.72556E+01 3.18464E+01 0.00000E+00
 -1      3888 2.71500E+01 3.18140E+01 0.00000E+00
 -1      3889 8.81671E+01 3.32435E+01 0.00000E+00
 -1      3890 8.47782E+01 2.32715E+01 0.00000E+00
 -1      3891 8.41449E+01 2.21295E+01 0.00000E+00
 -1      3892 8.61927E+01 2.76767E+01 0.00000E+00
 -1      3893 8.63831E+01 2.67977E+01 0.00000E+00
 -1      3894 8.53328E+01 2.58192E+01 0.00000E+00
 -1      3895 1.32822E+02 3.28104E+01 0.00000E+00
 -1      3896 5.65350E+01 1.69963E+01 0.00000E+00
 -1      3897 2.57850E+01 1.56973E+01 0.00000E+00
 -1      3898 2.42850E+01 1.56973E+01 0.00000E+00
 -1      3899 3.17850E+01 1.56973E+01 0.00000E+00
 -1      3900 3.02850E+01 1.56973E+01 0.00000E+00
 -1      3901 4.07850E+01 1.56973E+01 0.00000E+00
 -1      3902 3.92850E+01 1.56973E+01 0.00000E+00
 -1      3903 4.15350E+01 1.69963E+01 0.00000E+00
 -1      3904 1.34496E+02 3.10843E+01 0.00000E+00
 -1      3905 2.27850E+01 1.56973E+01 0.00000E+00
 -1      3906 2.12850E+01 1.56973E+01 0.00000E+00
 -1      3907 2.35350E+01 1.69963E+01 0.00000E+00
 -1      3908 5.05350E+01 1.69963E+01 0.00000E+00
 -1      3909 4.97850E+01 1.56973E+01 0.00000E+00
 -1      3910 4.82850E+01 1.56973E+01 0.00000E+00
 -1      3911 1.71132E+01 1.53020E+01 0.00000E+00
 -1      3912 1.21303E+02 2.49111E+01 0.00000E+00
 -1      3913 4.52850E+01 1.56973E+01 0.00000E+00
 -1      3914 4.45350E+01 1.69963E+01 0.00000E+00
 -1      3915 4.67850E+01 1.56973E+01 0.00000E+00
 -1      3916 1.33113E+02 2.57422E+01 0.00000E+00
 -1      3917 1.33113E+02 2.42766E+01 0.00000E+00
 -1      3918 2.80350E+01 1.43982E+01 0.00000E+00
 -1      3919 1.58669E+01 1.86056E+01 0.00000E+00
 -1      3920 1.76190E+01 3.06007E+01 0.00000E+00
 -1      3921 1.76190E+01 2.76601E+01 0.00000E+00
 -1      3922 1.76190E+01 2.91304E+01 0.00000E+00
 -1      3923 1.96500E+01 3.03437E+01 0.00000E+00
 -1      3924 1.33113E+02 2.86797E+01 0.00000E+00
 -1      3925 1.33113E+02 2.72109E+01 0.00000E+00
 -1      3926 1.31814E+02 2.64781E+01 0.00000E+00
 -1      3927 1.20154E+02 2.81837E+01 0.00000E+00
 -1      3928 1.20680E+02 2.91954E+01 0.00000E+00
 -1      3929 1.21116E+02 2.74159E+01 0.00000E+00
 -1      3930 1.24748E+02 1.57813E+01 0.00000E+00
 -1      3931 1.23391E+02 1.59000E+01 0.00000E+00
 -1      3932 1.22902E+02 1.71959E+01 0.00000E+00
 -1      3933 1.25018E+02 1.71327E+01 0.00000E+00
 -1      3934 8.49165E+01 1.90085E+01 0.00000E+00
 -1      3935 3.70350E+01 1.43982E+01 0.00000E+00
 -1      3936 8.74171E+01 3.19445E+01 0.00000E+00
 -1      3937 1.21442E+02 2.16186E+01 0.00000E+00
 -1      3938 1.22636E+02 2.22625E+01 0.00000E+00
 -1      3939 1.22062E+02 2.04631E+01 0.00000E+00
 -1      3940 1.33244E+02 2.03224E+01 0.00000E+00
 -1      3941 1.33244E+02 1.88521E+01 0.00000E+00
 -1      3942 1.32077E+02 1.85714E+01 0.00000E+00
 -1      3943 1.19391E+02 3.14140E+01 0.00000E+00
 -1      3944 1.72923E+01 1.78142E+01 0.00000E+00
 -1      3945 1.70134E+01 1.97648E+01 0.00000E+00
 -1      3946 8.45075E+01 2.40893E+01 0.00000E+00
 -1      3947 1.70134E+01 2.12398E+01 0.00000E+00
 -1      3948 1.70134E+01 2.27148E+01 0.00000E+00
 -1      3949 1.84387E+01 2.04483E+01 0.00000E+00
 -1      3950 3.47850E+01 1.56973E+01 0.00000E+00
 -1      3951 3.32850E+01 1.56973E+01 0.00000E+00
 -1      3952 3.25350E+01 1.69963E+01 0.00000E+00
 -1      3953 8.78154E+01 3.11548E+01 0.00000E+00
 -1      3954 8.79538E+01 3.01868E+01 0.00000E+00
 -1      3955 8.68448E+01 2.94449E+01 0.00000E+00
 -1      3956 8.60482E+01 3.10243E+01 0.00000E+00
 -1      3957 3.24000E+01 3.05150E+01 0.00000E+00
 -1      3958 3.39000E+01 3.05150E+01 0.00000E+00
 -1      3959 3.54000E+01 3.05150E+01 0.00000E+00
 -1      3960 3.69000E+01 3.05150E+01 0.00000E+00
 -1      3961 3.46500E+01 2.92160E+01 0.00000E+00
 -1      3962 3.84000E+01 3.05150E+01 0.00000E+00
 -1      3963 3.99000E+01 3.05150E+01 0.00000E+00
 -1      3964 3.76500E+01 2.92160E+01 0.00000E+00
 -1      3965 4.14000E+01 3.05150E+01 0.00000E+00
 -1      3966 4.29000E+01 3.05150E+01 0.00000E+00
 -1      3967 4.06500E+01 2.92160E+01 0.00000E+00
 -1      3968 4.44000E+01 3.05150E+01 0.00000E+00
 -1      3969 4.59000E+01 3.05150E+01 0.00000E+00
 -1      3970 4.36500E+01 2.92160E+01 0.00000E+00
 -1      3971 4.74000E+01 3.05150E+01 0.00000E+00
 -1      3972 4.89000E+01 3.05150E+01 0.00000E+00
 -1      3973 4.66500E+01 2.92160E+01 0.00000E+00
 -1      3974 5.04000E+01 3.05150E+01 0.00000E+00
 -1      3975 5.19000E+01 3.05150E+01 0.00000E+00
 -1      3976 4.96500E+01 2.92160E+01 0.00000E+00
 -1      3977 5.34000E+01 3.05150E+01 0.00000E+00
 -1      3978 5.49000E+01 3.05150E+01 0.00000E+00
 -1      3979 5.26500E+01 2.92160E+01 0.00000E+00
 -1      3980 5.64000E+01 3.05150E+01 0.00000E+00
 -1      3981 5.79000E+01 3.05150E+01 0.00000E+00
 -1      3982 5.56500E+01 2.92160E+01 0.00000E+00
 -1      3983 5.94000E+01 3.05150E+01 0.00000E+00
 -1      3984 6.09000E+01 3.05150E+01 0.00000E+00
 -1      3985 5.86500E+01 2.92160E+01 0.00000E+00
 -1      3986 6.24000E+01 3.05150E+01 0.00000E+00
 -1      3987 6.39000E+01 3.05150E+01 0.00000E+00
 -1      3988 6.16500E+01 2.92160E+01 0.00000E+00
 -1      3989 6.54000E+01 3.05150E+01 0.00000E+00
 -1      3990 6.69000E+01 3.05150E+01 0.00000E+00
 -1      3991 6.46500E+01 2.92160E+01 0.00000E+00
 -1      3992 6.84000E+01 3.05150E+01 0.00000E+00
 -1      3993 6.99000E+01 3.05150E+01 0.00000E+00
 -1      3994 6.76500E+01 2.92160E+01 0.00000E+00
 -1      3995 7.14000E+01 3.05150E+01 0.00000E+00
 -1      3996 7.29000E+01 3.05150E+01 0.00000E+00
 -1      3997 7.06500E+01 2.92160E+01 0.00000E+00
 -1      3998 7.44000E+01 3.05150E+01 0.00000E+00
 -1      3999 7.59000E+01 3.05150E+01 0.00000E+00
 -1      4000 7.36500E+01 2.92160E+01 0.00000E+00
 -1      4001 7.74000E+01 3.05150E+01 0.00000E+00
 -1      4002 7.89000E+01 3.05150E+01 0.00000E+00
 -1      4003 7.66500E+01 2.92160E+01 0.00000E+00
 -1      4004 8.04000E+01 3.05150E+01 0.00000E+00
 -1      4005 8.19000E+01 3.05150E+01 0.00000E+00
 -1      4006 7.96500E+01 2.92160E+01 0.00000E+00
 -1      4007 8.32241E+01 3.07696E+01 0.00000E+00
 -1      4008 8.47241E+01 3.07696E+01 0.00000E+00
 -1      4009 8.51224E+01 2.99799E+01 0.00000E+00
 -1      4010 8.24741E+01 2.94706E+01 0.00000E+00
 -1      4011 1.20891E+02 3.14140E+01 0.00000E+00
 -1      4012 2.64000E+01 3.05150E+01 0.00000E+00
 -1      4013 2.79000E+01 3.05150E+01 0.00000E+00
 -1      4014 1.25815E+02 3.15658E+01 0.00000E+00
 -1      4015 1.27315E+02 3.15658E+01 0.00000E+00
 -1      4016 1.28815E+02 3.15658E+01 0.00000E+00
 -1      4017 1.30315E+02 3.15658E+01 0.00000E+00
 -1      4018 1.28065E+02 3.02668E+01 0.00000E+00
 -1      4019 2.72850E+01 1.56973E+01 0.00000E+00
 -1      4020 2.65350E+01 1.69963E+01 0.00000E+00
 -1      4021 2.87850E+01 1.56973E+01 0.00000E+00
 -1      4022 2.95350E+01 1.69963E+01 0.00000E+00
 -1      4023 6.62850E+01 1.82952E+01 0.00000E+00
 -1      4024 6.47850E+01 1.82952E+01 0.00000E+00
 -1      4025 6.32850E+01 1.82952E+01 0.00000E+00
 -1      4026 6.17850E+01 1.82952E+01 0.00000E+00
 -1      4027 6.40350E+01 1.95942E+01 0.00000E+00
 -1      4028 7.22850E+01 1.82952E+01 0.00000E+00
 -1      4029 7.07850E+01 1.82952E+01 0.00000E+00
 -1      4030 7.52850E+01 1.82952E+01 0.00000E+00
 -1      4031 7.37850E+01 1.82952E+01 0.00000E+00
 -1      4032 7.30350E+01 1.95942E+01 0.00000E+00
 -1      4033 7.82850E+01 1.82952E+01 0.00000E+00
 -1      4034 7.67850E+01 1.82952E+01 0.00000E+00
 -1      4035 7.60350E+01 1.95942E+01 0.00000E+00
 -1      4036 8.12850E+01 1.82952E+01 0.00000E+00
 -1      4037 7.97850E+01 1.82952E+01 0.00000E+00
 -1      4038 7.90350E+01 1.95942E+01 0.00000E+00
 -1      4039 8.34165E+01 1.90085E+01 0.00000E+00
 -1      4040 8.20134E+01 2.14163E+01 0.00000E+00
 -1      4041 8.26665E+01 2.03075E+01 0.00000E+00
 -1      4042 1.30577E+02 1.85714E+01 0.00000E+00
 -1      4043 1.87837E+01 1.53173E+01 0.00000E+00
 -1      4044 1.78163E+01 1.66704E+01 0.00000E+00
 -1      4045 1.89628E+01 1.78296E+01 0.00000E+00
 -1      4046 2.00109E+01 1.55420E+01 0.00000E+00
 -1      4047 1.70134E+01 2.41851E+01 0.00000E+00
 -1      4048 1.70134E+01 2.56554E+01 0.00000E+00
 -1      4049 1.84387E+01 2.33936E+01 0.00000E+00
 -1      4050 1.32738E+02 3.11386E+01 0.00000E+00
 -1      4051 6.92850E+01 1.82952E+01 0.00000E+00
 -1      4052 6.77850E+01 1.82952E+01 0.00000E+00
 -1      4053 6.70350E+01 1.95942E+01 0.00000E+00
 -1      4054 1.21535E+02 3.03047E+01 0.00000E+00
 -1      4055 1.22709E+02 3.17555E+01 0.00000E+00
 -1      4056 1.24209E+02 3.17555E+01 0.00000E+00
 -1      4057 1.22497E+02 2.95369E+01 0.00000E+00
 -1      4058 1.28327E+02 1.84001E+01 0.00000E+00
 -1      4059 1.26826E+02 1.84001E+01 0.00000E+00
 -1      4060 5.42850E+01 1.82952E+01 0.00000E+00
 -1      4061 5.27850E+01 1.82952E+01 0.00000E+00
 -1      4062 1.22736E+02 2.46787E+01 0.00000E+00
 -1      4063 1.22023E+02 2.61718E+01 0.00000E+00
 -1      4064 6.02850E+01 1.82952E+01 0.00000E+00
 -1      4065 5.87850E+01 1.82952E+01 0.00000E+00
 -1      4066 6.10350E+01 1.95942E+01 0.00000E+00
 -1      4067 1.33179E+02 2.30347E+01 0.00000E+00
 -1      4068 1.33179E+02 2.15643E+01 0.00000E+00
 -1      4069 1.32011E+02 2.12837E+01 0.00000E+00
 -1      4070 1.31880E+02 2.37675E+01 0.00000E+00
 -1      4071 8.43171E+01 2.49683E+01 0.00000E+00
 -1      4072 8.33014E+01 2.41173E+01 0.00000E+00
 -1      4073 8.41267E+01 2.58472E+01 0.00000E+00
 -1      4074 2.11500E+01 3.03437E+01 0.00000E+00
 -1      4075 3.77850E+01 1.56973E+01 0.00000E+00
 -1      4076 3.62850E+01 1.56973E+01 0.00000E+00
 -1      4077 3.55350E+01 1.69963E+01 0.00000E+00
 -1      4078 3.85350E+01 1.69963E+01 0.00000E+00
 -1      4079 2.34000E+01 3.05150E+01 0.00000E+00
 -1      4080 2.49000E+01 3.05150E+01 0.00000E+00
 -1      4081 2.56500E+01 2.92160E+01 0.00000E+00
 -1      4082 2.94000E+01 3.05150E+01 0.00000E+00
 -1      4083 3.09000E+01 3.05150E+01 0.00000E+00
 -1      4084 3.16500E+01 2.92160E+01 0.00000E+00
 -1      4085 5.72850E+01 1.82952E+01 0.00000E+00
 -1      4086 5.57850E+01 1.82952E+01 0.00000E+00
 -1      4087 5.50350E+01 1.95942E+01 0.00000E+00
 -1      4088 1.31988E+02 2.98396E+01 0.00000E+00
 -1      4089 1.22726E+02 1.81815E+01 0.00000E+00
 -1      4090 1.22238E+02 1.94774E+01 0.00000E+00
 -1      4091 1.23432E+02 2.01213E+01 0.00000E+00
 -1      4092 1.23784E+02 1.81500E+01 0.00000E+00
 -1      4093 1.23975E+02 2.23677E+01 0.00000E+00
 -1      4094 1.23356E+02 2.35232E+01 0.00000E+00
 -1      4095 1.24075E+02 2.47839E+01 0.00000E+00
 -1      4096 2.19000E+01 2.90447E+01 0.00000E+00
 -1      4097 2.72850E+01 1.82952E+01 0.00000E+00
 -1      4098 2.57850E+01 1.82952E+01 0.00000E+00
 -1      4099 4.22850E+01 1.82952E+01 0.00000E+00
 -1      4100 4.07850E+01 1.82952E+01 0.00000E+00
 -1      4101 8.54584E+01 2.92232E+01 0.00000E+00
 -1      4102 8.58567E+01 2.84335E+01 0.00000E+00
 -1      4103 8.48064E+01 2.74550E+01 0.00000E+00
 -1      4104 8.41343E+01 2.89685E+01 0.00000E+00
 -1      4105 7.00350E+01 1.95942E+01 0.00000E+00
 -1      4106 1.24959E+02 3.04565E+01 0.00000E+00
 -1      4107 2.42850E+01 1.82952E+01 0.00000E+00
 -1      4108 2.27850E+01 1.82952E+01 0.00000E+00
 -1      4109 2.50350E+01 1.95942E+01 0.00000E+00
 -1      4110 5.12850E+01 1.82952E+01 0.00000E+00
 -1      4111 4.97850E+01 1.82952E+01 0.00000E+00
 -1      4112 5.20350E+01 1.95942E+01 0.00000E+00
 -1      4113 8.17439E+01 2.31458E+01 0.00000E+00
 -1      4114 8.02655E+01 2.13237E+01 0.00000E+00
 -1      4115 1.29827E+02 1.98704E+01 0.00000E+00
 -1      4116 2.07609E+01 1.68410E+01 0.00000E+00
 -1      4117 4.75350E+01 1.69963E+01 0.00000E+00
 -1      4118 4.52850E+01 1.82952E+01 0.00000E+00
 -1      4119 4.37850E+01 1.82952E+01 0.00000E+00
 -1      4120 4.30350E+01 1.95942E+01 0.00000E+00
 -1      4121 3.02850E+01 1.82952E+01 0.00000E+00
 -1      4122 2.87850E+01 1.82952E+01 0.00000E+00
 -1      4123 2.80350E+01 1.95942E+01 0.00000E+00
 -1      4124 1.90444E+01 2.68687E+01 0.00000E+00
 -1      4125 1.22549E+02 2.71835E+01 0.00000E+00
 -1      4126 1.25834E+02 1.82593E+01 0.00000E+00
 -1      4127 1.24776E+02 1.82908E+01 0.00000E+00
 -1      4128 1.24600E+02 1.92765E+01 0.00000E+00
 -1      4129 1.26584E+02 1.95583E+01 0.00000E+00
 -1      4130 5.80350E+01 1.95942E+01 0.00000E+00
 -1      4131 1.30550E+02 2.43199E+01 0.00000E+00
 -1      4132 1.30615E+02 2.30780E+01 0.00000E+00
 -1      4133 3.32850E+01 1.82952E+01 0.00000E+00
 -1      4134 3.17850E+01 1.82952E+01 0.00000E+00
 -1      4135 3.10350E+01 1.95942E+01 0.00000E+00
 -1      4136 1.97377E+01 1.97108E+01 0.00000E+00
 -1      4137 1.97377E+01 2.11858E+01 0.00000E+00
 -1      4138 1.30550E+02 2.72574E+01 0.00000E+00
 -1      4139 1.30550E+02 2.57886E+01 0.00000E+00
 -1      4140 1.29285E+02 2.50991E+01 0.00000E+00
 -1      4141 2.86500E+01 2.92160E+01 0.00000E+00
 -1      4142 2.02618E+01 1.85671E+01 0.00000E+00
 -1      4143 3.39000E+01 2.79170E+01 0.00000E+00
 -1      4144 3.54000E+01 2.79170E+01 0.00000E+00
 -1      4145 2.87850E+01 2.08932E+01 0.00000E+00
 -1      4146 2.72850E+01 2.08932E+01 0.00000E+00
 -1      4147 7.07850E+01 2.08932E+01 0.00000E+00
 -1      4148 6.92850E+01 2.08932E+01 0.00000E+00
 -1      4149 3.69000E+01 2.79170E+01 0.00000E+00
 -1      4150 3.84000E+01 2.79170E+01 0.00000E+00
 -1      4151 3.61500E+01 2.66180E+01 0.00000E+00
 -1      4152 3.99000E+01 2.79170E+01 0.00000E+00
 -1      4153 4.14000E+01 2.79170E+01 0.00000E+00
 -1      4154 3.91500E+01 2.66180E+01 0.00000E+00
 -1      4155 4.29000E+01 2.79170E+01 0.00000E+00
 -1      4156 4.44000E+01 2.79170E+01 0.00000E+00
 -1      4157 4.21500E+01 2.66180E+01 0.00000E+00
 -1      4158 4.59000E+01 2.79170E+01 0.00000E+00
 -1      4159 4.74000E+01 2.79170E+01 0.00000E+00
 -1      4160 4.51500E+01 2.66180E+01 0.00000E+00
 -1      4161 4.89000E+01 2.79170E+01 0.00000E+00
 -1      4162 5.04000E+01 2.79170E+01 0.00000E+00
 -1      4163 4.81500E+01 2.66180E+01 0.00000E+00
 -1      4164 5.19000E+01 2.79170E+01 0.00000E+00
 -1      4165 5.34000E+01 2.79170E+01 0.00000E+00
 -1      4166 5.11500E+01 2.66180E+01 0.00000E+00
 -1      4167 5.49000E+01 2.79170E+01 0.00000E+00
 -1      4168 5.64000E+01 2.79170E+01 0.00000E+00
 -1      4169 5.41500E+01 2.66180E+01 0.00000E+00
 -1      4170 5.79000E+01 2.79170E+01 0.00000E+00
 -1      4171 5.94000E+01 2.79170E+01 0.00000E+00
 -1      4172 5.71500E+01 2.66180E+01 0.00000E+00
 -1      4173 6.09000E+01 2.79170E+01 0.00000E+00
 -1      4174 6.24000E+01 2.79170E+01 0.00000E+00
 -1      4175 6.01500E+01 2.66180E+01 0.00000E+00
 -1      4176 6.39000E+01 2.79170E+01 0.00000E+00
 -1      4177 6.54000E+01 2.79170E+01 0.00000E+00
 -1      4178 6.31500E+01 2.66180E+01 0.00000E+00
 -1      4179 6.69000E+01 2.79170E+01 0.00000E+00
 -1      4180 6.84000E+01 2.79170E+01 0.00000E+00
 -1      4181 6.61500E+01 2.66180E+01 0.00000E+00
 -1      4182 6.99000E+01 2.79170E+01 0.00000E+00
 -1      4183 7.14000E+01 2.79170E+01 0.00000E+00
 -1      4184 6.91500E+01 2.66180E+01 0.00000E+00
 -1      4185 7.29000E+01 2.79170E+01 0.00000E+00
 -1      4186 7.44000E+01 2.79170E+01 0.00000E+00
 -1      4187 7.21500E+01 2.66180E+01 0.00000E+00
 -1      4188 7.59000E+01 2.79170E+01 0.00000E+00
 -1      4189 7.74000E+01 2.79170E+01 0.00000E+00
 -1      4190 7.51500E+01 2.66180E+01 0.00000E+00
 -1      4191 7.89000E+01 2.79170E+01 0.00000E+00
 -1      4192 8.04000E+01 2.79170E+01 0.00000E+00
 -1      4193 7.81500E+01 2.66180E+01 0.00000E+00
 -1      4194 1.27315E+02 2.89678E+01 0.00000E+00
 -1      4195 1.28815E+02 2.89678E+01 0.00000E+00
 -1      4196 3.09000E+01 2.79170E+01 0.00000E+00
 -1      4197 3.24000E+01 2.79170E+01 0.00000E+00
 -1      4198 3.31500E+01 2.66180E+01 0.00000E+00
 -1      4199 2.06887E+01 2.50353E+01 0.00000E+00
 -1      4200 2.12944E+01 2.70400E+01 0.00000E+00
 -1      4201 2.35444E+01 2.72113E+01 0.00000E+00
 -1      4202 4.00350E+01 1.95942E+01 0.00000E+00
 -1      4203 3.92850E+01 1.82952E+01 0.00000E+00
 -1      4204 3.77850E+01 1.82952E+01 0.00000E+00
 -1      4205 6.47850E+01 2.08932E+01 0.00000E+00
 -1      4206 6.32850E+01 2.08932E+01 0.00000E+00
 -1      4207 8.15709E+01 2.49282E+01 0.00000E+00
 -1      4208 7.98230E+01 2.48356E+01 0.00000E+00
 -1      4209 7.67850E+01 2.08932E+01 0.00000E+00
 -1      4210 7.52850E+01 2.08932E+01 0.00000E+00
 -1      4211 7.37850E+01 2.08932E+01 0.00000E+00
 -1      4212 7.22850E+01 2.08932E+01 0.00000E+00
 -1      4213 7.15350E+01 2.21922E+01 0.00000E+00
 -1      4214 7.45350E+01 2.21922E+01 0.00000E+00
 -1      4215 7.83230E+01 2.48356E+01 0.00000E+00
 -1      4216 6.17850E+01 2.08932E+01 0.00000E+00
 -1      4217 6.02850E+01 2.08932E+01 0.00000E+00
 -1      4218 6.25350E+01 2.21922E+01 0.00000E+00
 -1      4219 4.82850E+01 1.82952E+01 0.00000E+00
 -1      4220 4.67850E+01 1.82952E+01 0.00000E+00
 -1      4221 4.60350E+01 1.95942E+01 0.00000E+00
 -1      4222 4.90350E+01 1.95942E+01 0.00000E+00
 -1      4223 1.30689E+02 2.91068E+01 0.00000E+00
 -1      4224 5.87850E+01 2.08932E+01 0.00000E+00
 -1      4225 5.72850E+01 2.08932E+01 0.00000E+00
 -1      4226 5.95350E+01 2.21922E+01 0.00000E+00
 -1      4227 1.24103E+02 2.93472E+01 0.00000E+00
 -1      4228 1.25709E+02 2.91575E+01 0.00000E+00
 -1      4229 1.26459E+02 2.78585E+01 0.00000E+00
 -1      4230 1.23247E+02 2.82379E+01 0.00000E+00
 -1      4231 1.24154E+02 2.69938E+01 0.00000E+00
 -1      4232 7.87655E+01 2.13237E+01 0.00000E+00
 -1      4233 2.79000E+01 2.79170E+01 0.00000E+00
 -1      4234 2.94000E+01 2.79170E+01 0.00000E+00
 -1      4235 3.01500E+01 2.66180E+01 0.00000E+00
 -1      4236 2.02132E+01 2.23754E+01 0.00000E+00
 -1      4237 2.02132E+01 2.38457E+01 0.00000E+00
 -1      4238 2.24632E+01 2.40170E+01 0.00000E+00
 -1      4239 2.15122E+01 2.16379E+01 0.00000E+00
 -1      4240 5.57850E+01 2.08932E+01 0.00000E+00
 -1      4241 5.42850E+01 2.08932E+01 0.00000E+00
 -1      4242 5.65350E+01 2.21922E+01 0.00000E+00
 -1      4243 6.77850E+01 2.08932E+01 0.00000E+00
 -1      4244 6.62850E+01 2.08932E+01 0.00000E+00
 -1      4245 6.85350E+01 2.21922E+01 0.00000E+00
 -1      4246 2.15359E+01 1.87223E+01 0.00000E+00
 -1      4247 2.22859E+01 2.00213E+01 0.00000E+00
 -1      4248 7.80155E+01 2.26227E+01 0.00000E+00
 -1      4249 2.65350E+01 2.21922E+01 0.00000E+00
 -1      4250 2.57850E+01 2.08932E+01 0.00000E+00
 -1      4251 2.42850E+01 2.08932E+01 0.00000E+00
 -1      4252 8.11500E+01 2.66180E+01 0.00000E+00
 -1      4253 8.19000E+01 2.79170E+01 0.00000E+00
 -1      4254 8.32241E+01 2.81716E+01 0.00000E+00
 -1      4255 4.07850E+01 2.08932E+01 0.00000E+00
 -1      4256 3.92850E+01 2.08932E+01 0.00000E+00
 -1      4257 6.55350E+01 2.21922E+01 0.00000E+00
 -1      4258 2.49000E+01 2.79170E+01 0.00000E+00
 -1      4259 2.64000E+01 2.79170E+01 0.00000E+00
 -1      4260 5.27850E+01 2.08932E+01 0.00000E+00
 -1      4261 5.12850E+01 2.08932E+01 0.00000E+00
 -1      4262 5.35350E+01 2.21922E+01 0.00000E+00
 -1      4263 7.63425E+01 2.44051E+01 0.00000E+00
 -1      4264 1.30188E+02 2.20952E+01 0.00000E+00
 -1      4265 1.30254E+02 2.08533E+01 0.00000E+00
 -1      4266 1.28004E+02 2.06819E+01 0.00000E+00
 -1      4267 1.28858E+02 2.26476E+01 0.00000E+00
 -1      4268 1.24424E+02 2.02622E+01 0.00000E+00
 -1      4269 1.24248E+02 2.12479E+01 0.00000E+00
 -1      4270 1.25416E+02 2.04031E+01 0.00000E+00
 -1      4271 1.27206E+02 2.06129E+01 0.00000E+00
 -1      4272 1.26214E+02 2.04721E+01 0.00000E+00
 -1      4273 1.26038E+02 2.14577E+01 0.00000E+00
 -1      4274 1.27633E+02 2.15957E+01 0.00000E+00
 -1      4275 1.24918E+02 2.57940E+01 0.00000E+00
 -1      4276 1.25616E+02 2.68484E+01 0.00000E+00
 -1      4277 1.27222E+02 2.66587E+01 0.00000E+00
 -1      4278 1.25537E+02 2.46385E+01 0.00000E+00
 -1      4279 2.71500E+01 2.66180E+01 0.00000E+00
 -1      4280 1.24967E+02 2.25086E+01 0.00000E+00
 -1      4281 8.38962E+01 2.66581E+01 0.00000E+00
 -1      4282 8.28805E+01 2.58071E+01 0.00000E+00
 -1      4283 3.62850E+01 1.82952E+01 0.00000E+00
 -1      4284 3.47850E+01 1.82952E+01 0.00000E+00
 -1      4285 3.40350E+01 1.95942E+01 0.00000E+00
 -1      4286 3.70350E+01 1.95942E+01 0.00000E+00
 -1      4287 2.27614E+01 2.12109E+01 0.00000E+00
 -1      4288 3.17850E+01 2.08932E+01 0.00000E+00
 -1      4289 3.02850E+01 2.08932E+01 0.00000E+00
 -1      4290 2.95350E+01 2.21922E+01 0.00000E+00
 -1      4291 4.37850E+01 2.08932E+01 0.00000E+00
 -1      4292 4.22850E+01 2.08932E+01 0.00000E+00
 -1      4293 4.15350E+01 2.21922E+01 0.00000E+00
 -1      4294 1.29939E+02 2.78078E+01 0.00000E+00
 -1      4295 2.42944E+01 2.59123E+01 0.00000E+00
 -1      4296 1.28488E+02 2.35614E+01 0.00000E+00
 -1      4297 1.28060E+02 2.25786E+01 0.00000E+00
 -1      4298 1.27263E+02 2.25096E+01 0.00000E+00
 -1      4299 3.84000E+01 2.53190E+01 0.00000E+00
 -1      4300 3.99000E+01 2.53190E+01 0.00000E+00
 -1      4301 4.18425E+01 2.44051E+01 0.00000E+00
 -1      4302 4.33425E+01 2.44051E+01 0.00000E+00
 -1      4303 4.74000E+01 2.53190E+01 0.00000E+00
 -1      4304 4.89000E+01 2.53190E+01 0.00000E+00
 -1      4305 5.08425E+01 2.44051E+01 0.00000E+00
 -1      4306 5.23425E+01 2.44051E+01 0.00000E+00
 -1      4307 5.38425E+01 2.44051E+01 0.00000E+00
 -1      4308 5.53425E+01 2.44051E+01 0.00000E+00
 -1      4309 5.68425E+01 2.44051E+01 0.00000E+00
 -1      4310 5.83425E+01 2.44051E+01 0.00000E+00
 -1      4311 5.98425E+01 2.44051E+01 0.00000E+00
 -1      4312 6.13425E+01 2.44051E+01 0.00000E+00
 -1      4313 6.28425E+01 2.44051E+01 0.00000E+00
 -1      4314 6.43425E+01 2.44051E+01 0.00000E+00
 -1      4315 6.58425E+01 2.44051E+01 0.00000E+00
 -1      4316 6.73425E+01 2.44051E+01 0.00000E+00
 -1      4317 6.88425E+01 2.44051E+01 0.00000E+00
 -1      4318 7.03425E+01 2.44051E+01 0.00000E+00
 -1      4319 7.18425E+01 2.44051E+01 0.00000E+00
 -1      4320 7.33425E+01 2.44051E+01 0.00000E+00
 -1      4321 7.48425E+01 2.44051E+01 0.00000E+00
 -1      4322 3.24000E+01 2.53190E+01 0.00000E+00
 -1      4323 3.39000E+01 2.53190E+01 0.00000E+00
 -1      4324 8.35601E+01 2.74149E+01 0.00000E+00
 -1      4325 3.85350E+01 2.21922E+01 0.00000E+00
 -1      4326 3.77850E+01 2.08932E+01 0.00000E+00
 -1      4327 3.62850E+01 2.08932E+01 0.00000E+00
 -1      4328 2.35114E+01 2.25099E+01 0.00000E+00
 -1      4329 2.39869E+01 2.36994E+01 0.00000E+00
 -1      4330 3.54000E+01 2.53190E+01 0.00000E+00
 -1      4331 3.69000E+01 2.53190E+01 0.00000E+00
 -1      4332 3.76500E+01 2.40200E+01 0.00000E+00
 -1      4333 3.46500E+01 2.40200E+01 0.00000E+00
 -1      4334 1.25924E+02 2.24882E+01 0.00000E+00
 -1      4335 1.25651E+02 2.36080E+01 0.00000E+00
 -1      4336 1.26494E+02 2.46181E+01 0.00000E+00
 -1      4337 1.26722E+02 2.25572E+01 0.00000E+00
 -1      4338 2.98425E+01 2.44051E+01 0.00000E+00
 -1      4339 3.13425E+01 2.44051E+01 0.00000E+00
 -1      4340 2.68425E+01 2.44051E+01 0.00000E+00
 -1      4341 2.83425E+01 2.44051E+01 0.00000E+00
 -1      4342 2.53425E+01 2.44051E+01 0.00000E+00
 -1      4343 1.27832E+02 2.61082E+01 0.00000E+00
 -1      4344 1.27832E+02 2.46395E+01 0.00000E+00
 -1      4345 8.13805E+01 2.58071E+01 0.00000E+00
 -1      4346 3.20925E+01 2.31061E+01 0.00000E+00
 -1      4347 4.43138E+01 2.26492E+01 0.00000E+00
 -1      4348 4.46213E+01 2.48621E+01 0.00000E+00
 -1      4349 4.61213E+01 2.48621E+01 0.00000E+00
 -1      4350 4.50638E+01 2.13502E+01 0.00000E+00
 -1      4351 5.00925E+01 2.31061E+01 0.00000E+00
 -1      4352 4.65638E+01 2.13502E+01 0.00000E+00
 -1      4353 4.68713E+01 2.35631E+01 0.00000E+00
 -1      4354 1.28675E+02 2.71183E+01 0.00000E+00
 -1      4355 4.93425E+01 2.18071E+01 0.00000E+00
 -1      4356 4.78425E+01 2.18071E+01 0.00000E+00
 -1      4357 3.95925E+01 2.31061E+01 0.00000E+00
 -1      4358 3.80925E+01 2.31061E+01 0.00000E+00
 -1      4359 3.34388E+01 2.07007E+01 0.00000E+00
 -1      4360 3.26888E+01 2.19997E+01 0.00000E+00
 -1      4361 3.37463E+01 2.29136E+01 0.00000E+00
 -1      4362 3.49388E+01 2.07007E+01 0.00000E+00
 -1      4363 1.27035E+02 2.45705E+01 0.00000E+00
 -1      4364 3.56888E+01 2.19997E+01 0.00000E+00
 -1      4365 1.27149E+02 2.35400E+01 0.00000E+00
 -1      4366 4.10925E+01 2.31061E+01 0.00000E+00
 -1      4367 3.65925E+01 2.31061E+01 0.00000E+00
 -1      4368 3.52463E+01 2.29136E+01 0.00000E+00
 -3
    3C                          2102                                     1
 -1       165    8    0    1
 -2         6         7        23      1134      1298      1151
 -1       166    8    0    1
 -2         7         8       165      1135      1299      1300
 -1       167    8    0    1
 -2         8         9       166      1136      1301      1302
 -1       168    8    0    1
 -2         8       166       165      1302      1303      1299
 -1       169    8    0    1
 -2         9        10       167      1137      1304      1305
 -1       170    8    0    1
 -2         9       167       166      1305      1306      1301
 -1       171    8    0    1
 -2        10        11       168      1138      1307      1308
 -1       172    8    0    1
 -2        10       168       167      1308      1309      1304
 -1       173    8    0    1
 -2        11        12       169      1139      1310      1311
 -1       174    8    0    1
 -2        11       169       168      1311      1312      1307
 -1       175    8    0    1
 -2        12        13       170      1140      1313      1314
 -1       176    8    0    1
 -2        12       170       169      1314      1315      1310
 -1       177    8    0    1
 -2        13        14       171      1141      1316      1317
 -1       178    8    0    1
 -2        13       171       170      1317      1318      1313
 -1       179    8    0    1
 -2        14        15       172      1142      1319      1320
 -1       180    8    0    1
 -2        14       172       171      1320      1321      1316
 -1       181    8    0    1
 -2        15        16       173      1143      1322      1323
 -1       182    8    0    1
 -2        15       173       172      1323      1324      1319
 -1       183    8    0    1
 -2        16        17       174      1144      1325      1326
 -1       184    8    0    1
 -2        16       174       173      1326      1327      1322
 -1       185    8    0    1
 -2        17        18       175      1145      1328      1329
 -1       186    8    0    1
 -2        17       175       174      1329      1330      1325
 -1       187    8    0    1
 -2        18        19       176      1146      1331      1332
 -1       188    8    0    1
 -2        18       176       175      1332      1333      1328
 -1       189    8    0    1
 -2        19        20       177      1147      1334      1335
 -1       190    8    0    1
 -2        19       177       176      1335      1336      1331
 -1       191    8    0    1
 -2        20        21       178      1148      1337      1338
 -1       192    8    0    1
 -2        20       178       177      1338      1339      1334
 -1       193    8    0    1
 -2        21        22       179      1149      1340      1341
 -1       194    8    0    1
 -2        21       179       178      1341      1342      1337
 -1       195    8    0    1
 -2        22         5       180      1150      1343      1344
 -1       196    8    0    1
 -2       179        22       180      1340      1344      1345
 -1       197    8    0    1
 -2         5        72       180      1201      1346      1343
 -1       198    8    0    1
 -2        24        23       181      1152      1347      1348
 -1       199    8    0    1
 -2        25        24       182      1153      1349      1350
 -1       200    8    0    1
 -2        24       181       182      1348      1351      1349
 -1       201    8    0    1
 -2        26        25       183      1154      1352      1353
 -1       202    8    0    1
 -2        25       182       183      1350      1354      1352
 -1       203    8    0    1
 -2        27        26       184      1155      1355      1356
 -1       204    8    0    1
 -2        26       183       184      1353      1357      1355
 -1       205    8    0    1
 -2        28        27       185      1156      1358      1359
 -1       206    8    0    1
 -2        27       184       185      1356      1360      1358
 -1       207    8    0    1
 -2        29        28       186      1157      1361      1362
 -1       208    8    0    1
 -2        28       185       186      1359      1363      1361
 -1       209    8    0    1
 -2        30        29       187      1158      1364      1365
 -1       210    8    0    1
 -2        29       186       187      1362      1366      1364
 -1       211    8    0    1
 -2        31        30       188      1159      1367      1368
 -1       212    8    0    1
 -2        30       187       188      1365      1369      1367
 -1       213    8    0    1
 -2        32        31       189      1160      1370      1371
 -1       214    8    0    1
 -2        31       188       189      1368      1372      1370
 -1       215    8    0    1
 -2        33        32       190      1161      1373      1374
 -1       216    8    0    1
 -2        32       189       190      1371      1375      1373
 -1       217    8    0    1
 -2        34        33       191      1162      1376      1377
 -1       218    8    0    1
 -2        33       190       191      1374      1378      1376
 -1       219    8    0    1
 -2        35        34       192      1163      1379      1380
 -1       220    8    0    1
 -2        34       191       192      1377      1381      1379
 -1       221    8    0    1
 -2        36        35       193      1164      1382      1383
 -1       222    8    0    1
 -2        35       192       193      1380      1384      1382
 -1       223    8    0    1
 -2        37        36       194      1165      1385      1386
 -1       224    8    0    1
 -2        36       193       194      1383      1387      1385
 -1       225    8    0    1
 -2        38        37       195      1166      1388      1389
 -1       226    8    0    1
 -2        37       194       195      1386      1390      1388
 -1       227    8    0    1
 -2        39        38       196      1167      1391      1392
 -1       228    8    0    1
 -2        38       195       196      1389      1393      1391
 -1       229    8    0    1
 -2        40        39       197      1168      1394      1395
 -1       230    8    0    1
 -2        39       196       197      1392      1396      1394
 -1       231    8    0    1
 -2        41        40       198      1169      1397      1398
 -1       232    8    0    1
 -2        40       197       198      1395      1399      1397
 -1       233    8    0    1
 -2        42        41       199      1170      1400      1401
 -1       234    8    0    1
 -2        41       198       199      1398      1402      1400
 -1       235    8    0    1
 -2        43        42       200      1171      1403      1404
 -1       236    8    0    1
 -2        42       199       200      1401      1405      1403
 -1       237    8    0    1
 -2        44        43       201      1172      1406      1407
 -1       238    8    0    1
 -2        43       200       201      1404      1408      1406
 -1       239    8    0    1
 -2        45        44       202      1173      1409      1410
 -1       240    8    0    1
 -2        44       201       202      1407      1411      1409
 -1       241    8    0    1
 -2        46        45       203      1174      1412      1413
 -1       242    8    0    1
 -2        45       202       203      1410      1414      1412
 -1       243    8    0    1
 -2        47        46       204      1175      1415      1416
 -1       244    8    0    1
 -2        46       203       204      1413      1417      1415
 -1       245    8    0    1
 -2        48        47       205      1176      1418      1419
 -1       246    8    0    1
 -2        47       204       205      1416      1420      1418
 -1       247    8    0    1
 -2        49        48       206      1177      1421      1422
 -1       248    8    0    1
 -2        48       205       206      1419      1423      1421
 -1       249    8    0    1
 -2        50        49       207      1178      1424      1425
 -1       250    8    0    1
 -2        49       206       207      1422      1426      1424
 -1       251    8    0    1
 -2        51        50       208      1179      1427      1428
 -1       252    8    0    1
 -2        50       207       208      1425      1429      1427
 -1       253    8    0    1
 -2        52        51       209      1180      1430      1431
 -1       254    8    0    1
 -2        51       208       209      1428      1432      1430
 -1       255    8    0    1
 -2        53        52       210      1181      1433      1434
 -1       256    8    0    1
 -2        52       209       210      1431      1435      1433
 -1       257    8    0    1
 -2        54        53       211      1182      1436      1437
 -1       258    8    0    1
 -2        53       210       211      1434      1438      1436
 -1       259    8    0    1
 -2        55        54       212      1183      1439      1440
 -1       260    8    0    1
 -2        54       211       212      1437      1441      1439
 -1       261    8    0    1
 -2        56        55       213      1184      1442      1443
 -1       262    8    0    1
 -2        55       212       213      1440      1444      1442
 -1       263    8    0    1
 -2        57        56       214      1185      1445      1446
 -1       264    8    0    1
 -2        56       213       214      1443      1447      1445
 -1       265    8    0    1
 -2        58        57       215      1186      1448      1449
 -1       266    8    0    1
 -2        57       214       215      1446      1450      1448
 -1       267    8    0    1
 -2        59        58       216      1187      1451      1452
 -1       268    8    0    1
 -2        58       215       216      1449      1453      1451
 -1       269    8    0    1
 -2        60        59       217      1188      1454      1455
 -1       270    8    0    1
 -2        59       216       217      1452      1456      1454
 -1       271    8    0    1
 -2        61        60       218      1189      1457      1458
 -1       272    8    0    1
 -2        60       217       218      1455      1459      1457
 -1       273    8    0    1
 -2        62        61       219      1190      1460      1461
 -1       274    8    0    1
 -2        61       218       219      1458      1462      1460
 -1       275    8    0    1
 -2        63        62       220      1191      1463      1464
 -1       276    8    0    1
 -2        62       219       220      1461      1465      1463
 -1       277    8    0    1
 -2        64        63       221      1192      1466      1467
 -1       278    8    0    1
 -2        63       220       221      1464      1468      1466
 -1       279    8    0    1
 -2        65        64       222      1193      1469      1470
 -1       280    8    0    1
 -2        64       221       222      1467      1471      1469
 -1       281    8    0    1
 -2        66        65       223      1194      1472      1473
 -1       282    8    0    1
 -2        65       222       223      1470      1474      1472
 -1       283    8    0    1
 -2        67        66       224      1195      1475      1476
 -1       284    8    0    1
 -2        66       223       224      1473      1477      1475
 -1       285    8    0    1
 -2        68        67       225      1196      1478      1479
 -1       286    8    0    1
 -2        67       224       225      1476      1480      1478
 -1       287    8    0    1
 -2        69        68       226      1197      1481      1482
 -1       288    8    0    1
 -2        68       225       226      1479      1483      1481
 -1       289    8    0    1
 -2        70        69       227      1198      1484      1485
 -1       290    8    0    1
 -2        69       226       227      1482      1486      1484
 -1       291    8    0    1
 -2        71        70       228      1199      1487      1488
 -1       292    8    0    1
 -2        70       227       228      1485      1489      1487
 -1       293    8    0    1
 -2         4        71       136      1200      1490      1267
 -1       294    8    0    1
 -2       136        71       228      1490      1488      1491
 -1       295    8    0    1
 -2        72        73       229      1202      1492      1493
 -1       296    8    0    1
 -2        72       229       180      1493      1494      1346
 -1       297    8    0    1
 -2        73        74       230      1203      1495      1496
 -1       298    8    0    1
 -2        73       230       229      1496      1497      1492
 -1       299    8    0    1
 -2        74        75       231      1204      1498      1499
 -1       300    8    0    1
 -2        74       231       230      1499      1500      1495
 -1       301    8    0    1
 -2        75        76       232      1205      1501      1502
 -1       302    8    0    1
 -2        75       232       231      1502      1503      1498
 -1       303    8    0    1
 -2        76        77       233      1206      1504      1505
 -1       304    8    0    1
 -2        76       233       232      1505      1506      1501
 -1       305    8    0    1
 -2        77        78       234      1207      1507      1508
 -1       306    8    0    1
 -2        77       234       233      1508      1509      1504
 -1       307    8    0    1
 -2        78        79       235      1208      1510      1511
 -1       308    8    0    1
 -2        78       235       234      1511      1512      1507
 -1       309    8    0    1
 -2        79        80       236      1209      1513      1514
 -1       310    8    0    1
 -2        79       236       235      1514      1515      1510
 -1       311    8    0    1
 -2        80        81       237      1210      1516      1517
 -1       312    8    0    1
 -2        80       237       236      1517      1518      1513
 -1       313    8    0    1
 -2        81        82       238      1211      1519      1520
 -1       314    8    0    1
 -2        81       238       237      1520      1521      1516
 -1       315    8    0    1
 -2        82        83       239      1212      1522      1523
 -1       316    8    0    1
 -2        82       239       238      1523      1524      1519
 -1       317    8    0    1
 -2        83        84       240      1213      1525      1526
 -1       318    8    0    1
 -2        83       240       239      1526      1527      1522
 -1       319    8    0    1
 -2        84        85       241      1214      1528      1529
 -1       320    8    0    1
 -2        84       241       240      1529      1530      1525
 -1       321    8    0    1
 -2        85        86       242      1215      1531      1532
 -1       322    8    0    1
 -2        85       242       241      1532      1533      1528
 -1       323    8    0    1
 -2        86        87       243      1216      1534      1535
 -1       324    8    0    1
 -2        86       243       242      1535      1536      1531
 -1       325    8    0    1
 -2        87        88       244      1217      1537      1538
 -1       326    8    0    1
 -2        87       244       243      1538      1539      1534
 -1       327    8    0    1
 -2        88        89       245      1218      1540      1541
 -1       328    8    0    1
 -2        88       245       244      1541      1542      1537
 -1       329    8    0    1
 -2        89        90       246      1219      1543      1544
 -1       330    8    0    1
 -2        89       246       245      1544      1545      1540
 -1       331    8    0    1
 -2        90        91       247      1220      1546      1547
 -1       332    8    0    1
 -2        90       247       246      1547      1548      1543
 -1       333    8    0    1
 -2        91        92       248      1221      1549      1550
 -1       334    8    0    1
 -2        91       248       247      1550      1551      1546
 -1       335    8    0    1
 -2        92        93       249      1222      1552      1553
 -1       336    8    0    1
 -2        92       249       248      1553      1554      1549
 -1       337    8    0    1
 -2        93        94       250      1223      1555      1556
 -1       338    8    0    1
 -2        93       250       249      1556      1557      1552
 -1       339    8    0    1
 -2        94        95       251      1224      1558      1559
 -1       340    8    0    1
 -2        94       251       250      1559      1560      1555
 -1       341    8    0    1
 -2        95        96       252      1225      1561      1562
 -1       342    8    0    1
 -2        95       252       251      1562      1563      1558
 -1       343    8    0    1
 -2        96        97       253      1226      1564      1565
 -1       344    8    0    1
 -2        96       253       252      1565      1566      1561
 -1       345    8    0    1
 -2        97        98       254      1227      1567      1568
 -1       346    8    0    1
 -2        97       254       253      1568      1569      1564
 -1       347    8    0    1
 -2        98        99       255      1228      1570      1571
 -1       348    8    0    1
 -2        98       255       254      1571      1572      1567
 -1       349    8    0    1
 -2        99       100       256      1229      1573      1574
 -1       350    8    0    1
 -2        99       256       255      1574      1575      1570
 -1       351    8    0    1
 -2       100       101       257      1230      1576      1577
 -1       352    8    0    1
 -2       100       257       256      1577      1578      1573
 -1       353    8    0    1
 -2       101       102       258      1231      1579      1580
 -1       354    8    0    1
 -2       101       258       257      1580      1581      1576
 -1       355    8    0    1
 -2       102       103       259      1232      1582      1583
 -1       356    8    0    1
 -2       102       259       258      1583      1584      1579
 -1       357    8    0    1
 -2       103       104       260      1233      1585      1586
 -1       358    8    0    1
 -2       103       260       259      1586      1587      1582
 -1       359    8    0    1
 -2       104       105       261      1234      1588      1589
 -1       360    8    0    1
 -2       104       261       260      1589      1590      1585
 -1       361    8    0    1
 -2       105       106       262      1235      1591      1592
 -1       362    8    0    1
 -2       105       262       261      1592      1593      1588
 -1       363    8    0    1
 -2       106       107       263      1236      1594      1595
 -1       364    8    0    1
 -2       106       263       262      1595      1596      1591
 -1       365    8    0    1
 -2       107       108       264      1237      1597      1598
 -1       366    8    0    1
 -2       107       264       263      1598      1599      1594
 -1       367    8    0    1
 -2       108       109       265      1238      1600      1601
 -1       368    8    0    1
 -2       108       265       264      1601      1602      1597
 -1       369    8    0    1
 -2       109       110       266      1239      1603      1604
 -1       370    8    0    1
 -2       109       266       265      1604      1605      1600
 -1       371    8    0    1
 -2       110       111       267      1240      1606      1607
 -1       372    8    0    1
 -2       110       267       266      1607      1608      1603
 -1       373    8    0    1
 -2       111       112       268      1241      1609      1610
 -1       374    8    0    1
 -2       111       268       267      1610      1611      1606
 -1       375    8    0    1
 -2       112       113       269      1242      1612      1613
 -1       376    8    0    1
 -2       112       269       268      1613      1614      1609
 -1       377    8    0    1
 -2       113       114       270      1243      1615      1616
 -1       378    8    0    1
 -2       113       270       269      1616      1617      1612
 -1       379    8    0    1
 -2       114       115       271      1244      1618      1619
 -1       380    8    0    1
 -2       114       271       270      1619      1620      1615
 -1       381    8    0    1
 -2       115       116       272      1245      1621      1622
 -1       382    8    0    1
 -2       115       272       271      1622      1623      1618
 -1       383    8    0    1
 -2       116       117       273      1246      1624      1625
 -1       384    8    0    1
 -2       116       273       272      1625      1626      1621
 -1       385    8    0    1
 -2       117       118       274      1247      1627      1628
 -1       386    8    0    1
 -2       117       274       273      1628      1629      1624
 -1       387    8    0    1
 -2       118       119       275      1248      1630      1631
 -1       388    8    0    1
 -2       118       275       274      1631      1632      1627
 -1       389    8    0    1
 -2       119       120       276      1249      1633      1634
 -1       390    8    0    1
 -2       119       276       275      1634      1635      1630
 -1       391    8    0    1
 -2       120         3       121      1250      1251      1636
 -1       392    8    0    1
 -2       121       122       277      1252      1637      1638
 -1       393    8    0    1
 -2       122       123       278      1253      1639      1640
 -1       394    8    0    1
 -2       122       278       277      1640      1641      1637
 -1       395    8    0    1
 -2       123       124       279      1254      1642      1643
 -1       396    8    0    1
 -2       123       279       278      1643      1644      1639
 -1       397    8    0    1
 -2       124       125       280      1255      1645      1646
 -1       398    8    0    1
 -2       124       280       279      1646      1647      1642
 -1       399    8    0    1
 -2       125       126       281      1256      1648      1649
 -1       400    8    0    1
 -2       125       281       280      1649      1650      1645
 -1       401    8    0    1
 -2       126       127       282      1257      1651      1652
 -1       402    8    0    1
 -2       126       282       281      1652      1653      1648
 -1       403    8    0    1
 -2       127       128       283      1258      1654      1655
 -1       404    8    0    1
 -2       127       283       282      1655      1656      1651
 -1       405    8    0    1
 -2       128       129       284      1259      1657      1658
 -1       406    8    0    1
 -2       128       284       283      1658      1659      1654
 -1       407    8    0    1
 -2       129       130       285      1260      1660      1661
 -1       408    8    0    1
 -2       129       285       284      1661      1662      1657
 -1       409    8    0    1
 -2       130       131       286      1261      1663      1664
 -1       410    8    0    1
 -2       130       286       285      1664      1665      1660
 -1       411    8    0    1
 -2       131       132       287      1262      1666      1667
 -1       412    8    0    1
 -2       131       287       286      1667      1668      1663
 -1       413    8    0    1
 -2       132       133       288      1263      1669      1670
 -1       414    8    0    1
 -2       132       288       287      1670      1671      1666
 -1       415    8    0    1
 -2       133       134       289      1264      1672      1673
 -1       416    8    0    1
 -2       133       289       288      1673      1674      1669
 -1       417    8    0    1
 -2       134       135       290      1265      1675      1676
 -1       418    8    0    1
 -2       134       290       289      1676      1677      1672
 -1       419    8    0    1
 -2       135       136       291      1266      1678      1679
 -1       420    8    0    1
 -2       290       135       291      1675      1679      1680
 -1       421    8    0    1
 -2       136       228       291      1491      1681      1678
 -1       422    8    0    1
 -2         2       137       292      1268      1682      1683
 -1       423    8    0    1
 -2       137       138       293      1269      1684      1685
 -1       424    8    0    1
 -2       138       139       294      1270      1686      1687
 -1       425    8    0    1
 -2       139       140       295      1271      1688      1689
 -1       426    8    0    1
 -2       140       141       296      1272      1690      1691
 -1       427    8    0    1
 -2       141       142       297      1273      1692      1693
 -1       428    8    0    1
 -2       142       143       298      1274      1694      1695
 -1       429    8    0    1
 -2       143       144       299      1275      1696      1697
 -1       430    8    0    1
 -2       144       145       300      1276      1698      1699
 -1       431    8    0    1
 -2       145       146       301      1277      1700      1701
 -1       432    8    0    1
 -2       146       147       302      1278      1702      1703
 -1       433    8    0    1
 -2       147       148       303      1279      1704      1705
 -1       434    8    0    1
 -2       148       149       304      1280      1706      1707
 -1       435    8    0    1
 -2       149       150       305      1281      1708      1709
 -1       436    8    0    1
 -2       150       151       306      1282      1710      1711
 -1       437    8    0    1
 -2       151       152       307      1283      1712      1713
 -1       438    8    0    1
 -2       152       153       308      1284      1714      1715
 -1       439    8    0    1
 -2       153         1       309      1285      1716      1717
 -1       440    8    0    1
 -2         1       154       310      1286      1718      1719
 -1       441    8    0    1
 -2       154       155       311      1287      1720      1721
 -1       442    8    0    1
 -2       155       156       312      1288      1722      1723
 -1       443    8    0    1
 -2       156       157       313      1289      1724      1725
 -1       444    8    0    1
 -2       157       158       314      1290      1726      1727
 -1       445    8    0    1
 -2       158       159       315      1291      1728      1729
 -1       446    8    0    1
 -2       159       160       316      1292      1730      1731
 -1       447    8    0    1
 -2       160       161       317      1293      1732      1733
 -1       448    8    0    1
 -2       161       162       318      1294      1734      1735
 -1       449    8    0    1
 -2       162       163       319      1295      1736      1737
 -1       450    8    0    1
 -2       163       164       320      1296      1738      1739
 -1       451    8    0    1
 -2       164         2       321      1297      1740      1741
 -1       452    8    0    1
 -2       295       140       296      1688      1691      1742
 -1       453    8    0    1
 -2       294       139       295      1686      1689      1743
 -1       454    8    0    1
 -2       120       121       276      1636      1744      1633
 -1       455    8    0    1
 -2       121       277       276      1638      1745      1744
 -1       456    8    0    1
 -2       292       137       293      1682      1685      1746
 -1       457    8    0    1
 -2       293       138       294      1684      1687      1747
 -1       458    8    0    1
 -2         2       292       321      1683      1748      1740
 -1       459    8    0    1
 -2       141       297       296      1693      1749      1690
 -1       460    8    0    1
 -2       142       298       297      1695      1750      1692
 -1       461    8    0    1
 -2       143       299       298      1697      1751      1694
 -1       462    8    0    1
 -2       144       300       299      1699      1752      1696
 -1       463    8    0    1
 -2       145       301       300      1701      1753      1698
 -1       464    8    0    1
 -2       146       302       301      1703      1754      1700
 -1       465    8    0    1
 -2       147       303       302      1705      1755      1702
 -1       466    8    0    1
 -2       148       304       303      1707      1756      1704
 -1       467    8    0    1
 -2       149       305       304      1709      1757      1706
 -1       468    8    0    1
 -2       150       306       305      1711      1758      1708
 -1       469    8    0    1
 -2       151       307       306      1713      1759      1710
 -1       470    8    0    1
 -2       152       308       307      1715      1760      1712
 -1       471    8    0    1
 -2       153       309       308      1717      1761      1714
 -1       472    8    0    1
 -2         1       310       309      1719      1762      1716
 -1       473    8    0    1
 -2       154       311       310      1721      1763      1718
 -1       474    8    0    1
 -2       155       312       311      1723      1764      1720
 -1       475    8    0    1
 -2       156       313       312      1725      1765      1722
 -1       476    8    0    1
 -2       157       314       313      1727      1766      1724
 -1       477    8    0    1
 -2       158       315       314      1729      1767      1726
 -1       478    8    0    1
 -2       159       316       315      1731      1768      1728
 -1       479    8    0    1
 -2       160       317       316      1733      1769      1730
 -1       480    8    0    1
 -2       161       318       317      1735      1770      1732
 -1       481    8    0    1
 -2       162       319       318      1737      1771      1734
 -1       482    8    0    1
 -2       163       320       319      1739      1772      1736
 -1       483    8    0    1
 -2       164       321       320      1741      1773      1738
 -1       484    8    0    1
 -2        23         7       165      1298      1300      1774
 -1       485    8    0    1
 -2       166       167       322      1306      1775      1776
 -1       486    8    0    1
 -2       165       166       323      1303      1777      1778
 -1       487    8    0    1
 -2       166       322       323      1776      1779      1777
 -1       488    8    0    1
 -2       168       169       324      1312      1780      1781
 -1       489    8    0    1
 -2       169       170       325      1315      1782      1783
 -1       490    8    0    1
 -2       169       325       324      1783      1784      1780
 -1       491    8    0    1
 -2       170       171       326      1318      1785      1786
 -1       492    8    0    1
 -2       170       326       325      1786      1787      1782
 -1       493    8    0    1
 -2       171       172       327      1321      1788      1789
 -1       494    8    0    1
 -2       171       327       326      1789      1790      1785
 -1       495    8    0    1
 -2       172       173       328      1324      1791      1792
 -1       496    8    0    1
 -2       172       328       327      1792      1793      1788
 -1       497    8    0    1
 -2       173       174       329      1327      1794      1795
 -1       498    8    0    1
 -2       173       329       328      1795      1796      1791
 -1       499    8    0    1
 -2       174       175       330      1330      1797      1798
 -1       500    8    0    1
 -2       174       330       329      1798      1799      1794
 -1       501    8    0    1
 -2       175       176       331      1333      1800      1801
 -1       502    8    0    1
 -2       175       331       330      1801      1802      1797
 -1       503    8    0    1
 -2       176       177       332      1336      1803      1804
 -1       504    8    0    1
 -2       176       332       331      1804      1805      1800
 -1       505    8    0    1
 -2       177       178       333      1339      1806      1807
 -1       506    8    0    1
 -2       177       333       332      1807      1808      1803
 -1       507    8    0    1
 -2       178       179       334      1342      1809      1810
 -1       508    8    0    1
 -2       178       334       333      1810      1811      1806
 -1       509    8    0    1
 -2       179       180       335      1345      1812      1813
 -1       510    8    0    1
 -2       334       179       335      1809      1813      1814
 -1       511    8    0    1
 -2       180       229       335      1494      1815      1812
 -1       512    8    0    1
 -2       181        23       165      1347      1774      1816
 -1       513    8    0    1
 -2       229       230       336      1497      1817      1818
 -1       514    8    0    1
 -2       229       336       335      1818      1819      1815
 -1       515    8    0    1
 -2       181       165       323      1816      1778      1820
 -1       516    8    0    1
 -2       183       182       337      1354      1821      1822
 -1       517    8    0    1
 -2       184       183       338      1357      1823      1824
 -1       518    8    0    1
 -2       183       337       338      1822      1825      1823
 -1       519    8    0    1
 -2       185       184       339      1360      1826      1827
 -1       520    8    0    1
 -2       184       338       339      1824      1828      1826
 -1       521    8    0    1
 -2       186       185       340      1363      1829      1830
 -1       522    8    0    1
 -2       185       339       340      1827      1831      1829
 -1       523    8    0    1
 -2       187       186       341      1366      1832      1833
 -1       524    8    0    1
 -2       186       340       341      1830      1834      1832
 -1       525    8    0    1
 -2       188       187       342      1369      1835      1836
 -1       526    8    0    1
 -2       187       341       342      1833      1837      1835
 -1       527    8    0    1
 -2       189       188       343      1372      1838      1839
 -1       528    8    0    1
 -2       188       342       343      1836      1840      1838
 -1       529    8    0    1
 -2       190       189       344      1375      1841      1842
 -1       530    8    0    1
 -2       189       343       344      1839      1843      1841
 -1       531    8    0    1
 -2       191       190       345      1378      1844      1845
 -1       532    8    0    1
 -2       190       344       345      1842      1846      1844
 -1       533    8    0    1
 -2       192       191       346      1381      1847      1848
 -1       534    8    0    1
 -2       191       345       346      1845      1849      1847
 -1       535    8    0    1
 -2       193       192       347      1384      1850      1851
 -1       536    8    0    1
 -2       192       346       347      1848      1852      1850
 -1       537    8    0    1
 -2       194       193       348      1387      1853      1854
 -1       538    8    0    1
 -2       193       347       348      1851      1855      1853
 -1       539    8    0    1
 -2       195       194       349      1390      1856      1857
 -1       540    8    0    1
 -2       194       348       349      1854      1858      1856
 -1       541    8    0    1
 -2       196       195       350      1393      1859      1860
 -1       542    8    0    1
 -2       195       349       350      1857      1861      1859
 -1       543    8    0    1
 -2       197       196       351      1396      1862      1863
 -1       544    8    0    1
 -2       196       350       351      1860      1864      1862
 -1       545    8    0    1
 -2       198       197       352      1399      1865      1866
 -1       546    8    0    1
 -2       197       351       352      1863      1867      1865
 -1       547    8    0    1
 -2       199       198       353      1402      1868      1869
 -1       548    8    0    1
 -2       198       352       353      1866      1870      1868
 -1       549    8    0    1
 -2       200       199       354      1405      1871      1872
 -1       550    8    0    1
 -2       199       353       354      1869      1873      1871
 -1       551    8    0    1
 -2       201       200       355      1408      1874      1875
 -1       552    8    0    1
 -2       200       354       355      1872      1876      1874
 -1       553    8    0    1
 -2       202       201       356      1411      1877      1878
 -1       554    8    0    1
 -2       201       355       356      1875      1879      1877
 -1       555    8    0    1
 -2       203       202       357      1414      1880      1881
 -1       556    8    0    1
 -2       202       356       357      1878      1882      1880
 -1       557    8    0    1
 -2       204       203       358      1417      1883      1884
 -1       558    8    0    1
 -2       203       357       358      1881      1885      1883
 -1       559    8    0    1
 -2       205       204       359      1420      1886      1887
 -1       560    8    0    1
 -2       204       358       359      1884      1888      1886
 -1       561    8    0    1
 -2       206       205       360      1423      1889      1890
 -1       562    8    0    1
 -2       205       359       360      1887      1891      1889
 -1       563    8    0    1
 -2       207       206       361      1426      1892      1893
 -1       564    8    0    1
 -2       206       360       361      1890      1894      1892
 -1       565    8    0    1
 -2       208       207       362      1429      1895      1896
 -1       566    8    0    1
 -2       207       361       362      1893      1897      1895
 -1       567    8    0    1
 -2       209       208       363      1432      1898      1899
 -1       568    8    0    1
 -2       208       362       363      1896      1900      1898
 -1       569    8    0    1
 -2       210       209       364      1435      1901      1902
 -1       570    8    0    1
 -2       209       363       364      1899      1903      1901
 -1       571    8    0    1
 -2       211       210       365      1438      1904      1905
 -1       572    8    0    1
 -2       210       364       365      1902      1906      1904
 -1       573    8    0    1
 -2       212       211       366      1441      1907      1908
 -1       574    8    0    1
 -2       211       365       366      1905      1909      1907
 -1       575    8    0    1
 -2       213       212       367      1444      1910      1911
 -1       576    8    0    1
 -2       212       366       367      1908      1912      1910
 -1       577    8    0    1
 -2       214       213       368      1447      1913      1914
 -1       578    8    0    1
 -2       213       367       368      1911      1915      1913
 -1       579    8    0    1
 -2       215       214       369      1450      1916      1917
 -1       580    8    0    1
 -2       214       368       369      1914      1918      1916
 -1       581    8    0    1
 -2       216       215       370      1453      1919      1920
 -1       582    8    0    1
 -2       215       369       370      1917      1921      1919
 -1       583    8    0    1
 -2       217       216       371      1456      1922      1923
 -1       584    8    0    1
 -2       216       370       371      1920      1924      1922
 -1       585    8    0    1
 -2       218       217       372      1459      1925      1926
 -1       586    8    0    1
 -2       217       371       372      1923      1927      1925
 -1       587    8    0    1
 -2       219       218       373      1462      1928      1929
 -1       588    8    0    1
 -2       218       372       373      1926      1930      1928
 -1       589    8    0    1
 -2       220       219       374      1465      1931      1932
 -1       590    8    0    1
 -2       219       373       374      1929      1933      1931
 -1       591    8    0    1
 -2       221       220       375      1468      1934      1935
 -1       592    8    0    1
 -2       220       374       375      1932      1936      1934
 -1       593    8    0    1
 -2       222       221       376      1471      1937      1938
 -1       594    8    0    1
 -2       221       375       376      1935      1939      1937
 -1       595    8    0    1
 -2       223       222       377      1474      1940      1941
 -1       596    8    0    1
 -2       222       376       377      1938      1942      1940
 -1       597    8    0    1
 -2       224       223       378      1477      1943      1944
 -1       598    8    0    1
 -2       223       377       378      1941      1945      1943
 -1       599    8    0    1
 -2       225       224       379      1480      1946      1947
 -1       600    8    0    1
 -2       224       378       379      1944      1948      1946
 -1       601    8    0    1
 -2       226       225       380      1483      1949      1950
 -1       602    8    0    1
 -2       225       379       380      1947      1951      1949
 -1       603    8    0    1
 -2       227       226       381      1486      1952      1953
 -1       604    8    0    1
 -2       226       380       381      1950      1954      1952
 -1       605    8    0    1
 -2       228       227       382      1489      1955      1956
 -1       606    8    0    1
 -2       291       228       382      1681      1956      1957
 -1       607    8    0    1
 -2       227       381       382      1953      1958      1955
 -1       608    8    0    1
 -2       230       231       383      1500      1959      1960
 -1       609    8    0    1
 -2       230       383       336      1960      1961      1817
 -1       610    8    0    1
 -2       231       232       384      1503      1962      1963
 -1       611    8    0    1
 -2       231       384       383      1963      1964      1959
 -1       612    8    0    1
 -2       232       233       385      1506      1965      1966
 -1       613    8    0    1
 -2       232       385       384      1966      1967      1962
 -1       614    8    0    1
 -2       233       234       386      1509      1968      1969
 -1       615    8    0    1
 -2       233       386       385      1969      1970      1965
 -1       616    8    0    1
 -2       234       235       387      1512      1971      1972
 -1       617    8    0    1
 -2       234       387       386      1972      1973      1968
 -1       618    8    0    1
 -2       235       236       388      1515      1974      1975
 -1       619    8    0    1
 -2       235       388       387      1975      1976      1971
 -1       620    8    0    1
 -2       236       237       389      1518      1977      1978
 -1       621    8    0    1
 -2       236       389       388      1978      1979      1974
 -1       622    8    0    1
 -2       237       238       390      1521      1980      1981
 -1       623    8    0    1
 -2       237       390       389      1981      1982      1977
 -1       624    8    0    1
 -2       238       239       391      1524      1983      1984
 -1       625    8    0    1
 -2       238       391       390      1984      1985      1980
 -1       626    8    0    1
 -2       239       240       392      1527      1986      1987
 -1       627    8    0    1
 -2       239       392       391      1987      1988      1983
 -1       628    8    0    1
 -2       240       241       393      1530      1989      1990
 -1       629    8    0    1
 -2       240       393       392      1990      1991      1986
 -1       630    8    0    1
 -2       241       242       394      1533      1992      1993
 -1       631    8    0    1
 -2       241       394       393      1993      1994      1989
 -1       632    8    0    1
 -2       242       243       395      1536      1995      1996
 -1       633    8    0    1
 -2       242       395       394      1996      1997      1992
 -1       634    8    0    1
 -2       243       244       396      1539      1998      1999
 -1       635    8    0    1
 -2       243       396       395      1999      2000      1995
 -1       636    8    0    1
 -2       244       245       397      1542      2001      2002
 -1       637    8    0    1
 -2       244       397       396      2002      2003      1998
 -1       638    8    0    1
 -2       245       246       398      1545      2004      2005
 -1       639    8    0    1
 -2       245       398       397      2005      2006      2001
 -1       640    8    0    1
 -2       246       247       399      1548      2007      2008
 -1       641    8    0    1
 -2       246       399       398      2008      2009      2004
 -1       642    8    0    1
 -2       247       248       400      1551      2010      2011
 -1       643    8    0    1
 -2       247       400       399      2011      2012      2007
 -1       644    8    0    1
 -2       248       249       401      1554      2013      2014
 -1       645    8    0    1
 -2       248       401       400      2014      2015      2010
 -1       646    8    0    1
 -2       249       250       402      1557      2016      2017
 -1       647    8    0    1
 -2       249       402       401      2017      2018      2013
 -1       648    8    0    1
 -2       250       251       403      1560      2019      2020
 -1       649    8    0    1
 -2       250       403       402      2020      2021      2016
 -1       650    8    0    1
 -2       251       252       404      1563      2022      2023
 -1       651    8    0    1
 -2       251       404       403      2023      2024      2019
 -1       652    8    0    1
 -2       252       253       405      1566      2025      2026
 -1       653    8    0    1
 -2       252       405       404      2026      2027      2022
 -1       654    8    0    1
 -2       253       254       406      1569      2028      2029
 -1       655    8    0    1
 -2       253       406       405      2029      2030      2025
 -1       656    8    0    1
 -2       254       255       407      1572      2031      2032
 -1       657    8    0    1
 -2       254       407       406      2032      2033      2028
 -1       658    8    0    1
 -2       255       256       408      1575      2034      2035
 -1       659    8    0    1
 -2       255       408       407      2035      2036      2031
 -1       660    8    0    1
 -2       256       257       409      1578      2037      2038
 -1       661    8    0    1
 -2       256       409       408      2038      2039      2034
 -1       662    8    0    1
 -2       257       258       410      1581      2040      2041
 -1       663    8    0    1
 -2       257       410       409      2041      2042      2037
 -1       664    8    0    1
 -2       258       259       411      1584      2043      2044
 -1       665    8    0    1
 -2       258       411       410      2044      2045      2040
 -1       666    8    0    1
 -2       259       260       412      1587      2046      2047
 -1       667    8    0    1
 -2       259       412       411      2047      2048      2043
 -1       668    8    0    1
 -2       260       261       413      1590      2049      2050
 -1       669    8    0    1
 -2       260       413       412      2050      2051      2046
 -1       670    8    0    1
 -2       261       262       414      1593      2052      2053
 -1       671    8    0    1
 -2       261       414       413      2053      2054      2049
 -1       672    8    0    1
 -2       262       263       415      1596      2055      2056
 -1       673    8    0    1
 -2       262       415       414      2056      2057      2052
 -1       674    8    0    1
 -2       263       264       416      1599      2058      2059
 -1       675    8    0    1
 -2       263       416       415      2059      2060      2055
 -1       676    8    0    1
 -2       264       265       417      1602      2061      2062
 -1       677    8    0    1
 -2       264       417       416      2062      2063      2058
 -1       678    8    0    1
 -2       265       266       418      1605      2064      2065
 -1       679    8    0    1
 -2       265       418       417      2065      2066      2061
 -1       680    8    0    1
 -2       266       267       419      1608      2067      2068
 -1       681    8    0    1
 -2       266       419       418      2068      2069      2064
 -1       682    8    0    1
 -2       267       268       420      1611      2070      2071
 -1       683    8    0    1
 -2       267       420       419      2071      2072      2067
 -1       684    8    0    1
 -2       268       269       421      1614      2073      2074
 -1       685    8    0    1
 -2       268       421       420      2074      2075      2070
 -1       686    8    0    1
 -2       269       270       422      1617      2076      2077
 -1       687    8    0    1
 -2       269       422       421      2077      2078      2073
 -1       688    8    0    1
 -2       270       271       423      1620      2079      2080
 -1       689    8    0    1
 -2       270       423       422      2080      2081      2076
 -1       690    8    0    1
 -2       271       272       424      1623      2082      2083
 -1       691    8    0    1
 -2       271       424       423      2083      2084      2079
 -1       692    8    0    1
 -2       272       273       425      1626      2085      2086
 -1       693    8    0    1
 -2       272       425       424      2086      2087      2082
 -1       694    8    0    1
 -2       273       274       426      1629      2088      2089
 -1       695    8    0    1
 -2       273       426       425      2089      2090      2085
 -1       696    8    0    1
 -2       274       275       427      1632      2091      2092
 -1       697    8    0    1
 -2       274       427       426      2092      2093      2088
 -1       698    8    0    1
 -2       275       276       428      1635      2094      2095
 -1       699    8    0    1
 -2       427       275       428      2091      2095      2096
 -1       700    8    0    1
 -2       276       277       428      1745      2097      2094
 -1       701    8    0    1
 -2       279       280       429      1647      2098      2099
 -1       702    8    0    1
 -2       278       279       430      1644      2100      2101
 -1       703    8    0    1
 -2       279       429       430      2099      2102      2100
 -1       704    8    0    1
 -2       277       278       431      1641      2103      2104
 -1       705    8    0    1
 -2       428       277       431      2097      2104      2105
 -1       706    8    0    1
 -2       278       430       431      2101      2106      2103
 -1       707    8    0    1
 -2       280       281       432      1650      2107      2108
 -1       708    8    0    1
 -2       280       432       429      2108      2109      2098
 -1       709    8    0    1
 -2       281       282       433      1653      2110      2111
 -1       710    8    0    1
 -2       281       433       432      2111      2112      2107
 -1       711    8    0    1
 -2       282       283       434      1656      2113      2114
 -1       712    8    0    1
 -2       282       434       433      2114      2115      2110
 -1       713    8    0    1
 -2       283       284       435      1659      2116      2117
 -1       714    8    0    1
 -2       283       435       434      2117      2118      2113
 -1       715    8    0    1
 -2       284       285       436      1662      2119      2120
 -1       716    8    0    1
 -2       284       436       435      2120      2121      2116
 -1       717    8    0    1
 -2       285       286       437      1665      2122      2123
 -1       718    8    0    1
 -2       285       437       436      2123      2124      2119
 -1       719    8    0    1
 -2       286       287       438      1668      2125      2126
 -1       720    8    0    1
 -2       286       438       437      2126      2127      2122
 -1       721    8    0    1
 -2       287       288       439      1671      2128      2129
 -1       722    8    0    1
 -2       287       439       438      2129      2130      2125
 -1       723    8    0    1
 -2       288       289       440      1674      2131      2132
 -1       724    8    0    1
 -2       288       440       439      2132      2133      2128
 -1       725    8    0    1
 -2       289       290       441      1677      2134      2135
 -1       726    8    0    1
 -2       289       441       440      2135      2136      2131
 -1       727    8    0    1
 -2       293       294       442      1747      2137      2138
 -1       728    8    0    1
 -2       321       292       443      1748      2139      2140
 -1       729    8    0    1
 -2       292       293       444      1746      2141      2142
 -1       730    8    0    1
 -2       294       295       445      1743      2143      2144
 -1       731    8    0    1
 -2       294       445       442      2144      2145      2137
 -1       732    8    0    1
 -2       295       296       446      1742      2146      2147
 -1       733    8    0    1
 -2       167       168       447      1309      2148      2149
 -1       734    8    0    1
 -2       322       167       447      1775      2149      2150
 -1       735    8    0    1
 -2       168       324       447      1781      2151      2148
 -1       736    8    0    1
 -2       297       298       448      1750      2152      2153
 -1       737    8    0    1
 -2       298       299       449      1751      2154      2155
 -1       738    8    0    1
 -2       299       300       450      1752      2156      2157
 -1       739    8    0    1
 -2       300       301       451      1753      2158      2159
 -1       740    8    0    1
 -2       300       451       450      2159      2160      2156
 -1       741    8    0    1
 -2       301       302       452      1754      2161      2162
 -1       742    8    0    1
 -2       302       303       453      1755      2163      2164
 -1       743    8    0    1
 -2       302       453       452      2164      2165      2161
 -1       744    8    0    1
 -2       303       304       454      1756      2166      2167
 -1       745    8    0    1
 -2       304       305       455      1757      2168      2169
 -1       746    8    0    1
 -2       305       306       456      1758      2170      2171
 -1       747    8    0    1
 -2       306       307       457      1759      2172      2173
 -1       748    8    0    1
 -2       307       308       458      1760      2174      2175
 -1       749    8    0    1
 -2       308       309       459      1761      2176      2177
 -1       750    8    0    1
 -2       309       310       460      1762      2178      2179
 -1       751    8    0    1
 -2       310       311       461      1763      2180      2181
 -1       752    8    0    1
 -2       311       312       462      1764      2182      2183
 -1       753    8    0    1
 -2       312       313       463      1765      2184      2185
 -1       754    8    0    1
 -2       313       314       464      1766      2186      2187
 -1       755    8    0    1
 -2       314       315       465      1767      2188      2189
 -1       756    8    0    1
 -2       314       465       464      2189      2190      2186
 -1       757    8    0    1
 -2       315       316       466      1768      2191      2192
 -1       758    8    0    1
 -2       316       317       467      1769      2193      2194
 -1       759    8    0    1
 -2       316       467       466      2194      2195      2191
 -1       760    8    0    1
 -2       317       318       468      1770      2196      2197
 -1       761    8    0    1
 -2       318       319       469      1771      2198      2199
 -1       762    8    0    1
 -2       319       320       470      1772      2200      2201
 -1       763    8    0    1
 -2       320       321       471      1773      2202      2203
 -1       764    8    0    1
 -2       320       471       470      2203      2204      2200
 -1       765    8    0    1
 -2       296       297       472      1749      2205      2206
 -1       766    8    0    1
 -2       296       472       446      2206      2207      2146
 -1       767    8    0    1
 -2       445       295       446      2143      2147      2208
 -1       768    8    0    1
 -2       181       323       182      1820      2209      1351
 -1       769    8    0    1
 -2       297       448       472      2153      2210      2205
 -1       770    8    0    1
 -2       337       182       323      1821      2209      2211
 -1       771    8    0    1
 -2       444       293       442      2141      2138      2212
 -1       772    8    0    1
 -2       443       292       444      2139      2142      2213
 -1       773    8    0    1
 -2       441       290       291      2134      1680      2214
 -1       774    8    0    1
 -2       321       443       471      2140      2215      2202
 -1       775    8    0    1
 -2       469       319       470      2198      2201      2216
 -1       776    8    0    1
 -2       467       317       468      2193      2197      2217
 -1       777    8    0    1
 -2       465       315       466      2188      2192      2218
 -1       778    8    0    1
 -2       463       313       464      2184      2187      2219
 -1       779    8    0    1
 -2       462       312       463      2182      2185      2220
 -1       780    8    0    1
 -2       461       311       462      2180      2183      2221
 -1       781    8    0    1
 -2       460       310       461      2178      2181      2222
 -1       782    8    0    1
 -2       459       309       460      2176      2179      2223
 -1       783    8    0    1
 -2       458       308       473      2174      2224      2225
 -1       784    8    0    1
 -2       308       459       473      2177      2226      2224
 -1       785    8    0    1
 -2       457       307       458      2172      2175      2227
 -1       786    8    0    1
 -2       456       306       457      2170      2173      2228
 -1       787    8    0    1
 -2       455       305       456      2168      2171      2229
 -1       788    8    0    1
 -2       453       303       454      2163      2167      2230
 -1       789    8    0    1
 -2       451       301       452      2158      2162      2231
 -1       790    8    0    1
 -2       448       298       449      2152      2155      2232
 -1       791    8    0    1
 -2       449       299       450      2154      2157      2233
 -1       792    8    0    1
 -2       454       304       455      2166      2169      2234
 -1       793    8    0    1
 -2       468       318       469      2196      2199      2235
 -1       794    8    0    1
 -2       336       383       474      1961      2236      2237
 -1       795    8    0    1
 -2       325       326       475      1787      2238      2239
 -1       796    8    0    1
 -2       324       325       476      1784      2240      2241
 -1       797    8    0    1
 -2       325       475       476      2239      2242      2240
 -1       798    8    0    1
 -2       327       328       477      1793      2243      2244
 -1       799    8    0    1
 -2       328       329       478      1796      2245      2246
 -1       800    8    0    1
 -2       328       478       477      2246      2247      2243
 -1       801    8    0    1
 -2       329       330       479      1799      2248      2249
 -1       802    8    0    1
 -2       329       479       478      2249      2250      2245
 -1       803    8    0    1
 -2       330       331       480      1802      2251      2252
 -1       804    8    0    1
 -2       330       480       479      2252      2253      2248
 -1       805    8    0    1
 -2       331       332       481      1805      2254      2255
 -1       806    8    0    1
 -2       331       481       480      2255      2256      2251
 -1       807    8    0    1
 -2       332       333       482      1808      2257      2258
 -1       808    8    0    1
 -2       332       482       481      2258      2259      2254
 -1       809    8    0    1
 -2       383       384       483      1964      2260      2261
 -1       810    8    0    1
 -2       383       483       474      2261      2262      2236
 -1       811    8    0    1
 -2       338       337       484      1825      2263      2264
 -1       812    8    0    1
 -2       472       448       485      2210      2265      2266
 -1       813    8    0    1
 -2       339       338       486      1828      2267      2268
 -1       814    8    0    1
 -2       338       484       486      2264      2269      2267
 -1       815    8    0    1
 -2       340       339       487      1831      2270      2271
 -1       816    8    0    1
 -2       339       486       487      2268      2272      2270
 -1       817    8    0    1
 -2       341       340       488      1834      2273      2274
 -1       818    8    0    1
 -2       340       487       488      2271      2275      2273
 -1       819    8    0    1
 -2       342       341       489      1837      2276      2277
 -1       820    8    0    1
 -2       341       488       489      2274      2278      2276
 -1       821    8    0    1
 -2       343       342       490      1840      2279      2280
 -1       822    8    0    1
 -2       342       489       490      2277      2281      2279
 -1       823    8    0    1
 -2       344       343       491      1843      2282      2283
 -1       824    8    0    1
 -2       343       490       491      2280      2284      2282
 -1       825    8    0    1
 -2       345       344       492      1846      2285      2286
 -1       826    8    0    1
 -2       344       491       492      2283      2287      2285
 -1       827    8    0    1
 -2       346       345       493      1849      2288      2289
 -1       828    8    0    1
 -2       345       492       493      2286      2290      2288
 -1       829    8    0    1
 -2       347       346       494      1852      2291      2292
 -1       830    8    0    1
 -2       346       493       494      2289      2293      2291
 -1       831    8    0    1
 -2       348       347       495      1855      2294      2295
 -1       832    8    0    1
 -2       347       494       495      2292      2296      2294
 -1       833    8    0    1
 -2       349       348       496      1858      2297      2298
 -1       834    8    0    1
 -2       348       495       496      2295      2299      2297
 -1       835    8    0    1
 -2       350       349       497      1861      2300      2301
 -1       836    8    0    1
 -2       349       496       497      2298      2302      2300
 -1       837    8    0    1
 -2       351       350       498      1864      2303      2304
 -1       838    8    0    1
 -2       350       497       498      2301      2305      2303
 -1       839    8    0    1
 -2       352       351       499      1867      2306      2307
 -1       840    8    0    1
 -2       351       498       499      2304      2308      2306
 -1       841    8    0    1
 -2       353       352       500      1870      2309      2310
 -1       842    8    0    1
 -2       352       499       500      2307      2311      2309
 -1       843    8    0    1
 -2       354       353       501      1873      2312      2313
 -1       844    8    0    1
 -2       353       500       501      2310      2314      2312
 -1       845    8    0    1
 -2       355       354       502      1876      2315      2316
 -1       846    8    0    1
 -2       354       501       502      2313      2317      2315
 -1       847    8    0    1
 -2       356       355       503      1879      2318      2319
 -1       848    8    0    1
 -2       355       502       503      2316      2320      2318
 -1       849    8    0    1
 -2       357       356       504      1882      2321      2322
 -1       850    8    0    1
 -2       356       503       504      2319      2323      2321
 -1       851    8    0    1
 -2       358       357       505      1885      2324      2325
 -1       852    8    0    1
 -2       357       504       505      2322      2326      2324
 -1       853    8    0    1
 -2       359       358       506      1888      2327      2328
 -1       854    8    0    1
 -2       358       505       506      2325      2329      2327
 -1       855    8    0    1
 -2       360       359       507      1891      2330      2331
 -1       856    8    0    1
 -2       359       506       507      2328      2332      2330
 -1       857    8    0    1
 -2       361       360       508      1894      2333      2334
 -1       858    8    0    1
 -2       360       507       508      2331      2335      2333
 -1       859    8    0    1
 -2       362       361       509      1897      2336      2337
 -1       860    8    0    1
 -2       361       508       509      2334      2338      2336
 -1       861    8    0    1
 -2       363       362       510      1900      2339      2340
 -1       862    8    0    1
 -2       362       509       510      2337      2341      2339
 -1       863    8    0    1
 -2       364       363       511      1903      2342      2343
 -1       864    8    0    1
 -2       363       510       511      2340      2344      2342
 -1       865    8    0    1
 -2       365       364       512      1906      2345      2346
 -1       866    8    0    1
 -2       364       511       512      2343      2347      2345
 -1       867    8    0    1
 -2       366       365       513      1909      2348      2349
 -1       868    8    0    1
 -2       365       512       513      2346      2350      2348
 -1       869    8    0    1
 -2       367       366       514      1912      2351      2352
 -1       870    8    0    1
 -2       366       513       514      2349      2353      2351
 -1       871    8    0    1
 -2       368       367       515      1915      2354      2355
 -1       872    8    0    1
 -2       367       514       515      2352      2356      2354
 -1       873    8    0    1
 -2       369       368       516      1918      2357      2358
 -1       874    8    0    1
 -2       368       515       516      2355      2359      2357
 -1       875    8    0    1
 -2       370       369       517      1921      2360      2361
 -1       876    8    0    1
 -2       369       516       517      2358      2362      2360
 -1       877    8    0    1
 -2       371       370       518      1924      2363      2364
 -1       878    8    0    1
 -2       370       517       518      2361      2365      2363
 -1       879    8    0    1
 -2       372       371       519      1927      2366      2367
 -1       880    8    0    1
 -2       371       518       519      2364      2368      2366
 -1       881    8    0    1
 -2       373       372       520      1930      2369      2370
 -1       882    8    0    1
 -2       372       519       520      2367      2371      2369
 -1       883    8    0    1
 -2       374       373       521      1933      2372      2373
 -1       884    8    0    1
 -2       373       520       521      2370      2374      2372
 -1       885    8    0    1
 -2       375       374       522      1936      2375      2376
 -1       886    8    0    1
 -2       374       521       522      2373      2377      2375
 -1       887    8    0    1
 -2       376       375       523      1939      2378      2379
 -1       888    8    0    1
 -2       375       522       523      2376      2380      2378
 -1       889    8    0    1
 -2       377       376       524      1942      2381      2382
 -1       890    8    0    1
 -2       376       523       524      2379      2383      2381
 -1       891    8    0    1
 -2       378       377       525      1945      2384      2385
 -1       892    8    0    1
 -2       377       524       525      2382      2386      2384
 -1       893    8    0    1
 -2       379       378       526      1948      2387      2388
 -1       894    8    0    1
 -2       378       525       526      2385      2389      2387
 -1       895    8    0    1
 -2       380       379       527      1951      2390      2391
 -1       896    8    0    1
 -2       379       526       527      2388      2392      2390
 -1       897    8    0    1
 -2       381       380       528      1954      2393      2394
 -1       898    8    0    1
 -2       380       527       528      2391      2395      2393
 -1       899    8    0    1
 -2       385       386       529      1970      2396      2397
 -1       900    8    0    1
 -2       386       387       530      1973      2398      2399
 -1       901    8    0    1
 -2       386       530       529      2399      2400      2396
 -1       902    8    0    1
 -2       387       388       531      1976      2401      2402
 -1       903    8    0    1
 -2       387       531       530      2402      2403      2398
 -1       904    8    0    1
 -2       388       389       532      1979      2404      2405
 -1       905    8    0    1
 -2       388       532       531      2405      2406      2401
 -1       906    8    0    1
 -2       389       390       533      1982      2407      2408
 -1       907    8    0    1
 -2       389       533       532      2408      2409      2404
 -1       908    8    0    1
 -2       390       391       534      1985      2410      2411
 -1       909    8    0    1
 -2       390       534       533      2411      2412      2407
 -1       910    8    0    1
 -2       391       392       535      1988      2413      2414
 -1       911    8    0    1
 -2       391       535       534      2414      2415      2410
 -1       912    8    0    1
 -2       392       393       536      1991      2416      2417
 -1       913    8    0    1
 -2       392       536       535      2417      2418      2413
 -1       914    8    0    1
 -2       393       394       537      1994      2419      2420
 -1       915    8    0    1
 -2       393       537       536      2420      2421      2416
 -1       916    8    0    1
 -2       394       395       538      1997      2422      2423
 -1       917    8    0    1
 -2       394       538       537      2423      2424      2419
 -1       918    8    0    1
 -2       395       396       539      2000      2425      2426
 -1       919    8    0    1
 -2       395       539       538      2426      2427      2422
 -1       920    8    0    1
 -2       396       397       540      2003      2428      2429
 -1       921    8    0    1
 -2       396       540       539      2429      2430      2425
 -1       922    8    0    1
 -2       397       398       541      2006      2431      2432
 -1       923    8    0    1
 -2       397       541       540      2432      2433      2428
 -1       924    8    0    1
 -2       398       399       542      2009      2434      2435
 -1       925    8    0    1
 -2       398       542       541      2435      2436      2431
 -1       926    8    0    1
 -2       399       400       543      2012      2437      2438
 -1       927    8    0    1
 -2       399       543       542      2438      2439      2434
 -1       928    8    0    1
 -2       400       401       544      2015      2440      2441
 -1       929    8    0    1
 -2       400       544       543      2441      2442      2437
 -1       930    8    0    1
 -2       401       402       545      2018      2443      2444
 -1       931    8    0    1
 -2       401       545       544      2444      2445      2440
 -1       932    8    0    1
 -2       402       403       546      2021      2446      2447
 -1       933    8    0    1
 -2       402       546       545      2447      2448      2443
 -1       934    8    0    1
 -2       403       404       547      2024      2449      2450
 -1       935    8    0    1
 -2       403       547       546      2450      2451      2446
 -1       936    8    0    1
 -2       404       405       548      2027      2452      2453
 -1       937    8    0    1
 -2       404       548       547      2453      2454      2449
 -1       938    8    0    1
 -2       405       406       549      2030      2455      2456
 -1       939    8    0    1
 -2       405       549       548      2456      2457      2452
 -1       940    8    0    1
 -2       406       407       550      2033      2458      2459
 -1       941    8    0    1
 -2       406       550       549      2459      2460      2455
 -1       942    8    0    1
 -2       407       408       551      2036      2461      2462
 -1       943    8    0    1
 -2       407       551       550      2462      2463      2458
 -1       944    8    0    1
 -2       408       409       552      2039      2464      2465
 -1       945    8    0    1
 -2       408       552       551      2465      2466      2461
 -1       946    8    0    1
 -2       409       410       553      2042      2467      2468
 -1       947    8    0    1
 -2       409       553       552      2468      2469      2464
 -1       948    8    0    1
 -2       410       411       554      2045      2470      2471
 -1       949    8    0    1
 -2       410       554       553      2471      2472      2467
 -1       950    8    0    1
 -2       411       412       555      2048      2473      2474
 -1       951    8    0    1
 -2       411       555       554      2474      2475      2470
 -1       952    8    0    1
 -2       412       413       556      2051      2476      2477
 -1       953    8    0    1
 -2       412       556       555      2477      2478      2473
 -1       954    8    0    1
 -2       413       414       557      2054      2479      2480
 -1       955    8    0    1
 -2       413       557       556      2480      2481      2476
 -1       956    8    0    1
 -2       414       415       558      2057      2482      2483
 -1       957    8    0    1
 -2       414       558       557      2483      2484      2479
 -1       958    8    0    1
 -2       415       416       559      2060      2485      2486
 -1       959    8    0    1
 -2       415       559       558      2486      2487      2482
 -1       960    8    0    1
 -2       416       417       560      2063      2488      2489
 -1       961    8    0    1
 -2       416       560       559      2489      2490      2485
 -1       962    8    0    1
 -2       417       418       561      2066      2491      2492
 -1       963    8    0    1
 -2       417       561       560      2492      2493      2488
 -1       964    8    0    1
 -2       418       419       562      2069      2494      2495
 -1       965    8    0    1
 -2       418       562       561      2495      2496      2491
 -1       966    8    0    1
 -2       419       420       563      2072      2497      2498
 -1       967    8    0    1
 -2       419       563       562      2498      2499      2494
 -1       968    8    0    1
 -2       420       421       564      2075      2500      2501
 -1       969    8    0    1
 -2       420       564       563      2501      2502      2497
 -1       970    8    0    1
 -2       421       422       565      2078      2503      2504
 -1       971    8    0    1
 -2       421       565       564      2504      2505      2500
 -1       972    8    0    1
 -2       422       423       566      2081      2506      2507
 -1       973    8    0    1
 -2       422       566       565      2507      2508      2503
 -1       974    8    0    1
 -2       423       424       567      2084      2509      2510
 -1       975    8    0    1
 -2       423       567       566      2510      2511      2506
 -1       976    8    0    1
 -2       424       425       568      2087      2512      2513
 -1       977    8    0    1
 -2       424       568       567      2513      2514      2509
 -1       978    8    0    1
 -2       425       426       569      2090      2515      2516
 -1       979    8    0    1
 -2       425       569       568      2516      2517      2512
 -1       980    8    0    1
 -2       426       427       570      2093      2518      2519
 -1       981    8    0    1
 -2       426       570       569      2519      2520      2515
 -1       982    8    0    1
 -2       427       428       431      2096      2105      2521
 -1       983    8    0    1
 -2       432       433       571      2112      2522      2523
 -1       984    8    0    1
 -2       433       434       572      2115      2524      2525
 -1       985    8    0    1
 -2       433       572       571      2525      2526      2522
 -1       986    8    0    1
 -2       430       429       573      2102      2527      2528
 -1       987    8    0    1
 -2       429       432       574      2109      2529      2530
 -1       988    8    0    1
 -2       573       429       574      2527      2530      2531
 -1       989    8    0    1
 -2       432       571       574      2523      2532      2529
 -1       990    8    0    1
 -2       434       435       575      2118      2533      2534
 -1       991    8    0    1
 -2       434       575       572      2534      2535      2524
 -1       992    8    0    1
 -2       435       436       576      2121      2536      2537
 -1       993    8    0    1
 -2       435       576       575      2537      2538      2533
 -1       994    8    0    1
 -2       436       437       577      2124      2539      2540
 -1       995    8    0    1
 -2       436       577       576      2540      2541      2536
 -1       996    8    0    1
 -2       437       438       578      2127      2542      2543
 -1       997    8    0    1
 -2       437       578       577      2543      2544      2539
 -1       998    8    0    1
 -2       438       439       579      2130      2545      2546
 -1       999    8    0    1
 -2       438       579       578      2546      2547      2542
 -1      1000    8    0    1
 -2       439       440       580      2133      2548      2549
 -1      1001    8    0    1
 -2       439       580       579      2549      2550      2545
 -1      1002    8    0    1
 -2       440       441       581      2136      2551      2552
 -1      1003    8    0    1
 -2       440       581       580      2552      2553      2548
 -1      1004    8    0    1
 -2       443       444       582      2213      2554      2555
 -1      1005    8    0    1
 -2       444       442       583      2212      2556      2557
 -1      1006    8    0    1
 -2       471       443       584      2215      2558      2559
 -1      1007    8    0    1
 -2       384       385       585      1967      2560      2561
 -1      1008    8    0    1
 -2       385       529       585      2397      2562      2560
 -1      1009    8    0    1
 -2       441       291       382      2214      1957      2563
 -1      1010    8    0    1
 -2       442       445       586      2145      2564      2565
 -1      1011    8    0    1
 -2       445       446       587      2208      2566      2567
 -1      1012    8    0    1
 -2       469       470       588      2216      2568      2569
 -1      1013    8    0    1
 -2       446       472       589      2207      2570      2571
 -1      1014    8    0    1
 -2       463       464       590      2219      2572      2573
 -1      1015    8    0    1
 -2       448       449       591      2232      2574      2575
 -1      1016    8    0    1
 -2       326       327       592      1790      2576      2577
 -1      1017    8    0    1
 -2       475       326       592      2238      2577      2578
 -1      1018    8    0    1
 -2       327       477       592      2244      2579      2576
 -1      1019    8    0    1
 -2       449       450       593      2233      2580      2581
 -1      1020    8    0    1
 -2       454       455       594      2234      2582      2583
 -1      1021    8    0    1
 -2       450       451       595      2160      2584      2585
 -1      1022    8    0    1
 -2       451       452       596      2231      2586      2587
 -1      1023    8    0    1
 -2       452       453       597      2165      2588      2589
 -1      1024    8    0    1
 -2       468       469       598      2235      2590      2591
 -1      1025    8    0    1
 -2       469       588       598      2569      2592      2590
 -1      1026    8    0    1
 -2       453       454       599      2230      2593      2594
 -1      1027    8    0    1
 -2       453       599       597      2594      2595      2588
 -1      1028    8    0    1
 -2       455       456       600      2229      2596      2597
 -1      1029    8    0    1
 -2       456       457       601      2228      2598      2599
 -1      1030    8    0    1
 -2       457       458       602      2227      2600      2601
 -1      1031    8    0    1
 -2       459       460       603      2223      2602      2603
 -1      1032    8    0    1
 -2       460       461       604      2222      2604      2605
 -1      1033    8    0    1
 -2       460       604       603      2605      2606      2602
 -1      1034    8    0    1
 -2       461       462       605      2221      2607      2608
 -1      1035    8    0    1
 -2       462       463       606      2220      2609      2610
 -1      1036    8    0    1
 -2       464       465       607      2190      2611      2612
 -1      1037    8    0    1
 -2       465       466       608      2218      2613      2614
 -1      1038    8    0    1
 -2       466       467       609      2195      2615      2616
 -1      1039    8    0    1
 -2       467       468       610      2217      2617      2618
 -1      1040    8    0    1
 -2       467       610       609      2618      2619      2615
 -1      1041    8    0    1
 -2       470       471       611      2204      2620      2621
 -1      1042    8    0    1
 -2       337       323       612      2211      2622      2623
 -1      1043    8    0    1
 -2       484       337       612      2263      2623      2624
 -1      1044    8    0    1
 -2       323       322       612      1779      2625      2622
 -1      1045    8    0    1
 -2       335       336       613      1819      2626      2627
 -1      1046    8    0    1
 -2       334       335       613      1814      2627      2628
 -1      1047    8    0    1
 -2       336       474       613      2237      2629      2626
 -1      1048    8    0    1
 -2       449       593       591      2581      2630      2574
 -1      1049    8    0    1
 -2       324       476       614      2241      2631      2632
 -1      1050    8    0    1
 -2       324       614       447      2632      2633      2151
 -1      1051    8    0    1
 -2       483       384       585      2260      2561      2634
 -1      1052    8    0    1
 -2       333       334       613      1811      2628      2635
 -1      1053    8    0    1
 -2       607       465       608      2611      2614      2636
 -1      1054    8    0    1
 -2       606       463       590      2609      2573      2637
 -1      1055    8    0    1
 -2       472       485       589      2266      2638      2570
 -1      1056    8    0    1
 -2       604       461       605      2604      2608      2639
 -1      1057    8    0    1
 -2       442       586       583      2565      2640      2556
 -1      1058    8    0    1
 -2       602       458       615      2600      2641      2642
 -1      1059    8    0    1
 -2       458       473       615      2225      2643      2641
 -1      1060    8    0    1
 -2       427       431       570      2521      2644      2518
 -1      1061    8    0    1
 -2       431       430       570      2106      2645      2644
 -1      1062    8    0    1
 -2       601       457       602      2598      2601      2646
 -1      1063    8    0    1
 -2       443       582       584      2555      2647      2558
 -1      1064    8    0    1
 -2       582       444       583      2554      2557      2648
 -1      1065    8    0    1
 -2       471       584       611      2559      2649      2620
 -1      1066    8    0    1
 -2       333       613       482      2635      2650      2257
 -1      1067    8    0    1
 -2       587       446       589      2566      2571      2651
 -1      1068    8    0    1
 -2       455       600       594      2597      2652      2582
 -1      1069    8    0    1
 -2       586       445       587      2564      2567      2653
 -1      1070    8    0    1
 -2       612       322       447      2625      2150      2654
 -1      1071    8    0    1
 -2       610       468       598      2617      2591      2655
 -1      1072    8    0    1
 -2       470       611       588      2621      2656      2568
 -1      1073    8    0    1
 -2       596       452       597      2586      2589      2657
 -1      1074    8    0    1
 -2       595       451       596      2584      2587      2658
 -1      1075    8    0    1
 -2       448       591       485      2575      2659      2265
 -1      1076    8    0    1
 -2       590       464       607      2572      2612      2660
 -1      1077    8    0    1
 -2       473       459       616      2226      2661      2662
 -1      1078    8    0    1
 -2       459       603       616      2603      2663      2661
 -1      1079    8    0    1
 -2       454       594       599      2583      2664      2593
 -1      1080    8    0    1
 -2       450       595       593      2585      2665      2580
 -1      1081    8    0    1
 -2       600       456       601      2596      2599      2666
 -1      1082    8    0    1
 -2       605       462       606      2607      2610      2667
 -1      1083    8    0    1
 -2       466       609       608      2616      2668      2613
 -1      1084    8    0    1
 -2       441       382       617      2563      2669      2670
 -1      1085    8    0    1
 -2       581       441       617      2551      2670      2671
 -1      1086    8    0    1
 -2       382       381       617      1958      2672      2669
 -1      1087    8    0    1
 -2       570       430       573      2645      2528      2673
 -1      1088    8    0    1
 -2       617       381       528      2672      2394      2674
 -1      1089    8    0    1
 -2       478       479       618      2250      2675      2676
 -1      1090    8    0    1
 -2       477       478       619      2247      2677      2678
 -1      1091    8    0    1
 -2       478       618       619      2676      2679      2677
 -1      1092    8    0    1
 -2       480       481       620      2256      2680      2681
 -1      1093    8    0    1
 -2       481       482       621      2259      2682      2683
 -1      1094    8    0    1
 -2       481       621       620      2683      2684      2680
 -1      1095    8    0    1
 -2       474       483       622      2262      2685      2686
 -1      1096    8    0    1
 -2       587       589       623      2651      2687      2688
 -1      1097    8    0    1
 -2       483       585       624      2634      2689      2690
 -1      1098    8    0    1
 -2       483       624       622      2690      2691      2685
 -1      1099    8    0    1
 -2       613       474       482      2629      2692      2650
 -1      1100    8    0    1
 -2       583       586       625      2640      2693      2694
 -1      1101    8    0    1
 -2       487       486       626      2272      2695      2696
 -1      1102    8    0    1
 -2       488       487       627      2275      2697      2698
 -1      1103    8    0    1
 -2       487       626       627      2696      2699      2697
 -1      1104    8    0    1
 -2       489       488       628      2278      2700      2701
 -1      1105    8    0    1
 -2       488       627       628      2698      2702      2700
 -1      1106    8    0    1
 -2       490       489       629      2281      2703      2704
 -1      1107    8    0    1
 -2       489       628       629      2701      2705      2703
 -1      1108    8    0    1
 -2       491       490       630      2284      2706      2707
 -1      1109    8    0    1
 -2       490       629       630      2704      2708      2706
 -1      1110    8    0    1
 -2       492       491       631      2287      2709      2710
 -1      1111    8    0    1
 -2       491       630       631      2707      2711      2709
 -1      1112    8    0    1
 -2       493       492       632      2290      2712      2713
 -1      1113    8    0    1
 -2       492       631       632      2710      2714      2712
 -1      1114    8    0    1
 -2       494       493       633      2293      2715      2716
 -1      1115    8    0    1
 -2       493       632       633      2713      2717      2715
 -1      1116    8    0    1
 -2       495       494       634      2296      2718      2719
 -1      1117    8    0    1
 -2       494       633       634      2716      2720      2718
 -1      1118    8    0    1
 -2       496       495       635      2299      2721      2722
 -1      1119    8    0    1
 -2       495       634       635      2719      2723      2721
 -1      1120    8    0    1
 -2       497       496       636      2302      2724      2725
 -1      1121    8    0    1
 -2       496       635       636      2722      2726      2724
 -1      1122    8    0    1
 -2       498       497       637      2305      2727      2728
 -1      1123    8    0    1
 -2       497       636       637      2725      2729      2727
 -1      1124    8    0    1
 -2       499       498       638      2308      2730      2731
 -1      1125    8    0    1
 -2       498       637       638      2728      2732      2730
 -1      1126    8    0    1
 -2       500       499       639      2311      2733      2734
 -1      1127    8    0    1
 -2       499       638       639      2731      2735      2733
 -1      1128    8    0    1
 -2       501       500       640      2314      2736      2737
 -1      1129    8    0    1
 -2       500       639       640      2734      2738      2736
 -1      1130    8    0    1
 -2       502       501       641      2317      2739      2740
 -1      1131    8    0    1
 -2       501       640       641      2737      2741      2739
 -1      1132    8    0    1
 -2       503       502       642      2320      2742      2743
 -1      1133    8    0    1
 -2       502       641       642      2740      2744      2742
 -1      1134    8    0    1
 -2       504       503       643      2323      2745      2746
 -1      1135    8    0    1
 -2       503       642       643      2743      2747      2745
 -1      1136    8    0    1
 -2       505       504       644      2326      2748      2749
 -1      1137    8    0    1
 -2       504       643       644      2746      2750      2748
 -1      1138    8    0    1
 -2       506       505       645      2329      2751      2752
 -1      1139    8    0    1
 -2       505       644       645      2749      2753      2751
 -1      1140    8    0    1
 -2       507       506       646      2332      2754      2755
 -1      1141    8    0    1
 -2       506       645       646      2752      2756      2754
 -1      1142    8    0    1
 -2       508       507       647      2335      2757      2758
 -1      1143    8    0    1
 -2       507       646       647      2755      2759      2757
 -1      1144    8    0    1
 -2       509       508       648      2338      2760      2761
 -1      1145    8    0    1
 -2       508       647       648      2758      2762      2760
 -1      1146    8    0    1
 -2       510       509       649      2341      2763      2764
 -1      1147    8    0    1
 -2       509       648       649      2761      2765      2763
 -1      1148    8    0    1
 -2       511       510       650      2344      2766      2767
 -1      1149    8    0    1
 -2       510       649       650      2764      2768      2766
 -1      1150    8    0    1
 -2       512       511       651      2347      2769      2770
 -1      1151    8    0    1
 -2       511       650       651      2767      2771      2769
 -1      1152    8    0    1
 -2       513       512       652      2350      2772      2773
 -1      1153    8    0    1
 -2       512       651       652      2770      2774      2772
 -1      1154    8    0    1
 -2       514       513       653      2353      2775      2776
 -1      1155    8    0    1
 -2       513       652       653      2773      2777      2775
 -1      1156    8    0    1
 -2       515       514       654      2356      2778      2779
 -1      1157    8    0    1
 -2       514       653       654      2776      2780      2778
 -1      1158    8    0    1
 -2       516       515       655      2359      2781      2782
 -1      1159    8    0    1
 -2       515       654       655      2779      2783      2781
 -1      1160    8    0    1
 -2       517       516       656      2362      2784      2785
 -1      1161    8    0    1
 -2       516       655       656      2782      2786      2784
 -1      1162    8    0    1
 -2       518       517       657      2365      2787      2788
 -1      1163    8    0    1
 -2       517       656       657      2785      2789      2787
 -1      1164    8    0    1
 -2       519       518       658      2368      2790      2791
 -1      1165    8    0    1
 -2       518       657       658      2788      2792      2790
 -1      1166    8    0    1
 -2       520       519       659      2371      2793      2794
 -1      1167    8    0    1
 -2       519       658       659      2791      2795      2793
 -1      1168    8    0    1
 -2       521       520       660      2374      2796      2797
 -1      1169    8    0    1
 -2       520       659       660      2794      2798      2796
 -1      1170    8    0    1
 -2       522       521       661      2377      2799      2800
 -1      1171    8    0    1
 -2       521       660       661      2797      2801      2799
 -1      1172    8    0    1
 -2       523       522       662      2380      2802      2803
 -1      1173    8    0    1
 -2       522       661       662      2800      2804      2802
 -1      1174    8    0    1
 -2       524       523       663      2383      2805      2806
 -1      1175    8    0    1
 -2       523       662       663      2803      2807      2805
 -1      1176    8    0    1
 -2       525       524       664      2386      2808      2809
 -1      1177    8    0    1
 -2       524       663       664      2806      2810      2808
 -1      1178    8    0    1
 -2       526       525       665      2389      2811      2812
 -1      1179    8    0    1
 -2       525       664       665      2809      2813      2811
 -1      1180    8    0    1
 -2       527       526       666      2392      2814      2815
 -1      1181    8    0    1
 -2       526       665       666      2812      2816      2814
 -1      1182    8    0    1
 -2       528       527       667      2395      2817      2818
 -1      1183    8    0    1
 -2       527       666       667      2815      2819      2817
 -1      1184    8    0    1
 -2       530       531       668      2403      2820      2821
 -1      1185    8    0    1
 -2       570       573       669      2673      2822      2823
 -1      1186    8    0    1
 -2       570       669       569      2823      2824      2520
 -1      1187    8    0    1
 -2       529       530       670      2400      2825      2826
 -1      1188    8    0    1
 -2       530       668       670      2821      2827      2825
 -1      1189    8    0    1
 -2       532       533       671      2409      2828      2829
 -1      1190    8    0    1
 -2       533       534       672      2412      2830      2831
 -1      1191    8    0    1
 -2       533       672       671      2831      2832      2828
 -1      1192    8    0    1
 -2       534       535       673      2415      2833      2834
 -1      1193    8    0    1
 -2       534       673       672      2834      2835      2830
 -1      1194    8    0    1
 -2       535       536       674      2418      2836      2837
 -1      1195    8    0    1
 -2       535       674       673      2837      2838      2833
 -1      1196    8    0    1
 -2       536       537       675      2421      2839      2840
 -1      1197    8    0    1
 -2       536       675       674      2840      2841      2836
 -1      1198    8    0    1
 -2       537       538       676      2424      2842      2843
 -1      1199    8    0    1
 -2       537       676       675      2843      2844      2839
 -1      1200    8    0    1
 -2       538       539       677      2427      2845      2846
 -1      1201    8    0    1
 -2       538       677       676      2846      2847      2842
 -1      1202    8    0    1
 -2       539       540       678      2430      2848      2849
 -1      1203    8    0    1
 -2       539       678       677      2849      2850      2845
 -1      1204    8    0    1
 -2       540       541       679      2433      2851      2852
 -1      1205    8    0    1
 -2       540       679       678      2852      2853      2848
 -1      1206    8    0    1
 -2       541       542       680      2436      2854      2855
 -1      1207    8    0    1
 -2       541       680       679      2855      2856      2851
 -1      1208    8    0    1
 -2       542       543       681      2439      2857      2858
 -1      1209    8    0    1
 -2       542       681       680      2858      2859      2854
 -1      1210    8    0    1
 -2       543       544       682      2442      2860      2861
 -1      1211    8    0    1
 -2       543       682       681      2861      2862      2857
 -1      1212    8    0    1
 -2       544       545       683      2445      2863      2864
 -1      1213    8    0    1
 -2       544       683       682      2864      2865      2860
 -1      1214    8    0    1
 -2       545       546       684      2448      2866      2867
 -1      1215    8    0    1
 -2       545       684       683      2867      2868      2863
 -1      1216    8    0    1
 -2       546       547       685      2451      2869      2870
 -1      1217    8    0    1
 -2       546       685       684      2870      2871      2866
 -1      1218    8    0    1
 -2       547       548       686      2454      2872      2873
 -1      1219    8    0    1
 -2       547       686       685      2873      2874      2869
 -1      1220    8    0    1
 -2       548       549       687      2457      2875      2876
 -1      1221    8    0    1
 -2       548       687       686      2876      2877      2872
 -1      1222    8    0    1
 -2       549       550       688      2460      2878      2879
 -1      1223    8    0    1
 -2       549       688       687      2879      2880      2875
 -1      1224    8    0    1
 -2       550       551       689      2463      2881      2882
 -1      1225    8    0    1
 -2       550       689       688      2882      2883      2878
 -1      1226    8    0    1
 -2       551       552       690      2466      2884      2885
 -1      1227    8    0    1
 -2       551       690       689      2885      2886      2881
 -1      1228    8    0    1
 -2       552       553       691      2469      2887      2888
 -1      1229    8    0    1
 -2       552       691       690      2888      2889      2884
 -1      1230    8    0    1
 -2       553       554       692      2472      2890      2891
 -1      1231    8    0    1
 -2       553       692       691      2891      2892      2887
 -1      1232    8    0    1
 -2       554       555       693      2475      2893      2894
 -1      1233    8    0    1
 -2       554       693       692      2894      2895      2890
 -1      1234    8    0    1
 -2       555       556       694      2478      2896      2897
 -1      1235    8    0    1
 -2       555       694       693      2897      2898      2893
 -1      1236    8    0    1
 -2       556       557       695      2481      2899      2900
 -1      1237    8    0    1
 -2       556       695       694      2900      2901      2896
 -1      1238    8    0    1
 -2       557       558       696      2484      2902      2903
 -1      1239    8    0    1
 -2       557       696       695      2903      2904      2899
 -1      1240    8    0    1
 -2       558       559       697      2487      2905      2906
 -1      1241    8    0    1
 -2       558       697       696      2906      2907      2902
 -1      1242    8    0    1
 -2       559       560       698      2490      2908      2909
 -1      1243    8    0    1
 -2       559       698       697      2909      2910      2905
 -1      1244    8    0    1
 -2       560       561       699      2493      2911      2912
 -1      1245    8    0    1
 -2       560       699       698      2912      2913      2908
 -1      1246    8    0    1
 -2       561       562       700      2496      2914      2915
 -1      1247    8    0    1
 -2       561       700       699      2915      2916      2911
 -1      1248    8    0    1
 -2       562       563       701      2499      2917      2918
 -1      1249    8    0    1
 -2       562       701       700      2918      2919      2914
 -1      1250    8    0    1
 -2       563       564       702      2502      2920      2921
 -1      1251    8    0    1
 -2       563       702       701      2921      2922      2917
 -1      1252    8    0    1
 -2       564       565       703      2505      2923      2924
 -1      1253    8    0    1
 -2       564       703       702      2924      2925      2920
 -1      1254    8    0    1
 -2       565       566       704      2508      2926      2927
 -1      1255    8    0    1
 -2       565       704       703      2927      2928      2923
 -1      1256    8    0    1
 -2       566       567       705      2511      2929      2930
 -1      1257    8    0    1
 -2       566       705       704      2930      2931      2926
 -1      1258    8    0    1
 -2       567       568       706      2514      2932      2933
 -1      1259    8    0    1
 -2       567       706       705      2933      2934      2929
 -1      1260    8    0    1
 -2       568       569       707      2517      2935      2936
 -1      1261    8    0    1
 -2       706       568       707      2932      2936      2937
 -1      1262    8    0    1
 -2       569       669       707      2824      2938      2935
 -1      1263    8    0    1
 -2       575       576       708      2538      2939      2940
 -1      1264    8    0    1
 -2       617       528       709      2674      2941      2942
 -1      1265    8    0    1
 -2       528       667       709      2818      2943      2941
 -1      1266    8    0    1
 -2       571       572       710      2526      2944      2945
 -1      1267    8    0    1
 -2       576       577       711      2541      2946      2947
 -1      1268    8    0    1
 -2       576       711       708      2947      2948      2939
 -1      1269    8    0    1
 -2       572       575       712      2535      2949      2950
 -1      1270    8    0    1
 -2       710       572       712      2944      2950      2951
 -1      1271    8    0    1
 -2       575       708       712      2940      2952      2949
 -1      1272    8    0    1
 -2       577       578       713      2544      2953      2954
 -1      1273    8    0    1
 -2       577       713       711      2954      2955      2946
 -1      1274    8    0    1
 -2       578       579       714      2547      2956      2957
 -1      1275    8    0    1
 -2       578       714       713      2957      2958      2953
 -1      1276    8    0    1
 -2       579       580       715      2550      2959      2960
 -1      1277    8    0    1
 -2       579       715       714      2960      2961      2956
 -1      1278    8    0    1
 -2       611       584       716      2649      2962      2963
 -1      1279    8    0    1
 -2       598       588       717      2592      2964      2965
 -1      1280    8    0    1
 -2       612       447       614      2654      2633      2966
 -1      1281    8    0    1
 -2       597       599       718      2595      2967      2968
 -1      1282    8    0    1
 -2       594       600       719      2652      2969      2970
 -1      1283    8    0    1
 -2       589       485       720      2638      2971      2972
 -1      1284    8    0    1
 -2       604       605       721      2639      2973      2974
 -1      1285    8    0    1
 -2       596       597       722      2657      2975      2976
 -1      1286    8    0    1
 -2       585       529       723      2562      2977      2978
 -1      1287    8    0    1
 -2       624       585       723      2689      2978      2979
 -1      1288    8    0    1
 -2       529       670       723      2826      2980      2977
 -1      1289    8    0    1
 -2       582       583       724      2648      2981      2982
 -1      1290    8    0    1
 -2       531       532       725      2406      2983      2984
 -1      1291    8    0    1
 -2       668       531       725      2820      2984      2985
 -1      1292    8    0    1
 -2       532       671       725      2829      2986      2983
 -1      1293    8    0    1
 -2       486       484       726      2269      2987      2988
 -1      1294    8    0    1
 -2       486       726       626      2988      2989      2695
 -1      1295    8    0    1
 -2       590       607       727      2660      2990      2991
 -1      1296    8    0    1
 -2       586       587       728      2653      2992      2993
 -1      1297    8    0    1
 -2       607       608       729      2636      2994      2995
 -1      1298    8    0    1
 -2       610       598       730      2655      2996      2997
 -1      1299    8    0    1
 -2       479       480       731      2253      2998      2999
 -1      1300    8    0    1
 -2       618       479       731      2675      2999      3000
 -1      1301    8    0    1
 -2       480       620       731      2681      3001      2998
 -1      1302    8    0    1
 -2       476       475       732      2242      3002      3003
 -1      1303    8    0    1
 -2       485       591       733      2659      3004      3005
 -1      1304    8    0    1
 -2       595       596       734      2658      3006      3007
 -1      1305    8    0    1
 -2       596       722       734      2976      3008      3006
 -1      1306    8    0    1
 -2       588       611       735      2656      3009      3010
 -1      1307    8    0    1
 -2       588       735       717      3010      3011      2964
 -1      1308    8    0    1
 -2       600       601       736      2666      3012      3013
 -1      1309    8    0    1
 -2       593       595       737      2665      3014      3015
 -1      1310    8    0    1
 -2       605       606       738      2667      3016      3017
 -1      1311    8    0    1
 -2       584       582       739      2647      3018      3019
 -1      1312    8    0    1
 -2       599       594       740      2664      3020      3021
 -1      1313    8    0    1
 -2       601       602       741      2646      3022      3023
 -1      1314    8    0    1
 -2       603       604       742      2606      3024      3025
 -1      1315    8    0    1
 -2       604       721       742      2974      3026      3024
 -1      1316    8    0    1
 -2       608       609       743      2668      3027      3028
 -1      1317    8    0    1
 -2       606       590       744      2637      3029      3030
 -1      1318    8    0    1
 -2       609       610       745      2619      3031      3032
 -1      1319    8    0    1
 -2       610       730       745      2997      3033      3031
 -1      1320    8    0    1
 -2       591       593       746      2630      3034      3035
 -1      1321    8    0    1
 -2       591       746       733      3035      3036      3004
 -1      1322    8    0    1
 -2       581       617       709      2671      2942      3037
 -1      1323    8    0    1
 -2       614       476       747      2631      3038      3039
 -1      1324    8    0    1
 -2       476       732       747      3003      3040      3038
 -1      1325    8    0    1
 -2       477       619       748      2678      3041      3042
 -1      1326    8    0    1
 -2       477       748       592      3042      3043      2579
 -1      1327    8    0    1
 -2       482       474       622      2692      2686      3044
 -1      1328    8    0    1
 -2       587       623       728      2688      3045      2992
 -1      1329    8    0    1
 -2       590       727       744      2991      3046      3029
 -1      1330    8    0    1
 -2       625       586       728      2693      2993      3047
 -1      1331    8    0    1
 -2       615       473       749      2643      3048      3049
 -1      1332    8    0    1
 -2       473       616       749      2662      3050      3048
 -1      1333    8    0    1
 -2       571       710       750      2945      3051      3052
 -1      1334    8    0    1
 -2       571       750       574      3052      3053      2532
 -1      1335    8    0    1
 -2       582       724       739      2982      3054      3018
 -1      1336    8    0    1
 -2       573       574       669      2531      3055      2822
 -1      1337    8    0    1
 -2       600       736       719      3013      3056      2969
 -1      1338    8    0    1
 -2       602       615       751      2642      3057      3058
 -1      1339    8    0    1
 -2       602       751       741      3058      3059      3022
 -1      1340    8    0    1
 -2       611       716       752      2963      3060      3061
 -1      1341    8    0    1
 -2       611       752       735      3061      3062      3009
 -1      1342    8    0    1
 -2       716       584       739      2962      3019      3063
 -1      1343    8    0    1
 -2       580       581       709      2553      3037      3064
 -1      1344    8    0    1
 -2       740       594       719      3020      2970      3065
 -1      1345    8    0    1
 -2       621       482       622      2682      3044      3066
 -1      1346    8    0    1
 -2       598       717       730      2965      3067      2996
 -1      1347    8    0    1
 -2       612       614       753      2966      3068      3069
 -1      1348    8    0    1
 -2       484       612       753      2624      3069      3070
 -1      1349    8    0    1
 -2       614       747       753      3039      3071      3068
 -1      1350    8    0    1
 -2       738       606       744      3016      3030      3072
 -1      1351    8    0    1
 -2       737       595       734      3014      3007      3073
 -1      1352    8    0    1
 -2       484       753       726      3070      3074      2987
 -1      1353    8    0    1
 -2       718       599       740      2967      3021      3075
 -1      1354    8    0    1
 -2       729       608       743      2994      3028      3076
 -1      1355    8    0    1
 -2       722       597       718      2975      2968      3077
 -1      1356    8    0    1
 -2       589       720       754      2972      3078      3079
 -1      1357    8    0    1
 -2       589       754       623      3079      3080      2687
 -1      1358    8    0    1
 -2       721       605       738      2973      3017      3081
 -1      1359    8    0    1
 -2       720       485       733      2971      3005      3082
 -1      1360    8    0    1
 -2       616       603       755      2663      3083      3084
 -1      1361    8    0    1
 -2       603       742       755      3025      3085      3083
 -1      1362    8    0    1
 -2       727       607       729      2990      2995      3086
 -1      1363    8    0    1
 -2       475       592       756      2578      3087      3088
 -1      1364    8    0    1
 -2       732       475       756      3002      3088      3089
 -1      1365    8    0    1
 -2       592       748       756      3043      3090      3087
 -1      1366    8    0    1
 -2       736       601       741      3012      3023      3091
 -1      1367    8    0    1
 -2       593       737       746      3015      3092      3034
 -1      1368    8    0    1
 -2       580       709       757      3064      3093      3094
 -1      1369    8    0    1
 -2       715       580       757      2959      3094      3095
 -1      1370    8    0    1
 -2       709       667       757      2943      3096      3093
 -1      1371    8    0    1
 -2       743       609       745      3027      3032      3097
 -1      1372    8    0    1
 -2       724       583       625      2981      2694      3098
 -1      1373    8    0    1
 -2       728       623       758      3045      3099      3100
 -1      1374    8    0    1
 -2       620       621       759      2684      3101      3102
 -1      1375    8    0    1
 -2       736       741       760      3091      3103      3104
 -1      1376    8    0    1
 -2       626       726       761      2989      3105      3106
 -1      1377    8    0    1
 -2       628       627       762      2702      3107      3108
 -1      1378    8    0    1
 -2       629       628       763      2705      3109      3110
 -1      1379    8    0    1
 -2       628       762       763      3108      3111      3109
 -1      1380    8    0    1
 -2       630       629       764      2708      3112      3113
 -1      1381    8    0    1
 -2       629       763       764      3110      3114      3112
 -1      1382    8    0    1
 -2       631       630       765      2711      3115      3116
 -1      1383    8    0    1
 -2       630       764       765      3113      3117      3115
 -1      1384    8    0    1
 -2       632       631       766      2714      3118      3119
 -1      1385    8    0    1
 -2       631       765       766      3116      3120      3118
 -1      1386    8    0    1
 -2       633       632       767      2717      3121      3122
 -1      1387    8    0    1
 -2       632       766       767      3119      3123      3121
 -1      1388    8    0    1
 -2       634       633       768      2720      3124      3125
 -1      1389    8    0    1
 -2       633       767       768      3122      3126      3124
 -1      1390    8    0    1
 -2       635       634       769      2723      3127      3128
 -1      1391    8    0    1
 -2       634       768       769      3125      3129      3127
 -1      1392    8    0    1
 -2       636       635       770      2726      3130      3131
 -1      1393    8    0    1
 -2       635       769       770      3128      3132      3130
 -1      1394    8    0    1
 -2       637       636       771      2729      3133      3134
 -1      1395    8    0    1
 -2       636       770       771      3131      3135      3133
 -1      1396    8    0    1
 -2       638       637       772      2732      3136      3137
 -1      1397    8    0    1
 -2       637       771       772      3134      3138      3136
 -1      1398    8    0    1
 -2       639       638       773      2735      3139      3140
 -1      1399    8    0    1
 -2       638       772       773      3137      3141      3139
 -1      1400    8    0    1
 -2       640       639       774      2738      3142      3143
 -1      1401    8    0    1
 -2       639       773       774      3140      3144      3142
 -1      1402    8    0    1
 -2       641       640       775      2741      3145      3146
 -1      1403    8    0    1
 -2       640       774       775      3143      3147      3145
 -1      1404    8    0    1
 -2       642       641       776      2744      3148      3149
 -1      1405    8    0    1
 -2       641       775       776      3146      3150      3148
 -1      1406    8    0    1
 -2       643       642       777      2747      3151      3152
 -1      1407    8    0    1
 -2       642       776       777      3149      3153      3151
 -1      1408    8    0    1
 -2       644       643       778      2750      3154      3155
 -1      1409    8    0    1
 -2       643       777       778      3152      3156      3154
 -1      1410    8    0    1
 -2       645       644       779      2753      3157      3158
 -1      1411    8    0    1
 -2       644       778       779      3155      3159      3157
 -1      1412    8    0    1
 -2       646       645       780      2756      3160      3161
 -1      1413    8    0    1
 -2       645       779       780      3158      3162      3160
 -1      1414    8    0    1
 -2       647       646       781      2759      3163      3164
 -1      1415    8    0    1
 -2       646       780       781      3161      3165      3163
 -1      1416    8    0    1
 -2       648       647       782      2762      3166      3167
 -1      1417    8    0    1
 -2       647       781       782      3164      3168      3166
 -1      1418    8    0    1
 -2       649       648       783      2765      3169      3170
 -1      1419    8    0    1
 -2       648       782       783      3167      3171      3169
 -1      1420    8    0    1
 -2       650       649       784      2768      3172      3173
 -1      1421    8    0    1
 -2       649       783       784      3170      3174      3172
 -1      1422    8    0    1
 -2       651       650       785      2771      3175      3176
 -1      1423    8    0    1
 -2       650       784       785      3173      3177      3175
 -1      1424    8    0    1
 -2       652       651       786      2774      3178      3179
 -1      1425    8    0    1
 -2       651       785       786      3176      3180      3178
 -1      1426    8    0    1
 -2       654       653       738      2780      3181      3182
 -1      1427    8    0    1
 -2       656       655       727      2786      3183      3184
 -1      1428    8    0    1
 -2       657       656       743      2789      3185      3186
 -1      1429    8    0    1
 -2       658       657       743      2792      3186      3187
 -1      1430    8    0    1
 -2       659       658       787      2795      3188      3189
 -1      1431    8    0    1
 -2       660       659       788      2798      3190      3191
 -1      1432    8    0    1
 -2       659       787       788      3189      3192      3190
 -1      1433    8    0    1
 -2       661       660       789      2801      3193      3194
 -1      1434    8    0    1
 -2       660       788       789      3191      3195      3193
 -1      1435    8    0    1
 -2       662       661       790      2804      3196      3197
 -1      1436    8    0    1
 -2       661       789       790      3194      3198      3196
 -1      1437    8    0    1
 -2       663       662       791      2807      3199      3200
 -1      1438    8    0    1
 -2       662       790       791      3197      3201      3199
 -1      1439    8    0    1
 -2       664       663       792      2810      3202      3203
 -1      1440    8    0    1
 -2       663       791       792      3200      3204      3202
 -1      1441    8    0    1
 -2       665       664       793      2813      3205      3206
 -1      1442    8    0    1
 -2       664       792       793      3203      3207      3205
 -1      1443    8    0    1
 -2       666       665       794      2816      3208      3209
 -1      1444    8    0    1
 -2       665       793       794      3206      3210      3208
 -1      1445    8    0    1
 -2       667       666       795      2819      3211      3212
 -1      1446    8    0    1
 -2       757       667       795      3096      3212      3213
 -1      1447    8    0    1
 -2       666       794       795      3209      3214      3211
 -1      1448    8    0    1
 -2       718       740       796      3075      3215      3216
 -1      1449    8    0    1
 -2       711       713       797      2955      3217      3218
 -1      1450    8    0    1
 -2       670       668       798      2827      3219      3220
 -1      1451    8    0    1
 -2       745       730       787      3033      3221      3222
 -1      1452    8    0    1
 -2       672       673       799      2835      3223      3224
 -1      1453    8    0    1
 -2       671       672       800      2832      3225      3226
 -1      1454    8    0    1
 -2       672       799       800      3224      3227      3225
 -1      1455    8    0    1
 -2       674       675       801      2841      3228      3229
 -1      1456    8    0    1
 -2       675       676       802      2844      3230      3231
 -1      1457    8    0    1
 -2       675       802       801      3231      3232      3228
 -1      1458    8    0    1
 -2       676       677       803      2847      3233      3234
 -1      1459    8    0    1
 -2       676       803       802      3234      3235      3230
 -1      1460    8    0    1
 -2       677       678       804      2850      3236      3237
 -1      1461    8    0    1
 -2       677       804       803      3237      3238      3233
 -1      1462    8    0    1
 -2       678       679       805      2853      3239      3240
 -1      1463    8    0    1
 -2       678       805       804      3240      3241      3236
 -1      1464    8    0    1
 -2       679       680       806      2856      3242      3243
 -1      1465    8    0    1
 -2       679       806       805      3243      3244      3239
 -1      1466    8    0    1
 -2       680       681       807      2859      3245      3246
 -1      1467    8    0    1
 -2       680       807       806      3246      3247      3242
 -1      1468    8    0    1
 -2       681       682       808      2862      3248      3249
 -1      1469    8    0    1
 -2       681       808       807      3249      3250      3245
 -1      1470    8    0    1
 -2       682       683       809      2865      3251      3252
 -1      1471    8    0    1
 -2       682       809       808      3252      3253      3248
 -1      1472    8    0    1
 -2       683       684       810      2868      3254      3255
 -1      1473    8    0    1
 -2       683       810       809      3255      3256      3251
 -1      1474    8    0    1
 -2       684       685       811      2871      3257      3258
 -1      1475    8    0    1
 -2       684       811       810      3258      3259      3254
 -1      1476    8    0    1
 -2       685       686       812      2874      3260      3261
 -1      1477    8    0    1
 -2       685       812       811      3261      3262      3257
 -1      1478    8    0    1
 -2       686       687       813      2877      3263      3264
 -1      1479    8    0    1
 -2       686       813       812      3264      3265      3260
 -1      1480    8    0    1
 -2       687       688       814      2880      3266      3267
 -1      1481    8    0    1
 -2       687       814       813      3267      3268      3263
 -1      1482    8    0    1
 -2       688       689       815      2883      3269      3270
 -1      1483    8    0    1
 -2       688       815       814      3270      3271      3266
 -1      1484    8    0    1
 -2       689       690       816      2886      3272      3273
 -1      1485    8    0    1
 -2       689       816       815      3273      3274      3269
 -1      1486    8    0    1
 -2       690       691       817      2889      3275      3276
 -1      1487    8    0    1
 -2       690       817       816      3276      3277      3272
 -1      1488    8    0    1
 -2       691       692       818      2892      3278      3279
 -1      1489    8    0    1
 -2       691       818       817      3279      3280      3275
 -1      1490    8    0    1
 -2       693       694       734      2898      3281      3282
 -1      1491    8    0    1
 -2       694       695       737      2901      3283      3284
 -1      1492    8    0    1
 -2       695       696       746      2904      3285      3286
 -1      1493    8    0    1
 -2       696       697       733      2907      3287      3288
 -1      1494    8    0    1
 -2       697       698       720      2910      3289      3290
 -1      1495    8    0    1
 -2       698       699       754      2913      3291      3292
 -1      1496    8    0    1
 -2       700       701       819      2919      3293      3294
 -1      1497    8    0    1
 -2       701       702       820      2922      3295      3296
 -1      1498    8    0    1
 -2       701       820       819      3296      3297      3293
 -1      1499    8    0    1
 -2       702       703       821      2925      3298      3299
 -1      1500    8    0    1
 -2       702       821       820      3299      3300      3295
 -1      1501    8    0    1
 -2       703       704       822      2928      3301      3302
 -1      1502    8    0    1
 -2       703       822       821      3302      3303      3298
 -1      1503    8    0    1
 -2       704       705       823      2931      3304      3305
 -1      1504    8    0    1
 -2       704       823       822      3305      3306      3301
 -1      1505    8    0    1
 -2       705       706       824      2934      3307      3308
 -1      1506    8    0    1
 -2       705       824       823      3308      3309      3304
 -1      1507    8    0    1
 -2       743       745       658      3097      3310      3187
 -1      1508    8    0    1
 -2       625       728       825      3047      3311      3312
 -1      1509    8    0    1
 -2       728       758       825      3100      3313      3311
 -1      1510    8    0    1
 -2       619       618       826      2679      3314      3315
 -1      1511    8    0    1
 -2       738       744       654      3072      3316      3182
 -1      1512    8    0    1
 -2       714       715       827      2961      3317      3318
 -1      1513    8    0    1
 -2       708       711       828      2948      3319      3320
 -1      1514    8    0    1
 -2       711       797       828      3218      3321      3319
 -1      1515    8    0    1
 -2       742       721       829      3026      3322      3323
 -1      1516    8    0    1
 -2       720       698       754      3289      3292      3078
 -1      1517    8    0    1
 -2       669       574       750      3055      3053      3324
 -1      1518    8    0    1
 -2       733       697       720      3287      3290      3082
 -1      1519    8    0    1
 -2       737       695       746      3283      3286      3092
 -1      1520    8    0    1
 -2       621       622       830      3066      3325      3326
 -1      1521    8    0    1
 -2       759       621       830      3101      3326      3327
 -1      1522    8    0    1
 -2       622       624       830      2691      3328      3325
 -1      1523    8    0    1
 -2       722       718       831      3077      3329      3330
 -1      1524    8    0    1
 -2       730       717       832      3067      3331      3332
 -1      1525    8    0    1
 -2       717       735       833      3011      3333      3334
 -1      1526    8    0    1
 -2       713       714       834      2958      3335      3336
 -1      1527    8    0    1
 -2       797       713       834      3217      3336      3337
 -1      1528    8    0    1
 -2       714       827       834      3318      3338      3335
 -1      1529    8    0    1
 -2       739       724       835      3054      3339      3340
 -1      1530    8    0    1
 -2       744       727       655      3046      3183      3341
 -1      1531    8    0    1
 -2       733       746       696      3036      3285      3288
 -1      1532    8    0    1
 -2       740       719       836      3065      3342      3343
 -1      1533    8    0    1
 -2       673       674       837      2838      3344      3345
 -1      1534    8    0    1
 -2       799       673       837      3223      3345      3346
 -1      1535    8    0    1
 -2       674       801       837      3229      3347      3344
 -1      1536    8    0    1
 -2       719       736       838      3056      3348      3349
 -1      1537    8    0    1
 -2       719       838       836      3349      3350      3342
 -1      1538    8    0    1
 -2       726       753       839      3074      3351      3352
 -1      1539    8    0    1
 -2       753       747       839      3071      3353      3351
 -1      1540    8    0    1
 -2       716       739       840      3063      3354      3355
 -1      1541    8    0    1
 -2       627       626       841      2699      3356      3357
 -1      1542    8    0    1
 -2       627       841       762      3357      3358      3107
 -1      1543    8    0    1
 -2       737       734       694      3073      3281      3284
 -1      1544    8    0    1
 -2       724       625       842      3098      3359      3360
 -1      1545    8    0    1
 -2       721       738       653      3081      3181      3361
 -1      1546    8    0    1
 -2       693       734       843      3282      3362      3363
 -1      1547    8    0    1
 -2       692       693       843      2895      3363      3364
 -1      1548    8    0    1
 -2       734       722       843      3008      3365      3362
 -1      1549    8    0    1
 -2       658       745       787      3310      3222      3188
 -1      1550    8    0    1
 -2       654       744       655      3316      3341      2783
 -1      1551    8    0    1
 -2       721       653       829      3361      3366      3322
 -1      1552    8    0    1
 -2       748       619       844      3041      3367      3368
 -1      1553    8    0    1
 -2       619       826       844      3315      3369      3367
 -1      1554    8    0    1
 -2       620       759       845      3102      3370      3371
 -1      1555    8    0    1
 -2       620       845       731      3371      3372      3001
 -1      1556    8    0    1
 -2       736       760       838      3104      3373      3348
 -1      1557    8    0    1
 -2       722       831       843      3330      3374      3365
 -1      1558    8    0    1
 -2       749       616       846      3050      3375      3376
 -1      1559    8    0    1
 -2       616       755       846      3084      3377      3375
 -1      1560    8    0    1
 -2       626       761       841      3106      3378      3356
 -1      1561    8    0    1
 -2       652       786       829      3179      3379      3380
 -1      1562    8    0    1
 -2       750       710       847      3051      3381      3382
 -1      1563    8    0    1
 -2       739       835       840      3340      3383      3354
 -1      1564    8    0    1
 -2       692       843       818      3364      3384      3278
 -1      1565    8    0    1
 -2       653       652       829      2777      3380      3366
 -1      1566    8    0    1
 -2       656       727       729      3184      3086      3385
 -1      1567    8    0    1
 -2       847       710       848      3381      3386      3387
 -1      1568    8    0    1
 -2       710       712       848      2951      3388      3386
 -1      1569    8    0    1
 -2       656       729       743      3385      3076      3185
 -1      1570    8    0    1
 -2       625       825       842      3312      3389      3359
 -1      1571    8    0    1
 -2       718       796       831      3216      3390      3329
 -1      1572    8    0    1
 -2       835       724       842      3339      3360      3391
 -1      1573    8    0    1
 -2       742       829       849      3323      3392      3393
 -1      1574    8    0    1
 -2       755       742       849      3085      3393      3394
 -1      1575    8    0    1
 -2       829       786       849      3379      3395      3392
 -1      1576    8    0    1
 -2       670       798       850      3220      3396      3397
 -1      1577    8    0    1
 -2       670       850       723      3397      3398      2980
 -1      1578    8    0    1
 -2       671       800       851      3226      3399      3400
 -1      1579    8    0    1
 -2       671       851       725      3400      3401      2986
 -1      1580    8    0    1
 -2       740       836       796      3343      3402      3215
 -1      1581    8    0    1
 -2       700       819       852      3294      3403      3404
 -1      1582    8    0    1
 -2       700       852       699      3404      3405      2916
 -1      1583    8    0    1
 -2       824       706       853      3307      3406      3407
 -1      1584    8    0    1
 -2       706       707       853      2937      3408      3406
 -1      1585    8    0    1
 -2       826       618       854      3314      3409      3410
 -1      1586    8    0    1
 -2       618       731       854      3000      3411      3409
 -1      1587    8    0    1
 -2       712       708       855      2952      3412      3413
 -1      1588    8    0    1
 -2       848       712       855      3388      3413      3414
 -1      1589    8    0    1
 -2       708       828       855      3320      3415      3412
 -1      1590    8    0    1
 -2       751       615       856      3057      3416      3417
 -1      1591    8    0    1
 -2       615       749       856      3049      3418      3416
 -1      1592    8    0    1
 -2       752       716       857      3060      3419      3420
 -1      1593    8    0    1
 -2       716       840       857      3355      3421      3419
 -1      1594    8    0    1
 -2       735       752       858      3062      3422      3423
 -1      1595    8    0    1
 -2       735       858       833      3423      3424      3333
 -1      1596    8    0    1
 -2       760       741       859      3103      3425      3426
 -1      1597    8    0    1
 -2       741       751       859      3059      3427      3425
 -1      1598    8    0    1
 -2       754       699       852      3291      3405      3428
 -1      1599    8    0    1
 -2       832       717       833      3331      3334      3429
 -1      1600    8    0    1
 -2       787       730       832      3221      3332      3430
 -1      1601    8    0    1
 -2       669       750       860      3324      3431      3432
 -1      1602    8    0    1
 -2       707       669       860      2938      3432      3433
 -1      1603    8    0    1
 -2       750       847       860      3382      3434      3431
 -1      1604    8    0    1
 -2       798       668       861      3219      3435      3436
 -1      1605    8    0    1
 -2       668       725       861      2985      3437      3435
 -1      1606    8    0    1
 -2       623       754       852      3080      3428      3438
 -1      1607    8    0    1
 -2       624       723       862      2979      3439      3440
 -1      1608    8    0    1
 -2       830       624       862      3328      3440      3441
 -1      1609    8    0    1
 -2       723       850       862      3398      3442      3439
 -1      1610    8    0    1
 -2       623       852       758      3438      3443      3099
 -1      1611    8    0    1
 -2       732       756       863      3089      3444      3445
 -1      1612    8    0    1
 -2       761       726       839      3105      3352      3446
 -1      1613    8    0    1
 -2       715       757       864      3095      3447      3448
 -1      1614    8    0    1
 -2       827       715       864      3317      3448      3449
 -1      1615    8    0    1
 -2       757       795       864      3213      3450      3447
 -1      1616    8    0    1
 -2       747       732       865      3040      3451      3452
 -1      1617    8    0    1
 -2       839       747       865      3353      3452      3453
 -1      1618    8    0    1
 -2       732       863       865      3445      3454      3451
 -1      1619    8    0    1
 -2       758       852       866      3443      3455      3456
 -1      1620    8    0    1
 -2       825       758       866      3313      3456      3457
 -1      1621    8    0    1
 -2       852       819       866      3403      3458      3455
 -1      1622    8    0    1
 -2       840       835       867      3383      3459      3460
 -1      1623    8    0    1
 -2       764       763       868      3114      3461      3462
 -1      1624    8    0    1
 -2       765       764       869      3117      3463      3464
 -1      1625    8    0    1
 -2       764       868       869      3462      3465      3463
 -1      1626    8    0    1
 -2       766       765       870      3120      3466      3467
 -1      1627    8    0    1
 -2       765       869       870      3464      3468      3466
 -1      1628    8    0    1
 -2       767       766       871      3123      3469      3470
 -1      1629    8    0    1
 -2       766       870       871      3467      3471      3469
 -1      1630    8    0    1
 -2       768       767       872      3126      3472      3473
 -1      1631    8    0    1
 -2       767       871       872      3470      3474      3472
 -1      1632    8    0    1
 -2       769       768       873      3129      3475      3476
 -1      1633    8    0    1
 -2       768       872       873      3473      3477      3475
 -1      1634    8    0    1
 -2       770       769       874      3132      3478      3479
 -1      1635    8    0    1
 -2       769       873       874      3476      3480      3478
 -1      1636    8    0    1
 -2       771       770       875      3135      3481      3482
 -1      1637    8    0    1
 -2       770       874       875      3479      3483      3481
 -1      1638    8    0    1
 -2       772       771       876      3138      3484      3485
 -1      1639    8    0    1
 -2       771       875       876      3482      3486      3484
 -1      1640    8    0    1
 -2       773       772       877      3141      3487      3488
 -1      1641    8    0    1
 -2       772       876       877      3485      3489      3487
 -1      1642    8    0    1
 -2       774       773       878      3144      3490      3491
 -1      1643    8    0    1
 -2       773       877       878      3488      3492      3490
 -1      1644    8    0    1
 -2       775       774       879      3147      3493      3494
 -1      1645    8    0    1
 -2       774       878       879      3491      3495      3493
 -1      1646    8    0    1
 -2       776       775       880      3150      3496      3497
 -1      1647    8    0    1
 -2       775       879       880      3494      3498      3496
 -1      1648    8    0    1
 -2       777       776       881      3153      3499      3500
 -1      1649    8    0    1
 -2       776       880       881      3497      3501      3499
 -1      1650    8    0    1
 -2       778       777       882      3156      3502      3503
 -1      1651    8    0    1
 -2       777       881       882      3500      3504      3502
 -1      1652    8    0    1
 -2       779       778       883      3159      3505      3506
 -1      1653    8    0    1
 -2       778       882       883      3503      3507      3505
 -1      1654    8    0    1
 -2       780       779       884      3162      3508      3509
 -1      1655    8    0    1
 -2       779       883       884      3506      3510      3508
 -1      1656    8    0    1
 -2       781       780       885      3165      3511      3512
 -1      1657    8    0    1
 -2       780       884       885      3509      3513      3511
 -1      1658    8    0    1
 -2       782       781       886      3168      3514      3515
 -1      1659    8    0    1
 -2       781       885       886      3512      3516      3514
 -1      1660    8    0    1
 -2       783       782       887      3171      3517      3518
 -1      1661    8    0    1
 -2       782       886       887      3515      3519      3517
 -1      1662    8    0    1
 -2       784       783       888      3174      3520      3521
 -1      1663    8    0    1
 -2       783       887       888      3518      3522      3520
 -1      1664    8    0    1
 -2       785       784       889      3177      3523      3524
 -1      1665    8    0    1
 -2       784       888       889      3521      3525      3523
 -1      1666    8    0    1
 -2       786       785       890      3180      3526      3527
 -1      1667    8    0    1
 -2       849       786       890      3395      3527      3528
 -1      1668    8    0    1
 -2       785       889       890      3524      3529      3526
 -1      1669    8    0    1
 -2       790       789       891      3198      3530      3531
 -1      1670    8    0    1
 -2       791       790       892      3201      3532      3533
 -1      1671    8    0    1
 -2       790       891       892      3531      3534      3532
 -1      1672    8    0    1
 -2       792       791       893      3204      3535      3536
 -1      1673    8    0    1
 -2       791       892       893      3533      3537      3535
 -1      1674    8    0    1
 -2       793       792       894      3207      3538      3539
 -1      1675    8    0    1
 -2       792       893       894      3536      3540      3538
 -1      1676    8    0    1
 -2       794       793       895      3210      3541      3542
 -1      1677    8    0    1
 -2       793       894       895      3539      3543      3541
 -1      1678    8    0    1
 -2       836       838       896      3350      3544      3545
 -1      1679    8    0    1
 -2       802       803       897      3235      3546      3547
 -1      1680    8    0    1
 -2       801       802       898      3232      3548      3549
 -1      1681    8    0    1
 -2       802       897       898      3547      3550      3548
 -1      1682    8    0    1
 -2       804       805       899      3241      3551      3552
 -1      1683    8    0    1
 -2       805       806       900      3244      3553      3554
 -1      1684    8    0    1
 -2       805       900       899      3554      3555      3551
 -1      1685    8    0    1
 -2       806       807       901      3247      3556      3557
 -1      1686    8    0    1
 -2       806       901       900      3557      3558      3553
 -1      1687    8    0    1
 -2       807       808       902      3250      3559      3560
 -1      1688    8    0    1
 -2       807       902       901      3560      3561      3556
 -1      1689    8    0    1
 -2       808       809       903      3253      3562      3563
 -1      1690    8    0    1
 -2       808       903       902      3563      3564      3559
 -1      1691    8    0    1
 -2       809       810       904      3256      3565      3566
 -1      1692    8    0    1
 -2       809       904       903      3566      3567      3562
 -1      1693    8    0    1
 -2       810       811       905      3259      3568      3569
 -1      1694    8    0    1
 -2       810       905       904      3569      3570      3565
 -1      1695    8    0    1
 -2       811       812       906      3262      3571      3572
 -1      1696    8    0    1
 -2       811       906       905      3572      3573      3568
 -1      1697    8    0    1
 -2       812       813       907      3265      3574      3575
 -1      1698    8    0    1
 -2       812       907       906      3575      3576      3571
 -1      1699    8    0    1
 -2       813       814       908      3268      3577      3578
 -1      1700    8    0    1
 -2       813       908       907      3578      3579      3574
 -1      1701    8    0    1
 -2       814       815       909      3271      3580      3581
 -1      1702    8    0    1
 -2       814       909       908      3581      3582      3577
 -1      1703    8    0    1
 -2       815       816       910      3274      3583      3584
 -1      1704    8    0    1
 -2       815       910       909      3584      3585      3580
 -1      1705    8    0    1
 -2       816       817       911      3277      3586      3587
 -1      1706    8    0    1
 -2       816       911       910      3587      3588      3583
 -1      1707    8    0    1
 -2       819       820       912      3297      3589      3590
 -1      1708    8    0    1
 -2       819       912       866      3590      3591      3458
 -1      1709    8    0    1
 -2       822       823       913      3306      3592      3593
 -1      1710    8    0    1
 -2       823       824       914      3309      3594      3595
 -1      1711    8    0    1
 -2       823       914       913      3595      3596      3592
 -1      1712    8    0    1
 -2       828       797       915      3321      3597      3598
 -1      1713    8    0    1
 -2       821       822       916      3303      3599      3600
 -1      1714    8    0    1
 -2       822       913       916      3593      3601      3599
 -1      1715    8    0    1
 -2       820       821       917      3300      3602      3603
 -1      1716    8    0    1
 -2       912       820       917      3589      3603      3604
 -1      1717    8    0    1
 -2       821       916       917      3600      3605      3602
 -1      1718    8    0    1
 -2       803       804       918      3238      3606      3607
 -1      1719    8    0    1
 -2       897       803       918      3546      3607      3608
 -1      1720    8    0    1
 -2       804       899       918      3552      3609      3606
 -1      1721    8    0    1
 -2       838       760       919      3373      3610      3611
 -1      1722    8    0    1
 -2       800       799       920      3227      3612      3613
 -1      1723    8    0    1
 -2       843       831       818      3374      3614      3384
 -1      1724    8    0    1
 -2       788       787       832      3192      3430      3615
 -1      1725    8    0    1
 -2       842       825       921      3389      3616      3617
 -1      1726    8    0    1
 -2       796       836       922      3402      3618      3619
 -1      1727    8    0    1
 -2       836       896       922      3545      3620      3618
 -1      1728    8    0    1
 -2       863       756       923      3444      3621      3622
 -1      1729    8    0    1
 -2       756       748       923      3090      3623      3621
 -1      1730    8    0    1
 -2       761       839       924      3446      3624      3625
 -1      1731    8    0    1
 -2       839       865       924      3453      3626      3624
 -1      1732    8    0    1
 -2       841       761       924      3378      3625      3627
 -1      1733    8    0    1
 -2       788       832       925      3615      3628      3629
 -1      1734    8    0    1
 -2       789       788       925      3195      3629      3630
 -1      1735    8    0    1
 -2       832       833       925      3429      3631      3628
 -1      1736    8    0    1
 -2       762       841       926      3358      3632      3633
 -1      1737    8    0    1
 -2       759       830       927      3327      3634      3635
 -1      1738    8    0    1
 -2       830       862       927      3441      3636      3634
 -1      1739    8    0    1
 -2       835       842       928      3391      3637      3638
 -1      1740    8    0    1
 -2       835       928       867      3638      3639      3459
 -1      1741    8    0    1
 -2       763       762       929      3111      3640      3641
 -1      1742    8    0    1
 -2       763       929       868      3641      3642      3461
 -1      1743    8    0    1
 -2       818       831       930      3614      3643      3644
 -1      1744    8    0    1
 -2       817       818       930      3280      3644      3645
 -1      1745    8    0    1
 -2       831       796       930      3390      3646      3643
 -1      1746    8    0    1
 -2       845       759       927      3370      3635      3647
 -1      1747    8    0    1
 -2       846       755       849      3377      3394      3648
 -1      1748    8    0    1
 -2       817       930       911      3645      3649      3586
 -1      1749    8    0    1
 -2       798       861       931      3436      3650      3651
 -1      1750    8    0    1
 -2       856       749       932      3418      3652      3653
 -1      1751    8    0    1
 -2       749       846       932      3376      3654      3652
 -1      1752    8    0    1
 -2       841       924       926      3627      3655      3632
 -1      1753    8    0    1
 -2       863       923       933      3622      3656      3657
 -1      1754    8    0    1
 -2       896       838       919      3544      3611      3658
 -1      1755    8    0    1
 -2       795       794       934      3214      3659      3660
 -1      1756    8    0    1
 -2       864       795       934      3450      3660      3661
 -1      1757    8    0    1
 -2       794       895       934      3542      3662      3659
 -1      1758    8    0    1
 -2       891       789       925      3530      3630      3663
 -1      1759    8    0    1
 -2       851       800       935      3399      3664      3665
 -1      1760    8    0    1
 -2       800       920       935      3613      3666      3664
 -1      1761    8    0    1
 -2       801       898       936      3549      3667      3668
 -1      1762    8    0    1
 -2       801       936       837      3668      3669      3347
 -1      1763    8    0    1
 -2       798       931       937      3651      3670      3671
 -1      1764    8    0    1
 -2       798       937       850      3671      3672      3396
 -1      1765    8    0    1
 -2       840       867       938      3460      3673      3674
 -1      1766    8    0    1
 -2       840       938       857      3674      3675      3421
 -1      1767    8    0    1
 -2       853       707       860      3408      3433      3676
 -1      1768    8    0    1
 -2       824       853       939      3407      3677      3678
 -1      1769    8    0    1
 -2       824       939       914      3678      3679      3594
 -1      1770    8    0    1
 -2       828       915       940      3598      3680      3681
 -1      1771    8    0    1
 -2       828       940       855      3681      3682      3415
 -1      1772    8    0    1
 -2       915       797       941      3597      3683      3684
 -1      1773    8    0    1
 -2       797       834       941      3337      3685      3683
 -1      1774    8    0    1
 -2       854       731       845      3411      3372      3686
 -1      1775    8    0    1
 -2       826       854       942      3410      3687      3688
 -1      1776    8    0    1
 -2       861       725       851      3437      3401      3689
 -1      1777    8    0    1
 -2       865       863       943      3454      3690      3691
 -1      1778    8    0    1
 -2       924       865       943      3626      3691      3692
 -1      1779    8    0    1
 -2       863       933       943      3657      3693      3690
 -1      1780    8    0    1
 -2       751       856       944      3417      3694      3695
 -1      1781    8    0    1
 -2       751       944       859      3695      3696      3427
 -1      1782    8    0    1
 -2       748       844       923      3368      3697      3623
 -1      1783    8    0    1
 -2       858       752       945      3422      3698      3699
 -1      1784    8    0    1
 -2       752       857       945      3420      3700      3698
 -1      1785    8    0    1
 -2       760       859       946      3426      3701      3702
 -1      1786    8    0    1
 -2       760       946       919      3702      3703      3610
 -1      1787    8    0    1
 -2       920       799       947      3612      3704      3705
 -1      1788    8    0    1
 -2       799       837       947      3346      3706      3704
 -1      1789    8    0    1
 -2       921       825       866      3616      3457      3707
 -1      1790    8    0    1
 -2       842       921       948      3617      3708      3709
 -1      1791    8    0    1
 -2       842       948       928      3709      3710      3637
 -1      1792    8    0    1
 -2       796       922       930      3619      3711      3646
 -1      1793    8    0    1
 -2       925       833       949      3631      3712      3713
 -1      1794    8    0    1
 -2       891       925       949      3663      3713      3714
 -1      1795    8    0    1
 -2       833       858       949      3424      3715      3712
 -1      1796    8    0    1
 -2       762       926       929      3633      3716      3640
 -1      1797    8    0    1
 -2       847       848       950      3387      3717      3718
 -1      1798    8    0    1
 -2       847       950       939      3718      3719      3720
 -1      1799    8    0    1
 -2       844       826       951      3369      3721      3722
 -1      1800    8    0    1
 -2       826       942       951      3688      3723      3721
 -1      1801    8    0    1
 -2       827       864       934      3449      3661      3724
 -1      1802    8    0    1
 -2       827       934       952      3724      3725      3726
 -1      1803    8    0    1
 -2       834       827       952      3338      3726      3727
 -1      1804    8    0    1
 -2       934       895       952      3662      3728      3725
 -1      1805    8    0    1
 -2       939       950       953      3719      3729      3730
 -1      1806    8    0    1
 -2       939       953       914      3730      3731      3679
 -1      1807    8    0    1
 -2       870       869       954      3468      3732      3733
 -1      1808    8    0    1
 -2       871       870       955      3471      3734      3735
 -1      1809    8    0    1
 -2       870       954       955      3733      3736      3734
 -1      1810    8    0    1
 -2       872       871       956      3474      3737      3738
 -1      1811    8    0    1
 -2       871       955       956      3735      3739      3737
 -1      1812    8    0    1
 -2       873       872       957      3477      3740      3741
 -1      1813    8    0    1
 -2       872       956       957      3738      3742      3740
 -1      1814    8    0    1
 -2       874       873       958      3480      3743      3744
 -1      1815    8    0    1
 -2       873       957       958      3741      3745      3743
 -1      1816    8    0    1
 -2       875       874       959      3483      3746      3747
 -1      1817    8    0    1
 -2       874       958       959      3744      3748      3746
 -1      1818    8    0    1
 -2       876       875       960      3486      3749      3750
 -1      1819    8    0    1
 -2       875       959       960      3747      3751      3749
 -1      1820    8    0    1
 -2       877       876       961      3489      3752      3753
 -1      1821    8    0    1
 -2       876       960       961      3750      3754      3752
 -1      1822    8    0    1
 -2       878       877       962      3492      3755      3756
 -1      1823    8    0    1
 -2       877       961       962      3753      3757      3755
 -1      1824    8    0    1
 -2       879       878       963      3495      3758      3759
 -1      1825    8    0    1
 -2       878       962       963      3756      3760      3758
 -1      1826    8    0    1
 -2       880       879       964      3498      3761      3762
 -1      1827    8    0    1
 -2       879       963       964      3759      3763      3761
 -1      1828    8    0    1
 -2       881       880       965      3501      3764      3765
 -1      1829    8    0    1
 -2       880       964       965      3762      3766      3764
 -1      1830    8    0    1
 -2       882       881       966      3504      3767      3768
 -1      1831    8    0    1
 -2       881       965       966      3765      3769      3767
 -1      1832    8    0    1
 -2       883       882       967      3507      3770      3771
 -1      1833    8    0    1
 -2       882       966       967      3768      3772      3770
 -1      1834    8    0    1
 -2       884       883       968      3510      3773      3774
 -1      1835    8    0    1
 -2       883       967       968      3771      3775      3773
 -1      1836    8    0    1
 -2       885       884       969      3513      3776      3777
 -1      1837    8    0    1
 -2       884       968       969      3774      3778      3776
 -1      1838    8    0    1
 -2       886       885       970      3516      3779      3780
 -1      1839    8    0    1
 -2       885       969       970      3777      3781      3779
 -1      1840    8    0    1
 -2       887       886       971      3519      3782      3783
 -1      1841    8    0    1
 -2       886       970       971      3780      3784      3782
 -1      1842    8    0    1
 -2       888       887       972      3522      3785      3786
 -1      1843    8    0    1
 -2       887       971       972      3783      3787      3785
 -1      1844    8    0    1
 -2       889       888       973      3525      3788      3789
 -1      1845    8    0    1
 -2       888       972       973      3786      3790      3788
 -1      1846    8    0    1
 -2       892       891       974      3534      3791      3792
 -1      1847    8    0    1
 -2       891       949       974      3714      3793      3791
 -1      1848    8    0    1
 -2       896       919       975      3658      3794      3795
 -1      1849    8    0    1
 -2       893       892       976      3537      3796      3797
 -1      1850    8    0    1
 -2       892       974       976      3792      3798      3796
 -1      1851    8    0    1
 -2       894       893       977      3540      3799      3800
 -1      1852    8    0    1
 -2       893       976       977      3797      3801      3799
 -1      1853    8    0    1
 -2       895       894       978      3543      3802      3803
 -1      1854    8    0    1
 -2       894       977       978      3800      3804      3802
 -1      1855    8    0    1
 -2       900       901       979      3558      3805      3806
 -1      1856    8    0    1
 -2       899       900       980      3555      3807      3808
 -1      1857    8    0    1
 -2       900       979       980      3806      3809      3807
 -1      1858    8    0    1
 -2       902       903       981      3564      3810      3811
 -1      1859    8    0    1
 -2       903       904       982      3567      3812      3813
 -1      1860    8    0    1
 -2       903       982       981      3813      3814      3810
 -1      1861    8    0    1
 -2       904       905       983      3570      3815      3816
 -1      1862    8    0    1
 -2       904       983       982      3816      3817      3812
 -1      1863    8    0    1
 -2       905       906       984      3573      3818      3819
 -1      1864    8    0    1
 -2       905       984       983      3819      3820      3815
 -1      1865    8    0    1
 -2       906       907       985      3576      3821      3822
 -1      1866    8    0    1
 -2       906       985       984      3822      3823      3818
 -1      1867    8    0    1
 -2       907       908       986      3579      3824      3825
 -1      1868    8    0    1
 -2       907       986       985      3825      3826      3821
 -1      1869    8    0    1
 -2       908       909       987      3582      3827      3828
 -1      1870    8    0    1
 -2       908       987       986      3828      3829      3824
 -1      1871    8    0    1
 -2       909       910       988      3585      3830      3831
 -1      1872    8    0    1
 -2       909       988       987      3831      3832      3827
 -1      1873    8    0    1
 -2       910       911       989      3588      3833      3834
 -1      1874    8    0    1
 -2       910       989       988      3834      3835      3830
 -1      1875    8    0    1
 -2       866       912       921      3591      3836      3707
 -1      1876    8    0    1
 -2       845       927       990      3647      3837      3838
 -1      1877    8    0    1
 -2       911       930       922      3649      3711      3839
 -1      1878    8    0    1
 -2       898       897       991      3550      3840      3841
 -1      1879    8    0    1
 -2       913       914       992      3596      3842      3843
 -1      1880    8    0    1
 -2       914       953       992      3731      3844      3842
 -1      1881    8    0    1
 -2       861       851       993      3689      3845      3846
 -1      1882    8    0    1
 -2       861       993       931      3846      3847      3650
 -1      1883    8    0    1
 -2       868       929       994      3642      3848      3849
 -1      1884    8    0    1
 -2       923       844       995      3697      3850      3851
 -1      1885    8    0    1
 -2       933       923       995      3656      3851      3852
 -1      1886    8    0    1
 -2       844       951       995      3722      3853      3850
 -1      1887    8    0    1
 -2       929       926       996      3716      3854      3855
 -1      1888    8    0    1
 -2       929       996       994      3855      3856      3848
 -1      1889    8    0    1
 -2       922       896       989      3620      3857      3858
 -1      1890    8    0    1
 -2       860       847       939      3434      3720      3859
 -1      1891    8    0    1
 -2       916       913       997      3601      3860      3861
 -1      1892    8    0    1
 -2       913       992       997      3843      3862      3860
 -1      1893    8    0    1
 -2       867       928       998      3639      3863      3864
 -1      1894    8    0    1
 -2       862       850       999      3442      3865      3866
 -1      1895    8    0    1
 -2       927       862       999      3636      3866      3867
 -1      1896    8    0    1
 -2       850       937       999      3672      3868      3865
 -1      1897    8    0    1
 -2       854       845       990      3686      3838      3869
 -1      1898    8    0    1
 -2       901       902      1000      3561      3870      3871
 -1      1899    8    0    1
 -2       902       981      1000      3811      3872      3870
 -1      1900    8    0    1
 -2       848       855      1001      3414      3873      3874
 -1      1901    8    0    1
 -2       950       848      1001      3717      3874      3875
 -1      1902    8    0    1
 -2       855       940      1001      3682      3876      3873
 -1      1903    8    0    1
 -2       846       849       890      3648      3528      3877
 -1      1904    8    0    1
 -2       926       924       943      3655      3692      3878
 -1      1905    8    0    1
 -2       869       868      1002      3465      3879      3880
 -1      1906    8    0    1
 -2       868       994      1002      3849      3881      3879
 -1      1907    8    0    1
 -2       921       912      1003      3836      3882      3883
 -1      1908    8    0    1
 -2       948       921      1003      3708      3883      3884
 -1      1909    8    0    1
 -2       912       917      1003      3604      3885      3882
 -1      1910    8    0    1
 -2       911       922       989      3839      3858      3833
 -1      1911    8    0    1
 -2       932       846       890      3654      3877      3886
 -1      1912    8    0    1
 -2       926       943       996      3878      3887      3854
 -1      1913    8    0    1
 -2       954       869      1002      3732      3880      3888
 -1      1914    8    0    1
 -2       890       889       932      3529      3889      3886
 -1      1915    8    0    1
 -2       975       919      1004      3794      3890      3891
 -1      1916    8    0    1
 -2       859       944      1005      3696      3892      3893
 -1      1917    8    0    1
 -2       859      1005       946      3893      3894      3701
 -1      1918    8    0    1
 -2       895       978       952      3803      3895      3728
 -1      1919    8    0    1
 -2       979       901      1000      3805      3871      3896
 -1      1920    8    0    1
 -2       931       993      1006      3847      3897      3898
 -1      1921    8    0    1
 -2       935       920      1007      3666      3899      3900
 -1      1922    8    0    1
 -2       936       898      1008      3667      3901      3902
 -1      1923    8    0    1
 -2       898       991      1008      3841      3903      3901
 -1      1924    8    0    1
 -2       834       952       941      3727      3904      3685
 -1      1925    8    0    1
 -2       937       931      1009      3670      3905      3906
 -1      1926    8    0    1
 -2       931      1006      1009      3898      3907      3905
 -1      1927    8    0    1
 -2       899       980      1010      3808      3908      3909
 -1      1928    8    0    1
 -2       899      1010       918      3909      3910      3609
 -1      1929    8    0    1
 -2       990       927       999      3837      3867      3911
 -1      1930    8    0    1
 -2       938       867       998      3673      3864      3912
 -1      1931    8    0    1
 -2       991       897      1011      3840      3913      3914
 -1      1932    8    0    1
 -2       897       918      1011      3608      3915      3913
 -1      1933    8    0    1
 -2       939       853       860      3677      3676      3859
 -1      1934    8    0    1
 -2       940       915      1012      3680      3916      3917
 -1      1935    8    0    1
 -2       993       851       935      3845      3665      3918
 -1      1936    8    0    1
 -2       942       854       990      3687      3869      3919
 -1      1937    8    0    1
 -2       943       933       996      3693      3920      3887
 -1      1938    8    0    1
 -2       933       995      1013      3852      3921      3922
 -1      1939    8    0    1
 -2       933      1013       996      3922      3923      3920
 -1      1940    8    0    1
 -2       915       941      1014      3684      3924      3925
 -1      1941    8    0    1
 -2       915      1014      1012      3925      3926      3916
 -1      1942    8    0    1
 -2       945       857      1015      3700      3927      3928
 -1      1943    8    0    1
 -2       857       938      1015      3675      3929      3927
 -1      1944    8    0    1
 -2       917       916      1016      3605      3930      3931
 -1      1945    8    0    1
 -2      1003       917      1016      3885      3931      3932
 -1      1946    8    0    1
 -2       916       997      1016      3861      3933      3930
 -1      1947    8    0    1
 -2       989       896       975      3857      3795      3934
 -1      1948    8    0    1
 -2       947       837       936      3706      3669      3935
 -1      1949    8    0    1
 -2       932       889       973      3889      3789      3936
 -1      1950    8    0    1
 -2       998       928      1017      3863      3937      3938
 -1      1951    8    0    1
 -2       928       948      1017      3710      3939      3937
 -1      1952    8    0    1
 -2       950      1001      1018      3875      3940      3941
 -1      1953    8    0    1
 -2       950      1018       953      3941      3942      3729
 -1      1954    8    0    1
 -2       949       858       945      3715      3699      3943
 -1      1955    8    0    1
 -2       942       990      1019      3919      3944      3945
 -1      1956    8    0    1
 -2       919       946      1004      3703      3946      3890
 -1      1957    8    0    1
 -2       951       942      1020      3723      3947      3948
 -1      1958    8    0    1
 -2       942      1019      1020      3945      3949      3947
 -1      1959    8    0    1
 -2       920       947      1021      3705      3950      3951
 -1      1960    8    0    1
 -2       920      1021      1007      3951      3952      3899
 -1      1961    8    0    1
 -2       856       932      1022      3653      3953      3954
 -1      1962    8    0    1
 -2       944       856      1022      3694      3954      3955
 -1      1963    8    0    1
 -2       932       973      1022      3936      3956      3953
 -1      1964    8    0    1
 -2       956       955      1023      3739      3957      3958
 -1      1965    8    0    1
 -2       957       956      1024      3742      3959      3960
 -1      1966    8    0    1
 -2       956      1023      1024      3958      3961      3959
 -1      1967    8    0    1
 -2       958       957      1025      3745      3962      3963
 -1      1968    8    0    1
 -2       957      1024      1025      3960      3964      3962
 -1      1969    8    0    1
 -2       959       958      1026      3748      3965      3966
 -1      1970    8    0    1
 -2       958      1025      1026      3963      3967      3965
 -1      1971    8    0    1
 -2       960       959      1027      3751      3968      3969
 -1      1972    8    0    1
 -2       959      1026      1027      3966      3970      3968
 -1      1973    8    0    1
 -2       961       960      1028      3754      3971      3972
 -1      1974    8    0    1
 -2       960      1027      1028      3969      3973      3971
 -1      1975    8    0    1
 -2       962       961      1029      3757      3974      3975
 -1      1976    8    0    1
 -2       961      1028      1029      3972      3976      3974
 -1      1977    8    0    1
 -2       963       962      1030      3760      3977      3978
 -1      1978    8    0    1
 -2       962      1029      1030      3975      3979      3977
 -1      1979    8    0    1
 -2       964       963      1031      3763      3980      3981
 -1      1980    8    0    1
 -2       963      1030      1031      3978      3982      3980
 -1      1981    8    0    1
 -2       965       964      1032      3766      3983      3984
 -1      1982    8    0    1
 -2       964      1031      1032      3981      3985      3983
 -1      1983    8    0    1
 -2       966       965      1033      3769      3986      3987
 -1      1984    8    0    1
 -2       965      1032      1033      3984      3988      3986
 -1      1985    8    0    1
 -2       967       966      1034      3772      3989      3990
 -1      1986    8    0    1
 -2       966      1033      1034      3987      3991      3989
 -1      1987    8    0    1
 -2       968       967      1035      3775      3992      3993
 -1      1988    8    0    1
 -2       967      1034      1035      3990      3994      3992
 -1      1989    8    0    1
 -2       969       968      1036      3778      3995      3996
 -1      1990    8    0    1
 -2       968      1035      1036      3993      3997      3995
 -1      1991    8    0    1
 -2       970       969      1037      3781      3998      3999
 -1      1992    8    0    1
 -2       969      1036      1037      3996      4000      3998
 -1      1993    8    0    1
 -2       971       970      1038      3784      4001      4002
 -1      1994    8    0    1
 -2       970      1037      1038      3999      4003      4001
 -1      1995    8    0    1
 -2       972       971      1039      3787      4004      4005
 -1      1996    8    0    1
 -2       971      1038      1039      4002      4006      4004
 -1      1997    8    0    1
 -2       973       972      1040      3790      4007      4008
 -1      1998    8    0    1
 -2      1022       973      1040      3956      4008      4009
 -1      1999    8    0    1
 -2       972      1039      1040      4005      4010      4007
 -1      2000    8    0    1
 -2       974       949       945      3793      3943      4011
 -1      2001    8    0    1
 -2       954      1002      1041      3888      4012      4013
 -1      2002    8    0    1
 -2       977       976      1042      3801      4014      4015
 -1      2003    8    0    1
 -2       978       977      1043      3804      4016      4017
 -1      2004    8    0    1
 -2       977      1042      1043      4015      4018      4016
 -1      2005    8    0    1
 -2      1006       993      1044      3897      4019      4020
 -1      2006    8    0    1
 -2       993       935      1044      3918      4021      4019
 -1      2007    8    0    1
 -2       935      1007      1044      3900      4022      4021
 -1      2008    8    0    1
 -2       982       983      1045      3817      4023      4024
 -1      2009    8    0    1
 -2       981       982      1046      3814      4025      4026
 -1      2010    8    0    1
 -2       982      1045      1046      4024      4027      4025
 -1      2011    8    0    1
 -2       984       985      1047      3823      4028      4029
 -1      2012    8    0    1
 -2       985       986      1048      3826      4030      4031
 -1      2013    8    0    1
 -2       985      1048      1047      4031      4032      4028
 -1      2014    8    0    1
 -2       986       987      1049      3829      4033      4034
 -1      2015    8    0    1
 -2       986      1049      1048      4034      4035      4030
 -1      2016    8    0    1
 -2       987       988      1050      3832      4036      4037
 -1      2017    8    0    1
 -2       987      1050      1049      4037      4038      4033
 -1      2018    8    0    1
 -2       988       989       975      3835      3934      4039
 -1      2019    8    0    1
 -2       975      1004      1050      3891      4040      4041
 -1      2020    8    0    1
 -2       992       953      1018      3844      3942      4042
 -1      2021    8    0    1
 -2       990       999      1051      3911      4043      4044
 -1      2022    8    0    1
 -2      1019       990      1051      3944      4044      4045
 -1      2023    8    0    1
 -2       999       937      1051      3868      4046      4043
 -1      2024    8    0    1
 -2       995       951      1052      3853      4047      4048
 -1      2025    8    0    1
 -2       951      1020      1052      3948      4049      4047
 -1      2026    8    0    1
 -2       952       978       941      3895      4050      3904
 -1      2027    8    0    1
 -2       983       984      1053      3820      4051      4052
 -1      2028    8    0    1
 -2       983      1053      1045      4052      4053      4023
 -1      2029    8    0    1
 -2       974       945      1054      4011      4054      4055
 -1      2030    8    0    1
 -2       976       974      1054      3798      4055      4056
 -1      2031    8    0    1
 -2       945      1015      1054      3928      4057      4054
 -1      2032    8    0    1
 -2       997       992      1055      3862      4058      4059
 -1      2033    8    0    1
 -2       980       979      1056      3809      4060      4061
 -1      2034    8    0    1
 -2       938       998      1057      3912      4062      4063
 -1      2035    8    0    1
 -2      1000       981      1058      3872      4064      4065
 -1      2036    8    0    1
 -2       981      1046      1058      4026      4066      4064
 -1      2037    8    0    1
 -2      1001       940      1059      3876      4067      4068
 -1      2038    8    0    1
 -2      1018      1001      1059      3940      4068      4069
 -1      2039    8    0    1
 -2       940      1012      1059      3917      4070      4067
 -1      2040    8    0    1
 -2      1004       946      1060      3946      4071      4072
 -1      2041    8    0    1
 -2       946      1005      1060      3894      4073      4071
 -1      2042    8    0    1
 -2       994       996      1013      3856      3923      4074
 -1      2043    8    0    1
 -2       947       936      1061      3935      4075      4076
 -1      2044    8    0    1
 -2      1021       947      1061      3950      4076      4077
 -1      2045    8    0    1
 -2       936      1008      1061      3902      4078      4075
 -1      2046    8    0    1
 -2      1002       994      1062      3881      4079      4080
 -1      2047    8    0    1
 -2      1002      1062      1041      4080      4081      4012
 -1      2048    8    0    1
 -2       955       954      1063      3736      4082      4083
 -1      2049    8    0    1
 -2       955      1063      1023      4083      4084      3957
 -1      2050    8    0    1
 -2       979      1000      1064      3896      4085      4086
 -1      2051    8    0    1
 -2       979      1064      1056      4086      4087      4060
 -1      2052    8    0    1
 -2       941       978      1043      4050      4017      4088
 -1      2053    8    0    1
 -2       988       975      1050      4039      4041      4036
 -1      2054    8    0    1
 -2       948      1003      1065      3884      4089      4090
 -1      2055    8    0    1
 -2      1017       948      1065      3939      4090      4091
 -1      2056    8    0    1
 -2      1003      1016      1065      3932      4092      4089
 -1      2057    8    0    1
 -2       998      1017      1066      3938      4093      4094
 -1      2058    8    0    1
 -2       998      1066      1057      4094      4095      4062
 -1      2059    8    0    1
 -2       994      1013      1062      4074      4096      4079
 -1      2060    8    0    1
 -2      1006      1044      1067      4020      4097      4098
 -1      2061    8    0    1
 -2      1008       991      1068      3903      4099      4100
 -1      2062    8    0    1
 -2       944      1022      1069      3955      4101      4102
 -1      2063    8    0    1
 -2      1005       944      1069      3892      4102      4103
 -1      2064    8    0    1
 -2      1022      1040      1069      4009      4104      4101
 -1      2065    8    0    1
 -2       984      1047      1053      4029      4105      4051
 -1      2066    8    0    1
 -2       976      1054      1042      4056      4106      4014
 -1      2067    8    0    1
 -2      1009      1006      1070      3907      4107      4108
 -1      2068    8    0    1
 -2      1006      1067      1070      4098      4109      4107
 -1      2069    8    0    1
 -2      1010       980      1071      3908      4110      4111
 -1      2070    8    0    1
 -2       980      1056      1071      4061      4112      4110
 -1      2071    8    0    1
 -2      1050      1004      1072      4040      4113      4114
 -1      2072    8    0    1
 -2       992      1018      1055      4042      4115      4058
 -1      2073    8    0    1
 -2      1051       937      1009      4046      3906      4116
 -1      2074    8    0    1
 -2      1011       918      1010      3915      3910      4117
 -1      2075    8    0    1
 -2       991      1011      1073      3914      4118      4119
 -1      2076    8    0    1
 -2       991      1073      1068      4119      4120      4099
 -1      2077    8    0    1
 -2      1044      1007      1074      4022      4121      4122
 -1      2078    8    0    1
 -2      1044      1074      1067      4122      4123      4097
 -1      2079    8    0    1
 -2      1013       995      1052      3921      4048      4124
 -1      2080    8    0    1
 -2      1015       938      1057      3929      4063      4125
 -1      2081    8    0    1
 -2      1016       997      1075      3933      4126      4127
 -1      2082    8    0    1
 -2      1065      1016      1075      4092      4127      4128
 -1      2083    8    0    1
 -2       997      1055      1075      4059      4129      4126
 -1      2084    8    0    1
 -2      1000      1058      1064      4065      4130      4085
 -1      2085    8    0    1
 -2      1059      1012      1076      4070      4131      4132
 -1      2086    8    0    1
 -2      1007      1021      1077      3952      4133      4134
 -1      2087    8    0    1
 -2      1007      1077      1074      4134      4135      4121
 -1      2088    8    0    1
 -2      1020      1019      1078      3949      4136      4137
 -1      2089    8    0    1
 -2      1012      1014      1079      3926      4138      4139
 -1      2090    8    0    1
 -2      1012      1079      1076      4139      4140      4131
 -1      2091    8    0    1
 -2       954      1041      1063      4013      4141      4082
 -1      2092    8    0    1
 -2      1019      1051      1078      4045      4142      4136
 -1      2093    8    0    1
 -2      1024      1023      1080      3961      4143      4144
 -1      2094    8    0    1
 -2      1067      1074      1081      4123      4145      4146
 -1      2095    8    0    1
 -2      1053      1047      1082      4105      4147      4148
 -1      2096    8    0    1
 -2      1025      1024      1083      3964      4149      4150
 -1      2097    8    0    1
 -2      1024      1080      1083      4144      4151      4149
 -1      2098    8    0    1
 -2      1026      1025      1084      3967      4152      4153
 -1      2099    8    0    1
 -2      1025      1083      1084      4150      4154      4152
 -1      2100    8    0    1
 -2      1027      1026      1085      3970      4155      4156
 -1      2101    8    0    1
 -2      1026      1084      1085      4153      4157      4155
 -1      2102    8    0    1
 -2      1028      1027      1086      3973      4158      4159
 -1      2103    8    0    1
 -2      1027      1085      1086      4156      4160      4158
 -1      2104    8    0    1
 -2      1029      1028      1087      3976      4161      4162
 -1      2105    8    0    1
 -2      1028      1086      1087      4159      4163      4161
 -1      2106    8    0    1
 -2      1030      1029      1088      3979      4164      4165
 -1      2107    8    0    1
 -2      1029      1087      1088      4162      4166      4164
 -1      2108    8    0    1
 -2      1031      1030      1089      3982      4167      4168
 -1      2109    8    0    1
 -2      1030      1088      1089      4165      4169      4167
 -1      2110    8    0    1
 -2      1032      1031      1090      3985      4170      4171
 -1      2111    8    0    1
 -2      1031      1089      1090      4168      4172      4170
 -1      2112    8    0    1
 -2      1033      1032      1091      3988      4173      4174
 -1      2113    8    0    1
 -2      1032      1090      1091      4171      4175      4173
 -1      2114    8    0    1
 -2      1034      1033      1092      3991      4176      4177
 -1      2115    8    0    1
 -2      1033      1091      1092      4174      4178      4176
 -1      2116    8    0    1
 -2      1035      1034      1093      3994      4179      4180
 -1      2117    8    0    1
 -2      1034      1092      1093      4177      4181      4179
 -1      2118    8    0    1
 -2      1036      1035      1094      3997      4182      4183
 -1      2119    8    0    1
 -2      1035      1093      1094      4180      4184      4182
 -1      2120    8    0    1
 -2      1037      1036      1095      4000      4185      4186
 -1      2121    8    0    1
 -2      1036      1094      1095      4183      4187      4185
 -1      2122    8    0    1
 -2      1038      1037      1096      4003      4188      4189
 -1      2123    8    0    1
 -2      1037      1095      1096      4186      4190      4188
 -1      2124    8    0    1
 -2      1039      1038      1097      4006      4191      4192
 -1      2125    8    0    1
 -2      1038      1096      1097      4189      4193      4191
 -1      2126    8    0    1
 -2      1043      1042      1098      4018      4194      4195
 -1      2127    8    0    1
 -2      1023      1063      1099      4084      4196      4197
 -1      2128    8    0    1
 -2      1023      1099      1080      4197      4198      4143
 -1      2129    8    0    1
 -2      1013      1052      1100      4124      4199      4200
 -1      2130    8    0    1
 -2      1013      1100      1062      4200      4201      4096
 -1      2131    8    0    1
 -2      1008      1068      1101      4100      4202      4203
 -1      2132    8    0    1
 -2      1008      1101      1061      4203      4204      4078
 -1      2133    8    0    1
 -2      1046      1045      1102      4027      4205      4206
 -1      2134    8    0    1
 -2      1072      1004      1097      4113      4207      4208
 -1      2135    8    0    1
 -2      1048      1049      1103      4035      4209      4210
 -1      2136    8    0    1
 -2      1047      1048      1104      4032      4211      4212
 -1      2137    8    0    1
 -2      1082      1047      1104      4147      4212      4213
 -1      2138    8    0    1
 -2      1048      1103      1104      4210      4214      4211
 -1      2139    8    0    1
 -2      1072      1097      1096      4208      4193      4215
 -1      2140    8    0    1
 -2      1058      1046      1105      4066      4216      4217
 -1      2141    8    0    1
 -2      1046      1102      1105      4206      4218      4216
 -1      2142    8    0    1
 -2      1011      1010      1106      4117      4219      4220
 -1      2143    8    0    1
 -2      1073      1011      1106      4118      4220      4221
 -1      2144    8    0    1
 -2      1010      1071      1106      4111      4222      4219
 -1      2145    8    0    1
 -2      1014       941      1043      3924      4088      4223
 -1      2146    8    0    1
 -2      1064      1058      1107      4130      4224      4225
 -1      2147    8    0    1
 -2      1058      1105      1107      4217      4226      4224
 -1      2148    8    0    1
 -2      1042      1054      1108      4106      4227      4228
 -1      2149    8    0    1
 -2      1098      1042      1108      4194      4228      4229
 -1      2150    8    0    1
 -2      1054      1015      1108      4057      4230      4227
 -1      2151    8    0    1
 -2      1015      1057      1108      4125      4231      4230
 -1      2152    8    0    1
 -2      1050      1072      1049      4114      4232      4038
 -1      2153    8    0    1
 -2      1063      1041      1109      4141      4233      4234
 -1      2154    8    0    1
 -2      1063      1109      1099      4234      4235      4196
 -1      2155    8    0    1
 -2      1052      1020      1110      4049      4236      4237
 -1      2156    8    0    1
 -2      1100      1052      1110      4199      4237      4238
 -1      2157    8    0    1
 -2      1020      1078      1110      4137      4239      4236
 -1      2158    8    0    1
 -2      1056      1064      1111      4087      4240      4241
 -1      2159    8    0    1
 -2      1064      1107      1111      4225      4242      4240
 -1      2160    8    0    1
 -2      1045      1053      1112      4053      4243      4244
 -1      2161    8    0    1
 -2      1053      1082      1112      4148      4245      4243
 -1      2162    8    0    1
 -2      1051      1009      1078      4116      4246      4142
 -1      2163    8    0    1
 -2      1078      1009      1070      4246      4108      4247
 -1      2164    8    0    1
 -2      1049      1072      1103      4232      4248      4209
 -1      2165    8    0    1
 -2      1067      1081      1113      4146      4249      4250
 -1      2166    8    0    1
 -2      1067      1113      1070      4250      4251      4109
 -1      2167    8    0    1
 -2      1039      1097      1114      4192      4252      4253
 -1      2168    8    0    1
 -2      1040      1039      1114      4010      4253      4254
 -1      2169    8    0    1
 -2      1101      1068      1115      4202      4255      4256
 -1      2170    8    0    1
 -2      1102      1045      1112      4205      4244      4257
 -1      2171    8    0    1
 -2      1041      1062      1116      4081      4258      4259
 -1      2172    8    0    1
 -2      1071      1056      1117      4112      4260      4261
 -1      2173    8    0    1
 -2      1056      1111      1117      4241      4262      4260
 -1      2174    8    0    1
 -2      1072      1096      1103      4215      4263      4248
 -1      2175    8    0    1
 -2      1018      1059      1118      4069      4264      4265
 -1      2176    8    0    1
 -2      1055      1018      1118      4115      4265      4266
 -1      2177    8    0    1
 -2      1059      1076      1118      4132      4267      4264
 -1      2178    8    0    1
 -2      1017      1065      1119      4091      4268      4269
 -1      2179    8    0    1
 -2      1065      1075      1119      4128      4270      4268
 -1      2180    8    0    1
 -2      1075      1055      1120      4129      4271      4272
 -1      2181    8    0    1
 -2      1119      1075      1120      4270      4272      4273
 -1      2182    8    0    1
 -2      1055      1118      1120      4266      4274      4271
 -1      2183    8    0    1
 -2      1108      1057      1121      4231      4275      4276
 -1      2184    8    0    1
 -2      1098      1108      1121      4229      4276      4277
 -1      2185    8    0    1
 -2      1057      1066      1121      4095      4278      4275
 -1      2186    8    0    1
 -2      1041      1116      1109      4259      4279      4233
 -1      2187    8    0    1
 -2      1066      1017      1119      4093      4269      4280
 -1      2188    8    0    1
 -2      1060      1005      1114      4073      4281      4282
 -1      2189    8    0    1
 -2      1021      1061      1122      4077      4283      4284
 -1      2190    8    0    1
 -2      1077      1021      1122      4133      4284      4285
 -1      2191    8    0    1
 -2      1061      1101      1122      4204      4286      4283
 -1      2192    8    0    1
 -2      1110      1078      1070      4239      4247      4287
 -1      2193    8    0    1
 -2      1074      1077      1123      4135      4288      4289
 -1      2194    8    0    1
 -2      1074      1123      1081      4289      4290      4145
 -1      2195    8    0    1
 -2      1068      1073      1124      4120      4291      4292
 -1      2196    8    0    1
 -2      1068      1124      1115      4292      4293      4255
 -1      2197    8    0    1
 -2      1014      1043      1098      4223      4195      4294
 -1      2198    8    0    1
 -2      1062      1100      1116      4201      4295      4258
 -1      2199    8    0    1
 -2      1118      1076      1125      4267      4296      4297
 -1      2200    8    0    1
 -2      1118      1125      1120      4297      4298      4274
 -1      2201    8    0    1
 -2      1084      1083      1126      4154      4299      4300
 -1      2202    8    0    1
 -2      1085      1084      1124      4157      4301      4302
 -1      2203    8    0    1
 -2      1087      1086      1127      4163      4303      4304
 -1      2204    8    0    1
 -2      1088      1087      1117      4166      4305      4306
 -1      2205    8    0    1
 -2      1089      1088      1111      4169      4307      4308
 -1      2206    8    0    1
 -2      1090      1089      1107      4172      4309      4310
 -1      2207    8    0    1
 -2      1091      1090      1105      4175      4311      4312
 -1      2208    8    0    1
 -2      1092      1091      1102      4178      4313      4314
 -1      2209    8    0    1
 -2      1093      1092      1112      4181      4315      4316
 -1      2210    8    0    1
 -2      1094      1093      1082      4184      4317      4318
 -1      2211    8    0    1
 -2      1095      1094      1104      4187      4319      4320
 -1      2212    8    0    1
 -2      1096      1095      1103      4190      4321      4263
 -1      2213    8    0    1
 -2      1107      1089      1111      4309      4308      4242
 -1      2214    8    0    1
 -2      1080      1099      1128      4198      4322      4323
 -1      2215    8    0    1
 -2      1102      1112      1092      4257      4315      4314
 -1      2216    8    0    1
 -2      1005      1069      1114      4103      4324      4281
 -1      2217    8    0    1
 -2      1105      1102      1091      4218      4313      4312
 -1      2218    8    0    1
 -2      1101      1115      1129      4256      4325      4326
 -1      2219    8    0    1
 -2      1101      1129      1122      4326      4327      4286
 -1      2220    8    0    1
 -2      1082      1093      1112      4317      4316      4245
 -1      2221    8    0    1
 -2      1100      1110      1113      4238      4328      4329
 -1      2222    8    0    1
 -2      1083      1080      1130      4151      4330      4331
 -1      2223    8    0    1
 -2      1126      1083      1130      4299      4331      4332
 -1      2224    8    0    1
 -2      1080      1128      1130      4323      4333      4330
 -1      2225    8    0    1
 -2      1107      1105      1090      4226      4311      4310
 -1      2226    8    0    1
 -2      1110      1070      1113      4287      4251      4328
 -1      2227    8    0    1
 -2      1066      1119      1131      4280      4334      4335
 -1      2228    8    0    1
 -2      1121      1066      1131      4278      4335      4336
 -1      2229    8    0    1
 -2      1119      1120      1131      4273      4337      4334
 -1      2230    8    0    1
 -2      1111      1088      1117      4307      4306      4262
 -1      2231    8    0    1
 -2      1099      1109      1123      4235      4338      4339
 -1      2232    8    0    1
 -2      1109      1116      1081      4279      4340      4341
 -1      2233    8    0    1
 -2      1116      1100      1113      4295      4329      4342
 -1      2234    8    0    1
 -2      1076      1079      1121      4140      4343      4344
 -1      2235    8    0    1
 -2      1094      1082      1104      4318      4213      4319
 -1      2236    8    0    1
 -2      1103      1095      1104      4321      4320      4214
 -1      2237    8    0    1
 -2      1081      1116      1113      4340      4342      4249
 -1      2238    8    0    1
 -2      1109      1081      1123      4341      4290      4338
 -1      2239    8    0    1
 -2      1114      1097      1060      4252      4345      4282
 -1      2240    8    0    1
 -2      1099      1123      1128      4339      4346      4322
 -1      2241    8    0    1
 -2      1085      1124      1132      4302      4347      4348
 -1      2242    8    0    1
 -2      1086      1085      1132      4160      4348      4349
 -1      2243    8    0    1
 -2      1124      1073      1132      4291      4350      4347
 -1      2244    8    0    1
 -2      1087      1127      1117      4304      4351      4305
 -1      2245    8    0    1
 -2      1132      1073      1106      4350      4221      4352
 -1      2246    8    0    1
 -2      1086      1132      1127      4349      4353      4303
 -1      2247    8    0    1
 -2      1014      1098      1079      4294      4354      4138
 -1      2248    8    0    1
 -2      1071      1117      1127      4261      4351      4355
 -1      2249    8    0    1
 -2      1097      1004      1060      4207      4072      4345
 -1      2250    8    0    1
 -2      1106      1071      1127      4222      4355      4356
 -1      2251    8    0    1
 -2      1129      1115      1126      4325      4357      4358
 -1      2252    8    0    1
 -2      1123      1077      1133      4288      4359      4360
 -1      2253    8    0    1
 -2      1128      1123      1133      4346      4360      4361
 -1      2254    8    0    1
 -2      1077      1122      1133      4285      4362      4359
 -1      2255    8    0    1
 -2      1121      1079      1098      4343      4354      4277
 -1      2256    8    0    1
 -2      1076      1121      1125      4344      4363      4296
 -1      2257    8    0    1
 -2      1069      1040      1114      4104      4254      4324
 -1      2258    8    0    1
 -2      1106      1127      1132      4356      4353      4352
 -1      2259    8    0    1
 -2      1122      1129      1133      4327      4364      4362
 -1      2260    8    0    1
 -2      1120      1125      1131      4298      4365      4337
 -1      2261    8    0    1
 -2      1084      1126      1124      4300      4366      4301
 -1      2262    8    0    1
 -2      1129      1126      1130      4358      4332      4367
 -1      2263    8    0    1
 -2      1125      1121      1131      4363      4336      4365
 -1      2264    8    0    1
 -2      1130      1128      1133      4333      4361      4368
 -1      2265    8    0    1
 -2      1126      1115      1124      4357      4293      4366
 -1      2266    8    0    1
 -2      1129      1130      1133      4367      4368      4364
 -3
    1PSTEP                         1           1           1          
  100CL  101 1.000000000        4368                     0    1           1
 -4  DISP        4    1
 -5  D1          1    2    1    0
 -5  D2          1    2    2    0
 -5  D3          1    2    3    0
 -5  ALL         1    2    0    0    1ALL
 -1         1 8.68189E-03-5.88320E-04-8.10159E-14
 -1         2 1.24425E-02-1.46327E-05-9.89773E-14
 -1         3 1.50697E-02 5.51683E-04-1.62359E-13
 -1         4 1.51115E-02-6.24681E-04-1.69200E-13
 -1         5 0.00000E+00 0.00000E+00 0.00000E+00
 -1         6 0.00000E+00 0.00000E+00 0.00000E+00
 -1         7 0.00000E+00 0.00000E+00 0.00000E+00
 -1         8 0.00000E+00 0.00000E+00 0.00000E+00
 -1         9 0.00000E+00 0.00000E+00 0.00000E+00
 -1        10 0.00000E+00 0.00000E+00 0.00000E+00
 -1        11 0.00000E+00 0.00000E+00 0.00000E+00
 -1        12 0.00000E+00 0.00000E+00 0.00000E+00
 -1        13 0.00000E+00 0.00000E+00 0.00000E+00
 -1        14 0.00000E+00 0.00000E+00 0.00000E+00
 -1        15 0.00000E+00 0.00000E+00 0.00000E+00
 -1        16 0.00000E+00 0.00000E+00 0.00000E+00
 -1        17 0.00000E+00 0.00000E+00 0.00000E+00
 -1        18 0.00000E+00 0.00000E+00 0.00000E+00
 -1        19 0.00000E+00 0.00000E+00 0.00000E+00
 -1        20 0.00000E+00 0.00000E+00 0.00000E+00
 -1        21 0.00000E+00 0.00000E+00 0.00000E+00
 -1        22 0.00000E+00 0.00000E+00 0.00000E+00
 -1        23 4.11292E-04-2.60743E-04 3.85129E-17
 -1        24 7.03164E-04-4.01002E-04-1.35471E-16
 -1        25 9.73089E-04-4.98360E-04-5.13207E-16
 -1        26 1.23741E-03-5.67037E-04-1.08971E-15
 -1        27 1.50074E-03-6.16160E-04-1.85745E-15
 -1        28 1.76518E-03-6.51099E-04-2.81102E-15
 -1        29 2.03168E-03-6.75541E-04-3.94433E-15
 -1        30 2.30060E-03-6.92151E-04-5.25436E-15
 -1        31 2.57202E-03-7.02909E-04-6.73890E-15
 -1        32 2.84582E-03-7.09298E-04-8.39266E-15
 -1        33 3.12180E-03-7.12417E-04-1.02101E-14
 -1        34 3.39975E-03-7.13068E-04-1.21832E-14
 -1        35 3.67946E-03-7.11820E-04-1.43096E-14
 -1        36 3.96080E-03-7.09063E-04-1.65860E-14
 -1        37 4.24371E-03-7.05056E-04-1.90123E-14
 -1        38 4.52821E-03-6.99968E-04-2.15822E-14
 -1        39 4.81447E-03-6.93926E-04-2.42867E-14
 -1        40 5.10280E-03-6.87059E-04-2.71249E-14
 -1        41 5.39367E-03-6.79555E-04-3.00982E-14
 -1        42 5.68774E-03-6.71727E-04-3.31977E-14
 -1        43 5.98588E-03-6.64101E-04-3.64251E-14
 -1        44 6.28914E-03-6.57517E-04-3.97774E-14
 -1        45 6.59876E-03-6.53263E-04-4.32527E-14
 -1        46 6.91605E-03-6.53219E-04-4.68508E-14
 -1        47 7.24218E-03-6.59995E-04-5.05656E-14
 -1        48 7.57790E-03-6.76992E-04-5.43890E-14
 -1        49 7.92291E-03-7.08271E-04-5.83161E-14
 -1        50 8.27514E-03-7.58000E-04-6.23517E-14
 -1        51 8.62993E-03-8.29203E-04-6.64922E-14
 -1        52 8.97966E-03-9.21638E-04-7.07300E-14
 -1        53 9.31458E-03-1.02909E-03-7.50574E-14
 -1        54 9.62571E-03-1.13747E-03-7.94734E-14
 -1        55 9.90956E-03-1.22599E-03-8.39720E-14
 -1        56 1.01720E-02-1.27332E-03-8.85503E-14
 -1        57 1.04280E-02-1.26676E-03-9.32086E-14
 -1        58 1.06953E-02-1.20874E-03-9.79461E-14
 -1        59 1.09864E-02-1.11547E-03-1.02762E-13
 -1        60 1.13041E-02-1.00898E-03-1.07643E-13
 -1        61 1.16426E-02-9.08356E-04-1.12575E-13
 -1        62 1.19921E-02-8.25109E-04-1.17565E-13
 -1        63 1.23432E-02-7.63181E-04-1.22619E-13
 -1        64 1.26888E-02-7.21272E-04-1.27719E-13
 -1        65 1.30252E-02-6.95436E-04-1.32875E-13
 -1        66 1.33505E-02-6.80919E-04-1.38077E-13
 -1        67 1.36649E-02-6.73143E-04-1.43297E-13
 -1        68 1.39692E-02-6.68100E-04-1.48522E-13
 -1        69 1.42651E-02-6.62460E-04-1.53753E-13
 -1        70 1.45546E-02-6.53670E-04-1.58985E-13
 -1        71 1.48405E-02-6.40432E-04-1.64215E-13
 -1        72 4.13739E-04 2.61448E-04 8.97686E-17
 -1        73 7.02987E-04 4.03708E-04 5.34308E-18
 -1        74 9.73625E-04 5.00131E-04-2.50796E-16
 -1        75 1.23824E-03 5.68747E-04-6.80909E-16
 -1        76 1.50170E-03 6.17921E-04-1.28600E-15
 -1        77 1.76620E-03 6.52951E-04-2.06371E-15
 -1        78 2.03274E-03 6.77503E-04-3.01368E-15
 -1        79 2.30169E-03 6.94234E-04-4.13421E-15
 -1        80 2.57313E-03 7.05120E-04-5.41997E-15
 -1        81 2.84694E-03 7.11641E-04-6.87052E-15
 -1        82 3.12292E-03 7.14893E-04-8.48332E-15
 -1        83 3.40088E-03 7.15679E-04-1.02547E-14
 -1        84 3.68060E-03 7.14568E-04-1.21835E-14
 -1        85 3.96194E-03 7.11950E-04-1.42681E-14
 -1        86 4.24485E-03 7.08086E-04-1.65074E-14
 -1        87 4.52936E-03 7.03147E-04-1.88977E-14
 -1        88 4.81562E-03 6.97263E-04-2.14313E-14
 -1        89 5.10395E-03 6.90568E-04-2.41007E-14
 -1        90 5.39481E-03 6.83254E-04-2.69097E-14
 -1        91 5.68885E-03 6.75641E-04-2.98578E-14
 -1        92 5.98691E-03 6.68261E-04-3.29444E-14
 -1        93 6.29003E-03 6.61959E-04-3.61605E-14
 -1        94 6.59939E-03 6.58020E-04-3.95053E-14
 -1        95 6.91623E-03 6.58304E-04-4.29710E-14
 -1        96 7.24162E-03 6.65370E-04-4.65551E-14
 -1        97 7.57619E-03 6.82517E-04-5.02494E-14
 -1        98 7.91950E-03 7.13623E-04-5.40517E-14
 -1        99 8.26937E-03 7.62572E-04-5.79542E-14
 -1       100 8.62116E-03 8.32029E-04-6.19485E-14
 -1       101 8.96746E-03 9.21404E-04-6.60448E-14
 -1       102 9.29899E-03 1.02436E-03-7.02306E-14
 -1       103 9.60743E-03 1.12717E-03-7.45069E-14
 -1       104 9.88973E-03 1.21010E-03-7.88673E-14
 -1       105 1.01517E-02 1.25315E-03-8.33268E-14
 -1       106 1.04074E-02 1.24451E-03-8.78865E-14
 -1       107 1.06738E-02 1.18641E-03-9.25359E-14
 -1       108 1.09628E-02 1.09393E-03-9.72554E-14
 -1       109 1.12775E-02 9.87799E-04-1.02040E-13
 -1       110 1.16126E-02 8.86249E-04-1.06877E-13
 -1       111 1.19588E-02 8.00626E-04-1.11774E-13
 -1       112 1.23071E-02 7.35111E-04-1.16705E-13
 -1       113 1.26507E-02 6.88787E-04-1.21674E-13
 -1       114 1.29855E-02 6.58055E-04-1.26713E-13
 -1       115 1.33099E-02 6.38403E-04-1.31788E-13
 -1       116 1.36236E-02 6.25405E-04-1.36880E-13
 -1       117 1.39276E-02 6.15140E-04-1.41996E-13
 -1       118 1.42233E-02 6.04325E-04-1.47146E-13
 -1       119 1.45128E-02 5.90430E-04-1.52306E-13
 -1       120 1.47986E-02 5.72115E-04-1.57469E-13
 -1       121 1.50916E-02 4.66976E-04-1.62819E-13
 -1       122 1.51167E-02 3.82970E-04-1.63304E-13
 -1       123 1.51458E-02 3.02422E-04-1.63773E-13
 -1       124 1.51770E-02 2.27480E-04-1.64248E-13
 -1       125 1.52076E-02 1.59115E-04-1.64722E-13
 -1       126 1.52341E-02 9.81960E-05-1.65182E-13
 -1       127 1.52547E-02 4.15639E-05-1.65614E-13
 -1       128 1.52668E-02-1.14927E-05-1.66031E-13
 -1       129 1.52693E-02-6.32782E-05-1.66449E-13
 -1       130 1.52621E-02-1.16274E-04-1.66846E-13
 -1       131 1.52465E-02-1.72804E-04-1.67225E-13
 -1       132 1.52248E-02-2.33618E-04-1.67593E-13
 -1       133 1.51990E-02-3.01904E-04-1.67937E-13
 -1       134 1.51726E-02-3.76821E-04-1.68251E-13
 -1       135 1.51484E-02-4.57468E-04-1.68568E-13
 -1       136 1.51282E-02-5.41360E-04-1.68887E-13
 -1       137 1.23920E-02 1.59497E-04-9.85639E-14
 -1       138 1.22495E-02 3.22583E-04-9.76966E-14
 -1       139 1.20189E-02 4.74988E-04-9.63947E-14
 -1       140 1.16751E-02 6.20385E-04-9.45263E-14
 -1       141 1.12669E-02 7.31225E-04-9.23833E-14
 -1       142 1.07604E-02 8.09649E-04-8.98044E-14
 -1       143 1.02976E-02 8.34282E-04-8.75265E-14
 -1       144 9.81342E-03 8.16273E-04-8.51928E-14
 -1       145 9.37498E-03 7.60035E-04-8.31356E-14
 -1       146 8.94062E-03 6.58136E-04-8.11392E-14
 -1       147 8.60517E-03 5.36051E-04-7.96469E-14
 -1       148 8.33689E-03 3.89188E-04-7.84974E-14
 -1       149 8.16296E-03 2.34246E-04-7.78090E-14
 -1       150 8.07347E-03 6.53722E-05-7.75471E-14
 -1       151 8.07977E-03-1.05080E-04-7.77375E-14
 -1       152 8.18720E-03-2.79601E-04-7.84003E-14
 -1       153 8.40738E-03-4.52165E-04-7.95945E-14
 -1       154 9.00920E-03-6.99097E-04-8.26683E-14
 -1       155 9.37741E-03-7.83097E-04-8.45052E-14
 -1       156 9.78754E-03-8.38862E-04-8.65284E-14
 -1       157 1.02083E-02-8.60651E-04-8.85844E-14
 -1       158 1.06332E-02-8.48267E-04-9.06451E-14
 -1       159 1.10671E-02-7.97990E-04-9.27474E-14
 -1       160 1.14733E-02-7.12191E-04-9.46872E-14
 -1       161 1.18165E-02-5.99236E-04-9.63107E-14
 -1       162 1.20818E-02-4.71583E-04-9.75447E-14
 -1       163 1.22809E-02-3.27055E-04-9.84313E-14
 -1       164 1.24004E-02-1.76356E-04-9.89063E-14
 -1       165 2.40347E-04-1.25559E-04-4.73898E-17
 -1       166 2.25241E-04-9.46728E-05-7.32514E-17
 -1       167 2.19511E-04-7.28343E-05-8.64448E-17
 -1       168 2.16723E-04-5.51616E-05-9.28077E-17
 -1       169 2.15255E-04-4.00125E-05-9.51387E-17
 -1       170 2.14434E-04-2.59464E-05-9.56165E-17
 -1       171 2.14023E-04-1.26600E-05-9.48101E-17
 -1       172 2.13904E-04 2.73172E-07-9.33600E-17
 -1       173 2.14042E-04 1.32188E-05-9.09713E-17
 -1       174 2.14474E-04 2.65450E-05-8.76306E-17
 -1       175 2.15303E-04 4.04378E-05-8.27450E-17
 -1       176 2.16831E-04 5.59675E-05-7.51962E-17
 -1       177 2.19664E-04 7.38740E-05-6.32090E-17
 -1       178 2.25410E-04 9.60719E-05-4.38221E-17
 -1       179 2.39277E-04 1.27637E-04-1.14722E-17
 -1       180 2.97629E-04 1.85528E-04 2.36627E-17
 -1       181 4.68493E-04-2.63596E-04-1.25554E-16
 -1       182 7.66532E-04-3.82191E-04-4.37350E-16
 -1       183 1.05026E-03-4.65035E-04-9.37601E-16
 -1       184 1.32752E-03-5.23714E-04-1.62566E-15
 -1       185 1.60197E-03-5.65235E-04-2.49598E-15
 -1       186 1.87569E-03-5.94265E-04-3.54525E-15
 -1       187 2.14983E-03-6.14080E-04-4.76993E-15
 -1       188 2.42499E-03-6.27067E-04-6.16663E-15
 -1       189 2.70144E-03-6.34992E-04-7.73157E-15
 -1       190 2.97930E-03-6.39163E-04-9.46024E-15
 -1       191 3.25855E-03-6.40531E-04-1.13469E-14
 -1       192 3.53915E-03-6.39775E-04-1.33869E-14
 -1       193 3.82105E-03-6.37358E-04-1.55798E-14
 -1       194 4.10425E-03-6.33583E-04-1.79200E-14
 -1       195 4.38878E-03-6.28637E-04-2.04066E-14
 -1       196 4.67477E-03-6.22635E-04-2.30322E-14
 -1       197 4.96242E-03-6.15668E-04-2.57922E-14
 -1       198 5.25205E-03-6.07848E-04-2.86854E-14
 -1       199 5.54411E-03-5.99377E-04-3.17091E-14
 -1       200 5.83918E-03-5.90617E-04-3.48584E-14
 -1       201 6.13796E-03-5.82194E-04-3.81363E-14
 -1       202 6.44127E-03-5.75117E-04-4.15385E-14
 -1       203 6.74998E-03-5.70934E-04-4.50630E-14
 -1       204 7.06494E-03-5.71896E-04-4.87053E-14
 -1       205 7.38681E-03-5.81097E-04-5.24599E-14
 -1       206 7.71576E-03-6.02502E-04-5.63217E-14
 -1       207 8.05119E-03-6.40684E-04-6.02866E-14
 -1       208 8.39123E-03-6.99988E-04-6.43608E-14
 -1       209 8.73243E-03-7.82789E-04-6.85341E-14
 -1       210 9.06979E-03-8.86772E-04-7.28019E-14
 -1       211 9.39761E-03-1.00191E-03-7.71565E-14
 -1       212 9.71163E-03-1.10924E-03-8.15982E-14
 -1       213 1.00118E-02-1.18446E-03-8.61224E-14
 -1       214 1.03037E-02-1.20709E-03-9.07271E-14
 -1       215 1.05970E-02-1.17085E-03-9.54138E-14
 -1       216 1.09004E-02-1.08714E-03-1.00180E-13
 -1       217 1.12179E-02-9.78730E-04-1.05018E-13
 -1       218 1.15477E-02-8.68995E-04-1.09915E-13
 -1       219 1.18849E-02-7.74200E-04-1.14868E-13
 -1       220 1.22236E-02-7.01624E-04-1.19881E-13
 -1       221 1.25592E-02-6.51601E-04-1.24949E-13
 -1       222 1.28886E-02-6.20580E-04-1.30064E-13
 -1       223 1.32103E-02-6.03554E-04-1.35226E-13
 -1       224 1.35239E-02-5.95461E-04-1.40426E-13
 -1       225 1.38297E-02-5.91795E-04-1.45641E-13
 -1       226 1.41287E-02-5.88764E-04-1.50864E-13
 -1       227 1.44221E-02-5.83311E-04-1.56088E-13
 -1       228 1.47113E-02-5.73294E-04-1.61317E-13
 -1       229 6.04387E-04 3.31083E-04-9.09544E-17
 -1       230 8.93365E-04 4.32684E-04-3.66745E-16
 -1       231 1.17212E-03 5.04368E-04-8.10248E-16
 -1       232 1.44632E-03 5.55331E-04-1.42429E-15
 -1       233 1.71896E-03 5.91375E-04-2.20862E-15
 -1       234 1.99168E-03 6.16455E-04-3.16291E-15
 -1       235 2.26532E-03 6.33413E-04-4.28555E-15
 -1       236 2.54030E-03 6.44343E-04-5.57227E-15
 -1       237 2.81679E-03 6.50797E-04-7.02136E-15
 -1       238 3.09479E-03 6.53923E-04-8.63122E-15
 -1       239 3.37427E-03 6.54551E-04-1.03989E-14
 -1       240 3.65515E-03 6.53264E-04-1.23219E-14
 -1       241 3.93739E-03 6.50457E-04-1.43988E-14
 -1       242 4.22097E-03 6.46383E-04-1.66291E-14
 -1       243 4.50598E-03 6.41202E-04-1.90104E-14
 -1       244 4.79256E-03 6.35018E-04-2.15350E-14
 -1       245 5.08096E-03 6.27934E-04-2.41988E-14
 -1       246 5.37158E-03 6.20102E-04-2.70007E-14
 -1       247 5.66491E-03 6.11791E-04-2.99381E-14
 -1       248 5.96162E-03 6.03472E-04-3.30143E-14
 -1       249 6.26247E-03 5.95923E-04-3.62227E-14
 -1       250 6.56833E-03 5.90360E-04-3.95575E-14
 -1       251 6.88007E-03 5.88585E-04-4.30105E-14
 -1       252 7.19846E-03 5.93137E-04-4.65803E-14
 -1       253 7.52392E-03 6.07369E-04-5.02632E-14
 -1       254 7.85618E-03 6.35353E-04-5.40546E-14
 -1       255 8.19391E-03 6.81389E-04-5.79442E-14
 -1       256 8.53430E-03 7.48834E-04-6.19284E-14
 -1       257 8.87285E-03 8.38027E-04-6.60131E-14
 -1       258 9.20390E-03 9.43520E-04-7.01917E-14
 -1       259 9.52211E-03 1.05186E-03-7.44542E-14
 -1       260 9.82499E-03 1.14233E-03-7.88052E-14
 -1       261 1.01153E-02 1.19268E-03-8.32551E-14
 -1       262 1.04009E-02 1.18864E-03-8.78044E-14
 -1       263 1.06920E-02 1.13123E-03-9.24455E-14
 -1       264 1.09959E-02 1.03621E-03-9.71586E-14
 -1       265 1.13147E-02 9.26029E-04-1.01933E-13
 -1       266 1.16453E-02 8.20605E-04-1.06763E-13
 -1       267 1.19821E-02 7.32238E-04-1.11647E-13
 -1       268 1.23194E-02 6.65360E-04-1.16580E-13
 -1       269 1.26528E-02 6.18883E-04-1.21555E-13
 -1       270 1.29795E-02 5.88878E-04-1.26586E-13
 -1       271 1.32983E-02 5.70515E-04-1.31652E-13
 -1       272 1.36089E-02 5.59108E-04-1.36742E-13
 -1       273 1.39120E-02 5.50543E-04-1.41855E-13
 -1       274 1.42086E-02 5.41381E-04-1.47002E-13
 -1       275 1.45000E-02 5.28917E-04-1.52163E-13
 -1       276 1.47878E-02 5.11540E-04-1.57329E-13
 -1       277 1.48563E-02 4.44833E-04-1.58585E-13
 -1       278 1.48845E-02 3.63920E-04-1.59048E-13
 -1       279 1.49163E-02 2.86803E-04-1.59506E-13
 -1       280 1.49492E-02 2.14243E-04-1.59965E-13
 -1       281 1.49793E-02 1.47525E-04-1.60414E-13
 -1       282 1.50046E-02 8.38807E-05-1.60853E-13
 -1       283 1.50220E-02 2.34582E-05-1.61280E-13
 -1       284 1.50297E-02-3.52217E-05-1.61696E-13
 -1       285 1.50270E-02-9.38768E-05-1.62097E-13
 -1       286 1.50146E-02-1.54232E-04-1.62483E-13
 -1       287 1.49945E-02-2.16677E-04-1.62851E-13
 -1       288 1.49687E-02-2.84420E-04-1.63207E-13
 -1       289 1.49407E-02-3.56918E-04-1.63544E-13
 -1       290 1.49137E-02-4.34000E-04-1.63868E-13
 -1       291 1.48112E-02-5.02922E-04-1.62595E-13
 -1       292 1.24520E-02 3.02816E-05-1.00819E-13
 -1       293 1.23145E-02 1.31825E-04-1.00049E-13
 -1       294 1.20684E-02 2.65865E-04-9.86384E-14
 -1       295 1.17111E-02 4.23667E-04-9.69482E-14
 -1       296 1.13179E-02 6.21200E-04-9.44055E-14
 -1       297 1.08765E-02 7.93911E-04-9.16998E-14
 -1       298 1.04751E-02 8.93057E-04-8.87708E-14
 -1       299 1.00950E-02 9.07847E-04-8.60279E-14
 -1       300 9.70782E-03 8.23865E-04-8.35060E-14
 -1       301 9.32191E-03 6.75182E-04-8.10158E-14
 -1       302 8.91319E-03 4.99926E-04-7.91366E-14
 -1       303 8.57042E-03 3.20886E-04-7.74121E-14
 -1       304 8.27934E-03 1.91311E-04-7.65593E-14
 -1       305 8.09668E-03 7.70767E-05-7.58925E-14
 -1       306 8.03722E-03-1.40837E-05-7.58425E-14
 -1       307 8.11740E-03-1.05220E-04-7.62194E-14
 -1       308 8.34526E-03-2.22636E-04-7.72064E-14
 -1       309 8.65264E-03-3.93655E-04-7.90287E-14
 -1       310 8.99439E-03-5.56634E-04-8.08099E-14
 -1       311 9.34688E-03-7.14179E-04-8.28359E-14
 -1       312 9.70017E-03-8.44609E-04-8.50813E-14
 -1       313 1.00479E-02-9.22538E-04-8.74615E-14
 -1       314 1.03886E-02-9.30993E-04-8.98702E-14
 -1       315 1.07350E-02-8.70034E-04-9.24008E-14
 -1       316 1.11211E-02-7.36444E-04-9.46987E-14
 -1       317 1.14893E-02-5.68350E-04-9.68993E-14
 -1       318 1.18375E-02-4.10134E-04-9.85004E-14
 -1       319 1.21268E-02-2.68707E-04-9.97554E-14
 -1       320 1.23400E-02-1.53759E-04-1.00562E-13
 -1       321 1.24558E-02-5.77548E-05-1.01022E-13
 -1       322 4.55350E-04-1.64877E-04-2.91406E-16
 -1       323 4.74157E-04-2.13051E-04-2.50684E-16
 -1       324 4.40505E-04-9.40879E-05-3.25240E-16
 -1       325 4.37577E-04-6.49667E-05-3.29533E-16
 -1       326 4.35978E-04-3.79408E-05-3.29431E-16
 -1       327 4.35281E-04-1.20290E-05-3.26406E-16
 -1       328 4.35312E-04 1.35489E-05-3.20710E-16
 -1       329 4.36075E-04 3.95184E-05-3.12271E-16
 -1       330 4.37716E-04 6.61959E-05-2.99894E-16
 -1       331 4.40735E-04 9.54880E-05-2.82197E-16
 -1       332 4.46075E-04 1.28410E-04-2.56685E-16
 -1       333 4.55854E-04 1.67390E-04-2.19063E-16
 -1       334 4.75790E-04 2.17120E-04-1.62576E-16
 -1       335 5.31876E-04 2.70034E-04-1.36467E-16
 -1       336 8.24264E-04 3.73559E-04-4.23076E-16
 -1       337 8.63059E-04-3.57461E-04-7.69970E-16
 -1       338 1.14933E-03-4.26151E-04-1.38398E-15
 -1       339 1.43203E-03-4.75191E-04-2.17692E-15
 -1       340 1.71266E-03-5.09714E-04-3.14584E-15
 -1       341 1.99235E-03-5.33492E-04-4.28824E-15
 -1       342 2.27187E-03-5.49312E-04-5.60032E-15
 -1       343 2.55170E-03-5.59248E-04-7.07896E-15
 -1       344 2.83213E-03-5.64838E-04-8.72142E-15
 -1       345 3.11331E-03-5.67211E-04-1.05234E-14
 -1       346 3.39531E-03-5.67176E-04-1.24791E-14
 -1       347 3.67816E-03-5.65292E-04-1.45856E-14
 -1       348 3.96189E-03-5.61929E-04-1.68430E-14
 -1       349 4.24657E-03-5.57314E-04-1.92459E-14
 -1       350 4.53226E-03-5.51575E-04-2.17920E-14
 -1       351 4.81910E-03-5.44789E-04-2.44736E-14
 -1       352 5.10730E-03-5.37028E-04-2.72883E-14
 -1       353 5.39711E-03-5.28410E-04-3.02339E-14
 -1       354 5.68890E-03-5.19173E-04-3.33087E-14
 -1       355 5.98311E-03-5.09754E-04-3.65122E-14
 -1       356 6.28025E-03-5.00906E-04-3.98401E-14
 -1       357 6.58094E-03-4.93826E-04-4.32914E-14
 -1       358 6.88587E-03-4.90326E-04-4.68634E-14
 -1       359 7.19576E-03-4.92994E-04-5.05486E-14
 -1       360 7.51135E-03-5.05327E-04-5.43443E-14
 -1       361 7.83326E-03-5.31709E-04-5.82439E-14
 -1       362 8.16181E-03-5.77038E-04-6.22504E-14
 -1       363 8.49659E-03-6.45673E-04-6.63606E-14
 -1       364 8.83577E-03-7.39304E-04-7.05647E-14
 -1       365 9.17553E-03-8.53588E-04-7.48602E-14
 -1       366 9.51025E-03-9.74506E-04-7.92419E-14
 -1       367 9.83508E-03-1.07746E-03-8.37135E-14
 -1       368 1.01500E-02-1.13395E-03-8.82632E-14
 -1       369 1.04615E-02-1.12570E-03-9.28956E-14
 -1       370 1.07787E-02-1.05629E-03-9.76088E-14
 -1       371 1.11063E-02-9.48690E-04-1.02401E-13
 -1       372 1.14423E-02-8.31405E-04-1.07264E-13
 -1       373 1.17812E-02-7.26037E-04-1.12180E-13
 -1       374 1.21177E-02-6.43272E-04-1.17156E-13
 -1       375 1.24486E-02-5.85030E-04-1.22189E-13
 -1       376 1.27726E-02-5.48235E-04-1.27271E-13
 -1       377 1.30893E-02-5.27811E-04-1.32397E-13
 -1       378 1.33993E-02-5.18417E-04-1.37566E-13
 -1       379 1.37031E-02-5.15220E-04-1.42762E-13
 -1       380 1.40015E-02-5.14123E-04-1.47973E-13
 -1       381 1.42954E-02-5.11758E-04-1.53192E-13
 -1       382 1.45544E-02-5.09647E-04-1.57890E-13
 -1       383 1.10964E-03 4.47824E-04-8.72651E-16
 -1       384 1.39028E-03 5.00771E-04-1.48943E-15
 -1       385 1.66848E-03 5.38189E-04-2.27374E-15
 -1       386 1.94576E-03 5.64175E-04-3.22635E-15
 -1       387 2.22306E-03 5.81705E-04-4.34547E-15
 -1       388 2.50095E-03 5.92978E-04-5.62727E-15
 -1       389 2.77972E-03 5.99623E-04-7.07030E-15
 -1       390 3.05949E-03 6.02838E-04-8.67286E-15
 -1       391 3.34033E-03 6.03490E-04-1.04315E-14
 -1       392 3.62224E-03 6.02188E-04-1.23445E-14
 -1       393 3.90522E-03 5.99338E-04-1.44103E-14
 -1       394 4.18930E-03 5.95198E-04-1.66283E-14
 -1       395 4.47457E-03 5.89924E-04-1.89970E-14
 -1       396 4.76114E-03 5.83609E-04-2.15105E-14
 -1       397 5.04923E-03 5.76335E-04-2.41643E-14
 -1       398 5.33914E-03 5.68225E-04-2.69546E-14
 -1       399 5.63127E-03 5.59507E-04-2.98800E-14
 -1       400 5.92612E-03 5.50596E-04-3.29440E-14
 -1       401 6.22428E-03 5.42203E-04-3.61399E-14
 -1       402 6.52642E-03 5.35457E-04-3.94613E-14
 -1       403 6.83326E-03 5.32062E-04-4.29017E-14
 -1       404 7.14550E-03 5.34454E-04-4.64574E-14
 -1       405 7.46367E-03 5.45909E-04-5.01264E-14
 -1       406 7.78803E-03 5.70510E-04-5.39046E-14
 -1       407 8.11821E-03 6.12767E-04-5.77810E-14
 -1       408 8.45295E-03 6.76611E-04-6.17523E-14
 -1       409 8.78965E-03 7.63462E-04-6.58263E-14
 -1       410 9.12421E-03 8.69344E-04-6.99921E-14
 -1       411 9.45172E-03 9.81993E-04-7.42438E-14
 -1       412 9.76845E-03 1.08040E-03-7.85831E-14
 -1       413 1.00747E-02 1.13986E-03-8.30198E-14
 -1       414 1.03763E-02 1.14255E-03-8.75575E-14
 -1       415 1.06814E-02 1.08740E-03-9.21887E-14
 -1       416 1.09964E-02 9.90799E-04-9.68959E-14
 -1       417 1.13219E-02 8.77285E-04-1.01664E-13
 -1       418 1.16546E-02 7.68601E-04-1.06484E-13
 -1       419 1.19895E-02 6.77882E-04-1.11364E-13
 -1       420 1.23222E-02 6.09689E-04-1.16292E-13
 -1       421 1.26500E-02 5.62762E-04-1.21267E-13
 -1       422 1.29713E-02 5.32953E-04-1.26293E-13
 -1       423 1.32856E-02 5.15245E-04-1.31351E-13
 -1       424 1.35932E-02 5.04816E-04-1.36436E-13
 -1       425 1.38945E-02 4.97453E-04-1.41548E-13
 -1       426 1.41905E-02 4.89637E-04-1.46691E-13
 -1       427 1.44819E-02 4.78565E-04-1.51851E-13
 -1       428 1.46697E-02 4.62855E-04-1.55219E-13
 -1       429 1.46881E-02 2.64169E-04-1.55228E-13
 -1       430 1.46536E-02 3.39941E-04-1.54778E-13
 -1       431 1.46600E-02 4.00467E-04-1.54999E-13
 -1       432 1.47214E-02 1.93612E-04-1.55668E-13
 -1       433 1.47514E-02 1.25601E-04-1.56102E-13
 -1       434 1.47741E-02 6.07262E-05-1.56528E-13
 -1       435 1.47874E-02-2.06858E-06-1.56947E-13
 -1       436 1.47899E-02-6.41153E-05-1.57355E-13
 -1       437 1.47817E-02-1.26851E-04-1.57749E-13
 -1       438 1.47642E-02-1.90505E-04-1.58118E-13
 -1       439 1.47392E-02-2.58338E-04-1.58479E-13
 -1       440 1.47101E-02-3.29976E-04-1.58830E-13
 -1       441 1.46804E-02-4.05672E-04-1.59168E-13
 -1       442 1.21758E-02 1.32145E-04-1.01576E-13
 -1       443 1.24878E-02-1.48547E-05-1.03134E-13
 -1       444 1.24066E-02 4.37117E-05-1.02433E-13
 -1       445 1.18879E-02 2.57801E-04-9.98756E-14
 -1       446 1.14136E-02 4.87121E-04-9.72278E-14
 -1       447 4.45607E-04-1.26568E-04-3.13822E-16
 -1       448 1.06156E-02 8.80589E-04-9.04243E-14
 -1       449 1.02997E-02 9.45958E-04-8.74897E-14
 -1       450 9.91793E-03 8.95729E-04-8.38650E-14
 -1       451 9.61472E-03 7.72057E-04-8.13751E-14
 -1       452 9.16202E-03 5.41222E-04-7.85754E-14
 -1       453 8.82937E-03 3.70241E-04-7.68596E-14
 -1       454 8.42144E-03 1.82708E-04-7.51627E-14
 -1       455 8.18178E-03 8.69393E-05-7.44881E-14
 -1       456 8.03561E-03 1.53538E-05-7.40635E-14
 -1       457 8.04281E-03-3.63247E-05-7.41232E-14
 -1       458 8.21236E-03-1.11687E-04-7.50107E-14
 -1       459 8.55499E-03-2.53908E-04-7.66122E-14
 -1       460 8.87973E-03-4.19522E-04-7.86704E-14
 -1       461 9.24040E-03-6.07004E-04-8.08576E-14
 -1       462 9.58976E-03-7.83498E-04-8.32748E-14
 -1       463 9.91507E-03-9.14995E-04-8.59615E-14
 -1       464 1.02233E-02-9.72945E-04-8.87662E-14
 -1       465 1.04907E-02-9.46767E-04-9.12822E-14
 -1       466 1.08910E-02-8.01552E-04-9.46552E-14
 -1       467 1.12078E-02-6.44314E-04-9.68588E-14
 -1       468 1.16180E-02-4.26348E-04-9.95246E-14
 -1       469 1.19509E-02-2.73121E-04-1.00925E-13
 -1       470 1.22323E-02-1.42068E-04-1.02766E-13
 -1       471 1.23997E-02-7.68019E-05-1.03230E-13
 -1       472 1.10608E-02 6.78429E-04-9.45012E-14
 -1       473 8.36630E-03-1.57333E-04-7.44111E-14
 -1       474 9.31076E-04 3.46084E-04-7.52870E-16
 -1       475 6.66012E-04-7.51850E-05-6.99741E-16
 -1       476 6.69925E-04-1.15964E-04-6.95611E-16
 -1       477 6.63382E-04 1.10527E-06-6.88550E-16
 -1       478 6.64092E-04 3.87935E-05-6.74750E-16
 -1       479 6.66199E-04 7.68709E-05-6.54889E-16
 -1       480 6.70239E-04 1.17803E-04-6.26581E-16
 -1       481 6.77176E-04 1.62436E-04-5.87688E-16
 -1       482 6.89001E-04 2.12805E-04-5.33505E-16
 -1       483 1.21690E-03 4.06490E-04-1.31839E-15
 -1       484 9.76154E-04-3.28697E-04-1.13633E-15
 -1       485 1.07882E-02 8.18818E-04-9.27991E-14
 -1       486 1.26204E-03-3.83459E-04-1.85508E-15
 -1       487 1.54702E-03-4.23045E-04-2.74694E-15
 -1       488 1.83111E-03-4.50848E-04-3.80976E-15
 -1       489 2.11462E-03-4.69734E-04-5.04072E-15
 -1       490 2.39789E-03-4.81958E-04-6.43635E-15
 -1       491 2.68116E-03-4.89242E-04-7.99419E-15
 -1       492 2.96462E-03-4.92872E-04-9.71083E-15
 -1       493 3.24838E-03-4.93788E-04-1.15834E-14
 -1       494 3.53252E-03-4.92653E-04-1.36075E-14
 -1       495 3.81709E-03-4.89914E-04-1.57807E-14
 -1       496 4.10214E-03-4.85850E-04-1.81008E-14
 -1       497 4.38773E-03-4.80624E-04-2.05636E-14
 -1       498 4.67392E-03-4.74322E-04-2.31675E-14
 -1       499 4.96083E-03-4.66995E-04-2.59055E-14
 -1       500 5.24857E-03-4.58711E-04-2.87742E-14
 -1       501 5.53732E-03-4.49612E-04-3.17726E-14
 -1       502 5.82732E-03-4.39980E-04-3.49028E-14
 -1       503 6.11885E-03-4.30330E-04-3.81597E-14
 -1       504 6.41228E-03-4.21519E-04-4.15391E-14
 -1       505 6.70814E-03-4.14882E-04-4.50392E-14
 -1       506 7.00712E-03-4.12386E-04-4.86559E-14
 -1       507 7.31020E-03-4.16794E-04-5.23847E-14
 -1       508 7.61876E-03-4.31796E-04-5.62197E-14
 -1       509 7.93462E-03-4.62031E-04-6.01589E-14
 -1       510 8.25980E-03-5.12801E-04-6.42041E-14
 -1       511 8.59583E-03-5.89100E-04-6.83465E-14
 -1       512 8.94202E-03-6.93151E-04-7.25805E-14
 -1       513 9.29366E-03-8.19561E-04-7.69027E-14
 -1       514 9.64189E-03-9.49278E-04-8.13163E-14
 -1       515 9.97912E-03-1.04745E-03-8.58137E-14
 -1       516 1.03070E-02-1.07779E-03-9.03910E-14
 -1       517 1.06368E-02-1.02789E-03-9.50508E-14
 -1       518 1.09774E-02-9.19792E-04-9.97933E-14
 -1       519 1.13273E-02-7.91912E-04-1.04615E-13
 -1       520 1.16775E-02-6.74702E-04-1.09500E-13
 -1       521 1.20201E-02-5.82548E-04-1.14438E-13
 -1       522 1.23518E-02-5.17707E-04-1.19434E-13
 -1       523 1.26727E-02-4.76506E-04-1.24486E-13
 -1       524 1.29846E-02-4.53378E-04-1.29579E-13
 -1       525 1.32894E-02-4.42732E-04-1.34715E-13
 -1       526 1.35888E-02-4.39628E-04-1.39889E-13
 -1       527 1.38841E-02-4.39912E-04-1.45085E-13
 -1       528 1.41759E-02-4.40146E-04-1.50289E-13
 -1       529 1.78363E-03 4.80661E-04-2.94304E-15
 -1       530 2.06557E-03 5.01653E-04-4.00230E-15
 -1       531 2.34728E-03 5.15453E-04-5.22328E-15
 -1       532 2.62912E-03 5.23927E-04-6.60408E-15
 -1       533 2.91131E-03 5.28465E-04-8.14371E-15
 -1       534 3.19399E-03 5.30084E-04-9.83987E-15
 -1       535 3.47724E-03 5.29508E-04-1.16884E-14
 -1       536 3.76111E-03 5.27229E-04-1.36884E-14
 -1       537 4.04564E-03 5.23564E-04-1.58390E-14
 -1       538 4.33091E-03 5.18704E-04-1.81402E-14
 -1       539 4.61698E-03 5.12753E-04-2.05903E-14
 -1       540 4.90398E-03 5.05775E-04-2.31815E-14
 -1       541 5.19208E-03 4.97843E-04-2.59104E-14
 -1       542 5.48151E-03 4.89096E-04-2.87754E-14
 -1       543 5.77254E-03 4.79808E-04-3.17750E-14
 -1       544 6.06554E-03 4.70475E-04-3.49087E-14
 -1       545 6.36096E-03 4.61928E-04-3.81711E-14
 -1       546 6.65932E-03 4.55466E-04-4.15548E-14
 -1       547 6.96130E-03 4.53009E-04-4.50539E-14
 -1       548 7.26771E-03 4.57250E-04-4.86667E-14
 -1       549 7.57952E-03 4.71758E-04-5.23891E-14
 -1       550 7.89786E-03 5.00917E-04-5.62143E-14
 -1       551 8.22373E-03 5.49527E-04-6.01369E-14
 -1       552 8.55750E-03 6.21697E-04-6.41588E-14
 -1       553 8.89777E-03 7.18567E-04-6.82773E-14
 -1       554 9.24032E-03 8.34484E-04-7.24849E-14
 -1       555 9.57846E-03 9.52845E-04-7.67773E-14
 -1       556 9.90667E-03 1.04579E-03-8.11625E-14
 -1       557 1.02259E-02 1.08357E-03-8.56491E-14
 -1       558 1.05445E-02 1.05187E-03-9.02325E-14
 -1       559 1.08712E-02 9.62383E-04-9.49080E-14
 -1       560 1.12080E-02 8.44112E-04-9.96494E-14
 -1       561 1.15497E-02 7.25762E-04-1.04446E-13
 -1       562 1.18894E-02 6.25107E-04-1.09299E-13
 -1       563 1.22227E-02 5.48662E-04-1.14206E-13
 -1       564 1.25477E-02 4.95627E-04-1.19162E-13
 -1       565 1.28647E-02 4.61781E-04-1.24160E-13
 -1       566 1.31746E-02 4.41909E-04-1.29204E-13
 -1       567 1.34786E-02 4.30988E-04-1.34273E-13
 -1       568 1.37774E-02 4.24623E-04-1.39373E-13
 -1       569 1.40721E-02 4.19119E-04-1.44504E-13
 -1       570 1.43631E-02 4.11411E-04-1.49658E-13
 -1       571 1.44954E-02 1.65769E-04-1.51373E-13
 -1       572 1.45240E-02 9.79751E-05-1.51799E-13
 -1       573 1.44243E-02 3.10707E-04-1.50511E-13
 -1       574 1.44610E-02 2.36381E-04-1.50945E-13
 -1       575 1.45436E-02 3.27718E-05-1.52215E-13
 -1       576 1.45520E-02-3.10080E-05-1.52620E-13
 -1       577 1.45487E-02-9.47425E-05-1.53014E-13
 -1       578 1.45345E-02-1.58703E-04-1.53390E-13
 -1       579 1.45109E-02-2.26278E-04-1.53755E-13
 -1       580 1.44811E-02-2.97255E-04-1.54112E-13
 -1       581 1.44487E-02-3.72103E-04-1.54458E-13
 -1       582 1.24891E-02 4.86761E-06-1.05088E-13
 -1       583 1.23488E-02 5.68721E-05-1.04417E-13
 -1       584 1.24975E-02-3.56107E-05-1.05545E-13
 -1       585 1.50095E-03 4.50012E-04-2.04790E-15
 -1       586 1.20477E-02 1.70672E-04-1.02849E-13
 -1       587 1.16883E-02 3.36105E-04-1.00441E-13
 -1       588 1.20643E-02-1.99219E-04-1.04270E-13
 -1       589 1.12311E-02 5.88015E-04-9.73631E-14
 -1       590 1.00581E-02-9.67682E-04-8.70195E-14
 -1       591 1.04682E-02 9.36176E-04-8.93105E-14
 -1       592 6.63980E-04-3.65472E-05-6.96990E-16
 -1       593 1.01247E-02 9.57182E-04-8.54543E-14
 -1       594 8.26591E-03 1.03226E-04-7.28527E-14
 -1       595 9.76525E-03 8.51009E-04-8.15321E-14
 -1       596 9.37905E-03 6.47875E-04-7.84850E-14
 -1       597 8.98774E-03 4.34459E-04-7.55613E-14
 -1       598 1.17932E-02-3.20857E-04-1.02853E-13
 -1       599 8.62119E-03 2.49875E-04-7.38841E-14
 -1       600 8.06810E-03 3.37743E-05-7.21477E-14
 -1       601 7.98996E-03-7.88095E-06-7.18262E-14
 -1       602 8.08619E-03-5.48280E-05-7.26111E-14
 -1       603 8.74987E-03-3.25247E-04-7.62416E-14
 -1       604 9.06375E-03-4.88351E-04-7.83941E-14
 -1       605 9.42186E-03-6.87634E-04-8.08836E-14
 -1       606 9.76837E-03-8.66130E-04-8.40484E-14
 -1       607 1.03568E-02-9.85358E-04-9.03312E-14
 -1       608 1.06847E-02-8.95876E-04-9.38277E-14
 -1       609 1.10480E-02-7.17411E-04-9.72739E-14
 -1       610 1.14026E-02-5.21036E-04-9.99477E-14
 -1       611 1.23696E-02-8.65518E-05-1.05992E-13
 -1       612 7.12544E-04-2.51915E-04-6.45039E-16
 -1       613 7.03670E-04 2.90972E-04-4.02164E-16
 -1       614 6.76682E-04-1.60139E-04-6.82143E-16
 -1       615 8.18516E-03-9.40097E-05-7.20096E-14
 -1       616 8.52931E-03-2.28179E-04-7.40359E-14
 -1       617 1.43709E-02-4.40393E-04-1.53827E-13
 -1       618 9.00052E-04 7.41424E-05-1.14553E-15
 -1       619 8.97993E-04 2.51895E-05-1.17228E-15
 -1       620 9.11979E-04 1.78292E-04-1.05700E-15
 -1       621 9.24233E-04 2.36863E-04-9.88606E-16
 -1       622 1.04880E-03 3.13958E-04-1.12764E-15
 -1       623 1.15687E-02 4.35164E-04-1.01389E-13
 -1       624 1.33452E-03 3.61483E-04-1.80397E-15
 -1       625 1.22765E-02 9.82453E-05-1.06194E-13
 -1       626 1.38327E-03-3.36948E-04-2.35272E-15
 -1       627 1.66947E-03-3.67678E-04-3.33773E-15
 -1       628 1.95569E-03-3.89158E-04-4.48912E-15
 -1       629 2.24174E-03-4.03517E-04-5.80371E-15
 -1       630 2.52762E-03-4.12504E-04-7.27922E-15
 -1       631 2.81337E-03-4.17487E-04-8.91223E-15
 -1       632 3.09904E-03-4.19493E-04-1.07013E-14
 -1       633 3.38469E-03-4.19271E-04-1.26428E-14
 -1       634 3.67035E-03-4.17336E-04-1.47337E-14
 -1       635 3.95605E-03-4.14028E-04-1.69715E-14
 -1       636 4.24181E-03-4.09549E-04-1.93516E-14
 -1       637 4.52767E-03-4.04007E-04-2.18748E-14
 -1       638 4.81363E-03-3.97455E-04-2.45365E-14
 -1       639 5.09973E-03-3.89935E-04-2.73305E-14
 -1       640 5.38599E-03-3.81522E-04-3.02535E-14
 -1       641 5.67247E-03-3.72380E-04-3.33078E-14
 -1       642 5.95925E-03-3.62828E-04-3.64940E-14
 -1       643 6.24648E-03-3.53423E-04-3.98036E-14
 -1       644 6.53443E-03-3.45056E-04-4.32331E-14
 -1       645 6.82359E-03-3.39071E-04-4.67811E-14
 -1       646 7.11483E-03-3.37398E-04-5.04419E-14
 -1       647 7.40961E-03-3.42723E-04-5.42109E-14
 -1       648 7.71028E-03-3.58688E-04-5.80859E-14
 -1       649 8.02026E-03-3.90156E-04-6.20637E-14
 -1       650 8.34391E-03-4.43410E-04-6.61442E-14
 -1       651 8.68528E-03-5.25752E-04-7.03155E-14
 -1       652 9.04485E-03-6.42835E-04-7.45792E-14
 -1       653 9.41509E-03-7.88899E-04-7.89319E-14
 -1       654 9.78260E-03-9.34673E-04-8.33733E-14
 -1       655 1.01359E-02-1.02360E-03-8.78991E-14
 -1       656 1.04834E-02-1.00871E-03-9.25042E-14
 -1       657 1.08408E-02-8.99950E-04-9.71966E-14
 -1       658 1.12112E-02-7.52796E-04-1.01973E-13
 -1       659 1.15793E-02-6.17337E-04-1.06822E-13
 -1       660 1.19336E-02-5.14783E-04-1.11727E-13
 -1       661 1.22691E-02-4.45487E-04-1.16690E-13
 -1       662 1.25879E-02-4.02680E-04-1.21709E-13
 -1       663 1.28944E-02-3.79003E-04-1.26774E-13
 -1       664 1.31927E-02-3.68280E-04-1.31878E-13
 -1       665 1.34858E-02-3.65597E-04-1.37022E-13
 -1       666 1.37756E-02-3.67020E-04-1.42199E-13
 -1       667 1.40634E-02-3.69334E-04-1.47389E-13
 -1       668 2.19054E-03 4.36483E-04-4.80605E-15
 -1       669 1.41383E-02 3.16662E-04-1.45345E-13
 -1       670 1.90555E-03 4.20150E-04-3.64427E-15
 -1       671 2.76004E-03 4.52943E-04-7.60470E-15
 -1       672 3.04479E-03 4.55719E-04-9.23868E-15
 -1       673 3.32965E-03 4.56063E-04-1.10249E-14
 -1       674 3.61470E-03 4.54555E-04-1.29621E-14
 -1       675 3.89996E-03 4.51578E-04-1.50477E-14
 -1       676 4.18548E-03 4.47365E-04-1.72833E-14
 -1       677 4.47130E-03 4.42048E-04-1.96679E-14
 -1       678 4.75747E-03 4.35694E-04-2.21952E-14
 -1       679 5.04406E-03 4.28352E-04-2.48625E-14
 -1       680 5.33115E-03 4.20098E-04-2.76680E-14
 -1       681 5.61886E-03 4.11093E-04-3.06072E-14
 -1       682 5.90734E-03 4.01654E-04-3.36795E-14
 -1       683 6.19683E-03 3.92337E-04-3.68825E-14
 -1       684 6.48765E-03 3.84044E-04-4.02083E-14
 -1       685 6.78034E-03 3.78144E-04-4.36510E-14
 -1       686 7.07569E-03 3.76620E-04-4.72080E-14
 -1       687 7.37497E-03 3.82216E-04-5.08772E-14
 -1       688 7.68002E-03 3.98583E-04-5.46521E-14
 -1       689 7.99341E-03 4.30352E-04-5.85273E-14
 -1       690 8.31809E-03 4.82996E-04-6.24985E-14
 -1       691 8.65637E-03 5.61948E-04-6.65669E-14
 -1       692 9.00758E-03 6.69925E-04-7.07264E-14
 -1       693 9.36542E-03 8.00444E-04-7.49726E-14
 -1       694 9.71864E-03 9.29722E-04-7.93087E-14
 -1       695 1.00598E-02 1.01535E-03-8.37458E-14
 -1       696 1.03930E-02 1.01953E-03-8.82829E-14
 -1       697 1.07325E-02 9.39926E-04-9.29182E-14
 -1       698 1.10844E-02 8.12208E-04-9.76309E-14
 -1       699 1.14422E-02 6.79073E-04-1.02404E-13
 -1       700 1.17941E-02 5.66933E-04-1.07233E-13
 -1       701 1.21335E-02 4.83473E-04-1.12120E-13
 -1       702 1.24589E-02 4.26498E-04-1.17053E-13
 -1       703 1.27727E-02 3.90457E-04-1.22033E-13
 -1       704 1.30775E-02 3.69484E-04-1.27056E-13
 -1       705 1.33762E-02 3.58388E-04-1.32109E-13
 -1       706 1.36705E-02 3.52811E-04-1.37196E-13
 -1       707 1.39059E-02 3.34548E-04-1.41262E-13
 -1       708 1.43139E-02 2.89125E-06-1.47914E-13
 -1       709 1.42563E-02-3.71545E-04-1.50918E-13
 -1       710 1.42716E-02 1.34317E-04-1.47093E-13
 -1       711 1.43165E-02-6.08013E-05-1.48306E-13
 -1       712 1.42984E-02 6.74504E-05-1.47511E-13
 -1       713 1.43064E-02-1.24124E-04-1.48678E-13
 -1       714 1.42847E-02-1.90715E-04-1.49047E-13
 -1       715 1.42544E-02-2.60614E-04-1.49408E-13
 -1       716 1.25229E-02-5.02569E-05-1.08537E-13
 -1       717 1.19886E-02-2.55690E-04-1.05990E-13
 -1       718 8.72046E-03 3.26363E-04-7.24260E-14
 -1       719 8.11162E-03 6.11983E-05-7.03044E-14
 -1       720 1.09833E-02 7.58570E-04-9.56618E-14
 -1       721 9.19467E-03-5.76762E-04-7.81648E-14
 -1       722 9.17639E-03 5.75442E-04-7.52961E-14
 -1       723 1.62021E-03 3.95957E-04-2.64297E-15
 -1       724 1.24879E-02 2.20392E-05-1.07350E-13
 -1       725 2.47533E-03 4.46910E-04-6.12631E-15
 -1       726 1.09769E-03-2.94673E-04-1.53587E-15
 -1       727 1.02065E-02-1.00728E-03-8.87350E-14
 -1       728 1.19181E-02 2.47988E-04-1.03748E-13
 -1       729 1.05266E-02-9.69514E-04-9.26521E-14
 -1       730 1.16023E-02-4.38973E-04-1.03169E-13
 -1       731 9.04443E-04 1.24665E-04-1.10797E-15
 -1       732 9.04079E-04-1.22265E-04-1.19832E-15
 -1       733 1.06150E-02 9.14046E-04-9.12222E-14
 -1       734 9.52934E-03 7.71157E-04-7.82817E-14
 -1       735 1.22960E-02-1.31469E-04-1.07724E-13
 -1       736 7.95797E-03 1.21645E-05-6.93999E-14
 -1       737 9.97042E-03 9.51045E-04-8.31565E-14
 -1       738 9.59072E-03-8.02695E-04-8.16421E-14
 -1       739 1.25709E-02-1.54224E-05-1.08356E-13
 -1       740 8.34894E-03 1.53216E-04-7.08466E-14
 -1       741 7.96271E-03-2.77455E-05-6.96793E-14
 -1       742 8.91320E-03-4.22759E-04-7.60179E-14
 -1       743 1.08751E-02-8.36801E-04-9.67839E-14
 -1       744 9.89903E-03-9.37978E-04-8.50407E-14
 -1       745 1.12787E-02-6.11719E-04-1.00467E-13
 -1       746 1.03026E-02 9.82079E-04-8.73337E-14
 -1       747 9.11414E-04-1.75692E-04-1.18616E-15
 -1       748 8.97929E-04-2.31661E-05-1.19006E-15
 -1       749 8.30930E-03-1.53239E-04-7.16327E-14
 -1       750 1.42367E-02 2.03944E-04-1.46674E-13
 -1       751 8.00496E-03-5.64463E-05-6.90803E-14
 -1       752 1.24925E-02-8.49863E-05-1.10285E-13
 -1       753 9.38251E-04-2.47218E-04-1.17791E-15
 -1       754 1.13120E-02 6.14824E-04-9.96679E-14
 -1       755 8.68345E-03-3.22465E-04-7.38086E-14
 -1       756 8.99846E-04-7.18550E-05-1.19895E-15
 -1       757 1.41603E-02-3.13694E-04-1.48400E-13
 -1       758 1.18784E-02 3.27035E-04-1.05333E-13
 -1       759 1.16167E-03 2.43654E-04-1.58317E-15
 -1       760 7.84144E-03-6.87887E-06-6.65107E-14
 -1       761 1.22465E-03-2.55012E-04-1.96797E-15
 -1       762 1.79749E-03-3.09105E-04-3.94904E-15
 -1       763 2.08518E-03-3.24849E-04-5.18349E-15
 -1       764 2.37300E-03-3.35147E-04-6.57763E-15
 -1       765 2.66070E-03-3.41305E-04-8.12887E-15
 -1       766 2.94818E-03-3.44358E-04-9.83462E-15
 -1       767 3.23537E-03-3.45088E-04-1.16933E-14
 -1       768 3.52226E-03-3.44055E-04-1.37022E-14
 -1       769 3.80883E-03-3.41640E-04-1.58582E-14
 -1       770 4.09506E-03-3.38082E-04-1.81584E-14
 -1       771 4.38093E-03-3.33518E-04-2.06002E-14
 -1       772 4.66640E-03-3.28014E-04-2.31822E-14
 -1       773 4.95140E-03-3.21603E-04-2.58996E-14
 -1       774 5.23587E-03-3.14322E-04-2.87503E-14
 -1       775 5.51972E-03-3.06256E-04-3.17299E-14
 -1       776 5.80285E-03-2.97581E-04-3.48417E-14
 -1       777 6.08519E-03-2.88621E-04-3.80813E-14
 -1       778 6.36675E-03-2.79912E-04-4.14422E-14
 -1       779 6.64769E-03-2.72271E-04-4.49219E-14
 -1       780 6.92845E-03-2.66880E-04-4.85157E-14
 -1       781 7.21004E-03-2.65397E-04-5.22194E-14
 -1       782 7.49434E-03-2.70141E-04-5.60311E-14
 -1       783 7.78460E-03-2.84471E-04-5.99458E-14
 -1       784 8.08600E-03-3.13550E-04-6.39595E-14
 -1       785 8.40590E-03-3.65619E-04-6.80689E-14
 -1       786 8.75205E-03-4.53129E-04-7.22698E-14
 -1       787 1.14908E-02-5.65387E-04-1.04169E-13
 -1       788 1.18586E-02-4.47879E-04-1.09042E-13
 -1       789 1.21979E-02-3.74570E-04-1.13972E-13
 -1       790 1.25134E-02-3.32499E-04-1.18961E-13
 -1       791 1.28129E-02-3.10432E-04-1.23997E-13
 -1       792 1.31030E-02-3.00990E-04-1.29073E-13
 -1       793 1.33883E-02-2.99241E-04-1.34191E-13
 -1       794 1.36713E-02-3.01671E-04-1.39340E-13
 -1       795 1.39157E-02-3.07981E-04-1.43860E-13
 -1       796 8.39475E-03 2.34912E-04-6.85791E-14
 -1       797 1.40807E-02-8.94617E-05-1.44003E-13
 -1       798 2.03285E-03 3.56959E-04-4.37796E-15
 -1       799 3.18018E-03 3.81778E-04-1.03555E-14
 -1       800 2.89361E-03 3.80427E-04-8.63010E-15
 -1       801 3.75279E-03 3.79037E-04-1.42545E-14
 -1       802 4.03884E-03 3.75663E-04-1.64257E-14
 -1       803 4.32474E-03 3.71210E-04-1.87448E-14
 -1       804 4.61046E-03 3.65761E-04-2.12089E-14
 -1       805 4.89599E-03 3.59358E-04-2.38144E-14
 -1       806 5.18132E-03 3.52042E-04-2.65563E-14
 -1       807 5.46641E-03 3.43895E-04-2.94364E-14
 -1       808 5.75126E-03 3.35096E-04-3.24483E-14
 -1       809 6.03590E-03 3.25978E-04-3.55927E-14
 -1       810 6.32041E-03 3.17102E-04-3.88621E-14
 -1       811 6.60506E-03 3.09344E-04-4.22492E-14
 -1       812 6.89040E-03 3.03989E-04-4.57529E-14
 -1       813 7.17745E-03 3.02864E-04-4.93686E-14
 -1       814 7.46800E-03 3.08508E-04-5.30931E-14
 -1       815 7.76495E-03 3.24461E-04-5.69204E-14
 -1       816 8.07263E-03 3.55713E-04-6.08457E-14
 -1       817 8.39651E-03 4.09305E-04-6.48628E-14
 -1       818 8.74192E-03 4.94292E-04-6.89727E-14
 -1       819 1.20595E-02 4.10549E-04-1.10029E-13
 -1       820 1.23858E-02 3.52328E-04-1.14941E-13
 -1       821 1.26952E-02 3.17079E-04-1.19898E-13
 -1       822 1.29934E-02 2.97164E-04-1.24906E-13
 -1       823 1.32849E-02 2.87022E-04-1.29943E-13
 -1       824 1.35726E-02 2.82535E-04-1.35017E-13
 -1       825 1.22042E-02 1.69850E-04-1.07803E-13
 -1       826 1.13866E-03 5.90586E-05-1.76924E-15
 -1       827 1.40315E-02-2.21950E-04-1.44728E-13
 -1       828 1.40855E-02-2.64459E-05-1.43627E-13
 -1       829 8.97909E-03-5.13782E-04-7.51612E-14
 -1       830 1.24625E-03 3.00811E-04-1.69964E-15
 -1       831 8.83063E-03 4.55492E-04-7.11998E-14
 -1       832 1.18563E-02-3.63539E-04-1.06900E-13
 -1       833 1.22324E-02-1.98885E-04-1.09656E-13
 -1       834 1.40618E-02-1.54038E-04-1.44367E-13
 -1       835 1.26111E-02 4.92759E-06-1.10564E-13
 -1       836 8.10899E-03 1.01125E-04-6.77891E-14
 -1       837 3.46657E-03 3.81168E-04-1.22312E-14
 -1       838 7.93173E-03 4.06739E-05-6.69012E-14
 -1       839 1.06676E-03-2.14973E-04-1.55439E-15
 -1       840 1.26361E-02-3.26590E-05-1.11254E-13
 -1       841 1.51038E-03-2.86358E-04-2.87599E-15
 -1       842 1.25051E-02 5.68021E-05-1.10261E-13
 -1       843 9.10335E-03 6.21868E-04-7.30140E-14
 -1       844 1.13731E-03 1.20060E-06-1.80090E-15
 -1       845 1.15005E-03 1.79135E-04-1.66299E-15
 -1       846 8.44375E-03-2.35070E-04-7.14008E-14
 -1       847 1.40157E-02 1.69663E-04-1.42418E-13
 -1       848 1.40512E-02 1.01020E-04-1.42832E-13
 -1       849 8.73239E-03-3.89446E-04-7.30451E-14
 -1       850 1.74577E-03 3.38730E-04-3.27461E-15
 -1       851 2.60686E-03 3.76479E-04-7.05707E-15
 -1       852 1.17117E-02 5.00833E-04-1.05166E-13
 -1       853 1.38045E-02 2.65998E-04-1.39070E-13
 -1       854 1.14269E-03 1.17796E-04-1.72418E-15
 -1       855 1.40752E-02 3.62867E-05-1.43238E-13
 -1       856 8.08152E-03-1.00111E-04-6.87033E-14
 -1       857 1.26477E-02-6.09866E-05-1.13013E-13
 -1       858 1.24547E-02-1.39937E-04-1.12232E-13
 -1       859 7.83194E-03-2.94145E-05-6.59218E-14
 -1       860 1.39624E-02 2.49372E-04-1.41842E-13
 -1       861 2.31992E-03 3.69047E-04-5.63917E-15
 -1       862 1.49564E-03 3.23955E-04-2.42280E-15
 -1       863 1.14237E-03-1.15209E-04-1.82661E-15
 -1       864 1.39750E-02-2.64066E-04-1.44294E-13
 -1       865 1.10313E-03-1.65223E-04-1.69453E-15
 -1       866 1.21025E-02 2.92002E-04-1.08928E-13
 -1       867 1.27439E-02-1.24360E-05-1.14252E-13
 -1       868 2.21874E-03-2.58055E-04-5.89267E-15
 -1       869 2.50780E-03-2.64865E-04-7.36227E-15
 -1       870 2.79674E-03-2.68670E-04-8.98587E-15
 -1       871 3.08534E-03-2.70210E-04-1.07619E-14
 -1       872 3.37347E-03-2.70039E-04-1.26886E-14
 -1       873 3.66102E-03-2.68549E-04-1.47625E-14
 -1       874 3.94794E-03-2.65997E-04-1.69816E-14
 -1       875 4.23415E-03-2.62541E-04-1.93428E-14
 -1       876 4.51956E-03-2.58262E-04-2.18455E-14
 -1       877 4.80405E-03-2.53198E-04-2.44855E-14
 -1       878 5.08748E-03-2.47369E-04-2.72605E-14
 -1       879 5.36964E-03-2.40814E-04-3.01669E-14
 -1       880 5.65033E-03-2.33618E-04-3.32050E-14
 -1       881 5.92928E-03-2.25949E-04-3.63724E-14
 -1       882 6.20625E-03-2.18094E-04-3.96666E-14
 -1       883 6.48105E-03-2.10497E-04-4.30780E-14
 -1       884 6.75364E-03-2.03787E-04-4.66052E-14
 -1       885 7.02428E-03-1.98824E-04-5.02430E-14
 -1       886 7.29377E-03-1.96770E-04-5.39913E-14
 -1       887 7.56390E-03-1.99302E-04-5.78450E-14
 -1       888 7.83817E-03-2.09208E-04-6.17978E-14
 -1       889 8.12309E-03-2.32047E-04-6.58434E-14
 -1       890 8.41124E-03-2.91420E-04-6.94088E-14
 -1       891 1.24699E-02-2.50297E-04-1.16195E-13
 -1       892 1.27544E-02-2.34126E-04-1.21202E-13
 -1       893 1.30304E-02-2.28722E-04-1.26256E-13
 -1       894 1.33034E-02-2.29319E-04-1.31347E-13
 -1       895 1.35764E-02-2.33129E-04-1.36471E-13
 -1       896 7.91905E-03 8.06294E-05-6.48762E-14
 -1       897 4.17778E-03 2.99945E-04-1.78216E-14
 -1       898 3.89151E-03 3.03379E-04-1.55666E-14
 -1       899 4.74845E-03 2.90400E-04-2.27648E-14
 -1       900 5.03267E-03 2.84362E-04-2.54454E-14
 -1       901 5.31598E-03 2.77526E-04-2.82649E-14
 -1       902 5.59824E-03 2.69976E-04-3.12177E-14
 -1       903 5.87929E-03 2.61886E-04-3.43027E-14
 -1       904 6.15900E-03 2.53566E-04-3.75156E-14
 -1       905 6.43732E-03 2.45506E-04-4.08474E-14
 -1       906 6.71440E-03 2.38436E-04-4.42970E-14
 -1       907 6.99070E-03 2.33385E-04-4.78610E-14
 -1       908 7.26731E-03 2.31788E-04-5.15350E-14
 -1       909 7.54633E-03 2.35720E-04-5.53153E-14
 -1       910 7.83143E-03 2.48377E-04-5.91930E-14
 -1       911 8.12866E-03 2.75288E-04-6.31667E-14
 -1       912 1.24154E-02 2.45655E-04-1.13831E-13
 -1       913 1.32038E-02 2.17109E-04-1.27781E-13
 -1       914 1.34823E-02 2.14322E-04-1.32840E-13
 -1       915 1.38582E-02-5.51641E-05-1.39361E-13
 -1       916 1.29228E-02 2.24659E-04-1.22754E-13
 -1       917 1.26720E-02 2.30728E-04-1.18276E-13
 -1       918 4.46345E-03 2.95603E-04-2.02220E-14
 -1       919 7.74264E-03 2.27033E-05-6.34950E-14
 -1       920 3.02964E-03 3.06740E-04-9.67968E-15
 -1       921 1.24738E-02 1.20393E-04-1.12016E-13
 -1       922 8.14797E-03 1.83193E-04-6.56553E-14
 -1       923 1.13849E-03-5.65106E-05-1.82021E-15
 -1       924 1.25929E-03-1.99599E-04-2.13052E-15
 -1       925 1.21941E-02-2.88146E-04-1.11814E-13
 -1       926 1.64195E-03-2.31513E-04-3.42425E-15
 -1       927 1.41061E-03 2.65860E-04-2.28315E-15
 -1       928 1.26952E-02 3.02037E-05-1.13948E-13
 -1       929 1.92992E-03-2.47303E-04-4.57947E-15
 -1       930 8.41578E-03 3.25612E-04-6.67240E-14
 -1       931 2.16454E-03 2.91240E-04-5.14437E-15
 -1       932 8.18243E-03-1.63321E-04-6.84719E-14
 -1       933 1.38435E-03-9.70453E-05-2.57484E-15
 -1       934 1.37743E-02-2.48683E-04-1.40374E-13
 -1       935 2.74150E-03 3.04483E-04-8.01517E-15
 -1       936 3.60470E-03 3.05803E-04-1.34571E-14
 -1       937 1.87620E-03 2.78303E-04-3.94231E-15
 -1       938 1.27959E-02-3.80909E-05-1.16025E-13
 -1       939 1.37085E-02 1.99590E-04-1.36880E-13
 -1       940 1.38553E-02 5.72166E-06-1.38981E-13
 -1       941 1.38436E-02-1.17325E-04-1.39727E-13
 -1       942 1.38466E-03 9.99446E-05-2.47200E-15
 -1       943 1.32057E-03-1.49278E-04-2.35424E-15
 -1       944 7.85961E-03-6.01490E-05-6.55524E-14
 -1       945 1.26438E-02-1.05411E-04-1.14976E-13
 -1       946 7.69437E-03-1.35315E-06-6.29217E-14
 -1       947 3.31739E-03 3.07026E-04-1.14950E-14
 -1       948 1.27019E-02 8.15821E-05-1.15717E-13
 -1       949 1.24527E-02-1.94223E-04-1.14212E-13
 -1       950 1.38001E-02 1.34408E-04-1.38181E-13
 -1       951 1.38152E-03 3.39573E-05-2.52235E-15
 -1       952 1.38239E-02-1.92563E-04-1.40419E-13
 -1       953 1.35821E-02 1.46862E-04-1.34130E-13
 -1       954 2.64569E-03-1.92925E-04-8.15554E-15
 -1       955 2.93540E-03-1.94915E-04-9.84889E-15
 -1       956 3.22462E-03-1.95399E-04-1.16928E-14
 -1       957 3.51316E-03-1.94730E-04-1.36846E-14
 -1       958 3.80088E-03-1.93155E-04-1.58227E-14
 -1       959 4.08767E-03-1.90831E-04-1.81032E-14
 -1       960 4.37339E-03-1.87847E-04-2.05271E-14
 -1       961 4.65789E-03-1.84247E-04-2.30888E-14
 -1       962 4.94097E-03-1.80049E-04-2.57864E-14
 -1       963 5.22237E-03-1.75270E-04-2.86189E-14
 -1       964 5.50178E-03-1.69946E-04-3.15836E-14
 -1       965 5.77884E-03-1.64153E-04-3.46803E-14
 -1       966 6.05312E-03-1.58030E-04-3.79027E-14
 -1       967 6.32416E-03-1.51791E-04-4.12475E-14
 -1       968 6.59149E-03-1.45733E-04-4.47088E-14
 -1       969 6.85470E-03-1.40232E-04-4.82826E-14
 -1       970 7.11349E-03-1.35734E-04-5.19658E-14
 -1       971 7.36788E-03-1.32791E-04-5.57575E-14
 -1       972 7.61849E-03-1.32228E-04-5.96509E-14
 -1       973 7.86736E-03-1.35913E-04-6.36375E-14
 -1       974 1.27201E-02-1.83433E-04-1.19197E-13
 -1       975 7.71126E-03 6.60350E-05-6.15835E-14
 -1       976 1.29821E-02-1.81476E-04-1.24233E-13
 -1       977 1.32440E-02-1.83919E-04-1.29307E-13
 -1       978 1.35085E-02-1.88562E-04-1.34415E-13
 -1       979 5.16788E-03 2.11268E-04-2.70922E-14
 -1       980 4.88551E-03 2.16489E-04-2.43340E-14
 -1       981 5.72742E-03 1.98960E-04-3.30123E-14
 -1       982 6.00399E-03 1.92093E-04-3.61679E-14
 -1       983 6.27802E-03 1.85039E-04-3.94465E-14
 -1       984 6.54922E-03 1.78150E-04-4.28415E-14
 -1       985 6.81747E-03 1.71911E-04-4.63529E-14
 -1       986 7.08292E-03 1.66955E-04-4.99758E-14
 -1       987 7.34621E-03 1.64138E-04-5.37083E-14
 -1       988 7.60895E-03 1.64841E-04-5.75426E-14
 -1       989 7.87491E-03 1.71610E-04-6.14697E-14
 -1       990 1.44705E-03 1.93594E-04-2.54334E-15
 -1       991 4.03083E-03 2.28014E-04-1.68970E-14
 -1       992 1.33153E-02 1.46307E-04-1.29058E-13
 -1       993 2.45307E-03 2.99604E-04-6.50204E-15
 -1       994 2.06610E-03-1.82358E-04-5.22628E-15
 -1       995 1.38141E-03-3.12711E-05-2.55654E-15
 -1       996 1.77726E-03-1.72453E-04-3.99424E-15
 -1       997 1.30504E-02 1.47563E-04-1.24023E-13
 -1       998 1.28798E-02 8.52881E-06-1.18051E-13
 -1       999 1.64291E-03 2.75041E-04-3.05731E-15
 -1      1000 5.44861E-03 2.05400E-04-2.99864E-14
 -1      1001 1.38351E-02 6.82378E-05-1.38586E-13
 -1      1002 2.35578E-03-1.88946E-04-6.61423E-15
 -1      1003 1.26806E-02 1.52313E-04-1.17005E-13
 -1      1004 7.57486E-03 2.69333E-05-6.00742E-14
 -1      1005 7.68030E-03-2.75502E-05-6.25664E-14
 -1      1006 2.29994E-03 2.23138E-04-5.94318E-15
 -1      1007 2.87890E-03 2.31231E-04-8.99875E-15
 -1      1008 3.74395E-03 2.30374E-04-1.47031E-14
 -1      1009 2.01061E-03 2.14711E-04-4.64559E-15
 -1      1010 4.60175E-03 2.21031E-04-2.17140E-14
 -1      1011 4.31681E-03 2.24881E-04-1.92349E-14
 -1      1012 1.36385E-02-2.29207E-05-1.34737E-13
 -1      1013 1.77113E-03-9.70936E-05-3.98498E-15
 -1      1014 1.36307E-02-8.22215E-05-1.35107E-13
 -1      1015 1.28298E-02-7.48515E-05-1.18002E-13
 -1      1016 1.28658E-02 1.48649E-04-1.20505E-13
 -1      1017 1.29237E-02 5.27981E-05-1.19832E-13
 -1      1018 1.36259E-02 7.98688E-05-1.34531E-13
 -1      1019 1.65938E-03 1.49401E-04-3.35914E-15
 -1      1020 1.65413E-03 7.62947E-05-3.43515E-15
 -1      1021 3.16788E-03 2.32235E-04-1.07529E-14
 -1      1022 7.86499E-03-9.52713E-05-6.45965E-14
 -1      1023 3.07635E-03-1.20383E-04-1.07171E-14
 -1      1024 3.36575E-03-1.20286E-04-1.26269E-14
 -1      1025 3.65428E-03-1.19532E-04-1.46823E-14
 -1      1026 3.94177E-03-1.18249E-04-1.68827E-14
 -1      1027 4.22806E-03-1.16518E-04-1.92269E-14
 -1      1028 4.51296E-03-1.14378E-04-2.17099E-14
 -1      1029 4.79626E-03-1.11849E-04-2.43288E-14
 -1      1030 5.07767E-03-1.08942E-04-2.70850E-14
 -1      1031 5.35686E-03-1.05670E-04-2.99768E-14
 -1      1032 5.63338E-03-1.02063E-04-3.30012E-14
 -1      1033 5.90672E-03-9.81808E-05-3.61537E-14
 -1      1034 6.17629E-03-9.41184E-05-3.94296E-14
 -1      1035 6.44137E-03-9.00046E-05-4.28249E-14
 -1      1036 6.70112E-03-8.59876E-05-4.63341E-14
 -1      1037 6.95454E-03-8.22028E-05-4.99522E-14
 -1      1038 7.20040E-03-7.87527E-05-5.36810E-14
 -1      1039 7.43705E-03-7.56753E-05-5.75153E-14
 -1      1040 7.64986E-03-8.38887E-05-6.10184E-14
 -1      1041 2.49588E-03-1.17773E-04-7.34575E-15
 -1      1042 1.31690E-02-1.21435E-04-1.26474E-13
 -1      1043 1.34183E-02-1.26961E-04-1.31556E-13
 -1      1044 2.58951E-03 2.28396E-04-7.39468E-15
 -1      1045 6.12700E-03 1.26144E-04-3.80426E-14
 -1      1046 5.85519E-03 1.31282E-04-3.48187E-14
 -1      1047 6.65854E-03 1.15529E-04-4.48458E-14
 -1      1048 6.91706E-03 1.10434E-04-4.84192E-14
 -1      1049 7.17001E-03 1.05736E-04-5.21018E-14
 -1      1050 7.41688E-03 1.01831E-04-5.58877E-14
 -1      1051 1.76654E-03 2.12446E-04-3.65437E-15
 -1      1052 1.65231E-03 4.20343E-06-3.48988E-15
 -1      1053 6.39497E-03 1.20832E-04-4.13861E-14
 -1      1054 1.29008E-02-1.24919E-04-1.21110E-13
 -1      1055 1.32388E-02 8.53048E-05-1.26876E-13
 -1      1056 5.02208E-03 1.44461E-04-2.59185E-14
 -1      1057 1.29886E-02-3.36243E-05-1.20745E-13
 -1      1058 5.58012E-03 1.36105E-04-3.17217E-14
 -1      1059 1.36392E-02 2.72737E-05-1.34638E-13
 -1      1060 7.53786E-03-1.00803E-06-5.97317E-14
 -1      1061 3.45627E-03 2.31847E-04-1.26553E-14
 -1      1062 2.20554E-03-1.14465E-04-5.88724E-15
 -1      1063 2.78629E-03-1.19633E-04-8.95632E-15
 -1      1064 5.30227E-03 1.40515E-04-2.87539E-14
 -1      1065 1.28979E-02 9.73957E-05-1.20174E-13
 -1      1066 1.30709E-02 5.44782E-06-1.22540E-13
 -1      1067 2.43858E-03 1.52868E-04-6.77243E-15
 -1      1068 3.88425E-03 1.55272E-04-1.59689E-14
 -1      1069 7.66170E-03-5.35064E-05-6.17947E-14
 -1      1070 2.14850E-03 1.48088E-04-5.38328E-15
 -1      1071 4.73990E-03 1.47915E-04-2.32205E-14
 -1      1072 7.32337E-03 3.39853E-05-5.55306E-14
 -1      1073 4.17078E-03 1.53340E-04-1.82454E-14
 -1      1074 2.72880E-03 1.55704E-04-8.31422E-15
 -1      1075 1.30684E-02 9.08541E-05-1.23516E-13
 -1      1076 1.34263E-02 5.31535E-06-1.30267E-13
 -1      1077 3.01873E-03 1.57052E-04-1.00074E-14
 -1      1078 1.90583E-03 1.19761E-04-4.37082E-15
 -1      1079 1.34289E-02-5.12911E-05-1.30636E-13
 -1      1080 3.21927E-03-4.54352E-05-1.15894E-14
 -1      1081 2.58007E-03 8.07515E-05-7.63080E-15
 -1      1082 6.51267E-03 6.10736E-05-4.33374E-14
 -1      1083 3.50849E-03-4.52222E-05-1.35629E-14
 -1      1084 3.79667E-03-4.47803E-05-1.56812E-14
 -1      1085 4.08364E-03-4.41521E-05-1.79435E-14
 -1      1086 4.36919E-03-4.33538E-05-2.03472E-14
 -1      1087 4.65313E-03-4.23987E-05-2.28888E-14
 -1      1088 4.93513E-03-4.13119E-05-2.55681E-14
 -1      1089 5.21490E-03-4.00745E-05-2.83843E-14
 -1      1090 5.49198E-03-3.87108E-05-3.13353E-14
 -1      1091 5.76585E-03-3.72400E-05-3.44160E-14
 -1      1092 6.03589E-03-3.56963E-05-3.76241E-14
 -1      1093 6.30131E-03-3.41280E-05-4.09508E-14
 -1      1094 6.56117E-03-3.25943E-05-4.43961E-14
 -1      1095 6.81426E-03-3.11574E-05-4.79529E-14
 -1      1096 7.05881E-03-2.97905E-05-5.16185E-14
 -1      1097 7.29268E-03-2.86449E-05-5.53911E-14
 -1      1098 1.33243E-02-7.09954E-05-1.28702E-13
 -1      1099 2.92924E-03-4.53605E-05-9.76324E-15
 -1      1100 2.08519E-03-4.56991E-06-5.28398E-15
 -1      1101 3.59664E-03 1.56619E-04-1.38361E-14
 -1      1102 5.98323E-03 6.71146E-05-3.66376E-14
 -1      1103 7.01761E-03 5.45808E-05-5.04936E-14
 -1      1104 6.76882E-03 5.78660E-05-4.68594E-14
 -1      1105 5.71177E-03 6.98578E-05-3.34685E-14
 -1      1106 4.45607E-03 1.50884E-04-2.06623E-14
 -1      1107 5.43677E-03 7.23624E-05-3.04280E-14
 -1      1108 1.30707E-02-7.31159E-05-1.23334E-13
 -1      1109 2.63867E-03-4.49084E-05-8.08519E-15
 -1      1110 1.99434E-03 5.85722E-05-4.82397E-15
 -1      1111 5.15880E-03 7.46054E-05-2.75190E-14
 -1      1112 6.25047E-03 6.41707E-05-3.99281E-14
 -1      1113 2.28951E-03 7.87150E-05-6.15232E-15
 -1      1114 7.51192E-03-2.75017E-05-5.92650E-14
 -1      1115 3.73834E-03 8.16995E-05-1.50369E-14
 -1      1116 2.34798E-03-4.39519E-05-6.55836E-15
 -1      1117 4.87835E-03 7.65801E-05-2.47430E-14
 -1      1118 1.33398E-02 4.40547E-05-1.28569E-13
 -1      1119 1.30816E-02 4.81477E-05-1.23176E-13
 -1      1120 1.32094E-02 4.62333E-05-1.25866E-13
 -1      1121 1.32033E-02-3.11169E-05-1.25615E-13
 -1      1122 3.30808E-03 1.57271E-04-1.18482E-14
 -1      1123 2.87060E-03 8.18736E-05-9.26043E-15
 -1      1124 4.02555E-03 8.08508E-05-1.72542E-14
 -1      1125 1.32982E-02 8.13989E-06-1.27554E-13
 -1      1126 3.65260E-03 2.94717E-05-1.44991E-14
 -1      1127 4.51124E-03 2.84709E-05-2.14669E-14
 -1      1128 3.07417E-03 2.95117E-05-1.05737E-14
 -1      1129 3.44999E-03 8.22076E-05-1.29653E-14
 -1      1130 3.36386E-03 2.95697E-05-1.24632E-14
 -1      1131 1.32146E-02 6.38601E-06-1.25744E-13
 -1      1132 4.26889E-03 5.43667E-05-1.93082E-14
 -1      1133 3.19067E-03 9.34322E-05-1.12123E-14
 -1      1134 0.00000E+00 0.00000E+00 0.00000E+00
 -1      1135 0.00000E+00 0.00000E+00 0.00000E+00
 -1      1136 0.00000E+00 0.00000E+00 0.00000E+00
 -1      1137 0.00000E+00 0.00000E+00 0.00000E+00
 -1      1138 0.00000E+00 0.00000E+00 0.00000E+00
 -1      1139 0.00000E+00 0.00000E+00 0.00000E+00
 -1      1140 0.00000E+00 0.00000E+00 0.00000E+00
 -1      1141 0.00000E+00 0.00000E+00 0.00000E+00
 -1      1142 0.00000E+00 0.00000E+00 0.00000E+00
 -1      1143 0.00000E+00 0.00000E+00 0.00000E+00
 -1      1144 0.00000E+00 0.00000E+00 0.00000E+00
 -1      1145 0.00000E+00 0.00000E+00 0.00000E+00
 -1      1146 0.00000E+00 0.00000E+00 0.00000E+00
 -1      1147 0.00000E+00 0.00000E+00 0.00000E+00
 -1      1148 0.00000E+00 0.00000E+00 0.00000E+00
 -1      1149 0.00000E+00 0.00000E+00 0.00000E+00
 -1      1150 0.00000E+00 0.00000E+00 0.00000E+00
 -1      1151 2.11622E-04-1.48330E-04 1.57074E-17
 -1      1152 5.51481E-04-3.37529E-04-7.65582E-17
 -1      1153 8.33167E-04-4.59018E-04-3.47582E-16
 -1      1154 1.10258E-03-5.40654E-04-8.25999E-16
 -1      1155 1.36781E-03-5.97801E-04-1.49910E-15
 -1      1156 1.63241E-03-6.38337E-04-2.36006E-15
 -1      1157 1.89823E-03-6.66893E-04-3.40368E-15
 -1      1158 2.16613E-03-6.86561E-04-4.62426E-15
 -1      1159 2.43640E-03-6.99593E-04-6.02034E-15
 -1      1160 2.70906E-03-7.07671E-04-7.58952E-15
 -1      1161 2.98398E-03-7.12051E-04-9.32492E-15
 -1      1162 3.26095E-03-7.13658E-04-1.12202E-14
 -1      1163 3.53979E-03-7.13156E-04-1.32698E-14
 -1      1164 3.82033E-03-7.11007E-04-1.54708E-14
 -1      1165 4.10247E-03-7.07517E-04-1.78215E-14
 -1      1166 4.38619E-03-7.02883E-04-2.03183E-14
 -1      1167 4.67161E-03-6.97235E-04-2.29546E-14
 -1      1168 4.95896E-03-6.90681E-04-2.57243E-14
 -1      1169 5.24862E-03-6.83355E-04-2.86290E-14
 -1      1170 5.54117E-03-6.75479E-04-3.16676E-14
 -1      1171 5.83736E-03-6.67437E-04-3.48319E-14
 -1      1172 6.13814E-03-6.59871E-04-3.81210E-14
 -1      1173 6.44466E-03-6.53805E-04-4.15335E-14
 -1      1174 6.75815E-03-6.50786E-04-4.50683E-14
 -1      1175 7.07985E-03-6.53051E-04-4.87246E-14
 -1      1176 7.41067E-03-6.63658E-04-5.24952E-14
 -1      1177 7.75083E-03-6.86511E-04-5.63691E-14
 -1      1178 8.09916E-03-7.26079E-04-6.03481E-14
 -1      1179 8.45239E-03-7.86537E-04-6.44391E-14
 -1      1180 8.80452E-03-8.70000E-04-6.86272E-14
 -1      1181 9.14695E-03-9.73807E-04-7.29089E-14
 -1      1182 9.47027E-03-1.08767E-03-7.72820E-14
 -1      1183 9.76801E-03-1.19287E-03-8.17370E-14
 -1      1184 1.00411E-02-1.26606E-03-8.62719E-14
 -1      1185 1.02999E-02-1.28801E-03-9.08883E-14
 -1      1186 1.05613E-02-1.25289E-03-9.55868E-14
 -1      1187 1.08405E-02-1.17129E-03-1.00364E-13
 -1      1188 1.11451E-02-1.06473E-03-1.05212E-13
 -1      1189 1.14735E-02-9.55818E-04-1.10119E-13
 -1      1190 1.18175E-02-8.60792E-04-1.15077E-13
 -1      1191 1.21676E-02-7.87235E-04-1.20098E-13
 -1      1192 1.25157E-02-7.35813E-04-1.25176E-13
 -1      1193 1.28564E-02-7.03211E-04-1.30305E-13
 -1      1194 1.31871E-02-6.84573E-04-1.35483E-13
 -1      1195 1.35069E-02-6.74936E-04-1.40694E-13
 -1      1196 1.38163E-02-6.69859E-04-1.45911E-13
 -1      1197 1.41165E-02-6.65588E-04-1.51138E-13
 -1      1198 1.44093E-02-6.59083E-04-1.56372E-13
 -1      1199 1.46970E-02-6.48233E-04-1.61604E-13
 -1      1200 1.49753E-02-6.33384E-04-1.66712E-13
 -1      1201 2.28380E-04 1.60708E-04 4.57533E-17
 -1      1202 5.53654E-04 3.42162E-04 2.79318E-17
 -1      1203 8.34096E-04 4.61185E-04-1.43142E-16
 -1      1204 1.10348E-03 5.42340E-04-4.88203E-16
 -1      1205 1.36871E-03 5.99482E-04-1.00703E-15
 -1      1206 1.63336E-03 6.40108E-04-1.69904E-15
 -1      1207 1.89924E-03 6.68769E-04-2.56304E-15
 -1      1208 2.16717E-03 6.88556E-04-3.59744E-15
 -1      1209 2.43747E-03 7.01715E-04-4.80109E-15
 -1      1210 2.71015E-03 7.09926E-04-6.16861E-15
 -1      1211 2.98508E-03 7.14442E-04-7.70038E-15
 -1      1212 3.26207E-03 7.16186E-04-9.39221E-15
 -1      1213 3.54092E-03 7.15824E-04-1.12418E-14
 -1      1214 3.82146E-03 7.13816E-04-1.32496E-14
 -1      1215 4.10360E-03 7.10470E-04-1.54116E-14
 -1      1216 4.38733E-03 7.05985E-04-1.77250E-14
 -1      1217 4.67276E-03 7.00492E-04-2.01861E-14
 -1      1218 4.96010E-03 6.94104E-04-2.27876E-14
 -1      1219 5.24975E-03 6.86959E-04-2.55252E-14
 -1      1220 5.54227E-03 6.79284E-04-2.84045E-14
 -1      1221 5.83841E-03 6.71472E-04-3.14230E-14
 -1      1222 6.13908E-03 6.64171E-04-3.45727E-14
 -1      1223 6.44539E-03 6.58407E-04-3.78486E-14
 -1      1224 6.75852E-03 6.55719E-04-4.12525E-14
 -1      1225 7.07962E-03 6.58315E-04-4.47803E-14
 -1      1226 7.40950E-03 6.69185E-04-4.84181E-14
 -1      1227 7.74824E-03 6.92093E-04-5.21650E-14
 -1      1228 8.09457E-03 7.31275E-04-5.60172E-14
 -1      1229 8.44514E-03 7.90563E-04-5.99661E-14
 -1      1230 8.79407E-03 8.71675E-04-6.40100E-14
 -1      1231 9.13308E-03 9.71662E-04-6.81502E-14
 -1      1232 9.45333E-03 1.08035E-03-7.23831E-14
 -1      1233 9.74891E-03 1.17977E-03-7.67033E-14
 -1      1234 1.00209E-02 1.24785E-03-8.11119E-14
 -1      1235 1.02795E-02 1.26653E-03-8.56195E-14
 -1      1236 1.05402E-02 1.23034E-03-9.02219E-14
 -1      1237 1.08180E-02 1.14917E-03-9.49009E-14
 -1      1238 1.11201E-02 1.04330E-03-9.96559E-14
 -1      1239 1.14451E-02 9.34233E-04-1.04468E-13
 -1      1240 1.17858E-02 8.37651E-04-1.09334E-13
 -1      1241 1.21329E-02 7.61154E-04-1.14248E-13
 -1      1242 1.24785E-02 7.05730E-04-1.19198E-13
 -1      1243 1.28175E-02 6.68448E-04-1.24198E-13
 -1      1244 1.31470E-02 6.44763E-04-1.29255E-13
 -1      1245 1.34660E-02 6.29918E-04-1.34336E-13
 -1      1246 1.37749E-02 6.19593E-04-1.39441E-13
 -1      1247 1.40748E-02 6.10099E-04-1.44576E-13
 -1      1248 1.43675E-02 5.98434E-04-1.49726E-13
 -1      1249 1.46551E-02 5.82515E-04-1.54885E-13
 -1      1250 1.49335E-02 5.62732E-04-1.59916E-13
 -1      1251 1.50798E-02 5.10025E-04-1.62585E-13
 -1      1252 1.51030E-02 4.25469E-04-1.63062E-13
 -1      1253 1.51304E-02 3.43104E-04-1.63539E-13
 -1      1254 1.51613E-02 2.65367E-04-1.64011E-13
 -1      1255 1.51932E-02 1.93723E-04-1.64485E-13
 -1      1256 1.52227E-02 1.29070E-04-1.64954E-13
 -1      1257 1.52471E-02 7.01775E-05-1.65397E-13
 -1      1258 1.52639E-02 1.51969E-05-1.65820E-13
 -1      1259 1.52714E-02-3.73840E-05-1.66238E-13
 -1      1260 1.52689E-02-8.99348E-05-1.66651E-13
 -1      1261 1.52570E-02-1.44834E-04-1.67033E-13
 -1      1262 1.52375E-02-2.03625E-04-1.67410E-13
 -1      1263 1.52128E-02-2.68187E-04-1.67768E-13
 -1      1264 1.51857E-02-3.39782E-04-1.68091E-13
 -1      1265 1.51596E-02-4.17546E-04-1.68406E-13
 -1      1266 1.51372E-02-4.99912E-04-1.68728E-13
 -1      1267 1.51190E-02-5.83747E-04-1.69054E-13
 -1      1268 1.24684E-02 5.94602E-05-9.88372E-14
 -1      1269 1.23556E-02 2.07764E-04-9.81922E-14
 -1      1270 1.21438E-02 3.58358E-04-9.71079E-14
 -1      1271 1.18312E-02 5.17333E-04-9.55243E-14
 -1      1272 1.14379E-02 6.69938E-04-9.35035E-14
 -1      1273 1.09829E-02 7.94440E-04-9.11396E-14
 -1      1274 1.05147E-02 8.64995E-04-8.87035E-14
 -1      1275 1.00652E-02 8.69702E-04-8.63890E-14
 -1      1276 9.62371E-03 8.17228E-04-8.41837E-14
 -1      1277 9.19230E-03 7.11967E-04-8.21335E-14
 -1      1278 8.79779E-03 5.73553E-04-8.03780E-14
 -1      1279 8.47253E-03 4.24022E-04-7.90371E-14
 -1      1280 8.22521E-03 2.73564E-04-7.81091E-14
 -1      1281 8.07247E-03 1.27198E-04-7.76250E-14
 -1      1282 8.02410E-03-1.79777E-05-7.75967E-14
 -1      1283 8.08963E-03-1.66296E-04-7.80220E-14
 -1      1284 8.27594E-03-3.26396E-04-7.89488E-14
 -1      1285 8.55311E-03-4.83887E-04-8.02801E-14
 -1      1286 8.87472E-03-6.24375E-04-8.18313E-14
 -1      1287 9.23038E-03-7.45891E-04-8.35922E-14
 -1      1288 9.61317E-03-8.39577E-04-8.55346E-14
 -1      1289 1.00112E-02-8.93528E-04-8.75851E-14
 -1      1290 1.04117E-02-8.99646E-04-8.96559E-14
 -1      1291 1.08222E-02-8.54890E-04-9.17500E-14
 -1      1292 1.12340E-02-7.63338E-04-9.37759E-14
 -1      1293 1.16151E-02-6.37856E-04-9.55531E-14
 -1      1294 1.19380E-02-4.99537E-04-9.69769E-14
 -1      1295 1.21953E-02-3.58720E-04-9.80426E-14
 -1      1296 1.23768E-02-2.19953E-04-9.87237E-14
 -1      1297 1.24716E-02-8.35270E-05-9.90023E-14
 -1      1298 1.66655E-04-1.10352E-04-1.29291E-17
 -1      1299 1.12515E-04-5.70035E-05-4.46149E-17
 -1      1300 1.17591E-04-6.76052E-05-3.57245E-17
 -1      1301 1.08410E-04-4.35293E-05-5.88315E-17
 -1      1302 1.10266E-04-4.96410E-05-5.46438E-17
 -1      1303 2.26282E-04-1.07681E-04-1.28749E-16
 -1      1304 1.06839E-04-3.36470E-05-6.62990E-17
 -1      1305 1.07682E-04-3.83706E-05-6.43338E-17
 -1      1306 2.19088E-04-8.25252E-05-1.53889E-16
 -1      1307 1.06070E-04-2.53895E-05-7.00666E-17
 -1      1308 1.06495E-04-2.94226E-05-6.92805E-17
 -1      1309 2.15865E-04-6.33430E-05-1.67469E-16
 -1      1310 1.05680E-04-1.81201E-05-7.15031E-17
 -1      1311 1.05905E-04-2.16920E-05-7.13270E-17
 -1      1312 2.14235E-04-4.72514E-05-1.74109E-16
 -1      1313 1.05465E-04-1.12582E-05-7.21537E-17
 -1      1314 1.05585E-04-1.46480E-05-7.22892E-17
 -1      1315 2.13340E-04-3.27992E-05-1.76955E-16
 -1      1316 1.05368E-04-4.69758E-06-7.18013E-17
 -1      1317 1.05420E-04-7.95568E-06-7.20452E-17
 -1      1318 2.12853E-04-1.92188E-05-1.77484E-16
 -1      1319 1.05358E-04 1.74566E-06-7.07713E-17
 -1      1320 1.05356E-04-1.47272E-06-7.12321E-17
 -1      1321 2.12645E-04-6.16992E-06-1.76074E-16
 -1      1322 1.05428E-04 8.23846E-06-6.89553E-17
 -1      1323 1.05373E-04 4.97383E-06-6.94160E-17
 -1      1324 2.12653E-04 6.71885E-06-1.72835E-16
 -1      1325 1.05600E-04 1.49559E-05-6.65565E-17
 -1      1326 1.05476E-04 1.15516E-05-6.73154E-17
 -1      1327 2.12878E-04 1.97939E-05-1.68160E-16
 -1      1328 1.05926E-04 2.19831E-05-6.27889E-17
 -1      1329 1.05695E-04 1.83884E-05-6.39544E-17
 -1      1330 2.13377E-04 3.33134E-05-1.61383E-16
 -1      1331 1.06540E-04 2.98556E-05-5.71917E-17
 -1      1332 1.06106E-04 2.57766E-05-5.91026E-17
 -1      1333 2.14301E-04 4.78550E-05-1.51341E-16
 -1      1334 1.07718E-04 3.89562E-05-4.86671E-17
 -1      1335 1.06873E-04 3.41625E-05-5.18655E-17
 -1      1336 2.15982E-04 6.42762E-05-1.36786E-16
 -1      1337 1.10245E-04 5.03792E-05-3.55618E-17
 -1      1338 1.08413E-04 4.41981E-05-4.11726E-17
 -1      1339 2.19183E-04 8.37746E-05-1.15413E-16
 -1      1340 1.16907E-04 6.76410E-05-1.45825E-17
 -1      1341 1.12161E-04 5.78027E-05-2.46927E-17
 -1      1342 2.26269E-04 1.09500E-04-8.38766E-17
 -1      1343 1.57538E-04 1.09865E-04 1.77945E-17
 -1      1344 1.35623E-04 8.61073E-05-2.12775E-18
 -1      1345 2.55966E-04 1.52131E-04-4.58482E-17
 -1      1346 3.34991E-04 2.20755E-04 8.03665E-18
 -1      1347 4.21416E-04-2.61764E-04-9.34718E-17
 -1      1348 5.74456E-04-3.36830E-04-1.85710E-16
 -1      1349 7.21583E-04-3.97431E-04-3.32633E-16
 -1      1350 8.64685E-04-4.46717E-04-5.29213E-16
 -1      1351 6.11879E-04-3.30940E-04-3.10122E-16
 -1      1352 1.00464E-03-4.87768E-04-7.73117E-16
 -1      1353 1.14241E-03-5.21722E-04-1.06580E-15
 -1      1354 9.04998E-04-4.31620E-04-7.15235E-16
 -1      1355 1.27882E-03-5.50446E-04-1.40542E-15
 -1      1356 1.41438E-03-5.74416E-04-1.79223E-15
 -1      1357 1.18730E-03-5.00973E-04-1.30898E-15
 -1      1358 1.54953E-03-5.94695E-04-2.22481E-15
 -1      1359 1.68453E-03-6.11615E-04-2.70302E-15
 -1      1360 1.46409E-03-5.49613E-04-2.08794E-15
 -1      1361 1.81962E-03-6.25801E-04-3.22600E-15
 -1      1362 1.95490E-03-6.37542E-04-3.79327E-15
 -1      1363 1.73862E-03-5.83705E-04-3.04767E-15
 -1      1364 2.09051E-03-6.47237E-04-4.40398E-15
 -1      1365 2.22648E-03-6.55130E-04-5.05860E-15
 -1      1366 2.01277E-03-6.07203E-04-4.18396E-15
 -1      1367 2.36288E-03-6.61492E-04-5.75696E-15
 -1      1368 2.49972E-03-6.66522E-04-6.49743E-15
 -1      1369 2.28752E-03-6.22890E-04-5.49388E-15
 -1      1370 2.63701E-03-6.70408E-04-7.28046E-15
 -1      1371 2.77475E-03-6.73310E-04-8.10564E-15
 -1      1372 2.56339E-03-6.32795E-04-6.97398E-15
 -1      1373 2.91294E-03-6.75358E-04-8.97095E-15
 -1      1374 3.05156E-03-6.76676E-04-9.87685E-15
 -1      1375 2.84056E-03-6.38423E-04-8.61990E-15
 -1      1376 3.19060E-03-6.77350E-04-1.08222E-14
 -1      1377 3.33006E-03-6.77476E-04-1.18062E-14
 -1      1378 3.11912E-03-6.40876E-04-1.04274E-14
 -1      1379 3.46991E-03-6.77108E-04-1.28288E-14
 -1      1380 3.61014E-03-6.76317E-04-1.38893E-14
 -1      1381 3.39905E-03-6.40948E-04-1.23909E-14
 -1      1382 3.75075E-03-6.75134E-04-1.49875E-14
 -1      1383 3.89172E-03-6.73612E-04-1.61228E-14
 -1      1384 3.68031E-03-6.39190E-04-1.45071E-14
 -1      1385 4.03306E-03-6.71762E-04-1.72949E-14
 -1      1386 4.17477E-03-6.69626E-04-1.85046E-14
 -1      1387 3.96287E-03-6.35969E-04-1.67726E-14
 -1      1388 4.31685E-03-6.67201E-04-1.97503E-14
 -1      1389 4.45933E-03-6.64523E-04-2.10305E-14
 -1      1390 4.24675E-03-6.31513E-04-1.91849E-14
 -1      1391 4.60221E-03-6.61581E-04-2.23451E-14
 -1      1392 4.74554E-03-6.58408E-04-2.36943E-14
 -1      1393 4.53204E-03-6.25956E-04-2.17402E-14
 -1      1394 4.88935E-03-6.54993E-04-2.50771E-14
 -1      1395 5.03367E-03-6.51373E-04-2.64920E-14
 -1      1396 4.81890E-03-6.19381E-04-2.44318E-14
 -1      1397 5.17857E-03-6.47540E-04-2.79417E-14
 -1      1398 5.32411E-03-6.43547E-04-2.94244E-14
 -1      1399 5.10760E-03-6.11869E-04-2.72580E-14
 -1      1400 5.47037E-03-6.39396E-04-3.09393E-14
 -1      1401 5.61742E-03-6.35163E-04-3.24871E-14
 -1      1402 5.39853E-03-6.03551E-04-3.02161E-14
 -1      1403 5.76536E-03-6.30872E-04-3.40662E-14
 -1      1404 5.91428E-03-6.26636E-04-3.56756E-14
 -1      1405 5.69219E-03-5.94678E-04-3.33032E-14
 -1      1406 6.06432E-03-6.22514E-04-3.73172E-14
 -1      1407 6.21557E-03-6.18669E-04-3.89896E-14
 -1      1408 5.98921E-03-5.85707E-04-3.65172E-14
 -1      1409 6.36818E-03-6.15217E-04-4.06939E-14
 -1      1410 6.52226E-03-6.12383E-04-4.24280E-14
 -1      1411 6.29036E-03-5.77417E-04-3.98573E-14
 -1      1412 6.67796E-03-6.10371E-04-4.41929E-14
 -1      1413 6.83537E-03-6.09479E-04-4.59872E-14
 -1      1414 6.59646E-03-5.71045E-04-4.33204E-14
 -1      1415 6.99463E-03-6.10032E-04-4.78103E-14
 -1      1416 7.15582E-03-6.12408E-04-4.96644E-14
 -1      1417 6.90834E-03-5.68464E-04-4.69026E-14
 -1      1418 7.31899E-03-6.17082E-04-5.15453E-14
 -1      1419 7.48416E-03-6.24507E-04-5.34531E-14
 -1      1420 7.22671E-03-5.72360E-04-5.05998E-14
 -1      1421 7.65128E-03-6.35314E-04-5.53873E-14
 -1      1422 7.82021E-03-6.49991E-04-5.73454E-14
 -1      1423 7.55196E-03-5.86355E-04-5.44079E-14
 -1      1424 7.99076E-03-6.69274E-04-5.93317E-14
 -1      1425 8.16259E-03-6.93585E-04-6.13474E-14
 -1      1426 7.88385E-03-6.14956E-04-5.83211E-14
 -1      1427 8.33525E-03-7.23601E-04-6.33868E-14
 -1      1428 8.50816E-03-7.59475E-04-6.54529E-14
 -1      1429 8.22117E-03-6.63067E-04-6.23403E-14
 -1      1430 8.68063E-03-8.01493E-04-6.75428E-14
 -1      1431 8.85183E-03-8.49241E-04-6.96546E-14
 -1      1432 8.56137E-03-7.34718E-04-6.64627E-14
 -1      1433 9.02092E-03-9.02129E-04-7.17915E-14
 -1      1434 9.18698E-03-9.58825E-04-7.39534E-14
 -1      1435 8.90039E-03-8.30695E-04-7.06819E-14
 -1      1436 9.34924E-03-1.01745E-03-7.61366E-14
 -1      1437 9.50707E-03-1.07564E-03-7.83383E-14
 -1      1438 9.23304E-03-9.45245E-04-7.49934E-14
 -1      1439 9.66015E-03-1.13030E-03-8.05618E-14
 -1      1440 9.80857E-03-1.17843E-03-8.28057E-14
 -1      1441 9.55426E-03-1.06331E-03-7.93921E-14
 -1      1442 9.95278E-03-1.21670E-03-8.50718E-14
 -1      1443 1.00938E-02-1.24260E-03-8.73568E-14
 -1      1444 9.86162E-03-1.16133E-03-8.38744E-14
 -1      1445 1.02329E-02-1.25409E-03-8.96619E-14
 -1      1446 1.03717E-02-1.25040E-03-9.19875E-14
 -1      1447 1.01577E-02-1.21418E-03-8.84394E-14
 -1      1448 1.05117E-02-1.23194E-03-9.43328E-14
 -1      1449 1.06543E-02-1.20008E-03-9.66985E-14
 -1      1450 1.04503E-02-1.20664E-03-9.30825E-14
 -1      1451 1.08006E-02-1.15744E-03-9.90845E-14
 -1      1452 1.09514E-02-1.10677E-03-1.01488E-13
 -1      1453 1.07487E-02-1.14163E-03-9.78078E-14
 -1      1454 1.11069E-02-1.05151E-03-1.03908E-13
 -1      1455 1.12668E-02-9.94539E-04-1.06347E-13
 -1      1456 1.10595E-02-1.03856E-03-1.02608E-13
 -1      1457 1.14307E-02-9.38628E-04-1.08797E-13
 -1      1458 1.15977E-02-8.85833E-04-1.11257E-13
 -1      1459 1.13834E-02-9.23107E-04-1.07475E-13
 -1      1460 1.17671E-02-8.37611E-04-1.13738E-13
 -1      1461 1.19379E-02-7.94956E-04-1.16233E-13
 -1      1462 1.17169E-02-8.16638E-04-1.12401E-13
 -1      1463 1.21092E-02-7.58126E-04-1.18739E-13
 -1      1464 1.22804E-02-7.27290E-04-1.21261E-13
 -1      1465 1.20545E-02-7.31123E-04-1.17382E-13
 -1      1466 1.24507E-02-7.01972E-04-1.23797E-13
 -1      1467 1.26197E-02-6.81863E-04-1.26346E-13
 -1      1468 1.23912E-02-6.69792E-04-1.22422E-13
 -1      1469 1.27869E-02-6.66198E-04-1.28909E-13
 -1      1470 1.29521E-02-6.54458E-04-1.31481E-13
 -1      1471 1.27233E-02-6.30287E-04-1.27514E-13
 -1      1472 1.31150E-02-6.45866E-04-1.34067E-13
 -1      1473 1.32757E-02-6.39858E-04-1.36660E-13
 -1      1474 1.30486E-02-6.07725E-04-1.32654E-13
 -1      1475 1.34341E-02-6.35762E-04-1.39258E-13
 -1      1476 1.35902E-02-6.33047E-04-1.41864E-13
 -1      1477 1.33661E-02-5.96699E-04-1.37831E-13
 -1      1478 1.37442E-02-6.31168E-04-1.44473E-13
 -1      1479 1.38961E-02-6.29660E-04-1.47080E-13
 -1      1480 1.36758E-02-5.92231E-04-1.43033E-13
 -1      1481 1.40461E-02-6.28089E-04-1.49692E-13
 -1      1482 1.41944E-02-6.26061E-04-1.52307E-13
 -1      1483 1.39784E-02-5.90082E-04-1.48250E-13
 -1      1484 1.43413E-02-6.23253E-04-1.54925E-13
 -1      1485 1.44868E-02-6.19356E-04-1.57539E-13
 -1      1486 1.42748E-02-5.86763E-04-1.53476E-13
 -1      1487 1.46313E-02-6.14210E-04-1.60153E-13
 -1      1488 1.47750E-02-6.07672E-04-1.62771E-13
 -1      1489 1.45662E-02-5.79571E-04-1.58705E-13
 -1      1490 1.49833E-02-5.91992E-04-1.66557E-13
 -1      1491 1.49194E-02-5.59176E-04-1.65105E-13
 -1      1492 6.42871E-04 3.72042E-04-8.91756E-17
 -1      1493 4.92804E-04 3.03717E-04-1.90549E-17
 -1      1494 4.44747E-04 2.65932E-04-5.90213E-17
 -1      1495 9.28323E-04 4.71985E-04-3.57299E-16
 -1      1496 7.87529E-04 4.26510E-04-2.01946E-16
 -1      1497 7.44497E-04 3.90754E-04-2.51725E-16
 -1      1498 1.20306E-03 5.41338E-04-7.95574E-16
 -1      1499 1.06647E-03 5.09699E-04-5.54827E-16
 -1      1500 1.03042E-03 4.76156E-04-6.12520E-16
 -1      1501 1.47343E-03 5.90404E-04-1.40491E-15
 -1      1502 1.33847E-03 5.68020E-04-1.07867E-15
 -1      1503 1.30819E-03 5.35888E-04-1.14207E-15
 -1      1504 1.74276E-03 6.25089E-04-2.18627E-15
 -1      1505 1.60805E-03 6.09305E-04-1.77413E-15
 -1      1506 1.58225E-03 5.78013E-04-1.84130E-15
 -1      1507 2.01275E-03 6.49235E-04-3.13755E-15
 -1      1508 1.87759E-03 6.38309E-04-2.64067E-15
 -1      1509 1.85525E-03 6.07487E-04-2.71048E-15
 -1      1510 2.28420E-03 6.65558E-04-4.25795E-15
 -1      1511 2.14825E-03 6.58245E-04-3.67706E-15
 -1      1512 2.12858E-03 6.27665E-04-3.74870E-15
 -1      1513 2.55746E-03 6.76061E-04-5.54401E-15
 -1      1514 2.42059E-03 6.71439E-04-4.88020E-15
 -1      1515 2.40296E-03 6.40960E-04-4.95299E-15
 -1      1516 2.83260E-03 6.82237E-04-6.99312E-15
 -1      1517 2.69479E-03 6.79616E-04-6.24853E-15
 -1      1518 2.67873E-03 6.49155E-04-6.32048E-15
 -1      1519 3.10956E-03 6.85189E-04-8.60477E-15
 -1      1520 2.97086E-03 6.84061E-04-7.77906E-15
 -1      1521 2.95599E-03 6.53568E-04-7.85060E-15
 -1      1522 3.38823E-03 6.85717E-04-1.03726E-14
 -1      1523 3.24869E-03 6.85716E-04-9.46854E-15
 -1      1524 3.23473E-03 6.55163E-04-9.53884E-15
 -1      1525 3.66851E-03 6.84384E-04-1.22980E-14
 -1      1526 3.52818E-03 6.85255E-04-1.13158E-14
 -1      1527 3.51492E-03 6.54625E-04-1.13832E-14
 -1      1528 3.95029E-03 6.81571E-04-1.43801E-14
 -1      1529 3.80922E-03 6.83143E-04-1.33199E-14
 -1      1530 3.79648E-03 6.52427E-04-1.33838E-14
 -1      1531 4.23357E-03 6.77522E-04-1.66136E-14
 -1      1532 4.09175E-03 6.79686E-04-1.54776E-14
 -1      1533 4.07940E-03 6.48876E-04-1.55372E-14
 -1      1534 4.51839E-03 6.72388E-04-1.89958E-14
 -1      1535 4.37578E-03 6.75078E-04-1.77863E-14
 -1      1536 4.36372E-03 6.44159E-04-1.78421E-14
 -1      1537 4.80493E-03 6.66274E-04-2.15246E-14
 -1      1538 4.66143E-03 6.69440E-04-2.02425E-14
 -1      1539 4.64954E-03 6.38392E-04-2.02938E-14
 -1      1540 5.09346E-03 6.59282E-04-2.41909E-14
 -1      1541 4.94893E-03 6.62869E-04-2.28408E-14
 -1      1542 4.93708E-03 6.31658E-04-2.28882E-14
 -1      1543 5.38442E-03 6.51565E-04-2.69949E-14
 -1      1544 5.23861E-03 6.55486E-04-2.55754E-14
 -1      1545 5.22666E-03 6.24063E-04-2.56201E-14
 -1      1546 5.67839E-03 6.43397E-04-2.99399E-14
 -1      1547 5.53099E-03 6.47495E-04-2.84500E-14
 -1      1548 5.51872E-03 6.15788E-04-2.84903E-14
 -1      1549 5.97610E-03 6.35253E-04-3.30195E-14
 -1      1550 5.82673E-03 6.39259E-04-3.14623E-14
 -1      1551 5.81384E-03 6.07172E-04-3.14974E-14
 -1      1552 6.27843E-03 6.27921E-04-3.62284E-14
 -1      1553 6.12663E-03 6.31395E-04-3.46080E-14
 -1      1554 6.11272E-03 5.98802E-04-3.46381E-14
 -1      1555 6.58638E-03 6.22629E-04-3.95626E-14
 -1      1556 6.43164E-03 6.24894E-04-3.78807E-14
 -1      1557 6.41617E-03 5.91636E-04-3.79064E-14
 -1      1558 6.90091E-03 6.21204E-04-4.30247E-14
 -1      1559 6.74276E-03 6.21268E-04-4.12784E-14
 -1      1560 6.72504E-03 5.87154E-04-4.12995E-14
 -1      1561 7.22286E-03 6.26221E-04-4.66023E-14
 -1      1562 7.06091E-03 6.22701E-04-4.47993E-14
 -1      1563 7.04012E-03 5.87516E-04-4.48130E-14
 -1      1564 7.55258E-03 6.41097E-04-5.02872E-14
 -1      1565 7.38673E-03 6.32193E-04-4.84309E-14
 -1      1566 7.36196E-03 5.95717E-04-4.84392E-14
 -1      1567 7.88958E-03 6.69995E-04-5.40824E-14
 -1      1568 7.72022E-03 6.53566E-04-5.21716E-14
 -1      1569 7.69061E-03 6.15617E-04-5.21750E-14
 -1      1570 8.23200E-03 7.17318E-04-5.79765E-14
 -1      1571 8.06027E-03 6.91202E-04-5.60172E-14
 -1      1572 8.02526E-03 6.51712E-04-5.60137E-14
 -1      1573 8.57616E-03 7.86484E-04-6.19693E-14
 -1      1574 8.40416E-03 7.49212E-04-5.99616E-14
 -1      1575 8.36389E-03 7.08344E-04-5.99517E-14
 -1      1576 8.91648E-03 8.77740E-04-6.60547E-14
 -1      1577 8.74723E-03 8.29733E-04-6.39995E-14
 -1      1578 8.70297E-03 7.88031E-04-6.39852E-14
 -1      1579 9.24617E-03 9.85280E-04-7.02355E-14
 -1      1580 9.08313E-03 9.30316E-04-6.81334E-14
 -1      1581 9.03757E-03 8.88819E-04-6.81140E-14
 -1      1582 9.55923E-03 1.09503E-03-7.45066E-14
 -1      1583 9.40510E-03 1.04114E-03-7.23600E-14
 -1      1584 9.36228E-03 1.00130E-03-7.23344E-14
 -1      1585 9.85342E-03 1.18564E-03-7.88675E-14
 -1      1586 9.70863E-03 1.14411E-03-7.66759E-14
 -1      1587 9.67309E-03 1.10737E-03-7.66441E-14
 -1      1588 1.01327E-02 1.23461E-03-8.33205E-14
 -1      1589 9.99439E-03 1.21627E-03-8.10813E-14
 -1      1590 9.96993E-03 1.18336E-03-8.10457E-14
 -1      1591 1.04069E-02 1.22798E-03-8.78717E-14
 -1      1592 1.02696E-02 1.23827E-03-8.55844E-14
 -1      1593 1.02581E-02 1.20863E-03-8.55446E-14
 -1      1594 1.06882E-02 1.16750E-03-9.25086E-14
 -1      1595 1.05459E-02 1.20353E-03-9.01801E-14
 -1      1596 1.05466E-02 1.17553E-03-9.01356E-14
 -1      1597 1.09854E-02 1.06965E-03-9.72228E-14
 -1      1598 1.08344E-02 1.12178E-03-9.48565E-14
 -1      1599 1.08444E-02 1.09357E-03-9.48090E-14
 -1      1600 1.13009E-02 9.57420E-04-1.02002E-13
 -1      1601 1.11409E-02 1.01397E-03-9.96065E-14
 -1      1602 1.11560E-02 9.84269E-04-9.95545E-14
 -1      1603 1.16316E-02 8.50946E-04-1.06839E-13
 -1      1604 1.14647E-02 9.02594E-04-1.04414E-13
 -1      1605 1.14807E-02 8.71015E-04-1.04357E-13
 -1      1606 1.19707E-02 7.62377E-04-1.11725E-13
 -1      1607 1.18005E-02 8.04093E-04-1.09276E-13
 -1      1608 1.18142E-02 7.70900E-04-1.09215E-13
 -1      1609 1.23116E-02 6.95828E-04-1.16657E-13
 -1      1610 1.21413E-02 7.26407E-04-1.14186E-13
 -1      1611 1.21508E-02 6.92172E-04-1.14124E-13
 -1      1612 1.26488E-02 6.49884E-04-1.21634E-13
 -1      1613 1.24810E-02 6.70538E-04-1.19139E-13
 -1      1614 1.24857E-02 6.35864E-04-1.19077E-13
 -1      1615 1.29790E-02 6.20386E-04-1.26655E-13
 -1      1616 1.28150E-02 6.33400E-04-1.24137E-13
 -1      1617 1.28154E-02 5.98787E-04-1.24076E-13
 -1      1618 1.33005E-02 6.02381E-04-1.31727E-13
 -1      1619 1.31409E-02 6.10257E-04-1.29188E-13
 -1      1620 1.31380E-02 5.76063E-04-1.29122E-13
 -1      1621 1.36130E-02 5.91144E-04-1.36816E-13
 -1      1622 1.34579E-02 5.96186E-04-1.34270E-13
 -1      1623 1.34526E-02 5.62637E-04-1.34200E-13
 -1      1624 1.39170E-02 5.82561E-04-1.41938E-13
 -1      1625 1.37660E-02 5.86742E-04-1.39373E-13
 -1      1626 1.37596E-02 5.53958E-04-1.39304E-13
 -1      1627 1.42138E-02 5.73197E-04-1.47079E-13
 -1      1628 1.40662E-02 5.78147E-04-1.44504E-13
 -1      1629 1.40596E-02 5.46169E-04-1.44433E-13
 -1      1630 1.45049E-02 5.60361E-04-1.52233E-13
 -1      1631 1.43599E-02 5.67325E-04-1.49656E-13
 -1      1632 1.43537E-02 5.36128E-04-1.49583E-13
 -1      1633 1.47923E-02 5.42526E-04-1.57393E-13
 -1      1634 1.46489E-02 5.52067E-04-1.54813E-13
 -1      1635 1.46434E-02 5.21542E-04-1.54744E-13
 -1      1636 1.49440E-02 5.20622E-04-1.60140E-13
 -1      1637 1.49858E-02 4.15455E-04-1.60940E-13
 -1      1638 1.49731E-02 4.56791E-04-1.60705E-13
 -1      1639 1.50148E-02 3.35175E-04-1.61407E-13
 -1      1640 1.49998E-02 3.74843E-04-1.61175E-13
 -1      1641 1.48692E-02 4.04811E-04-1.58813E-13
 -1      1642 1.50470E-02 2.59284E-04-1.61874E-13
 -1      1643 1.50307E-02 2.96610E-04-1.61640E-13
 -1      1644 1.48998E-02 3.25840E-04-1.59274E-13
 -1      1645 1.50795E-02 1.88613E-04-1.62339E-13
 -1      1646 1.50634E-02 2.23273E-04-1.62109E-13
 -1      1647 1.49331E-02 2.51048E-04-1.59735E-13
 -1      1648 1.51085E-02 1.24288E-04-1.62796E-13
 -1      1649 1.50945E-02 1.55837E-04-1.62569E-13
 -1      1650 1.49656E-02 1.81420E-04-1.60192E-13
 -1      1651 1.51320E-02 6.34108E-05-1.63232E-13
 -1      1652 1.51212E-02 9.33413E-05-1.63016E-13
 -1      1653 1.49942E-02 1.16138E-04-1.60636E-13
 -1      1654 1.51470E-02 5.81159E-06-1.63652E-13
 -1      1655 1.51407E-02 3.43006E-05-1.63442E-13
 -1      1656 1.50163E-02 5.39594E-05-1.61066E-13
 -1      1657 1.51521E-02-5.02819E-05-1.64066E-13
 -1      1658 1.51508E-02-2.23054E-05-1.63860E-13
 -1      1659 1.50292E-02-5.77903E-06-1.61484E-13
 -1      1660 1.51469E-02-1.06851E-04-1.64469E-13
 -1      1661 1.51507E-02-7.83863E-05-1.64270E-13
 -1      1662 1.50317E-02-6.46485E-05-1.61895E-13
 -1      1663 1.51323E-02-1.65817E-04-1.64849E-13
 -1      1664 1.51407E-02-1.35927E-04-1.64660E-13
 -1      1665 1.50238E-02-1.24342E-04-1.62288E-13
 -1      1666 1.51108E-02-2.27671E-04-1.65218E-13
 -1      1667 1.51223E-02-1.96187E-04-1.65035E-13
 -1      1668 1.50068E-02-1.85904E-04-1.62664E-13
 -1      1669 1.50842E-02-2.95585E-04-1.65569E-13
 -1      1670 1.50979E-02-2.60961E-04-1.65397E-13
 -1      1671 1.49830E-02-2.51063E-04-1.63027E-13
 -1      1672 1.50563E-02-3.68879E-04-1.65896E-13
 -1      1673 1.50702E-02-3.31568E-04-1.65737E-13
 -1      1674 1.49551E-02-3.21194E-04-1.63375E-13
 -1      1675 1.50302E-02-4.47096E-04-1.66218E-13
 -1      1676 1.50428E-02-4.07436E-04-1.66057E-13
 -1      1677 1.49266E-02-3.95943E-04-1.63706E-13
 -1      1678 1.49687E-02-5.23379E-04-1.65741E-13
 -1      1679 1.49792E-02-4.82235E-04-1.65578E-13
 -1      1680 1.48615E-02-4.69144E-04-1.63230E-13
 -1      1681 1.47601E-02-5.38684E-04-1.61956E-13
 -1      1682 1.24621E-02 5.67669E-05-9.96959E-14
 -1      1683 1.24954E-02 1.13183E-05-9.99045E-14
 -1      1684 1.22966E-02 1.67867E-04-9.88808E-14
 -1      1685 1.23876E-02 1.14337E-04-9.93151E-14
 -1      1686 1.20276E-02 3.12130E-04-9.75271E-14
 -1      1687 1.21643E-02 2.43725E-04-9.81783E-14
 -1      1688 1.16480E-02 4.83326E-04-9.57481E-14
 -1      1689 1.18315E-02 3.95435E-04-9.66848E-14
 -1      1690 1.12445E-02 6.76389E-04-9.34097E-14
 -1      1691 1.14363E-02 5.92496E-04-9.44781E-14
 -1      1692 1.07906E-02 8.39020E-04-9.07792E-14
 -1      1693 1.09985E-02 7.67966E-04-9.20641E-14
 -1      1694 1.03927E-02 9.15648E-04-8.81883E-14
 -1      1695 1.05700E-02 8.91607E-04-8.93221E-14
 -1      1696 1.00001E-02 9.05899E-04-8.56537E-14
 -1      1697 1.01813E-02 9.23772E-04-8.68183E-14
 -1      1698 9.60606E-03 8.09177E-04-8.33645E-14
 -1      1699 9.78339E-03 8.60852E-04-8.43890E-14
 -1      1700 9.20081E-03 6.45832E-04-8.11154E-14
 -1      1701 9.39561E-03 7.28859E-04-8.21089E-14
 -1      1702 8.80244E-03 4.73302E-04-7.94176E-14
 -1      1703 8.97397E-03 5.53516E-04-8.01642E-14
 -1      1704 8.46513E-03 2.98778E-04-7.79740E-14
 -1      1705 8.61886E-03 3.73238E-04-7.85452E-14
 -1      1706 8.19736E-03 1.71662E-04-7.71918E-14
 -1      1707 8.30548E-03 2.29877E-04-7.75370E-14
 -1      1708 8.04053E-03 5.92203E-05-7.67259E-14
 -1      1709 8.09913E-03 1.06663E-04-7.68561E-14
 -1      1710 8.01262E-03-3.59581E-05-7.67997E-14
 -1      1711 8.00840E-03 6.67439E-06-7.67052E-14
 -1      1712 8.12568E-03-1.38097E-04-7.73220E-14
 -1      1713 8.05549E-03-8.85571E-05-7.69940E-14
 -1      1714 8.38361E-03-2.71860E-04-7.84107E-14
 -1      1715 8.24851E-03-2.03839E-04-7.78188E-14
 -1      1716 8.70165E-03-4.43774E-04-8.00353E-14
 -1      1717 8.54860E-03-3.69671E-04-7.93278E-14
 -1      1718 9.05158E-03-6.07845E-04-8.17599E-14
 -1      1719 8.88781E-03-5.31651E-04-8.09346E-14
 -1      1720 9.40921E-03-7.60646E-04-8.36969E-14
 -1      1721 9.24419E-03-6.92434E-04-8.27804E-14
 -1      1722 9.77003E-03-8.81001E-04-8.58327E-14
 -1      1723 9.60315E-03-8.30608E-04-8.48249E-14
 -1      1724 1.01228E-02-9.43243E-04-8.80534E-14
 -1      1725 9.96166E-03-9.22605E-04-8.70271E-14
 -1      1726 1.04725E-02-9.35290E-04-9.02927E-14
 -1      1727 1.03111E-02-9.48055E-04-8.92612E-14
 -1      1728 1.08345E-02-8.55077E-04-9.26069E-14
 -1      1729 1.06636E-02-9.02999E-04-9.15575E-14
 -1      1730 1.12299E-02-7.13281E-04-9.47202E-14
 -1      1731 1.10506E-02-7.84615E-04-9.37517E-14
 -1      1732 1.15998E-02-5.42662E-04-9.66211E-14
 -1      1733 1.14295E-02-6.21839E-04-9.58114E-14
 -1      1734 1.19377E-02-3.87305E-04-9.80306E-14
 -1      1735 1.17909E-02-4.58194E-04-9.74135E-14
 -1      1736 1.22145E-02-2.48921E-04-9.91019E-14
 -1      1737 1.20944E-02-3.10217E-04-9.86569E-14
 -1      1738 1.24063E-02-1.36356E-04-9.97424E-14
 -1      1739 1.23298E-02-1.84895E-04-9.95038E-14
 -1      1740 1.24966E-02-3.94138E-05-1.00006E-13
 -1      1741 1.24686E-02-8.12055E-05-9.99703E-14
 -1      1742 1.14840E-02 4.98480E-04-9.56877E-14
 -1      1743 1.18820E-02 3.02125E-04-9.78046E-14
 -1      1744 1.49391E-02 4.90456E-04-1.60073E-13
 -1      1745 1.48210E-02 4.78790E-04-1.57952E-13
 -1      1746 1.24272E-02 5.41272E-05-1.00443E-13
 -1      1747 1.22120E-02 1.54766E-04-9.93535E-14
 -1      1748 1.25058E-02-1.41219E-05-1.00928E-13
 -1      1749 1.10544E-02 7.13683E-04-9.30680E-14
 -1      1750 1.06512E-02 8.79308E-04-9.02620E-14
 -1      1751 1.02788E-02 9.46472E-04-8.74343E-14
 -1      1752 9.92866E-03 9.03281E-04-8.48050E-14
 -1      1753 9.55127E-03 7.64773E-04-8.22937E-14
 -1      1754 9.15611E-03 5.71812E-04-8.01026E-14
 -1      1755 8.75988E-03 3.72286E-04-7.82921E-14
 -1      1756 8.41603E-03 2.11565E-04-7.69962E-14
 -1      1757 8.15285E-03 9.79090E-05-7.62308E-14
 -1      1758 8.01616E-03 1.92313E-05-7.58749E-14
 -1      1759 8.02707E-03-4.48904E-05-7.60432E-14
 -1      1760 8.19784E-03-1.26234E-04-7.67256E-14
 -1      1761 8.49561E-03-2.61495E-04-7.81273E-14
 -1      1762 8.84818E-03-4.41045E-04-7.99341E-14
 -1      1763 9.21032E-03-6.23455E-04-8.18432E-14
 -1      1764 9.56326E-03-7.93552E-04-8.39826E-14
 -1      1765 9.89974E-03-9.19146E-04-8.62979E-14
 -1      1766 1.02209E-02-9.71752E-04-8.86956E-14
 -1      1767 1.05436E-02-9.39636E-04-9.11665E-14
 -1      1768 1.08868E-02-8.20975E-04-9.35790E-14
 -1      1769 1.12661E-02-6.43781E-04-9.58205E-14
 -1      1770 1.16365E-02-4.55847E-04-9.77126E-14
 -1      1771 1.19796E-02-2.94731E-04-9.91363E-14
 -1      1772 1.22564E-02-1.69411E-04-1.00168E-13
 -1      1773 1.24406E-02-7.93594E-05-1.00800E-13
 -1      1774 2.85157E-04-1.76258E-04-8.20199E-17
 -1      1775 3.32168E-04-1.16851E-04-2.43254E-16
 -1      1776 3.36285E-04-1.33093E-04-2.29959E-16
 -1      1777 3.42144E-04-1.52077E-04-2.13303E-16
 -1      1778 3.51677E-04-1.74070E-04-1.89505E-16
 -1      1779 4.58260E-04-1.88155E-04-3.33704E-16
 -1      1780 3.24618E-04-6.54419E-05-2.67554E-16
 -1      1781 3.25740E-04-7.67477E-05-2.64450E-16
 -1      1782 3.23149E-04-4.39339E-05-2.70752E-16
 -1      1783 3.23791E-04-5.44320E-05-2.69438E-16
 -1      1784 4.36593E-04-7.93473E-05-3.96086E-16
 -1      1785 3.22382E-04-2.37973E-05-2.70481E-16
 -1      1786 3.22706E-04-3.37205E-05-2.71051E-16
 -1      1787 4.34625E-04-5.13607E-05-3.99041E-16
 -1      1788 3.22097E-04-4.34204E-06-2.67595E-16
 -1      1789 3.22191E-04-1.40050E-05-2.69356E-16
 -1      1790 4.33626E-04-2.49464E-05-3.97658E-16
 -1      1791 3.22216E-04 1.49974E-05-2.62282E-16
 -1      1792 3.22105E-04 5.32429E-06-2.65372E-16
 -1      1793 4.33336E-04 7.57947E-07-3.92752E-16
 -1      1794 3.22768E-04 3.47668E-05-2.54638E-16
 -1      1795 3.22425E-04 2.48110E-05-2.58894E-16
 -1      1796 4.33684E-04 2.64914E-05-3.84458E-16
 -1      1797 3.23874E-04 5.52213E-05-2.43309E-16
 -1      1798 3.23224E-04 4.48506E-05-2.49583E-16
 -1      1799 4.34738E-04 5.27682E-05-3.72207E-16
 -1      1800 3.25898E-04 7.78853E-05-2.27140E-16
 -1      1801 3.24717E-04 6.62987E-05-2.36180E-16
 -1      1802 4.36757E-04 8.06655E-05-3.54765E-16
 -1      1803 3.29546E-04 1.03729E-04-2.03600E-16
 -1      1804 3.27419E-04 9.03771E-05-2.16813E-16
 -1      1805 4.40357E-04 1.11647E-04-3.30126E-16
 -1      1806 3.36534E-04 1.35183E-04-1.69447E-16
 -1      1807 3.32375E-04 1.18688E-04-1.88597E-16
 -1      1808 4.46769E-04 1.47420E-04-2.94903E-16
 -1      1809 3.52215E-04 1.77661E-04-1.18341E-16
 -1      1810 3.42742E-04 1.54825E-04-1.46909E-16
 -1      1811 4.59240E-04 1.91534E-04-2.44203E-16
 -1      1812 4.07578E-04 2.33728E-04-8.18573E-17
 -1      1813 3.77986E-04 2.02714E-04-1.05506E-16
 -1      1814 4.95728E-04 2.44058E-04-1.98057E-16
 -1      1815 5.58376E-04 3.02550E-04-1.60164E-16
 -1      1816 3.39924E-04-1.90953E-04-1.40120E-16
 -1      1817 8.53293E-04 4.07144E-04-4.43371E-16
 -1      1818 7.06942E-04 3.59418E-04-2.81405E-16
 -1      1819 6.73206E-04 3.28861E-04-3.05542E-16
 -1      1820 4.58828E-04-2.36774E-04-2.46670E-16
 -1      1821 8.06991E-04-3.74154E-04-6.52514E-16
 -1      1822 9.52207E-04-4.15317E-04-9.08263E-16
 -1      1823 1.09499E-03-4.49969E-04-1.20950E-15
 -1      1824 1.23661E-03-4.78812E-04-1.55697E-15
 -1      1825 1.00367E-03-3.97931E-04-1.10780E-15
 -1      1826 1.37696E-03-5.03224E-04-1.94956E-15
 -1      1827 1.51659E-03-5.23507E-04-2.38722E-15
 -1      1828 1.28927E-03-4.55787E-04-1.80995E-15
 -1      1829 1.65569E-03-5.40576E-04-2.86902E-15
 -1      1830 1.79448E-03-5.54664E-04-3.39500E-15
 -1      1831 1.57159E-03-4.96555E-04-2.69005E-15
 -1      1832 1.93314E-03-5.66377E-04-3.96410E-15
 -1      1833 2.07174E-03-5.75914E-04-4.57628E-15
 -1      1834 1.85212E-03-5.24828E-04-3.74458E-15
 -1      1835 2.21043E-03-5.83687E-04-5.23214E-15
 -1      1836 2.34922E-03-5.89863E-04-5.92985E-15
 -1      1837 2.13195E-03-5.43910E-04-4.97126E-15
 -1      1838 2.48822E-03-5.94731E-04-6.66932E-15
 -1      1839 2.62741E-03-5.98426E-04-7.45004E-15
 -1      1840 2.41176E-03-5.56218E-04-6.36644E-15
 -1      1841 2.76686E-03-6.01151E-04-8.27176E-15
 -1      1842 2.90653E-03-6.03014E-04-9.13408E-15
 -1      1843 2.69197E-03-5.63534E-04-7.92611E-15
 -1      1844 3.04649E-03-6.04154E-04-1.00358E-14
 -1      1845 3.18670E-03-6.04655E-04-1.09767E-14
 -1      1846 2.97282E-03-5.67170E-04-9.64734E-15
 -1      1847 3.32720E-03-6.04609E-04-1.19562E-14
 -1      1848 3.46796E-03-6.04079E-04-1.29741E-14
 -1      1849 3.25444E-03-5.68077E-04-1.15250E-14
 -1      1850 3.60900E-03-6.03123E-04-1.40301E-14
 -1      1851 3.75030E-03-6.01787E-04-1.51233E-14
 -1      1852 3.53689E-03-5.66921E-04-1.35566E-14
 -1      1853 3.89189E-03-6.00102E-04-1.62535E-14
 -1      1854 4.03375E-03-5.98101E-04-1.74205E-14
 -1      1855 3.82020E-03-5.64151E-04-1.57378E-14
 -1      1856 4.17591E-03-5.95797E-04-1.86243E-14
 -1      1857 4.31837E-03-5.93215E-04-1.98641E-14
 -1      1858 4.10443E-03-5.60049E-04-1.80671E-14
 -1      1859 4.46114E-03-5.90354E-04-2.11382E-14
 -1      1860 4.60425E-03-5.87237E-04-2.24470E-14
 -1      1861 4.38964E-03-5.54776E-04-2.05400E-14
 -1      1862 4.74771E-03-5.83856E-04-2.37908E-14
 -1      1863 4.89157E-03-5.80235E-04-2.51680E-14
 -1      1864 4.67594E-03-5.48420E-04-2.31529E-14
 -1      1865 5.03584E-03-5.76366E-04-2.65776E-14
 -1      1866 5.18058E-03-5.72282E-04-2.80201E-14
 -1      1867 4.96351E-03-5.41035E-04-2.59006E-14
 -1      1868 5.32583E-03-5.67984E-04-2.94969E-14
 -1      1869 5.47166E-03-5.63518E-04-3.10052E-14
 -1      1870 5.25257E-03-5.32693E-04-2.87804E-14
 -1      1871 5.61808E-03-5.58907E-04-3.25451E-14
 -1      1872 5.76523E-03-5.54219E-04-3.41183E-14
 -1      1873 5.54343E-03-5.23546E-04-3.17914E-14
 -1      1874 5.91311E-03-5.49514E-04-3.57225E-14
 -1      1875 6.06187E-03-5.44892E-04-3.73578E-14
 -1      1876 5.83649E-03-5.13902E-04-3.49307E-14
 -1      1877 6.21151E-03-5.40469E-04-3.90250E-14
 -1      1878 6.36222E-03-5.36393E-04-4.07232E-14
 -1      1879 6.13222E-03-5.04320E-04-3.81974E-14
 -1      1880 6.51398E-03-5.32862E-04-4.24512E-14
 -1      1881 6.66698E-03-5.30083E-04-4.42094E-14
 -1      1882 6.43117E-03-4.95739E-04-4.15863E-14
 -1      1883 6.82123E-03-5.28367E-04-4.59979E-14
 -1      1884 6.97689E-03-5.28001E-04-4.78140E-14
 -1      1885 6.73398E-03-4.89633E-04-4.50970E-14
 -1      1886 7.13396E-03-5.29434E-04-4.96589E-14
 -1      1887 7.29257E-03-5.33046E-04-5.15326E-14
 -1      1888 7.04132E-03-4.88192E-04-4.87234E-14
 -1      1889 7.45275E-03-5.39439E-04-5.34329E-14
 -1      1890 7.61445E-03-5.49090E-04-5.53594E-14
 -1      1891 7.35391E-03-4.94501E-04-5.24629E-14
 -1      1892 7.77783E-03-5.62717E-04-5.73155E-14
 -1      1893 7.94256E-03-5.80870E-04-5.92949E-14
 -1      1894 7.67242E-03-5.12628E-04-5.63114E-14
 -1      1895 8.10893E-03-6.04263E-04-6.12993E-14
 -1      1896 8.27623E-03-6.33408E-04-6.33323E-14
 -1      1897 7.99740E-03-5.47500E-04-6.02648E-14
 -1      1898 8.44490E-03-6.68764E-04-6.53893E-14
 -1      1899 8.61373E-03-7.10557E-04-6.74704E-14
 -1      1900 8.32894E-03-6.04244E-04-6.43206E-14
 -1      1901 8.78327E-03-7.58581E-04-6.95757E-14
 -1      1902 8.95191E-03-8.12358E-04-7.17043E-14
 -1      1903 8.66616E-03-6.86608E-04-6.84748E-14
 -1      1904 9.12009E-03-8.70576E-04-7.38571E-14
 -1      1905 9.28616E-03-9.31495E-04-7.60321E-14
 -1      1906 9.00641E-03-7.94067E-04-7.27254E-14
 -1      1907 9.45023E-03-9.92478E-04-7.82281E-14
 -1      1908 9.61146E-03-1.05042E-03-8.04437E-14
 -1      1909 9.34476E-03-9.17749E-04-7.70665E-14
 -1      1910 9.76943E-03-1.10181E-03-8.26793E-14
 -1      1911 9.92504E-03-1.14301E-03-8.49389E-14
 -1      1912 9.67513E-03-1.03731E-03-8.14912E-14
 -1      1913 1.00775E-02-1.17098E-03-8.72181E-14
 -1      1914 1.02295E-02-1.18341E-03-8.95156E-14
 -1      1915 9.99419E-03-1.12343E-03-8.60009E-14
 -1      1916 1.03801E-02-1.17936E-03-9.18358E-14
 -1      1917 1.05327E-02-1.15926E-03-9.41747E-14
 -1      1918 1.03054E-02-1.14953E-03-9.05913E-14
 -1      1919 1.06864E-02-1.12483E-03-9.65347E-14
 -1      1920 1.08434E-02-1.07899E-03-9.89147E-14
 -1      1921 1.06180E-02-1.10715E-03-9.52658E-14
 -1      1922 1.10029E-02-1.02511E-03-1.01311E-13
 -1      1923 1.11654E-02-9.66811E-04-1.03726E-13
 -1      1924 1.09401E-02-1.01152E-03-1.00017E-13
 -1      1925 1.13304E-02-9.07450E-04-1.06156E-13
 -1      1926 1.14969E-02-8.49729E-04-1.08602E-13
 -1      1927 1.12727E-02-8.91735E-04-1.04841E-13
 -1      1928 1.16651E-02-7.95898E-04-1.11063E-13
 -1      1929 1.18331E-02-7.47239E-04-1.13539E-13
 -1      1930 1.16112E-02-7.75137E-04-1.09729E-13
 -1      1931 1.20016E-02-7.04674E-04-1.16030E-13
 -1      1932 1.21690E-02-6.68397E-04-1.18532E-13
 -1      1933 1.19495E-02-6.78398E-04-1.14675E-13
 -1      1934 1.23358E-02-6.38335E-04-1.21049E-13
 -1      1935 1.25010E-02-6.14103E-04-1.23579E-13
 -1      1936 1.22833E-02-6.07288E-04-1.19680E-13
 -1      1937 1.26649E-02-5.95084E-04-1.26122E-13
 -1      1938 1.28269E-02-5.80695E-04-1.28679E-13
 -1      1939 1.26106E-02-5.60430E-04-1.24736E-13
 -1      1940 1.29874E-02-5.70135E-04-1.31246E-13
 -1      1941 1.31460E-02-5.62815E-04-1.33823E-13
 -1      1942 1.29307E-02-5.33087E-04-1.29841E-13
 -1      1943 1.33029E-02-5.57954E-04-1.36409E-13
 -1      1944 1.34580E-02-5.55029E-04-1.39000E-13
 -1      1945 1.32438E-02-5.19628E-04-1.34987E-13
 -1      1946 1.36114E-02-5.53367E-04-1.41596E-13
 -1      1947 1.37633E-02-5.52520E-04-1.44200E-13
 -1      1948 1.35506E-02-5.14733E-04-1.40165E-13
 -1      1949 1.39136E-02-5.51940E-04-1.46808E-13
 -1      1950 1.40626E-02-5.51247E-04-1.49416E-13
 -1      1951 1.38518E-02-5.13829E-04-1.45364E-13
 -1      1952 1.42103E-02-5.50018E-04-1.52029E-13
 -1      1953 1.43569E-02-5.47921E-04-1.54644E-13
 -1      1954 1.41480E-02-5.13132E-04-1.50583E-13
 -1      1955 1.44868E-02-5.46760E-04-1.56992E-13
 -1      1956 1.46316E-02-5.42257E-04-1.59606E-13
 -1      1957 1.46823E-02-5.07548E-04-1.60241E-13
 -1      1958 1.44244E-02-5.11531E-04-1.55542E-13
 -1      1959 1.13823E-03 4.80042E-04-8.90686E-16
 -1      1960 9.96517E-04 4.46830E-04-6.45737E-16
 -1      1961 9.64178E-04 4.17389E-04-6.73913E-16
 -1      1962 1.41721E-03 5.31396E-04-1.50586E-15
 -1      1963 1.27812E-03 5.08019E-04-1.17717E-15
 -1      1964 1.24855E-03 4.79901E-04-1.20692E-15
 -1      1965 1.69345E-03 5.67482E-04-2.29047E-15
 -1      1966 1.55549E-03 5.51104E-04-1.87712E-15
 -1      1967 1.52870E-03 5.23955E-04-1.90750E-15
 -1      1968 1.96887E-03 5.92456E-04-3.24302E-15
 -1      1969 1.83117E-03 5.81189E-04-2.74566E-15
 -1      1970 1.80683E-03 5.54686E-04-2.77590E-15
 -1      1971 2.24457E-03 6.09240E-04-4.36313E-15
 -1      1972 2.10664E-03 6.01748E-04-3.78223E-15
 -1      1973 2.08433E-03 5.75658E-04-3.81096E-15
 -1      1974 2.52111E-03 6.19970E-04-5.64643E-15
 -1      1975 2.38271E-03 6.15270E-04-4.98452E-15
 -1      1976 2.36205E-03 5.89437E-04-5.01103E-15
 -1      1977 2.79877E-03 6.26226E-04-7.09234E-15
 -1      1978 2.65979E-03 6.23590E-04-6.34914E-15
 -1      1979 2.64044E-03 5.97909E-04-6.37320E-15
 -1      1980 3.07766E-03 6.29167E-04-8.69824E-15
 -1      1981 2.93806E-03 6.28062E-04-7.87497E-15
 -1      1982 2.91975E-03 6.02464E-04-7.89547E-15
 -1      1983 3.35781E-03 6.29629E-04-1.04595E-14
 -1      1984 3.21758E-03 6.29673E-04-9.55957E-15
 -1      1985 3.20008E-03 6.04113E-04-9.57552E-15
 -1      1986 3.63920E-03 6.28197E-04-1.23777E-14
 -1      1987 3.49835E-03 6.29126E-04-1.13996E-14
 -1      1988 3.48146E-03 6.03576E-04-1.14112E-14
 -1      1989 3.92181E-03 6.25261E-04-1.44495E-14
 -1      1990 3.78035E-03 6.26901E-04-1.33940E-14
 -1      1991 3.76392E-03 6.01342E-04-1.34011E-14
 -1      1992 4.20568E-03 6.21064E-04-1.66731E-14
 -1      1993 4.06359E-03 6.23309E-04-1.55422E-14
 -1      1994 4.04747E-03 5.97729E-04-1.55429E-14
 -1      1995 4.49086E-03 6.15752E-04-1.90453E-14
 -1      1996 4.34810E-03 6.18539E-04-1.78413E-14
 -1      1997 4.33216E-03 5.92926E-04-1.78361E-14
 -1      1998 4.77752E-03 6.09411E-04-2.15641E-14
 -1      1999 4.63400E-03 6.12702E-04-2.02869E-14
 -1      2000 4.61811E-03 5.87041E-04-2.02765E-14
 -1      2001 5.06590E-03 6.02120E-04-2.42216E-14
 -1      2002 4.92148E-03 6.05873E-04-2.28752E-14
 -1      2003 4.90549E-03 5.80143E-04-2.28594E-14
 -1      2004 5.35632E-03 5.93997E-04-2.70161E-14
 -1      2005 5.21083E-03 5.98143E-04-2.56018E-14
 -1      2006 5.19455E-03 5.72312E-04-2.55799E-14
 -1      2007 5.64926E-03 5.85272E-04-2.99501E-14
 -1      2008 5.50244E-03 5.89680E-04-2.84663E-14
 -1      2009 5.48564E-03 5.63698E-04-2.84388E-14
 -1      2010 5.94526E-03 5.76369E-04-3.30186E-14
 -1      2011 5.79683E-03 5.80797E-04-3.14674E-14
 -1      2012 5.77921E-03 5.54592E-04-3.14339E-14
 -1      2013 6.24500E-03 5.68009E-04-3.62178E-14
 -1      2014 6.09461E-03 5.72052E-04-3.46019E-14
 -1      2015 6.07579E-03 5.45523E-04-3.45626E-14
 -1      2016 6.54922E-03 5.61350E-04-3.95415E-14
 -1      2017 6.39649E-03 5.64367E-04-3.78646E-14
 -1      2018 6.37600E-03 5.37373E-04-3.78188E-14
 -1      2019 6.85867E-03 5.58145E-04-4.29886E-14
 -1      2020 6.70323E-03 5.59179E-04-4.12498E-14
 -1      2021 6.68052E-03 5.31530E-04-4.11987E-14
 -1      2022 7.17401E-03 5.60910E-04-4.65528E-14
 -1      2023 7.01555E-03 5.58602E-04-4.47557E-14
 -1      2024 6.99003E-03 5.30051E-04-4.46967E-14
 -1      2025 7.49563E-03 5.73046E-04-5.02263E-14
 -1      2026 7.33401E-03 5.65587E-04-4.83758E-14
 -1      2027 7.30513E-03 5.35828E-04-4.83093E-14
 -1      2028 7.82345E-03 5.98797E-04-5.40088E-14
 -1      2029 7.65880E-03 5.83979E-04-5.21047E-14
 -1      2030 7.62618E-03 5.52664E-04-5.20320E-14
 -1      2031 8.15660E-03 6.42839E-04-5.78894E-14
 -1      2032 7.98950E-03 6.18322E-04-5.59372E-14
 -1      2033 7.95315E-03 5.85127E-04-5.58581E-14
 -1      2034 8.49311E-03 7.09168E-04-6.18713E-14
 -1      2035 8.32472E-03 6.73141E-04-5.98681E-14
 -1      2036 8.28534E-03 6.37911E-04-5.97825E-14
 -1      2037 8.82966E-03 7.98987E-04-6.59462E-14
 -1      2038 8.66181E-03 7.51355E-04-6.38967E-14
 -1      2039 8.62097E-03 7.14354E-04-6.38045E-14
 -1      2040 9.16173E-03 9.07677E-04-7.01140E-14
 -1      2041 8.99676E-03 8.51655E-04-6.80180E-14
 -1      2042 8.95687E-03 8.13861E-04-6.79213E-14
 -1      2043 9.48451E-03 1.02194E-03-7.43729E-14
 -1      2044 9.32467E-03 9.65305E-04-7.22327E-14
 -1      2045 9.28849E-03 9.28527E-04-7.21290E-14
 -1      2046 9.79502E-03 1.11996E-03-7.87240E-14
 -1      2047 9.64132E-03 1.07444E-03-7.65367E-14
 -1      2048 9.61113E-03 1.04084E-03-7.64276E-14
 -1      2049 1.00946E-02 1.17699E-03-8.31674E-14
 -1      2050 9.94570E-03 1.15471E-03-8.09335E-14
 -1      2051 9.92252E-03 1.12575E-03-8.08174E-14
 -1      2052 1.03898E-02 1.17622E-03-8.77088E-14
 -1      2053 1.02419E-02 1.18400E-03-8.54265E-14
 -1      2054 1.02256E-02 1.15937E-03-8.53057E-14
 -1      2055 1.06891E-02 1.11770E-03-9.23369E-14
 -1      2056 1.05381E-02 1.15327E-03-9.00118E-14
 -1      2057 1.05280E-02 1.13102E-03-8.98858E-14
 -1      2058 1.09990E-02 1.01834E-03-9.70424E-14
 -1      2059 1.08424E-02 1.07164E-03-9.46806E-14
 -1      2060 1.08378E-02 1.04947E-03-9.45510E-14
 -1      2061 1.13208E-02 9.02816E-04-1.01814E-13
 -1      2062 1.11585E-02 9.61222E-04-9.94219E-14
 -1      2063 1.11585E-02 9.37700E-04-9.92879E-14
 -1      2064 1.16513E-02 7.92919E-04-1.06642E-13
 -1      2065 1.14854E-02 8.46324E-04-1.04220E-13
 -1      2066 1.14882E-02 8.21104E-04-1.04084E-13
 -1      2067 1.19858E-02 7.01725E-04-1.11522E-13
 -1      2068 1.18185E-02 7.44696E-04-1.09077E-13
 -1      2069 1.18223E-02 7.18111E-04-1.08935E-13
 -1      2070 1.23196E-02 6.33637E-04-1.16450E-13
 -1      2071 1.21532E-02 6.64881E-04-1.13981E-13
 -1      2072 1.21560E-02 6.37436E-04-1.13839E-13
 -1      2073 1.26493E-02 5.87163E-04-1.21429E-13
 -1      2074 1.24852E-02 6.07966E-04-1.18932E-13
 -1      2075 1.24860E-02 5.80109E-04-1.18788E-13
 -1      2076 1.29728E-02 5.57927E-04-1.26446E-13
 -1      2077 1.28120E-02 5.70704E-04-1.23933E-13
 -1      2078 1.28102E-02 5.42775E-04-1.23785E-13
 -1      2079 1.32893E-02 5.40744E-04-1.31507E-13
 -1      2080 1.31320E-02 5.48121E-04-1.28973E-13
 -1      2081 1.31278E-02 5.20373E-04-1.28826E-13
 -1      2082 1.35986E-02 5.30692E-04-1.36597E-13
 -1      2083 1.34448E-02 5.35075E-04-1.34049E-13
 -1      2084 1.34387E-02 5.07695E-04-1.33897E-13
 -1      2085 1.39011E-02 5.23501E-04-1.41712E-13
 -1      2086 1.37506E-02 5.26941E-04-1.39149E-13
 -1      2087 1.37432E-02 5.00072E-04-1.38997E-13
 -1      2088 1.41978E-02 5.15620E-04-1.46852E-13
 -1      2089 1.40501E-02 5.19808E-04-1.44280E-13
 -1      2090 1.40419E-02 4.93559E-04-1.44124E-13
 -1      2091 1.44897E-02 5.04237E-04-1.52010E-13
 -1      2092 1.43442E-02 5.10480E-04-1.49430E-13
 -1      2093 1.43357E-02 4.84929E-04-1.49275E-13
 -1      2094 1.47277E-02 4.87959E-04-1.56272E-13
 -1      2095 1.45837E-02 4.96506E-04-1.53690E-13
 -1      2096 1.45752E-02 4.71557E-04-1.53537E-13
 -1      2097 1.47624E-02 4.54855E-04-1.56901E-13
 -1      2098 1.48194E-02 2.40649E-04-1.57598E-13
 -1      2099 1.48022E-02 2.77192E-04-1.57370E-13
 -1      2100 1.47851E-02 3.14812E-04-1.57143E-13
 -1      2101 1.47685E-02 3.53403E-04-1.56915E-13
 -1      2102 1.46708E-02 3.02210E-04-1.55008E-13
 -1      2103 1.47719E-02 3.83466E-04-1.57022E-13
 -1      2104 1.47572E-02 4.23673E-04-1.56794E-13
 -1      2105 1.46638E-02 4.32103E-04-1.55109E-13
 -1      2106 1.46561E-02 3.70598E-04-1.54892E-13
 -1      2107 1.48517E-02 1.71800E-04-1.58041E-13
 -1      2108 1.48359E-02 2.05736E-04-1.57820E-13
 -1      2109 1.47056E-02 2.29077E-04-1.55453E-13
 -1      2110 1.48798E-02 1.05570E-04-1.58479E-13
 -1      2111 1.48666E-02 1.38268E-04-1.58261E-13
 -1      2112 1.47382E-02 1.59763E-04-1.55890E-13
 -1      2113 1.49002E-02 4.23803E-05-1.58905E-13
 -1      2114 1.48912E-02 7.36991E-05-1.58695E-13
 -1      2115 1.47653E-02 9.32844E-05-1.56322E-13
 -1      2116 1.49108E-02-1.89609E-05-1.59321E-13
 -1      2117 1.49068E-02 1.16105E-05-1.59113E-13
 -1      2118 1.47839E-02 2.93938E-05-1.56745E-13
 -1      2119 1.49106E-02-7.98958E-05-1.59726E-13
 -1      2120 1.49121E-02-4.93370E-05-1.59524E-13
 -1      2121 1.47920E-02-3.30923E-05-1.57155E-13
 -1      2122 1.48999E-02-1.41925E-04-1.60114E-13
 -1      2123 1.49065E-02-1.10641E-04-1.59924E-13
 -1      2124 1.47889E-02-9.55487E-05-1.57555E-13
 -1      2125 1.48806E-02-2.05285E-04-1.60482E-13
 -1      2126 1.48912E-02-1.73208E-04-1.60298E-13
 -1      2127 1.47755E-02-1.58809E-04-1.57935E-13
 -1      2128 1.48546E-02-2.73185E-04-1.60842E-13
 -1      2129 1.48682E-02-2.38737E-04-1.60663E-13
 -1      2130 1.47535E-02-2.24575E-04-1.58299E-13
 -1      2131 1.48254E-02-3.45157E-04-1.61185E-13
 -1      2132 1.48402E-02-3.08648E-04-1.61014E-13
 -1      2133 1.47255E-02-2.94321E-04-1.58654E-13
 -1      2134 1.47965E-02-4.21324E-04-1.61516E-13
 -1      2135 1.48107E-02-3.82752E-04-1.61351E-13
 -1      2136 1.46952E-02-3.67979E-04-1.58995E-13
 -1      2137 1.21201E-02 1.42711E-04-1.00120E-13
 -1      2138 1.22559E-02 9.07850E-05-1.00829E-13
 -1      2139 1.25077E-02-6.76559E-06-1.01985E-13
 -1      2140 1.25095E-02-2.28900E-05-1.02087E-13
 -1      2141 1.23860E-02 4.72996E-05-1.01253E-13
 -1      2142 1.24631E-02 2.03526E-05-1.01638E-13
 -1      2143 1.17760E-02 2.92476E-04-9.84226E-14
 -1      2144 1.19590E-02 2.12215E-04-9.92693E-14
 -1      2145 1.20355E-02 1.53091E-04-1.00742E-13
 -1      2146 1.13178E-02 5.29463E-04-9.58290E-14
 -1      2147 1.15108E-02 4.18506E-04-9.71025E-14
 -1      2148 3.27147E-04-8.90596E-05-2.59531E-16
 -1      2149 3.29239E-04-1.02205E-04-2.52402E-16
 -1      2150 4.46299E-04-1.45188E-04-3.67843E-16
 -1      2151 4.40034E-04-1.10024E-04-3.86789E-16
 -1      2152 1.05307E-02 9.23558E-04-8.96302E-14
 -1      2153 1.06959E-02 8.59689E-04-9.10883E-14
 -1      2154 1.02154E-02 9.67669E-04-8.67978E-14
 -1      2155 1.03622E-02 9.60244E-04-8.81660E-14
 -1      2156 9.86370E-03 8.87381E-04-8.37280E-14
 -1      2157 1.00152E-02 9.39029E-04-8.49842E-14
 -1      2158 9.53055E-03 7.24905E-04-8.12325E-14
 -1      2159 9.69808E-03 8.16708E-04-8.24759E-14
 -1      2160 9.79747E-03 8.57776E-04-8.26520E-14
 -1      2161 9.09258E-03 4.91138E-04-7.88825E-14
 -1      2162 9.28450E-03 5.94893E-04-7.98199E-14
 -1      2163 8.72935E-03 3.01206E-04-7.71589E-14
 -1      2164 8.90865E-03 3.95161E-04-7.80195E-14
 -1      2165 9.02618E-03 4.29530E-04-7.77378E-14
 -1      2166 8.34979E-03 1.40622E-04-7.58743E-14
 -1      2167 8.50461E-03 1.99305E-04-7.63007E-14
 -1      2168 8.11262E-03 5.38897E-05-7.51987E-14
 -1      2169 8.21515E-03 9.08767E-05-7.55309E-14
 -1      2170 7.99814E-03 1.01595E-06-7.49620E-14
 -1      2171 8.03180E-03 1.98226E-05-7.49854E-14
 -1      2172 8.04716E-03-4.11740E-05-7.51840E-14
 -1      2173 8.00298E-03-2.21806E-05-7.49959E-14
 -1      2174 8.26573E-03-1.19112E-04-7.61206E-14
 -1      2175 8.14182E-03-7.77090E-05-7.56330E-14
 -1      2176 8.62440E-03-2.71070E-04-7.78332E-14
 -1      2177 8.45586E-03-1.92839E-04-7.69267E-14
 -1      2178 8.97515E-03-4.53107E-04-7.97570E-14
 -1      2179 8.80150E-03-3.63702E-04-7.88672E-14
 -1      2180 9.33875E-03-6.51269E-04-8.18678E-14
 -1      2181 9.17166E-03-5.57646E-04-8.08574E-14
 -1      2182 9.68160E-03-8.31429E-04-8.42013E-14
 -1      2183 9.52771E-03-7.50480E-04-8.30818E-14
 -1      2184 9.99512E-03-9.55447E-04-8.67369E-14
 -1      2185 9.85460E-03-9.06038E-04-8.55486E-14
 -1      2186 1.02894E-02-9.93890E-04-8.93487E-14
 -1      2187 1.01583E-02-9.88161E-04-8.81437E-14
 -1      2188 1.05706E-02-9.38929E-04-9.18727E-14
 -1      2189 1.04315E-02-9.78143E-04-9.06078E-14
 -1      2190 1.03488E-02-9.98499E-04-9.00497E-14
 -1      2191 1.09463E-02-7.73748E-04-9.47050E-14
 -1      2192 1.07813E-02-8.55993E-04-9.35560E-14
 -1      2193 1.12930E-02-5.85386E-04-9.69026E-14
 -1      2194 1.11184E-02-6.84946E-04-9.58039E-14
 -1      2195 1.10090E-02-7.26341E-04-9.57813E-14
 -1      2196 1.16886E-02-3.74684E-04-9.90248E-14
 -1      2197 1.15147E-02-4.62742E-04-9.82264E-14
 -1      2198 1.20288E-02-2.23169E-04-1.00353E-13
 -1      2199 1.18746E-02-2.91162E-04-9.97232E-14
 -1      2200 1.22995E-02-1.08129E-04-1.01677E-13
 -1      2201 1.21822E-02-1.49844E-04-1.01271E-13
 -1      2202 1.24620E-02-5.09550E-05-1.02136E-13
 -1      2203 1.23929E-02-7.47871E-05-1.01906E-13
 -1      2204 1.23416E-02-7.72359E-05-1.03014E-13
 -1      2205 1.09305E-02 7.44905E-04-9.31189E-14
 -1      2206 1.11219E-02 6.38752E-04-9.44689E-14
 -1      2207 1.12016E-02 5.73058E-04-9.58782E-14
 -1      2208 1.16295E-02 3.39363E-04-9.85653E-14
 -1      2209 6.07709E-04-2.98185E-04-3.97875E-16
 -1      2210 1.08079E-02 8.02551E-04-9.24782E-14
 -1      2211 6.63443E-04-2.92479E-04-5.29809E-16
 -1      2212 1.23217E-02 5.41665E-05-1.02023E-13
 -1      2213 1.24937E-02 1.20852E-07-1.02797E-13
 -1      2214 1.47441E-02-4.54683E-04-1.60879E-13
 -1      2215 1.24939E-02-3.26789E-05-1.03195E-13
 -1      2216 1.21015E-02-1.63085E-04-1.01861E-13
 -1      2217 1.13811E-02-5.14474E-04-9.82100E-14
 -1      2218 1.06600E-02-9.06137E-04-9.29913E-14
 -1      2219 1.00853E-02-9.82997E-04-8.73855E-14
 -1      2220 9.78507E-03-8.73381E-04-8.46368E-14
 -1      2221 9.45569E-03-6.95884E-04-8.20838E-14
 -1      2222 9.09293E-03-4.90069E-04-7.97795E-14
 -1      2223 8.73056E-03-2.96942E-04-7.76545E-14
 -1      2224 8.36421E-03-1.37465E-04-7.58252E-14
 -1      2225 8.28132E-03-1.00147E-04-7.47305E-14
 -1      2226 8.46032E-03-1.63517E-04-7.55262E-14
 -1      2227 8.08678E-03-4.74322E-05-7.45807E-14
 -1      2228 7.99137E-03-9.99107E-06-7.41040E-14
 -1      2229 8.06643E-03 2.64930E-05-7.42841E-14
 -1      2230 8.62901E-03 2.33868E-04-7.60268E-14
 -1      2231 9.42957E-03 6.58407E-04-7.99977E-14
 -1      2232 1.04396E-02 9.52091E-04-8.89841E-14
 -1      2233 1.01172E-02 9.65715E-04-8.57055E-14
 -1      2234 8.28304E-03 9.55790E-05-7.48365E-14
 -1      2235 1.17678E-02-3.11530E-04-1.00240E-13
 -1      2236 1.01633E-03 3.99824E-04-8.63743E-16
 -1      2237 8.71903E-04 3.63471E-04-6.30057E-16
 -1      2238 5.47936E-04-5.53457E-05-5.65967E-16
 -1      2239 5.48957E-04-7.20732E-05-5.65520E-16
 -1      2240 5.50357E-04-8.94046E-05-5.63650E-16
 -1      2241 5.52207E-04-1.07387E-04-5.59923E-16
 -1      2242 6.65443E-04-9.55536E-05-7.64430E-16
 -1      2243 5.46580E-04 8.86400E-06-5.54854E-16
 -1      2244 5.46560E-04-6.98749E-06-5.59435E-16
 -1      2245 5.47322E-04 4.09026E-05-5.42223E-16
 -1      2246 5.46831E-04 2.48145E-05-5.49257E-16
 -1      2247 6.61557E-04 1.99445E-05-7.47815E-16
 -1      2248 5.49119E-04 7.35487E-05-5.24076E-16
 -1      2249 5.48073E-04 5.70447E-05-5.34051E-16
 -1      2250 6.62862E-04 5.78261E-05-7.29709E-16
 -1      2251 5.52467E-04 1.09041E-04-4.98245E-16
 -1      2252 5.50567E-04 9.09571E-05-5.12272E-16
 -1      2253 6.65683E-04 9.73172E-05-7.03756E-16
 -1      2254 5.58286E-04 1.48388E-04-4.62412E-16
 -1      2255 5.55000E-04 1.28158E-04-4.81996E-16
 -1      2256 6.70714E-04 1.40106E-04-6.67869E-16
 -1      2257 5.68543E-04 1.93988E-04-4.12295E-16
 -1      2258 5.62741E-04 1.70271E-04-4.39685E-16
 -1      2259 6.79286E-04 1.87659E-04-6.18673E-16
 -1      2260 1.30170E-03 4.56658E-04-1.45431E-15
 -1      2261 1.15942E-03 4.30778E-04-1.13824E-15
 -1      2262 1.07155E-03 3.81335E-04-1.06376E-15
 -1      2263 9.14989E-04-3.46426E-04-1.00393E-15
 -1      2264 1.05905E-03-3.79711E-04-1.31449E-15
 -1      2265 1.06790E-02 8.68550E-04-9.16353E-14
 -1      2266 1.08791E-02 7.59173E-04-9.36679E-14
 -1      2267 1.20228E-03-4.08032E-04-1.66931E-15
 -1      2268 1.34506E-03-4.31834E-04-2.06852E-15
 -1      2269 1.11680E-03-3.60498E-04-1.52856E-15
 -1      2270 1.48720E-03-4.51964E-04-2.51100E-15
 -1      2271 1.62895E-03-4.68691E-04-2.99717E-15
 -1      2272 1.40309E-03-4.07124E-04-2.33247E-15
 -1      2273 1.77034E-03-4.82685E-04-3.52608E-15
 -1      2274 1.91149E-03-4.94156E-04-4.09772E-15
 -1      2275 1.68818E-03-4.40141E-04-3.30829E-15
 -1      2276 2.05249E-03-5.03595E-04-4.71154E-15
 -1      2277 2.19339E-03-5.11173E-04-5.36767E-15
 -1      2278 1.97234E-03-4.62853E-04-4.45397E-15
 -1      2279 2.33427E-03-5.17243E-04-6.06495E-15
 -1      2280 2.47515E-03-5.21945E-04-6.80364E-15
 -1      2281 2.25596E-03-4.77869E-04-5.76583E-15
 -1      2282 2.61610E-03-5.25533E-04-7.58298E-15
 -1      2283 2.75711E-03-5.28116E-04-8.40213E-15
 -1      2284 2.53938E-03-4.87180E-04-7.24238E-15
 -1      2285 2.89824E-03-5.29876E-04-9.26144E-15
 -1      2286 3.03948E-03-5.30896E-04-1.01600E-14
 -1      2287 2.82285E-03-4.92284E-04-8.87856E-15
 -1      2288 3.18086E-03-5.31301E-04-1.10969E-14
 -1      2289 3.32237E-03-5.31153E-04-1.20726E-14
 -1      2290 3.10653E-03-4.94281E-04-1.06722E-14
 -1      2291 3.46405E-03-5.30535E-04-1.30865E-14
 -1      2292 3.60587E-03-5.29492E-04-1.41377E-14
 -1      2293 3.39053E-03-4.93959E-04-1.26199E-14
 -1      2294 3.74786E-03-5.28074E-04-1.52261E-14
 -1      2295 3.89002E-03-5.26312E-04-1.63514E-14
 -1      2296 3.67493E-03-4.91858E-04-1.47178E-14
 -1      2297 4.03236E-03-5.24232E-04-1.75131E-14
 -1      2298 4.17489E-03-5.21856E-04-1.87115E-14
 -1      2299 3.95977E-03-4.88330E-04-1.69636E-14
 -1      2300 4.31761E-03-5.19192E-04-1.99465E-14
 -1      2301 4.46054E-03-5.16258E-04-2.12150E-14
 -1      2302 4.24513E-03-4.83581E-04-1.93546E-14
 -1      2303 4.60369E-03-5.13050E-04-2.25176E-14
 -1      2304 4.74708E-03-5.09585E-04-2.38562E-14
 -1      2305 4.53105E-03-4.77719E-04-2.18872E-14
 -1      2306 4.89073E-03-5.05857E-04-2.52277E-14
 -1      2307 5.03467E-03-5.01884E-04-2.66309E-14
 -1      2308 4.81764E-03-4.70798E-04-2.45569E-14
 -1      2309 5.17890E-03-4.97667E-04-2.80680E-14
 -1      2310 5.32349E-03-4.93232E-04-2.95383E-14
 -1      2311 5.10500E-03-4.62859E-04-2.73604E-14
 -1      2312 5.46842E-03-4.88594E-04-3.10418E-14
 -1      2313 5.61380E-03-4.83795E-04-3.25763E-14
 -1      2314 5.39328E-03-4.53983E-04-3.02946E-14
 -1      2315 5.75959E-03-4.78880E-04-3.41428E-14
 -1      2316 5.90592E-03-4.73914E-04-3.57423E-14
 -1      2317 5.68269E-03-4.44359E-04-3.33593E-14
 -1      2318 6.05277E-03-4.68986E-04-3.73717E-14
 -1      2319 6.20026E-03-4.64199E-04-3.90330E-14
 -1      2320 5.97347E-03-4.34354E-04-3.65510E-14
 -1      2321 6.34838E-03-4.59704E-04-4.07259E-14
 -1      2322 6.49728E-03-4.55659E-04-4.24481E-14
 -1      2323 6.26594E-03-4.24625E-04-3.98685E-14
 -1      2324 6.64696E-03-4.52302E-04-4.42008E-14
 -1      2325 6.79758E-03-4.49862E-04-4.59820E-14
 -1      2326 6.56053E-03-4.16236E-04-4.33083E-14
 -1      2327 6.94916E-03-4.48688E-04-4.77928E-14
 -1      2328 7.10186E-03-4.49109E-04-4.96315E-14
 -1      2329 6.85782E-03-4.10815E-04-4.68658E-14
 -1      2330 7.25578E-03-4.51594E-04-5.14981E-14
 -1      2331 7.41103E-03-4.56607E-04-5.33919E-14
 -1      2332 7.15865E-03-4.10726E-04-5.05378E-14
 -1      2333 7.56783E-03-4.64721E-04-5.53118E-14
 -1      2334 7.72619E-03-4.76561E-04-5.72606E-14
 -1      2335 7.46420E-03-4.19236E-04-5.43192E-14
 -1      2336 7.88650E-03-4.92741E-04-5.92342E-14
 -1      2337 8.04856E-03-5.14042E-04-6.12325E-14
 -1      2338 7.77614E-03-4.40631E-04-5.82060E-14
 -1      2339 8.21299E-03-5.40977E-04-6.32567E-14
 -1      2340 8.37921E-03-5.74358E-04-6.53062E-14
 -1      2341 8.09657E-03-4.80152E-04-6.21973E-14
 -1      2342 8.54798E-03-6.14357E-04-6.73810E-14
 -1      2343 8.71814E-03-6.61427E-04-6.94780E-14
 -1      2344 8.42762E-03-5.43488E-04-6.62894E-14
 -1      2345 8.89040E-03-7.15025E-04-7.15980E-14
 -1      2346 9.06294E-03-7.74550E-04-7.37433E-14
 -1      2347 8.77011E-03-6.35154E-04-7.04772E-14
 -1      2348 9.23613E-03-8.38384E-04-7.59092E-14
 -1      2349 9.40778E-03-9.03693E-04-7.80968E-14
 -1      2350 9.12141E-03-7.54849E-04-7.47551E-14
 -1      2351 9.57750E-03-9.67611E-04-8.03058E-14
 -1      2352 9.74442E-03-1.02505E-03-8.25355E-14
 -1      2353 9.47372E-03-8.91024E-04-7.91223E-14
 -1      2354 9.90750E-03-1.07250E-03-8.47868E-14
 -1      2355 1.00686E-02-1.10465E-03-8.70589E-14
 -1      2356 9.81636E-03-1.01475E-03-8.35768E-14
 -1      2357 1.02264E-02-1.11920E-03-8.93516E-14
 -1      2358 1.03854E-02-1.11432E-03-9.16640E-14
 -1      2359 1.01450E-02-1.08557E-03-8.81141E-14
 -1      2360 1.05442E-02-1.09052E-03-9.39979E-14
 -1      2361 1.07068E-02-1.05093E-03-9.63520E-14
 -1      2362 1.04684E-02-1.07453E-03-9.27337E-14
 -1      2363 1.08718E-02-9.98385E-04-9.87267E-14
 -1      2364 1.10403E-02-9.38700E-04-1.01118E-13
 -1      2365 1.08008E-02-9.87348E-04-9.74355E-14
 -1      2366 1.12112E-02-8.75283E-04-1.03526E-13
 -1      2367 1.13832E-02-8.12518E-04-1.05953E-13
 -1      2368 1.11470E-02-8.59636E-04-1.02215E-13
 -1      2369 1.15561E-02-7.52987E-04-1.08394E-13
 -1      2370 1.17277E-02-6.98690E-04-1.10851E-13
 -1      2371 1.14996E-02-7.30165E-04-1.07062E-13
 -1      2372 1.18986E-02-6.50874E-04-1.13326E-13
 -1      2373 1.20670E-02-6.09744E-04-1.15813E-13
 -1      2374 1.18481E-02-6.22117E-04-1.11975E-13
 -1      2375 1.22337E-02-5.75552E-04-1.18313E-13
 -1      2376 1.23979E-02-5.47634E-04-1.20825E-13
 -1      2377 1.21863E-02-5.42832E-04-1.16946E-13
 -1      2378 1.25601E-02-5.25646E-04-1.23349E-13
 -1      2379 1.27200E-02-5.08732E-04-1.25887E-13
 -1      2380 1.25129E-02-4.90438E-04-1.21967E-13
 -1      2381 1.28780E-02-4.96270E-04-1.28439E-13
 -1      2382 1.30342E-02-4.87479E-04-1.31000E-13
 -1      2383 1.28291E-02-4.59504E-04-1.27038E-13
 -1      2384 1.31887E-02-4.81670E-04-1.33570E-13
 -1      2385 1.33417E-02-4.78205E-04-1.36150E-13
 -1      2386 1.31372E-02-4.44024E-04-1.32155E-13
 -1      2387 1.34932E-02-4.76440E-04-1.38736E-13
 -1      2388 1.36436E-02-4.75871E-04-1.41326E-13
 -1      2389 1.34391E-02-4.38520E-04-1.37305E-13
 -1      2390 1.37927E-02-4.75942E-04-1.43923E-13
 -1      2391 1.39408E-02-4.76246E-04-1.46526E-13
 -1      2392 1.37363E-02-4.38351E-04-1.42485E-13
 -1      2393 1.40878E-02-4.76334E-04-1.49134E-13
 -1      2394 1.42340E-02-4.75855E-04-1.51745E-13
 -1      2395 1.40298E-02-4.39684E-04-1.47687E-13
 -1      2396 1.86468E-03 5.24682E-04-3.13379E-15
 -1      2397 1.72450E-03 5.12095E-04-2.65181E-15
 -1      2398 2.14467E-03 5.43526E-04-4.22188E-15
 -1      2399 2.00472E-03 5.35100E-04-3.65724E-15
 -1      2400 1.92414E-03 4.93987E-04-3.49933E-15
 -1      2401 2.42466E-03 5.55697E-04-5.47209E-15
 -1      2402 2.28465E-03 5.50342E-04-4.82664E-15
 -1      2403 2.20619E-03 5.10774E-04-4.63896E-15
 -1      2404 2.70504E-03 5.62949E-04-6.88346E-15
 -1      2405 2.56479E-03 5.59859E-04-6.15789E-15
 -1      2406 2.48811E-03 5.21417E-04-5.93925E-15
 -1      2407 2.98604E-03 5.66574E-04-8.45367E-15
 -1      2408 2.84546E-03 5.65156E-04-7.64867E-15
 -1      2409 2.77021E-03 5.27532E-04-7.39881E-15
 -1      2410 3.26780E-03 5.67508E-04-1.01793E-14
 -1      2411 3.12683E-03 5.67334E-04-9.29735E-15
 -1      2412 3.05271E-03 5.30306E-04-9.01642E-15
 -1      2413 3.55036E-03 5.66404E-04-1.20597E-14
 -1      2414 3.40898E-03 5.67180E-04-1.11002E-14
 -1      2415 3.33572E-03 5.30594E-04-1.07879E-14
 -1      2416 3.83377E-03 5.63705E-04-1.40927E-14
 -1      2417 3.69196E-03 5.65233E-04-1.30572E-14
 -1      2418 3.61931E-03 5.28990E-04-1.27120E-14
 -1      2419 4.11808E-03 5.59687E-04-1.62766E-14
 -1      2420 3.97581E-03 5.61846E-04-1.51655E-14
 -1      2421 3.90354E-03 5.25884E-04-1.47877E-14
 -1      2422 4.40335E-03 5.54508E-04-1.86104E-14
 -1      2423 4.26059E-03 5.57232E-04-1.74252E-14
 -1      2424 4.18847E-03 5.21514E-04-1.70133E-14
 -1      2425 4.68971E-03 5.48254E-04-2.10908E-14
 -1      2426 4.54638E-03 5.51508E-04-1.98321E-14
 -1      2427 4.47417E-03 5.16012E-04-1.93884E-14
 -1      2428 4.97731E-03 5.40985E-04-2.37115E-14
 -1      2429 4.83333E-03 5.44738E-04-2.23841E-14
 -1      2430 4.76074E-03 5.09445E-04-2.19076E-14
 -1      2431 5.26638E-03 5.32779E-04-2.64707E-14
 -1      2432 5.12164E-03 5.36987E-04-2.50743E-14
 -1      2433 5.04833E-03 5.01865E-04-2.45671E-14
 -1      2434 5.55724E-03 5.23799E-04-2.93662E-14
 -1      2435 5.41156E-03 5.28366E-04-2.79006E-14
 -1      2436 5.33714E-03 4.93354E-04-2.73644E-14
 -1      2437 5.85026E-03 5.14370E-04-3.23972E-14
 -1      2438 5.70344E-03 5.19109E-04-3.08653E-14
 -1      2439 5.62742E-03 4.84093E-04-3.02962E-14
 -1      2440 6.14590E-03 5.05071E-04-3.55605E-14
 -1      2441 5.99770E-03 5.09654E-04-3.39628E-14
 -1      2442 5.91947E-03 4.74439E-04-3.33628E-14
 -1      2443 6.44471E-03 4.96867E-04-3.88491E-14
 -1      2444 6.29485E-03 5.00756E-04-3.71893E-14
 -1      2445 6.21370E-03 4.65022E-04-3.65603E-14
 -1      2446 6.74728E-03 4.91253E-04-4.22598E-14
 -1      2447 6.59546E-03 4.93624E-04-4.05394E-14
 -1      2448 6.51057E-03 4.56878E-04-3.98816E-14
 -1      2449 7.05427E-03 4.90432E-04-4.57873E-14
 -1      2450 6.90016E-03 4.90086E-04-4.40083E-14
 -1      2451 6.81067E-03 4.51595E-04-4.33216E-14
 -1      2452 7.36637E-03 4.97463E-04-4.94258E-14
 -1      2453 7.20964E-03 4.92754E-04-4.75924E-14
 -1      2454 7.11472E-03 4.51481E-04-4.68765E-14
 -1      2455 7.68422E-03 5.16333E-04-5.31753E-14
 -1      2456 7.52458E-03 5.05150E-04-5.12882E-14
 -1      2457 7.42362E-03 4.59719E-04-5.05440E-14
 -1      2458 8.00829E-03 5.51770E-04-5.70237E-14
 -1      2459 7.84555E-03 5.31676E-04-5.50868E-14
 -1      2460 7.73845E-03 4.80428E-04-5.43174E-14
 -1      2461 8.33865E-03 6.08554E-04-6.09729E-14
 -1      2462 8.17288E-03 5.77217E-04-5.89862E-14
 -1      2463 8.06040E-03 5.18488E-04-5.81918E-14
 -1      2464 8.67432E-03 6.89922E-04-6.50189E-14
 -1      2465 8.50617E-03 6.46062E-04-6.29839E-14
 -1      2466 8.39040E-03 5.78864E-04-6.21639E-14
 -1      2467 9.01262E-03 7.94729E-04-6.91570E-14
 -1      2468 8.84366E-03 7.39710E-04-6.70773E-14
 -1      2469 8.72822E-03 6.64943E-04-6.62334E-14
 -1      2470 9.34867E-03 9.13655E-04-7.33867E-14
 -1      2471 9.18150E-03 8.53453E-04-7.12598E-14
 -1      2472 9.07113E-03 7.75349E-04-7.03937E-14
 -1      2473 9.67665E-03 1.02654E-03-7.77055E-14
 -1      2474 9.51393E-03 9.72585E-04-7.55338E-14
 -1      2475 9.41304E-03 8.99211E-04-7.46429E-14
 -1      2476 9.99365E-03 1.10526E-03-8.21190E-14
 -1      2477 9.83616E-03 1.07206E-03-7.99001E-14
 -1      2478 9.74652E-03 1.01286E-03-7.89831E-14
 -1      2479 1.03031E-02 1.12515E-03-8.66303E-14
 -1      2480 1.01483E-02 1.12360E-03-8.43638E-14
 -1      2481 1.00682E-02 1.08411E-03-8.34218E-14
 -1      2482 1.06143E-02 1.07900E-03-9.12344E-14
 -1      2483 1.04574E-02 1.10976E-03-8.89219E-14
 -1      2484 1.03836E-02 1.08752E-03-8.79572E-14
 -1      2485 1.09348E-02 9.82234E-04-9.59192E-14
 -1      2486 1.07729E-02 1.03522E-03-9.35676E-14
 -1      2487 1.07039E-02 1.02152E-03-9.25843E-14
 -1      2488 1.12657E-02 8.62728E-04-1.00672E-13
 -1      2489 1.10993E-02 9.23493E-04-9.82874E-14
 -1      2490 1.10358E-02 9.09727E-04-9.72887E-14
 -1      2491 1.16022E-02 7.46320E-04-1.05483E-13
 -1      2492 1.14338E-02 8.02886E-04-1.03071E-13
 -1      2493 1.13765E-02 7.84471E-04-1.02057E-13
 -1      2494 1.19385E-02 6.48796E-04-1.10347E-13
 -1      2495 1.17709E-02 6.94689E-04-1.07908E-13
 -1      2496 1.17188E-02 6.70694E-04-1.06881E-13
 -1      2497 1.22705E-02 5.75631E-04-1.15263E-13
 -1      2498 1.21054E-02 6.09158E-04-1.12799E-13
 -1      2499 1.20561E-02 5.80428E-04-1.11761E-13
 -1      2500 1.25962E-02 5.25579E-04-1.20229E-13
 -1      2501 1.24343E-02 5.47950E-04-1.17739E-13
 -1      2502 1.23855E-02 5.15684E-04-1.16691E-13
 -1      2503 1.29150E-02 4.94195E-04-1.25235E-13
 -1      2504 1.27565E-02 5.07866E-04-1.22726E-13
 -1      2505 1.27064E-02 4.73148E-04-1.21667E-13
 -1      2506 1.32271E-02 4.76129E-04-1.30282E-13
 -1      2507 1.30719E-02 4.83805E-04-1.27755E-13
 -1      2508 1.30197E-02 4.47571E-04-1.26686E-13
 -1      2509 1.35331E-02 4.66280E-04-1.35364E-13
 -1      2510 1.33808E-02 4.70450E-04-1.32821E-13
 -1      2511 1.33264E-02 4.33529E-04-1.31743E-13
 -1      2512 1.38336E-02 4.60217E-04-1.40469E-13
 -1      2513 1.36839E-02 4.63009E-04-1.37912E-13
 -1      2514 1.36277E-02 4.26160E-04-1.36828E-13
 -1      2515 1.41293E-02 4.54246E-04-1.45604E-13
 -1      2516 1.39820E-02 4.57420E-04-1.43033E-13
 -1      2517 1.39245E-02 4.21338E-04-1.41944E-13
 -1      2518 1.44210E-02 4.45367E-04-1.50761E-13
 -1      2519 1.42756E-02 4.50340E-04-1.48181E-13
 -1      2520 1.42173E-02 4.15657E-04-1.47086E-13
 -1      2521 1.45700E-02 4.39884E-04-1.53426E-13
 -1      2522 1.46249E-02 1.46257E-04-1.53741E-13
 -1      2523 1.46092E-02 1.80707E-04-1.53525E-13
 -1      2524 1.46509E-02 7.96903E-05-1.54166E-13
 -1      2525 1.46390E-02 1.12654E-04-1.53954E-13
 -1      2526 1.45120E-02 1.31659E-04-1.51595E-13
 -1      2527 1.45568E-02 2.88207E-04-1.52874E-13
 -1      2528 1.45386E-02 3.26352E-04-1.52651E-13
 -1      2529 1.45923E-02 2.15707E-04-1.53309E-13
 -1      2530 1.45748E-02 2.51337E-04-1.53093E-13
 -1      2531 1.44430E-02 2.73287E-04-1.50738E-13
 -1      2532 1.44796E-02 2.00818E-04-1.51168E-13
 -1      2533 1.46675E-02 1.53913E-05-1.54582E-13
 -1      2534 1.46605E-02 4.73659E-05-1.54377E-13
 -1      2535 1.45367E-02 6.52303E-05-1.52014E-13
 -1      2536 1.46729E-02-4.78508E-05-1.54990E-13
 -1      2537 1.46716E-02-1.62352E-05-1.54789E-13
 -1      2538 1.45511E-02 8.28894E-07-1.52428E-13
 -1      2539 1.46668E-02-1.11399E-04-1.55383E-13
 -1      2540 1.46713E-02-7.94588E-05-1.55187E-13
 -1      2541 1.45536E-02-6.28292E-05-1.52826E-13
 -1      2542 1.46506E-02-1.75451E-04-1.55755E-13
 -1      2543 1.46599E-02-1.43121E-04-1.55571E-13
 -1      2544 1.45444E-02-1.26592E-04-1.53209E-13
 -1      2545 1.46258E-02-2.43311E-04-1.56119E-13
 -1      2546 1.46391E-02-2.08960E-04-1.55939E-13
 -1      2547 1.45249E-02-1.92276E-04-1.53581E-13
 -1      2548 1.45958E-02-3.14670E-04-1.56472E-13
 -1      2549 1.46112E-02-2.78510E-04-1.56298E-13
 -1      2550 1.44973E-02-2.61502E-04-1.53943E-13
 -1      2551 1.45642E-02-3.89918E-04-1.56811E-13
 -1      2552 1.45800E-02-3.51805E-04-1.56641E-13
 -1      2553 1.44653E-02-3.34406E-04-1.54292E-13
 -1      2554 1.24760E-02 2.52479E-06-1.03777E-13
 -1      2555 1.25197E-02-8.79376E-06-1.04126E-13
 -1      2556 1.22782E-02 5.67826E-05-1.03015E-13
 -1      2557 1.23954E-02 2.51127E-05-1.03442E-13
 -1      2558 1.25233E-02-2.28939E-05-1.04354E-13
 -1      2559 1.24788E-02-3.46057E-05-1.04404E-13
 -1      2560 1.58403E-03 4.96797E-04-2.21115E-15
 -1      2561 1.44314E-03 4.78577E-04-1.81174E-15
 -1      2562 1.64147E-03 4.68893E-04-2.52279E-15
 -1      2563 1.46163E-02-4.57480E-04-1.58527E-13
 -1      2564 1.19599E-02 1.73184E-04-1.01376E-13
 -1      2565 1.21078E-02 1.15604E-04-1.02232E-13
 -1      2566 1.15289E-02 3.82330E-04-9.88472E-14
 -1      2567 1.17607E-02 2.63282E-04-1.00175E-13
 -1      2568 1.21471E-02-1.35522E-04-1.03537E-13
 -1      2569 1.19977E-02-1.92068E-04-1.02612E-13
 -1      2570 1.11130E-02 6.24924E-04-9.59460E-14
 -1      2571 1.12786E-02 5.23983E-04-9.73110E-14
 -1      2572 1.01421E-02-1.00248E-03-8.79161E-14
 -1      2573 1.00134E-02-9.69661E-04-8.65130E-14
 -1      2574 1.03809E-02 9.72923E-04-8.84318E-14
 -1      2575 1.05134E-02 9.35723E-04-8.98968E-14
 -1      2576 5.46770E-04-2.29211E-05-5.62714E-16
 -1      2577 5.47219E-04-3.89753E-05-5.65018E-16
 -1      2578 6.62712E-04-5.58546E-05-7.65352E-16
 -1      2579 6.61504E-04-1.77182E-05-7.59633E-16
 -1      2580 1.00457E-02 9.57272E-04-8.46947E-14
 -1      2581 1.02070E-02 9.84634E-04-8.65033E-14
 -1      2582 8.21382E-03 6.27340E-05-7.36824E-14
 -1      2583 8.33748E-03 1.01700E-04-7.40196E-14
 -1      2584 9.73031E-03 8.25452E-04-8.14903E-14
 -1      2585 9.86181E-03 8.93533E-04-8.27332E-14
 -1      2586 9.31916E-03 5.85145E-04-7.85576E-14
 -1      2587 9.52690E-03 7.11455E-04-7.99548E-14
 -1      2588 8.94796E-03 3.73563E-04-7.62367E-14
 -1      2589 9.10731E-03 4.62681E-04-7.70876E-14
 -1      2590 1.18449E-02-2.58720E-04-1.01909E-13
 -1      2591 1.16826E-02-3.36273E-04-1.01204E-13
 -1      2592 1.19241E-02-2.28539E-04-1.03583E-13
 -1      2593 8.53716E-03 1.78350E-04-7.45422E-14
 -1      2594 8.74224E-03 2.69966E-04-7.53876E-14
 -1      2595 8.82098E-03 3.15095E-04-7.47413E-14
 -1      2596 8.02457E-03 1.08971E-05-7.31155E-14
 -1      2597 8.10189E-03 2.91044E-05-7.33270E-14
 -1      2598 7.98510E-03-1.18921E-05-7.29863E-14
 -1      2599 7.98278E-03-4.88251E-06-7.29554E-14
 -1      2600 8.12759E-03-5.13754E-05-7.38242E-14
 -1      2601 8.03853E-03-2.98870E-05-7.33827E-14
 -1      2602 8.83968E-03-3.35627E-04-7.74708E-14
 -1      2603 8.67294E-03-2.54286E-04-7.64463E-14
 -1      2604 9.18591E-03-5.26980E-04-7.96437E-14
 -1      2605 9.01115E-03-4.26906E-04-7.85534E-14
 -1      2606 8.92713E-03-3.80634E-04-7.73334E-14
 -1      2607 9.53966E-03-7.36657E-04-8.20976E-14
 -1      2608 9.38061E-03-6.39451E-04-8.08938E-14
 -1      2609 9.86396E-03-9.12313E-04-8.50242E-14
 -1      2610 9.72221E-03-8.38675E-04-8.36837E-14
 -1      2611 1.04053E-02-9.96625E-04-9.08345E-14
 -1      2612 1.02932E-02-1.01135E-03-8.95754E-14
 -1      2613 1.07451E-02-8.66072E-04-9.42679E-14
 -1      2614 1.05719E-02-9.47557E-04-9.25803E-14
 -1      2615 1.10796E-02-6.76074E-04-9.70946E-14
 -1      2616 1.09364E-02-7.62983E-04-9.59895E-14
 -1      2617 1.14700E-02-4.49300E-04-9.97544E-14
 -1      2618 1.12713E-02-5.64432E-04-9.84234E-14
 -1      2619 1.11938E-02-6.13222E-04-9.86328E-14
 -1      2620 1.24000E-02-5.67945E-05-1.04626E-13
 -1      2621 1.23148E-02-7.89759E-05-1.04395E-13
 -1      2622 5.88402E-04-2.38055E-04-4.85519E-16
 -1      2623 7.81155E-04-3.04888E-04-7.67791E-16
 -1      2624 8.40622E-04-2.93660E-04-9.30801E-16
 -1      2625 5.78908E-04-2.10263E-04-5.11323E-16
 -1      2626 7.57688E-04 3.34280E-04-4.63713E-16
 -1      2627 6.11314E-04 2.84927E-04-3.03685E-16
 -1      2628 5.84619E-04 2.58166E-04-3.17143E-16
 -1      2629 8.13541E-04 3.22954E-04-6.12384E-16
 -1      2630 1.02922E-02 9.87255E-04-8.74030E-14
 -1      2631 6.70342E-04-1.38033E-04-7.54645E-16
 -1      2632 5.54685E-04-1.26294E-04-5.53729E-16
 -1      2633 5.57808E-04-1.46296E-04-5.44771E-16
 -1      2634 1.35751E-03 4.32615E-04-1.71103E-15
 -1      2635 5.72158E-04 2.27978E-04-3.57949E-16
 -1      2636 1.05039E-02-9.74978E-04-9.20994E-14
 -1      2637 9.93418E-03-9.45723E-04-8.55487E-14
 -1      2638 1.09830E-02 7.10405E-04-9.50918E-14
 -1      2639 9.27599E-03-5.79559E-04-7.96546E-14
 -1      2640 1.22168E-02 7.96646E-05-1.03654E-13
 -1      2641 8.19417E-03-6.95395E-05-7.35258E-14
 -1      2642 8.11868E-03-5.22991E-05-7.23284E-14
 -1      2643 8.26397E-03-9.31022E-05-7.32253E-14
 -1      2644 1.45114E-02 4.07157E-04-1.52330E-13
 -1      2645 1.45084E-02 3.76228E-04-1.52221E-13
 -1      2646 7.99450E-03-1.86042E-05-7.22337E-14
 -1      2647 1.25382E-02-1.64025E-05-1.05339E-13
 -1      2648 1.24524E-02 1.04087E-05-1.04775E-13
 -1      2649 1.24665E-02-4.28874E-05-1.05789E-13
 -1      2650 6.89444E-04 2.51328E-04-5.24998E-16
 -1      2651 1.14299E-02 4.46018E-04-9.89158E-14
 -1      2652 8.13932E-03 4.02711E-05-7.25129E-14
 -1      2653 1.18627E-02 2.20154E-04-1.01662E-13
 -1      2654 5.71797E-04-1.85292E-04-5.30934E-16
 -1      2655 1.15804E-02-3.94471E-04-1.01420E-13
 -1      2656 1.22385E-02-1.09012E-04-1.05151E-13
 -1      2657 9.20921E-03 5.28918E-04-7.70418E-14
 -1      2658 9.60579E-03 7.63880E-04-8.00320E-14
 -1      2659 1.06080E-02 9.05040E-04-9.10728E-14
 -1      2660 1.02105E-02-1.01416E-03-8.86927E-14
 -1      2661 8.55937E-03-2.01245E-04-7.53425E-14
 -1      2662 8.45312E-03-1.61745E-04-7.42453E-14
 -1      2663 8.64700E-03-2.45172E-04-7.51545E-14
 -1      2664 8.43639E-03 1.40285E-04-7.33836E-14
 -1      2665 9.95998E-03 9.37142E-04-8.35149E-14
 -1      2666 7.98770E-03 1.85255E-06-7.20007E-14
 -1      2667 9.62540E-03-7.89336E-04-8.24788E-14
 -1      2668 1.08369E-02-8.23176E-04-9.55722E-14
 -1      2669 1.44613E-02-4.75568E-04-1.55861E-13
 -1      2670 1.45258E-02-4.24045E-04-1.56494E-13
 -1      2671 1.44095E-02-4.06048E-04-1.54145E-13
 -1      2672 1.43321E-02-4.75858E-04-1.53512E-13
 -1      2673 1.43927E-02 3.60524E-04-1.50094E-13
 -1      2674 1.42731E-02-4.40453E-04-1.52060E-13
 -1      2675 7.80426E-04 7.73763E-05-9.45180E-16
 -1      2676 7.79185E-04 5.55034E-05-9.58814E-16
 -1      2677 7.78352E-04 3.35790E-05-9.70307E-16
 -1      2678 7.77935E-04 1.19027E-05-9.79794E-16
 -1      2679 8.96801E-04 4.96998E-05-1.22134E-15
 -1      2680 7.91634E-04 1.73210E-04-8.62293E-16
 -1      2681 7.87671E-04 1.47788E-04-8.88111E-16
 -1      2682 8.03393E-04 2.28413E-04-7.97891E-16
 -1      2683 7.96825E-04 2.00021E-04-8.32789E-16
 -1      2684 9.14925E-04 2.07890E-04-1.08103E-15
 -1      2685 1.12964E-03 3.61957E-04-1.27490E-15
 -1      2686 9.86059E-04 3.32932E-04-9.84700E-16
 -1      2687 1.13838E-02 4.95809E-04-9.93857E-14
 -1      2688 1.15994E-02 3.67276E-04-1.00932E-13
 -1      2689 1.41584E-03 4.07715E-04-1.97733E-15
 -1      2690 1.27281E-03 3.86764E-04-1.60555E-15
 -1      2691 1.18956E-03 3.41480E-04-1.49644E-15
 -1      2692 8.02982E-04 2.78317E-04-6.97047E-16
 -1      2693 1.21699E-02 1.03268E-04-1.04538E-13
 -1      2694 1.23191E-02 5.33156E-05-1.05326E-13
 -1      2695 1.32002E-03-3.62682E-04-2.15465E-15
 -1      2696 1.46324E-03-3.81579E-04-2.60219E-15
 -1      2697 1.60627E-03-3.97555E-04-3.09183E-15
 -1      2698 1.74919E-03-4.10833E-04-3.62395E-15
 -1      2699 1.52494E-03-3.55210E-04-2.87754E-15
 -1      2700 1.89196E-03-4.21878E-04-4.19787E-15
 -1      2701 2.03461E-03-4.30873E-04-4.81300E-15
 -1      2702 1.81163E-03-3.80857E-04-3.94404E-15
 -1      2703 2.17716E-03-4.38189E-04-5.46946E-15
 -1      2704 2.31963E-03-4.43974E-04-6.16670E-15
 -1      2705 2.09810E-03-3.98325E-04-5.17571E-15
 -1      2706 2.46206E-03-4.48510E-04-6.90410E-15
 -1      2707 2.60444E-03-4.51914E-04-7.68179E-15
 -1      2708 2.38430E-03-4.09598E-04-6.56945E-15
 -1      2709 2.74682E-03-4.54393E-04-8.49959E-15
 -1      2710 2.88919E-03-4.56038E-04-9.35587E-15
 -1      2711 2.67028E-03-4.16247E-04-8.12315E-15
 -1      2712 3.03158E-03-4.56997E-04-1.02513E-14
 -1      2713 3.17399E-03-4.57336E-04-1.11849E-14
 -1      2714 2.95611E-03-4.19469E-04-9.83373E-15
 -1      2715 3.31644E-03-4.57160E-04-1.21563E-14
 -1      2716 3.45893E-03-4.56515E-04-1.31666E-14
 -1      2717 3.24186E-03-4.20145E-04-1.16974E-14
 -1      2718 3.60148E-03-4.55469E-04-1.42135E-14
 -1      2719 3.74407E-03-4.54052E-04-1.52974E-14
 -1      2720 3.52758E-03-4.18897E-04-1.37126E-14
 -1      2721 3.88674E-03-4.52306E-04-1.64182E-14
 -1      2722 4.02946E-03-4.50250E-04-1.75745E-14
 -1      2723 3.81331E-03-4.16142E-04-1.58760E-14
 -1      2724 4.17226E-03-4.47906E-04-1.87675E-14
 -1      2725 4.31514E-03-4.45284E-04-1.99966E-14
 -1      2726 4.09909E-03-4.12140E-04-1.81852E-14
 -1      2727 4.45811E-03-4.42393E-04-2.12606E-14
 -1      2728 4.60117E-03-4.39240E-04-2.25582E-14
 -1      2729 4.38494E-03-4.07032E-04-2.06366E-14
 -1      2730 4.74432E-03-4.35826E-04-2.38899E-14
 -1      2731 4.88759E-03-4.32157E-04-2.52559E-14
 -1      2732 4.67088E-03-4.00886E-04-2.32281E-14
 -1      2733 5.03097E-03-4.28238E-04-2.66550E-14
 -1      2734 5.17450E-03-4.24077E-04-2.80871E-14
 -1      2735 4.95694E-03-3.93734E-04-2.59535E-14
 -1      2736 5.31814E-03-4.19689E-04-2.95521E-14
 -1      2737 5.46197E-03-4.15090E-04-3.10495E-14
 -1      2738 5.24314E-03-3.85616E-04-2.88132E-14
 -1      2739 5.60595E-03-4.10316E-04-3.25791E-14
 -1      2740 5.75015E-03-4.05400E-04-3.41414E-14
 -1      2741 5.52953E-03-3.76632E-04-3.18028E-14
 -1      2742 5.89453E-03-4.00408E-04-3.57346E-14
 -1      2743 6.03920E-03-3.95401E-04-3.73594E-14
 -1      2744 5.81615E-03-3.67000E-04-3.49217E-14
 -1      2745 6.18411E-03-3.90492E-04-3.90165E-14
 -1      2746 6.32938E-03-3.85780E-04-4.07041E-14
 -1      2747 6.10311E-03-3.57132E-04-3.81684E-14
 -1      2748 6.47499E-03-3.81439E-04-4.24212E-14
 -1      2749 6.62109E-03-3.77628E-04-4.41676E-14
 -1      2750 6.39061E-03-3.47724E-04-4.15376E-14
 -1      2751 6.76767E-03-3.74597E-04-4.59433E-14
 -1      2752 6.91492E-03-3.72593E-04-4.77485E-14
 -1      2753 6.67900E-03-3.39866E-04-4.50250E-14
 -1      2754 7.06292E-03-3.71947E-04-4.95824E-14
 -1      2755 7.21187E-03-3.73036E-04-5.14421E-14
 -1      2756 6.96895E-03-3.35171E-04-4.86297E-14
 -1      2757 7.36197E-03-3.76267E-04-5.33297E-14
 -1      2758 7.51348E-03-3.82209E-04-5.52440E-14
 -1      2759 7.26162E-03-3.35928E-04-5.23446E-14
 -1      2760 7.66675E-03-3.91314E-04-5.71841E-14
 -1      2761 7.82205E-03-4.04420E-04-5.91510E-14
 -1      2762 7.55895E-03-3.45297E-04-5.61665E-14
 -1      2763 7.97999E-03-4.21954E-04-6.11427E-14
 -1      2764 8.14069E-03-4.45099E-04-6.31595E-14
 -1      2765 7.86400E-03-3.67563E-04-6.00922E-14
 -1      2766 8.30507E-03-4.74156E-04-6.52031E-14
 -1      2767 8.47278E-03-5.10556E-04-6.72699E-14
 -1      2768 8.18100E-03-4.08482E-04-6.41210E-14
 -1      2769 8.64496E-03-5.54328E-04-6.93592E-14
 -1      2770 8.82021E-03-6.06523E-04-7.14712E-14
 -1      2771 8.51480E-03-4.75445E-04-6.82455E-14
 -1      2772 8.99950E-03-6.66500E-04-7.36049E-14
 -1      2773 9.17999E-03-7.33621E-04-7.57628E-14
 -1      2774 8.86836E-03-5.76215E-04-7.24603E-14
 -1      2775 9.36223E-03-8.06432E-04-7.79441E-14
 -1      2776 9.54219E-03-8.79612E-04-8.01448E-14
 -1      2777 9.23794E-03-7.13629E-04-7.67673E-14
 -1      2778 9.71913E-03-9.49578E-04-8.23682E-14
 -1      2779 9.89212E-03-1.00760E-03-8.46125E-14
 -1      2780 9.61044E-03-8.72537E-04-8.11629E-14
 -1      2781 1.00592E-02-1.04970E-03-8.68789E-14
 -1      2782 1.02253E-02-1.06799E-03-8.91655E-14
 -1      2783 9.96736E-03-1.00476E-03-8.56459E-14
 -1      2784 1.03885E-02-1.06096E-03-9.14730E-14
 -1      2785 1.05561E-02-1.03065E-03-9.38001E-14
 -1      2786 1.03080E-02-1.04716E-03-9.02147E-14
 -1      2787 1.07264E-02-9.79069E-04-9.61499E-14
 -1      2788 1.09018E-02-9.15557E-04-9.85198E-14
 -1      2789 1.06523E-02-9.75906E-04-9.48661E-14
 -1      2790 1.10810E-02-8.44186E-04-1.00907E-13
 -1      2791 1.12618E-02-7.73141E-04-1.03312E-13
 -1      2792 1.10153E-02-8.32268E-04-9.95997E-14
 -1      2793 1.14436E-02-7.05429E-04-1.05735E-13
 -1      2794 1.16228E-02-6.44189E-04-1.08172E-13
 -1      2795 1.13885E-02-6.80704E-04-1.04408E-13
 -1      2796 1.18000E-02-5.90849E-04-1.10627E-13
 -1      2797 1.19729E-02-5.45379E-04-1.13099E-13
 -1      2798 1.17542E-02-5.57587E-04-1.09283E-13
 -1      2799 1.21424E-02-5.08168E-04-1.15581E-13
 -1      2800 1.23075E-02-4.77807E-04-1.18078E-13
 -1      2801 1.21016E-02-4.71307E-04-1.14218E-13
 -1      2802 1.24694E-02-4.54176E-04-1.20586E-13
 -1      2803 1.26280E-02-4.35853E-04-1.23106E-13
 -1      2804 1.24297E-02-4.16485E-04-1.19207E-13
 -1      2805 1.27839E-02-4.22449E-04-1.25642E-13
 -1      2806 1.29375E-02-4.12857E-04-1.28188E-13
 -1      2807 1.27424E-02-3.84823E-04-1.24249E-13
 -1      2808 1.30892E-02-4.06570E-04-1.30743E-13
 -1      2809 1.32392E-02-4.02795E-04-1.33307E-13
 -1      2810 1.30445E-02-3.69160E-04-1.29333E-13
 -1      2811 1.33880E-02-4.01002E-04-1.35880E-13
 -1      2812 1.35357E-02-4.00627E-04-1.38460E-13
 -1      2813 1.33398E-02-3.63844E-04-1.34457E-13
 -1      2814 1.36825E-02-4.01175E-04-1.41047E-13
 -1      2815 1.38285E-02-4.02225E-04-1.43640E-13
 -1      2816 1.36311E-02-3.64436E-04-1.39612E-13
 -1      2817 1.39738E-02-4.03345E-04-1.46238E-13
 -1      2818 1.41186E-02-4.04200E-04-1.48842E-13
 -1      2819 1.39197E-02-3.67360E-04-1.44793E-13
 -1      2820 2.26887E-03 4.77376E-04-5.06202E-15
 -1      2821 2.12705E-03 4.70800E-04-4.44707E-15
 -1      2822 1.42815E-02 3.14159E-04-1.47935E-13
 -1      2823 1.42487E-02 3.64117E-04-1.47511E-13
 -1      2824 1.41041E-02 3.66780E-04-1.44935E-13
 -1      2825 1.98515E-03 4.62558E-04-3.87255E-15
 -1      2826 1.84312E-03 4.52490E-04-3.33773E-15
 -1      2827 2.04747E-03 4.30540E-04-4.25236E-15
 -1      2828 2.83598E-03 4.91654E-04-7.92029E-15
 -1      2829 2.69418E-03 4.89572E-04-7.14678E-15
 -1      2830 3.11977E-03 4.93664E-04-9.58389E-15
 -1      2831 2.97785E-03 4.92993E-04-8.73277E-15
 -1      2832 2.90234E-03 4.55414E-04-8.44722E-15
 -1      2833 3.40386E-03 4.93388E-04-1.14004E-14
 -1      2834 3.26178E-03 4.93778E-04-1.04731E-14
 -1      2835 3.18723E-03 4.56733E-04-1.01565E-14
 -1      2836 3.68833E-03 4.91358E-04-1.33683E-14
 -1      2837 3.54605E-03 4.92569E-04-1.23654E-14
 -1      2838 3.47224E-03 4.55964E-04-1.20176E-14
 -1      2839 3.97324E-03 4.87915E-04-1.54868E-14
 -1      2840 3.83073E-03 4.89798E-04-1.44091E-14
 -1      2841 3.75744E-03 4.53575E-04-1.40291E-14
 -1      2842 4.25864E-03 4.83263E-04-1.77553E-14
 -1      2843 4.11587E-03 4.85732E-04-1.66024E-14
 -1      2844 4.04287E-03 4.49864E-04-1.61906E-14
 -1      2845 4.54459E-03 4.77509E-04-2.01698E-14
 -1      2846 4.40154E-03 4.80519E-04-1.89442E-14
 -1      2847 4.32858E-03 4.44998E-04-1.85000E-14
 -1      2848 4.83119E-03 4.70706E-04-2.27278E-14
 -1      2849 4.68780E-03 4.74235E-04-2.14312E-14
 -1      2850 4.61461E-03 4.39064E-04-2.09547E-14
 -1      2851 5.11854E-03 4.62899E-04-2.54258E-14
 -1      2852 4.97475E-03 4.66922E-04-2.40593E-14
 -1      2853 4.90103E-03 4.32104E-04-2.35513E-14
 -1      2854 5.40680E-03 4.54179E-04-2.82598E-14
 -1      2855 5.26253E-03 4.58643E-04-2.68261E-14
 -1      2856 5.18790E-03 4.24160E-04-2.62866E-14
 -1      2857 5.69615E-03 4.44744E-04-3.12293E-14
 -1      2858 5.55131E-03 4.49533E-04-2.97277E-14
 -1      2859 5.47532E-03 4.15332E-04-2.91582E-14
 -1      2860 5.98685E-03 4.34981E-04-3.43302E-14
 -1      2861 5.84130E-03 4.39872E-04-3.27631E-14
 -1      2862 5.76342E-03 4.05835E-04-3.21635E-14
 -1      2863 6.27922E-03 4.25563E-04-3.75610E-14
 -1      2864 6.13279E-03 4.30176E-04-3.59298E-14
 -1      2865 6.05239E-03 3.96078E-04-3.52999E-14
 -1      2866 6.57370E-03 4.17575E-04-4.09129E-14
 -1      2867 6.42615E-03 4.21308E-04-3.92220E-14
 -1      2868 6.34249E-03 3.86763E-04-3.85631E-14
 -1      2869 6.87087E-03 4.12660E-04-4.43839E-14
 -1      2870 6.72188E-03 4.14611E-04-4.26350E-14
 -1      2871 6.63413E-03 3.78998E-04-4.19467E-14
 -1      2872 7.17159E-03 4.13185E-04-4.79672E-14
 -1      2873 7.02071E-03 4.12066E-04-4.61613E-14
 -1      2874 6.92795E-03 3.74443E-04-4.54469E-14
 -1      2875 7.47705E-03 4.22386E-04-5.16614E-14
 -1      2876 7.32364E-03 4.16453E-04-4.97997E-14
 -1      2877 7.22500E-03 3.75456E-04-4.90582E-14
 -1      2878 7.78891E-03 4.44459E-04-5.54604E-14
 -1      2879 7.63210E-03 4.31484E-04-5.35492E-14
 -1      2880 7.52685E-03 3.85269E-04-5.27795E-14
 -1      2881 8.10920E-03 4.84449E-04-5.93599E-14
 -1      2882 7.94797E-03 4.61809E-04-5.73971E-14
 -1      2883 7.83583E-03 4.08120E-04-5.66053E-14
 -1      2884 8.43986E-03 5.47674E-04-6.33566E-14
 -1      2885 8.27333E-03 5.12739E-04-6.13459E-14
 -1      2886 8.15496E-03 4.49308E-04-6.05286E-14
 -1      2887 8.78150E-03 6.38117E-04-6.74463E-14
 -1      2888 8.60968E-03 5.89275E-04-6.53896E-14
 -1      2889 8.48735E-03 5.14855E-04-6.45474E-14
 -1      2890 9.13115E-03 7.54691E-04-7.16288E-14
 -1      2891 8.95605E-03 6.93531E-04-6.95275E-14
 -1      2892 8.83430E-03 6.09978E-04-6.86606E-14
 -1      2893 9.48090E-03 8.85258E-04-7.58976E-14
 -1      2894 9.30693E-03 8.19893E-04-7.37514E-14
 -1      2895 9.19214E-03 7.34556E-04-7.28621E-14
 -1      2896 9.82078E-03 1.00107E-03-8.02627E-14
 -1      2897 9.65250E-03 9.47670E-04-7.80687E-14
 -1      2898 9.55037E-03 8.73854E-04-7.71539E-14
 -1      2899 1.01468E-02 1.06428E-03-8.47256E-14
 -1      2900 9.98455E-03 1.04201E-03-8.24806E-14
 -1      2901 9.89602E-03 9.92343E-04-8.15413E-14
 -1      2902 1.04678E-02 1.04768E-03-8.92849E-14
 -1      2903 1.03060E-02 1.06634E-03-8.69939E-14
 -1      2904 1.02267E-02 1.04343E-03-8.60297E-14
 -1      2905 1.07980E-02 9.58332E-04-9.39332E-14
 -1      2906 1.06306E-02 1.00988E-03-9.15990E-14
 -1      2907 1.05563E-02 1.00109E-03-9.06143E-14
 -1      2908 1.11420E-02 8.30973E-04-9.86564E-14
 -1      2909 1.09687E-02 8.96521E-04-9.62870E-14
 -1      2910 1.09000E-02 8.86268E-04-9.52859E-14
 -1      2911 1.14925E-02 7.02236E-04-1.03442E-13
 -1      2912 1.13176E-02 7.64934E-04-1.01042E-13
 -1      2913 1.12574E-02 7.45842E-04-1.00027E-13
 -1      2914 1.18390E-02 5.93794E-04-1.08282E-13
 -1      2915 1.16670E-02 6.44750E-04-1.05855E-13
 -1      2916 1.16156E-02 6.17670E-04-1.04828E-13
 -1      2917 1.21756E-02 5.12865E-04-1.13175E-13
 -1      2918 1.20090E-02 5.49999E-04-1.10723E-13
 -1      2919 1.19635E-02 5.17817E-04-1.09683E-13
 -1      2920 1.25010E-02 4.57600E-04-1.18120E-13
 -1      2921 1.23398E-02 4.82405E-04-1.15642E-13
 -1      2922 1.22969E-02 4.47797E-04-1.14592E-13
 -1      2923 1.28164E-02 4.22873E-04-1.23107E-13
 -1      2924 1.26599E-02 4.38079E-04-1.20608E-13
 -1      2925 1.26167E-02 4.02378E-04-1.19547E-13
 -1      2926 1.31239E-02 4.02973E-04-1.28135E-13
 -1      2927 1.29711E-02 4.11431E-04-1.25617E-13
 -1      2928 1.29258E-02 3.75221E-04-1.24547E-13
 -1      2929 1.34254E-02 3.92648E-04-1.33201E-13
 -1      2930 1.32753E-02 3.96912E-04-1.30664E-13
 -1      2931 1.32273E-02 3.60537E-04-1.29586E-13
 -1      2932 1.37222E-02 3.87413E-04-1.38294E-13
 -1      2933 1.35743E-02 3.89633E-04-1.35745E-13
 -1      2934 1.35236E-02 3.53455E-04-1.34657E-13
 -1      2935 1.39871E-02 3.76170E-04-1.42891E-13
 -1      2936 1.38410E-02 3.78003E-04-1.40326E-13
 -1      2937 1.37885E-02 3.42474E-04-1.39235E-13
 -1      2938 1.40224E-02 3.25089E-04-1.43310E-13
 -1      2939 1.44348E-02-1.40641E-05-1.50273E-13
 -1      2940 1.44304E-02 1.79489E-05-1.50073E-13
 -1      2941 1.42157E-02-4.05233E-04-1.50612E-13
 -1      2942 1.43127E-02-4.05874E-04-1.52378E-13
 -1      2943 1.41599E-02-3.70239E-04-1.49158E-13
 -1      2944 1.43995E-02 1.16250E-04-1.49450E-13
 -1      2945 1.43843E-02 1.50361E-04-1.49239E-13
 -1      2946 1.44342E-02-7.78750E-05-1.50663E-13
 -1      2947 1.44361E-02-4.58900E-05-1.50471E-13
 -1      2948 1.43186E-02-2.89639E-05-1.48121E-13
 -1      2949 1.44228E-02 5.01768E-05-1.49868E-13
 -1      2950 1.44125E-02 8.29383E-05-1.49660E-13
 -1      2951 1.42877E-02 1.00364E-04-1.47311E-13
 -1      2952 1.43094E-02 3.48834E-05-1.47723E-13
 -1      2953 1.44217E-02-1.41617E-04-1.51037E-13
 -1      2954 1.44293E-02-1.09499E-04-1.50851E-13
 -1      2955 1.43146E-02-9.21968E-05-1.48501E-13
 -1      2956 1.43986E-02-2.08786E-04-1.51408E-13
 -1      2957 1.44113E-02-1.74810E-04-1.51224E-13
 -1      2958 1.42983E-02-1.56907E-04-1.48873E-13
 -1      2959 1.43681E-02-2.79288E-04-1.51766E-13
 -1      2960 1.43841E-02-2.43553E-04-1.51587E-13
 -1      2961 1.42715E-02-2.24981E-04-1.49237E-13
 -1      2962 1.25284E-02-3.22855E-05-1.07062E-13
 -1      2963 1.24699E-02-4.86211E-05-1.07285E-13
 -1      2964 1.20171E-02-2.01503E-04-1.05150E-13
 -1      2965 1.18832E-02-2.59956E-04-1.04441E-13
 -1      2966 6.88533E-04-2.04100E-04-7.31823E-16
 -1      2967 8.69058E-03 2.64337E-04-7.31774E-14
 -1      2968 8.86751E-03 3.56587E-04-7.40112E-14
 -1      2969 8.07445E-03 2.83620E-05-7.12389E-14
 -1      2970 8.17501E-03 5.42029E-05-7.15897E-14
 -1      2971 1.08650E-02 7.93593E-04-9.42468E-14
 -1      2972 1.10736E-02 6.78424E-04-9.65281E-14
 -1      2973 9.33263E-03-6.24311E-04-7.95394E-14
 -1      2974 9.16328E-03-5.20067E-04-7.83014E-14
 -1      2975 9.11425E-03 4.95186E-04-7.54548E-14
 -1      2976 9.30163E-03 6.02174E-04-7.69112E-14
 -1      2977 1.70092E-03 4.40182E-04-2.84335E-15
 -1      2978 1.55849E-03 4.25434E-04-2.38966E-15
 -1      2979 1.47597E-03 3.82026E-04-2.25299E-15
 -1      2980 1.76197E-03 4.10800E-04-3.17239E-15
 -1      2981 1.24387E-02 1.72475E-05-1.05902E-13
 -1      2982 1.25084E-02 9.57254E-07-1.06239E-13
 -1      2983 2.55240E-03 4.86585E-04-6.41223E-15
 -1      2984 2.41065E-03 4.82595E-04-5.71735E-15
 -1      2985 2.33259E-03 4.43464E-04-5.49251E-15
 -1      2986 2.61750E-03 4.51315E-04-6.89165E-15
 -1      2987 1.03362E-03-3.14275E-04-1.38795E-15
 -1      2988 1.17683E-03-3.40344E-04-1.74966E-15
 -1      2989 1.23837E-03-3.19039E-04-1.97840E-15
 -1      2990 1.02754E-02-1.02348E-03-8.95568E-14
 -1      2991 1.01438E-02-1.01384E-03-8.78979E-14
 -1      2992 1.17932E-02 2.63571E-04-1.02108E-13
 -1      2993 1.19714E-02 1.83050E-04-1.03318E-13
 -1      2994 1.05821E-02-9.54784E-04-9.32650E-14
 -1      2995 1.04361E-02-1.00244E-03-9.15148E-14
 -1      2996 1.16749E-02-3.59044E-04-1.03035E-13
 -1      2997 1.14815E-02-4.59220E-04-1.01576E-13
 -1      2998 7.84561E-04 1.23523E-04-9.09944E-16
 -1      2999 7.82205E-04 1.00077E-04-9.29107E-16
 -1      3000 8.99866E-04 9.94863E-05-1.18788E-15
 -1      3001 9.05533E-04 1.51642E-04-1.14209E-15
 -1      3002 7.81941E-04-9.80267E-05-9.97615E-16
 -1      3003 7.84221E-04-1.21393E-04-9.94742E-16
 -1      3004 1.05308E-02 9.45242E-04-9.02938E-14
 -1      3005 1.06749E-02 8.84618E-04-9.20341E-14
 -1      3006 9.49162E-03 7.14234E-04-7.84139E-14
 -1      3007 9.66517E-03 8.19456E-04-7.99324E-14
 -1      3008 9.37528E-03 6.76191E-04-7.68076E-14
 -1      3009 1.23410E-02-8.70376E-05-1.06877E-13
 -1      3010 1.21882E-02-1.34542E-04-1.06014E-13
 -1      3011 1.21504E-02-1.66177E-04-1.06878E-13
 -1      3012 7.94952E-03-1.01533E-06-7.06256E-14
 -1      3013 7.99103E-03 7.84997E-06-7.07846E-14
 -1      3014 9.89145E-03 9.23068E-04-8.23761E-14
 -1      3015 1.00534E-02 9.76044E-04-8.43343E-14
 -1      3016 9.70130E-03-8.43744E-04-8.28640E-14
 -1      3017 9.54128E-03-7.50824E-04-8.12858E-14
 -1      3018 1.25545E-02-1.25992E-05-1.06742E-13
 -1      3019 1.25598E-02-1.98870E-05-1.06970E-13
 -1      3020 8.31024E-03 1.00493E-04-7.18654E-14
 -1      3021 8.48332E-03 1.68639E-04-7.23776E-14
 -1      3022 8.00205E-03-2.48565E-05-7.11572E-14
 -1      3023 7.95191E-03-1.40020E-05-7.07672E-14
 -1      3024 9.01154E-03-4.33931E-04-7.72249E-14
 -1      3025 8.85671E-03-3.51897E-04-7.61520E-14
 -1      3026 9.07433E-03-4.86541E-04-7.71084E-14
 -1      3027 1.09263E-02-7.85427E-04-9.70579E-14
 -1      3028 1.07602E-02-8.77840E-04-9.53294E-14
 -1      3029 9.98902E-03-9.74917E-04-8.60493E-14
 -1      3030 9.85965E-03-9.20817E-04-8.45652E-14
 -1      3031 1.13079E-02-5.56593E-04-1.00230E-13
 -1      3032 1.11396E-02-6.58789E-04-9.88922E-14
 -1      3033 1.14215E-02-5.13109E-04-1.01839E-13
 -1      3034 1.02210E-02 9.96719E-04-8.64226E-14
 -1      3035 1.03722E-02 9.85446E-04-8.83484E-14
 -1      3036 1.04499E-02 9.77256E-04-8.92953E-14
 -1      3037 1.43526E-02-3.72120E-04-1.52692E-13
 -1      3038 7.87246E-04-1.45555E-04-9.88928E-16
 -1      3039 7.91116E-04-1.70741E-04-9.79712E-16
 -1      3040 9.05070E-04-1.49136E-04-1.25557E-15
 -1      3041 8.95790E-04 1.01099E-06-1.24464E-15
 -1      3042 7.77906E-04-9.72668E-06-9.87234E-16
 -1      3043 7.78263E-04-3.13863E-05-9.92804E-16
 -1      3044 8.64792E-04 2.66629E-04-8.56235E-16
 -1      3045 1.17297E-02 3.21731E-04-1.02585E-13
 -1      3046 1.00629E-02-1.00334E-03-8.69013E-14
 -1      3047 1.21053E-02 1.43527E-04-1.04990E-13
 -1      3048 8.34173E-03-1.24714E-04-7.30395E-14
 -1      3049 8.24093E-03-1.00212E-04-7.18413E-14
 -1      3050 8.41575E-03-1.62508E-04-7.28502E-14
 -1      3051 1.42560E-02 1.68458E-04-1.46893E-13
 -1      3052 1.43674E-02 1.84973E-04-1.49029E-13
 -1      3053 1.43492E-02 2.20511E-04-1.48817E-13
 -1      3054 1.25627E-02-6.00745E-06-1.07875E-13
 -1      3055 1.43012E-02 2.76104E-04-1.48150E-13
 -1      3056 8.00449E-03 1.98207E-05-6.98684E-14
 -1      3057 8.07764E-03-5.42311E-05-7.05575E-14
 -1      3058 8.03613E-03-3.77318E-05-7.08581E-14
 -1      3059 7.96458E-03-3.11650E-05-6.93968E-14
 -1      3060 1.25229E-02-5.45266E-05-1.09434E-13
 -1      3061 1.24395E-02-6.61710E-05-1.08153E-13
 -1      3062 1.24096E-02-8.84545E-05-1.09024E-13
 -1      3063 1.25792E-02-2.62798E-05-1.08471E-13
 -1      3064 1.43697E-02-3.33960E-04-1.52524E-13
 -1      3065 8.21575E-03 8.14946E-05-7.05919E-14
 -1      3066 9.82914E-04 2.75840E-04-1.11318E-15
 -1      3067 1.17886E-02-3.22538E-04-1.04600E-13
 -1      3068 8.03112E-04-2.03412E-04-9.75958E-16
 -1      3069 8.21633E-04-2.53939E-04-9.53366E-16
 -1      3070 9.52741E-04-2.88314E-04-1.21906E-15
 -1      3071 9.21231E-04-2.11334E-04-1.24512E-15
 -1      3072 9.76406E-03-8.88494E-04-8.33560E-14
 -1      3073 9.76823E-03 8.85695E-04-8.07300E-14
 -1      3074 1.01520E-03-2.72445E-04-1.40865E-15
 -1      3075 8.53620E-03 2.12609E-04-7.16558E-14
 -1      3076 1.06838E-02-9.25622E-04-9.47356E-14
 -1      3077 8.96684E-03 4.35731E-04-7.38785E-14
 -1      3078 1.11330E-02 6.86174E-04-9.76733E-14
 -1      3079 1.12458E-02 5.94579E-04-9.85297E-14
 -1      3080 1.14181E-02 5.19821E-04-1.00543E-13
 -1      3081 9.41994E-03-6.93604E-04-7.99167E-14
 -1      3082 1.07823E-02 8.52869E-04-9.34547E-14
 -1      3083 8.73588E-03-2.97283E-04-7.50446E-14
 -1      3084 8.61950E-03-2.52356E-04-7.39458E-14
 -1      3085 8.80926E-03-3.52165E-04-7.49320E-14
 -1      3086 1.03603E-02-1.02190E-03-9.07086E-14
 -1      3087 7.79029E-04-5.31839E-05-9.96612E-16
 -1      3088 7.80228E-04-7.53856E-05-9.98293E-16
 -1      3089 8.99589E-04-9.71411E-05-1.26259E-15
 -1      3090 8.96671E-04-4.75460E-05-1.25845E-15
 -1      3091 7.91962E-03-7.46165E-06-6.95572E-14
 -1      3092 1.01399E-02 9.98583E-04-8.52617E-14
 -1      3093 1.42082E-02-3.42223E-04-1.49669E-13
 -1      3094 1.43215E-02-3.05858E-04-1.51262E-13
 -1      3095 1.42085E-02-2.86532E-04-1.48913E-13
 -1      3096 1.41124E-02-3.40695E-04-1.47902E-13
 -1      3097 1.10496E-02-7.31429E-04-9.86462E-14
 -1      3098 1.24067E-02 3.71885E-05-1.06793E-13
 -1      3099 1.17171E-02 3.62604E-04-1.03370E-13
 -1      3100 1.18838E-02 2.70815E-04-1.04557E-13
 -1      3101 1.04034E-03 2.43312E-04-1.32288E-15
 -1      3102 1.03379E-03 2.11588E-04-1.36376E-15
 -1      3103 7.88267E-03-1.27759E-05-6.81071E-14
 -1      3104 7.88020E-03-1.16198E-06-6.79697E-14
 -1      3105 1.15854E-03-2.76931E-04-1.80455E-15
 -1      3106 1.30141E-03-2.96653E-04-2.21420E-15
 -1      3107 1.73175E-03-3.40110E-04-3.69294E-15
 -1      3108 1.87543E-03-3.50166E-04-4.26842E-15
 -1      3109 2.01910E-03-3.58471E-04-4.88474E-15
 -1      3110 2.16276E-03-3.65177E-04-5.54155E-15
 -1      3111 1.94036E-03-3.18795E-04-4.59741E-15
 -1      3112 2.30637E-03-3.70554E-04-6.23813E-15
 -1      3113 2.44993E-03-3.74724E-04-6.97429E-15
 -1      3114 2.22843E-03-3.31494E-04-5.91037E-15
 -1      3115 2.59344E-03-3.77901E-04-7.75041E-15
 -1      3116 2.73688E-03-3.80178E-04-8.56621E-15
 -1      3117 2.51642E-03-3.39430E-04-7.38190E-15
 -1      3118 2.88028E-03-3.81717E-04-9.41991E-15
 -1      3119 3.02361E-03-3.82588E-04-1.03121E-14
 -1      3120 2.80418E-03-3.43786E-04-9.00994E-15
 -1      3121 3.16690E-03-3.82909E-04-1.12426E-14
 -1      3122 3.31013E-03-3.82727E-04-1.22104E-14
 -1      3123 3.09165E-03-3.45473E-04-1.07912E-14
 -1      3124 3.45333E-03-3.82125E-04-1.32162E-14
 -1      3125 3.59647E-03-3.81135E-04-1.42590E-14
 -1      3126 3.37879E-03-3.45157E-04-1.27244E-14
 -1      3127 3.73958E-03-3.79811E-04-1.53384E-14
 -1      3128 3.88264E-03-3.78171E-04-1.64543E-14
 -1      3129 3.66560E-03-3.43302E-04-1.48050E-14
 -1      3130 4.02567E-03-3.76249E-04-1.76065E-14
 -1      3131 4.16865E-03-3.74052E-04-1.87946E-14
 -1      3132 3.95206E-03-3.40209E-04-1.70325E-14
 -1      3133 4.31160E-03-3.71600E-04-2.00177E-14
 -1      3134 4.45451E-03-3.68892E-04-2.12764E-14
 -1      3135 4.23816E-03-3.36055E-04-1.94031E-14
 -1      3136 4.59737E-03-3.65941E-04-2.25693E-14
 -1      3137 4.74020E-03-3.62742E-04-2.38954E-14
 -1      3138 4.52386E-03-3.30932E-04-2.19144E-14
 -1      3139 4.88297E-03-3.59306E-04-2.52566E-14
 -1      3140 5.02570E-03-3.55628E-04-2.66508E-14
 -1      3141 4.80913E-03-3.24876E-04-2.45635E-14
 -1      3142 5.16837E-03-3.51724E-04-2.80774E-14
 -1      3143 5.31099E-03-3.47593E-04-2.95381E-14
 -1      3144 5.09389E-03-3.17910E-04-2.73468E-14
 -1      3145 5.45353E-03-3.43263E-04-3.10309E-14
 -1      3146 5.59603E-03-3.38743E-04-3.25556E-14
 -1      3147 5.37805E-03-3.10079E-04-3.02616E-14
 -1      3148 5.73844E-03-3.34083E-04-3.41138E-14
 -1      3149 5.88082E-03-3.29306E-04-3.57026E-14
 -1      3150 5.66152E-03-3.01493E-04-3.33080E-14
 -1      3151 6.02310E-03-3.24495E-04-3.73219E-14
 -1      3152 6.16537E-03-3.19699E-04-3.89747E-14
 -1      3153 5.94420E-03-2.92384E-04-3.64812E-14
 -1      3154 6.30757E-03-3.15042E-04-4.06580E-14
 -1      3155 6.44982E-03-3.10608E-04-4.23698E-14
 -1      3156 6.22604E-03-2.83160E-04-3.97803E-14
 -1      3157 6.59208E-03-3.06575E-04-4.41118E-14
 -1      3158 6.73450E-03-3.03084E-04-4.58818E-14
 -1      3159 6.50711E-03-2.74470E-04-4.32014E-14
 -1      3160 6.87710E-03-3.00363E-04-4.76806E-14
 -1      3161 7.02011E-03-2.98650E-04-4.95083E-14
 -1      3162 6.78768E-03-2.67284E-04-4.67368E-14
 -1      3163 7.16361E-03-2.98217E-04-5.13631E-14
 -1      3164 7.30796E-03-2.99455E-04-5.32443E-14
 -1      3165 7.06848E-03-2.62979E-04-5.03849E-14
 -1      3166 7.45338E-03-3.02659E-04-5.51516E-14
 -1      3167 7.60038E-03-3.08486E-04-5.70864E-14
 -1      3168 7.35093E-03-2.63477E-04-5.41418E-14
 -1      3169 7.74941E-03-3.17215E-04-5.90466E-14
 -1      3170 7.90112E-03-3.29954E-04-6.10312E-14
 -1      3171 7.63768E-03-2.71501E-04-5.80047E-14
 -1      3172 8.05632E-03-3.46912E-04-6.30420E-14
 -1      3173 8.21565E-03-3.69963E-04-6.50768E-14
 -1      3174 7.93320E-03-2.91125E-04-6.19683E-14
 -1      3175 8.38044E-03-3.99198E-04-6.71353E-14
 -1      3176 8.55066E-03-4.37337E-04-6.92161E-14
 -1      3177 8.24438E-03-3.29025E-04-6.60297E-14
 -1      3178 8.72827E-03-4.84355E-04-7.13218E-14
 -1      3179 8.91124E-03-5.42948E-04-7.34474E-14
 -1      3180 8.58011E-03-3.96227E-04-7.01848E-14
 -1      3181 9.52002E-03-7.97290E-04-8.03108E-14
 -1      3182 9.71030E-03-8.83393E-04-8.25289E-14
 -1      3183 1.01730E-02-1.03496E-03-8.83399E-14
 -1      3184 1.03465E-02-1.03460E-03-9.06370E-14
 -1      3185 1.06548E-02-9.52117E-04-9.46631E-14
 -1      3186 1.08403E-02-8.77549E-04-9.70195E-14
 -1      3187 1.10306E-02-7.93455E-04-9.93919E-14
 -1      3188 1.13327E-02-6.59380E-04-1.03092E-13
 -1      3189 1.15229E-02-5.87148E-04-1.05512E-13
 -1      3190 1.17097E-02-5.26305E-04-1.07948E-13
 -1      3191 1.18889E-02-4.75954E-04-1.10400E-13
 -1      3192 1.16697E-02-4.93471E-04-1.06617E-13
 -1      3193 1.20625E-02-4.36441E-04-1.12865E-13
 -1      3194 1.22294E-02-4.04927E-04-1.15347E-13
 -1      3195 1.20283E-02-3.98976E-04-1.11516E-13
 -1      3196 1.23913E-02-3.81261E-04-1.17840E-13
 -1      3197 1.25484E-02-3.63090E-04-1.20345E-13
 -1      3198 1.23574E-02-3.44130E-04-1.16473E-13
 -1      3199 1.27019E-02-3.50156E-04-1.22865E-13
 -1      3200 1.28523E-02-3.40922E-04-1.25396E-13
 -1      3201 1.26652E-02-3.14569E-04-1.21484E-13
 -1      3202 1.30005E-02-3.35049E-04-1.27936E-13
 -1      3203 1.31470E-02-3.31577E-04-1.30487E-13
 -1      3204 1.29596E-02-3.00771E-04-1.26540E-13
 -1      3205 1.32921E-02-3.30131E-04-1.33047E-13
 -1      3206 1.34364E-02-3.30109E-04-1.35614E-13
 -1      3207 1.32469E-02-2.96692E-04-1.31638E-13
 -1      3208 1.35799E-02-3.31127E-04-1.38189E-13
 -1      3209 1.37230E-02-3.32773E-04-1.40770E-13
 -1      3210 1.35306E-02-2.98256E-04-1.36769E-13
 -1      3211 1.38465E-02-3.35960E-04-1.43034E-13
 -1      3212 1.39891E-02-3.37821E-04-1.45629E-13
 -1      3213 1.40384E-02-3.10339E-04-1.46136E-13
 -1      3214 1.37940E-02-3.03610E-04-1.41603E-13
 -1      3215 8.38123E-03 1.75438E-04-6.97323E-14
 -1      3216 8.55838E-03 2.57759E-04-7.05162E-14
 -1      3217 1.41949E-02-1.06575E-04-1.46347E-13
 -1      3218 1.42005E-02-7.51125E-05-1.46163E-13
 -1      3219 2.11106E-03 3.97895E-04-4.64020E-15
 -1      3220 1.96783E-03 3.90187E-04-4.05532E-15
 -1      3221 1.15225E-02-4.93702E-04-1.03691E-13
 -1      3222 1.13686E-02-5.78663E-04-1.02335E-13
 -1      3223 3.25509E-03 4.19530E-04-1.07345E-14
 -1      3224 3.11220E-03 4.19450E-04-9.83816E-15
 -1      3225 2.96928E-03 4.18818E-04-8.97978E-15
 -1      3226 2.82635E-03 4.17579E-04-8.15957E-15
 -1      3227 3.03678E-03 3.81950E-04-9.51839E-15
 -1      3228 3.82664E-03 4.15682E-04-1.46947E-14
 -1      3229 3.68375E-03 4.17185E-04-1.36488E-14
 -1      3230 4.11244E-03 4.11780E-04-1.68984E-14
 -1      3231 3.96954E-03 4.13876E-04-1.57780E-14
 -1      3232 3.89592E-03 3.77745E-04-1.53653E-14
 -1      3233 4.39830E-03 4.06785E-04-1.92479E-14
 -1      3234 4.25536E-03 4.09415E-04-1.80549E-14
 -1      3235 4.18195E-03 3.73732E-04-1.76094E-14
 -1      3236 4.68424E-03 4.00760E-04-2.17427E-14
 -1      3237 4.54125E-03 4.03899E-04-2.04777E-14
 -1      3238 4.46779E-03 3.68688E-04-2.00004E-14
 -1      3239 4.97027E-03 3.93740E-04-2.43775E-14
 -1      3240 4.82723E-03 3.97373E-04-2.30427E-14
 -1      3241 4.75345E-03 3.62663E-04-2.25342E-14
 -1      3242 5.25643E-03 3.85769E-04-2.71503E-14
 -1      3243 5.11332E-03 3.89870E-04-2.57469E-14
 -1      3244 5.03891E-03 3.55684E-04-2.52069E-14
 -1      3245 5.54275E-03 3.76952E-04-3.00594E-14
 -1      3246 5.39955E-03 3.81458E-04-2.85877E-14
 -1      3247 5.32413E-03 3.47796E-04-2.80174E-14
 -1      3248 5.82930E-03 3.67517E-04-3.31009E-14
 -1      3249 5.68598E-03 3.72295E-04-3.15642E-14
 -1      3250 5.60910E-03 3.39110E-04-3.09639E-14
 -1      3251 6.11619E-03 3.57889E-04-3.62725E-14
 -1      3252 5.97267E-03 3.62696E-04-3.46706E-14
 -1      3253 5.89380E-03 3.29862E-04-3.40412E-14
 -1      3254 6.40364E-03 3.48775E-04-3.95671E-14
 -1      3255 6.25981E-03 3.53216E-04-3.79048E-14
 -1      3256 6.17829E-03 3.20475E-04-3.72463E-14
 -1      3257 6.69204E-03 3.41277E-04-4.29826E-14
 -1      3258 6.54766E-03 3.44743E-04-4.12598E-14
 -1      3259 6.46274E-03 3.11641E-04-4.05737E-14
 -1      3260 6.98210E-03 3.37015E-04-4.65113E-14
 -1      3261 6.83678E-03 3.38617E-04-4.47334E-14
 -1      3262 6.74751E-03 3.04415E-04-4.40186E-14
 -1      3263 7.27504E-03 3.38279E-04-5.01519E-14
 -1      3264 7.12809E-03 3.36770E-04-4.83181E-14
 -1      3265 7.03338E-03 3.00323E-04-4.75774E-14
 -1      3266 7.57287E-03 3.48219E-04-5.39009E-14
 -1      3267 7.42318E-03 3.41887E-04-5.20128E-14
 -1      3268 7.32177E-03 3.01511E-04-5.12471E-14
 -1      3269 7.87861E-03 3.71077E-04-5.77503E-14
 -1      3270 7.72454E-03 3.57625E-04-5.58133E-14
 -1      3271 7.61510E-03 3.10973E-04-5.50220E-14
 -1      3272 8.19642E-03 4.12475E-04-6.16991E-14
 -1      3273 8.03581E-03 3.88877E-04-5.97126E-14
 -1      3274 7.91719E-03 3.32931E-04-5.88977E-14
 -1      3275 8.53076E-03 4.79435E-04-6.57391E-14
 -1      3276 8.36150E-03 4.42031E-04-6.37082E-14
 -1      3277 8.23345E-03 3.73530E-04-6.28689E-14
 -1      3278 8.88417E-03 5.79268E-04-6.98734E-14
 -1      3279 8.70560E-03 5.24695E-04-6.77945E-14
 -1      3280 8.57004E-03 4.41427E-04-6.69320E-14
 -1      3281 9.64633E-03 8.64038E-04-7.88266E-14
 -1      3282 9.46126E-03 7.87023E-04-7.66524E-14
 -1      3283 1.00244E-02 9.99463E-04-8.34820E-14
 -1      3284 9.85094E-03 9.51717E-04-8.12560E-14
 -1      3285 1.03465E-02 1.01648E-03-8.78390E-14
 -1      3286 1.01769E-02 1.01941E-03-8.55632E-14
 -1      3287 1.06631E-02 9.36469E-04-9.20971E-14
 -1      3288 1.04879E-02 9.88319E-04-8.97788E-14
 -1      3289 1.10184E-02 7.87880E-04-9.66642E-14
 -1      3290 1.08336E-02 8.65586E-04-9.43087E-14
 -1      3291 1.13642E-02 6.45189E-04-1.01052E-13
 -1      3292 1.11772E-02 7.20037E-04-9.86668E-14
 -1      3293 1.20921E-02 4.43075E-04-1.11086E-13
 -1      3294 1.19220E-02 4.82866E-04-1.08644E-13
 -1      3295 1.24195E-02 3.85539E-04-1.16009E-13
 -1      3296 1.22581E-02 4.11270E-04-1.13543E-13
 -1      3297 1.22236E-02 3.72376E-04-1.12493E-13
 -1      3298 1.27320E-02 3.50227E-04-1.20977E-13
 -1      3299 1.25774E-02 3.65706E-04-1.18488E-13
 -1      3300 1.25420E-02 3.27683E-04-1.17428E-13
 -1      3301 1.30340E-02 3.30296E-04-1.25987E-13
 -1      3302 1.28840E-02 3.38774E-04-1.23477E-13
 -1      3303 1.28458E-02 3.01867E-04-1.22407E-13
 -1      3304 1.33293E-02 3.20312E-04-1.31036E-13
 -1      3305 1.31823E-02 3.24376E-04-1.28508E-13
 -1      3306 1.31403E-02 2.88320E-04-1.27430E-13
 -1      3307 1.36206E-02 3.15975E-04-1.36117E-13
 -1      3308 1.34753E-02 3.17673E-04-1.33571E-13
 -1      3309 1.34295E-02 2.82275E-04-1.32487E-13
 -1      3310 1.12146E-02-6.83426E-04-1.01245E-13
 -1      3311 1.20635E-02 1.84393E-04-1.05787E-13
 -1      3312 1.22383E-02 1.14511E-04-1.07016E-13
 -1      3313 1.20405E-02 2.27932E-04-1.06581E-13
 -1      3314 1.01690E-03 6.82189E-05-1.50054E-15
 -1      3315 1.01575E-03 4.12326E-05-1.51740E-15
 -1      3316 9.85262E-03-9.48966E-04-8.42278E-14
 -1      3317 1.41434E-02-2.40995E-04-1.47075E-13
 -1      3318 1.41599E-02-2.05957E-04-1.46896E-13
 -1      3319 1.42027E-02-4.34961E-05-1.45970E-13
 -1      3320 1.42014E-02-1.18909E-05-1.45777E-13
 -1      3321 1.40869E-02-5.77196E-05-1.43828E-13
 -1      3322 9.10324E-03-5.33604E-04-7.66799E-14
 -1      3323 8.96974E-03-4.57369E-04-7.56143E-14
 -1      3324 1.41886E-02 2.58810E-04-1.46021E-13
 -1      3325 1.14496E-03 3.10576E-04-1.45213E-15
 -1      3326 1.08238E-03 2.71662E-04-1.37385E-15
 -1      3327 1.20150E-03 2.73027E-04-1.69573E-15
 -1      3328 1.28812E-03 3.32487E-04-1.80476E-15
 -1      3329 8.79628E-03 3.79175E-04-7.18399E-14
 -1      3330 9.01347E-03 5.01488E-04-7.32621E-14
 -1      3331 1.19098E-02-2.92354E-04-1.06466E-13
 -1      3332 1.17203E-02-3.82230E-04-1.05050E-13
 -1      3333 1.22631E-02-1.46591E-04-1.08707E-13
 -1      3334 1.21126E-02-2.04743E-04-1.07838E-13
 -1      3335 1.41742E-02-1.72098E-04-1.46716E-13
 -1      3336 1.41860E-02-1.38885E-04-1.46531E-13
 -1      3337 1.40746E-02-1.21048E-04-1.44202E-13
 -1      3338 1.40493E-02-1.86932E-04-1.44564E-13
 -1      3339 1.25676E-02 2.97941E-06-1.08974E-13
 -1      3340 1.26105E-02-8.92317E-06-1.09480E-13
 -1      3341 1.00326E-02-1.00574E-03-8.64871E-14
 -1      3342 8.10611E-03 6.34571E-05-6.90615E-14
 -1      3343 8.21948E-03 1.04170E-04-6.93295E-14
 -1      3344 3.54087E-03 4.18349E-04-1.26395E-14
 -1      3345 3.39799E-03 4.19151E-04-1.16681E-14
 -1      3346 3.32336E-03 3.82134E-04-1.13176E-14
 -1      3347 3.60973E-03 3.80616E-04-1.32671E-14
 -1      3348 7.93000E-03 1.72025E-05-6.81653E-14
 -1      3349 8.00697E-03 3.46250E-05-6.86143E-14
 -1      3350 8.00207E-03 5.49040E-05-6.73639E-14
 -1      3351 9.99656E-04-2.33137E-04-1.42017E-15
 -1      3352 1.07883E-03-2.55082E-04-1.60677E-15
 -1      3353 9.86496E-04-1.96039E-04-1.42436E-15
 -1      3354 1.26217E-02-2.23905E-05-1.09826E-13
 -1      3355 1.25990E-02-3.32416E-05-1.09916E-13
 -1      3356 1.44464E-03-3.13602E-04-2.66558E-15
 -1      3357 1.58815E-03-3.27979E-04-3.15857E-15
 -1      3358 1.65254E-03-2.99868E-04-3.44523E-15
 -1      3359 1.24047E-02 5.71902E-05-1.08240E-13
 -1      3360 1.25058E-02 2.54633E-05-1.08821E-13
 -1      3361 9.34314E-03-6.88664E-04-7.85781E-14
 -1      3362 9.32675E-03 6.92000E-04-7.56576E-14
 -1      3363 9.24886E-03 7.14872E-04-7.40134E-14
 -1      3364 9.06442E-03 6.44221E-04-7.18936E-14
 -1      3365 9.15812E-03 5.94238E-04-7.41787E-14
 -1      3366 9.22277E-03-6.54382E-04-7.70624E-14
 -1      3367 1.01516E-03 1.44523E-05-1.53129E-15
 -1      3368 1.01512E-03-1.22292E-05-1.54236E-15
 -1      3369 1.13589E-03 3.01672E-05-1.84576E-15
 -1      3370 1.15326E-03 2.11827E-04-1.68053E-15
 -1      3371 1.02851E-03 1.81203E-04-1.39927E-15
 -1      3372 1.02438E-03 1.51870E-04-1.43037E-15
 -1      3373 7.85598E-03 9.80180E-06-6.67276E-14
 -1      3374 8.98056E-03 5.32983E-04-7.21280E-14
 -1      3375 8.49538E-03-2.07874E-04-7.27394E-14
 -1      3376 8.37888E-03-1.73905E-04-7.15400E-14
 -1      3377 8.56617E-03-2.57596E-04-7.26237E-14
 -1      3378 1.36556E-03-2.73013E-04-2.45663E-15
 -1      3379 8.87414E-03-4.72922E-04-7.37356E-14
 -1      3380 9.03057E-03-5.75912E-04-7.48967E-14
 -1      3381 1.41454E-02 1.51613E-04-1.44760E-13
 -1      3382 1.41266E-02 1.86530E-04-1.44554E-13
 -1      3383 1.26527E-02-1.51985E-05-1.10931E-13
 -1      3384 8.92821E-03 5.49555E-04-7.10063E-14
 -1      3385 1.04944E-02-1.00705E-03-9.26040E-14
 -1      3386 1.41623E-02 1.17418E-04-1.44970E-13
 -1      3387 1.40360E-02 1.34282E-04-1.42637E-13
 -1      3388 1.41767E-02 8.40406E-05-1.45178E-13
 -1      3389 1.23718E-02 9.09765E-05-1.09045E-13
 -1      3390 8.61883E-03 3.25975E-04-6.99087E-14
 -1      3391 1.25799E-02 1.90499E-05-1.10431E-13
 -1      3392 8.86666E-03-4.40033E-04-7.41228E-14
 -1      3393 8.83640E-03-3.88293E-04-7.45512E-14
 -1      3394 8.72095E-03-3.41186E-04-7.34513E-14
 -1      3395 8.75303E-03-4.12060E-04-7.26841E-14
 -1      3396 1.88836E-03 3.49918E-04-3.85541E-15
 -1      3397 1.82454E-03 3.80695E-04-3.50983E-15
 -1      3398 1.68118E-03 3.69249E-04-3.00392E-15
 -1      3399 2.75000E-03 3.79533E-04-7.87005E-15
 -1      3400 2.68338E-03 4.15602E-04-7.37794E-15
 -1      3401 2.54038E-03 4.12809E-04-6.63437E-15
 -1      3402 8.24519E-03 1.46503E-04-6.82050E-14
 -1      3403 1.18844E-02 4.45331E-04-1.07605E-13
 -1      3404 1.17462E-02 5.30703E-04-1.06216E-13
 -1      3405 1.15668E-02 5.87949E-04-1.03801E-13
 -1      3406 1.37380E-02 3.07373E-04-1.38144E-13
 -1      3407 1.36894E-02 2.72717E-04-1.37051E-13
 -1      3408 1.38546E-02 2.99119E-04-1.40176E-13
 -1      3409 1.01868E-03 9.54837E-05-1.48064E-15
 -1      3410 1.13851E-03 8.85525E-05-1.80635E-15
 -1      3411 1.02111E-03 1.23255E-04-1.45733E-15
 -1      3412 1.41965E-02 1.95696E-05-1.45581E-13
 -1      3413 1.41882E-02 5.16660E-05-1.45379E-13
 -1      3414 1.40665E-02 6.79334E-05-1.43046E-13
 -1      3415 1.40841E-02 4.65173E-06-1.43440E-13
 -1      3416 8.12946E-03-7.69816E-05-7.03713E-14
 -1      3417 8.03074E-03-6.37507E-05-6.89110E-14
 -1      3418 8.18376E-03-1.04922E-04-7.01817E-14
 -1      3419 1.25945E-02-4.60413E-05-1.10792E-13
 -1      3420 1.25856E-02-6.18414E-05-1.11669E-13
 -1      3421 1.26576E-02-4.07669E-05-1.12154E-13
 -1      3422 1.24806E-02-9.88086E-05-1.11280E-13
 -1      3423 1.23775E-02-1.18235E-04-1.09993E-13
 -1      3424 1.23520E-02-1.52522E-04-1.10961E-13
 -1      3425 7.88663E-03-2.20665E-05-6.78111E-14
 -1      3426 7.81950E-03-1.53923E-05-6.62368E-14
 -1      3427 7.89961E-03-3.28971E-05-6.75136E-14
 -1      3428 1.15060E-02 5.46590E-04-1.02423E-13
 -1      3429 1.20460E-02-2.58904E-04-1.08294E-13
 -1      3430 1.16603E-02-4.52122E-04-1.05552E-13
 -1      3431 1.41010E-02 2.26058E-04-1.44264E-13
 -1      3432 1.40498E-02 2.82435E-04-1.43604E-13
 -1      3433 1.39344E-02 2.90523E-04-1.41561E-13
 -1      3434 1.39907E-02 2.08141E-04-1.42139E-13
 -1      3435 2.25423E-03 4.04128E-04-5.26548E-15
 -1      3436 2.17575E-03 3.64705E-04-5.03670E-15
 -1      3437 2.39733E-03 4.09019E-04-5.93056E-15
 -1      3438 1.16206E-02 4.58481E-04-1.03294E-13
 -1      3439 1.55627E-03 3.61271E-04-2.58483E-15
 -1      3440 1.41290E-03 3.45197E-04-2.15533E-15
 -1      3441 1.36914E-03 3.15002E-04-2.09668E-15
 -1      3442 1.61935E-03 3.33627E-04-2.88331E-15
 -1      3443 1.17778E-02 4.06457E-04-1.05268E-13
 -1      3444 1.01841E-03-9.30098E-05-1.55877E-15
 -1      3445 1.02076E-03-1.20724E-04-1.55817E-15
 -1      3446 1.14340E-03-2.36036E-04-1.81314E-15
 -1      3447 1.40677E-02-2.88320E-04-1.46357E-13
 -1      3448 1.41155E-02-2.62068E-04-1.46858E-13
 -1      3449 1.40047E-02-2.42076E-04-1.44526E-13
 -1      3450 1.39463E-02-2.84943E-04-1.44088E-13
 -1      3451 1.00100E-03-1.43870E-04-1.49738E-15
 -1      3452 1.00484E-03-1.72595E-04-1.49048E-15
 -1      3453 1.08249E-03-1.90901E-04-1.68459E-15
 -1      3454 1.12053E-03-1.40865E-04-1.82123E-15
 -1      3455 1.19005E-02 3.84194E-04-1.07060E-13
 -1      3456 1.19874E-02 2.95614E-04-1.07140E-13
 -1      3457 1.21450E-02 2.17629E-04-1.08382E-13
 -1      3458 1.20725E-02 3.44785E-04-1.09494E-13
 -1      3459 1.26918E-02-6.87547E-06-1.12422E-13
 -1      3460 1.27055E-02-2.13652E-05-1.12770E-13
 -1      3461 2.15072E-03-2.92588E-04-5.58653E-15
 -1      3462 2.29509E-03-2.97263E-04-6.28207E-15
 -1      3463 2.43944E-03-3.00940E-04-7.01715E-15
 -1      3464 2.58375E-03-3.03712E-04-7.79152E-15
 -1      3465 2.36261E-03-2.62535E-04-6.65710E-15
 -1      3466 2.72800E-03-3.05736E-04-8.60362E-15
 -1      3467 2.87217E-03-3.07080E-04-9.45484E-15
 -1      3468 2.65184E-03-2.67635E-04-8.20257E-15
 -1      3469 3.01625E-03-3.07867E-04-1.03443E-14
 -1      3470 3.16022E-03-3.08143E-04-1.12712E-14
 -1      3471 2.94078E-03-2.70130E-04-9.90135E-15
 -1      3472 3.30408E-03-3.07998E-04-1.22361E-14
 -1      3473 3.44783E-03-3.07464E-04-1.32378E-14
 -1      3474 3.22928E-03-2.70667E-04-1.17519E-14
 -1      3475 3.59146E-03-3.06604E-04-1.42757E-14
 -1      3476 3.73496E-03-3.05434E-04-1.53505E-14
 -1      3477 3.51722E-03-2.69717E-04-1.37513E-14
 -1      3478 3.87833E-03-3.03998E-04-1.64624E-14
 -1      3479 4.02157E-03-3.02300E-04-1.76099E-14
 -1      3480 3.80454E-03-2.67599E-04-1.58964E-14
 -1      3481 4.16466E-03-3.00371E-04-1.87929E-14
 -1      3482 4.30761E-03-2.98206E-04-2.00112E-14
 -1      3483 4.09117E-03-2.64512E-04-1.81869E-14
 -1      3484 4.45040E-03-2.95825E-04-2.12638E-14
 -1      3485 4.59303E-03-2.93219E-04-2.25513E-14
 -1      3486 4.37702E-03-2.60568E-04-2.06182E-14
 -1      3487 4.73547E-03-2.90405E-04-2.38740E-14
 -1      3488 4.87772E-03-2.87368E-04-2.52299E-14
 -1      3489 4.66201E-03-2.55818E-04-2.31885E-14
 -1      3490 5.01975E-03-2.84128E-04-2.66189E-14
 -1      3491 5.16157E-03-2.80671E-04-2.80412E-14
 -1      3492 4.94599E-03-2.50280E-04-2.58955E-14
 -1      3493 5.30313E-03-2.77024E-04-2.94967E-14
 -1      3494 5.44443E-03-2.73175E-04-3.09854E-14
 -1      3495 5.22879E-03-2.43972E-04-2.87357E-14
 -1      3496 5.58543E-03-2.69168E-04-3.25061E-14
 -1      3497 5.72613E-03-2.64995E-04-3.40598E-14
 -1      3498 5.51020E-03-2.36944E-04-3.17081E-14
 -1      3499 5.86648E-03-2.60722E-04-3.56444E-14
 -1      3500 6.00650E-03-2.56355E-04-3.72596E-14
 -1      3501 5.78996E-03-2.29305E-04-3.48098E-14
 -1      3502 6.14611E-03-2.51987E-04-3.89076E-14
 -1      3503 6.28538E-03-2.47639E-04-4.05866E-14
 -1      3504 6.06781E-03-2.21269E-04-3.80395E-14
 -1      3505 6.42424E-03-2.43441E-04-4.22942E-14
 -1      3506 6.56277E-03-2.39441E-04-4.40317E-14
 -1      3507 6.34352E-03-2.13180E-04-4.13912E-14
 -1      3508 6.70092E-03-2.35800E-04-4.57962E-14
 -1      3509 6.83886E-03-2.32613E-04-4.75894E-14
 -1      3510 6.61695E-03-2.05548E-04-4.48596E-14
 -1      3511 6.97655E-03-2.30069E-04-4.94116E-14
 -1      3512 7.11430E-03-2.28342E-04-5.12606E-14
 -1      3513 6.88817E-03-1.99077E-04-4.84418E-14
 -1      3514 7.25213E-03-2.27628E-04-5.31364E-14
 -1      3515 7.39055E-03-2.28263E-04-5.50390E-14
 -1      3516 7.15770E-03-1.94705E-04-5.21342E-14
 -1      3517 7.52968E-03-2.30415E-04-5.69674E-14
 -1      3518 7.67038E-03-2.34759E-04-5.89228E-14
 -1      3519 7.42682E-03-1.93700E-04-5.59345E-14
 -1      3520 7.81296E-03-2.41403E-04-6.09002E-14
 -1      3521 7.95874E-03-2.51706E-04-6.29027E-14
 -1      3522 7.69827E-03-1.97991E-04-5.98363E-14
 -1      3523 8.10837E-03-2.65700E-04-6.49297E-14
 -1      3524 8.26366E-03-2.86256E-04-6.69803E-14
 -1      3525 7.97723E-03-2.11051E-04-6.38349E-14
 -1      3526 8.41463E-03-3.19859E-04-6.87671E-14
 -1      3527 8.58538E-03-3.57929E-04-7.08603E-14
 -1      3528 8.57279E-03-3.23437E-04-7.12425E-14
 -1      3529 8.26396E-03-2.47962E-04-6.76439E-14
 -1      3530 1.23353E-02-3.01241E-04-1.15100E-13
 -1      3531 1.24887E-02-2.85281E-04-1.17591E-13
 -1      3532 1.26373E-02-2.74813E-04-1.20095E-13
 -1      3533 1.27826E-02-2.67564E-04-1.22611E-13
 -1      3534 1.26153E-02-2.34128E-04-1.18708E-13
 -1      3535 1.29254E-02-2.63418E-04-1.25135E-13
 -1      3536 1.30666E-02-2.61238E-04-1.27674E-13
 -1      3537 1.28950E-02-2.26085E-04-1.23735E-13
 -1      3538 1.32066E-02-2.60803E-04-1.30220E-13
 -1      3539 1.33460E-02-2.61547E-04-1.32775E-13
 -1      3540 1.31689E-02-2.25467E-04-1.28803E-13
 -1      3541 1.34851E-02-2.63193E-04-1.35341E-13
 -1      3542 1.36242E-02-2.65456E-04-1.37910E-13
 -1      3543 1.34413E-02-2.28892E-04-1.33913E-13
 -1      3544 7.91677E-03 5.04589E-05-6.59085E-14
 -1      3545 8.00468E-03 7.73479E-05-6.63485E-14
 -1      3546 4.25139E-03 3.35776E-04-1.83255E-14
 -1      3547 4.10839E-03 3.37921E-04-1.71644E-14
 -1      3548 3.96530E-03 3.39812E-04-1.60402E-14
 -1      3549 3.82211E-03 3.41449E-04-1.49516E-14
 -1      3550 4.03476E-03 3.01950E-04-1.67189E-14
 -1      3551 4.82230E-03 3.24857E-04-2.33288E-14
 -1      3552 4.67974E-03 3.27935E-04-2.20254E-14
 -1      3553 5.10700E-03 3.18033E-04-2.60405E-14
 -1      3554 4.96471E-03 3.21559E-04-2.46676E-14
 -1      3555 4.89078E-03 2.87407E-04-2.41276E-14
 -1      3556 5.39109E-03 3.10352E-04-2.88884E-14
 -1      3557 5.24912E-03 3.14299E-04-2.74473E-14
 -1      3558 5.17456E-03 2.80851E-04-2.68773E-14
 -1      3559 5.67448E-03 3.01929E-04-3.18712E-14
 -1      3560 5.53287E-03 3.06228E-04-3.03633E-14
 -1      3561 5.45734E-03 2.73501E-04-2.97626E-14
 -1      3562 5.95709E-03 2.92998E-04-3.49842E-14
 -1      3563 5.81587E-03 2.97514E-04-3.34117E-14
 -1      3564 5.73895E-03 2.65470E-04-3.27812E-14
 -1      3565 6.23890E-03 2.83968E-04-3.82218E-14
 -1      3566 6.09808E-03 2.88470E-04-3.65874E-14
 -1      3567 6.01924E-03 2.56982E-04-3.59289E-14
 -1      3568 6.52001E-03 2.75493E-04-4.15815E-14
 -1      3569 6.37951E-03 2.79618E-04-3.98875E-14
 -1      3570 6.29811E-03 2.48415E-04-3.92006E-14
 -1      3571 6.80077E-03 2.68540E-04-4.50564E-14
 -1      3572 6.66037E-03 2.71757E-04-4.33046E-14
 -1      3573 6.57558E-03 2.40355E-04-4.25914E-14
 -1      3574 7.08197E-03 2.64491E-04-4.86453E-14
 -1      3575 6.94121E-03 2.66043E-04-4.68369E-14
 -1      3576 6.85193E-03 2.33646E-04-4.60965E-14
 -1      3577 7.36515E-03 2.65282E-04-5.23433E-14
 -1      3578 7.22314E-03 2.64106E-04-5.04804E-14
 -1      3579 7.12793E-03 2.29463E-04-4.97144E-14
 -1      3580 7.65309E-03 2.73678E-04-5.61438E-14
 -1      3581 7.50825E-03 2.68234E-04-5.42301E-14
 -1      3582 7.40518E-03 2.29442E-04-5.34397E-14
 -1      3583 7.95030E-03 2.93814E-04-6.00451E-14
 -1      3584 7.80014E-03 2.81761E-04-5.80824E-14
 -1      3585 7.68667E-03 2.36025E-04-5.72680E-14
 -1      3586 8.26347E-03 3.32481E-04-6.40399E-14
 -1      3587 8.10440E-03 3.09942E-04-6.20312E-14
 -1      3588 7.97754E-03 2.53237E-04-6.11935E-14
 -1      3589 1.23963E-02 2.93290E-04-1.14402E-13
 -1      3590 1.22375E-02 3.15985E-04-1.11942E-13
 -1      3591 1.22611E-02 2.56831E-04-1.11386E-13
 -1      3592 1.32440E-02 2.49269E-04-1.28871E-13
 -1      3593 1.31012E-02 2.52497E-04-1.26350E-13
 -1      3594 1.35273E-02 2.46372E-04-1.33939E-13
 -1      3595 1.33859E-02 2.47376E-04-1.31401E-13
 -1      3596 1.33444E-02 2.12961E-04-1.30316E-13
 -1      3597 1.39711E-02-7.18909E-05-1.41689E-13
 -1      3598 1.39739E-02-4.08912E-05-1.41497E-13
 -1      3599 1.29573E-02 2.57360E-04-1.23840E-13
 -1      3600 1.28115E-02 2.64650E-04-1.21339E-13
 -1      3601 1.30652E-02 2.16806E-04-1.25273E-13
 -1      3602 1.26817E-02 2.69419E-04-1.19101E-13
 -1      3603 1.25311E-02 2.82671E-04-1.16620E-13
 -1      3604 1.25455E-02 2.30748E-04-1.16062E-13
 -1      3605 1.27992E-02 2.22408E-04-1.20524E-13
 -1      3606 4.53707E-03 3.30779E-04-2.07569E-14
 -1      3607 4.39428E-03 3.33397E-04-1.95231E-14
 -1      3608 4.32078E-03 2.97978E-04-1.90460E-14
 -1      3609 4.60615E-03 2.93122E-04-2.15163E-14
 -1      3610 7.77869E-03 5.49282E-06-6.50201E-14
 -1      3611 7.82362E-03 2.46816E-05-6.52124E-14
 -1      3612 3.10483E-03 3.44824E-04-1.00627E-14
 -1      3613 2.96112E-03 3.44257E-04-9.19672E-15
 -1      3614 8.79575E-03 4.67978E-04-7.01098E-14
 -1      3615 1.18453E-02-3.96160E-04-1.07988E-13
 -1      3616 1.23463E-02 1.28321E-04-1.09917E-13
 -1      3617 1.24937E-02 7.61404E-05-1.11153E-13
 -1      3618 8.12996E-03 1.28131E-04-6.67424E-14
 -1      3619 8.26783E-03 1.93409E-04-6.71337E-14
 -1      3620 8.02244E-03 1.16063E-04-6.52911E-14
 -1      3621 1.01671E-03-6.57849E-05-1.55616E-15
 -1      3622 1.13826E-03-8.59784E-05-1.88499E-15
 -1      3623 1.01564E-03-3.89389E-05-1.55063E-15
 -1      3624 1.16077E-03-2.09462E-04-1.89059E-15
 -1      3625 1.23964E-03-2.28226E-04-2.10789E-15
 -1      3626 1.17905E-03-1.83030E-04-1.96546E-15
 -1      3627 1.38230E-03-2.43132E-04-2.54811E-15
 -1      3628 1.20258E-02-3.07862E-04-1.09368E-13
 -1      3629 1.20239E-02-3.53892E-04-1.10444E-13
 -1      3630 1.21903E-02-3.23447E-04-1.12910E-13
 -1      3631 1.22071E-02-2.30620E-04-1.10751E-13
 -1      3632 1.57425E-03-2.60507E-04-3.20112E-15
 -1      3633 1.71809E-03-2.70856E-04-3.73731E-15
 -1      3634 1.32620E-03 2.85577E-04-2.03490E-15
 -1      3635 1.28406E-03 2.56901E-04-1.97043E-15
 -1      3636 1.45124E-03 2.95839E-04-2.40625E-15
 -1      3637 1.26143E-02 3.29480E-05-1.12113E-13
 -1      3638 1.26627E-02 1.09069E-05-1.12268E-13
 -1      3639 1.27385E-02 3.94764E-06-1.14115E-13
 -1      3640 1.86215E-03-2.79557E-04-4.31359E-15
 -1      3641 2.00640E-03-2.86724E-04-4.93022E-15
 -1      3642 2.07338E-03-2.53980E-04-5.26673E-15
 -1      3643 8.62317E-03 3.73206E-04-6.89735E-14
 -1      3644 8.58366E-03 3.98920E-04-6.78705E-14
 -1      3645 8.41230E-03 3.60999E-04-6.58198E-14
 -1      3646 8.41362E-03 2.69421E-04-6.76758E-14
 -1      3647 1.27749E-03 2.22334E-04-2.01888E-15
 -1      3648 8.59497E-03-2.94585E-04-7.22456E-14
 -1      3649 8.27070E-03 2.89068E-04-6.49614E-14
 -1      3650 2.24149E-03 3.30946E-04-5.44053E-15
 -1      3651 2.09742E-03 3.25374E-04-4.80551E-15
 -1      3652 8.24670E-03-1.39746E-04-7.00697E-14
 -1      3653 8.12629E-03-1.16524E-04-6.86103E-14
 -1      3654 8.30748E-03-1.79845E-04-6.99543E-14
 -1      3655 1.44845E-03-2.17874E-04-2.79643E-15
 -1      3656 1.25914E-03-7.63080E-05-2.24034E-15
 -1      3657 1.26122E-03-1.07748E-04-2.24439E-15
 -1      3658 7.81012E-03 4.16508E-05-6.42102E-14
 -1      3659 1.37243E-02-2.73402E-04-1.39865E-13
 -1      3660 1.38451E-02-2.77087E-04-1.42123E-13
 -1      3661 1.38753E-02-2.55449E-04-1.42343E-13
 -1      3662 1.36762E-02-2.39495E-04-1.38430E-13
 -1      3663 1.23348E-02-2.57470E-04-1.14016E-13
 -1      3664 2.81733E-03 3.43113E-04-8.36852E-15
 -1      3665 2.67346E-03 3.41334E-04-7.57853E-15
 -1      3666 2.88531E-03 3.06414E-04-8.87361E-15
 -1      3667 3.74815E-03 3.04972E-04-1.45365E-14
 -1      3668 3.67883E-03 3.42801E-04-1.38995E-14
 -1      3669 3.53546E-03 3.43857E-04-1.28842E-14
 -1      3670 2.01941E-03 2.86289E-04-4.57323E-15
 -1      3671 1.95337E-03 3.18441E-04-4.20997E-15
 -1      3672 1.80937E-03 3.10011E-04-3.65405E-15
 -1      3673 1.27836E-02-2.42177E-05-1.15153E-13
 -1      3674 1.27242E-02-3.23127E-05-1.13651E-13
 -1      3675 1.27363E-02-4.46557E-05-1.14536E-13
 -1      3676 1.38842E-02 2.56711E-04-1.40464E-13
 -1      3677 1.37567E-02 2.31321E-04-1.37987E-13
 -1      3678 1.36424E-02 2.38634E-04-1.35962E-13
 -1      3679 1.35969E-02 2.05164E-04-1.34870E-13
 -1      3680 1.38612E-02-2.47537E-05-1.39178E-13
 -1      3681 1.39725E-02-1.02867E-05-1.41308E-13
 -1      3682 1.39669E-02 2.05875E-05-1.41114E-13
 -1      3683 1.39644E-02-1.03074E-04-1.41872E-13
 -1      3684 1.38551E-02-8.55280E-05-1.39550E-13
 -1      3685 1.39539E-02-1.34996E-04-1.42054E-13
 -1      3686 1.14405E-03 1.48706E-04-1.75215E-15
 -1      3687 1.26153E-03 1.10538E-04-2.13795E-15
 -1      3688 1.25936E-03 7.90538E-05-2.16472E-15
 -1      3689 2.46298E-03 3.74128E-04-6.37516E-15
 -1      3690 1.22937E-03-1.32460E-04-2.14130E-15
 -1      3691 1.20969E-03-1.59172E-04-2.07056E-15
 -1      3692 1.28786E-03-1.75329E-04-2.30038E-15
 -1      3693 1.35054E-03-1.23872E-04-2.52202E-15
 -1      3694 7.95433E-03-6.64401E-05-6.71424E-14
 -1      3695 7.92387E-03-4.79121E-05-6.73296E-14
 -1      3696 7.83151E-03-3.79057E-05-6.57600E-14
 -1      3697 1.13580E-03-2.76921E-05-1.87183E-15
 -1      3698 1.25725E-02-8.44900E-05-1.12645E-13
 -1      3699 1.25596E-02-1.11190E-04-1.13622E-13
 -1      3700 1.26558E-02-7.46367E-05-1.14016E-13
 -1      3701 7.74770E-03-1.34638E-05-6.44386E-14
 -1      3702 7.75914E-03-4.22104E-06-6.47297E-14
 -1      3703 7.70537E-03 8.61272E-06-6.32321E-14
 -1      3704 3.24846E-03 3.44915E-04-1.09662E-14
 -1      3705 3.17339E-03 3.07514E-04-1.06128E-14
 -1      3706 3.39201E-03 3.44569E-04-1.19066E-14
 -1      3707 1.22945E-02 1.86583E-04-1.10484E-13
 -1      3708 1.25970E-02 9.03267E-05-1.13873E-13
 -1      3709 1.26050E-02 5.94764E-05-1.12994E-13
 -1      3710 1.27066E-02 4.79859E-05-1.14843E-13
 -1      3711 8.28198E-03 2.39940E-04-6.62144E-14
 -1      3712 1.23446E-02-1.82498E-04-1.11944E-13
 -1      3713 1.23282E-02-2.27346E-04-1.13030E-13
 -1      3714 1.24612E-02-2.13837E-04-1.15220E-13
 -1      3715 1.24560E-02-1.56241E-04-1.13241E-13
 -1      3716 1.78460E-03-2.40945E-04-4.03449E-15
 -1      3717 1.39278E-02 1.16977E-04-1.40515E-13
 -1      3718 1.39085E-02 1.51229E-04-1.40307E-13
 -1      3719 1.37568E-02 1.65270E-04-1.37544E-13
 -1      3720 1.38639E-02 1.83553E-04-1.39656E-13
 -1      3721 1.25791E-03 4.77772E-05-2.18750E-15
 -1      3722 1.25719E-03 1.67212E-05-2.20627E-15
 -1      3723 1.38112E-03 6.70663E-05-2.55527E-15
 -1      3724 1.39047E-02-2.34282E-04-1.42561E-13
 -1      3725 1.38012E-02-2.19113E-04-1.40405E-13
 -1      3726 1.39285E-02-2.06485E-04-1.42579E-13
 -1      3727 1.39455E-02-1.72466E-04-1.42403E-13
 -1      3728 1.37030E-02-2.11159E-04-1.38451E-13
 -1      3729 1.36929E-02 1.39369E-04-1.36164E-13
 -1      3730 1.36461E-02 1.71595E-04-1.35518E-13
 -1      3731 1.35349E-02 1.78134E-04-1.33496E-13
 -1      3732 2.57584E-03-2.29577E-04-7.80634E-15
 -1      3733 2.72066E-03-2.31209E-04-8.61565E-15
 -1      3734 2.86539E-03-2.32320E-04-9.46335E-15
 -1      3735 3.01000E-03-2.32953E-04-1.03494E-14
 -1      3736 2.79014E-03-1.94495E-04-9.03078E-15
 -1      3737 3.15448E-03-2.33195E-04-1.12727E-14
 -1      3738 3.29881E-03-2.33073E-04-1.22334E-14
 -1      3739 3.07977E-03-1.95614E-04-1.07982E-14
 -1      3740 3.44298E-03-2.32653E-04-1.32312E-14
 -1      3741 3.58696E-03-2.31948E-04-1.42647E-14
 -1      3742 3.36878E-03-1.95423E-04-1.27154E-14
 -1      3743 3.73075E-03-2.31008E-04-1.53356E-14
 -1      3744 3.87434E-03-2.29835E-04-1.64426E-14
 -1      3745 3.65701E-03-1.94221E-04-1.47794E-14
 -1      3746 4.01772E-03-2.28464E-04-1.75850E-14
 -1      3747 4.16087E-03-2.26889E-04-1.87637E-14
 -1      3748 3.94435E-03-1.92204E-04-1.69880E-14
 -1      3749 4.30377E-03-2.25136E-04-1.99765E-14
 -1      3750 4.44642E-03-2.23194E-04-2.12245E-14
 -1      3751 4.23067E-03-1.89490E-04-1.93393E-14
 -1      3752 4.58880E-03-2.21082E-04-2.25075E-14
 -1      3753 4.73087E-03-2.18784E-04-2.38251E-14
 -1      3754 4.51582E-03-1.86138E-04-2.18311E-14
 -1      3755 4.87262E-03-2.16323E-04-2.51766E-14
 -1      3756 5.01403E-03-2.13676E-04-2.65610E-14
 -1      3757 4.79964E-03-1.82175E-04-2.44609E-14
 -1      3758 5.15505E-03-2.10871E-04-2.79782E-14
 -1      3759 5.29567E-03-2.07884E-04-2.94292E-14
 -1      3760 5.08189E-03-1.77608E-04-2.72250E-14
 -1      3761 5.43583E-03-2.04755E-04-3.09144E-14
 -1      3762 5.57551E-03-2.01458E-04-3.24319E-14
 -1      3763 5.36228E-03-1.72456E-04-3.01235E-14
 -1      3764 5.71464E-03-1.98049E-04-3.39803E-14
 -1      3765 5.85321E-03-1.94503E-04-3.55607E-14
 -1      3766 5.64046E-03-1.66764E-04-3.31543E-14
 -1      3767 5.99114E-03-1.90898E-04-3.71738E-14
 -1      3768 6.12843E-03-1.87210E-04-3.88174E-14
 -1      3769 5.91604E-03-1.60629E-04-3.63121E-14
 -1      3770 6.26498E-03-1.83543E-04-4.04912E-14
 -1      3771 6.40082E-03-1.79876E-04-4.21939E-14
 -1      3772 6.18854E-03-1.54214E-04-3.95942E-14
 -1      3773 6.53582E-03-1.76338E-04-4.39261E-14
 -1      3774 6.67007E-03-1.72915E-04-4.56866E-14
 -1      3775 6.45748E-03-1.47758E-04-4.29960E-14
 -1      3776 6.80344E-03-1.69758E-04-4.74757E-14
 -1      3777 6.93609E-03-1.66865E-04-4.92923E-14
 -1      3778 6.72239E-03-1.41568E-04-4.65130E-14
 -1      3779 7.06787E-03-1.64401E-04-5.11360E-14
 -1      3780 7.19910E-03-1.62401E-04-5.30070E-14
 -1      3781 6.98287E-03-1.36001E-04-5.01411E-14
 -1      3782 7.32961E-03-1.61023E-04-5.49044E-14
 -1      3783 7.46003E-03-1.60407E-04-5.68281E-14
 -1      3784 7.23875E-03-1.31446E-04-5.38779E-14
 -1      3785 7.59011E-03-1.60691E-04-5.87768E-14
 -1      3786 7.72110E-03-1.62326E-04-6.07488E-14
 -1      3787 7.49027E-03-1.28362E-04-5.77193E-14
 -1      3788 7.85272E-03-1.65396E-04-6.27446E-14
 -1      3789 7.98717E-03-1.71134E-04-6.47643E-14
 -1      3790 7.73875E-03-1.27576E-04-6.16588E-14
 -1      3791 1.26012E-02-2.06950E-04-1.17711E-13
 -1      3792 1.27386E-02-2.02965E-04-1.20214E-13
 -1      3793 1.25907E-02-1.79505E-04-1.16715E-13
 -1      3794 7.71747E-03 3.89288E-05-6.25629E-14
 -1      3795 7.80662E-03 6.56827E-05-6.32466E-14
 -1      3796 1.28737E-02-2.01309E-04-1.22728E-13
 -1      3797 1.30079E-02-2.01118E-04-1.25253E-13
 -1      3798 1.28544E-02-1.76646E-04-1.21722E-13
 -1      3799 1.31416E-02-2.02070E-04-1.27788E-13
 -1      3800 1.32753E-02-2.03837E-04-1.30333E-13
 -1      3801 1.31155E-02-1.79051E-04-1.26775E-13
 -1      3802 1.34093E-02-2.06168E-04-1.32887E-13
 -1      3803 1.35439E-02-2.08918E-04-1.35450E-13
 -1      3804 1.33780E-02-1.83915E-04-1.31864E-13
 -1      3805 5.24170E-03 2.44219E-04-2.77180E-14
 -1      3806 5.10049E-03 2.47402E-04-2.63074E-14
 -1      3807 4.95898E-03 2.50384E-04-2.49299E-14
 -1      3808 4.81716E-03 2.53184E-04-2.35870E-14
 -1      3809 5.02692E-03 2.13846E-04-2.57357E-14
 -1      3810 5.80269E-03 2.29829E-04-3.36942E-14
 -1      3811 5.66306E-03 2.33657E-04-3.21508E-14
 -1      3812 6.08049E-03 2.21914E-04-3.68759E-14
 -1      3813 5.94182E-03 2.25917E-04-3.52698E-14
 -1      3814 5.86580E-03 1.95052E-04-3.46096E-14
 -1      3815 6.35621E-03 2.13925E-04-4.01808E-14
 -1      3816 6.21860E-03 2.17916E-04-3.85136E-14
 -1      3817 6.14096E-03 1.87838E-04-3.78270E-14
 -1      3818 6.62977E-03 2.06357E-04-4.36017E-14
 -1      3819 6.49323E-03 2.10064E-04-4.18763E-14
 -1      3820 6.41336E-03 1.80531E-04-4.11624E-14
 -1      3821 6.90134E-03 1.99903E-04-4.71381E-14
 -1      3822 6.76574E-03 2.02950E-04-4.53562E-14
 -1      3823 6.68276E-03 1.73522E-04-4.46158E-14
 -1      3824 7.17155E-03 1.95496E-04-5.07856E-14
 -1      3825 7.03649E-03 1.97374E-04-4.89480E-14
 -1      3826 6.94916E-03 1.67319E-04-4.81826E-14
 -1      3827 7.44188E-03 1.94429E-04-5.45383E-14
 -1      3828 7.30648E-03 1.94413E-04-5.26489E-14
 -1      3829 7.21295E-03 1.62569E-04-5.18575E-14
 -1      3830 7.71533E-03 1.98727E-04-5.83925E-14
 -1      3831 7.57784E-03 1.95617E-04-5.64532E-14
 -1      3832 7.47525E-03 1.60109E-04-5.56390E-14
 -1      3833 7.99716E-03 2.12324E-04-6.23441E-14
 -1      3834 7.85451E-03 2.03793E-04-6.03567E-14
 -1      3835 7.73874E-03 1.61488E-04-5.95199E-14
 -1      3836 1.24392E-02 1.72992E-04-1.12939E-13
 -1      3837 1.42658E-03 2.30559E-04-2.46846E-15
 -1      3838 1.29635E-03 1.88373E-04-2.13508E-15
 -1      3839 8.14368E-03 2.20414E-04-6.44338E-14
 -1      3840 4.10431E-03 2.64204E-04-1.74023E-14
 -1      3841 3.96110E-03 2.65800E-04-1.62727E-14
 -1      3842 1.33987E-02 1.77897E-04-1.30958E-13
 -1      3843 1.32626E-02 1.78121E-04-1.28428E-13
 -1      3844 1.34503E-02 1.44706E-04-1.31600E-13
 -1      3845 2.52952E-03 3.38784E-04-6.82744E-15
 -1      3846 2.38553E-03 3.35381E-04-6.11447E-15
 -1      3847 2.30815E-03 2.96675E-04-5.85217E-15
 -1      3848 1.99659E-03-2.15869E-04-4.95194E-15
 -1      3849 2.14130E-03-2.20565E-04-5.60728E-15
 -1      3850 1.25714E-03-1.41718E-05-2.22135E-15
 -1      3851 1.25777E-03-4.51459E-05-2.23293E-15
 -1      3852 1.38094E-03-6.42768E-05-2.62457E-15
 -1      3853 1.37954E-03 1.33819E-06-2.59826E-15
 -1      3854 1.70789E-03-2.03245E-04-3.75971E-15
 -1      3855 1.85209E-03-2.10120E-04-4.33608E-15
 -1      3856 1.92043E-03-1.78393E-04-4.64226E-15
 -1      3857 7.89834E-03 1.16616E-04-6.31947E-14
 -1      3858 8.00812E-03 1.66750E-04-6.35749E-14
 -1      3859 1.38351E-02 2.23485E-04-1.39368E-13
 -1      3860 1.31266E-02 1.79041E-04-1.25910E-13
 -1      3861 1.29900E-02 1.81056E-04-1.23402E-13
 -1      3862 1.31850E-02 1.43877E-04-1.26546E-13
 -1      3863 1.27984E-02 1.49473E-05-1.16005E-13
 -1      3864 1.28202E-02-3.89889E-06-1.16161E-13
 -1      3865 1.69286E-03 3.07779E-04-3.21809E-15
 -1      3866 1.56737E-03 3.01340E-04-2.78468E-15
 -1      3867 1.52515E-03 2.72338E-04-2.70831E-15
 -1      3868 1.75827E-03 2.78311E-04-3.53687E-15
 -1      3869 1.29209E-03 1.55079E-04-2.17320E-15
 -1      3870 5.52301E-03 2.37332E-04-3.06398E-14
 -1      3871 5.38253E-03 2.40869E-04-2.91618E-14
 -1      3872 5.58819E-03 2.01896E-04-3.15204E-14
 -1      3873 1.39574E-02 5.19344E-05-1.40915E-13
 -1      3874 1.39443E-02 8.39771E-05-1.40716E-13
 -1      3875 1.38210E-02 9.99609E-05-1.38394E-13
 -1      3876 1.38494E-02 3.62084E-05-1.38791E-13
 -1      3877 8.43492E-03-2.49549E-04-7.04298E-14
 -1      3878 1.47879E-03-1.90211E-04-2.92253E-15
 -1      3879 2.28611E-03-2.24354E-04-6.30132E-15
 -1      3880 2.43098E-03-2.27313E-04-7.03448E-15
 -1      3881 2.21004E-03-1.86519E-04-5.95086E-15
 -1      3882 1.25538E-02 1.88504E-04-1.15426E-13
 -1      3883 1.25768E-02 1.28059E-04-1.14515E-13
 -1      3884 1.26951E-02 1.09217E-04-1.16369E-13
 -1      3885 1.26767E-02 1.85501E-04-1.17652E-13
 -1      3886 8.29670E-03-2.11499E-04-6.89665E-14
 -1      3887 1.54658E-03-1.62954E-04-3.17815E-15
 -1      3888 2.50011E-03-1.91648E-04-7.41436E-15
 -1      3889 8.15711E-03-1.86765E-04-6.71819E-14
 -1      3890 7.65275E-03 2.21200E-05-6.18016E-14
 -1      3891 7.63159E-03 4.19194E-05-6.08558E-14
 -1      3892 7.75437E-03-3.79599E-05-6.40777E-14
 -1      3893 7.74745E-03-2.51126E-05-6.42591E-14
 -1      3894 7.67462E-03-1.31786E-05-6.27680E-14
 -1      3895 1.36673E-02-1.89282E-04-1.37418E-13
 -1      3896 5.30846E-03 2.08193E-04-2.85615E-14
 -1      3897 2.37572E-03 2.61888E-04-6.27130E-15
 -1      3898 2.23106E-03 2.58164E-04-5.58832E-15
 -1      3899 2.95394E-03 2.69451E-04-9.38475E-15
 -1      3900 2.80951E-03 2.68479E-04-8.54910E-15
 -1      3901 3.81770E-03 2.67168E-04-1.51787E-14
 -1      3902 3.67413E-03 2.68307E-04-1.41206E-14
 -1      3903 3.88746E-03 2.29453E-04-1.58246E-14
 -1      3904 1.38376E-02-1.53397E-04-1.40080E-13
 -1      3905 2.08645E-03 2.53459E-04-4.94453E-15
 -1      3906 1.94194E-03 2.47670E-04-4.33984E-15
 -1      3907 2.15436E-03 2.19973E-04-5.32431E-15
 -1      3908 4.74384E-03 2.18811E-04-2.30469E-14
 -1      3909 4.67507E-03 2.55779E-04-2.22796E-14
 -1      3910 4.53271E-03 2.58189E-04-2.10075E-14
 -1      3911 1.54291E-03 2.34481E-04-2.85079E-15
 -1      3912 1.28549E-02-1.55438E-05-1.17051E-13
 -1      3913 4.24732E-03 2.62404E-04-1.85684E-14
 -1      3914 4.17395E-03 2.26637E-04-1.80899E-14
 -1      3915 4.39013E-03 2.60392E-04-1.97700E-14
 -1      3916 1.37506E-02-3.86634E-05-1.37053E-13
 -1      3917 1.37491E-02-8.98459E-06-1.36864E-13
 -1      3918 2.59686E-03 3.03054E-04-7.28606E-15
 -1      3919 1.41340E-03 1.46439E-04-2.56724E-15
 -1      3920 1.57836E-03-1.34206E-04-3.30336E-15
 -1      3921 1.57384E-03-6.29740E-05-3.28894E-15
 -1      3922 1.57565E-03-9.84411E-05-3.29867E-15
 -1      3923 1.77252E-03-1.35075E-04-4.04510E-15
 -1      3924 1.37388E-02-9.88752E-05-1.37419E-13
 -1      3925 1.37471E-02-6.84303E-05-1.37238E-13
 -1      3926 1.36400E-02-5.20240E-05-1.34931E-13
 -1      3927 1.27443E-02-6.22676E-05-1.15519E-13
 -1      3928 1.27485E-02-8.29525E-05-1.16504E-13
 -1      3929 1.28238E-02-5.22860E-05-1.17026E-13
 -1      3930 1.28944E-02 1.82189E-04-1.21640E-13
 -1      3931 1.27735E-02 1.82536E-04-1.19401E-13
 -1      3932 1.27765E-02 1.44894E-04-1.18760E-13
 -1      3933 1.29609E-02 1.44012E-04-1.22272E-13
 -1      3934 7.78220E-03 1.07501E-04-6.15589E-14
 -1      3935 3.46102E-03 3.06907E-04-1.25011E-14
 -1      3936 8.01787E-03-1.36244E-04-6.60638E-14
 -1      3937 1.28115E-02 3.63596E-05-1.16895E-13
 -1      3938 1.29103E-02 2.65606E-05-1.18951E-13
 -1      3939 1.28217E-02 6.10366E-05-1.17779E-13
 -1      3940 1.37325E-02 7.32406E-05-1.36562E-13
 -1      3941 1.37144E-02 1.05686E-04-1.36364E-13
 -1      3942 1.36078E-02 1.11306E-04-1.34341E-13
 -1      3943 1.25591E-02-1.36986E-04-1.14614E-13
 -1      3944 1.55136E-03 1.73236E-04-2.99205E-15
 -1      3945 1.52001E-03 1.24581E-04-2.95498E-15
 -1      3946 7.62615E-03 1.09158E-05-6.15174E-14
 -1      3947 1.51751E-03 8.94384E-05-2.98908E-15
 -1      3948 1.51584E-03 5.45668E-05-3.01861E-15
 -1      3949 1.65498E-03 1.13069E-04-3.45329E-15
 -1      3950 3.24245E-03 2.70043E-04-1.11684E-14
 -1      3951 3.09826E-03 2.69960E-04-1.02580E-14
 -1      3952 3.02314E-03 2.32290E-04-9.90188E-15
 -1      3953 8.00829E-03-1.13018E-04-6.65491E-14
 -1      3954 7.96664E-03-8.54615E-05-6.66619E-14
 -1      3955 7.85372E-03-6.93852E-05-6.50992E-14
 -1      3956 7.86104E-03-1.07561E-04-6.41428E-14
 -1      3957 3.00524E-03-1.57978E-04-1.03288E-14
 -1      3958 3.15007E-03-1.58140E-04-1.12481E-14
 -1      3959 3.29472E-03-1.58061E-04-1.22046E-14
 -1      3960 3.43917E-03-1.57749E-04-1.31977E-14
 -1      3961 3.22085E-03-1.20591E-04-1.16990E-14
 -1      3962 3.58340E-03-1.57252E-04-1.42276E-14
 -1      3963 3.72738E-03-1.56567E-04-1.52936E-14
 -1      3964 3.50994E-03-1.20109E-04-1.36809E-14
 -1      3965 3.87112E-03-1.55733E-04-1.63954E-14
 -1      3966 4.01458E-03-1.54740E-04-1.75337E-14
 -1      3967 3.79804E-03-1.19043E-04-1.58082E-14
 -1      3968 4.15774E-03-1.53617E-04-1.87071E-14
 -1      3969 4.30060E-03-1.52351E-04-1.99153E-14
 -1      3970 4.08501E-03-1.17496E-04-1.80792E-14
 -1      3971 4.44312E-03-1.50966E-04-2.11586E-14
 -1      3972 4.58527E-03-1.49442E-04-2.24368E-14
 -1      3973 4.37066E-03-1.15523E-04-2.04913E-14
 -1      3974 4.72704E-03-1.47804E-04-2.37491E-14
 -1      3975 4.86839E-03-1.46028E-04-2.50953E-14
 -1      3976 4.65480E-03-1.13148E-04-2.30420E-14
 -1      3977 5.00928E-03-1.44142E-04-2.64764E-14
 -1      3978 5.14967E-03-1.42117E-04-2.78895E-14
 -1      3979 4.93718E-03-1.10385E-04-2.57303E-14
 -1      3980 5.28952E-03-1.39989E-04-2.93364E-14
 -1      3981 5.42878E-03-1.37726E-04-3.08180E-14
 -1      3982 5.21747E-03-1.07238E-04-2.85544E-14
 -1      3983 5.56738E-03-1.35375E-04-3.23311E-14
 -1      3984 5.70529E-03-1.32898E-04-3.38760E-14
 -1      3985 5.49528E-03-1.03724E-04-3.15107E-14
 -1      3986 5.84242E-03-1.30360E-04-3.54531E-14
 -1      3987 5.97872E-03-1.27716E-04-3.70613E-14
 -1      3988 5.77014E-03-9.98822E-05-3.45974E-14
 -1      3989 6.11409E-03-1.25053E-04-3.87007E-14
 -1      3990 6.24850E-03-1.22315E-04-4.03702E-14
 -1      3991 6.04146E-03-9.57815E-05-3.78104E-14
 -1      3992 6.38181E-03-1.19613E-04-4.20695E-14
 -1      3993 6.51399E-03-1.16875E-04-4.37966E-14
 -1      3994 6.30857E-03-9.15247E-05-4.11448E-14
 -1      3995 6.64489E-03-1.14238E-04-4.55526E-14
 -1      3996 6.77450E-03-1.11602E-04-4.73369E-14
 -1      3997 6.57067E-03-8.72377E-05-4.45959E-14
 -1      3998 6.90261E-03-1.09131E-04-4.91497E-14
 -1      3999 7.02929E-03-1.06689E-04-5.09888E-14
 -1      4000 6.82680E-03-8.30319E-05-4.81604E-14
 -1      4001 7.15421E-03-1.04466E-04-5.28548E-14
 -1      4002 7.27759E-03-1.02277E-04-5.47472E-14
 -1      4003 7.07580E-03-7.89566E-05-5.18341E-14
 -1      4004 7.39894E-03-1.00367E-04-5.66646E-14
 -1      4005 7.51875E-03-9.84655E-05-5.86072E-14
 -1      4006 7.31616E-03-7.49758E-05-5.56134E-14
 -1      4007 7.62981E-03-1.02780E-04-6.03618E-14
 -1      4008 7.74780E-03-1.01618E-04-6.23503E-14
 -1      4009 7.75030E-03-8.28906E-05-6.28247E-14
 -1      4010 7.53838E-03-7.60928E-05-5.92831E-14
 -1      4011 1.26819E-02-1.36423E-04-1.17102E-13
 -1      4012 2.42477E-03-1.53960E-04-7.02728E-15
 -1      4013 2.56998E-03-1.55559E-04-7.79592E-15
 -1      4014 1.30829E-02-1.46554E-04-1.25364E-13
 -1      4015 1.32093E-02-1.49362E-04-1.27897E-13
 -1      4016 1.33368E-02-1.52335E-04-1.30440E-13
 -1      4017 1.34658E-02-1.55473E-04-1.32992E-13
 -1      4018 1.32960E-02-1.22179E-04-1.29018E-13
 -1      4019 2.52037E-03 2.64790E-04-6.99247E-15
 -1      4020 2.44409E-03 2.26635E-04-6.69767E-15
 -1      4021 2.66497E-03 2.66944E-04-7.75173E-15
 -1      4022 2.73379E-03 2.30514E-04-8.22400E-15
 -1      4023 6.20099E-03 1.54816E-04-3.87788E-14
 -1      4024 6.06517E-03 1.58054E-04-3.71381E-14
 -1      4025 5.92855E-03 1.61199E-04-3.55292E-14
 -1      4026 5.79115E-03 1.64291E-04-3.39505E-14
 -1      4027 5.99109E-03 1.28300E-04-3.64504E-14
 -1      4028 6.73505E-03 1.41973E-04-4.56319E-14
 -1      4029 6.60298E-03 1.45129E-04-4.38752E-14
 -1      4030 6.99596E-03 1.36117E-04-4.92287E-14
 -1      4031 6.86599E-03 1.38988E-04-4.74169E-14
 -1      4032 6.78691E-03 1.11739E-04-4.66503E-14
 -1      4033 7.25271E-03 1.31105E-04-5.29323E-14
 -1      4034 7.12476E-03 1.33495E-04-5.10671E-14
 -1      4035 7.04207E-03 1.06314E-04-5.02771E-14
 -1      4036 7.50563E-03 1.27444E-04-5.67414E-14
 -1      4037 7.37941E-03 1.29128E-04-5.48247E-14
 -1      4038 7.29117E-03 1.01174E-04-5.40094E-14
 -1      4039 7.66082E-03 1.08374E-04-5.95825E-14
 -1      4040 7.49144E-03 5.94185E-05-5.80000E-14
 -1      4041 7.56489E-03 7.98169E-05-5.87386E-14
 -1      4042 1.34769E-02 1.10297E-04-1.31797E-13
 -1      4043 1.70295E-03 2.45070E-04-3.40380E-15
 -1      4044 1.60511E-03 2.04648E-04-3.12734E-15
 -1      4045 1.71137E-03 1.81137E-04-3.55988E-15
 -1      4046 1.81995E-03 2.45898E-04-3.85060E-15
 -1      4047 1.51498E-03 1.99756E-05-3.04295E-15
 -1      4048 1.51490E-03-1.45645E-05-3.06299E-15
 -1      4049 1.65146E-03 4.03268E-05-3.51914E-15
 -1      4050 1.36823E-02-1.51002E-04-1.37076E-13
 -1      4051 6.46996E-03 1.48315E-04-4.21464E-14
 -1      4052 6.33592E-03 1.51584E-04-4.04485E-14
 -1      4053 6.26079E-03 1.22874E-04-3.97326E-14
 -1      4054 1.27747E-02-1.09058E-04-1.18051E-13
 -1      4055 1.28186E-02-1.46839E-04-1.20167E-13
 -1      4056 1.29439E-02-1.48553E-04-1.22681E-13
 -1      4057 1.28708E-02-9.46750E-05-1.19567E-13
 -1      4058 1.32795E-02 1.12892E-04-1.27977E-13
 -1      4059 1.31511E-02 1.12136E-04-1.25461E-13
 -1      4060 5.09470E-03 1.77846E-04-2.65458E-14
 -1      4061 4.95383E-03 1.80140E-04-2.51641E-14
 -1      4062 1.29470E-02-1.30506E-05-1.19404E-13
 -1      4063 1.28984E-02-3.46080E-05-1.18393E-13
 -1      4064 5.65307E-03 1.67251E-04-3.24039E-14
 -1      4065 5.51432E-03 1.70116E-04-3.08901E-14
 -1      4066 5.71777E-03 1.33432E-04-3.32908E-14
 -1      4067 1.37495E-02 1.62454E-05-1.36813E-13
 -1      4068 1.37391E-02 4.68047E-05-1.36617E-13
 -1      4069 1.36366E-02 5.23328E-05-1.34593E-13
 -1      4070 1.36435E-02 1.70644E-06-1.34696E-13
 -1      4071 7.60971E-03-1.39687E-06-6.13451E-14
 -1      4072 7.54725E-03 1.18695E-05-5.99324E-14
 -1      4073 7.59912E-03-1.34911E-05-6.11703E-14
 -1      4074 1.91692E-03-1.39367E-04-4.63978E-15
 -1      4075 3.53039E-03 2.69179E-04-1.30997E-14
 -1      4076 3.38650E-03 2.69776E-04-1.21157E-14
 -1      4077 3.31196E-03 2.32479E-04-1.17293E-14
 -1      4078 3.60010E-03 2.31451E-04-1.37038E-14
 -1      4079 2.13452E-03-1.49184E-04-5.60560E-15
 -1      4080 2.27960E-03-1.51851E-04-6.29721E-15
 -1      4081 2.34989E-03-1.16607E-04-6.64625E-15
 -1      4082 2.71516E-03-1.56734E-04-8.60253E-15
 -1      4083 2.86026E-03-1.57515E-04-9.44659E-15
 -1      4084 2.93096E-03-1.20332E-04-9.86426E-15
 -1      4085 5.37499E-03 1.72827E-04-2.94081E-14
 -1      4086 5.23509E-03 1.75418E-04-2.79602E-14
 -1      4087 5.16238E-03 1.42427E-04-2.73583E-14
 -1      4088 1.36323E-02-1.21166E-04-1.35640E-13
 -1      4089 1.27971E-02 1.17550E-04-1.18595E-13
 -1      4090 1.28030E-02 8.39957E-05-1.17949E-13
 -1      4091 1.29171E-02 7.02837E-05-1.20012E-13
 -1      4092 1.28860E-02 1.17858E-04-1.20348E-13
 -1      4093 1.30084E-02 2.60086E-05-1.21195E-13
 -1      4094 1.29804E-02 5.49894E-06-1.20302E-13
 -1      4095 1.30395E-02-1.46957E-05-1.21653E-13
 -1      4096 1.98693E-03-1.06509E-04-4.94366E-15
 -1      4097 2.51324E-03 1.90929E-04-7.13146E-15
 -1      4098 2.36817E-03 1.88714E-04-6.40270E-15
 -1      4099 3.95743E-03 1.91865E-04-1.64756E-14
 -1      4100 3.81390E-03 1.92906E-04-1.53758E-14
 -1      4101 7.74977E-03-6.67416E-05-6.32169E-14
 -1      4102 7.75268E-03-5.11097E-05-6.36879E-14
 -1      4103 7.66138E-03-3.70798E-05-6.22057E-14
 -1      4104 7.64852E-03-6.41459E-05-6.14330E-14
 -1      4105 6.52627E-03 1.17300E-04-4.31341E-14
 -1      4106 1.30389E-02-1.19595E-04-1.23797E-13
 -1      4107 2.22314E-03 1.85851E-04-5.71232E-15
 -1      4108 2.07822E-03 1.82276E-04-5.06032E-15
 -1      4109 2.29270E-03 1.51129E-04-6.10802E-15
 -1      4110 4.81254E-03 1.82267E-04-2.38179E-14
 -1      4111 4.67085E-03 1.84255E-04-2.25066E-14
 -1      4112 4.88120E-03 1.46195E-04-2.45932E-14
 -1      4113 7.44648E-03 2.90030E-05-5.78137E-14
 -1      4114 7.36014E-03 6.41242E-05-5.57425E-14
 -1      4115 1.34338E-02 8.09105E-05-1.30701E-13
 -1      4116 1.88737E-03 2.14745E-04-4.18629E-15
 -1      4117 4.45946E-03 2.23080E-04-2.04978E-14
 -1      4118 4.24370E-03 1.89291E-04-1.87817E-14
 -1      4119 4.10070E-03 1.90664E-04-1.76110E-14
 -1      4120 4.02760E-03 1.54461E-04-1.71314E-14
 -1      4121 2.80328E-03 1.93783E-04-8.70282E-15
 -1      4122 2.65829E-03 1.92604E-04-7.89826E-15
 -1      4123 2.58310E-03 1.54824E-04-7.57214E-15
 -1      4124 1.70957E-03-4.57421E-05-3.79154E-15
 -1      4125 1.29226E-02-5.12702E-05-1.19384E-13
 -1      4126 1.30633E-02 1.15165E-04-1.23781E-13
 -1      4127 1.29742E-02 1.14184E-04-1.22017E-13
 -1      4128 1.29874E-02 9.03080E-05-1.21851E-13
 -1      4129 1.31571E-02 8.53701E-05-1.25203E-13
 -1      4130 5.44138E-03 1.38162E-04-3.02592E-14
 -1      4131 1.35355E-02-8.82614E-06-1.32507E-13
 -1      4132 1.35349E-02 1.55326E-05-1.32458E-13
 -1      4133 3.09291E-03 1.94953E-04-1.04250E-14
 -1      4134 2.94816E-03 1.94556E-04-9.54509E-15
 -1      4135 2.87339E-03 1.56812E-04-9.18833E-15
 -1      4136 1.78110E-03 1.35790E-04-3.90180E-15
 -1      4137 1.77842E-03 9.79413E-05-3.94381E-15
 -1      4138 1.35322E-02-6.58120E-05-1.32875E-13
 -1      4139 1.35369E-02-3.71046E-05-1.32692E-13
 -1      4140 1.34346E-02-2.30141E-05-1.30460E-13
 -1      4141 2.64052E-03-1.19106E-04-8.17923E-15
 -1      4142 1.83421E-03 1.67245E-04-4.06135E-15
 -1      4143 3.14725E-03-8.30613E-05-1.11986E-14
 -1      4144 3.29208E-03-8.29972E-05-1.21503E-14
 -1      4145 2.65365E-03 1.18346E-04-8.01980E-15
 -1      4146 2.50833E-03 1.17276E-04-7.24660E-15
 -1      4147 6.58284E-03 8.75097E-05-4.41236E-14
 -1      4148 6.45244E-03 8.98082E-05-4.23922E-14
 -1      4149 3.43670E-03-8.28235E-05-1.31386E-14
 -1      4150 3.58108E-03-8.25313E-05-1.41641E-14
 -1      4151 3.36373E-03-4.54163E-05-1.26019E-14
 -1      4152 3.72518E-03-8.21534E-05-1.52255E-14
 -1      4153 3.86899E-03-8.16767E-05-1.63227E-14
 -1      4154 3.65255E-03-4.50690E-05-1.46473E-14
 -1      4155 4.01250E-03-8.11307E-05-1.74563E-14
 -1      4156 4.15566E-03-8.04989E-05-1.86245E-14
 -1      4157 3.94021E-03-4.45129E-05-1.68375E-14
 -1      4158 4.29847E-03-7.98027E-05-1.98284E-14
 -1      4159 4.44090E-03-7.90272E-05-2.10669E-14
 -1      4160 4.22654E-03-4.37859E-05-1.91696E-14
 -1      4161 4.58291E-03-7.81925E-05-2.23397E-14
 -1      4162 4.72448E-03-7.72761E-05-2.36471E-14
 -1      4163 4.51133E-03-4.28968E-05-2.16421E-14
 -1      4164 4.86555E-03-7.63095E-05-2.49892E-14
 -1      4165 5.00610E-03-7.52613E-05-2.63657E-14
 -1      4166 4.79433E-03-4.18617E-05-2.42524E-14
 -1      4167 5.14607E-03-7.41598E-05-2.77745E-14
 -1      4168 5.28542E-03-7.29785E-05-2.92180E-14
 -1      4169 5.07522E-03-4.06774E-05-2.69993E-14
 -1      4170 5.42407E-03-7.17527E-05-3.06951E-14
 -1      4171 5.56199E-03-7.04481E-05-3.22043E-14
 -1      4172 5.35362E-03-3.93546E-05-2.98824E-14
 -1      4173 5.69907E-03-6.91125E-05-3.37454E-14
 -1      4174 5.83527E-03-6.77024E-05-3.53188E-14
 -1      4175 5.62904E-03-3.79074E-05-3.28967E-14
 -1      4176 5.97047E-03-6.62823E-05-3.69236E-14
 -1      4177 6.10461E-03-6.47956E-05-3.85587E-14
 -1      4178 5.90088E-03-3.63610E-05-3.60399E-14
 -1      4179 6.23756E-03-6.33278E-05-4.02245E-14
 -1      4180 6.36923E-03-6.18017E-05-4.19191E-14
 -1      4181 6.16843E-03-3.47541E-05-3.93065E-14
 -1      4182 6.49946E-03-6.03307E-05-4.36426E-14
 -1      4183 6.62817E-03-5.88027E-05-4.53948E-14
 -1      4184 6.43081E-03-3.31370E-05-4.26918E-14
 -1      4185 6.75510E-03-5.73697E-05-4.71744E-14
 -1      4186 6.88018E-03-5.58455E-05-4.89828E-14
 -1      4187 6.68691E-03-3.15629E-05-4.61925E-14
 -1      4188 7.00305E-03-5.44224E-05-5.08167E-14
 -1      4189 7.12366E-03-5.28860E-05-5.26779E-14
 -1      4190 6.93520E-03-3.00396E-05-4.98025E-14
 -1      4191 7.24140E-03-5.15216E-05-5.45678E-14
 -1      4192 7.35627E-03-4.98152E-05-5.64804E-14
 -1      4193 7.17360E-03-2.84934E-05-5.35223E-14
 -1      4194 1.32542E-02-9.38158E-05-1.27598E-13
 -1      4195 1.33756E-02-9.69615E-05-1.30137E-13
 -1      4196 2.85702E-03-8.27431E-05-9.40548E-15
 -1      4197 3.00221E-03-8.29769E-05-1.02838E-14
 -1      4198 3.07396E-03-4.55085E-05-1.07037E-14
 -1      4199 1.86701E-03 4.26700E-08-4.39550E-15
 -1      4200 1.92615E-03-5.25775E-05-4.67049E-15
 -1      4201 2.14368E-03-5.91670E-05-5.63734E-15
 -1      4202 3.74045E-03 1.56152E-04-1.49263E-14
 -1      4203 3.67013E-03 1.93755E-04-1.43130E-14
 -1      4204 3.52613E-03 1.94416E-04-1.32859E-14
 -1      4205 6.05374E-03 9.63621E-05-3.73744E-14
 -1      4206 5.91861E-03 9.84595E-05-3.57619E-14
 -1      4207 7.42428E-03-5.05045E-08-5.77492E-14
 -1      4208 7.29713E-03 2.47932E-06-5.54963E-14
 -1      4209 7.08831E-03 7.81509E-05-5.13266E-14
 -1      4210 6.96457E-03 8.06039E-05-4.94854E-14
 -1      4211 6.83906E-03 8.28970E-05-4.76701E-14
 -1      4212 6.71170E-03 8.52514E-05-4.58826E-14
 -1      4213 6.64001E-03 5.89678E-05-4.51150E-14
 -1      4214 6.89197E-03 5.54861E-05-4.86921E-14
 -1      4215 7.18347E-03 2.75459E-06-5.35958E-14
 -1      4216 5.78254E-03 1.00451E-04-3.41800E-14
 -1      4217 5.64557E-03 1.02391E-04-3.26300E-14
 -1      4218 5.84754E-03 6.83296E-05-3.50723E-14
 -1      4219 4.52880E-03 1.86086E-04-2.12297E-14
 -1      4220 4.38641E-03 1.87771E-04-1.99882E-14
 -1      4221 4.31357E-03 1.52218E-04-1.94780E-14
 -1      4222 4.59818E-03 1.49462E-04-2.19656E-14
 -1      4223 1.35295E-02-1.03251E-04-1.33338E-13
 -1      4224 5.50781E-03 1.04217E-04-3.11126E-14
 -1      4225 5.36929E-03 1.05974E-04-2.96272E-14
 -1      4226 5.57440E-03 7.10162E-05-3.19687E-14
 -1      4227 1.29964E-02-9.44611E-05-1.22233E-13
 -1      4228 1.31244E-02-9.43133E-05-1.24910E-13
 -1      4229 1.32006E-02-7.06968E-05-1.26021E-13
 -1      4230 1.29551E-02-7.10221E-05-1.20672E-13
 -1      4231 1.30374E-02-5.13456E-05-1.22045E-13
 -1      4232 7.24251E-03 6.67338E-05-5.38398E-14
 -1      4233 2.56633E-03-8.17001E-05-7.76249E-15
 -1      4234 2.71171E-03-8.23220E-05-8.56539E-15
 -1      4235 2.78348E-03-4.52598E-05-8.95264E-15
 -1      4236 1.82263E-03 6.83283E-05-4.15399E-15
 -1      4237 1.82153E-03 3.05433E-05-4.18674E-15
 -1      4238 2.03844E-03 2.73357E-05-5.10432E-15
 -1      4239 1.94869E-03 8.96825E-05-4.64834E-15
 -1      4240 5.23011E-03 1.07614E-04-2.81747E-14
 -1      4241 5.09030E-03 1.09175E-04-2.67561E-14
 -1      4242 5.29797E-03 7.34374E-05-2.89951E-14
 -1      4243 6.32076E-03 9.20204E-05-4.06900E-14
 -1      4244 6.18780E-03 9.42386E-05-3.90170E-14
 -1      4245 6.38120E-03 6.22712E-05-4.16502E-14
 -1      4246 1.95657E-03 1.67242E-04-4.56320E-15
 -1      4247 2.02603E-03 1.34300E-04-4.91595E-15
 -1      4248 7.16972E-03 4.30113E-05-5.30181E-14
 -1      4249 2.43402E-03 8.00266E-05-6.92134E-15
 -1      4250 2.36301E-03 1.15837E-04-6.51077E-15
 -1      4251 2.21777E-03 1.14018E-04-5.81359E-15
 -1      4252 7.39881E-03-2.69585E-05-5.73469E-14
 -1      4253 7.46732E-03-4.85068E-05-5.84185E-14
 -1      4254 7.56678E-03-5.10420E-05-6.01710E-14
 -1      4255 3.81108E-03 1.18671E-04-1.55458E-14
 -1      4256 3.66718E-03 1.19207E-04-1.44770E-14
 -1      4257 6.11672E-03 6.54027E-05-3.83018E-14
 -1      4258 2.27558E-03-7.97053E-05-6.27132E-15
 -1      4259 2.42093E-03-8.08342E-05-6.99778E-15
 -1      4260 4.94993E-03 1.10622E-04-2.53715E-14
 -1      4261 4.80903E-03 1.11984E-04-2.40212E-14
 -1      4262 5.01877E-03 7.55819E-05-2.61534E-14
 -1      4263 7.02913E-03 1.15335E-05-5.10926E-14
 -1      4264 1.34918E-02 3.49331E-05-1.31607E-13
 -1      4265 1.34835E-02 6.04302E-05-1.31555E-13
 -1      4266 1.32945E-02 6.24826E-05-1.27733E-13
 -1      4267 1.33883E-02 2.35666E-05-1.29428E-13
 -1      4268 1.29986E-02 6.81305E-05-1.21683E-13
 -1      4269 1.30076E-02 4.75062E-05-1.21511E-13
 -1      4270 1.30805E-02 6.61337E-05-1.23357E-13
 -1      4271 1.32284E-02 6.33549E-05-1.26384E-13
 -1      4272 1.31457E-02 6.53589E-05-1.24701E-13
 -1      4273 1.31497E-02 4.51486E-05-1.24532E-13
 -1      4274 1.32781E-02 4.36082E-05-1.27229E-13
 -1      4275 1.30998E-02-3.19460E-05-1.23184E-13
 -1      4276 1.31457E-02-5.08970E-05-1.24484E-13
 -1      4277 1.32691E-02-4.99404E-05-1.27166E-13
 -1      4278 1.31446E-02-1.29594E-05-1.24086E-13
 -1      4279 2.49262E-03-4.45833E-05-7.35158E-15
 -1      4280 1.30840E-02 2.43931E-05-1.22871E-13
 -1      4281 7.59016E-03-2.56789E-05-6.09343E-14
 -1      4282 7.51616E-03-1.35034E-05-5.95288E-14
 -1      4283 3.38191E-03 1.94848E-04-1.22954E-14
 -1      4284 3.23750E-03 1.95045E-04-1.13417E-14
 -1      4285 3.16319E-03 1.57505E-04-1.09537E-14
 -1      4286 3.45227E-03 1.57213E-04-1.28672E-14
 -1      4287 2.06992E-03 1.03105E-04-5.15526E-15
 -1      4288 2.94409E-03 1.19629E-04-9.67976E-15
 -1      4289 2.79892E-03 1.19127E-04-8.83098E-15
 -1      4290 2.72482E-03 8.15523E-05-8.47423E-15
 -1      4291 4.09799E-03 1.17271E-04-1.77912E-14
 -1      4292 3.95469E-03 1.18033E-04-1.66506E-14
 -1      4293 3.88198E-03 8.13632E-05-1.61694E-14
 -1      4294 1.34787E-02-7.56963E-05-1.31907E-13
 -1      4295 2.21554E-03-2.40226E-05-5.95520E-15
 -1      4296 1.33657E-02 6.07770E-06-1.28920E-13
 -1      4297 1.33238E-02 2.47145E-05-1.28075E-13
 -1      4298 1.32600E-02 2.56765E-05-1.26723E-13
 -1      4299 3.58020E-03-7.82201E-06-1.40747E-14
 -1      4300 3.72434E-03-7.74560E-06-1.51313E-14
 -1      4301 3.91060E-03 1.83362E-05-1.65110E-14
 -1      4302 4.05402E-03 1.82660E-05-1.76480E-14
 -1      4303 4.44004E-03-7.26550E-06-2.09488E-14
 -1      4304 4.58199E-03-7.14271E-06-2.22167E-14
 -1      4305 4.76515E-03 1.76078E-05-2.38585E-14
 -1      4306 4.90598E-03 1.74477E-05-2.52052E-14
 -1      4307 5.04622E-03 1.72385E-05-2.65846E-14
 -1      4308 5.18585E-03 1.70405E-05-2.79982E-14
 -1      4309 5.32480E-03 1.67906E-05-2.94465E-14
 -1      4310 5.46302E-03 1.65584E-05-3.09279E-14
 -1      4311 5.60042E-03 1.62632E-05-3.24411E-14
 -1      4312 5.73694E-03 1.59946E-05-3.39864E-14
 -1      4313 5.87249E-03 1.56487E-05-3.55647E-14
 -1      4314 6.00698E-03 1.53419E-05-3.71731E-14
 -1      4315 6.14030E-03 1.49380E-05-3.88114E-14
 -1      4316 6.27234E-03 1.45911E-05-4.04806E-14
 -1      4317 6.40297E-03 1.41183E-05-4.21791E-14
 -1      4318 6.53205E-03 1.37283E-05-4.39062E-14
 -1      4319 6.65940E-03 1.31675E-05-4.56618E-14
 -1      4320 6.78486E-03 1.27295E-05-4.74447E-14
 -1      4321 6.90817E-03 1.20319E-05-4.92551E-14
 -1      4322 3.00107E-03-7.99098E-06-1.02136E-14
 -1      4323 3.14618E-03-7.96252E-06-1.11238E-14
 -1      4324 7.57734E-03-3.78242E-05-6.05534E-14
 -1      4325 3.59411E-03 8.20774E-05-1.40265E-14
 -1      4326 3.52302E-03 1.19605E-04-1.34444E-14
 -1      4327 3.37860E-03 1.19872E-04-1.24479E-14
 -1      4328 2.14084E-03 6.87943E-05-5.51958E-15
 -1      4329 2.18599E-03 3.66338E-05-5.76412E-15
 -1      4330 3.29109E-03-7.93243E-06-1.20710E-14
 -1      4331 3.43577E-03-7.87707E-06-1.30542E-14
 -1      4332 3.50814E-03 2.95690E-05-1.35072E-14
 -1      4333 3.21880E-03 2.95994E-05-1.15447E-14
 -1      4334 1.31560E-02 2.53280E-05-1.24469E-13
 -1      4335 1.31472E-02 4.97697E-06-1.24151E-13
 -1      4336 1.32160E-02-1.28640E-05-1.25690E-13
 -1      4337 1.32183E-02 2.45532E-05-1.25818E-13
 -1      4338 2.75337E-03 1.82123E-05-8.72022E-15
 -1      4339 2.89872E-03 1.83350E-05-9.56535E-15
 -1      4340 2.46247E-03 1.78540E-05-7.14287E-15
 -1      4341 2.60793E-03 1.80667E-05-7.91266E-15
 -1      4342 2.31704E-03 1.76069E-05-6.41062E-15
 -1      4343 1.33189E-02-4.05180E-05-1.28128E-13
 -1      4344 1.33190E-02-1.36630E-05-1.27948E-13
 -1      4345 7.41108E-03-1.38885E-05-5.75783E-14
 -1      4346 2.97186E-03 5.58605E-05-9.95383E-15
 -1      4347 4.14726E-03 6.75774E-05-1.83089E-14
 -1      4348 4.17596E-03 5.35310E-06-1.86683E-14
 -1      4349 4.31869E-03 5.35943E-06-1.98712E-14
 -1      4350 4.21953E-03 1.03736E-04-1.88210E-14
 -1      4351 4.69499E-03 5.28983E-05-2.31212E-14
 -1      4352 4.36219E-03 1.02885E-04-2.00276E-14
 -1      4353 4.39015E-03 4.13425E-05-2.04160E-14
 -1      4354 1.33808E-02-6.03788E-05-1.29676E-13
 -1      4355 4.62507E-03 8.86142E-05-2.23870E-14
 -1      4356 4.48316E-03 8.95002E-05-2.11144E-14
 -1      4357 3.69524E-03 5.56694E-05-1.48121E-14
 -1      4358 3.55106E-03 5.58549E-05-1.37675E-14
 -1      4359 3.10418E-03 1.25486E-04-1.06487E-14
 -1      4360 3.03035E-03 8.78694E-05-1.02603E-14
 -1      4361 3.13195E-03 6.15530E-05-1.09379E-14
 -1      4362 3.24900E-03 1.25534E-04-1.15747E-14
 -1      4363 1.32571E-02-1.21016E-05-1.26597E-13
 -1      4364 3.32014E-03 8.79718E-05-1.21181E-14
 -1      4365 1.32606E-02 6.47485E-06-1.26661E-13
 -1      4366 3.83913E-03 5.54212E-05-1.58927E-14
 -1      4367 3.40660E-03 5.59698E-05-1.27590E-14
 -1      4368 3.27684E-03 6.15841E-05-1.18764E-14
 -3
    1PSTEP                         2           1           1          
  100CL  101 1.000000000        4368                     0    1           1
 -4  STRESS      6    1
 -5  SXX         1    4    1    1
 -5  SYY         1    4    2    2
 -5  SZZ         1    4    3    3
 -5  SXY         1    4    1    2
 -5  SYZ         1    4    2    3
 -5  SZX         1    4    3    1
 -1         1 9.90007E+00 8.69996E+00-1.74255E-01 9.30679E+00-2.42312E-12-2.24604E-12
 -1         2-7.35078E-01-2.45023E+01-3.37056E+00-2.87237E-02 2.55424E-13 5.72944E-14
 -1         3 1.99864E+01-1.43828E-02 3.32562E-02-1.43019E-02-4.50767E-13-4.42546E-13
 -1         4 1.99872E+01-1.31030E-02 3.50450E-02 1.32962E-02 9.71343E-14 9.46951E-14
 -1         5 3.27611E+01 6.14131E+00 2.74230E+00 6.22378E+00-5.44009E-14 4.10741E-12
 -1         6 3.57454E+01 1.22612E+01 5.12518E+00-8.64595E+00-2.52021E-13 3.56726E-12
 -1         7 2.08125E+01 6.09797E+00-1.28922E-01-4.72636E+00-3.34316E-14 4.42913E-13
 -1         8 1.96676E+01 5.93375E+00 5.08510E-02-3.27663E+00-4.31599E-14-4.65979E-13
 -1         9 1.91355E+01 5.77138E+00 4.91534E-02-2.52881E+00-3.31783E-14-9.36369E-13
 -1        10 1.88951E+01 5.69214E+00 5.10031E-02-1.95348E+00-2.16858E-14-1.14782E-12
 -1        11 1.87758E+01 5.65187E+00 5.03798E-02-1.45823E+00-1.35365E-14-1.22064E-12
 -1        12 1.87140E+01 5.63075E+00 4.89526E-02-1.01675E+00-3.00563E-15-1.23371E-12
 -1        13 1.86815E+01 5.61961E+00 4.75556E-02-5.96328E-01-2.71051E-16-1.21453E-12
 -1        14 1.86679E+01 5.61494E+00 4.68312E-02-1.91526E-01 7.94449E-15-1.19517E-12
 -1        15 1.86684E+01 5.61509E+00 4.68727E-02 2.08555E-01 1.23791E-14-1.15219E-12
 -1        16 1.86830E+01 5.62009E+00 4.76861E-02 6.14188E-01 1.71751E-14-1.11519E-12
 -1        17 1.87167E+01 5.63146E+00 4.91858E-02 1.03654E+00 2.47016E-14-1.04695E-12
 -1        18 1.87799E+01 5.65303E+00 5.09099E-02 1.48109E+00 3.00059E-14-9.34344E-13
 -1        19 1.89011E+01 5.69381E+00 5.15773E-02 1.98249E+00 4.11095E-14-7.46406E-13
 -1        20 1.91404E+01 5.77387E+00 4.87658E-02 2.56609E+00 4.90736E-14-4.04899E-13
 -1        21 1.96631E+01 5.94833E+00 4.58111E-02 3.31067E+00 5.54973E-14 2.23574E-13
 -1        22 2.11955E+01 6.37978E+00 1.39499E-01 4.52395E+00 6.77236E-15 1.45939E-12
 -1        23 2.30214E+01-1.37876E+00-9.38091E-01-7.11508E-01-1.73611E-13 2.69555E-12
 -1        24 1.93568E+01-9.94762E-02-3.09826E-01 6.31143E-02-3.88344E-14 1.92539E-12
 -1        25 1.86664E+01-5.63248E-02-6.88080E-02 6.06419E-02-2.17695E-14 1.16767E-12
 -1        26 1.84621E+01-2.20939E-02-6.47877E-03 3.29037E-02-2.04078E-14 6.39076E-13
 -1        27 1.84715E+01-1.18130E-02 1.61533E-03 2.25004E-02-1.58081E-14 2.88956E-13
 -1        28 1.85836E+01-6.27069E-03 1.80158E-03 1.61586E-02-8.94857E-15 5.37426E-14
 -1        29 1.87415E+01-3.14831E-03 1.71564E-03 1.19738E-02 2.18041E-15-5.77680E-14
 -1        30 1.89144E+01-1.34128E-03 1.86066E-03 8.98008E-03-6.21682E-15-2.17988E-13
 -1        31 1.90851E+01-3.13626E-04 1.96513E-03 6.71808E-03-8.40655E-15-4.96738E-13
 -1        32 1.92447E+01 2.18370E-04 1.91213E-03 4.95972E-03-4.31407E-16-7.21358E-13
 -1        33 1.93896E+01 4.16848E-04 1.69981E-03 3.58118E-03 3.12322E-14-7.92934E-13
 -1        34 1.95198E+01 3.79171E-04 1.35517E-03 2.50910E-03-2.29153E-14-8.20100E-13
 -1        35 1.96380E+01 1.65042E-04 9.00384E-04 1.69855E-03 2.45233E-14-8.19658E-13
 -1        36 1.97488E+01-1.89353E-04 3.45574E-04 1.12443E-03 7.30564E-16-7.66251E-13
 -1        37 1.98585E+01-6.62820E-04-3.10512E-04 7.78843E-04-1.37108E-14-8.13143E-13
 -1        38 1.99751E+01-1.24277E-03-1.07773E-03 6.71471E-04-8.30599E-15-8.71178E-13
 -1        39 2.01078E+01-1.91902E-03-1.97052E-03 8.31631E-04-5.14605E-14-8.98552E-13
 -1        40 2.02677E+01-2.67623E-03-3.00158E-03 1.31106E-03 9.73779E-15-1.06142E-12
 -1        41 2.04671E+01-3.48331E-03-4.17083E-03 2.18634E-03 4.41664E-14-1.29955E-12
 -1        42 2.07196E+01-4.27789E-03-5.44577E-03 3.55859E-03-8.78984E-15-1.22237E-12
 -1        43 2.10395E+01-4.94355E-03-6.72613E-03 5.54534E-03-5.24732E-14-1.03379E-12
 -1        44 2.14400E+01-5.27843E-03-7.78313E-03 8.25390E-03 3.44346E-14-9.49099E-13
 -1        45 2.19300E+01-4.95786E-03-8.16318E-03 1.17161E-02-6.16282E-14-9.98381E-13
 -1        46 2.25094E+01-3.50480E-03-7.05799E-03 1.57503E-02 1.55886E-14-1.24632E-12
 -1        47 2.31596E+01-3.06899E-04-3.19006E-03 1.97052E-02-1.57195E-14-1.24093E-12
 -1        48 2.38311E+01 5.23687E-03 5.12088E-03 2.20587E-02 1.70706E-14-1.00672E-12
 -1        49 2.44282E+01 1.33132E-02 1.93545E-02 1.99597E-02-2.70103E-14-9.83151E-13
 -1        50 2.47982E+01 2.29403E-02 3.91304E-02 9.14370E-03-2.43102E-14-1.40329E-12
 -1        51 2.47404E+01 3.10214E-02 5.94051E-02-1.47830E-02 7.11768E-14-1.10064E-12
 -1        52 2.40598E+01 3.21776E-02 6.83794E-02-5.24260E-02-9.02965E-14-9.27054E-13
 -1        53 2.26856E+01 2.07200E-02 4.98624E-02-9.42851E-02 1.06141E-14-9.42919E-13
 -1        54 2.08226E+01-4.25959E-03-3.62336E-03-1.17675E-01 2.04809E-14-5.95898E-13
 -1        55 1.90154E+01-3.41566E-02-7.45678E-02-9.73191E-02 2.82391E-15-3.34160E-13
 -1        56 1.79697E+01-5.31273E-02-1.21836E-01-2.97274E-02-4.72929E-15-3.79950E-13
 -1        57 1.81518E+01-4.93636E-02-1.12452E-01 5.38295E-02 5.11158E-14-5.53550E-13
 -1        58 1.94686E+01-2.52338E-02-5.31068E-02 1.08751E-01 1.30829E-14-8.04173E-13
 -1        59 2.13336E+01 4.78442E-03 1.62356E-02 1.13844E-01-3.93427E-14-9.38291E-13
 -1        60 2.30527E+01 2.62118E-02 5.96937E-02 8.17608E-02-2.34569E-14-8.36269E-13
 -1        61 2.41767E+01 3.35511E-02 6.86640E-02 3.90660E-02 8.79869E-14-5.52483E-13
 -1        62 2.45956E+01 2.97206E-02 5.48954E-02 4.75165E-03-8.37561E-14-7.34793E-13
 -1        63 2.44318E+01 2.06992E-02 3.39597E-02-1.53796E-02-2.26479E-15-9.18848E-13
 -1        64 2.38907E+01 1.12387E-02 1.56664E-02-2.36875E-02-5.64031E-14-8.78732E-13
 -1        65 2.31619E+01 3.63659E-03 3.19791E-03-2.48146E-02-1.03360E-13-8.41803E-13
 -1        66 2.23833E+01-1.66956E-03-4.08359E-03-2.25913E-02 1.40597E-13-8.01309E-13
 -1        67 2.16420E+01-5.17478E-03-8.20579E-03-1.92541E-02 8.91303E-14-2.72312E-13
 -1        68 2.09908E+01-7.62301E-03-1.13573E-02-1.55712E-02-1.06574E-14 6.35481E-14
 -1        69 2.04673E+01-9.48649E-03-1.50973E-02-1.09302E-02 4.39843E-14-2.83432E-13
 -1        70 2.01115E+01-9.20233E-03-1.73252E-02-2.00766E-03-7.14211E-14 1.06800E-13
 -1        71 1.99705E+01 1.89158E-03-3.27295E-03 1.06092E-02 3.73326E-14 3.99183E-13
 -1        72 2.10341E+01-4.04794E-01-9.80239E-01-3.11346E-01 4.53873E-14 3.80068E-12
 -1        73 1.93212E+01-6.58797E-02-2.91134E-01-5.37649E-02 3.29606E-14 2.97284E-12
 -1        74 1.86759E+01-2.05069E-02-6.42697E-02-2.02908E-02 2.16289E-14 2.32199E-12
 -1        75 1.84712E+01-9.88482E-03-9.29635E-03-1.53762E-02 1.17441E-14 1.86788E-12
 -1        76 1.84804E+01-5.18172E-03 6.95524E-04-1.22811E-02-4.73834E-15 1.55893E-12
 -1        77 1.85917E+01-2.64815E-03 1.74933E-03-9.97164E-03 2.61981E-15 1.31920E-12
 -1        78 1.87486E+01-1.20483E-03 1.86088E-03-8.18044E-03 1.17946E-14 1.15215E-12
 -1        79 1.89204E+01-3.79773E-04 2.01308E-03-6.68372E-03 1.58826E-14 9.61235E-13
 -1        80 1.90901E+01 6.48329E-05 2.09099E-03-5.37415E-03-2.25490E-14 8.06060E-13
 -1        81 1.92488E+01 2.59944E-04 2.01044E-03-4.20866E-03 1.89139E-14 6.54915E-13
 -1        82 1.93928E+01 2.82339E-04 1.77265E-03-3.16860E-03 2.61821E-15 5.15518E-13
 -1        83 1.95223E+01 1.78418E-04 1.40367E-03-2.24381E-03 3.09918E-14 4.65103E-13
 -1        84 1.96398E+01-2.37410E-05 9.25015E-04-1.42771E-03 3.32201E-15 2.63159E-13
 -1        85 1.97500E+01-3.07578E-04 3.46627E-04-7.17211E-04-5.16062E-16 2.48753E-13
 -1        86 1.98593E+01-6.63464E-04-3.32397E-04-1.14895E-04-4.70139E-14 1.98403E-13
 -1        87 1.99754E+01-1.08465E-03-1.12092E-03 3.67179E-04 2.37589E-14 3.22799E-13
 -1        88 2.01076E+01-1.56260E-03-2.03129E-03 7.01980E-04-5.16836E-14 3.42734E-13
 -1        89 2.02668E+01-2.08077E-03-3.07215E-03 8.40186E-04 2.55345E-14 3.37178E-13
 -1        90 2.04652E+01-2.60552E-03-4.23632E-03 7.00930E-04-9.00438E-15 8.60738E-14
 -1        91 2.07161E+01-3.07274E-03-5.47984E-03 1.60813E-04 3.25798E-14 5.42253E-14
 -1        92 2.10330E+01-3.36905E-03-6.68521E-03-9.56652E-04-7.91180E-15 1.38061E-13
 -1        93 2.14285E+01-3.30796E-03-7.60013E-03-2.88381E-03-5.00904E-14 3.58436E-13
 -1        94 2.19102E+01-2.60715E-03-7.74403E-03-5.88592E-03 5.24156E-14-3.11448E-14
 -1        95 2.24761E+01-8.85405E-04-6.28955E-03-1.01752E-02 9.38816E-15-3.60770E-13
 -1        96 2.31056E+01 2.27771E-03-1.97566E-03-1.56958E-02-1.31541E-14-1.43455E-13
 -1        97 2.37469E+01 7.14260E-03 6.77669E-03-2.16953E-02 3.58079E-15-2.49344E-13
 -1        98 2.43036E+01 1.33817E-02 2.11923E-02-2.60489E-02-6.36984E-14-2.58881E-13
 -1        99 2.46249E+01 1.94300E-02 4.04495E-02-2.45890E-02-3.59803E-14-3.00028E-13
 -1       100 2.45178E+01 2.20371E-02 5.90220E-02-1.13981E-02 3.39520E-14-1.46472E-13
 -1       101 2.38024E+01 1.70807E-02 6.49602E-02 1.81304E-02-2.52675E-14-3.02959E-13
 -1       102 2.24276E+01 2.58282E-03 4.37125E-02 6.05673E-02 2.00973E-14-4.26822E-13
 -1       103 2.06093E+01-1.74109E-02-9.59664E-03 9.84381E-02-4.18811E-15-2.84238E-13
 -1       104 1.88787E+01-3.28158E-02-7.62167E-02 1.04830E-01 1.67726E-15 1.88630E-13
 -1       105 1.79036E+01-3.45397E-02-1.18184E-01 6.45273E-02 4.61822E-14 2.05057E-13
 -1       106 1.81128E+01-2.21098E-02-1.06221E-01-6.48676E-03-6.50313E-14 3.38786E-13
 -1       107 1.94034E+01-3.50458E-03-4.89284E-02-6.95125E-02-3.25829E-14 2.95746E-13
 -1       108 2.12128E+01 1.21084E-02 1.65599E-02-9.56440E-02 1.07761E-13-2.49394E-13
 -1       109 2.28821E+01 1.98814E-02 5.76750E-02-8.44577E-02 3.21930E-14-2.98421E-13
 -1       110 2.39839E+01 2.00988E-02 6.66099E-02-5.43441E-02-3.91564E-14-3.92124E-13
 -1       111 2.44099E+01 1.57058E-02 5.39445E-02-2.35276E-02 5.48306E-14-1.25314E-13
 -1       112 2.42722E+01 9.86285E-03 3.40318E-02-1.08551E-03-9.02988E-14 2.01610E-13
 -1       113 2.37641E+01 4.56636E-03 1.61960E-02 1.17718E-02 5.00440E-14 1.65005E-13
 -1       114 2.30673E+01 5.66283E-04 3.74416E-03 1.74743E-02-7.83034E-14-4.59631E-13
 -1       115 2.23155E+01-2.18918E-03-3.71894E-03 1.89929E-02 3.16324E-14-5.14088E-13
 -1       116 2.15950E+01-4.10274E-03-8.07080E-03 1.85519E-02 5.28573E-14-4.08142E-13
 -1       117 2.09593E+01-5.61282E-03-1.15180E-02 1.73662E-02-1.45706E-14-8.58279E-13
 -1       118 2.04474E+01-6.84039E-03-1.55650E-02 1.53927E-02-2.70738E-14-4.94233E-13
 -1       119 2.01017E+01-6.60607E-03-1.79132E-02 9.76848E-03 4.59973E-16-8.36077E-13
 -1       120 1.99739E+01 6.59007E-03-1.19621E-03-6.03136E-03 2.35528E-13-1.20834E-12
 -1       121 1.99994E+01-1.68337E-02-2.13315E-03-1.11896E-02-1.35676E-12-1.29548E-13
 -1       122 1.99916E+01 1.16497E-01-1.66418E-02 4.76999E-03-8.75058E-13-6.09585E-14
 -1       123 1.99943E+01 4.51230E-01-1.11139E-02 1.34926E-02-5.04129E-13 1.32850E-14
 -1       124 1.99983E+01 8.95684E-01-3.17358E-03 1.66182E-02-8.22694E-13-8.29050E-15
 -1       125 2.00025E+01 1.36765E+00 3.77386E-03 1.61789E-02-7.22536E-13 5.09952E-14
 -1       126 2.00063E+01 1.78895E+00 9.29064E-03 1.35277E-02-2.60732E-13 2.43936E-13
 -1       127 2.00089E+01 2.11316E+00 1.31969E-02 8.94579E-03 4.64685E-14-1.43036E-14
 -1       128 2.00104E+01 2.28842E+00 1.53098E-02 3.18610E-03-2.26070E-13 1.57480E-13
 -1       129 2.00104E+01 2.29068E+00 1.53827E-02-3.00800E-03-7.04606E-13 5.89785E-14
 -1       130 2.00091E+01 2.11918E+00 1.33956E-02-8.82757E-03-1.71359E-13 1.85253E-14
 -1       131 2.00063E+01 1.79679E+00 9.47395E-03-1.36579E-02-5.70072E-13-1.49063E-13
 -1       132 2.00027E+01 1.37480E+00 4.03457E-03-1.63476E-02-2.07879E-13 2.42083E-13
 -1       133 1.99985E+01 8.99614E-01-3.05005E-03-1.68200E-02 6.53203E-13-1.13354E-13
 -1       134 1.99932E+01 4.50011E-01-1.19746E-02-1.48985E-02 5.97894E-13 4.11530E-14
 -1       135 1.99929E+01 1.19842E-01-1.47842E-02-7.02068E-03 1.17608E-13-9.65369E-14
 -1       136 1.99927E+01-1.22822E-02-1.52010E-03 2.09667E-02-5.29875E-13-4.19962E-14
 -1       137-1.41121E+00-1.98109E+01-3.08187E+00-3.79908E+00 9.38222E-13 2.60989E-13
 -1       138-1.56079E+00-8.69022E+00-2.30420E+00-3.05874E+00 1.12782E-12 4.55164E-13
 -1       139 2.88999E+00 3.38022E+00-1.08710E+00 3.43535E+00 4.16223E-13 3.69649E-13
 -1       140 1.64285E+01 1.06341E+01 4.46391E-01 1.31391E+01-2.29261E-14-5.29021E-14
 -1       141 3.70969E+01 9.59039E+00 1.98606E+00 1.82821E+01 1.02474E-13 3.22020E-13
 -1       142 5.78823E+01 3.97300E+00 3.17435E+00 1.34951E+01 2.42306E-14-6.79456E-14
 -1       143 6.61257E+01 8.79733E-01 3.58799E+00 1.27069E+00-9.73596E-14-7.82974E-13
 -1       144 6.02483E+01 2.98379E+00 3.28680E+00-1.14084E+01 3.57402E-13-1.50149E-12
 -1       145 4.35537E+01 8.16100E+00 2.35813E+00-1.80545E+01 1.01091E-12-2.42256E-12
 -1       146 2.23267E+01 1.09783E+01 9.40164E-01-1.54181E+01 1.87000E-12-2.38015E-12
 -1       147 6.98565E+00 7.00105E+00-5.41890E-01-7.15976E+00 2.33968E-12-2.22644E-12
 -1       148-5.49594E-01-3.43387E+00-1.83510E+00 1.02896E+00 2.37638E-12-1.33327E-12
 -1       149-1.70257E+00-1.54865E+01-2.78868E+00 4.16829E+00 7.04103E-13-3.86233E-13
 -1       150-8.69747E-01-2.34292E+01-3.29037E+00 1.93414E+00-1.09655E-12 4.97328E-14
 -1       151-1.01538E+00-2.28000E+01-3.25487E+00-2.49783E+00-1.47576E-12-1.14318E-13
 -1       152-1.85344E+00-1.34960E+01-2.64169E+00-3.96504E+00-1.92407E-12-8.00846E-13
 -1       153 8.77845E-01-2.61466E-01-1.49896E+00 9.71487E-01-2.70989E-12-1.82065E-12
 -1       154 2.53964E+01 1.10019E+01 1.16766E+00 1.64191E+01-2.07778E-12-3.28926E-12
 -1       155 4.36757E+01 8.05010E+00 2.35666E+00 1.80361E+01-1.59034E-12-3.50259E-12
 -1       156 5.93798E+01 3.29948E+00 3.22873E+00 1.23009E+01-7.31991E-13-2.99732E-12
 -1       157 6.62148E+01 8.02941E-01 3.58018E+00 1.28694E+00 5.73465E-14-2.26437E-12
 -1       158 6.15829E+01 2.61700E+00 3.35661E+00-1.04434E+01 2.61458E-13-1.47718E-12
 -1       159 4.66929E+01 7.32070E+00 2.55483E+00-1.75191E+01-2.35006E-13 2.25930E-13
 -1       160 2.67850E+01 1.09727E+01 1.26624E+00-1.68448E+01-7.34246E-13 1.02196E-12
 -1       161 1.04454E+01 8.88736E+00-1.27208E-01-9.65873E+00-9.27647E-13 9.69502E-13
 -1       162 1.24201E+00 8.55197E-01-1.40534E+00-1.47853E+00-6.77014E-13 4.88609E-13
 -1       163-1.73391E+00-1.06453E+01-2.45126E+00 3.63204E+00-7.31026E-13 3.02730E-13
 -1       164-1.29168E+00-2.04736E+01-3.12170E+00 3.61719E+00-3.38868E-13 6.31474E-14
 -1       165 2.10074E+01 3.69370E+00-5.73579E-02-3.61184E+00-5.52423E-13-2.39843E-14
 -1       166 1.99875E+01 4.20739E+00-4.57286E-02-2.81131E+00-4.91401E-13-5.81538E-13
 -1       167 1.95080E+01 4.47680E+00-3.15847E-02-2.19630E+00-3.85491E-13-8.54474E-13
 -1       168 1.92688E+01 4.61506E+00-2.37293E-02-1.67744E+00-2.65135E-13-9.92499E-13
 -1       169 1.91407E+01 4.69692E+00-1.94799E-02-1.22066E+00-1.63635E-13-1.02848E-12
 -1       170 1.90683E+01 4.74825E+00-1.74134E-02-7.93128E-01-6.75779E-14-1.03151E-12
 -1       171 1.90319E+01 4.77628E+00-1.64227E-02-3.87440E-01 2.43069E-14-1.00218E-12
 -1       172 1.90213E+01 4.78485E+00-1.61357E-02 8.27602E-03 1.05717E-13-9.70316E-13
 -1       173 1.90336E+01 4.77498E+00-1.64690E-02 4.04342E-01 1.95244E-13-9.46118E-13
 -1       174 1.90719E+01 4.74529E+00-1.75218E-02 8.11131E-01 2.71164E-13-8.96325E-13
 -1       175 1.91450E+01 4.69265E+00-1.96879E-02 1.23308E+00 3.52363E-13-8.12807E-13
 -1       176 1.92785E+01 4.60526E+00-2.40053E-02 1.70012E+00 4.52817E-13-6.70158E-13
 -1       177 1.95230E+01 4.45926E+00-3.28484E-02 2.22864E+00 5.38791E-13-4.44223E-13
 -1       178 2.00099E+01 4.18344E+00-4.72143E-02 2.84879E+00 5.91091E-13-3.07254E-14
 -1       179 2.11291E+01 3.46338E+00-5.97938E-02 3.53832E+00 5.35441E-13 7.28431E-13
 -1       180 2.24118E+01 1.14352E+00-3.36444E-01 3.01598E+00 3.85240E-13 1.71135E-12
 -1       181 2.19640E+01 8.58292E-01 6.53227E-04-1.96030E+00-4.95878E-13 6.89476E-13
 -1       182 2.04386E+01 1.90169E-01-9.99850E-03-7.65626E-01-4.37025E-13 4.49026E-13
 -1       183 1.96619E+01 1.01740E-01 1.35574E-02-2.87098E-01-3.18657E-13 2.53596E-13
 -1       184 1.93212E+01 4.71510E-02 1.00145E-02-6.93277E-02-2.39796E-13 5.78127E-14
 -1       185 1.91906E+01 2.25711E-02 5.17086E-03 3.79725E-02-1.54146E-13-6.52091E-14
 -1       186 1.91765E+01 9.65269E-03 2.45074E-03 9.08609E-02-8.66006E-14-1.11432E-13
 -1       187 1.92253E+01 2.41715E-03 1.16001E-03 1.13897E-01-9.60340E-14-1.89224E-13
 -1       188 1.93057E+01-1.58966E-03 5.43443E-04 1.20008E-01-1.40341E-13-2.36297E-13
 -1       189 1.93999E+01-3.56691E-03 2.31667E-04 1.16832E-01-1.53278E-13-2.93204E-13
 -1       190 1.94976E+01-4.18413E-03 7.61927E-05 1.09275E-01-6.41694E-14-3.94856E-13
 -1       191 1.95938E+01-3.84437E-03 1.57493E-05 1.00673E-01-2.11396E-14-4.99108E-13
 -1       192 1.96869E+01-2.79439E-03 2.07484E-05 9.34177E-02-2.97494E-14-4.56433E-13
 -1       193 1.97782E+01-1.17941E-03 7.43920E-05 8.93200E-02-2.67493E-15-4.77899E-13
 -1       194 1.98705E+01 9.25066E-04 1.66130E-04 8.98559E-02-1.93409E-14-4.70628E-13
 -1       195 1.99684E+01 3.49047E-03 2.88663E-04 9.63262E-02-6.91808E-14-4.74432E-13
 -1       196 2.00780E+01 6.51403E-03 4.35724E-04 1.09954E-01-2.41053E-14-4.59460E-13
 -1       197 2.02063E+01 9.99346E-03 5.99744E-04 1.31921E-01-4.92637E-14-5.02005E-13
 -1       198 2.03614E+01 1.38906E-02 7.68875E-04 1.63313E-01-9.00339E-14-5.05363E-13
 -1       199 2.05522E+01 1.80748E-02 9.23022E-04 2.04959E-01-7.65509E-14-6.10300E-13
 -1       200 2.07878E+01 2.22309E-02 1.02877E-03 2.57067E-01 2.86935E-14-7.77663E-13
 -1       201 2.10765E+01 2.57156E-02 1.03394E-03 3.18579E-01 7.97637E-14-7.17767E-13
 -1       202 2.14240E+01 2.73416E-02 8.64604E-04 3.86098E-01-7.08735E-14-7.15242E-13
 -1       203 2.18311E+01 2.50955E-02 4.30845E-04 4.52226E-01-6.64895E-14-5.91139E-13
 -1       204 2.22891E+01 1.58670E-02-3.47367E-04 5.03303E-01 4.43890E-14-4.91771E-13
 -1       205 2.27744E+01-4.54309E-03-1.48115E-03 5.16910E-01 4.48662E-14-4.62141E-13
 -1       206 2.32426E+01-4.04906E-02-2.81952E-03 4.60608E-01-1.13382E-14-4.17224E-13
 -1       207 2.36225E+01-9.34960E-02-3.95136E-03 2.95355E-01-1.02157E-13-4.18170E-13
 -1       208 2.38182E+01-1.56117E-01-4.23877E-03-1.04224E-02 1.23849E-13-3.98654E-13
 -1       209 2.37241E+01-2.04066E-01-3.18051E-03-4.50346E-01 1.09084E-13-4.13480E-13
 -1       210 2.32663E+01-1.94214E-01-7.58897E-04-9.37884E-01 5.80395E-15-4.06340E-13
 -1       211 2.24682E+01-8.43538E-02 1.53027E-03-1.28333E+00 1.46761E-13-1.98741E-13
 -1       212 2.15170E+01 1.17808E-01 2.09600E-03-1.25119E+00 5.54099E-14-2.68522E-13
 -1       213 2.07532E+01 3.17393E-01 1.01192E-03-7.26931E-01 5.32274E-14-3.17298E-13
 -1       214 2.05152E+01 3.82549E-01 4.79495E-04 1.24483E-01 1.85234E-14-8.59527E-14
 -1       215 2.09140E+01 2.64596E-01 1.36142E-03 9.10429E-01-1.04776E-13-2.21026E-13
 -1       216 2.17485E+01 4.92952E-02 1.94847E-03 1.28544E+00-1.19401E-13-2.45023E-13
 -1       217 2.26539E+01-1.31326E-01 6.09878E-04 1.17709E+00-2.55527E-14-2.78402E-13
 -1       218 2.33258E+01-2.09048E-01-1.79678E-03 7.57440E-01 1.22477E-13-1.57563E-13
 -1       219 2.36291E+01-1.96836E-01-3.78040E-03 2.61000E-01-1.20928E-13-3.58901E-13
 -1       220 2.35768E+01-1.41030E-01-4.41982E-03-1.52066E-01-8.49854E-14-3.79547E-13
 -1       221 2.32581E+01-7.97550E-02-3.75742E-03-4.23004E-01-1.80563E-14-5.16574E-13
 -1       222 2.27791E+01-3.12864E-02-2.42028E-03-5.60125E-01 1.09629E-13-3.49008E-13
 -1       223 2.22313E+01 9.41046E-04-9.74329E-04-5.97759E-01 1.26750E-13 7.96594E-14
 -1       224 2.16814E+01 2.04559E-02 2.53237E-04-5.70585E-01 2.52193E-13-8.17928E-14
 -1       225 2.11747E+01 3.27271E-02 1.11092E-03-5.03030E-01 1.22900E-13-2.16580E-13
 -1       226 2.07405E+01 4.29792E-02 1.47982E-03-4.07253E-01-1.29528E-13-2.56054E-13
 -1       227 2.03990E+01 5.52849E-02 1.55698E-03-2.85782E-01 1.99417E-13-1.95726E-13
 -1       228 2.01541E+01 6.83938E-02 1.15704E-03-1.40578E-01 2.82678E-13 7.04172E-14
 -1       229 2.09550E+01 2.77052E-01-5.13426E-02 1.16607E+00 4.06338E-13 1.45828E-12
 -1       230 1.98590E+01 1.26831E-01 8.30814E-03 4.44381E-01 3.21152E-13 1.15919E-12
 -1       231 1.93514E+01 5.80424E-02 1.27390E-02 1.51372E-01 2.54981E-13 9.09104E-13
 -1       232 1.91406E+01 2.77166E-02 7.63676E-03 1.20962E-02 1.57473E-13 7.04977E-13
 -1       233 1.90898E+01 1.31097E-02 3.83642E-03-5.71495E-02 1.31260E-13 5.32812E-13
 -1       234 1.91250E+01 5.24389E-03 1.92687E-03-8.99031E-02 8.11901E-14 4.39721E-13
 -1       235 1.92043E+01 8.29527E-04 1.03451E-03-1.02340E-01 1.17026E-13 3.56544E-13
 -1       236 1.93037E+01-1.56933E-03 5.87611E-04-1.03343E-01 7.96726E-14 2.26889E-13
 -1       237 1.94092E+01-2.67900E-03 3.41777E-04-9.83361E-02 9.93218E-14 9.89025E-14
 -1       238 1.95136E+01-2.91251E-03 2.03435E-04-9.08732E-02 3.87833E-14 1.22790E-13
 -1       239 1.96139E+01-2.51956E-03 1.33203E-04-8.34178E-02 6.73317E-14 1.29019E-13
 -1       240 1.97101E+01-1.65206E-03 1.10449E-04-7.77674E-02 6.61134E-14 1.24474E-13
 -1       241 1.98044E+01-3.97523E-04 1.22085E-04-7.53184E-02 2.28935E-14 6.21296E-14
 -1       242 1.99010E+01 1.20057E-03 1.58642E-04-7.72396E-02-3.01933E-14 1.28836E-13
 -1       243 2.00052E+01 3.12715E-03 2.12189E-04-8.45859E-02 1.18410E-14 8.21803E-14
 -1       244 2.01241E+01 5.37967E-03 2.74629E-04-9.83592E-02-4.09097E-14-9.55347E-15
 -1       245 2.02654E+01 7.94724E-03 3.35947E-04-1.19510E-01 7.88341E-14 2.09231E-14
 -1       246 2.04382E+01 1.07799E-02 3.82200E-04-1.48856E-01 4.30765E-14-3.94441E-14
 -1       247 2.06517E+01 1.37407E-02 3.93405E-04-1.86882E-01-1.50936E-14 3.08713E-14
 -1       248 2.09152E+01 1.65293E-02 3.42210E-04-2.33348E-01-8.73068E-14 1.19232E-13
 -1       249 2.12363E+01 1.85633E-02 1.95683E-04-2.86615E-01-7.41014E-14 1.21887E-13
 -1       250 2.16188E+01 1.88113E-02-7.51253E-05-3.42563E-01 2.27855E-13 5.20757E-14
 -1       251 2.20590E+01 1.55924E-02-4.70854E-04-3.93012E-01 8.04656E-14-1.12962E-13
 -1       252 2.25402E+01 6.43949E-03-9.18814E-04-4.23725E-01-4.46353E-14-1.64392E-13
 -1       253 2.30268E+01-1.17077E-02-1.21533E-03-4.12624E-01 6.39441E-15 6.95763E-14
 -1       254 2.34568E+01-4.14158E-02-1.00350E-03-3.29970E-01-1.35742E-16 9.59953E-14
 -1       255 2.37395E+01-8.19241E-02 1.09671E-04-1.44207E-01 7.94685E-14 4.66737E-14
 -1       256 2.37642E+01-1.24163E-01 2.14063E-03 1.61290E-01-4.35741E-14-1.92511E-14
 -1       257 2.34303E+01-1.45876E-01 4.17226E-03 5.57769E-01 5.25452E-14 5.44473E-14
 -1       258 2.27068E+01-1.15276E-01 4.13571E-03 9.38432E-01 4.48053E-14 7.82707E-15
 -1       259 2.17056E+01-1.28994E-02 1.80407E-04 1.12175E+00-1.15597E-13 5.58486E-14
 -1       260 2.07138E+01 1.34876E-01-6.47896E-03 9.35273E-01-1.63191E-13 1.10486E-13
 -1       261 2.01113E+01 2.48022E-01-1.10662E-02 3.64412E-01 7.24186E-14 2.98462E-13
 -1       262 2.01654E+01 2.49085E-01-8.83601E-03-3.68778E-01-1.15370E-13 2.99131E-13
 -1       263 2.08461E+01 1.37772E-01-1.47194E-03-9.27169E-01 1.10500E-13 4.00921E-14
 -1       264 2.18456E+01-8.91844E-03 4.95327E-03-1.09670E+00 2.77833E-13-4.27731E-14
 -1       265 2.27836E+01-1.12076E-01 6.44275E-03-8.99924E-01 2.19486E-14-4.50777E-14
 -1       266 2.34006E+01-1.44803E-01 4.04787E-03-5.11546E-01 2.34535E-14-1.04930E-13
 -1       267 2.36165E+01-1.25826E-01 7.57571E-04-1.10743E-01-9.90276E-14 1.12631E-13
 -1       268 2.34810E+01-8.56562E-02-1.42566E-03 1.98912E-01-1.73023E-13 1.37341E-13
 -1       269 2.31003E+01-4.59772E-02-2.12009E-03 3.89773E-01 3.52583E-14 2.30077E-13
 -1       270 2.25839E+01-1.58884E-02-1.78714E-03 4.77742E-01 5.54715E-14 2.79514E-13
 -1       271 2.20196E+01 3.84829E-03-1.00958E-03 4.92214E-01 1.66847E-13 6.63985E-14
 -1       272 2.14700E+01 1.60496E-02-2.49072E-04 4.59285E-01 8.26556E-14-1.00766E-13
 -1       273 2.09767E+01 2.44428E-02 1.24195E-04 3.95755E-01 2.55787E-14-3.07913E-15
 -1       274 2.05685E+01 3.25496E-02-1.56907E-04 3.08369E-01-3.38063E-14 4.96318E-14
 -1       275 2.02672E+01 4.36413E-02-1.72124E-05 1.96396E-01 2.72152E-13-1.76783E-13
 -1       276 2.00792E+01 4.58485E-02 1.67012E-03 6.74154E-02 2.29802E-14-4.52997E-13
 -1       277 2.00643E+01 1.58906E-01 1.28807E-03 1.43519E-01 1.19925E-14 3.15118E-13
 -1       278 2.00458E+01 3.82539E-01 5.62121E-04 2.68417E-01 5.40654E-14 4.73469E-14
 -1       279 2.00198E+01 6.76265E-01 2.63876E-04 3.45807E-01 3.03320E-14-3.52688E-14
 -1       280 1.99964E+01 1.00300E+00-1.69284E-04 3.64864E-01-7.76512E-14 1.38161E-13
 -1       281 1.99760E+01 1.31410E+00-8.56042E-04 3.30802E-01-7.59472E-14-8.59275E-14
 -1       282 1.99596E+01 1.57811E+00-1.45644E-03 2.50207E-01-2.59621E-13 8.53873E-14
 -1       283 1.99488E+01 1.75314E+00-1.87662E-03 1.35283E-01-4.89325E-14-4.06619E-15
 -1       284 1.99448E+01 1.81547E+00-2.02632E-03 1.78343E-03-7.66009E-14-2.73078E-13
 -1       285 1.99483E+01 1.75635E+00-1.88936E-03-1.32284E-01-2.37812E-13 1.53244E-13
 -1       286 1.99588E+01 1.58355E+00-1.47832E-03-2.48765E-01-2.10619E-13 2.22730E-14
 -1       287 1.99750E+01 1.32552E+00-8.42460E-04-3.30389E-01-7.80836E-14 2.47345E-13
 -1       288 1.99959E+01 1.00826E+00-1.94494E-04-3.67130E-01 5.72283E-14 3.69823E-13
 -1       289 2.00197E+01 6.79362E-01 3.07109E-04-3.48464E-01 1.65653E-14-1.09176E-13
 -1       290 2.00476E+01 3.85617E-01 1.28486E-03-2.68488E-01 7.44936E-14-2.09226E-13
 -1       291 2.01020E+01 2.12832E-01 1.56409E-03-2.31390E-01 1.22026E-13-5.69446E-13
 -1       292-7.57591E-01-1.03603E+01-9.01247E-01 1.20258E+00 1.35641E-13 2.23210E-13
 -1       293 2.76492E+00-8.38004E+00-7.53847E-01 3.54321E+00 1.12271E-13 1.23769E-13
 -1       294 9.04605E+00-5.06659E+00-5.24022E-01 5.44500E+00 2.16160E-13-2.11539E-13
 -1       295 1.93994E+01-1.60471E+00-9.34868E-02 7.03786E+00 1.16962E-13-9.20930E-14
 -1       296 2.98055E+01 2.69020E+00 3.56856E-01 7.54605E+00-2.42167E-14 1.33615E-13
 -1       297 3.93104E+01 5.16752E+00 6.74304E-01 5.06133E+00 1.68865E-13 6.46982E-14
 -1       298 4.60576E+01 6.43617E+00 1.02008E+00 2.40393E+00 2.89976E-13 4.62685E-14
 -1       299 4.48870E+01 6.93855E+00 8.77875E-01-1.29860E+00 5.35932E-13-4.74280E-13
 -1       300 4.17804E+01 5.61735E+00 8.36806E-01-5.04379E+00 7.37535E-13-7.93893E-13
 -1       301 3.30229E+01 3.08011E+00 4.19208E-01-6.37792E+00 7.35155E-13-9.66921E-13
 -1       302 2.23536E+01 4.71619E-01 4.71441E-02-7.48522E+00 8.54539E-13-9.28035E-13
 -1       303 1.33260E+01-3.75700E+00-3.11522E-01-6.39549E+00 6.06515E-13-8.59340E-13
 -1       304 4.84276E+00-7.16959E+00-7.07371E-01-4.14676E+00 3.10418E-13-1.07146E-12
 -1       305 3.09295E-01-9.66022E+00-8.60130E-01-2.16981E+00-1.24956E-13-9.05179E-13
 -1       306-1.21293E+00-1.04862E+01-9.12325E-01 1.33856E-01-5.17607E-13-3.01037E-13
 -1       307 1.00272E+00-8.95223E+00-7.44856E-01 2.75353E+00-8.69693E-13-5.75220E-13
 -1       308 7.57218E+00-6.33341E+00-4.56643E-01 5.44688E+00-8.49543E-13-9.30951E-13
 -1       309 1.49166E+01-2.36404E+00-2.64666E-01 6.58025E+00-1.25924E-12-1.10387E-12
 -1       310 2.44907E+01 1.17128E+00 1.46456E-01 7.56020E+00-1.16973E-12-1.91530E-12
 -1       311 3.38972E+01 3.79115E+00 5.34179E-01 7.11548E+00-1.10776E-12-2.10371E-12
 -1       312 4.16387E+01 5.56657E+00 8.51402E-01 5.18875E+00-1.08669E-12-2.10029E-12
 -1       313 4.61599E+01 6.50017E+00 1.03515E+00 2.06982E+00-5.90347E-13-1.95741E-12
 -1       314 4.65411E+01 6.58647E+00 1.03294E+00-1.38286E+00-3.33650E-13-1.56875E-12
 -1       315 4.16216E+01 5.87233E+00 7.41931E-01-3.89634E+00-5.17586E-13-1.21234E-12
 -1       316 3.49789E+01 4.08156E+00 5.76673E-01-7.06179E+00-2.04919E-13-7.21256E-13
 -1       317 2.53587E+01 9.29583E-01 1.48883E-01-7.32152E+00-1.95122E-14-2.19519E-13
 -1       318 1.55422E+01-2.13387E+00-2.36321E-01-6.75354E+00 8.06022E-14 7.70495E-14
 -1       319 7.58188E+00-5.86523E+00-5.99635E-01-5.02657E+00-1.67116E-13 4.57273E-15
 -1       320 2.04543E+00-8.92660E+00-8.24469E-01-3.05121E+00-2.00867E-13 2.36207E-13
 -1       321-8.61652E-01-1.02970E+01-8.99037E-01-1.10173E+00 2.83940E-14 4.25410E-13
 -1       322 2.01434E+01 3.01496E+00-1.79010E-02-2.11200E+00-5.15691E-13-5.08017E-13
 -1       323 2.07509E+01 2.20822E+00-1.78565E-02-2.36529E+00-5.88419E-13-2.15560E-13
 -1       324 1.95873E+01 3.69143E+00-1.50863E-02-1.31837E+00-2.73658E-13-7.85930E-13
 -1       325 1.94650E+01 3.84874E+00-1.35820E-02-9.24655E-01-1.50560E-13-8.08636E-13
 -1       326 1.93972E+01 3.93957E+00-1.26974E-02-5.44582E-01-2.83507E-14-7.88735E-13
 -1       327 1.93673E+01 3.98092E+00-1.22993E-02-1.73496E-01 8.48794E-14-7.60822E-13
 -1       328 1.93686E+01 3.97930E+00-1.23219E-02 1.94649E-01 1.90533E-13-7.47946E-13
 -1       329 1.94014E+01 3.93433E+00-1.27694E-02 5.66117E-01 2.95024E-13-7.11668E-13
 -1       330 1.94709E+01 3.84093E+00-1.37778E-02 9.40495E-01 3.89212E-13-6.50010E-13
 -1       331 1.95961E+01 3.67853E+00-1.56621E-02 1.33494E+00 5.00063E-13-5.26834E-13
 -1       332 1.98092E+01 3.40977E+00-1.88337E-02 1.74056E+00 5.86928E-13-3.91243E-13
 -1       333 2.01770E+01 2.95502E+00-2.29377E-02 2.12924E+00 6.55571E-13-1.34532E-13
 -1       334 2.07439E+01 2.12935E+00-3.04678E-02 2.32410E+00 6.28044E-13 3.39100E-13
 -1       335 2.10886E+01 1.18773E+00-2.49269E-02 1.92363E+00 5.48638E-13 7.78020E-13
 -1       336 2.03843E+01 4.89248E-01 8.33389E-03 9.29138E-01 4.65791E-13 6.09770E-13
 -1       337 2.04521E+01 6.75191E-01 1.23349E-02-1.02752E+00-4.57372E-13-1.08378E-13
 -1       338 2.00302E+01 3.36974E-01 7.17938E-03-4.59552E-01-3.73591E-13-1.42496E-13
 -1       339 1.97759E+01 1.76536E-01 4.13158E-03-1.50678E-01-2.63566E-13-1.75225E-13
 -1       340 1.96404E+01 9.09798E-02 1.89498E-03 2.09850E-02-1.55782E-13-2.37204E-13
 -1       341 1.95857E+01 4.24655E-02 8.00285E-04 1.13262E-01-1.17504E-13-2.55193E-13
 -1       342 1.95820E+01 1.43450E-02 2.96230E-04 1.58385E-01-1.62096E-13-2.85537E-13
 -1       343 1.96091E+01-1.43346E-03 5.48286E-05 1.75607E-01-1.44001E-13-2.60942E-13
 -1       344 1.96537E+01-9.20461E-03-5.89414E-05 1.77158E-01-1.54969E-13-2.16711E-13
 -1       345 1.97077E+01-1.15038E-02-9.83663E-05 1.71221E-01-1.29859E-13-2.96313E-13
 -1       346 1.97668E+01-9.88319E-03-8.76460E-05 1.63526E-01-4.32788E-14-3.45306E-13
 -1       347 1.98290E+01-5.29931E-03-3.97858E-05 1.58261E-01-4.39794E-14-3.77711E-13
 -1       348 1.98947E+01 1.67940E-03 3.75696E-05 1.58658E-01-2.00308E-14-3.18451E-13
 -1       349 1.99657E+01 1.07429E-02 1.39904E-04 1.67367E-01-8.06304E-14-3.77392E-13
 -1       350 2.00448E+01 2.17386E-02 2.64366E-04 1.86698E-01-6.69077E-14-4.34198E-13
 -1       351 2.01360E+01 3.45692E-02 4.08277E-04 2.18743E-01-5.16965E-14-4.27947E-13
 -1       352 2.02440E+01 4.90665E-02 5.67241E-04 2.65373E-01-1.15250E-13-3.87902E-13
 -1       353 2.03741E+01 6.48092E-02 7.32439E-04 3.28072E-01-1.51929E-13-4.34450E-13
 -1       354 2.05319E+01 8.08475E-02 8.86670E-04 4.07535E-01-1.36215E-13-4.77610E-13
 -1       355 2.07227E+01 9.52815E-02 9.98793E-04 5.02936E-01 7.85069E-14-4.82655E-13
 -1       356 2.09515E+01 1.04641E-01 1.01681E-03 6.10705E-01 9.41347E-14-4.75938E-13
 -1       357 2.12219E+01 1.03055E-01 8.61545E-04 7.22653E-01 4.77080E-14-3.63388E-13
 -1       358 2.15352E+01 8.13529E-02 4.26105E-04 8.23337E-01 1.68891E-14-1.78468E-13
 -1       359 2.18896E+01 2.66519E-02-4.07882E-04 8.86827E-01 6.75740E-14-2.26162E-13
 -1       360 2.22780E+01-7.61416E-02-1.71901E-03 8.73849E-01 9.48740E-14-2.63217E-13
 -1       361 2.26855E+01-2.38092E-01-3.44113E-03 7.31938E-01-9.50845E-15-2.10928E-13
 -1       362 2.30825E+01-4.51279E-01-5.16460E-03 4.04307E-01 6.15332E-14 6.93465E-14
 -1       363 2.34149E+01-6.63830E-01-6.10287E-03-1.43278E-01 9.78705E-14-2.31163E-14
 -1       364 2.35951E+01-7.57409E-01-5.62209E-03-8.69019E-01 7.22003E-14-1.37964E-13
 -1       365 2.35186E+01-5.66327E-01-2.78269E-03-1.58803E+00 1.88850E-13 3.45123E-15
 -1       366 2.31339E+01 7.30052E-03-2.90916E-04-1.95203E+00 1.02786E-13 7.06208E-14
 -1       367 2.25779E+01 7.92757E-01-1.58214E-04-1.59892E+00 1.56769E-13 3.26449E-13
 -1       368 2.21879E+01 1.33081E+00-1.39191E-03-4.99724E-01 1.94731E-14 2.60445E-13
 -1       369 2.22541E+01 1.22230E+00-7.63857E-04 8.49530E-01-1.16233E-13 2.41347E-13
 -1       370 2.27147E+01 5.51521E-01-2.72804E-04 1.74848E+00-1.35746E-13 2.18990E-13
 -1       371 2.32264E+01-2.10720E-01-1.91411E-03 1.85209E+00-5.08089E-14 1.37074E-13
 -1       372 2.34979E+01-6.72869E-01-4.31528E-03 1.32967E+00 9.87138E-14 1.69832E-13
 -1       373 2.34604E+01-7.63559E-01-6.02425E-03 5.66867E-01-3.67371E-15-5.21777E-14
 -1       374 2.31920E+01-6.19078E-01-6.16516E-03-1.30341E-01-1.04252E-13 8.72261E-14
 -1       375 2.27975E+01-3.97645E-01-4.83158E-03-6.25248E-01-5.79202E-15 1.83553E-13
 -1       376 2.23546E+01-1.96100E-01-2.99959E-03-9.05078E-01 7.71465E-14 4.46670E-13
 -1       377 2.19096E+01-4.86448E-02-1.31189E-03-1.01284E+00 1.64606E-13 3.33904E-13
 -1       378 2.14883E+01 4.66620E-02-1.39836E-05-1.00188E+00 1.21487E-13 3.97604E-13
 -1       379 2.11058E+01 1.05661E-01 8.87260E-04-9.15297E-01 5.11337E-15 1.49640E-13
 -1       380 2.07704E+01 1.46107E-01 1.47102E-03-7.80410E-01-2.96498E-13-8.45540E-14
 -1       381 2.04881E+01 1.82574E-01 2.17263E-03-6.10792E-01-7.54592E-14-1.96757E-13
 -1       382 2.02806E+01 2.02680E-01 2.04372E-03-4.27031E-01 3.23774E-13-2.59984E-13
 -1       383 1.98820E+01 2.28441E-01 1.07973E-02 4.00540E-01 3.63959E-13 4.78346E-13
 -1       384 1.95928E+01 1.15387E-01 6.17628E-03 1.21792E-01 2.61963E-13 3.35500E-13
 -1       385 1.94578E+01 5.78466E-02 2.81098E-03-2.73128E-02 2.00117E-13 2.06212E-13
 -1       386 1.94182E+01 2.62509E-02 1.18953E-03-1.04820E-01 1.29121E-13 9.78380E-14
 -1       387 1.94349E+01 8.25639E-03 4.73966E-04-1.41263E-01 1.38428E-13 3.16601E-14
 -1       388 1.94834E+01-1.78068E-03 1.42277E-04-1.53855E-01 1.40588E-13 2.76990E-14
 -1       389 1.95481E+01-6.75761E-03-1.81210E-05-1.53171E-01 1.41348E-13 2.56511E-14
 -1       390 1.96202E+01-8.32021E-03-8.50295E-05-1.46132E-01 2.75876E-14 2.66054E-14
 -1       391 1.96948E+01-7.46154E-03-9.05570E-05-1.37512E-01 5.49334E-14 3.32563E-14
 -1       392 1.97704E+01-4.79113E-03-5.13885E-05-1.30763E-01 7.64850E-14 4.46517E-14
 -1       393 1.98475E+01-6.72151E-04 2.24505E-05-1.28521E-01 4.19676E-14 8.85384E-14
 -1       394 1.99284E+01 4.69599E-03 1.24643E-04-1.32932E-01-1.23353E-14 1.88538E-14
 -1       395 2.00168E+01 1.12163E-02 2.50840E-04-1.45858E-01 4.56736E-14-1.13709E-13
 -1       396 2.01176E+01 1.88347E-02 3.97003E-04-1.68991E-01-4.73662E-15-9.54139E-14
 -1       397 2.02366E+01 2.74650E-02 5.57369E-04-2.03858E-01 2.93450E-14-1.40462E-13
 -1       398 2.03801E+01 3.68835E-02 7.21656E-04-2.51706E-01 1.77624E-14-6.86914E-14
 -1       399 2.05550E+01 4.65703E-02 8.71116E-04-3.13179E-01-8.51975E-14-2.80553E-14
 -1       400 2.07680E+01 5.54654E-02 9.73348E-04-3.87742E-01-4.52526E-14 2.91558E-14
 -1       401 2.10246E+01 6.16073E-02 9.76608E-04-4.72684E-01-4.25437E-14-1.99149E-14
 -1       402 2.13281E+01 6.16408E-02 8.06163E-04-5.61585E-01 2.06611E-13-1.36162E-13
 -1       403 2.16778E+01 5.02703E-02 3.68680E-04-6.42129E-01 1.02993E-13-1.04503E-13
 -1       404 2.20659E+01 1.99574E-02-4.25539E-04-6.93421E-01-7.53966E-14-1.46635E-13
 -1       405 2.24744E+01-3.83451E-02-1.60848E-03-6.83637E-01-1.08848E-13-8.39072E-14
 -1       406 2.28715E+01-1.31854E-01-3.06415E-03-5.70251E-01 5.36869E-14-4.21945E-14
 -1       407 2.32073E+01-2.57730E-01-4.42747E-03-3.07472E-01 7.81770E-14 3.79193E-14
 -1       408 2.34127E+01-3.88889E-01-5.06012E-03 1.32145E-01 2.15713E-15 4.38818E-14
 -1       409 2.34052E+01-4.59732E-01-4.41704E-03 7.16640E-01 2.78172E-14 3.27834E-13
 -1       410 2.31165E+01-3.73969E-01-2.34136E-03 1.30466E+00 5.90522E-14 4.12665E-13
 -1       411 2.25543E+01-6.65676E-02-2.50127E-04 1.63555E+00-8.71226E-14 3.07638E-13
 -1       412 2.18764E+01 3.94520E-01 9.23620E-04 1.43375E+00-1.46473E-13 1.33496E-13
 -1       413 2.13848E+01 7.67761E-01 1.24435E-03 6.33363E-01-6.15558E-14 1.07411E-13
 -1       414 2.13536E+01 7.97895E-01 2.80472E-03-4.61355E-01 2.88502E-14 1.37047E-13
 -1       415 2.17980E+01 4.60815E-01 4.21639E-03-1.32673E+00 1.63668E-13 1.16961E-13
 -1       416 2.24568E+01-7.49851E-03 3.37133E-03-1.60790E+00 2.77580E-13 1.39896E-13
 -1       417 2.30155E+01-3.49157E-01-5.84292E-04-1.32484E+00 1.11273E-13 1.41744E-13
 -1       418 2.32983E+01-4.66759E-01-4.50332E-03-7.42305E-01 5.90036E-14 5.10296E-14
 -1       419 2.32881E+01-4.13823E-01-6.18213E-03-1.34028E-01-2.75174E-13 1.57791E-13
 -1       420 2.30513E+01-2.86901E-01-5.63573E-03 3.41164E-01-1.41604E-13 4.67534E-13
 -1       421 2.26728E+01-1.57294E-01-3.97300E-03 6.38634E-01-1.66612E-13 2.94667E-13
 -1       422 2.22248E+01-5.65476E-02-2.13737E-03 7.79299E-01 9.19831E-14 5.29824E-13
 -1       423 2.17607E+01 1.10608E-02-5.76041E-04 8.05433E-01 2.74863E-13 4.16388E-13
 -1       424 2.13172E+01 5.36179E-02 5.90278E-04 7.55969E-01 7.38082E-14 2.68552E-13
 -1       425 2.09186E+01 8.20668E-02 1.28011E-03 6.57516E-01-1.35047E-13 5.11991E-13
 -1       426 2.05801E+01 1.06575E-01 1.54878E-03 5.23613E-01 1.83392E-13 2.26722E-13
 -1       427 2.03094E+01 1.31407E-01 1.54214E-03 3.59789E-01 2.68532E-13 1.85777E-13
 -1       428 2.01728E+01 1.53006E-01 1.29134E-03 2.55225E-01 2.61552E-13 3.42311E-13
 -1       429 2.00264E+01 7.58623E-01 3.00675E-04 6.18951E-01-1.85030E-14-2.37794E-14
 -1       430 2.01151E+01 5.01475E-01 1.41749E-03 5.51957E-01 1.34523E-14-2.87203E-14
 -1       431 2.01597E+01 3.16863E-01 1.88773E-03 4.18445E-01 1.08641E-13 1.21829E-13
 -1       432 1.99440E+01 1.00976E+00-4.91061E-04 6.00442E-01-1.71412E-13-1.30287E-13
 -1       433 1.98711E+01 1.23728E+00-1.19853E-03 4.99795E-01 1.01462E-13 9.77189E-14
 -1       434 1.98169E+01 1.40871E+00-1.73009E-03 3.31550E-01-3.75613E-14 8.14214E-14
 -1       435 1.97873E+01 1.50178E+00-2.01678E-03 1.18165E-01-2.76094E-13-2.44441E-13
 -1       436 1.97864E+01 1.50364E+00-2.02713E-03-1.11765E-01-1.88405E-13-1.49161E-13
 -1       437 1.98144E+01 1.41378E+00-1.75174E-03-3.27075E-01-1.90626E-13 4.37619E-14
 -1       438 1.98669E+01 1.24776E+00-1.21706E-03-4.96139E-01-1.60695E-13-1.27913E-14
 -1       439 1.99398E+01 1.02128E+00-5.25276E-04-6.01481E-01-1.60029E-13 5.52673E-13
 -1       440 2.00258E+01 7.64234E-01 3.26689E-04-6.24001E-01-7.63330E-14 2.34873E-13
 -1       441 2.01176E+01 5.04565E-01 1.47046E-03-5.59551E-01-2.71443E-14-1.67714E-13
 -1       442 1.10052E+01-5.37292E+00 1.04613E-02 7.00284E+00-1.57319E-13-1.86656E-13
 -1       443 1.14418E+00-4.43822E+00-6.62547E-02 9.41736E-02-1.15941E-13 3.10529E-13
 -1       444 3.49163E+00-5.05124E+00-8.64920E-02 4.28924E+00-2.06210E-13 6.34770E-14
 -1       445 1.83676E+01-5.61346E+00-2.79360E-02 6.76660E+00 1.31298E-13-2.89647E-13
 -1       446 2.77967E+01-3.49020E+00 4.94302E-03 3.38207E+00-7.74866E-14-1.74832E-13
 -1       447 1.97869E+01 3.43970E+00-2.09085E-02-1.72840E+00-4.00558E-13-6.92342E-13
 -1       448 3.54740E+01 6.13559E+00 6.94772E-02-7.05711E-02 2.22128E-13 1.50310E-13
 -1       449 3.52497E+01 8.01019E+00 1.64631E-02-5.18873E-02 5.87697E-13-3.11817E-14
 -1       450 3.41096E+01 6.35818E+00-4.28744E-02 6.71725E-01 6.49286E-13-3.76643E-14
 -1       451 3.32434E+01 2.81995E+00 1.74778E-03-2.04751E-03 4.24341E-13-1.77192E-13
 -1       452 2.88041E+01-2.14051E+00-1.10659E-02-3.26302E+00 3.28931E-13-3.10377E-13
 -1       453 2.29076E+01-4.61173E+00 1.43489E-02-5.72036E+00-2.91434E-16-3.77656E-13
 -1       454 1.30128E+01-5.63243E+00-6.45569E-02-7.03965E+00-3.57714E-13-4.76362E-13
 -1       455 5.88815E+00-5.35244E+00-9.07409E-02-5.59880E+00-3.78933E-13-1.12581E-12
 -1       456 1.43488E+00-4.71115E+00-1.03953E-01-1.95846E+00-3.04236E-13-7.36800E-13
 -1       457 1.92446E+00-4.42812E+00-6.86078E-02 2.44917E+00-2.70568E-13-4.75564E-13
 -1       458 7.16167E+00-5.06806E+00-2.22618E-02 6.01662E+00-2.76612E-13-6.14370E-13
 -1       459 1.67374E+01-5.57341E+00-1.27913E-02 6.84484E+00-4.06314E-13-6.76219E-13
 -1       460 2.35341E+01-4.07696E+00-2.09280E-02 5.52123E+00-5.70127E-13-1.36535E-12
 -1       461 2.99490E+01-9.94524E-01 3.58308E-02 3.19451E+00-5.49179E-13-1.49578E-12
 -1       462 3.38915E+01 2.86994E+00 6.64700E-02 8.90109E-01-7.93074E-13-1.15608E-12
 -1       463 3.58378E+01 6.36879E+00 7.95146E-02-8.63862E-02-6.81774E-13-1.31753E-12
 -1       464 3.55337E+01 7.99931E+00 3.49989E-02-9.89012E-02-5.61245E-13-1.29380E-12
 -1       465 3.55528E+01 7.16136E+00 5.61198E-02 2.85096E-01-5.45633E-13-1.13774E-12
 -1       466 3.39788E+01 3.17673E+00 4.63708E-02-6.61734E-01-4.56260E-13-1.26013E-12
 -1       467 3.08411E+01-4.71118E-01 5.15133E-02-2.70571E+00-8.62296E-14-9.27480E-13
 -1       468 2.41296E+01-4.37892E+00-1.77232E-02-5.30405E+00 3.36245E-13-4.89345E-13
 -1       469 1.63307E+01-5.53647E+00-4.55261E-02-6.90702E+00 1.19488E-13-4.00961E-13
 -1       470 9.72954E+00-5.21330E+00 1.24627E-02-6.78565E+00 1.93831E-13-2.15043E-13
 -1       471 4.41895E+00-4.45125E+00 1.66390E-02-4.66855E+00 8.95395E-14 6.32411E-14
 -1       472 3.15919E+01 3.99436E-01-6.52350E-02 7.13183E-01-1.59407E-13-1.99979E-14
 -1       473 1.41912E+01-4.88016E+00 1.01147E-01 6.95090E+00-6.65301E-14-6.98094E-13
 -1       474 2.03687E+01 8.31898E-01 4.02932E-03 9.74140E-01 4.71250E-13 8.07654E-14
 -1       475 1.97386E+01 3.10416E+00-5.36531E-03-6.34856E-01-9.56609E-14-7.09343E-13
 -1       476 1.98328E+01 2.93107E+00-5.80624E-03-9.51969E-01-2.10222E-13-7.17565E-13
 -1       477 1.96723E+01 3.22700E+00-5.02653E-03 8.80563E-03 1.35028E-13-6.70812E-13
 -1       478 1.96905E+01 3.19393E+00-5.10906E-03 3.30893E-01 2.38277E-13-6.49678E-13
 -1       479 1.97432E+01 3.09705E+00-5.43268E-03 6.46720E-01 3.20687E-13-6.12600E-13
 -1       480 1.98402E+01 2.91901E+00-5.97226E-03 9.62745E-01 4.30618E-13-5.11361E-13
 -1       481 1.99935E+01 2.63380E+00-6.53100E-03 1.25848E+00 5.07040E-13-4.13013E-13
 -1       482 2.02327E+01 2.18772E+00-5.69624E-03 1.50353E+00 5.63988E-13-2.51365E-13
 -1       483 2.01068E+01 4.53749E-01 5.07283E-03 4.66228E-01 3.91270E-13 2.92479E-14
 -1       484 2.03401E+01 9.75674E-01 2.92173E-03-9.45653E-01-4.06134E-13-3.60671E-13
 -1       485 3.02330E+01 2.86489E+00-1.27762E-01-1.86752E+00-3.22450E-14-6.21100E-14
 -1       486 2.01682E+01 5.44025E-01 1.93157E-03-4.69969E-01-3.42609E-13-3.20753E-13
 -1       487 2.00217E+01 3.04554E-01 1.06958E-03-1.67907E-01-2.32753E-13-2.93562E-13
 -1       488 1.99217E+01 1.63691E-01 4.41998E-04 1.48832E-02-1.63870E-13-3.20255E-13
 -1       489 1.98644E+01 7.89674E-02 1.62401E-04 1.19759E-01-1.47642E-13-3.50720E-13
 -1       490 1.98394E+01 2.84907E-02 3.45514E-05 1.74714E-01-1.53610E-13-3.07468E-13
 -1       491 1.98369E+01 1.46407E-04-2.63142E-05 1.98899E-01-1.28491E-13-3.29096E-13
 -1       492 1.98496E+01-1.32204E-02-5.12269E-05 2.05564E-01-1.73045E-13-2.95955E-13
 -1       493 1.98724E+01-1.60325E-02-5.28482E-05 2.04089E-01-1.23615E-13-2.50891E-13
 -1       494 1.99020E+01-1.10846E-02-3.73438E-05 2.01300E-01-1.91683E-14-2.62815E-13
 -1       495 1.99371E+01-1.28626E-04-8.43004E-06 2.02336E-01 5.45734E-15-2.19699E-13
 -1       496 1.99773E+01 1.57793E-02 3.16556E-05 2.11239E-01-6.20053E-14-2.42654E-13
 -1       497 2.00233E+01 3.60333E-02 8.16640E-05 2.31353E-01-1.33682E-13-1.55298E-13
 -1       498 2.00764E+01 6.02645E-02 1.40761E-04 2.65568E-01-1.16350E-13-2.15256E-13
 -1       499 2.01387E+01 8.81076E-02 2.07881E-04 3.16420E-01-8.24136E-14-2.68884E-13
 -1       500 2.02124E+01 1.18901E-01 2.80808E-04 3.86025E-01-1.25160E-13-2.93810E-13
 -1       501 2.03004E+01 1.51257E-01 3.54840E-04 4.75811E-01-1.50906E-13-2.74925E-13
 -1       502 2.04058E+01 1.82437E-01 4.20733E-04 5.85979E-01-5.94320E-14-1.72421E-13
 -1       503 2.05321E+01 2.07423E-01 4.61803E-04 7.14589E-01 1.15720E-13-2.70321E-13
 -1       504 2.06842E+01 2.17652E-01 4.50192E-04 8.56153E-01 8.49283E-14-2.82927E-13
 -1       505 2.08688E+01 1.99453E-01 3.43290E-04 9.99568E-01 1.04972E-13-2.97261E-13
 -1       506 2.10965E+01 1.32682E-01 8.23427E-05 1.12530E+00 1.15210E-13-2.26647E-13
 -1       507 2.13836E+01-9.06743E-03-4.01911E-04 1.20185E+00 5.92008E-14-2.25444E-13
 -1       508 2.17532E+01-2.53441E-01-1.16198E-03 1.18208E+00 9.01896E-14-2.00161E-13
 -1       509 2.22310E+01-6.13429E-01-2.16915E-03 1.00147E+00 2.18476E-13-2.69469E-14
 -1       510 2.28286E+01-1.05252E+00-3.03119E-03 5.84882E-01 2.64144E-14 8.02949E-15
 -1       511 2.35048E+01-1.43014E+00-3.46272E-03-1.23008E-01 4.16189E-14 1.28367E-13
 -1       512 2.41109E+01-1.46049E+00-5.75263E-03-1.07415E+00 1.89445E-13 1.93079E-13
 -1       513 2.44197E+01-8.05699E-01-7.72025E-03-1.98872E+00 1.65808E-13 2.87641E-13
 -1       514 2.42221E+01 6.51959E-01-1.58067E-02-2.29386E+00 1.82688E-13 3.38660E-13
 -1       515 2.37537E+01 2.21810E+00-2.71070E-02-1.47045E+00-1.10658E-14 2.93325E-13
 -1       516 2.35553E+01 2.75706E+00-3.09621E-02 2.54088E-01 1.10259E-14 3.50659E-13
 -1       517 2.38785E+01 1.79489E+00-2.30134E-02 1.78874E+00-2.09172E-13 3.08847E-13
 -1       518 2.43021E+01 1.37780E-01-1.53962E-02 2.24312E+00-1.66753E-13 4.89306E-13
 -1       519 2.43324E+01-1.10480E+00-7.49652E-03 1.67454E+00-9.57458E-14 1.63838E-13
 -1       520 2.38954E+01-1.53174E+00-4.12957E-03 6.87128E-01-6.95135E-14-7.52041E-14
 -1       521 2.32275E+01-1.36243E+00-3.66550E-03-2.21562E-01-2.25299E-14-1.18490E-13
 -1       522 2.25479E+01-9.44530E-01-2.89732E-03-8.55114E-01 3.39516E-14 1.80692E-13
 -1       523 2.19669E+01-5.20049E-01-1.88906E-03-1.20874E+00 1.88484E-13 2.13039E-13
 -1       524 2.15045E+01-1.89452E-01-9.50621E-04-1.34722E+00 8.23666E-14 1.77602E-13
 -1       525 2.11422E+01 3.36649E-02-2.28536E-04-1.34060E+00 1.72598E-13 2.76689E-13
 -1       526 2.08544E+01 1.73086E-01 2.70250E-04-1.24314E+00 2.12885E-14 4.48629E-13
 -1       527 2.06197E+01 2.61114E-01 5.68364E-04-1.09031E+00-2.61999E-13 4.27359E-13
 -1       528 2.04246E+01 3.26681E-01 8.73865E-04-9.01140E-01-2.79635E-13 2.05822E-13
 -1       529 1.98053E+01 1.30111E-01 9.95442E-04-1.88920E-02 2.33120E-13-4.23255E-14
 -1       530 1.97486E+01 6.17714E-02 3.74477E-04-1.19096E-01 1.67982E-13-9.54517E-14
 -1       531 1.97319E+01 2.15794E-02 1.03364E-04-1.70084E-01 1.48352E-13-9.68975E-14
 -1       532 1.97415E+01-9.74452E-04-2.13894E-05-1.91226E-01 1.07944E-13-6.23077E-14
 -1       533 1.97675E+01-1.18202E-02-7.57697E-05-1.95459E-01 8.73916E-14 2.28981E-15
 -1       534 1.98036E+01-1.45294E-02-8.74983E-05-1.91737E-01 5.00061E-14-1.19190E-14
 -1       535 1.98461E+01-1.13270E-02-6.94496E-05-1.86469E-01 6.98761E-14-4.01371E-14
 -1       536 1.98933E+01-3.60098E-03-2.89322E-05-1.84418E-01 2.18060E-14-2.06680E-14
 -1       537 1.99454E+01 7.80898E-03 2.95562E-05-1.89297E-01 8.89412E-14-8.08086E-14
 -1       538 2.00033E+01 2.24173E-02 1.03233E-04-2.04150E-01 2.93708E-14-7.64331E-14
 -1       539 2.00693E+01 3.99326E-02 1.90032E-04-2.31596E-01 4.85066E-14-6.34128E-15
 -1       540 2.01461E+01 6.00854E-02 2.87570E-04-2.73928E-01 2.67070E-14-7.37850E-14
 -1       541 2.02372E+01 8.24049E-02 3.91838E-04-3.33059E-01 2.52828E-14 1.43482E-14
 -1       542 2.03464E+01 1.05907E-01 4.95284E-04-4.10267E-01-9.30018E-14-7.98054E-15
 -1       543 2.04777E+01 1.28641E-01 5.83876E-04-5.05675E-01-1.31291E-13-5.84513E-14
 -1       544 2.06353E+01 1.47016E-01 6.33428E-04-6.17363E-01 6.09666E-14-2.66828E-14
 -1       545 2.08235E+01 1.54883E-01 6.05523E-04-7.39973E-01 1.27028E-14-1.21194E-13
 -1       546 2.10469E+01 1.42406E-01 4.44543E-04-8.62674E-01 1.45109E-13 1.20701E-13
 -1       547 2.13106E+01 9.51042E-02 7.93743E-05-9.66448E-01 4.95512E-14 7.20667E-14
 -1       548 2.16207E+01-5.91341E-03-5.65999E-04-1.02097E+00-7.42123E-14-3.40035E-14
 -1       549 2.19839E+01-1.80185E-01-1.53199E-03-9.82125E-01 4.21013E-14-1.14585E-13
 -1       550 2.24031E+01-4.36522E-01-2.73573E-03-7.92945E-01 5.79662E-14-7.30643E-14
 -1       551 2.28668E+01-7.48977E-01-3.83864E-03-3.94045E-01-5.73108E-14-8.10818E-14
 -1       552 2.33266E+01-1.02101E+00-4.21154E-03 2.45769E-01-2.66834E-13 1.48327E-13
 -1       553 2.36710E+01-1.05925E+00-3.87037E-03 1.06492E+00-9.27589E-14 4.26503E-13
 -1       554 2.37432E+01-6.32259E-01-3.06651E-03 1.82220E+00 9.51270E-14 4.87220E-13
 -1       555 2.34587E+01 3.18864E-01-5.34709E-03 2.09079E+00-1.32050E-14 3.86323E-13
 -1       556 2.29790E+01 1.43158E+00-1.03072E-02 1.48357E+00-3.17212E-14 2.21262E-13
 -1       557 2.27145E+01 1.98251E+00-1.12211E-02 1.07223E-01-2.18497E-14 1.45281E-13
 -1       558 2.29176E+01 1.53113E+00-9.32664E-03-1.31558E+00 1.99407E-13 1.35162E-13
 -1       559 2.33806E+01 4.34694E-01-4.78812E-03-2.01588E+00 1.85590E-13 1.08930E-13
 -1       560 2.36848E+01-5.68451E-01-1.62634E-03-1.82071E+00 2.79415E-13 2.66485E-13
 -1       561 2.36288E+01-1.05603E+00-3.40721E-03-1.08060E+00 1.51683E-13 4.64624E-13
 -1       562 2.32847E+01-1.06101E+00-4.98244E-03-2.40001E-01-7.79750E-14 6.48550E-13
 -1       563 2.28069E+01-8.05481E-01-4.51780E-03 4.39958E-01-2.38795E-13 2.39480E-13
 -1       564 2.23137E+01-4.90580E-01-3.13170E-03 8.80204E-01-2.00494E-13 1.01156E-13
 -1       565 2.18600E+01-2.22337E-01-1.76058E-03 1.10349E+00-1.57470E-13 1.00799E-13
 -1       566 2.14611E+01-3.08370E-02-6.58622E-04 1.16521E+00 2.08608E-13 8.29463E-15
 -1       567 2.11161E+01 9.31600E-02 2.23055E-04 1.11903E+00 2.09783E-13 2.20213E-13
 -1       568 2.08207E+01 1.73204E-01 1.21576E-03 1.00536E+00-2.54081E-14 1.04510E-13
 -1       569 2.05691E+01 2.31602E-01 1.63619E-03 8.46392E-01 5.90001E-14 1.15904E-13
 -1       570 2.03489E+01 2.81472E-01 1.38927E-03 6.52988E-01 1.59160E-13 1.03208E-13
 -1       571 1.98008E+01 9.99145E-01-3.88814E-04 7.46135E-01 2.73359E-13 1.41640E-13
 -1       572 1.96674E+01 1.17649E+00-6.89493E-04 5.63947E-01 1.57753E-13 1.91820E-14
 -1       573 2.01317E+01 5.60598E-01 1.18096E-04 8.14368E-01 7.44139E-14-2.49573E-13
 -1       574 1.99610E+01 7.86045E-01 5.48079E-04 8.29869E-01 2.18229E-13-4.42109E-14
 -1       575 1.95781E+01 1.29560E+00-8.60306E-04 3.05846E-01 3.88953E-14-3.22800E-13
 -1       576 1.95452E+01 1.33922E+00-9.29435E-04 5.30319E-03 9.38260E-15-3.30129E-13
 -1       577 1.95742E+01 1.30058E+00-8.66281E-04-2.96769E-01-1.33598E-13-7.92280E-14
 -1       578 1.96590E+01 1.18793E+00-6.71284E-04-5.55035E-01-1.55164E-13 5.35097E-15
 -1       579 1.97915E+01 1.01268E+00-4.39590E-04-7.44114E-01-8.60416E-16 1.35352E-13
 -1       580 1.99532E+01 7.97759E-01-1.71993E-04-8.36030E-01-2.04923E-13 3.77303E-13
 -1       581 2.01320E+01 5.67382E-01 3.90630E-04-8.16589E-01-2.59618E-13 1.35126E-14
 -1       582 4.84639E+00-1.97066E+00 1.55952E-01 2.62278E+00-8.86964E-14 1.86490E-13
 -1       583 9.34281E+00-3.29230E+00 1.28689E-01 5.94813E+00-1.27988E-13-1.29896E-14
 -1       584 4.90763E+00-1.77091E+00 1.63004E-01-2.37097E+00-1.62856E-13 8.74995E-14
 -1       585 1.99196E+01 2.46817E-01 2.43933E-03 1.60382E-01 3.01086E-13-8.05026E-15
 -1       586 1.73069E+01-5.14863E+00 9.28107E-02 6.69462E+00 1.37779E-13-1.89394E-13
 -1       587 2.41254E+01-5.48811E+00 4.13391E-03 4.44286E+00 1.43885E-13 2.39739E-15
 -1       588 1.72292E+01-5.05493E+00 1.10819E-01-6.65918E+00 3.12493E-13-4.32859E-13
 -1       589 2.86571E+01-2.65848E+00-7.17375E-02-1.08579E-01 1.29068E-14 8.61047E-14
 -1       590 3.05935E+01 6.59879E+00-1.63408E-01-1.14443E+00-5.21486E-13-7.08475E-13
 -1       591 3.04312E+01 6.42734E+00-1.63859E-01-1.20289E+00 3.18440E-13-1.15054E-13
 -1       592 1.96875E+01 3.19832E+00-5.10924E-03-3.13322E-01 2.49755E-14-6.91465E-13
 -1       593 3.00106E+01 6.94180E+00-1.69412E-01 7.84813E-01 5.88959E-13 2.02467E-13
 -1       594 1.19364E+01-4.24981E+00 1.03329E-01-6.72836E+00-5.26093E-13-4.98664E-13
 -1       595 2.95711E+01 3.44026E+00-1.56121E-01 2.13846E+00 3.79634E-13 2.11199E-13
 -1       596 2.96916E+01-1.21886E+00-9.66547E-02 4.84567E-01 1.07758E-13 8.39120E-14
 -1       597 2.64730E+01-4.72289E+00-2.60883E-02-2.56686E+00-1.12063E-13 7.58490E-14
 -1       598 2.26229E+01-5.63560E+00 2.58553E-02-5.06401E+00 1.89106E-13-6.74041E-13
 -1       599 2.07706E+01-5.52346E+00 7.11376E-02-5.85872E+00-4.68472E-13-5.51256E-13
 -1       600 6.36676E+00-2.42779E+00 1.50102E-01-4.37939E+00-4.19276E-13-9.91623E-13
 -1       601 4.36680E+00-1.36492E+00 1.65238E-01 6.14572E-02-1.21754E-13-3.81722E-13
 -1       602 7.04558E+00-2.49495E+00 1.66286E-01 4.71564E+00-2.69298E-14-5.77191E-13
 -1       603 2.27084E+01-5.51293E+00 2.40440E-02 5.07224E+00-3.31124E-14-8.13422E-13
 -1       604 2.72804E+01-4.14691E+00-3.66592E-02 2.58453E+00-1.27988E-14-6.58418E-13
 -1       605 3.00353E+01-7.15700E-01-9.27973E-02-5.65956E-01-1.27041E-13-2.37463E-13
 -1       606 3.09801E+01 3.70904E+00-1.33487E-01-1.73867E+00-2.54394E-13-4.65919E-13
 -1       607 3.05434E+01 7.06439E+00-1.65427E-01 5.73549E-01-5.66491E-13-6.37494E-13
 -1       608 3.08223E+01 4.41195E+00-1.41978E-01 1.73464E+00-4.35832E-13-1.00164E-12
 -1       609 3.01373E+01-2.97933E-01-1.07407E-01 8.25988E-01-8.09769E-14-1.08619E-12
 -1       610 2.77811E+01-3.95586E+00-4.06321E-02-2.01430E+00 3.20081E-13-8.84480E-13
 -1       611 1.01747E+01-2.77212E+00 1.65569E-01-5.75447E+00 5.72459E-14-3.31027E-13
 -1       612 2.03893E+01 1.77142E+00-5.66927E-03-1.54858E+00-4.86402E-13-4.25213E-13
 -1       613 2.05802E+01 1.30516E+00-9.98353E-04 1.54998E+00 5.70659E-13 1.78007E-13
 -1       614 1.99808E+01 2.66273E+00-6.58247E-03-1.25634E+00-3.38843E-13-6.59822E-13
 -1       615 1.21233E+01-2.96639E+00 1.41556E-01 5.94270E+00 2.76792E-14-4.91739E-13
 -1       616 1.96336E+01-5.12103E+00 7.59273E-02 5.82518E+00-3.10238E-14-5.53439E-13
 -1       617 2.03101E+01 3.64030E-01 1.13729E-03-7.54022E-01-6.14528E-14 3.73112E-13
 -1       618 1.99672E+01 2.45014E+00-1.58527E-03 3.94904E-01 2.47677E-13-5.69538E-13
 -1       619 1.99359E+01 2.52535E+00-1.51497E-03 1.35905E-01 1.60048E-13-5.66652E-13
 -1       620 2.01242E+01 2.04635E+00-1.59994E-03 8.51680E-01 4.13783E-13-4.11367E-13
 -1       621 2.02397E+01 1.67619E+00-2.23262E-03 9.93916E-01 4.63419E-13-2.98872E-13
 -1       622 2.03177E+01 1.03675E+00 2.91431E-03 8.33449E-01 4.36717E-13-1.71872E-13
 -1       623 2.58470E+01-4.41856E+00-3.51054E-03 1.63657E+00 1.90462E-13 6.62630E-14
 -1       624 2.02043E+01 6.15526E-01 1.12158E-03 4.22212E-01 3.68867E-13-1.78179E-13
 -1       625 1.47919E+01-3.26314E+00 1.04341E-01 6.01900E+00 2.42299E-13 1.73018E-13
 -1       626 2.02402E+01 6.73562E-01 2.19283E-04-3.94944E-01-2.60525E-13-4.00218E-13
 -1       627 2.01684E+01 3.94460E-01 1.57957E-04-1.39974E-01-2.02277E-13-3.67369E-13
 -1       628 2.01041E+01 2.17256E-01 4.58032E-05 2.40429E-02-1.57345E-13-3.52931E-13
 -1       629 2.00553E+01 1.06145E-01 7.86092E-06 1.22480E-01-1.08964E-13-3.33588E-13
 -1       630 2.00224E+01 3.89576E-02-1.03408E-05 1.76574E-01-1.41362E-13-3.02911E-13
 -1       631 2.00028E+01 1.81727E-03-1.83694E-05 2.02592E-01-1.17366E-13-2.45983E-13
 -1       632 1.99937E+01-1.41393E-02-2.03528E-05 2.12701E-01-1.21734E-13-1.46818E-13
 -1       633 1.99926E+01-1.46923E-02-1.71626E-05 2.15993E-01-4.02430E-14-7.26853E-14
 -1       634 1.99975E+01-3.61363E-03-9.70282E-06 2.19330E-01-8.31815E-14-1.49693E-13
 -1       635 2.00071E+01 1.66914E-02 1.34716E-06 2.28019E-01-2.05268E-14-1.99614E-13
 -1       636 2.00208E+01 4.47428E-02 1.56088E-05 2.46316E-01-5.16261E-14-1.99911E-13
 -1       637 2.00381E+01 7.96305E-02 3.29141E-05 2.77773E-01-1.17901E-13-9.82845E-14
 -1       638 2.00587E+01 1.20673E-01 5.31458E-05 3.25445E-01-1.48140E-13-5.75719E-14
 -1       639 2.00829E+01 1.67023E-01 7.60275E-05 3.91957E-01-1.23589E-13-1.33199E-13
 -1       640 2.01108E+01 2.17146E-01 1.00984E-04 4.79414E-01-9.81027E-14-1.28014E-13
 -1       641 2.01433E+01 2.68106E-01 1.26670E-04 5.89142E-01-8.60398E-14-3.77400E-14
 -1       642 2.01818E+01 3.14534E-01 1.50277E-04 7.21216E-01-4.36507E-14-1.19527E-13
 -1       643 2.02299E+01 3.47186E-01 1.66473E-04 8.73739E-01 5.89632E-14-1.92285E-13
 -1       644 2.02944E+01 3.51037E-01 1.65275E-04 1.04179E+00 1.30976E-13-1.91111E-13
 -1       645 2.03887E+01 3.03109E-01 1.29890E-04 1.21585E+00 1.20895E-13-2.17158E-13
 -1       646 2.05368E+01 1.70776E-01 3.40241E-05 1.37942E+00 4.13603E-14-2.51904E-13
 -1       647 2.07791E+01-8.72893E-02-1.59418E-04 1.50491E+00 2.69184E-14-2.22393E-13
 -1       648 2.11762E+01-5.12502E-01-4.75413E-04 1.54637E+00 2.35605E-13-1.31092E-13
 -1       649 2.18051E+01-1.11970E+00-8.75196E-04 1.42785E+00 2.10811E-13-1.73302E-13
 -1       650 2.27294E+01-1.83470E+00-5.64563E-04 1.03398E+00 8.34381E-14 7.76179E-14
 -1       651 2.39277E+01-2.39388E+00-7.56350E-04 2.27285E-01 1.42115E-13 2.07536E-13
 -1       652 2.51616E+01-2.18688E+00-3.77892E-03-1.03485E+00 3.02782E-13 3.10607E-13
 -1       653 2.59228E+01-6.72399E-01-4.02687E-02-2.32366E+00 1.88523E-13 3.19622E-13
 -1       654 2.57582E+01 2.13783E+00-8.39629E-02-2.44119E+00 5.37764E-14 2.29176E-13
 -1       655 2.54205E+01 4.37671E+00-1.03187E-01-8.65526E-01-2.44461E-13 1.90086E-13
 -1       656 2.54915E+01 3.98855E+00-1.02574E-01 1.45844E+00-1.50407E-13-1.05369E-13
 -1       657 2.58988E+01 1.21420E+00-5.26918E-02 2.48741E+00-2.02099E-13-4.40828E-14
 -1       658 2.56863E+01-1.35801E+00-2.82182E-02 1.87671E+00-4.44657E-13 1.25616E-14
 -1       659 2.47738E+01-2.42858E+00-5.08662E-03 5.12060E-01-2.20083E-13-1.27051E-13
 -1       660 2.35161E+01-2.30410E+00-1.65319E-03-6.22679E-01 5.52661E-15-3.68867E-13
 -1       661 2.23895E+01-1.65715E+00-6.93467E-04-1.30681E+00 1.32324E-13-2.08479E-14
 -1       662 2.15569E+01-9.59064E-01-5.52504E-04-1.61869E+00 1.49068E-13-4.26954E-14
 -1       663 2.10051E+01-4.01322E-01-3.16291E-04-1.69407E+00 8.99065E-14-1.58722E-13
 -1       664 2.06608E+01-1.77112E-02-6.41062E-05-1.63300E+00 2.51746E-13 2.18419E-13
 -1       665 2.04500E+01 2.23658E-01 1.06246E-04-1.49708E+00 1.40066E-13 2.89728E-13
 -1       666 2.03178E+01 3.71103E-01 2.59656E-04-1.31998E+00-1.43149E-13 1.61386E-13
 -1       667 2.02273E+01 4.68397E-01 3.40848E-04-1.11886E+00-3.97708E-13 1.53295E-13
 -1       668 1.99751E+01 9.35959E-02 6.11593E-05-1.23296E-01 1.62197E-13-1.42200E-13
 -1       669 2.02144E+01 4.76939E-01 1.77681E-04 1.03869E+00 2.40534E-14-2.20099E-13
 -1       670 2.00272E+01 1.92660E-01 1.68290E-04-2.19195E-02 1.94173E-13-1.67560E-13
 -1       671 1.99333E+01 7.26984E-04-1.65840E-05-2.03080E-01 5.53763E-14-1.64742E-13
 -1       672 1.99337E+01-1.41986E-02-2.64335E-05-2.11607E-01 8.92957E-14-1.71223E-13
 -1       673 1.99430E+01-1.59808E-02-2.52968E-05-2.12709E-01 7.18568E-14-1.12469E-13
 -1       674 1.99590E+01-7.95168E-03-1.56264E-05-2.13275E-01 4.57212E-15-1.09914E-13
 -1       675 1.99803E+01 7.76865E-03 1.01804E-06-2.18572E-01 3.85951E-14-4.69574E-14
 -1       676 2.00064E+01 2.98675E-02 2.35632E-05-2.32783E-01 1.71299E-14 5.80146E-14
 -1       677 2.00374E+01 5.75326E-02 5.15046E-05-2.59366E-01 2.02179E-14-7.55352E-15
 -1       678 2.00738E+01 9.01725E-02 8.40924E-05-3.01272E-01 3.74190E-14 1.05592E-14
 -1       679 2.01167E+01 1.27086E-01 1.20345E-04-3.61013E-01-2.93029E-14 4.80639E-14
 -1       680 2.01674E+01 1.67021E-01 1.58915E-04-4.40560E-01 5.88389E-14 2.21365E-14
 -1       681 2.02275E+01 2.07598E-01 1.96972E-04-5.41026E-01-3.53161E-14-8.07005E-14
 -1       682 2.02995E+01 2.44461E-01 2.28866E-04-6.62119E-01-3.56637E-14-1.52651E-13
 -1       683 2.03870E+01 2.70089E-01 2.44966E-04-8.01257E-01 2.95300E-15-8.25972E-14
 -1       684 2.04961E+01 2.72259E-01 2.29708E-04-9.52241E-01 4.50036E-14-8.60607E-14
 -1       685 2.06374E+01 2.32330E-01 1.59394E-04-1.10338E+00 9.90169E-14-3.08522E-14
 -1       686 2.08287E+01 1.24111E-01-2.31741E-06-1.23483E+00-1.08360E-14 5.83152E-14
 -1       687 2.10983E+01-8.47289E-02-3.21711E-04-1.31495E+00-8.04592E-14-7.86815E-14
 -1       688 2.14861E+01-4.24451E-01-8.59898E-04-1.29563E+00-1.03489E-13 4.03029E-14
 -1       689 2.20378E+01-9.01009E-01-1.56625E-03-1.10773E+00-4.46093E-14 1.59743E-13
 -1       690 2.27785E+01-1.44841E+00-2.13935E-03-6.64448E-01-2.95019E-13 3.71641E-13
 -1       691 2.36601E+01-1.86073E+00-2.58828E-03 1.10030E-01-1.04824E-13 1.47649E-13
 -1       692 2.44761E+01-1.73029E+00-6.11968E-03 1.16506E+00-1.79958E-14 2.28313E-13
 -1       693 2.48931E+01-6.49562E-01-8.06290E-03 2.14372E+00 1.41114E-13 3.75361E-13
 -1       694 2.46491E+01 1.39367E+00-3.84731E-02 2.31585E+00 1.27644E-13 1.41368E-13
 -1       695 2.42127E+01 3.18241E+00-5.23003E-02 1.11846E+00-1.87697E-14-1.65488E-14
 -1       696 2.41672E+01 3.28823E+00-6.28866E-02-8.66568E-01 1.57915E-13-1.94545E-13
 -1       697 2.45987E+01 1.61064E+00-4.52432E-02-2.20146E+00 1.38974E-13-1.84872E-13
 -1       698 2.48675E+01-4.58511E-01-1.73698E-02-2.16068E+00 5.41498E-14-1.44255E-13
 -1       699 2.45231E+01-1.70089E+00-2.89829E-03-1.20814E+00 7.48034E-14 9.32843E-14
 -1       700 2.37219E+01-1.91351E+00-4.02950E-03-1.20779E-01-5.78369E-14 1.78658E-13
 -1       701 2.28215E+01-1.53938E+00-3.05983E-03 7.06636E-01-7.13631E-14 3.00391E-13
 -1       702 2.20515E+01-9.94411E-01-1.38224E-03 1.20068E+00 6.29675E-14 3.51734E-13
 -1       703 2.14698E+01-5.02467E-01-6.76449E-04 1.42794E+00 4.56042E-14-7.18222E-14
 -1       704 2.10563E+01-1.38248E-01-3.53813E-04 1.47451E+00 1.62075E-14-2.40095E-13
 -1       705 2.07660E+01 1.02892E-01 3.73405E-06 1.40889E+00 1.45434E-13-2.43057E-13
 -1       706 2.05564E+01 2.54238E-01 1.83724E-04 1.27624E+00 2.24363E-13-1.96756E-13
 -1       707 2.03598E+01 3.70872E-01 5.81085E-04 1.17036E+00 1.01664E-13-3.98465E-13
 -1       708 1.92566E+01 1.23296E+00-3.29503E-04 1.97570E-01 2.21591E-13-4.04738E-13
 -1       709 2.01794E+01 5.19362E-01 5.26890E-04-9.72188E-01-1.78655E-13-1.27358E-14
 -1       710 1.95505E+01 9.96587E-01-1.94542E-04 8.21792E-01 8.14522E-14 1.75869E-13
 -1       711 1.92529E+01 1.23677E+00-3.36907E-04-1.81962E-01 1.43674E-13-5.07461E-13
 -1       712 1.93617E+01 1.14772E+00-2.84153E-04 5.47893E-01 1.45461E-13-1.33603E-13
 -1       713 1.93496E+01 1.16011E+00-2.23205E-04-5.30777E-01-9.39132E-14-2.17464E-13
 -1       714 1.95335E+01 1.01403E+00-2.35736E-04-8.13092E-01-2.05615E-13 9.97963E-14
 -1       715 1.97817E+01 8.20805E-01-2.22331E-04-9.85345E-01-2.32680E-13 2.42075E-13
 -1       716 9.30765E+00-7.46463E-01 1.49014E-01-3.33219E+00-1.90226E-13-2.05301E-13
 -1       717 2.07485E+01-4.83567E+00 4.56567E-02-5.09047E+00 3.41411E-13-4.48344E-13
 -1       718 2.37319E+01-5.00351E+00 1.90116E-02-3.54079E+00-3.80286E-13-2.75885E-13
 -1       719 1.13705E+01-2.14938E+00 1.33747E-01-5.36206E+00-5.80244E-13-4.84848E-13
 -1       720 2.73364E+01 2.61862E-02-8.97067E-02-2.19321E+00 2.79950E-14-1.88289E-13
 -1       721 2.78362E+01-3.11808E+00-5.96366E-02 4.51902E-03 2.02373E-14-1.70173E-13
 -1       722 2.72756E+01-3.06898E+00-4.06242E-02 3.34090E-01 6.04447E-14 6.33694E-14
 -1       723 2.01046E+01 3.54718E-01 5.72564E-04 1.50062E-01 2.89318E-13-2.03711E-13
 -1       724 9.22972E+00-1.19246E+00 1.43079E-01 4.00123E+00-1.92485E-14 6.88616E-14
 -1       725 1.99456E+01 3.39628E-02 8.60477E-06-1.77865E-01 1.27198E-13-1.55612E-13
 -1       726 2.02895E+01 1.12614E+00 9.07360E-04-7.64817E-01-3.07825E-13-4.53592E-13
 -1       727 2.72776E+01 5.90355E+00-1.58976E-01-3.70125E-01-5.91173E-13-1.98935E-13
 -1       728 2.16496E+01-5.01990E+00 5.49067E-02 4.86850E+00 3.03230E-13-1.97893E-13
 -1       729 2.77883E+01 4.89437E+00-1.54584E-01 1.72820E+00-3.05998E-13-4.42989E-13
 -1       730 2.56712E+01-4.79156E+00 1.15586E-03-2.34518E+00 1.18594E-13-7.46842E-13
 -1       731 2.00297E+01 2.29542E+00-1.66180E-03 6.38675E-01 3.28574E-13-4.79864E-13
 -1       732 2.00233E+01 2.30622E+00-1.85107E-03-6.29300E-01-1.52202E-13-6.08801E-13
 -1       733 2.73146E+01 3.87644E+00-1.31577E-01-2.11959E+00 1.37355E-13-2.98341E-13
 -1       734 2.73577E+01 1.78446E-01-9.62462E-02 2.37700E+00 1.74135E-13 2.65166E-13
 -1       735 1.49559E+01-3.08735E+00 9.30375E-02-5.76688E+00-8.98934E-14-5.57308E-13
 -1       736 8.11291E+00-2.84828E-01 1.50852E-01-2.27177E+00-1.68752E-13-5.66644E-13
 -1       737 2.66744E+01 4.36100E+00-1.30300E-01 1.84446E+00 3.46258E-13 2.31837E-13
 -1       738 2.83290E+01 8.12443E-01-9.33710E-02-2.26921E+00 2.80435E-14-1.10453E-13
 -1       739 7.55800E+00-1.15990E-01 1.61191E-01 2.59710E-01-1.33082E-13 3.37626E-13
 -1       740 1.74226E+01-4.07374E+00 7.92530E-02-5.87286E+00-4.70311E-13-4.92495E-13
 -1       741 8.34449E+00-3.24642E-01 1.60410E-01 2.42490E+00-6.77566E-14-2.33140E-13
 -1       742 2.55870E+01-4.80712E+00-1.11458E-02 2.49890E+00 1.99616E-13-3.78832E-13
 -1       743 2.79547E+01 1.30567E+00-1.03430E-01 2.39084E+00-2.27453E-13-7.74294E-13
 -1       744 2.79703E+01 4.22401E+00-1.43726E-01-2.10444E+00 1.67227E-15-2.11012E-14
 -1       745 2.78966E+01-2.84298E+00-6.15032E-02 3.40105E-01 1.17562E-13-8.09425E-13
 -1       746 2.68848E+01 5.73064E+00-1.50504E-01-3.53269E-01 2.50182E-13-1.47044E-13
 -1       747 2.01119E+01 2.06726E+00-2.38622E-03-8.46029E-01-2.61107E-13-5.94521E-13
 -1       748 1.99348E+01 2.52699E+00-1.53303E-03-1.26681E-01 7.13730E-14-5.97035E-13
 -1       749 1.67527E+01-3.69997E+00 8.77173E-02 5.76702E+00 2.64910E-13-6.68094E-13
 -1       750 1.97921E+01 8.04037E-01-1.40330E-04 9.89051E-01 3.28566E-13-1.49259E-13
 -1       751 1.13946E+01-8.94584E-01 1.13606E-01 4.01008E+00 4.01745E-14-3.93133E-13
 -1       752 1.29690E+01-1.21134E+00 8.77586E-02-4.35464E+00-2.48718E-13-3.74367E-13
 -1       753 2.02562E+01 1.60394E+00-8.29513E-04-9.96662E-01-3.49456E-13-5.12265E-13
 -1       754 2.63931E+01-2.47389E+00-2.85523E-02-9.44283E-01 4.84656E-14-2.63842E-13
 -1       755 2.31426E+01-4.86134E+00 3.79436E-02 3.73023E+00 1.75396E-13-3.15303E-13
 -1       756 1.99640E+01 2.45588E+00-1.58445E-03-3.84690E-01-3.80551E-14-5.92673E-13
 -1       757 1.99776E+01 6.44817E-01 9.34621E-05-1.08714E+00-5.05101E-13-1.24048E-13
 -1       758 2.32745E+01-4.19156E+00 1.70209E-02 2.87629E+00 1.54132E-14-9.53712E-14
 -1       759 2.02671E+01 1.30880E+00 2.07915E-06 6.32002E-01 3.72986E-13-3.13632E-13
 -1       760 1.05012E+01 6.68439E-01 8.54428E-02 4.30208E-02-8.56436E-14-3.13832E-13
 -1       761 2.02813E+01 1.17327E+00 4.65722E-04-5.67780E-01-2.45219E-13-5.02187E-13
 -1       762 2.02663E+01 4.38576E-01 4.22732E-05-9.21703E-02-1.29458E-13-3.38467E-13
 -1       763 2.02268E+01 2.43512E-01-1.17753E-05 4.01810E-02-1.06116E-13-2.85205E-13
 -1       764 2.01861E+01 1.18591E-01-9.46677E-06 1.21932E-01-1.26986E-13-2.80455E-13
 -1       765 2.01493E+01 4.31010E-02-7.41068E-06 1.68357E-01-9.20289E-14-2.46777E-13
 -1       766 2.01180E+01 3.06562E-03-6.76991E-06 1.92243E-01-5.73985E-14-1.83531E-13
 -1       767 2.00922E+01-1.10905E-02-5.77105E-06 2.03788E-01-9.89903E-14-1.18959E-13
 -1       768 2.00712E+01-5.90294E-03-4.31339E-06 2.10918E-01-5.04297E-14-1.00135E-13
 -1       769 2.00539E+01 1.42641E-02-2.29656E-06 2.19794E-01-6.84081E-14-7.56420E-15
 -1       770 2.00389E+01 4.65897E-02 5.89822E-07 2.35293E-01-6.67368E-14-1.35903E-13
 -1       771 2.00248E+01 8.92893E-02 4.23639E-06 2.61396E-01-6.54651E-14-2.01439E-13
 -1       772 2.00101E+01 1.41166E-01 8.79809E-06 3.01456E-01-1.23567E-13-1.98377E-13
 -1       773 1.99931E+01 2.01146E-01 1.41856E-05 3.58372E-01-1.53990E-13-1.66935E-13
 -1       774 1.99721E+01 2.67717E-01 2.05823E-05 4.34653E-01-1.33252E-13-1.64856E-13
 -1       775 1.99456E+01 3.38206E-01 2.83949E-05 5.32382E-01-4.86571E-14-1.60524E-13
 -1       776 1.99127E+01 4.07813E-01 3.80531E-05 6.53117E-01-5.00043E-14-5.73844E-14
 -1       777 1.98736E+01 4.68268E-01 5.01630E-05 7.97766E-01 1.90749E-14-1.38190E-13
 -1       778 1.98318E+01 5.06012E-01 6.50153E-05 9.66461E-01 6.49800E-14-7.38370E-14
 -1       779 1.97963E+01 4.99859E-01 7.95841E-05 1.15842E+00 1.16756E-13-9.97646E-14
 -1       780 1.97859E+01 4.18302E-01 8.94981E-05 1.37161E+00 6.78736E-14-5.37450E-14
 -1       781 1.98367E+01 2.17171E-01 9.93675E-05 1.60137E+00-1.24345E-14 6.58748E-15
 -1       782 2.00113E+01-1.60379E-01 1.59838E-04 1.83577E+00 1.18852E-13-1.66276E-13
 -1       783 2.04118E+01-7.75624E-01 5.12102E-04 2.04209E+00 2.59380E-13-2.14180E-13
 -1       784 2.11847E+01-1.66126E+00 1.41183E-03 2.13575E+00 2.46657E-13-2.05361E-13
 -1       785 2.24950E+01-2.71701E+00 1.04103E-02 1.94351E+00 2.49744E-13 8.79982E-15
 -1       786 2.43748E+01-3.50982E+00 5.15540E-03 1.15277E+00 2.17893E-13 2.65280E-14
 -1       787 2.59156E+01-3.31146E+00-1.71219E-02-3.90858E-02-3.11680E-13-1.48777E-13
 -1       788 2.38557E+01-3.34064E+00 6.11181E-03-1.40672E+00-1.43523E-13 1.08690E-13
 -1       789 2.21572E+01-2.42619E+00 5.23521E-03-2.05263E+00 1.17984E-13 1.53414E-13
 -1       790 2.10338E+01-1.42180E+00 1.35239E-03-2.18751E+00 1.02448E-13-2.19195E-13
 -1       791 2.03903E+01-6.26361E-01 2.76924E-04-2.08961E+00-1.35999E-13-4.51134E-13
 -1       792 2.00687E+01-8.12315E-02 1.65152E-04-1.90054E+00 3.67524E-13-5.22477E-13
 -1       793 1.99387E+01 2.59760E-01 6.75332E-05-1.68454E+00 2.08073E-13-3.12652E-13
 -1       794 1.99125E+01 4.64588E-01 1.84564E-04-1.46417E+00-4.96468E-14-3.27472E-13
 -1       795 1.99470E+01 5.68733E-01 2.88965E-04-1.27339E+00-3.69898E-13-9.48543E-14
 -1       796 2.08587E+01-3.73176E+00 2.80102E-02-4.03928E+00-4.20954E-13-5.07717E-13
 -1       797 1.89433E+01 1.16064E+00-1.55536E-04-4.35994E-01 2.73262E-13-2.92037E-13
 -1       798 2.01744E+01 2.31071E-01-8.40432E-07-3.55619E-02 1.49230E-13-2.07604E-13
 -1       799 2.00518E+01-1.30356E-02-9.10486E-06-2.09781E-01 1.52084E-14-1.48139E-13
 -1       800 2.00701E+01 2.07842E-03-8.89008E-06-1.98886E-01 6.74243E-14-1.60593E-13
 -1       801 2.00324E+01 5.19191E-03-3.87491E-06-2.21819E-01-6.33286E-14-1.41055E-13
 -1       802 2.00288E+01 3.17788E-02 1.37929E-06-2.34555E-01-2.88364E-14-1.34992E-13
 -1       803 2.00277E+01 6.74318E-02 8.34426E-06-2.57591E-01 2.69503E-14-5.22686E-14
 -1       804 2.00282E+01 1.11007E-01 1.74597E-05-2.94360E-01 2.12478E-14 2.07948E-14
 -1       805 2.00293E+01 1.61530E-01 2.75313E-05-3.47789E-01-5.74774E-14 6.61990E-14
 -1       806 2.00304E+01 2.17640E-01 3.84707E-05-4.20387E-01 1.92966E-14-6.94896E-14
 -1       807 2.00309E+01 2.76952E-01 5.07869E-05-5.14095E-01-2.31253E-15-3.26368E-14
 -1       808 2.00309E+01 3.35224E-01 6.41658E-05-6.30117E-01-4.58467E-14-1.78831E-14
 -1       809 2.00320E+01 3.85106E-01 7.80172E-05-7.68567E-01-5.10456E-14 7.25674E-14
 -1       810 2.00382E+01 4.14523E-01 9.11871E-05-9.27978E-01-3.51896E-14 1.30826E-13
 -1       811 2.00587E+01 4.04624E-01 1.01718E-04-1.10460E+00 4.92278E-14 7.46973E-14
 -1       812 2.01115E+01 3.27569E-01 1.05149E-04-1.29129E+00 4.50242E-14 3.46764E-15
 -1       813 2.02287E+01 1.45055E-01 8.27104E-05-1.47525E+00 2.10450E-14 3.00453E-14
 -1       814 2.04634E+01-1.89773E-01-7.59372E-05-1.63303E+00-1.07553E-13-2.96539E-14
 -1       815 2.08951E+01-7.20969E-01-4.22058E-04-1.72093E+00-2.11881E-13-9.96079E-14
 -1       816 2.16280E+01-1.45926E+00-4.95793E-04-1.65294E+00-1.83930E-13-2.14288E-13
 -1       817 2.27425E+01-2.29065E+00 1.48680E-03-1.29065E+00-2.35897E-13-1.99796E-13
 -1       818 2.42341E+01-2.88291E+00 2.07831E-03-4.27944E-01-2.64207E-13 1.22463E-13
 -1       819 2.29072E+01-2.43180E+00-1.31229E-03 1.32568E+00-2.26539E-13 5.53085E-14
 -1       820 2.17398E+01-1.60104E+00 7.44235E-04 1.75565E+00 7.09635E-14-1.28177E-13
 -1       821 2.09690E+01-8.39702E-01 7.85818E-04 1.85952E+00 1.82150E-15 8.16339E-15
 -1       822 2.05157E+01-2.77902E-01 1.95923E-04 1.79773E+00-6.11838E-15 9.23730E-14
 -1       823 2.02706E+01 9.53044E-02-1.15888E-05 1.65593E+00 1.34168E-13 1.00416E-13
 -1       824 2.01499E+01 3.27487E-01 2.28913E-04 1.47668E+00 9.66894E-14 1.92504E-13
 -1       825 1.89398E+01-3.41689E+00 4.87707E-02 4.84984E+00 2.75420E-13-1.36773E-13
 -1       826 2.01465E+01 1.89158E+00-2.81267E-04 1.99429E-01 1.74963E-13-4.95825E-13
 -1       827 1.94847E+01 8.45801E-01-1.87022E-04-1.08668E+00-2.96311E-13 4.68214E-14
 -1       828 1.88708E+01 1.20220E+00-2.04765E-04 1.62754E-02 2.47549E-13-4.81322E-13
 -1       829 2.58456E+01-3.67095E+00-3.23108E-02 4.53796E-01 2.77468E-13 2.09533E-14
 -1       830 2.02788E+01 9.43837E-01 2.24900E-05 5.54897E-01 3.71713E-13-2.33080E-13
 -1       831 2.49414E+01-3.75515E+00 4.30799E-03-1.04942E+00-2.25474E-13-1.38809E-13
 -1       832 2.34960E+01-4.39174E+00 1.53657E-02-2.93685E+00 8.76729E-14-3.89420E-13
 -1       833 1.87502E+01-3.29688E+00 3.30076E-02-4.76150E+00-3.53788E-14-5.30107E-13
 -1       834 1.91581E+01 1.03313E+00-2.62103E-04-8.19478E-01 6.35093E-14-2.60629E-13
 -1       835 1.04072E+01 1.10478E-01 9.56573E-02 2.11457E+00 7.27699E-14 3.69118E-13
 -1       836 1.54546E+01-2.07113E+00 6.22081E-02-4.88093E+00-4.32251E-13-3.60552E-13
 -1       837 2.00397E+01-1.06311E-02-7.37555E-06-2.15259E-01-1.52959E-14-1.47859E-13
 -1       838 1.20331E+01-3.04131E-01 8.15884E-02-3.39694E+00-2.55507E-13-3.52697E-13
 -1       839 2.02270E+01 1.59050E+00-6.77717E-05-7.21109E-01-2.53920E-13-5.35746E-13
 -1       840 1.03297E+01 3.35924E-01 9.60920E-02-1.29623E+00 5.74848E-14 1.25427E-13
 -1       841 2.02947E+01 7.28196E-01-4.27392E-04-2.92164E-01-1.90563E-13-4.18135E-13
 -1       842 1.37601E+01-1.14943E+00 7.83783E-02 4.31262E+00 2.75674E-13 2.91324E-13
 -1       843 2.56092E+01-2.40321E+00-1.48981E-02 1.00080E+00-1.24597E-15 2.84056E-13
 -1       844 2.01354E+01 1.92952E+00-3.14420E-04 3.14921E-03 1.03760E-13-5.18207E-13
 -1       845 2.02271E+01 1.58295E+00 2.48361E-04 5.36892E-01 3.13902E-13-3.82821E-13
 -1       846 2.05131E+01-4.14355E+00 3.53810E-02 4.52815E+00 3.60224E-13-3.22833E-13
 -1       847 1.95113E+01 8.22196E-01 2.29848E-04 1.09410E+00 1.61444E-13-1.83505E-13
 -1       848 1.91832E+01 1.01219E+00-5.53131E-05 8.35567E-01-3.06394E-14 6.05411E-14
 -1       849 2.41623E+01-4.22829E+00 2.67441E-02 2.27883E+00 3.13932E-13-5.33154E-14
 -1       850 2.02225E+01 4.18969E-01 2.82726E-05 1.10161E-01 2.30040E-13-2.22240E-13
 -1       851 2.00961E+01 4.08911E-02-7.06059E-06-1.74124E-01 7.48741E-14-2.10767E-13
 -1       852 2.44637E+01-2.96574E+00 2.13375E-03 3.67551E-01-1.95827E-13-2.01372E-13
 -1       853 2.00105E+01 4.82334E-01-1.67549E-03 1.32511E+00 2.55165E-13 3.19153E-13
 -1       854 2.01800E+01 1.77680E+00-4.01421E-05 3.83330E-01 2.73832E-13-4.72595E-13
 -1       855 1.89570E+01 1.14837E+00-1.77836E-04 4.61156E-01 1.20917E-13-2.34950E-13
 -1       856 1.46515E+01-1.74597E+00 6.77945E-02 4.70635E+00 2.43671E-13-4.22561E-13
 -1       857 1.26546E+01 2.99074E-02 5.43666E-02-2.68518E+00 8.48687E-14-1.14833E-13
 -1       858 1.64517E+01-1.75022E+00 4.21873E-02-4.32937E+00-1.14048E-13-7.72982E-13
 -1       859 1.17337E+01 5.04123E-01 6.59026E-02 1.68894E+00 2.15630E-14-9.38572E-14
 -1       860 1.99301E+01 5.88487E-01-4.77931E-04 1.21609E+00 1.52652E-13 3.27610E-13
 -1       861 2.01308E+01 1.12624E-01-2.45580E-06-1.24446E-01 1.39859E-13-2.13108E-13
 -1       862 2.02513E+01 6.38803E-01 2.61891E-05 2.95457E-01 3.15265E-13-2.39879E-13
 -1       863 2.01741E+01 1.78467E+00-5.92879E-04-3.74991E-01-8.57696E-14-5.11354E-13
 -1       864 1.97035E+01 7.07448E-01 5.20643E-04-1.20595E+00-2.78054E-13 1.20784E-14
 -1       865 2.01890E+01 1.72291E+00-6.50980E-04-5.52510E-01-1.77166E-13-5.31188E-13
 -1       866 2.20420E+01-3.27011E+00 1.08215E-02 2.89381E+00-1.14584E-13-5.92473E-13
 -1       867 1.21559E+01 7.39296E-01 4.03473E-02 4.53273E-01 3.26060E-13 4.28414E-13
 -1       868 2.03102E+01 2.43174E-01-2.00782E-06 5.39754E-02-1.12542E-13-3.03435E-13
 -1       869 2.02732E+01 1.16215E-01-5.01004E-06 1.15064E-01-6.45119E-14-2.71487E-13
 -1       870 2.02322E+01 4.10737E-02-2.49555E-06 1.50463E-01-6.97342E-14-2.50632E-13
 -1       871 2.01910E+01 4.43577E-03-1.16368E-06 1.69832E-01-2.91225E-14-2.43629E-13
 -1       872 2.01510E+01-3.37655E-03-9.57577E-07 1.81083E-01-5.60731E-14-1.45893E-13
 -1       873 2.01125E+01 1.08685E-02-1.80194E-06 1.90508E-01-3.43823E-14-1.90542E-13
 -1       874 2.00744E+01 4.26001E-02-2.14835E-06 2.03107E-01-1.12105E-13-2.18716E-13
 -1       875 2.00353E+01 8.88340E-02-1.77702E-06 2.22927E-01-1.15762E-13-1.49059E-13
 -1       876 1.99928E+01 1.47602E-01-1.33460E-06 2.53325E-01-6.10590E-14-1.26705E-13
 -1       877 1.99442E+01 2.17460E-01-1.34660E-06 2.97161E-01-1.42329E-13-9.91845E-14
 -1       878 1.98864E+01 2.96912E-01-1.40554E-06 3.56979E-01-9.15851E-14-1.35439E-13
 -1       879 1.98161E+01 3.83699E-01-8.49336E-07 4.35086E-01-1.32230E-13-9.80461E-14
 -1       880 1.97297E+01 4.73986E-01 6.23155E-07 5.33656E-01 1.04266E-15-6.93344E-14
 -1       881 1.96245E+01 5.61269E-01 3.66656E-06 6.54947E-01-4.47632E-14 5.90812E-14
 -1       882 1.94989E+01 6.34941E-01 9.55183E-06 8.01720E-01 9.21125E-14-6.98691E-14
 -1       883 1.93543E+01 6.78401E-01 1.80050E-05 9.78025E-01 1.07667E-13-1.81576E-14
 -1       884 1.91982E+01 6.66593E-01 1.65920E-05 1.19048E+00 1.84967E-13 5.02596E-14
 -1       885 1.90483E+01 5.62959E-01 2.34499E-06 1.44986E+00-1.22791E-14-6.38575E-14
 -1       886 1.89416E+01 3.15720E-01 4.80197E-05 1.77226E+00 4.54458E-14-2.97430E-14
 -1       887 1.89493E+01-1.46521E-01 5.30373E-04 2.17657E+00 9.01431E-14-6.09801E-14
 -1       888 1.92048E+01-9.15522E-01 2.70660E-03 2.66841E+00 2.44990E-13-1.79310E-13
 -1       889 1.99512E+01-2.08639E+00 5.26556E-03 3.16479E+00 2.98099E-13-3.01288E-13
 -1       890 2.16960E+01-3.37804E+00 1.37740E-02 3.12871E+00 3.09123E-13-2.26628E-13
 -1       891 1.98844E+01-1.78226E+00 5.88307E-03-3.05502E+00 1.53142E-14-2.90151E-13
 -1       892 1.93081E+01-7.45045E-01 1.46914E-03-2.59321E+00-2.92981E-13-1.81472E-13
 -1       893 1.91390E+01-6.65403E-02 4.96183E-05-2.16388E+00 1.15519E-13-1.72037E-13
 -1       894 1.91801E+01 3.47063E-01 6.77118E-05-1.80728E+00 2.95050E-13-4.30629E-13
 -1       895 1.93130E+01 5.88222E-01-6.73094E-04-1.51966E+00 1.09665E-13-5.14176E-13
 -1       896 1.50485E+01-7.17856E-01 2.80541E-02-3.67580E+00-1.50347E-13-2.09078E-13
 -1       897 2.00403E+01 6.87381E-02-1.19878E-06-2.31573E-01-1.11788E-13-1.81949E-13
 -1       898 2.00684E+01 2.89890E-02-2.54855E-06-2.13163E-01-7.84719E-15-2.53278E-13
 -1       899 1.99784E+01 1.80974E-01 2.14469E-06-3.03895E-01-5.14297E-14-1.39781E-13
 -1       900 1.99401E+01 2.50678E-01 7.69750E-06-3.63583E-01-7.71818E-15-1.49134E-13
 -1       901 1.98938E+01 3.26724E-01 1.07011E-05-4.42255E-01 1.13851E-14-1.51369E-13
 -1       902 1.98373E+01 4.05545E-01 1.45358E-05-5.41965E-01-8.92698E-14-2.12203E-13
 -1       903 1.97692E+01 4.80949E-01 2.08325E-05-6.64561E-01-1.01329E-13-2.50466E-14
 -1       904 1.96898E+01 5.42762E-01 3.09950E-05-8.11735E-01-4.71647E-14-3.17652E-14
 -1       905 1.96030E+01 5.74971E-01 4.94608E-05-9.85331E-01 6.24088E-14-7.81866E-14
 -1       906 1.95190E+01 5.53376E-01 8.64896E-05-1.18778E+00 5.83695E-14 4.71356E-14
 -1       907 1.94597E+01 4.42897E-01 1.60939E-04-1.42246E+00 3.65764E-15 7.33443E-14
 -1       908 1.94661E+01 1.94641E-01 2.95850E-04-1.69285E+00-9.58655E-14 1.26432E-14
 -1       909 1.96125E+01-2.54337E-01 3.50515E-04-1.99520E+00-1.39250E-13 4.41265E-15
 -1       910 2.00166E+01-9.72070E-01-1.14273E-04-2.30660E+00-4.84710E-14-2.83791E-13
 -1       911 2.08790E+01-2.01088E+00-7.43632E-04-2.52915E+00-2.39525E-13-3.51495E-13
 -1       912 2.05367E+01-1.96023E+00-2.71501E-03 2.81518E+00 7.58494E-15-5.70947E-13
 -1       913 1.95877E+01 1.14524E-01 1.69996E-04 1.86581E+00 2.10212E-14-2.15843E-15
 -1       914 1.95870E+01 4.15721E-01 5.22456E-05 1.60098E+00 1.62545E-14-6.96528E-14
 -1       915 1.84471E+01 1.17396E+00-3.44886E-04-2.54488E-01 1.06859E-13-3.54802E-13
 -1       916 1.97352E+01-3.75717E-01 1.51269E-03 2.16098E+00-1.26200E-13-2.01660E-14
 -1       917 1.99693E+01-1.02344E+00 2.10511E-03 2.48298E+00-2.87950E-13-1.88217E-13
 -1       918 2.00110E+01 1.19887E-01 8.29750E-07-2.60800E-01-2.00068E-14-1.41702E-13
 -1       919 1.30511E+01 7.13148E-01 3.21830E-02-1.54154E+00-1.63901E-13-3.80224E-13
 -1       920 2.01612E+01 3.30447E-03-2.58549E-06-1.81927E-01 1.86146E-14-1.69517E-13
 -1       921 1.72958E+01-1.73665E+00 1.68535E-02 4.07826E+00-1.20815E-13-8.56598E-14
 -1       922 1.90518E+01-2.34279E+00 2.11310E-02-3.86249E+00-4.73316E-13-5.99412E-13
 -1       923 2.01452E+01 1.89443E+00-3.46534E-04-1.92194E-01 2.66325E-14-4.81226E-13
 -1       924 2.02733E+01 1.32608E+00 4.25497E-04-4.61315E-01-1.59720E-13-4.81384E-13
 -1       925 2.11376E+01-3.02531E+00 1.23346E-02-3.26783E+00-3.58593E-14-2.77490E-13
 -1       926 2.03422E+01 7.23872E-01-4.61481E-04-1.88343E-01-1.08923E-13-3.55831E-13
 -1       927 2.03011E+01 9.04112E-01-1.49069E-04 3.76658E-01 2.96017E-13-2.65154E-13
 -1       928 1.35786E+01 1.59089E-01 4.15113E-02 2.56896E+00 1.61441E-13 4.29392E-13
 -1       929 2.03369E+01 4.39623E-01-3.51952E-05-4.27877E-02-8.04977E-14-3.06377E-13
 -1       930 2.22978E+01-3.06740E+00 1.40603E-02-2.38892E+00-4.91936E-13-2.52271E-13
 -1       931 2.02746E+01 2.42376E-01-4.11463E-06-5.09040E-02 1.43989E-13-2.55821E-13
 -1       932 1.78977E+01-2.54114E+00 3.55622E-02 4.48143E+00 4.01057E-13-4.33417E-13
 -1       933 2.02959E+01 1.34157E+00 7.08675E-04-1.94831E-01-7.80922E-15-4.20767E-13
 -1       934 1.95303E+01 6.60608E-01 6.55663E-04-1.35305E+00 2.36359E-13-1.93042E-13
 -1       935 2.01978E+01 4.14801E-02-2.52471E-06-1.60658E-01 3.72614E-14-2.01938E-13
 -1       936 2.00970E+01 2.61973E-03-2.78705E-06-2.01900E-01-2.82168E-15-2.03429E-13
 -1       937 2.03051E+01 4.38775E-01-3.16346E-05 6.11929E-02 1.77670E-13-2.35117E-13
 -1       938 1.31847E+01 7.71138E-01 2.59345E-02-9.40332E-01 4.54200E-13 1.10645E-13
 -1       939 1.95386E+01 6.05061E-01 8.22212E-04 1.39575E+00 1.52859E-13-2.04972E-13
 -1       940 1.84595E+01 1.16529E+00-2.96994E-04 2.96521E-01-1.86274E-13-1.81773E-13
 -1       941 1.86525E+01 1.07571E+00-1.04221E-04-7.60792E-01 1.12944E-13-3.48921E-13
 -1       942 2.02927E+01 1.34207E+00-4.01829E-04 1.97119E-01 1.95625E-13-4.17173E-13
 -1       943 2.02806E+01 1.35800E+00 4.98771E-04-3.24325E-01-6.32786E-14-4.74399E-13
 -1       944 1.34931E+01-2.27053E-02 4.43902E-02 2.91853E+00 1.89467E-13-1.47587E-13
 -1       945 1.53451E+01-5.30116E-01 2.10022E-02-3.37178E+00 1.84145E-13-4.45870E-13
 -1       946 1.30694E+01 9.71995E-01 3.05059E-02-2.28548E-01-5.29871E-14-2.43677E-13
 -1       947 2.01276E+01-7.43591E-03-3.12915E-06-1.93332E-01-1.09852E-14-1.56588E-13
 -1       948 1.62175E+01-3.98592E-01 1.43756E-02 3.08227E+00-1.91052E-13-3.17038E-13
 -1       949 1.85553E+01-1.86504E+00 2.85156E-02-3.77278E+00-1.41885E-13-5.22404E-13
 -1       950 1.90971E+01 8.41267E-01-4.75387E-04 1.16494E+00-9.97760E-15-1.54539E-13
 -1       951 2.02837E+01 1.41056E+00 1.00716E-05 6.91371E-02 1.17092E-13-4.37488E-13
 -1       952 1.91373E+01 8.47611E-01 4.98621E-05-1.17513E+00 2.01591E-13-2.31554E-13
 -1       953 1.89894E+01 6.88134E-01-3.59792E-05 1.41398E+00 1.71453E-13-2.99384E-13
 -1       954 2.03257E+01 1.01904E-01 1.30337E-06 9.85027E-02-6.60584E-14-2.91992E-13
 -1       955 2.02790E+01 3.48296E-02 2.18024E-06 1.22114E-01-3.22443E-14-2.61612E-13
 -1       956 2.02283E+01 7.09666E-03 2.98878E-06 1.35978E-01 2.29731E-14-2.46544E-13
 -1       957 2.01758E+01 9.38668E-03-1.18183E-06 1.45575E-01-9.43123E-14-1.94844E-13
 -1       958 2.01215E+01 3.51427E-02-3.89160E-06 1.55383E-01-1.08223E-13-2.19577E-13
 -1       959 2.00645E+01 7.99213E-02-4.98483E-06 1.69005E-01-3.21968E-14-1.45010E-13
 -1       960 2.00025E+01 1.40787E-01-4.65009E-06 1.89455E-01-2.79440E-14-5.53560E-14
 -1       961 1.99323E+01 2.15656E-01-1.04478E-05 2.19216E-01-9.35253E-14-4.67145E-14
 -1       962 1.98499E+01 3.02979E-01-1.67066E-05 2.60475E-01-1.82153E-13 4.02459E-16
 -1       963 1.97509E+01 4.00780E-01-2.45788E-05 3.15303E-01-1.55770E-13-8.46636E-14
 -1       964 1.96301E+01 5.06131E-01-3.22547E-05 3.85700E-01 5.80422E-14-2.06495E-14
 -1       965 1.94819E+01 6.14289E-01-4.24651E-05 4.73956E-01 1.20782E-13 8.78447E-14
 -1       966 1.93008E+01 7.17670E-01-5.61122E-05 5.83163E-01-3.96173E-15 1.73138E-13
 -1       967 1.90815E+01 8.04662E-01-7.60012E-05 7.18192E-01 7.04049E-14 1.84783E-13
 -1       968 1.88196E+01 8.58093E-01-1.16412E-04 8.87495E-01 1.41982E-13-6.39386E-14
 -1       969 1.85134E+01 8.53105E-01-2.36463E-04 1.10589E+00 1.42749E-14-1.72155E-13
 -1       970 1.81662E+01 7.54323E-01-4.51983E-04 1.39872E+00 4.76412E-15-5.69551E-14
 -1       971 1.77936E+01 5.10695E-01-2.67691E-04 1.80718E+00 9.18246E-14-1.17982E-13
 -1       972 1.74346E+01 4.35503E-02 1.52980E-03 2.39108E+00 6.25177E-14-7.59102E-14
 -1       973 1.71860E+01-7.68106E-01 9.66992E-03 3.23447E+00 4.40325E-14-3.13402E-13
 -1       974 1.82205E+01-7.14221E-01 3.22788E-03-2.93485E+00 2.47131E-14-4.40565E-13
 -1       975 1.52988E+01 2.34901E-01 7.56061E-03-2.47043E+00-5.87941E-14-3.65766E-13
 -1       976 1.82804E+01 1.57501E-02 1.24325E-03-2.29603E+00-4.74354E-14-9.92220E-14
 -1       977 1.85240E+01 4.42321E-01 8.93450E-04-1.83013E+00 1.92124E-13-9.48804E-14
 -1       978 1.88050E+01 6.92840E-01 6.30541E-05-1.48525E+00 1.28333E-13-2.52314E-13
 -1       979 1.98158E+01 3.51664E-01 7.41086E-07-3.42085E-01-7.73129E-17-2.61982E-13
 -1       980 1.98952E+01 2.63228E-01-2.64176E-06-2.83111E-01 2.21714E-14-2.42406E-13
 -1       981 1.96020E+01 5.44213E-01-1.12083E-05-5.14218E-01-1.28230E-13-2.48986E-13
 -1       982 1.94602E+01 6.35835E-01-1.41384E-05-6.32729E-01-1.23024E-13-2.61928E-13
 -1       983 1.92917E+01 7.09851E-01-1.38870E-05-7.77948E-01-1.27569E-14-1.82648E-13
 -1       984 1.90969E+01 7.48275E-01 1.64803E-06-9.56531E-01-2.38867E-14-8.41605E-14
 -1       985 1.88817E+01 7.24729E-01 8.86615E-05-1.17958E+00-3.83689E-14-1.14940E-13
 -1       986 1.86612E+01 6.02046E-01 3.53038E-04-1.46522E+00 1.82246E-15-9.60931E-15
 -1       987 1.84663E+01 3.26527E-01 4.01692E-04-1.84291E+00-1.26831E-14-1.66493E-13
 -1       988 1.83919E+01-1.90145E-01-1.35253E-03-2.35493E+00 1.35856E-14-4.43394E-13
 -1       989 1.85807E+01-1.03631E+00 9.40361E-03-3.02459E+00-3.40670E-14-5.07240E-13
 -1       990 2.03250E+01 1.05893E+00 7.75417E-05 2.96183E-01 2.39406E-13-3.39989E-13
 -1       991 2.00712E+01 6.26718E-02 2.49203E-07-1.87227E-01-8.26984E-14-2.19689E-13
 -1       992 1.87245E+01 4.74980E-01-8.48553E-04 1.72593E+00 6.10267E-14-2.68343E-13
 -1       993 2.02366E+01 1.16645E-01-1.28950E-06-1.20642E-01 7.89372E-14-2.01768E-13
 -1       994 2.03873E+01 4.04568E-01-4.72338E-04-6.46225E-03-7.71896E-14-3.17206E-13
 -1       995 2.02854E+01 1.40982E+00 3.37631E-04-6.79000E-02 3.51718E-14-4.61212E-13
 -1       996 2.03857E+01 6.74943E-01-1.94655E-04-1.00084E-01-5.23144E-14-3.77759E-13
 -1       997 1.85247E+01 8.56304E-02-3.20205E-04 2.14195E+00-2.26531E-13-2.95864E-13
 -1       998 1.43105E+01 8.47790E-01 2.16363E-02 1.16159E+00 2.17598E-13-3.42781E-15
 -1       999 2.03073E+01 6.40250E-01-1.22423E-04 1.92732E-01 2.34676E-13-2.20840E-13
 -1      1000 1.97194E+01 4.46932E-01-7.29618E-06-4.18291E-01-3.60853E-14-1.96167E-13
 -1      1001 1.86939E+01 1.04290E+00-2.05732E-04 7.97320E-01-1.33429E-13 4.53130E-14
 -1      1002 2.03638E+01 2.21088E-01 1.17169E-05 5.86141E-02-8.18435E-14-2.85344E-13
 -1      1003 1.84667E+01-8.88062E-01 1.03040E-02 2.99656E+00-1.05338E-13 4.65853E-14
 -1      1004 1.46880E+01 9.75165E-01 5.12044E-03-1.07749E+00 1.67039E-14-3.65935E-13
 -1      1005 1.36023E+01 8.78718E-01 2.43587E-02 1.03185E+00 1.18577E-14 1.04980E-13
 -1      1006 2.03414E+01 2.29579E-01-6.89419E-06-5.95694E-02 9.65817E-14-2.51171E-13
 -1      1007 2.02602E+01 3.69958E-02 8.02042E-06-1.37057E-01 3.37785E-14-2.36552E-13
 -1      1008 2.01197E+01 2.37591E-02-4.25815E-06-1.73583E-01 6.03400E-14-2.81945E-13
 -1      1009 2.03654E+01 4.21718E-01 1.15148E-04 1.84729E-02 1.47483E-13-2.61161E-13
 -1      1010 1.99620E+01 1.84183E-01-1.79512E-05-2.39383E-01-5.57266E-15-2.05781E-13
 -1      1011 2.00195E+01 1.16898E-01-8.03599E-06-2.08135E-01-5.05304E-14-2.01203E-13
 -1      1012 1.78792E+01 1.17656E+00-4.07976E-04 2.98201E-02-2.88477E-13 1.48055E-13
 -1      1013 2.04078E+01 7.63210E-01 9.87091E-05-6.67397E-02-1.26195E-14-4.04026E-13
 -1      1014 1.80369E+01 1.11230E+00 2.27932E-04-6.25907E-01-1.69685E-13-5.35471E-13
 -1      1015 1.48373E+01 4.67965E-01 1.05545E-02-2.02783E+00 2.18462E-13-4.38954E-14
 -1      1016 1.84192E+01-3.25099E-01-4.36551E-04 2.52170E+00-2.46917E-13-4.58175E-13
 -1      1017 1.59874E+01 4.78781E-01 4.70950E-03 1.99608E+00-9.52084E-14-1.63074E-13
 -1      1018 1.84028E+01 9.57411E-01-8.16046E-04 1.03865E+00-1.55277E-13-3.74688E-13
 -1      1019 2.03730E+01 8.55130E-01-3.00518E-04 1.35281E-01 1.67461E-13-3.65062E-13
 -1      1020 2.03813E+01 9.39613E-01-1.73414E-05 7.60444E-02 1.27632E-13-3.65247E-13
 -1      1021 2.02139E+01 5.35628E-03 3.50308E-06-1.53244E-01 4.95043E-15-2.11139E-13
 -1      1022 1.54628E+01-4.32737E-01 2.43446E-02 3.26929E+00 1.22379E-13-3.03546E-13
 -1      1023 2.02952E+01 2.71452E-02 1.04684E-05 8.30771E-02 2.01005E-14-2.40270E-13
 -1      1024 2.02360E+01 1.22230E-02 2.68327E-06 9.13280E-02-1.06640E-14-1.99455E-13
 -1      1025 2.01726E+01 2.70027E-02-3.62762E-06 9.81223E-02-2.54335E-14-1.70016E-13
 -1      1026 2.01052E+01 6.53062E-02-2.33195E-05 1.06109E-01 4.95940E-14-1.94807E-14
 -1      1027 2.00318E+01 1.23326E-01-1.31936E-05 1.17494E-01-6.16238E-14-8.68797E-14
 -1      1028 1.99494E+01 1.98218E-01-5.38672E-06 1.34076E-01-5.20631E-14-2.14079E-13
 -1      1029 1.98542E+01 2.87601E-01-4.05089E-05 1.57208E-01-1.27937E-13-2.44277E-13
 -1      1030 1.97407E+01 3.90343E-01-7.36119E-05 1.88698E-01-1.59489E-13-1.83712E-13
 -1      1031 1.96033E+01 5.03649E-01-8.63571E-05 2.29599E-01 7.02152E-15 3.47480E-15
 -1      1032 1.94348E+01 6.24233E-01-1.10076E-04 2.81512E-01 1.13852E-13-6.14270E-14
 -1      1033 1.92274E+01 7.46754E-01-1.42652E-04 3.46504E-01 5.65940E-14-1.06615E-13
 -1      1034 1.89718E+01 8.63330E-01-1.89487E-04 4.27778E-01 8.39075E-14-9.63512E-14
 -1      1035 1.86565E+01 9.62916E-01-2.63294E-04 5.30936E-01-1.19621E-13-1.79923E-13
 -1      1036 1.82664E+01 1.03069E+00-4.40556E-04 6.66431E-01 6.00591E-14-3.03160E-13
 -1      1037 1.77826E+01 1.04567E+00-7.86479E-04 8.53398E-01 8.71715E-14-2.94456E-13
 -1      1038 1.71735E+01 9.84388E-01-1.03222E-03 1.12331E+00-2.63226E-14-1.74936E-13
 -1      1039 1.63954E+01 8.06430E-01 1.29166E-03 1.53567E+00 2.76824E-14-2.11111E-13
 -1      1040 1.58390E+01 3.62198E-01 7.29206E-03 2.25880E+00-9.18148E-14-4.02416E-13
 -1      1041 2.03921E+01 1.82904E-01-7.10892E-05 4.85515E-02-8.60306E-14-2.99758E-13
 -1      1042 1.73467E+01 6.70962E-01-2.16008E-04-1.65636E+00 1.17995E-13-1.92692E-13
 -1      1043 1.79627E+01 8.73359E-01-1.46024E-04-1.27426E+00 6.01364E-15-1.25791E-13
 -1      1044 2.03042E+01 1.07441E-01 9.39505E-06-1.08494E-01 5.18341E-14-2.61228E-13
 -1      1045 1.91283E+01 7.89147E-01-1.01685E-04-5.23615E-01-9.75515E-14-2.35666E-13
 -1      1046 1.93461E+01 6.82586E-01-7.85707E-05-4.22712E-01-8.21048E-14-1.56298E-13
 -1      1047 1.85449E+01 9.27958E-01-1.55368E-04-8.15898E-01 3.15961E-14-1.97016E-13
 -1      1048 1.81633E+01 9.19021E-01-2.36019E-04-1.03774E+00-9.96547E-14-2.42463E-13
 -1      1049 1.77152E+01 8.18110E-01 3.88929E-04-1.35415E+00 1.43378E-14-3.02509E-13
 -1      1050 1.72355E+01 5.72629E-01 4.05328E-03-1.82025E+00 1.25436E-13-3.94338E-13
 -1      1051 2.03603E+01 6.41363E-01 1.72092E-04 1.15126E-01 2.00455E-13-2.99693E-13
 -1      1052 2.03844E+01 9.65012E-01-8.15735E-04 5.88792E-03 4.57033E-14-3.47073E-13
 -1      1053 1.88638E+01 8.76592E-01-1.30189E-04-6.51081E-01-6.17795E-14-1.62659E-13
 -1      1054 1.68268E+01 1.76842E-01 3.52178E-03-2.37322E+00 1.38887E-13-3.98647E-13
 -1      1055 1.76855E+01 6.77745E-01-8.93647E-04 1.57985E+00 2.73631E-15-5.30198E-13
 -1      1056 1.97906E+01 3.50918E-01-3.62280E-06-2.28511E-01 3.86631E-14-8.48641E-14
 -1      1057 1.49382E+01 1.01944E+00 9.98455E-03-4.07435E-01 2.16731E-13 1.23598E-13
 -1      1058 1.95247E+01 5.68995E-01-6.04684E-05-3.42199E-01-5.10481E-14-8.01793E-14
 -1      1059 1.80479E+01 1.10896E+00-8.52586E-04 5.81429E-01-3.55577E-13-1.77062E-13
 -1      1060 1.46386E+01 1.07871E+00 4.09247E-03-1.40992E-01 6.37246E-14-1.36476E-13
 -1      1061 2.01669E+01 3.16273E-03-4.29209E-06-1.63660E-01 6.48124E-14-1.97331E-13
 -1      1062 2.04197E+01 3.50423E-01 2.85872E-04 1.41411E-02-6.56727E-14-3.33670E-13
 -1      1063 2.03487E+01 8.01180E-02-3.24658E-05 7.01662E-02-5.17906E-14-2.69488E-13
 -1      1064 1.96706E+01 4.56654E-01-4.40820E-05-2.78296E-01-7.11007E-14-6.43239E-14
 -1      1065 1.71911E+01 5.15690E-02-2.49372E-04 2.42373E+00 7.66575E-14 3.37947E-14
 -1      1066 1.56637E+01 1.00607E+00 4.60106E-03 7.24186E-01 1.10018E-13-3.43953E-13
 -1      1067 2.03812E+01 1.98225E-01-5.34731E-05-5.60832E-02 6.59452E-14-1.92768E-13
 -1      1068 2.01137E+01 5.17083E-02-3.25676E-05-1.30823E-01-1.57374E-14-1.46998E-13
 -1      1069 1.46372E+01 6.39738E-01 2.73906E-03 1.81188E+00-7.23813E-16-1.82887E-13
 -1      1070 2.04056E+01 3.74689E-01-4.38947E-05-8.62787E-03 7.81567E-14-2.71975E-13
 -1      1071 1.98891E+01 2.56102E-01-6.60398E-05-1.90589E-01-3.81830E-14-1.33257E-13
 -1      1072 1.62052E+01 1.11378E+00-1.73022E-03-7.67475E-01 1.96679E-13-3.34681E-13
 -1      1073 2.00475E+01 1.04053E-01 1.19152E-05-1.44221E-01-7.37523E-14-2.20872E-13
 -1      1074 2.03404E+01 8.86373E-02-1.15763E-05-8.53413E-02 6.12288E-14-1.43440E-13
 -1      1075 1.74041E+01 4.24593E-01-1.36559E-04 1.95598E+00-1.90589E-13-2.04887E-13
 -1      1076 1.72942E+01 1.12854E+00 6.19485E-04 4.39577E-01-2.47059E-13-4.85169E-14
 -1      1077 2.02897E+01 2.96264E-02-8.05650E-06-1.02837E-01-8.14194E-15-1.65248E-13
 -1      1078 2.04130E+01 6.06651E-01-1.21302E-05 4.39547E-02 9.13121E-14-3.41337E-13
 -1      1079 1.72857E+01 1.13733E+00-6.07971E-04-3.97458E-01-3.13403E-13-1.00083E-13
 -1      1080 2.02857E+01 2.06164E-02 1.87697E-05 3.42867E-02 5.82313E-14-1.80838E-13
 -1      1081 2.03974E+01 1.57210E-01 4.54452E-06-3.65354E-02 7.15916E-15-2.21683E-13
 -1      1082 1.84356E+01 1.02825E+00-2.43479E-04-4.13058E-01 4.86145E-14-1.05334E-13
 -1      1083 2.02197E+01 2.04834E-02 4.71000E-06 3.72477E-02 4.16747E-15-1.17565E-13
 -1      1084 2.01489E+01 4.83819E-02 3.46847E-05 4.02842E-02 2.11375E-14-8.03807E-14
 -1      1085 2.00712E+01 9.96870E-02 1.11130E-05 4.41807E-02-2.26386E-14-1.20074E-13
 -1      1086 1.99855E+01 1.68862E-01-3.59339E-05 4.95886E-02-7.82810E-14-8.60439E-14
 -1      1087 1.98873E+01 2.55886E-01 2.03280E-04 5.81050E-02-1.24715E-13-8.23224E-14
 -1      1088 1.97703E+01 3.58175E-01 1.33014E-04 6.91412E-02-9.69183E-14-1.07919E-13
 -1      1089 1.96306E+01 4.72405E-01 6.75193E-05 8.29413E-02 8.68153E-15-2.47613E-15
 -1      1090 1.94603E+01 5.97038E-01 8.97742E-05 1.00908E-01 2.98633E-14-3.47670E-14
 -1      1091 1.92506E+01 7.27873E-01 1.15877E-04 1.23412E-01-4.80681E-14-1.76821E-13
 -1      1092 1.89912E+01 8.59200E-01 1.52765E-04 1.51401E-01-5.27502E-14-4.28260E-13
 -1      1093 1.86684E+01 9.83235E-01 2.07545E-04 1.86533E-01-7.16419E-14-5.29292E-13
 -1      1094 1.82637E+01 1.09018E+00 2.84980E-04 2.31706E-01 2.21471E-14-3.60642E-13
 -1      1095 1.77491E+01 1.16996E+00 6.78784E-04 2.90974E-01 5.51684E-14-2.85063E-13
 -1      1096 1.70900E+01 1.21055E+00 2.35124E-03 3.83171E-01 3.83574E-14-3.91836E-13
 -1      1097 1.62247E+01 1.19122E+00 4.79994E-03 5.44246E-01 7.66468E-14-2.54353E-13
 -1      1098 1.70729E+01 1.04876E+00-5.09362E-04-7.92355E-01 2.42037E-14-6.21699E-14
 -1      1099 2.03455E+01 5.74443E-02 2.71017E-05 3.01731E-02 3.05636E-14-2.10634E-13
 -1      1100 2.04453E+01 4.73341E-01 3.63100E-04 4.93007E-04-4.21631E-15-2.86004E-13
 -1      1101 2.01755E+01 1.88888E-02-1.89283E-05-1.21558E-01 7.97039E-14-1.59670E-13
 -1      1102 1.90909E+01 8.09532E-01-1.27839E-04-2.61116E-01-1.44656E-13 2.76743E-14
 -1      1103 1.74037E+01 1.11379E+00-3.64273E-03-6.93210E-01 3.19014E-14-2.76662E-13
 -1      1104 1.79812E+01 1.09648E+00-4.24102E-04-5.29088E-01 1.13633E-14-2.23451E-13
 -1      1105 1.93276E+01 6.83261E-01-9.48522E-05-2.09743E-01-1.15797E-13-4.00893E-14
 -1      1106 1.99738E+01 1.73269E-01 7.64572E-05-1.63251E-01 2.40873E-15-2.43588E-13
 -1      1107 1.95197E+01 5.57473E-01-7.10639E-05-1.69444E-01 3.25940E-14-8.64925E-14
 -1      1108 1.60647E+01 8.74285E-01 8.08886E-04-1.24777E+00 6.17865E-14-7.85819E-14
 -1      1109 2.03968E+01 1.38984E-01 8.91701E-05 2.36732E-02-1.83407E-14-2.38395E-13
 -1      1110 2.04351E+01 5.47864E-01 2.68273E-04 1.41273E-02 3.97843E-14-2.43624E-13
 -1      1111 1.96763E+01 4.37988E-01-6.61368E-05-1.38081E-01-1.97247E-14 3.48215E-14
 -1      1112 1.87985E+01 9.28124E-01-1.73904E-04-3.26980E-01-7.33292E-14-9.86082E-15
 -1      1113 2.04265E+01 3.09984E-01-2.07429E-05-1.54378E-02 2.23610E-14-2.32867E-13
 -1      1114 1.50156E+01 1.07699E+00 1.67469E-02 7.41177E-01 2.09370E-14-5.25448E-15
 -1      1115 2.01595E+01 3.95486E-02 8.79177E-05-6.82906E-02 7.76391E-14-2.38196E-13
 -1      1116 2.04310E+01 2.80348E-01-3.70844E-05 1.17444E-02-3.36025E-14-2.81149E-13
 -1      1117 1.98049E+01 3.28579E-01-7.54728E-05-1.13586E-01-5.47067E-14-3.89956E-14
 -1      1118 1.73645E+01 9.67171E-01 1.97386E-03 1.02203E+00 1.46180E-14-1.94156E-13
 -1      1119 1.65004E+01 7.46806E-01 3.04399E-03 1.51626E+00-2.30505E-14-2.34637E-13
 -1      1120 1.69488E+01 8.68072E-01-1.38929E-04 1.24562E+00 5.54369E-14-2.63017E-13
 -1      1121 1.62567E+01 1.11600E+00-1.12065E-03-1.80834E-01 1.09076E-13 2.28046E-13
 -1      1122 2.02341E+01 9.58150E-03 2.77767E-05-1.13320E-01 2.49353E-14-1.83527E-13
 -1      1123 2.03502E+01 6.56957E-02-3.54800E-05-4.98847E-02-2.38325E-16-1.52026E-13
 -1      1124 2.00868E+01 8.43785E-02-4.34343E-05-7.38600E-02-1.90427E-15-2.56720E-13
 -1      1125 1.68329E+01 1.08628E+00 2.59123E-03 5.65060E-01-3.44629E-14-5.36321E-13
 -1      1126 2.01860E+01 3.12953E-02 4.92086E-06-2.33192E-02 6.05812E-14-1.65212E-13
 -1      1127 1.99348E+01 2.12458E-01-1.70538E-04-3.31432E-02-1.23144E-13-1.55969E-13
 -1      1128 2.03190E+01 3.40354E-02-5.19741E-05-2.01927E-02 3.28127E-14-1.48638E-13
 -1      1129 2.02278E+01 1.64865E-02-3.87891E-06-6.33766E-02 7.29169E-14-2.20460E-13
 -1      1130 2.02551E+01 1.70536E-02-6.70659E-06-2.18346E-02 8.54836E-14-2.23339E-13
 -1      1131 1.64576E+01 1.06339E+00 5.71150E-03 5.89180E-01 5.44470E-14-5.90020E-13
 -1      1132 2.00169E+01 1.42355E-01 7.46252E-05-5.59986E-02-1.05691E-15-2.13931E-13
 -1      1133 2.02818E+01 1.96249E-02 1.97432E-05-6.63507E-02 3.72360E-14-1.49555E-13
 -1      1134 2.79566E+01 9.08454E+00 2.32499E+00-6.69833E+00-7.06102E-14 1.96318E-12
 -1      1135 2.05422E+01 6.22554E+00 2.09505E-01-3.90558E+00-3.68872E-14 8.72913E-14
 -1      1136 1.94315E+01 5.85206E+00 7.52894E-02-2.89023E+00-2.42584E-14-6.74908E-13
 -1      1137 1.90250E+01 5.72561E+00 6.03223E-02-2.23744E+00-1.45474E-14-1.02156E-12
 -1      1138 1.88407E+01 5.66949E+00 5.75965E-02-1.70384E+00-1.01759E-14-1.16211E-12
 -1      1139 1.87490E+01 5.64142E+00 5.56942E-02-1.23613E+00-4.77569E-15-1.20537E-12
 -1      1140 1.87014E+01 5.62661E+00 5.39470E-02-8.05705E-01-2.66627E-15-1.20348E-12
 -1      1141 1.86782E+01 5.61927E+00 5.26901E-02-3.93533E-01 6.57677E-16-1.18312E-12
 -1      1142 1.86716E+01 5.61717E+00 5.22925E-02 8.49405E-03 3.53613E-15-1.15423E-12
 -1      1143 1.86792E+01 5.61961E+00 5.28004E-02 4.10933E-01 6.03424E-15-1.11342E-12
 -1      1144 1.87035E+01 5.62731E+00 5.41750E-02 8.24434E-01 8.54872E-15-1.06062E-12
 -1      1145 1.87528E+01 5.64277E+00 5.63562E-02 1.25741E+00 1.25091E-14-9.68113E-13
 -1      1146 1.88463E+01 5.67144E+00 5.85239E-02 1.72961E+00 1.65284E-14-8.19884E-13
 -1      1147 1.90306E+01 5.72730E+00 6.04084E-02 2.27082E+00 2.15938E-14-5.53516E-13
 -1      1148 1.94279E+01 5.84912E+00 6.91232E-02 2.93078E+00 2.84356E-14-6.90489E-14
 -1      1149 2.04484E+01 6.18044E+00 1.53054E-01 3.88014E+00 3.06977E-14 8.50528E-13
 -1      1150 2.52109E+01 7.99233E+00 1.43008E+00 5.84676E+00 6.25056E-14 2.68444E-12
 -1      1151 2.88057E+01 3.61608E+00 1.27146E+00-4.21707E+00-2.87687E-13 3.15054E-12
 -1      1152 2.02188E+01-1.77675E-01-6.16209E-01-1.10108E-01-9.78870E-14 2.47438E-12
 -1      1153 1.88225E+01-9.63540E-02-2.36359E-01 6.24307E-02-3.30899E-14 1.54290E-12
 -1      1154 1.84865E+01-4.80909E-02-5.96198E-02 4.04336E-02-2.98633E-14 8.93292E-13
 -1      1155 1.84295E+01-2.46169E-02-1.51863E-02 2.67077E-02-2.60237E-14 4.61568E-13
 -1      1156 1.85093E+01-1.30860E-02-4.96868E-03 1.89429E-02-1.74099E-14 1.66103E-13
 -1      1157 1.86542E+01-6.68788E-03-1.51380E-03 1.39609E-02-1.35623E-15-8.52964E-15
 -1      1158 1.88250E+01-2.98413E-03 4.55659E-04 1.04969E-02-1.09979E-14-1.26434E-13
 -1      1159 1.89999E+01-8.44481E-04 1.67649E-03 7.92425E-03-1.66024E-14-3.52962E-13
 -1      1160 1.91666E+01 3.17372E-04 2.27997E-03 5.93641E-03-1.25900E-15-6.17793E-13
 -1      1161 1.93194E+01 8.31908E-04 2.38610E-03 4.37493E-03 1.33263E-14-7.91380E-13
 -1      1162 1.94568E+01 8.96205E-04 2.11185E-03 3.15019E-03-4.62495E-15-8.02444E-13
 -1      1163 1.95804E+01 6.31283E-04 1.54478E-03 2.20809E-03 5.30251E-15-8.42736E-13
 -1      1164 1.96939E+01 1.11046E-04 7.38832E-04 1.51673E-03 7.18778E-15-7.89592E-13
 -1      1165 1.98029E+01-6.21333E-04-2.80097E-04 1.06172E-03-9.68636E-15-8.22844E-13
 -1      1166 1.99144E+01-1.54227E-03-1.50661E-03 8.45494E-04-2.64265E-14-8.43401E-13
 -1      1167 2.00371E+01-2.63809E-03-2.94731E-03 8.88588E-04-1.93777E-15-9.16958E-13
 -1      1168 2.01811E+01-3.89430E-03-4.60986E-03 1.23196E-03-2.19168E-14-9.46277E-13
 -1      1169 2.03583E+01-5.28123E-03-6.48646E-03 1.93922E-03 1.09559E-14-1.22038E-12
 -1      1170 2.05816E+01-6.73298E-03-8.52681E-03 3.09694E-03 3.48131E-14-1.29984E-12
 -1      1171 2.08652E+01-8.11579E-03-1.05926E-02 4.80933E-03-1.57264E-14-1.14711E-12
 -1      1172 2.12234E+01-9.18124E-03-1.23827E-02 7.17918E-03-1.33196E-14-9.99267E-13
 -1      1173 2.16679E+01-9.50204E-03-1.33165E-02 1.02602E-02-3.79319E-15-9.45804E-13
 -1      1174 2.22045E+01-8.39703E-03-1.23752E-02 1.39547E-02-4.07562E-14-1.12269E-12
 -1      1175 2.28258E+01-4.87762E-03-7.94304E-03 1.78195E-02-3.78690E-15-1.29797E-12
 -1      1176 2.35001E+01 2.29599E-03 2.19284E-03 2.07481E-02-2.73430E-15-1.15992E-12
 -1      1177 2.41573E+01 1.42603E-02 2.03134E-02 2.05648E-02 2.43132E-14-9.16937E-13
 -1      1178 2.46734E+01 3.11083E-02 4.70918E-02 1.37804E-02-5.23418E-14-1.26018E-12
 -1      1179 2.48659E+01 5.01461E-02 7.83071E-02-3.80189E-03 4.50911E-14-1.30683E-12
 -1      1180 2.45217E+01 6.37618E-02 1.01103E-01-3.45718E-02-7.04038E-15-1.03020E-12
 -1      1181 2.34834E+01 5.94928E-02 9.40050E-02-7.41261E-02-6.22549E-14-9.37445E-13
 -1      1182 2.17970E+01 2.54558E-02 3.80009E-02-1.06598E-01 3.71550E-14-8.40994E-13
 -1      1183 1.98463E+01-3.53725E-02-6.01598E-02-1.08058E-01 1.52114E-14-4.93966E-13
 -1      1184 1.83098E+01-9.49338E-02-1.54462E-01-6.38987E-02 6.51128E-15-3.27710E-13
 -1      1185 1.78427E+01-1.14299E-01-1.84844E-01 1.21133E-02 1.50071E-14-4.91197E-13
 -1      1186 1.86563E+01-7.91624E-02-1.29734E-01 8.17185E-02 5.14311E-14-6.53394E-13
 -1      1187 2.03670E+01-1.47714E-02-2.73339E-02 1.11838E-01-8.56867E-15-9.18016E-13
 -1      1188 2.22643E+01 3.98712E-02 6.13240E-02 9.84172E-02-2.87413E-14-9.47686E-13
 -1      1189 2.37358E+01 6.44936E-02 1.01924E-01 6.12123E-02 2.92370E-14-6.04586E-13
 -1      1190 2.45049E+01 6.20931E-02 9.79188E-02 2.28597E-02 1.77809E-14-6.30385E-13
 -1      1191 2.46019E+01 4.57637E-02 7.08549E-02-4.42577E-03-4.03523E-14-8.08972E-13
 -1      1192 2.42132E+01 2.68263E-02 4.01621E-02-1.89091E-02-3.34672E-15-8.82350E-13
 -1      1193 2.35481E+01 1.11058E-02 1.57176E-02-2.39554E-02-5.31505E-14-8.60759E-13
 -1      1194 2.27735E+01 8.91178E-05-4.14621E-04-2.36822E-02 1.73380E-15-8.15920E-13
 -1      1195 2.20003E+01-6.97069E-03-1.00629E-02-2.10679E-02 8.89700E-14-4.85261E-13
 -1      1196 2.12956E+01-1.15414E-02-1.62289E-02-1.76146E-02 2.56834E-14-8.19483E-15
 -1      1197 2.07015E+01-1.49978E-02-2.16333E-02-1.34586E-02 1.70035E-14-1.64820E-13
 -1      1198 2.02547E+01-1.78033E-02-2.67680E-02-7.12548E-03-2.17645E-14-4.03956E-14
 -1      1199 2.00048E+01-2.11381E-02-2.36945E-02 5.08758E-03 1.16402E-14 1.45428E-13
 -1      1200 1.99746E+01 8.69078E-03 1.75887E-02 9.00611E-03 7.93644E-14 3.56451E-13
 -1      1201 2.77856E+01 5.25689E-01 3.77344E-01 1.96657E+00-4.88706E-14 4.17572E-12
 -1      1202 2.00762E+01-6.62155E-02-5.73559E-01 1.29543E-01 2.12261E-14 3.43209E-12
 -1      1203 1.88971E+01-4.05907E-02-1.93220E-01 1.94586E-02 2.93168E-14 2.67096E-12
 -1      1204 1.85155E+01-2.14105E-02-5.05431E-02 1.50408E-03 1.35994E-14 2.11216E-12
 -1      1205 1.84422E+01-1.24096E-02-1.33907E-02-4.01666E-03 7.13925E-15 1.73350E-12
 -1      1206 1.85156E+01-7.42366E-03-4.65671E-03-5.44404E-03 3.50392E-15 1.46104E-12
 -1      1207 1.86574E+01-4.37981E-03-1.95619E-03-5.59068E-03 1.28703E-14 1.25930E-12
 -1      1208 1.88267E+01-2.45921E-03-4.22649E-04-5.25306E-03 1.02881E-14 1.07977E-12
 -1      1209 1.90006E+01-1.26246E-03 6.12656E-04-4.68156E-03-4.71547E-16 8.85630E-13
 -1      1210 1.91668E+01-5.65515E-04 1.19872E-03-3.98733E-03 1.63416E-16 7.52938E-13
 -1      1211 1.93194E+01-2.31728E-04 1.38588E-03-3.23454E-03 1.36649E-14 5.68113E-13
 -1      1212 1.94567E+01-1.75293E-04 1.24434E-03-2.46293E-03 7.83700E-15 5.26044E-13
 -1      1213 1.95803E+01-3.43362E-04 8.32216E-04-1.69675E-03 3.34684E-14 3.83472E-13
 -1      1214 1.96939E+01-7.05808E-04 1.84565E-04-9.50666E-04-1.25243E-14 2.70870E-13
 -1      1215 1.98029E+01-1.24832E-03-6.85494E-04-2.34866E-04-6.99788E-15 1.96358E-13
 -1      1216 1.99145E+01-1.96655E-03-1.78195E-03 4.39691E-04-1.32314E-14 2.49369E-13
 -1      1217 2.00372E+01-2.85942E-03-3.11907E-03 1.05515E-03-2.58802E-15 3.33649E-13
 -1      1218 2.01810E+01-3.91985E-03-4.71122E-03 1.57887E-03-1.54417E-14 3.63085E-13
 -1      1219 2.03574E+01-5.12033E-03-6.55616E-03 1.95295E-03 2.05069E-14 2.21727E-13
 -1      1220 2.05793E+01-6.39029E-03-8.60695E-03 2.08035E-03 1.56687E-14 5.02263E-14
 -1      1221 2.08602E+01-7.58033E-03-1.07238E-02 1.80719E-03 2.02353E-14 5.34147E-14
 -1      1222 2.12134E+01-8.40943E-03-1.25944E-02 9.03652E-04-1.93860E-14 2.97546E-13
 -1      1223 2.16497E+01-8.39544E-03-1.36125E-02-9.47534E-04-1.37964E-14 1.95606E-13
 -1      1224 2.21733E+01-6.78554E-03-1.27166E-02-4.13076E-03 2.80706E-14-2.70657E-13
 -1      1225 2.27746E+01-2.54205E-03-8.24342E-03-8.99418E-03-7.67550E-15-2.78250E-13
 -1      1226 2.34203E+01 5.48628E-03 2.03106E-03-1.55747E-02-1.01273E-15-1.66357E-13
 -1      1227 2.40391E+01 1.79782E-02 2.02761E-02-2.30466E-02-1.87094E-14-2.49866E-13
 -1      1228 2.45092E+01 3.39006E-02 4.68311E-02-2.88963E-02-2.34574E-14-3.12845E-13
 -1      1229 2.46550E+01 4.87492E-02 7.69738E-02-2.82669E-02-2.44752E-14-1.72216E-13
 -1      1230 2.42778E+01 5.37118E-02 9.76595E-02-1.47860E-02-7.72472E-15-1.89342E-13
 -1      1231 2.32396E+01 3.87336E-02 8.89871E-02 1.53387E-02 2.51535E-17-3.82402E-13
 -1      1232 2.16016E+01 1.20201E-03 3.59841E-02 5.63903E-02 1.45617E-14-4.46199E-13
 -1      1233 1.97375E+01-4.51026E-02-5.18706E-02 8.95444E-02-2.05556E-14-7.25808E-14
 -1      1234 1.82837E+01-7.42579E-02-1.33403E-01 9.12995E-02 3.11730E-14 2.54949E-13
 -1      1235 1.78437E+01-6.86556E-02-1.59519E-01 5.33440E-02-2.52715E-14 2.76060E-13
 -1      1236 1.86098E+01-3.56940E-02-1.15109E-01-6.61617E-03-2.75613E-14 2.95042E-13
 -1      1237 2.02289E+01 1.60485E-03-3.23572E-02-5.73176E-02 9.85555E-14 3.53328E-14
 -1      1238 2.20438E+01 2.56841E-02 4.06216E-02-7.84261E-02 3.65439E-14-2.59209E-13
 -1      1239 2.34783E+01 3.31789E-02 7.65793E-02-7.07762E-02 1.00918E-14-3.23470E-13
 -1      1240 2.42588E+01 2.94902E-02 7.72308E-02-4.80279E-02-3.69106E-15-3.34059E-13
 -1      1241 2.43977E+01 2.12370E-02 5.85596E-02-2.35964E-02 1.09782E-14 2.95246E-14
 -1      1242 2.40605E+01 1.27719E-02 3.56243E-02-4.67718E-03-1.10377E-13 3.62972E-13
 -1      1243 2.34429E+01 5.91781E-03 1.65489E-02 7.20381E-03 3.64424E-14-1.97928E-13
 -1      1244 2.27062E+01 8.84116E-04 3.40741E-03 1.34343E-02 1.59086E-14-6.24306E-13
 -1      1245 2.19607E+01-2.86998E-03-4.99131E-03 1.61135E-02 1.18922E-14-4.03191E-13
 -1      1246 2.12748E+01-6.15754E-03-1.10589E-02 1.69760E-02 7.03932E-14-6.49560E-13
 -1      1247 2.06927E+01-9.74113E-03-1.71795E-02 1.69277E-02-2.41716E-14-7.32688E-13
 -1      1248 2.02532E+01-1.33008E-02-2.34101E-02 1.51556E-02 1.35896E-14-5.02333E-13
 -1      1249 2.00047E+01-1.16720E-02-2.03720E-02 7.26251E-03 8.09710E-14-1.16564E-12
 -1      1250 1.99783E+01 7.64006E-03 1.78385E-02-7.87186E-03 6.50358E-14-9.14336E-13
 -1      1251 2.00074E+01-2.26332E-02 1.66320E-02-7.42636E-03-1.02307E-12-8.34045E-14
 -1      1252 1.99848E+01 1.04171E-02-2.15065E-02-4.49778E-03-1.38138E-12-8.58159E-14
 -1      1253 1.99864E+01 2.57141E-01-2.18820E-02 9.28206E-03-5.08676E-13-5.13749E-14
 -1      1254 1.99934E+01 6.60947E-01-1.08482E-02 1.50424E-02-7.00370E-13-1.11741E-13
 -1      1255 2.00012E+01 1.13385E+00 1.09305E-03 1.63389E-02-7.14078E-13 2.02814E-16
 -1      1256 2.00084E+01 1.59322E+00 1.13680E-02 1.46769E-02-7.38397E-13 7.00232E-15
 -1      1257 2.00141E+01 1.97619E+00 1.92308E-02 1.12084E-02 3.87919E-14 8.54219E-14
 -1      1258 2.00180E+01 2.23276E+00 2.44293E-02 6.04342E-03 4.61272E-14-1.21715E-14
 -1      1259 2.00194E+01 2.32399E+00 2.63062E-02 8.67431E-05-5.32408E-13 4.06318E-14
 -1      1260 2.00182E+01 2.23718E+00 2.46481E-02-5.90919E-03-4.63969E-13 8.62095E-14
 -1      1261 2.00143E+01 1.98357E+00 1.95719E-02-1.11578E-02-2.80524E-13-1.61329E-13
 -1      1262 2.00088E+01 1.60094E+00 1.17027E-02-1.49594E-02-5.62521E-13 9.15199E-14
 -1      1263 2.00014E+01 1.13965E+00 1.38438E-03-1.65507E-02 1.83782E-13 1.63559E-14
 -1      1264 1.99933E+01 6.62570E-01-1.10322E-02-1.54916E-02 9.21197E-13-2.61967E-14
 -1      1265 1.99858E+01 2.49352E-01-2.40254E-02-1.14392E-02 2.37004E-13-5.16590E-14
 -1      1266 1.99803E+01 1.74336E-02-2.01898E-02 1.00904E-02-2.00590E-13-1.04232E-13
 -1      1267 2.00088E+01-2.55768E-02 1.72655E-02 8.42706E-03-2.65296E-13 4.27197E-14
 -1      1268-1.10762E+00-2.39659E+01-3.71925E+00-2.20477E+00 5.82423E-13 2.37498E-13
 -1      1269-1.81418E+00-1.53671E+01-3.08511E+00-4.07210E+00 1.12887E-12 3.27627E-13
 -1      1270 1.11113E-01-2.92207E+00-1.90837E+00-4.40657E-01 8.68416E-13 5.35905E-13
 -1      1271 9.17519E+00 7.60401E+00-2.76331E-01 8.21408E+00 1.58762E-13 1.05471E-13
 -1      1272 2.69847E+01 1.09474E+01 1.51559E+00 1.64394E+01-1.52101E-14 1.05249E-13
 -1      1273 4.89905E+01 7.28198E+00 3.11064E+00 1.68304E+01 1.43829E-13 2.96430E-13
 -1      1274 6.45971E+01 2.47001E+00 4.11735E+00 7.81165E+00-4.30420E-14-5.21971E-13
 -1      1275 6.55044E+01 2.19443E+00 4.14349E+00-5.35418E+00 1.10943E-13-9.96092E-13
 -1      1276 5.37775E+01 5.93750E+00 3.45051E+00-1.56205E+01 7.00551E-13-2.11053E-12
 -1      1277 3.35217E+01 1.03815E+01 2.03091E+00-1.74860E+01 1.47538E-12-2.51887E-12
 -1      1278 1.43444E+01 9.69792E+00 3.19017E-01-1.14940E+01 2.17848E-12-2.42939E-12
 -1      1279 2.64256E+00 1.89773E+00-1.30485E+00-2.67973E+00 2.46270E-12-1.87084E-12
 -1      1280-1.53004E+00-1.02395E+01-2.62997E+00 3.30227E+00 1.74727E-12-9.55902E-13
 -1      1281-1.44660E+00-2.09681E+01-3.48914E+00 3.52909E+00-4.16112E-13-1.73611E-14
 -1      1282-9.52980E-01-2.50302E+01-3.79759E+00-3.21526E-01-1.44335E-12-1.29015E-13
 -1      1283-1.63407E+00-1.97486E+01-3.42930E+00-3.83151E+00-1.60105E-12-4.33487E-13
 -1      1284-1.05615E+00-7.49402E+00-2.38185E+00-2.20127E+00-2.35501E-12-1.36369E-12
 -1      1285 4.78375E+00 4.46786E+00-9.43741E-01 4.87730E+00-2.63789E-12-2.12452E-12
 -1      1286 1.75598E+01 1.05345E+01 6.65960E-01 1.31763E+01-2.27485E-12-2.70362E-12
 -1      1287 3.51942E+01 1.02276E+01 2.14719E+00 1.78977E+01-1.91513E-12-3.53872E-12
 -1      1288 5.30701E+01 6.12144E+00 3.34900E+00 1.58943E+01-1.14087E-12-3.38063E-12
 -1      1289 6.49540E+01 2.28981E+00 4.07697E+00 7.12208E+00-3.54362E-13-2.52631E-12
 -1      1290 6.63051E+01 1.87160E+00 4.19053E+00-4.82505E+00 1.82614E-13-1.95005E-12
 -1      1291 5.58652E+01 5.48752E+00 3.58014E+00-1.46255E+01 3.32512E-14-6.48370E-13
 -1      1292 3.76407E+01 9.83659E+00 2.35706E+00-1.80729E+01-5.03486E-13 7.50955E-13
 -1      1293 1.85051E+01 1.06559E+01 7.48598E-01-1.35517E+01-9.40803E-13 1.10556E-12
 -1      1294 5.37157E+00 5.19894E+00-7.95992E-01-5.35682E+00-7.64055E-13 7.15428E-13
 -1      1295-7.61318E-01-5.29509E+00-2.17469E+00 1.63545E+00-7.32747E-13 4.29989E-13
 -1      1296-1.81677E+00-1.67561E+01-3.20229E+00 4.21314E+00-6.55809E-13 2.00673E-13
 -1      1297-1.14731E+00-2.41712E+01-3.74669E+00 2.05668E+00 5.41789E-14-1.86691E-14
 -1      1298 2.22597E+01 1.83781E+00-7.25815E-01-2.79127E+00-1.06165E-13 1.53622E-12
 -1      1299 2.03543E+01 4.68953E+00-4.86571E-02-3.30877E+00-2.79610E-13-2.81594E-13
 -1      1300 2.08607E+01 4.80979E+00-1.13462E-01-4.16263E+00-3.64431E-13 1.22707E-13
 -1      1301 1.95291E+01 4.99292E+00-1.95908E-02-2.65685E+00-2.66745E-13-8.38756E-13
 -1      1302 1.98259E+01 5.08946E+00 2.07473E-04-3.04769E+00-3.09142E-13-6.06168E-13
 -1      1303 2.05212E+01 3.95244E+00-2.59149E-02-3.07682E+00-4.87221E-13-2.57308E-13
 -1      1304 1.91837E+01 5.08409E+00-3.61256E-03-2.07266E+00-2.06335E-13-1.08642E-12
 -1      1305 1.93319E+01 5.13900E+00 1.05826E-02-2.36579E+00-2.38278E-13-9.75702E-13
 -1      1306 1.97520E+01 4.36572E+00-2.42733E-02-2.49169E+00-4.19300E-13-7.05727E-13
 -1      1307 1.90107E+01 5.13114E+00 3.33134E-03-1.56694E+00-1.41561E-13-1.19238E-12
 -1      1308 1.90871E+01 5.16072E+00 1.25681E-02-1.81702E+00-1.63957E-13-1.14970E-12
 -1      1309 1.93928E+01 4.55553E+00-1.95242E-02-1.93334E+00-3.08477E-13-9.13245E-13
 -1      1310 1.89193E+01 5.16120E+00 6.65367E-03-1.11874E+00-7.86064E-14-1.21566E-12
 -1      1311 1.89607E+01 5.17724E+00 1.27580E-02-1.34045E+00-1.03397E-13-1.20407E-12
 -1      1312 1.92082E+01 4.66140E+00-1.60400E-02-1.44681E+00-2.10066E-13-1.00027E-12
 -1      1313 1.88690E+01 5.18130E+00 8.24914E-03-6.94903E-01-3.08000E-14-1.20615E-12
 -1      1314 1.88915E+01 5.19000E+00 1.20696E-02-9.05391E-01-4.39293E-14-1.21583E-12
 -1      1315 1.91072E+01 4.72704E+00-1.39291E-02-1.00561E+00-1.06707E-13-1.02517E-12
 -1      1316 1.88458E+01 5.19338E+00 9.33581E-03-2.89636E-01 2.46001E-14-1.18265E-12
 -1      1317 1.88554E+01 5.19712E+00 1.11089E-02-4.92044E-01 7.59375E-15-1.19213E-12
 -1      1318 1.90525E+01 4.76623E+00-1.28940E-02-5.89618E-01-2.34183E-14-1.00705E-12
 -1      1319 1.88422E+01 5.19834E+00 1.02639E-02 1.08379E-01 6.62860E-14-1.14587E-12
 -1      1320 1.88419E+01 5.19821E+00 1.01914E-02-9.15916E-02 5.48278E-14-1.16725E-12
 -1      1321 1.90289E+01 4.78434E+00-1.24574E-02-1.89381E-01 6.52364E-14-9.77225E-13
 -1      1322 1.88571E+01 5.19675E+00 1.11972E-02 5.09425E-01 1.20849E-13-1.10845E-12
 -1      1323 1.88468E+01 5.19273E+00 9.27003E-03 3.06595E-01 1.04903E-13-1.13052E-12
 -1      1324 1.90298E+01 4.78369E+00-1.24773E-02 2.06070E-01 1.38855E-13-9.53640E-13
 -1      1325 1.88947E+01 5.18883E+00 1.21242E-02 9.24262E-01 1.67157E-13-1.04885E-12
 -1      1326 1.88715E+01 5.17998E+00 8.17936E-03 7.12818E-01 1.48816E-13-1.08744E-12
 -1      1327 1.90551E+01 4.76415E+00-1.29640E-02 6.07018E-01 2.21900E-13-9.13797E-13
 -1      1328 1.89650E+01 5.17550E+00 1.29189E-02 1.35795E+00 2.15490E-13-9.46309E-13
 -1      1329 1.89226E+01 5.15901E+00 6.49244E-03 1.13485E+00 1.95730E-13-1.01025E-12
 -1      1330 1.91113E+01 4.72354E+00-1.39882E-02 1.02084E+00 2.95959E-13-8.46816E-13
 -1      1331 1.90957E+01 5.15664E+00 1.28288E-02 1.84294E+00 2.77795E-13-7.79498E-13
 -1      1332 1.90172E+01 5.12660E+00 3.18330E-03 1.59001E+00 2.50977E-13-8.79657E-13
 -1      1333 1.92151E+01 4.65493E+00-1.61366E-02 1.46436E+00 3.83471E-13-7.30166E-13
 -1      1334 1.93420E+01 5.13297E+00 1.01467E-02 2.40013E+00 3.34163E-13-4.88720E-13
 -1      1335 1.91931E+01 5.07621E+00-4.34751E-03 2.10285E+00 3.02171E-13-6.67771E-13
 -1      1336 1.94055E+01 4.54225E+00-1.99799E-02 1.96032E+00 4.69902E-13-5.48530E-13
 -1      1337 1.98512E+01 5.09858E+00 5.98763E-03 3.08601E+00 3.69954E-13 3.37091E-14
 -1      1338 1.95404E+01 4.98392E+00-2.05323E-02 2.69881E+00 3.32630E-13-2.79089E-13
 -1      1339 1.97723E+01 4.34606E+00-2.45682E-02 2.53022E+00 5.38677E-13-2.23266E-13
 -1      1340 2.10969E+01 4.90608E+00 8.22591E-03 4.05539E+00 3.02924E-13 1.01444E-12
 -1      1341 2.03289E+01 4.73313E+00-4.79898E-02 3.41817E+00 2.99427E-13 4.18471E-13
 -1      1342 2.05595E+01 3.91551E+00-2.24422E-02 3.18034E+00 5.41209E-13 3.63154E-13
 -1      1343 2.71952E+01 3.20490E+00 9.29003E-01 4.58269E+00 1.41498E-13 2.80709E-12
 -1      1344 2.20130E+01 3.52162E+00-1.82004E-01 3.88608E+00 1.45634E-13 1.57427E-12
 -1      1345 2.21052E+01 2.56156E+00-3.26142E-02 3.45811E+00 4.84921E-13 1.25003E-12
 -1      1346 2.14187E+01 3.59667E-01-7.63464E-01 1.18472E+00 2.53977E-13 2.71694E-12
 -1      1347 2.19928E+01 1.31434E-01-4.00844E-01-1.28657E+00-3.13125E-13 1.65992E-12
 -1      1348 2.06691E+01 3.06746E-01-1.64839E-01-8.06533E-01-2.81268E-13 1.29372E-12
 -1      1349 2.00709E+01 1.53468E-01-7.35422E-02-4.02932E-01-2.28286E-13 1.14708E-12
 -1      1350 1.96001E+01 9.11935E-02-1.49457E-02-3.30771E-01-2.17736E-13 8.10449E-13
 -1      1351 2.09639E+01 3.69212E-01-1.04236E-01-1.27541E+00-5.00287E-13 5.81455E-13
 -1      1352 1.92421E+01 6.45231E-02 3.02265E-03-1.36132E-01-1.81452E-13 6.92273E-13
 -1      1353 1.90868E+01 4.12952E-02 1.32070E-02-1.18310E-01-1.68039E-13 4.43458E-13
 -1      1354 1.99120E+01 1.33907E-01-3.51646E-02-5.05511E-01-3.84554E-13 3.69375E-13
 -1      1355 1.89258E+01 3.15174E-02 1.32501E-02-2.87700E-02-1.27259E-13 3.38323E-13
 -1      1356 1.89054E+01 1.93813E-02 1.10741E-02-1.94053E-02-1.17598E-13 1.65134E-13
 -1      1357 1.94336E+01 5.54842E-02-8.51652E-03-1.71451E-01-2.85182E-13 1.62351E-13
 -1      1358 1.88488E+01 1.60051E-02 8.80043E-03 2.42380E-02-8.88985E-14 1.01618E-13
 -1      1359 1.88901E+01 9.10661E-03 6.45746E-03 2.88644E-02-8.34170E-14-1.11612E-14
 -1      1360 1.92236E+01 2.43654E-02-3.51370E-03-1.26220E-02-1.98558E-13-1.03901E-14
 -1      1361 1.88897E+01 7.89975E-03 4.70355E-03 5.01260E-02-4.88513E-14-3.25989E-14
 -1      1362 1.89592E+01 3.60206E-03 3.67297E-03 5.20449E-02-3.64258E-14-9.93294E-14
 -1      1363 1.91658E+01 1.02233E-02-2.24018E-03 6.61800E-02-1.28264E-13-7.76228E-14
 -1      1364 1.89885E+01 3.30353E-03 2.48556E-03 6.10977E-02-4.53372E-14-1.17648E-13
 -1      1365 1.90685E+01 5.17965E-04 2.25634E-03 6.14324E-02-5.34276E-14-2.02895E-13
 -1      1366 1.91915E+01 2.91198E-03-1.36540E-03 1.03452E-01-8.69533E-14-1.51126E-13
 -1      1367 1.91125E+01 6.60032E-04 1.38899E-03 6.35912E-02-7.20345E-14-2.25829E-13
 -1      1368 1.91934E+01-1.15161E-03 1.50329E-03 6.30304E-02-7.63333E-14-3.50851E-13
 -1      1369 1.92610E+01-1.02343E-03-6.29900E-04 1.17614E-01-1.23941E-13-2.15184E-13
 -1      1370 1.92434E+01-7.78249E-04 8.19887E-04 6.14306E-02-8.19430E-14-3.99679E-13
 -1      1371 1.93202E+01-1.91771E-03 1.05786E-03 6.04313E-02-7.72220E-14-4.92572E-13
 -1      1372 1.93511E+01-3.01772E-03-1.13061E-04 1.18810E-01-1.47667E-13-2.77637E-13
 -1      1373 1.93711E+01-1.41955E-03 5.01353E-04 5.70836E-02-3.86307E-14-5.56046E-13
 -1      1374 1.94416E+01-2.07351E-03 7.75346E-04 5.59623E-02-1.41781E-14-5.94076E-13
 -1      1375 1.94486E+01-3.77746E-03 1.80328E-04 1.13254E-01-1.13064E-13-3.46305E-13
 -1      1376 1.94913E+01-1.50585E-03 3.17162E-04 5.22337E-02 8.36660E-15-6.51060E-13
 -1      1377 1.95552E+01-1.79789E-03 5.95676E-04 5.12172E-02-2.10189E-14-6.56701E-13
 -1      1378 1.95462E+01-3.69937E-03 2.90435E-04 1.05037E-01-3.77742E-14-4.77519E-13
 -1      1379 1.96030E+01-1.18523E-03 2.14065E-04 4.80859E-02-3.04707E-14-6.30429E-13
 -1      1380 1.96615E+01-1.20072E-03 4.89076E-04 4.73443E-02-1.40133E-16-6.49117E-13
 -1      1381 1.96409E+01-3.01953E-03 2.60249E-04 9.70042E-02-3.80925E-14-4.80249E-13
 -1      1382 1.97079E+01-5.46773E-04 1.62527E-04 4.55527E-02 2.22029E-14-6.40536E-13
 -1      1383 1.97632E+01-3.46603E-04 4.37312E-04 4.52226E-02 1.64698E-14-6.18456E-13
 -1      1384 1.97327E+01-1.87701E-03 1.22027E-04 9.12459E-02-1.18255E-14-4.78653E-13
 -1      1385 1.98099E+01 3.60110E-04 1.42651E-04 4.53766E-02-1.97454E-14-6.00526E-13
 -1      1386 1.98651E+01 7.30539E-04 4.27047E-04 4.55777E-02-2.28101E-14-6.28660E-13
 -1      1387 1.98236E+01-3.46487E-04-1.03366E-04 8.93977E-02-2.13608E-14-4.81308E-13
 -1      1388 1.99145E+01 1.51299E-03 1.38560E-04 4.82134E-02-3.73187E-14-6.22359E-13
 -1      1389 1.99733E+01 2.01628E-03 4.46716E-04 4.90596E-02-5.57967E-14-6.53565E-13
 -1      1390 1.99177E+01 1.54146E-03-4.03845E-04 9.28426E-02-2.58702E-14-4.89293E-13
 -1      1391 2.00284E+01 2.90575E-03 1.35375E-04 5.46837E-02-1.28841E-14-6.48189E-13
 -1      1392 2.00954E+01 3.50471E-03 4.84228E-04 5.62904E-02-3.92221E-14-6.90773E-13
 -1      1393 2.00201E+01 3.78401E-03-7.73087E-04 1.02840E-01-6.73308E-14-4.60740E-13
 -1      1394 2.01600E+01 4.53677E-03 1.16983E-04 6.53942E-02-5.80794E-14-6.84478E-13
 -1      1395 2.02406E+01 5.18474E-03 5.24681E-04 6.78785E-02-2.43471E-14-7.71200E-13
 -1      1396 2.01374E+01 6.38832E-03-1.20739E-03 1.20594E-01-3.27363E-14-4.92649E-13
 -1      1397 2.03188E+01 6.39293E-03 6.41780E-05 8.09174E-02-4.91346E-14-7.87112E-13
 -1      1398 2.04189E+01 7.02042E-03 5.47903E-04 8.43910E-02-4.53321E-14-8.62038E-13
 -1      1399 2.02774E+01 9.34728E-03-1.70191E-03 1.47241E-01-7.17989E-14-5.26460E-13
 -1      1400 2.05154E+01 8.42493E-03-4.66097E-05 1.01713E-01 1.08766E-14-9.19153E-13
 -1      1401 2.06416E+01 8.92054E-03 5.26156E-04 1.06261E-01-2.44828E-14-9.25586E-13
 -1      1402 2.04485E+01 1.26017E-02-2.24541E-03 1.83753E-01-8.11976E-14-5.31493E-13
 -1      1403 2.07611E+01 1.05081E-02-2.42864E-04 1.27958E-01 1.38826E-14-9.60457E-13
 -1      1404 2.09201E+01 1.06909E-02 4.23385E-04 1.33595E-01 6.30572E-16-8.99980E-13
 -1      1405 2.06599E+01 1.59791E-02-2.81244E-03 2.30668E-01-3.10214E-14-7.39805E-13
 -1      1406 2.10669E+01 1.23799E-02-5.51080E-04 1.59229E-01 1.08615E-15-8.26950E-13
 -1      1407 2.12648E+01 1.19620E-02 1.99495E-04 1.65821E-01 4.98265E-14-8.09222E-13
 -1      1408 2.09205E+01 1.90939E-02-3.35082E-03 2.87599E-01 5.26649E-14-7.73087E-13
 -1      1409 2.14422E+01 1.35459E-02-9.82004E-04 1.93968E-01 4.63431E-15-8.29136E-13
 -1      1410 2.16828E+01 1.20870E-02-1.73692E-04 2.01100E-01-5.02046E-14-8.61592E-13
 -1      1411 2.12379E+01 2.11942E-02-3.76183E-03 3.52378E-01 1.61759E-14-7.21007E-13
 -1      1412 2.18911E+01 1.31510E-02-1.49742E-03 2.28653E-01-6.18938E-14-8.12819E-13
 -1      1413 2.21733E+01 1.00223E-02-6.74893E-04 2.35413E-01-2.60258E-14-8.82922E-13
 -1      1414 2.16160E+01 2.09472E-02-3.87016E-03 4.19696E-01-7.22055E-14-6.48183E-13
 -1      1415 2.24084E+01 9.84154E-03-1.94969E-03 2.56614E-01 1.94817E-14-8.79147E-13
 -1      1416 2.27218E+01 4.24629E-03-1.16670E-03 2.61300E-01 3.15102E-15-8.35217E-13
 -1      1417 2.20517E+01 1.61974E-02-3.38376E-03 4.79140E-01-2.26737E-14-5.64930E-13
 -1      1418 2.29717E+01 1.71718E-03-1.99840E-03 2.66689E-01 2.51366E-14-8.53590E-13
 -1      1419 2.32910E+01-7.12189E-03-1.31307E-03 2.66475E-01 3.88697E-14-7.57051E-13
 -1      1420 2.25304E+01 3.85094E-03-1.85641E-03 5.12778E-01 3.12484E-14-4.97263E-13
 -1      1421 2.35325E+01-1.33772E-02-1.05385E-03 2.42358E-01 1.60635E-14-7.14330E-13
 -1      1422 2.38105E+01-2.56678E-02-5.47742E-04 2.33140E-01-6.86495E-15-7.05169E-13
 -1      1423 2.30191E+01-1.97122E-02 1.30096E-03 4.93184E-01 2.21338E-14-4.33861E-13
 -1      1424 2.40062E+01-3.67320E-02 1.61662E-03 1.63081E-01-1.02348E-13-7.13358E-13
 -1      1425 2.41705E+01-5.09867E-02 1.74046E-03 1.40040E-01-1.13347E-13-8.80450E-13
 -1      1426 2.34604E+01-5.69196E-02 6.65233E-03 3.84278E-01-4.97016E-14-4.22926E-13
 -1      1427 2.42693E+01-6.62546E-02 6.36975E-03 1.09061E-02 5.76414E-14-8.75657E-13
 -1      1428 2.42282E+01-7.77052E-02 5.58788E-03-2.92735E-02 1.22657E-13-7.70013E-13
 -1      1429 2.37691E+01-1.05029E-01 1.42283E-02 1.49713E-01-1.17632E-14-4.43372E-13
 -1      1430 2.41731E+01-9.27760E-02 1.21422E-02-2.14349E-01 6.03849E-14-7.76023E-13
 -1      1431 2.38433E+01-9.25072E-02 9.54051E-03-2.68848E-01-5.78357E-15-7.13755E-13
 -1      1432 2.38385E+01-1.50132E-01 2.25153E-02-2.25099E-01 1.23653E-13-3.86283E-13
 -1      1433 2.35937E+01-9.78755E-02 1.56419E-02-4.72778E-01-1.62726E-14-6.29219E-13
 -1      1434 2.29533E+01-7.54566E-02 1.00238E-02-5.26772E-01 6.87644E-15-6.16715E-13
 -1      1435 2.35677E+01-1.63675E-01 2.73289E-02-6.96014E-01 8.44116E-14-4.65532E-13
 -1      1436 2.25207E+01-6.01252E-02 1.17844E-02-6.69522E-01 1.07642E-13-5.17211E-13
 -1      1437 2.16724E+01-1.24208E-02 3.05379E-03-6.95225E-01 1.07324E-13-3.23297E-13
 -1      1438 2.29180E+01-1.10408E-01 2.22162E-02-1.12506E+00 4.85046E-14-2.99993E-13
 -1      1439 2.11570E+01 2.48032E-02-1.46289E-03-6.79167E-01 4.68735E-14-3.57880E-13
 -1      1440 2.03472E+01 8.28189E-02-1.10128E-02-6.49218E-01 4.48747E-14-2.71186E-13
 -1      1441 2.19893E+01 2.01782E-02 2.01463E-03-1.29360E+00 1.23936E-13-2.02319E-13
 -1      1442 1.99331E+01 1.22784E-01-1.81950E-02-4.28520E-01 2.56097E-14-2.94022E-13
 -1      1443 1.94687E+01 1.60240E-01-2.40879E-02-3.42042E-01 7.43676E-15-3.43937E-13
 -1      1444 2.10623E+01 1.83145E-01-2.77240E-02-1.01520E+00 6.37199E-14-3.56536E-13
 -1      1445 1.93399E+01 1.73661E-01-2.67229E-02 1.37200E-02-1.19991E-14-2.27730E-13
 -1      1446 1.94195E+01 1.66256E-01-2.56377E-02 1.18878E-01 1.22281E-14-3.38105E-13
 -1      1447 2.05152E+01 2.88044E-01-4.88646E-02-3.09802E-01 5.57540E-15-1.85513E-13
 -1      1448 1.96366E+01 1.41988E-01-2.09010E-02 4.47649E-01-5.00017E-14-3.44731E-13
 -1      1449 2.02209E+01 9.47396E-02-1.34762E-02 5.19084E-01-6.02608E-14-4.94639E-13
 -1      1450 2.06049E+01 2.67346E-01-4.45284E-02 5.32939E-01-3.60840E-14-1.48867E-13
 -1      1451 2.06742E+01 5.23280E-02-6.36302E-03 6.77911E-01-4.06936E-14-5.06740E-13
 -1      1452 2.15117E+01-5.42906E-03 3.22134E-03 6.88811E-01-4.98993E-14-5.23109E-13
 -1      1453 2.12796E+01 1.34378E-01-1.85472E-02 1.12605E+00-1.15930E-13-3.37013E-13
 -1      1454 2.20034E+01-3.72380E-02 5.96516E-03 6.46054E-01 7.35523E-15-5.97328E-13
 -1      1455 2.27894E+01-7.79632E-02 1.37375E-02 6.07928E-01 1.39515E-14-5.48422E-13
 -1      1456 2.22181E+01-2.76010E-02 9.68481E-03 1.25476E+00-4.94917E-14-2.66221E-13
 -1      1457 2.31550E+01-8.64441E-02 1.04596E-02 4.33610E-01 1.50531E-14-4.78929E-13
 -1      1458 2.36824E+01-1.01323E-01 1.50055E-02 3.76321E-01 9.73310E-14-4.24341E-13
 -1      1459 2.30518E+01-1.37059E-01 2.53636E-02 9.77648E-01-1.81279E-15-1.78359E-13
 -1      1460 2.38502E+01-9.20496E-02 8.59298E-03 1.68246E-01 1.16686E-14-5.52610E-13
 -1      1461 2.40580E+01-8.75907E-02 1.04350E-02 1.16291E-01-1.21956E-13-6.31948E-13
 -1      1462 2.35521E+01-1.67579E-01 2.69933E-02 5.08353E-01 3.59122E-14-3.30238E-13
 -1      1463 2.40361E+01-7.19593E-02 4.47775E-03-5.76892E-02-9.08796E-14-5.90061E-13
 -1      1464 2.39709E+01-5.87404E-02 4.75626E-03-9.35666E-02-6.84054E-14-7.18989E-13
 -1      1465 2.36671E+01-1.41235E-01 2.05723E-02 4.81343E-02-1.07447E-13-3.09220E-13
 -1      1466 2.38080E+01-4.47588E-02 1.11468E-03-2.08085E-01-2.41725E-14-7.45411E-13
 -1      1467 2.35597E+01-3.04494E-02 6.89743E-04-2.27475E-01-2.50091E-14-7.61634E-13
 -1      1468 2.34613E+01-9.30604E-02 1.22285E-02-2.94730E-01-7.65880E-14-4.33920E-13
 -1      1469 2.33127E+01-2.11146E-02-5.45885E-04-2.85677E-01-1.70378E-14-6.30121E-13
 -1      1470 2.29693E+01-9.23655E-03-1.27685E-03-2.92616E-01-1.58500E-14-6.16222E-13
 -1      1471 2.30420E+01-4.73329E-02 5.24470E-03-4.97431E-01 4.31196E-14-5.00897E-13
 -1      1472 2.26866E+01-4.33507E-03-8.34211E-04-3.08869E-01-1.53502E-14-4.03528E-13
 -1      1473 2.23144E+01 4.42240E-03-1.72456E-03-3.07864E-01 1.25094E-13-3.52683E-13
 -1      1474 2.25122E+01-1.36413E-02 4.88633E-04-5.83024E-01 1.35740E-13-1.52460E-13
 -1      1475 2.20310E+01 6.32227E-03-4.45226E-04-2.96789E-01 2.40792E-13-4.78381E-13
 -1      1476 2.16737E+01 1.25888E-02-1.45863E-03-2.91175E-01 1.93525E-13-2.24376E-13
 -1      1477 2.19518E+01 7.88738E-03-2.37665E-03-5.86818E-01 1.97326E-13-4.46388E-15
 -1      1478 2.14129E+01 1.30685E-02-3.98168E-05-2.63072E-01 1.50035E-13-2.77219E-13
 -1      1479 2.10978E+01 1.78479E-02-1.19503E-03-2.54649E-01 5.49972E-14-4.90805E-14
 -1      1480 2.14158E+01 2.10543E-02-4.06633E-03-5.38591E-01 2.01821E-13-1.48755E-13
 -1      1481 2.08748E+01 1.82660E-02-2.04892E-04-2.14609E-01-9.76116E-14-1.44538E-13
 -1      1482 2.06214E+01 2.23876E-02-1.46727E-03-2.03751E-01-6.58074E-14-3.02806E-13
 -1      1483 2.09402E+01 3.04727E-02-5.27828E-03-4.56635E-01-5.59591E-14-1.86545E-13
 -1      1484 2.04466E+01 2.36894E-02-1.30425E-03-1.52879E-01 1.37158E-13-2.17921E-13
 -1      1485 2.02730E+01 2.72289E-02-1.85143E-03-1.38733E-01 7.12538E-14-2.32878E-14
 -1      1486 2.05491E+01 4.01351E-02-6.28446E-03-3.47998E-01 1.76885E-14-2.45430E-13
 -1      1487 2.01509E+01 3.18856E-02-1.73944E-03-7.66194E-02 6.27324E-14 1.35017E-13
 -1      1488 2.00729E+01 2.85397E-02 8.44984E-04-5.94351E-02 9.17922E-14 1.51245E-13
 -1      1489 2.02567E+01 5.22256E-02-6.54120E-03-2.14973E-01 2.69799E-13 1.71952E-14
 -1      1490 1.99968E+01 6.67127E-03 3.56625E-03 6.33748E-03-2.10169E-13 2.63269E-13
 -1      1491 2.00535E+01 4.25698E-02-2.17378E-03-5.50191E-02-8.55835E-14-4.74842E-14
 -1      1492 2.02497E+01 7.54886E-02-1.52117E-01 4.84568E-01 2.31648E-13 2.19166E-12
 -1      1493 2.15210E+01 2.16099E-01-2.29287E-01 7.21585E-01 1.97148E-13 2.54696E-12
 -1      1494 2.17203E+01 8.81852E-01-8.54219E-02 2.06610E+00 3.97495E-13 1.68179E-12
 -1      1495 1.93197E+01 3.23770E-02-2.13440E-02 1.86718E-01 1.80921E-13 1.72633E-12
 -1      1496 1.97414E+01 1.13596E-01-6.27164E-02 2.38716E-01 1.74669E-13 2.00635E-12
 -1      1497 2.02938E+01 1.87712E-01-5.51737E-02 7.87482E-01 3.59317E-13 1.33304E-12
 -1      1498 1.89362E+01 1.50998E-02 5.66629E-03 5.42400E-02 1.34013E-13 1.37047E-12
 -1      1499 1.90758E+01 5.15996E-02 9.70680E-04 8.05265E-02 1.37600E-13 1.57498E-12
 -1      1500 1.95474E+01 7.18372E-02-1.21403E-02 3.00318E-01 2.89437E-13 1.06342E-12
 -1      1501 1.88239E+01 7.12419E-03 6.97877E-03-8.24603E-03 7.58560E-14 1.11809E-12
 -1      1502 1.88396E+01 2.58385E-02 1.10900E-02 6.12543E-03 8.02938E-14 1.26587E-12
 -1      1503 1.92107E+01 3.10328E-02-2.44687E-03 8.48475E-02 2.00437E-13 8.29949E-13
 -1      1504 1.88482E+01 3.23010E-03 4.78475E-03-3.85410E-02 7.19193E-14 9.07607E-13
 -1      1505 1.88055E+01 1.38044E-02 8.52688E-03-3.04437E-02 7.18100E-14 1.01175E-12
 -1      1506 1.90928E+01 1.32834E-02-1.60301E-03-2.01800E-02 1.51268E-13 6.20369E-13
 -1      1507 1.89410E+01 1.10570E-03 3.29208E-03-5.21147E-02 5.68584E-14 7.75474E-13
 -1      1508 1.88714E+01 7.31179E-03 5.37944E-03-4.76461E-02 4.82666E-14 8.51591E-13
 -1      1509 1.90930E+01 4.60460E-03-1.62274E-03-7.18645E-02 1.02438E-13 5.06168E-13
 -1      1510 1.90646E+01-9.13323E-05 2.50202E-03-5.63818E-02 6.49338E-14 6.53471E-13
 -1      1511 1.89851E+01 3.54118E-03 3.44940E-03-5.41361E-02 5.81364E-14 7.31825E-13
 -1      1512 1.91554E+01 3.37055E-05-1.37698E-03-9.49645E-02 9.89514E-14 4.08608E-13
 -1      1513 1.91979E+01-7.23872E-04 2.02493E-03-5.54634E-02 3.30357E-14 5.05861E-13
 -1      1514 1.91177E+01 1.30774E-03 2.35574E-03-5.45802E-02 4.69992E-14 5.75470E-13
 -1      1515 1.92480E+01-2.35898E-03-1.01917E-03-1.02035E-01 9.55502E-14 3.03189E-13
 -1      1516 1.93293E+01-9.81083E-04 1.66275E-03-5.19077E-02 5.13127E-14 3.70453E-13
 -1      1517 1.92534E+01 4.48579E-05 1.68898E-03-5.18155E-02 3.43620E-14 4.51918E-13
 -1      1518 1.93526E+01-3.44832E-03-7.05604E-04-1.00270E-01 9.45687E-14 1.73218E-13
 -1      1519 1.94532E+01-9.74899E-04 1.34734E-03-4.74018E-02 2.59795E-14 3.16519E-13
 -1      1520 1.93836E+01-5.57617E-04 1.24400E-03-4.77001E-02 3.39081E-14 3.58417E-13
 -1      1521 1.94589E+01-3.69831E-03-4.85900E-04-9.41847E-02 7.54727E-14 8.43148E-14
 -1      1522 1.95680E+01-7.74801E-04 1.05857E-03-4.31225E-02 5.15009E-14 2.79204E-13
 -1      1523 1.95049E+01-6.84265E-04 9.32228E-04-4.35157E-02 2.16694E-14 3.16818E-13
 -1      1524 1.95620E+01-3.37984E-03-3.61802E-04-8.68080E-02 3.66802E-14 1.65069E-13
 -1      1525 1.96750E+01-4.23137E-04 7.89115E-04-3.99352E-02 4.25349E-14 1.86323E-13
 -1      1526 1.96172E+01-4.47869E-04 7.12638E-04-4.01921E-02 4.90296E-14 2.53345E-13
 -1      1527 1.96606E+01-2.65714E-03-3.24760E-04-8.02812E-02 7.04619E-14 1.27746E-13
 -1      1528 1.97776E+01 5.64152E-05 5.33589E-04-3.85196E-02 3.05969E-16 1.53501E-13
 -1      1529 1.97230E+01 8.49656E-05 5.62411E-04-3.84453E-02 8.22896E-15 1.37451E-13
 -1      1530 1.97558E+01-1.62807E-03-3.68385E-04-7.62077E-02 6.11813E-14 1.00022E-13
 -1      1531 1.98809E+01 6.53044E-04 2.85864E-04-3.94534E-02-4.45230E-14 1.53945E-13
 -1      1532 1.98265E+01 8.79301E-04 4.66378E-04-3.88704E-02-4.80312E-15 1.71595E-13
 -1      1533 1.98509E+01-3.46173E-04-4.90940E-04-7.58730E-02 2.10728E-16 9.79918E-14
 -1      1534 1.99917E+01 1.36373E-03 3.85826E-05-4.32682E-02-1.90034E-15 1.92371E-13
 -1      1535 1.99337E+01 1.92174E-03 4.12922E-04-4.20011E-02-3.71532E-14 1.54481E-13
 -1      1536 1.99506E+01 1.16447E-03-6.95127E-04-8.03896E-02-1.78228E-14 1.12612E-13
 -1      1537 2.01180E+01 2.18742E-03-2.16586E-04-5.04787E-02-4.38571E-14 1.81503E-13
 -1      1538 2.00518E+01 3.21103E-03 3.91782E-04-4.83459E-02-5.30337E-16 1.78950E-13
 -1      1539 2.00612E+01 2.89650E-03-9.87060E-04-9.07857E-02-3.67967E-15 3.21187E-14
 -1      1540 2.02691E+01 3.11696E-03-4.87997E-04-6.15822E-02 5.32834E-14 1.95586E-13
 -1      1541 2.01896E+01 4.74642E-03 3.92391E-04-5.83931E-02 7.94319E-15 1.77984E-13
 -1      1542 2.01900E+01 4.84468E-03-1.37440E-03-1.08038E-01 2.22446E-15-1.66931E-14
 -1      1543 2.04557E+01 4.12685E-03-7.81990E-04-7.70146E-02 1.99989E-14 4.54788E-14
 -1      1544 2.03569E+01 6.51057E-03 4.02284E-04-7.25784E-02 4.37607E-14 1.28017E-13
 -1      1545 2.03454E+01 6.98572E-03-1.86299E-03-1.33035E-01 7.90844E-14-6.16145E-15
 -1      1546 2.06889E+01 5.15417E-03-1.09857E-03-9.70424E-02 9.71554E-15 3.49495E-14
 -1      1547 2.05644E+01 8.44272E-03 4.05601E-04-9.11937E-02-1.89539E-14 3.03505E-14
 -1      1548 2.05367E+01 9.24774E-03-2.45079E-03-1.66440E-01 2.66193E-15-2.99055E-15
 -1      1549 2.09801E+01 6.06850E-03-1.42217E-03-1.21552E-01-4.72985E-14 1.27441E-13
 -1      1550 2.08235E+01 1.03954E-02 3.82456E-04-1.14207E-01-2.21525E-14 1.12485E-13
 -1      1551 2.07732E+01 1.14623E-02-3.11668E-03-2.08406E-01-3.86668E-14 9.47059E-14
 -1      1552 2.13391E+01 6.62680E-03-1.70310E-03-1.49684E-01-5.09902E-14 2.39876E-13
 -1      1553 2.11447E+01 1.20666E-02 3.11327E-04-1.40943E-01-4.66478E-14 1.41841E-13
 -1      1554 2.10637E+01 1.32889E-02-3.80071E-03-2.58048E-01-9.10858E-14 9.62082E-14
 -1      1555 2.17713E+01 6.41259E-03-1.82358E-03-1.79239E-01 1.47504E-13 3.27793E-14
 -1      1556 2.15357E+01 1.29001E-02 1.78708E-04-1.69570E-01 7.80697E-14 2.08879E-13
 -1      1557 2.14141E+01 1.41022E-02-4.37118E-03-3.12590E-01 7.58874E-14 1.19647E-13
 -1      1558 2.22731E+01 4.77117E-03-1.54466E-03-2.05806E-01 4.26510E-14-2.21906E-13
 -1      1559 2.19982E+01 1.19611E-02 2.67156E-06-1.96322E-01 9.14193E-14-8.15502E-14
 -1      1560 2.18254E+01 1.28450E-02-4.57547E-03-3.66046E-01 1.86637E-13-5.17841E-14
 -1      1561 2.28252E+01 7.86195E-04-4.45166E-04-2.21645E-01-6.40429E-14-1.57888E-13
 -1      1562 2.25218E+01 7.82993E-03-1.23652E-04-2.14501E-01-4.32917E-14-2.22803E-13
 -1      1563 2.22885E+01 7.88454E-03-3.98175E-03-4.07443E-01 1.02637E-14-1.25023E-13
 -1      1564 2.33828E+01-6.58863E-03 2.09116E-03-2.14680E-01 6.26213E-15-9.19976E-14
 -1      1565 2.30769E+01-1.35040E-03 2.48958E-05-2.13482E-01 1.30075E-14-4.09603E-14
 -1      1566 2.27789E+01-2.98864E-03-1.94727E-03-4.18904E-01-3.05916E-14-6.76837E-14
 -1      1567 2.38663E+01-1.80238E-02 6.69605E-03-1.68585E-01-3.63607E-14-7.25375E-14
 -1      1568 2.36047E+01-1.73801E-02 8.30389E-04-1.78537E-01-7.63061E-15-7.14949E-14
 -1      1569 2.32491E+01-2.20961E-02 2.28849E-03-3.74715E-01-9.64116E-15 1.11714E-13
 -1      1570 2.41556E+01-3.26555E-02 1.34078E-02-6.60653E-02 3.72389E-14-1.44810E-13
 -1      1571 2.40097E+01-4.05987E-02 2.70671E-03-9.31591E-02 1.48978E-14-1.39722E-13
 -1      1572 2.36236E+01-5.03660E-02 9.20771E-03-2.44056E-01 5.40236E-14 3.84762E-14
 -1      1573 2.41024E+01-4.62760E-02 2.05059E-02 1.01664E-01-3.56451E-14-1.13923E-13
 -1      1574 2.41607E+01-6.72638E-02 5.64297E-03 5.34779E-02-6.04169E-14-1.66768E-13
 -1      1575 2.37998E+01-8.41821E-02 1.81495E-02-1.84227E-03 1.54494E-14 7.87760E-15
 -1      1576 2.35733E+01-5.00923E-02 2.33839E-02 3.17775E-01 1.45379E-14-1.13676E-13
 -1      1577 2.39147E+01-8.66285E-02 8.41130E-03 2.52056E-01 4.88706E-14-4.66918E-14
 -1      1578 2.36653E+01-1.11191E-01 2.61476E-02 3.47965E-01-4.49467E-15 3.19762E-14
 -1      1579 2.25349E+01-3.33293E-02 1.54622E-02 5.22010E-01 2.22843E-14-1.43961E-13
 -1      1580 2.31763E+01-8.15270E-02 8.06061E-03 4.55797E-01 7.10456E-15-1.83659E-13
 -1      1581 2.31431E+01-1.08768E-01 2.78165E-02 7.40137E-01 4.08128E-14-2.80609E-14
 -1      1582 2.11534E+01 7.67144E-03-6.78140E-03 6.13896E-01-7.11443E-14-1.04139E-13
 -1      1583 2.19902E+01-3.77829E-02 1.19421E-03 5.77083E-01-4.12487E-14-1.99993E-13
 -1      1584 2.22623E+01-5.36862E-02 1.78748E-02 1.03095E+00-1.83013E-16 3.92117E-14
 -1      1585 1.98287E+01 5.87426E-02-3.62794E-02 5.00866E-01-9.68522E-14 1.30063E-13
 -1      1586 2.06175E+01 3.86657E-02-1.21444E-02 5.21738E-01-8.14990E-14-5.87794E-14
 -1      1587 2.12219E+01 5.49044E-02-2.87921E-03 1.03937E+00-1.43306E-13 1.11383E-13
 -1      1588 1.90660E+01 9.00065E-02-5.53755E-02 1.80093E-01 6.07119E-14 2.56491E-13
 -1      1589 1.95071E+01 1.12676E-01-2.52580E-02 2.60867E-01 5.04943E-14 2.29788E-13
 -1      1590 2.03727E+01 1.73408E-01-2.45890E-02 6.64442E-01-3.51143E-14 1.63557E-13
 -1      1591 1.91984E+01 7.95887E-02-4.83168E-02-2.21902E-01-1.21536E-13 3.24255E-13
 -1      1592 1.91013E+01 1.39774E-01-2.80936E-02-1.15223E-01-3.91978E-14 2.42775E-13
 -1      1593 2.00642E+01 2.29229E-01-3.42386E-02 6.92479E-03-3.99646E-14 3.11409E-13
 -1      1594 2.01611E+01 3.50799E-02-1.85759E-02-5.20036E-01 7.42635E-15 1.66291E-13
 -1      1595 1.95721E+01 1.04252E-01-1.66260E-02-4.36787E-01 4.12968E-14 2.43791E-13
 -1      1596 2.04297E+01 1.79540E-01-2.78000E-02-6.48094E-01 4.85983E-14 1.79318E-13
 -1      1597 2.15343E+01-1.40775E-02 1.43372E-02-6.01604E-01 2.13563E-13-1.20084E-13
 -1      1598 2.07055E+01 3.31302E-02 1.78177E-03-5.71257E-01 1.42262E-13 1.23949E-13
 -1      1599 2.12934E+01 5.62846E-02-1.28325E-02-1.01722E+00 1.69636E-13-6.09478E-14
 -1      1600 2.28140E+01-4.39248E-02 3.31339E-02-4.85111E-01 2.85744E-14-1.61191E-13
 -1      1601 2.20436E+01-3.13024E-02 1.58365E-02-5.03844E-01 4.21763E-14-1.52593E-13
 -1      1602 2.22942E+01-6.43476E-02 5.84077E-04-1.00323E+00 1.76984E-13-5.31415E-14
 -1      1603 2.36629E+01-4.97450E-02 3.46094E-02-2.69804E-01-3.35773E-14-2.21139E-13
 -1      1604 2.31488E+01-6.45711E-02 1.99189E-02-3.14178E-01 1.50773E-14-2.34493E-13
 -1      1605 2.30981E+01-1.28336E-01 7.81466E-03-7.07944E-01 4.73788E-14-7.56131E-14
 -1      1606 2.39847E+01-4.02096E-02 2.55433E-02-5.33812E-02-9.44037E-15-2.92492E-14
 -1      1607 2.37819E+01-6.74417E-02 1.60137E-02-1.00561E-01-5.69215E-14-1.61975E-13
 -1      1608 2.35299E+01-1.31784E-01 9.52207E-03-3.11438E-01-5.33653E-14 1.50288E-14
 -1      1609 2.38547E+01-2.56788E-02 1.40447E-02 1.10205E-01-1.09137E-13 1.30295E-13
 -1      1610 2.39165E+01-5.30228E-02 9.06542E-03 7.29511E-02-2.62455E-14-1.62782E-14
 -1      1611 2.35749E+01-1.00222E-01 8.22689E-03 4.43581E-02-9.38832E-14 9.67976E-14
 -1      1612 2.34184E+01-1.25905E-02 4.81921E-03 2.08594E-01 3.24480E-14 2.03492E-13
 -1      1613 2.36575E+01-3.38708E-02 2.91754E-03 1.84577E-01-8.80294E-14 2.08701E-13
 -1      1614 2.33146E+01-5.99715E-02 6.02168E-03 2.94418E-01-1.49802E-13 1.66467E-13
 -1      1615 2.28188E+01-3.17289E-03-8.94650E-04 2.52142E-01-1.02904E-14-8.85420E-14
 -1      1616 2.31506E+01-1.70616E-02-9.32321E-04 2.39577E-01 1.17362E-13 1.35846E-13
 -1      1617 2.28606E+01-2.59753E-02 3.97298E-03 4.33524E-01 1.03971E-13 3.42113E-13
 -1      1618 2.21660E+01 2.80969E-03-3.73069E-03 2.57435E-01 1.09536E-13-1.87482E-13
 -1      1619 2.25267E+01-4.77058E-03-2.61913E-03 2.53101E-01 9.35194E-14-1.36332E-13
 -1      1620 2.23141E+01-2.54191E-03 2.39141E-03 4.84643E-01 1.46577E-13 1.59635E-13
 -1      1621 2.15348E+01 6.50242E-03-4.90938E-03 2.38551E-01 2.15431E-15-2.73512E-13
 -1      1622 2.18821E+01 3.55691E-03-2.92467E-03 2.39721E-01 4.14046E-15-2.85737E-13
 -1      1623 2.17513E+01 1.17777E-02 1.16055E-03 4.75601E-01 6.88087E-14-4.61913E-14
 -1      1624 2.09735E+01 9.19050E-03-5.66696E-03 2.04174E-01 1.07241E-14-3.96145E-13
 -1      1625 2.12806E+01 9.54790E-03-2.71592E-03 2.09316E-01 1.01875E-13-2.79169E-13
 -1      1626 2.12244E+01 2.03455E-02-7.79368E-05 4.27849E-01 1.34576E-13-1.66755E-13
 -1      1627 2.05168E+01 1.19967E-02-6.77088E-03 1.57344E-01-1.05308E-13-2.42762E-13
 -1      1628 2.07639E+01 1.50637E-02-2.72500E-03 1.66357E-01-7.13587E-14-4.12720E-13
 -1      1629 2.07685E+01 2.67565E-02-1.74099E-03 3.53190E-01-5.42205E-14 7.41156E-14
 -1      1630 2.01955E+01 1.55035E-02-7.07255E-03 9.67216E-02 8.23419E-14-4.07437E-13
 -1      1631 2.03629E+01 2.15283E-02-3.02012E-03 1.11173E-01 9.07946E-14-2.83980E-13
 -1      1632 2.04079E+01 3.42663E-02-3.65465E-03 2.54871E-01 6.10202E-14-6.17464E-14
 -1      1633 2.00362E+01 1.79893E-02 8.93680E-04 2.78873E-02-1.42177E-14-8.31741E-13
 -1      1634 2.01032E+01 2.57158E-02-1.81166E-03 4.54095E-02 7.45279E-14-7.26157E-13
 -1      1635 2.01581E+01 4.10098E-02-4.35808E-03 1.33514E-01 3.03381E-13-3.40886E-13
 -1      1636 2.00005E+01 7.61199E-03 4.22339E-03-2.95655E-03-5.07264E-13-5.98561E-13
 -1      1637 2.00262E+01 1.51198E-01-3.66854E-03 7.87504E-02-5.23004E-13 1.35400E-13
 -1      1638 2.00287E+01 7.61149E-02 1.41935E-03 6.06616E-02-6.63822E-13-1.89384E-14
 -1      1639 2.00171E+01 4.24900E-01-2.26911E-03 1.43644E-01-1.84458E-13 3.87984E-14
 -1      1640 2.00233E+01 2.65482E-01-2.46482E-03 1.32340E-01-3.09840E-13 2.68383E-15
 -1      1641 2.00494E+01 2.54934E-01-4.82077E-03 2.07059E-01-7.02586E-14 2.54725E-13
 -1      1642 2.00057E+01 7.85785E-01-7.09340E-04 1.81116E-01-3.64530E-13-3.25332E-14
 -1      1643 2.00127E+01 5.75900E-01-1.67382E-03 1.76099E-01-2.51463E-13-1.54965E-14
 -1      1644 2.00269E+01 5.18388E-01-4.03214E-03 3.10064E-01 5.40496E-14-2.14210E-14
 -1      1645 1.99949E+01 1.17821E+00 1.82821E-04 1.88348E-01-3.08325E-13 1.58450E-13
 -1      1646 2.00015E+01 9.54932E-01-6.63592E-04 1.89347E-01-3.83558E-13 1.05546E-13
 -1      1647 2.00071E+01 8.36980E-01-9.57558E-04 3.58282E-01-2.75656E-14 7.78467E-14
 -1      1648 1.99858E+01 1.53888E+00 5.11845E-04 1.68200E-01-1.75250E-13 1.50892E-13
 -1      1649 1.99913E+01 1.33931E+00-1.24390E-04 1.74186E-01-4.34401E-13 3.72528E-14
 -1      1650 1.99891E+01 1.16535E+00 2.10900E-03 3.50339E-01-1.69170E-13-5.79126E-14
 -1      1651 1.99786E+01 1.82962E+00 6.26668E-04 1.24379E-01-1.51454E-13 3.31445E-14
 -1      1652 1.99829E+01 1.67593E+00 2.28683E-04 1.34636E-01-2.49715E-13 1.83561E-13
 -1      1653 1.99745E+01 1.46138E+00 4.69663E-03 2.92661E-01-1.49958E-13 2.23981E-14
 -1      1654 1.99745E+01 2.00348E+00 6.18860E-04 6.35203E-02-1.00444E-13 1.87957E-15
 -1      1655 1.99768E+01 1.92041E+00 4.15733E-04 7.64982E-02-7.01453E-14 2.05213E-14
 -1      1656 1.99637E+01 1.68729E+00 6.66311E-03 1.94147E-01-1.57502E-13 8.77610E-14
 -1      1657 1.99738E+01 2.03685E+00 5.51488E-04-6.06757E-03-3.15832E-13-1.01017E-13
 -1      1658 1.99739E+01 2.03581E+00 5.52515E-04 7.90784E-03-1.78909E-13-7.00438E-15
 -1      1659 1.99579E+01 1.80948E+00 7.73426E-03 6.90424E-02-6.03472E-14-1.83051E-13
 -1      1660 1.99766E+01 1.92481E+00 4.19061E-04-7.50117E-02-2.95377E-13 1.06009E-13
 -1      1661 1.99744E+01 2.00619E+00 6.38158E-04-6.19183E-02-4.59600E-13 1.17354E-13
 -1      1662 1.99577E+01 1.81119E+00 7.76942E-03-6.57094E-02-9.84578E-14-3.62440E-14
 -1      1663 1.99825E+01 1.68232E+00 2.11478E-04-1.33965E-01-3.88124E-13-1.98012E-13
 -1      1664 1.99784E+01 1.83522E+00 6.89318E-04-1.23545E-01-2.25279E-13-3.05977E-14
 -1      1665 1.99631E+01 1.69193E+00 6.74382E-03-1.91898E-01-2.63197E-13 1.76911E-13
 -1      1666 1.99909E+01 1.34871E+00-5.36087E-05-1.74204E-01-1.49910E-13 2.80712E-13
 -1      1667 1.99853E+01 1.54848E+00 5.77931E-04-1.68019E-01-2.84947E-13 6.13374E-14
 -1      1668 1.99739E+01 1.46996E+00 4.87266E-03-2.91634E-01-1.58029E-13 4.60981E-15
 -1      1669 2.00013E+01 9.59448E-01-6.29648E-04-1.90583E-01 2.43298E-13 8.16346E-14
 -1      1670 1.99946E+01 1.18418E+00 2.19482E-04-1.89442E-01-3.51993E-14 3.86253E-13
 -1      1671 1.99885E+01 1.17405E+00 2.21630E-03-3.51431E-01-5.02198E-14 3.96580E-13
 -1      1672 2.00125E+01 5.77594E-01-1.75431E-03-1.77916E-01 3.04583E-13-1.01728E-13
 -1      1673 2.00055E+01 7.89275E-01-6.82937E-04-1.82581E-01 3.75800E-13-3.34552E-14
 -1      1674 2.00067E+01 8.41294E-01-9.17335E-04-3.60843E-01 8.20520E-14 5.40196E-14
 -1      1675 2.00256E+01 2.69743E-01-6.19355E-04-1.33873E-01 8.05090E-14-1.49934E-13
 -1      1676 2.00164E+01 4.26912E-01-2.30121E-03-1.45363E-01 2.69172E-13-7.28024E-14
 -1      1677 2.00270E+01 5.20928E-01-3.90907E-03-3.12342E-01 5.68686E-15-2.39462E-13
 -1      1678 2.00458E+01 1.07802E-01 3.24631E-03-9.40252E-02-2.29443E-13-4.02147E-13
 -1      1679 2.00423E+01 1.85874E-01-1.95580E-03-1.20539E-01 1.45482E-13-3.29995E-13
 -1      1680 2.00684E+01 2.88330E-01-3.91502E-03-2.50062E-01 1.10745E-13-3.02108E-13
 -1      1681 2.01304E+01 1.37389E-01 7.13995E-04-1.87143E-01 2.63164E-13-3.04488E-13
 -1      1682-6.01786E-01-1.45361E+01-1.66158E+00-9.61939E-01 4.93383E-13 2.33980E-13
 -1      1683-5.85705E-01-1.65744E+01-1.83213E+00 3.20731E-01 1.99618E-13 1.77858E-13
 -1      1684 1.28862E+00-8.31737E+00-1.21966E+00 4.08294E-01 6.29830E-13 2.77611E-13
 -1      1685 6.06361E-01-1.32129E+01-1.69908E+00-1.01807E-01 5.27578E-13 1.88290E-13
 -1      1686 6.35488E+00-7.28157E-01-6.07363E-01 4.20310E+00 3.13083E-13 1.34115E-13
 -1      1687 3.44627E+00-6.31024E+00-1.36724E+00 1.39767E+00 6.30829E-13 1.56541E-13
 -1      1688 1.79290E+01 4.55257E+00 2.60489E-01 9.61940E+00 4.79616E-14-5.91749E-14
 -1      1689 1.10931E+01 8.40143E-01-6.78371E-01 5.73239E+00 2.05169E-13 4.44089E-14
 -1      1690 3.26225E+01 6.49512E+00 1.07254E+00 1.26921E+01 7.21645E-15 2.42473E-13
 -1      1691 2.28288E+01 6.20085E+00 1.25924E-01 1.06284E+01-4.50751E-14 6.72795E-14
 -1      1692 4.74238E+01 4.64892E+00 1.62528E+00 9.28223E+00 1.10755E-13 5.06262E-14
 -1      1693 3.81168E+01 6.36506E+00 9.41015E-01 1.14364E+01 1.02113E-13 2.00839E-13
 -1      1694 5.49270E+01 3.39483E+00 1.88240E+00 2.24538E+00 1.18822E-13-3.19633E-13
 -1      1695 5.12866E+01 4.50042E+00 1.66208E+00 7.50164E+00 1.40499E-13-6.01741E-14
 -1      1696 5.18030E+01 4.28280E+00 1.62709E+00-5.78701E+00 4.35568E-13-9.19043E-13
 -1      1697 5.44014E+01 3.60315E+00 1.81027E+00-4.57221E-01 2.02172E-13-6.35186E-13
 -1      1698 4.22531E+01 6.06520E+00 1.18961E+00-1.13607E+01 8.06077E-13-1.52178E-12
 -1      1699 4.98264E+01 4.34085E+00 1.73727E+00-8.42011E+00 5.87391E-13-1.16995E-12
 -1      1700 2.77070E+01 6.22114E+00 3.88949E-01-1.10281E+01 1.20559E-12-1.56763E-12
 -1      1701 3.73871E+01 5.76401E+00 1.21324E+00-1.19067E+01 8.94729E-13-1.62159E-12
 -1      1702 1.44458E+01 3.62671E+00-3.90899E-01-7.66856E+00 1.54787E-12-1.56053E-12
 -1      1703 2.19723E+01 5.91733E+00 4.91262E-01-1.10424E+01 1.39133E-12-1.62315E-12
 -1      1704 6.35405E+00-3.28602E+00-1.04266E+00-3.14951E+00 1.40910E-12-1.12466E-12
 -1      1705 1.05893E+01 1.50302E+00-2.71609E-01-6.46286E+00 1.47926E-12-1.45273E-12
 -1      1706 1.37024E+00-1.05810E+01-1.61134E+00-8.26511E-02 5.67546E-13-7.79571E-13
 -1      1707 2.68562E+00-5.15283E+00-1.02621E+00-1.53721E+00 1.32161E-12-1.11666E-12
 -1      1708-2.36641E-01-1.56280E+01-1.80122E+00 3.42911E-02-5.66658E-13-3.38563E-13
 -1      1709-1.16574E-01-1.21827E+01-1.50686E+00 7.11183E-01 2.55795E-13-6.32799E-13
 -1      1710-7.50805E-01-1.59034E+01-1.74502E+00-8.37002E-01-9.89875E-13-1.49131E-13
 -1      1711-7.39203E-01-1.62032E+01-1.77864E+00 7.11951E-01-7.61086E-13-1.47354E-13
 -1      1712 2.17175E-01-1.08441E+01-1.35409E+00-3.27454E-01-1.37801E-12-6.99246E-13
 -1      1713-2.56188E-02-1.48893E+01-1.72584E+00 2.62980E-02-1.12110E-12-3.40783E-13
 -1      1714 4.82769E+00-3.29960E+00-7.28410E-01 3.10666E+00-1.76681E-12-1.37368E-12
 -1      1715 2.68763E+00-9.00773E+00-1.36106E+00 9.96086E-01-1.41709E-12-8.97671E-13
 -1      1716 1.25888E+01 3.29585E+00-8.49455E-02 7.61429E+00-1.86162E-12-1.67810E-12
 -1      1717 7.71170E+00-9.63124E-01-8.82088E-01 4.14284E+00-1.95977E-12-1.43219E-12
 -1      1718 2.46140E+01 6.15777E+00 6.24716E-01 1.15849E+01-1.58962E-12-2.57594E-12
 -1      1719 1.71330E+01 4.59681E+00-1.82904E-01 8.74902E+00-1.74039E-12-2.08622E-12
 -1      1720 3.79598E+01 6.04348E+00 1.27236E+00 1.23242E+01-1.38595E-12-2.72626E-12
 -1      1721 2.95257E+01 6.69794E+00 5.62269E-01 1.18189E+01-1.53688E-12-2.69607E-12
 -1      1722 4.94155E+01 4.45857E+00 1.74146E+00 8.80971E+00-9.02275E-13-2.53819E-12
 -1      1723 4.23132E+01 6.01630E+00 1.22873E+00 1.13668E+01-1.23723E-12-2.74580E-12
 -1      1724 5.51104E+01 3.40043E+00 1.91345E+00 2.03819E+00-3.11196E-13-2.09963E-12
 -1      1725 5.20826E+01 4.26792E+00 1.71734E+00 6.77650E+00-6.72656E-13-2.40696E-12
 -1      1726 5.32245E+01 4.01149E+00 1.75029E+00-5.50257E+00-5.03486E-14-1.59073E-12
 -1      1727 5.53669E+01 3.42661E+00 1.92039E+00-4.41006E-01-9.67837E-14-1.98966E-12
 -1      1728 4.37798E+01 5.71402E+00 1.23385E+00-1.03078E+01-3.59754E-13-5.99742E-13
 -1      1729 5.03263E+01 4.20893E+00 1.68284E+00-7.22295E+00-1.13409E-13-1.24956E-12
 -1      1730 3.06674E+01 6.86066E+00 6.14470E-01-1.20040E+01-3.84692E-13 1.83409E-13
 -1      1731 3.98251E+01 5.84755E+00 1.34135E+00-1.21148E+01-2.32814E-13-2.19158E-13
 -1      1732 1.79079E+01 4.48570E+00-1.66170E-01-8.79892E+00-4.59410E-13 3.38285E-13
 -1      1733 2.57211E+01 5.98807E+00 6.67371E-01-1.16131E+01-3.94351E-13 3.88134E-13
 -1      1734 8.22513E+00-5.02399E-01-8.70831E-01-4.48121E+00-2.44027E-13 3.63820E-13
 -1      1735 1.31118E+01 3.41374E+00-8.63158E-02-7.86084E+00-3.96128E-13 5.68212E-13
 -1      1736 2.72766E+00-7.65532E+00-1.43901E+00-8.92020E-01-4.21996E-13 2.22766E-13
 -1      1737 4.92228E+00-2.42264E+00-7.83019E-01-3.11631E+00-4.49862E-13 2.55407E-13
 -1      1738 3.01350E-01-1.39000E+01-1.76944E+00 3.43403E-01-3.36398E-13 1.74485E-13
 -1      1739 7.66154E-01-9.50513E+00-1.33500E+00 1.36067E-01-4.76952E-13 2.04822E-13
 -1      1740-5.81043E-01-1.65530E+01-1.82024E+00-3.06050E-01 1.51532E-13 2.02616E-13
 -1      1741-5.74216E-01-1.47921E+01-1.66625E+00 9.13365E-01-1.07470E-13 2.18492E-13
 -1      1742 2.47867E+01 7.29161E-01 2.60651E-01 7.22901E+00 7.73825E-14 8.14904E-14
 -1      1743 1.41728E+01-3.35715E+00-3.30381E-01 6.38024E+00 1.41887E-13-1.42775E-13
 -1      1744 2.00285E+01 2.50357E-02-1.41433E-03 2.58301E-02-6.29207E-13-4.02955E-13
 -1      1745 2.00688E+01 9.88057E-02-1.11476E-03 1.03653E-01-2.79902E-14-2.84920E-14
 -1      1746 5.44999E-01-1.01947E+01-1.16855E+00 2.29595E+00 1.27676E-13 1.20515E-13
 -1      1747 5.52238E+00-7.31922E+00-8.92771E-01 4.35582E+00 1.94955E-13-2.63747E-14
 -1      1748-1.29387E+00-1.12647E+01-1.28305E+00 4.45661E-02 1.01669E-13 3.67373E-13
 -1      1749 3.56190E+01 4.45576E+00 9.31590E-01 6.58082E+00 1.87073E-14 1.42886E-13
 -1      1750 4.38728E+01 6.48144E+00 1.36200E+00 3.89656E+00 2.63484E-13 6.25056E-14
 -1      1751 4.68872E+01 7.41890E+00 1.54152E+00 5.05802E-01 4.14557E-13-1.95649E-13
 -1      1752 4.47839E+01 6.97492E+00 1.44490E+00-3.27259E+00 6.56586E-13-6.78124E-13
 -1      1753 3.82173E+01 4.96506E+00 1.03956E+00-5.81517E+00 7.33913E-13-9.88432E-13
 -1      1754 2.83093E+01 2.11636E+00 4.87416E-01-7.21560E+00 8.21454E-13-9.94316E-13
 -1      1755 1.77467E+01-1.75198E+00-1.60527E-01-6.80322E+00 7.88480E-13-9.14935E-13
 -1      1756 8.86502E+00-5.66543E+00-6.30325E-01-5.32249E+00 4.95270E-13-9.84851E-13
 -1      1757 2.15588E+00-9.15446E+00-1.08710E+00-3.03911E+00 9.37028E-14-1.09196E-12
 -1      1758-9.40753E-01-1.09514E+01-1.25331E+00-9.86438E-01-4.12864E-13-5.64992E-13
 -1      1759-6.29507E-01-1.05514E+01-1.19339E+00 1.39484E+00-7.10182E-13-3.84248E-13
 -1      1760 3.82226E+00-8.16844E+00-8.52749E-01 4.05439E+00-8.96061E-13-7.92449E-13
 -1      1761 1.08508E+01-4.94313E+00-6.00435E-01 5.75624E+00-1.07359E-12-1.02895E-12
 -1      1762 1.97556E+01-5.02671E-01-2.04196E-02 7.13422E+00-1.25389E-12-1.53400E-12
 -1      1763 2.96652E+01 2.84293E+00 5.77034E-01 7.48408E+00-1.13148E-12-2.06957E-12
 -1      1764 3.86369E+01 5.21104E+00 1.08665E+00 6.32205E+00-1.12613E-12-2.13296E-12
 -1      1765 4.51538E+01 6.65263E+00 1.46704E+00 3.76958E+00-8.83849E-13-2.07684E-12
 -1      1766 4.77367E+01 7.24909E+00 1.62023E+00 3.47235E-01-4.10061E-13-1.77287E-12
 -1      1767 4.52439E+01 6.91889E+00 1.41176E+00-2.73448E+00-4.44644E-13-1.34903E-12
 -1      1768 3.94429E+01 5.51805E+00 1.11745E+00-5.69349E+00-3.96537E-13-1.05882E-12
 -1      1769 3.05976E+01 2.86810E+00 5.94316E-01-7.28866E+00-1.01696E-13-3.61378E-13
 -1      1770 2.06287E+01-4.54093E-01 4.75310E-02-7.15325E+00 4.88498E-15-8.51541E-14
 -1      1771 1.13529E+01-4.21835E+00-5.28299E-01-5.82039E+00-4.70735E-14 1.69864E-14
 -1      1772 4.38407E+00-7.99429E+00-9.92010E-01-3.94953E+00-1.78302E-13 1.08198E-13
 -1      1773 8.50593E-02-1.05207E+01-1.24776E+00-1.93952E+00-7.80487E-14 4.00180E-13
 -1      1774 2.28524E+01 1.98479E+00-2.35655E-02-2.72341E+00-3.70523E-13 1.22310E-12
 -1      1775 1.98238E+01 3.71339E+00-3.54484E-02-2.15482E+00-4.41792E-13-6.09447E-13
 -1      1776 2.00553E+01 3.56236E+00-4.02588E-02-2.44704E+00-5.12482E-13-4.82149E-13
 -1      1777 2.03594E+01 3.18134E+00-4.57649E-02-2.58680E+00-5.21516E-13-3.07955E-13
 -1      1778 2.05782E+01 2.80957E+00-1.42558E-01-2.85497E+00-5.64895E-13-4.95159E-14
 -1      1779 2.04207E+01 2.69267E+00-4.25077E-03-2.22634E+00-5.49613E-13-3.60816E-13
 -1      1780 1.93582E+01 4.18880E+00-2.00355E-02-1.27200E+00-2.21225E-13-8.27650E-13
 -1      1781 1.94312E+01 4.14911E+00-1.68900E-02-1.49658E+00-2.77083E-13-8.08763E-13
 -1      1782 1.92629E+01 4.29489E+00-1.67528E-02-8.60665E-01-1.04511E-13-8.35327E-13
 -1      1783 1.93051E+01 4.27083E+00-1.42433E-02-1.07162E+00-1.58792E-13-8.38440E-13
 -1      1784 1.95308E+01 3.78315E+00-8.93357E-03-1.12075E+00-2.11433E-13-8.05172E-13
 -1      1785 1.92124E+01 4.35541E+00-1.48020E-02-4.67402E-01-1.59551E-15-8.09063E-13
 -1      1786 1.92339E+01 4.34249E+00-1.33161E-02-6.67914E-01-5.06941E-14-8.25342E-13
 -1      1787 1.94348E+01 3.90346E+00-9.14986E-03-7.34060E-01-8.94606E-14-7.97997E-13
 -1      1788 1.91935E+01 4.38106E+00-1.36799E-02-8.37568E-02 1.01418E-13-7.81623E-13
 -1      1789 1.91997E+01 4.37712E+00-1.32283E-02-2.79437E-01 5.38639E-14-7.99439E-13
 -1      1790 1.93854E+01 3.96797E+00-9.14464E-03-3.58753E-01 2.88859E-14-7.78197E-13
 -1      1791 1.92014E+01 4.37573E+00-1.31854E-02 2.98511E-01 1.96520E-13-7.64748E-13
 -1      1792 1.91940E+01 4.38022E+00-1.37655E-02 1.02662E-01 1.48335E-13-7.77562E-13
 -1      1793 1.93709E+01 3.98740E+00-9.13700E-03 1.05628E-02 1.32393E-13-7.60596E-13
 -1      1794 1.92379E+01 4.33844E+00-1.33449E-02 6.87740E-01 2.83367E-13-7.27555E-13
 -1      1795 1.92152E+01 4.35221E+00-1.49276E-02 4.86711E-01 2.46728E-13-7.53574E-13
 -1      1796 1.93881E+01 3.96464E+00-9.18341E-03 3.80090E-01 2.40239E-13-7.29817E-13
 -1      1797 1.93102E+01 4.26488E+00-1.44245E-02 1.08583E+00 3.76538E-13-6.51919E-13
 -1      1798 1.92675E+01 4.28946E+00-1.69809E-02 8.77668E-01 3.29553E-13-6.92914E-13
 -1      1799 1.94400E+01 3.89706E+00-9.18911E-03 7.52699E-01 3.30826E-13-6.85221E-13
 -1      1800 1.94400E+01 4.13750E+00-1.74171E-02 1.51620E+00 4.83246E-13-5.23824E-13
 -1      1801 1.93645E+01 4.18021E+00-2.05029E-02 1.28652E+00 4.24191E-13-5.96247E-13
 -1      1802 1.95382E+01 3.77301E+00-9.24229E-03 1.13686E+00 4.33996E-13-5.89919E-13
 -1      1803 1.96670E+01 3.92084E+00-2.52061E-02 1.98151E+00 5.67906E-13-3.55133E-13
 -1      1804 1.95353E+01 3.99772E+00-2.68929E-02 1.72410E+00 5.15962E-13-4.62401E-13
 -1      1805 1.97096E+01 3.56582E+00-8.70067E-03 1.53693E+00 5.34863E-13-4.56385E-13
 -1      1806 2.00731E+01 3.52249E+00-4.51961E-02 2.47395E+00 6.29276E-13-3.40353E-14
 -1      1807 1.98343E+01 3.68302E+00-3.97053E-02 2.18489E+00 5.91715E-13-2.25386E-13
 -1      1808 2.00036E+01 3.22267E+00-5.27182E-03 1.93647E+00 6.11944E-13-2.58876E-13
 -1      1809 2.09159E+01 2.68164E+00-5.76576E-02 2.85943E+00 5.81109E-13 5.74658E-13
 -1      1810 2.04098E+01 3.09675E+00-5.04111E-02 2.61781E+00 5.95248E-13 2.07612E-13
 -1      1811 2.05141E+01 2.60978E+00 3.18571E-03 2.24645E+00 6.29626E-13 1.02168E-13
 -1      1812 2.17247E+01 1.21300E+00-1.22090E-01 2.33118E+00 4.78319E-13 1.29097E-12
 -1      1813 2.12690E+01 2.26295E+00 1.23945E-04 2.74196E+00 5.31464E-13 8.22814E-13
 -1      1814 2.09321E+01 1.68498E+00-2.29747E-02 2.14192E+00 5.90351E-13 5.62432E-13
 -1      1815 2.09455E+01 7.78686E-01-6.24713E-02 1.52556E+00 4.91919E-13 1.12667E-12
 -1      1816 2.17909E+01 2.45814E+00 9.09272E-02-3.04956E+00-4.96650E-13 4.21718E-13
 -1      1817 2.00939E+01 2.97923E-01-8.92956E-03 6.58435E-01 3.98528E-13 8.88081E-13
 -1      1818 2.06465E+01 4.40406E-01-1.24696E-02 1.03543E+00 4.26520E-13 1.02920E-12
 -1      1819 2.07385E+01 8.45130E-01 2.25979E-03 1.41676E+00 5.02060E-13 7.03045E-13
 -1      1820 2.15017E+01 1.74228E+00 7.94339E-02-2.33870E+00-5.32206E-13 2.29636E-13
 -1      1821 2.05143E+01 5.00572E-01 3.23935E-02-9.23293E-01-4.34253E-13 1.64858E-13
 -1      1822 2.00821E+01 3.52084E-01 7.55518E-03-6.31435E-01-3.69167E-13 6.65908E-14
 -1      1823 1.98874E+01 2.57425E-01 2.74225E-02-3.92856E-01-3.35187E-13 4.79608E-14
 -1      1824 1.96960E+01 1.78042E-01 1.04226E-02-2.55018E-01-3.04491E-13-4.26430E-14
 -1      1825 2.01934E+01 4.83469E-01-5.98467E-03-7.24664E-01-4.19753E-13-1.18947E-13
 -1      1826 1.95739E+01 1.32681E-01 1.66717E-02-1.21533E-01-2.60186E-13-5.48468E-14
 -1      1827 1.94953E+01 9.31047E-02 6.98006E-03-5.07307E-02-1.96078E-13-1.18593E-13
 -1      1828 1.98672E+01 2.43801E-01-5.80067E-03-2.97464E-01-3.34163E-13-1.53559E-13
 -1      1829 1.94304E+01 6.85493E-02 8.70335E-03 2.29302E-02-1.47886E-13-1.34489E-13
 -1      1830 1.94156E+01 4.70178E-02 4.14582E-03 5.92515E-02-1.14285E-13-1.64081E-13
 -1      1831 1.96843E+01 1.25382E-01-4.66625E-03-6.05707E-02-2.08203E-13-2.06780E-13
 -1      1832 1.93898E+01 3.28491E-02 4.27145E-03 9.83438E-02-1.08181E-13-1.82649E-13
 -1      1833 1.94095E+01 2.06315E-02 2.49878E-03 1.15472E-01-9.75543E-14-2.23397E-13
 -1      1834 1.95980E+01 6.15073E-02-3.50861E-03 6.96454E-02-1.51619E-13-2.60094E-13
 -1      1835 1.94085E+01 1.22316E-02 1.91110E-03 1.34116E-01-1.25801E-13-2.36456E-13
 -1      1836 1.94461E+01 5.37590E-03 1.56189E-03 1.40202E-01-1.36553E-13-2.53919E-13
 -1      1837 1.95746E+01 2.52669E-02-2.40441E-03 1.37334E-01-1.41932E-13-2.62228E-13
 -1      1838 1.94599E+01 5.24931E-04 6.36889E-04 1.46808E-01-1.49925E-13-2.37945E-13
 -1      1839 1.95057E+01-2.98723E-03 1.01359E-03 1.46698E-01-1.43525E-13-2.72305E-13
 -1      1840 1.95901E+01 4.66084E-03-1.53457E-03 1.67882E-01-1.60674E-13-2.69322E-13
 -1      1841 1.95279E+01-5.49552E-03-4.98095E-05 1.46603E-01-1.51277E-13-2.39940E-13
 -1      1842 1.95762E+01-6.79781E-03 7.06280E-04 1.43413E-01-1.05663E-13-2.85599E-13
 -1      1843 1.96284E+01-6.27290E-03-9.31191E-04 1.76855E-01-1.44360E-13-2.34502E-13
 -1      1844 1.96030E+01-7.68108E-03-3.91424E-04 1.40185E-01-9.44544E-14-3.35123E-13
 -1      1845 1.96511E+01-7.44981E-03 5.72019E-04 1.36039E-01-6.18937E-14-3.73921E-13
 -1      1846 1.96791E+01-1.08228E-02-5.53786E-04 1.74377E-01-1.60887E-13-2.59157E-13
 -1      1847 1.96803E+01-7.15602E-03-5.15858E-04 1.32173E-01-3.29072E-14-4.02489E-13
 -1      1848 1.97272E+01-5.80281E-03 5.75057E-04 1.28589E-01-1.78707E-14-3.82436E-13
 -1      1849 1.97363E+01-1.09352E-02-3.50697E-04 1.67354E-01-7.75031E-14-3.39258E-13
 -1      1850 1.97579E+01-4.61434E-03-4.98213E-04 1.25910E-01-3.10721E-14-4.02838E-13
 -1      1851 1.98042E+01-2.38343E-03 6.94717E-04 1.24035E-01-3.22142E-14-4.20567E-13
 -1      1852 1.97971E+01-7.79780E-03-2.78935E-04 1.60718E-01-4.12978E-14-3.52352E-13
 -1      1853 1.98365E+01-4.73470E-04-3.86282E-04 1.23955E-01-3.26157E-14-4.19619E-13
 -1      1854 1.98836E+01 2.50247E-03 9.18949E-04 1.24712E-01 1.94099E-16-4.06607E-13
 -1      1855 1.98609E+01-2.12766E-03-3.06734E-04 1.58159E-01-4.23723E-14-3.73705E-13
 -1      1856 1.99185E+01 5.03382E-03-2.12065E-04 1.28393E-01-3.76842E-14-4.37157E-13
 -1      1857 1.99686E+01 8.69527E-03 1.24065E-03 1.32583E-01-6.94942E-14-4.31988E-13
 -1      1858 1.99287E+01 5.66715E-03-4.11327E-04 1.62607E-01-3.76856E-14-3.29042E-13
 -1      1859 2.00075E+01 1.17921E-02 1.90466E-06 1.41045E-01-5.96524E-14-4.62120E-13
 -1      1860 2.00636E+01 1.61189E-02 1.65402E-03 1.49405E-01-3.50102E-14-4.18945E-13
 -1      1861 2.00030E+01 1.53771E-02-5.76034E-04 1.76532E-01-7.84957E-14-4.44870E-13
 -1      1862 2.01084E+01 1.97401E-02 2.38230E-04 1.63580E-01-3.83179E-14-4.41987E-13
 -1      1863 2.01741E+01 2.47131E-02 2.14988E-03 1.76804E-01-4.60370E-14-4.41616E-13
 -1      1864 2.00872E+01 2.68942E-02-7.87697E-04 2.02134E-01-6.67098E-14-4.14411E-13
 -1      1865 2.02272E+01 2.87954E-02 4.81197E-04 1.97534E-01-7.95230E-14-4.69168E-13
 -1      1866 2.03065E+01 3.43445E-02 2.70885E-03 2.16245E-01-8.81753E-14-4.53182E-13
 -1      1867 2.01858E+01 4.01023E-02-1.03445E-03 2.41397E-01-8.80543E-14-4.04434E-13
 -1      1868 2.03705E+01 3.87487E-02 7.13727E-04 2.44207E-01-1.10793E-13-5.03788E-13
 -1      1869 2.04678E+01 4.46747E-02 3.29126E-03 2.68852E-01-1.22505E-13-5.17430E-13
 -1      1870 2.03037E+01 5.47276E-02-1.30381E-03 2.96011E-01-1.39822E-13-4.17236E-13
 -1      1871 2.05454E+01 4.91057E-02 9.14772E-04 3.04380E-01-1.19973E-13-5.56831E-13
 -1      1872 2.06651E+01 5.49589E-02 3.82241E-03 3.35028E-01-5.83663E-14-6.12470E-13
 -1      1873 2.04465E+01 7.01156E-02-1.58137E-03 3.67088E-01-1.29296E-13-4.72156E-13
 -1      1874 2.07593E+01 5.88415E-02 1.05773E-03 3.77778E-01 4.30181E-14-6.31881E-13
 -1      1875 2.09053E+01 6.37378E-02 4.17241E-03 4.13747E-01 1.12556E-13-6.43190E-13
 -1      1876 2.06198E+01 8.48889E-02-1.85049E-03 4.54605E-01-6.18521E-14-4.97343E-13
 -1      1877 2.10184E+01 6.60339E-02 1.11130E-03 4.62139E-01 9.04118E-14-5.92089E-13
 -1      1878 2.11933E+01 6.83910E-02 4.13232E-03 5.01396E-01-1.16224E-14-5.85675E-13
 -1      1879 2.08289E+01 9.64333E-02-2.09346E-03 5.56431E-01 1.08863E-13-4.71585E-13
 -1      1880 2.13275E+01 6.73527E-02 1.04529E-03 5.51748E-01-5.00171E-14-4.83627E-13
 -1      1881 2.15309E+01 6.45611E-02 3.39435E-03 5.89994E-01-2.07842E-15-4.57202E-13
 -1      1882 2.10784E+01 1.00178E-01-2.29396E-03 6.66789E-01 4.29493E-14-4.15319E-13
 -1      1883 2.16873E+01 5.74605E-02 8.43716E-04 6.35288E-01-2.90777E-14-3.96413E-13
 -1      1884 2.19140E+01 4.55952E-02 1.55670E-03 6.64742E-01 6.23609E-14-3.21900E-13
 -1      1885 2.13710E+01 8.87308E-02-2.43849E-03 7.74003E-01 4.46566E-14-3.00352E-13
 -1      1886 2.20923E+01 2.85930E-02 5.23622E-04 6.93105E-01 5.38575E-14-3.50582E-13
 -1      1887 2.23294E+01 2.49575E-03-1.80488E-03 7.01200E-01 3.73613E-14-3.22390E-13
 -1      1888 2.17068E+01 5.12193E-02-2.50831E-03 8.57549E-01 5.36774E-14-1.86799E-13
 -1      1889 2.25271E+01-2.89216E-02 1.43401E-04 6.94520E-01 7.41852E-14-3.41765E-13
 -1      1890 2.27512E+01-7.44412E-02-6.92951E-03 6.63313E-01 4.45867E-14-3.20057E-13
 -1      1891 2.20815E+01-2.61859E-02-2.44227E-03 8.84947E-01 7.71145E-14-2.70546E-13
 -1      1892 2.29615E+01-1.23594E-01-2.43960E-04 5.97294E-01-2.11606E-14-3.01893E-13
 -1      1893 2.31366E+01-1.90149E-01-1.34357E-02 5.05401E-01-5.89979E-15-2.51780E-13
 -1      1894 2.24846E+01-1.56410E-01-2.03959E-03 8.10239E-01 3.12892E-14-2.75045E-13
 -1      1895 2.33451E+01-2.54616E-01-7.28687E-04 3.53784E-01 9.92262E-15-1.84328E-13
 -1      1896 2.34248E+01-3.33019E-01-1.96628E-02 1.83932E-01 6.95034E-14-1.57941E-13
 -1      1897 2.28940E+01-3.40872E-01-7.85487E-04 5.78145E-01 4.45152E-14-4.96693E-14
 -1      1898 2.36027E+01-3.96956E-01-1.81802E-03-6.86298E-02 1.13401E-13-1.81143E-13
 -1      1899 2.35398E+01-4.57822E-01-2.22421E-02-3.13378E-01 1.34173E-13-1.71743E-13
 -1      1900 2.32684E+01-5.49460E-01 2.21796E-03 1.41363E-01 7.20656E-14 4.85420E-14
 -1      1901 2.36384E+01-4.84880E-01-4.56431E-03-6.46055E-01 7.52939E-14-2.40947E-13
 -1      1902 2.34067E+01-4.76227E-01-1.68348E-02-9.19394E-01-8.46545E-16-2.89770E-13
 -1      1903 2.35360E+01-6.96709E-01 7.51467E-03-4.99687E-01 7.41299E-14-7.32739E-14
 -1      1904 2.33659E+01-4.15019E-01-8.88925E-03-1.24489E+00 1.06496E-13-2.58295E-13
 -1      1905 2.29887E+01-2.84835E-01-1.56096E-03-1.44334E+00 1.74562E-13-1.46107E-13
 -1      1906 2.35957E+01-6.43282E-01 1.32879E-02-1.23516E+00 1.44918E-13-1.19331E-13
 -1      1907 2.27779E+01-1.05026E-01-1.29735E-02-1.60129E+00 1.00643E-13-1.35057E-13
 -1      1908 2.23496E+01 1.39418E-01 1.66036E-02-1.59164E+00 7.47193E-14-8.57231E-14
 -1      1909 2.33594E+01-2.59939E-01 1.43497E-02-1.79822E+00 1.38428E-13 8.96332E-14
 -1      1910 2.20425E+01 3.85150E-01-1.04496E-02-1.42297E+00 5.16505E-14-3.51507E-14
 -1      1911 2.17102E+01 6.28872E-01 2.41445E-02-1.13513E+00 1.40018E-13 1.75797E-14
 -1      1912 2.28584E+01 4.03573E-01 7.67776E-04-1.81891E+00 1.09374E-13 1.72532E-13
 -1      1913 2.14945E+01 7.97007E-01 2.57879E-03-6.33297E-01 4.35346E-14 2.85535E-14
 -1      1914 2.13921E+01 8.76913E-01 1.44932E-02-1.57205E-01 4.83433E-14 1.26010E-13
 -1      1915 2.23439E+01 1.03940E+00-2.09182E-02-1.08123E+00 1.02477E-13 3.22547E-13
 -1      1916 2.14293E+01 8.43078E-01 1.91620E-02 4.55046E-01-5.16774E-15 2.59836E-14
 -1      1917 2.15988E+01 6.98444E-01-2.42753E-03 8.93311E-01-7.04419E-14-2.23146E-14
 -1      1918 2.21666E+01 1.24350E+00-2.93536E-02 1.81437E-01-8.60770E-15 2.21045E-13
 -1      1919 2.18547E+01 4.88757E-01 2.36001E-02 1.30612E+00-1.12478E-13-5.13495E-14
 -1      1920 2.22193E+01 2.26395E-01-1.27936E-02 1.50894E+00-1.44348E-13-4.82739E-14
 -1      1921 2.24571E+01 8.72221E-01-1.45458E-02 1.33795E+00-1.44624E-13 2.37844E-13
 -1      1922 2.25027E+01-1.20198E-02 1.11490E-02 1.56507E+00-1.03061E-13-8.24982E-14
 -1      1923 2.29141E+01-2.29640E-01-1.30252E-02 1.49640E+00-4.56731E-14-8.84553E-14
 -1      1924 2.29853E+01 1.80521E-01 5.73924E-03 1.84118E+00-7.91025E-14 1.68471E-13
 -1      1925 2.30637E+01-3.74768E-01-7.36443E-03 1.26469E+00-4.36803E-15-3.89732E-14
 -1      1926 2.33857E+01-4.65922E-01-8.21037E-03 1.02609E+00 1.25545E-13 1.35753E-13
 -1      1927 2.33997E+01-4.21350E-01 1.44807E-02 1.61239E+00 4.96198E-14 1.63451E-13
 -1      1928 2.33655E+01-4.95861E-01-1.96247E-02 6.79200E-01 6.34241E-14-3.36849E-14
 -1      1929 2.35250E+01-4.78013E-01-4.03800E-03 4.01640E-01-6.98452E-14-1.06021E-13
 -1      1930 2.35174E+01-7.00060E-01 1.19145E-02 9.50041E-01-2.24803E-14 7.77353E-14
 -1      1931 2.33809E+01-4.35118E-01-2.22027E-02 8.13805E-02-7.27265E-14-1.68756E-14
 -1      1932 2.33719E+01-3.64867E-01-1.98280E-03-1.48340E-01-1.91071E-14-1.33405E-14
 -1      1933 2.33546E+01-6.79039E-01 5.83214E-03 2.09718E-01-1.83568E-14-3.72136E-14
 -1      1934 2.31634E+01-2.97999E-01-1.80346E-02-3.76782E-01-9.24538E-14-6.68968E-14
 -1      1935 2.30215E+01-2.21286E-01-1.10435E-03-5.27383E-01 7.74554E-16-7.06739E-14
 -1      1936 2.30121E+01-5.01320E-01 1.20002E-03-3.88752E-01-8.55184E-14 1.16594E-13
 -1      1937 2.27912E+01-1.60172E-01-1.13653E-02-6.56938E-01 3.45054E-14-3.74267E-16
 -1      1938 2.25653E+01-9.90874E-02-5.35071E-04-7.33163E-01 1.51982E-13 7.62112E-14
 -1      1939 2.25843E+01-2.93797E-01-1.16876E-03-7.74523E-01 7.21992E-14 2.67613E-13
 -1      1940 2.23372E+01-5.41629E-02-5.07123E-03-7.83497E-01 1.89771E-13 5.75234E-14
 -1      1941 2.20723E+01-1.30730E-02 1.50936E-04-8.04010E-01 1.78338E-13 2.08694E-13
 -1      1942 2.21334E+01-1.22241E-01-2.15555E-03-9.65641E-01 1.35812E-13 3.70363E-13
 -1      1943 2.18588E+01 1.62285E-02-3.32052E-04-7.99881E-01 1.16758E-13 2.84741E-13
 -1      1944 2.15893E+01 4.13799E-02 1.03833E-03-7.83646E-01 1.45200E-13 2.71091E-13
 -1      1945 2.16951E+01-3.00128E-03-2.53226E-03-1.01167E+00 1.54851E-13 3.23651E-13
 -1      1946 2.13969E+01 5.98211E-02 2.68819E-03-7.45026E-01 7.97786E-14 1.87389E-13
 -1      1947 2.11466E+01 7.54776E-02 2.07335E-03-7.05617E-01 6.18702E-14-6.02129E-14
 -1      1948 2.12893E+01 7.26263E-02-2.69532E-03-9.61277E-01 5.77858E-14 3.90536E-13
 -1      1949 2.09784E+01 8.84125E-02 4.21343E-03-6.45038E-01-1.18232E-13-1.60976E-13
 -1      1950 2.07630E+01 1.00515E-01 3.07910E-03-5.89590E-01-1.84910E-13-1.51128E-13
 -1      1951 2.09279E+01 1.21325E-01-2.75962E-03-8.49684E-01-1.13628E-13-5.38425E-14
 -1      1952 2.06200E+01 1.12238E-01 4.48458E-03-5.13223E-01-4.86076E-14-2.73179E-13
 -1      1953 2.04502E+01 1.24231E-01 3.79381E-03-4.43781E-01 7.93905E-14-2.30739E-13
 -1      1954 2.06173E+01 1.58848E-01-2.55219E-03-6.97123E-01-2.19229E-13-1.62955E-13
 -1      1955 2.03448E+01 1.31312E-01 4.02832E-03-3.58922E-01 2.30593E-13-2.86616E-13
 -1      1956 2.02236E+01 1.41252E-01 4.63043E-03-2.79875E-01 3.66453E-13-8.62774E-14
 -1      1957 2.01875E+01 1.97884E-01-2.25211E-03-3.29795E-01 2.47067E-13-3.81848E-13
 -1      1958 2.03708E+01 1.87910E-01-3.31021E-03-5.18648E-01 1.39931E-13-2.90839E-13
 -1      1959 1.96103E+01 1.42018E-01 7.87626E-03 2.60835E-01 3.16337E-13 6.93980E-13
 -1      1960 1.98829E+01 2.04072E-01 1.64363E-02 4.33795E-01 3.32012E-13 8.24138E-13
 -1      1961 2.00956E+01 3.50535E-01-1.52446E-03 6.56647E-01 4.12514E-13 5.61639E-13
 -1      1962 1.93671E+01 7.19597E-02 6.94587E-03 5.78057E-02 2.09470E-13 5.20486E-13
 -1      1963 1.94826E+01 1.01813E-01 1.42036E-02 1.46316E-01 2.48089E-13 6.29394E-13
 -1      1964 1.97022E+01 1.65202E-01-1.94668E-03 2.57871E-01 3.18388E-13 4.20034E-13
 -1      1965 1.92760E+01 3.63104E-02 4.43624E-03-4.78835E-02 1.62212E-13 3.79514E-13
 -1      1966 1.93066E+01 5.20704E-02 8.35251E-03-6.13499E-04 1.82221E-13 4.61946E-13
 -1      1967 1.95015E+01 8.08152E-02-2.83459E-03 4.56812E-02 2.35661E-13 2.78844E-13
 -1      1968 1.92742E+01 1.65804E-02 2.88234E-03-1.00909E-01 1.01932E-13 2.78294E-13
 -1      1969 1.92592E+01 2.53513E-02 4.38098E-03-7.60912E-02 1.21298E-13 3.38484E-13
 -1      1970 1.94224E+01 3.78322E-02-2.86045E-03-6.67187E-02 1.63822E-13 1.52756E-13
 -1      1971 1.93222E+01 5.27032E-03 2.02898E-03-1.24022E-01 1.29712E-13 2.00805E-13
 -1      1972 1.92836E+01 1.01699E-02 2.19662E-03-1.12183E-01 9.53602E-14 2.38044E-13
 -1      1973 1.94165E+01 1.43651E-02-2.34183E-03-1.23265E-01 1.31309E-13 5.97606E-14
 -1      1974 1.93958E+01-1.05250E-03 1.51627E-03-1.29972E-01 1.05992E-13 1.30912E-13
 -1      1975 1.93464E+01 1.50678E-03 1.02630E-03-1.25743E-01 1.25930E-13 1.93363E-13
 -1      1976 1.94527E+01 1.32326E-03-1.73904E-03-1.47556E-01 1.40544E-13 4.16744E-14
 -1      1977 1.94807E+01-4.16995E-03 1.17695E-03-1.26591E-01 1.10963E-13 4.47732E-14
 -1      1978 1.94276E+01-3.10170E-03 3.91282E-04-1.26626E-01 9.76560E-14 9.97527E-14
 -1      1979 1.95117E+01-5.51018E-03-1.24218E-03-1.53380E-01 1.46259E-13 1.70182E-14
 -1      1980 1.95687E+01-5.10404E-03 9.50512E-04-1.19026E-01 2.61612E-14 6.06048E-14
 -1      1981 1.95159E+01-5.01738E-03 5.86940E-05-1.21088E-01 7.11695E-14 4.22781E-14
 -1      1982 1.95816E+01-8.34560E-03-8.84945E-04-1.49435E-01 8.93697E-14 2.96900E-14
 -1      1983 1.96560E+01-4.47531E-03 8.14405E-04-1.10837E-01 6.75754E-14 8.78647E-14
 -1      1984 1.96051E+01-5.05043E-03-8.38330E-05-1.13347E-01 4.05852E-14 9.72396E-14
 -1      1985 1.96558E+01-8.45081E-03-6.50815E-04-1.41541E-01 3.93557E-14 5.56741E-14
 -1      1986 1.97417E+01-2.66491E-03 7.58326E-04-1.04615E-01 6.21491E-14 9.59975E-14
 -1      1987 1.96928E+01-3.69830E-03-9.66534E-05-1.06398E-01 7.61911E-14 9.79476E-14
 -1      1988 1.97312E+01-6.58830E-03-5.16643E-04-1.33798E-01 6.35962E-14 3.08981E-14
 -1      1989 1.98274E+01 1.01334E-04 7.76894E-04-1.02355E-01 4.72332E-14 7.26477E-14
 -1      1990 1.97793E+01-1.26241E-03-1.59106E-05-1.02480E-01 6.11574E-14 1.17471E-13
 -1      1991 1.98076E+01-3.21701E-03-4.63790E-04-1.29238E-01 6.11814E-14 6.81356E-14
 -1      1992 1.99163E+01 3.70116E-03 8.67308E-04-1.05702E-01-2.79821E-14 8.13670E-14
 -1      1993 1.98670E+01 2.08567E-03 1.35280E-04-1.03376E-01-1.99075E-14 8.21991E-14
 -1      1994 1.98863E+01 1.40012E-03-4.79115E-04-1.30245E-01 5.28637E-16 5.80956E-14
 -1      1995 2.00129E+01 8.07626E-03 1.02765E-03-1.16109E-01 3.32812E-14-2.73760E-14
 -1      1996 1.99597E+01 6.25868E-03 3.41254E-04-1.10610E-01 3.30337E-15 1.10183E-14
 -1      1997 1.99704E+01 7.12665E-03-5.53785E-04-1.38818E-01 3.74684E-14-7.17111E-14
 -1      1998 2.01231E+01 1.31923E-02 1.25454E-03-1.34918E-01-1.97294E-14-5.41599E-14
 -1      1999 2.00626E+01 1.12135E-02 5.89932E-04-1.25555E-01 2.64945E-14-2.84938E-14
 -1      2000 2.00642E+01 1.38946E-02-6.82020E-04-1.56729E-01 2.40259E-14-1.30201E-13
 -1      2001 2.02538E+01 1.89881E-02 1.53952E-03-1.63366E-01 3.75473E-14-6.24005E-14
 -1      2002 2.01819E+01 1.69045E-02 8.69230E-04-1.49479E-01-2.49967E-14-8.62952E-14
 -1      2003 2.01732E+01 2.16402E-02-8.59864E-04-1.85591E-01 9.96458E-15-9.29645E-14
 -1      2004 2.04125E+01 2.53018E-02 1.86334E-03-2.02475E-01 2.95574E-14-4.77035E-14
 -1      2005 2.03249E+01 2.32192E-02 1.16291E-03-1.83481E-01 6.66678E-14-1.43975E-14
 -1      2006 2.03033E+01 3.02176E-02-1.08379E-03-2.26797E-01 3.28221E-14-9.63297E-14
 -1      2007 2.06074E+01 3.17608E-02 2.18723E-03-2.52785E-01-4.85564E-14 1.86066E-14
 -1      2008 2.04995E+01 2.98836E-02 1.44542E-03-2.28306E-01-2.04647E-14-1.01147E-14
 -1      2009 2.04613E+01 3.92716E-02-1.34930E-03-2.81310E-01-2.19723E-14-4.21677E-14
 -1      2010 2.08463E+01 3.76109E-02 2.44046E-03-3.13859E-01-8.38964E-14 5.21521E-14
 -1      2011 2.07135E+01 3.63167E-02 1.67553E-03-2.83960E-01-4.74512E-14 4.25732E-14
 -1      2012 2.06540E+01 4.80440E-02-1.64926E-03-3.49221E-01-7.76229E-14-2.52167E-14
 -1      2013 2.11357E+01 4.14646E-02 2.50552E-03-3.83427E-01-5.42897E-14 2.68659E-14
 -1      2014 2.09744E+01 4.14103E-02 1.78930E-03-3.49032E-01-7.78941E-14 1.49531E-14
 -1      2015 2.08878E+01 5.50812E-02-1.97082E-03-4.28968E-01-6.18336E-14-3.71751E-15
 -1      2016 2.14786E+01 4.09639E-02 2.20633E-03-4.56056E-01 2.11447E-13-6.82781E-14
 -1      2017 2.12875E+01 4.32205E-02 1.69487E-03-4.19615E-01 6.67576E-14-1.83482E-14
 -1      2018 2.11674E+01 5.78220E-02-2.28958E-03-5.16092E-01 9.30300E-14-4.14360E-14
 -1      2019 2.18724E+01 3.24180E-02 1.31339E-03-5.21235E-01 7.50180E-14-1.53575E-13
 -1      2020 2.16540E+01 3.85930E-02 1.27437E-03-4.87704E-01 1.74019E-13-7.80717E-14
 -1      2021 2.14944E+01 5.20961E-02-2.55760E-03-6.01382E-01 1.83433E-13-1.41379E-13
 -1      2022 2.23042E+01 1.06469E-02-4.05769E-04-5.61022E-01-2.58683E-14-1.82751E-13
 -1      2023 2.20676E+01 2.28658E-02 4.02561E-04-5.39094E-01-2.35601E-14-1.77307E-13
 -1      2024 2.18651E+01 3.17193E-02-2.68034E-03-6.68442E-01-5.60261E-15-1.69475E-13
 -1      2025 2.27467E+01-3.03879E-02-3.04943E-03-5.47995E-01-6.46443E-14-2.72742E-14
 -1      2026 2.25106E+01-9.94025E-03-1.00587E-03-5.51233E-01-6.51094E-14-1.56625E-13
 -1      2027 2.22672E+01-1.12818E-02-2.47845E-03-6.91130E-01-9.72580E-14-9.74936E-14
 -1      2028 2.31528E+01-9.50449E-02-6.32549E-03-4.45599E-01 1.44533E-14 3.83634E-15
 -1      2029 2.29483E+01-6.55578E-02-2.91636E-03-4.92396E-01 2.89595E-14 2.79299E-14
 -1      2030 2.26766E+01-8.46574E-02-1.64096E-03-6.32343E-01-8.39780E-15-5.12789E-14
 -1      2031 2.34536E+01-1.80050E-01-9.23111E-03-2.15145E-01 7.79481E-14 1.01321E-13
 -1      2032 2.33244E+01-1.45087E-01-5.08431E-03-3.25302E-01 3.98926E-14 7.05382E-14
 -1      2033 2.30526E+01-1.90246E-01 2.88211E-04-4.47527E-01 5.33315E-14-2.33459E-14
 -1      2034 2.35626E+01-2.64777E-01-9.97590E-03 1.64374E-01-1.71122E-14 5.44165E-14
 -1      2035 2.35592E+01-2.36553E-01-7.00535E-03-2.03146E-02 3.93132E-14 9.69882E-14
 -1      2036 2.33350E+01-3.13061E-01 3.75233E-03-9.86832E-02 6.90212E-14 3.99702E-14
 -1      2037 2.33937E+01-3.02905E-01-6.84134E-03 6.59730E-01-6.06720E-15 2.23764E-13
 -1      2038 2.35583E+01-3.04384E-01-8.05338E-03 4.16603E-01-1.10797E-14 1.88025E-13
 -1      2039 2.34454E+01-4.07420E-01 8.62567E-03 4.14728E-01-9.71619E-15 1.34853E-13
 -1      2040 2.29002E+01-2.31390E-01-2.73747E-04 1.14238E+00 3.29164E-14 1.75528E-13
 -1      2041 2.32418E+01-2.88017E-01-7.48586E-03 9.04692E-01 4.91499E-14 2.36103E-13
 -1      2042 2.33028E+01-3.95279E-01 1.30069E-02 1.00930E+00 4.98117E-14 4.19247E-13
 -1      2043 2.21372E+01-1.55870E-02 5.05744E-03 1.38813E+00-9.68741E-14 1.53030E-13
 -1      2044 2.26032E+01-1.31186E-01-4.91312E-03 1.26583E+00-1.08811E-14 1.75955E-13
 -1      2045 2.28695E+01-2.01004E-01 1.27674E-02 1.48375E+00-2.70665E-14 3.38271E-13
 -1      2046 2.13137E+01 2.86263E-01 3.32060E-03 1.17607E+00-1.58477E-13 7.30284E-14
 -1      2047 2.17797E+01 1.55007E-01 5.07073E-05 1.27354E+00-1.58740E-13 8.06299E-14
 -1      2048 2.22248E+01 1.68507E-01 3.92885E-03 1.56168E+00-1.21665E-13 2.33402E-13
 -1      2049 2.07609E+01 5.10513E-01-5.57557E-03 4.76429E-01 3.15026E-15 2.41840E-13
 -1      2050 2.10611E+01 4.43491E-01 6.76451E-03 8.00273E-01-8.61707E-14 1.00357E-13
 -1      2051 2.16082E+01 5.63114E-01-1.01244E-02 1.05805E+00-7.94451E-14 9.22890E-14
 -1      2052 2.07571E+01 5.04229E-01-1.21681E-02-4.39203E-01-8.34818E-14 2.43748E-13
 -1      2053 2.07626E+01 5.52901E-01 1.24176E-02-2.28647E-02 3.23214E-14 2.44667E-13
 -1      2054 2.13286E+01 7.53047E-01-1.70596E-02 8.91310E-02-1.05506E-14 1.46848E-13
 -1      2055 2.13119E+01 2.71981E-01-9.07093E-03-1.14291E+00 1.44640E-13 9.05977E-14
 -1      2056 2.10162E+01 4.05585E-01 1.27783E-02-8.28247E-01 3.10325E-14 2.10634E-13
 -1      2057 2.15429E+01 6.10233E-01-1.00307E-02-9.13899E-01 5.86788E-14 7.28272E-14
 -1      2058 2.21473E+01-2.73783E-02 7.90464E-04-1.35797E+00 2.34461E-13 5.37660E-14
 -1      2059 2.16770E+01 1.07030E-01 6.62172E-03-1.25970E+00 1.72012E-13 7.55368E-14
 -1      2060 2.21161E+01 2.27867E-01 2.11252E-03-1.49281E+00 2.37835E-13 1.60399E-13
 -1      2061 2.29078E+01-2.35719E-01 8.61685E-03-1.11017E+00 1.66039E-14 5.50393E-14
 -1      2062 2.24419E+01-1.62287E-01-2.53402E-03-1.21053E+00 1.95671E-13-2.01852E-14
 -1      2063 2.27421E+01-1.65331E-01 7.51274E-03-1.48166E+00 2.37423E-13 1.18471E-13
 -1      2064 2.33651E+01-3.00713E-01 1.03947E-02-6.20182E-01 7.67754E-14 7.28475E-14
 -1      2065 2.30405E+01-2.95217E-01-9.61053E-03-8.23183E-01 9.93823E-15 6.27449E-14
 -1      2066 2.31700E+01-3.95318E-01 4.74889E-03-1.03553E+00 3.65697E-14 9.52727E-14
 -1      2067 2.34677E+01-2.61183E-01 7.65375E-03-1.14118E-01-2.55451E-13 1.74100E-13
 -1      2068 2.33374E+01-2.96328E-01-1.21793E-02-3.25415E-01-1.06857E-13 4.56427E-14
 -1      2069 2.33072E+01-4.32162E-01 3.80544E-04-4.32395E-01-6.79023E-14 1.21021E-13
 -1      2070 2.32765E+01-1.78454E-01 3.61750E-03 2.77729E-01-1.44735E-13 3.67513E-13
 -1      2071 2.33248E+01-2.24789E-01-1.09696E-02 1.12233E-01-9.18415E-14 3.23519E-13
 -1      2072 2.31823E+01-3.46415E-01-2.02999E-03 1.11206E-01-2.01738E-13 3.41128E-13
 -1      2073 2.28910E+01-9.61708E-02 3.78978E-04 5.20177E-01-5.18335E-14 2.96469E-13
 -1      2074 2.30681E+01-1.36211E-01-7.84435E-03 4.15508E-01-2.27313E-13 2.18361E-13
 -1      2075 2.28722E+01-2.20628E-01-2.29826E-03 4.96180E-01-2.12661E-13 3.27825E-13
 -1      2076 2.24041E+01-3.29206E-02-1.40375E-03 6.32431E-01 2.07690E-15 4.58371E-13
 -1      2077 2.26553E+01-6.10288E-02-4.37072E-03 5.81350E-01 8.33808E-14 4.53061E-13
 -1      2078 2.24558E+01-1.06760E-01-1.62141E-03 7.13066E-01 3.28990E-15 4.03274E-13
 -1      2079 2.18874E+01 9.39959E-03-1.89160E-03 6.50792E-01 2.07119E-13 2.00001E-13
 -1      2080 2.21669E+01-7.85795E-03-1.36807E-03 6.38908E-01 1.22021E-13 3.09260E-13
 -1      2081 2.19963E+01-2.33481E-02-8.78678E-04 7.94637E-01 1.80083E-13 4.58249E-13
 -1      2082 2.13902E+01 3.62719E-02-1.53058E-03 6.07892E-01 9.22916E-14 7.42123E-14
 -1      2083 2.16649E+01 2.63851E-02 9.04024E-04 6.22249E-01 7.95549E-14 7.47878E-14
 -1      2084 2.15391E+01 3.11404E-02-4.17062E-04 7.81868E-01 1.80926E-13 3.19678E-13
 -1      2085 2.09450E+01 5.48798E-02-8.14318E-04 5.25410E-01-4.36951E-14 2.43443E-13
 -1      2086 2.11926E+01 4.86515E-02 2.41004E-03 5.57593E-01 7.23670E-14 1.84085E-13
 -1      2087 2.11148E+01 6.58808E-02-3.86686E-04 7.07453E-01-2.28467E-14 3.85070E-13
 -1      2088 2.05733E+01 7.16657E-02-1.46803E-04 4.13415E-01 8.28636E-14 1.77868E-13
 -1      2089 2.07787E+01 6.61736E-02 3.15564E-03 4.60132E-01-1.11716E-15 2.14435E-13
 -1      2090 2.07436E+01 9.14764E-02-7.48688E-04 5.91402E-01 2.78519E-14 3.85840E-13
 -1      2091 2.02910E+01 9.01738E-02 1.32123E-03 2.74832E-01 2.83712E-13-4.31683E-14
 -1      2092 2.04410E+01 8.31803E-02 2.93060E-03 3.36046E-01 1.67719E-13 7.66132E-14
 -1      2093 2.04372E+01 1.16010E-01-1.09991E-03 4.43098E-01 1.92810E-13 1.97118E-13
 -1      2094 2.01278E+01 1.02489E-01 3.00011E-03 1.57172E-01 1.30748E-13 1.02102E-13
 -1      2095 2.02255E+01 1.00183E-01 2.29990E-03 2.26604E-01 3.24147E-13 2.00967E-14
 -1      2096 2.02353E+01 1.38636E-01-1.46263E-03 3.07322E-01 2.93712E-13 1.65483E-13
 -1      2097 2.01178E+01 1.53999E-01-1.23312E-04 1.98470E-01 1.69372E-13 4.13326E-13
 -1      2098 2.00031E+01 8.77980E-01-1.47752E-03 4.90716E-01-3.81908E-14 7.25692E-14
 -1      2099 2.00323E+01 7.21285E-01 2.29207E-03 4.80504E-01-4.91837E-15-1.17650E-14
 -1      2100 2.00609E+01 5.88499E-01-8.38421E-05 4.50296E-01 3.12797E-14-9.30213E-14
 -1      2101 2.00892E+01 4.46611E-01 3.13631E-03 4.06013E-01 5.93158E-14 2.13176E-15
 -1      2102 2.00694E+01 6.27128E-01-4.86414E-04 5.90650E-01-3.05461E-14-3.45645E-14
 -1      2103 2.00996E+01 3.52504E-01 8.76117E-04 3.43653E-01 9.58456E-15 1.47957E-13
 -1      2104 2.01184E+01 2.38964E-01 2.97021E-03 2.75245E-01 1.21541E-13 2.63964E-13
 -1      2105 2.01693E+01 2.34184E-01 2.03496E-03 3.35319E-01 2.35565E-13 1.47053E-13
 -1      2106 2.01315E+01 4.06792E-01-8.92056E-04 4.85246E-01 2.05023E-15 1.00538E-13
 -1      2107 1.99512E+01 1.15575E+00-3.17273E-03 4.62412E-01-1.11659E-13-1.24183E-13
 -1      2108 1.99773E+01 1.00638E+00 2.50103E-04 4.82500E-01-1.76931E-13 4.42907E-14
 -1      2109 1.99857E+01 8.86462E-01 6.44884E-04 6.13580E-01-1.02013E-13-6.22467E-14
 -1      2110 1.99067E+01 1.39872E+00-4.67502E-03 3.70230E-01-5.70856E-14 4.17019E-14
 -1      2111 1.99282E+01 1.27228E+00-1.78411E-03 4.17476E-01-2.24660E-14-5.36181E-14
 -1      2112 1.99113E+01 1.13189E+00 2.39898E-03 5.53712E-01-2.44936E-14-2.42372E-14
 -1      2113 1.98756E+01 1.57026E+00-5.58057E-03 2.27617E-01-3.55812E-14 4.95845E-14
 -1      2114 1.98898E+01 1.48643E+00-3.63671E-03 2.94899E-01-1.13407E-13 9.09327E-14
 -1      2115 1.98501E+01 1.33672E+00 3.86157E-03 4.18386E-01 6.57369E-14 8.17410E-14
 -1      2116 1.98612E+01 1.64770E+00-5.72719E-03 5.39268E-02-1.97926E-13-3.00433E-13
 -1      2117 1.98664E+01 1.61790E+00-4.99246E-03 1.32113E-01-1.23612E-13-5.04648E-14
 -1      2118 1.98099E+01 1.47267E+00 4.90958E-03 2.26351E-01-1.42648E-13-1.45214E-13
 -1      2119 1.98654E+01 1.62030E+00-5.09080E-03-1.27483E-01-1.41539E-13-1.27199E-14
 -1      2120 1.98609E+01 1.64869E+00-5.67466E-03-4.89627E-02-1.33823E-13-1.82427E-13
 -1      2121 1.97953E+01 1.52152E+00 5.30792E-03 3.24438E-03-2.30056E-13-1.72214E-13
 -1      2122 1.98879E+01 1.49149E+00-3.79335E-03-2.91999E-01-1.36775E-13 2.36377E-13
 -1      2123 1.98743E+01 1.57441E+00-5.54511E-03-2.23862E-01-2.52667E-13 1.38910E-13
 -1      2124 1.98082E+01 1.47635E+00 4.94889E-03-2.20849E-01-2.39158E-13-1.97337E-13
 -1      2125 1.99254E+01 1.28287E+00-1.91711E-03-4.15443E-01-9.95120E-14 9.75593E-14
 -1      2126 1.99043E+01 1.40662E+00-4.70221E-03-3.67668E-01-2.01126E-13 1.28078E-13
 -1      2127 1.98471E+01 1.34465E+00 4.01674E-03-4.14204E-01-1.90200E-13 9.68904E-14
 -1      2128 1.99752E+01 1.01491E+00 2.42355E-04-4.84356E-01-7.15422E-14 4.58023E-13
 -1      2129 1.99483E+01 1.16702E+00-3.28564E-03-4.62629E-01-1.47787E-13 4.13688E-13
 -1      2130 1.99071E+01 1.14334E+00 2.50768E-03-5.52399E-01-8.02024E-14 1.90701E-13
 -1      2131 2.00322E+01 7.25334E-01 2.33202E-03-4.84167E-01 4.70626E-14 7.02713E-14
 -1      2132 2.00021E+01 8.83212E-01-1.63190E-03-4.94197E-01 4.13582E-14 3.57272E-13
 -1      2133 1.99836E+01 8.95554E-01 8.73148E-04-6.16825E-01-1.32368E-13 5.09997E-13
 -1      2134 2.00906E+01 4.43444E-01 1.59797E-03-4.11464E-01 3.70322E-14-1.52040E-13
 -1      2135 2.00596E+01 5.91619E-01-4.62009E-04-4.53884E-01-2.82903E-14-1.40046E-13
 -1      2136 2.00691E+01 6.32398E-01-3.32586E-04-5.94727E-01-8.24992E-14-8.96975E-14
 -1      2137 1.03373E+01-5.26725E+00-1.46724E-01 6.38881E+00 3.74145E-14-2.78395E-13
 -1      2138 6.90902E+00-6.59460E+00-3.44045E-01 5.30266E+00-8.09908E-14-2.32869E-14
 -1      2139 3.37654E-01-7.13500E+00-3.85585E-01 8.66045E-01-1.05749E-14 2.45026E-13
 -1      2140 2.32657E-01-7.09181E+00-3.89818E-01-7.03187E-01 8.56260E-15 3.55160E-13
 -1      2141 3.27256E+00-6.54626E+00-3.21625E-01 4.08714E+00-9.19820E-14 3.26406E-14
 -1      2142 1.38361E+00-7.44707E+00-4.44366E-01 2.57909E+00-5.21527E-14 8.14349E-14
 -1      2143 1.87566E+01-3.64984E+00-4.91219E-02 6.89547E+00 1.02141E-13-2.04337E-13
 -1      2144 1.37587E+01-5.35709E+00-3.19262E-01 6.11600E+00 2.22600E-13-2.84273E-13
 -1      2145 1.46970E+01-5.64442E+00-2.87605E-02 6.85782E+00 5.65104E-14-2.11900E-13
 -1      2146 2.86293E+01-6.46664E-01 1.46457E-01 5.26055E+00-4.05231E-14-6.59472E-14
 -1      2147 2.37385E+01-2.76084E+00-1.46045E-01 5.13392E+00 5.85088E-14-9.18154E-14
 -1      2148 1.95195E+01 4.01549E+00-2.69930E-02-1.70484E+00-3.27093E-13-7.58449E-13
 -1      2149 1.96461E+01 3.94581E+00-2.46398E-02-1.95623E+00-4.06585E-13-6.87377E-13
 -1      2150 1.99707E+01 3.24670E+00-1.38894E-02-1.92042E+00-4.47455E-13-5.99545E-13
 -1      2151 1.96990E+01 3.58480E+00-7.21473E-03-1.52271E+00-3.28464E-13-7.39688E-13
 -1      2152 4.02330E+01 6.24762E+00 4.14504E-01 1.40547E+00 2.34091E-13 8.53206E-14
 -1      2153 3.69981E+01 5.41378E+00 1.65352E-01 2.19987E+00 2.39475E-13 6.41709E-14
 -1      2154 3.94197E+01 7.29830E+00 2.19185E-01-3.68827E-01 5.43954E-13-1.83895E-13
 -1      2155 4.01897E+01 7.05018E+00 3.57728E-01 7.62244E-01 4.45477E-13-3.92741E-14
 -1      2156 3.75735E+01 5.62487E+00 1.83857E-01-1.70409E+00 6.63303E-13-4.13558E-13
 -1      2157 3.87494E+01 6.57332E+00 2.13849E-01-5.19682E-01 6.09124E-13-2.45803E-13
 -1      2158 3.29875E+01 2.62580E+00 1.89211E-02-2.89215E+00 5.63716E-13-6.60583E-13
 -1      2159 3.69051E+01 4.15562E+00 2.92486E-01-2.50333E+00 6.24722E-13-5.02265E-13
 -1      2160 3.41885E+01 4.95318E+00 2.40650E-01 3.70318E-01 5.36571E-13-1.49325E-13
 -1      2161 2.56319E+01-1.16317E+00-1.12201E-01-5.26594E+00 5.28022E-13-6.49369E-13
 -1      2162 3.05019E+01 4.62069E-01 1.37981E-01-4.81881E+00 5.82451E-13-7.06213E-13
 -1      2163 1.80465E+01-4.15635E+00-2.21842E-01-6.04342E+00 2.92655E-13-5.87030E-13
 -1      2164 2.27019E+01-2.13342E+00 8.03501E-02-6.57647E+00 4.52860E-13-5.32352E-13
 -1      2165 2.60880E+01-3.29811E+00 9.50202E-02-4.48164E+00 1.66672E-13-3.27072E-13
 -1      2166 8.94440E+00-6.30564E+00-4.07557E-01-5.58879E+00-3.38063E-14-7.72711E-13
 -1      2167 1.31740E+01-4.61277E+00-1.19609E-01-6.77646E+00 1.17462E-13-6.44332E-13
 -1      2168 3.06680E+00-7.24862E+00-4.46704E-01-3.76697E+00-2.70395E-13-1.01275E-12
 -1      2169 5.60161E+00-6.20243E+00-2.98166E-01-5.03861E+00-4.50195E-14-1.09313E-12
 -1      2170 1.93921E-01-7.35022E+00-4.36286E-01-7.18217E-01-4.38038E-13-5.54223E-13
 -1      2171 1.02701E+00-6.99808E+00-3.85929E-01-2.27241E+00-2.33535E-13-8.32223E-13
 -1      2172 1.61028E+00-6.52856E+00-3.18796E-01 2.78278E+00-5.86031E-13-5.33129E-13
 -1      2173 4.26786E-01-7.21192E+00-4.31258E-01 1.09355E+00-3.81195E-13-4.66849E-13
 -1      2174 7.32685E+00-5.83564E+00-2.63313E-01 5.74204E+00-5.66214E-13-7.07101E-13
 -1      2175 4.00882E+00-6.94745E+00-4.15750E-01 4.18835E+00-5.68101E-13-6.13676E-13
 -1      2176 1.60670E+01-3.97902E+00-1.61481E-02 6.83968E+00-8.37774E-13-8.69638E-13
 -1      2177 1.22229E+01-5.58442E+00-1.70240E-01 6.27535E+00-5.82923E-13-7.78384E-13
 -1      2178 2.39764E+01-1.37522E+00 1.22289E-01 6.52947E+00-8.84293E-13-1.61432E-12
 -1      2179 1.91969E+01-3.29975E+00-2.30101E-01 6.08534E+00-8.74523E-13-1.25594E-12
 -1      2180 3.16315E+01 1.43696E+00 2.60187E-01 5.15388E+00-8.22981E-13-1.80611E-12
 -1      2181 2.71402E+01-2.00534E-01-5.95865E-02 5.29178E+00-9.02833E-13-1.65001E-12
 -1      2182 3.72886E+01 4.20401E+00 3.62643E-01 3.09820E+00-9.77246E-13-1.67433E-12
 -1      2183 3.37568E+01 2.94988E+00 1.15954E-01 3.75999E+00-9.48845E-13-1.66245E-12
 -1      2184 4.03877E+01 6.35732E+00 3.87606E-01 1.16745E+00-6.54143E-13-1.70083E-12
 -1      2185 3.84026E+01 5.65206E+00 2.62628E-01 2.22525E+00-8.97116E-13-1.71418E-12
 -1      2186 4.04366E+01 7.07715E+00 3.14982E-01-4.32468E-01-4.54803E-13-1.37916E-12
 -1      2187 4.03014E+01 7.08072E+00 3.36580E-01 6.34122E-01-5.39235E-13-1.61618E-12
 -1      2188 3.82541E+01 6.28447E+00 2.13127E-01-1.49816E+00-5.28688E-13-1.21458E-12
 -1      2189 4.05083E+01 6.78896E+00 4.07441E-01-7.50771E-01-4.28324E-13-1.28486E-12
 -1      2190 3.61017E+01 7.95548E+00 3.15688E-01 9.31888E-02-5.36349E-13-1.19732E-12
 -1      2191 3.44209E+01 3.22365E+00 1.57700E-01-3.57442E+00-3.65541E-13-1.08158E-12
 -1      2192 3.72967E+01 4.49212E+00 2.76583E-01-2.43268E+00-4.77701E-13-1.20598E-12
 -1      2193 2.79939E+01 3.18373E-02-4.39646E-02-4.93916E+00-2.64788E-14-6.02185E-13
 -1      2194 3.26554E+01 1.81217E+00 2.90340E-01-4.88936E+00-1.30701E-13-8.42770E-13
 -1      2195 3.28581E+01 1.60166E+00 2.45683E-01-1.69645E+00-2.86271E-13-1.08935E-12
 -1      2196 1.98785E+01-3.46304E+00-2.31507E-01-6.01133E+00 2.03615E-13-2.72449E-13
 -1      2197 2.46556E+01-1.73026E+00 9.67754E-02-6.29555E+00 1.42442E-13-3.24851E-13
 -1      2198 1.18245E+01-5.57023E+00-3.60731E-01-5.98444E+00-3.55271E-15-2.07750E-13
 -1      2199 1.60116E+01-3.74474E+00-4.98154E-02-6.84587E+00 7.86038E-14-2.23155E-13
 -1      2200 5.96182E+00-6.71173E+00-3.42060E-01-4.99740E+00 4.57967E-14 5.05151E-15
 -1      2201 9.00240E+00-5.46972E+00-1.34099E-01-6.11106E+00 3.31957E-14-1.53530E-13
 -1      2202 1.77265E+00-6.94970E+00-3.47274E-01-2.80928E+00 9.62008E-14 2.26708E-13
 -1      2203 3.54666E+00-6.39620E+00-2.43257E-01-4.11645E+00 1.77636E-14 1.65368E-13
 -1      2204 6.97366E+00-5.14735E+00-1.17731E-01-5.71470E+00 1.44329E-13 1.84297E-14
 -1      2205 3.48073E+01 2.74626E+00 1.82064E-01 2.89017E+00-2.71103E-14-7.32747E-15
 -1      2206 3.07603E+01 1.02524E+00-2.99867E-02 3.78700E+00-6.36158E-14 2.52021E-14
 -1      2207 3.00725E+01-1.40850E+00 1.32396E-01 1.97572E+00-1.30548E-13-1.15019E-13
 -1      2208 2.33942E+01-4.59412E+00 4.35851E-02 5.31636E+00 7.49401E-15-2.13107E-13
 -1      2209 2.07293E+01 1.10842E+00-2.07773E-02-1.61756E+00-5.13298E-13 1.07442E-13
 -1      2210 3.40585E+01 3.56499E+00 2.02190E-01 2.89609E-01-1.52933E-14 1.33782E-14
 -1      2211 2.06211E+01 1.33002E+00-1.86681E-02-1.67968E+00-5.36770E-13-1.36131E-13
 -1      2212 7.06677E+00-5.41484E+00-1.26628E-01 5.76454E+00-2.19158E-13 3.66374E-15
 -1      2213 2.07106E+00-5.06330E+00-2.00060E-01 2.18826E+00-2.17507E-13 1.44162E-13
 -1      2214 2.01196E+01 3.57227E-01 2.24529E-03-3.96099E-01 6.77437E-14-1.90973E-13
 -1      2215 2.43851E+00-4.78218E+00-1.56561E-01-2.32610E+00 6.96110E-14 2.42417E-13
 -1      2216 1.28504E+01-5.71416E+00-1.10200E-01-6.76224E+00 1.67588E-13-3.45009E-13
 -1      2217 2.77391E+01-2.42153E+00 9.44831E-02-4.03841E+00 9.13991E-14-6.82454E-13
 -1      2218 3.54506E+01 5.44186E+00 2.55976E-01-2.08375E-01-5.10036E-13-1.20415E-12
 -1      2219 3.63865E+01 7.56842E+00 3.36653E-01-8.20709E-02-6.48703E-13-1.32944E-12
 -1      2220 3.54641E+01 4.94379E+00 3.15401E-01 4.27441E-01-7.45182E-13-1.21858E-12
 -1      2221 3.24098E+01 1.14688E+00 2.33159E-01 2.08376E+00-6.61131E-13-1.40254E-12
 -1      2222 2.70016E+01-2.47241E+00 9.69435E-02 4.43640E+00-6.26166E-13-1.41631E-12
 -1      2223 2.00195E+01-5.04505E+00-7.83545E-02 6.16044E+00-5.33684E-13-9.87127E-13
 -1      2224 1.13048E+01-5.51277E+00-8.73245E-02 6.39323E+00-3.85247E-13-7.75383E-13
 -1      2225 1.09431E+01-4.76651E+00 1.41532E-01 6.64910E+00-1.85296E-13-6.11150E-13
 -1      2226 1.51357E+01-5.53877E+00-1.18641E-01 6.83654E+00-1.79079E-13-7.07982E-13
 -1      2227 4.32866E+00-5.04300E+00-1.30965E-01 4.27029E+00-3.14443E-13-6.11122E-13
 -1      2228 1.46309E+00-4.86047E+00-2.01408E-01 2.59739E-01-2.85910E-13-5.87197E-13
 -1      2229 3.41395E+00-5.35090E+00-2.13611E-01-3.80197E+00-3.55133E-13-9.70113E-13
 -1      2230 1.80592E+01-5.27212E+00-1.38771E-02-6.48615E+00-1.72973E-13-4.85001E-13
 -1      2231 3.16615E+01 4.80908E-01 1.60768E-01-1.74543E+00 4.01984E-13-2.93543E-13
 -1      2232 3.59776E+01 7.51136E+00 3.25585E-01-5.64097E-02 4.58078E-13 4.62130E-14
 -1      2233 3.54195E+01 7.55926E+00 2.41634E-01 3.09994E-01 6.14730E-13-2.97817E-14
 -1      2234 9.39530E+00-5.64690E+00-1.25335E-01-6.37067E+00-3.35287E-13-8.26783E-13
 -1      2235 2.03988E+01-4.95540E+00 9.64562E-03-6.20813E+00 2.37477E-13-3.94684E-13
 -1      2236 2.01417E+01 5.06424E-01 3.73949E-03 6.79918E-01 4.13882E-13 2.75669E-13
 -1      2237 2.04099E+01 6.99935E-01 2.07977E-02 9.71512E-01 4.62280E-13 3.42058E-13
 -1      2238 1.95657E+01 3.51625E+00-1.11015E-02-5.92375E-01-5.93465E-14-7.51663E-13
 -1      2239 1.96006E+01 3.47040E+00-1.04360E-02-7.76923E-01-1.30156E-13-7.64526E-13
 -1      2240 1.96464E+01 3.38242E+00-1.26648E-02-9.41573E-01-1.74645E-13-7.74934E-13
 -1      2241 1.97067E+01 3.30137E+00-1.26297E-02-1.13110E+00-2.47611E-13-7.51650E-13
 -1      2242 1.97916E+01 3.03350E+00 2.66903E-04-7.93522E-01-1.49969E-13-7.27501E-13
 -1      2243 1.95193E+01 3.59884E+00-9.63229E-03 9.95646E-02 1.67278E-13-7.16082E-13
 -1      2244 1.95186E+01 3.59967E+00-9.63798E-03-8.01673E-02 1.04693E-13-7.19939E-13
 -1      2245 1.95450E+01 3.55937E+00-9.73909E-03 4.46181E-01 2.71972E-13-6.81296E-13
 -1      2246 1.95279E+01 3.58197E+00-1.01543E-02 2.65087E-01 2.10889E-13-7.05897E-13
 -1      2247 1.96856E+01 3.22174E+00-8.85183E-04 1.69831E-01 1.86529E-13-6.67536E-13
 -1      2248 1.96058E+01 3.46276E+00-1.06268E-02 7.90652E-01 3.62333E-13-6.41227E-13
 -1      2249 1.95700E+01 3.50982E+00-1.12267E-02 6.08995E-01 3.07860E-13-6.68415E-13
 -1      2250 1.97218E+01 3.15814E+00-4.98414E-04 4.88818E-01 2.75363E-13-6.30977E-13
 -1      2251 1.97148E+01 3.28886E+00-1.29654E-02 1.14449E+00 4.72077E-13-5.26745E-13
 -1      2252 1.96530E+01 3.37225E+00-1.28951E-02 9.54999E-01 4.04442E-13-5.89383E-13
 -1      2253 1.97976E+01 3.02433E+00 2.53076E-04 8.04955E-01 3.67581E-13-5.65313E-13
 -1      2254 1.98918E+01 3.00321E+00-1.81795E-02 1.49199E+00 5.56373E-13-4.07582E-13
 -1      2255 1.97935E+01 3.14452E+00-1.51831E-02 1.30140E+00 5.01664E-13-4.76366E-13
 -1      2256 1.99250E+01 2.79902E+00 1.94512E-03 1.11173E+00 4.67611E-13-4.63374E-13
 -1      2257 2.01676E+01 2.54369E+00-2.84074E-02 1.79656E+00 6.22582E-13-2.01412E-13
 -1      2258 2.00177E+01 2.78305E+00-1.70839E-02 1.62202E+00 5.71354E-13-3.23840E-13
 -1      2259 2.01174E+01 2.44836E+00 5.85788E-03 1.37792E+00 5.30544E-13-3.28489E-13
 -1      2260 1.98643E+01 2.68375E-01 4.74023E-03 2.87278E-01 3.28000E-13 1.76987E-13
 -1      2261 2.00253E+01 3.68029E-01 2.01769E-02 4.44494E-01 3.76801E-13 2.47839E-13
 -1      2262 2.02060E+01 6.34665E-01-2.23456E-03 7.06948E-01 4.38906E-13 6.71902E-14
 -1      2263 2.03965E+01 8.55001E-01 1.29476E-02-1.00287E+00-4.20797E-13-2.33084E-13
 -1      2264 2.01857E+01 6.28179E-01-4.00036E-03-6.92753E-01-3.84697E-13-2.49228E-13
 -1      2265 3.26018E+01 4.30981E+00-1.08601E-01-8.56520E-01 3.94129E-14 8.68472E-14
 -1      2266 3.09516E+01 1.81017E+00-8.65259E-02-6.37395E-01-3.31124E-14 7.71605E-15
 -1      2267 2.01198E+01 4.69208E-01 1.61292E-02-4.77303E-01-3.57772E-13-2.20010E-13
 -1      2268 1.99785E+01 3.44603E-01 4.82488E-05-3.05605E-01-3.00578E-13-2.46344E-13
 -1      2269 2.02416E+01 7.45320E-01-1.74749E-03-6.96420E-01-3.83646E-13-3.39275E-13
 -1      2270 1.99154E+01 2.59903E-01 1.08853E-02-1.67795E-01-2.46715E-13-2.25058E-13
 -1      2271 1.98366E+01 1.88751E-01 7.32954E-04-7.03224E-02-1.95203E-13-2.66460E-13
 -1      2272 2.00772E+01 4.16883E-01-3.71691E-03-3.12198E-01-2.95195E-13-3.00782E-13
 -1      2273 1.97926E+01 1.39655E-01 6.39098E-03 1.22767E-02-1.64210E-13-2.72894E-13
 -1      2274 1.97579E+01 9.78105E-02 7.74231E-04 6.61759E-02-1.34454E-13-2.88558E-13
 -1      2275 1.99571E+01 2.28521E-01-3.69466E-03-7.24228E-02-2.00437E-13-3.07928E-13
 -1      2276 1.97326E+01 6.84372E-02 3.58980E-03 1.12842E-01-1.27690E-13-2.91586E-13
 -1      2277 1.97261E+01 4.35982E-02 7.21639E-04 1.40434E-01-1.50091E-13-3.12015E-13
 -1      2278 1.98823E+01 1.17405E-01-2.99429E-03 6.99445E-02-1.65190E-13-3.44916E-13
 -1      2279 1.97155E+01 2.61039E-02 1.87393E-03 1.64232E-01-1.64937E-13-3.02098E-13
 -1      2280 1.97263E+01 1.18569E-02 6.58382E-04 1.76028E-01-1.36464E-13-2.90649E-13
 -1      2281 1.98444E+01 5.10617E-02-2.20240E-03 1.48880E-01-1.51448E-13-3.19815E-13
 -1      2282 1.97259E+01 2.01732E-03 8.17787E-04 1.85836E-01-1.17577E-13-3.01315E-13
 -1      2283 1.97467E+01-5.26669E-03 6.16891E-04 1.88589E-01-1.29752E-13-2.81669E-13
 -1      2284 1.98331E+01 1.25506E-02-1.54449E-03 1.87787E-01-1.41958E-13-3.16151E-13
 -1      2285 1.97533E+01-9.91903E-03 1.73959E-04 1.90531E-01-1.67831E-13-2.69914E-13
 -1      2286 1.97798E+01-1.24196E-02 6.17837E-04 1.88790E-01-1.69036E-13-2.84655E-13
 -1      2287 1.98399E+01-7.69394E-03-1.06282E-03 2.02748E-01-1.48146E-13-3.12038E-13
 -1      2288 1.97909E+01-1.34062E-02-2.02748E-04 1.87188E-01-1.27435E-13-2.79302E-13
 -1      2289 1.98205E+01-1.24784E-02 6.72403E-04 1.84151E-01-7.61890E-14-3.12677E-13
 -1      2290 1.98587E+01-1.53993E-02-7.40546E-04 2.05010E-01-1.62239E-13-2.62286E-13
 -1      2291 1.98348E+01-1.07615E-02-4.03467E-04 1.82148E-01-4.49080E-14-3.10185E-13
 -1      2292 1.98665E+01-7.25202E-03 7.86342E-04 1.80154E-01-3.18142E-14-3.05713E-13
 -1      2293 1.98855E+01-1.41213E-02-5.46952E-04 2.02631E-01-6.39027E-14-2.77224E-13
 -1      2294 1.98833E+01-3.43661E-03-4.89131E-04 1.80118E-01-1.81914E-14-2.91085E-13
 -1      2295 1.99171E+01 2.14186E-03 9.62973E-04 1.80968E-01 3.32562E-15-2.36966E-13
 -1      2296 1.99181E+01-6.09206E-03-4.52982E-04 2.01564E-01-1.60034E-14-2.37913E-13
 -1      2297 1.99362E+01 7.68975E-03-5.01914E-04 1.84766E-01-3.55151E-14-2.73492E-13
 -1      2298 1.99730E+01 1.50468E-02 1.20443E-03 1.89923E-01-5.94550E-14-2.89504E-13
 -1      2299 1.99558E+01 7.31588E-03-4.34748E-04 2.06380E-01-1.80291E-14-2.38884E-13
 -1      2300 1.99948E+01 2.21157E-02-4.71304E-04 1.99110E-01-1.13249E-13-2.70305E-13
 -1      2301 2.00359E+01 3.10967E-02 1.51108E-03 2.09835E-01-1.04479E-13-2.74414E-13
 -1      2302 1.99987E+01 2.52959E-02-4.73024E-04 2.20757E-01-1.06226E-13-2.16352E-13
 -1      2303 2.00611E+01 3.95551E-02-4.17714E-04 2.25768E-01-1.11945E-13-3.14785E-13
 -1      2304 2.01085E+01 5.00560E-02 1.87952E-03 2.43184E-01-7.38912E-14-3.44529E-13
 -1      2305 2.00479E+01 4.73804E-02-5.52015E-04 2.47807E-01-1.36946E-13-1.61485E-13
 -1      2306 2.01380E+01 5.97710E-02-3.54405E-04 2.67064E-01-5.95336E-14-3.54428E-13
 -1      2307 2.01942E+01 7.16360E-02 2.29888E-03 2.92157E-01-7.57237E-14-3.20236E-13
 -1      2308 2.01051E+01 7.32196E-02-6.58473E-04 2.90241E-01-1.04319E-13-2.59589E-13
 -1      2309 2.02292E+01 8.23651E-02-2.87895E-04 3.25003E-01-1.09069E-13-3.36962E-13
 -1      2310 2.02966E+01 9.52445E-02 2.74529E-03 3.58533E-01-1.34252E-13-3.38417E-13
 -1      2311 2.01726E+01 1.02317E-01-7.81482E-04 3.50391E-01-9.41150E-14-2.89274E-13
 -1      2312 2.03385E+01 1.06481E-01-2.16579E-04 4.01048E-01-1.63153E-13-3.58353E-13
 -1      2313 2.04198E+01 1.19623E-01 3.17385E-03 4.43344E-01-1.39103E-13-3.71233E-13
 -1      2314 2.02530E+01 1.33664E-01-9.13704E-04 4.30047E-01-1.55329E-13-3.06709E-13
 -1      2315 2.04704E+01 1.30366E-01-1.26872E-04 4.95652E-01-1.11817E-13-3.46148E-13
 -1      2316 2.05682E+01 1.42303E-01 3.50750E-03 5.46236E-01 8.28114E-16-3.33542E-13
 -1      2317 2.03492E+01 1.65215E-01-1.05547E-03 5.30053E-01-1.06814E-13-2.22566E-13
 -1      2318 2.06293E+01 1.50714E-01 1.41051E-05 6.07431E-01 7.81889E-14-3.45095E-13
 -1      2319 2.07458E+01 1.58817E-01 3.62282E-03 6.64404E-01 1.10131E-13-3.89455E-13
 -1      2320 2.04646E+01 1.93100E-01-1.22317E-03 6.49590E-01 3.50812E-14-2.11519E-13
 -1      2321 2.08203E+01 1.61750E-01 2.69731E-04 7.31839E-01 8.64728E-14-3.84101E-13
 -1      2322 2.09567E+01 1.61627E-01 3.33463E-03 7.90955E-01 7.10548E-14-3.62977E-13
 -1      2323 2.06033E+01 2.10523E-01-1.46332E-03 7.85017E-01 9.80693E-14-2.80405E-13
 -1      2324 2.10485E+01 1.54044E-01 7.47362E-04 8.59185E-01 7.27014E-14-3.60543E-13
 -1      2325 2.12048E+01 1.38899E-01 2.38430E-03 9.12572E-01 5.13546E-14-2.81469E-13
 -1      2326 2.07711E+01 2.06321E-01-1.87169E-03 9.28146E-01 9.46659E-14-2.58548E-13
 -1      2327 2.13202E+01 1.13370E-01 1.60526E-03 9.71892E-01 5.03643E-14-2.02045E-13
 -1      2328 2.14944E+01 7.36578E-02 4.42846E-04 1.00652E+00 1.04725E-13-2.29211E-13
 -1      2329 2.09761E+01 1.63479E-01-2.60961E-03 1.06380E+00 1.17671E-13-2.89279E-13
 -1      2330 2.16428E+01 2.04912E-02 3.02691E-03 1.04112E+00 5.61432E-14-2.48119E-13
 -1      2331 2.18301E+01-5.51857E-02-2.84498E-03 1.03745E+00 6.99676E-14-2.04724E-13
 -1      2332 2.12315E+01 5.85216E-02-3.89193E-03 1.16664E+00 7.28181E-14-2.52171E-13
 -1      2333 2.20245E+01-1.45919E-01 5.10669E-03 1.02355E+00 8.64979E-14-2.41286E-13
 -1      2334 2.22155E+01-2.66745E-01-7.71318E-03 9.55664E-01 7.50166E-14-2.39411E-13
 -1      2335 2.15563E+01-1.35853E-01-5.88173E-03 1.19752E+00 6.62540E-14-2.06512E-13
 -1      2336 2.24699E+01-3.99017E-01 7.54783E-03 8.60907E-01 1.05253E-13-1.38601E-13
 -1      2337 2.26488E+01-5.61700E-01-1.38322E-02 7.00516E-01 1.48633E-13 6.44233E-16
 -1      2338 2.19752E+01-4.40113E-01-8.37650E-03 1.10069E+00 1.92306E-13-1.37039E-13
 -1      2339 2.29679E+01-7.20354E-01 9.20253E-03 4.88259E-01 6.87248E-14 7.65599E-15
 -1      2340 2.31089E+01-8.90629E-01-1.94594E-02 2.17077E-01 6.55903E-14-1.95497E-14
 -1      2341 2.25093E+01-8.42031E-01-1.01558E-02 8.05833E-01 1.08730E-13-2.05279E-14
 -1      2342 2.34665E+01-1.02184E+00 7.27287E-03-1.36507E-01 5.98922E-14-5.42882E-15
 -1      2343 2.35335E+01-1.11338E+00-2.06136E-02-5.01758E-01 1.05930E-13-2.63483E-15
 -1      2344 2.31494E+01-1.25109E+00-8.52551E-03 2.45773E-01 1.31108E-14 4.96653E-14
 -1      2345 2.38444E+01-1.11227E+00-2.86468E-03-9.64687E-01 1.73962E-13-1.91689E-14
 -1      2346 2.38025E+01-9.93758E-01-1.23222E-02-1.33719E+00 1.76851E-13 6.09786E-14
 -1      2347 2.38080E+01-1.44800E+00-1.20943E-03-5.89191E-01 1.17732E-13 2.05583E-13
 -1      2348 2.39357E+01-7.39515E-01-2.02819E-02-1.76576E+00 1.35362E-13 1.29029E-13
 -1      2349 2.37804E+01-3.12971E-01 7.90240E-03-1.97431E+00 1.40585E-13 1.53451E-13
 -1      2350 2.42901E+01-1.12600E+00 6.40633E-03-1.53888E+00 1.91290E-13 1.95030E-13
 -1      2351 2.36324E+01 2.18740E-01-3.93320E-02-2.09291E+00 1.52270E-13 1.31582E-13
 -1      2352 2.34294E+01 8.38777E-01 2.19281E-02-1.93531E+00 2.05731E-13 3.06985E-13
 -1      2353 2.43687E+01-4.67166E-02 1.11754E-02-2.19289E+00 1.57442E-13 2.84260E-13
 -1      2354 2.31367E+01 1.40212E+00-3.90151E-02-1.52067E+00 7.17100E-14 3.14217E-13
 -1      2355 2.29991E+01 1.84113E+00 9.63663E-03-9.63638E-01-2.32592E-14 2.46516E-13
 -1      2356 2.40246E+01 1.45061E+00-1.23766E-02-1.94831E+00 9.52970E-14 3.33867E-13
 -1      2357 2.28802E+01 2.03208E+00-1.25509E-02-1.36840E-01 1.24102E-14 2.62667E-13
 -1      2358 2.29034E+01 1.94333E+00-2.18531E-02 5.57818E-01-2.91191E-14 3.28849E-13
 -1      2359 2.36606E+01 2.48841E+00-3.76303E-02-6.34597E-01-2.09832E-14 2.73660E-13
 -1      2360 2.30973E+01 1.60022E+00 1.67313E-02 1.29850E+00-2.11092E-13 3.05771E-13
 -1      2361 2.32589E+01 1.05814E+00-4.20084E-02 1.74785E+00-1.79144E-13 2.38864E-13
 -1      2362 2.37301E+01 2.27784E+00-3.21739E-02 1.06485E+00-9.44314E-14 3.39992E-13
 -1      2363 2.35321E+01 4.58709E-01 1.86997E-02 1.99019E+00-1.68650E-13 3.66401E-13
 -1      2364 2.37209E+01-1.34645E-01-3.65060E-02 2.01727E+00-1.22805E-13 3.47675E-13
 -1      2365 2.41346E+01 9.86843E-01-4.51729E-03 2.08206E+00-1.87914E-13 3.68182E-13
 -1      2366 2.37777E+01-5.92978E-01 4.93521E-04 1.76795E+00-7.70130E-14 2.01035E-13
 -1      2367 2.38882E+01-9.27392E-01-1.57990E-02 1.48423E+00 2.61529E-14 1.73446E-13
 -1      2368 2.43639E+01-4.61999E-01 1.01162E-02 1.99656E+00-1.46069E-13 3.40470E-13
 -1      2369 2.36822E+01-1.09752E+00-1.57944E-02 1.01532E+00-3.54165E-14 3.49707E-14
 -1      2370 2.36744E+01-1.14030E+00 9.65729E-04 6.24357E-01-6.70653E-14 1.31458E-14
 -1      2371 2.41334E+01-1.30993E+00 6.74946E-03 1.18304E+00-9.10371E-14-3.13291E-15
 -1      2372 2.33283E+01-1.08891E+00-2.10029E-02 1.77890E-01 6.89119E-14-9.98441E-14
 -1      2373 2.32187E+01-9.62227E-01 7.85866E-03-1.71168E-01-5.55224E-14-3.85978E-14
 -1      2374 2.35551E+01-1.45307E+00-3.76313E-03 2.20745E-01-4.46355E-14-2.55460E-14
 -1      2375 2.28585E+01-8.14384E-01-1.79581E-02-4.89369E-01-1.40858E-13 4.02182E-14
 -1      2376 2.26850E+01-6.40484E-01 8.46419E-03-7.33857E-01 2.05769E-14 1.98711E-13
 -1      2377 2.28684E+01-1.16298E+00-9.54654E-03-5.52789E-01-2.50607E-14-2.69593E-14
 -1      2378 2.23756E+01-4.86031E-01-1.18215E-02-9.14833E-01 1.07072E-13 1.29009E-13
 -1      2379 2.21716E+01-3.33481E-01 6.50356E-03-1.05149E+00 1.36531E-13 2.62944E-13
 -1      2380 2.22377E+01-7.40487E-01-9.76652E-03-1.04346E+00 1.20847E-13 2.64762E-13
 -1      2381 2.19268E+01-2.11527E-01-6.01236E-03-1.12500E+00 9.37668E-14 3.31745E-13
 -1      2382 2.17153E+01-1.01817E-01 4.30479E-03-1.17584E+00 1.33755E-13 2.56793E-13
 -1      2383 2.17201E+01-3.60711E-01-7.64129E-03-1.28595E+00 1.76192E-13 1.88836E-13
 -1      2384 2.15258E+01-1.87713E-02-1.66913E-03-1.17653E+00 1.56502E-13 3.18992E-13
 -1      2385 2.13216E+01 5.15086E-02 2.78220E-03-1.16789E+00 1.77582E-13 2.47595E-13
 -1      2386 2.13120E+01-8.21598E-02-5.31295E-03-1.34898E+00 8.18536E-14 2.23352E-13
 -1      2387 2.11732E+01 1.03853E-01 1.10513E-03-1.12316E+00 1.53732E-14 3.04026E-13
 -1      2388 2.09852E+01 1.46945E-01 2.06547E-03-1.07626E+00-2.95300E-14 2.62928E-13
 -1      2389 2.09896E+01 1.00026E-01-3.57335E-03-1.29498E+00 8.42094E-14 3.63513E-13
 -1      2390 2.08656E+01 1.80478E-01 2.55686E-03-1.00403E+00-6.94553E-14 1.99968E-13
 -1      2391 2.06997E+01 2.09304E-01 1.97278E-03-9.32609E-01-1.95256E-13 1.14724E-13
 -1      2392 2.07299E+01 2.14181E-01-2.45306E-03-1.16864E+00-9.75415E-14 4.68277E-13
 -1      2393 2.05996E+01 2.34804E-01 3.03297E-03-8.42638E-01-3.40643E-13 1.07323E-14
 -1      2394 2.04610E+01 2.58596E-01 2.51884E-03-7.53493E-01-2.51774E-13 8.64516E-15
 -1      2395 2.05153E+01 2.91136E-01-1.63679E-03-9.97325E-01-3.21977E-13 2.37655E-13
 -1      2396 1.96171E+01 7.35342E-02 2.11925E-03-6.54019E-02 1.71340E-13 1.73803E-14
 -1      2397 1.96444E+01 1.04959E-01 6.92413E-03-1.88399E-02 2.13531E-13 6.88558E-14
 -1      2398 1.95948E+01 3.25022E-02 1.42829E-03-1.32620E-01 1.45942E-13-4.64377E-14
 -1      2399 1.95911E+01 5.09574E-02 3.70843E-03-1.09348E-01 1.41334E-13-1.32455E-14
 -1      2400 1.97645E+01 9.15025E-02-3.23233E-03-7.15650E-02 1.98953E-13-7.07683E-14
 -1      2401 1.96092E+01 8.64435E-03 1.01388E-03-1.63636E-01 1.47857E-13-3.67432E-14
 -1      2402 1.95878E+01 1.92318E-02 1.85788E-03-1.54126E-01 1.49537E-13-2.75413E-14
 -1      2403 1.97320E+01 3.87937E-02-2.36174E-03-1.46173E-01 1.55310E-13-9.19797E-14
 -1      2404 1.96455E+01-4.31395E-03 7.63743E-04-1.73348E-01 1.37120E-13-4.39023E-15
 -1      2405 1.96147E+01 1.19520E-03 7.77606E-04-1.71674E-01 1.31523E-13-1.61257E-14
 -1      2406 1.97314E+01 8.48410E-03-1.62258E-03-1.81600E-01 1.35799E-13-9.24933E-14
 -1      2407 1.96942E+01-9.95567E-03 6.34271E-04-1.71631E-01 5.52173E-14 1.72425E-14
 -1      2408 1.96588E+01-7.89394E-03 1.48502E-04-1.73875E-01 1.34713E-13 3.81271E-14
 -1      2409 1.97511E+01-7.51673E-03-1.08629E-03-1.93850E-01 1.08822E-13-2.99035E-14
 -1      2410 1.97494E+01-1.04530E-02 6.06815E-04-1.65305E-01 4.90923E-14 1.57408E-14
 -1      2411 1.97122E+01-1.08391E-02-1.96784E-04-1.68747E-01 3.93015E-14 2.75473E-14
 -1      2412 1.97834E+01-1.38693E-02-7.34026E-04-1.93795E-01 5.91162E-14 7.75096E-16
 -1      2413 1.98086E+01-7.15903E-03 6.70680E-04-1.59270E-01 5.71892E-14-1.90204E-14
 -1      2414 1.97704E+01-9.37170E-03-3.55506E-04-1.61934E-01 5.73664E-14 2.24563E-15
 -1      2415 1.98233E+01-1.34041E-02-5.28659E-04-1.89071E-01 7.78731E-14-2.27088E-14
 -1      2416 1.98710E+01-9.09020E-04 8.19072E-04-1.57207E-01 2.29775E-14 4.75733E-14
 -1      2417 1.98318E+01-4.57082E-03-3.89494E-04-1.57582E-01 6.40004E-14 1.89213E-14
 -1      2418 1.98684E+01-7.87779E-03-4.36562E-04-1.85237E-01 4.38040E-14-4.80981E-14
 -1      2419 1.99380E+01 7.80238E-03 1.04767E-03-1.62030E-01 4.43585E-14-2.69583E-14
 -1      2420 1.98966E+01 2.90784E-03-3.40150E-04-1.58890E-01 5.93565E-14 4.18914E-14
 -1      2421 1.99180E+01 1.63223E-03-4.31312E-04-1.86510E-01 4.88570E-14-3.71712E-14
 -1      2422 2.00117E+01 1.86967E-02 1.35295E-03-1.76183E-01 6.36610E-14-7.91912E-14
 -1      2423 1.99663E+01 1.26862E-02-2.35931E-04-1.68470E-01 6.60109E-14-2.89732E-14
 -1      2424 1.99726E+01 1.44899E-02-4.92648E-04-1.96258E-01 6.15356E-14-9.41834E-14
 -1      2425 2.00957E+01 3.16006E-02 1.72946E-03-2.01812E-01 7.08705E-15-3.37110E-14
 -1      2426 2.00440E+01 2.45493E-02-9.68839E-05-1.88577E-01 4.31759E-14-4.00200E-14
 -1      2427 2.00341E+01 3.03275E-02-6.04516E-04-2.17305E-01 3.97579E-14-5.77451E-14
 -1      2428 2.01942E+01 4.63180E-02 2.16538E-03-2.40818E-01 2.88652E-14-1.00866E-13
 -1      2429 2.01333E+01 3.83304E-02 6.25108E-05-2.21213E-01-5.11971E-15-5.91616E-14
 -1      2430 2.01048E+01 4.88819E-02-7.53871E-04-2.52104E-01 3.55245E-14-3.03027E-14
 -1      2431 2.03122E+01 6.24576E-02 2.63624E-03-2.94757E-01 1.77272E-15-4.63171E-14
 -1      2432 2.02389E+01 5.37643E-02 2.31468E-04-2.68108E-01 5.11106E-14-7.53462E-14
 -1      2433 2.01881E+01 6.98001E-02-9.29448E-04-3.02767E-01 4.53560E-14-3.37108E-14
 -1      2434 2.04547E+01 7.91864E-02 3.09596E-03-3.64557E-01-8.66873E-14-3.71067E-14
 -1      2435 2.03658E+01 7.02851E-02 4.01626E-04-3.30533E-01-3.96771E-14-4.64632E-14
 -1      2436 2.02875E+01 9.23749E-02-1.12095E-03-3.70903E-01-5.58134E-14 4.20668E-15
 -1      2437 2.06271E+01 9.48640E-02 3.46382E-03-4.49952E-01-8.23074E-14-3.17257E-14
 -1      2438 2.05194E+01 8.67295E-02 5.67030E-04-4.08879E-01-1.22015E-13-4.90968E-14
 -1      2439 2.04070E+01 1.15163E-01-1.32106E-03-4.57243E-01-1.10321E-13-2.98480E-14
 -1      2440 2.08341E+01 1.06506E-01 3.60828E-03-5.48532E-01-1.08676E-14-6.65096E-14
 -1      2441 2.07051E+01 1.00895E-01 7.26077E-04-5.01918E-01 2.06764E-14 1.70815E-14
 -1      2442 2.05508E+01 1.35423E-01-1.52941E-03-5.60937E-01-4.02539E-14-3.22073E-14
 -1      2443 2.10793E+01 1.09061E-01 3.33016E-03-6.54262E-01 1.09721E-13-9.32948E-14
 -1      2444 2.09277E+01 1.08913E-01 8.85916E-04-6.05607E-01 8.50123E-15-7.38534E-14
 -1      2445 2.07233E+01 1.48316E-01-1.75941E-03-6.78418E-01 5.10821E-14-1.14893E-13
 -1      2446 2.13643E+01 9.45787E-02 2.35322E-03-7.55367E-01 1.29986E-13 7.53373E-14
 -1      2447 2.11912E+01 1.04453E-01 1.06951E-03-7.11286E-01 1.73634E-13 2.24872E-15
 -1      2448 2.09288E+01 1.45874E-01-2.04791E-03-8.01698E-01 8.04568E-14-6.40604E-15
 -1      2449 2.16877E+01 5.16477E-02 3.40289E-04-8.31643E-01-2.83219E-14-4.60049E-15
 -1      2450 2.14975E+01 7.79415E-02 1.32188E-03-8.03222E-01 6.49347E-14 2.62100E-14
 -1      2451 2.11724E+01 1.15944E-01-2.46117E-03-9.15987E-01 1.05758E-13 1.29339E-13
 -1      2452 2.20433E+01-3.39020E-02-3.02895E-03-8.51750E-01-1.17639E-13-2.38427E-14
 -1      2453 2.18458E+01 1.64184E-02 1.70115E-03-8.55695E-01-9.66411E-14 8.53701E-15
 -1      2454 2.14594E+01 4.18152E-02-3.08041E-03-9.96760E-01-4.06268E-14 9.19946E-15
 -1      2455 2.24186E+01-1.74957E-01-7.85882E-03-7.72194E-01 2.51687E-14-8.39075E-14
 -1      2456 2.22303E+01-9.45095E-02 2.22843E-03-8.30626E-01-1.67821E-14-1.25801E-13
 -1      2457 2.17962E+01-9.57750E-02-3.92819E-03-1.00689E+00 5.35417E-15-1.42566E-13
 -1      2458 2.27907E+01-3.72403E-01-1.36227E-02-5.41665E-01 7.47302E-14-8.20570E-14
 -1      2459 2.26365E+01-2.63922E-01 2.74739E-03-6.78307E-01 7.19416E-14-1.92034E-14
 -1      2460 2.21878E+01-3.10989E-01-4.77180E-03-8.95712E-01 2.50466E-14-2.92799E-14
 -1      2461 2.31207E+01-5.94889E-01-1.85366E-02-1.17398E-01-2.73011E-14-6.73852E-14
 -1      2462 2.30328E+01-4.80403E-01 2.66696E-03-3.46692E-01 4.55265E-14-5.50037E-14
 -1      2463 2.26312E+01-5.94832E-01-4.75604E-03-6.04328E-01 3.20841E-14-1.35093E-13
 -1      2464 2.33461E+01-7.53317E-01-1.90559E-02 4.98672E-01-1.15170E-13 1.89592E-13
 -1      2465 2.33598E+01-6.87782E-01 7.23296E-04 1.92042E-01-1.39070E-13 6.81688E-14
 -1      2466 2.30992E+01-8.85107E-01-2.26827E-03-8.55729E-02-1.82073E-13-1.04496E-14
 -1      2467 2.33822E+01-6.96495E-01-1.10729E-02 1.20147E+00-7.23033E-15 4.35496E-13
 -1      2468 2.35202E+01-7.63569E-01-4.94161E-03 8.88880E-01-1.23903E-15 3.79527E-13
 -1      2469 2.35145E+01-1.03401E+00 4.32632E-03 6.49655E-01-1.97583E-13 2.74108E-13
 -1      2470 2.31573E+01-2.84039E-01 5.10469E-03 1.73548E+00-1.22339E-14 3.84734E-13
 -1      2471 2.34054E+01-5.44210E-01-1.39143E-02 1.55279E+00 7.22326E-14 4.70562E-13
 -1      2472 2.37389E+01-8.30433E-01 1.23085E-02 1.45455E+00 2.51188E-14 4.94737E-13
 -1      2473 2.27012E+01 4.48126E-01 1.93936E-02 1.74954E+00-6.36123E-14 3.18868E-13
 -1      2474 2.29853E+01 4.99007E-02-2.20876E-02 1.84597E+00-3.34850E-14 3.74852E-13
 -1      2475 2.36360E+01-1.34793E-01 1.30163E-02 1.99219E+00 3.31642E-14 4.05313E-13
 -1      2476 2.22260E+01 1.15597E+00 1.67097E-02 1.03148E+00-8.54646E-14 1.67455E-13
 -1      2477 2.24299E+01 8.35200E-01-1.92607E-02 1.44846E+00-8.19136E-14 2.50557E-13
 -1      2478 2.32320E+01 8.79666E-01-5.73646E-03 1.83788E+00-2.07334E-14 3.38023E-13
 -1      2479 2.20589E+01 1.36464E+00-1.75672E-03-1.97594E-01 2.15782E-14 1.60683E-13
 -1      2480 2.20810E+01 1.34945E+00-1.38959E-03 3.76617E-01-4.00062E-14 1.39332E-13
 -1      2481 2.28312E+01 1.69248E+00-2.50148E-02 8.21903E-01-4.57846E-14 1.32032E-13
 -1      2482 2.23487E+01 9.07968E-01-1.94366E-02-1.31794E+00 1.66580E-13 7.17915E-14
 -1      2483 2.21803E+01 1.21099E+00 1.78900E-02-8.74931E-01 1.36741E-13 1.22999E-13
 -1      2484 2.27995E+01 1.74343E+00-2.46786E-02-6.27422E-01 9.55434E-14 1.87694E-13
 -1      2485 2.28849E+01 1.26947E-01-2.14017E-02-1.79273E+00 2.11171E-13 1.17139E-13
 -1      2486 2.26161E+01 5.27998E-01 2.08979E-02-1.66416E+00 1.76435E-13 1.44481E-13
 -1      2487 2.31613E+01 9.89496E-01-4.80020E-03-1.71707E+00 1.93037E-13 7.58590E-14
 -1      2488 2.33130E+01-5.04111E-01-1.24986E-02-1.55543E+00 2.19124E-13 2.23011E-13
 -1      2489 2.30663E+01-2.27069E-01 7.52863E-03-1.71568E+00 2.89742E-13 2.20960E-13
 -1      2490 2.35662E+01-4.72510E-02 1.22486E-02-1.95696E+00 2.28628E-13 2.28642E-13
 -1      2491 2.34364E+01-7.64247E-01-3.72065E-03-9.04374E-01 8.51845E-14 2.24994E-13
 -1      2492 2.32955E+01-6.81590E-01-9.71325E-03-1.20817E+00 1.51656E-13 3.46677E-13
 -1      2493 2.36888E+01-7.95936E-01 1.36843E-02-1.46303E+00 2.44882E-13 3.13333E-13
 -1      2494 2.32712E+01-7.16143E-01 1.20434E-03-1.87273E-01-1.87699E-13 3.65081E-13
 -1      2495 2.32594E+01-7.71356E-01-1.85144E-02-4.97189E-01 2.58734E-14 3.10138E-13
 -1      2496 2.34731E+01-1.05193E+00 4.41837E-03-6.55742E-01 2.88619E-14 6.22894E-13
 -1      2497 2.29232E+01-5.18932E-01 2.79427E-03 3.87631E-01-2.25599E-13 3.00255E-13
 -1      2498 2.30208E+01-6.29391E-01-1.83924E-02 1.48057E-01-2.84286E-13 1.86306E-13
 -1      2499 2.30484E+01-9.33214E-01-2.85779E-03 1.11038E-01-1.85587E-13 4.83844E-13
 -1      2500 2.24933E+01-3.00479E-01 2.60267E-03 7.56521E-01-1.94219E-13 2.58901E-13
 -1      2501 2.26651E+01-4.09291E-01-1.35796E-02 6.07203E-01-2.25448E-13 2.56712E-13
 -1      2502 2.25563E+01-6.50143E-01-5.31018E-03 6.70963E-01-2.32339E-13 1.17702E-13
 -1      2503 2.20461E+01-1.22588E-01 1.94773E-03 9.39226E-01-3.49100E-14 3.04981E-13
 -1      2504 2.22576E+01-2.06223E-01-7.91806E-03 8.69076E-01-1.10287E-13 2.64199E-13
 -1      2505 2.20809E+01-3.59104E-01-5.10452E-03 1.00028E+00-1.64500E-13 2.05988E-13
 -1      2506 2.16169E+01 1.11119E-03 1.55029E-03 9.83628E-01 2.37067E-13 3.18035E-13
 -1      2507 2.18410E+01-5.50009E-02-3.17024E-03 9.71635E-01 1.76347E-13 3.65043E-13
 -1      2508 2.16542E+01-1.29337E-01-4.10019E-03 1.14012E+00 4.32207E-14-8.40257E-16
 -1      2509 2.12240E+01 8.06053E-02 1.66614E-03 9.35780E-01 1.33770E-13 3.43262E-13
 -1      2510 2.14409E+01 4.50998E-02 2.07743E-04 9.62665E-01 2.28761E-13 3.73367E-13
 -1      2511 2.12817E+01 2.82510E-02-3.15575E-03 1.14576E+00 1.94647E-13 9.89432E-15
 -1      2512 2.08764E+01 1.32567E-01 1.95795E-03 8.28232E-01-1.01367E-13 3.01166E-13
 -1      2513 2.10733E+01 1.09206E-01 2.31444E-03 8.81055E-01 4.26670E-14 3.40016E-13
 -1      2514 2.09595E+01 1.29455E-01-2.72113E-03 1.06445E+00 8.65854E-14 3.15774E-13
 -1      2515 2.05794E+01 1.73019E-01 2.37913E-03 6.80175E-01 1.65948E-13 1.73000E-13
 -1      2516 2.07485E+01 1.54186E-01 3.51525E-03 7.52103E-01-5.89021E-14 3.54026E-13
 -1      2517 2.06825E+01 1.97185E-01-3.25981E-03 9.27055E-01-1.24332E-14 1.72357E-14
 -1      2518 2.03345E+01 2.10715E-01 3.04432E-03 5.02353E-01 1.87433E-13 2.01230E-13
 -1      2519 2.04717E+01 1.92061E-01 3.79225E-03 5.88681E-01 2.30888E-13 1.35247E-13
 -1      2520 2.04475E+01 2.50882E-01-3.51141E-03 7.49579E-01 1.33304E-13 6.41680E-14
 -1      2521 2.02393E+01 2.22285E-01 2.83335E-03 3.90679E-01 2.09553E-13 1.50139E-13
 -1      2522 1.98243E+01 1.11070E+00-4.98836E-03 6.19297E-01 1.78205E-13 2.10949E-13
 -1      2523 1.98820E+01 1.00556E+00 1.39509E-03 6.73081E-01 8.39946E-14-5.04305E-14
 -1      2524 1.97323E+01 1.28413E+00-5.42159E-03 4.43274E-01 5.69326E-14 1.41768E-13
 -1      2525 1.97758E+01 1.20490E+00-5.01806E-04 5.33080E-01 1.65480E-13 6.40475E-14
 -1      2526 1.97375E+01 1.09581E+00 2.69638E-03 6.59165E-01 2.06038E-13 7.95472E-14
 -1      2527 2.00669E+01 6.57420E-01-2.51363E-03 7.13981E-01-2.12402E-14-1.43640E-13
 -1      2528 2.01358E+01 5.34253E-01 3.99617E-03 6.81877E-01 4.03806E-14-1.51211E-13
 -1      2529 1.99424E+01 8.92006E-01-3.65154E-03 7.12525E-01-1.09031E-14-1.91462E-13
 -1      2530 2.00061E+01 7.75796E-01 3.19300E-03 7.21265E-01 8.53619E-14-5.76705E-14
 -1      2531 2.00363E+01 6.74227E-01-1.58877E-03 8.23413E-01 1.34099E-13-8.69531E-14
 -1      2532 1.98844E+01 8.96066E-01 1.51653E-03 7.94097E-01 2.78621E-13-1.19544E-14
 -1      2533 1.96761E+01 1.39026E+00-5.12023E-03 2.07421E-01-1.16372E-13-3.18930E-13
 -1      2534 1.97000E+01 1.34739E+00-2.33547E-03 3.21441E-01-2.53016E-14-1.20256E-13
 -1      2535 1.96279E+01 1.24751E+00 3.92961E-03 4.37722E-01 2.90197E-14-4.10437E-14
 -1      2536 1.96634E+01 1.41424E+00-4.08970E-03-5.72447E-02-1.64894E-13-2.28730E-13
 -1      2537 1.96642E+01 1.41346E+00-3.95116E-03 6.56739E-02-1.93495E-13-2.00789E-13
 -1      2538 1.95678E+01 1.33097E+00 4.68832E-03 1.56621E-01 9.55197E-14-3.09217E-13
 -1      2539 1.96964E+01 1.35216E+00-2.55248E-03-3.14727E-01-1.63772E-13-1.45830E-13
 -1      2540 1.96740E+01 1.39379E+00-5.00788E-03-1.99713E-01-2.14786E-13-2.34707E-13
 -1      2541 1.95659E+01 1.33361E+00 4.71702E-03-1.46669E-01-1.05474E-13-3.62476E-13
 -1      2542 1.97692E+01 1.21559E+00-6.54633E-04-5.26886E-01-1.72952E-13 4.85698E-14
 -1      2543 1.97272E+01 1.29232E+00-5.37279E-03-4.36579E-01-1.45019E-13 3.60287E-14
 -1      2544 1.96222E+01 1.25584E+00 4.09308E-03-4.28507E-01-1.41407E-13-3.58738E-14
 -1      2545 1.98752E+01 1.01760E+00 1.20241E-03-6.72424E-01-7.10672E-14 3.91888E-13
 -1      2546 1.98175E+01 1.12267E+00-5.01351E-03-6.16196E-01-7.02341E-14 8.66824E-14
 -1      2547 1.97288E+01 1.10876E+00 2.84310E-03-6.53694E-01-5.90631E-14 1.22197E-13
 -1      2548 2.00020E+01 7.83521E-01 2.63265E-03-7.27599E-01-1.81554E-13 3.06006E-13
 -1      2549 1.99356E+01 9.04200E-01-3.91130E-03-7.15500E-01-2.13752E-13 5.72637E-13
 -1      2550 1.98740E+01 9.09817E-01 1.12795E-03-7.94574E-01-1.28011E-13 3.03434E-13
 -1      2551 2.01351E+01 5.39578E-01 3.65488E-03-6.84036E-01-1.82902E-13-1.17124E-13
 -1      2552 2.00682E+01 6.63543E-01-2.08205E-03-7.19078E-01-2.33665E-13 4.63558E-14
 -1      2553 2.00396E+01 6.83713E-01-2.22406E-04-8.30188E-01-1.89523E-13 6.44255E-14
 -1      2554 4.14978E+00-3.48603E+00 2.83147E-02 3.53365E+00-1.18600E-13 6.78901E-14
 -1      2555 2.98510E+00-3.12631E+00 4.34468E-02 1.29878E+00-1.88877E-13 1.22180E-13
 -1      2556 9.91578E+00-4.39669E+00 1.24337E-03 6.50068E+00-1.37418E-13-1.01696E-13
 -1      2557 6.60001E+00-4.03844E+00 6.66957E-02 5.05563E+00-1.38001E-13 1.65423E-14
 -1      2558 3.08900E+00-3.03527E+00 7.09238E-02-1.06495E+00-1.32352E-13 2.56795E-13
 -1      2559 4.52947E+00-3.15450E+00 5.17990E-02-3.55371E+00-5.45397E-14 4.88498E-14
 -1      2560 1.96978E+01 1.43773E-01 3.28816E-03 6.15142E-02 2.50362E-13 9.45598E-14
 -1      2561 1.97764E+01 1.98427E-01 1.23903E-02 1.47920E-01 2.82613E-13 1.56016E-13
 -1      2562 1.98447E+01 1.81765E-01-3.90545E-03 6.66233E-02 2.74069E-13-3.31085E-14
 -1      2563 2.02000E+01 3.49990E-01 2.19775E-03-4.98807E-01 1.85868E-13-4.76069E-14
 -1      2564 1.76044E+01-5.47221E+00-4.01113E-02 6.81510E+00 1.36224E-13-1.96090E-13
 -1      2565 1.43479E+01-5.14517E+00 9.60810E-02 6.73085E+00-2.48690E-14-2.22183E-13
 -1      2566 2.55258E+01-4.64780E+00-1.24008E-01 4.02080E+00 2.71172E-14-9.38971E-14
 -1      2567 2.15225E+01-5.39263E+00 6.64365E-02 5.50906E+00 1.25344E-13-1.40790E-13
 -1      2568 1.35517E+01-4.99436E+00 8.01148E-02-6.71296E+00 2.19574E-13-3.82583E-13
 -1      2569 1.68542E+01-5.39426E+00 3.20154E-02-6.84463E+00 2.05447E-13-4.89159E-13
 -1      2570 2.98532E+01-1.37693E+00-1.56421E-01 4.82271E-01-1.33504E-13 9.68670E-14
 -1      2571 2.83965E+01-2.89940E+00 2.86216E-02 1.41987E+00-6.34250E-14-8.42659E-14
 -1      2572 3.28646E+01 7.19236E+00-1.37168E-01-5.13371E-01-5.13034E-13-1.04313E-12
 -1      2573 3.31032E+01 6.41677E+00-8.28036E-02-7.70389E-01-5.27023E-13-1.03428E-12
 -1      2574 3.25871E+01 7.12791E+00-1.49490E-01-5.02056E-01 4.65072E-13-4.97102E-14
 -1      2575 3.28195E+01 6.23117E+00-8.41543E-02-8.18779E-01 3.26794E-13 2.44527E-14
 -1      2576 1.95258E+01 3.58501E+00-1.01062E-02-2.45678E-01 5.90079E-14-7.32961E-13
 -1      2577 1.95415E+01 3.56432E+00-9.66496E-03-4.26635E-01-5.26581E-15-7.47533E-13
 -1      2578 1.97178E+01 3.16380E+00-5.69952E-04-4.74106E-01-3.53563E-14-6.97518E-13
 -1      2579 1.96842E+01 3.22385E+00-8.99235E-04-1.52249E-01 7.82985E-14-6.86669E-13
 -1      2580 3.20075E+01 6.67019E+00-1.27677E-01 8.21081E-01 6.15230E-13 1.42525E-13
 -1      2581 3.25277E+01 7.38889E+00-1.16701E-01 2.15240E-01 6.09401E-13 4.45703E-14
 -1      2582 9.04031E+00-4.66814E+00 4.25071E-02-6.06258E+00-4.79922E-13-8.50042E-13
 -1      2583 1.22856E+01-5.00112E+00-3.70701E-02-6.95983E+00-4.14502E-13-4.91177E-13
 -1      2584 3.13772E+01 3.15274E+00-7.01842E-02 1.26086E+00 3.20105E-13 5.47895E-14
 -1      2585 3.15592E+01 4.68636E+00-1.83928E-01 1.26352E+00 4.76841E-13 8.98726E-14
 -1      2586 2.93800E+01-1.61331E+00-3.58996E-02-1.26787E+00 1.91926E-13-4.40203E-14
 -1      2587 3.11203E+01 6.35074E-01-1.57960E-01 1.21648E-01 2.61402E-13-1.89293E-14
 -1      2588 2.48490E+01-4.63444E+00 1.41071E-03-3.98511E+00-9.29812E-14-2.17382E-13
 -1      2589 2.73419E+01-3.64006E+00-9.82407E-02-2.98342E+00 1.35253E-13-5.99243E-14
 -1      2590 1.97210E+01-5.54410E+00-3.76500E-04-5.98083E+00 1.38112E-13-4.95881E-13
 -1      2591 2.31950E+01-5.11240E+00-3.68506E-02-5.25574E+00 2.79332E-13-5.84643E-13
 -1      2592 2.00519E+01-5.38601E+00 8.36012E-02-5.85783E+00 2.58821E-13-5.37329E-13
 -1      2593 1.71538E+01-5.44571E+00 5.58205E-02-6.41002E+00-4.09978E-13-4.68821E-13
 -1      2594 2.15635E+01-5.25445E+00-4.38479E-02-5.82164E+00-2.51410E-13-5.19834E-13
 -1      2595 2.38591E+01-5.19245E+00 6.17667E-02-4.28137E+00-3.24824E-13-3.28439E-13
 -1      2596 3.93148E+00-3.43416E+00 4.18437E-02-3.12721E+00-3.64361E-13-8.15015E-13
 -1      2597 6.08340E+00-3.87420E+00 2.82646E-02-5.06773E+00-3.95489E-13-1.04056E-12
 -1      2598 3.12207E+00-2.80400E+00 5.16858E-02 1.30861E+00-1.53696E-13-3.41838E-13
 -1      2599 2.96631E+00-2.92768E+00 5.32382E-02-1.02847E+00-1.95823E-13-5.38680E-13
 -1      2600 7.00634E+00-3.87932E+00 3.61056E-02 5.40952E+00-1.36058E-13-6.03712E-13
 -1      2601 4.50786E+00-3.40324E+00 5.97678E-02 3.53787E+00-1.31076E-13-4.88387E-13
 -1      2602 2.30786E+01-4.85019E+00 1.26615E-02 5.38756E+00-2.84273E-13-1.11000E-12
 -1      2603 1.98067E+01-5.40177E+00 3.02646E-02 5.97892E+00-2.30427E-13-7.33053E-13
 -1      2604 2.83622E+01-2.70164E+00-6.45160E-02 2.93423E+00-2.76404E-13-1.04017E-12
 -1      2605 2.54641E+01-4.08188E+00-4.21127E-02 3.97611E+00-3.24601E-13-1.00708E-12
 -1      2606 2.50857E+01-4.88872E+00 1.82212E-02 3.85150E+00-5.77871E-14-7.51593E-13
 -1      2607 3.16251E+01 9.07876E-01-1.06001E-01 2.25689E-01-4.76327E-13-6.06737E-13
 -1      2608 3.00643E+01-8.89924E-01-4.58498E-02 1.15427E+00-2.79551E-13-8.93619E-13
 -1      2609 3.31190E+01 4.90974E+00-1.12275E-01-8.11272E-01-4.80727E-13-8.85125E-13
 -1      2610 3.23615E+01 3.28284E+00-7.21389E-02-5.86387E-01-5.34878E-13-7.47180E-13
 -1      2611 3.28680E+01 7.06439E+00-9.63762E-02 5.64288E-01-5.66103E-13-8.99752E-13
 -1      2612 3.28783E+01 7.41644E+00-1.20170E-01 1.11460E-01-5.56555E-13-9.48135E-13
 -1      2613 3.24079E+01 3.82631E+00-6.04846E-02 7.04781E-01-4.67959E-13-1.12588E-12
 -1      2614 3.29310E+01 5.67110E+00-1.28404E-01 8.92379E-01-5.30076E-13-1.01155E-12
 -1      2615 3.04955E+01-4.07186E-01-4.88036E-02-7.68213E-01-9.62425E-14-9.91707E-13
 -1      2616 3.16973E+01 1.25490E+00-1.31137E-01-1.60356E-04-2.43541E-13-1.17822E-12
 -1      2617 2.59965E+01-4.07581E+00-3.35973E-02-3.55599E+00 3.15997E-13-7.41462E-13
 -1      2618 2.90427E+01-2.38628E+00-6.81992E-02-2.39864E+00 1.31201E-13-7.88231E-13
 -1      2619 2.92169E+01-2.11092E+00-7.60166E-03-6.40879E-01 1.56328E-13-9.31727E-13
 -1      2620 7.52191E+00-3.49998E+00 1.35667E-01-5.12939E+00 1.11300E-14-1.46078E-13
 -1      2621 9.87816E+00-3.96713E+00 7.89027E-02-6.32540E+00 1.30368E-13-3.30458E-13
 -1      2622 2.05438E+01 1.95500E+00-1.36929E-02-1.90033E+00-5.25781E-13-3.34247E-13
 -1      2623 2.04065E+01 1.21411E+00-7.26688E-03-1.28926E+00-4.76289E-13-2.81368E-13
 -1      2624 2.03786E+01 1.38038E+00 7.26560E-03-1.23929E+00-4.43065E-13-3.75431E-13
 -1      2625 2.02874E+01 2.38471E+00-4.82706E-03-1.84450E+00-5.03649E-13-4.54383E-13
 -1      2626 2.04842E+01 8.74887E-01-7.31791E-03 1.22870E+00 5.19128E-13 3.89877E-13
 -1      2627 2.08350E+01 1.25689E+00-6.05107E-03 1.72934E+00 5.50181E-13 4.61093E-13
 -1      2628 2.06418E+01 1.71555E+00-1.57917E-02 1.92362E+00 6.01383E-13 2.59130E-13
 -1      2629 2.04443E+01 1.05793E+00-9.40123E-03 1.24364E+00 5.29393E-13 1.38368E-13
 -1      2630 3.04966E+01 6.90427E+00-7.68556E-02-2.26778E-01 4.37761E-13 3.68594E-14
 -1      2631 1.99160E+01 2.81582E+00 2.44160E-03-1.10035E+00-2.74335E-13-6.77563E-13
 -1      2632 1.97850E+01 3.16019E+00-1.45330E-02-1.28628E+00-2.94614E-13-7.25860E-13
 -1      2633 1.98780E+01 3.03679E+00-1.74893E-02-1.48514E+00-3.77524E-13-6.91011E-13
 -1      2634 1.99900E+01 3.40501E-01-3.59304E-03 3.06475E-01 3.48489E-13 1.95703E-14
 -1      2635 2.04189E+01 2.11565E+00-1.27687E-02 1.87668E+00 6.03983E-13 2.16910E-14
 -1      2636 3.09334E+01 5.90561E+00-7.16133E-02 1.15970E+00-4.79616E-13-8.68500E-13
 -1      2637 3.10703E+01 5.30039E+00-4.83289E-02-1.44734E+00-3.38896E-13-6.23446E-13
 -1      2638 2.96170E+01 7.04681E-02-6.52032E-02-1.12110E+00-4.94882E-14 2.38976E-14
 -1      2639 2.89674E+01-2.41931E+00 5.93191E-03 1.07845E+00-3.34073E-14-5.33518E-13
 -1      2640 1.33292E+01-4.28366E+00 1.22545E-01 6.48183E+00-7.66054E-14-9.43828E-14
 -1      2641 9.97620E+00-3.93568E+00 1.24072E-01 6.05283E+00-1.02029E-13-5.54001E-13
 -1      2642 9.68869E+00-2.72465E+00 1.66824E-01 5.45862E+00-4.11338E-14-5.39041E-13
 -1      2643 1.28815E+01-4.07493E+00 2.44045E-02 6.33411E+00-9.96425E-15-5.95052E-13
 -1      2644 2.02492E+01 2.98475E-01 9.25877E-04 5.35442E-01 1.39545E-13 6.35127E-14
 -1      2645 2.02199E+01 3.87945E-01-1.34166E-04 6.02956E-01 8.43334E-14 5.77626E-14
 -1      2646 5.54102E+00-2.00561E+00 1.60465E-01 2.43554E+00-5.16531E-14-4.66127E-13
 -1      2647 4.71869E+00-1.91827E+00 1.51206E-01 1.21148E-01-1.48489E-13 1.19849E-13
 -1      2648 7.09554E+00-2.67080E+00 1.51509E-01 4.34422E+00-9.27730E-14 1.04389E-13
 -1      2649 7.47407E+00-2.30891E+00 1.52673E-01-4.18786E+00-5.31797E-14-9.03166E-14
 -1      2650 2.04337E+01 1.80796E+00 1.25506E-02 1.56444E+00 5.63055E-13-3.69687E-14
 -1      2651 2.67337E+01-4.10756E+00 5.73674E-03 2.24541E+00 7.86315E-14-5.16948E-14
 -1      2652 9.10835E+00-3.39362E+00 1.32287E-01-5.59057E+00-5.14644E-13-8.17624E-13
 -1      2653 2.08830E+01-5.36382E+00 1.01897E-01 5.58669E+00 2.31010E-13-6.32272E-14
 -1      2654 2.01121E+01 2.62115E+00-1.16957E-02-1.68051E+00-4.39513E-13-5.59544E-13
 -1      2655 2.53698E+01-4.86347E+00 4.61253E-02-3.54582E+00 2.42306E-13-8.02247E-13
 -1      2656 1.35562E+01-4.07453E+00 1.02825E-01-6.32366E+00 2.19269E-13-4.32113E-13
 -1      2657 2.83389E+01-2.98349E+00 2.62709E-02-9.78154E-01 1.78052E-14 1.06110E-13
 -1      2658 2.99802E+01 1.17476E+00-5.28303E-02 1.31552E+00 2.32855E-13 1.01141E-13
 -1      2659 3.05757E+01 4.77488E+00-5.50589E-02-1.56678E+00 1.49297E-13-1.13243E-13
 -1      2660 3.08269E+01 6.99409E+00-7.58566E-02-2.89492E-01-5.84865E-13-6.67414E-13
 -1      2661 1.84019E+01-5.41714E+00 5.25833E-02 6.30843E+00-1.85518E-13-6.42287E-13
 -1      2662 1.70281E+01-4.83943E+00 1.52827E-01 6.47347E+00-6.52811E-14-6.58890E-13
 -1      2663 2.09963E+01-5.44459E+00-1.71827E-02 5.41183E+00-2.73115E-14-6.44622E-13
 -1      2664 1.64524E+01-4.95532E+00 1.03241E-01-6.47859E+00-4.34874E-13-4.67515E-13
 -1      2665 2.99859E+01 5.35047E+00-8.78796E-02 1.56949E+00 5.12868E-13 2.42140E-13
 -1      2666 5.30659E+00-1.96649E+00 1.53849E-01-2.15942E+00-2.80692E-13-7.01050E-13
 -1      2667 3.08022E+01 1.59084E+00-1.64570E-02-1.21421E+00-2.37810E-13-2.72782E-13
 -1      2668 3.07924E+01 2.15254E+00-2.93501E-02 1.36616E+00-2.71033E-13-1.09815E-12
 -1      2669 2.03041E+01 2.88069E-01 4.07368E-03-5.88598E-01 1.52191E-13 7.10302E-14
 -1      2670 2.02012E+01 4.31163E-01-1.64036E-03-6.57733E-01 9.88901E-16 6.52926E-14
 -1      2671 2.02221E+01 4.64370E-01 9.79661E-04-7.87756E-01-1.59845E-13 2.23567E-13
 -1      2672 2.04073E+01 2.73711E-01 4.05334E-03-6.82658E-01-1.15027E-13 8.38610E-14
 -1      2673 2.02488E+01 4.19489E-01 1.83960E-03 7.38720E-01 7.18634E-14-3.62373E-14
 -1      2674 2.03612E+01 3.41316E-01-2.10895E-03-8.26260E-01-1.66220E-13 2.80941E-13
 -1      2675 1.98513E+01 2.76555E+00-6.32801E-03 5.17054E-01 2.83241E-13-5.83557E-13
 -1      2676 1.98271E+01 2.81532E+00-5.71747E-03 3.65966E-01 2.40855E-13-6.02670E-13
 -1      2677 1.98105E+01 2.85293E+00-5.62133E-03 2.30160E-01 2.07356E-13-6.11389E-13
 -1      2678 1.98020E+01 2.86984E+00-5.45322E-03 7.53291E-02 1.48419E-13-6.14104E-13
 -1      2679 1.99570E+01 2.50217E+00 3.69331E-03 2.65615E-01 2.10076E-13-5.79040E-13
 -1      2680 2.00467E+01 2.32408E+00-1.07230E-02 1.04763E+00 4.67878E-13-4.15373E-13
 -1      2681 1.99835E+01 2.47307E+00-6.34573E-03 9.11809E-01 4.22129E-13-4.59094E-13
 -1      2682 2.02169E+01 1.90862E+00-1.19350E-02 1.22936E+00 5.13260E-13-2.83616E-13
 -1      2683 2.01259E+01 2.14634E+00-4.83239E-03 1.13594E+00 4.79697E-13-3.55447E-13
 -1      2684 2.01919E+01 1.88697E+00 6.45873E-03 9.28302E-01 4.38292E-13-3.55152E-13
 -1      2685 2.02097E+01 7.26967E-01-3.47344E-03 6.44905E-01 4.12241E-13-6.85188E-14
 -1      2686 2.03517E+01 9.51679E-01 9.18170E-03 9.08679E-01 4.45540E-13-4.38353E-14
 -1      2687 2.69950E+01-3.68259E+00-1.08786E-01 8.34606E-01 1.47714E-13 6.87228E-14
 -1      2688 2.52673E+01-4.80192E+00 8.28608E-02 2.92362E+00 1.67547E-13 5.19446E-14
 -1      2689 2.00669E+01 4.16330E-01-1.58375E-03 2.89503E-01 3.31148E-13-8.31216E-14
 -1      2690 2.01682E+01 5.54419E-01 1.04818E-02 4.52671E-01 3.72920E-13-6.71308E-14
 -1      2691 2.02525E+01 8.22347E-01 8.42578E-04 6.19337E-01 4.08407E-13-1.65968E-13
 -1      2692 2.03353E+01 1.50021E+00-1.89184E-03 1.26919E+00 5.17027E-13-8.46671E-14
 -1      2693 1.56816E+01-4.35644E+00-2.91579E-02 6.41225E+00 1.56652E-13 2.32731E-14
 -1      2694 1.23205E+01-3.15559E+00 1.88775E-01 5.92329E+00-1.40166E-14 6.34770E-14
 -1      2695 2.02147E+01 6.27633E-01 8.22265E-03-4.38749E-01-2.89372E-13-3.58618E-13
 -1      2696 2.01312E+01 4.76300E-01-3.38053E-03-2.79851E-01-2.37042E-13-3.47103E-13
 -1      2697 2.01054E+01 3.64340E-01 6.60120E-03-1.59520E-01-2.15092E-13-3.32285E-13
 -1      2698 2.00467E+01 2.70384E-01-1.73597E-03-6.10922E-02-1.77870E-13-3.55656E-13
 -1      2699 2.01959E+01 5.30543E-01-1.75234E-03-2.62706E-01-2.45505E-13-3.66362E-13
 -1      2700 2.00211E+01 2.00981E-01 4.49851E-03 1.52819E-02-1.60865E-13-3.44239E-13
 -1      2701 1.99861E+01 1.42530E-01-7.51823E-04 7.31075E-02-1.57088E-13-3.56669E-13
 -1      2702 2.01279E+01 3.02588E-01-2.13045E-03-5.46083E-02-1.80364E-13-3.65086E-13
 -1      2703 1.99658E+01 9.96254E-02 2.87024E-03 1.18137E-01-1.19026E-13-3.43382E-13
 -1      2704 1.99491E+01 6.39370E-02-1.59577E-04 1.49543E-01-1.22415E-13-3.25268E-13
 -1      2705 2.00727E+01 1.59047E-01-1.94909E-03 7.55667E-02-1.36084E-13-3.37953E-13
 -1      2706 1.99350E+01 3.82374E-02 1.69207E-03 1.73588E-01-1.52996E-13-3.05246E-13
 -1      2707 1.99312E+01 1.77057E-02 1.97209E-04 1.88472E-01-1.44698E-13-3.17287E-13
 -1      2708 2.00334E+01 7.05183E-02-1.58901E-03 1.51023E-01-1.28405E-13-3.18862E-13
 -1      2709 1.99226E+01 3.63956E-03 8.66523E-04 1.99371E-01-1.26382E-13-2.98138E-13
 -1      2710 1.99276E+01-6.45093E-03 4.28334E-04 2.04671E-01-1.28528E-13-2.85079E-13
 -1      2711 2.00085E+01 1.88784E-02-1.22573E-03 1.90483E-01-1.37613E-13-2.91387E-13
 -1      2712 1.99234E+01-1.23642E-02 2.98755E-04 2.08242E-01-1.30724E-13-2.55903E-13
 -1      2713 1.99343E+01-1.50216E-02 5.99591E-04 2.08910E-01-1.22755E-13-2.14274E-13
 -1      2714 1.99952E+01-7.27402E-03-9.25859E-04 2.08105E-01-1.11659E-13-1.90253E-13
 -1      2715 1.99334E+01-1.50214E-02-8.62212E-05 2.09482E-01-9.38183E-14-1.56359E-13
 -1      2716 1.99485E+01-1.21916E-02 7.50506E-04 2.09136E-01-3.73247E-14-1.68996E-13
 -1      2717 1.99908E+01-1.52473E-02-7.00418E-04 2.14475E-01-8.53673E-14-9.05972E-14
 -1      2718 1.99503E+01-7.72640E-03-3.46904E-04 2.09973E-01-4.69250E-14-1.81733E-13
 -1      2719 1.99685E+01-6.53497E-04 9.05364E-04 2.11340E-01-3.23399E-14-2.09518E-13
 -1      2720 1.99932E+01-9.79684E-03-5.41359E-04 2.17538E-01-7.45254E-14-1.02652E-13
 -1      2721 1.99723E+01 7.35954E-03-5.28087E-04 2.14969E-01-1.31468E-14-2.22354E-13
 -1      2722 1.99936E+01 1.79089E-02 1.07959E-03 2.20189E-01-3.25153E-14-2.15236E-13
 -1      2723 2.00008E+01 6.00946E-03-4.35660E-04 2.23352E-01-4.69551E-14-1.95701E-13
 -1      2724 1.99991E+01 2.89093E-02-6.63136E-04 2.28642E-01-6.74674E-14-2.07704E-13
 -1      2725 2.00236E+01 4.24811E-02 1.28252E-03 2.39472E-01-9.31634E-14-2.08685E-13
 -1      2726 2.00127E+01 3.02481E-02-3.69716E-04 2.36683E-01-2.66407E-14-1.63718E-13
 -1      2727 2.00306E+01 5.61263E-02-7.75947E-04 2.54460E-01-1.44344E-13-1.42189E-13
 -1      2728 2.00590E+01 7.24356E-02 1.51825E-03 2.72402E-01-1.13220E-13-1.28810E-13
 -1      2729 2.00283E+01 6.17413E-02-3.30718E-04 2.61423E-01-9.63316E-14-1.91406E-13
 -1      2730 2.00674E+01 8.84659E-02-8.81992E-04 2.95408E-01-1.32623E-13-1.54091E-13
 -1      2731 2.01007E+01 1.07243E-01 1.78514E-03 3.21760E-01-1.16311E-13-1.61435E-13
 -1      2732 2.00473E+01 9.97095E-02-3.07370E-04 3.00868E-01-1.49987E-13-6.81590E-14
 -1      2733 2.01106E+01 1.25323E-01-9.87746E-04 3.54076E-01-1.01726E-13-2.03604E-13
 -1      2734 2.01499E+01 1.46123E-01 2.07453E-03 3.89904E-01-1.18579E-13-2.22430E-13
 -1      2735 2.00697E+01 1.43401E-01-2.91470E-04 3.57860E-01-1.12957E-13-8.17443E-14
 -1      2736 2.01614E+01 1.65630E-01-1.08832E-03 4.32581E-01-1.27262E-13-2.07783E-13
 -1      2737 2.02080E+01 1.87562E-01 2.36910E-03 4.78584E-01-1.12473E-13-2.00208E-13
 -1      2738 2.00958E+01 1.91636E-01-2.79949E-04 4.34771E-01-1.24685E-13-1.16867E-13
 -1      2739 2.02217E+01 2.07288E-01-1.16254E-03 5.32293E-01-1.15750E-13-1.36976E-13
 -1      2740 2.02771E+01 2.28642E-01 2.64091E-03 5.88550E-01-8.01006E-14-8.22204E-14
 -1      2741 2.01260E+01 2.42183E-01-2.80272E-04 5.33332E-01-9.16421E-14-8.51371E-14
 -1      2742 2.02938E+01 2.46356E-01-1.16420E-03 6.53332E-01-3.44548E-14-1.29354E-13
 -1      2743 2.03596E+01 2.64049E-01 2.84931E-03 7.18862E-01 6.30754E-14-1.92268E-13
 -1      2744 2.01615E+01 2.90876E-01-3.20733E-04 6.54269E-01-6.30115E-14-9.47185E-14
 -1      2745 2.03813E+01 2.75885E-01-1.00818E-03 7.93731E-01 9.42297E-14-2.21298E-13
 -1      2746 2.04598E+01 2.84714E-01 2.93826E-03 8.65842E-01 7.88626E-14-2.55922E-13
 -1      2747 2.02046E+01 3.30362E-01-4.67469E-04 7.96708E-01 2.12947E-14-1.32886E-13
 -1      2748 2.04905E+01 2.84367E-01-5.51313E-04 9.48182E-01 1.07309E-13-2.26555E-13
 -1      2749 2.05845E+01 2.76071E-01 2.83067E-03 1.02153E+00 1.28840E-13-2.14757E-13
 -1      2750 2.02602E+01 3.48404E-01-8.50563E-04 9.57291E-01 8.44194E-14-2.13148E-13
 -1      2751 2.06317E+01 2.53896E-01 4.30844E-04 1.10620E+00 1.32843E-13-2.36381E-13
 -1      2752 2.07460E+01 2.16258E-01 2.41159E-03 1.17154E+00 1.40838E-13-1.88183E-13
 -1      2753 2.03377E+01 3.25795E-01-1.69779E-03 1.12888E+00 1.31116E-13-2.00876E-13
 -1      2754 2.08229E+01 1.58687E-01 2.26116E-03 1.24945E+00 7.70436E-14-2.38285E-13
 -1      2755 2.09646E+01 7.53327E-02 1.48046E-03 1.29208E+00 6.63032E-14-2.29996E-13
 -1      2756 2.04550E+01 2.34377E-01-3.36424E-03 1.29858E+00 5.55661E-14-2.56574E-13
 -1      2757 2.10929E+01-3.43413E-02 5.33806E-03 1.34797E+00 3.31604E-14-2.57042E-13
 -1      2758 2.12721E+01-1.81808E-01-3.45680E-04 1.34606E+00 1.06773E-14-2.14432E-13
 -1      2759 2.06429E+01 3.66191E-02-6.32065E-03 1.44458E+00 5.21861E-14-2.28783E-13
 -1      2760 2.14842E+01-3.58947E-01 9.98542E-03 1.35479E+00 1.50370E-13-1.90279E-13
 -1      2761 2.17110E+01-5.83024E-01-3.74232E-03 1.27838E+00 2.60354E-13-1.02318E-13
 -1      2762 2.09504E+01-3.09582E-01-1.09896E-02 1.53053E+00 1.08690E-13-1.66647E-13
 -1      2763 2.20467E+01-8.29270E-01 1.59257E-02 1.19982E+00 2.03457E-13-7.83356E-14
 -1      2764 2.23238E+01-1.11686E+00-9.26499E-03 1.01289E+00 8.91600E-14-8.02410E-14
 -1      2765 2.14464E+01-8.32901E-01-1.71922E-02 1.49629E+00 2.50275E-13-1.36712E-13
 -1      2766 2.28135E+01-1.39414E+00 2.14182E-02 7.89688E-01 5.95984E-14 2.95879E-14
 -1      2767 2.31183E+01-1.67124E+00-1.64604E-02 4.62514E-01 9.42150E-14 1.02971E-13
 -1      2768 2.22055E+01-1.50325E+00-2.27300E-02 1.24657E+00 1.23296E-13-9.14195E-14
 -1      2769 2.37412E+01-1.86287E+00 2.00084E-02 3.44648E-02 8.16154E-14 2.15155E-13
 -1      2770 2.40082E+01-1.95156E+00-2.26844E-02-4.20460E-01 1.35220E-13 2.72608E-13
 -1      2771 2.32604E+01-2.14729E+00-2.28355E-02 6.54529E-01 1.19263E-13 1.59223E-13
 -1      2772 2.46122E+01-1.82015E+00 3.67276E-04-1.03995E+00 2.38774E-13 2.94239E-13
 -1      2773 2.47459E+01-1.47271E+00-2.13766E-02-1.48650E+00 2.43961E-13 3.77567E-13
 -1      2774 2.44835E+01-2.34304E+00-2.04375E-02-3.82851E-01 2.36002E-13 2.43170E-13
 -1      2775 2.50991E+01-8.27766E-01-4.11868E-02-2.07697E+00 1.65830E-13 4.02521E-13
 -1      2776 2.50637E+01 1.36880E-01 5.66619E-03-2.25946E+00 1.79436E-13 4.10761E-13
 -1      2777 2.54701E+01-1.51465E+00-5.36971E-02-1.65715E+00 2.03580E-13 2.82590E-13
 -1      2778 2.49221E+01 1.21684E+00-9.43721E-02-2.31530E+00 8.92064E-14 3.68648E-13
 -1      2779 2.47782E+01 2.33915E+00-1.32816E-02-1.94330E+00 5.36376E-15 3.17905E-13
 -1      2780 2.59342E+01 7.27656E-01-1.58492E-02-2.43049E+00 1.75204E-13 2.68070E-13
 -1      2781 2.45149E+01 3.18437E+00-9.02328E-02-1.14076E+00-8.85889E-14 2.80572E-13
 -1      2782 2.44661E+01 3.58843E+00-5.17862E-02-2.95564E-01-5.74193E-14 2.53445E-13
 -1      2783 2.56677E+01 3.34907E+00-6.61791E-02-1.73347E+00-1.58533E-13 2.35579E-13
 -1      2784 2.44922E+01 3.39776E+00-5.04458E-02 8.32580E-01-1.20320E-13 2.09102E-13
 -1      2785 2.46252E+01 2.70763E+00-9.18472E-02 1.57406E+00-1.93734E-13 1.65634E-13
 -1      2786 2.55186E+01 4.26742E+00-8.12536E-02 2.84612E-01-1.74152E-13 4.58886E-14
 -1      2787 2.48753E+01 1.67853E+00-8.24019E-03 2.13704E+00-1.79537E-13 1.96195E-13
 -1      2788 2.50197E+01 5.16467E-01-7.99297E-02 2.32480E+00-1.43651E-13 2.35931E-13
 -1      2789 2.57758E+01 2.68302E+00-5.73922E-02 2.06042E+00-1.71696E-13-1.22159E-13
 -1      2790 2.50142E+01-4.87262E-01-4.36912E-03 2.02863E+00-3.16143E-13 2.42880E-13
 -1      2791 2.49685E+01-1.27358E+00-3.60336E-02 1.72210E+00-2.96412E-13 5.59240E-14
 -1      2792 2.58671E+01-1.83760E-01-2.54052E-02 2.17966E+00-3.05358E-13 3.94962E-14
 -1      2793 2.45453E+01-1.74857E+00-1.76542E-02 1.09772E+00-1.50729E-13-9.15162E-14
 -1      2794 2.43386E+01-1.95599E+00 6.20110E-03 6.05387E-01-8.58840E-14-2.02218E-13
 -1      2795 2.52125E+01-1.90601E+00-2.15081E-02 1.19875E+00-3.47172E-13-8.46701E-14
 -1      2796 2.37045E+01-1.95011E+00-2.01570E-02 2.99205E-02-3.42521E-15-2.99700E-13
 -1      2797 2.34037E+01-1.78466E+00 1.98293E-02-4.02657E-01-5.71672E-14-2.59929E-13
 -1      2798 2.40990E+01-2.39406E+00-1.52771E-02-7.97973E-02-8.23900E-14-2.25923E-13
 -1      2799 2.28151E+01-1.54749E+00-1.38535E-02-7.70512E-01-7.39513E-15-1.32620E-13
 -1      2800 2.25033E+01-1.25619E+00 1.92567E-02-1.06239E+00 1.29958E-13-2.14416E-14
 -1      2801 2.28913E+01-2.00824E+00-2.13369E-02-9.85838E-01 3.55035E-14-2.00040E-13
 -1      2802 2.20613E+01-9.79861E-01-7.01103E-03-1.24264E+00 1.15608E-13 9.66888E-14
 -1      2803 2.17889E+01-7.07412E-01 1.37762E-02-1.40069E+00 1.58615E-13 6.71565E-14
 -1      2804 2.19203E+01-1.32868E+00-1.93981E-02-1.47594E+00 1.69530E-13 5.25916E-14
 -1      2805 2.14937E+01-4.78583E-01-2.37423E-03-1.45537E+00 1.62113E-13 5.84654E-14
 -1      2806 2.12727E+01-2.74801E-01 8.37809E-03-1.51265E+00 1.00944E-13 2.06848E-14
 -1      2807 2.12444E+01-6.93344E-01-1.41156E-02-1.66399E+00 1.31652E-13-2.07369E-13
 -1      2808 2.10882E+01-1.14006E-01 2.73000E-04-1.49261E+00 1.19929E-13 1.63213E-13
 -1      2809 2.09124E+01 2.03544E-02 4.50999E-03-1.48224E+00 2.46340E-13 2.77132E-13
 -1      2810 2.08106E+01-2.17159E-01-8.93367E-03-1.66774E+00 1.72603E-13 8.68343E-15
 -1      2811 2.07999E+01 1.22963E-01 1.59383E-03-1.42043E+00 1.58570E-13 3.30131E-13
 -1      2812 2.06586E+01 2.05688E-01 2.18486E-03-1.36751E+00 1.14329E-13 4.33559E-13
 -1      2813 2.05428E+01 9.88040E-02-5.10317E-03-1.56738E+00 2.18185E-13 3.05707E-13
 -1      2814 2.05883E+01 2.69118E-01 2.14852E-03-1.28278E+00 2.56267E-14 4.01925E-13
 -1      2815 2.04723E+01 3.20531E-01 9.98771E-04-1.20358E+00-2.07490E-13 4.33353E-13
 -1      2816 2.03768E+01 2.95192E-01-2.60154E-03-1.40982E+00 4.66983E-15 1.71508E-13
 -1      2817 2.04237E+01 3.63284E-01 2.07856E-03-1.10611E+00-4.32016E-13 3.46224E-13
 -1      2818 2.03287E+01 4.00621E-01 8.74314E-04-1.00929E+00-3.16806E-13 2.99162E-13
 -1      2819 2.02674E+01 4.18357E-01-1.53116E-03-1.22028E+00-2.86291E-13 9.17327E-14
 -1      2820 1.98557E+01 5.43452E-02 1.74251E-04-1.47787E-01 1.55537E-13-1.03944E-13
 -1      2821 1.98684E+01 8.50644E-02 3.15338E-03-1.17907E-01 1.81640E-13-8.74188E-14
 -1      2822 2.01734E+01 5.18483E-01 4.19609E-04 9.24622E-01 5.97289E-14-2.99010E-13
 -1      2823 2.03018E+01 3.87076E-01 3.03475E-03 8.44903E-01 8.89806E-14-1.24188E-13
 -1      2824 2.04041E+01 3.55517E-01 3.75172E-03 9.46505E-01 7.76555E-14-1.33576E-13
 -1      2825 1.98907E+01 1.21753E-01-1.76621E-04-7.20406E-02 1.80647E-13-1.20536E-13
 -1      2826 1.99257E+01 1.72566E-01 5.18871E-03-1.55930E-02 2.14532E-13-9.57786E-14
 -1      2827 1.99926E+01 1.39953E-01-2.39729E-03-7.50525E-02 1.79293E-13-1.56962E-13
 -1      2828 1.98518E+01-6.25976E-03 5.02874E-04-1.99845E-01 6.33342E-14-6.92545E-14
 -1      2829 1.98402E+01 2.59953E-03 8.57736E-04-1.95757E-01 7.97013E-14-9.78045E-14
 -1      2830 1.98698E+01-1.43151E-02 6.09339E-04-2.02139E-01 6.60635E-14-7.85570E-14
 -1      2831 1.98523E+01-1.16436E-02 2.60594E-04-2.02666E-01 8.83094E-14-6.62235E-14
 -1      2832 1.99303E+01-7.87509E-03-9.85684E-04-2.07830E-01 7.58011E-14-1.68225E-13
 -1      2833 1.98956E+01-1.30123E-02 7.24082E-04-2.00022E-01 9.21392E-14-7.30424E-14
 -1      2834 1.98743E+01-1.48526E-02-1.20050E-04-2.01701E-01 8.21153E-14-6.69734E-14
 -1      2835 1.99360E+01-1.59075E-02-7.21683E-04-2.12311E-01 7.82010E-14-1.50426E-13
 -1      2836 1.99273E+01-4.64122E-03 8.64675E-04-1.99307E-01 2.62035E-15-7.57939E-14
 -1      2837 1.99030E+01-9.92908E-03-3.55023E-04-1.99559E-01 3.63694E-14-5.38974E-14
 -1      2838 1.99492E+01-1.25906E-02-5.51828E-04-2.12894E-01 4.26691E-14-1.07912E-13
 -1      2839 1.99641E+01 9.36357E-03 1.04172E-03-2.04471E-01 7.95468E-14-8.81786E-14
 -1      2840 1.99371E+01 1.28570E-03-4.95187E-04-2.01292E-01 4.61126E-14-3.93625E-14
 -1      2841 1.99682E+01-6.21258E-04-4.56409E-04-2.15629E-01 1.62426E-14-9.08051E-14
 -1      2842 2.00064E+01 2.81303E-02 1.26112E-03-2.19115E-01-1.86557E-14-4.33347E-14
 -1      2843 1.99760E+01 1.76547E-02-5.77189E-04-2.10874E-01 5.46937E-14-4.65507E-14
 -1      2844 1.99920E+01 1.83079E-02-4.17631E-04-2.25224E-01 4.76387E-14 5.10388E-15
 -1      2845 2.00552E+01 5.11189E-02 1.52478E-03-2.46267E-01 3.40794E-14-4.07865E-14
 -1      2846 2.00205E+01 3.84895E-02-6.26959E-04-2.31578E-01 2.20960E-16-3.97451E-14
 -1      2847 2.00205E+01 4.31544E-02-4.19895E-04-2.45487E-01 8.07688E-15 1.80222E-14
 -1      2848 2.01121E+01 7.78935E-02 1.82901E-03-2.88536E-01 4.62666E-14-3.20940E-14
 -1      2849 2.00717E+01 6.33281E-02-6.61999E-04-2.66201E-01 5.85443E-14 9.88246E-15
 -1      2850 2.00540E+01 7.32353E-02-4.49585E-04-2.79617E-01 2.88261E-14 7.80970E-15
 -1      2851 2.01795E+01 1.07839E-01 2.16155E-03-3.48120E-01 7.14855E-15 2.15053E-14
 -1      2852 2.01317E+01 9.16865E-02-6.91068E-04-3.17159E-01 3.83786E-15-1.50777E-14
 -1      2853 2.00935E+01 1.07918E-01-4.97488E-04-3.30344E-01 5.72678E-15 3.19487E-14
 -1      2854 2.02597E+01 1.39781E-01 2.49873E-03-4.26622E-01-2.32141E-14 1.72589E-14
 -1      2855 2.02027E+01 1.22732E-01-7.12762E-04-3.86399E-01 2.84566E-14 5.68448E-14
 -1      2856 2.01401E+01 1.46239E-01-5.57435E-04-3.99921E-01 1.33628E-14 3.83450E-14
 -1      2857 2.03556E+01 1.71461E-01 2.80023E-03-5.24638E-01-8.63165E-14-5.32897E-14
 -1      2858 2.02875E+01 1.54846E-01-7.12598E-04-4.75118E-01-6.84708E-14-2.06737E-14
 -1      2859 2.01952E+01 1.86392E-01-6.30267E-04-4.89906E-01 1.02834E-14-5.87571E-14
 -1      2860 2.04705E+01 1.98762E-01 3.00239E-03-6.41039E-01-1.75975E-14-9.28808E-14
 -1      2861 2.03893E+01 1.84984E-01-6.55708E-04-5.83224E-01-8.90053E-14-1.19308E-13
 -1      2862 2.02610E+01 2.25007E-01-7.32899E-04-6.00742E-01-1.50071E-14-8.13783E-14
 -1      2863 2.06084E+01 2.14645E-01 3.01116E-03-7.71836E-01-1.01053E-14-5.14731E-14
 -1      2864 2.05123E+01 2.07773E-01-4.75829E-04-7.08434E-01 4.29627E-14-5.21008E-14
 -1      2865 2.03404E+01 2.56126E-01-9.09195E-04-7.31036E-01-3.32809E-14-1.49653E-13
 -1      2866 2.07745E+01 2.07806E-01 2.69350E-03-9.08520E-01 1.01691E-13-1.08625E-14
 -1      2867 2.06617E+01 2.14295E-01-6.05986E-05-8.44911E-01 1.99230E-14-5.95676E-14
 -1      2868 2.04381E+01 2.69812E-01-1.24962E-03-8.76465E-01 2.61459E-14-5.26081E-14
 -1      2869 2.09767E+01 1.61335E-01 1.86613E-03-1.03578E+00 1.07674E-13 8.48365E-15
 -1      2870 2.08453E+01 1.90694E-01 7.63611E-04-9.81273E-01 1.44263E-13 1.46934E-14
 -1      2871 2.05620E+01 2.50503E-01-1.91428E-03-1.02818E+00 7.03689E-14-9.16870E-14
 -1      2872 2.12270E+01 5.22948E-02 2.77409E-04-1.12864E+00-1.61948E-14 4.59241E-16
 -1      2873 2.10751E+01 1.17112E-01 2.23214E-03-1.09790E+00 4.33323E-14 4.83362E-14
 -1      2874 2.07257E+01 1.75543E-01-3.14913E-03-1.17055E+00 4.16133E-14 6.89008E-14
 -1      2875 2.15429E+01-1.45569E-01-2.40191E-03-1.14936E+00 1.63189E-15-9.50274E-14
 -1      2876 2.13686E+01-3.15812E-02 4.58493E-03-1.16356E+00-1.99335E-15-7.78279E-14
 -1      2877 2.09514E+01 1.53109E-02-5.26196E-03-1.27802E+00-2.08810E-14-2.28306E-14
 -1      2878 2.19454E+01-4.51715E-01-6.52694E-03-1.04549E+00-2.91160E-14 4.91412E-14
 -1      2879 2.17490E+01-2.80143E-01 7.90871E-03-1.13197E+00 1.58874E-14 1.19896E-14
 -1      2880 2.12725E+01-2.61885E-01-8.46658E-03-1.31094E+00-9.59656E-14-4.40441E-14
 -1      2881 2.24506E+01-8.54364E-01-1.20164E-02-7.52401E-01-2.78224E-14 1.04092E-13
 -1      2882 2.22397E+01-6.37056E-01 1.17453E-02-9.40403E-01 3.29931E-14 4.51369E-14
 -1      2883 2.17324E+01-6.74435E-01-1.24438E-02-1.21103E+00-7.73977E-14 9.85372E-14
 -1      2884 2.30457E+01-1.26709E+00-1.75816E-02-2.10350E-01-2.65742E-13 2.70057E-13
 -1      2885 2.28439E+01-1.06069E+00 1.43401E-02-5.17407E-01-1.81822E-13 1.93472E-13
 -1      2886 2.23703E+01-1.19102E+00-1.53028E-02-8.99889E-01-1.88346E-13 2.95622E-13
 -1      2887 2.36533E+01-1.47549E+00-1.86738E-02 5.90248E-01-1.51432E-13 2.28685E-13
 -1      2888 2.35068E+01-1.41001E+00 1.15517E-02 1.86168E-01-1.75582E-13 1.93758E-13
 -1      2889 2.31839E+01-1.67406E+00-1.37419E-02-2.95116E-01-1.71235E-13 2.88917E-13
 -1      2890 2.41002E+01-1.14698E+00-9.46221E-03 1.50110E+00 5.49593E-14 3.22155E-13
 -1      2891 2.40624E+01-1.40123E+00-3.88301E-03 1.10947E+00-4.08333E-14 3.35281E-13
 -1      2892 2.40582E+01-1.80296E+00-2.60884E-03 6.26305E-01-7.22222E-14 1.57853E-13
 -1      2893 2.41847E+01-4.86538E-02 9.79557E-03 2.11665E+00 8.72982E-14 3.47791E-13
 -1      2894 2.42707E+01-7.05169E-01-3.16563E-02 1.95252E+00 1.37903E-13 4.19881E-13
 -1      2895 2.47131E+01-1.17114E+00 6.71153E-03 1.67236E+00 5.38992E-14 3.03433E-13
 -1      2896 2.38549E+01 1.53625E+00 9.35505E-03 1.87478E+00 5.30964E-14 8.31874E-14
 -1      2897 2.40113E+01 7.18470E-01-6.04746E-02 2.15984E+00 6.37893E-14 2.34653E-13
 -1      2898 2.48448E+01 3.91766E-01 1.64134E-03 2.30945E+00 1.70322E-13 2.64205E-13
 -1      2899 2.34721E+01 2.61791E+00-2.25915E-02 6.06269E-01-2.73809E-14 4.41132E-14
 -1      2900 2.35893E+01 2.20086E+00-5.27088E-02 1.28987E+00 1.41137E-14 5.95899E-14
 -1      2901 2.45253E+01 2.25961E+00-3.30101E-02 1.75696E+00 4.33230E-14 5.35388E-14
 -1      2902 2.35228E+01 2.30649E+00-6.02121E-02-1.06757E+00 1.53853E-13-3.95816E-14
 -1      2903 2.34809E+01 2.66152E+00-1.70005E-02-3.69941E-01 7.64007E-14-3.67727E-14
 -1      2904 2.42604E+01 3.30280E+00-3.73760E-02 1.02886E-01 4.38816E-14-9.08577E-14
 -1      2905 2.39440E+01 8.71895E-01-6.50581E-02-2.06028E+00 1.44789E-13-5.05492E-14
 -1      2906 2.38045E+01 1.69246E+00 1.08695E-02-1.74122E+00 1.77809E-13-1.01437E-14
 -1      2907 2.44803E+01 2.51170E+00-1.94372E-02-1.61161E+00 1.72827E-13-1.94820E-13
 -1      2908 2.42347E+01-5.98049E-01-3.37583E-02-1.95513E+00 1.94102E-13 9.52623E-15
 -1      2909 2.41387E+01 1.03012E-01 1.10774E-02-2.08094E+00 1.68511E-13-4.26965E-14
 -1      2910 2.48215E+01 6.18757E-01 3.09625E-03-2.25513E+00 8.92515E-14-1.90518E-13
 -1      2911 2.40571E+01-1.38239E+00-5.26190E-03-1.13189E+00 1.57764E-13 2.13797E-13
 -1      2912 2.40944E+01-1.08739E+00-5.31493E-03-1.51439E+00 2.22699E-13 1.83351E-13
 -1      2913 2.47395E+01-1.06922E+00 9.00614E-03-1.71765E+00 4.25896E-14 1.82909E-14
 -1      2914 2.35131E+01-1.45641E+00 9.70643E-03-1.86543E-01-5.17511E-14 3.93956E-13
 -1      2915 2.36609E+01-1.49342E+00-1.81995E-02-6.03690E-01 5.35151E-14 3.75954E-13
 -1      2916 2.41059E+01-1.81094E+00-5.11038E-03-6.57384E-01 1.56177E-14 1.75159E-13
 -1      2917 2.28350E+01-1.13372E+00 1.36500E-02 5.61899E-01-1.05560E-13 3.22060E-13
 -1      2918 2.30450E+01-1.33089E+00-1.86069E-02 2.34133E-01-6.02430E-14 4.50788E-13
 -1      2919 2.32353E+01-1.74630E+00-1.49918E-02 3.12131E-01-4.92351E-14 1.43110E-13
 -1      2920 2.22021E+01-7.09414E-01 1.18975E-02 1.03014E+00-7.79240E-14 1.49470E-13
 -1      2921 2.24268E+01-9.29481E-01-1.25896E-02 8.21741E-01-8.77553E-14 3.12632E-13
 -1      2922 2.23982E+01-1.28405E+00-1.57475E-02 9.68023E-01 1.25285E-15 3.89030E-13
 -1      2923 2.16796E+01-3.38681E-01 8.22949E-03 1.25826E+00-1.22767E-13-1.91612E-14
 -1      2924 2.18924E+01-5.18533E-01-6.80322E-03 1.15513E+00-9.06105E-14 2.29070E-15
 -1      2925 2.17297E+01-7.60460E-01-1.25653E-02 1.32408E+00 1.81030E-14 1.47121E-13
 -1      2926 2.12688E+01-6.91278E-02 4.92320E-03 1.31486E+00 1.14125E-13-1.35081E-13
 -1      2927 2.14600E+01-1.94646E-01-2.65857E-03 1.28973E+00-6.21222E-14-1.56443E-13
 -1      2928 2.12418E+01-3.28106E-01-8.82376E-03 1.45743E+00 4.40215E-14-2.10205E-13
 -1      2929 2.09480E+01 1.07920E-01 2.97156E-03 1.26039E+00 1.90659E-13-1.42878E-13
 -1      2930 2.11158E+01 2.75606E-02 1.33947E-05 1.28763E+00 1.71904E-13-1.90331E-13
 -1      2931 2.08976E+01-2.26460E-02-5.72188E-03 1.44536E+00 8.92762E-14-1.80696E-13
 -1      2932 2.06971E+01 2.20104E-01 3.20229E-03 1.13642E+00 6.38328E-14-2.73843E-14
 -1      2933 2.08388E+01 1.69327E-01 1.65892E-03 1.19694E+00 1.91670E-13 2.98528E-15
 -1      2934 2.06504E+01 1.75293E-01-4.15153E-03 1.34478E+00 1.97175E-13-2.28469E-13
 -1      2935 2.04780E+01 3.06178E-01 3.32061E-03 1.00627E+00 7.91890E-14-1.21248E-13
 -1      2936 2.05961E+01 2.69408E-01 2.96409E-03 1.09008E+00 3.28278E-14-2.53213E-13
 -1      2937 2.04404E+01 3.05218E-01-5.86171E-03 1.22383E+00 1.51051E-13-3.44986E-13
 -1      2938 2.02679E+01 4.16113E-01-7.50047E-03 1.10187E+00 5.18750E-14-3.36463E-13
 -1      2939 1.93967E+01 1.27962E+00-3.63773E-03 9.79393E-02 1.82969E-13-3.71503E-13
 -1      2940 1.94195E+01 1.26049E+00-1.45202E-03 2.53950E-01 1.93605E-13-3.66345E-13
 -1      2941 2.03068E+01 4.24483E-01 2.51869E-03-9.37264E-01-1.23417E-13 1.63053E-13
 -1      2942 2.02493E+01 4.44646E-01 1.14141E-03-8.62837E-01-8.25531E-14 3.10652E-13
 -1      2943 2.02000E+01 4.92042E-01-1.39453E-03-1.04527E+00-2.84278E-13 8.16904E-15
 -1      2944 1.95961E+01 1.07846E+00-5.53140E-03 6.88860E-01 8.55443E-14-2.41928E-14
 -1      2945 1.96874E+01 9.99579E-01 2.48246E-03 7.83219E-01 1.61179E-13 1.32099E-13
 -1      2946 1.94151E+01 1.26457E+00-1.73244E-03-2.41720E-01 2.06725E-14-2.18158E-13
 -1      2947 1.93953E+01 1.28177E+00-3.42995E-03-8.48651E-02 7.68022E-14-4.52197E-13
 -1      2948 1.92599E+01 1.24598E+00 4.72749E-03 7.91583E-03 1.33543E-13-5.84490E-13
 -1      2949 1.94605E+01 1.21387E+00-4.99036E-03 4.22863E-01 3.84797E-14-1.78407E-13
 -1      2950 1.95221E+01 1.16120E+00 6.22786E-04 5.56620E-01 1.59537E-13-2.25335E-14
 -1      2951 1.94593E+01 1.07919E+00 2.98438E-03 6.89065E-01 1.18825E-13 3.78297E-14
 -1      2952 1.93137E+01 1.20023E+00 4.19670E-03 3.75265E-01 1.63205E-13-2.53823E-13
 -1      2953 1.95113E+01 1.17284E+00 4.33536E-04-5.43712E-01-1.74980E-13-2.24184E-13
 -1      2954 1.94531E+01 1.22257E+00-4.83019E-03-4.09851E-01-9.71065E-14-2.53863E-14
 -1      2955 1.93064E+01 1.20839E+00 4.38591E-03-3.58681E-01 7.20374E-14-2.70782E-13
 -1      2956 1.96737E+01 1.01502E+00 2.22077E-03-7.77904E-01-9.23914E-14 6.20565E-14
 -1      2957 1.95837E+01 1.09312E+00-5.44484E-03-6.80103E-01-1.46876E-13 2.92400E-14
 -1      2958 1.94448E+01 1.09458E+00 3.15959E-03-6.76239E-01-1.70944E-13-9.72853E-14
 -1      2959 1.98776E+01 8.12353E-01 2.07312E-03-9.07513E-01-2.21357E-13 3.61714E-13
 -1      2960 1.97727E+01 9.10532E-01-4.71432E-03-8.62700E-01-7.88477E-14 9.42974E-14
 -1      2961 1.96570E+01 9.22043E-01 1.32744E-03-9.05937E-01-2.46996E-13 1.28538E-13
 -1      2962 7.28168E+00-1.19944E+00 1.92829E-01-2.85290E+00-1.46362E-13-8.37663E-14
 -1      2963 9.51636E+00-1.78278E+00 1.02955E-01-4.48386E+00-8.26839E-14-1.74805E-13
 -1      2964 1.91370E+01-4.82446E+00 1.25786E-01-5.74093E+00 3.76643E-13-4.68785E-13
 -1      2965 2.14248E+01-5.32263E+00-5.12163E-02-5.13962E+00 2.44860E-13-6.29472E-13
 -1      2966 2.01794E+01 2.27238E+00 5.48043E-05-1.42524E+00-4.12876E-13-5.46503E-13
 -1      2967 2.25330E+01-5.06810E+00 1.55645E-01-4.53977E+00-4.72566E-13-4.58307E-13
 -1      2968 2.47334E+01-5.04792E+00-1.39055E-01-3.14790E+00-2.49543E-13-8.00748E-14
 -1      2969 8.94053E+00-2.24367E+00 1.49423E-01-4.82357E+00-5.28910E-13-8.21176E-13
 -1      2970 1.14359E+01-3.26801E+00 4.30951E-02-6.07594E+00-5.44120E-13-5.30659E-13
 -1      2971 2.86370E+01 1.16066E+00-1.80557E-01-1.94291E+00-2.85327E-14-1.51004E-13
 -1      2972 2.80210E+01-1.11492E+00-5.78608E-02-1.20812E+00 5.51920E-14-3.22242E-14
 -1      2973 2.85990E+01-2.11170E+00-1.94968E-01-1.49342E-01-3.37751E-14-2.92849E-13
 -1      2974 2.76414E+01-3.55616E+00-1.81348E-02 1.27404E+00 5.00329E-14-4.83363E-13
 -1      2975 2.70542E+01-3.65320E+00 4.66831E-02-9.59949E-01 7.26415E-15 5.95773E-14
 -1      2976 2.81954E+01-2.33066E+00-1.57646E-01 2.96150E-01 9.98576E-14 6.18533E-14
 -1      2977 1.99588E+01 2.32732E-01-7.70872E-04 6.33731E-02 2.65425E-13-1.22527E-13
 -1      2978 2.00242E+01 3.16108E-01 7.83697E-03 1.61624E-01 2.89817E-13-9.70718E-14
 -1      2979 2.01451E+01 4.79219E-01-1.86633E-03 2.81669E-01 3.27261E-13-1.89147E-13
 -1      2980 2.00560E+01 2.68487E-01-2.75814E-03 6.04977E-02 2.47104E-13-1.92197E-13
 -1      2981 9.06215E+00-2.30531E+00 5.48992E-02 4.98633E+00-7.86038E-14-1.65701E-14
 -1      2982 7.14079E+00-1.53597E+00 1.62352E-01 3.26743E+00-2.31065E-14 2.15439E-13
 -1      2983 1.98452E+01 1.47415E-02 3.74770E-04-1.85326E-01 1.19358E-13-1.16401E-13
 -1      2984 1.98431E+01 3.24187E-02 1.77176E-03-1.71799E-01 1.49336E-13-1.10294E-13
 -1      2985 1.99540E+01 6.14828E-02-1.84909E-03-1.52146E-01 1.52187E-13-1.41595E-13
 -1      2986 1.99349E+01 1.57234E-02-1.36112E-03-1.91413E-01 8.92552E-14-1.83732E-13
 -1      2987 2.03097E+01 1.05982E+00 2.52484E-03-8.58683E-01-3.60550E-13-4.15437E-13
 -1      2988 2.02249E+01 8.17465E-01-5.18527E-03-6.14522E-01-3.24926E-13-3.96056E-13
 -1      2989 2.02625E+01 8.91423E-01 6.13621E-05-5.72560E-01-2.85379E-13-4.23396E-13
 -1      2990 2.87954E+01 6.44931E+00-1.86465E-01 1.57357E-01-5.78038E-13-3.44086E-13
 -1      2991 2.89003E+01 6.24424E+00-1.59297E-01-8.32946E-01-6.17284E-13-3.89161E-13
 -1      2992 2.25019E+01-5.40321E+00-9.42773E-02 4.73040E+00 2.37713E-13-7.60694E-14
 -1      2993 1.97377E+01-4.94493E+00 1.59623E-01 5.65368E+00 2.86271E-13-1.97987E-13
 -1      2994 2.92326E+01 4.74501E+00-1.35777E-01 1.80126E+00-3.70093E-13-6.76043E-13
 -1      2995 2.90620E+01 5.93633E+00-1.80955E-01 1.07956E+00-4.57384E-13-5.07060E-13
 -1      2996 2.42672E+01-5.06063E+00 6.52342E-02-3.64400E+00 9.90041E-14-8.05619E-13
 -1      2997 2.64855E+01-4.51807E+00-9.84820E-02-2.27746E+00 1.62807E-13-8.34527E-13
 -1      2998 1.99285E+01 2.59619E+00-7.92255E-03 7.95627E-01 3.85512E-13-4.95980E-13
 -1      2999 1.98854E+01 2.68846E+00-6.16867E-03 6.46377E-01 3.21417E-13-5.45139E-13
 -1      3000 2.00048E+01 2.38945E+00 4.43961E-03 5.17612E-01 2.82039E-13-5.24999E-13
 -1      3001 2.00847E+01 2.19123E+00 5.65349E-03 7.46874E-01 3.69441E-13-4.42460E-13
 -1      3002 1.98808E+01 2.69659E+00-6.16795E-03-6.36267E-01-1.15054E-13-6.60689E-13
 -1      3003 1.99226E+01 2.60764E+00-7.60460E-03-7.86486E-01-1.83788E-13-6.68105E-13
 -1      3004 2.87235E+01 4.99073E+00-2.06182E-01-1.56729E+00 1.74499E-13-2.20379E-13
 -1      3005 2.87506E+01 3.50598E+00-1.10229E-01-2.05236E+00 6.93334E-14-2.21698E-13
 -1      3006 2.85936E+01-3.24680E-01-5.21933E-02 1.54884E+00 1.46799E-13 1.18600E-13
 -1      3007 2.82516E+01 1.60025E+00-2.24422E-01 2.18549E+00 3.00163E-13 1.64507E-13
 -1      3008 2.74497E+01-1.43014E+00-4.20835E-02 1.36009E+00 1.16357E-13 2.10221E-13
 -1      3009 1.26359E+01-2.90031E+00 1.38453E-01-5.72577E+00 1.89571E-14-4.37206E-13
 -1      3010 1.58274E+01-4.14580E+00 4.35843E-02-6.26481E+00 1.32422E-13-4.00707E-13
 -1      3011 1.78771E+01-4.01824E+00 8.61519E-02-5.56532E+00 1.44426E-13-5.01960E-13
 -1      3012 6.22119E+00-8.12012E-01 1.33986E-01-1.11397E+00-1.93722E-13-4.80088E-13
 -1      3013 7.22301E+00-1.35759E+00 1.28172E-01-3.34158E+00-2.61569E-13-8.07493E-13
 -1      3014 2.81350E+01 4.14538E+00-8.93874E-02 2.06798E+00 4.47947E-13 2.32550E-13
 -1      3015 2.82069E+01 5.47586E+00-2.01777E-01 1.22398E+00 4.70513E-13 1.78510E-13
 -1      3016 2.94321E+01 2.04875E+00-1.96467E-01-1.91212E+00-7.77572E-14-2.59570E-13
 -1      3017 2.93186E+01 2.01036E-01-3.10438E-02-1.55610E+00-3.04340E-14-1.87905E-13
 -1      3018 6.18134E+00-1.00152E+00 1.47649E-01 1.43249E+00-8.55704E-14 3.53717E-13
 -1      3019 6.13529E+00-9.29334E-01 1.22673E-01-1.02274E+00-1.65111E-13 1.72973E-13
 -1      3020 1.49700E+01-4.01842E+00 1.73225E-01-6.24154E+00-4.74967E-13-3.95656E-13
 -1      3021 1.86616E+01-4.96930E+00-6.16879E-02-5.93366E+00-4.29282E-13-5.14047E-13
 -1      3022 7.63038E+00-1.42340E+00 1.40670E-01 3.57821E+00-5.65381E-14-4.53609E-13
 -1      3023 6.33200E+00-8.19379E-01 1.55883E-01 1.28141E+00-8.30273E-14-3.42143E-13
 -1      3024 2.62761E+01-4.54454E+00-6.41841E-02 2.61957E+00 8.58619E-14-5.53974E-13
 -1      3025 2.42426E+01-5.08614E+00 1.98783E-02 3.76134E+00 5.96467E-14-6.04398E-13
 -1      3026 2.69225E+01-4.00647E+00 2.37736E-02 1.32331E+00 1.33660E-13-3.43489E-13
 -1      3027 2.91714E+01 6.63278E-01-4.55809E-02 1.73288E+00-2.34007E-13-9.35058E-13
 -1      3028 2.91545E+01 2.59875E+00-2.11228E-01 1.95305E+00-3.09780E-13-8.75827E-13
 -1      3029 2.91219E+01 5.29102E+00-2.10230E-01-1.55361E+00-2.74475E-13-2.98608E-13
 -1      3030 2.94575E+01 4.01186E+00-1.25974E-01-1.98865E+00-6.30884E-14-2.33660E-13
 -1      3031 2.79158E+01-3.24809E+00-6.54541E-03-7.70333E-01 1.55791E-13-8.59215E-13
 -1      3032 2.87615E+01-1.74056E+00-1.76913E-01 4.62031E-01 2.66107E-15-8.68056E-13
 -1      3033 2.69596E+01-3.82098E+00 2.38715E-02-1.00323E+00 1.14846E-13-7.60420E-13
 -1      3034 2.83279E+01 6.35021E+00-1.84975E-01 2.52260E-01 3.90188E-13 3.71543E-14
 -1      3035 2.86252E+01 6.11844E+00-1.56000E-01-8.60508E-01 2.74281E-13-1.72209E-13
 -1      3036 2.72819E+01 4.92141E+00-8.58373E-02-1.31015E+00 1.88599E-13-2.53873E-13
 -1      3037 2.01556E+01 5.43041E-01 5.32580E-04-8.94721E-01-1.60169E-13 1.46507E-14
 -1      3038 1.99767E+01 2.48568E+00-6.47666E-03-9.02741E-01-2.36555E-13-6.46829E-13
 -1      3039 2.00303E+01 2.34276E+00-1.32301E-02-1.04323E+00-3.02732E-13-6.26066E-13
 -1      3040 2.00749E+01 2.20212E+00 3.80315E-03-7.37644E-01-2.15904E-13-6.04373E-13
 -1      3041 1.99406E+01 2.53977E+00 3.44581E-03 4.60656E-03 1.13164E-13-5.78386E-13
 -1      3042 1.98013E+01 2.87068E+00-5.50947E-03-6.19853E-02 1.04958E-13-6.33785E-13
 -1      3043 1.98086E+01 2.85598E+00-5.57411E-03-2.16878E-01 4.23940E-14-6.45190E-13
 -1      3044 2.02892E+01 1.58763E+00-1.22045E-03 1.16794E+00 5.00445E-13-2.02079E-13
 -1      3045 2.39683E+01-4.78085E+00 4.76934E-02 3.28389E+00 2.47399E-13-3.70398E-14
 -1      3046 2.77732E+01 5.17186E+00-1.06327E-01-1.29600E+00-3.18356E-13-1.08330E-13
 -1      3047 1.83118E+01-4.19950E+00 1.12609E-01 5.55704E+00 3.35620E-13 4.05023E-14
 -1      3048 1.56169E+01-4.24260E+00 1.32976E-01 6.30304E+00 7.07767E-14-6.69936E-13
 -1      3049 1.44618E+01-3.32259E+00 1.21095E-01 5.94602E+00 9.23983E-14-5.54445E-13
 -1      3050 1.80093E+01-4.50498E+00 2.32196E-02 5.73939E+00 1.52864E-13-6.10595E-13
 -1      3051 1.96740E+01 9.04217E-01 1.66885E-03 9.07895E-01 2.03430E-13-4.85715E-14
 -1      3052 1.97797E+01 8.94748E-01-6.21105E-03 8.61955E-01 2.93885E-13-1.83359E-13
 -1      3053 1.98916E+01 8.01045E-01 5.04399E-03 9.10300E-01 3.30647E-13-8.35186E-14
 -1      3054 8.37836E+00-6.12262E-01 1.90291E-01 2.12928E+00-2.77868E-14 2.82413E-13
 -1      3055 2.00638E+01 6.23574E-01-3.58040E-03 9.34978E-01 1.11976E-13-3.02982E-14
 -1      3056 9.75284E+00-1.20258E+00 1.80228E-01-3.82411E+00-3.86760E-13-5.83089E-13
 -1      3057 1.15894E+01-1.96056E+00 8.59310E-02 4.91382E+00 4.15709E-14-4.48766E-13
 -1      3058 9.49160E+00-1.62359E+00 1.81022E-01 4.33198E+00 2.87409E-14-5.12701E-13
 -1      3059 9.89209E+00-6.83469E-01 1.12039E-01 3.32585E+00-5.35960E-14-3.64361E-13
 -1      3060 1.11145E+01-9.83985E-01 1.01466E-01-3.92118E+00-2.37220E-13-2.58515E-13
 -1      3061 1.17266E+01-1.96180E+00 1.43996E-01-5.00934E+00-1.07525E-13-2.84328E-13
 -1      3062 1.38847E+01-2.13188E+00 8.56690E-02-4.98314E+00-1.73576E-13-5.02431E-13
 -1      3063 8.41673E+00-4.27310E-01 1.83115E-01-1.60400E+00-1.55938E-13 4.37983E-14
 -1      3064 2.00576E+01 6.54950E-01-1.45598E-04-9.06000E-01-1.84442E-13 8.64034E-14
 -1      3065 1.44866E+01-3.09710E+00 1.46282E-01-5.72477E+00-5.15671E-13-4.27006E-13
 -1      3066 2.02790E+01 1.36660E+00 2.02653E-03 9.21497E-01 4.56487E-13-2.38125E-13
 -1      3067 2.33685E+01-4.87275E+00 6.19649E-02-3.75817E+00 2.04475E-13-6.37476E-13
 -1      3068 2.01414E+01 2.12883E+00 8.84458E-04-1.14232E+00-3.38394E-13-5.77001E-13
 -1      3069 2.02911E+01 1.68149E+00-1.06570E-02-1.25053E+00-4.20277E-13-4.75578E-13
 -1      3070 2.02861E+01 1.30311E+00-1.29609E-03-9.78088E-01-3.87271E-13-4.41973E-13
 -1      3071 2.01968E+01 1.85388E+00 5.08353E-03-9.29013E-01-2.97639E-13-5.52098E-13
 -1      3072 2.82794E+01 2.55480E+00-7.49302E-02-2.24518E+00 3.90382E-14-4.33681E-14
 -1      3073 2.71960E+01 2.37466E+00-8.10847E-02 2.24121E+00 2.49481E-13 2.83357E-13
 -1      3074 2.02788E+01 1.37860E+00 5.62296E-03-8.85885E-01-3.32307E-13-4.65649E-13
 -1      3075 2.07083E+01-4.61645E+00 7.62640E-02-4.84735E+00-4.41022E-13-4.92131E-13
 -1      3076 2.79754E+01 3.25138E+00-7.51093E-02 2.15409E+00-2.18964E-13-6.11150E-13
 -1      3077 2.57538E+01-4.10452E+00 1.54181E-02-1.55985E+00-1.04770E-13-8.16430E-14
 -1      3078 2.69305E+01-1.21597E+00-2.95026E-02-1.63589E+00 3.90799E-14-2.09464E-13
 -1      3079 2.75318E+01-2.60513E+00-3.33512E-02-5.24556E-01 7.08422E-14-7.80348E-14
 -1      3080 2.61666E+01-3.44943E+00-2.03864E-02 4.01685E-01 1.21922E-13-1.51053E-13
 -1      3081 2.84056E+01-1.10765E+00-3.43942E-03-1.25980E+00 1.48215E-14-1.39291E-13
 -1      3082 2.75309E+01 1.95864E+00-5.72522E-02-2.29098E+00 7.99916E-14-2.75086E-13
 -1      3083 2.30127E+01-5.22732E+00 3.88456E-02 4.37868E+00 5.70793E-14-5.61044E-13
 -1      3084 2.14174E+01-4.94025E+00 5.97909E-02 4.82615E+00 6.41431E-14-4.32139E-13
 -1      3085 2.43494E+01-4.88284E+00 1.05187E-02 3.09232E+00 1.62120E-13-3.24140E-13
 -1      3086 2.76103E+01 5.49308E+00-1.33013E-01 6.37888E-01-4.40287E-13-3.51382E-13
 -1      3087 1.98240E+01 2.82031E+00-5.73863E-03-3.52196E-01-5.74578E-15-6.37306E-13
 -1      3088 1.98477E+01 2.77199E+00-6.21038E-03-5.06112E-01-6.88588E-14-6.51185E-13
 -1      3089 2.00003E+01 2.39594E+00 3.88707E-03-5.07643E-01-9.12309E-14-6.04698E-13
 -1      3090 1.99549E+01 2.50556E+00 3.61486E-03-2.55980E-01 1.39916E-14-5.93090E-13
 -1      3091 8.06294E+00-2.47168E-01 1.81819E-01 8.92123E-02-9.95358E-14-3.59213E-13
 -1      3092 2.68717E+01 5.14088E+00-1.16253E-01 7.55423E-01 2.91947E-13 4.04329E-14
 -1      3093 2.00777E+01 5.83406E-01 9.45792E-05-1.02826E+00-4.03197E-13-8.80880E-14
 -1      3094 1.99582E+01 7.19313E-01-1.36526E-03-9.61407E-01-3.29058E-13 1.76908E-13
 -1      3095 1.98823E+01 7.31884E-01 1.20365E-03-1.03810E+00-3.97836E-13 1.07711E-13
 -1      3096 2.01064E+01 5.57072E-01 2.11117E-03-1.10220E+00-4.08687E-13-2.85844E-14
 -1      3097 2.81972E+01-8.04382E-01-4.18130E-02 1.43183E+00-7.33996E-14-8.05092E-13
 -1      3098 1.20498E+01-2.19495E+00 1.66414E-01 5.11711E+00 2.37171E-14-2.01228E-15
 -1      3099 2.43399E+01-4.36337E+00-4.99990E-02 2.27138E+00 1.05208E-13 2.37085E-14
 -1      3100 2.27037E+01-4.50960E+00 1.11590E-01 3.77340E+00 1.47139E-13-9.16905E-14
 -1      3101 2.02420E+01 1.48216E+00-6.05606E-03 8.04440E-01 4.15932E-13-3.04854E-13
 -1      3102 2.02040E+01 1.67002E+00-5.28529E-04 7.48180E-01 3.86407E-13-3.65479E-13
 -1      3103 9.37536E+00 1.75249E-01 1.05623E-01 1.18992E+00-4.67282E-14-1.96329E-13
 -1      3104 9.24314E+00 2.11435E-01 1.01430E-01-1.05916E+00-1.11328E-13-4.17777E-13
 -1      3105 2.02829E+01 1.15576E+00 1.29598E-03-6.67058E-01-2.69669E-13-4.90074E-13
 -1      3106 2.02554E+01 9.11661E-01-5.14610E-03-4.80279E-01-2.56029E-13-4.70933E-13
 -1      3107 2.02240E+01 4.27305E-01 4.22014E-03-1.19488E-01-1.66857E-13-3.47895E-13
 -1      3108 2.01849E+01 3.20570E-01-2.26890E-03-3.35731E-02-1.45671E-13-3.46416E-13
 -1      3109 2.01710E+01 2.38504E-01 3.12648E-03 2.92458E-02-1.34454E-13-3.12589E-13
 -1      3110 2.01417E+01 1.69881E-01-1.20683E-03 8.19493E-02-1.19365E-13-3.10911E-13
 -1      3111 2.02422E+01 3.39400E-01-8.08965E-04-2.34465E-02-1.20606E-13-3.03715E-13
 -1      3112 2.01251E+01 1.18104E-01 2.16447E-03 1.19964E-01-1.22643E-13-2.92585E-13
 -1      3113 2.01052E+01 7.57111E-02-4.83907E-04 1.49877E-01-1.27038E-13-2.92197E-13
 -1      3114 2.02021E+01 1.79366E-01-1.04285E-03 8.28767E-02-1.16939E-13-2.79348E-13
 -1      3115 2.00891E+01 4.48055E-02 1.36390E-03 1.70811E-01-1.11757E-13-2.79568E-13
 -1      3116 2.00772E+01 2.08165E-02 1.14647E-06 1.86070E-01-1.04915E-13-2.53108E-13
 -1      3117 2.01639E+01 7.94043E-02-9.93296E-04 1.46354E-01-1.15103E-13-2.85326E-13
 -1      3118 2.00627E+01 4.67629E-03 7.34442E-04 1.96244E-01-8.48786E-14-1.89971E-13
 -1      3119 2.00570E+01-6.11305E-03 3.31828E-04 2.03033E-01-9.10865E-14-1.51070E-13
 -1      3120 2.01304E+01 2.18948E-02-8.62118E-04 1.81018E-01-7.90275E-14-2.15661E-13
 -1      3121 2.00444E+01-1.15645E-02 2.55367E-04 2.07446E-01-1.20438E-13-1.11139E-13
 -1      3122 2.00436E+01-1.26625E-02 5.67094E-04 2.10424E-01-4.50326E-14-1.11086E-13
 -1      3123 2.01025E+01-4.96425E-03-7.10025E-04 1.98353E-01-8.22701E-14-1.52042E-13
 -1      3124 2.00327E+01-1.01563E-02-1.09165E-04 2.12944E-01-5.61047E-14-1.15414E-13
 -1      3125 2.00355E+01-3.90672E-03 7.47645E-04 2.15639E-01-8.91733E-14-1.54408E-13
 -1      3126 2.00797E+01-9.23978E-03-5.59834E-04 2.07397E-01-7.46221E-14-1.18846E-13
 -1      3127 2.00260E+01 4.75616E-03-3.95645E-04 2.19271E-01-8.47206E-14-8.41034E-14
 -1      3128 2.00317E+01 1.68299E-02 9.01748E-04 2.24413E-01-3.97535E-14-1.23447E-13
 -1      3129 2.00610E+01 3.61853E-03-4.18690E-04 2.15172E-01-6.63604E-14-6.19511E-14
 -1      3130 2.00230E+01 3.04969E-02-6.35135E-04 2.31537E-01-4.28345E-14-1.42376E-13
 -1      3131 2.00311E+01 4.74388E-02 1.04837E-03 2.41308E-01-4.79633E-14-1.38765E-13
 -1      3132 2.00453E+01 3.00252E-02-2.85258E-04 2.27176E-01-5.15610E-14-5.96438E-14
 -1      3133 2.00225E+01 6.53876E-02-8.52130E-04 2.53878E-01-5.34516E-14-2.08432E-13
 -1      3134 2.00327E+01 8.65982E-02 1.19917E-03 2.70085E-01-6.18642E-14-1.58249E-13
 -1      3135 2.00311E+01 6.76868E-02-1.54789E-04 2.47825E-01-8.13359E-14-2.06697E-13
 -1      3136 2.00234E+01 1.08344E-01-1.06438E-03 2.89760E-01-1.29162E-13-1.59837E-13
 -1      3137 2.00357E+01 1.33380E-01 1.36066E-03 3.13940E-01-1.44052E-13-1.32492E-13
 -1      3138 2.00171E+01 1.15125E-01-2.04026E-05 2.80777E-01-9.06486E-14-1.93062E-13
 -1      3139 2.00250E+01 1.58475E-01-1.28239E-03 3.42171E-01-1.54136E-13-1.23799E-13
 -1      3140 2.00393E+01 1.86819E-01 1.53481E-03 3.75627E-01-1.48293E-13-1.73838E-13
 -1      3141 2.00017E+01 1.71215E-01 1.23313E-04 3.29153E-01-1.45376E-13-2.00640E-13
 -1      3142 2.00263E+01 2.14605E-01-1.50726E-03 4.13683E-01-1.30340E-13-1.64525E-13
 -1      3143 2.00427E+01 2.45377E-01 1.72121E-03 4.57445E-01-1.08490E-13-1.71581E-13
 -1      3144 1.99832E+01 2.34672E-01 2.77809E-04 3.95657E-01-1.37846E-13-1.71411E-13
 -1      3145 2.00268E+01 2.74656E-01-1.72806E-03 5.06389E-01-8.07085E-14-1.62682E-13
 -1      3146 2.00457E+01 3.06220E-01 1.92072E-03 5.61094E-01-6.38031E-14-1.08980E-13
 -1      3147 1.99600E+01 3.03406E-01 4.37166E-04 4.82588E-01-8.80998E-14-1.81380E-13
 -1      3148 2.00263E+01 3.34811E-01-1.91634E-03 6.21715E-01-4.38908E-14-6.17763E-14
 -1      3149 2.00485E+01 3.64236E-01 2.14091E-03 6.87402E-01-6.17012E-14-5.45339E-14
 -1      3150 1.99308E+01 3.73668E-01 5.78156E-04 5.91773E-01-5.08779E-14-1.43810E-13
 -1      3151 2.00261E+01 3.88336E-01-2.01640E-03 7.60112E-01-5.07191E-14-7.06806E-14
 -1      3152 2.00531E+01 4.10639E-01 2.40445E-03 8.35915E-01 4.02956E-14-1.30121E-13
 -1      3153 1.98952E+01 4.38884E-01 6.46479E-04 7.24450E-01-3.26862E-14-7.15674E-14
 -1      3154 2.00296E+01 4.23971E-01-1.92964E-03 9.20609E-01 3.58512E-14-1.17390E-13
 -1      3155 2.00649E+01 4.31118E-01 2.75757E-03 1.00433E+00 1.03488E-13-1.43265E-13
 -1      3156 1.98547E+01 4.88049E-01 5.33634E-04 8.81144E-01 4.28543E-14-1.28305E-13
 -1      3157 2.00452E+01 4.23845E-01-1.48903E-03 1.10019E+00 1.25728E-13-1.44462E-13
 -1      3158 2.00955E+01 4.03554E-01 3.27101E-03 1.18767E+00 1.32022E-13-1.85619E-13
 -1      3159 1.98151E+01 5.03613E-01 3.97007E-05 1.06153E+00 8.47964E-14-8.18348E-14
 -1      3160 2.00897E+01 3.61135E-01-4.12061E-04 1.29278E+00 5.58725E-14-1.90170E-13
 -1      3161 2.01668E+01 2.95743E-01 4.01193E-03 1.37696E+00 3.09715E-14-1.73347E-13
 -1      3162 1.97893E+01 4.58905E-01-1.17762E-03 1.26422E+00 9.20720E-14-1.00256E-13
 -1      3163 2.01942E+01 1.98245E-01 1.78144E-03 1.48727E+00 2.43936E-14-1.14457E-13
 -1      3164 2.03177E+01 6.44097E-02 4.92840E-03 1.55653E+00 3.02471E-14-1.03466E-13
 -1      3165 1.98032E+01 3.15538E-01-3.66192E-03 1.48592E+00 5.64876E-14 9.80032E-15
 -1      3166 2.04115E+01-1.12364E-01 5.88847E-03 1.66305E+00 7.75626E-14-1.56355E-13
 -1      3167 2.06104E+01-3.41074E-01 5.56534E-03 1.69797E+00 1.50420E-13-1.43409E-13
 -1      3168 1.99036E+01 2.21077E-02-8.19858E-03 1.71863E+00 3.30088E-14-6.83366E-14
 -1      3169 2.08245E+01-6.19343E-01 1.30989E-02 1.77962E+00 2.35441E-13-1.51917E-13
 -1      3170 2.11332E+01-9.61805E-01 4.56536E-03 1.74742E+00 2.52191E-13-1.64262E-13
 -1      3171 2.01694E+01-4.81883E-01-1.56844E-02 1.94088E+00 1.92834E-13-2.38526E-13
 -1      3172 2.15451E+01-1.34386E+00 2.42867E-02 1.75589E+00 2.07200E-13-2.10039E-13
 -1      3173 2.19884E+01-1.78006E+00 9.43138E-05 1.60322E+00 1.28272E-13-5.35057E-14
 -1      3174 2.07224E+01-1.24526E+00-2.64795E-02 2.09633E+00 2.58346E-13-2.61210E-13
 -1      3175 2.26829E+01-2.20399E+00 3.92595E-02 1.44356E+00 1.24228E-13 7.23883E-14
 -1      3176 2.32464E+01-2.61269E+00-7.31997E-03 1.09949E+00 1.75020E-13 1.09710E-13
 -1      3177 2.17273E+01-2.23621E+00-3.52242E-02 2.05763E+00 2.43058E-13-9.75522E-14
 -1      3178 2.42430E+01-2.87691E+00 4.44043E-02 6.42559E-01 1.73476E-13 1.27590E-13
 -1      3179 2.48788E+01-2.88644E+00-1.08299E-03 3.55569E-02 2.61127E-13 1.76199E-13
 -1      3180 2.33003E+01-3.18075E+00-3.33797E-02 1.58948E+00 1.97092E-13 3.76331E-14
 -1      3181 2.68391E+01-1.57127E-01-1.71838E-01-2.21934E+00 1.08649E-13 9.08752E-14
 -1      3182 2.69490E+01 1.66311E+00-7.39790E-02-2.35959E+00 5.89528E-14-2.32522E-14
 -1      3183 2.62824E+01 5.00948E+00-1.76642E-01-5.70586E-01-4.45588E-13-4.63171E-14
 -1      3184 2.63348E+01 5.04562E+00-1.08322E-01 5.69729E-01-3.55063E-13-2.28550E-13
 -1      3185 2.67987E+01 2.89127E+00-8.96501E-02 2.00765E+00-1.36419E-13-4.55753E-13
 -1      3186 2.68328E+01 1.26012E+00-9.19238E-02 2.42531E+00-2.15106E-13-4.24015E-13
 -1      3187 2.66028E+01-2.64581E-01-1.14502E-01 2.08530E+00-2.86559E-13-3.31048E-13
 -1      3188 2.59405E+01-2.28621E+00-1.92269E-03 9.50245E-01-3.66139E-13-3.94788E-14
 -1      3189 2.54068E+01-2.83127E+00 2.37637E-02 2.52074E-01-3.15293E-13-2.80383E-14
 -1      3190 2.43277E+01-2.93111E+00-1.83152E-02-4.67338E-01-2.23944E-13-4.06485E-14
 -1      3191 2.37453E+01-2.73517E+00 4.00280E-02-9.73341E-01-6.35724E-14-1.39939E-13
 -1      3192 2.47544E+01-3.41223E+00-4.40786E-02-7.61823E-01-2.96074E-13-3.46728E-14
 -1      3193 2.28512E+01-2.41553E+00-1.06646E-02-1.35962E+00 7.78275E-14-1.40373E-13
 -1      3194 2.23270E+01-1.97643E+00 3.23885E-02-1.64528E+00 1.20121E-13-4.23377E-14
 -1      3195 2.28790E+01-2.94577E+00-3.78824E-02-1.76468E+00 1.71872E-14 2.36726E-13
 -1      3196 2.17307E+01-1.56522E+00-4.99249E-04-1.76402E+00 1.49602E-13-8.45689E-14
 -1      3197 2.13328E+01-1.15021E+00 1.98195E-02-1.88161E+00 1.64061E-13-9.53510E-14
 -1      3198 2.14997E+01-1.95868E+00-3.02532E-02-2.13315E+00 1.08798E-13-1.03058E-13
 -1      3199 2.09897E+01-8.03975E-01 3.34487E-03-1.86405E+00-3.81067E-14-2.87862E-13
 -1      3200 2.07199E+01-4.92182E-01 1.02189E-02-1.87923E+00-4.72231E-14-2.91065E-13
 -1      3201 2.06519E+01-1.04523E+00-2.12454E-02-2.14400E+00-6.54674E-14-3.79600E-13
 -1      3202 2.05481E+01-2.45479E-01 4.26316E-03-1.80216E+00 1.83589E-13-2.32479E-13
 -1      3203 2.03764E+01-3.87146E-02 4.46660E-03-1.75978E+00 2.90004E-13-1.82992E-13
 -1      3204 2.01965E+01-3.64798E-01-1.24623E-02-1.99684E+00 1.46030E-13-3.67100E-13
 -1      3205 2.03068E+01 1.19656E-01 3.82730E-03-1.66061E+00 1.81621E-13 2.86433E-14
 -1      3206 2.01999E+01 2.46884E-01 1.35543E-03-1.58725E+00 1.62840E-13 3.89646E-14
 -1      3207 1.99877E+01 8.42742E-02-6.39377E-03-1.79288E+00 3.28711E-13-4.90446E-13
 -1      3208 2.01839E+01 3.43561E-01 2.96404E-03-1.48149E+00 5.65563E-14-7.39339E-15
 -1      3209 2.01174E+01 4.20033E-01 1.29976E-04-1.39038E+00-1.05193E-13-6.49934E-14
 -1      3210 1.99187E+01 3.61638E-01-2.23781E-03-1.57471E+00 5.21866E-14-3.04546E-13
 -1      3211 2.01347E+01 4.69480E-01 2.35652E-03-1.29697E+00-2.80799E-13-2.54151E-16
 -1      3212 2.00899E+01 5.20414E-01 1.31008E-04-1.19466E+00-3.42141E-13-1.28914E-14
 -1      3213 1.99596E+01 6.05554E-01-1.31712E-03-1.17927E+00-3.86184E-13-1.64568E-13
 -1      3214 1.99268E+01 5.15363E-01-1.14942E-03-1.36871E+00-2.11767E-13-1.69114E-13
 -1      3215 1.94377E+01-3.73781E+00 1.54678E-01-4.84422E+00-4.14217E-13-5.81885E-13
 -1      3216 2.19053E+01-4.53500E+00-1.07394E-01-3.89109E+00-3.88370E-13-4.15869E-13
 -1      3217 1.91537E+01 1.15950E+00 8.36068E-04-4.83991E-01 1.03063E-13-2.00515E-13
 -1      3218 1.90911E+01 1.19191E+00-4.18132E-03-3.05304E-01 2.48284E-13-3.64899E-13
 -1      3219 2.00759E+01 1.57130E-01-1.03080E-03-8.02826E-02 1.37806E-13-1.90255E-13
 -1      3220 2.01074E+01 2.20887E-01 3.62967E-03-2.53041E-02 1.76232E-13-1.91939E-13
 -1      3221 2.58780E+01-3.89031E+00 3.44511E-02-1.04821E+00-4.42849E-14-4.60777E-13
 -1      3222 2.66824E+01-3.15272E+00-9.60376E-02 9.65355E-02-3.81500E-14-5.13048E-13
 -1      3223 1.99986E+01-1.43451E-02 5.89515E-04-2.11777E-01 2.42037E-14-1.58461E-13
 -1      3224 1.99943E+01-1.24495E-02 2.83838E-04-2.09851E-01 5.46758E-14-1.76627E-13
 -1      3225 2.00031E+01-6.71335E-03 3.76221E-04-2.05824E-01 7.17668E-14-1.87443E-13
 -1      3226 2.00042E+01 3.82393E-03 7.99797E-04-1.99722E-01 6.10476E-14-1.79324E-13
 -1      3227 2.00581E+01-6.50308E-03-8.03196E-04-2.04722E-01 4.95827E-14-1.52514E-13
 -1      3228 2.00076E+01 7.79298E-03 9.18745E-04-2.20715E-01-5.19650E-14-8.50493E-14
 -1      3229 1.99962E+01-1.86745E-03-3.66703E-04-2.17225E-01-2.35092E-14-1.30625E-13
 -1      3230 2.00189E+01 3.25759E-02 1.07926E-03-2.34213E-01 1.88844E-15 1.61747E-14
 -1      3231 2.00047E+01 1.87244E-02-5.81991E-04-2.26395E-01-1.82766E-14-6.25058E-14
 -1      3232 2.00293E+01 1.80115E-02-3.65467E-04-2.27834E-01-5.84885E-14-1.50179E-13
 -1      3233 2.00340E+01 6.46245E-02 1.25302E-03-2.59059E-01 2.53928E-14-2.13531E-14
 -1      3234 2.00169E+01 4.71428E-02-7.63368E-04-2.45127E-01 3.28495E-14 2.76817E-14
 -1      3235 2.00273E+01 4.92367E-02-2.69627E-04-2.45564E-01 1.03673E-14-1.17450E-13
 -1      3236 2.00525E+01 1.03084E-01 1.44578E-03-2.98432E-01 2.93846E-14-5.00115E-16
 -1      3237 2.00324E+01 8.23768E-02-9.30414E-04-2.76882E-01 3.62845E-14 1.94337E-15
 -1      3238 2.00272E+01 8.89380E-02-1.84840E-04-2.75335E-01 1.68848E-14-1.28992E-14
 -1      3239 2.00747E+01 1.47108E-01 1.65662E-03-3.55048E-01-5.73490E-14 8.30259E-14
 -1      3240 2.00511E+01 1.23626E-01-1.09580E-03-3.24613E-01-3.54172E-14 3.81966E-14
 -1      3241 2.00283E+01 1.36074E-01-1.01953E-04-3.20319E-01-2.32821E-14 3.86912E-14
 -1      3242 2.01006E+01 1.95364E-01 1.87931E-03-4.31131E-01 5.03391E-14-6.34545E-14
 -1      3243 2.00729E+01 1.69871E-01-1.26020E-03-3.90832E-01 7.20989E-15 4.23205E-16
 -1      3244 2.00296E+01 1.89477E-01-2.31585E-05-3.83239E-01-6.17434E-15 1.89076E-14
 -1      3245 2.01310E+01 2.45429E-01 2.10528E-03-5.28203E-01-2.81282E-14-9.88014E-14
 -1      3246 2.00983E+01 2.19327E-01-1.41201E-03-4.77499E-01 5.24196E-14-4.56671E-14
 -1      3247 2.00306E+01 2.47288E-01 5.18496E-05-4.66327E-01 2.37102E-14-9.88594E-14
 -1      3248 2.01671E+01 2.92940E-01 2.32273E-03-6.46720E-01-1.08141E-14-7.37261E-14
 -1      3249 2.01283E+01 2.68744E-01-1.52135E-03-5.85757E-01-3.32071E-14-4.03801E-14
 -1      3250 2.00311E+01 3.06176E-01 1.00760E-04-5.71165E-01-5.31325E-14 3.40941E-15
 -1      3251 2.02115E+01 3.30383E-01 2.52079E-03-7.85468E-01-2.63477E-14-8.35552E-14
 -1      3252 2.01650E+01 3.12384E-01-1.52887E-03-7.15480E-01-2.97200E-14-5.02513E-14
 -1      3253 2.00318E+01 3.60316E-01 7.71139E-05-6.98431E-01-3.91757E-14 1.06004E-14
 -1      3254 2.02695E+01 3.45506E-01 2.69238E-03-9.40671E-01 7.98244E-16-1.55205E-14
 -1      3255 2.02123E+01 3.40625E-01-1.33183E-03-8.64569E-01 1.27806E-14-2.46477E-14
 -1      3256 2.00351E+01 3.99916E-01-1.14410E-04-8.47473E-01-3.69187E-14 9.86531E-14
 -1      3257 2.03511E+01 3.19421E-01 2.82981E-03-1.10473E+00 5.33977E-14-5.23400E-15
 -1      3258 2.02784E+01 3.38206E-01-7.60639E-04-1.02791E+00 5.58666E-14-6.18890E-15
 -1      3259 2.00474E+01 4.09359E-01-6.46370E-04-1.01571E+00 1.71618E-14 1.18453E-13
 -1      3260 2.04746E+01 2.24864E-01 2.89090E-03-1.26437E+00-2.78583E-14 5.67707E-14
 -1      3261 2.03778E+01 2.82329E-01 4.51858E-04-1.19582E+00 3.67173E-14 1.78823E-14
 -1      3262 2.00814E+01 3.65020E-01-1.80603E-03-1.19776E+00 5.03533E-14 2.65806E-14
 -1      3263 2.06705E+01 2.60147E-02 2.68612E-03-1.39767E+00-5.12249E-14-1.78993E-14
 -1      3264 2.05364E+01 1.41456E-01 2.69733E-03-1.35159E+00 3.00133E-15 1.34574E-14
 -1      3265 2.01607E+01 2.33356E-01-4.03869E-03-1.38376E+00 1.97358E-14-7.15088E-15
 -1      3266 2.09855E+01-3.16567E-01 1.71676E-03-1.46914E+00-1.41830E-13-7.31192E-14
 -1      3267 2.07957E+01-1.22940E-01 6.44638E-03-1.46711E+00-1.08880E-13-6.97440E-14
 -1      3268 2.03264E+01-2.89342E-02-7.96429E-03-1.55590E+00-3.96935E-14 2.01806E-14
 -1      3269 2.14810E+01-8.29753E-01-1.15273E-03-1.42254E+00-1.40439E-13-4.36479E-14
 -1      3270 2.12161E+01-5.46653E-01 1.21839E-02-1.49577E+00-1.56040E-13-6.71134E-14
 -1      3271 2.06428E+01-4.68062E-01-1.41598E-02-1.68106E+00-1.47620E-13-6.06813E-14
 -1      3272 2.22189E+01-1.48493E+00-6.59277E-03-1.16993E+00-2.81207E-13-9.71445E-16
 -1      3273 2.18705E+01-1.13728E+00 1.98889E-02-1.36035E+00-1.64380E-13-3.49411E-14
 -1      3274 2.12014E+01-1.11269E+00-2.24507E-02-1.69650E+00-2.16979E-13-1.71469E-13
 -1      3275 2.32098E+01-2.12456E+00-1.68248E-02-6.02248E-01-1.40377E-13-5.41957E-14
 -1      3276 2.28080E+01-1.81169E+00 2.74556E-02-9.48317E-01-2.20414E-13 1.86001E-14
 -1      3277 2.21025E+01-1.90911E+00-2.86800E-02-1.48691E+00-2.02877E-13-2.17174E-13
 -1      3278 2.43575E+01-2.32080E+00-1.98907E-02 3.77343E-01-1.18870E-13 1.84768E-13
 -1      3279 2.39853E+01-2.31065E+00 2.58805E-02-1.25469E-01-1.31916E-13 1.43987E-13
 -1      3280 2.33996E+01-2.64303E+00-2.98410E-02-8.98299E-01-2.81708E-13 1.31345E-14
 -1      3281 2.59926E+01 1.01103E+00-3.20076E-02 2.37680E+00 1.78413E-13 3.11487E-13
 -1      3282 2.60148E+01-3.80705E-01-6.84590E-02 2.18599E+00 1.31355E-13 3.21781E-13
 -1      3283 2.53601E+01 3.81397E+00-7.84631E-02 1.49221E+00 1.36779E-13 9.20514E-14
 -1      3284 2.55152E+01 2.70957E+00-1.28105E-01 2.06263E+00 2.15494E-13 2.86968E-13
 -1      3285 2.53822E+01 4.37525E+00-1.46068E-01-5.59259E-01 1.94234E-13-1.68946E-13
 -1      3286 2.54193E+01 4.45448E+00-1.09074E-01 4.13608E-01 1.04070E-13-9.80674E-14
 -1      3287 2.57943E+01 2.53559E+00-1.48013E-01-2.11147E+00 1.48992E-13-2.05665E-13
 -1      3288 2.56297E+01 3.73373E+00-8.67558E-02-1.47245E+00 2.07515E-13-2.11870E-13
 -1      3289 2.60072E+01-3.43503E-01-8.65991E-02-2.13923E+00 2.94174E-14-1.18761E-13
 -1      3290 2.59426E+01 1.01285E+00-5.13650E-02-2.22873E+00 1.02682E-13-1.84406E-13
 -1      3291 2.54064E+01-2.09372E+00-1.69250E-02-1.09159E+00 1.10502E-15-9.92661E-14
 -1      3292 2.56157E+01-1.35804E+00-2.79231E-02-1.58487E+00 1.95087E-14-1.65648E-13
 -1      3293 2.29047E+01-1.91612E+00 2.82220E-02 9.84480E-01-1.57365E-13 1.62311E-13
 -1      3294 2.33162E+01-2.21021E+00-1.67583E-02 6.18737E-01-1.42704E-13 1.41690E-13
 -1      3295 2.19296E+01-1.25154E+00 2.03036E-02 1.45668E+00 7.32675E-14 1.54597E-13
 -1      3296 2.22949E+01-1.60293E+00-7.27160E-03 1.24380E+00-3.87858E-14 1.48252E-13
 -1      3297 2.22230E+01-2.06823E+00-3.75063E-02 1.56146E+00-1.05957E-13-7.98506E-14
 -1      3298 2.12447E+01-6.43921E-01 1.28221E-02 1.63090E+00 1.10621E-13-5.75661E-14
 -1      3299 2.15266E+01-9.36425E-01-2.08532E-05 1.53864E+00 1.11902E-13 1.94420E-13
 -1      3300 2.12848E+01-1.24245E+00-2.30085E-02 1.81734E+00 7.26578E-14-1.33053E-15
 -1      3301 2.08022E+01-1.91915E-01 7.10699E-03 1.62847E+00-1.42012E-14-7.35907E-14
 -1      3302 2.10042E+01-4.00116E-01 2.18780E-03 1.61783E+00 7.44613E-14-3.61614E-15
 -1      3303 2.07012E+01-5.70629E-01-1.43839E-02 1.83296E+00-2.35058E-14-4.18526E-14
 -1      3304 2.05277E+01 1.08385E-01 3.43475E-03 1.52814E+00 2.03058E-13-2.29938E-14
 -1      3305 2.06707E+01-2.65459E-02 2.63254E-03 1.56788E+00 1.39304E-13-4.72003E-14
 -1      3306 2.03707E+01-9.90405E-02-8.87040E-03 1.72913E+00 4.53481E-14 1.34044E-13
 -1      3307 2.03630E+01 2.97613E-01 3.17788E-03 1.37342E+00 1.95007E-13-3.64317E-14
 -1      3308 2.04627E+01 2.13026E-01 2.83500E-03 1.44262E+00 8.62686E-14-9.86768E-14
 -1      3309 2.01964E+01 2.07560E-01-5.49710E-03 1.56725E+00 1.31944E-13 6.78254E-14
 -1      3310 2.68130E+01-1.95187E+00-1.45077E-02 1.23994E+00-1.39229E-13-4.41903E-13
 -1      3311 1.99324E+01-4.34168E+00-6.33848E-02 4.90449E+00 2.50515E-13-2.08972E-13
 -1      3312 1.70740E+01-3.24782E+00 1.37558E-01 5.37859E+00 2.94285E-13 4.96547E-14
 -1      3313 2.13156E+01-3.85893E+00 7.95126E-02 3.89629E+00 1.54342E-13-1.55809E-13
 -1      3314 2.00524E+01 2.16228E+00-4.27989E-03 2.93005E-01 2.19110E-13-5.45556E-13
 -1      3315 2.00394E+01 2.20129E+00-3.32851E-03 1.71167E-01 1.62483E-13-5.37713E-13
 -1      3316 2.67275E+01 2.98414E+00-1.83919E-01-2.21622E+00 3.51941E-14 1.34545E-14
 -1      3317 1.96451E+01 8.36787E-01 2.53389E-03-1.03386E+00-2.96716E-13 1.57420E-13
 -1      3318 1.94951E+01 9.22311E-01-5.53065E-03-9.48931E-01-2.72866E-13 5.50550E-14
 -1      3319 1.90611E+01 1.21526E+00-2.13192E-03-8.54597E-02 2.34563E-13-5.42627E-13
 -1      3320 1.90640E+01 1.21363E+00-1.73488E-03 1.09140E-01 2.11158E-13-5.03448E-13
 -1      3321 1.89116E+01 1.19086E+00 4.74109E-03-2.11166E-01 3.14635E-13-3.64187E-13
 -1      3322 2.66594E+01-3.54079E+00-1.13971E-01 2.76527E-01 1.08637E-13 3.61620E-14
 -1      3323 2.57582E+01-4.13497E+00 1.32626E-02 1.39654E+00 2.26179E-13-1.84189E-13
 -1      3324 1.99983E+01 6.40990E-01 5.43805E-04 1.02561E+00 1.94351E-13 5.88957E-14
 -1      3325 2.02910E+01 9.89473E-01-4.20695E-04 6.92003E-01 4.02757E-13-2.11057E-13
 -1      3326 2.02683E+01 1.30732E+00 2.93179E-03 7.72966E-01 4.13862E-13-2.48378E-13
 -1      3327 2.02726E+01 1.12796E+00-9.09777E-05 5.94909E-01 3.73624E-13-2.61777E-13
 -1      3328 2.02318E+01 7.76732E-01-3.85699E-03 4.86554E-01 3.77297E-13-2.19241E-13
 -1      3329 2.45967E+01-4.19473E+00 1.05895E-01-2.13805E+00-2.50641E-13-1.56947E-13
 -1      3330 2.58675E+01-3.52232E+00-8.79371E-02-4.09455E-01-8.47868E-14-3.19779E-14
 -1      3331 2.23054E+01-4.48127E+00 9.83434E-02-3.92041E+00 1.73792E-13-4.24336E-13
 -1      3332 2.43615E+01-4.73682E+00-8.16819E-02-2.69182E+00 1.07983E-13-6.07562E-13
 -1      3333 1.69808E+01-3.12810E+00 9.33215E-02-5.23995E+00-8.65835E-14-5.92443E-13
 -1      3334 1.95312E+01-4.17908E+00-3.97249E-02-4.99628E+00 1.43108E-13-4.21420E-13
 -1      3335 1.93591E+01 1.02675E+00 3.26344E-03-8.14992E-01-1.07877E-13-9.25957E-14
 -1      3336 1.92420E+01 1.08837E+00-5.64462E-03-6.71131E-01 2.75595E-14-2.09814E-13
 -1      3337 1.90557E+01 1.10294E+00 3.52186E-03-6.32401E-01 2.08092E-13-2.40994E-13
 -1      3338 1.93178E+01 9.41649E-01 1.17734E-04-9.61752E-01-1.60763E-13-1.81530E-13
 -1      3339 9.73307E+00-5.90988E-01 7.19819E-02 3.04623E+00 8.18096E-14 2.76029E-13
 -1      3340 8.94240E+00-3.93308E-02 1.00779E-01 1.19566E+00-3.62106E-14 3.79391E-13
 -1      3341 2.66797E+01 4.48483E+00-9.31183E-02-1.49440E+00-2.13787E-13 2.71796E-14
 -1      3342 1.35776E+01-2.04561E+00 1.34344E-01-5.06432E+00-4.86194E-13-2.77681E-13
 -1      3343 1.60997E+01-3.15691E+00-3.77941E-02-5.39350E+00-5.03604E-13-4.23356E-13
 -1      3344 2.00006E+01-8.49427E-03 7.61292E-04-2.14781E-01 5.02098E-15-1.37750E-13
 -1      3345 1.99923E+01-1.30779E-02-9.01202E-05-2.13446E-01 1.58659E-14-1.30917E-13
 -1      3346 2.00436E+01-1.26231E-02-6.25663E-04-2.12598E-01-1.98556E-15-1.65552E-13
 -1      3347 2.00344E+01-3.32992E-03-4.81638E-04-2.18378E-01-2.40259E-14-1.42189E-13
 -1      3348 1.01016E+01-3.19278E-01 9.24587E-02-2.83617E+00-2.14693E-13-4.53027E-13
 -1      3349 1.15899E+01-1.24146E+00 6.27231E-02-4.36427E+00-4.13322E-13-3.50941E-13
 -1      3350 1.38136E+01-1.15279E+00 1.18364E-01-4.15327E+00-3.31811E-13-2.65628E-13
 -1      3351 2.02286E+01 1.59022E+00-6.63467E-03-8.54085E-01-2.95738E-13-5.34517E-13
 -1      3352 2.02576E+01 1.36684E+00 5.56458E-05-7.47701E-01-2.78772E-13-5.00300E-13
 -1      3353 2.01749E+01 1.83116E+00 1.08496E-03-7.89195E-01-2.47188E-13-5.57673E-13
 -1      3354 8.97910E+00 1.16382E-01 1.34702E-01-5.47822E-01-3.15910E-14 2.41654E-13
 -1      3355 9.72084E+00-2.46270E-01 8.59438E-02-2.29457E+00-3.27325E-14-6.38101E-14
 -1      3356 2.02743E+01 7.15274E-01 5.10520E-03-3.47649E-01-2.35383E-13-4.27617E-13
 -1      3357 2.02286E+01 5.53909E-01-3.67936E-03-2.15959E-01-1.94184E-13-4.00666E-13
 -1      3358 2.02756E+01 5.85113E-01-1.00611E-04-1.88344E-01-1.58483E-13-3.60216E-13
 -1      3359 1.39544E+01-2.27641E+00-8.80590E-03 5.18162E+00 2.34174E-13 2.02921E-13
 -1      3360 1.16598E+01-1.10110E+00 1.47882E-01 4.13608E+00 6.68424E-14 1.83298E-13
 -1      3361 2.70161E+01-1.65547E+00-4.10870E-03-1.35597E+00 9.02264E-14 9.29187E-14
 -1      3362 2.64223E+01-1.25611E+00-5.43106E-02 1.66607E+00 7.81632E-14 2.74454E-13
 -1      3363 2.52543E+01-1.49079E+00-1.57234E-02 1.56454E+00 2.92301E-14 3.70220E-13
 -1      3364 2.50555E+01-2.06224E+00-9.70845E-03 1.07231E+00-3.14236E-14 3.12795E-13
 -1      3365 2.64455E+01-2.66237E+00 1.04728E-02 7.41605E-01 8.69660E-15 1.86996E-13
 -1      3366 2.62140E+01-2.13372E+00 4.32710E-03-1.04423E+00 2.19966E-13 1.85227E-13
 -1      3367 2.00324E+01 2.22008E+00-3.68525E-03 6.60668E-02 1.33488E-13-5.34092E-13
 -1      3368 2.00318E+01 2.22092E+00-3.69388E-03-5.81573E-02 8.90576E-14-5.54363E-13
 -1      3369 2.01467E+01 1.92535E+00 5.07441E-03 1.01734E-01 1.38230E-13-5.01866E-13
 -1      3370 2.02575E+01 1.46419E+00 7.07003E-03 5.88781E-01 3.44232E-13-3.53581E-13
 -1      3371 2.01631E+01 1.80246E+00-6.94218E-03 6.86804E-01 3.67562E-13-4.00576E-13
 -1      3372 2.01290E+01 1.93132E+00-2.71603E-03 5.91783E-01 3.16248E-13-4.30020E-13
 -1      3373 1.11782E+01 2.55695E-01 1.16560E-01-1.69687E+00-1.68077E-13-3.96939E-13
 -1      3374 2.52537E+01-3.09775E+00-3.05670E-02-4.86586E-02-8.80053E-14 6.03937E-14
 -1      3375 2.01643E+01-4.56626E+00 9.54335E-02 5.13191E+00 1.81660E-13-4.72518E-13
 -1      3376 1.86081E+01-3.88994E+00 5.43755E-02 5.19155E+00 3.53342E-13-5.21194E-13
 -1      3377 2.16983E+01-4.59940E+00-1.73269E-02 4.14683E+00 2.63227E-13-3.42609E-13
 -1      3378 2.02858E+01 9.41971E-01-1.65370E-03-4.24041E-01-2.25136E-13-4.64756E-13
 -1      3379 2.49303E+01-3.64872E+00-6.57033E-02 8.69153E-01 2.90597E-13-3.63772E-14
 -1      3380 2.56737E+01-2.84581E+00 3.07646E-02-3.52691E-01 3.12592E-13 1.34504E-13
 -1      3381 1.95138E+01 9.01755E-01-6.22452E-03 9.54152E-01 1.66587E-13 7.29189E-14
 -1      3382 1.96730E+01 8.19374E-01 6.61763E-03 1.03699E+00 2.47495E-13-1.81169E-13
 -1      3383 1.02839E+01 2.90209E-01 1.27564E-01 3.85104E-01 3.37222E-14 3.54730E-13
 -1      3384 2.48935E+01-2.65275E+00-1.29956E-02 2.65503E-01-1.18325E-13 1.73498E-13
 -1      3385 2.65548E+01 4.31953E+00-1.84560E-01 1.59281E+00-1.71640E-13-3.45862E-13
 -1      3386 1.93795E+01 1.00752E+00 3.27997E-03 8.27244E-01 5.02030E-14 1.54840E-13
 -1      3387 1.93485E+01 9.19857E-01 1.75686E-03 9.70188E-01 8.60540E-14-2.13833E-14
 -1      3388 1.92590E+01 1.07220E+00-5.76397E-03 6.87995E-01 8.12519E-14-4.94585E-14
 -1      3389 1.63239E+01-2.29584E+00 8.81842E-02 4.72466E+00 2.74086E-13 1.28127E-13
 -1      3390 2.30511E+01-3.86579E+00 2.16887E-02-2.58269E+00-3.52392E-13-3.19649E-13
 -1      3391 1.21304E+01-4.89140E-01 1.20741E-01 3.26982E+00 1.92093E-13 2.15522E-13
 -1      3392 2.50187E+01-3.95858E+00 9.31746E-03 1.36654E+00 2.84222E-13-6.61901E-14
 -1      3393 2.47650E+01-4.57795E+00-2.29688E-02 2.39536E+00 2.45477E-13-1.12965E-13
 -1      3394 2.37212E+01-4.44059E+00 7.82061E-02 2.97631E+00 2.38719E-13-1.72438E-13
 -1      3395 2.43607E+01-3.76259E+00 7.20308E-02 1.65278E+00 3.01552E-13-3.12567E-14
 -1      3396 2.01930E+01 3.21382E-01-1.50075E-03 3.42266E-02 1.99132E-13-2.17123E-13
 -1      3397 2.01260E+01 2.97517E-01-1.92430E-03 4.30932E-02 2.14707E-13-1.99005E-13
 -1      3398 2.01703E+01 3.97756E-01 4.30366E-03 1.34434E-01 2.56342E-13-2.13022E-13
 -1      3399 2.00795E+01 2.01609E-02-1.01350E-03-1.87302E-01 6.40440E-14-1.77708E-13
 -1      3400 2.00160E+01 1.90688E-02 8.02808E-05-1.89254E-01 5.83167E-14-2.06455E-13
 -1      3401 2.00244E+01 4.15234E-02 1.50836E-03-1.74173E-01 9.44003E-14-2.05249E-13
 -1      3402 1.82742E+01-2.88324E+00 8.69249E-02-4.55532E+00-4.31849E-13-5.52423E-13
 -1      3403 2.35249E+01-2.76283E+00-5.35742E-02 8.95605E-01-1.92085E-13 1.58339E-14
 -1      3404 2.41004E+01-2.36149E+00 2.54163E-02 1.08814E-01-1.06516E-13 5.72684E-14
 -1      3405 2.44741E+01-2.33577E+00-1.08014E-02-3.93140E-01-4.70362E-14-3.83834E-14
 -1      3406 2.02911E+01 3.66912E-01 2.79914E-03 1.30644E+00 2.62638E-13 1.18425E-14
 -1      3407 2.00668E+01 4.00360E-01-5.17971E-03 1.40241E+00 1.95905E-13 2.65216E-13
 -1      3408 2.01995E+01 4.31367E-01 3.93308E-03 1.24736E+00 1.81574E-13-1.24813E-14
 -1      3409 2.00713E+01 2.10690E+00-3.26434E-03 3.91850E-01 2.59408E-13-5.15268E-13
 -1      3410 2.01691E+01 1.85175E+00 6.01085E-03 2.92336E-01 2.27033E-13-4.85410E-13
 -1      3411 2.00960E+01 2.02555E+00-5.86498E-03 5.04068E-01 3.01358E-13-4.71898E-13
 -1      3412 1.90988E+01 1.18390E+00-4.43305E-03 3.25767E-01 1.85212E-13-2.03354E-13
 -1      3413 1.91668E+01 1.14767E+00 9.79158E-04 5.05046E-01 1.30056E-13-2.03787E-13
 -1      3414 1.90733E+01 1.08698E+00 3.45900E-03 6.52906E-01-1.28886E-14-1.10285E-13
 -1      3415 1.89185E+01 1.18450E+00 4.62773E-03 2.40519E-01 1.82801E-13-3.68523E-13
 -1      3416 1.35435E+01-2.29497E+00 1.45233E-01 5.27154E+00 1.51754E-13-4.60715E-13
 -1      3417 1.29741E+01-1.40254E+00 5.57514E-02 4.45259E+00 1.20730E-13-3.84831E-13
 -1      3418 1.55631E+01-2.73987E+00 5.01710E-02 5.19771E+00 2.49904E-13-5.77455E-13
 -1      3419 1.11745E+01-3.29858E-01 1.31631E-01-2.98481E+00-7.43433E-14-1.74125E-13
 -1      3420 1.27063E+01-6.14145E-01 4.34982E-02-3.47113E+00-1.19195E-13-2.59077E-13
 -1      3421 1.14862E+01 1.53640E-01 6.07574E-02-2.06783E+00 8.48800E-14 1.22333E-14
 -1      3422 1.47043E+01-1.50124E+00 4.95123E-02-4.39989E+00-1.50532E-13-5.66262E-13
 -1      3423 1.57901E+01-2.38611E+00 7.71888E-02-5.02224E+00-1.19030E-13-7.08482E-13
 -1      3424 1.75999E+01-2.47562E+00 6.10370E-02-4.48965E+00-6.25350E-14-7.04825E-13
 -1      3425 1.02732E+01 1.26142E-01 1.49759E-01 1.99188E+00-4.44141E-14-1.45300E-13
 -1      3426 1.10886E+01 5.22180E-01 4.57950E-02 9.55766E-01-5.88609E-14-2.11463E-13
 -1      3427 1.14514E+01-1.89523E-01 7.00542E-02 2.79014E+00 1.98990E-14-2.40807E-13
 -1      3428 2.52643E+01-2.78629E+00-3.98661E-02-2.70136E-01-5.34243E-14-2.42997E-13
 -1      3429 2.12079E+01-3.90547E+00 4.77864E-02-3.95853E+00 4.03844E-14-3.74395E-13
 -1      3430 2.48487E+01-3.91632E+00 5.42885E-03-1.46999E+00-9.89486E-14-3.59201E-13
 -1      3431 1.98362E+01 6.87490E-01-7.81305E-03 1.10365E+00 2.44674E-13 1.22353E-13
 -1      3432 2.00910E+01 5.41182E-01 5.88176E-03 1.12440E+00 7.84677E-14 1.48268E-13
 -1      3433 2.01568E+01 4.83159E-01 4.95498E-03 1.19739E+00 1.51034E-13 6.40678E-14
 -1      3434 1.97182E+01 7.05870E-01 2.81598E-04 1.16406E+00 1.38826E-13-8.55751E-14
 -1      3435 2.00580E+01 1.09411E-01 2.45855E-03-1.21325E-01 1.43199E-13-1.85359E-13
 -1      3436 2.01472E+01 1.69762E-01-1.42255E-03-8.20535E-02 1.34629E-13-2.16228E-13
 -1      3437 2.00395E+01 7.00793E-02-3.60218E-04-1.51904E-01 1.34085E-13-1.71603E-13
 -1      3438 2.51538E+01-3.66887E+00 1.15756E-02 9.23368E-01-3.99346E-14-1.53799E-13
 -1      3439 2.01768E+01 4.88668E-01-2.71380E-03 2.22029E-01 2.97370E-13-2.32888E-13
 -1      3440 2.02317E+01 6.36570E-01 3.83575E-03 3.61889E-01 3.37578E-13-2.24432E-13
 -1      3441 2.02619E+01 7.95877E-01 1.19107E-03 4.22726E-01 3.46774E-13-2.42915E-13
 -1      3442 2.02322E+01 5.28365E-01-6.96431E-04 2.00275E-01 2.74153E-13-2.28042E-13
 -1      3443 2.39877E+01-3.49773E+00 3.55768E-02 1.56161E+00-1.44961E-13-2.25050E-13
 -1      3444 2.00691E+01 2.11284E+00-3.14803E-03-3.84576E-01-5.18819E-14-5.49827E-13
 -1      3445 2.00939E+01 2.03810E+00-4.07907E-03-4.97776E-01-1.23154E-13-5.59907E-13
 -1      3446 2.02574E+01 1.38290E+00 1.44814E-03-6.48311E-01-2.47166E-13-5.06300E-13
 -1      3447 1.98441E+01 6.77482E-01-8.54566E-05-1.14471E+00-4.15003E-13-1.18918E-13
 -1      3448 1.97357E+01 7.61589E-01-2.59641E-03-1.09494E+00-2.52283E-13 1.45059E-13
 -1      3449 1.95927E+01 7.75518E-01 7.42853E-05-1.14817E+00-2.52612E-13 1.19361E-13
 -1      3450 1.98286E+01 6.38714E-01 1.83552E-03-1.23889E+00-3.63835E-13-7.30183E-14
 -1      3451 2.01071E+01 2.00767E+00-2.98744E-03-5.94684E-01-1.66656E-13-5.70148E-13
 -1      3452 2.01411E+01 1.88850E+00-5.49353E-03-6.93295E-01-2.24634E-13-5.73316E-13
 -1      3453 2.02103E+01 1.66814E+00 3.53071E-03-6.36700E-01-2.16814E-13-5.35220E-13
 -1      3454 2.01871E+01 1.76678E+00 4.28814E-03-4.63606E-01-1.38769E-13-5.22508E-13
 -1      3455 2.33818E+01-3.16625E+00 1.61653E-02 1.62591E+00-2.57417E-13-4.53962E-13
 -1      3456 2.24569E+01-3.86635E+00-8.07469E-02 2.91060E+00-7.83002E-14-3.81323E-13
 -1      3457 2.07127E+01-3.24219E+00 9.56382E-02 3.80039E+00 1.21621E-13-2.96319E-13
 -1      3458 2.25959E+01-2.76513E+00 5.24288E-02 2.02881E+00-2.25896E-13-3.14779E-13
 -1      3459 1.12343E+01 4.19422E-01 4.62263E-02 1.24064E+00 1.30201E-13 3.93852E-13
 -1      3460 1.12017E+01 5.36691E-01 5.38523E-02-3.77475E-01 1.98745E-13 2.63185E-13
 -1      3461 2.02721E+01 2.49184E-01 2.05420E-03 4.51347E-02-1.07508E-13-3.03074E-13
 -1      3462 2.02481E+01 1.76994E-01-1.18466E-03 8.82339E-02-1.16663E-13-2.88839E-13
 -1      3463 2.02327E+01 1.21670E-01 1.50931E-03 1.16903E-01-9.49756E-14-2.80118E-13
 -1      3464 2.02117E+01 7.72340E-02-5.22863E-04 1.42129E-01-6.97369E-14-2.51624E-13
 -1      3465 2.02890E+01 1.78756E-01-4.08114E-04 8.58454E-02-8.83638E-14-2.88195E-13
 -1      3466 2.01931E+01 4.49169E-02 9.68448E-04 1.58162E-01-7.50134E-14-2.23540E-13
 -1      3467 2.01759E+01 2.08451E-02-4.83344E-05 1.71837E-01-7.09121E-14-2.27561E-13
 -1      3468 2.02500E+01 7.76580E-02-5.42611E-04 1.33640E-01-5.77110E-14-2.44125E-13
 -1      3469 2.01562E+01 5.38048E-03 5.05434E-04 1.80112E-01-4.30545E-14-2.32668E-13
 -1      3470 2.01426E+01-3.63517E-03 2.82103E-04 1.87311E-01-5.51688E-14-1.75629E-13
 -1      3471 2.02092E+01 2.18589E-02-5.53086E-04 1.60645E-01-6.69797E-14-2.75055E-13
 -1      3472 2.01227E+01-6.57149E-03 1.20781E-04 1.91797E-01-8.52663E-14-1.39963E-13
 -1      3473 2.01121E+01-4.25351E-03 5.10545E-04 1.96488E-01-2.84861E-14-9.07657E-14
 -1      3474 2.01690E+01-2.20845E-04-4.86558E-04 1.75656E-01-4.17234E-14-1.87998E-13
 -1      3475 2.00924E+01 2.36255E-03-2.04070E-04 2.00326E-01-2.37988E-14-1.13708E-13
 -1      3476 2.00842E+01 1.34825E-02 6.71868E-04 2.05603E-01-5.01054E-14-7.47508E-14
 -1      3477 2.01302E+01 3.17200E-03-3.71568E-04 1.85759E-01-4.74056E-14-1.71499E-13
 -1      3478 2.00642E+01 2.76649E-02-4.90175E-04 2.11288E-01-9.40518E-14-1.19869E-13
 -1      3479 2.00576E+01 4.59254E-02 7.92912E-04 2.19599E-01-8.96935E-14-1.59274E-13
 -1      3480 2.00924E+01 2.63583E-02-2.21932E-04 1.96583E-01-7.16547E-14-2.21977E-13
 -1      3481 2.00367E+01 6.63890E-02-7.57414E-04 2.29156E-01-1.17225E-13-1.66049E-13
 -1      3482 2.00309E+01 9.07226E-02 8.90960E-04 2.42491E-01-9.24629E-14-1.75177E-13
 -1      3483 2.00544E+01 6.55597E-02-4.28566E-05 2.12639E-01-1.23969E-13-1.73439E-13
 -1      3484 2.00080E+01 1.16626E-01-1.02281E-03 2.57609E-01-8.01039E-14-1.45216E-13
 -1      3485 2.00021E+01 1.46314E-01 9.78022E-04 2.77629E-01-1.02136E-13-1.39667E-13
 -1      3486 2.00142E+01 1.18303E-01 1.64456E-04 2.37620E-01-5.72461E-14-1.57277E-13
 -1      3487 1.99759E+01 1.77031E-01-1.29995E-03 2.99767E-01-1.48337E-13-1.73987E-13
 -1      3488 1.99692E+01 2.11455E-01 1.06269E-03 3.27889E-01-1.41230E-13-1.22805E-13
 -1      3489 1.99694E+01 1.82893E-01 4.03145E-04 2.74627E-01-1.22383E-13-1.16137E-13
 -1      3490 1.99380E+01 2.46304E-01-1.59639E-03 3.58357E-01-1.17189E-13-1.09947E-13
 -1      3491 1.99296E+01 2.84643E-01 1.15210E-03 3.95792E-01-1.39694E-13-1.03602E-13
 -1      3492 1.99170E+01 2.57862E-01 6.71562E-04 3.26355E-01-1.01753E-13-1.34515E-13
 -1      3493 1.98918E+01 3.22557E-01-1.91333E-03 4.35790E-01-1.42671E-13-9.44831E-14
 -1      3494 1.98809E+01 3.63420E-01 1.25865E-03 4.83529E-01-8.32745E-14-1.06184E-13
 -1      3495 1.98539E+01 3.41343E-01 9.71074E-04 3.95228E-01-1.11634E-13-1.24092E-13
 -1      3496 1.98349E+01 4.02535E-01-2.24603E-03 5.34195E-01-2.87522E-14-1.04428E-13
 -1      3497 1.98210E+01 4.43490E-01 1.40736E-03 5.92980E-01-2.75796E-14-8.77743E-14
 -1      3498 1.97765E+01 4.30286E-01 1.29114E-03 4.83481E-01-6.54143E-14-1.10097E-13
 -1      3499 1.97653E+01 4.80588E-01-2.58007E-03 6.55460E-01-7.70275E-14 1.46227E-14
 -1      3500 1.97488E+01 5.17520E-01 1.64905E-03 7.25761E-01-1.54009E-14-7.32995E-14
 -1      3501 1.96818E+01 5.19504E-01 1.60398E-03 5.93320E-01-1.14934E-14 1.09372E-14
 -1      3502 1.96826E+01 5.47279E-01-2.88643E-03 8.01378E-01 8.70737E-14-1.27625E-13
 -1      3503 1.96652E+01 5.73538E-01 2.07920E-03 8.83390E-01 1.15766E-13-6.92205E-14
 -1      3504 1.95674E+01 6.00402E-01 1.85272E-03 7.27229E-01 1.01313E-14-2.21060E-14
 -1      3505 1.95895E+01 5.87540E-01-3.10973E-03 9.73950E-01 7.96506E-14-7.58070E-14
 -1      3506 1.95760E+01 5.92829E-01 2.85643E-03 1.06765E+00 1.11217E-13-7.86235E-14
 -1      3507 1.94329E+01 6.59282E-01 1.92543E-03 8.88567E-01 1.00877E-13-5.71762E-14
 -1      3508 1.94945E+01 5.78319E-01-3.14134E-03 1.17591E+00 1.36717E-13-4.87363E-14
 -1      3509 1.94948E+01 5.47344E-01 4.21958E-03 1.28109E+00 1.31617E-13 9.21854E-15
 -1      3510 1.92822E+01 6.75135E-01 1.60863E-03 1.08259E+00 1.58761E-13 5.16363E-14
 -1      3511 1.94168E+01 4.85859E-01-2.73046E-03 1.41129E+00 5.28466E-14-3.19134E-14
 -1      3512 1.94495E+01 3.96854E-01 6.49278E-03 1.52719E+00 3.82448E-15-3.07336E-14
 -1      3513 1.91269E+01 6.16827E-01 5.23601E-04 1.31792E+00 7.23463E-14-9.21673E-15
 -1      3514 1.93944E+01 2.63056E-01-1.25591E-03 1.68510E+00 4.83215E-16-2.77512E-14
 -1      3515 1.94914E+01 8.65561E-02 9.99933E-03 1.80874E+00 8.39387E-14-6.41611E-14
 -1      3516 1.89922E+01 4.39587E-01-1.96491E-03 1.60789E+00 2.20618E-14-1.09860E-13
 -1      3517 1.94972E+01-1.51786E-01 2.78202E-03 1.99937E+00 9.86594E-14-1.47581E-13
 -1      3518 1.97090E+01-4.52503E-01 1.47617E-02 2.11992E+00 1.60680E-13-1.53849E-13
 -1      3519 1.89286E+01 8.07176E-02-6.88331E-03 1.97013E+00 5.18396E-14-6.07359E-15
 -1      3520 1.98478E+01-8.29377E-01 1.27137E-02 2.33716E+00 2.45494E-13-2.18348E-13
 -1      3521 2.02405E+01-1.29189E+00 1.78613E-02 2.42382E+00 2.83163E-13-2.18802E-13
 -1      3522 1.90312E+01-5.43688E-01-1.55747E-02 2.41723E+00 1.62505E-13-1.44217E-13
 -1      3523 2.06410E+01-1.81896E+00 3.25865E-02 2.61236E+00 2.60412E-13-2.10197E-13
 -1      3524 2.12620E+01-2.43459E+00 1.27872E-02 2.59530E+00 2.75042E-13-1.98998E-13
 -1      3525 1.94801E+01-1.53461E+00-3.03408E-02 2.92067E+00 2.91502E-13-1.94614E-13
 -1      3526 2.22083E+01-2.95355E+00 6.70753E-02 2.48492E+00 2.95421E-13-1.39962E-13
 -1      3527 2.30433E+01-3.52530E+00-3.06670E-03 2.17638E+00 2.49176E-13-1.17746E-13
 -1      3528 2.27504E+01-3.89352E+00-4.13937E-02 2.74387E+00 3.05447E-13-1.18062E-13
 -1      3529 2.06712E+01-2.79110E+00-4.67738E-02 3.17535E+00 2.84373E-13-3.26135E-13
 -1      3530 2.10883E+01-2.12866E+00 1.87439E-02-2.58283E+00 3.74110E-14-2.86806E-14
 -1      3531 2.05334E+01-1.56870E+00 2.57997E-02-2.59727E+00 1.71720E-14-1.67294E-13
 -1      3532 2.02125E+01-1.08684E+00 1.51449E-02-2.40983E+00-1.54356E-13-1.70626E-13
 -1      3533 1.98898E+01-6.75473E-01 1.05902E-02-2.33231E+00-2.16937E-13-3.18258E-13
 -1      3534 1.95306E+01-1.27862E+00-1.90800E-02-2.82555E+00-1.46972E-13-2.08297E-13
 -1      3535 1.97874E+01-3.42878E-01 1.08902E-02-2.13819E+00 1.54118E-14-2.78673E-13
 -1      3536 1.96233E+01-7.34321E-02 2.92214E-03-2.03042E+00 2.36937E-13-3.90424E-13
 -1      3537 1.91945E+01-4.13703E-01-1.07773E-02-2.37620E+00-1.17404E-13-1.45516E-13
 -1      3538 1.96351E+01 1.37620E-01 7.42570E-03-1.86023E+00 3.05290E-13-5.46601E-13
 -1      3539 1.95668E+01 3.00497E-01-5.90532E-04-1.74720E+00 2.92114E-13-5.15646E-13
 -1      3540 1.91497E+01 1.38475E-01-4.49347E-03-1.98255E+00 1.85903E-13-2.51124E-13
 -1      3541 1.96303E+01 4.25144E-01 3.76978E-03-1.60560E+00 1.57919E-13-5.51700E-13
 -1      3542 1.96174E+01 5.23019E-01-1.61486E-03-1.49540E+00-1.03772E-14-4.79322E-13
 -1      3543 1.92482E+01 4.67411E-01-8.19448E-04-1.66021E+00 2.70951E-13-6.18186E-13
 -1      3544 1.35520E+01-5.20092E-01 4.64873E-02-3.50395E+00-2.10870E-13-2.56899E-13
 -1      3545 1.50558E+01-1.47659E+00-3.29547E-02-4.26564E+00-2.77396E-13-2.94147E-13
 -1      3546 2.00351E+01 6.98278E-02 9.80386E-04-2.45004E-01-4.73516E-14-1.16319E-13
 -1      3547 2.00344E+01 4.90003E-02-7.05292E-04-2.33031E-01-5.84322E-14-1.64113E-13
 -1      3548 2.00497E+01 3.17527E-02 8.56850E-04-2.24316E-01-2.94339E-14-1.80870E-13
 -1      3549 2.00506E+01 1.63982E-02-4.49917E-04-2.17268E-01-3.50548E-14-1.85402E-13
 -1      3550 2.00536E+01 4.85872E-02-1.61511E-04-2.21985E-01-6.36399E-14-2.03422E-13
 -1      3551 2.00048E+01 1.73582E-01 1.22169E-03-3.26150E-01-5.18489E-14-2.72642E-14
 -1      3552 2.00023E+01 1.43810E-01-1.19190E-03-2.99435E-01-2.61540E-14-4.12329E-14
 -1      3553 1.99861E+01 2.36700E-01 1.35259E-03-3.92207E-01 1.11562E-14-5.53306E-14
 -1      3554 1.99834E+01 2.03512E-01-1.44614E-03-3.56157E-01-4.37858E-15-3.59444E-14
 -1      3555 1.99602E+01 2.16188E-01 3.90120E-04-3.32987E-01-5.15889E-14-1.38981E-13
 -1      3556 1.99631E+01 3.04545E-01 1.49840E-03-4.78286E-01-2.22099E-14-6.90920E-14
 -1      3557 1.99604E+01 2.69235E-01-1.70711E-03-4.31967E-01-1.28057E-14-1.04695E-13
 -1      3558 1.99186E+01 2.89336E-01 6.12016E-04-4.02087E-01 2.42799E-14-1.67773E-13
 -1      3559 1.99347E+01 3.73199E-01 1.67380E-03-5.86024E-01-6.26592E-14-9.92211E-14
 -1      3560 1.99320E+01 3.37999E-01-1.96605E-03-5.28846E-01-3.19531E-14-8.91830E-14
 -1      3561 1.98679E+01 3.67053E-01 8.28691E-04-4.91198E-01-3.72184E-14-1.57215E-13
 -1      3562 1.99012E+01 4.35902E-01 1.90969E-03-7.16429E-01-9.24303E-14 9.58983E-14
 -1      3563 1.98977E+01 4.04631E-01-2.19183E-03-6.48300E-01-7.70051E-14-2.32052E-14
 -1      3564 1.98063E+01 4.44456E-01 1.01628E-03-6.02286E-01-1.13193E-13-1.47276E-13
 -1      3565 1.98648E+01 4.81567E-01 2.26700E-03-8.69678E-01-6.75870E-14 1.05317E-13
 -1      3566 1.98585E+01 4.60425E-01-2.33328E-03-7.91183E-01-5.83926E-14 8.41188E-14
 -1      3567 1.97330E+01 5.13304E-01 1.10830E-03-7.37109E-01-7.08792E-14-2.89609E-15
 -1      3568 1.98325E+01 4.92829E-01 2.85024E-03-1.04495E+00 4.88411E-14 1.76154E-14
 -1      3569 1.98186E+01 4.91434E-01-2.29724E-03-9.57581E-01 2.99775E-14 5.78521E-14
 -1      3570 1.96499E+01 5.60398E-01 9.81453E-04-8.97417E-01 2.13047E-14-3.38651E-14
 -1      3571 1.98187E+01 4.43737E-01 3.81453E-03-1.24010E+00 7.75527E-14-3.21671E-15
 -1      3572 1.97882E+01 4.76323E-01-1.91574E-03-1.14664E+00 3.96874E-14 6.73549E-14
 -1      3573 1.95634E+01 5.65424E-01 4.18994E-04-1.08532E+00 3.85740E-14-2.89578E-14
 -1      3574 1.98512E+01 2.97477E-01 5.31781E-03-1.45082E+00-2.82213E-14 3.66332E-14
 -1      3575 1.97878E+01 3.84040E-01-8.78022E-04-1.35614E+00 1.94225E-14 2.20264E-15
 -1      3576 1.94884E+01 4.98395E-01-9.41258E-04-1.30369E+00 5.90239E-14 2.93641E-14
 -1      3577 1.99780E+01 5.38454E-03 7.24067E-03-1.66771E+00-9.41330E-14 4.47361E-14
 -1      3578 1.98555E+01 1.72050E-01 1.39334E-03-1.58073E+00-2.99364E-14 6.05492E-14
 -1      3579 1.94544E+01 3.16773E-01-3.72145E-03-1.55600E+00-7.82188E-14 3.12247E-14
 -1      3580 2.02763E+01-4.87228E-01 9.13075E-03-1.86761E+00-2.02492E-13-1.64236E-14
 -1      3581 2.00564E+01-2.12359E-01 5.81487E-03-1.80602E+00-1.07546E-13 2.63696E-14
 -1      3582 1.95157E+01-3.67839E-02-9.06599E-03-1.84284E+00-8.37705E-14 1.02715E-14
 -1      3583 2.08574E+01-1.22680E+00 8.89246E-03-1.99721E+00-7.52621E-14-1.99638E-13
 -1      3584 2.04927E+01-8.21704E-01 1.39282E-02-1.99677E+00-1.49637E-13-1.13415E-13
 -1      3585 1.97646E+01-6.28375E-01-1.84755E-02-2.15058E+00-1.12524E-13-1.26691E-13
 -1      3586 2.18505E+01-2.18157E+00 3.49029E-03-1.93414E+00-2.82456E-13-2.41525E-13
 -1      3587 2.13101E+01-1.67939E+00 2.73024E-02-2.05979E+00-2.04067E-13-2.09945E-13
 -1      3588 2.03467E+01-1.51993E+00-3.34663E-02-2.42547E+00-1.41356E-13-3.57447E-13
 -1      3589 2.12229E+01-1.74656E+00 2.73230E-02 2.26509E+00 3.82772E-14-3.85693E-13
 -1      3590 2.18240E+01-2.22302E+00 2.35687E-02 2.10640E+00-6.10293E-14-3.92688E-13
 -1      3591 2.10922E+01-2.69515E+00-6.35495E-02 2.89212E+00 1.19184E-14-5.91673E-13
 -1      3592 1.99370E+01 1.10348E-01 2.80263E-03 1.75717E+00-1.86173E-14 6.39422E-14
 -1      3593 2.00613E+01-7.81607E-02 7.54852E-03 1.83932E+00 2.28511E-14 4.51017E-14
 -1      3594 1.98762E+01 3.75295E-01 2.37334E-03 1.53709E+00 7.50560E-14 1.01759E-13
 -1      3595 1.99345E+01 2.58013E-01 5.23254E-03 1.63165E+00 2.14104E-14-1.56633E-14
 -1      3596 1.95675E+01 2.57716E-01-8.07193E-03 1.73271E+00 3.52192E-15-5.47955E-14
 -1      3597 1.86999E+01 1.16627E+00-1.67229E-04-3.46078E-01 1.99031E-13-3.78618E-13
 -1      3598 1.86548E+01 1.18311E+00-3.38281E-03-1.16127E-01 1.45006E-13-4.14879E-13
 -1      3599 2.01436E+01-3.17715E-01 6.67275E-03 1.97002E+00-6.69764E-14 7.12333E-14
 -1      3600 2.03781E+01-6.03342E-01 1.30217E-02 2.01751E+00-1.52433E-13 5.35661E-15
 -1      3601 1.96249E+01-1.40508E-01-1.28220E-02 2.01249E+00-2.03489E-14-1.32273E-14
 -1      3602 2.05132E+01-9.20493E-01 1.31606E-02 2.15765E+00-1.94248E-13-4.24602E-14
 -1      3603 2.09131E+01-1.31187E+00 2.11594E-02 2.13455E+00-3.89740E-14-2.15168E-13
 -1      3604 2.01580E+01-1.50997E+00-2.91707E-02 2.65205E+00-1.44444E-13-3.72472E-13
 -1      3605 1.98060E+01-7.16228E-01-1.69832E-02 2.31940E+00-2.64434E-13-7.51274E-14
 -1      3606 2.00206E+01 1.17501E-01 1.09809E-03-2.77955E-01-1.56709E-14-6.12709E-14
 -1      3607 2.00188E+01 9.19145E-02-9.47735E-04-2.59334E-01-5.57102E-15-8.93899E-14
 -1      3608 2.00254E+01 9.42346E-02 6.22560E-06-2.45664E-01-6.67548E-14-1.48539E-13
 -1      3609 1.99950E+01 1.50559E-01 1.87628E-04-2.81713E-01-2.02041E-14-1.63061E-13
 -1      3610 1.17764E+01 6.74271E-01 4.63391E-02-8.09438E-01-1.05855E-13-2.85640E-13
 -1      3611 1.24817E+01 2.28207E-01 4.62953E-02-2.42994E+00-2.09451E-13-3.86045E-13
 -1      3612 2.01075E+01-5.28137E-03 3.07964E-04-1.96382E-01 1.88646E-14-1.29113E-13
 -1      3613 2.01175E+01 4.57644E-03 6.04300E-04-1.89377E-01 5.50120E-14-1.35849E-13
 -1      3614 2.46534E+01-3.20674E+00 5.83509E-02-7.08453E-01-2.58160E-13-2.33208E-14
 -1      3615 2.38123E+01-3.74938E+00 7.03464E-02-2.09130E+00-1.65033E-14-9.09004E-14
 -1      3616 1.78746E+01-2.66393E+00-4.41648E-02 4.51040E+00 1.48423E-13-1.27752E-13
 -1      3617 1.56260E+01-1.39962E+00 7.93024E-02 4.19047E+00 1.12171E-13 1.29612E-13
 -1      3618 1.74574E+01-2.14276E+00 9.85163E-02-4.35007E+00-4.41241E-13-5.22977E-13
 -1      3619 1.96610E+01-3.14751E+00-8.35117E-02-3.98125E+00-4.65409E-13-5.05741E-13
 -1      3620 1.71861E+01-1.50495E+00 7.88421E-02-3.82590E+00-3.04057E-13-4.30454E-13
 -1      3621 2.00502E+01 2.16689E+00-4.19577E-03-2.84542E-01-9.50089E-15-5.41164E-13
 -1      3622 2.01666E+01 1.85349E+00 4.87679E-03-2.84775E-01-3.21482E-14-4.98272E-13
 -1      3623 2.00380E+01 2.20352E+00-3.40098E-03-1.62914E-01 5.71503E-14-5.37706E-13
 -1      3624 2.02418E+01 1.45648E+00-2.13329E-03-5.86155E-01-2.14879E-13-5.12835E-13
 -1      3625 2.02828E+01 1.26449E+00 5.54956E-03-5.17667E-01-2.05210E-13-4.88416E-13
 -1      3626 2.02280E+01 1.51850E+00-3.00651E-03-5.09265E-01-1.62428E-13-5.01852E-13
 -1      3627 2.02831E+01 1.01137E+00-4.77640E-03-3.79307E-01-1.67855E-13-4.51670E-13
 -1      3628 2.20971E+01-3.78928E+00-5.04954E-02-3.16199E+00 3.30673E-14-2.23325E-13
 -1      3629 2.25746E+01-3.25403E+00 1.32380E-02-2.38842E+00-3.28036E-14-3.05943E-14
 -1      3630 2.17581E+01-2.64890E+00 5.23782E-02-2.62021E+00 5.70533E-14-5.29785E-15
 -1      3631 2.00844E+01-3.10436E+00 6.03214E-02-3.98224E+00-7.29148E-14-3.60231E-13
 -1      3632 2.03258E+01 7.39722E-01 4.91959E-03-2.42001E-01-1.46249E-13-3.82083E-13
 -1      3633 2.02997E+01 5.76666E-01-3.71001E-03-1.40915E-01-1.13100E-13-3.63346E-13
 -1      3634 2.02905E+01 9.29912E-01 1.25273E-03 4.65971E-01 3.34787E-13-2.45199E-13
 -1      3635 2.02808E+01 1.10091E+00-1.82356E-03 5.00483E-01 3.40794E-13-2.84917E-13
 -1      3636 2.02709E+01 7.70372E-01-2.30547E-03 3.34660E-01 3.08291E-13-2.42256E-13
 -1      3637 1.35092E+01-5.16716E-01 1.24467E-02 3.37538E+00 2.70692E-13 2.87638E-13
 -1      3638 1.20944E+01 1.58589E-01 8.84101E-02 2.35857E+00 1.19389E-13 2.98865E-13
 -1      3639 1.28999E+01 4.67620E-01 7.33394E-02 1.55471E+00 2.13747E-13 3.53155E-13
 -1      3640 2.03056E+01 4.47109E-01 2.78557E-03-6.94395E-02-9.89329E-14-3.43239E-13
 -1      3641 2.02807E+01 3.36016E-01-2.12261E-03-1.48384E-03-8.77272E-14-3.14543E-13
 -1      3642 2.03212E+01 3.40648E-01-1.11785E-04 7.15455E-03-1.04289E-13-3.05920E-13
 -1      3643 2.34220E+01-3.53950E+00-5.76663E-02-1.78879E+00-3.82107E-13-2.18610E-13
 -1      3644 2.32480E+01-3.06828E+00-2.17353E-02-1.45617E+00-4.19761E-13-7.34624E-14
 -1      3645 2.26032E+01-2.58069E+00 5.31696E-02-1.78571E+00-3.70529E-13-1.72598E-13
 -1      3646 2.17832E+01-3.26771E+00 1.04064E-01-3.14103E+00-4.79884E-13-3.36208E-13
 -1      3647 2.02687E+01 1.23287E+00-2.06638E-03 4.62771E-01 3.01031E-13-3.27768E-13
 -1      3648 2.23906E+01-4.27296E+00 1.25217E-02 3.45893E+00 3.02577E-13-2.17451E-13
 -1      3649 2.14537E+01-2.61193E+00-5.02954E-02-2.47274E+00-3.49601E-13-2.57035E-13
 -1      3650 2.02029E+01 1.73162E-01-1.18473E-03-8.80786E-02 1.31006E-13-2.34110E-13
 -1      3651 2.02289E+01 2.43446E-01 2.48153E-03-4.09118E-02 1.48005E-13-2.24643E-13
 -1      3652 1.74449E+01-3.05982E+00 1.02652E-01 5.07021E+00 3.75311E-13-5.51705E-13
 -1      3653 1.62106E+01-2.18024E+00 2.23687E-02 4.65041E+00 3.00801E-13-3.84741E-13
 -1      3654 1.90570E+01-3.38090E+00-4.76788E-03 4.50331E+00 4.01516E-13-3.62144E-13
 -1      3655 2.03083E+01 1.00946E+00-2.01551E-03-3.19525E-01-1.30977E-13-4.13683E-13
 -1      3656 2.02177E+01 1.61388E+00-2.18357E-03-1.97263E-01 1.48411E-14-4.47854E-13
 -1      3657 2.02292E+01 1.56081E+00-2.43484E-03-2.79339E-01-4.92955E-14-4.72128E-13
 -1      3658 1.39937E+01 8.39655E-02 6.79386E-02-2.62726E+00-1.90820E-13-3.33802E-13
 -1      3659 1.97253E+01 5.63750E-01 2.41342E-03-1.40715E+00 7.79108E-14-3.51785E-13
 -1      3660 1.97427E+01 6.14156E-01-4.66782E-04-1.31351E+00-6.94589E-14-1.61757E-13
 -1      3661 1.96204E+01 6.84948E-01 1.39092E-03-1.27682E+00-9.55216E-15-1.14635E-13
 -1      3662 1.94289E+01 6.30499E-01 3.07019E-03-1.43406E+00 1.23791E-13-3.11896E-13
 -1      3663 2.03856E+01-2.44514E+00-3.39126E-02-3.17654E+00-3.33934E-16-3.36311E-13
 -1      3664 2.01349E+01 2.03771E-02-2.66426E-05-1.80301E-01 3.78673E-14-1.68431E-13
 -1      3665 2.01496E+01 4.44119E-02 1.13577E-03-1.65976E-01 4.38356E-14-1.82861E-13
 -1      3666 2.01767E+01 2.13758E-02-6.80799E-04-1.71882E-01 2.76448E-14-1.89750E-13
 -1      3667 2.00814E+01 1.53373E-02-3.16549E-04-2.07319E-01 1.08003E-14-2.57170E-13
 -1      3668 2.00658E+01 4.81515E-03 7.17100E-04-2.12348E-01-1.72406E-14-1.48065E-13
 -1      3669 2.00690E+01-4.02132E-03-1.63083E-04-2.08136E-01-7.74894E-15-1.51830E-13
 -1      3670 2.02869E+01 3.38260E-01-5.73544E-04 2.89412E-03 1.61292E-13-2.56483E-13
 -1      3671 2.02396E+01 3.28535E-01-1.90764E-03 1.26421E-02 1.59796E-13-2.11069E-13
 -1      3672 2.02681E+01 4.36352E-01 2.69441E-03 8.79826E-02 2.00958E-13-2.18246E-13
 -1      3673 1.25944E+01 7.19766E-01 1.55884E-03-2.76479E-01 4.30612E-13 3.81473E-13
 -1      3674 1.19492E+01 5.68796E-01 9.07900E-02-1.09360E+00 1.59870E-13 6.39211E-14
 -1      3675 1.28572E+01 3.96147E-01 2.64902E-02-1.77556E+00 2.17729E-13-3.29042E-14
 -1      3676 1.99588E+01 5.29789E-01-6.64360E-03 1.26602E+00 2.05063E-13 3.64139E-13
 -1      3677 1.97898E+01 5.47869E-01 3.34817E-03 1.36234E+00 1.71356E-13 1.09359E-13
 -1      3678 1.98460E+01 4.64358E-01 2.75408E-03 1.44347E+00 1.39337E-13 1.28610E-13
 -1      3679 1.95446E+01 5.00854E-01-6.46081E-03 1.49766E+00 1.11952E-13-1.42924E-13
 -1      3680 1.84570E+01 1.17996E+00 5.27956E-03 2.10206E-02 1.52826E-14-2.10688E-13
 -1      3681 1.86600E+01 1.17887E+00-3.48445E-03 1.53206E-01 2.75870E-14-2.46805E-13
 -1      3682 1.87135E+01 1.15527E+00-4.54605E-05 3.79334E-01-6.57291E-14-2.69669E-13
 -1      3683 1.87916E+01 1.10689E+00-5.34240E-03-5.96186E-01 1.95538E-13-3.40022E-13
 -1      3684 1.85567E+01 1.12725E+00 3.60099E-03-5.13673E-01 1.45467E-13-3.60946E-13
 -1      3685 1.89282E+01 1.05849E+00 6.28349E-03-7.89227E-01 1.43317E-13-3.17551E-13
 -1      3686 2.02139E+01 1.69796E+00 7.67536E-03 4.62698E-01 2.83654E-13-4.24698E-13
 -1      3687 2.02303E+01 1.54830E+00-4.84538E-03 2.86867E-01 2.39919E-13-4.55688E-13
 -1      3688 2.02193E+01 1.60928E+00-2.21874E-03 2.01444E-01 1.80914E-13-4.43160E-13
 -1      3689 2.01089E+01 7.50734E-02-1.23717E-03-1.50618E-01 1.25192E-13-2.11995E-13
 -1      3690 2.02217E+01 1.56404E+00-4.40259E-03-3.51678E-01-7.15046E-14-4.96085E-13
 -1      3691 2.02291E+01 1.54167E+00-1.55237E-03-4.34352E-01-1.25983E-13-5.03184E-13
 -1      3692 2.02836E+01 1.36025E+00 6.99565E-03-3.93933E-01-1.16009E-13-4.78904E-13
 -1      3693 2.02967E+01 1.36644E+00 7.36544E-03-2.59176E-01-3.46355E-14-4.50268E-13
 -1      3694 1.40136E+01-8.52875E-01 6.25451E-02 3.76905E+00 2.41772E-13-2.01471E-13
 -1      3695 1.25870E+01-3.84959E-01 1.29398E-01 3.41888E+00 1.05974E-13-2.05176E-13
 -1      3696 1.25052E+01 1.53857E-01 5.22262E-03 2.38767E+00 8.45261E-14-1.69705E-13
 -1      3697 2.01460E+01 1.92689E+00 5.09820E-03-9.49493E-02 6.31647E-14-5.05533E-13
 -1      3698 1.42871E+01-8.35957E-01 8.44240E-02-3.82473E+00-5.60489E-15-4.62613E-13
 -1      3699 1.57717E+01-1.18233E+00-5.40039E-03-3.85059E+00 1.37858E-14-6.57290E-13
 -1      3700 1.39613E+01-2.74424E-01 2.14169E-02-3.07586E+00 1.75672E-13-2.83180E-13
 -1      3701 1.23419E+01 7.28822E-01 3.40095E-02 6.73767E-01 4.17028E-15-1.25441E-13
 -1      3702 1.19604E+01 8.35833E-01 9.02004E-02-1.34307E-01-7.92456E-14-2.53814E-13
 -1      3703 1.30620E+01 8.15709E-01 2.26730E-02-8.20960E-01-7.69914E-14-3.35156E-13
 -1      3704 2.00910E+01-9.41280E-03 1.79014E-04-2.00848E-01-4.65953E-15-1.33101E-13
 -1      3705 2.01421E+01-2.90324E-03-5.83199E-04-1.87884E-01 6.61465E-15-1.73665E-13
 -1      3706 2.00848E+01-8.70090E-03 5.43361E-04-2.04808E-01-3.20414E-14-1.52044E-13
 -1      3707 1.97551E+01-2.53459E+00 4.70022E-02 3.63174E+00-1.72640E-14-3.04339E-13
 -1      3708 1.66782E+01-1.00617E+00 1.64137E-02 3.49826E+00-1.47076E-13-2.26598E-13
 -1      3709 1.51431E+01-7.57966E-01 5.97708E-02 3.64794E+00 1.24603E-13-1.31926E-14
 -1      3710 1.49133E+01-1.43520E-01 1.88152E-02 2.89160E+00-3.20386E-14 7.93862E-14
 -1      3711 2.07705E+01-2.73281E+00 3.40547E-02-3.16118E+00-4.97208E-13-4.33481E-13
 -1      3712 1.85776E+01-2.58792E+00 1.44803E-03-4.26100E+00-1.32044E-13-4.94813E-13
 -1      3713 1.98863E+01-2.42948E+00 4.10276E-02-3.51965E+00-6.63324E-14-3.84558E-13
 -1      3714 1.92311E+01-1.80332E+00 2.23500E-02-3.36667E+00 5.49543E-14-4.10482E-13
 -1      3715 1.75444E+01-1.79016E+00 5.23257E-02-4.04074E+00-2.06156E-13-6.31026E-13
 -1      3716 2.03362E+01 5.87125E-01 7.68108E-04-1.12958E-01-1.01231E-13-3.17043E-13
 -1      3717 1.91215E+01 9.21737E-01-6.22791E-03 9.95665E-01-4.22377E-14 2.95498E-14
 -1      3718 1.93191E+01 8.36820E-01 4.37351E-03 1.12478E+00 4.06370E-14-8.98294E-14
 -1      3719 1.93186E+01 7.24699E-01 2.62638E-03 1.28422E+00 6.71668E-14-2.00605E-13
 -1      3720 1.95028E+01 7.09943E-01-5.85231E-03 1.24073E+00 1.31580E-13-2.56493E-13
 -1      3721 2.02105E+01 1.64339E+00-3.41055E-03 1.30447E-01 1.53316E-13-4.63338E-13
 -1      3722 2.02069E+01 1.66307E+00-2.74610E-03 3.98912E-02 1.03703E-13-4.82414E-13
 -1      3723 2.02948E+01 1.39098E+00 5.45290E-03 1.33241E-01 1.58282E-13-4.12358E-13
 -1      3724 1.94942E+01 7.51183E-01-2.81387E-03-1.21745E+00-5.67042E-14-6.16958E-15
 -1      3725 1.93271E+01 7.48515E-01-2.46773E-03-1.26827E+00 1.99789E-13-7.71073E-14
 -1      3726 1.93282E+01 8.53256E-01 5.49017E-03-1.12928E+00-6.56542E-14-1.28218E-13
 -1      3727 1.91256E+01 9.32757E-01-7.48147E-03-9.99071E-01 7.94644E-14-2.88821E-13
 -1      3728 1.92202E+01 7.26219E-01 1.93125E-03-1.33797E+00 1.55897E-13-1.80016E-13
 -1      3729 1.90301E+01 7.54984E-01-7.05511E-03 1.29194E+00 1.21634E-13-2.77122E-13
 -1      3730 1.92711E+01 6.50233E-01 2.31608E-03 1.40019E+00 2.19171E-13-2.97228E-13
 -1      3731 1.93019E+01 5.56102E-01 5.94432E-03 1.50679E+00 9.55391E-14-1.61113E-13
 -1      3732 2.03014E+01 1.11930E-01 9.19524E-04 1.05693E-01-7.13743E-14-2.73355E-13
 -1      3733 2.02793E+01 6.98363E-02-4.18714E-04 1.24809E-01-7.04465E-14-2.67134E-13
 -1      3734 2.02572E+01 3.98316E-02 5.85740E-04 1.35387E-01-5.58473E-14-2.43555E-13
 -1      3735 2.02356E+01 1.88942E-02-2.10862E-05 1.46388E-01-3.62506E-14-2.45270E-13
 -1      3736 2.03005E+01 6.76876E-02-2.50657E-04 1.10857E-01-5.66960E-14-2.64854E-13
 -1      3737 2.02108E+01 6.78324E-03 2.68505E-04 1.52218E-01-1.54783E-15-2.13106E-13
 -1      3738 2.01905E+01 1.81678E-03 2.48083E-04 1.58961E-01-1.15064E-14-1.81824E-13
 -1      3739 2.02519E+01 2.02965E-02-3.22944E-04 1.29334E-01-5.00809E-15-2.55451E-13
 -1      3740 2.01641E+01 3.28765E-03-2.71695E-05 1.62871E-01-8.77600E-14-1.55094E-13
 -1      3741 2.01449E+01 1.06019E-02 4.20742E-04 1.68439E-01-7.68020E-14-1.83928E-13
 -1      3742 2.02006E+01 7.69551E-03-2.83501E-04 1.40855E-01-3.28426E-14-2.32841E-13
 -1      3743 2.01172E+01 2.26599E-02-3.05488E-04 1.72714E-01-5.06773E-14-2.30522E-13
 -1      3744 2.00987E+01 3.97274E-02 5.27345E-04 1.79566E-01-7.83813E-14-2.29640E-13
 -1      3745 2.01477E+01 2.18966E-02-1.68883E-04 1.50389E-01-1.05572E-13-1.92510E-13
 -1      3746 2.00692E+01 6.03614E-02-5.76234E-04 1.86060E-01-9.97605E-14-1.96306E-13
 -1      3747 2.00504E+01 8.55166E-02 5.89672E-04 1.96179E-01-9.66937E-14-1.31015E-13
 -1      3748 2.00927E+01 5.74033E-02 1.42414E-05 1.61967E-01-7.37956E-14-2.02864E-13
 -1      3749 2.00181E+01 1.13407E-01-8.50583E-04 2.06437E-01-7.39102E-14-7.97451E-14
 -1      3750 1.99979E+01 1.45532E-01 6.19197E-04 2.21460E-01-3.89674E-14-8.74856E-14
 -1      3751 2.00339E+01 1.10508E-01 2.50525E-04 1.78886E-01-2.12641E-14-8.47527E-14
 -1      3752 1.99612E+01 1.79752E-01-1.14355E-03 2.36780E-01-6.90273E-14-7.46800E-14
 -1      3753 1.99382E+01 2.18047E-01 6.27719E-04 2.58074E-01-1.14920E-13-3.82043E-14
 -1      3754 1.99686E+01 1.78714E-01 5.37730E-04 2.03904E-01-5.94433E-14-6.58084E-14
 -1      3755 1.98952E+01 2.57862E-01-1.46705E-03 2.79616E-01-1.53588E-13-1.56575E-14
 -1      3756 1.98678E+01 3.01537E-01 6.24666E-04 3.08394E-01-1.33922E-13-5.43483E-14
 -1      3757 1.98933E+01 2.60212E-01 8.75573E-04 2.39320E-01-1.42537E-13-2.01642E-14
 -1      3758 1.98161E+01 3.45997E-01-1.82558E-03 3.37264E-01-1.19069E-13-1.17150E-13
 -1      3759 1.97827E+01 3.93907E-01 6.22248E-04 3.74593E-01-1.29242E-13-1.15694E-13
 -1      3760 1.98038E+01 3.53231E-01 1.26262E-03 2.87285E-01-1.87362E-13-3.20502E-14
 -1      3761 1.97197E+01 4.41532E-01-2.23113E-03 4.11884E-01-4.57007E-14-7.58660E-14
 -1      3762 1.96786E+01 4.91812E-01 6.44047E-04 4.58768E-01 2.22711E-14-3.58755E-14
 -1      3763 1.96953E+01 4.55350E-01 1.70975E-03 3.49816E-01-3.94236E-14-9.10504E-14
 -1      3764 1.96016E+01 5.40133E-01-2.69915E-03 5.05712E-01 6.97174E-14 4.85191E-14
 -1      3765 1.95514E+01 5.89700E-01 7.32089E-04 5.63203E-01 8.31685E-14 6.93567E-14
 -1      3766 1.95624E+01 5.62722E-01 2.20781E-03 4.29042E-01 7.77856E-14 4.11153E-14
 -1      3767 1.94575E+01 6.34683E-01-3.25287E-03 6.21426E-01-3.09760E-14 1.14213E-13
 -1      3768 1.93976E+01 6.78617E-01 9.68691E-04 6.90859E-01 3.69005E-15 5.56076E-14
 -1      3769 1.93996E+01 6.69194E-01 2.75033E-03 5.27628E-01 6.98494E-14 1.12999E-13
 -1      3770 1.92841E+01 7.13934E-01-3.93182E-03 7.62834E-01 4.25903E-14 5.19016E-14
 -1      3771 1.92155E+01 7.44709E-01 1.50208E-03 8.46272E-01 1.06268E-13 7.35945E-14
 -1      3772 1.92013E+01 7.65162E-01 3.31858E-03 6.49499E-01-2.23903E-15 1.99212E-13
 -1      3773 1.90799E+01 7.60803E-01-4.79410E-03 9.36149E-01 1.42396E-13 2.77586E-14
 -1      3774 1.90070E+01 7.67250E-01 2.56393E-03 1.03712E+00 1.70426E-13 3.56259E-14
 -1      3775 1.89628E+01 8.36221E-01 3.86493E-03 8.01212E-01 1.49087E-13 7.70189E-14
 -1      3776 1.88481E+01 7.50094E-01-5.91358E-03 1.15199E+00 1.10039E-13-5.67797E-14
 -1      3777 1.87809E+01 7.16115E-01 4.53340E-03 1.27644E+00 8.39289E-15-2.60580E-14
 -1      3778 1.86808E+01 8.61277E-01 4.25507E-03 9.94261E-01 6.00867E-14-1.78086E-13
 -1      3779 1.86000E+01 6.45679E-01-7.24230E-03 1.42822E+00 2.80020E-14-7.22671E-14
 -1      3780 1.85583E+01 5.48365E-01 8.06637E-03 1.58540E+00 7.40271E-14-2.47977E-14
 -1      3781 1.83554E+01 8.10127E-01 4.26585E-03 1.24846E+00 1.86862E-14-1.10122E-13
 -1      3782 1.83632E+01 3.96736E-01-8.10322E-03 1.79299E+00 6.12193E-14-7.44787E-14
 -1      3783 1.83846E+01 2.03316E-01 1.44091E-02 1.99509E+00 9.03439E-14-3.86040E-14
 -1      3784 1.79942E+01 6.38971E-01 3.47850E-03 1.59693E+00 4.44549E-14-9.08971E-14
 -1      3785 1.81987E+01-6.96920E-02-6.25540E-03 2.28599E+00 1.04169E-13-8.01941E-15
 -1      3786 1.83498E+01-4.06945E-01 2.50456E-02 2.54058E+00 1.56961E-13-4.13175E-14
 -1      3787 1.76210E+01 2.81132E-01 7.17011E-04 2.09049E+00 7.11792E-14-9.15860E-14
 -1      3788 1.82435E+01-8.48211E-01 8.75496E-03 2.94822E+00 1.34366E-13-1.81225E-13
 -1      3789 1.86259E+01-1.42038E+00 3.40596E-02 3.23969E+00 1.96293E-13-2.75594E-13
 -1      3790 1.73058E+01-3.62267E-01-1.42731E-03 2.79336E+00 5.17321E-14-1.60187E-13
 -1      3791 1.90626E+01-1.21860E+00 2.63611E-02-3.00741E+00 4.42712E-15-4.13577E-13
 -1      3792 1.87527E+01-7.25508E-01 7.69251E-04-2.75024E+00-1.16077E-13-2.32610E-13
 -1      3793 1.83180E+01-1.32191E+00-1.53567E-02-3.35052E+00-2.79715E-14-5.66771E-13
 -1      3794 1.40934E+01 4.41870E-01-5.64289E-03-2.00861E+00-1.67949E-13-3.88179E-13
 -1      3795 1.50894E+01-2.54553E-01-5.15405E-03-3.05307E+00-1.08706E-13-3.06644E-13
 -1      3796 1.88042E+01-3.41774E-01 1.55313E-02-2.44564E+00-1.69902E-13-1.95483E-13
 -1      3797 1.86971E+01-3.49244E-02-7.14189E-03-2.22336E+00 6.87411E-14-1.04496E-13
 -1      3798 1.82274E+01-3.53951E-01-5.15866E-03-2.60950E+00-5.14189E-14-2.56786E-13
 -1      3799 1.88392E+01 2.05906E-01 1.06600E-02-1.99191E+00 1.98257E-13-1.71478E-13
 -1      3800 1.88394E+01 3.84498E-01-7.25652E-03-1.81591E+00 2.46055E-13-2.42695E-13
 -1      3801 1.84052E+01 2.30877E-01 8.68748E-04-2.05600E+00 1.05153E-13-6.50790E-14
 -1      3802 1.90023E+01 5.25701E-01 6.07310E-03-1.64137E+00 2.47065E-13-3.21489E-13
 -1      3803 1.90475E+01 6.27885E-01-8.69377E-03-1.50431E+00 1.49168E-13-3.89939E-13
 -1      3804 1.86789E+01 5.70269E-01 3.80498E-03-1.65360E+00 1.46441E-13-1.77114E-13
 -1      3805 1.98546E+01 3.41234E-01 9.20755E-04-3.91865E-01 1.87388E-14-2.21067E-13
 -1      3806 1.98758E+01 2.98368E-01-1.71072E-03-3.53745E-01-1.52525E-14-2.34141E-13
 -1      3807 1.99178E+01 2.58826E-01 8.65544E-04-3.23259E-01-1.37742E-14-2.55203E-13
 -1      3808 1.99352E+01 2.19692E-01-1.40288E-03-2.94137E-01-2.37329E-14-2.14748E-13
 -1      3809 1.98581E+01 3.08463E-01 9.83417E-04-3.11962E-01-1.16658E-15-2.78530E-13
 -1      3810 1.96848E+01 5.14930E-01 1.14850E-03-5.88618E-01-1.33602E-13-1.92394E-13
 -1      3811 1.97163E+01 4.71086E-01-2.45185E-03-5.29608E-01-1.46311E-13-2.22717E-13
 -1      3812 1.95740E+01 5.91973E-01 1.43604E-03-7.21251E-01-8.98841E-14-1.98399E-13
 -1      3813 1.96107E+01 5.54036E-01-2.86361E-03-6.50483E-01-8.91072E-14-1.76336E-13
 -1      3814 1.95373E+01 5.92485E-01 2.08294E-03-5.72482E-01-1.33777E-13-2.78955E-13
 -1      3815 1.94465E+01 6.45743E-01 1.99660E-03-8.80567E-01 6.34682E-15-1.12432E-13
 -1      3816 1.94862E+01 6.21274E-01-3.29757E-03-7.96971E-01-1.87581E-14-1.47386E-13
 -1      3817 1.93834E+01 6.75820E-01 2.40556E-03-7.04146E-01-6.58573E-14-2.36620E-13
 -1      3818 1.93081E+01 6.55418E-01 3.05010E-03-1.07127E+00 1.10610E-15-1.01910E-14
 -1      3819 1.93452E+01 6.55732E-01-3.72628E-03-9.73238E-01 2.79275E-14-9.47741E-14
 -1      3820 1.92026E+01 7.32479E-01 2.58363E-03-8.65699E-01-1.16332E-14-8.02727E-14
 -1      3821 1.91732E+01 5.90662E-01 4.95579E-03-1.30086E+00-1.54404E-15 3.29526E-14
 -1      3822 1.91961E+01 6.32110E-01-4.05643E-03-1.18588E+00 2.20397E-14 8.24750E-15
 -1      3823 1.89978E+01 7.40123E-01 2.45458E-03-1.06593E+00-3.26418E-14-9.45594E-14
 -1      3824 1.90716E+01 4.08670E-01 8.34592E-03-1.58049E+00-2.56365E-14-8.58588E-15
 -1      3825 1.90583E+01 5.14217E-01-4.02778E-03-1.44526E+00 3.38130E-14 8.90100E-14
 -1      3826 1.87785E+01 6.66504E-01 1.78169E-03-1.31919E+00-4.33770E-14-5.83372E-14
 -1      3827 1.90587E+01 4.95046E-02 1.33857E-02-1.92445E+00-7.35963E-14-9.88982E-14
 -1      3828 1.89709E+01 2.51542E-01-3.00244E-03-1.76693E+00-6.83493E-14-5.88844E-14
 -1      3829 1.85666E+01 4.66652E-01 1.56378E-04-1.64872E+00-1.73011E-14-6.26488E-14
 -1      3830 1.92421E+01-5.60575E-01 2.29852E-02-2.34173E+00-3.83505E-14-3.95363E-13
 -1      3831 1.90134E+01-2.22203E-01 1.80173E-03-2.16540E+00-6.55336E-14-2.46288E-13
 -1      3832 1.84096E+01 7.18056E-02-3.59242E-03-2.09127E+00 2.05100E-14-3.54172E-13
 -1      3833 1.97777E+01-1.50349E+00 3.24951E-02-2.78769E+00-1.10330E-13-4.79927E-13
 -1      3834 1.93171E+01-9.89360E-01 1.14301E-02-2.62732E+00-5.31228E-14-4.25303E-13
 -1      3835 1.84097E+01-6.55226E-01-2.88950E-02-2.68215E+00-1.83369E-14-4.46594E-13
 -1      3836 1.90892E+01-1.85632E+00 3.10818E-02 3.45539E+00-1.14506E-13-2.31162E-13
 -1      3837 2.03210E+01 9.96735E-01 5.38816E-03 3.40873E-01 2.59944E-13-3.09347E-13
 -1      3838 2.02682E+01 1.30775E+00-4.65505E-03 4.10850E-01 2.85009E-13-3.62058E-13
 -1      3839 2.00552E+01-2.12529E+00 3.62198E-02-3.14247E+00-3.26420E-13-4.69708E-13
 -1      3840 2.00565E+01 6.69638E-02 6.98771E-04-2.09703E-01-9.69337E-14-2.11041E-13
 -1      3841 2.00697E+01 4.49622E-02-5.44526E-04-2.00124E-01-3.51089E-14-2.38575E-13
 -1      3842 1.91737E+01 4.46286E-01 3.35412E-04 1.66428E+00 3.62304E-14-1.02478E-13
 -1      3843 1.91833E+01 2.91158E-01 7.23764E-03 1.80097E+00 6.49837E-14-8.07630E-14
 -1      3844 1.88566E+01 5.93683E-01 2.32299E-03 1.56368E+00 6.25150E-14-2.81046E-13
 -1      3845 2.01670E+01 7.60738E-02-5.08523E-04-1.47880E-01 8.13079E-14-1.89465E-13
 -1      3846 2.01873E+01 1.19517E-01 1.78449E-03-1.20686E-01 1.11078E-13-2.08498E-13
 -1      3847 2.02522E+01 1.78221E-01-6.71103E-04-8.73336E-02 1.14538E-13-2.27987E-13
 -1      3848 2.03652E+01 4.28672E-01 1.93749E-03-2.65502E-02-7.59174E-14-3.02473E-13
 -1      3849 2.03468E+01 3.21790E-01-1.70576E-03 2.35921E-02-9.78988E-14-3.11509E-13
 -1      3850 2.02056E+01 1.66463E+00-2.78104E-03-3.45397E-02 7.35032E-14-4.92373E-13
 -1      3851 2.02086E+01 1.64436E+00-4.10527E-03-1.23369E-01 3.19130E-14-4.68168E-13
 -1      3852 2.03008E+01 1.39376E+00 7.85734E-03-1.33815E-01 1.20364E-14-4.39014E-13
 -1      3853 2.02902E+01 1.42927E+00 6.61175E-03 4.81519E-04 7.09645E-14-4.50699E-13
 -1      3854 2.03702E+01 7.15743E-01 5.42765E-03-1.45093E-01-7.76782E-14-3.59005E-13
 -1      3855 2.03558E+01 5.54774E-01-3.44283E-03-7.06346E-02-6.81352E-14-3.23086E-13
 -1      3856 2.03820E+01 5.39300E-01-1.76668E-03-4.99233E-02-7.29106E-14-3.42473E-13
 -1      3857 1.69615E+01-8.70687E-01 3.65251E-02-3.36221E+00-8.64270E-14-3.38639E-13
 -1      3858 1.86503E+01-1.73626E+00-4.56080E-02-3.43173E+00-2.30059E-13-5.81339E-13
 -1      3859 1.97519E+01 6.01101E-01 3.09414E-03 1.30126E+00 1.05107E-13 2.54551E-14
 -1      3860 1.90830E+01 1.05378E-01 2.71537E-03 1.99489E+00-7.53540E-14-8.04976E-14
 -1      3861 1.91627E+01-1.39981E-01 1.22770E-02 2.15718E+00-1.68080E-13-2.45967E-13
 -1      3862 1.86170E+01 2.77819E-01-5.20796E-03 1.92838E+00-7.55045E-14-1.30375E-13
 -1      3863 1.38711E+01 4.78066E-01 2.13498E-03 1.81936E+00 2.51644E-13 2.26638E-13
 -1      3864 1.33428E+01 8.41295E-01 7.07780E-02 8.34992E-01 2.80546E-13 3.28154E-13
 -1      3865 2.02623E+01 5.25887E-01-2.15740E-03 1.51645E-01 2.28909E-13-2.11476E-13
 -1      3866 2.02824E+01 6.46274E-01 2.27219E-03 2.45794E-01 2.72588E-13-2.24649E-13
 -1      3867 2.02989E+01 7.72475E-01-1.02225E-03 2.79880E-01 2.65814E-13-2.55454E-13
 -1      3868 2.03023E+01 5.42146E-01 8.62652E-05 1.24701E-01 2.11994E-13-2.07482E-13
 -1      3869 2.02547E+01 1.40872E+00-1.80033E-03 3.45980E-01 2.53015E-13-4.12503E-13
 -1      3870 1.97778E+01 4.28411E-01 1.00107E-03-4.79598E-01-7.46983E-14-2.10326E-13
 -1      3871 1.98038E+01 3.83536E-01-2.06919E-03-4.31473E-01 7.24262E-15-1.75588E-13
 -1      3872 1.96656E+01 4.97513E-01 1.70699E-03-4.65392E-01-8.33916E-14-2.01091E-13
 -1      3873 1.88113E+01 1.08968E+00-5.66184E-03 6.24573E-01-5.52075E-14-1.30174E-13
 -1      3874 1.89514E+01 1.02936E+00 2.93544E-03 8.14464E-01-9.12546E-14 6.77481E-14
 -1      3875 1.88991E+01 9.47755E-01 3.40913E-03 9.86711E-01-3.28527E-14-5.89797E-14
 -1      3876 1.85779E+01 1.11318E+00 4.28233E-03 5.50168E-01-2.27081E-13-1.06724E-13
 -1      3877 2.12631E+01-3.64183E+00 9.32950E-02 3.77550E+00 3.40828E-13-2.09158E-13
 -1      3878 2.03092E+01 1.02009E+00-5.75286E-03-2.59038E-01-7.63064E-14-4.06293E-13
 -1      3879 2.03394E+01 2.36193E-01 1.33644E-03 5.50933E-02-8.88383E-14-2.83210E-13
 -1      3880 2.03183E+01 1.65810E-01-9.73367E-04 8.69416E-02-7.11983E-14-2.79581E-13
 -1      3881 2.03734E+01 3.15022E-01 3.57885E-04 2.76545E-02-8.99821E-14-2.92115E-13
 -1      3882 1.95342E+01-1.38451E+00 2.83699E-02 2.89118E+00-1.59697E-13-1.92170E-13
 -1      3883 1.79216E+01-1.30451E+00 9.19881E-03 3.49969E+00-1.92817E-13 5.81523E-14
 -1      3884 1.73012E+01-6.84717E-01-1.08697E-02 3.07133E+00-1.07366E-13-1.39947E-13
 -1      3885 1.92209E+01-9.65523E-01 2.99810E-03 2.72108E+00-2.70557E-13-1.23772E-13
 -1      3886 1.98979E+01-3.01836E+00 2.66657E-02 3.85907E+00 3.65982E-13-3.17446E-13
 -1      3887 2.03344E+01 9.96221E-01-2.44598E-03-2.07937E-01-5.27563E-14-4.21899E-13
 -1      3888 2.03433E+01 1.60874E-01-2.99816E-05 7.93895E-02-7.48830E-14-2.95674E-13
 -1      3889 1.90524E+01-2.26110E+00 4.87146E-02 3.77296E+00 3.56420E-13-3.67690E-13
 -1      3890 1.40232E+01 8.53476E-01 5.64401E-02-1.32163E+00-9.37293E-14-4.00938E-13
 -1      3891 1.49494E+01 6.26217E-01 1.03295E-02-1.74635E+00-2.66752E-14-3.67130E-13
 -1      3892 1.34936E+01 4.45170E-01 3.32108E-02 1.94596E+00 1.26726E-13-1.04333E-13
 -1      3893 1.27877E+01 7.53660E-01 9.20236E-02 1.33171E+00 5.40297E-14-3.55271E-15
 -1      3894 1.32535E+01 8.81870E-01-1.84090E-03 4.47065E-01-3.42408E-14-6.60895E-14
 -1      3895 1.89843E+01 7.86746E-01 7.43334E-03-1.32452E+00 1.91466E-13-2.58067E-13
 -1      3896 1.97713E+01 4.00747E-01 1.32898E-03-3.79420E-01-1.56519E-14-2.23794E-13
 -1      3897 2.02889E+01 1.69842E-01-1.04630E-03-9.03138E-02 7.49583E-14-2.42117E-13
 -1      3898 2.03108E+01 2.40603E-01 1.57413E-03-5.37448E-02 1.13994E-13-2.57056E-13
 -1      3899 2.02114E+01 1.92049E-02-2.70473E-05-1.59934E-01 1.85446E-14-2.11448E-13
 -1      3900 2.02309E+01 4.15080E-02 7.47280E-04-1.47812E-01 4.77252E-14-2.08769E-13
 -1      3901 2.00949E+01 2.72839E-02 6.03316E-04-1.93759E-01 2.68170E-14-2.87788E-13
 -1      3902 2.01088E+01 1.29246E-02-2.68344E-04-1.87441E-01 1.97961E-14-2.74788E-13
 -1      3903 2.00948E+01 4.29647E-02-9.38409E-05-1.80170E-01-1.54652E-14-2.65447E-13
 -1      3904 1.88747E+01 9.56813E-01-4.99869E-03-9.81602E-01 1.65446E-13-3.66700E-13
 -1      3905 2.03191E+01 3.27295E-01-1.51842E-03-1.61619E-02 1.38403E-13-2.73434E-13
 -1      3906 2.03377E+01 4.35004E-01 1.73385E-03 4.11889E-02 1.70068E-13-2.71659E-13
 -1      3907 2.03518E+01 3.24071E-01 9.34210E-05-2.21174E-02 1.17298E-13-2.41675E-13
 -1      3908 1.99302E+01 2.24305E-01 6.42044E-04-2.60600E-01 1.27554E-14-1.74262E-13
 -1      3909 1.99706E+01 1.84327E-01 8.13455E-04-2.71695E-01-2.99100E-14-1.75162E-13
 -1      3910 1.99854E+01 1.50189E-01-1.10660E-03-2.50464E-01-1.72133E-14-1.88771E-13
 -1      3911 2.03185E+01 8.43331E-01-1.47894E-03 2.47671E-01 2.29632E-13-2.81611E-13
 -1      3912 1.36822E+01 8.10811E-01 2.17353E-02 1.63814E-01 3.38041E-13 2.31933E-13
 -1      3913 2.00293E+01 9.14137E-02-8.18735E-04-2.20016E-01-9.67847E-14-2.21879E-13
 -1      3914 2.00454E+01 8.98024E-02 1.22038E-04-1.97311E-01-6.29910E-14-2.11062E-13
 -1      3915 2.00158E+01 1.19922E-01 7.66823E-04-2.34665E-01-4.56436E-14-1.65266E-13
 -1      3916 1.81641E+01 1.17250E+00-1.80829E-03-1.15235E-01-7.21751E-14-9.26833E-14
 -1      3917 1.81701E+01 1.16686E+00-2.57463E-03 1.65213E-01-2.05257E-13-7.53378E-14
 -1      3918 2.02140E+01 7.78920E-02-7.24519E-04-1.41664E-01 6.26427E-14-1.94159E-13
 -1      3919 2.03135E+01 1.21779E+00 4.34101E-03 2.50222E-01 2.18785E-13-3.96380E-13
 -1      3920 2.03401E+01 9.86376E-01-4.78503E-03-1.51850E-01-2.27585E-14-4.07604E-13
 -1      3921 2.03461E+01 1.07448E+00-2.44642E-03-7.34534E-02 1.79250E-15-4.26316E-13
 -1      3922 2.03457E+01 1.03353E+00-5.14872E-03-1.26115E-01-2.63973E-14-4.09755E-13
 -1      3923 2.04045E+01 7.40009E-01 7.16110E-03-8.75388E-02-3.44348E-14-4.06071E-13
 -1      3924 1.83418E+01 1.08538E+00-5.23747E-03-6.90507E-01-4.19555E-14-4.52597E-13
 -1      3925 1.82290E+01 1.13391E+00-5.55891E-03-4.40153E-01 1.19168E-14-4.27192E-13
 -1      3926 1.79546E+01 1.15368E+00 5.14340E-03-3.05424E-01-2.29436E-13-2.16148E-13
 -1      3927 1.38671E+01 2.88251E-01 6.63554E-02-2.34014E+00 1.70599E-13-1.13454E-13
 -1      3928 1.50443E+01-3.92159E-03 1.80305E-02-2.65666E+00 1.64126E-13-1.52973E-13
 -1      3929 1.39309E+01 5.71785E-01-1.63172E-02-1.55106E+00 3.86582E-13-3.98223E-14
 -1      3930 1.91050E+01-3.54447E-01 1.81090E-03 2.33739E+00-2.11732E-13-3.38192E-13
 -1      3931 1.92240E+01-6.57225E-01 1.68466E-02 2.50556E+00-2.83013E-13-3.29569E-13
 -1      3932 1.84331E+01-6.06106E-01 4.39104E-03 2.74465E+00-8.86318E-14-2.33654E-13
 -1      3933 1.84657E+01-1.23304E-01-4.14708E-03 2.32542E+00-3.22073E-13-4.39671E-13
 -1      3934 1.70090E+01-3.71788E-01 4.60045E-02-2.83207E+00-2.58786E-14-4.37120E-13
 -1      3935 2.01106E+01-3.06165E-03-4.58466E-04-1.97609E-01-1.23392E-14-1.70395E-13
 -1      3936 1.74279E+01-1.61001E+00 8.73356E-03 3.84694E+00 2.06215E-13-4.49776E-13
 -1      3937 1.49320E+01 3.34349E-01 4.49906E-02 2.25267E+00-2.91863E-14 2.05732E-13
 -1      3938 1.51472E+01 6.20708E-01-4.58499E-03 1.62054E+00 9.81316E-14-1.77623E-13
 -1      3939 1.60382E+01 3.59606E-02-5.51215E-03 2.50819E+00-1.98633E-13-1.67547E-13
 -1      3940 1.85463E+01 9.84792E-01-5.49158E-03 9.19031E-01-1.31539E-13-9.27991E-14
 -1      3941 1.87637E+01 9.01109E-01 2.62545E-03 1.10295E+00-3.24292E-14-2.85826E-13
 -1      3942 1.86749E+01 8.20189E-01-3.63467E-03 1.23715E+00 1.51846E-14-3.50207E-13
 -1      3943 1.69426E+01-1.20734E+00 3.52917E-02-3.63712E+00-5.55181E-14-5.66968E-13
 -1      3944 2.03445E+01 9.54293E-01-2.12982E-03 2.12120E-01 2.10148E-13-3.50244E-13
 -1      3945 2.03357E+01 1.09602E+00 8.60679E-05 1.71775E-01 1.78548E-13-3.98017E-13
 -1      3946 1.38655E+01 9.57847E-01 8.68639E-03-6.61014E-01-5.66114E-14-3.17801E-13
 -1      3947 2.03317E+01 1.13267E+00-3.56689E-03 1.32850E-01 1.59477E-13-3.86521E-13
 -1      3948 2.03313E+01 1.16667E+00-2.46786E-03 7.64723E-02 1.25124E-13-4.03335E-13
 -1      3949 2.03832E+01 9.10431E-01 4.60190E-03 1.07149E-01 1.35901E-13-3.69283E-13
 -1      3950 2.01716E+01-1.18397E-03 2.70466E-04-1.73754E-01-1.69886E-15-1.93995E-13
 -1      3951 2.01889E+01 5.59212E-03 3.64025E-04-1.66804E-01 9.61914E-15-2.07786E-13
 -1      3952 2.02350E+01 2.04301E-02-4.04608E-04-1.45523E-01 2.74414E-14-2.21358E-13
 -1      3953 1.65744E+01-1.44026E+00 3.99269E-02 3.89301E+00 2.54246E-13-3.57180E-13
 -1      3954 1.51301E+01-1.02919E+00 7.78210E-02 3.95448E+00 2.09305E-13-3.42580E-13
 -1      3955 1.44090E+01-3.02791E-01-1.26193E-02 3.13534E+00 1.61794E-13-2.17677E-13
 -1      3956 1.62659E+01-6.34982E-01-1.03814E-02 3.24945E+00 7.75525E-14-3.11421E-13
 -1      3957 2.02881E+01 3.20697E-02 2.82192E-04 1.01933E-01-1.05012E-14-2.86067E-13
 -1      3958 2.02623E+01 1.68268E-02 2.90522E-05 1.09882E-01 1.30051E-14-2.72985E-13
 -1      3959 2.02329E+01 1.01796E-02 8.49301E-05 1.13171E-01 3.99473E-15-2.53089E-13
 -1      3960 2.02065E+01 1.09412E-02 1.96224E-04 1.18800E-01-3.86800E-14-2.38779E-13
 -1      3961 2.02643E+01 1.92012E-02-1.64455E-04 8.73279E-02 6.59331E-15-2.12435E-13
 -1      3962 2.01746E+01 1.81984E-02-1.37210E-04 1.21558E-01-5.70283E-14-2.00257E-13
 -1      3963 2.01476E+01 3.15188E-02 2.85339E-04 1.27030E-01-9.47845E-14-1.55408E-13
 -1      3964 2.02033E+01 1.92527E-02-1.14771E-04 9.47250E-02-2.05245E-14-2.05741E-13
 -1      3965 2.01133E+01 4.97847E-02-3.72225E-04 1.30687E-01-5.87913E-14-1.38521E-13
 -1      3966 2.00852E+01 7.32915E-02 3.15479E-04 1.37703E-01 3.09340E-14-7.95967E-14
 -1      3967 2.01384E+01 4.60280E-02 2.02655E-05 1.02032E-01 1.67799E-15-8.42900E-14
 -1      3968 2.00476E+01 1.00729E-01-6.18775E-04 1.43416E-01-4.18705E-15-9.25303E-14
 -1      3969 2.00171E+01 1.32851E-01 3.04065E-04 1.53434E-01-2.46959E-14-6.96691E-14
 -1      3970 2.00687E+01 9.44193E-02 2.18873E-04 1.11599E-01 1.07253E-14-2.23129E-14
 -1      3971 1.99748E+01 1.68125E-01-8.81217E-04 1.62196E-01-2.76420E-14-1.36584E-13
 -1      3972 1.99405E+01 2.07699E-01 2.39315E-04 1.76384E-01-6.09084E-14-1.41590E-13
 -1      3973 1.99918E+01 1.61223E-01 5.53085E-04 1.25479E-01-6.40268E-14-1.49376E-13
 -1      3974 1.98915E+01 2.49867E-01-1.20100E-03 1.88990E-01-1.20282E-13-1.49772E-13
 -1      3975 1.98512E+01 2.96151E-01 1.51737E-04 2.08331E-01-1.55654E-13-1.44034E-13
 -1      3976 1.99042E+01 2.43884E-01 9.49036E-04 1.45392E-01-8.23649E-14-2.38582E-13
 -1      3977 1.97928E+01 3.44387E-01-1.56674E-03 2.25698E-01-1.73500E-13-1.48338E-13
 -1      3978 1.97444E+01 3.96335E-01 3.90873E-05 2.51145E-01-1.62756E-13-1.23818E-13
 -1      3979 1.98010E+01 3.40449E-01 1.32543E-03 1.72534E-01-1.49588E-13-2.48481E-13
 -1      3980 1.96737E+01 4.49399E-01-1.97939E-03 2.73984E-01-7.36417E-14-6.52776E-14
 -1      3981 1.96145E+01 5.05603E-01-7.90538E-05 3.06410E-01 4.86084E-14-1.66959E-14
 -1      3982 1.96772E+01 4.49071E-01 1.85556E-03 2.08693E-01-8.81158E-14-1.04995E-13
 -1      3983 1.95280E+01 5.61702E-01-2.47825E-03 3.35628E-01 8.71554E-14-3.82411E-14
 -1      3984 1.94554E+01 6.19939E-01-1.89184E-04 3.76041E-01 1.02487E-13 2.08751E-14
 -1      3985 1.95262E+01 5.66749E-01 2.46932E-03 2.55021E-01 7.03891E-14-3.72288E-14
 -1      3986 1.93490E+01 6.76179E-01-3.10366E-03 4.12840E-01 6.25247E-14-1.34865E-14
 -1      3987 1.92603E+01 7.32979E-01-2.53113E-04 4.62616E-01 5.59495E-14-2.16352E-14
 -1      3988 1.93406E+01 6.89184E-01 3.19747E-03 3.13368E-01 6.10821E-14-1.01687E-13
 -1      3989 1.91291E+01 7.84929E-01-3.93695E-03 5.08808E-01 5.21689E-14 3.15951E-14
 -1      3990 1.90218E+01 8.35157E-01-1.98274E-04 5.70173E-01 5.69504E-14 6.42850E-14
 -1      3991 1.91119E+01 8.09810E-01 4.08108E-03 3.86328E-01 1.04055E-13-1.32142E-13
 -1      3992 1.88598E+01 8.76329E-01-5.12116E-03 6.28840E-01-1.22996E-14-6.03060E-16
 -1      3993 1.87321E+01 9.12705E-01 1.14087E-04 7.05738E-01 3.11745E-14-1.21680E-13
 -1      3994 1.88301E+01 9.19244E-01 5.19130E-03 4.78233E-01-3.87345E-14-1.28831E-13
 -1      3995 1.85313E+01 9.33904E-01-6.90311E-03 7.82485E-01 9.47389E-14-2.45358E-13
 -1      3996 1.83831E+01 9.46225E-01 8.45203E-04 8.82026E-01 3.41127E-14-2.66754E-13
 -1      3997 1.84824E+01 1.00472E+00 6.63378E-03 5.96933E-01-2.97068E-14-2.50985E-13
 -1      3998 1.81324E+01 9.34403E-01-9.68908E-03 9.86777E-01 4.09608E-14-2.52399E-13
 -1      3999 1.79670E+01 9.08694E-01 2.43841E-03 1.12118E+00 9.86255E-15-1.96370E-13
 -1      4000 1.80518E+01 1.04879E+00 8.45903E-03 7.57259E-01 8.29373E-14-2.64865E-13
 -1      4001 1.76503E+01 8.46412E-01-1.36719E-02 1.27078E+00-7.12311E-14-9.39624E-14
 -1      4002 1.74778E+01 7.63599E-01 6.39386E-03 1.46042E+00 2.88142E-14-1.27250E-13
 -1      4003 1.75153E+01 1.02846E+00 1.11183E-02 9.83292E-01 2.78656E-14-2.54080E-13
 -1      4004 1.70745E+01 6.26363E-01-1.69386E-02 1.68726E+00 6.01433E-14-1.50099E-13
 -1      4005 1.69156E+01 4.55874E-01 1.72701E-02 1.96357E+00 4.36158E-14-2.05248E-13
 -1      4006 1.68329E+01 9.09684E-01 1.36195E-02 1.32236E+00 2.57531E-15-1.43255E-13
 -1      4007 1.66024E+01 1.65398E-01-2.07306E-02 2.33084E+00-1.41909E-14-2.88220E-13
 -1      4008 1.65258E+01-1.53448E-01 3.24957E-02 2.73326E+00-1.05627E-14-3.49205E-13
 -1      4009 1.56869E+01-1.56449E-02 2.62296E-02 2.74617E+00 1.04942E-14-3.58174E-13
 -1      4010 1.61383E+01 6.00513E-01 1.21367E-02 1.88663E+00-1.73468E-14-3.09767E-13
 -1      4011 1.68568E+01-6.39258E-01 1.03920E-02-3.17079E+00 1.29537E-13-4.74527E-13
 -1      4012 2.03791E+01 2.04256E-01 5.18193E-04 5.28482E-02-8.94846E-14-2.92004E-13
 -1      4013 2.03588E+01 1.40858E-01-6.58221E-04 7.36748E-02-7.23755E-14-2.90208E-13
 -1      4014 1.78193E+01 3.61494E-01 1.22617E-02-1.98120E+00 6.25946E-14-1.63546E-13
 -1      4015 1.79275E+01 5.34391E-01-1.00179E-02-1.75746E+00 1.85697E-13-1.40282E-13
 -1      4016 1.82406E+01 6.70052E-01 6.93163E-03-1.55169E+00 4.27454E-14-1.36894E-13
 -1      4017 1.83697E+01 7.69081E-01-8.76539E-03-1.38639E+00-7.52285E-15-1.34467E-13
 -1      4018 1.76775E+01 7.82815E-01 7.45456E-03-1.46145E+00 8.68730E-14-1.59725E-13
 -1      4019 2.02728E+01 1.15499E-01 1.17836E-03-1.13271E-01 5.31355E-14-2.29475E-13
 -1      4020 2.03208E+01 1.67787E-01-1.78805E-04-8.51355E-02 6.99428E-14-2.56476E-13
 -1      4021 2.02514E+01 7.24809E-02-4.57864E-04-1.34932E-01 5.31244E-14-2.26053E-13
 -1      4022 2.02800E+01 7.14350E-02-3.52436E-04-1.23458E-01 5.08170E-14-2.34372E-13
 -1      4023 1.92068E+01 7.51546E-01 6.34348E-04-6.48738E-01-2.94348E-14-2.53058E-13
 -1      4024 1.92882E+01 7.07084E-01-3.60809E-03-5.80954E-01-8.64658E-14-2.60185E-13
 -1      4025 1.94006E+01 6.60746E-01 3.89137E-04-5.26069E-01-1.25297E-13-2.13281E-13
 -1      4026 1.94692E+01 6.09062E-01-2.91924E-03-4.70691E-01-9.73163E-14-1.90005E-13
 -1      4027 1.92474E+01 7.39855E-01 3.39952E-03-4.72189E-01-8.27535E-14-2.11228E-13
 -1      4028 1.87103E+01 8.31785E-01 2.52061E-03-9.95181E-01 1.44165E-14-2.30823E-13
 -1      4029 1.88120E+01 8.28738E-01-5.75349E-03-8.90409E-01 2.24324E-14-2.06860E-13
 -1      4030 1.84107E+01 7.69658E-01 4.75219E-03-1.24887E+00-7.88669E-14-1.53656E-13
 -1      4031 1.85123E+01 8.08828E-01-7.42472E-03-1.11355E+00-6.61467E-14-2.38550E-13
 -1      4032 1.83739E+01 9.31576E-01 6.26974E-03-9.23731E-01-3.46682E-14-2.19282E-13
 -1      4033 1.80908E+01 5.84133E-01 7.51862E-03-1.59021E+00-4.06120E-15-2.26208E-13
 -1      4034 1.81778E+01 6.89246E-01-9.46070E-03-1.41070E+00-4.50434E-14-1.54808E-13
 -1      4035 1.79676E+01 8.78457E-01 9.49410E-03-1.19047E+00-6.25379E-14-2.42555E-13
 -1      4036 1.78073E+01 2.18173E-01 1.12520E-02-2.06700E+00 9.63474E-14-3.77261E-13
 -1      4037 1.78126E+01 4.26286E-01-1.31739E-02-1.81686E+00 9.88387E-14-2.70862E-13
 -1      4038 1.74894E+01 7.07314E-01 1.20570E-02-1.57828E+00 8.52775E-14-3.53538E-13
 -1      4039 1.69482E+01 1.40927E-03 7.27985E-03-2.47019E+00 1.73472E-15-3.52901E-13
 -1      4040 1.59616E+01 7.23222E-01-1.80236E-02-1.53979E+00 8.91960E-14-4.13690E-13
 -1      4041 1.63841E+01 4.13939E-01 1.97351E-02-2.13382E+00 4.61142E-14-3.78066E-13
 -1      4042 1.85330E+01 7.35073E-01 2.29613E-03 1.37951E+00-4.47038E-15-4.46257E-13
 -1      4043 2.03372E+01 6.46010E-01 2.07243E-03 1.54885E-01 2.17420E-13-2.59985E-13
 -1      4044 2.03427E+01 8.44622E-01 3.78363E-04 2.01778E-01 2.17753E-13-3.16255E-13
 -1      4045 2.03635E+01 7.46368E-01-1.66028E-03 1.24201E-01 1.88764E-13-3.36671E-13
 -1      4046 2.03309E+01 5.35132E-01-2.21076E-03 8.86001E-02 1.93133E-13-2.65883E-13
 -1      4047 2.03317E+01 1.17990E+00-3.08738E-03 3.35551E-02 8.97759E-14-3.97249E-13
 -1      4048 2.03311E+01 1.17479E+00-4.85198E-03-3.01000E-02 3.40311E-14-4.13991E-13
 -1      4049 2.03895E+01 9.68554E-01 5.42612E-03 4.20099E-02 9.59351E-14-3.61746E-13
 -1      4050 1.87000E+01 8.97248E-01 4.06039E-04-1.11982E+00 1.16386E-13-2.36065E-13
 -1      4051 1.89769E+01 8.15614E-01 1.22807E-03-8.01417E-01-5.11131E-14-1.72577E-13
 -1      4052 1.90704E+01 7.86250E-01-4.51712E-03-7.17945E-01-1.31117E-14-1.94996E-13
 -1      4053 1.90089E+01 8.37878E-01 4.19197E-03-5.86033E-01-5.79935E-14-2.01392E-13
 -1      4054 1.61374E+01-1.68753E-01 1.37119E-02-2.84678E+00 1.62664E-13-3.43090E-13
 -1      4055 1.75549E+01-2.48487E-01 2.15642E-02-2.64865E+00 6.14890E-14-4.11726E-13
 -1      4056 1.75450E+01 7.14635E-02-8.96769E-03-2.33290E+00-8.91228E-15-2.66581E-13
 -1      4057 1.57874E+01 2.78302E-01-2.31825E-02-2.22898E+00 1.91830E-13-2.45515E-13
 -1      4058 1.81904E+01 5.66871E-01-8.77212E-03 1.65644E+00 5.58687E-14-4.83145E-13
 -1      4059 1.80931E+01 4.03467E-01 8.71748E-03 1.87075E+00-6.17856E-14-3.60123E-13
 -1      4060 1.98023E+01 3.52553E-01 3.80646E-04-2.84704E-01 5.85546E-15-1.87388E-13
 -1      4061 1.98406E+01 3.04741E-01-1.53186E-03-2.56818E-01 1.67185E-14-1.40416E-13
 -1      4062 1.45307E+01 9.01551E-01-1.25715E-02 3.27984E-01 1.95021E-13 5.60801E-14
 -1      4063 1.41587E+01 9.61557E-01 6.04349E-02-6.59458E-01 4.24457E-13 9.88497E-14
 -1      4064 1.95613E+01 5.57935E-01 3.16908E-04-4.26946E-01-8.83281E-14-1.58091E-13
 -1      4065 1.96182E+01 5.04415E-01-2.37008E-03-3.81991E-01-5.83418E-14-1.42135E-13
 -1      4066 1.94433E+01 6.28911E-01 2.71240E-03-3.81681E-01-7.78860E-14-9.85571E-14
 -1      4067 1.82472E+01 1.12918E+00-4.67438E-03 4.38896E-01-3.23498E-13-1.88220E-13
 -1      4068 1.83750E+01 1.07620E+00-6.18653E-06 6.91496E-01-2.53026E-13-1.19938E-13
 -1      4069 1.82389E+01 1.03289E+00 4.03581E-03 8.17589E-01-2.37369E-13-3.05739E-13
 -1      4070 1.79715E+01 1.15042E+00 5.89138E-03 3.09560E-01-3.13818E-13-3.54130E-14
 -1      4071 1.39107E+01 1.03786E+00 3.30965E-02-2.06741E-01-9.88098E-15-2.08918E-13
 -1      4072 1.45765E+01 1.01436E+00-1.83660E-02-5.77849E-01 4.79326E-14-2.37808E-13
 -1      4073 1.40785E+01 9.65890E-01-6.94036E-04 4.23474E-01-1.59572E-14-5.08794E-15
 -1      4074 2.03991E+01 5.78029E-01-1.35269E-03-4.06446E-02-2.66229E-14-3.71712E-13
 -1      4075 2.01329E+01 3.34831E-03 4.69492E-04-1.83223E-01 1.43754E-14-2.05684E-13
 -1      4076 2.01482E+01-1.70965E-03 2.79579E-05-1.77962E-01 2.48829E-14-1.89645E-13
 -1      4077 2.01887E+01 3.62177E-03-3.70763E-04-1.58574E-01 2.57049E-14-2.10542E-13
 -1      4078 2.01421E+01 1.29918E-02-2.65419E-04-1.68548E-01 6.93326E-14-2.32877E-13
 -1      4079 2.04051E+01 3.81171E-01 1.28090E-03 3.39189E-03-6.66463E-14-3.24274E-13
 -1      4080 2.03904E+01 2.83201E-01-1.23182E-03 3.68198E-02-7.63873E-14-3.00981E-13
 -1      4081 2.04052E+01 2.66468E-01 4.48390E-04 3.21348E-02-7.78508E-14-3.05982E-13
 -1      4082 2.03384E+01 9.27539E-02 4.51780E-04 8.35877E-02-6.29780E-14-2.87308E-13
 -1      4083 2.03142E+01 5.66237E-02-2.48788E-04 9.64064E-02-5.03785E-14-2.77048E-13
 -1      4084 2.03205E+01 5.30170E-02-1.64242E-04 7.68460E-02-1.85597E-14-2.51670E-13
 -1      4085 1.96936E+01 4.53055E-01 3.28053E-04-3.47391E-01-6.06842E-14-1.37035E-13
 -1      4086 1.97403E+01 4.01233E-01-1.91310E-03-3.11513E-01-3.12406E-14-1.74745E-13
 -1      4087 1.97350E+01 4.05540E-01 1.58935E-03-2.52818E-01-2.35425E-14-1.07846E-13
 -1      4088 1.83246E+01 9.86144E-01 4.53860E-03-1.00506E+00-5.77143E-15-1.13292E-13
 -1      4089 1.77981E+01-4.00205E-01 8.22965E-03 2.71709E+00 5.42543E-14-4.29979E-14
 -1      4090 1.67541E+01-1.49056E-01 2.56351E-02 2.72640E+00-7.65237E-14-1.91029E-13
 -1      4091 1.65370E+01 2.28438E-01-2.05628E-02 2.23335E+00 4.32254E-14-8.75506E-14
 -1      4092 1.77616E+01-1.64044E-01-1.98835E-02 2.47901E+00-7.81541E-14-2.11046E-13
 -1      4093 1.57801E+01 7.42347E-01 1.81306E-03 1.34631E+00 2.70927E-14-3.01151E-13
 -1      4094 1.50851E+01 9.60397E-01 4.44755E-02 9.28971E-01 1.72708E-13-2.36443E-13
 -1      4095 1.52513E+01 9.95925E-01-9.74155E-03 1.79552E-01 1.81014E-13-5.06426E-14
 -1      4096 2.04146E+01 5.49861E-01 1.82259E-04-2.54647E-02-2.33103E-14-3.67203E-13
 -1      4097 2.03424E+01 1.50766E-01-8.10356E-04-8.24165E-02 6.12616E-14-2.45439E-13
 -1      4098 2.03630E+01 2.16983E-01 8.66463E-04-5.69671E-02 9.20950E-14-2.27435E-13
 -1      4099 2.00930E+01 5.79652E-02 4.13072E-04-1.59249E-01-6.78433E-14-1.95945E-13
 -1      4100 2.01168E+01 3.73087E-02-3.51366E-04-1.52068E-01 3.11607E-14-2.02650E-13
 -1      4101 1.50545E+01 1.41019E-01 3.22388E-02 2.51771E+00 7.39581E-14-2.43952E-13
 -1      4102 1.41448E+01 3.54059E-01 5.20418E-02 2.33459E+00 1.01734E-13-2.18268E-13
 -1      4103 1.40682E+01 7.15608E-01-1.43252E-02 1.45437E+00-2.67321E-15-7.22773E-14
 -1      4104 1.52012E+01 4.60912E-01-1.52386E-02 2.04510E+00-4.83207E-14-2.86565E-13
 -1      4105 1.87204E+01 9.08506E-01 5.12655E-03-7.31565E-01-1.52582E-14-1.65506E-13
 -1      4106 1.70886E+01 4.35028E-01 5.72853E-03-2.00439E+00 8.51145E-14-3.15556E-13
 -1      4107 2.03723E+01 2.99119E-01-1.28711E-03-3.43030E-02 8.92591E-14-2.52736E-13
 -1      4108 2.03864E+01 4.00022E-01 3.85188E-04 5.69098E-03 1.09510E-13-2.58492E-13
 -1      4109 2.03927E+01 2.85939E-01 3.62928E-04-3.37261E-02 7.07992E-14-2.14082E-13
 -1      4110 1.98923E+01 2.60502E-01 4.28922E-04-2.36718E-01 1.02835E-14-1.52311E-13
 -1      4111 1.99237E+01 2.17710E-01-1.47501E-03-2.16005E-01-9.45102E-15-1.75976E-13
 -1      4112 1.98438E+01 3.04516E-01 1.33106E-03-2.09038E-01 1.45452E-14-7.46173E-14
 -1      4113 1.55340E+01 1.07094E+00 2.52846E-02-9.03299E-01 1.45234E-13-3.66980E-13
 -1      4114 1.66838E+01 8.53352E-01 2.73689E-03-1.31150E+00 1.43931E-13-3.93286E-13
 -1      4115 1.80583E+01 8.29307E-01 8.32773E-04 1.29335E+00-7.56628E-14-5.43566E-13
 -1      4116 2.03616E+01 5.33048E-01 5.62135E-04 6.56853E-02 1.80768E-13-2.76209E-13
 -1      4117 1.99914E+01 1.50904E-01 3.52920E-04-2.23289E-01-2.67998E-14-2.11485E-13
 -1      4118 2.00338E+01 1.11341E-01 4.38210E-04-1.76073E-01-6.36188E-14-1.88824E-13
 -1      4119 2.00590E+01 8.23863E-02-5.76395E-04-1.65641E-01-1.02067E-13-1.77877E-13
 -1      4120 2.00807E+01 7.78405E-02 1.70624E-04-1.37278E-01-6.01637E-14-1.72416E-13
 -1      4121 2.03006E+01 6.17064E-02-3.07590E-04-1.11448E-01 4.04626E-14-2.09186E-13
 -1      4122 2.03238E+01 1.00324E-01 6.75324E-04-9.60464E-02 6.26706E-14-2.16714E-13
 -1      4123 2.03593E+01 1.42947E-01-4.91186E-05-7.13977E-02 6.33380E-14-1.60257E-13
 -1      4124 2.04006E+01 8.82094E-01 4.32345E-03-3.21562E-02 2.54695E-15-3.79486E-13
 -1      4125 1.48456E+01 7.63375E-01 1.38242E-02-1.18320E+00 2.74697E-13 1.09117E-13
 -1      4126 1.79416E+01 2.34951E-01-1.18418E-02 2.05803E+00-1.89634E-13-3.63210E-13
 -1      4127 1.78998E+01 7.24160E-02 8.09067E-03 2.24649E+00-2.79492E-13-3.02676E-13
 -1      4128 1.73251E+01 2.63980E-01 1.50922E-02 2.17959E+00-8.28398E-14 4.27402E-14
 -1      4129 1.75602E+01 5.62331E-01 6.70971E-03 1.76233E+00-9.80160E-14-3.77336E-13
 -1      4130 1.96037E+01 5.15204E-01 2.11152E-03-3.09604E-01-5.43000E-14-6.64291E-14
 -1      4131 1.75829E+01 1.14889E+00-2.71683E-03 2.30522E-01-2.39072E-13 1.18037E-13
 -1      4132 1.76762E+01 1.11049E+00-3.45261E-03 5.03399E-01-2.99060E-13-6.27229E-14
 -1      4133 2.02525E+01 1.70949E-02 2.85563E-05-1.28339E-01-3.04775E-15-1.83724E-13
 -1      4134 2.02762E+01 3.47762E-02 3.88048E-04-1.19185E-01 9.24033E-15-2.15839E-13
 -1      4135 2.03134E+01 5.88113E-02-1.47492E-04-9.44390E-02 3.05490E-14-1.54896E-13
 -1      4136 2.03908E+01 7.28323E-01-1.22625E-03 8.49410E-02 1.27838E-13-3.48908E-13
 -1      4137 2.03955E+01 7.64488E-01-2.20570E-03 6.09112E-02 1.12637E-13-3.66308E-13
 -1      4138 1.76672E+01 1.11943E+00-2.47612E-03-5.18149E-01-2.80692E-13-3.67371E-13
 -1      4139 1.75720E+01 1.15021E+00-5.19777E-03-1.81792E-01-3.43803E-13 2.82031E-14
 -1      4140 1.72798E+01 1.14689E+00 5.12686E-03 1.85605E-02-2.54202E-13-5.11988E-14
 -1      4141 2.03692E+01 1.31080E-01-1.13785E-05 5.97697E-02-6.47899E-14-2.95084E-13
 -1      4142 2.03882E+01 6.31091E-01 1.03418E-03 8.02597E-02 1.35131E-13-3.11270E-13
 -1      4143 2.02912E+01 2.43729E-02 1.14357E-04 5.82311E-02 3.57929E-14-1.93326E-13
 -1      4144 2.02613E+01 1.64033E-02 4.61793E-05 6.31486E-02 1.54729E-14-1.61573E-13
 -1      4145 2.03676E+01 1.21603E-01-5.40359E-04-6.19946E-02 2.36445E-14-1.82694E-13
 -1      4146 2.03902E+01 1.79571E-01 7.57709E-04-4.56633E-02 3.18150E-14-2.25216E-13
 -1      4147 1.84888E+01 9.76756E-01-1.02616E-03-6.08962E-01 1.32005E-14-1.35404E-13
 -1      4148 1.86446E+01 9.40439E-01-6.48613E-03-5.38523E-01-2.81976E-14-9.37870E-14
 -1      4149 2.02283E+01 1.65482E-02-1.95047E-05 6.39634E-02-7.18134E-15-1.45981E-13
 -1      4150 2.01966E+01 2.39417E-02 1.12243E-04 6.79446E-02-1.43591E-14-1.29341E-13
 -1      4151 2.02517E+01 2.01646E-02-7.02125E-05 3.58188E-02 4.28955E-14-1.48983E-13
 -1      4152 2.01607E+01 3.76287E-02-1.68908E-04 6.90343E-02-1.43363E-15-1.20433E-13
 -1      4153 2.01272E+01 5.71530E-02 1.59314E-04 7.33750E-02 3.97584E-14-7.41978E-14
 -1      4154 2.01835E+01 3.43360E-02 3.65582E-05 3.87160E-02-1.71735E-15-6.03554E-14
 -1      4155 2.00877E+01 8.17889E-02-4.27329E-04 7.49923E-02 1.09553E-14-7.65089E-14
 -1      4156 2.00515E+01 1.11731E-01 1.55907E-04 8.07850E-02-6.62717E-14-1.20781E-13
 -1      4157 2.01100E+01 7.41221E-02 1.89769E-04 4.18878E-02 1.87086E-14-1.17401E-13
 -1      4158 2.00077E+01 1.45226E-01-6.38059E-04 8.38433E-02-9.77345E-14-9.46634E-14
 -1      4159 1.99670E+01 1.83795E-01-1.62245E-05 9.15510E-02-8.16706E-14-1.40019E-13
 -1      4160 2.00293E+01 1.34612E-01 5.29807E-04 4.67490E-02-5.59783E-14-8.55423E-14
 -1      4161 1.99174E+01 2.25355E-01-8.04277E-04 9.61027E-02-1.02779E-13-1.55341E-13
 -1      4162 1.98696E+01 2.71257E-01-3.53818E-04 1.06168E-01-1.09235E-13-1.53329E-13
 -1      4163 1.99398E+01 2.12846E-01 1.21996E-03 5.36767E-02-1.12765E-13-1.01120E-13
 -1      4164 1.98108E+01 3.20562E-01-1.27142E-03 1.13536E-01-1.15406E-13-1.75021E-13
 -1      4165 1.97549E+01 3.73552E-01-3.62710E-04 1.27194E-01-1.19075E-13-1.09797E-13
 -1      4166 1.98334E+01 3.09791E-01 2.20371E-03 6.35431E-02-1.09211E-13-1.21622E-13
 -1      4167 1.96839E+01 4.28076E-01-1.78892E-03 1.36654E-01-7.78139E-14-4.84111E-14
 -1      4168 1.96162E+01 4.86803E-01-6.37665E-04 1.53951E-01 4.30602E-15 8.38781E-15
 -1      4169 1.97095E+01 4.18850E-01 3.50720E-03 7.60842E-02-4.17337E-14-4.11388E-14
 -1      4170 1.95296E+01 5.46110E-01-2.28626E-03 1.66518E-01 2.60707E-14 2.91151E-14
 -1      4171 1.94464E+01 6.08806E-01-9.48654E-04 1.88054E-01 7.78246E-14-3.42408E-14
 -1      4172 1.95582E+01 5.39943E-01 4.85949E-03 9.22167E-02 2.55008E-14 5.07987E-15
 -1      4173 1.93400E+01 6.70624E-01-2.92672E-03 2.04250E-01 3.30344E-14-4.18637E-14
 -1      4174 1.92375E+01 7.34788E-01-1.31720E-03 2.30758E-01 1.07714E-14-8.37849E-14
 -1      4175 1.93728E+01 6.69557E-01 6.50177E-03 1.12707E-01 5.36691E-15-9.57762E-14
 -1      4176 1.91059E+01 7.95935E-01-3.77483E-03 2.51390E-01 2.41476E-14-1.81844E-13
 -1      4177 1.89795E+01 8.57949E-01-1.74906E-03 2.84048E-01 4.29439E-14-2.71628E-13
 -1      4178 1.91440E+01 8.03039E-01 8.59312E-03 1.38286E-01-5.92748E-14-3.07376E-13
 -1      4179 1.88158E+01 9.13925E-01-4.96898E-03 3.10428E-01-1.97048E-15-3.15358E-13
 -1      4180 1.86598E+01 9.68892E-01-2.26205E-03 3.51403E-01-1.25910E-13-3.61104E-13
 -1      4181 1.88607E+01 9.33903E-01 1.13770E-02 1.70274E-01-4.02859E-14-5.25727E-13
 -1      4182 1.84543E+01 1.01371E+00-6.76886E-03 3.85749E-01-7.91957E-14-3.36435E-13
 -1      4183 1.82614E+01 1.05538E+00-2.94000E-03 4.39245E-01 3.17551E-14-3.48104E-13
 -1      4184 1.85077E+01 1.05377E+00 1.52454E-02 2.10971E-01-6.12916E-14-4.75743E-13
 -1      4185 1.79990E+01 1.08212E+00-9.58744E-03 4.85498E-01 6.25343E-14-3.12494E-13
 -1      4186 1.77608E+01 1.10333E+00-3.19826E-03 5.59601E-01 7.72331E-14-2.65725E-13
 -1      4187 1.80634E+01 1.15266E+00 2.07276E-02 2.64164E-01 6.32885E-14-2.96273E-13
 -1      4188 1.74150E+01 1.09794E+00-1.54888E-02 6.29317E-01 7.34213E-14-3.11444E-13
 -1      4189 1.71215E+01 1.08898E+00-3.66453E-03 7.37096E-01 3.28086E-14-2.92708E-13
 -1      4190 1.74866E+01 1.22239E+00 2.74105E-02 3.37330E-01 3.17775E-14-3.02183E-13
 -1      4191 1.66573E+01 1.05241E+00-1.87653E-02 8.34716E-01 1.16776E-14-2.75596E-13
 -1      4192 1.62764E+01 9.94957E-01-2.65745E-03 1.00626E+00 5.17190E-14-2.40569E-13
 -1      4193 1.67407E+01 1.23052E+00 3.48521E-02 4.63134E-01 2.41062E-14-3.47191E-13
 -1      4194 1.71959E+01 8.79298E-01 6.18009E-03-1.21282E+00-4.01350E-15-1.77983E-13
 -1      4195 1.74941E+01 9.41049E-01-1.20669E-02-1.04956E+00 7.82013E-14-2.33591E-13
 -1      4196 2.03475E+01 6.88682E-02 3.67210E-05 4.90851E-02 3.22672E-16-2.29285E-13
 -1      4197 2.03206E+01 4.17591E-02-5.47634E-06 5.68294E-02 4.24662E-14-1.98989E-13
 -1      4198 2.03141E+01 3.80376E-02-1.06252E-04 3.24367E-02 4.62759E-14-2.02825E-13
 -1      4199 2.04170E+01 7.13068E-01 4.85778E-04 7.18760E-04 2.63992E-14-3.07507E-13
 -1      4200 2.04245E+01 6.13753E-01-2.29656E-03-2.72386E-02-2.17168E-15-3.55252E-13
 -1      4201 2.04322E+01 4.17335E-01 5.51176E-04 7.77382E-03-3.42703E-14-3.39639E-13
 -1      4202 2.01439E+01 3.49767E-02-1.05197E-04-1.26109E-01 3.83682E-14-1.30028E-13
 -1      4203 2.01483E+01 2.18035E-02 3.51181E-04-1.47921E-01 7.16114E-14-1.98376E-13
 -1      4204 2.01717E+01 1.11082E-02-1.13996E-04-1.42257E-01 7.25986E-14-1.84410E-13
 -1      4205 1.91082E+01 7.97853E-01-9.51483E-04-3.89243E-01-1.31710E-13-7.03534E-14
 -1      4206 1.92154E+01 7.39440E-01-3.64847E-03-3.45759E-01-7.00845E-14-6.32188E-14
 -1      4207 1.53934E+01 1.09125E+00-9.58165E-03-1.79786E-01 7.58898E-14-2.37158E-13
 -1      4208 1.61234E+01 1.15131E+00-1.44464E-02-1.23596E-01 1.22344E-13-2.62449E-13
 -1      4209 1.75461E+01 9.66812E-01-5.29089E-03-1.01871E+00 4.26157E-14-3.04028E-13
 -1      4210 1.77687E+01 9.94644E-01-1.40392E-02-8.76612E-01-3.27272E-14-2.42096E-13
 -1      4211 1.80702E+01 1.00754E+00-9.56537E-04-7.76401E-01-1.68851E-14-2.39455E-13
 -1      4212 1.82559E+01 9.95300E-01-9.12204E-03-6.81086E-01 3.61540E-14-1.69982E-13
 -1      4213 1.82557E+01 1.08164E+00 1.63549E-02-4.67203E-01 4.79581E-14-1.90961E-13
 -1      4214 1.77557E+01 1.13266E+00 2.16127E-02-6.03553E-01-1.08132E-14-2.74028E-13
 -1      4215 1.65622E+01 1.14979E+00-2.43115E-02-1.60432E-01 1.07950E-13-3.78908E-13
 -1      4216 1.93356E+01 6.81738E-01-7.77989E-04-3.13908E-01-9.13344E-14-8.17888E-14
 -1      4217 1.94237E+01 6.21020E-01-2.81470E-03-2.78911E-01-5.22517E-14-3.70598E-14
 -1      4218 1.92291E+01 7.54538E-01 7.05680E-03-2.34202E-01-1.28626E-13-1.58895E-15
 -1      4219 1.99681E+01 1.79817E-01 5.16568E-04-2.00927E-01-4.36538E-15-2.25978E-13
 -1      4220 1.99959E+01 1.43445E-01-8.65417E-04-1.85783E-01-1.55899E-14-1.90837E-13
 -1      4221 2.00121E+01 1.38961E-01 6.52680E-04-1.53493E-01-1.87076E-14-2.58539E-13
 -1      4222 1.99332E+01 2.16374E-01 1.00955E-03-1.76586E-01-3.75452E-14-1.79148E-13
 -1      4223 1.79974E+01 1.00116E+00 3.35054E-03-9.37186E-01-5.04330E-14-3.25635E-13
 -1      4224 1.95212E+01 5.62412E-01-5.76676E-04-2.54130E-01 2.26187E-14-6.32400E-14
 -1      4225 1.95932E+01 5.03094E-01-2.17611E-03-2.26053E-01 4.99711E-15-2.84532E-14
 -1      4226 1.94386E+01 6.26410E-01 5.33564E-03-1.88744E-01-4.14140E-14-6.80101E-14
 -1      4227 1.64301E+01 5.58738E-01 1.69967E-02-1.80911E+00 1.81525E-13-2.43404E-13
 -1      4228 1.66762E+01 7.39859E-01-1.91846E-02-1.46330E+00 8.56296E-14-1.46330E-13
 -1      4229 1.66053E+01 9.78430E-01 1.19758E-02-1.01316E+00-3.56269E-15-8.55672E-14
 -1      4230 1.54986E+01 7.02851E-01 2.42012E-02-1.62206E+00 1.53518E-13-9.31033E-14
 -1      4231 1.54446E+01 9.05225E-01-2.32086E-02-8.46772E-01 7.73335E-14 5.37118E-14
 -1      4232 1.69514E+01 9.41738E-01-1.25387E-02-1.09991E+00 1.26220E-13-3.20802E-13
 -1      4233 2.03939E+01 1.61632E-01 3.78153E-05 3.49161E-02-4.23591E-14-2.75018E-13
 -1      4234 2.03727E+01 1.08964E-01-1.54605E-06 4.73310E-02-2.08613E-14-2.54921E-13
 -1      4235 2.03696E+01 9.63332E-02-3.37965E-04 2.65831E-02 1.97238E-15-2.30453E-13
 -1      4236 2.04067E+01 7.34149E-01-1.97551E-03 4.14646E-02 9.34254E-14-2.96807E-13
 -1      4237 2.04068E+01 7.45440E-01-3.34584E-03 1.36834E-02 4.23757E-14-2.86086E-13
 -1      4238 2.04432E+01 5.16254E-01 2.84633E-03 6.57696E-03 1.04211E-14-2.47287E-13
 -1      4239 2.04273E+01 5.83297E-01 2.70546E-03 2.93123E-02 7.61587E-14-3.08834E-13
 -1      4240 1.96727E+01 4.46876E-01-3.68637E-04-2.06950E-01-7.44886E-14-2.24813E-15
 -1      4241 1.97320E+01 3.91412E-01-1.63638E-03-1.84718E-01 4.62391E-15-2.99033E-14
 -1      4242 1.96089E+01 5.02064E-01 3.92916E-03-1.53188E-01 7.66490E-15-2.70982E-14
 -1      4243 1.88297E+01 9.00745E-01-1.05487E-03-4.84869E-01-7.19985E-14-8.07372E-14
 -1      4244 1.89595E+01 8.49870E-01-4.80071E-03-4.30270E-01-8.47445E-14-1.01102E-13
 -1      4245 1.86521E+01 9.92580E-01 1.22406E-02-3.67422E-01-2.25218E-14-8.74208E-14
 -1      4246 2.03889E+01 5.14491E-01-1.07645E-03 3.24609E-02 1.10501E-13-2.89172E-13
 -1      4247 2.04083E+01 4.92799E-01 7.75938E-04 1.79396E-02 8.76325E-14-3.08688E-13
 -1      4248 1.69056E+01 1.13407E+00 2.27176E-02-7.24090E-01 1.15393E-13-2.85215E-13
 -1      4249 2.04105E+01 2.32406E-01-1.15486E-04-2.75983E-02 2.09732E-14-2.50331E-13
 -1      4250 2.04023E+01 2.51584E-01-1.18865E-03-3.68492E-02 3.94320E-14-2.20205E-13
 -1      4251 2.04170E+01 3.43549E-01 4.68513E-04-1.21624E-02 5.40970E-14-2.57182E-13
 -1      4252 1.56732E+01 1.12414E+00 1.32400E-02 6.42520E-01 9.28574E-14-1.20532E-13
 -1      4253 1.56486E+01 9.19589E-01-1.25963E-02 1.16728E+00 1.75615E-14-1.75591E-13
 -1      4254 1.53490E+01 7.55430E-01 1.44611E-02 1.50478E+00-5.69961E-14-2.36123E-13
 -1      4255 2.01369E+01 4.56700E-02 6.97801E-05-9.99213E-02 3.22621E-14-1.98359E-13
 -1      4256 2.01677E+01 2.89998E-02-2.03767E-04-9.46730E-02 7.78970E-14-2.00079E-13
 -1      4257 1.89710E+01 8.79658E-01 9.26948E-03-2.92269E-01-1.03787E-13 5.50916E-14
 -1      4258 2.04233E+01 3.14598E-01-1.00134E-03 1.18011E-02-5.93827E-14-3.17867E-13
 -1      4259 2.04107E+01 2.30284E-01-4.35696E-04 3.08287E-02-6.64802E-14-3.02398E-13
 -1      4260 1.97972E+01 3.39841E-01-1.44751E-04-1.70206E-01 2.86613E-14-6.18491E-14
 -1      4261 1.98451E+01 2.89790E-01-1.53373E-03-1.52327E-01-3.59647E-14-8.86299E-14
 -1      4262 1.97477E+01 3.86060E-01 2.53506E-03-1.25856E-01-1.89655E-14 3.75812E-15
 -1      4263 1.71740E+01 1.16252E+00-1.35175E-02-1.76100E-01 2.95874E-14-3.53680E-13
 -1      4264 1.77023E+01 1.03796E+00-4.09358E-03 7.94584E-01-1.52458E-13-2.42390E-13
 -1      4265 1.79019E+01 9.59358E-01-2.45225E-03 1.02608E+00-1.42267E-13-3.61205E-13
 -1      4266 1.75360E+01 8.22035E-01 4.58122E-03 1.29642E+00-4.06142E-16-3.17192E-13
 -1      4267 1.73248E+01 1.05041E+00 3.33790E-03 7.28971E-01-1.10995E-13-1.54733E-13
 -1      4268 1.68321E+01 4.13402E-01 6.95068E-03 1.96965E+00 6.03111E-14-1.57079E-14
 -1      4269 1.62781E+01 6.52109E-01 2.87301E-02 1.74076E+00-5.82221E-14-2.42419E-13
 -1      4270 1.69210E+01 5.52383E-01-1.80397E-02 1.74756E+00-4.71246E-14-1.47805E-13
 -1      4271 1.72972E+01 7.53052E-01-1.24203E-02 1.41803E+00 1.87648E-14-2.99498E-13
 -1      4272 1.71712E+01 6.58874E-01 3.99071E-03 1.59506E+00-3.01495E-14-1.98478E-13
 -1      4273 1.67678E+01 8.28555E-01 1.82981E-02 1.37204E+00 1.16517E-14-2.99324E-13
 -1      4274 1.71810E+01 9.21005E-01 8.91924E-03 1.13183E+00 4.78350E-14-1.26722E-13
 -1      4275 1.56805E+01 1.08475E+00 2.69643E-02-2.95395E-01 8.14407E-14 8.02312E-14
 -1      4276 1.61477E+01 1.00331E+00 2.48975E-03-6.94854E-01 9.06247E-15 1.41640E-14
 -1      4277 1.66537E+01 1.06531E+00-8.72192E-03-5.00923E-01 1.03376E-13 1.53470E-13
 -1      4278 1.59253E+01 1.05472E+00-9.49506E-03 2.49684E-01 7.50291E-14 6.23373E-15
 -1      4279 2.04117E+01 2.07925E-01-2.27239E-04 1.73423E-02-2.97905E-14-2.67031E-13
 -1      4280 1.60351E+01 8.38897E-01-1.86240E-02 1.13711E+00 2.43208E-14-4.07678E-13
 -1      4281 1.44005E+01 9.78185E-01 3.78858E-02 8.58628E-01-9.84466E-15 7.66011E-14
 -1      4282 1.48399E+01 1.05379E+00 6.15042E-03 3.14142E-01 4.59359E-14-2.91109E-14
 -1      4283 2.02013E+01 6.39178E-03 2.37361E-04-1.38913E-01 5.82831E-14-1.85858E-13
 -1      4284 2.02249E+01 8.09523E-03 1.30054E-04-1.32764E-01 1.30823E-14-1.88593E-13
 -1      4285 2.02605E+01 1.90480E-02-1.82553E-04-1.08089E-01 2.13633E-15-1.64753E-13
 -1      4286 2.02037E+01 1.37275E-02-1.75333E-04-1.17453E-01 5.87428E-14-1.91138E-13
 -1      4287 2.04195E+01 4.62301E-01-7.79148E-04 3.82006E-03 6.06028E-14-2.77757E-13
 -1      4288 2.03195E+01 4.76093E-02 2.34308E-05-7.67653E-02-2.21793E-15-1.57289E-13
 -1      4289 2.03461E+01 7.84888E-02 5.15339E-04-6.66486E-02 3.49735E-14-1.46281E-13
 -1      4290 2.03711E+01 1.10164E-01-5.35568E-04-4.46732E-02 3.50716E-15-1.83531E-13
 -1      4291 2.00662E+01 9.46373E-02-9.89175E-05-1.09404E-01-4.59226E-14-2.53604E-13
 -1      4292 2.01000E+01 6.79489E-02-2.51820E-04-1.02266E-01-3.04132E-14-2.21158E-13
 -1      4293 2.01228E+01 6.02512E-02-2.63627E-04-7.09956E-02 2.36855E-14-2.62309E-13
 -1      4294 1.75908E+01 1.08173E+00 5.64007E-03-7.06730E-01-8.08414E-14-2.82572E-13
 -1      4295 2.04358E+01 3.80367E-01 6.41007E-04 2.89451E-03-1.28926E-14-2.82244E-13
 -1      4296 1.70769E+01 1.10273E+00 2.46869E-03 5.07579E-01-1.57339E-13-2.69574E-13
 -1      4297 1.70703E+01 1.01721E+00-6.90872E-03 7.95485E-01-3.53551E-14-3.11509E-13
 -1      4298 1.68673E+01 9.73041E-01-5.00409E-03 8.99502E-01-3.67006E-14-4.44267E-13
 -1      4299 2.02033E+01 2.62366E-02 1.10484E-05 6.56483E-03 1.20320E-14-1.45687E-13
 -1      4300 2.01677E+01 3.97695E-02-6.11849E-05 8.70009E-03 1.99433E-14-1.10520E-13
 -1      4301 2.01183E+01 6.68168E-02-3.81990E-05-1.64419E-02 2.98663E-14-1.42481E-13
 -1      4302 2.00793E+01 9.34399E-02 3.65131E-05-1.49657E-02 3.19320E-14-1.46881E-13
 -1      4303 1.99587E+01 1.89416E-01-9.88464E-04 8.68390E-03-8.26599E-14-1.35238E-13
 -1      4304 1.99086E+01 2.32925E-01-9.91317E-04 1.29712E-02-1.10733E-13-7.50391E-14
 -1      4305 1.98421E+01 2.92584E-01-7.28072E-04-2.60464E-02-1.02568E-13-5.86573E-14
 -1      4306 1.97812E+01 3.43250E-01-1.48352E-03-2.35441E-02-8.61857E-14-8.54403E-14
 -1      4307 1.97150E+01 3.96765E-01-2.22826E-03-3.24063E-02-3.34629E-14-2.96788E-14
 -1      4308 1.96431E+01 4.54962E-01-2.30631E-03-2.89412E-02 1.77407E-14-3.00221E-14
 -1      4309 1.95627E+01 5.13157E-01-3.25432E-03-4.05521E-02 5.01877E-15-6.83379E-14
 -1      4310 1.94754E+01 5.76529E-01-3.23561E-03-3.61827E-02-2.30557E-15-8.08981E-14
 -1      4311 1.93768E+01 6.37804E-01-4.36160E-03-5.10493E-02-6.36784E-14-7.37877E-14
 -1      4312 1.92692E+01 7.04163E-01-4.38844E-03-4.58435E-02-9.52426E-14-1.55549E-13
 -1      4313 1.91475E+01 7.65684E-01-5.74999E-03-6.47152E-02-1.35626E-13-1.51408E-13
 -1      4314 1.90143E+01 8.32023E-01-5.90534E-03-5.85490E-02-1.21332E-13-2.12265E-13
 -1      4315 1.88635E+01 8.89793E-01-7.58300E-03-8.27138E-02-7.99990E-14-1.91447E-13
 -1      4316 1.86973E+01 9.52048E-01-7.98383E-03-7.53014E-02-5.09519E-14-2.66667E-13
 -1      4317 1.85096E+01 1.00075E+00-1.01065E-02-1.06927E-01 1.06856E-14-2.46197E-13
 -1      4318 1.83005E+01 1.05382E+00-1.09070E-02-9.77404E-02 5.52274E-14-1.96029E-13
 -1      4319 1.80647E+01 1.08691E+00-1.35910E-02-1.40329E-01 2.29296E-14-2.18441E-13
 -1      4320 1.77988E+01 1.12517E+00-1.47025E-02-1.29122E-01-2.57823E-16-2.49141E-13
 -1      4321 1.74998E+01 1.13267E+00-1.84503E-02-1.87947E-01 2.75045E-14-2.85913E-13
 -1      4322 2.03336E+01 4.57918E-02-1.53938E-05 5.52844E-03 2.28556E-14-1.87332E-13
 -1      4323 2.03028E+01 2.73195E-02-1.72767E-05 7.54658E-03 5.58660E-14-1.91974E-13
 -1      4324 1.48081E+01 8.70879E-01 1.08390E-02 1.25728E+00-1.32088E-14-9.16862E-14
 -1      4325 2.01933E+01 2.75857E-02 5.04479E-05-6.54528E-02 7.67243E-14-2.22158E-13
 -1      4326 2.02023E+01 1.79394E-02 1.90254E-04-9.27229E-02 7.87848E-14-1.97780E-13
 -1      4327 2.02315E+01 1.33452E-02-7.02650E-05-8.80170E-02 3.79795E-14-2.12478E-13
 -1      4328 2.04295E+01 4.30623E-01 7.98172E-04-9.66371E-04 3.19104E-14-2.34859E-13
 -1      4329 2.04346E+01 3.88861E-01-1.52512E-03-5.64897E-03-1.79249E-15-2.29199E-13
 -1      4330 2.02711E+01 1.90676E-02 6.10465E-05 5.89626E-03 7.22554E-14-2.03884E-13
 -1      4331 2.02378E+01 1.88503E-02-3.08174E-05 7.97458E-03 5.38480E-14-2.09961E-13
 -1      4332 2.02197E+01 2.39262E-02-7.62203E-05-2.26414E-02 6.67308E-14-2.07112E-13
 -1      4333 2.02860E+01 2.51970E-02-9.89358E-06-2.08474E-02 6.01586E-14-1.80710E-13
 -1      4334 1.64464E+01 9.07787E-01-2.07791E-03 1.04611E+00-2.50746E-14-4.46167E-13
 -1      4335 1.61150E+01 1.04680E+00 2.16788E-02 6.46822E-01 4.72351E-14-4.33190E-13
 -1      4336 1.63221E+01 1.07509E+00-8.91542E-03 2.08052E-01 9.94510E-14-1.09650E-13
 -1      4337 1.66633E+01 9.51957E-01-1.12634E-02 9.25362E-01 3.62460E-15-5.19717E-13
 -1      4338 2.03770E+01 1.01870E-01-1.27691E-04-1.18018E-02-1.43232E-14-1.89538E-13
 -1      4339 2.03511E+01 6.46176E-02 4.66482E-04-9.13121E-03 7.09676E-15-1.85140E-13
 -1      4340 2.04173E+01 2.17960E-01-4.00737E-04-9.54130E-03-6.56631E-15-2.27505E-13
 -1      4341 2.04005E+01 1.51811E-01 7.14917E-04-4.92351E-03-8.43133E-15-2.00864E-13
 -1      4342 2.04321E+01 3.01236E-01 1.16017E-03-9.13712E-04 2.31683E-15-2.33355E-13
 -1      4343 1.68067E+01 1.12404E+00 4.41141E-03-2.94576E-01-5.42724E-14 1.30504E-13
 -1      4344 1.67809E+01 1.12258E+00-1.59725E-03 1.50367E-01-4.38777E-14 6.83478E-14
 -1      4345 1.55107E+01 1.16217E+00 2.65333E-02 2.52761E-01 1.28720E-13-1.63993E-13
 -1      4346 2.03336E+01 4.95034E-02-4.21526E-04-3.60491E-02 1.09589E-14-1.35677E-13
 -1      4347 2.00529E+01 1.14240E-01 5.55309E-04-6.55523E-02 1.44231E-14-2.32543E-13
 -1      4348 2.00435E+01 1.20213E-01-4.89403E-04-5.15097E-03 8.28520E-15-1.45502E-13
 -1      4349 2.00008E+01 1.56090E-01-4.71006E-05-3.34057E-03-7.38316E-15-1.14234E-13
 -1      4350 2.00312E+01 1.22938E-01-4.76246E-04-1.00652E-01-2.85099E-14-2.55060E-13
 -1      4351 1.98737E+01 2.71534E-01 1.34111E-03-7.17986E-02-1.01720E-13-9.37146E-14
 -1      4352 1.99933E+01 1.57387E-01-4.79327E-04-1.09725E-01-2.00824E-14-2.60786E-13
 -1      4353 1.99783E+01 1.78671E-01 1.02462E-03-4.53080E-02-6.57561E-14-1.85019E-13
 -1      4354 1.71799E+01 1.08976E+00-2.20994E-03-5.87504E-01-1.15150E-13-4.18149E-14
 -1      4355 1.99102E+01 2.35759E-01 4.23674E-05-1.11012E-01-1.04076E-13-1.72231E-13
 -1      4356 1.99526E+01 1.92685E-01-7.09259E-04-9.97759E-02-6.35453E-14-2.17254E-13
 -1      4357 2.01729E+01 3.63889E-02 4.27337E-04-4.56838E-02 9.52661E-14-1.92034E-13
 -1      4358 2.02067E+01 2.29596E-02-3.18977E-04-4.34268E-02 8.95951E-14-1.97723E-13
 -1      4359 2.02863E+01 2.45686E-02-1.77995E-05-8.41337E-02 1.20134E-14-1.54797E-13
 -1      4360 2.03138E+01 4.12825E-02-1.13650E-04-5.81926E-02 1.44801E-14-1.44400E-13
 -1      4361 2.03004E+01 2.75277E-02 2.49153E-04-4.36301E-02 3.23624E-14-1.47518E-13
 -1      4362 2.02585E+01 1.48786E-02 1.36336E-04-9.02294E-02 2.52971E-14-1.80036E-13
 -1      4363 1.65407E+01 1.10514E+00 2.57806E-03 2.08524E-01 9.04186E-14-9.37565E-14
 -1      4364 2.02540E+01 1.82277E-02-5.02589E-05-6.49225E-02 5.26151E-14-1.86749E-13
 -1      4365 1.66712E+01 1.08549E+00 1.45900E-02 5.78412E-01 3.24218E-14-5.97218E-13
 -1      4366 2.01360E+01 5.69810E-02 3.47017E-05-4.78106E-02 3.50054E-14-2.11745E-13
 -1      4367 2.02416E+01 1.75643E-02 2.33081E-04-4.29308E-02 8.92554E-14-2.24751E-13
 -1      4368 2.02684E+01 1.80469E-02-2.42304E-04-4.39967E-02 6.78098E-14-1.75884E-13
 -3
    1PSTEP                         3           1           1          
  100CL  101 1.000000000        4368                     0    1           1
 -4  TOSTRAIN    6    1
 -5  EXX         1    4    1    1
 -5  EYY         1    4    2    2
 -5  EZZ         1    4    3    3
 -5  EXY         1    4    1    2
 -5  EYZ         1    4    2    3
 -5  EZX         1    4    3    1
 -1         1 3.49636E-05 2.75344E-05-2.74013E-05 5.76135E-05-1.50010E-17-1.39066E-17
 -1         2 3.63179E-05-1.10812E-04 2.00030E-05-1.77814E-07 1.58113E-18 3.54854E-19
 -1         3 9.51465E-05-2.86680E-05-2.83731E-05-8.85355E-08-2.79046E-18-2.73957E-18
 -1         4 9.51457E-05-2.86656E-05-2.83675E-05 8.23097E-08 6.01307E-19 5.86211E-19
 -1         5 1.43314E-04-2.14748E-05-4.25163E-05 3.85282E-05-3.36749E-19 2.54266E-17
 -1         6 1.45379E-04 2.57481E-10-4.41753E-05-5.35225E-05-1.55896E-18 2.20834E-17
 -1         7 9.05798E-05-5.09957E-07-3.90574E-05-2.92584E-05-2.06994E-19 2.74163E-18
 -1         8 8.51057E-05 8.67621E-08-3.63312E-05-2.02839E-05-2.67292E-19-2.88462E-18
 -1         9 8.28065E-05 7.60609E-08-3.53472E-05-1.56545E-05-2.05379E-19-5.79658E-18
 -1        10 8.17721E-05 3.95744E-08-3.48817E-05-1.20930E-05-1.34248E-19-7.10555E-18
 -1        11 8.12627E-05 1.90762E-08-3.46568E-05-9.02716E-06-8.37769E-20-7.55634E-18
 -1        12 8.10004E-05 8.86413E-09-3.45451E-05-6.29418E-06-1.86149E-20-7.63727E-18
 -1        13 8.08635E-05 4.29196E-09-3.44894E-05-3.69156E-06-1.67670E-21-7.51854E-18
 -1        14 8.08066E-05 2.43711E-09-3.44668E-05-1.18564E-06 4.91817E-20-7.39867E-18
 -1        15 8.08087E-05 2.42200E-09-3.44675E-05 1.29105E-06 7.66317E-20-7.13260E-18
 -1        16 8.08698E-05 4.22496E-09-3.44916E-05 3.80212E-06 1.06323E-19-6.90354E-18
 -1        17 8.10117E-05 8.14385E-09-3.45488E-05 6.41670E-06 1.52921E-19-6.48115E-18
 -1        18 8.12798E-05 1.79644E-08-3.46618E-05 9.16863E-06 1.85748E-19-5.78404E-18
 -1        19 8.17977E-05 3.80841E-08-3.48900E-05 1.22726E-05 2.54527E-19-4.62061E-18
 -1        20 8.28266E-05 8.15693E-08-3.53596E-05 1.58853E-05 3.03780E-19-2.50650E-18
 -1        21 8.50708E-05 1.69792E-07-3.63696E-05 2.04946E-05 3.43657E-19 1.38406E-18
 -1        22 9.16179E-05-9.86981E-08-3.87290E-05 2.80054E-05 4.18223E-20 9.03422E-18
 -1        23 1.12936E-04-3.81132E-05-3.53852E-05-4.40457E-06-1.07478E-18 1.66870E-17
 -1        24 9.27598E-05-2.76836E-05-2.89858E-05 3.90708E-07-2.40455E-19 1.19190E-17
 -1        25 8.90666E-05-2.68363E-05-2.69135E-05 3.75402E-07-1.34769E-19 7.22839E-18
 -1        26 8.79555E-05-2.64703E-05-2.63737E-05 2.03690E-07-1.26336E-19 3.95617E-18
 -1        27 8.79742E-05-2.64464E-05-2.63633E-05 1.39288E-07-9.78592E-20 1.78879E-18
 -1        28 8.84998E-05-2.65805E-05-2.65305E-05 1.00030E-07-5.53948E-20 3.32692E-19
 -1        29 8.92473E-05-2.67910E-05-2.67609E-05 7.41236E-08 1.34981E-20-3.57617E-19
 -1        30 9.00677E-05-2.70296E-05-2.70098E-05 5.55910E-08-3.84854E-20-1.34946E-18
 -1        31 9.08789E-05-2.72687E-05-2.72546E-05 4.15881E-08-5.20405E-20-3.07504E-18
 -1        32 9.16382E-05-2.74941E-05-2.74836E-05 3.07030E-08-2.67057E-21-4.46555E-18
 -1        33 9.23282E-05-2.76998E-05-2.76919E-05 2.21692E-08 1.93342E-19-4.90864E-18
 -1        34 9.29488E-05-2.78855E-05-2.78795E-05 1.55326E-08-1.41857E-19-5.07681E-18
 -1        35 9.35126E-05-2.80547E-05-2.80502E-05 1.05149E-08 1.51811E-19-5.07407E-18
 -1        36 9.40415E-05-2.82139E-05-2.82106E-05 6.96078E-09 4.52254E-21-4.74346E-18
 -1        37 9.45657E-05-2.83720E-05-2.83698E-05 4.82141E-09-8.48766E-20-5.03374E-18
 -1        38 9.51227E-05-2.85402E-05-2.85392E-05 4.15672E-09-5.14179E-20-5.39300E-18
 -1        39 9.57572E-05-2.87318E-05-2.87321E-05 5.14819E-09-3.18565E-19-5.56247E-18
 -1        40 9.65210E-05-2.89623E-05-2.89643E-05 8.11609E-09 6.02818E-20-6.57069E-18
 -1        41 9.74733E-05-2.92493E-05-2.92536E-05 1.35345E-08 2.73411E-19-8.04484E-18
 -1        42 9.86788E-05-2.96121E-05-2.96193E-05 2.20294E-08-5.44130E-20-7.56703E-18
 -1        43 1.00205E-04-3.00704E-05-3.00814E-05 3.43283E-08-3.24835E-19-6.39963E-18
 -1        44 1.02114E-04-3.06425E-05-3.06580E-05 5.10956E-08 2.13168E-19-5.87538E-18
 -1        45 1.04447E-04-3.13406E-05-3.13604E-05 7.25284E-08-3.81508E-19-6.18046E-18
 -1        46 1.07203E-04-3.21629E-05-3.21849E-05 9.75018E-08 9.65008E-20-7.71529E-18
 -1        47 1.10289E-04-3.30821E-05-3.30999E-05 1.21985E-07-9.73118E-20-7.68195E-18
 -1        48 1.13466E-04-3.40267E-05-3.40275E-05 1.36554E-07 1.05675E-19-6.23206E-18
 -1        49 1.16278E-04-3.48617E-05-3.48243E-05 1.23560E-07-1.67208E-19-6.08616E-18
 -1        50 1.17998E-04-3.53727E-05-3.52725E-05 5.66038E-08-1.50491E-19-8.68703E-18
 -1        51 1.17682E-04-3.52805E-05-3.51048E-05-9.15137E-08 4.40621E-19-6.81349E-18
 -1        52 1.14427E-04-3.43155E-05-3.40914E-05-3.24542E-07-5.58977E-19-5.73882E-18
 -1        53 1.07926E-04-3.23805E-05-3.22001E-05-5.83670E-07 6.57112E-20-5.83706E-18
 -1        54 9.91666E-05-2.97617E-05-2.97578E-05-7.28466E-07 1.26790E-19-3.68878E-18
 -1        55 9.07049E-05-2.72210E-05-2.74712E-05-6.02452E-07 1.74717E-20-2.06856E-18
 -1        56 8.58199E-05-2.57499E-05-2.61753E-05-1.84027E-07-2.92723E-20-2.35211E-18
 -1        57 8.66681E-05-2.60055E-05-2.63961E-05 3.33230E-07 3.16446E-19-3.42679E-18
 -1        58 9.28195E-05-2.78566E-05-2.80291E-05 6.73219E-07 8.09909E-20-4.97817E-18
 -1        59 1.01559E-04-3.04770E-05-3.04061E-05 7.04750E-07-2.43544E-19-5.80861E-18
 -1        60 1.09652E-04-3.28929E-05-3.26857E-05 5.06138E-07-1.45210E-19-5.17691E-18
 -1        61 1.14981E-04-3.44764E-05-3.42590E-05 2.41837E-07 5.44682E-19-3.42017E-18
 -1        62 1.17001E-04-3.50734E-05-3.49176E-05 2.94150E-08-5.18488E-19-4.54872E-18
 -1        63 1.16264E-04-3.48526E-05-3.47705E-05-9.52071E-08-1.40224E-20-5.68811E-18
 -1        64 1.13727E-04-3.40984E-05-3.40710E-05-1.46637E-07-3.49165E-19-5.43976E-18
 -1        65 1.10285E-04-3.30757E-05-3.30784E-05-1.53614E-07-6.39850E-19-5.21117E-18
 -1        66 1.06595E-04-3.19782E-05-3.19932E-05-1.39851E-07 8.70359E-19-4.96046E-18
 -1        67 1.03076E-04-3.09300E-05-3.09488E-05-1.19192E-07 5.51760E-19-1.68574E-18
 -1        68 9.99832E-05-3.00069E-05-3.00300E-05-9.63934E-08-6.59734E-20 3.93371E-19
 -1        69 9.74984E-05-2.92626E-05-2.92973E-05-6.76633E-08 2.72282E-19-1.75459E-18
 -1        70 9.58071E-05-2.87498E-05-2.88001E-05-1.24284E-08-4.42133E-19 6.61139E-19
 -1        71 9.50997E-05-2.85156E-05-2.85476E-05 6.56763E-08 2.31106E-19 2.47113E-18
 -1        72 1.02141E-04-3.05760E-05-3.41383E-05-1.92738E-06 2.80977E-19 2.35282E-17
 -1        73 9.25158E-05-2.74995E-05-2.88940E-05-3.32830E-07 2.04046E-19 1.84033E-17
 -1        74 8.90542E-05-2.66858E-05-2.69567E-05-1.25610E-07 1.33895E-19 1.43742E-17
 -1        75 8.79854E-05-2.64212E-05-2.64176E-05-9.51860E-08 7.27026E-20 1.15631E-17
 -1        76 8.80083E-05-2.64262E-05-2.63899E-05-7.60258E-08-2.93322E-20 9.65056E-18
 -1        77 8.85330E-05-2.65746E-05-2.65474E-05-6.17292E-08 1.62171E-20 8.16650E-18
 -1        78 8.92779E-05-2.67921E-05-2.67731E-05-5.06408E-08 7.30145E-20 7.13235E-18
 -1        79 9.00948E-05-2.70338E-05-2.70190E-05-4.13754E-08 9.83209E-20 5.95050E-18
 -1        80 9.09021E-05-2.72742E-05-2.72617E-05-3.32685E-08-1.39589E-19 4.98990E-18
 -1        81 9.16575E-05-2.74998E-05-2.74890E-05-2.60536E-08 1.17086E-19 4.05424E-18
 -1        82 9.23438E-05-2.77052E-05-2.76960E-05-1.96152E-08 1.62080E-20 3.19130E-18
 -1        83 9.29610E-05-2.78901E-05-2.78825E-05-1.38903E-08 1.91854E-19 2.87922E-18
 -1        84 9.35216E-05-2.80583E-05-2.80524E-05-8.83820E-09 2.05648E-20 1.62908E-18
 -1        85 9.40477E-05-2.82163E-05-2.82122E-05-4.43988E-09-3.19471E-21 1.53990E-18
 -1        86 9.45693E-05-2.83731E-05-2.83710E-05-7.11255E-10-2.91038E-19 1.22821E-18
 -1        87 9.51239E-05-2.85398E-05-2.85400E-05 2.27301E-09 1.47078E-19 1.99828E-18
 -1        88 9.57557E-05-2.87297E-05-2.87326E-05 4.34559E-09-3.19946E-19 2.12169E-18
 -1        89 9.65161E-05-2.89581E-05-2.89643E-05 5.20115E-09 1.58070E-19 2.08729E-18
 -1        90 9.74632E-05-2.92424E-05-2.92525E-05 4.33909E-09-5.57410E-20 5.32840E-19
 -1        91 9.86602E-05-2.96012E-05-2.96161E-05 9.95507E-10 2.01685E-19 3.35681E-19
 -1        92 1.00172E-04-3.00537E-05-3.00742E-05-5.92213E-09-4.89784E-20 8.54660E-19
 -1        93 1.02056E-04-3.06170E-05-3.06436E-05-1.78521E-08-3.10082E-19 2.21889E-18
 -1        94 1.04349E-04-3.13016E-05-3.13334E-05-3.64367E-08 3.24478E-19-1.92806E-19
 -1        95 1.07039E-04-3.21040E-05-3.21374E-05-6.29891E-08 5.81172E-20-2.23331E-18
 -1        96 1.10026E-04-3.29943E-05-3.30206E-05-9.71646E-08-8.14301E-20-8.88054E-19
 -1        97 1.13061E-04-3.38998E-05-3.39021E-05-1.34304E-07 2.21672E-20-1.54357E-18
 -1        98 1.15682E-04-3.46859E-05-3.46376E-05-1.61255E-07-3.94322E-19-1.60261E-18
 -1        99 1.17176E-04-3.51437E-05-3.50135E-05-1.52217E-07-2.22734E-19-1.85732E-18
 -1       100 1.16635E-04-3.50047E-05-3.47758E-05-7.05595E-08 2.10172E-19-9.06729E-19
 -1       101 1.13228E-04-3.40149E-05-3.37185E-05 1.12236E-07-1.56418E-19-1.87546E-18
 -1       102 1.06732E-04-3.20895E-05-3.18349E-05 3.74940E-07 1.24407E-19-2.64208E-18
 -1       103 9.81781E-05-2.95110E-05-2.94627E-05 6.09379E-07-2.59263E-20-1.75961E-18
 -1       104 9.00544E-05-2.70170E-05-2.72856E-05 6.48946E-07 1.03745E-20 1.16777E-18
 -1       105 8.54736E-05-2.55723E-05-2.60901E-05 3.99455E-07 2.85887E-19 1.26938E-18
 -1       106 8.64346E-05-2.58289E-05-2.63496E-05-4.01562E-08-4.02571E-19 2.09729E-18
 -1       107 9.24721E-05-2.76660E-05-2.79471E-05-4.30316E-07-2.01705E-19 1.83081E-18
 -1       108 1.00972E-04-3.02700E-05-3.02425E-05-5.92082E-07 6.67092E-19-1.54385E-18
 -1       109 1.08852E-04-3.26765E-05-3.24425E-05-5.22834E-07 1.99291E-19-1.84730E-18
 -1       110 1.14085E-04-3.42622E-05-3.39742E-05-3.36416E-07-2.42396E-19-2.42740E-18
 -1       111 1.16138E-04-3.48736E-05-3.46368E-05-1.45647E-07 3.39424E-19-7.75756E-19
 -1       112 1.15519E-04-3.46762E-05-3.45266E-05-6.71982E-09-5.58989E-19 1.24807E-18
 -1       113 1.13133E-04-3.39501E-05-3.38781E-05 7.28727E-08 3.09796E-19 1.02147E-18
 -1       114 1.09838E-04-3.29559E-05-3.29362E-05 1.08174E-07-4.84735E-19-2.84533E-18
 -1       115 1.06273E-04-3.18844E-05-3.18939E-05 1.17575E-07 1.95820E-19-3.18247E-18
 -1       116 1.02851E-04-3.08580E-05-3.08826E-05 1.14845E-07 3.27213E-19-2.52657E-18
 -1       117 9.98305E-05-2.99521E-05-2.99887E-05 1.07505E-07-9.01985E-20-5.31314E-18
 -1       118 9.74005E-05-2.92209E-05-2.92749E-05 9.52882E-08-1.67600E-19-3.05954E-18
 -1       119 9.57576E-05-2.87226E-05-2.87926E-05 6.04715E-08 2.84633E-21-5.17571E-18
 -1       120 9.51062E-05-2.85011E-05-2.85493E-05-3.73370E-08 1.45803E-18-7.48018E-18
 -1       121 9.52623E-05-2.86477E-05-2.85567E-05-6.92688E-08-8.39897E-18-8.01964E-19
 -1       122 9.50553E-05-2.79809E-05-2.88051E-05 2.95285E-08-5.41703E-18-3.77363E-19
 -1       123 9.45820E-05-2.63986E-05-2.92608E-05 8.35257E-08-3.12080E-18 8.22408E-20
 -1       124 9.39550E-05-2.42993E-05-2.98637E-05 1.02874E-07-5.09286E-18-5.13222E-20
 -1       125 9.32906E-05-2.20677E-05-3.05107E-05 1.00155E-07-4.47284E-18 3.15685E-19
 -1       126 9.26991E-05-2.00749E-05-3.10918E-05 8.37432E-08-1.61404E-18 1.51008E-18
 -1       127 9.22429E-05-1.85404E-05-3.15401E-05 5.53787E-08 2.87660E-19-8.85451E-20
 -1       128 9.19966E-05-1.77109E-05-3.17825E-05 1.97235E-08-1.39947E-18 9.74880E-19
 -1       129 9.19934E-05-1.77003E-05-3.17855E-05-1.86210E-08-4.36184E-18 3.65106E-19
 -1       130 9.22347E-05-1.85122E-05-3.15480E-05-5.46469E-08-1.06078E-18 1.14677E-19
 -1       131 9.26877E-05-2.00378E-05-3.11021E-05-8.45491E-08-3.52903E-18-9.22769E-19
 -1       132 9.32812E-05-2.20344E-05-3.05201E-05-1.01199E-07-1.28686E-18 1.49861E-18
 -1       133 9.39499E-05-2.42810E-05-2.98689E-05-1.04123E-07 4.04363E-18-7.01717E-19
 -1       134 9.45798E-05-2.64017E-05-2.92616E-05-9.22286E-08 3.70124E-18 2.54758E-19
 -1       135 9.50542E-05-2.79695E-05-2.88029E-05-4.34614E-08 7.28041E-19-5.97610E-19
 -1       136 9.52231E-05-2.86173E-05-2.85507E-05 1.29794E-07-3.28018E-18-2.59976E-19
 -1       137 2.59840E-05-8.79190E-05 1.56417E-05-2.35181E-05 5.80874E-18 1.61564E-18
 -1       138 8.27397E-06-3.58606E-05 3.67192E-06-1.89350E-05 6.98294E-18 2.81787E-18
 -1       139 1.04860E-05 1.35207E-05-1.41341E-05 2.12665E-05 2.57540E-18 2.28868E-18
 -1       140 6.24018E-05 2.65316E-05-3.65352E-05 8.13373E-05-1.42302E-19-3.26955E-19
 -1       141 1.60114E-04-1.01642E-05-5.72386E-05 1.13175E-04 6.34428E-19 1.99265E-18
 -1       142 2.65420E-04-6.83048E-05-7.32488E-05 8.35412E-05 1.49660E-19-4.20764E-19
 -1       143 3.08502E-04-9.54018E-05-7.86365E-05 7.86616E-06-6.02743E-19-4.84683E-18
 -1       144 2.77939E-04-7.65559E-05-7.46801E-05-7.06235E-05 2.21232E-18-9.29619E-18
 -1       145 1.92371E-04-2.67264E-05-6.26490E-05-1.11766E-04 6.25809E-18-1.49963E-17
 -1       146 8.92910E-05 1.90395E-05-4.31016E-05-9.54454E-05 1.15760E-17-1.47354E-17
 -1       147 2.40376E-05 2.41330E-05-2.25614E-05-4.43223E-05 1.44843E-17-1.37829E-17
 -1       148 4.90998E-06-1.29451E-05-3.04788E-06 6.36972E-06 1.47113E-17-8.25222E-18
 -1       149 1.80000E-05-6.73293E-05 1.12764E-05 2.58037E-05 4.35968E-18-2.39064E-18
 -1       150 3.40292E-05-1.05625E-04 1.90444E-05 1.19733E-05-6.78833E-18 3.08029E-19
 -1       151 3.23862E-05-1.02471E-04 1.85226E-05-1.54627E-05-9.13567E-18-7.07498E-19
 -1       152 1.42279E-05-5.78451E-05 9.34829E-06-2.45455E-05-1.19101E-17-4.95715E-18
 -1       153 6.69511E-06-3.57770E-07-8.01844E-06 6.01397E-06-1.67776E-17-1.12706E-17
 -1       154 1.03550E-04 1.44414E-05-4.64374E-05 1.01642E-04-1.28630E-17-2.03618E-17
 -1       155 1.93113E-04-2.74267E-05-6.26718E-05 1.11652E-04-9.84464E-18-2.16819E-17
 -1       156 2.73435E-04-7.37290E-05-7.41670E-05 7.61481E-05-4.53160E-18-1.85540E-17
 -1       157 3.09047E-04-9.58835E-05-7.86911E-05 7.96679E-06 3.54880E-19-1.40173E-17
 -1       158 2.84718E-04-8.03089E-05-7.57303E-05-6.46495E-05 1.61852E-18-9.14309E-18
 -1       159 2.08239E-04-3.54934E-05-6.49965E-05-1.08452E-04-1.45383E-18 1.39760E-18
 -1       160 1.10064E-04 1.21778E-05-4.79100E-05-1.04277E-04-4.54581E-18 6.32352E-18
 -1       161 3.72255E-05 2.75805E-05-2.82240E-05-5.97922E-05-5.74077E-18 6.00165E-18
 -1       162 6.70026E-06 4.30570E-06-9.68812E-06-9.15282E-06-4.18942E-18 3.02560E-18
 -1       163 1.04527E-05-4.47130E-05 6.01188E-06 2.24841E-05-4.52570E-18 1.87417E-18
 -1       164 2.75567E-05-9.11886E-05 1.62281E-05 2.23921E-05-2.09768E-18 3.91012E-19
 -1       165 9.48407E-05-1.23397E-05-3.55605E-05-2.23590E-05-3.41979E-18-1.48575E-19
 -1       166 8.92334E-05-8.45308E-06-3.47819E-05-1.74034E-05-3.04199E-18-3.60002E-18
 -1       167 8.65447E-05-6.50528E-06-3.44144E-05-1.35961E-05-2.38636E-18-5.28958E-18
 -1       168 8.51971E-05-5.51649E-06-3.42328E-05-1.03841E-05-1.64131E-18-6.14401E-18
 -1       169 8.44643E-05-4.94978E-06-3.41466E-05-7.55644E-06-1.01298E-18-6.36675E-18
 -1       170 8.40429E-05-4.60476E-06-3.41065E-05-4.90984E-06-4.18342E-19-6.38554E-18
 -1       171 8.38284E-05-4.42082E-06-3.40899E-05-2.39844E-06 1.50472E-19-6.20399E-18
 -1       172 8.37654E-05-4.36531E-06-3.40857E-05 5.12325E-08 6.54440E-19-6.00673E-18
 -1       173 8.38383E-05-4.42934E-06-3.40907E-05 2.50307E-06 1.20866E-18-5.85693E-18
 -1       174 8.40645E-05-4.62388E-06-3.41079E-05 5.02128E-06 1.67863E-18-5.54867E-18
 -1       175 8.44909E-05-4.97591E-06-3.41475E-05 7.63332E-06 2.18129E-18-5.03164E-18
 -1       176 8.52579E-05-5.57667E-06-3.42340E-05 1.05246E-05 2.80315E-18-4.14860E-18
 -1       177 8.66431E-05-6.60846E-06-3.44168E-05 1.37964E-05 3.33537E-18-2.74995E-18
 -1       178 8.93762E-05-8.59694E-06-3.47867E-05 1.76353E-05 3.65913E-18-1.90225E-19
 -1       179 9.57524E-05-1.36067E-05-3.54168E-05 2.19039E-05 3.31470E-18 4.50931E-18
 -1       180 1.05570E-04-2.60909E-05-3.52526E-05 1.86703E-05 2.38480E-18 1.05941E-17
 -1       181 1.03363E-04-2.72909E-05-3.26001E-05-1.21352E-05-3.06973E-18 4.26817E-18
 -1       182 9.70694E-05-2.82782E-05-2.95173E-05-4.73959E-06-2.70540E-18 2.77969E-18
 -1       183 9.34634E-05-2.76233E-05-2.81692E-05-1.77727E-06-1.97263E-18 1.56988E-18
 -1       184 9.19240E-05-2.73915E-05-2.76214E-05-4.29172E-07-1.48446E-18 3.57898E-19
 -1       185 9.13440E-05-2.73150E-05-2.74227E-05 2.35068E-07-9.54236E-19-4.03677E-19
 -1       186 9.12996E-05-2.73526E-05-2.73972E-05 5.62472E-07-5.36098E-19-6.89817E-19
 -1       187 9.15438E-05-2.74548E-05-2.74626E-05 7.05079E-07-5.94497E-19-1.17139E-18
 -1       188 9.19336E-05-2.75880E-05-2.75748E-05 7.42908E-07-8.68776E-19-1.46279E-18
 -1       189 9.23852E-05-2.77315E-05-2.77079E-05 7.23248E-07-9.48861E-19-1.81508E-18
 -1       190 9.28515E-05-2.78737E-05-2.78473E-05 6.76462E-07-3.97239E-19-2.44435E-18
 -1       191 9.33091E-05-2.80094E-05-2.79855E-05 6.23215E-07-1.30864E-19-3.08972E-18
 -1       192 9.37513E-05-2.81375E-05-2.81201E-05 5.78300E-07-1.84163E-19-2.82553E-18
 -1       193 9.41833E-05-2.82603E-05-2.82525E-05 5.52933E-07-1.65591E-20-2.95842E-18
 -1       194 9.46198E-05-2.83822E-05-2.83869E-05 5.56251E-07-1.19730E-19-2.91341E-18
 -1       195 9.50824E-05-2.85101E-05-2.85300E-05 5.96305E-07-4.28262E-19-2.93696E-18
 -1       196 9.55996E-05-2.86525E-05-2.86901E-05 6.80669E-07-1.49224E-19-2.84428E-18
 -1       197 9.62052E-05-2.88194E-05-2.88775E-05 8.16651E-07-3.04966E-19-3.10765E-18
 -1       198 9.69381E-05-2.90227E-05-2.91039E-05 1.01099E-06-5.57353E-19-3.12844E-18
 -1       199 9.78406E-05-2.92756E-05-2.93817E-05 1.26880E-06-4.73886E-19-3.77805E-18
 -1       200 9.89564E-05-2.95925E-05-2.97238E-05 1.59137E-06 1.77628E-19-4.81410E-18
 -1       201 1.00326E-04-2.99883E-05-3.01411E-05 1.97216E-06 4.93775E-19-4.44332E-18
 -1       202 1.01979E-04-3.04768E-05-3.06407E-05 2.39013E-06-4.38743E-19-4.42769E-18
 -1       203 1.03921E-04-3.10684E-05-3.12211E-05 2.79949E-06-4.11603E-19-3.65943E-18
 -1       204 1.06116E-04-3.17655E-05-3.18658E-05 3.11568E-06 2.74790E-19-3.04430E-18
 -1       205 1.08458E-04-3.25544E-05-3.25355E-05 3.19992E-06 2.77743E-19-2.86088E-18
 -1       206 1.10741E-04-3.33925E-05-3.31593E-05 2.85139E-06-7.01854E-20-2.58281E-18
 -1       207 1.12627E-04-3.41860E-05-3.36317E-05 1.82839E-06-6.32401E-19-2.58867E-18
 -1       208 1.13649E-04-3.47633E-05-3.38231E-05-6.45197E-08 7.66687E-19-2.46786E-18
 -1       209 1.13268E-04-3.48588E-05-3.36152E-05-2.78786E-06 6.75297E-19-2.55963E-18
 -1       210 1.11070E-04-3.41613E-05-3.29638E-05-5.80595E-06 3.59294E-20-2.51544E-18
 -1       211 1.07110E-04-3.25013E-05-3.19696E-05-7.94443E-06 9.08521E-19-1.23033E-18
 -1       212 1.02291E-04-3.01806E-05-3.08969E-05-7.74548E-06 3.43014E-19-1.66229E-18
 -1       213 9.83697E-05-2.81374E-05-3.00960E-05-4.50005E-06 3.29496E-19-1.96422E-18
 -1       214 9.71440E-05-2.74864E-05-2.98516E-05 7.70610E-07 1.14674E-19-5.32090E-19
 -1       215 9.92106E-05-2.86191E-05-3.02487E-05 5.63599E-06-6.48615E-19-1.36826E-18
 -1       216 1.03491E-04-3.08374E-05-3.11305E-05 7.95750E-06-7.39147E-19-1.51678E-18
 -1       217 1.08063E-04-3.29890E-05-3.21722E-05 7.28674E-06-1.58185E-19-1.72346E-18
 -1       218 1.11377E-04-3.43155E-05-3.30325E-05 4.68892E-06 7.58200E-19-9.75387E-19
 -1       219 1.12806E-04-3.46878E-05-3.34927E-05 1.61572E-06-7.48615E-19-2.22177E-18
 -1       220 1.12478E-04-3.43464E-05-3.35007E-05-9.41361E-07-5.26110E-19-2.34958E-18
 -1       221 1.10872E-04-3.36002E-05-3.31298E-05-2.61859E-06-1.11770E-19-3.19783E-18
 -1       222 1.08520E-04-3.26872E-05-3.25085E-05-3.46744E-06 6.78660E-19-2.16052E-18
 -1       223 1.05863E-04-3.17531E-05-3.17649E-05-3.70041E-06 7.84640E-19 4.93132E-19
 -1       224 1.03215E-04-3.08764E-05-3.10015E-05-3.53219E-06 1.56120E-18-5.06335E-19
 -1       225 1.00783E-04-3.00953E-05-3.02910E-05-3.11399E-06 7.60809E-19-1.34073E-18
 -1       226 9.87006E-05-2.94267E-05-2.96836E-05-2.52109E-06-8.01842E-19-1.58510E-18
 -1       227 9.70567E-05-2.88803E-05-2.92129E-05-1.76913E-06 1.23449E-18-1.21164E-18
 -1       228 9.58728E-05-2.84676E-05-2.88838E-05-8.70243E-07 1.74991E-18 4.35916E-19
 -1       229 9.94631E-05-2.85430E-05-3.05759E-05 7.21856E-06 2.51542E-18 9.02742E-18
 -1       230 9.43738E-05-2.77780E-05-2.85117E-05 2.75093E-06 1.98809E-18 7.17594E-18
 -1       231 9.20486E-05-2.73867E-05-2.76672E-05 9.37067E-07 1.57846E-18 5.62780E-18
 -1       232 9.10950E-05-2.72226E-05-2.73469E-05 7.48810E-08 9.74835E-19 4.36414E-18
 -1       233 9.08794E-05-2.72141E-05-2.72716E-05-3.53783E-07 8.12561E-19 3.29836E-18
 -1       234 9.10611E-05-2.72992E-05-2.73197E-05-5.56543E-07 5.02605E-19 2.72208E-18
 -1       235 9.14466E-05-2.74323E-05-2.74310E-05-6.33531E-07 7.24447E-19 2.20718E-18
 -1       236 9.19238E-05-2.75850E-05-2.75717E-05-6.39745E-07 4.93211E-19 1.40455E-18
 -1       237 9.24283E-05-2.77407E-05-2.77220E-05-6.08747E-07 6.14849E-19 6.12253E-19
 -1       238 9.29260E-05-2.78908E-05-2.78715E-05-5.62549E-07 2.40087E-19 7.60128E-19
 -1       239 9.34030E-05-2.80321E-05-2.80157E-05-5.16396E-07 4.16815E-19 7.98691E-19
 -1       240 9.38597E-05-2.81653E-05-2.81544E-05-4.81417E-07 4.09273E-19 7.70552E-19
 -1       241 9.43071E-05-2.82941E-05-2.82909E-05-4.66257E-07 1.41722E-19 3.84612E-19
 -1       242 9.47645E-05-2.84245E-05-2.84309E-05-4.78150E-07-1.86911E-19 7.97555E-19
 -1       243 9.52583E-05-2.85643E-05-2.85824E-05-5.23627E-07 7.33012E-20 5.08735E-19
 -1       244 9.58209E-05-2.87235E-05-2.87551E-05-6.08890E-07-2.53251E-19-5.91404E-20
 -1       245 9.64902E-05-2.89133E-05-2.89604E-05-7.39823E-07 4.88021E-19 1.29524E-19
 -1       246 9.73086E-05-2.91466E-05-2.92109E-05-9.21490E-07 2.66663E-19-2.44178E-19
 -1       247 9.83211E-05-2.94375E-05-2.95202E-05-1.15689E-06-9.34342E-20 1.91107E-19
 -1       248 9.95721E-05-2.98006E-05-2.99008E-05-1.44454E-06-5.40472E-19 7.38100E-19
 -1       249 1.01099E-04-3.02495E-05-3.03632E-05-1.77428E-06-4.58722E-19 7.54537E-19
 -1       250 1.02920E-04-3.07944E-05-3.09113E-05-2.12063E-06 1.41053E-18 3.22374E-19
 -1       251 1.05021E-04-3.14379E-05-3.15373E-05-2.43293E-06 4.98121E-19-6.99289E-19
 -1       252 1.07327E-04-3.21684E-05-3.22139E-05-2.62306E-06-2.76314E-19-1.01767E-18
 -1       253 1.09670E-04-3.29495E-05-3.28845E-05-2.55434E-06 3.95831E-20 4.30715E-19
 -1       254 1.11760E-04-3.37055E-05-3.34553E-05-2.04267E-06-8.40416E-22 5.94253E-19
 -1       255 1.13162E-04-3.43039E-05-3.37961E-05-8.92711E-07 4.91943E-19 2.88930E-19
 -1       256 1.13337E-04-3.45431E-05-3.37612E-05 9.98464E-07-2.69754E-19-1.19172E-19
 -1       257 1.11775E-04-3.41724E-05-3.32435E-05 3.45286E-06 3.25277E-19 3.37053E-19
 -1       258 1.08286E-04-3.29931E-05-3.22539E-05 5.80934E-06 2.77369E-19 4.84463E-20
 -1       259 1.03378E-04-3.10697E-05-3.09887E-05 6.94418E-06-7.15606E-19 3.45722E-19
 -1       260 9.84537E-05-2.89396E-05-2.98147E-05 5.78978E-06-1.01022E-18 6.83953E-19
 -1       261 9.54297E-05-2.75336E-05-2.91375E-05 2.25588E-06 4.48305E-19 1.84763E-18
 -1       262 9.56826E-05-2.76090E-05-2.92057E-05-2.28291E-06-7.14188E-19 1.85177E-18
 -1       263 9.90724E-05-2.91220E-05-2.99840E-05-5.73962E-06 6.84044E-19 2.48181E-19
 -1       264 1.04032E-04-3.12575E-05-3.11716E-05-6.78912E-06 1.71992E-18-2.64804E-19
 -1       265 1.08644E-04-3.30909E-05-3.23572E-05-5.57096E-06 1.35876E-19-2.79064E-19
 -1       266 1.11633E-04-3.41248E-05-3.32034E-05-3.16671E-06 1.45190E-19-6.49552E-19
 -1       267 1.12638E-04-3.43381E-05-3.35545E-05-6.85550E-07-6.13030E-19 6.97235E-19
 -1       268 1.11939E-04-3.39501E-05-3.34287E-05 1.23136E-06-1.07109E-18 8.50208E-19
 -1       269 1.10070E-04-3.32164E-05-3.29449E-05 2.41288E-06 2.18260E-19 1.42428E-18
 -1       270 1.07567E-04-3.23358E-05-3.22485E-05 2.95745E-06 3.43394E-19 1.73032E-18
 -1       271 1.04851E-04-3.14369E-05-3.14669E-05 3.04704E-06 1.03286E-18 4.11038E-19
 -1       272 1.02215E-04-3.05946E-05-3.06955E-05 2.84319E-06 5.11677E-19-6.23791E-19
 -1       273 9.98538E-05-2.98505E-05-3.00010E-05 2.44991E-06 1.58344E-19-1.90616E-20
 -1       274 9.78989E-05-2.92283E-05-2.94308E-05 1.90895E-06-2.09278E-19 3.07244E-19
 -1       275 9.64482E-05-2.87453E-05-2.90156E-05 1.21579E-06 1.68475E-18-1.09437E-18
 -1       276 9.55476E-05-2.84687E-05-2.87422E-05 4.17333E-07 1.42258E-19-2.80427E-18
 -1       277 9.53152E-05-2.79084E-05-2.88841E-05 8.88452E-07 7.42397E-20 1.95073E-18
 -1       278 9.49089E-05-2.68160E-05-2.91807E-05 1.66163E-06 3.34692E-19 2.93101E-19
 -1       279 9.43661E-05-2.53798E-05-2.95646E-05 2.14071E-06 1.87765E-19-2.18330E-19
 -1       280 9.37882E-05-2.37898E-05-2.99999E-05 2.25868E-06-4.80698E-19 8.55283E-19
 -1       281 9.32479E-05-2.22784E-05-3.04185E-05 2.04782E-06-4.70152E-19-5.31931E-19
 -1       282 9.27932E-05-2.09967E-05-3.07750E-05 1.54890E-06-1.60718E-18 5.28590E-19
 -1       283 9.24924E-05-2.01473E-05-3.10117E-05 8.37464E-07-3.02916E-19-2.51744E-20
 -1       284 9.23848E-05-1.98447E-05-3.10958E-05 1.10403E-08-4.74196E-19-1.69048E-18
 -1       285 9.24856E-05-2.01313E-05-3.10157E-05-8.18902E-07-1.47217E-18 9.48656E-19
 -1       286 9.27820E-05-2.09698E-05-3.07819E-05-1.53997E-06-1.30383E-18 1.37883E-19
 -1       287 9.32264E-05-2.22224E-05-3.04333E-05-2.04526E-06-4.83374E-19 1.53118E-18
 -1       288 9.37783E-05-2.37640E-05-3.00068E-05-2.27271E-06 3.54272E-19 2.28938E-18
 -1       289 9.43610E-05-2.53650E-05-2.95686E-05-2.15716E-06 1.02547E-19-6.75851E-19
 -1       290 9.49123E-05-2.68051E-05-2.91843E-05-1.66207E-06 4.61150E-19-1.29520E-18
 -1       291 9.54175E-05-2.77059E-05-2.90137E-05-1.43242E-06 7.55400E-19-3.52514E-18
 -1       292 1.24803E-05-4.69648E-05 1.15910E-05 7.44454E-06 8.39780E-19 1.38215E-18
 -1       293 2.62147E-05-4.27779E-05 4.43184E-06 2.19342E-05 6.95838E-19 7.66194E-19
 -1       294 5.10630E-05-3.63009E-05-8.18028E-06 3.37072E-05 1.33852E-18-1.30957E-18
 -1       295 9.48041E-05-3.52214E-05-2.58662E-05 4.35677E-05 7.24001E-19-5.70900E-19
 -1       296 1.37578E-04-3.02786E-05-4.47231E-05 4.67137E-05-1.49713E-19 8.28610E-19
 -1       297 1.78847E-04-3.25137E-05-6.03289E-05 3.13320E-05 1.04534E-18 4.00223E-19
 -1       298 2.08670E-04-3.66054E-05-7.01335E-05 1.48815E-05 1.79518E-18 2.86827E-19
 -1       299 2.02582E-04-3.23378E-05-6.98562E-05-8.03894E-06 3.31730E-18-2.93566E-18
 -1       300 1.89734E-04-3.41324E-05-6.37263E-05-3.12235E-05 4.56556E-18-4.91385E-18
 -1       301 1.52253E-04-3.31072E-05-4.95795E-05-3.94824E-05 4.55090E-18-5.98598E-18
 -1       302 1.05705E-04-2.97552E-05-3.23829E-05-4.63371E-05 5.29036E-18-5.74458E-18
 -1       303 6.92693E-05-3.64826E-05-1.51534E-05-3.95911E-05 3.75511E-18-5.31968E-18
 -1       304 3.43136E-05-4.00486E-05-4.43945E-08-2.56704E-05 1.92128E-18-6.63285E-18
 -1       305 1.65019E-05-4.52142E-05 9.26261E-06-1.34321E-05-7.73447E-19-5.60376E-18
 -1       306 1.05078E-05-4.68983E-05 1.23687E-05 8.28631E-07-3.20425E-18-1.86326E-18
 -1       307 1.86278E-05-4.29981E-05 7.80951E-06 1.70456E-05-5.38395E-18-3.56082E-18
 -1       308 4.57581E-05-4.03241E-05-3.94417E-06 3.37188E-05-5.25965E-18-5.76307E-18
 -1       309 7.47868E-05-3.21887E-05-1.91926E-05 4.07349E-05-7.79630E-18-6.83365E-18
 -1       310 1.14740E-04-2.96184E-05-3.59625E-05 4.68012E-05-7.24023E-18-1.18563E-17
 -1       311 1.55236E-04-3.11346E-05-5.12968E-05 4.40482E-05-6.85753E-18-1.30227E-17
 -1       312 1.89111E-04-3.41926E-05-6.33818E-05 3.21208E-05-6.72708E-18-1.30013E-17
 -1       313 2.09044E-04-3.64683E-05-7.02995E-05 1.28132E-05-3.65463E-18-1.21173E-17
 -1       314 2.10740E-04-3.65988E-05-7.09778E-05-8.56056E-06-2.06517E-18-9.71144E-18
 -1       315 1.88749E-04-3.25559E-05-6.43155E-05-2.41202E-05-3.20390E-18-7.50471E-18
 -1       316 1.59911E-04-3.13576E-05-5.30545E-05-4.37158E-05-1.26864E-18-4.46450E-18
 -1       317 1.19215E-04-3.20129E-05-3.68458E-05-4.53237E-05-1.20279E-19-1.35801E-18
 -1       318 7.73963E-05-3.20268E-05-2.02800E-05-4.18077E-05 4.98267E-19 4.77091E-19
 -1       319 4.53397E-05-3.79043E-05-5.30776E-06-3.11169E-05-1.03444E-18 2.81638E-20
 -1       320 2.36702E-05-4.42518E-05 5.90420E-06-1.88885E-05-1.24344E-18 1.46193E-18
 -1       321 1.18913E-05-4.65183E-05 1.16599E-05-6.82025E-06 1.75706E-19 2.63364E-18
 -1       322 9.16392E-05-1.43937E-05-3.31685E-05-1.30743E-05-3.19237E-18-3.14486E-18
 -1       323 9.56846E-05-1.91033E-05-3.28837E-05-1.46423E-05-3.64260E-18-1.33443E-18
 -1       324 8.80209E-05-1.03820E-05-3.33272E-05-8.16132E-06-1.69407E-18-4.86527E-18
 -1       325 8.72117E-05-9.46042E-06-3.33700E-05-5.72406E-06-9.32036E-19-5.00586E-18
 -1       326 8.67577E-05-8.93227E-06-3.33987E-05-3.37122E-06-1.75504E-19-4.88266E-18
 -1       327 8.65557E-05-8.69319E-06-3.34131E-05-1.07402E-06 5.25444E-19-4.70985E-18
 -1       328 8.65644E-05-8.70281E-06-3.34128E-05 1.20497E-06 1.17949E-18-4.63014E-18
 -1       329 8.67852E-05-8.96307E-06-3.33975E-05 3.50453E-06 1.82634E-18-4.40557E-18
 -1       330 8.72514E-05-9.50581E-06-3.33683E-05 5.82211E-06 2.40941E-18-4.02387E-18
 -1       331 8.80819E-05-1.04552E-05-3.33240E-05 8.26394E-06 3.09563E-18-3.26137E-18
 -1       332 8.94854E-05-1.20350E-05-3.32597E-05 1.07749E-05 3.63336E-18-2.42200E-18
 -1       333 9.18923E-05-1.47200E-05-3.31550E-05 1.31810E-05 4.05829E-18-8.32825E-19
 -1       334 9.57820E-05-1.94508E-05-3.28211E-05 1.43873E-05 3.88789E-18 2.09916E-18
 -1       335 9.87610E-05-2.44351E-05-3.19421E-05 1.19082E-05 3.39631E-18 4.81628E-18
 -1       336 9.63574E-05-2.68026E-05-2.97797E-05 5.75181E-06 2.88346E-18 3.77477E-18
 -1       337 9.64090E-05-2.60198E-05-3.01232E-05-6.36085E-06-2.83135E-18-6.70914E-19
 -1       338 9.48904E-05-2.70202E-05-2.90618E-05-2.84485E-06-2.31270E-18-8.82123E-19
 -1       339 9.39127E-05-2.74165E-05-2.84838E-05-9.32768E-07-1.63160E-18-1.08473E-18
 -1       340 9.33930E-05-2.76272E-05-2.81787E-05 1.29907E-07-9.64366E-19-1.46840E-18
 -1       341 9.32033E-05-2.77785E-05-2.80364E-05 7.01145E-07-7.27405E-19-1.57976E-18
 -1       342 9.32268E-05-2.79064E-05-2.79934E-05 9.80481E-07-1.00345E-18-1.76761E-18
 -1       343 9.33787E-05-2.80199E-05-2.80107E-05 1.08709E-06-8.91437E-19-1.61536E-18
 -1       344 9.36023E-05-2.81205E-05-2.80639E-05 1.09669E-06-9.59334E-19-1.34155E-18
 -1       345 9.38630E-05-2.82086E-05-2.81380E-05 1.05994E-06-8.03888E-19-1.83432E-18
 -1       346 9.41417E-05-2.82852E-05-2.82245E-05 1.01230E-06-2.67917E-19-2.13761E-18
 -1       347 9.44315E-05-2.83523E-05-2.83198E-05 9.79709E-07-2.72254E-19-2.33821E-18
 -1       348 9.47344E-05-2.84131E-05-2.84233E-05 9.82168E-07-1.24000E-19-1.97136E-18
 -1       349 9.50591E-05-2.84714E-05-2.85371E-05 1.03608E-06-4.99141E-19-2.33624E-18
 -1       350 9.54199E-05-2.85323E-05-2.86652E-05 1.15575E-06-4.14191E-19-2.68789E-18
 -1       351 9.58358E-05-2.86017E-05-2.88132E-05 1.35412E-06-3.20025E-19-2.64919E-18
 -1       352 9.63292E-05-2.86872E-05-2.89874E-05 1.64279E-06-7.13454E-19-2.40130E-18
 -1       353 9.69261E-05-2.87983E-05-2.91950E-05 2.03092E-06-9.40516E-19-2.68945E-18
 -1       354 9.76540E-05-2.89475E-05-2.94425E-05 2.52284E-06-8.43237E-19-2.95663E-18
 -1       355 9.85420E-05-2.91516E-05-2.97352E-05 3.11341E-06 4.85994E-19-2.98786E-18
 -1       356 9.96182E-05-2.94339E-05-3.00754E-05 3.78055E-06 5.82739E-19-2.94628E-18
 -1       357 1.00908E-04-2.98275E-05-3.04601E-05 4.47357E-06 2.95335E-19-2.24954E-18
 -1       358 1.02432E-04-3.03778E-05-3.08788E-05 5.09685E-06 1.04552E-19-1.10480E-18
 -1       359 1.04199E-04-3.11434E-05-3.13109E-05 5.48988E-06 4.18315E-19-1.40005E-18
 -1       360 1.06197E-04-3.21859E-05-3.17252E-05 5.40954E-06 5.87314E-19-1.62944E-18
 -1       361 1.08371E-04-3.35367E-05-3.20841E-05 4.53104E-06-5.88613E-20-1.30574E-18
 -1       362 1.10569E-04-3.51165E-05-3.23549E-05 2.50285E-06 3.80922E-19 4.29286E-19
 -1       363 1.12457E-04-3.66023E-05-3.25306E-05-8.86960E-07 6.05860E-19-1.43101E-19
 -1       364 1.13448E-04-3.73060E-05-3.26521E-05-5.37964E-06 4.46959E-19-8.54062E-19
 -1       365 1.12806E-04-3.62908E-05-3.28022E-05-9.83063E-06 1.16907E-18 2.13603E-20
 -1       366 1.10151E-04-3.30132E-05-3.30602E-05-1.20840E-05 6.36296E-19 4.37177E-19
 -1       367 1.06382E-04-2.84789E-05-3.33874E-05-9.89809E-06 9.70475E-19 2.02087E-18
 -1       368 1.03757E-04-2.53578E-05-3.36047E-05-3.09353E-06 1.20557E-19 1.61228E-18
 -1       369 1.04227E-04-2.59700E-05-3.35413E-05 5.25899E-06-7.19541E-19 1.49405E-18
 -1       370 1.07378E-04-2.98229E-05-3.32388E-05 1.08239E-05-8.40334E-19 1.35566E-18
 -1       371 1.10906E-04-3.41812E-05-3.28886E-05 1.14653E-05-3.14530E-19 8.48550E-19
 -1       372 1.12862E-04-3.67664E-05-3.26277E-05 8.23129E-06 6.11085E-19 1.05134E-18
 -1       373 1.12816E-04-3.71423E-05-3.24528E-05 3.50918E-06-2.27442E-20-3.23004E-19
 -1       374 1.11331E-04-3.60706E-05-3.22764E-05-8.06876E-07-6.45376E-19 5.39969E-19
 -1       375 1.09135E-04-3.44545E-05-3.20228E-05-3.87058E-06-3.58525E-20 1.13628E-18
 -1       376 1.06735E-04-3.28647E-05-3.16693E-05-5.60287E-06 4.77574E-19 2.76510E-18
 -1       377 1.04403E-04-3.15292E-05-3.12362E-05-6.26997E-06 1.01899E-18 2.06703E-18
 -1       378 1.02259E-04-3.04754E-05-3.07643E-05-6.20214E-06 7.52064E-19 2.46136E-18
 -1       379 1.00351E-04-2.96492E-05-3.02978E-05-5.66612E-06 3.16543E-20 9.26342E-19
 -1       380 9.86960E-05-2.89784E-05-2.98738E-05-4.83111E-06-1.83546E-18-5.23430E-19
 -1       381 9.72985E-05-2.84024E-05-2.95192E-05-3.78109E-06-4.67129E-19-1.21802E-18
 -1       382 9.62819E-05-2.80101E-05-2.92521E-05-2.64352E-06 2.00431E-18-1.60942E-18
 -1       383 9.43345E-05-2.73305E-05-2.86778E-05 2.47953E-06 2.25308E-18 2.96119E-18
 -1       384 9.31254E-05-2.74491E-05-2.81251E-05 7.53951E-07 1.62167E-18 2.07691E-18
 -1       385 9.25697E-05-2.75255E-05-2.78662E-05-1.69079E-07 1.23882E-18 1.27655E-18
 -1       386 9.24283E-05-2.76170E-05-2.77721E-05-6.48889E-07 7.99321E-19 6.05665E-19
 -1       387 9.25349E-05-2.77256E-05-2.77737E-05-8.74484E-07 8.56938E-19 1.95991E-19
 -1       388 9.27803E-05-2.78421E-05-2.78302E-05-9.52436E-07 8.70306E-19 1.71470E-19
 -1       389 9.30961E-05-2.79581E-05-2.79164E-05-9.48199E-07 8.75009E-19 1.58792E-19
 -1       390 9.34415E-05-2.80684E-05-2.80174E-05-9.04627E-07 1.70781E-19 1.64700E-19
 -1       391 9.37957E-05-2.81709E-05-2.81253E-05-8.51263E-07 3.40064E-19 2.05872E-19
 -1       392 9.41516E-05-2.82661E-05-2.82368E-05-8.09483E-07 4.73478E-19 2.76415E-19
 -1       393 9.45126E-05-2.83567E-05-2.83524E-05-7.95607E-07 2.59800E-19 5.48095E-19
 -1       394 9.48901E-05-2.84469E-05-2.84752E-05-8.22914E-07-7.63613E-20 1.16714E-19
 -1       395 9.53018E-05-2.85424E-05-2.86103E-05-9.02933E-07 2.82741E-19-7.03916E-19
 -1       396 9.57708E-05-2.86504E-05-2.87645E-05-1.04613E-06-2.93221E-20-5.90657E-19
 -1       397 9.63247E-05-2.87794E-05-2.89460E-05-1.26198E-06 1.81659E-19-8.69527E-19
 -1       398 9.69944E-05-2.89398E-05-2.91637E-05-1.55818E-06 1.09958E-19-4.25233E-19
 -1       399 9.78132E-05-2.91438E-05-2.94267E-05-1.93873E-06-5.27414E-19-1.73675E-19
 -1       400 9.88144E-05-2.94058E-05-2.97431E-05-2.40031E-06-2.80136E-19 1.80489E-19
 -1       401 1.00028E-04-2.97431E-05-3.01184E-05-2.92614E-06-2.63366E-19-1.23283E-19
 -1       402 1.01473E-04-3.01764E-05-3.05530E-05-3.47648E-06 1.27902E-18-8.42907E-19
 -1       403 1.03155E-04-3.07295E-05-3.10384E-05-3.97508E-06 6.37576E-19-6.46923E-19
 -1       404 1.05048E-04-3.14270E-05-3.15532E-05-4.29261E-06-4.66741E-19-9.07742E-19
 -1       405 1.07078E-04-3.22866E-05-3.20591E-05-4.23204E-06-6.73824E-19-5.19426E-19
 -1       406 1.09104E-04-3.32970E-05-3.24997E-05-3.53012E-06 3.32351E-19-2.61202E-19
 -1       407 1.10885E-04-3.43743E-05-3.28062E-05-1.90340E-06 4.83955E-19 2.34737E-19
 -1       408 1.12052E-04-3.52914E-05-3.29153E-05 8.18042E-07 1.33523E-20 2.71651E-19
 -1       409 1.12117E-04-3.56189E-05-3.28003E-05 4.43634E-06 1.72197E-19 2.02945E-18
 -1       410 1.10616E-04-3.48010E-05-3.25005E-05 8.07646E-06 3.65558E-19 2.55460E-18
 -1       411 1.07497E-04-3.25371E-05-3.21266E-05 1.01248E-05-5.39330E-19 1.90442E-18
 -1       412 1.03609E-04-2.93747E-05-3.18112E-05 8.87562E-06-9.06736E-19 8.26403E-19
 -1       413 1.00734E-04-2.68954E-05-3.16406E-05 3.92082E-06-3.81066E-19 6.64931E-19
 -1       414 1.00540E-04-2.67097E-05-3.16317E-05-2.85601E-06 1.78598E-19 8.48385E-19
 -1       415 1.03136E-04-2.89516E-05-3.17782E-05-8.21308E-06 1.01318E-18 7.24048E-19
 -1       416 1.06943E-04-3.21216E-05-3.20543E-05-9.95369E-06 1.71835E-18 8.66032E-19
 -1       417 1.10097E-04-3.45411E-05-3.23832E-05-8.20141E-06 6.88823E-19 8.77462E-19
 -1       418 1.11617E-04-3.54995E-05-3.26379E-05-4.59522E-06 3.65263E-19 3.15894E-19
 -1       419 1.11496E-04-3.52304E-05-3.27069E-05-8.29695E-07-1.70347E-18 9.76801E-19
 -1       420 1.10186E-04-3.42886E-05-3.25475E-05 2.11197E-06-8.76596E-19 2.89426E-18
 -1       421 1.08196E-04-3.31330E-05-3.21839E-05 3.95345E-06-1.03141E-18 1.82413E-18
 -1       422 1.05916E-04-3.20159E-05-3.16790E-05 4.82423E-06 5.69418E-19 3.27986E-18
 -1       423 1.03607E-04-3.10332E-05-3.11053E-05 4.98601E-06 1.70153E-18 2.57764E-18
 -1       424 1.01433E-04-3.01987E-05-3.05270E-05 4.67981E-06 4.56909E-19 1.66247E-18
 -1       425 9.94933E-05-2.94948E-05-2.99949E-05 4.07034E-06-8.36008E-19 3.16947E-18
 -1       426 9.78460E-05-2.88949E-05-2.95450E-05 3.24142E-06 1.13529E-18 1.40352E-18
 -1       427 9.65217E-05-2.83900E-05-2.91939E-05 2.22727E-06 1.66234E-18 1.15005E-18
 -1       428 9.58408E-05-2.80916E-05-2.90308E-05 1.57997E-06 1.61913E-18 2.11907E-18
 -1       429 9.42795E-05-2.49970E-05-2.96914E-05 3.83160E-06-1.14542E-19-1.47205E-19
 -1       430 9.50680E-05-2.63500E-05-2.94456E-05 3.41688E-06 8.32760E-20-1.77792E-19
 -1       431 9.55430E-05-2.72933E-05-2.92432E-05 2.59037E-06 6.72541E-19 7.54184E-19
 -1       432 9.35296E-05-2.36824E-05-2.99363E-05 3.71702E-06-1.06112E-18-8.06540E-19
 -1       433 9.28585E-05-2.24938E-05-3.01606E-05 3.09397E-06 6.28099E-19 6.04926E-19
 -1       434 9.23560E-05-2.15992E-05-3.03305E-05 2.05245E-06-2.32522E-19 5.04036E-19
 -1       435 9.20827E-05-2.11134E-05-3.04226E-05 7.31500E-07-1.70916E-18-1.51320E-18
 -1       436 9.20756E-05-2.11031E-05-3.04239E-05-6.91876E-07-1.16632E-18-9.23378E-19
 -1       437 9.23373E-05-2.15715E-05-3.03344E-05-2.02475E-06-1.18006E-18 2.70910E-19
 -1       438 9.28233E-05-2.24378E-05-3.01695E-05-3.07134E-06-9.94780E-19-7.91827E-20
 -1       439 9.34934E-05-2.36215E-05-2.99470E-05-3.72345E-06-9.90657E-19 3.42131E-18
 -1       440 9.42686E-05-2.49695E-05-2.96985E-05-3.86286E-06-4.72538E-19 1.45398E-18
 -1       441 9.50752E-05-2.63388E-05-2.94532E-05-3.46389E-06-1.68037E-19-1.03823E-18
 -1       442 6.00664E-05-4.13220E-05-7.99632E-06 4.33509E-05-9.74406E-19-1.15546E-18
 -1       443 1.18835E-05-2.26743E-05 4.39027E-06 5.82979E-07-7.17752E-19 1.92213E-18
 -1       444 2.39664E-05-2.89180E-05 1.81616E-06 2.65524E-05-1.27648E-18 3.92917E-19
 -1       445 9.55237E-05-5.29302E-05-1.83532E-05 4.18885E-05 8.12940E-19-1.79306E-18
 -1       446 1.37344E-04-5.63367E-05-3.47001E-05 2.09366E-05-4.79738E-19-1.08219E-18
 -1       447 8.93392E-05-1.18576E-05-3.32804E-05-1.06996E-05-2.47964E-18-4.28591E-18
 -1       448 1.60060E-04-2.15593E-05-5.91115E-05-4.36869E-07 1.37505E-18 9.30572E-19
 -1       449 1.56389E-04-1.22365E-05-6.17214E-05-3.21207E-07 3.63811E-18-1.93031E-19
 -1       450 1.53405E-04-1.83897E-05-5.80152E-05 4.15830E-06 4.01928E-18-2.33040E-19
 -1       451 1.54271E-04-3.40647E-05-5.15107E-05-1.26751E-08 2.62702E-18-1.09659E-18
 -1       452 1.40236E-04-5.13258E-05-3.81436E-05-2.01996E-05 2.03637E-18-1.92160E-18
 -1       453 1.15652E-04-5.47063E-05-2.60687E-05-3.54118E-05-1.90582E-21-2.33786E-18
 -1       454 7.01044E-05-4.53186E-05-1.08508E-05-4.35788E-05-2.21457E-18-2.94889E-18
 -1       455 3.58148E-05-3.37698E-05-1.19741E-06-3.46592E-05-2.34565E-18-6.96928E-18
 -1       456 1.37115E-05-2.43354E-05 4.18537E-06-1.21238E-05-1.88343E-18-4.56148E-18
 -1       457 1.55880E-05-2.37375E-05 3.24995E-06 1.51615E-05-1.67495E-18-2.94429E-18
 -1       458 4.13751E-05-3.43328E-05-3.09688E-06 3.72458E-05-1.71259E-18-3.80355E-18
 -1       459 8.76821E-05-5.04323E-05-1.60094E-05 4.23728E-05-2.51558E-18-4.18614E-18
 -1       460 1.17921E-04-5.30043E-05-2.78955E-05 3.41791E-05-3.52990E-18-8.45254E-18
 -1       461 1.43984E-04-4.75713E-05-4.11929E-05 1.97755E-05-3.39967E-18-9.25976E-18
 -1       462 1.57193E-04-3.48450E-05-5.21998E-05 5.51020E-06-4.90940E-18-7.15648E-18
 -1       463 1.61444E-04-2.09828E-05-5.99164E-05-5.34771E-07-4.22087E-18-8.15597E-18
 -1       464 1.57731E-04-1.27205E-05-6.20234E-05-6.12246E-07-3.47464E-18-8.00926E-18
 -1       465 1.58989E-04-1.67682E-05-6.07531E-05 1.76488E-06-3.37797E-18-7.04324E-18
 -1       466 1.57199E-04-3.34801E-05-5.28585E-05-4.09645E-06-2.82438E-18-7.80064E-18
 -1       467 1.47462E-04-4.63757E-05-4.31403E-05-1.67496E-05-5.33843E-19-5.74172E-18
 -1       468 1.21184E-04-5.52975E-05-2.82996E-05-3.28346E-05 2.08127E-18-3.02899E-18
 -1       469 8.57397E-05-4.96288E-05-1.56372E-05-4.27577E-05 7.39672E-19-2.48218E-18
 -1       470 5.37609E-05-3.87424E-05-6.39243E-06-4.20064E-05 1.19972E-18-1.33111E-18
 -1       471 2.73778E-05-2.75330E-05 1.25380E-07-2.89005E-05 5.54171E-19 3.91435E-19
 -1       472 1.49960E-04-4.31360E-05-4.60125E-05 4.41494E-06-9.86727E-19-1.23455E-19
 -1       473 7.44045E-05-4.36566E-05-1.28199E-05 4.30294E-05-4.11711E-19-4.32146E-18
 -1       474 9.57994E-05-2.51424E-05-3.02673E-05 6.03039E-06 2.91726E-18 4.99974E-19
 -1       475 8.95664E-05-1.34086E-05-3.26580E-05-3.93006E-06-5.92187E-19-4.39117E-18
 -1       476 9.02630E-05-1.43668E-05-3.25475E-05-5.89314E-06-1.30137E-18-4.44207E-18
 -1       477 8.90746E-05-1.27294E-05-3.27372E-05 5.45110E-08 8.35890E-19-4.15265E-18
 -1       478 8.92086E-05-1.29127E-05-3.27163E-05 2.04839E-06 1.47505E-18-4.02182E-18
 -1       479 8.95984E-05-1.34489E-05-3.26547E-05 4.00350E-06 1.98520E-18-3.79229E-18
 -1       480 9.03158E-05-1.44346E-05-3.25416E-05 5.95985E-06 2.66573E-18-3.16557E-18
 -1       481 9.14538E-05-1.60109E-05-3.23558E-05 7.79060E-06 3.13882E-18-2.55675E-18
 -1       482 9.32292E-05-1.84780E-05-3.20564E-05 9.30756E-06 3.49136E-18-1.55606E-18
 -1       483 9.50914E-05-2.65706E-05-2.93481E-05 2.88617E-06 2.42215E-18 1.81057E-19
 -1       484 9.54598E-05-2.44155E-05-3.04373E-05-5.85404E-06-2.51416E-18-2.23273E-18
 -1       485 1.40057E-04-2.93652E-05-4.78911E-05-1.15608E-05-1.99476E-19-3.84394E-19
 -1       486 9.52589E-05-2.62238E-05-2.95796E-05-2.90933E-06-2.12092E-18-1.98561E-18
 -1       487 9.49047E-05-2.71537E-05-2.90324E-05-1.03943E-06-1.44085E-18-1.81729E-18
 -1       488 9.46306E-05-2.76807E-05-2.86913E-05 9.21344E-08-1.01443E-18-1.98253E-18
 -1       489 9.44792E-05-2.80019E-05-2.84897E-05 7.41367E-07-9.13976E-19-2.17112E-18
 -1       490 9.44324E-05-2.82063E-05-2.83825E-05 1.08157E-06-9.50918E-19-1.90337E-18
 -1       491 9.44613E-05-2.83377E-05-2.83388E-05 1.23128E-06-7.95423E-19-2.03726E-18
 -1       492 9.45409E-05-2.84195E-05-2.83380E-05 1.27254E-06-1.07123E-18-1.83210E-18
 -1       493 9.46532E-05-2.84653E-05-2.83664E-05 1.26341E-06-7.65235E-19-1.55313E-18
 -1       494 9.47874E-05-2.84842E-05-2.84158E-05 1.24614E-06-1.18661E-19-1.62695E-18
 -1       495 9.49388E-05-2.84822E-05-2.84814E-05 1.25256E-06 3.37835E-20-1.36004E-18
 -1       496 9.51074E-05-2.84639E-05-2.85614E-05 1.30767E-06-3.83842E-19-1.50214E-18
 -1       497 9.52973E-05-2.84332E-05-2.86558E-05 1.43218E-06-8.27556E-19-9.61370E-19
 -1       498 9.55157E-05-2.83938E-05-2.87660E-05 1.64399E-06-7.20261E-19-1.33254E-18
 -1       499 9.57723E-05-2.83503E-05-2.88944E-05 1.95879E-06-5.10179E-19-1.66452E-18
 -1       500 9.60794E-05-2.83091E-05-2.90434E-05 2.38968E-06-7.74800E-19-1.81882E-18
 -1       501 9.64521E-05-2.82808E-05-2.92150E-05 2.94550E-06-9.34181E-19-1.70192E-18
 -1       502 9.69090E-05-2.82829E-05-2.94097E-05 3.62749E-06-3.67912E-19-1.06737E-18
 -1       503 9.74749E-05-2.83445E-05-2.96257E-05 4.42365E-06 7.16363E-19-1.67342E-18
 -1       504 9.81845E-05-2.85130E-05-2.98576E-05 5.30000E-06 5.25746E-19-1.75145E-18
 -1       505 9.90899E-05-2.88633E-05-3.00959E-05 6.18780E-06 6.49826E-19-1.84019E-18
 -1       506 1.00270E-04-2.95062E-05-3.03270E-05 6.96614E-06 7.13203E-19-1.40305E-18
 -1       507 1.01840E-04-3.05906E-05-3.05370E-05 7.44002E-06 3.66481E-19-1.39560E-18
 -1       508 1.03950E-04-3.22812E-05-3.07195E-05 7.31761E-06 5.58318E-19-1.23909E-18
 -1       509 1.06741E-04-3.46766E-05-3.08926E-05 6.19959E-06 1.35247E-18-1.66815E-19
 -1       510 1.10216E-04-3.76200E-05-3.11232E-05 3.62070E-06 1.63517E-19 4.97067E-20
 -1       511 1.13975E-04-4.03835E-05-3.15517E-05-7.61477E-07 2.57640E-19 7.94656E-19
 -1       512 1.16908E-04-4.13906E-05-3.23851E-05-6.64951E-06 1.17276E-18 1.19525E-18
 -1       513 1.17446E-04-3.87110E-05-3.37711E-05-1.23111E-05 1.02643E-18 1.78064E-18
 -1       514 1.14435E-04-3.14759E-05-3.56097E-05-1.42001E-05 1.13092E-18 2.09647E-18
 -1       515 1.09983E-04-2.33328E-05-3.72317E-05-9.10276E-06-6.84707E-20 1.81582E-18
 -1       516 1.08274E-04-2.04774E-05-3.77366E-05 1.57293E-06 6.82457E-20 2.17075E-18
 -1       517 1.11176E-04-2.55322E-05-3.67859E-05 1.10732E-05-1.29486E-18 1.91191E-18
 -1       518 1.15549E-04-3.40392E-05-3.49874E-05 1.38860E-05-1.03229E-18 3.02904E-18
 -1       519 1.17458E-04-4.00109E-05-3.32180E-05 1.03662E-05-5.92713E-19 1.01424E-18
 -1       520 1.15982E-04-4.14243E-05-3.19677E-05 4.25365E-06-4.30322E-19-4.65549E-19
 -1       521 1.12559E-04-3.96646E-05-3.12532E-05-1.37157E-06-1.39471E-19-7.33508E-19
 -1       522 1.08724E-04-3.67048E-05-3.08757E-05-5.29357E-06 2.10177E-19 1.11857E-18
 -1       523 1.05350E-04-3.38550E-05-3.06474E-05-7.48269E-06 1.16681E-18 1.31881E-18
 -1       524 1.02674E-04-3.16215E-05-3.04546E-05-8.33996E-06 5.09889E-19 1.09944E-18
 -1       525 1.00630E-04-3.00426E-05-3.02524E-05-8.29897E-06 1.06846E-18 1.71284E-18
 -1       526 9.90589E-05-2.89681E-05-3.00379E-05-7.69564E-06 1.31786E-19 2.77723E-18
 -1       527 9.78154E-05-2.82142E-05-2.98271E-05-6.74954E-06-1.62190E-18 2.64556E-18
 -1       528 9.67920E-05-2.76236E-05-2.96405E-05-5.57849E-06-1.73107E-18 1.27414E-18
 -1       529 9.41237E-05-2.76752E-05-2.84744E-05-1.16951E-07 1.44312E-18-2.62016E-19
 -1       530 9.39520E-05-2.79186E-05-2.82987E-05-7.37260E-07 1.03989E-18-5.90891E-19
 -1       531 9.39304E-05-2.80858E-05-2.82188E-05-1.05290E-06 9.18369E-19-5.99841E-19
 -1       532 9.40085E-05-2.82067E-05-2.82008E-05-1.18378E-06 6.68225E-19-3.85714E-19
 -1       533 9.41479E-05-2.82955E-05-2.82228E-05-1.20999E-06 5.40996E-19 1.41750E-20
 -1       534 9.43236E-05-2.83599E-05-2.82705E-05-1.18694E-06 3.09561E-19-7.37845E-20
 -1       535 9.45213E-05-2.84054E-05-2.83357E-05-1.15433E-06 4.32567E-19-2.48468E-19
 -1       536 9.47353E-05-2.84362E-05-2.84140E-05-1.14164E-06 1.34989E-19-1.27945E-19
 -1       537 9.49667E-05-2.84562E-05-2.85044E-05-1.17184E-06 5.50588E-19-5.00244E-19
 -1       538 9.52216E-05-2.84695E-05-2.86077E-05-1.26379E-06 1.81819E-19-4.73157E-19
 -1       539 9.55107E-05-2.84805E-05-2.87265E-05-1.43369E-06 3.00279E-19-3.92555E-20
 -1       540 9.58476E-05-2.84945E-05-2.88646E-05-1.69575E-06 1.65329E-19-4.56764E-19
 -1       541 9.62495E-05-2.85185E-05-2.90262E-05-2.06180E-06 1.56512E-19 8.88221E-20
 -1       542 9.67356E-05-2.85627E-05-2.92152E-05-2.53975E-06-5.75725E-19-4.94033E-20
 -1       543 9.73281E-05-2.86421E-05-2.94348E-05-3.13037E-06-8.12757E-19-3.61841E-19
 -1       544 9.80523E-05-2.87798E-05-2.96860E-05-3.82177E-06 3.77412E-19-1.65179E-19
 -1       545 9.89373E-05-2.90112E-05-2.99662E-05-4.58079E-06 7.86361E-20-7.50249E-19
 -1       546 1.00019E-04-2.93895E-05-3.02683E-05-5.34036E-06 8.98297E-19 7.47198E-19
 -1       547 1.01343E-04-2.99909E-05-3.05792E-05-5.98277E-06 3.06746E-19 4.46127E-19
 -1       548 1.02965E-04-3.09141E-05-3.08810E-05-6.32028E-06-4.59410E-19-2.10498E-19
 -1       549 1.04945E-04-3.22614E-05-3.11554E-05-6.07982E-06 2.60627E-19-7.09334E-19
 -1       550 1.07309E-04-3.40792E-05-3.13938E-05-4.90871E-06 3.58838E-19-4.52301E-19
 -1       551 1.09965E-04-3.62279E-05-3.16151E-05-2.43933E-06-3.54781E-19-5.01936E-19
 -1       552 1.12544E-04-3.81797E-05-3.18852E-05 1.52143E-06-1.65183E-18 9.18212E-19
 -1       553 1.14238E-04-3.88542E-05-3.23209E-05 6.59238E-06-5.74221E-19 2.64026E-18
 -1       554 1.13971E-04-3.69253E-05-3.30303E-05 1.12803E-05 5.88876E-19 3.01613E-18
 -1       555 1.11260E-04-3.19864E-05-3.39934E-05 1.29430E-05-8.17445E-20 2.39152E-18
 -1       556 1.07393E-04-2.59954E-05-3.49214E-05 9.18397E-06-1.96366E-19 1.36971E-18
 -1       557 1.05348E-04-2.29927E-05-3.53348E-05 6.63762E-07-1.35254E-19 8.99359E-19
 -1       558 1.06957E-04-2.54350E-05-3.49712E-05-8.14405E-06 1.23442E-18 8.36728E-19
 -1       559 1.10722E-04-3.13241E-05-3.40447E-05-1.24792E-05 1.14889E-18 6.74333E-19
 -1       560 1.13599E-04-3.65400E-05-3.30311E-05-1.12711E-05 1.72971E-18 1.64967E-18
 -1       561 1.14032E-04-3.87793E-05-3.22631E-05-6.68943E-06 9.38994E-19 2.87624E-18
 -1       562 1.12402E-04-3.83091E-05-3.17718E-05-1.48572E-06-4.82702E-19 4.01484E-18
 -1       563 1.09761E-04-3.64105E-05-3.14521E-05 2.72355E-06-1.47825E-18 1.48249E-18
 -1       564 1.06961E-04-3.42083E-05-3.11908E-05 5.44888E-06-1.24115E-18 6.26203E-19
 -1       565 1.04415E-04-3.22848E-05-3.09194E-05 6.83116E-06-9.74812E-19 6.23993E-19
 -1       566 1.02241E-04-3.08047E-05-3.06178E-05 7.21320E-06 1.29139E-18 5.13478E-20
 -1       567 1.00419E-04-2.97226E-05-3.02979E-05 6.92733E-06 1.29866E-18 1.36322E-18
 -1       568 9.88971E-05-2.89208E-05-2.99855E-05 6.22368E-06-1.57289E-19 6.46965E-19
 -1       569 9.76149E-05-2.82839E-05-2.97075E-05 5.23957E-06 3.65239E-19 7.17499E-19
 -1       570 9.64954E-05-2.77315E-05-2.94653E-05 4.04231E-06 9.85277E-19 6.38903E-19
 -1       571 9.28629E-05-2.35285E-05-2.97161E-05 4.61893E-06 1.69222E-18 8.76819E-19
 -1       572 9.19746E-05-2.24930E-05-2.97803E-05 3.49110E-06 9.76567E-19 1.18745E-19
 -1       573 9.50641E-05-2.60902E-05-2.95598E-05 5.04132E-06 4.60657E-19-1.54497E-18
 -1       574 9.39287E-05-2.47734E-05-2.96360E-05 5.13729E-06 1.35094E-18-2.73687E-19
 -1       575 9.13792E-05-2.17979E-05-2.98236E-05 1.89333E-06 2.40780E-19-1.99828E-18
 -1       576 9.11606E-05-2.15431E-05-2.98393E-05 3.28293E-08 5.80827E-20-2.04366E-18
 -1       577 9.13539E-05-2.17687E-05-2.98253E-05-1.83714E-06-8.27034E-19-4.90460E-19
 -1       578 9.19182E-05-2.24265E-05-2.97845E-05-3.43593E-06-9.60541E-19 3.31247E-20
 -1       579 9.27993E-05-2.34507E-05-2.97224E-05-4.60642E-06-5.32627E-21 8.37891E-19
 -1       580 9.38757E-05-2.47054E-05-2.96450E-05-5.17542E-06-1.26857E-18 2.33569E-18
 -1       581 9.50555E-05-2.60587E-05-2.95687E-05-5.05507E-06-1.60716E-18 8.36499E-20
 -1       582 2.56705E-05-1.65303E-05-3.36556E-06 1.62362E-05-5.49010E-19 1.15472E-18
 -1       583 4.90090E-05-2.92083E-05-8.03078E-06 3.68217E-05-7.92346E-19-8.02034E-20
 -1       584 2.56667E-05-1.56766E-05-3.70482E-06-1.46774E-05-1.00821E-18 5.41783E-19
 -1       585 9.44994E-05-2.72848E-05-2.87976E-05 9.92841E-07 1.86386E-18-4.98360E-20
 -1       586 8.96365E-05-4.93741E-05-1.69270E-05 4.14429E-05 8.52803E-19-1.17241E-18
 -1       587 1.22717E-04-6.06046E-05-2.66050E-05 2.75034E-05 8.90761E-19 1.49025E-20
 -1       588 8.91070E-05-4.88426E-05-1.68642E-05-4.12235E-05 1.93473E-18-2.67964E-18
 -1       589 1.40363E-04-5.34957E-05-3.74825E-05-6.72157E-07 7.99387E-20 5.32943E-19
 -1       590 1.36490E-04-1.20488E-05-5.39100E-05-7.08454E-06-3.22847E-18-4.38588E-18
 -1       591 1.35963E-04-1.26327E-05-5.34353E-05-7.44644E-06 1.97158E-18-7.12249E-19
 -1       592 8.91885E-05-1.28877E-05-3.27184E-05-1.93961E-06 1.54610E-19-4.28050E-18
 -1       593 1.33233E-04-9.57405E-06-5.35958E-05 4.85837E-06 3.64563E-18 1.25337E-18
 -1       594 6.27636E-05-3.74368E-05-1.04888E-05-4.16518E-05-3.25679E-18-3.08696E-18
 -1       595 1.36123E-04-2.56393E-05-4.79025E-05 1.32381E-05 2.35009E-18 1.30724E-18
 -1       596 1.43268E-04-4.80826E-05-4.11356E-05 2.99970E-06 6.67131E-19 5.19284E-19
 -1       597 1.32846E-04-6.02713E-05-3.11959E-05-1.58901E-05-6.93667E-19 4.69547E-19
 -1       598 1.15742E-04-5.91915E-05-2.41444E-05-3.13487E-05 1.17049E-18-4.17262E-18
 -1       599 1.06697E-04-5.60761E-05-2.14429E-05-3.62683E-05-2.89998E-18-3.41251E-18
 -1       600 3.35717E-05-2.08707E-05-4.91232E-06-2.71105E-05-2.59541E-18-6.13887E-18
 -1       601 2.25081E-05-1.29740E-05-3.50156E-06 3.80449E-07-7.53692E-19-2.36301E-18
 -1       602 3.68771E-05-2.21834E-05-5.70906E-06 2.91921E-05-1.66548E-19-3.57310E-18
 -1       603 1.15976E-04-5.87269E-05-2.44504E-05 3.13996E-05-2.04876E-19-5.03541E-18
 -1       604 1.35883E-04-5.86668E-05-3.32224E-05 1.59995E-05-7.92770E-20-4.07566E-18
 -1       605 1.44180E-04-4.61831E-05-4.23271E-05-3.50354E-06-7.86523E-19-1.47013E-18
 -1       606 1.42416E-04-2.64044E-05-5.01915E-05-1.07632E-05-1.57474E-18-2.88425E-18
 -1       607 1.35589E-04-9.75718E-06-5.45132E-05 3.55054E-06-3.50672E-18-3.94635E-18
 -1       608 1.40673E-04-2.28197E-05-5.10107E-05 1.07382E-05-2.69785E-18-6.20070E-18
 -1       609 1.44090E-04-4.43186E-05-4.31392E-05 5.11326E-06-5.01391E-19-6.72412E-18
 -1       610 1.38000E-04-5.84667E-05-3.42295E-05-1.24695E-05 1.98142E-18-5.47554E-18
 -1       611 5.21748E-05-2.79724E-05-9.78677E-06-3.56229E-05 3.54324E-19-2.04918E-18
 -1       612 9.45692E-05-2.06841E-05-3.16851E-05-9.58646E-06-3.01107E-18-2.63226E-18
 -1       613 9.61377E-05-2.31838E-05-3.12695E-05 9.59509E-06 3.53266E-18 1.10195E-18
 -1       614 9.13520E-05-1.58549E-05-3.23792E-05-7.77736E-06-2.09760E-18-4.08461E-18
 -1       615 6.17657E-05-3.16469E-05-1.24073E-05 3.67881E-05 1.71471E-19-3.04397E-18
 -1       616 1.00701E-04-5.25423E-05-2.03707E-05 3.60606E-05-1.91985E-19-3.42601E-18
 -1       617 9.61930E-05-2.72825E-05-2.95290E-05-4.66776E-06-3.80422E-19 2.30974E-18
 -1       618 9.15841E-05-1.68550E-05-3.20324E-05 2.44465E-06 1.53324E-18-3.52571E-18
 -1       619 9.13274E-05-1.64522E-05-3.20947E-05 8.41315E-07 9.90775E-19-3.50785E-18
 -1       620 9.29083E-05-1.90020E-05-3.16798E-05 5.27231E-06 2.56151E-18-2.54656E-18
 -1       621 9.39880E-05-2.09287E-05-3.13190E-05 6.15281E-06 2.86878E-18-1.85016E-18
 -1       622 9.52659E-05-2.40926E-05-3.04925E-05 5.15945E-06 2.70348E-18-1.06397E-18
 -1       623 1.29398E-04-5.79600E-05-3.06287E-05 1.01311E-05 1.17903E-18 4.10176E-19
 -1       624 9.53301E-05-2.59338E-05-2.97373E-05 2.61369E-06 2.28346E-18-1.10301E-18
 -1       625 7.49502E-05-3.68191E-05-1.59728E-05 3.72605E-05 1.50004E-18 1.07097E-18
 -1       626 9.54193E-05-2.57074E-05-2.98757E-05-2.44489E-06-1.61278E-18-2.47754E-18
 -1       627 9.54765E-05-2.69339E-05-2.93748E-05-8.66506E-07-1.25219E-18-2.27419E-18
 -1       628 9.54232E-05-2.76856E-05-2.90302E-05 1.48837E-07-9.74043E-19-2.18481E-18
 -1       629 9.53499E-05-2.81450E-05-2.88021E-05 7.58212E-07-6.74536E-19-2.06507E-18
 -1       630 9.52891E-05-2.84179E-05-2.86591E-05 1.09308E-06-8.75095E-19-1.87516E-18
 -1       631 9.52490E-05-2.85668E-05-2.85782E-05 1.25414E-06-7.26550E-19-1.52275E-18
 -1       632 9.52284E-05-2.86298E-05-2.85424E-05 1.31672E-06-7.53592E-19-9.08872E-19
 -1       633 9.52237E-05-2.86307E-05-2.85399E-05 1.33710E-06-2.49123E-19-4.49957E-19
 -1       634 9.52312E-05-2.85850E-05-2.85627E-05 1.35776E-06-5.14933E-19-9.26674E-19
 -1       635 9.52483E-05-2.85022E-05-2.86055E-05 1.41154E-06-1.27071E-19-1.23571E-18
 -1       636 9.52733E-05-2.83881E-05-2.86650E-05 1.52481E-06-3.19590E-19-1.23755E-18
 -1       637 9.53055E-05-2.82467E-05-2.87394E-05 1.71955E-06-7.29862E-19-6.08428E-19
 -1       638 9.53453E-05-2.80808E-05-2.88275E-05 2.01466E-06-9.17057E-19-3.56398E-19
 -1       639 9.53940E-05-2.78946E-05-2.89280E-05 2.42640E-06-7.65076E-19-8.24564E-19
 -1       640 9.54554E-05-2.76958E-05-2.90394E-05 2.96780E-06-6.07302E-19-7.92468E-19
 -1       641 9.55371E-05-2.74996E-05-2.91585E-05 3.64707E-06-5.32627E-19-2.33629E-19
 -1       642 9.56544E-05-2.73336E-05-2.92798E-05 4.46467E-06-2.70219E-19-7.39930E-19
 -1       643 9.58367E-05-2.72468E-05-2.93951E-05 5.40886E-06 3.65010E-19-1.19034E-18
 -1       644 9.61383E-05-2.73206E-05-2.94927E-05 6.44915E-06 8.10806E-19-1.18307E-18
 -1       645 9.66558E-05-2.76835E-05-2.95591E-05 7.52667E-06 7.48400E-19-1.34431E-18
 -1       646 9.75504E-05-2.85252E-05-2.95821E-05 8.53925E-06 2.56039E-19-1.55941E-18
 -1       647 9.90731E-05-3.00999E-05-2.95605E-05 9.31611E-06 1.66638E-19-1.37672E-18
 -1       648 1.01572E-04-3.26916E-05-2.95219E-05 9.57276E-06 1.45851E-18-8.11519E-19
 -1       649 1.05435E-04-3.64809E-05-2.95548E-05 8.83910E-06 1.30502E-18-1.07282E-18
 -1       650 1.10857E-04-4.12065E-05-2.98523E-05 6.40083E-06 5.16523E-19 4.80491E-19
 -1       651 1.17362E-04-4.55808E-05-3.07662E-05 1.40700E-06 8.79766E-19 1.28475E-18
 -1       652 1.22947E-04-4.63535E-05-3.28391E-05-6.40623E-06 1.87436E-18 1.92282E-18
 -1       653 1.24460E-04-4.01769E-05-3.62637E-05-1.43845E-05 1.16705E-18 1.97862E-18
 -1       654 1.19724E-04-2.64974E-05-4.02514E-05-1.51121E-05 3.32871E-19 1.41869E-18
 -1       655 1.14945E-04-1.53261E-05-4.30588E-05-5.35802E-06-1.51333E-18 1.17672E-18
 -1       656 1.15837E-04-1.72768E-05-4.26028E-05 9.02842E-06-9.31048E-19-6.52255E-19
 -1       657 1.21668E-04-3.11411E-05-3.89837E-05 1.53982E-05-1.25112E-18-2.72903E-19
 -1       658 1.24296E-04-4.31212E-05-3.48891E-05 1.16177E-05-2.75263E-18 7.77550E-20
 -1       659 1.21447E-04-4.69486E-05-3.19460E-05 3.16989E-06-1.36242E-18-7.86510E-19
 -1       660 1.15275E-04-4.45639E-05-3.03107E-05-3.85468E-06 3.42114E-20-2.28347E-18
 -1       661 1.08985E-04-3.98753E-05-2.96210E-05-8.08978E-06 8.19152E-19-1.29061E-19
 -1       662 1.04023E-04-3.53617E-05-2.94281E-05-1.00205E-05 9.22800E-19-2.64304E-19
 -1       663 1.00598E-04-3.19179E-05-2.94354E-05-1.04871E-05 5.56564E-19-9.82568E-19
 -1       664 9.84102E-05-2.95997E-05-2.94904E-05-1.01091E-05 1.55843E-18 1.35212E-18
 -1       665 9.70612E-05-2.81494E-05-2.95333E-05-9.26763E-06 8.67075E-19 1.79355E-18
 -1       666 9.62208E-05-2.72586E-05-2.95543E-05-8.17134E-06-8.86163E-19 9.99058E-19
 -1       667 9.56506E-05-2.66661E-05-2.95636E-05-6.92625E-06-2.46200E-18 9.48970E-19
 -1       668 9.49856E-05-2.80902E-05-2.86692E-05-7.63260E-07 1.00408E-18-8.80284E-19
 -1       669 9.55774E-05-2.66068E-05-2.95582E-05 6.42997E-06 1.48902E-19-1.36252E-18
 -1       670 9.50919E-05-2.76930E-05-2.88846E-05-1.35692E-07 1.20202E-18-1.03728E-18
 -1       671 9.49197E-05-2.84727E-05-2.84773E-05-1.25716E-06 3.42806E-19-1.01983E-18
 -1       672 9.49426E-05-2.85443E-05-2.84565E-05-1.30995E-06 5.52783E-19-1.05995E-18
 -1       673 9.49897E-05-2.85661E-05-2.84673E-05-1.31677E-06 4.44828E-19-6.96234E-19
 -1       674 9.50543E-05-2.85507E-05-2.85016E-05-1.32027E-06 2.83036E-20-6.80423E-19
 -1       675 9.51333E-05-2.85063E-05-2.85544E-05-1.35306E-06 2.38922E-19-2.90689E-19
 -1       676 9.52259E-05-2.84384E-05-2.86231E-05-1.44103E-06 1.06042E-19 3.59138E-19
 -1       677 9.53338E-05-2.83509E-05-2.87068E-05-1.60560E-06 1.25159E-19-4.67599E-20
 -1       678 9.54608E-05-2.82476E-05-2.88053E-05-1.86502E-06 2.31642E-19 6.53667E-20
 -1       679 9.56122E-05-2.81332E-05-2.89192E-05-2.23484E-06-1.81399E-19 2.97538E-19
 -1       680 9.57963E-05-2.80154E-05-2.90484E-05-2.72727E-06 3.64241E-19 1.37035E-19
 -1       681 9.60246E-05-2.79081E-05-2.91921E-05-3.34921E-06-2.18623E-19-4.99574E-19
 -1       682 9.63146E-05-2.78355E-05-2.93474E-05-4.09883E-06-2.20775E-19-9.44979E-19
 -1       683 9.66946E-05-2.78385E-05-2.95089E-05-4.96016E-06 1.82805E-20-5.11316E-19
 -1       684 9.72113E-05-2.79840E-05-2.96680E-05-5.89482E-06 2.78594E-19-5.32757E-19
 -1       685 9.79414E-05-2.83759E-05-2.98132E-05-6.83045E-06 6.12962E-19-1.90990E-19
 -1       686 9.90071E-05-2.91643E-05-2.99326E-05-7.64421E-06-6.70800E-20 3.60999E-19
 -1       687 1.00589E-04-3.05434E-05-3.00209E-05-8.14015E-06-4.98081E-19-4.87076E-19
 -1       688 1.02922E-04-3.27144E-05-3.00921E-05-8.02058E-06-6.40644E-19 2.49493E-19
 -1       689 1.06231E-04-3.57708E-05-3.02028E-05-6.85740E-06-2.76155E-19 9.88888E-19
 -1       690 1.10541E-04-3.94348E-05-3.04817E-05-4.11325E-06-1.82631E-18 2.30064E-18
 -1       691 1.15329E-04-4.26571E-05-3.11543E-05 6.81140E-07-6.48916E-19 9.14016E-19
 -1       692 1.19034E-04-4.31966E-05-3.25232E-05 7.21227E-06-1.11404E-19 1.41337E-18
 -1       693 1.19478E-04-3.86433E-05-3.46721E-05 1.32706E-05 8.73559E-19 2.32366E-18
 -1       694 1.15441E-04-2.85215E-05-3.73872E-05 1.43362E-05 7.90189E-19 8.75113E-19
 -1       695 1.10827E-04-1.93605E-05-3.93849E-05 6.92379E-06-1.16216E-19-1.02441E-19
 -1       696 1.10474E-04-1.87765E-05-3.95215E-05-5.36447E-06 9.77516E-19-1.20433E-18
 -1       697 1.14900E-04-2.74066E-05-3.76573E-05-1.36281E-05 8.60341E-19-1.14445E-18
 -1       698 1.19097E-04-3.76836E-05-3.49527E-05-1.33756E-05 3.35200E-19-8.93003E-19
 -1       699 1.19211E-04-4.31283E-05-3.26170E-05-7.47896E-06 4.63064E-19 5.77468E-19
 -1       700 1.15701E-04-4.29946E-05-3.11740E-05-7.47677E-07-3.58038E-19 1.10598E-18
 -1       701 1.10877E-04-3.99281E-05-3.04175E-05 4.37442E-06-4.41773E-19 1.85957E-18
 -1       702 1.06430E-04-3.62355E-05-3.00882E-05 7.43277E-06 3.89799E-19 2.17740E-18
 -1       703 1.02956E-04-3.30628E-05-2.99565E-05 8.83963E-06 2.82312E-19-4.44613E-19
 -1       704 1.00466E-04-3.07382E-05-2.98846E-05 9.12794E-06 1.00332E-19-1.48630E-18
 -1       705 9.87389E-05-2.91758E-05-2.98127E-05 8.72171E-06 9.00305E-19-1.50464E-18
 -1       706 9.75241E-05-2.81559E-05-2.97286E-05 7.90054E-06 1.38891E-18-1.21801E-18
 -1       707 9.64208E-05-2.73202E-05-2.96125E-05 7.24506E-06 6.29347E-19-2.46669E-18
 -1       708 8.99370E-05-2.16377E-05-2.92723E-05 1.22305E-06 1.37175E-18-2.50552E-18
 -1       709 9.53496E-05-2.63553E-05-2.95671E-05-6.01831E-06-1.10596E-18-7.88408E-20
 -1       710 9.16740E-05-2.31833E-05-2.93539E-05 5.08729E-06 5.04228E-19 1.08871E-18
 -1       711 8.99142E-05-2.16143E-05-2.92726E-05-1.12643E-06 8.89409E-19-3.14143E-18
 -1       712 9.05593E-05-2.21938E-05-2.93005E-05 3.39172E-06 9.00473E-19-8.27067E-19
 -1       713 9.04840E-05-2.21176E-05-2.93007E-05-3.28576E-06-5.81368E-19-1.34621E-18
 -1       714 9.15685E-05-2.30760E-05-2.93548E-05-5.03343E-06-1.27285E-18 6.17786E-19
 -1       715 9.30261E-05-2.43506E-05-2.94331E-05-6.09975E-06-1.44040E-18 1.49856E-18
 -1       716 4.51757E-05-1.70641E-05-1.15207E-05-2.06279E-05-1.17759E-18-1.27081E-18
 -1       717 1.05645E-04-5.27329E-05-2.25152E-05-3.15124E-05 2.11343E-18-2.77545E-18
 -1       718 1.20130E-04-5.77561E-05-2.66643E-05-2.19192E-05-2.35417E-18-1.70786E-18
 -1       719 5.70246E-05-2.66697E-05-1.25361E-05-3.31937E-05-3.59198E-18-3.00151E-18
 -1       720 1.30264E-04-3.87991E-05-3.95165E-05-1.35770E-05 1.73298E-19-1.16556E-18
 -1       721 1.37093E-04-5.45288E-05-3.55956E-05 2.79749E-08 1.25281E-19-1.05334E-18
 -1       722 1.34326E-04-5.35213E-05-3.47744E-05 2.06818E-06 3.74187E-19 3.92335E-19
 -1       723 9.52284E-05-2.70325E-05-2.92248E-05 9.28957E-07 1.79102E-18-1.26107E-18
 -1       724 4.54502E-05-1.90681E-05-1.08005E-05 2.47695E-05-1.19140E-19 4.26163E-19
 -1       725 9.49304E-05-2.83320E-05-2.85421E-05-1.10107E-06 7.87417E-19-9.63313E-19
 -1       726 9.50065E-05-2.36237E-05-3.05894E-05-4.73458E-06-1.90558E-18-2.80795E-18
 -1       727 1.21687E-04-1.06287E-05-4.81586E-05-2.29125E-06-3.65966E-18-1.23150E-18
 -1       728 1.10186E-04-5.49107E-05-2.34952E-05 3.01383E-05 1.87710E-18-1.22509E-18
 -1       729 1.25554E-04-1.61702E-05-4.74256E-05 1.06984E-05-1.89444E-18-2.74235E-18
 -1       730 1.29087E-04-5.94917E-05-2.98225E-05-1.45178E-05 7.34139E-19-4.62326E-18
 -1       731 9.21027E-05-1.76809E-05-3.19009E-05 3.95370E-06 2.03403E-18-2.97059E-18
 -1       732 9.20572E-05-1.76201E-05-3.19082E-05-3.89567E-06-9.42203E-19-3.76877E-18
 -1       733 1.24720E-04-2.03737E-05-4.51852E-05-1.31213E-05 8.50368E-19-1.84693E-18
 -1       734 1.30157E-04-3.80952E-05-3.97957E-05 1.47147E-05 1.07796E-18 1.64155E-18
 -1       735 7.54963E-05-3.62002E-05-1.65121E-05-3.56997E-05-5.56501E-19-3.44999E-18
 -1       736 3.88243E-05-1.31617E-05-1.04646E-05-1.40633E-05-1.04465E-18-3.50778E-18
 -1       737 1.20977E-04-1.71535E-05-4.49568E-05 1.14181E-05 2.14352E-18 1.43519E-18
 -1       738 1.33873E-04-3.64678E-05-4.20753E-05-1.40475E-05 1.73642E-19-6.83847E-19
 -1       739 3.59259E-05-1.15797E-05-9.86386E-06 1.60773E-06-8.23849E-19 2.09011E-18
 -1       740 8.86710E-05-4.44014E-05-1.86923E-05-3.63558E-05-2.91146E-18-3.04880E-18
 -1       741 3.99703E-05-1.36958E-05-1.06931E-05 1.50113E-05-4.19427E-19-1.44334E-18
 -1       742 1.28726E-04-5.94280E-05-2.97386E-05 1.54694E-05 1.23572E-18-2.34513E-18
 -1       743 1.31400E-04-3.35700E-05-4.22930E-05 1.48004E-05-1.40814E-18-4.79325E-18
 -1       744 1.27363E-04-1.96379E-05-4.66762E-05-1.30275E-05 1.02173E-20-1.30708E-19
 -1       745 1.36990E-04-5.33024E-05-3.60837E-05 2.10541E-06 7.27760E-19-5.01081E-18
 -1       746 1.20051E-04-1.09030E-05-4.73101E-05-2.18690E-06 1.54880E-18-9.10269E-19
 -1       747 9.28210E-05-1.88837E-05-3.16958E-05-5.23732E-06-1.61638E-18-3.68037E-18
 -1       748 9.13198E-05-1.64428E-05-3.20956E-05-7.84214E-07 4.41833E-19-3.69593E-18
 -1       749 8.49351E-05-4.16766E-05-1.82290E-05 3.57006E-05 1.63986E-18-4.13576E-18
 -1       750 9.30998E-05-2.44455E-05-2.94238E-05 6.12269E-06 2.03398E-18-9.23986E-19
 -1       751 5.53755E-05-2.07001E-05-1.44590E-05 2.48243E-05 2.48737E-19-2.43366E-18
 -1       752 6.33621E-05-2.44208E-05-1.63787E-05-2.69573E-05-1.53965E-18-2.31750E-18
 -1       753 9.41680E-05-2.12985E-05-3.12328E-05-6.16981E-06-2.16330E-18-3.17116E-18
 -1       754 1.29256E-04-4.94440E-05-3.43062E-05-5.84556E-06 3.00032E-19-1.63332E-18
 -1       755 1.17093E-04-5.62643E-05-2.59354E-05 2.30919E-05 1.08575E-18-1.95189E-18
 -1       756 9.15607E-05-1.68231E-05-3.20360E-05-2.38141E-06-2.35580E-19-3.66893E-18
 -1       757 9.42102E-05-2.54690E-05-2.94602E-05-6.72990E-06-3.12681E-18-7.67914E-19
 -1       758 1.16795E-04-5.32334E-05-2.71803E-05 1.78056E-05 9.54120E-20-5.90379E-19
 -1       759 9.46401E-05-2.27206E-05-3.08227E-05 3.91239E-06 2.30896E-18-1.94153E-18
 -1       760 4.89289E-05-1.19408E-05-1.55498E-05 2.66319E-07-5.30170E-19-1.94270E-18
 -1       761 9.49010E-05-2.33870E-05-3.06472E-05-3.51483E-06-1.51803E-18-3.10878E-18
 -1       762 9.58796E-05-2.68635E-05-2.95782E-05-5.70578E-07-8.01410E-19-2.09527E-18
 -1       763 9.59704E-05-2.77359E-05-2.92434E-05 2.48740E-07-6.56907E-19-1.76555E-18
 -1       764 9.59550E-05-2.82726E-05-2.90068E-05 7.54819E-07-7.86105E-19-1.73615E-18
 -1       765 9.58875E-05-2.85795E-05-2.88463E-05 1.04221E-06-5.69703E-19-1.52767E-18
 -1       766 9.57957E-05-2.87254E-05-2.87444E-05 1.19007E-06-3.55324E-19-1.13614E-18
 -1       767 9.56932E-05-2.87560E-05-2.86874E-05 1.26154E-06-6.12797E-19-7.36413E-19
 -1       768 9.55857E-05-2.87013E-05-2.86648E-05 1.30568E-06-3.12184E-19-6.19883E-19
 -1       769 9.54743E-05-2.85805E-05-2.86688E-05 1.36063E-06-4.23479E-19-4.68260E-20
 -1       770 9.53566E-05-2.84051E-05-2.86935E-05 1.45658E-06-4.13133E-19-8.41305E-19
 -1       771 9.52285E-05-2.81816E-05-2.87344E-05 1.61816E-06-4.05260E-19-1.24700E-18
 -1       772 9.50844E-05-2.79136E-05-2.87874E-05 1.86615E-06-7.64938E-19-1.22805E-18
 -1       773 9.49177E-05-2.76037E-05-2.88488E-05 2.21849E-06-9.53271E-19-1.03341E-18
 -1       774 9.47228E-05-2.72568E-05-2.89139E-05 2.69071E-06-8.24891E-19-1.02054E-18
 -1       775 9.44960E-05-2.68833E-05-2.89768E-05 3.29570E-06-3.01211E-19-9.93720E-19
 -1       776 9.42395E-05-2.65047E-05-2.90291E-05 4.04311E-06-3.09550E-19-3.55237E-19
 -1       777 9.39672E-05-2.61611E-05-2.90596E-05 4.93855E-06 1.18083E-19-8.55464E-19
 -1       778 9.37143E-05-2.59217E-05-2.90537E-05 5.98285E-06 4.02257E-19-4.57086E-19
 -1       779 9.35538E-05-2.59002E-05-2.89941E-05 7.17119E-06 7.22777E-19-6.17591E-19
 -1       780 9.36211E-05-2.62738E-05-2.88628E-05 8.49094E-06 4.20170E-19-3.32707E-19
 -1       781 9.41501E-05-2.73042E-05-2.86479E-05 9.91325E-06-7.69754E-20 4.07798E-20
 -1       782 9.55209E-05-2.93516E-05-2.83577E-05 1.13643E-05 7.35752E-19-1.02932E-18
 -1       783 9.83061E-05-3.28538E-05-2.80492E-05 1.26415E-05 1.60568E-18-1.32587E-18
 -1       784 1.03251E-04-3.81766E-05-2.78839E-05 1.32213E-05 1.52692E-18-1.27128E-18
 -1       785 1.10986E-04-4.50888E-05-2.82048E-05 1.20313E-05 1.54603E-18 5.44814E-20
 -1       786 1.21077E-04-5.15419E-05-2.97825E-05 7.13622E-06 1.34885E-18 1.64227E-19
 -1       787 1.28163E-04-5.27667E-05-3.23731E-05-2.41960E-07-1.92945E-18-9.21014E-19
 -1       788 1.18362E-04-4.99961E-05-2.92781E-05-8.70826E-06-8.88471E-19 6.72847E-19
 -1       789 1.08969E-04-4.32139E-05-2.81622E-05-1.27068E-05 7.30380E-19 9.49701E-19
 -1       790 1.02190E-04-3.68207E-05-2.80107E-05-1.35417E-05 6.34204E-19-1.35692E-18
 -1       791 9.79911E-05-3.21121E-05-2.82329E-05-1.29357E-05-8.41893E-19-2.79273E-18
 -1       792 9.56810E-05-2.90566E-05-2.85527E-05-1.17652E-05 2.27515E-18-3.23438E-18
 -1       793 9.45752E-05-2.72471E-05-2.88547E-05-1.04281E-05 1.28807E-18-1.93546E-18
 -1       794 9.41576E-05-2.62344E-05-2.91093E-05-9.06391E-06-3.07337E-19-2.02721E-18
 -1       795 9.41730E-05-2.57879E-05-2.93069E-05-7.88289E-06-2.28984E-18-5.87194E-19
 -1       796 1.04618E-04-4.76085E-05-2.43337E-05-2.50051E-05-2.60588E-18-3.14303E-18
 -1       797 8.85485E-05-2.15348E-05-2.87207E-05-2.69901E-06 1.69162E-18-1.80785E-18
 -1       798 9.57384E-05-2.77202E-05-2.91507E-05-2.20145E-07 9.23803E-19-1.28517E-18
 -1       799 9.55033E-05-2.87075E-05-2.86268E-05-1.29864E-06 9.41474E-20-9.17053E-19
 -1       800 9.55689E-05-2.86616E-05-2.86746E-05-1.23120E-06 4.17388E-19-9.94144E-19
 -1       801 9.53852E-05-2.85931E-05-2.86252E-05-1.37316E-06-3.92034E-19-8.73199E-19
 -1       802 9.53299E-05-2.84613E-05-2.86580E-05-1.45201E-06-1.78511E-19-8.35666E-19
 -1       803 9.52737E-05-2.82899E-05-2.87073E-05-1.59461E-06 1.66835E-19-3.23568E-19
 -1       804 9.52137E-05-2.80831E-05-2.87702E-05-1.82223E-06 1.31534E-19 1.28730E-19
 -1       805 9.51470E-05-2.78442E-05-2.88440E-05-2.15298E-06-3.55813E-19 4.09803E-19
 -1       806 9.50718E-05-2.75785E-05-2.89256E-05-2.60239E-06 1.19455E-19-4.30173E-19
 -1       807 9.49894E-05-2.72968E-05-2.90109E-05-3.18249E-06-1.43157E-20-2.02037E-19
 -1       808 9.49063E-05-2.70194E-05-2.90942E-05-3.90072E-06-2.83813E-19-1.10705E-19
 -1       809 9.48400E-05-2.67834E-05-2.91669E-05-4.75780E-06-3.15997E-19 4.49227E-19
 -1       810 9.48276E-05-2.66522E-05-2.92177E-05-5.74462E-06-2.17841E-19 8.09878E-19
 -1       811 9.49396E-05-2.67287E-05-2.92329E-05-6.83800E-06 3.04744E-19 4.62412E-19
 -1       812 9.53011E-05-2.71711E-05-2.91982E-05-7.99368E-06 2.78722E-19 2.14664E-20
 -1       813 9.61198E-05-2.82075E-05-2.91050E-05-9.13251E-06 1.30278E-19 1.85995E-19
 -1       814 9.77160E-05-3.01370E-05-2.89627E-05-1.01093E-05-6.65805E-19-1.83571E-19
 -1       815 1.00531E-04-3.32827E-05-2.88222E-05-1.06533E-05-1.31165E-18-6.16620E-19
 -1       816 1.05076E-04-3.78452E-05-2.88148E-05-1.02325E-05-1.13861E-18-1.32654E-18
 -1       817 1.11568E-04-4.33992E-05-2.92099E-05-7.98976E-06-1.46031E-18-1.23683E-18
 -1       818 1.19516E-04-4.83513E-05-3.04919E-05-2.64918E-06-1.63557E-18 7.58103E-19
 -1       819 1.12558E-04-4.43026E-05-2.92568E-05 8.20662E-06-1.40238E-18 3.42391E-19
 -1       820 1.05809E-04-3.86820E-05-2.87662E-05 1.08683E-05 4.39296E-19-7.93474E-19
 -1       821 1.01051E-04-3.39554E-05-2.87524E-05 1.15113E-05 1.12753E-20 5.05341E-20
 -1       822 9.80908E-05-3.06318E-05-2.89103E-05 1.11288E-05-3.78756E-20 5.71833E-19
 -1       823 9.63908E-05-2.85042E-05-2.90943E-05 1.02510E-05 8.30566E-19 6.21622E-19
 -1       824 9.54839E-05-2.72265E-05-2.92524E-05 9.14134E-06 5.98554E-19 1.19169E-18
 -1       825 9.50013E-05-4.33975E-05-2.19434E-05 3.00228E-05 1.70496E-18-8.46689E-19
 -1       826 9.32338E-05-1.97727E-05-3.14843E-05 1.23456E-06 1.08311E-18-3.06940E-18
 -1       827 9.15762E-05-2.38074E-05-2.90444E-05-6.72707E-06-1.83431E-18 2.89847E-19
 -1       828 8.81439E-05-2.12333E-05-2.86767E-05 1.00752E-07 1.53245E-18-2.97961E-18
 -1       829 1.28364E-04-5.43568E-05-3.18319E-05 2.80921E-06 1.71767E-18 1.29702E-19
 -1       830 9.52174E-05-2.44753E-05-3.03180E-05 3.43508E-06 2.30108E-18-1.44288E-18
 -1       831 1.24127E-04-5.35183E-05-3.02455E-05-6.49639E-06-1.39579E-18-8.59292E-19
 -1       832 1.18138E-04-5.45008E-05-2.72187E-05-1.81805E-05 5.42763E-19-2.41070E-18
 -1       833 9.39492E-05-4.25325E-05-2.19190E-05-2.94760E-05-2.18978E-19-3.28157E-18
 -1       834 8.97535E-05-2.24487E-05-2.88459E-05-5.07296E-06 3.93152E-19-1.61342E-18
 -1       835 4.92638E-05-1.44781E-05-1.45698E-05 1.30902E-05 4.50496E-19 2.28500E-18
 -1       836 7.64634E-05-3.20294E-05-1.88231E-05-3.02153E-05-2.67582E-18-2.23201E-18
 -1       837 9.54423E-05-2.86787E-05-2.86130E-05-1.33256E-06-9.46886E-20-9.15317E-19
 -1       838 5.76182E-05-1.87549E-05-1.63671E-05-2.10287E-05-1.58171E-18-2.18339E-18
 -1       839 9.40471E-05-2.13219E-05-3.11682E-05-4.46401E-06-1.57189E-18-3.31653E-18
 -1       840 4.85718E-05-1.32943E-05-1.47790E-05-8.02430E-06 3.55860E-19 7.76517E-19
 -1       841 9.56018E-05-2.55242E-05-3.00348E-05-1.80863E-06-1.17967E-18-2.58845E-18
 -1       842 6.70545E-05-2.52428E-05-1.76420E-05 2.66972E-05 1.70655E-18 1.80343E-18
 -1       843 1.25403E-04-4.80071E-05-3.32224E-05 6.19542E-06-7.71263E-21 1.75844E-18
 -1       844 9.31267E-05-1.95762E-05-3.15228E-05 1.94951E-08 6.42324E-19-3.20795E-18
 -1       845 9.40580E-05-2.13584E-05-3.11561E-05 3.32362E-06 1.94320E-18-2.36984E-18
 -1       846 1.03550E-04-4.90862E-05-2.32166E-05 2.80314E-05 2.22992E-18-1.99849E-18
 -1       847 9.17360E-05-2.39584E-05-2.90468E-05 6.77303E-06 9.99418E-19-1.13598E-18
 -1       848 8.99026E-05-2.25845E-05-2.88508E-05 5.17256E-06-1.89672E-19 3.74778E-19
 -1       849 1.21061E-04-5.46905E-05-2.83498E-05 1.41071E-05 1.94338E-18-3.30048E-19
 -1       850 9.56992E-05-2.68943E-05-2.94877E-05 6.81950E-07 1.42406E-18-1.37577E-18
 -1       851 9.56371E-05-2.85139E-05-2.87671E-05-1.07791E-06 4.63506E-19-1.30475E-18
 -1       852 1.20727E-04-4.90737E-05-3.07012E-05 2.27532E-06-1.21226E-18-1.24659E-18
 -1       853 9.46015E-05-2.62872E-05-2.92835E-05 8.20303E-06 1.57959E-18 1.97571E-18
 -1       854 9.35570E-05-2.03676E-05-3.13671E-05 2.37299E-06 1.69515E-18-2.92559E-18
 -1       855 8.86311E-05-2.16127E-05-2.87228E-05 2.85477E-06 7.48534E-19-1.45445E-18
 -1       856 7.21665E-05-2.93417E-05-1.81137E-05 2.91346E-05 1.50845E-18-2.61590E-18
 -1       857 6.01395E-05-1.80132E-05-1.78618E-05-1.66225E-05 5.25389E-19-7.10899E-19
 -1       858 8.07813E-05-3.18970E-05-2.08012E-05-2.68008E-05-7.06002E-19-4.78513E-18
 -1       859 5.50604E-05-1.44560E-05-1.71688E-05 1.04553E-05 1.33485E-19-5.81025E-19
 -1       860 9.40654E-05-2.56686E-05-2.93146E-05 7.52817E-06 9.44991E-19 2.02806E-18
 -1       861 9.57002E-05-2.82220E-05-2.89192E-05-7.70379E-07 8.65794E-19-1.31924E-18
 -1       862 9.55221E-05-2.58885E-05-2.98429E-05 1.82902E-06 1.95164E-18-1.48496E-18
 -1       863 9.35186E-05-2.03209E-05-3.13725E-05-2.32138E-06-5.30955E-19-3.16552E-18
 -1       864 9.28149E-05-2.47798E-05-2.91560E-05-7.46539E-06-1.72129E-18 7.47710E-20
 -1       865 9.36775E-05-2.06361E-05-3.13058E-05-3.42030E-06-1.09674E-18-3.28831E-18
 -1       866 1.09618E-04-4.70759E-05-2.67654E-05 1.79141E-05-7.09327E-19-3.66769E-18
 -1       867 5.67716E-05-1.39028E-05-1.82296E-05 2.80598E-06 2.01846E-18 2.65211E-18
 -1       868 9.63679E-05-2.78566E-05-2.93620E-05 3.34134E-07-6.96690E-19-1.87841E-18
 -1       869 9.63728E-05-2.84082E-05-2.91277E-05 7.12304E-07-3.99359E-19-1.68063E-18
 -1       870 9.62852E-05-2.87076E-05-2.89618E-05 9.31439E-07-4.31688E-19-1.55153E-18
 -1       871 9.61411E-05-2.88231E-05-2.88506E-05 1.05134E-06-1.80282E-19-1.50818E-18
 -1       872 9.59620E-05-2.88032E-05-2.87823E-05 1.12099E-06-3.47119E-19-9.03145E-19
 -1       873 9.57581E-05-2.86803E-05-2.87476E-05 1.17933E-06-2.12843E-19-1.17954E-18
 -1       874 9.55316E-05-2.84749E-05-2.87386E-05 1.25733E-06-6.93982E-19-1.35396E-18
 -1       875 9.52792E-05-2.81988E-05-2.87487E-05 1.38002E-06-7.16619E-19-9.22743E-19
 -1       876 9.49929E-05-2.78582E-05-2.87720E-05 1.56820E-06-3.77984E-19-7.84366E-19
 -1       877 9.46618E-05-2.74562E-05-2.88024E-05 1.83957E-06-8.81083E-19-6.14000E-19
 -1       878 9.42732E-05-2.69953E-05-2.88334E-05 2.20987E-06-5.66955E-19-8.38433E-19
 -1       879 9.38141E-05-2.64815E-05-2.88568E-05 2.69339E-06-8.18564E-19-6.06952E-19
 -1       880 9.32740E-05-2.59283E-05-2.88624E-05 3.30358E-06 6.45455E-21-4.29213E-19
 -1       881 9.26482E-05-2.53623E-05-2.88368E-05 4.05444E-06-2.77106E-19 3.65741E-19
 -1       882 9.19447E-05-2.48320E-05-2.87625E-05 4.96303E-06 5.70220E-19-4.32523E-19
 -1       883 9.11944E-05-2.44186E-05-2.86181E-05 6.05444E-06 6.66507E-19-1.12404E-19
 -1       884 9.04677E-05-2.42518E-05-2.83782E-05 7.36962E-06 1.14503E-18 3.11131E-19
 -1       885 8.99020E-05-2.45311E-05-2.80161E-05 8.97535E-06-7.60133E-20-3.95309E-19
 -1       886 8.97468E-05-2.55560E-05-2.75102E-05 1.09711E-05 2.81331E-19-1.84123E-19
 -1       887 9.04433E-05-2.77689E-05-2.68586E-05 1.34740E-05 5.58028E-19-3.77494E-19
 -1       888 9.27554E-05-3.17989E-05-2.61146E-05 1.65187E-05 1.51660E-18-1.11002E-18
 -1       889 9.79785E-05-3.84444E-05-2.54960E-05 1.95916E-05 1.84538E-18-1.86511E-18
 -1       890 1.08121E-04-4.70999E-05-2.61030E-05 1.93682E-05 1.91361E-18-1.40294E-18
 -1       891 9.72255E-05-3.69017E-05-2.58322E-05-1.89120E-05 9.47974E-20-1.79617E-18
 -1       892 9.30057E-05-3.11330E-05-2.65117E-05-1.60532E-05-1.81369E-18-1.12340E-18
 -1       893 9.12333E-05-2.76584E-05-2.72462E-05-1.33954E-05 7.15117E-19-1.06499E-18
 -1       894 9.08380E-05-2.57476E-05-2.78957E-05-1.11879E-05 1.82650E-18-2.66580E-18
 -1       895 9.11275E-05-2.47880E-05-2.84336E-05-9.40743E-06 6.78879E-19-3.18299E-18
 -1       896 7.26448E-05-2.49562E-05-2.03387E-05-2.27549E-05-9.30730E-19-1.29429E-18
 -1       897 9.53319E-05-2.83017E-05-2.87272E-05-1.43355E-06-6.92023E-19-1.12635E-18
 -1       898 9.55224E-05-2.85311E-05-2.87106E-05-1.31958E-06-4.85779E-20-1.56791E-18
 -1       899 9.48767E-05-2.76788E-05-2.87991E-05-1.88126E-06-3.18374E-19-8.65312E-19
 -1       900 9.45948E-05-2.72922E-05-2.88440E-05-2.25075E-06-4.77792E-20-9.23209E-19
 -1       901 9.42658E-05-2.68639E-05-2.88865E-05-2.73777E-06 7.04793E-20-9.37046E-19
 -1       902 9.38841E-05-2.64079E-05-2.89183E-05-3.35502E-06-5.52622E-19-1.31364E-18
 -1       903 9.34520E-05-2.59515E-05-2.89287E-05-4.11395E-06-6.27277E-19-1.55050E-19
 -1       904 9.29856E-05-2.55438E-05-2.89035E-05-5.02502E-06-2.91972E-19-1.96642E-19
 -1       905 9.25260E-05-2.52664E-05-2.88254E-05-6.09967E-06 3.86340E-19-4.84013E-19
 -1       906 9.21571E-05-2.52493E-05-2.86745E-05-7.35290E-06 3.61335E-19 2.91792E-19
 -1       907 9.20321E-05-2.56907E-05-2.84314E-05-8.80569E-06 2.26427E-20 4.54036E-19
 -1       908 9.24172E-05-2.68823E-05-2.80854E-05-1.04795E-05-5.93453E-19 7.82674E-20
 -1       909 9.37557E-05-2.92295E-05-2.76528E-05-1.23513E-05-8.62024E-19 2.73162E-20
 -1       910 9.67059E-05-3.32239E-05-2.72070E-05-1.42790E-05-3.00057E-19-1.75680E-18
 -1       911 1.02298E-04-3.94018E-05-2.69581E-05-1.56567E-05-1.48277E-18-2.17592E-18
 -1       912 1.00598E-04-3.86687E-05-2.65507E-05 1.74273E-05 4.69586E-20-3.53444E-18
 -1       913 9.31108E-05-2.74373E-05-2.81452E-05 1.15502E-05 1.30130E-19-1.33608E-20
 -1       914 9.26772E-05-2.60018E-05-2.85750E-05 9.91086E-06 1.00623E-19-4.31184E-19
 -1       915 8.61668E-05-2.07623E-05-2.80318E-05-1.57540E-06 6.61510E-19-2.19639E-18
 -1       916 9.45119E-05-2.99845E-05-2.76492E-05 1.33775E-05-7.81242E-19-1.24837E-19
 -1       917 9.65509E-05-3.34041E-05-2.70555E-05 1.53709E-05-1.78255E-18-1.16515E-18
 -1       918 9.51192E-05-2.80163E-05-2.87584E-05-1.61448E-06-1.23851E-19-8.77201E-19
 -1       919 6.10832E-05-1.52944E-05-1.95099E-05-9.54285E-06-1.01462E-18-2.35375E-18
 -1       920 9.60008E-05-2.87859E-05-2.88064E-05-1.12621E-06 1.15233E-19-1.04939E-18
 -1       921 8.48176E-05-3.30020E-05-2.21470E-05 2.52464E-05-7.47905E-19-5.30262E-19
 -1       922 9.40397E-05-3.84033E-05-2.37694E-05-2.39107E-05-2.93006E-18-3.71064E-18
 -1       923 9.32235E-05-1.97572E-05-3.14868E-05-1.18977E-06 1.64868E-19-2.97902E-18
 -1       924 9.46444E-05-2.26478E-05-3.08542E-05-2.85576E-06-9.88742E-19-2.97999E-18
 -1       925 1.04959E-04-4.46204E-05-2.58159E-05-2.02294E-05-2.21985E-19-1.71779E-18
 -1       926 9.58340E-05-2.56126E-05-3.00965E-05-1.16593E-06-6.74287E-19-2.20276E-18
 -1       927 9.53806E-05-2.46961E-05-3.02939E-05 2.33169E-06 1.83248E-18-1.64143E-18
 -1       928 6.43736E-05-1.86998E-05-1.94276E-05 1.59031E-05 9.99399E-19 2.65815E-18
 -1       929 9.62142E-05-2.69592E-05-2.96808E-05-2.64876E-07-4.98319E-19-1.89662E-18
 -1       930 1.10542E-04-4.64808E-05-2.74051E-05-1.47886E-05-3.04532E-18-1.56168E-18
 -1       931 9.61993E-05-2.78095E-05-2.93099E-05-3.15120E-07 8.91363E-19-1.58365E-18
 -1       932 8.88067E-05-3.77196E-05-2.17686E-05 2.77422E-05 2.48275E-18-2.68304E-18
 -1       933 9.47298E-05-2.26068E-05-3.09073E-05-1.20610E-06-4.83426E-20-2.60475E-18
 -1       934 9.20569E-05-2.47556E-05-2.88411E-05-8.37605E-06 1.46318E-18-1.19502E-18
 -1       935 9.61207E-05-2.86564E-05-2.89132E-05-9.94547E-07 2.30666E-19-1.25009E-18
 -1       936 9.56964E-05-2.86976E-05-2.87138E-05-1.24986E-06-1.74675E-20-1.25932E-18
 -1       937 9.60641E-05-2.69178E-05-2.96342E-05 3.78813E-07 1.09986E-18-1.45549E-18
 -1       938 6.16458E-05-1.52003E-05-1.98135E-05-5.82110E-06 2.81171E-18 6.84945E-19
 -1       939 9.21753E-05-2.50322E-05-2.87727E-05 8.64034E-06 9.46271E-19-1.26887E-18
 -1       940 8.62381E-05-2.08213E-05-2.80368E-05 1.83561E-06-1.15313E-18-1.12526E-18
 -1       941 8.72847E-05-2.15238E-05-2.81836E-05-4.70966E-06 6.99175E-19-2.15999E-18
 -1       942 9.47150E-05-2.25981E-05-3.09087E-05 1.22026E-06 1.21101E-18-2.58250E-18
 -1       943 9.46335E-05-2.25063E-05-3.09099E-05-2.00773E-06-3.91725E-19-2.93675E-18
 -1       944 6.42219E-05-1.94474E-05-1.90320E-05 1.80671E-05 1.17290E-18-9.13618E-19
 -1       945 7.37991E-05-2.44759E-05-2.10642E-05-2.08729E-05 1.13994E-18-2.76013E-18
 -1       946 6.08029E-05-1.40856E-05-1.99138E-05-1.41482E-06-3.28017E-19-1.50849E-18
 -1       947 9.58565E-05-2.87892E-05-2.87432E-05-1.19682E-06-6.80033E-20-9.69351E-19
 -1       948 7.77751E-05-2.50865E-05-2.25300E-05 1.90807E-05-1.18271E-18-1.96261E-18
 -1       949 9.09820E-05-3.54294E-05-2.37074E-05-2.33553E-05-8.78327E-19-3.23393E-18
 -1       950 8.97375E-05-2.32749E-05-2.84857E-05 7.21152E-06-6.17664E-20-9.56670E-19
 -1       951 9.45739E-05-2.22598E-05-3.09917E-05 4.27991E-07 7.24853E-19-2.70826E-18
 -1       952 8.99191E-05-2.33028E-05-2.85497E-05-7.27463E-06 1.24794E-18-1.43343E-18
 -1       953 8.94426E-05-2.38508E-05-2.81109E-05 8.75322E-06 1.06138E-18-1.85333E-18
 -1       954 9.66435E-05-2.85515E-05-2.91823E-05 6.09779E-07-4.08933E-19-1.80757E-18
 -1       955 9.65169E-05-2.88042E-05-2.90198E-05 7.55943E-07-1.99608E-19-1.61950E-18
 -1       956 9.63152E-05-2.88638E-05-2.89077E-05 8.41766E-07 1.42214E-19-1.52622E-18
 -1       957 9.60616E-05-2.87778E-05-2.88359E-05 9.01180E-07-5.83838E-19-1.20617E-18
 -1       958 9.57666E-05-2.85777E-05-2.87953E-05 9.61898E-07-6.69954E-19-1.35929E-18
 -1       959 9.54312E-05-2.82830E-05-2.87778E-05 1.04622E-06-1.99314E-19-8.97682E-19
 -1       960 9.50488E-05-2.79046E-05-2.87761E-05 1.17281E-06-1.72987E-19-3.42680E-19
 -1       961 9.46075E-05-2.74477E-05-2.87828E-05 1.35705E-06-5.78966E-19-2.89185E-19
 -1       962 9.40907E-05-2.69143E-05-2.87900E-05 1.61246E-06-1.12761E-18 2.49144E-21
 -1       963 9.34795E-05-2.63071E-05-2.87883E-05 1.95188E-06-9.64290E-19-5.24108E-19
 -1       964 9.27536E-05-2.56328E-05-2.87662E-05 2.38767E-06 3.59309E-19-1.27830E-19
 -1       965 9.18935E-05-2.49061E-05-2.87091E-05 2.93401E-06 7.47699E-19 5.43801E-19
 -1       966 9.08835E-05-2.41550E-05-2.85981E-05 3.61005E-06-2.45249E-20 1.07180E-18
 -1       967 8.97148E-05-2.34274E-05-2.84091E-05 4.44595E-06 4.35840E-19 1.14390E-18
 -1       968 8.83915E-05-2.27988E-05-2.81115E-05 5.49401E-06 8.78936E-19-3.95810E-19
 -1       969 8.69407E-05-2.23850E-05-2.76676E-05 6.84602E-06 8.83682E-20-1.06572E-18
 -1       970 8.54289E-05-2.23591E-05-2.70315E-05 8.65877E-06 2.94922E-20-3.52579E-19
 -1       971 8.40024E-05-2.29872E-05-2.61503E-05 1.11873E-05 5.68438E-19-7.30361E-19
 -1       972 8.29573E-05-2.47013E-05-2.49614E-05 1.48019E-05 3.87013E-19-4.69921E-19
 -1       973 8.29214E-05-2.82228E-05-2.34080E-05 2.00229E-05 2.72578E-19-1.94011E-18
 -1       974 8.77799E-05-2.94349E-05-2.49936E-05-1.81681E-05 1.52985E-19-2.72730E-18
 -1       975 7.25050E-05-2.07477E-05-2.21550E-05-1.52932E-05-3.63959E-19-2.26427E-18
 -1       976 8.70254E-05-2.60417E-05-2.61315E-05-1.42135E-05-2.93647E-19-6.14232E-19
 -1       977 8.75761E-05-2.43578E-05-2.70904E-05-1.13294E-05 1.18934E-18-5.87355E-19
 -1       978 8.85578E-05-2.35652E-05-2.78538E-05-9.19442E-06 7.94445E-19-1.56194E-18
 -1       979 9.38588E-05-2.66338E-05-2.88107E-05-2.11767E-06-4.78595E-22-1.62180E-18
 -1       980 9.43632E-05-2.71683E-05-2.87978E-05-1.75259E-06 1.37252E-19-1.50061E-18
 -1       981 9.25657E-05-2.54114E-05-2.87804E-05-3.18325E-06-7.93806E-19-1.54134E-18
 -1       982 9.17594E-05-2.47725E-05-2.87087E-05-3.91689E-06-7.61576E-19-1.62146E-18
 -1       983 9.08510E-05-2.41792E-05-2.85736E-05-4.81587E-06-7.89714E-20-1.13068E-18
 -1       984 8.98684E-05-2.37180E-05-2.83502E-05-5.92138E-06-1.47870E-19-5.20994E-19
 -1       985 8.88774E-05-2.35229E-05-2.80088E-05-7.30214E-06-2.37522E-19-7.11531E-19
 -1       986 8.80025E-05-2.37925E-05-2.75173E-05-9.07041E-06 1.12817E-20-5.94863E-20
 -1       987 8.74675E-05-2.48260E-05-2.68449E-05-1.14085E-05-7.85138E-20-1.03067E-18
 -1       988 8.78539E-05-2.71776E-05-2.60089E-05-1.45782E-05 8.41011E-20-2.74482E-18
 -1       989 8.99467E-05-3.14921E-05-2.50187E-05-1.87236E-05-2.10895E-19-3.14006E-18
 -1       990 9.52728E-05-2.39933E-05-3.05481E-05 1.83352E-06 1.48203E-18-2.10469E-18
 -1       991 9.54878E-05-2.83748E-05-2.87627E-05-1.15902E-06-5.11942E-19-1.35998E-18
 -1       992 8.84872E-05-2.44863E-05-2.74319E-05 1.06843E-05 3.77785E-19-1.66117E-18
 -1       993 9.61980E-05-2.83539E-05-2.90760E-05-7.46834E-07 4.88659E-19-1.24904E-18
 -1       994 9.65051E-05-2.71975E-05-2.97049E-05-4.00044E-08-4.77840E-19-1.96366E-18
 -1       995 9.45828E-05-2.22662E-05-3.09916E-05-4.20334E-07 2.17730E-19-2.85512E-18
 -1       996 9.61108E-05-2.59081E-05-3.00876E-05-6.19570E-07-3.23851E-19-2.33851E-18
 -1       997 8.80912E-05-2.60557E-05-2.65878E-05 1.32597E-05-1.40233E-18-1.83154E-18
 -1       998 6.69032E-05-1.64374E-05-2.15517E-05 7.19077E-06 1.34703E-18-2.12255E-20
 -1       999 9.57868E-05-2.59614E-05-2.99256E-05 1.19310E-06 1.45275E-18-1.36711E-18
 -1      1000 9.32635E-05-2.60423E-05-2.88091E-05-2.58942E-06-2.23385E-19-1.21437E-18
 -1      1001 8.75290E-05-2.17391E-05-2.81964E-05 4.93579E-06-8.25986E-19 2.80509E-19
 -1      1002 9.66548E-05-2.80384E-05-2.94070E-05 3.62849E-07-5.06650E-19-1.76641E-18
 -1      1003 8.91908E-05-3.06246E-05-2.50633E-05 1.85502E-05-6.52093E-19 2.88381E-19
 -1      1004 6.85422E-05-1.63465E-05-2.23515E-05-6.67018E-06 1.03404E-19-2.26531E-18
 -1      1005 6.34825E-05-1.52822E-05-2.05711E-05 6.38765E-06 7.34057E-20 6.49873E-19
 -1      1006 9.65358E-05-2.79659E-05-2.93871E-05-3.68763E-07 5.97887E-19-1.55487E-18
 -1      1007 9.64244E-05-2.87670E-05-2.89960E-05-8.48446E-07 2.09105E-19-1.46437E-18
 -1      1008 9.57743E-05-2.86293E-05-2.87764E-05-1.07456E-06 3.73533E-19-1.74537E-18
 -1      1009 9.63754E-05-2.70854E-05-2.96953E-05 1.14356E-07 9.12993E-19-1.61671E-18
 -1      1010 9.47940E-05-2.76400E-05-2.87803E-05-1.48190E-06-3.44975E-20-1.27388E-18
 -1      1011 9.51640E-05-2.80426E-05-2.87663E-05-1.28846E-06-3.12807E-19-1.24554E-18
 -1      1012 8.34587E-05-1.99384E-05-2.72244E-05 1.84600E-07-1.78581E-18 9.16530E-19
 -1      1013 9.60895E-05-2.55198E-05-3.02438E-05-4.13150E-07-7.81208E-20-2.50111E-18
 -1      1014 8.43007E-05-2.04707E-05-2.73549E-05-3.87466E-06-1.05043E-18-3.31482E-18
 -1      1015 6.99704E-05-1.89829E-05-2.18144E-05-1.25532E-05 1.35238E-18-2.71732E-19
 -1      1016 8.81756E-05-2.78606E-05-2.58508E-05 1.56105E-05-1.52853E-18-2.83632E-18
 -1      1017 7.54396E-05-2.05659E-05-2.35006E-05 1.23567E-05-5.89385E-19-1.00951E-18
 -1      1018 8.62660E-05-2.17295E-05-2.76614E-05 6.42976E-06-9.61241E-19-2.31950E-18
 -1      1019 9.57932E-05-2.50318E-05-3.03274E-05 8.37454E-07 1.03666E-18-2.25991E-18
 -1      1020 9.57116E-05-2.46418E-05-3.04585E-05 4.70751E-07 7.90106E-19-2.26106E-18
 -1      1021 9.62488E-05-2.88514E-05-2.88846E-05-9.48654E-07 3.06455E-20-1.30705E-18
 -1      1022 7.42158E-05-2.41851E-05-2.13556E-05 2.02385E-05 7.57577E-19-1.87907E-18
 -1      1023 9.66051E-05-2.88639E-05-2.90319E-05 5.14287E-07 1.24432E-19-1.48738E-18
 -1      1024 9.63442E-05-2.88503E-05-2.89260E-05 5.65364E-07-6.60154E-20-1.23472E-18
 -1      1025 9.60215E-05-2.86894E-05-2.88566E-05 6.07424E-07-1.57446E-19-1.05248E-18
 -1      1026 9.56456E-05-2.84106E-05-2.88151E-05 6.56867E-07 3.07010E-19-1.20595E-19
 -1      1027 9.52132E-05-2.80295E-05-2.87930E-05 7.27342E-07-3.81481E-19-5.37827E-19
 -1      1028 9.47140E-05-2.75552E-05-2.87823E-05 8.29996E-07-3.22295E-19-1.32525E-18
 -1      1029 9.41331E-05-2.69936E-05-2.87742E-05 9.73193E-07-7.91990E-19-1.51219E-18
 -1      1030 9.34457E-05-2.63421E-05-2.87590E-05 1.16813E-06-9.87315E-19-1.13726E-18
 -1      1031 9.26296E-05-2.56062E-05-2.87246E-05 1.42133E-06 4.34668E-20 2.15107E-20
 -1      1032 9.16552E-05-2.47913E-05-2.86563E-05 1.74269E-06 7.04799E-19-3.80262E-19
 -1      1033 9.04926E-05-2.39116E-05-2.85352E-05 2.14502E-06 3.50344E-19-6.59999E-19
 -1      1034 8.91088E-05-2.29912E-05-2.83368E-05 2.64815E-06 5.19427E-19-5.96460E-19
 -1      1035 8.74652E-05-2.20664E-05-2.80290E-05 3.28675E-06-7.40509E-19-1.11381E-18
 -1      1036 8.55111E-05-2.11862E-05-2.75694E-05 4.12553E-06 3.71794E-19-1.87671E-18
 -1      1037 8.31864E-05-2.04232E-05-2.69013E-05 5.28294E-06 5.39633E-19-1.82282E-18
 -1      1038 8.03738E-05-1.98445E-05-2.59448E-05 6.95380E-06-1.62951E-19-1.08293E-18
 -1      1039 7.69195E-05-1.95837E-05-2.45679E-05 9.50651E-06 1.71367E-19-1.30688E-18
 -1      1040 7.48959E-05-2.09128E-05-2.31098E-05 1.39831E-05-5.68379E-19-2.49115E-18
 -1      1041 9.68442E-05-2.82605E-05-2.93932E-05 3.00557E-07-5.32570E-19-1.85564E-18
 -1      1042 8.16452E-05-2.15857E-05-2.57406E-05-1.02537E-05 7.30447E-19-1.19285E-18
 -1      1043 8.42890E-05-2.15019E-05-2.69093E-05-7.88828E-06 3.72283E-20-7.78708E-19
 -1      1044 9.65329E-05-2.84943E-05-2.91594E-05-6.71630E-07 3.20878E-19-1.61713E-18
 -1      1045 8.99598E-05-2.35681E-05-2.84539E-05-3.24143E-06-6.03890E-19-1.45889E-18
 -1      1046 9.11494E-05-2.43868E-05-2.86128E-05-2.61679E-06-5.08268E-19-9.67559E-19
 -1      1047 8.69835E-05-2.20736E-05-2.78191E-05-5.05080E-06 1.95595E-19-1.21963E-18
 -1      1048 8.51792E-05-2.15709E-05-2.72615E-05-6.42408E-06-6.16911E-19-1.50096E-18
 -1      1049 8.31888E-05-2.14122E-05-2.64743E-05-8.38283E-06 8.87584E-20-1.87267E-18
 -1      1050 8.12501E-05-2.19012E-05-2.54209E-05-1.12682E-05 7.76508E-19-2.44114E-18
 -1      1051 9.60374E-05-2.60323E-05-3.00016E-05 7.12683E-07 1.24091E-18-1.85524E-18
 -1      1052 9.56913E-05-2.45242E-05-3.05031E-05 3.64490E-08 2.82925E-19-2.14854E-18
 -1      1053 8.85756E-05-2.27739E-05-2.82012E-05-4.03050E-06-3.82444E-19-1.00694E-18
 -1      1054 7.98699E-05-2.32012E-05-2.42741E-05-1.46913E-05 8.59773E-19-2.46781E-18
 -1      1055 8.32497E-05-2.20364E-05-2.62375E-05 9.78001E-06 1.69382E-20-3.28218E-18
 -1      1056 9.37399E-05-2.66013E-05-2.87737E-05-1.41459E-06 2.39343E-19-5.25349E-19
 -1      1057 6.96635E-05-1.65000E-05-2.27490E-05-2.52221E-06 1.34168E-18 7.65130E-19
 -1      1058 9.21618E-05-2.51828E-05-2.87055E-05-2.11837E-06-3.16012E-19-4.96348E-19
 -1      1059 8.43595E-05-2.05008E-05-2.73711E-05 3.59932E-06-2.20119E-18-1.09609E-18
 -1      1060 6.81607E-05-1.57814E-05-2.24338E-05-8.72807E-07 3.94484E-19-8.44850E-19
 -1      1061 9.60285E-05-2.87948E-05-2.88144E-05-1.01313E-06 4.01220E-19-1.22157E-18
 -1      1062 9.67354E-05-2.75027E-05-2.96702E-05 8.75399E-08-4.06545E-19-2.06558E-18
 -1      1063 9.67842E-05-2.86880E-05-2.91842E-05 4.34362E-07-3.20608E-19-1.66826E-18
 -1      1064 9.30174E-05-2.59263E-05-2.87535E-05-1.72279E-06-4.40147E-19-3.98195E-19
 -1      1065 8.17890E-05-2.43128E-05-2.46335E-05 1.50041E-05 4.74544E-19 2.09204E-19
 -1      1066 7.31452E-05-1.75925E-05-2.37920E-05 4.48306E-06 6.81059E-19-2.12923E-18
 -1      1067 9.67703E-05-2.81720E-05-2.93995E-05-3.47182E-07 4.08232E-19-1.19333E-18
 -1      1068 9.57057E-05-2.84876E-05-2.88079E-05-8.09860E-07-9.74217E-20-9.09987E-19
 -1      1069 6.87829E-05-1.78678E-05-2.18111E-05 1.12164E-05-4.48001E-21-1.13217E-18
 -1      1070 9.66344E-05-2.73666E-05-2.96864E-05-5.34106E-08 4.83827E-19-1.68365E-18
 -1      1071 9.43442E-05-2.71934E-05-2.87792E-05-1.17984E-06-2.36371E-19-8.24921E-19
 -1      1072 7.55789E-05-1.78441E-05-2.47496E-05-4.75104E-06 1.21754E-18-2.07184E-18
 -1      1073 9.53156E-05-2.81438E-05-2.87879E-05-8.92795E-07-4.56562E-19-1.36730E-18
 -1      1074 9.67322E-05-2.86356E-05-2.91843E-05-5.28303E-07 3.79035E-19-8.87959E-19
 -1      1075 8.22704E-05-2.28410E-05-2.54702E-05 1.21084E-05-1.17984E-18-1.26834E-18
 -1      1076 8.07405E-05-1.93330E-05-2.63153E-05 2.72119E-06-1.52941E-18-3.00342E-19
 -1      1077 9.65753E-05-2.88442E-05-2.90277E-05-6.36610E-07-5.04026E-20-1.02296E-18
 -1      1078 9.63380E-05-2.62726E-05-3.00281E-05 2.72100E-07 5.65265E-19-2.11304E-18
 -1      1079 8.06890E-05-1.92771E-05-2.63215E-05-2.46045E-06-1.94011E-18-6.19561E-19
 -1      1080 9.65691E-05-2.88814E-05-2.90089E-05 2.12251E-07 3.60479E-19-1.11947E-18
 -1      1081 9.69060E-05-2.83906E-05-2.93637E-05-2.26171E-07 4.43186E-20-1.37233E-18
 -1      1082 8.63200E-05-2.14398E-05-2.78067E-05-2.55703E-06 3.00947E-19-6.52067E-19
 -1      1083 9.62552E-05-2.87878E-05-2.89146E-05 2.30581E-07 2.57986E-20-7.27785E-19
 -1      1084 9.58780E-05-2.85538E-05-2.88531E-05 2.49378E-07 1.30851E-19-4.97595E-19
 -1      1085 9.54347E-05-2.81984E-05-2.88155E-05 2.73499E-07-1.40143E-19-7.43318E-19
 -1      1086 9.49279E-05-2.77466E-05-2.87921E-05 3.06977E-07-4.84597E-19-5.32653E-19
 -1      1087 9.43355E-05-2.71922E-05-2.87750E-05 3.59698E-07-7.72048E-19-5.09615E-19
 -1      1088 9.36326E-05-2.65379E-05-2.87544E-05 4.28017E-07-5.99971E-19-6.68069E-19
 -1      1089 9.28042E-05-2.57943E-05-2.87183E-05 5.13446E-07 5.37428E-20-1.53284E-20
 -1      1090 9.18149E-05-2.49575E-05-2.86529E-05 6.24671E-07 1.84868E-19-2.15225E-19
 -1      1091 9.06296E-05-2.40350E-05-2.85402E-05 7.63976E-07-2.97564E-19-1.09460E-18
 -1      1092 8.92064E-05-2.30390E-05-2.83569E-05 9.37244E-07-3.26549E-19-2.65113E-18
 -1      1093 8.74922E-05-2.19874E-05-2.80728E-05 1.15473E-06-4.43497E-19-3.27657E-18
 -1      1094 8.54122E-05-2.09001E-05-2.76470E-05 1.43437E-06 1.37102E-19-2.23254E-18
 -1      1095 8.28470E-05-1.97855E-05-2.70239E-05 1.80127E-06 3.41515E-19-1.76468E-18
 -1      1096 7.96483E-05-1.86531E-05-2.61325E-05 2.37201E-06 2.37452E-19-2.42565E-18
 -1      1097 7.55518E-05-1.75125E-05-2.48570E-05 3.36914E-06 4.74477E-19-1.57457E-18
 -1      1098 7.98022E-05-1.93951E-05-2.58906E-05-4.90505E-06 1.49832E-19-3.84861E-19
 -1      1099 9.68012E-05-2.87915E-05-2.91469E-05 1.86786E-07 1.89203E-19-1.30392E-18
 -1      1100 9.66820E-05-2.69541E-05-2.98821E-05 3.05195E-09-2.61011E-20-1.77050E-18
 -1      1101 9.60467E-05-2.87321E-05-2.88492E-05-7.52501E-07 4.93405E-19-9.88433E-19
 -1      1102 8.97529E-05-2.34176E-05-2.84298E-05-1.61643E-06-8.95490E-19 1.71317E-19
 -1      1103 8.12888E-05-1.95534E-05-2.64709E-05-4.29130E-06 1.97485E-19-1.71267E-18
 -1      1104 8.40589E-05-2.04655E-05-2.72558E-05-3.27531E-06 7.03465E-20-1.38327E-18
 -1      1105 9.10603E-05-2.43571E-05-2.85874E-05-1.29841E-06-7.16836E-19-2.48172E-19
 -1      1106 9.48657E-05-2.77090E-05-2.87812E-05-1.01060E-06 1.49112E-20-1.50793E-18
 -1      1107 9.21548E-05-2.52306E-05-2.86821E-05-1.04894E-06 2.01772E-19-5.35430E-19
 -1      1108 7.52484E-05-1.87874E-05-2.41947E-05-7.72432E-06 3.82490E-19-4.86458E-19
 -1      1109 9.69292E-05-2.84767E-05-2.93365E-05 1.46548E-07-1.13538E-19-1.47578E-18
 -1      1110 9.65270E-05-2.65845E-05-2.99744E-05 8.74546E-08 2.46284E-19-1.50815E-18
 -1      1111 9.30709E-05-2.60232E-05-2.87350E-05-8.54788E-07-1.22105E-19 2.15562E-19
 -1      1112 8.81909E-05-2.24351E-05-2.81817E-05-2.02416E-06-4.53942E-19-6.10430E-20
 -1      1113 9.68262E-05-2.77046E-05-2.96236E-05-9.55676E-08 1.38425E-19-1.44156E-18
 -1      1114 6.99405E-05-1.63463E-05-2.29097E-05 4.58824E-06 1.29614E-19-3.25256E-20
 -1      1115 9.59409E-05-2.86110E-05-2.88553E-05-4.22751E-07 4.80623E-19-1.47454E-18
 -1      1116 9.68898E-05-2.78520E-05-2.95877E-05 7.27031E-08-2.08015E-19-1.74045E-18
 -1      1117 9.38396E-05-2.67279E-05-2.87624E-05-7.03151E-07-3.38660E-19-2.41401E-19
 -1      1118 8.13038E-05-2.02037E-05-2.61788E-05 6.32686E-06 9.04938E-20-1.20191E-18
 -1      1119 7.75023E-05-2.00202E-05-2.46244E-05 9.38636E-06-1.42692E-19-1.45251E-18
 -1      1120 7.94687E-05-2.00787E-05-2.54533E-05 7.71099E-06 3.43180E-19-1.62820E-18
 -1      1121 7.58202E-05-1.79080E-05-2.48235E-05-1.11945E-06 6.75231E-19 1.41172E-18
 -1      1122 9.63393E-05-2.88603E-05-2.89195E-05-7.01508E-07 1.54362E-19-1.13612E-18
 -1      1123 9.68118E-05-2.87588E-05-2.91657E-05-3.08810E-07-1.47535E-21-9.41116E-19
 -1      1124 9.55308E-05-2.82935E-05-2.88161E-05-4.57229E-07-1.17883E-20-1.58922E-18
 -1      1125 7.86010E-05-1.88779E-05-2.55864E-05 3.49799E-06-2.13343E-19-3.32009E-18
 -1      1126 9.60791E-05-2.86881E-05-2.88818E-05-1.44357E-07 3.75026E-19-1.02274E-18
 -1      1127 9.46244E-05-2.74663E-05-2.87826E-05-2.05172E-07-7.62318E-19-9.65521E-19
 -1      1128 9.67086E-05-2.88650E-05-2.90760E-05-1.25002E-07 2.03126E-19-9.20142E-19
 -1      1129 9.62995E-05-2.88184E-05-2.89205E-05-3.92331E-07 4.51390E-19-1.36475E-18
 -1      1130 9.64283E-05-2.88546E-05-2.89602E-05-1.35166E-07 5.29184E-19-1.38258E-18
 -1      1131 7.68421E-05-1.84552E-05-2.50027E-05 3.64730E-06 3.37054E-19-3.65250E-18
 -1      1132 9.51150E-05-2.79178E-05-2.87985E-05-3.46658E-07-6.54279E-21-1.32434E-18
 -1      1133 9.65518E-05-2.88805E-05-2.90019E-05-4.10742E-07 2.30509E-19-9.25816E-19
 -1      1134 1.16827E-04 2.57481E-10-4.18446E-05-4.14658E-05-4.37069E-19 1.21532E-17
 -1      1135 8.86273E-05 7.18758E-11-3.72421E-05-2.41774E-05-2.28275E-19 5.40354E-19
 -1      1136 8.40635E-05 4.14354E-11-3.57609E-05-1.78919E-05-1.50242E-19-4.17802E-18
 -1      1137 8.23297E-05 3.20242E-11-3.50708E-05-1.38508E-05-9.00767E-20-6.32391E-18
 -1      1138 8.15360E-05 2.73434E-11-3.47403E-05-1.05476E-05-6.30113E-20-7.19403E-18
 -1      1139 8.11423E-05 2.46338E-11-3.45783E-05-7.65224E-06-2.95535E-20-7.46178E-18
 -1      1140 8.09393E-05 2.29812E-11-3.44974E-05-4.98770E-06-1.65105E-20-7.45009E-18
 -1      1141 8.08410E-05 2.20888E-11-3.44597E-05-2.43616E-06 4.07138E-21-7.32409E-18
 -1      1142 8.08131E-05 2.18195E-11-3.44492E-05 5.25822E-08 2.18897E-20-7.14523E-18
 -1      1143 8.08452E-05 2.21331E-11-3.44612E-05 2.54387E-06 3.73588E-20-6.89259E-18
 -1      1144 8.09479E-05 2.30799E-11-3.45003E-05 5.10364E-06 5.29230E-20-6.56572E-18
 -1      1145 8.11576E-05 2.47905E-11-3.45825E-05 7.78399E-06 7.74241E-20-5.99308E-18
 -1      1146 8.15584E-05 2.76543E-11-3.47466E-05 1.07071E-05 1.02332E-19-5.07547E-18
 -1      1147 8.23535E-05 3.24998E-11-3.50807E-05 1.40575E-05 1.33699E-19-3.42654E-18
 -1      1148 8.40593E-05 4.19062E-11-3.57809E-05 1.81429E-05 1.76024E-19-4.27421E-19
 -1      1149 8.83253E-05 6.67002E-11-3.73123E-05 2.40199E-05 1.90053E-19 5.26516E-18
 -1      1150 1.06591E-04 1.63849E-10-4.06233E-05 3.61942E-05 3.86882E-19 1.66179E-17
 -1      1151 1.30188E-04-2.57479E-05-4.02623E-05-2.61057E-05-1.78036E-18 1.95034E-17
 -1      1152 9.74142E-05-2.88498E-05-3.15645E-05-6.81624E-07-6.06026E-19 1.53176E-17
 -1      1153 9.01060E-05-2.70104E-05-2.78771E-05 3.86476E-07-2.04850E-19 9.55122E-18
 -1      1154 8.81849E-05-2.65531E-05-2.66245E-05 2.50303E-07-1.84865E-19 5.52983E-18
 -1      1155 8.78165E-05-2.64234E-05-2.63650E-05 1.65334E-07-1.61100E-19 2.85731E-18
 -1      1156 8.81653E-05-2.64971E-05-2.64468E-05 1.17265E-07-1.07773E-19 1.02827E-18
 -1      1157 8.88411E-05-2.66785E-05-2.66465E-05 8.64244E-08-8.39547E-21-5.28072E-20
 -1      1158 8.96466E-05-2.69078E-05-2.68865E-05 6.49809E-08-6.80825E-20-7.82698E-19
 -1      1159 9.04743E-05-2.71491E-05-2.71335E-05 4.90549E-08-1.02777E-19-2.18501E-18
 -1      1160 9.12656E-05-2.73825E-05-2.73704E-05 3.67492E-08-7.79380E-21-3.82444E-18
 -1      1161 9.19925E-05-2.75986E-05-2.75890E-05 2.70829E-08 8.24963E-20-4.89903E-18
 -1      1162 9.26473E-05-2.77942E-05-2.77867E-05 1.95012E-08-2.86306E-20-4.96751E-18
 -1      1163 9.32371E-05-2.79713E-05-2.79656E-05 1.36691E-08 3.28250E-20-5.21694E-18
 -1      1164 9.37794E-05-2.81347E-05-2.81308E-05 9.38926E-09 4.44958E-20-4.88795E-18
 -1      1165 9.43006E-05-2.82924E-05-2.82902E-05 6.57256E-09-5.99632E-20-5.09380E-18
 -1      1166 9.48346E-05-2.84543E-05-2.84541E-05 5.23401E-09-1.63593E-19-5.22105E-18
 -1      1167 9.54226E-05-2.86327E-05-2.86346E-05 5.50078E-09-1.19954E-20-5.67640E-18
 -1      1168 9.61128E-05-2.88422E-05-2.88466E-05 7.62642E-09-1.35675E-19-5.85791E-18
 -1      1169 9.69610E-05-2.90991E-05-2.91066E-05 1.20047E-08 6.78222E-20-7.55472E-18
 -1      1170 9.80294E-05-2.94221E-05-2.94333E-05 1.91715E-08 2.15510E-19-8.04661E-18
 -1      1171 9.93850E-05-2.98310E-05-2.98463E-05 2.97720E-08-9.73517E-20-7.10114E-18
 -1      1172 1.01094E-04-3.03451E-05-3.03649E-05 4.44425E-08-8.24567E-20-6.18595E-18
 -1      1173 1.03213E-04-3.09804E-05-3.10040E-05 6.35157E-08-2.34812E-20-5.85498E-18
 -1      1174 1.05766E-04-3.17431E-05-3.17677E-05 8.63865E-08-2.52301E-19-6.95000E-18
 -1      1175 1.08713E-04-3.26202E-05-3.26391E-05 1.10311E-07-2.34431E-20-8.03506E-18
 -1      1176 1.11899E-04-3.35638E-05-3.35644E-05 1.28441E-07-1.69266E-20-7.18048E-18
 -1      1177 1.14985E-04-3.44716E-05-3.44341E-05 1.27306E-07 1.50509E-19-5.67626E-18
 -1      1178 1.17381E-04-3.51668E-05-3.50679E-05 8.53075E-08-3.24023E-19-7.80113E-18
 -1      1179 1.18225E-04-3.53958E-05-3.52214E-05-2.35355E-08 2.79140E-19-8.08989E-18
 -1      1180 1.16534E-04-3.48718E-05-3.46406E-05-2.14016E-07-4.35891E-20-6.37742E-18
 -1      1181 1.11606E-04-3.33987E-05-3.31850E-05-4.58876E-07-3.85390E-19-5.80313E-18
 -1      1182 1.03705E-04-3.10717E-05-3.09940E-05-6.59894E-07 2.30009E-19-5.20618E-18
 -1      1183 9.46425E-05-2.84343E-05-2.85878E-05-6.68929E-07 9.41695E-20-3.05779E-18
 -1      1184 8.75459E-05-2.63883E-05-2.67568E-05-3.95563E-07 4.03002E-20-2.02875E-18
 -1      1185 8.53926E-05-2.57698E-05-2.62065E-05 7.49870E-08 9.29288E-20-3.04076E-18
 -1      1186 8.91381E-05-2.68435E-05-2.71566E-05 5.05876E-07 3.18398E-19-4.04490E-18
 -1      1187 9.70459E-05-2.91270E-05-2.92048E-05 6.92332E-07-5.30454E-20-5.68296E-18
 -1      1188 1.05876E-04-3.17039E-05-3.15711E-05 6.09249E-07-1.77917E-19-5.86666E-18
 -1      1189 1.12790E-04-3.37468E-05-3.35151E-05 3.78933E-07 1.80987E-19-3.74272E-18
 -1      1190 1.16461E-04-3.48512E-05-3.46294E-05 1.41512E-07 1.10081E-19-3.90236E-18
 -1      1191 1.16985E-04-3.50289E-05-3.48736E-05-2.73976E-08-2.49795E-19-5.00791E-18
 -1      1192 1.15205E-04-3.45199E-05-3.44373E-05-1.17056E-07-2.07225E-20-5.46217E-18
 -1      1193 1.12095E-04-3.36096E-05-3.35811E-05-1.48295E-07-3.29027E-19-5.32855E-18
 -1      1194 1.08446E-04-3.25325E-05-3.25356E-05-1.46604E-07 1.07329E-20-5.05086E-18
 -1      1195 1.04788E-04-3.14479E-05-3.14670E-05-1.30420E-07 5.50767E-19-3.00403E-18
 -1      1196 1.01447E-04-3.04540E-05-3.04831E-05-1.09043E-07 1.58995E-19-5.07426E-20
 -1      1197 9.86308E-05-2.96141E-05-2.96551E-05-8.33151E-08 1.05260E-19-1.02033E-18
 -1      1198 9.65146E-05-2.89818E-05-2.90373E-05-4.41101E-08-1.34736E-19-2.50073E-19
 -1      1199 9.53250E-05-2.86451E-05-2.86609E-05 3.14946E-08 7.20540E-20 9.00267E-19
 -1      1200 9.50794E-05-2.85188E-05-2.84638E-05 5.57521E-08 4.91303E-19 2.20660E-18
 -1      1201 1.31022E-04-3.77295E-05-3.86478E-05 1.21740E-05-3.02682E-19 2.58498E-17
 -1      1202 9.65150E-05-2.81763E-05-3.13170E-05 8.01931E-07 1.31396E-19 2.12461E-17
 -1      1203 9.03202E-05-2.69131E-05-2.78580E-05 1.20458E-07 1.81483E-19 1.65345E-17
 -1      1204 8.82719E-05-2.64805E-05-2.66608E-05 9.31096E-09 8.41871E-20 1.30753E-17
 -1      1205 8.78569E-05-2.63860E-05-2.63921E-05-2.48650E-08 4.41979E-20 1.07312E-17
 -1      1206 8.81869E-05-2.64796E-05-2.64624E-05-3.37012E-08 2.16903E-20 9.04459E-18
 -1      1207 8.88539E-05-2.66715E-05-2.66565E-05-3.46090E-08 7.96736E-20 7.79569E-18
 -1      1208 8.96549E-05-2.69063E-05-2.68937E-05-3.25190E-08 6.36884E-20 6.68428E-18
 -1      1209 9.04799E-05-2.71506E-05-2.71390E-05-2.89811E-08-2.91891E-21 5.48246E-18
 -1      1210 9.12695E-05-2.73855E-05-2.73746E-05-2.46835E-08 1.01177E-21 4.66104E-18
 -1      1211 9.19953E-05-2.76022E-05-2.75921E-05-2.00233E-08 8.45924E-20 3.51690E-18
 -1      1212 9.26495E-05-2.77979E-05-2.77891E-05-1.52467E-08 4.85148E-20 3.25646E-18
 -1      1213 9.32390E-05-2.79747E-05-2.79675E-05-1.05037E-08 2.07185E-19 2.37388E-18
 -1      1214 9.37812E-05-2.81378E-05-2.81323E-05-5.88507E-09-7.75317E-20 1.67681E-18
 -1      1215 9.43024E-05-2.82949E-05-2.82914E-05-1.45393E-09-4.33202E-20 1.21555E-18
 -1      1216 9.48364E-05-2.84561E-05-2.84550E-05 2.72190E-09-8.19085E-20 1.54371E-18
 -1      1217 9.54237E-05-2.86337E-05-2.86353E-05 6.53189E-09-1.60215E-20 2.06545E-18
 -1      1218 9.61124E-05-2.88420E-05-2.88468E-05 9.77396E-09-9.55913E-20 2.24767E-18
 -1      1219 9.69569E-05-2.90971E-05-2.91060E-05 1.20897E-08 1.26947E-19 1.37259E-18
 -1      1220 9.80181E-05-2.94171E-05-2.94309E-05 1.28784E-08 9.69973E-20 3.10921E-19
 -1      1221 9.93603E-05-2.98210E-05-2.98405E-05 1.11874E-08 1.25268E-19 3.30660E-19
 -1      1222 1.01046E-04-3.03269E-05-3.03528E-05 5.59404E-09-1.20008E-19 1.84195E-18
 -1      1223 1.03125E-04-3.09487E-05-3.09810E-05-5.86569E-09-8.54047E-20 1.21089E-18
 -1      1224 1.05615E-04-3.16903E-05-3.17270E-05-2.55713E-08 1.73772E-19-1.67548E-18
 -1      1225 1.08466E-04-3.25355E-05-3.25708E-05-5.56782E-08-4.75149E-20-1.72249E-18
 -1      1226 1.11514E-04-3.34343E-05-3.34557E-05-9.64149E-08-6.26941E-21-1.02981E-18
 -1      1227 1.14417E-04-3.42850E-05-3.42708E-05-1.42670E-07-1.15817E-19-1.54681E-18
 -1      1228 1.16595E-04-3.49186E-05-3.48385E-05-1.78882E-07-1.45215E-19-1.93665E-18
 -1      1229 1.17225E-04-3.50993E-05-3.49246E-05-1.74986E-07-1.51510E-19-1.06613E-18
 -1      1230 1.15392E-04-3.45663E-05-3.42942E-05-9.15321E-08-4.78276E-20-1.17216E-18
 -1      1231 1.10482E-04-3.31422E-05-3.28311E-05 9.49539E-08 1.52201E-22-2.36725E-18
 -1      1232 1.02812E-04-3.09051E-05-3.06898E-05 3.49083E-07 9.01428E-20-2.76186E-18
 -1      1233 9.41267E-05-2.83371E-05-2.83790E-05 5.54322E-07-1.27252E-19-4.49351E-19
 -1      1234 8.73619E-05-2.62826E-05-2.66488E-05 5.65187E-07 1.92971E-19 1.57834E-18
 -1      1235 8.52958E-05-2.55900E-05-2.61525E-05 3.30225E-07-1.56450E-19 1.70897E-18
 -1      1236 8.88335E-05-2.65910E-05-2.70826E-05-4.09572E-08-1.70624E-19 1.82636E-18
 -1      1237 9.63719E-05-2.88445E-05-2.90548E-05-3.54823E-07 6.10105E-19 2.18429E-19
 -1      1238 1.04876E-04-3.14269E-05-3.13344E-05-4.85495E-07 2.26222E-19-1.60449E-18
 -1      1239 1.11645E-04-3.34919E-05-3.32232E-05-4.38139E-07 6.24753E-20-2.00249E-18
 -1      1240 1.15366E-04-3.46253E-05-3.43298E-05-2.97315E-07-2.28401E-20-2.06798E-18
 -1      1241 1.16065E-04-3.48364E-05-3.46053E-05-1.46073E-07 6.79612E-20 1.82771E-19
 -1      1242 1.14504E-04-3.43622E-05-3.42207E-05-2.89539E-08-6.83289E-19 2.24698E-18
 -1      1243 1.11601E-04-3.34854E-05-3.34196E-05 4.45950E-08 2.25596E-19-1.22534E-18
 -1      1244 1.08119E-04-3.24381E-05-3.24225E-05 8.31644E-08 9.84818E-20-3.86475E-18
 -1      1245 1.04586E-04-3.13789E-05-3.13920E-05 9.97504E-08 7.36189E-20-2.49599E-18
 -1      1246 1.01333E-04-3.04061E-05-3.04364E-05 1.05089E-07 4.35767E-19-4.02109E-18
 -1      1247 9.85753E-05-2.95829E-05-2.96290E-05 1.04790E-07-1.49633E-19-4.53569E-18
 -1      1248 9.64961E-05-2.89630E-05-2.90256E-05 9.38205E-08 8.41259E-20-3.10968E-18
 -1      1249 9.53065E-05-2.86047E-05-2.86585E-05 4.49584E-08 5.01248E-19-7.21588E-18
 -1      1250 9.50984E-05-2.85295E-05-2.84664E-05-4.87306E-08 4.02602E-19-5.66018E-18
 -1      1251 9.52820E-05-2.87136E-05-2.84705E-05-4.59727E-08-6.33331E-18-5.16315E-19
 -1      1252 9.51814E-05-2.84693E-05-2.86670E-05-2.78434E-08-8.55138E-18-5.31242E-19
 -1      1253 9.48373E-05-2.72963E-05-2.90236E-05 5.74604E-08-3.14895E-18-3.18035E-19
 -1      1254 9.42779E-05-2.53991E-05-2.95579E-05 9.31193E-08-4.33563E-18-6.91729E-19
 -1      1255 9.36226E-05-2.31755E-05-3.01878E-05 1.01145E-07-4.42048E-18 1.25576E-21
 -1      1256 9.29857E-05-2.10129E-05-3.08053E-05 9.08573E-08-4.57101E-18 4.33484E-20
 -1      1257 9.24549E-05-1.92087E-05-3.13232E-05 6.93856E-08 2.40134E-19 5.28804E-19
 -1      1258 9.20993E-05-1.79998E-05-3.16705E-05 3.74117E-08 2.85556E-19-7.53462E-20
 -1      1259 9.19730E-05-1.75701E-05-3.17939E-05 5.36981E-10-3.29586E-18 2.51531E-19
 -1      1260 9.20934E-05-1.79793E-05-3.16760E-05-3.65807E-08-2.87218E-18 5.33679E-19
 -1      1261 9.24445E-05-1.91742E-05-3.13323E-05-6.90719E-08-1.73658E-18-9.98702E-19
 -1      1262 9.29762E-05-2.09772E-05-3.08153E-05-9.26058E-08-3.48227E-18 5.66552E-19
 -1      1263 9.36147E-05-2.31485E-05-3.01949E-05-1.02456E-07 1.13770E-18 1.01251E-19
 -1      1264 9.42756E-05-2.53911E-05-2.95610E-05-9.59002E-08 5.70264E-18-1.62168E-19
 -1      1265 9.48486E-05-2.73294E-05-2.90218E-05-7.08138E-08 1.46717E-18-3.19794E-19
 -1      1266 9.51484E-05-2.84315E-05-2.86644E-05 6.24646E-08-1.24175E-18-6.45246E-19
 -1      1267 9.52919E-05-2.87305E-05-2.84652E-05 5.21675E-08-1.64230E-18 2.64458E-19
 -1      1268 3.42759E-05-1.07228E-04 1.81086E-05-1.36486E-05 3.60582E-18 1.47029E-18
 -1      1269 1.77213E-05-6.61775E-05 9.85360E-06-2.52082E-05 6.98972E-18 2.02843E-18
 -1      1270 7.42975E-06-1.13471E-05-5.07183E-06-2.72788E-06 5.37527E-18 3.31868E-18
 -1      1271 3.32233E-05 2.34969E-05-2.52861E-05 5.08491E-05 9.79170E-19 6.54756E-19
 -1      1272 1.10694E-04 1.14159E-05-4.69717E-05 1.01768E-04-9.40207E-20 6.50521E-19
 -1      1273 2.18442E-04-3.97541E-05-6.55768E-05 1.04188E-04 8.90232E-19 1.83467E-18
 -1      1274 2.98195E-04-8.64016E-05-7.62037E-05 4.83578E-05-2.66392E-19-3.23143E-18
 -1      1275 3.02871E-04-8.90472E-05-7.69816E-05-3.31449E-05 6.86732E-19-6.16725E-18
 -1      1276 2.42672E-04-5.34804E-05-6.88761E-05-9.66981E-05 4.33681E-18-1.30646E-17
 -1      1277 1.41895E-04-1.35388E-06-5.30477E-05-1.08247E-04 9.13356E-18-1.55905E-17
 -1      1278 5.39968E-05 2.52328E-05-3.28271E-05-7.11532E-05 1.34839E-17-1.50399E-17
 -1      1279 1.17367E-05 7.12578E-06-1.26997E-05-1.65888E-05 1.52466E-17-1.15815E-17
 -1      1280 1.10991E-05-4.28166E-05 4.28997E-06 2.04426E-05 1.08166E-17-5.91737E-18
 -1      1281 2.80504E-05-9.27972E-05 1.54061E-05 2.18467E-05-2.57498E-18-1.07256E-19
 -1      1282 3.66446E-05-1.12405E-04 1.90351E-05-1.99040E-06-8.93535E-18-7.98434E-19
 -1      1283 2.53300E-05-8.68076E-05 1.42167E-05-2.37188E-05-9.91029E-18-2.68351E-18
 -1      1284 9.07912E-06-3.07744E-05 8.72390E-07-1.36269E-05-1.45808E-17-8.44111E-18
 -1      1285 1.77453E-05 1.57898E-05-1.77106E-05 3.01928E-05-1.63308E-17-1.31544E-17
 -1      1286 6.76174E-05 2.41274E-05-3.69634E-05 8.15676E-05-1.40845E-17-1.67357E-17
 -1      1287 1.49913E-04-4.64218E-06-5.46636E-05 1.10795E-04-1.18559E-17-2.19077E-17
 -1      1288 2.39185E-04-5.14490E-05-6.86117E-05 9.83930E-05-7.06256E-18-2.09259E-17
 -1      1289 3.00209E-04-8.77118E-05-7.66484E-05 4.40891E-05-2.19376E-18-1.56383E-17
 -1      1290 3.07078E-04-9.17956E-05-7.74404E-05-2.98693E-05 1.13037E-18-1.20719E-17
 -1      1291 2.53071E-04-5.87909E-05-7.05985E-05-9.05387E-05 2.06253E-19-4.01155E-18
 -1      1292 1.61822E-04-1.02988E-05-5.66006E-05-1.11880E-04-3.11623E-18 4.64682E-18
 -1      1293 7.18273E-05 2.32370E-05-3.80937E-05-8.38912E-05-5.82250E-18 6.84233E-18
 -1      1294 1.92890E-05 1.82203E-05-1.88912E-05-3.31612E-05-4.72983E-18 4.43083E-18
 -1      1295 7.04580E-06-2.10204E-05-1.70366E-06 1.01242E-05-4.53163E-18 2.66307E-18
 -1      1296 1.98606E-05-7.26207E-05 1.12836E-05 2.60813E-05-4.06068E-18 1.24239E-18
 -1      1297 3.44193E-05-1.08110E-04 1.83279E-05 1.27318E-05 3.35849E-19-1.15408E-19
 -1      1298 1.04410E-04-2.20112E-05-3.78812E-05-1.72793E-05-6.57298E-19 9.50943E-18
 -1      1299 9.02955E-05-6.67698E-06-3.60086E-05-2.04829E-05-1.73091E-18-1.74325E-18
 -1      1300 9.26275E-05-6.73513E-06-3.72124E-05-2.57686E-05-2.25586E-18 7.59630E-19
 -1      1301 8.58912E-05-4.09498E-06-3.51248E-05-1.64472E-05-1.65121E-18-5.19234E-18
 -1      1302 8.71379E-05-4.08741E-06-3.55923E-05-1.88667E-05-1.91387E-18-3.75251E-18
 -1      1303 9.21108E-05-1.04579E-05-3.50858E-05-1.90470E-05-3.01607E-18-1.59295E-18
 -1      1304 8.40931E-05-3.19017E-06-3.46855E-05-1.28308E-05-1.27730E-18-6.72542E-18
 -1      1305 8.46999E-05-3.16062E-06-3.49080E-05-1.46453E-05-1.47505E-18-6.04001E-18
 -1      1306 8.78552E-05-7.39335E-06-3.45695E-05-1.54248E-05-2.59565E-18-4.36884E-18
 -1      1307 8.31924E-05-2.72895E-06-3.44725E-05-9.70012E-06-8.76322E-19-7.38142E-18
 -1      1308 8.35008E-05-2.71044E-06-3.45800E-05-1.12482E-05-1.01500E-18-7.11721E-18
 -1      1309 8.58667E-05-5.98310E-06-3.43049E-05-1.19683E-05-1.90961E-18-5.65339E-18
 -1      1310 8.27091E-05-2.45988E-06-3.43690E-05-6.92551E-06-4.86614E-19-7.52548E-18
 -1      1311 8.28749E-05-2.45145E-06-3.44221E-05-8.29804E-06-6.40072E-19-7.45376E-18
 -1      1312 8.48316E-05-5.22026E-06-3.41759E-05-8.95641E-06-1.30042E-18-6.19215E-18
 -1      1313 8.24390E-05-2.29470E-06-3.43184E-05-4.30178E-06-1.90667E-19-7.46667E-18
 -1      1314 8.25278E-05-2.29077E-06-3.43446E-05-5.60480E-06-2.71944E-19-7.52656E-18
 -1      1315 8.42535E-05-4.76635E-06-3.41152E-05-6.22522E-06-6.60568E-19-6.34626E-18
 -1      1316 8.23095E-05-2.20553E-06-3.42973E-05-1.79298E-06 1.52287E-19-7.32120E-18
 -1      1317 8.23473E-05-2.20395E-06-3.43079E-05-3.04599E-06 4.70103E-20-7.37984E-18
 -1      1318 8.39358E-05-4.50313E-06-3.40882E-05-3.65001E-06-1.44970E-19-6.23412E-18
 -1      1319 8.22841E-05-2.17814E-06-3.42948E-05 6.70915E-07 4.10341E-19-7.09348E-18
 -1      1320 8.22827E-05-2.17818E-06-3.42945E-05-5.66995E-07 3.39410E-19-7.22580E-18
 -1      1321 8.37970E-05-4.38385E-06-3.40783E-05-1.17236E-06 4.03844E-19-6.04951E-18
 -1      1322 8.23558E-05-2.20829E-06-3.43093E-05 3.15358E-06 7.48115E-19-6.86187E-18
 -1      1323 8.23152E-05-2.20993E-06-3.42980E-05 1.89797E-06 6.49402E-19-6.99849E-18
 -1      1324 8.38020E-05-4.38810E-06-3.40787E-05 1.27567E-06 8.59578E-19-5.90350E-18
 -1      1325 8.25446E-05-2.30097E-06-3.43472E-05 5.72162E-06 1.03479E-18-6.49284E-18
 -1      1326 8.24525E-05-2.30437E-06-3.43203E-05 4.41269E-06 9.21244E-19-6.73179E-18
 -1      1327 8.39513E-05-4.51665E-06-3.40893E-05 3.75773E-06 1.37367E-18-5.65684E-18
 -1      1328 8.28975E-05-2.46608E-06-3.44249E-05 8.40637E-06 1.33398E-18-5.85811E-18
 -1      1329 8.27282E-05-2.47481E-06-3.43714E-05 7.02524E-06 1.21166E-18-6.25394E-18
 -1      1330 8.42785E-05-4.78891E-06-3.41164E-05 6.31946E-06 1.83213E-18-5.24215E-18
 -1      1331 8.35468E-05-2.74243E-06-3.45851E-05 1.14087E-05 1.71972E-18-4.82545E-18
 -1      1332 8.32300E-05-2.75961E-06-3.44760E-05 9.84290E-06 1.55368E-18-5.44550E-18
 -1      1333 8.48735E-05-5.26075E-06-3.41769E-05 9.06511E-06 2.37386E-18-4.52003E-18
 -1      1334 8.47575E-05-3.20322E-06-3.49159E-05 1.48580E-05 2.06864E-18-3.02542E-18
 -1      1335 8.41502E-05-3.24010E-06-3.46912E-05 1.30177E-05 1.87061E-18-4.13386E-18
 -1      1336 8.59468E-05-6.06384E-06-3.43062E-05 1.21353E-05 2.90892E-18-3.39570E-18
 -1      1337 8.72371E-05-4.08842E-06-3.56140E-05 1.91039E-05 2.29022E-18 2.08635E-19
 -1      1338 8.59589E-05-4.15254E-06-3.51325E-05 1.67069E-05 2.05914E-18-1.72774E-18
 -1      1339 8.79803E-05-7.51555E-06-3.45718E-05 1.56633E-05 3.33466E-18-1.38215E-18
 -1      1340 9.34408E-05-6.78786E-06-3.71079E-05 2.51048E-05 1.87533E-18 6.27974E-18
 -1      1341 9.01110E-05-6.43393E-06-3.60314E-05 2.11601E-05 1.85368E-18 2.59049E-18
 -1      1342 9.23408E-05-1.06933E-05-3.50711E-05 1.96878E-05 3.35033E-18 2.24808E-18
 -1      1343 1.23595E-04-2.49160E-05-3.90049E-05 2.83690E-05 8.76044E-19 1.73765E-17
 -1      1344 1.00053E-04-1.44175E-05-3.73447E-05 2.40567E-05 9.01349E-19 9.74575E-18
 -1      1345 1.01650E-04-1.93343E-05-3.53935E-05 2.14073E-05 3.00192E-18 7.73828E-18
 -1      1346 1.02571E-04-2.77948E-05-3.47475E-05 7.33398E-06 1.57220E-18 1.68193E-17
 -1      1347 1.05112E-04-3.02198E-05-3.35148E-05-7.96449E-06-1.93843E-18 1.02760E-17
 -1      1348 9.82217E-05-2.78312E-05-3.07505E-05-4.99282E-06-1.74118E-18 8.00875E-18
 -1      1349 9.54617E-05-2.78369E-05-2.92422E-05-2.49434E-06-1.41322E-18 7.10094E-18
 -1      1350 9.32250E-05-2.75446E-05-2.82016E-05-2.04763E-06-1.34784E-18 5.01703E-18
 -1      1351 9.94496E-05-2.80414E-05-3.09723E-05-7.89537E-06-3.09702E-18 3.59941E-18
 -1      1352 9.15324E-05-2.71857E-05-2.75665E-05-8.42724E-07-1.12328E-18 4.28546E-18
 -1      1353 9.08114E-05-2.70890E-05-2.72629E-05-7.32398E-07-1.04024E-18 2.74521E-18
 -1      1354 9.46780E-05-2.77578E-05-2.88045E-05-3.12935E-06-2.38051E-18 2.28661E-18
 -1      1355 9.00590E-05-2.69057E-05-2.70188E-05-1.78100E-07-7.87800E-19 2.09439E-18
 -1      1356 8.99822E-05-2.69312E-05-2.69827E-05-1.20128E-07-7.27992E-19 1.02225E-18
 -1      1357 9.24738E-05-2.74859E-05-2.78821E-05-1.06137E-06-1.76539E-18 1.00503E-18
 -1      1358 8.97206E-05-2.68632E-05-2.69078E-05 1.50045E-07-5.50327E-19 6.29041E-19
 -1      1359 8.99307E-05-2.69517E-05-2.69681E-05 1.78684E-07-5.16391E-19-6.90729E-20
 -1      1360 9.15111E-05-2.73412E-05-2.75138E-05-7.81360E-08-1.22918E-18-6.43149E-20
 -1      1361 8.99330E-05-2.69544E-05-2.69742E-05 3.10304E-07-3.02413E-19-2.01792E-19
 -1      1362 9.02713E-05-2.70726E-05-2.70722E-05 3.22183E-07-2.25492E-19-6.14900E-19
 -1      1363 9.12544E-05-2.73279E-05-2.74050E-05 4.09685E-07-7.94014E-19-4.80526E-19
 -1      1364 9.04133E-05-2.71143E-05-2.71194E-05 3.78224E-07-2.80659E-19-7.28309E-19
 -1      1365 9.07984E-05-2.72415E-05-2.72307E-05 3.80296E-07-3.30743E-19-1.25602E-18
 -1      1366 9.13859E-05-2.74006E-05-2.74271E-05 6.40417E-07-5.38280E-19-9.35543E-19
 -1      1367 9.10092E-05-2.73025E-05-2.72980E-05 3.93660E-07-4.45928E-19-1.39799E-18
 -1      1368 9.13968E-05-2.74268E-05-2.74104E-05 3.90188E-07-4.72540E-19-2.17194E-18
 -1      1369 9.17213E-05-2.75197E-05-2.75172E-05 7.28085E-07-7.67255E-19-1.33209E-18
 -1      1370 9.16351E-05-2.74954E-05-2.74855E-05 3.80284E-07-5.07266E-19-2.47421E-18
 -1      1371 9.20020E-05-2.76109E-05-2.75924E-05 3.74098E-07-4.78041E-19-3.04926E-18
 -1      1372 9.21527E-05-2.76587E-05-2.76407E-05 7.35491E-07-9.14126E-19-1.71871E-18
 -1      1373 9.22449E-05-2.76805E-05-2.76686E-05 3.53375E-07-2.39142E-19-3.44219E-18
 -1      1374 9.25810E-05-2.77847E-05-2.77671E-05 3.46433E-07-8.77690E-20-3.67762E-18
 -1      1375 9.26174E-05-2.78019E-05-2.77774E-05 7.01096E-07-6.99921E-19-2.14379E-18
 -1      1376 9.28174E-05-2.78523E-05-2.78410E-05 3.23352E-07 5.17934E-20-4.03037E-18
 -1      1377 9.31219E-05-2.79455E-05-2.79306E-05 3.17059E-07-1.30117E-19-4.06529E-18
 -1      1378 9.30818E-05-2.79411E-05-2.79164E-05 6.50227E-07-2.33840E-19-2.95607E-18
 -1      1379 9.33488E-05-2.80102E-05-2.80015E-05 2.97675E-07-1.88628E-19-3.90265E-18
 -1      1380 9.36272E-05-2.80943E-05-2.80838E-05 2.93084E-07-8.67506E-22-4.01834E-18
 -1      1381 9.35319E-05-2.80731E-05-2.80528E-05 6.00502E-07-2.35811E-19-2.97297E-18
 -1      1382 9.38477E-05-2.81570E-05-2.81526E-05 2.81993E-07 1.37446E-19-3.96523E-18
 -1      1383 9.41104E-05-2.82354E-05-2.82306E-05 2.79950E-07 1.01956E-19-3.82853E-18
 -1      1384 9.39675E-05-2.81986E-05-2.81862E-05 5.64856E-07-7.32056E-20-2.96309E-18
 -1      1385 9.43323E-05-2.82984E-05-2.82997E-05 2.80903E-07-1.22234E-19-3.71754E-18
 -1      1386 9.45939E-05-2.83758E-05-2.83777E-05 2.82148E-07-1.41205E-19-3.89171E-18
 -1      1387 9.43989E-05-2.83210E-05-2.83195E-05 5.53414E-07-1.32234E-19-2.97953E-18
 -1      1388 9.48285E-05-2.84422E-05-2.84508E-05 2.98464E-07-2.31021E-19-3.85270E-18
 -1      1389 9.51072E-05-2.85243E-05-2.85340E-05 3.03702E-07-3.45408E-19-4.04588E-18
 -1      1390 9.48445E-05-2.84459E-05-2.84580E-05 5.74740E-07-1.60149E-19-3.02895E-18
 -1      1391 9.53691E-05-2.85984E-05-2.86155E-05 3.38518E-07-7.97588E-20-4.01260E-18
 -1      1392 9.56868E-05-2.86917E-05-2.87104E-05 3.48464E-07-2.42804E-19-4.27621E-18
 -1      1393 9.53295E-05-2.85810E-05-2.86092E-05 6.36631E-07-4.16809E-19-2.85220E-18
 -1      1394 9.59935E-05-2.87786E-05-2.88060E-05 4.04822E-07-3.59540E-19-4.23725E-18
 -1      1395 9.63755E-05-2.88912E-05-2.89200E-05 4.20200E-07-1.50720E-19-4.77409E-18
 -1      1396 9.58852E-05-2.87356E-05-2.87826E-05 7.46531E-07-2.02653E-19-3.04973E-18
 -1      1397 9.67471E-05-2.89965E-05-2.90357E-05 5.00917E-07-3.04167E-19-4.87260E-18
 -1      1398 9.72221E-05-2.91372E-05-2.91773E-05 5.22420E-07-2.80627E-19-5.33643E-18
 -1      1399 9.65480E-05-2.89207E-05-2.89891E-05 9.11495E-07-4.44469E-19-3.25904E-18
 -1      1400 9.76805E-05-2.92675E-05-2.93200E-05 6.29653E-07 6.73317E-20-5.68999E-18
 -1      1401 9.82799E-05-2.94463E-05-2.94983E-05 6.57806E-07-1.51560E-19-5.72982E-18
 -1      1402 9.73589E-05-2.91489E-05-2.92408E-05 1.13752E-06-5.02652E-19-3.29019E-18
 -1      1403 9.88476E-05-2.96083E-05-2.96749E-05 7.92121E-07 8.59391E-20-5.94568E-18
 -1      1404 9.96037E-05-2.98356E-05-2.98991E-05 8.27016E-07 3.90429E-21-5.57131E-18
 -1      1405 9.83616E-05-2.94340E-05-2.95503E-05 1.42794E-06-1.92040E-19-4.57975E-18
 -1      1406 1.00302E-04-3.00359E-05-3.01159E-05 9.85700E-07 6.72167E-21-5.11921E-18
 -1      1407 1.01244E-04-3.03217E-05-3.03945E-05 1.02651E-06 3.08450E-19-5.00947E-18
 -1      1408 9.95991E-05-2.97908E-05-2.99297E-05 1.78037E-06 3.26023E-19-4.78578E-18
 -1      1409 1.02088E-04-3.05658E-05-3.06557E-05 1.20076E-06 2.86883E-20-5.13275E-18
 -1      1410 1.03234E-04-3.09176E-05-3.09935E-05 1.24491E-06-3.10790E-19-5.33367E-18
 -1      1411 1.01108E-04-3.02336E-05-3.03881E-05 2.18139E-06 1.00135E-19-4.46338E-18
 -1      1412 1.04227E-04-3.12082E-05-3.12989E-05 1.41547E-06-3.83152E-19-5.03175E-18
 -1      1413 1.05574E-04-3.16274E-05-3.16936E-05 1.45732E-06-1.61113E-19-5.46572E-18
 -1      1414 1.02909E-04-3.07747E-05-3.09283E-05 2.59812E-06-4.46987E-19-4.01256E-18
 -1      1415 1.06695E-04-3.19623E-05-3.20353E-05 1.58856E-06 1.20601E-19-5.44233E-18
 -1      1416 1.08195E-04-3.24378E-05-3.24713E-05 1.61757E-06 1.95057E-20-5.17039E-18
 -1      1417 1.04990E-04-3.14205E-05-3.15417E-05 2.96610E-06-1.40361E-19-3.49719E-18
 -1      1418 1.09390E-04-3.28057E-05-3.28287E-05 1.65093E-06 1.55607E-19-5.28414E-18
 -1      1419 1.10921E-04-3.33049E-05-3.32689E-05 1.64961E-06 2.40622E-19-4.68653E-18
 -1      1420 1.07285E-04-3.21653E-05-3.22006E-05 3.17434E-06 1.93442E-19-3.07829E-18
 -1      1421 1.12080E-04-3.36800E-05-3.36037E-05 1.50031E-06 9.94420E-20-4.42205E-18
 -1      1422 1.13421E-04-3.41365E-05-3.39810E-05 1.44325E-06-4.24989E-20-4.36532E-18
 -1      1423 1.09641E-04-3.29801E-05-3.28500E-05 3.05304E-06 1.37021E-19-2.68581E-18
 -1      1424 1.14366E-04-3.44719E-05-3.42345E-05 1.00955E-06-6.33581E-19-4.41602E-18
 -1      1425 1.15168E-04-3.47746E-05-3.44482E-05 8.66913E-07-7.01668E-19-5.45040E-18
 -1      1426 1.11788E-04-3.37954E-05-3.34019E-05 2.37886E-06-3.07678E-19-2.61811E-18
 -1      1427 1.15653E-04-3.49950E-05-3.45454E-05 6.75140E-08 3.56832E-19-5.42073E-18
 -1      1428 1.15475E-04-3.49897E-05-3.44740E-05-1.81217E-07 7.59305E-19-4.76676E-18
 -1      1429 1.13316E-04-3.44764E-05-3.37381E-05 9.26796E-07-7.28250E-20-2.74469E-18
 -1      1430 1.15225E-04-3.49922E-05-3.43427E-05-1.32692E-06 3.73819E-19-4.80397E-18
 -1      1431 1.13658E-04-3.45159E-05-3.38842E-05-1.66430E-06-3.57938E-20-4.41849E-18
 -1      1432 1.13699E-04-3.48021E-05-3.37333E-05-1.39347E-06 7.65480E-19-2.39128E-18
 -1      1433 1.12469E-04-3.41937E-05-3.34910E-05-2.92672E-06-1.00718E-19-3.89513E-18
 -1      1434 1.09395E-04-3.31640E-05-3.26349E-05-3.26097E-06 4.25766E-20-3.81779E-18
 -1      1435 1.12422E-04-3.44866E-05-3.33042E-05-4.30866E-06 5.22560E-19-2.88185E-18
 -1      1436 1.07310E-04-3.24756E-05-3.20304E-05-4.14466E-06 6.66357E-19-3.20184E-18
 -1      1437 1.03215E-04-3.10241E-05-3.09283E-05-4.30378E-06 6.64385E-19-2.00127E-18
 -1      1438 1.09259E-04-3.32975E-05-3.24765E-05-6.96469E-06 3.00273E-19-1.85712E-18
 -1      1439 1.00714E-04-3.01041E-05-3.02667E-05-4.20437E-06 2.90175E-19-2.21536E-18
 -1      1440 9.67888E-05-2.86573E-05-2.92382E-05-4.01897E-06 2.77794E-19-1.67871E-18
 -1      1441 1.04679E-04-3.13201E-05-3.14325E-05-8.00802E-06 7.67221E-19-1.25244E-18
 -1      1442 9.47702E-05-2.78652E-05-2.87379E-05-2.65275E-06 1.58541E-19-1.82011E-18
 -1      1443 9.25134E-05-2.70149E-05-2.81560E-05-2.11740E-06 4.60177E-20-2.12915E-18
 -1      1444 1.00075E-04-2.91773E-05-3.04826E-05-6.28460E-06 3.94453E-19-2.20712E-18
 -1      1445 9.18849E-05-2.67633E-05-2.80038E-05 8.49331E-08-7.42742E-20-1.40977E-18
 -1      1446 9.22731E-05-2.69139E-05-2.81018E-05 7.35914E-07 7.57036E-20-2.09303E-18
 -1      1447 9.73499E-05-2.78660E-05-2.99517E-05-1.91782E-06 3.45166E-20-1.14842E-18
 -1      1448 9.33347E-05-2.73463E-05-2.83547E-05 2.77116E-06-3.09511E-19-2.13407E-18
 -1      1449 9.61737E-05-2.84165E-05-2.90864E-05 3.21338E-06-3.73045E-19-3.06208E-18
 -1      1450 9.78005E-05-2.80990E-05-3.00296E-05 3.29915E-06-2.23378E-19-9.21552E-19
 -1      1451 9.83828E-05-2.92763E-05-2.96396E-05 4.19659E-06-2.51916E-19-3.13688E-18
 -1      1452 1.02440E-04-3.07615E-05-3.07079E-05 4.26407E-06-3.08899E-19-3.23831E-18
 -1      1453 1.01166E-04-2.97331E-05-3.06798E-05 6.97078E-06-7.17655E-19-2.08627E-18
 -1      1454 1.04823E-04-3.16193E-05-3.13518E-05 3.99938E-06 4.55346E-20-3.69788E-18
 -1      1455 1.08613E-04-3.29472E-05-3.23795E-05 3.76336E-06 8.63676E-20-3.39501E-18
 -1      1456 1.05826E-04-3.18854E-05-3.16546E-05 7.76756E-06-3.06373E-19-1.64806E-18
 -1      1457 1.10371E-04-3.35052E-05-3.29053E-05 2.68425E-06 9.32133E-20-2.96485E-18
 -1      1458 1.12896E-04-3.43359E-05-3.36158E-05 2.32961E-06 6.02525E-19-2.62694E-18
 -1      1459 1.09930E-04-3.36201E-05-3.26146E-05 6.05211E-06-1.12232E-20-1.10413E-18
 -1      1460 1.13691E-04-3.45223E-05-3.38992E-05 1.04152E-06 7.22360E-20-3.42093E-18
 -1      1461 1.14672E-04-3.48006E-05-3.41937E-05 7.19895E-07-7.54964E-19-3.91207E-18
 -1      1462 1.12354E-04-3.44824E-05-3.32779E-05 3.14695E-06 2.22313E-19-2.04432E-18
 -1      1463 1.14554E-04-3.46863E-05-3.42132E-05-3.57123E-07-5.62575E-19-3.65277E-18
 -1      1464 1.14224E-04-3.45306E-05-3.41375E-05-5.79222E-07-4.23477E-19-4.45088E-18
 -1      1465 1.12873E-04-3.45120E-05-3.35103E-05 2.97974E-07-6.65139E-19-1.91422E-18
 -1      1466 1.13434E-04-3.42261E-05-3.39422E-05-1.28814E-06-1.49634E-19-4.61444E-18
 -1      1467 1.12232E-04-3.38027E-05-3.36100E-05-1.40818E-06-1.54822E-19-4.71489E-18
 -1      1468 1.11836E-04-3.39767E-05-3.33249E-05-1.82452E-06-4.74120E-19-2.68617E-18
 -1      1469 1.11044E-04-3.34037E-05-3.32763E-05-1.76848E-06-1.05470E-19-3.90075E-18
 -1      1470 1.09393E-04-3.28555E-05-3.28062E-05-1.81143E-06-9.81169E-20-3.81473E-18
 -1      1471 1.09784E-04-3.31500E-05-3.28245E-05-3.07933E-06 2.66934E-19-3.10079E-18
 -1      1472 1.08039E-04-3.24289E-05-3.24072E-05-1.91205E-06-9.50249E-20-2.49801E-18
 -1      1473 1.06255E-04-3.18543E-05-3.18923E-05-1.90583E-06 7.74394E-19-2.18325E-18
 -1      1474 1.07220E-04-3.22259E-05-3.21385E-05-3.60920E-06 8.40295E-19-9.43793E-19
 -1      1475 1.04901E-04-3.14421E-05-3.14840E-05-1.83727E-06 1.49062E-18-2.96139E-18
 -1      1476 1.03192E-04-3.09005E-05-3.09874E-05-1.80251E-06 1.19801E-18-1.38900E-18
 -1      1477 1.04525E-04-3.13188E-05-3.13823E-05-3.63268E-06 1.22154E-18-2.76378E-20
 -1      1478 1.01948E-04-3.05276E-05-3.06087E-05-1.62854E-06 9.28788E-19-1.71612E-18
 -1      1479 1.00442E-04-3.00531E-05-3.01710E-05-1.57640E-06 3.40459E-19-3.03833E-19
 -1      1480 1.01956E-04-3.04880E-05-3.06435E-05-3.33414E-06 1.24937E-18-9.20864E-19
 -1      1481 9.93780E-05-2.97339E-05-2.98482E-05-1.32853E-06-6.04264E-19-8.94778E-19
 -1      1482 9.81670E-05-2.93504E-05-2.94980E-05-1.26131E-06-4.07381E-19-1.87452E-18
 -1      1483 9.96794E-05-2.97620E-05-2.99833E-05-2.82679E-06-3.46413E-19-1.15480E-18
 -1      1484 9.73326E-05-2.90947E-05-2.92494E-05-9.46396E-07 8.49073E-19-1.34904E-18
 -1      1485 9.65020E-05-2.88292E-05-2.90092E-05-8.58826E-07 4.41092E-19-1.44163E-19
 -1      1486 9.78045E-05-2.91557E-05-2.94431E-05-2.15427E-06 1.09499E-19-1.51933E-18
 -1      1487 9.59138E-05-2.86327E-05-2.88409E-05-4.74311E-07 3.88341E-19 8.35818E-19
 -1      1488 9.55434E-05-2.85409E-05-2.87124E-05-3.67932E-07 5.68238E-19 9.36276E-19
 -1      1489 9.63951E-05-2.86801E-05-2.90439E-05-1.33078E-06 1.67018E-18 1.06447E-19
 -1      1490 9.52082E-05-2.85402E-05-2.85594E-05 3.92320E-08-1.30105E-18 1.62975E-18
 -1      1491 9.54349E-05-2.84420E-05-2.87190E-05-3.40595E-07-5.29808E-19-2.93950E-19
 -1      1492 9.65365E-05-2.83513E-05-2.97603E-05 2.99971E-06 1.43403E-18 1.35674E-17
 -1      1493 1.02500E-04-2.93877E-05-3.21449E-05 4.46695E-06 1.22052E-18 1.57667E-17
 -1      1494 1.02292E-04-2.67077E-05-3.26956E-05 1.27901E-05 2.46058E-18 1.04112E-17
 -1      1495 9.19829E-05-2.74149E-05-2.77475E-05 1.15587E-06 1.11998E-18 1.06868E-17
 -1      1496 9.39338E-05-2.75714E-05-2.86629E-05 1.47776E-06 1.08128E-18 1.24203E-17
 -1      1497 9.64479E-05-2.80185E-05-2.95221E-05 4.87489E-06 2.22441E-18 8.25220E-18
 -1      1498 9.01426E-05-2.69879E-05-2.70463E-05 3.35771E-07 8.29596E-19 8.48388E-18
 -1      1499 9.07620E-05-2.70068E-05-2.73202E-05 4.98498E-07 8.51817E-19 9.74993E-18
 -1      1500 9.29976E-05-2.75654E-05-2.80853E-05 1.85911E-06 1.79175E-18 6.58309E-18
 -1      1501 8.96176E-05-2.68674E-05-2.68683E-05-5.10469E-08 4.69581E-19 6.92153E-18
 -1      1502 8.96596E-05-2.68065E-05-2.68978E-05 3.79194E-08 4.97053E-19 7.83633E-18
 -1      1503 9.14385E-05-2.72925E-05-2.74998E-05 5.25246E-07 1.24080E-18 5.13778E-18
 -1      1504 8.97421E-05-2.69175E-05-2.69079E-05-2.38587E-07 4.45215E-19 5.61853E-18
 -1      1505 8.95182E-05-2.68115E-05-2.68441E-05-1.88461E-07 4.44538E-19 6.26325E-18
 -1      1506 9.09015E-05-2.72099E-05-2.73021E-05-1.24924E-07 9.36425E-19 3.84038E-18
 -1      1507 9.01888E-05-2.70580E-05-2.70444E-05-3.22615E-07 3.51980E-19 4.80056E-18
 -1      1508 8.98459E-05-2.69321E-05-2.69440E-05-2.94952E-07 2.98793E-19 5.27176E-18
 -1      1509 9.09149E-05-2.72515E-05-2.72900E-05-4.44875E-07 6.34141E-19 3.13342E-18
 -1      1510 9.07802E-05-2.72391E-05-2.72231E-05-3.49030E-07 4.01972E-19 4.04530E-18
 -1      1511 9.03952E-05-2.71096E-05-2.71102E-05-3.35128E-07 3.59892E-19 4.53036E-18
 -1      1512 9.12179E-05-2.73627E-05-2.73714E-05-5.87875E-07 6.12557E-19 2.52948E-18
 -1      1513 9.14167E-05-2.74319E-05-2.74149E-05-3.43345E-07 2.04507E-19 3.13152E-18
 -1      1514 9.10316E-05-2.73082E-05-2.73017E-05-3.37877E-07 2.90947E-19 3.56243E-18
 -1      1515 9.16619E-05-2.75069E-05-2.74986E-05-6.31647E-07 5.91501E-19 1.87688E-18
 -1      1516 9.20434E-05-2.76204E-05-2.76040E-05-3.21334E-07 3.17650E-19 2.29328E-18
 -1      1517 9.16802E-05-2.75070E-05-2.74968E-05-3.20763E-07 2.12717E-19 2.79759E-18
 -1      1518 9.21610E-05-2.76619E-05-2.76449E-05-6.20717E-07 5.85425E-19 1.07230E-18
 -1      1519 9.26339E-05-2.77969E-05-2.77825E-05-2.93440E-07 1.60826E-19 1.95940E-18
 -1      1520 9.23018E-05-2.76953E-05-2.76841E-05-2.95286E-07 2.09908E-19 2.21878E-18
 -1      1521 9.26674E-05-2.78153E-05-2.77955E-05-5.83048E-07 4.67212E-19 5.21948E-19
 -1      1522 9.31807E-05-2.79595E-05-2.79482E-05-2.66949E-07 3.18815E-19 1.72841E-18
 -1      1523 9.28801E-05-2.78687E-05-2.78587E-05-2.69383E-07 1.34144E-19 1.96126E-18
 -1      1524 9.31578E-05-2.79613E-05-2.79426E-05-5.37383E-07 2.27068E-19 1.02186E-18
 -1      1525 9.36900E-05-2.81103E-05-2.81028E-05-2.47218E-07 2.63311E-19 1.15343E-18
 -1      1526 9.34151E-05-2.80278E-05-2.80206E-05-2.48808E-07 3.03516E-19 1.56833E-18
 -1      1527 9.36261E-05-2.80987E-05-2.80843E-05-4.96979E-07 4.36193E-19 7.90811E-19
 -1      1528 9.41782E-05-2.82542E-05-2.82512E-05-2.38454E-07 1.89411E-21 9.50246E-19
 -1      1529 9.39182E-05-2.81761E-05-2.81732E-05-2.37995E-07 5.09412E-20 8.50882E-19
 -1      1530 9.40781E-05-2.82298E-05-2.82220E-05-4.71762E-07 3.78741E-19 6.19184E-19
 -1      1531 9.46698E-05-2.83986E-05-2.84009E-05-2.44235E-07-2.75618E-19 9.52993E-19
 -1      1532 9.44101E-05-2.83201E-05-2.83227E-05-2.40626E-07-2.97336E-20 1.06226E-18
 -1      1533 9.45291E-05-2.83593E-05-2.83602E-05-4.69690E-07 1.30446E-21 6.06616E-19
 -1      1534 9.51966E-05-2.85532E-05-2.85614E-05-2.67851E-07-1.17642E-20 1.19087E-18
 -1      1535 9.49190E-05-2.84681E-05-2.84775E-05-2.60007E-07-2.29996E-19 9.56308E-19
 -1      1536 9.50022E-05-2.84943E-05-2.85058E-05-4.97650E-07-1.10332E-19 6.97123E-19
 -1      1537 9.57972E-05-2.87293E-05-2.87442E-05-3.12487E-07-2.71496E-19 1.12359E-18
 -1      1538 9.54798E-05-2.86307E-05-2.86482E-05-2.99284E-07-3.28308E-21 1.10779E-18
 -1      1539 9.55267E-05-2.86436E-05-2.86677E-05-5.62007E-07-2.27789E-20 1.98830E-19
 -1      1540 9.65160E-05-2.89404E-05-2.89627E-05-3.81223E-07 3.29849E-19 1.21077E-18
 -1      1541 9.61336E-05-2.88202E-05-2.88472E-05-3.61481E-07 4.91718E-20 1.10181E-18
 -1      1542 9.61378E-05-2.88178E-05-2.88563E-05-6.68805E-07 1.37692E-20-1.03338E-19
 -1      1543 9.74032E-05-2.92016E-05-2.92320E-05-4.76757E-07 1.23802E-19 2.81539E-19
 -1      1544 9.69275E-05-2.90508E-05-2.90886E-05-4.49295E-07 2.70898E-19 7.92485E-19
 -1      1545 9.68756E-05-2.90289E-05-2.90837E-05-8.23548E-07 4.89569E-19-3.81422E-20
 -1      1546 9.85128E-05-2.95295E-05-2.95682E-05-6.00739E-07 6.01451E-20 2.16352E-19
 -1      1547 9.79131E-05-2.93381E-05-2.93879E-05-5.64533E-07-1.17333E-19 1.87882E-19
 -1      1548 9.77840E-05-2.92906E-05-2.93630E-05-1.03034E-06 1.64783E-20-1.85133E-20
 -1      1549 9.98988E-05-2.99407E-05-2.99871E-05-7.52466E-07-2.92801E-19 7.88915E-19
 -1      1550 9.91442E-05-2.96989E-05-2.97609E-05-7.06995E-07-1.37133E-19 6.96337E-19
 -1      1551 9.89082E-05-2.96170E-05-2.97072E-05-1.29013E-06-2.39365E-19 5.86274E-19
 -1      1552 1.01608E-04-3.04505E-05-3.05021E-05-9.26615E-07-3.15654E-19 1.48494E-18
 -1      1553 1.00671E-04-3.01497E-05-3.02225E-05-8.72507E-07-2.88771E-19 8.78062E-19
 -1      1554 1.00290E-04-3.00222E-05-3.01280E-05-1.59744E-06-5.63864E-19 5.95573E-19
 -1      1555 1.03666E-04-3.10687E-05-3.11197E-05-1.10958E-06 9.13118E-19 2.02917E-19
 -1      1556 1.02532E-04-3.07042E-05-3.07829E-05-1.04972E-06 4.83289E-19 1.29306E-18
 -1      1557 1.01958E-04-3.05182E-05-3.06326E-05-1.93508E-06 4.69781E-19 7.40667E-19
 -1      1558 1.06058E-04-3.17938E-05-3.18329E-05-1.27403E-06 2.64029E-19-1.37369E-18
 -1      1559 1.04736E-04-3.13690E-05-3.14430E-05-1.21533E-06 5.65928E-19-5.04845E-19
 -1      1560 1.03919E-04-3.11115E-05-3.12193E-05-2.26600E-06 1.15537E-18-3.20571E-19
 -1      1561 1.08691E-04-3.26030E-05-3.26107E-05-1.37209E-06-3.96457E-19-9.77397E-19
 -1      1562 1.07236E-04-3.21366E-05-3.21858E-05-1.32786E-06-2.67996E-19-1.37926E-18
 -1      1563 1.06130E-04-3.17975E-05-3.18710E-05-2.52227E-06 6.35374E-20-7.73950E-19
 -1      1564 1.11353E-04-3.34384E-05-3.33847E-05-1.32897E-06 3.87658E-20-5.69497E-19
 -1      1565 1.09892E-04-3.29735E-05-3.29650E-05-1.32156E-06 8.05227E-20-2.53567E-19
 -1      1566 1.08478E-04-3.25527E-05-3.25462E-05-2.59321E-06-1.89376E-19-4.18990E-19
 -1      1567 1.13665E-04-3.41901E-05-3.40370E-05-1.04362E-06-2.25087E-19-4.49040E-19
 -1      1568 1.12427E-04-3.38050E-05-3.36923E-05-1.10523E-06-4.72320E-20-4.42601E-19
 -1      1569 1.10738E-04-3.33215E-05-3.31705E-05-2.31966E-06-5.96827E-20 6.91576E-19
 -1      1570 1.15054E-04-3.46827E-05-3.43975E-05-4.08976E-07 2.30525E-19-8.96444E-19
 -1      1571 1.14386E-04-3.44968E-05-3.42287E-05-5.76699E-07 9.22240E-20-8.64946E-19
 -1      1572 1.12552E-04-3.40010E-05-3.36322E-05-1.51083E-06 3.34426E-19 2.38185E-19
 -1      1573 1.14810E-04-3.46817E-05-3.42683E-05 6.29350E-07-2.20659E-19-7.05221E-19
 -1      1574 1.15139E-04-3.48436E-05-3.43923E-05 3.31054E-07-3.74011E-19-1.03237E-18
 -1      1575 1.13427E-04-3.44265E-05-3.37930E-05-1.14045E-08 9.56485E-20 4.87648E-20
 -1      1576 1.12292E-04-3.39481E-05-3.34933E-05 1.96718E-06 8.99840E-20-7.03726E-19
 -1      1577 1.13991E-04-3.45884E-05-3.40001E-05 1.56035E-06 3.02536E-19-2.89037E-19
 -1      1578 1.12813E-04-3.43744E-05-3.35242E-05 2.15407E-06-2.78330E-20 1.97948E-19
 -1      1579 1.07335E-04-3.23735E-05-3.20715E-05 3.23149E-06 1.37951E-19-8.91185E-19
 -1      1580 1.10468E-04-3.35088E-05-3.29542E-05 2.82160E-06 4.39729E-20-1.13696E-18
 -1      1581 1.10321E-04-3.36193E-05-3.27737E-05 4.58180E-06 2.52661E-19-1.73708E-19
 -1      1582 1.00729E-04-3.01729E-05-3.02623E-05 3.80031E-06-4.40416E-19-6.44698E-19
 -1      1583 1.04767E-04-3.15961E-05-3.13548E-05 3.57242E-06-2.55349E-19-1.23799E-18
 -1      1584 1.06062E-04-3.20845E-05-3.16415E-05 6.38207E-06-1.13158E-21 2.42728E-19
 -1      1585 9.43902E-05-2.79951E-05-2.85834E-05 3.10060E-06-5.99560E-19 8.05158E-19
 -1      1586 9.81406E-05-2.92521E-05-2.95666E-05 3.22981E-06-5.04521E-19-3.63801E-19
 -1      1587 1.00982E-04-3.00515E-05-3.04092E-05 6.43422E-06-8.87141E-19 6.89485E-19
 -1      1588 9.07411E-05-2.67295E-05-2.76295E-05 1.11486E-06 3.75825E-19 1.58779E-18
 -1      1589 9.27661E-05-2.72947E-05-2.81485E-05 1.61489E-06 3.12582E-19 1.42254E-18
 -1      1590 9.68002E-05-2.82430E-05-2.94687E-05 4.11321E-06-2.17370E-19 1.01250E-18
 -1      1591 9.13764E-05-2.69783E-05-2.77701E-05-1.37368E-06-7.52370E-19 2.00728E-18
 -1      1592 9.07989E-05-2.65818E-05-2.76210E-05-7.13288E-07-2.42648E-19 1.50289E-18
 -1      1593 9.52654E-05-2.75227E-05-2.91537E-05 4.28677E-08-2.47387E-19 1.92777E-18
 -1      1594 9.59818E-05-2.86080E-05-2.89402E-05-3.21927E-06 4.59714E-20 1.02946E-18
 -1      1595 9.30755E-05-2.74400E-05-2.81883E-05-2.70392E-06 2.55645E-19 1.50920E-18
 -1      1596 9.70676E-05-2.82906E-05-2.95742E-05-4.01201E-06 3.00842E-19 1.11006E-18
 -1      1597 1.02544E-04-3.08508E-05-3.06749E-05-3.72421E-06 1.32206E-18-7.43430E-19
 -1      1598 9.85480E-05-2.94241E-05-2.96182E-05-3.53635E-06 8.80671E-19 7.67412E-19
 -1      1599 1.01335E-04-3.01328E-05-3.05607E-05-6.29706E-06 1.05013E-18-3.77327E-19
 -1      1600 1.08653E-04-3.28479E-05-3.23709E-05-3.00307E-06 1.76891E-19-9.97805E-19
 -1      1601 1.04991E-04-3.16625E-05-3.13707E-05-3.11903E-06 2.61091E-19-9.44548E-19
 -1      1602 1.06254E-04-3.21561E-05-3.17541E-05-6.21046E-06 1.09562E-18-3.28993E-19
 -1      1603 1.12702E-04-3.40905E-05-3.35683E-05-1.67022E-06-2.07867E-19-1.36894E-18
 -1      1604 1.10296E-04-3.34057E-05-3.28826E-05-1.94491E-06 9.33391E-20-1.45160E-18
 -1      1605 1.10163E-04-3.36196E-05-3.27768E-05-4.38251E-06 2.93285E-19-4.68092E-19
 -1      1606 1.14234E-04-3.44918E-05-3.40847E-05-3.30455E-07-5.84453E-20-1.81067E-19
 -1      1607 1.13321E-04-3.43182E-05-3.38016E-05-6.22519E-07-3.52366E-19-1.00269E-18
 -1      1608 1.12222E-04-3.42552E-05-3.33805E-05-1.92795E-06-3.30356E-19 9.30413E-20
 -1      1609 1.13611E-04-3.42205E-05-3.39746E-05 6.82219E-07-6.75601E-19 8.06587E-19
 -1      1610 1.13951E-04-3.44319E-05-3.40476E-05 4.51602E-07-1.62478E-19-1.00777E-19
 -1      1611 1.12393E-04-3.41674E-05-3.34960E-05 2.74598E-07-5.81197E-19 5.99225E-19
 -1      1612 1.11527E-04-3.35217E-05-3.34139E-05 1.29130E-06 2.00864E-19 1.25972E-18
 -1      1613 1.12699E-04-3.39619E-05-3.37342E-05 1.14262E-06-5.44947E-19 1.29196E-18
 -1      1614 1.11099E-04-3.36008E-05-3.31923E-05 1.82259E-06-9.27342E-19 1.03050E-18
 -1      1615 1.08667E-04-3.26121E-05-3.25980E-05 1.56088E-06-6.37037E-20-5.48110E-19
 -1      1616 1.10267E-04-3.31522E-05-3.30523E-05 1.48310E-06 7.26528E-19 8.40945E-19
 -1      1617 1.08892E-04-3.27874E-05-3.26020E-05 2.68372E-06 6.43623E-19 2.11784E-18
 -1      1618 1.05554E-04-3.16471E-05-3.16876E-05 1.59364E-06 6.78083E-19-1.16061E-18
 -1      1619 1.07281E-04-3.22000E-05-3.21867E-05 1.56681E-06 5.78930E-19-8.43949E-19
 -1      1620 1.06258E-04-3.18928E-05-3.18622E-05 3.00017E-06 9.07383E-19 9.88210E-19
 -1      1621 1.02545E-04-3.07261E-05-3.07967E-05 1.47675E-06 1.33342E-20-1.69314E-18
 -1      1622 1.04200E-04-3.12391E-05-3.12792E-05 1.48398E-06 2.56310E-20-1.76886E-18
 -1      1623 1.03559E-04-3.10188E-05-3.10845E-05 2.94420E-06 4.25958E-19-2.85940E-19
 -1      1624 9.98689E-05-2.99103E-05-3.00023E-05 1.26393E-06 6.63862E-20-2.45231E-18
 -1      1625 1.01326E-04-3.03515E-05-3.04274E-05 1.29576E-06 6.30652E-19-1.72820E-18
 -1      1626 1.01040E-04-3.02236E-05-3.03501E-05 2.64859E-06 8.33090E-19-1.03229E-18
 -1      1627 9.76914E-05-2.92428E-05-2.93590E-05 9.74036E-07-6.51909E-19-1.50283E-18
 -1      1628 9.88579E-05-2.95870E-05-2.96972E-05 1.02983E-06-4.41748E-19-2.55493E-18
 -1      1629 9.88617E-05-2.95393E-05-2.97158E-05 2.18641E-06-3.35653E-19 4.58807E-19
 -1      1630 9.61568E-05-2.87667E-05-2.89065E-05 5.98753E-07 5.09735E-19-2.52223E-18
 -1      1631 9.69399E-05-2.89831E-05-2.91350E-05 6.88216E-07 5.62064E-19-1.75797E-18
 -1      1632 9.71366E-05-2.89857E-05-2.92204E-05 1.57778E-06 3.77744E-19-3.82241E-19
 -1      1633 9.53834E-05-2.85387E-05-2.86446E-05 1.72636E-07-8.80151E-20-5.14888E-18
 -1      1634 9.56955E-05-2.85939E-05-2.87643E-05 2.81106E-07 4.61362E-19-4.49526E-18
 -1      1635 9.59386E-05-2.85958E-05-2.88766E-05 8.26516E-07 1.87807E-18-2.11025E-18
 -1      1636 9.52234E-05-2.85419E-05-2.85629E-05-1.83024E-08-3.14020E-18-3.70539E-18
 -1      1637 9.51520E-05-2.78836E-05-2.88423E-05 4.87502E-07-3.23764E-18 8.38188E-19
 -1      1638 9.52639E-05-2.82520E-05-2.87144E-05 3.75524E-07-4.10938E-18-1.17239E-19
 -1      1639 9.47159E-05-2.65693E-05-2.92137E-05 8.89225E-07-1.14189E-18 2.40182E-19
 -1      1640 9.49732E-05-2.73369E-05-2.89957E-05 8.19249E-07-1.91806E-18 1.66164E-20
 -1      1641 9.51160E-05-2.74211E-05-2.90292E-05 1.28179E-06-4.34933E-19 1.57687E-18
 -1      1642 9.41436E-05-2.48367E-05-2.97055E-05 1.12119E-06-2.25660E-18-2.01395E-19
 -1      1643 9.44781E-05-2.58448E-05-2.94202E-05 1.09013E-06-1.55666E-18-9.59306E-20
 -1      1644 9.46314E-05-2.61356E-05-2.93696E-05 1.91944E-06 3.34595E-19-1.32605E-19
 -1      1645 9.35303E-05-2.29538E-05-3.02464E-05 1.16596E-06-1.90867E-18 9.80881E-19
 -1      1646 9.38820E-05-2.40253E-05-2.99409E-05 1.17215E-06-2.37441E-18 6.53381E-19
 -1      1647 9.40774E-05-2.45945E-05-2.97818E-05 2.21794E-06-1.70646E-19 4.81908E-19
 -1      1648 9.29711E-05-2.12238E-05-3.07470E-05 1.04124E-06-1.08488E-18 9.34095E-19
 -1      1649 9.32835E-05-2.21811E-05-3.04729E-05 1.07829E-06-2.68915E-18 2.30613E-19
 -1      1650 9.35185E-05-2.30096E-05-3.02106E-05 2.16876E-06-1.04724E-18-3.58507E-19
 -1      1651 9.25217E-05-1.98293E-05-3.11517E-05 7.69963E-07-9.37573E-19 2.05182E-19
 -1      1652 9.27623E-05-2.05667E-05-3.09402E-05 8.33461E-07-1.54585E-18 1.13633E-18
 -1      1653 9.30222E-05-2.15827E-05-3.06003E-05 1.81171E-06-9.28315E-19 1.38655E-19
 -1      1654 9.22537E-05-1.89955E-05-3.13942E-05 3.93221E-07-6.21792E-19 1.16384E-20
 -1      1655 9.23838E-05-1.93941E-05-3.12798E-05 4.73561E-07-4.34227E-19 1.27035E-19
 -1      1656 9.26452E-05-2.04943E-05-3.08982E-05 1.20186E-06-9.75008E-19 5.43279E-19
 -1      1657 9.22027E-05-1.88355E-05-3.14411E-05-3.75612E-08-1.95515E-18-6.25344E-19
 -1      1658 9.22045E-05-1.88405E-05-3.14397E-05 4.89533E-08-1.10753E-18-4.33592E-20
 -1      1659 9.24414E-05-1.99057E-05-3.10594E-05 4.27405E-07-3.73580E-19-1.13317E-18
 -1      1660 9.23761E-05-1.93728E-05-3.12857E-05-4.64358E-07-1.82852E-18 6.56242E-19
 -1      1661 9.22491E-05-1.89824E-05-3.13977E-05-3.83304E-07-2.84514E-18 7.26478E-19
 -1      1662 9.24381E-05-1.98973E-05-3.10614E-05-4.06772E-07-6.09501E-19-2.24371E-19
 -1      1663 9.27509E-05-2.05356E-05-3.09487E-05-8.29310E-07-2.40268E-18-1.22579E-18
 -1      1664 9.25126E-05-1.98024E-05-3.11591E-05-7.64801E-07-1.39458E-18-1.89414E-19
 -1      1665 9.26358E-05-2.04716E-05-3.09037E-05-1.18794E-06-1.62931E-18 1.09516E-18
 -1      1666 9.32679E-05-2.21358E-05-3.04854E-05-1.07841E-06-9.28011E-19 1.73774E-18
 -1      1667 9.29550E-05-2.11775E-05-3.07597E-05-1.04012E-06-1.76396E-18 3.79708E-19
 -1      1668 9.30071E-05-2.15414E-05-3.06109E-05-1.80535E-06-9.78277E-19 2.85377E-20
 -1      1669 9.38747E-05-2.40036E-05-2.99470E-05-1.17980E-06 1.50613E-18 5.05357E-19
 -1      1670 9.35203E-05-2.29251E-05-3.02543E-05-1.17274E-06-2.17912E-19 2.39109E-18
 -1      1671 9.35030E-05-2.29675E-05-3.02217E-05-2.17552E-06-3.10884E-19 2.45502E-18
 -1      1672 9.44750E-05-2.58363E-05-2.94228E-05-1.10139E-06 1.88550E-18-6.29745E-19
 -1      1673 9.41379E-05-2.48199E-05-2.97101E-05-1.13027E-06 2.32638E-18-2.07104E-19
 -1      1674 9.40696E-05-2.45736E-05-2.97873E-05-2.23379E-06 5.07942E-19 3.34407E-19
 -1      1675 9.49754E-05-2.73226E-05-2.89962E-05-8.28738E-07 4.98385E-19-9.28164E-19
 -1      1676 9.47094E-05-2.65586E-05-2.92156E-05-8.99864E-07 1.66630E-18-4.50678E-19
 -1      1677 9.46282E-05-2.61238E-05-2.93728E-05-1.93355E-06 3.52032E-20-1.48239E-18
 -1      1678 9.52977E-05-2.81282E-05-2.87754E-05-5.82061E-07-1.42036E-18-2.48948E-18
 -1      1679 9.51766E-05-2.77439E-05-2.89066E-05-7.46191E-07 9.00604E-19-2.04283E-18
 -1      1680 9.51574E-05-2.72905E-05-2.90997E-05-1.54800E-06 6.85564E-19-1.87019E-18
 -1      1681 9.56615E-05-2.81044E-05-2.89505E-05-1.15851E-06 1.62911E-18-1.88493E-18
 -1      1682 2.02739E-05-6.59862E-05 1.37133E-05-5.95486E-06 3.05482E-18 1.44864E-18
 -1      1683 2.35059E-05-7.54715E-05 1.57900E-05 1.98548E-06 1.23572E-18 1.10114E-18
 -1      1684 1.97606E-05-3.97050E-05 4.23319E-06 2.52753E-06 3.89974E-18 1.71874E-18
 -1      1685 2.41902E-05-6.13573E-05 9.91843E-06-6.30236E-07 3.26701E-18 1.16549E-18
 -1      1686 3.21692E-05-1.16781E-05-1.09304E-05 2.60192E-05 1.93801E-18 8.30516E-19
 -1      1687 2.73786E-05-3.30188E-05-2.41926E-06 8.65224E-06 3.90652E-18 9.69006E-19
 -1      1688 7.85002E-05-4.30604E-06-3.08761E-05 5.95486E-05 2.97309E-19-3.67612E-19
 -1      1689 5.25933E-05-1.08775E-05-2.02779E-05 3.54862E-05 1.27055E-18 2.75286E-19
 -1      1690 1.44534E-04-1.72066E-05-5.07749E-05 7.85701E-05 4.48927E-20 1.50264E-18
 -1      1691 9.96703E-05-3.26459E-06-4.08713E-05 6.57948E-05-2.77827E-19 4.16740E-19
 -1      1692 2.16864E-04-4.79324E-05-6.66502E-05 5.74614E-05 6.85356E-19 3.13402E-19
 -1      1693 1.71071E-04-2.54870E-05-5.90644E-05 7.07965E-05 6.31887E-19 1.24429E-18
 -1      1694 2.54018E-04-6.49905E-05-7.43531E-05 1.38999E-05 7.35860E-19-1.97846E-18
 -1      1695 2.35418E-04-5.42104E-05-7.17810E-05 4.64387E-05 8.69691E-19-3.72271E-19
 -1      1696 2.38238E-04-5.59345E-05-7.23746E-05-3.58243E-05 2.69611E-18-5.69037E-18
 -1      1697 2.51321E-04-6.31446E-05-7.42434E-05-2.83041E-06 1.25107E-18-3.93187E-18
 -1      1698 1.90841E-04-3.31791E-05-6.33613E-05-7.03280E-05 4.99008E-18-9.42070E-18
 -1      1699 2.28586E-04-5.29917E-05-6.91091E-05-5.21245E-05 3.63613E-18-7.24383E-18
 -1      1700 1.22495E-04-1.05126E-05-4.66166E-05-6.82695E-05 7.46448E-18-9.70446E-18
 -1      1701 1.68066E-04-2.76957E-05-5.58671E-05-7.37079E-05 5.53875E-18-1.00382E-17
 -1      1702 6.41668E-05-2.80834E-06-2.76793E-05-4.74721E-05 9.58164E-18-9.66126E-18
 -1      1703 9.54749E-05-3.91306E-06-3.75030E-05-6.83575E-05 8.61263E-18-1.00475E-17
 -1      1704 3.64412E-05-2.32354E-05-9.34795E-06-1.94970E-05 8.72444E-18-6.96092E-18
 -1      1705 4.86663E-05-7.58236E-06-1.85682E-05-4.00082E-05 9.15897E-18-8.99380E-18
 -1      1706 2.39425E-05-5.00411E-05 5.48515E-06-5.11649E-07 3.51349E-18-4.82586E-18
 -1      1707 2.16159E-05-2.69079E-05-1.36213E-06-9.51608E-06 8.18149E-18-6.91179E-18
 -1      1708 2.37720E-05-7.15076E-05 1.40865E-05 2.12278E-07-3.50799E-18-2.09577E-18
 -1      1709 1.90014E-05-5.56938E-05 1.03949E-05 4.40256E-06 1.58565E-18-3.91695E-18
 -1      1710 2.16367E-05-7.21649E-05 1.54821E-05-5.18144E-06-6.12828E-18-9.22842E-19
 -1      1711 2.21684E-05-7.35614E-05 1.57338E-05 4.40732E-06-4.71162E-18-9.11831E-19
 -1      1712 1.84602E-05-5.00145E-05 8.73333E-06-2.02710E-06-8.52962E-18-4.32860E-18
 -1      1713 2.36139E-05-6.83993E-05 1.30887E-05 1.62797E-07-6.94016E-18-2.10932E-18
 -1      1714 2.87433E-05-2.15685E-05-5.65160E-06 1.92317E-05-1.09377E-17-8.50336E-18
 -1      1715 2.76108E-05-4.47890E-05 2.54745E-06 6.16625E-06-8.77357E-18-5.55696E-18
 -1      1716 5.53597E-05-2.16816E-06-2.30969E-05 4.71361E-05-1.15230E-17-1.03897E-17
 -1      1717 3.93584E-05-1.43429E-05-1.38412E-05 2.56462E-05-1.21321E-17-8.86589E-18
 -1      1718 1.07520E-04-6.73267E-06-4.09849E-05 7.17163E-05-9.83998E-18-1.59471E-17
 -1      1719 7.52800E-05-2.32482E-06-3.19135E-05 5.41606E-05-1.07743E-17-1.29147E-17
 -1      1720 1.70310E-04-2.72674E-05-5.68030E-05 7.62928E-05-8.57960E-18-1.68763E-17
 -1      1721 1.30227E-04-1.10879E-05-4.90706E-05 7.31645E-05-9.51345E-18-1.66916E-17
 -1      1722 2.26455E-04-5.18501E-05-6.86703E-05 5.45363E-05-5.58563E-18-1.57108E-17
 -1      1723 1.91141E-04-3.35537E-05-6.31911E-05 7.03661E-05-7.65866E-18-1.69974E-17
 -1      1724 2.54839E-04-6.52701E-05-7.44752E-05 1.26174E-05-1.92636E-18-1.29977E-17
 -1      1725 2.39462E-04-5.65337E-05-7.23230E-05 4.19498E-05-4.16433E-18-1.49002E-17
 -1      1726 2.45219E-04-5.94331E-05-7.34310E-05-3.40635E-05-3.11708E-19-9.84718E-18
 -1      1727 2.56013E-04-6.55218E-05-7.48460E-05-2.73004E-06-5.99276E-19-1.23171E-17
 -1      1728 1.98549E-04-3.70955E-05-6.48299E-05-6.38099E-05-2.22669E-18-3.71339E-18
 -1      1729 2.31232E-04-5.42563E-05-6.98940E-05-4.47135E-05-7.02084E-19-7.73426E-18
 -1      1730 1.35357E-04-1.20186E-05-5.06855E-05-7.43108E-05-2.38186E-18 1.13672E-18
 -1      1731 1.79374E-04-3.09638E-05-5.88593E-05-7.49963E-05-1.44123E-18-1.35610E-18
 -1      1732 7.91048E-05-3.98479E-06-3.27821E-05-5.44695E-05-2.84180E-18 2.09387E-18
 -1      1733 1.12974E-04-9.18315E-06-4.21208E-05-7.18904E-05-2.44115E-18 2.40134E-18
 -1      1734 4.11291E-05-1.28985E-05-1.51793E-05-2.77408E-05-1.51111E-18 2.25226E-18
 -1      1735 5.76837E-05-2.35194E-06-2.40189E-05-4.86623E-05-2.44962E-18 3.51688E-18
 -1      1736 2.59807E-05-3.82948E-05 1.87084E-07-5.52203E-06-2.61225E-18 1.37918E-18
 -1      1737 2.80190E-05-1.74496E-05-7.29957E-06-1.92914E-05-2.78335E-18 1.58099E-18
 -1      1738 2.38199E-05-6.40933E-05 1.10008E-05 2.12583E-06-2.08285E-18 1.08007E-18
 -1      1739 1.91343E-05-4.44499E-05 6.12709E-06 8.42319E-07-2.95276E-18 1.26801E-18
 -1      1740 2.34806E-05-7.53933E-05 1.58094E-05-1.89460E-06 9.37983E-19 1.25446E-18
 -1      1741 2.07776E-05-6.72380E-05 1.40174E-05 5.65417E-06-6.64921E-19 1.35250E-18
 -1      1742 1.16618E-04-3.23098E-05-3.52101E-05 4.47510E-05 4.79421E-19 5.04832E-19
 -1      1743 7.27572E-05-3.57613E-05-1.70241E-05 3.94967E-05 8.78373E-19-8.84302E-19
 -1      1744 9.53402E-05-2.84909E-05-2.86547E-05 1.59901E-07-3.89509E-18-2.49448E-18
 -1      1745 9.54264E-05-2.81977E-05-2.88162E-05 6.41664E-07-1.73273E-19-1.76378E-19
 -1      1746 1.88284E-05-4.76554E-05 8.22077E-06 1.42130E-05 7.91129E-19 7.45813E-19
 -1      1747 3.80285E-05-4.14672E-05-1.68438E-06 2.69646E-05 1.20787E-18-1.63186E-19
 -1      1748 1.17641E-05-4.99602E-05 1.18311E-05 2.75885E-07 6.29345E-19 2.27471E-18
 -1      1749 1.61918E-04-3.09972E-05-5.28135E-05 4.07384E-05 1.15832E-19 8.84302E-19
 -1      1750 1.97713E-04-3.37572E-05-6.54490E-05 2.41216E-05 1.63096E-18 3.86247E-19
 -1      1751 2.10472E-04-3.38557E-05-7.02395E-05 3.13116E-06 2.56566E-18-1.21089E-18
 -1      1752 2.01228E-04-3.28272E-05-6.70606E-05-2.02589E-05 4.06449E-18-4.19747E-18
 -1      1753 1.73409E-04-3.24380E-05-5.67387E-05-3.59987E-05 4.54314E-18-6.11812E-18
 -1      1754 1.31087E-04-3.10603E-05-4.11442E-05-4.46680E-05 5.08516E-18-6.15454E-18
 -1      1755 8.72404E-05-3.34659E-05-2.36141E-05-4.21152E-05 4.88145E-18-5.66411E-18
 -1      1756 5.12083E-05-3.87421E-05-7.57240E-06-3.29487E-05 3.06626E-18-6.09652E-18
 -1      1757 2.48969E-05-4.51195E-05 4.82130E-06-1.88135E-05 5.81065E-19-6.75985E-18
 -1      1758 1.29555E-05-4.90152E-05 1.10207E-05-6.10652E-06-2.55592E-18-3.49655E-18
 -1      1759 1.37807E-05-4.76408E-05 1.02900E-05 8.63471E-06-4.39610E-18-2.37804E-18
 -1      1760 3.10887E-05-4.31395E-05 2.14812E-06 2.50986E-05-5.54764E-18-4.90591E-18
 -1      1761 5.95896E-05-3.81820E-05-1.12987E-05 3.56338E-05-6.64667E-18-6.36969E-18
 -1      1762 9.48214E-05-3.05867E-05-2.76014E-05 4.41642E-05-7.76221E-18-9.49609E-18
 -1      1763 1.36377E-04-2.96655E-05-4.36924E-05 4.63300E-05-7.00412E-18-1.28122E-17
 -1      1764 1.74989E-04-3.19334E-05-5.74654E-05 3.91365E-05-6.97135E-18-1.32044E-17
 -1      1765 2.03419E-04-3.49220E-05-6.70233E-05 2.33355E-05-5.47162E-18-1.28554E-17
 -1      1766 2.14647E-04-3.59905E-05-7.08358E-05 2.14955E-06-2.53856E-18-1.09750E-17
 -1      1767 2.03546E-04-3.37039E-05-6.77957E-05-1.69278E-05-2.75243E-18-8.35090E-18
 -1      1768 1.78344E-04-3.16670E-05-5.89088E-05-3.52454E-05-2.45486E-18-6.55434E-18
 -1      1769 1.40757E-04-3.09023E-05-4.49781E-05-4.51203E-05-6.29769E-19-2.23701E-18
 -1      1770 9.88125E-05-3.16998E-05-2.85945E-05-4.42821E-05 3.04932E-20-5.26007E-19
 -1      1771 6.08424E-05-3.55511E-05-1.27079E-05-3.60310E-05-2.92226E-19 1.05032E-19
 -1      1772 3.37141E-05-4.29139E-05 4.33591E-07-2.44494E-05-1.10368E-18 6.69685E-19
 -1      1773 1.72171E-05-4.84373E-05 8.96626E-06-1.20066E-05-4.82809E-19 2.47672E-18
 -1      1774 1.06019E-04-2.31612E-05-3.55939E-05-1.68592E-05-2.29375E-18 7.57163E-18
 -1      1775 8.91450E-05-1.05863E-05-3.37934E-05-1.33393E-05-2.73490E-18-3.77279E-18
 -1      1776 9.04697E-05-1.16293E-05-3.39312E-05-1.51484E-05-3.17249E-18-2.98471E-18
 -1      1777 9.24703E-05-1.38703E-05-3.38476E-05-1.60135E-05-3.22841E-18-1.90638E-18
 -1      1778 9.41815E-05-1.58149E-05-3.40900E-05-1.76736E-05-3.49692E-18-3.06626E-19
 -1      1779 9.34007E-05-1.63441E-05-3.30393E-05-1.37821E-05-3.40237E-18-2.23363E-18
 -1      1780 8.62265E-05-7.67928E-06-3.37340E-05-7.87429E-06-1.36949E-18-5.12356E-18
 -1      1781 8.66262E-05-7.97703E-06-3.37665E-05-9.26457E-06-1.71527E-18-5.00663E-18
 -1      1782 8.56166E-05-7.04269E-06-3.37338E-05-5.32793E-06-6.46973E-19-5.17108E-18
 -1      1783 8.58480E-05-7.22102E-06-3.37477E-05-6.63381E-06-9.83001E-19-5.19035E-18
 -1      1784 8.76122E-05-9.87339E-06-3.33482E-05-6.93798E-06-1.30887E-18-4.98442E-18
 -1      1785 8.52868E-05-6.68510E-06-3.37388E-05-2.89344E-06-9.87612E-21-5.00849E-18
 -1      1786 8.54055E-05-6.77947E-06-3.37440E-05-4.13471E-06-3.13822E-19-5.10925E-18
 -1      1787 8.69831E-05-9.16293E-06-3.33839E-05-4.54418E-06-5.53802E-19-4.93998E-18
 -1      1788 8.51584E-05-6.53750E-06-3.37430E-05-5.18495E-07 6.27828E-19-4.83862E-18
 -1      1789 8.51932E-05-6.56587E-06-3.37442E-05-1.72985E-06 3.33443E-19-4.94892E-18
 -1      1790 8.66558E-05-8.78523E-06-3.34055E-05-2.22085E-06 1.78817E-19-4.81740E-18
 -1      1791 8.52030E-05-6.57493E-06-3.37444E-05 1.84792E-06 1.21655E-18-4.73415E-18
 -1      1792 8.51620E-05-6.54209E-06-3.37430E-05 6.35528E-07 9.18263E-19-4.81348E-18
 -1      1793 8.65593E-05-8.67210E-06-3.34126E-05 6.53888E-08 8.19575E-19-4.70846E-18
 -1      1794 8.54305E-05-6.80446E-06-3.37441E-05 4.25744E-06 1.75418E-18-4.50394E-18
 -1      1795 8.53047E-05-6.70412E-06-3.37388E-05 3.01297E-06 1.52736E-18-4.66499E-18
 -1      1796 8.66735E-05-8.80487E-06-3.34047E-05 2.35294E-06 1.48719E-18-4.51791E-18
 -1      1797 8.58812E-05-7.25643E-06-3.37474E-05 6.72180E-06 2.33095E-18-4.03568E-18
 -1      1798 8.56466E-05-7.07479E-06-3.37337E-05 5.43319E-06 2.04009E-18-4.28947E-18
 -1      1799 8.70173E-05-9.20086E-06-3.33824E-05 4.65957E-06 2.04797E-18-4.24184E-18
 -1      1800 8.66857E-05-8.04420E-06-3.37651E-05 9.38602E-06 2.99152E-18-3.24269E-18
 -1      1801 8.62695E-05-7.72854E-06-3.37329E-05 7.96416E-06 2.62594E-18-3.69107E-18
 -1      1802 8.76622E-05-9.93178E-06-3.33457E-05 7.03771E-06 2.68664E-18-3.65190E-18
 -1      1803 8.80870E-05-9.38900E-06-3.38169E-05 1.22665E-05 3.51562E-18-2.19842E-18
 -1      1804 8.73526E-05-8.83240E-06-3.37467E-05 1.06730E-05 3.19406E-18-2.86249E-18
 -1      1805 8.87736E-05-1.11640E-05-3.32920E-05 9.51436E-06 3.31106E-18-2.82523E-18
 -1      1806 9.06186E-05-1.18375E-05-3.39232E-05 1.53150E-05 3.89550E-18-2.10726E-19
 -1      1807 8.92444E-05-1.07398E-05-3.37853E-05 1.35255E-05 3.66299E-18-1.39528E-18
 -1      1808 9.06590E-05-1.32230E-05-3.32055E-05 1.19877E-05 3.78822E-18-1.60259E-18
 -1      1809 9.58510E-05-1.70278E-05-3.39853E-05 1.77012E-05 3.59736E-18 3.55743E-18
 -1      1810 9.28374E-05-1.43384E-05-3.38208E-05 1.62055E-05 3.68485E-18 1.28519E-18
 -1      1811 9.39535E-05-1.68829E-05-3.30190E-05 1.39066E-05 3.89768E-18 6.32495E-19
 -1      1812 1.01892E-04-2.50847E-05-3.33495E-05 1.44311E-05 2.96102E-18 7.99144E-18
 -1      1813 9.80478E-05-1.96085E-05-3.36164E-05 1.69740E-05 3.29002E-18 5.09363E-18
 -1      1814 9.73023E-05-2.18465E-05-3.24195E-05 1.32595E-05 3.65455E-18 3.48170E-18
 -1      1815 9.87175E-05-2.61249E-05-3.13321E-05 9.44393E-06 3.04519E-18 6.97458E-18
 -1      1816 1.00125E-04-1.95544E-05-3.42085E-05-1.88782E-05-3.07457E-18 2.61066E-18
 -1      1817 9.52722E-05-2.72741E-05-2.91736E-05 4.07603E-06 2.46710E-18 5.49767E-18
 -1      1818 9.77054E-05-2.73800E-05-3.01836E-05 6.40982E-06 2.64036E-18 6.37123E-18
 -1      1819 9.75443E-05-2.56053E-05-3.08230E-05 8.77041E-06 3.10803E-18 4.35219E-18
 -1      1820 9.97864E-05-2.25336E-05-3.28274E-05-1.44777E-05-3.29467E-18 1.42148E-18
 -1      1821 9.69258E-05-2.69688E-05-2.98670E-05-5.71563E-06-2.68827E-18 1.02055E-18
 -1      1822 9.51151E-05-2.70229E-05-2.91557E-05-3.90888E-06-2.28531E-18 4.12227E-19
 -1      1823 9.42950E-05-2.72239E-05-2.86477E-05-2.43197E-06-2.07496E-18 2.96898E-19
 -1      1824 9.35214E-05-2.73043E-05-2.83419E-05-1.57868E-06-1.88493E-18-2.63980E-19
 -1      1825 9.54767E-05-2.65369E-05-2.95668E-05-4.48601E-06-2.59847E-18-7.36340E-19
 -1      1826 9.29956E-05-2.73547E-05-2.80728E-05-7.52348E-07-1.61068E-18-3.39525E-19
 -1      1827 9.26917E-05-2.74170E-05-2.79502E-05-3.14047E-07-1.21382E-18-7.34143E-19
 -1      1828 9.42658E-05-2.72125E-05-2.87576E-05-1.84145E-06-2.06863E-18-9.50606E-19
 -1      1829 9.24153E-05-2.74437E-05-2.78142E-05 1.41949E-07-9.15488E-19-8.32549E-19
 -1      1830 9.23820E-05-2.75186E-05-2.77840E-05 3.66795E-07-7.07479E-19-1.01574E-18
 -1      1831 9.35625E-05-2.75168E-05-2.83218E-05-3.74961E-07-1.28888E-18-1.28006E-18
 -1      1832 9.22792E-05-2.75493E-05-2.77262E-05 6.08795E-07-6.69690E-19-1.13069E-18
 -1      1833 9.23934E-05-2.76332E-05-2.77455E-05 7.14825E-07-6.03908E-19-1.38293E-18
 -1      1834 9.32409E-05-2.76992E-05-2.81017E-05 4.31138E-07-9.38594E-19-1.61010E-18
 -1      1835 9.24012E-05-2.76709E-05-2.77348E-05 8.30241E-07-7.78771E-19-1.46378E-18
 -1      1836 9.25906E-05-2.77568E-05-2.77804E-05 8.67917E-07-8.45329E-19-1.57188E-18
 -1      1837 9.31799E-05-2.78400E-05-2.80113E-05 8.50165E-07-8.78626E-19-1.62332E-18
 -1      1838 9.26648E-05-2.77983E-05-2.77976E-05 9.08814E-07-9.28105E-19-1.47299E-18
 -1      1839 9.28869E-05-2.78809E-05-2.78561E-05 9.08128E-07-8.88490E-19-1.68570E-18
 -1      1840 9.32819E-05-2.79615E-05-2.79999E-05 1.03927E-06-9.94651E-19-1.66723E-18
 -1      1841 9.29981E-05-2.79232E-05-2.78894E-05 9.07543E-07-9.36479E-19-1.48534E-18
 -1      1842 9.32288E-05-2.79994E-05-2.79529E-05 8.87796E-07-6.54101E-19-1.76799E-18
 -1      1843 9.34787E-05-2.80691E-05-2.80360E-05 1.09482E-06-8.93658E-19-1.45168E-18
 -1      1844 9.33592E-05-2.80403E-05-2.79952E-05 8.67813E-07-5.84718E-19-2.07457E-18
 -1      1845 9.35865E-05-2.81093E-05-2.80596E-05 8.42148E-07-3.83152E-19-2.31475E-18
 -1      1846 9.37261E-05-2.81637E-05-2.81001E-05 1.07947E-06-9.95968E-19-1.60430E-18
 -1      1847 9.37265E-05-2.81480E-05-2.81069E-05 8.18212E-07-2.03712E-19-2.49160E-18
 -1      1848 9.39467E-05-2.82102E-05-2.81707E-05 7.96029E-07-1.10628E-19-2.36746E-18
 -1      1849 9.39985E-05-2.82463E-05-2.81807E-05 1.03600E-06-4.79781E-19-2.10017E-18
 -1      1850 9.40926E-05-2.82469E-05-2.82214E-05 7.79445E-07-1.92351E-19-2.49376E-18
 -1      1851 9.43082E-05-2.83041E-05-2.82850E-05 7.67836E-07-1.99421E-19-2.60351E-18
 -1      1852 9.42835E-05-2.83183E-05-2.82718E-05 9.94919E-07-2.55653E-19-2.18122E-18
 -1      1853 9.44610E-05-2.83396E-05-2.83391E-05 7.67341E-07-2.01907E-19-2.59764E-18
 -1      1854 9.46791E-05-2.83946E-05-2.84044E-05 7.72026E-07 1.20166E-21-2.51709E-18
 -1      1855 9.45791E-05-2.83824E-05-2.83711E-05 9.79081E-07-2.62305E-19-2.31341E-18
 -1      1856 9.48431E-05-2.84307E-05-2.84632E-05 7.94815E-07-2.33283E-19-2.70621E-18
 -1      1857 9.50746E-05-2.84870E-05-2.85331E-05 8.20750E-07-4.30202E-19-2.67421E-18
 -1      1858 9.48911E-05-2.84420E-05-2.84796E-05 1.00661E-06-2.33292E-19-2.03693E-18
 -1      1859 9.52569E-05-2.85260E-05-2.85989E-05 8.73135E-07-3.69277E-19-2.86074E-18
 -1      1860 9.55157E-05-2.85879E-05-2.86775E-05 9.24887E-07-2.16730E-19-2.59347E-18
 -1      1861 9.52311E-05-2.85016E-05-2.86004E-05 1.09282E-06-4.85926E-19-2.75396E-18
 -1      1862 9.57258E-05-2.86326E-05-2.87534E-05 1.01264E-06-2.37207E-19-2.73611E-18
 -1      1863 9.60289E-05-2.87056E-05-2.88453E-05 1.09450E-06-2.84991E-19-2.73381E-18
 -1      1864 9.56161E-05-2.85668E-05-2.87382E-05 1.25131E-06-4.12965E-19-2.56540E-18
 -1      1865 9.62781E-05-2.87596E-05-2.89348E-05 1.22283E-06-4.92285E-19-2.90438E-18
 -1      1866 9.66448E-05-2.88496E-05-2.90455E-05 1.33866E-06-5.45848E-19-2.80541E-18
 -1      1867 9.60669E-05-2.86444E-05-2.88990E-05 1.49437E-06-5.45098E-19-2.50364E-18
 -1      1868 9.69459E-05-2.89172E-05-2.91526E-05 1.51176E-06-6.85864E-19-3.11869E-18
 -1      1869 9.73971E-05-2.90317E-05-2.92878E-05 1.66432E-06-7.58362E-19-3.20313E-18
 -1      1870 9.66079E-05-2.87428E-05-2.90897E-05 1.83245E-06-8.65564E-19-2.58289E-18
 -1      1871 9.77640E-05-2.91181E-05-2.94164E-05 1.88426E-06-7.42688E-19-3.44705E-18
 -1      1872 9.83214E-05-2.92654E-05-2.95819E-05 2.07398E-06-3.61315E-19-3.79148E-18
 -1      1873 9.72663E-05-2.88731E-05-2.93169E-05 2.27245E-06-8.00404E-19-2.92287E-18
 -1      1874 9.87681E-05-2.93774E-05-2.97351E-05 2.33863E-06 2.66303E-19-3.91164E-18
 -1      1875 9.94519E-05-2.95671E-05-2.99359E-05 2.56129E-06 6.96776E-19-3.98165E-18
 -1      1876 9.80708E-05-2.90499E-05-2.95869E-05 2.81422E-06-3.82895E-19-3.07879E-18
 -1      1877 9.99919E-05-2.97135E-05-3.01154E-05 2.86086E-06 5.59692E-19-3.66531E-18
 -1      1878 1.00817E-04-2.99563E-05-3.03541E-05 3.10388E-06-7.19482E-20-3.62561E-18
 -1      1879 9.90506E-05-2.92934E-05-2.99033E-05 3.44457E-06 6.73917E-19-2.91934E-18
 -1      1880 1.01462E-04-3.01487E-05-3.05591E-05 3.41558E-06-3.09628E-19-2.99388E-18
 -1      1881 1.02431E-04-3.04558E-05-3.08344E-05 3.65234E-06-1.28676E-20-2.83030E-18
 -1      1882 1.00234E-04-2.96317E-05-3.02661E-05 4.12774E-06 2.65877E-19-2.57102E-18
 -1      1883 1.03190E-04-3.07095E-05-3.10600E-05 3.93274E-06-1.80004E-19-2.45399E-18
 -1      1884 1.04285E-04-3.10908E-05-3.13634E-05 4.11507E-06 3.86045E-19-1.99272E-18
 -1      1885 1.01644E-04-3.01040E-05-3.06684E-05 4.79145E-06 2.76445E-19-1.85932E-18
 -1      1886 1.05160E-04-3.14251E-05-3.15988E-05 4.29065E-06 3.33404E-19-2.17027E-18
 -1      1887 1.06330E-04-3.18847E-05-3.19114E-05 4.34076E-06 2.31283E-19-1.99575E-18
 -1      1888 1.03296E-04-3.07622E-05-3.10948E-05 5.30863E-06 3.32288E-19-1.15638E-18
 -1      1889 1.07313E-04-3.23195E-05-3.21396E-05 4.29941E-06 4.59241E-19-2.11569E-18
 -1      1890 1.08455E-04-3.28463E-05-3.24284E-05 4.10623E-06 2.76014E-19-1.98131E-18
 -1      1891 1.05191E-04-3.16663E-05-3.15193E-05 5.47824E-06 4.77375E-19-1.67481E-18
 -1      1892 1.09517E-04-3.33903E-05-3.26268E-05 3.69753E-06-1.30996E-19-1.86886E-18
 -1      1893 1.10465E-04-3.39386E-05-3.28447E-05 3.12867E-06-3.65250E-20-1.55864E-18
 -1      1894 1.07296E-04-3.28627E-05-3.19071E-05 5.01577E-06 1.93696E-19-1.70266E-18
 -1      1895 1.11532E-04-3.45615E-05-3.29898E-05 2.19009E-06 6.14198E-20-1.14107E-18
 -1      1896 1.12051E-04-3.50217E-05-3.30819E-05 1.13863E-06 4.30253E-19-9.77727E-19
 -1      1897 1.09507E-04-3.43278E-05-3.22225E-05 3.57899E-06 2.75570E-19-3.07476E-19
 -1      1898 1.12963E-04-3.56057E-05-3.31597E-05-4.24851E-07 7.02005E-19-1.12136E-18
 -1      1899 1.12780E-04-3.57767E-05-3.30802E-05-1.93996E-06 8.30595E-19-1.06317E-18
 -1      1900 1.11584E-04-3.58603E-05-3.24451E-05 8.75106E-07 4.46128E-19 3.00497E-19
 -1      1901 1.13263E-04-3.60715E-05-3.30981E-05-3.99939E-06 4.66106E-19-1.49158E-18
 -1      1902 1.12165E-04-3.56818E-05-3.28380E-05-5.69149E-06-5.24763E-21-1.79381E-18
 -1      1903 1.13061E-04-3.69513E-05-3.25918E-05-3.09330E-06 4.58893E-19-4.53600E-19
 -1      1904 1.11872E-04-3.53435E-05-3.28293E-05-7.70646E-06 6.59256E-19-1.59897E-18
 -1      1905 1.09879E-04-3.41952E-05-3.24416E-05-8.93497E-06 1.08062E-18-9.04479E-19
 -1      1906 1.13261E-04-3.67904E-05-3.27259E-05-7.64625E-06 8.97117E-19-7.38719E-19
 -1      1907 1.08635E-04-3.30214E-05-3.24515E-05-9.91272E-06 6.23027E-19-8.36068E-19
 -1      1908 1.06204E-04-3.12878E-05-3.20481E-05-9.85299E-06 4.62553E-19-5.30666E-19
 -1      1909 1.11586E-04-3.46288E-05-3.29309E-05-1.11318E-05 8.56934E-19 5.54869E-19
 -1      1910 1.04429E-04-2.96403E-05-3.20893E-05-8.80885E-06 3.19742E-19-2.17582E-19
 -1      1911 1.02449E-04-2.80545E-05-3.17980E-05-7.02701E-06 8.66779E-19 1.08824E-19
 -1      1912 1.08272E-04-3.07342E-05-3.32277E-05-1.12599E-05 6.77084E-19 1.06805E-18
 -1      1913 1.01212E-04-2.69148E-05-3.18327E-05-3.92041E-06 2.69502E-19 1.76765E-19
 -1      1914 1.00594E-04-2.64051E-05-3.17439E-05-9.73175E-07 2.99267E-19 7.80061E-19
 -1      1915 1.04945E-04-2.69405E-05-3.35044E-05-6.69333E-06 6.34388E-19 1.99672E-18
 -1      1916 1.00813E-04-2.66260E-05-3.17265E-05 2.81695E-06-3.19887E-20 1.60847E-19
 -1      1917 1.01857E-04-2.75260E-05-3.18647E-05 5.53002E-06-4.36090E-19-1.38152E-19
 -1      1918 1.03821E-04-2.57032E-05-3.35827E-05 1.12318E-06-5.32704E-20 1.36838E-18
 -1      1919 1.03338E-04-2.89274E-05-3.18069E-05 8.08549E-06-6.96294E-19-3.17882E-19
 -1      1920 1.05501E-04-3.06455E-05-3.21262E-05 9.34104E-06-8.93590E-19-2.98857E-19
 -1      1921 1.05713E-04-2.79073E-05-3.33968E-05 8.28257E-06-8.95281E-19 1.47236E-18
 -1      1922 1.07157E-04-3.22199E-05-3.20765E-05 9.68853E-06-6.37997E-19-5.10708E-19
 -1      1923 1.09461E-04-3.38093E-05-3.24683E-05 9.26344E-06-2.82737E-19-5.47580E-19
 -1      1924 1.09188E-04-3.19847E-05-3.30667E-05 1.13978E-05-4.89674E-19 1.04291E-18
 -1      1925 1.10373E-04-3.47222E-05-3.24478E-05 7.82902E-06-2.70455E-20-2.41259E-19
 -1      1926 1.12038E-04-3.56151E-05-3.27817E-05 6.35197E-06 7.77186E-19 8.40366E-19
 -1      1927 1.12009E-04-3.54553E-05-3.27573E-05 9.98145E-06 3.07172E-19 1.01184E-18
 -1      1928 1.12001E-04-3.57125E-05-3.27644E-05 4.20457E-06 3.92626E-19-2.08529E-19
 -1      1929 1.12713E-04-3.58777E-05-3.29435E-05 2.48634E-06-4.32371E-19-6.56319E-19
 -1      1930 1.12970E-04-3.69469E-05-3.25394E-05 5.88120E-06-1.39171E-19 4.81219E-19
 -1      1931 1.11991E-04-3.54416E-05-3.28854E-05 5.03784E-07-4.50218E-19-1.04470E-19
 -1      1932 1.11819E-04-3.51231E-05-3.28767E-05-9.18298E-07-1.18280E-19-8.25841E-20
 -1      1933 1.12174E-04-3.66055E-05-3.23659E-05 1.29825E-06-1.13645E-19-2.30369E-19
 -1      1934 1.10753E-04-3.44839E-05-3.27507E-05-2.33246E-06-5.72343E-19-4.14125E-19
 -1      1935 1.09944E-04-3.39400E-05-3.25770E-05-3.26475E-06 4.79765E-21-4.37509E-19
 -1      1936 1.10296E-04-3.52633E-05-3.21525E-05-2.40656E-06-5.29402E-19 7.21772E-19
 -1      1937 1.08774E-04-3.33053E-05-3.23841E-05-4.06676E-06 2.13611E-19-2.31776E-21
 -1      1938 1.07596E-04-3.27072E-05-3.20971E-05-4.53863E-06 9.40842E-19 4.71784E-19
 -1      1939 1.07966E-04-3.36606E-05-3.18491E-05-4.79467E-06 4.46949E-19 1.65665E-18
 -1      1940 1.06452E-04-3.21610E-05-3.18571E-05-4.85022E-06 1.17477E-18 3.56101E-19
 -1      1941 1.05125E-04-3.15943E-05-3.15124E-05-4.97720E-06 1.10399E-18 1.29191E-18
 -1      1942 1.05575E-04-3.21982E-05-3.14548E-05-5.97778E-06 8.40740E-19 2.29272E-18
 -1      1943 1.04067E-04-3.11491E-05-3.12517E-05-4.95164E-06 7.22787E-19 1.76268E-18
 -1      1944 1.02746E-04-3.06463E-05-3.08961E-05-4.85114E-06 8.98856E-19 1.67818E-18
 -1      1945 1.03318E-04-3.10036E-05-3.10007E-05-6.26272E-06 9.58603E-19 2.00356E-18
 -1      1946 1.01801E-04-3.02859E-05-3.06396E-05-4.61206E-06 4.93866E-19 1.16003E-18
 -1      1947 1.00587E-04-2.98530E-05-3.03074E-05-4.36811E-06 3.83008E-19-3.72746E-19
 -1      1948 1.01278E-04-3.00637E-05-3.05299E-05-5.95076E-06 3.57721E-19 2.41760E-18
 -1      1949 9.97648E-05-2.95541E-05-3.00754E-05-3.99309E-06-7.31909E-19-9.96519E-19
 -1      1950 9.87236E-05-2.91872E-05-2.97904E-05-3.64984E-06-1.14468E-18-9.35555E-19
 -1      1951 9.94872E-05-2.93153E-05-3.00834E-05-5.25995E-06-7.03414E-19-3.33311E-19
 -1      1952 9.80236E-05-2.89290E-05-2.95961E-05-3.17709E-06-3.00903E-19-1.69111E-18
 -1      1953 9.71989E-05-2.86284E-05-2.93739E-05-2.74721E-06 4.91463E-19-1.42839E-18
 -1      1954 9.79543E-05-2.86932E-05-2.96923E-05-4.31552E-06-1.35713E-18-1.00877E-18
 -1      1955 9.66869E-05-2.84445E-05-2.92325E-05-2.22190E-06 1.42748E-18-1.77429E-18
 -1      1956 9.60943E-05-2.82248E-05-2.90705E-05-1.73256E-06 2.26851E-18-5.34098E-19
 -1      1957 9.58517E-05-2.78938E-05-2.91328E-05-2.04159E-06 1.52946E-18-2.36382E-18
 -1      1958 9.67400E-05-2.82016E-05-2.93853E-05-3.21068E-06 8.66242E-19-1.80043E-18
 -1      1959 9.31681E-05-2.73496E-05-2.81800E-05 1.61469E-06 1.95829E-18 4.29605E-18
 -1      1960 9.43656E-05-2.74559E-05-2.86174E-05 2.68540E-06 2.05533E-18 5.10179E-18
 -1      1961 9.51946E-05-2.70366E-05-2.92160E-05 4.06496E-06 2.55365E-18 3.47682E-18
 -1      1962 9.21115E-05-2.73345E-05-2.77370E-05 3.57845E-07 1.29671E-18 3.22206E-18
 -1      1963 9.26088E-05-2.73678E-05-2.79102E-05 9.05767E-07 1.53579E-18 3.89624E-18
 -1      1964 9.35869E-05-2.73566E-05-2.83913E-05 1.59635E-06 1.97097E-18 2.60021E-18
 -1      1965 9.17324E-05-2.73706E-05-2.75679E-05-2.96422E-07 1.00417E-18 2.34937E-18
 -1      1966 9.18500E-05-2.73449E-05-2.76155E-05-3.79785E-09 1.12803E-18 2.85967E-18
 -1      1967 9.27530E-05-2.74704E-05-2.79883E-05 2.82788E-07 1.45886E-18 1.72618E-18
 -1      1968 9.17541E-05-2.74597E-05-2.75445E-05-6.24672E-07 6.31010E-19 1.72278E-18
 -1      1969 9.16680E-05-2.73987E-05-2.75285E-05-4.71041E-07 7.50896E-19 2.09537E-18
 -1      1970 9.24376E-05-2.75620E-05-2.78139E-05-4.13021E-07 1.01414E-18 9.45636E-19
 -1      1971 9.19999E-05-2.75809E-05-2.76010E-05-7.67754E-07 8.02981E-19 1.24308E-18
 -1      1972 9.18090E-05-2.75027E-05-2.75521E-05-6.94469E-07 5.90326E-19 1.47361E-18
 -1      1973 9.24422E-05-2.76661E-05-2.77695E-05-7.63070E-07 8.12868E-19 3.69948E-19
 -1      1974 9.23603E-05-2.77155E-05-2.76996E-05-8.04587E-07 6.56140E-19 8.10408E-19
 -1      1975 9.21219E-05-2.76320E-05-2.76349E-05-7.78410E-07 7.79567E-19 1.19701E-18
 -1      1976 9.26325E-05-2.77808E-05-2.77998E-05-9.13441E-07 8.70033E-19 2.57984E-19
 -1      1977 9.27695E-05-2.78511E-05-2.78180E-05-7.83661E-07 6.86917E-19 2.77167E-19
 -1      1978 9.25164E-05-2.77691E-05-2.77475E-05-7.83876E-07 6.04537E-19 6.17516E-19
 -1      1979 9.29224E-05-2.78983E-05-2.78719E-05-9.49495E-07 9.05410E-19 1.05351E-19
 -1      1980 9.31902E-05-2.79809E-05-2.79435E-05-7.36829E-07 1.61951E-19 3.75172E-19
 -1      1981 9.29399E-05-2.79038E-05-2.78724E-05-7.49591E-07 4.40573E-19 2.61722E-19
 -1      1982 9.32588E-05-2.80122E-05-2.79660E-05-9.25072E-07 5.53241E-19 1.83795E-19
 -1      1983 9.36051E-05-2.81024E-05-2.80697E-05-6.86136E-07 4.18324E-19 5.43924E-19
 -1      1984 9.33647E-05-2.80312E-05-2.80004E-05-7.01674E-07 2.51241E-19 6.01959E-19
 -1      1985 9.36119E-05-2.81190E-05-2.80707E-05-8.76209E-07 2.43631E-19 3.44649E-19
 -1      1986 9.40110E-05-2.82163E-05-2.81951E-05-6.47618E-07 3.84732E-19 5.94270E-19
 -1      1987 9.37805E-05-2.81500E-05-2.81277E-05-6.58654E-07 4.71659E-19 6.06342E-19
 -1      1988 9.39685E-05-2.82181E-05-2.81805E-05-8.28272E-07 3.93691E-19 1.91274E-19
 -1      1989 9.44151E-05-2.83255E-05-2.83214E-05-6.33627E-07 2.92396E-19 4.49724E-19
 -1      1990 9.41891E-05-2.82622E-05-2.82545E-05-6.34398E-07 3.78593E-19 7.27204E-19
 -1      1991 9.43270E-05-2.83112E-05-2.82941E-05-8.00043E-07 3.78742E-19 4.21792E-19
 -1      1992 9.48330E-05-2.84355E-05-2.84530E-05-6.54346E-07-1.73222E-19 5.03700E-19
 -1      1993 9.46017E-05-2.83717E-05-2.83838E-05-6.39948E-07-1.23237E-19 5.08852E-19
 -1      1994 9.46951E-05-2.84016E-05-2.84132E-05-8.06278E-07 3.27258E-21 3.59639E-19
 -1      1995 9.52866E-05-2.85529E-05-2.85965E-05-7.18767E-07 2.06026E-19-1.69470E-19
 -1      1996 9.50369E-05-2.84846E-05-2.85212E-05-6.84726E-07 2.04496E-20 6.82083E-20
 -1      1997 9.50877E-05-2.84944E-05-2.85419E-05-8.59347E-07 2.31948E-19-4.43926E-19
 -1      1998 9.58037E-05-2.86863E-05-2.87602E-05-8.35206E-07-1.22135E-19-3.35276E-19
 -1      1999 9.55193E-05-2.86083E-05-2.86741E-05-7.77245E-07 1.64013E-19-1.76390E-19
 -1      2000 9.55251E-05-2.85961E-05-2.86863E-05-9.70229E-07 1.48732E-19-8.06009E-19
 -1      2001 9.64172E-05-2.88457E-05-2.89538E-05-1.01131E-06 2.32436E-19-3.86289E-19
 -1      2002 9.60790E-05-2.87521E-05-2.88513E-05-9.25343E-07-1.54743E-19-5.34208E-19
 -1      2003 9.60330E-05-2.87145E-05-2.88538E-05-1.14890E-06 6.16845E-20-5.75495E-19
 -1      2004 9.71637E-05-2.90429E-05-2.91880E-05-1.25342E-06 1.82974E-19-2.95308E-19
 -1      2005 9.67506E-05-2.89267E-05-2.90632E-05-1.13583E-06 4.12707E-19-8.91274E-20
 -1      2006 9.66406E-05-2.88592E-05-2.90530E-05-1.40398E-06 2.03185E-19-5.96327E-19
 -1      2007 9.80821E-05-2.92911E-05-2.94742E-05-1.56486E-06-3.00587E-19 1.15183E-19
 -1      2008 9.75717E-05-2.91447E-05-2.93207E-05-1.41332E-06-1.26687E-19-6.26146E-20
 -1      2009 9.73804E-05-2.90414E-05-2.92929E-05-1.74144E-06-1.36021E-19-2.61038E-19
 -1      2010 9.92110E-05-2.96049E-05-2.98226E-05-1.94294E-06-5.19359E-19 3.22847E-19
 -1      2011 9.85814E-05-2.94202E-05-2.96346E-05-1.75785E-06-2.93744E-19 2.63548E-19
 -1      2012 9.82861E-05-2.92746E-05-2.95822E-05-2.16184E-06-4.80522E-19-1.56103E-19
 -1      2013 1.00583E-04-2.99999E-05-3.02411E-05-2.37360E-06-3.36079E-19 1.66311E-19
 -1      2014 9.98164E-05-2.97688E-05-3.00141E-05-2.16067E-06-4.82203E-19 9.25673E-20
 -1      2015 9.93897E-05-2.95746E-05-2.99277E-05-2.65552E-06-3.82779E-19-2.30132E-20
 -1      2016 1.02217E-04-3.04918E-05-3.07317E-05-2.82320E-06 1.30895E-18-4.22676E-19
 -1      2017 1.01305E-04-3.02073E-05-3.04644E-05-2.59762E-06 4.13261E-19-1.13584E-19
 -1      2018 1.00718E-04-2.99605E-05-3.03326E-05-3.19485E-06 5.75900E-19-2.56508E-19
 -1      2019 1.04106E-04-3.10937E-05-3.12863E-05-3.22669E-06 4.64397E-19-9.50700E-19
 -1      2020 1.03057E-04-3.07523E-05-3.09833E-05-3.01912E-06 1.07726E-18-4.83302E-19
 -1      2021 1.02283E-04-3.04545E-05-3.07929E-05-3.72284E-06 1.13554E-18-8.75206E-19
 -1      2022 1.06196E-04-3.18119E-05-3.18803E-05-3.47299E-06-1.60137E-19-1.13132E-18
 -1      2023 1.05051E-04-3.14168E-05-3.15559E-05-3.33725E-06-1.45848E-19-1.09762E-18
 -1      2024 1.04078E-04-3.10809E-05-3.12939E-05-4.13798E-06-3.46829E-20-1.04913E-18
 -1      2025 1.08365E-04-3.26356E-05-3.24663E-05-3.39235E-06-4.00179E-19-1.68844E-19
 -1      2026 1.07209E-04-3.22039E-05-3.21486E-05-3.41240E-06-4.03058E-19-9.69585E-19
 -1      2027 1.06054E-04-3.18605E-05-3.18060E-05-4.27842E-06-6.02074E-19-6.03529E-19
 -1      2028 1.10396E-04-3.35189E-05-3.29697E-05-2.75847E-06 8.94712E-20 2.37500E-20
 -1      2029 1.09375E-04-3.30913E-05-3.27035E-05-3.04817E-06 1.79270E-19 1.72901E-19
 -1      2030 1.08107E-04-3.27959E-05-3.22820E-05-3.91451E-06-5.19866E-20-3.17442E-19
 -1      2031 1.11954E-04-3.43493E-05-3.32918E-05-1.33185E-06 4.82531E-19 6.27226E-19
 -1      2032 1.11283E-04-3.40042E-05-3.31375E-05-2.01377E-06 2.46956E-19 4.36662E-19
 -1      2033 1.10046E-04-3.38386E-05-3.26591E-05-2.77041E-06 3.30151E-19-1.44522E-19
 -1      2034 1.12595E-04-3.49075E-05-3.33301E-05 1.01756E-06-1.05925E-19 3.36864E-19
 -1      2035 1.12535E-04-3.47725E-05-3.33515E-05-1.25757E-07 2.43363E-19 6.00404E-19
 -1      2036 1.11561E-04-3.48318E-05-3.28706E-05-6.10896E-07 4.27275E-19 2.47433E-19
 -1      2037 1.11841E-04-3.48522E-05-3.30194E-05 4.08405E-06-3.75672E-20 1.38520E-18
 -1      2038 1.12629E-04-3.50927E-05-3.32583E-05 2.57897E-06-6.85898E-20 1.16396E-18
 -1      2039 1.12214E-04-3.54458E-05-3.28703E-05 2.56736E-06-6.01592E-20 8.34804E-19
 -1      2040 1.09380E-04-3.38161E-05-3.23854E-05 7.07189E-06 2.03774E-19 1.08664E-18
 -1      2041 1.11097E-04-3.45633E-05-3.28267E-05 5.60048E-06 3.04263E-19 1.46159E-18
 -1      2042 1.11512E-04-3.51905E-05-3.26630E-05 6.24804E-06 3.08346E-19 2.59534E-18
 -1      2043 1.05430E-04-3.17061E-05-3.15783E-05 8.59317E-06-5.99699E-19 9.47340E-19
 -1      2044 1.07829E-04-3.29079E-05-3.21263E-05 7.83611E-06-6.73623E-20 1.08926E-18
 -1      2045 1.09171E-04-3.36461E-05-3.23227E-05 9.18513E-06-1.67554E-19 2.09406E-18
 -1      2046 1.01080E-04-2.90897E-05-3.08412E-05 7.28042E-06-9.81036E-19 4.52077E-19
 -1      2047 1.03491E-04-3.03757E-05-3.13350E-05 7.88379E-06-9.82677E-19 4.99127E-19
 -1      2048 1.05586E-04-3.09529E-05-3.19717E-05 9.66755E-06-7.53158E-19 1.44487E-18
 -1      2049 9.81400E-05-2.72194E-05-3.04143E-05 2.94932E-06 1.95082E-20 1.49711E-18
 -1      2050 9.96477E-05-2.79851E-05-3.06886E-05 4.95407E-06-5.33432E-19 6.21259E-19
 -1      2051 1.02106E-04-2.81728E-05-3.17215E-05 6.54986E-06-4.91795E-19 5.71324E-19
 -1      2052 9.81402E-05-2.72345E-05-3.04312E-05-2.71888E-06-5.16809E-19 1.50891E-18
 -1      2053 9.80617E-05-2.70457E-05-3.03915E-05-1.41543E-07 2.00098E-19 1.51460E-18
 -1      2054 1.00513E-04-2.68591E-05-3.16264E-05 5.51764E-07-6.53274E-20 9.09068E-19
 -1      2055 1.01110E-04-2.91374E-05-3.08773E-05-7.07517E-06 8.95387E-19 5.60828E-19
 -1      2056 9.94797E-05-2.81101E-05-3.05418E-05-5.12724E-06 1.92131E-19 1.30393E-18
 -1      2057 1.01728E-04-2.78554E-05-3.16951E-05-5.65747E-06 3.63245E-19 4.50833E-19
 -1      2058 1.05501E-04-3.17706E-05-3.15962E-05-8.40649E-06 1.45143E-18 3.32857E-19
 -1      2059 1.03061E-04-3.04669E-05-3.10885E-05-7.79813E-06 1.06483E-18 4.67602E-19
 -1      2060 1.04986E-04-3.05124E-05-3.19099E-05-9.24121E-06 1.47231E-18 9.92941E-19
 -1      2061 1.09409E-04-3.38602E-05-3.23477E-05-6.87247E-06 1.02789E-19 3.40719E-19
 -1      2062 1.07101E-04-3.28290E-05-3.18400E-05-7.49375E-06 1.21129E-18-1.24977E-19
 -1      2063 1.08521E-04-3.32868E-05-3.22168E-05-9.17218E-06 1.46975E-18 7.33392E-19
 -1      2064 1.11677E-04-3.48255E-05-3.28996E-05-3.83922E-06 4.75278E-19 4.50959E-19
 -1      2065 1.10152E-04-3.43071E-05-3.25390E-05-5.09590E-06 6.15290E-20 3.88431E-19
 -1      2066 1.10891E-04-3.49892E-05-3.25126E-05-6.41040E-06 2.26383E-19 5.89780E-19
 -1      2067 1.12113E-04-3.47799E-05-3.31157E-05-7.06446E-07-1.58136E-18 1.07776E-18
 -1      2068 1.11571E-04-3.47328E-05-3.29738E-05-2.01447E-06-6.61493E-19 2.82550E-19
 -1      2069 1.11604E-04-3.53545E-05-3.26768E-05-2.67673E-06-4.20340E-19 7.49182E-19
 -1      2070 1.11090E-04-3.41071E-05-3.29800E-05 1.71927E-06-8.95976E-19 2.27508E-18
 -1      2071 1.11407E-04-3.43759E-05-3.30522E-05 6.94774E-07-5.68544E-19 2.00273E-18
 -1      2072 1.10890E-04-3.47643E-05-3.26324E-05 6.88416E-07-1.24884E-18 2.11174E-18
 -1      2073 1.09142E-04-3.31599E-05-3.25622E-05 3.22014E-06-3.20877E-19 1.83529E-18
 -1      2074 1.10054E-04-3.35919E-05-3.27973E-05 2.57219E-06-1.40718E-18 1.35176E-18
 -1      2075 1.09234E-04-3.37219E-05-3.23703E-05 3.07159E-06-1.31648E-18 2.02939E-18
 -1      2076 1.06735E-04-3.21607E-05-3.19656E-05 3.91505E-06 1.28544E-20 2.83754E-18
 -1      2077 1.07976E-04-3.26492E-05-3.22984E-05 3.59883E-06 5.16162E-19 2.80467E-18
 -1      2078 1.07087E-04-3.25858E-05-3.19349E-05 4.41422E-06 2.03602E-20 2.49646E-18
 -1      2079 1.04215E-04-3.12203E-05-3.12902E-05 4.02871E-06 1.28217E-18 1.23809E-18
 -1      2080 1.05570E-04-3.17025E-05-3.16623E-05 3.95514E-06 7.55367E-19 1.91446E-18
 -1      2081 1.04779E-04-3.15332E-05-3.13941E-05 4.91918E-06 1.11480E-18 2.83678E-18
 -1      2082 1.01808E-04-3.03825E-05-3.06165E-05 3.76314E-06 5.71330E-19 4.59411E-19
 -1      2083 1.03127E-04-3.08255E-05-3.09832E-05 3.85202E-06 4.92483E-19 4.62970E-19
 -1      2084 1.02523E-04-3.06213E-05-3.08166E-05 4.84013E-06 1.12002E-18 1.97896E-18
 -1      2085 9.96607E-05-2.96589E-05-3.00037E-05 3.25254E-06-2.70491E-19 1.50703E-18
 -1      2086 1.00844E-04-3.00469E-05-3.03332E-05 3.45177E-06 4.47984E-19 1.13958E-18
 -1      2087 1.00453E-04-2.98498E-05-3.02600E-05 4.37947E-06-1.41433E-19 2.38376E-18
 -1      2088 9.78661E-05-2.90490E-05-2.94936E-05 2.55924E-06 5.12964E-19 1.10109E-18
 -1      2089 9.88470E-05-2.93732E-05-2.97633E-05 2.84844E-06-6.91523E-21 1.32745E-18
 -1      2090 9.86492E-05-2.91970E-05-2.97679E-05 3.66106E-06 1.72414E-19 2.38853E-18
 -1      2091 9.64930E-05-2.85596E-05-2.91096E-05 1.70134E-06 1.75631E-18-2.67232E-19
 -1      2092 9.72151E-05-2.88095E-05-2.93063E-05 2.08028E-06 1.03826E-18 4.74272E-19
 -1      2093 9.71558E-05-2.86420E-05-2.93669E-05 2.74299E-06 1.19359E-18 1.22025E-18
 -1      2094 9.56962E-05-2.82703E-05-2.88862E-05 9.72968E-07 8.09394E-19 6.32064E-19
 -1      2095 9.61656E-05-2.84198E-05-2.90258E-05 1.40278E-06 2.00662E-18 1.24408E-19
 -1      2096 9.61626E-05-2.82453E-05-2.91126E-05 1.90247E-06 1.81822E-18 1.02442E-18
 -1      2097 9.55791E-05-2.80062E-05-2.89603E-05 1.22862E-06 1.04849E-18 2.55869E-18
 -1      2098 9.40009E-05-2.43929E-05-2.98372E-05 3.03776E-06-2.36421E-19 4.49238E-19
 -1      2099 9.43582E-05-2.51861E-05-2.96370E-05 2.97455E-06-3.04485E-20-7.28308E-20
 -1      2100 9.46874E-05-2.58559E-05-2.94995E-05 2.78755E-06 1.93636E-19-5.75844E-19
 -1      2101 9.50204E-05-2.65766E-05-2.93220E-05 2.51342E-06 3.67193E-19 1.31985E-20
 -1      2102 9.46732E-05-2.56835E-05-2.95687E-05 3.65640E-06-1.89095E-19-2.13971E-19
 -1      2103 9.52075E-05-2.70364E-05-2.92131E-05 2.12737E-06 5.93345E-20 9.15923E-19
 -1      2104 9.54561E-05-2.76068E-05-2.90678E-05 1.70390E-06 7.52395E-19 1.63407E-18
 -1      2105 9.57070E-05-2.77011E-05-2.91382E-05 2.07578E-06 1.45826E-18 9.10327E-19
 -1      2106 9.52844E-05-2.68209E-05-2.93447E-05 3.00390E-06 1.26923E-20 6.22375E-19
 -1      2107 9.33591E-05-2.29936E-05-3.01679E-05 2.86255E-06-6.91224E-19-7.68749E-19
 -1      2108 9.36921E-05-2.37471E-05-2.99755E-05 2.98690E-06-1.09528E-18 2.74181E-19
 -1      2109 9.39028E-05-2.43307E-05-2.98143E-05 3.79835E-06-6.31510E-19-3.85337E-19
 -1      2110 9.28023E-05-2.17709E-05-3.04586E-05 2.29190E-06-3.53387E-19 2.58155E-19
 -1      2111 9.30814E-05-2.24079E-05-3.02950E-05 2.58437E-06-1.39079E-19-3.31919E-19
 -1      2112 9.31951E-05-2.30581E-05-3.00502E-05 3.42774E-06-1.51627E-19-1.50040E-19
 -1      2113 9.24103E-05-2.09082E-05-3.06635E-05 1.40906E-06-2.20265E-19 3.06950E-19
 -1      2114 9.25950E-05-2.13306E-05-3.05548E-05 1.82556E-06-7.02039E-19 5.62915E-19
 -1      2115 9.26090E-05-2.19974E-05-3.02485E-05 2.59001E-06 4.06943E-19 5.06015E-19
 -1      2116 9.22313E-05-2.05187E-05-3.07542E-05 3.33833E-07-1.22526E-18-1.85982E-18
 -1      2117 9.22976E-05-2.06691E-05-3.07156E-05 8.17845E-07-7.65219E-19-3.12405E-19
 -1      2118 9.22220E-05-2.12942E-05-3.03803E-05 1.40122E-06-8.83056E-19-8.98948E-19
 -1      2119 9.22899E-05-2.06562E-05-3.07182E-05-7.89181E-07-8.76196E-19-7.87426E-20
 -1      2120 9.22284E-05-2.05137E-05-3.07550E-05-3.03103E-07-8.28425E-19-1.12931E-18
 -1      2121 9.20821E-05-2.10412E-05-3.04273E-05 2.00842E-08-1.42416E-18-1.06609E-18
 -1      2122 9.25790E-05-2.13035E-05-3.05601E-05-1.80761E-06-8.46704E-19 1.46328E-18
 -1      2123 9.23982E-05-2.08867E-05-3.06674E-05-1.38581E-06-1.56413E-18 8.59920E-19
 -1      2124 9.22085E-05-2.12742E-05-3.03829E-05-1.36716E-06-1.48050E-18-1.22160E-18
 -1      2125 9.30527E-05-2.23531E-05-3.03066E-05-2.57179E-06-6.16030E-19 6.03941E-19
 -1      2126 9.27798E-05-2.17299E-05-3.04666E-05-2.27604E-06-1.24506E-18 7.92864E-19
 -1      2127 9.25834E-05-2.19557E-05-3.02548E-05-2.56412E-06-1.17743E-18 5.99799E-19
 -1      2128 9.36698E-05-2.37034E-05-2.99847E-05-2.99840E-06-4.42877E-19 2.83538E-18
 -1      2129 9.33296E-05-2.29357E-05-3.01804E-05-2.86390E-06-9.14870E-19 2.56093E-18
 -1      2130 9.31586E-05-2.29977E-05-3.00601E-05-3.41961E-06-4.96491E-19 1.18053E-18
 -1      2131 9.43520E-05-2.51668E-05-2.96426E-05-2.99722E-06 2.91341E-19 4.35013E-19
 -1      2132 9.39886E-05-2.43663E-05-2.98439E-05-3.05931E-06 2.56029E-19 2.21168E-18
 -1      2133 9.38796E-05-2.42848E-05-2.98233E-05-3.81844E-06-8.19423E-19 3.15712E-18
 -1      2134 9.50339E-05-2.65915E-05-2.93268E-05-2.54716E-06 2.29246E-19-9.41202E-19
 -1      2135 9.46774E-05-2.58387E-05-2.95039E-05-2.80976E-06-1.75131E-19-8.66955E-19
 -1      2136 9.46641E-05-2.56582E-05-2.95751E-05-3.68164E-06-5.10710E-19-5.55270E-19
 -1      2137 5.69593E-05-3.96401E-05-7.94157E-06 3.95498E-05 2.32087E-19-1.72334E-18
 -1      2138 4.28124E-05-4.07814E-05-2.08748E-06 3.28260E-05-5.01444E-19-1.43996E-19
 -1      2139 1.23516E-05-3.39077E-05 7.87437E-06 5.36123E-06-6.53274E-20 1.51746E-18
 -1      2140 1.17959E-05-3.35460E-05 7.94252E-06-4.35306E-06 5.30454E-20 2.19890E-18
 -1      2141 2.53949E-05-3.53883E-05 3.14517E-06 2.53013E-05-5.69206E-19 2.02017E-19
 -1      2142 1.78621E-05-3.68040E-05 6.54606E-06 1.59658E-05-3.23143E-19 5.03561E-19
 -1      2143 9.46015E-05-4.41052E-05-2.18150E-05 4.26863E-05 6.31887E-19-1.26547E-18
 -1      2144 7.36268E-05-4.47092E-05-1.35226E-05 3.78609E-05 1.37855E-18-1.75992E-18
 -1      2145 7.80902E-05-4.78328E-05-1.30692E-05 4.24532E-05 3.50248E-19-1.31176E-18
 -1      2146 1.37045E-04-4.41876E-05-3.92778E-05 3.25653E-05-2.51145E-19-4.06576E-19
 -1      2147 1.17193E-04-4.68504E-05-3.06636E-05 3.17814E-05 3.62107E-19-5.68783E-19
 -1      2148 8.72522E-05-8.72508E-06-3.37500E-05-1.05538E-05-2.02486E-18-4.69513E-18
 -1      2149 8.79514E-05-9.24116E-06-3.38201E-05-1.21100E-05-2.51696E-18-4.25520E-18
 -1      2150 9.04802E-05-1.30492E-05-3.32338E-05-1.18883E-05-2.76996E-18-3.71146E-18
 -1      2151 8.86939E-05-1.10607E-05-3.32969E-05-9.42632E-06-2.03335E-18-4.57899E-18
 -1      2152 1.82068E-04-2.83173E-05-6.44271E-05 8.70051E-06 1.44927E-18 5.28337E-19
 -1      2153 1.68211E-04-2.73107E-05-5.98010E-05 1.36182E-05 1.48273E-18 3.97258E-19
 -1      2154 1.76973E-04-2.18731E-05-6.56962E-05-2.28321E-06 3.36696E-18-1.13831E-18
 -1      2155 1.80797E-04-2.43525E-05-6.57820E-05 4.71865E-06 2.75752E-18-2.43098E-19
 -1      2156 1.70623E-04-2.71540E-05-6.08365E-05-1.05491E-05 4.10620E-18-2.55931E-18
 -1      2157 1.74825E-04-2.43602E-05-6.37284E-05-3.21708E-06 3.77057E-18-1.52106E-18
 -1      2158 1.53305E-04-3.46482E-05-5.07860E-05-1.79038E-05 3.48956E-18-4.09032E-18
 -1      2159 1.69384E-04-3.33507E-05-5.72653E-05-1.54968E-05 3.86713E-18-3.10903E-18
 -1      2160 1.55382E-04-2.55979E-05-5.47707E-05 2.29244E-06 3.32164E-18-9.24325E-19
 -1      2161 1.23879E-04-4.19956E-05-3.54896E-05-3.25987E-05 3.26828E-18-4.02002E-18
 -1      2162 1.44390E-04-4.15710E-05-4.35773E-05-2.98308E-05 3.60561E-18-4.37196E-18
 -1      2163 9.21905E-05-4.52560E-05-2.08995E-05-3.74117E-05 1.81265E-18-3.63398E-18
 -1      2164 1.11037E-04-4.27053E-05-2.90010E-05-4.07115E-05 2.80326E-18-3.29496E-18
 -1      2165 1.28804E-04-5.31096E-05-3.21045E-05-2.77435E-05 1.03169E-18-2.02441E-18
 -1      2166 5.21827E-05-4.22223E-05-5.71041E-06-3.45973E-05-2.09217E-19-4.78346E-18
 -1      2167 6.94938E-05-4.06147E-05-1.27999E-05-4.19495E-05 7.26754E-19-3.98857E-18
 -1      2168 2.55971E-05-3.82602E-05 3.84686E-06-2.33194E-05-1.67374E-18-6.26953E-18
 -1      2169 3.59609E-05-3.71117E-05-5.61517E-07-3.11914E-05-2.78674E-19-6.76695E-18
 -1      2170 1.20470E-05-3.46548E-05 8.14573E-06-4.44610E-06-2.71172E-18-3.43091E-18
 -1      2171 1.54391E-05-3.42400E-05 6.69235E-06-1.40673E-05-1.44589E-18-5.15165E-18
 -1      2172 1.74499E-05-3.29333E-05 5.50804E-06 1.72268E-05-3.62763E-18-3.30004E-18
 -1      2173 1.29511E-05-3.43361E-05 7.63944E-06 6.76960E-06-2.35973E-18-2.88965E-18
 -1      2174 4.36025E-05-3.78795E-05-3.38416E-06 3.55460E-05-3.50545E-18-4.37747E-18
 -1      2175 2.96085E-05-3.82161E-05 2.21829E-06 2.59279E-05-3.51730E-18-3.79915E-18
 -1      2176 8.22170E-05-4.18775E-05-1.73455E-05 4.23409E-05-5.18723E-18-5.38332E-18
 -1      2177 6.64253E-05-4.38106E-05-1.02942E-05 3.88474E-05-3.60921E-18-4.81851E-18
 -1      2178 1.15963E-04-4.09754E-05-3.17051E-05 4.04206E-05-5.47480E-18-9.99287E-18
 -1      2179 9.64565E-05-4.28085E-05-2.38059E-05 3.76711E-05-5.41381E-18-7.77534E-18
 -1      2180 1.48202E-04-3.87169E-05-4.60017E-05 3.19050E-05-5.09490E-18-1.11817E-17
 -1      2181 1.29611E-04-3.96415E-05-3.87690E-05 3.27587E-05-5.58872E-18-1.02139E-17
 -1      2182 1.71041E-04-3.37684E-05-5.75483E-05 1.91793E-05-6.04962E-18-1.03643E-17
 -1      2183 1.56367E-04-3.43426E-05-5.18860E-05 2.32761E-05-5.87372E-18-1.02906E-17
 -1      2184 1.82687E-04-2.79774E-05-6.49328E-05 7.22705E-06-4.05009E-18-1.05286E-17
 -1      2185 1.74420E-04-2.83214E-05-6.16846E-05 1.37753E-05-5.55378E-18-1.06116E-17
 -1      2186 1.81995E-04-2.45159E-05-6.63769E-05-2.67718E-06-2.81511E-18-8.53772E-18
 -1      2187 1.81315E-04-2.43365E-05-6.60860E-05 3.92552E-06-3.33858E-18-1.00049E-17
 -1      2188 1.72880E-04-2.50271E-05-6.26116E-05-9.27431E-06-3.27294E-18-7.51784E-18
 -1      2189 1.82616E-04-2.61227E-05-6.56273E-05-4.64763E-06-2.65164E-18-7.95406E-18
 -1      2190 1.60097E-04-1.41416E-05-6.14355E-05 5.76883E-07-3.32037E-18-7.41217E-18
 -1      2191 1.59079E-04-3.40473E-05-5.30270E-05-2.21273E-05-2.26293E-18-6.69537E-18
 -1      2192 1.70791E-04-3.22851E-05-5.83813E-05-1.50594E-05-2.95699E-18-7.46532E-18
 -1      2193 1.33322E-04-3.97769E-05-4.02462E-05-3.05757E-05-1.63901E-19-3.72779E-18
 -1      2194 1.52498E-04-3.84359E-05-4.78568E-05-3.02675E-05-8.09022E-19-5.21688E-18
 -1      2195 1.53828E-04-3.96642E-05-4.80583E-05-1.05019E-05-1.77220E-18-6.74365E-18
 -1      2196 9.99374E-05-4.45578E-05-2.45531E-05-3.72130E-05 1.25996E-18-1.68602E-18
 -1      2197 1.19741E-04-4.35998E-05-3.22896E-05-3.89725E-05 8.81761E-19-2.01086E-18
 -1      2198 6.47799E-05-4.29017E-05-1.06524E-05-3.70465E-05-2.15993E-20-1.28622E-18
 -1      2199 8.16664E-05-4.06346E-05-1.77613E-05-4.23792E-05 4.85350E-19-1.38109E-18
 -1      2200 3.84664E-05-3.99888E-05-5.57551E-07-3.09363E-05 2.84180E-19 3.13402E-20
 -1      2201 5.08740E-05-3.87153E-05-5.68524E-06-3.78304E-05 2.04982E-19-9.50318E-19
 -1      2202 1.88654E-05-3.51301E-05 5.74211E-06-1.73908E-05 5.95464E-19 1.40269E-18
 -1      2203 2.63738E-05-3.51773E-05 2.91242E-06-2.54828E-05 1.10538E-19 1.02322E-18
 -1      2204 4.07295E-05-3.43054E-05-3.16965E-06-3.53767E-05 8.92984E-19 1.13714E-19
 -1      2205 1.61566E-04-3.69073E-05-5.27809E-05 1.78915E-05-1.67713E-19-4.53163E-20
 -1      2206 1.45056E-04-3.90184E-05-4.55508E-05 2.34433E-05-3.93870E-19 1.56278E-19
 -1      2207 1.45025E-04-4.98570E-05-4.03181E-05 1.22306E-05-8.08175E-19-7.11931E-19
 -1      2208 1.17902E-04-5.53593E-05-2.66497E-05 3.29108E-05 4.65868E-20-1.31925E-18
 -1      2209 9.71571E-05-2.43054E-05-3.12957E-05-1.00135E-05-3.17759E-18 6.65159E-19
 -1      2210 1.56801E-04-3.19676E-05-5.27850E-05 1.79282E-06-9.46559E-20 8.34327E-20
 -1      2211 9.63222E-05-2.30985E-05-3.14476E-05-1.03980E-05-3.32286E-18-8.42705E-19
 -1      2212 4.15677E-05-3.56994E-05-2.96289E-06 3.56852E-05-1.35695E-18 2.24464E-20
 -1      2213 1.73813E-05-2.67838E-05 3.32197E-06 1.35464E-05-1.34657E-18 8.92773E-19
 -1      2214 9.52940E-05-2.70444E-05-2.92419E-05-2.45204E-06 4.19365E-19-1.18221E-18
 -1      2215 1.86673E-05-2.60322E-05 2.60258E-06-1.43997E-05 4.30928E-19 1.50094E-18
 -1      2216 6.95131E-05-4.54106E-05-1.07194E-05-4.18615E-05 1.03762E-18-2.13579E-18
 -1      2217 1.35415E-04-5.12933E-05-3.57180E-05-2.49997E-05 5.65818E-19-4.22500E-18
 -1      2218 1.60673E-04-2.50958E-05-5.71989E-05-1.28994E-06-3.15732E-18-7.45431E-18
 -1      2219 1.61976E-04-1.64215E-05-6.11896E-05-5.08058E-07-4.01621E-18-8.22988E-18
 -1      2220 1.61364E-04-2.75717E-05-5.62237E-05 2.64606E-06-4.61358E-18-7.54325E-18
 -1      2221 1.52361E-04-4.11715E-05-4.68279E-05 1.28995E-05-4.09265E-18-8.68209E-18
 -1      2222 1.31972E-04-5.04856E-05-3.45800E-05 2.74634E-05-3.87623E-18-8.76764E-18
 -1      2223 1.02650E-04-5.25114E-05-2.17652E-05 3.81361E-05-3.30343E-18-6.11113E-18
 -1      2224 6.18326E-05-4.22763E-05-8.69017E-06 3.95771E-05-2.38482E-18-4.79998E-18
 -1      2225 5.87173E-05-3.85329E-05-8.14980E-06 4.11611E-05-1.14709E-18-3.78327E-18
 -1      2226 8.01569E-05-4.78281E-05-1.42749E-05 4.23215E-05-1.10855E-18-4.38287E-18
 -1      2227 2.80040E-05-3.00110E-05 3.96839E-07 2.64351E-05-1.94691E-18-3.78306E-18
 -1      2228 1.41983E-05-2.49475E-05 3.89431E-06 1.60791E-06-1.76998E-18-3.63589E-18
 -1      2229 2.42062E-05-3.00524E-05 1.74987E-06-2.35360E-05-2.19847E-18-6.00462E-18
 -1      2230 9.35478E-05-5.08844E-05-1.83334E-05-4.01523E-05-1.07065E-18-3.00252E-18
 -1      2231 1.49852E-04-4.31703E-05-4.51521E-05-1.08050E-05 2.48866E-18-1.81731E-18
 -1      2232 1.60126E-04-1.60934E-05-6.05767E-05-3.49203E-07 2.83587E-18 2.86085E-19
 -1      2233 1.57520E-04-1.49480E-05-6.02476E-05 1.91901E-06 3.80572E-18-1.84336E-19
 -1      2234 5.29856E-05-4.01328E-05-5.95170E-06-3.94375E-05-2.07608E-18-5.11841E-18
 -1      2235 1.04203E-04-5.27521E-05-2.20161E-05-3.84313E-05 1.46960E-18-2.44327E-18
 -1      2236 9.51840E-05-2.63677E-05-2.94795E-05 4.20902E-06 2.56212E-18 1.70653E-18
 -1      2237 9.61604E-05-2.58537E-05-3.00579E-05 6.01412E-06 2.86174E-18 2.11750E-18
 -1      2238 8.81625E-05-1.11911E-05-3.30270E-05-3.66708E-06-3.67383E-19-4.65316E-18
 -1      2239 8.83934E-05-1.14602E-05-3.30083E-05-4.80952E-06-8.05725E-19-4.73278E-18
 -1      2240 8.87402E-05-1.19414E-05-3.29586E-05-5.82879E-06-1.08114E-18-4.79722E-18
 -1      2241 8.91432E-05-1.24136E-05-3.29288E-05-7.00204E-06-1.53283E-18-4.65308E-18
 -1      2242 8.99119E-05-1.38289E-05-3.26061E-05-4.91228E-06-9.28382E-19-4.50358E-18
 -1      2243 8.78218E-05-1.07337E-05-3.30718E-05 6.16353E-07 1.03553E-18-4.43289E-18
 -1      2244 8.78173E-05-1.07287E-05-3.30720E-05-4.96274E-07 6.48097E-19-4.45675E-18
 -1      2245 8.80004E-05-1.09581E-05-3.30526E-05 2.76207E-06 1.68364E-18-4.21756E-18
 -1      2246 8.78872E-05-1.08254E-05-3.30624E-05 1.64102E-06 1.30550E-18-4.36984E-18
 -1      2247 8.91399E-05-1.27795E-05-3.27290E-05 1.05133E-06 1.15470E-18-4.13236E-18
 -1      2248 8.84291E-05-1.15037E-05-3.30056E-05 4.89451E-06 2.24302E-18-3.96950E-18
 -1      2249 8.81927E-05-1.12278E-05-3.30247E-05 3.76997E-06 1.90580E-18-4.13781E-18
 -1      2250 8.94024E-05-1.31345E-05-3.26880E-05 3.02601E-06 1.70463E-18-3.90605E-18
 -1      2251 8.92004E-05-1.24843E-05-3.29242E-05 7.08494E-06 2.92238E-18-3.26081E-18
 -1      2252 8.87869E-05-1.19990E-05-3.29547E-05 5.91190E-06 2.50369E-18-3.64857E-18
 -1      2253 8.99534E-05-1.38811E-05-3.26015E-05 4.98306E-06 2.27550E-18-3.49955E-18
 -1      2254 9.04587E-05-1.40900E-05-3.27938E-05 9.23610E-06 3.44421E-18-2.52312E-18
 -1      2255 8.97842E-05-1.32808E-05-3.28409E-05 8.05631E-06 3.10554E-18-2.94895E-18
 -1      2256 9.08797E-05-1.51384E-05-3.24537E-05 6.88211E-06 2.89474E-18-2.86851E-18
 -1      2257 9.24428E-05-1.66574E-05-3.25799E-05 1.11216E-05 3.85407E-18-1.24684E-18
 -1      2258 9.13712E-05-1.53197E-05-3.26539E-05 1.00411E-05 3.53696E-18-2.00472E-18
 -1      2259 9.22909E-05-1.70886E-05-3.22088E-05 8.53000E-06 3.28432E-18-2.03351E-18
 -1      2260 9.42016E-05-2.71063E-05-2.87383E-05 1.77839E-06 2.03048E-18 1.09564E-18
 -1      2261 9.48038E-05-2.68838E-05-2.90372E-05 2.75163E-06 2.33258E-18 1.53424E-18
 -1      2262 9.53157E-05-2.58403E-05-2.97830E-05 4.37635E-06 2.71704E-18 4.15939E-19
 -1      2263 9.58862E-05-2.50849E-05-3.02976E-05-6.20824E-06-2.60493E-18-1.44290E-18
 -1      2264 9.52305E-05-2.58396E-05-2.97531E-05-4.28847E-06-2.38147E-18-1.54284E-18
 -1      2265 1.49245E-04-2.58959E-05-5.32480E-05-5.30227E-06 2.44369E-19 5.37654E-19
 -1      2266 1.44926E-04-3.54731E-05-4.72145E-05-3.94578E-06-2.04770E-19 4.82809E-20
 -1      2267 9.51151E-05-2.65313E-05-2.93360E-05-2.95474E-06-2.21478E-18-1.36196E-18
 -1      2268 9.46436E-05-2.68999E-05-2.90328E-05-1.89184E-06-1.86073E-18-1.52499E-18
 -1      2269 9.53261E-05-2.53649E-05-2.99896E-05-4.31117E-06-2.37495E-18-2.10027E-18
 -1      2270 9.44484E-05-2.72285E-05-2.87700E-05-1.03873E-06-1.52728E-18-1.39322E-18
 -1      2271 9.41894E-05-2.74403E-05-2.86042E-05-4.35329E-07-1.20840E-18-1.64951E-18
 -1      2272 9.50153E-05-2.66912E-05-2.92949E-05-1.93265E-06-1.82740E-18-1.86198E-18
 -1      2273 9.40416E-05-2.76192E-05-2.84442E-05 7.59984E-08-1.01654E-18-1.68934E-18
 -1      2274 9.39442E-05-2.77609E-05-2.83616E-05 4.09660E-07-8.32334E-19-1.78631E-18
 -1      2275 9.47125E-05-2.74166E-05-2.88541E-05-4.48332E-07-1.24080E-18-1.90622E-18
 -1      2276 9.38619E-05-2.78687E-05-2.82701E-05 6.98545E-07-7.90463E-19-1.80506E-18
 -1      2277 9.38707E-05-2.79736E-05-2.82390E-05 8.69355E-07-9.29132E-19-1.93152E-18
 -1      2278 9.45143E-05-2.78400E-05-2.85853E-05 4.32990E-07-1.02260E-18-2.13520E-18
 -1      2279 9.38433E-05-2.80433E-05-2.81933E-05 1.01667E-06-1.02104E-18-1.87013E-18
 -1      2280 9.39167E-05-2.81248E-05-2.81942E-05 1.08970E-06-8.44778E-19-1.79925E-18
 -1      2281 9.44274E-05-2.81029E-05-2.84326E-05 9.21640E-07-9.37537E-19-1.97981E-18
 -1      2282 9.39288E-05-2.81714E-05-2.81789E-05 1.15042E-06-7.27860E-19-1.86528E-18
 -1      2283 9.40387E-05-2.82356E-05-2.81992E-05 1.16746E-06-8.03228E-19-1.74367E-18
 -1      2284 9.44276E-05-2.82710E-05-2.83583E-05 1.16249E-06-8.78788E-19-1.95713E-18
 -1      2285 9.40773E-05-2.82665E-05-2.82040E-05 1.17948E-06-1.03896E-18-1.67089E-18
 -1      2286 9.42062E-05-2.83168E-05-2.82361E-05 1.16870E-06-1.04641E-18-1.76215E-18
 -1      2287 9.44882E-05-2.83778E-05-2.83368E-05 1.25511E-06-9.17097E-19-1.93167E-18
 -1      2288 9.42619E-05-2.83363E-05-2.82546E-05 1.15878E-06-7.88885E-19-1.72901E-18
 -1      2289 9.44003E-05-2.83754E-05-2.82940E-05 1.13998E-06-4.71646E-19-1.93562E-18
 -1      2290 9.45883E-05-2.84418E-05-2.83511E-05 1.26911E-06-1.00433E-18-1.62367E-18
 -1      2291 9.44675E-05-2.83861E-05-2.83220E-05 1.12758E-06-2.78002E-19-1.92019E-18
 -1      2292 9.46118E-05-2.84164E-05-2.83667E-05 1.11524E-06-1.96945E-19-1.89251E-18
 -1      2293 9.47139E-05-2.84743E-05-2.83903E-05 1.25438E-06-3.95588E-19-1.71615E-18
 -1      2294 9.46879E-05-2.84204E-05-2.84021E-05 1.11501E-06-1.12613E-19-1.80196E-18
 -1      2295 9.48389E-05-2.84442E-05-2.84515E-05 1.12028E-06 2.05871E-20-1.46693E-18
 -1      2296 9.48576E-05-2.84829E-05-2.84479E-05 1.24778E-06-9.90687E-20-1.47279E-18
 -1      2297 9.49241E-05-2.84430E-05-2.84937E-05 1.14379E-06-2.19855E-19-1.69305E-18
 -1      2298 9.50861E-05-2.84629E-05-2.85486E-05 1.17571E-06-3.68055E-19-1.79217E-18
 -1      2299 9.50177E-05-2.84728E-05-2.85208E-05 1.27759E-06-1.11609E-19-1.47881E-18
 -1      2300 9.51822E-05-2.84579E-05-2.85978E-05 1.23259E-06-7.01063E-19-1.67332E-18
 -1      2301 9.53624E-05-2.84768E-05-2.86599E-05 1.29898E-06-6.46777E-19-1.69875E-18
 -1      2302 9.51962E-05-2.84484E-05-2.86079E-05 1.36659E-06-6.57589E-19-1.33932E-18
 -1      2303 9.54729E-05-2.84697E-05-2.87171E-05 1.39761E-06-6.92992E-19-1.94867E-18
 -1      2304 9.56807E-05-2.84908E-05-2.87890E-05 1.50542E-06-4.57421E-19-2.13280E-18
 -1      2305 9.53991E-05-2.84134E-05-2.87101E-05 1.53404E-06-8.47759E-19-9.99666E-19
 -1      2306 9.58105E-05-2.84835E-05-2.88557E-05 1.65325E-06-3.68541E-19-2.19408E-18
 -1      2307 9.60570E-05-2.85109E-05-2.89402E-05 1.80859E-06-4.68766E-19-1.98241E-18
 -1      2308 9.56350E-05-2.83720E-05-2.88293E-05 1.79673E-06-6.45783E-19-1.60698E-18
 -1      2309 9.62122E-05-2.85062E-05-2.90179E-05 2.01192E-06-6.75188E-19-2.08595E-18
 -1      2310 9.65103E-05-2.85455E-05-2.91181E-05 2.21949E-06-8.31085E-19-2.09496E-18
 -1      2311 9.59151E-05-2.83297E-05-2.89679E-05 2.16909E-06-5.82617E-19-1.79074E-18
 -1      2312 9.66983E-05-2.85477E-05-2.92082E-05 2.48268E-06-1.01000E-18-2.21838E-18
 -1      2313 9.70619E-05-2.86061E-05-2.93270E-05 2.74451E-06-8.61116E-19-2.29811E-18
 -1      2314 9.62532E-05-2.82951E-05-2.91282E-05 2.66220E-06-9.61561E-19-1.89868E-18
 -1      2315 9.72919E-05-2.86224E-05-2.94302E-05 3.06832E-06-6.92202E-19-2.14282E-18
 -1      2316 9.77355E-05-2.87105E-05-2.95697E-05 3.38146E-06 5.12604E-21-2.06478E-18
 -1      2317 9.66664E-05-2.82820E-05-2.93113E-05 3.28128E-06-6.61228E-19-1.37779E-18
 -1      2318 9.80196E-05-2.87528E-05-2.96857E-05 3.76029E-06 4.84026E-19-2.13630E-18
 -1      2319 9.85575E-05-2.88858E-05-2.98465E-05 4.11298E-06 6.81764E-19-2.41091E-18
 -1      2320 9.71763E-05-2.83138E-05-2.95168E-05 4.02127E-06 2.17169E-19-1.30940E-18
 -1      2321 9.89126E-05-2.89734E-05-2.99730E-05 4.53043E-06 5.35308E-19-2.37777E-18
 -1      2322 9.95581E-05-2.91732E-05-3.01531E-05 4.89639E-06 4.39863E-19-2.24700E-18
 -1      2323 9.78125E-05-2.84288E-05-2.97411E-05 4.85963E-06 6.07095E-19-1.73584E-18
 -1      2324 1.00010E-04-2.93368E-05-3.02858E-05 5.31876E-06 4.50056E-19-2.23194E-18
 -1      2325 1.00774E-04-2.96346E-05-3.04797E-05 5.64925E-06 3.17909E-19-1.74243E-18
 -1      2326 9.86179E-05-2.86878E-05-2.99766E-05 5.74567E-06 5.86027E-19-1.60053E-18
 -1      2327 1.01360E-04-2.99198E-05-3.06117E-05 6.01647E-06 3.11779E-19-1.25076E-18
 -1      2328 1.02249E-04-3.03562E-05-3.08095E-05 6.23081E-06 6.48297E-19-1.41893E-18
 -1      2329 9.96566E-05-2.91837E-05-3.02119E-05 6.58544E-06 7.28443E-19-1.79078E-18
 -1      2330 1.03027E-04-3.08250E-05-3.09331E-05 6.44501E-06 3.47553E-19-1.53597E-18
 -1      2331 1.04036E-04-3.14445E-05-3.11205E-05 6.42231E-06 4.33132E-19-1.26734E-18
 -1      2332 1.01024E-04-3.00464E-05-3.04328E-05 7.22207E-06 4.50779E-19-1.56106E-18
 -1      2333 1.05080E-04-3.21657E-05-3.12308E-05 6.33628E-06 5.35463E-19-1.49367E-18
 -1      2334 1.06180E-04-3.29957E-05-3.13921E-05 5.91602E-06 4.64389E-19-1.48207E-18
 -1      2335 1.02851E-04-3.14332E-05-3.06286E-05 7.41324E-06 4.10144E-19-1.27841E-18
 -1      2336 1.07559E-04-3.40107E-05-3.14939E-05 5.32943E-06 6.51567E-19-8.58005E-19
 -1      2337 1.08674E-04-3.50105E-05-3.16189E-05 4.33653E-06 9.20106E-19 3.98701E-21
 -1      2338 1.05285E-04-3.34770E-05-3.08043E-05 6.81377E-06 1.19047E-18-8.48338E-19
 -1      2339 1.10387E-04-3.62546E-05-3.17383E-05 3.02255E-06 4.25436E-19 4.73908E-20
 -1      2340 1.11342E-04-3.72259E-05-3.18330E-05 1.34381E-06 4.06040E-19-1.21023E-19
 -1      2341 1.08404E-04-3.61513E-05-3.10016E-05 4.98849E-06 6.73091E-19-1.27078E-19
 -1      2342 1.13195E-04-3.83998E-05-3.20292E-05-8.45042E-07 3.70762E-19-3.36083E-20
 -1      2343 1.13684E-04-3.88916E-05-3.21269E-05-3.10612E-06 6.55762E-19-1.63103E-20
 -1      2344 1.12034E-04-3.90159E-05-3.13238E-05 1.52145E-06 8.11621E-20 3.07451E-19
 -1      2345 1.15138E-04-3.93558E-05-3.24881E-05-5.97187E-06 1.07691E-18-1.18664E-19
 -1      2346 1.14783E-04-3.87182E-05-3.26426E-05-8.27785E-06 1.09480E-18 3.77488E-19
 -1      2347 1.15442E-04-4.09050E-05-3.19487E-05-3.64737E-06 7.28817E-19 1.27266E-18
 -1      2348 1.15065E-04-3.76864E-05-3.32340E-05-1.09309E-05 8.37960E-19 7.98755E-19
 -1      2349 1.13676E-04-3.54736E-05-3.34873E-05-1.22219E-05 8.70290E-19 9.49934E-19
 -1      2350 1.17266E-04-4.00711E-05-3.30610E-05-9.52640E-06 1.18417E-18 1.20733E-18
 -1      2351 1.12279E-04-3.26627E-05-3.42603E-05-1.29561E-05 9.42620E-19 8.14553E-19
 -1      2352 1.10339E-04-2.95077E-05-3.45644E-05-1.19805E-05 1.27357E-18 1.90038E-18
 -1      2353 1.16092E-04-3.50509E-05-3.46925E-05-1.35750E-05 9.74631E-19 1.75972E-18
 -1      2354 1.08227E-04-2.63199E-05-3.52412E-05-9.41365E-06 4.43925E-19 1.94515E-18
 -1      2355 1.06875E-04-2.41023E-05-3.54401E-05-5.96538E-06-1.43969E-19 1.52605E-18
 -1      2356 1.12348E-04-2.73955E-05-3.64521E-05-1.20610E-05 5.89919E-19 2.06679E-18
 -1      2357 1.06068E-04-2.29914E-05-3.56487E-05-8.47106E-07 7.68285E-20 1.62603E-18
 -1      2358 1.06319E-04-2.34339E-05-3.55993E-05 3.45316E-06-1.80286E-19 2.03573E-18
 -1      2359 1.09168E-04-2.18975E-05-3.75349E-05-3.92846E-06-1.29887E-19 1.69409E-18
 -1      2360 1.07677E-04-2.54000E-05-3.52025E-05 8.03833E-06-1.30676E-18 1.89286E-18
 -1      2361 1.09305E-04-2.81283E-05-3.49387E-05 1.08200E-05-1.10898E-18 1.47870E-18
 -1      2362 1.09793E-04-2.30074E-05-3.73075E-05 6.59194E-06-5.84585E-19 2.10471E-18
 -1      2363 1.11376E-04-3.14597E-05-3.41836E-05 1.23202E-05-1.04402E-18 2.26820E-18
 -1      2364 1.13201E-04-3.44760E-05-3.38685E-05 1.24879E-05-7.60230E-19 2.15227E-18
 -1      2365 1.13523E-04-2.97723E-05-3.59093E-05 1.28890E-05-1.16327E-18 2.27922E-18
 -1      2366 1.14074E-04-3.67926E-05-3.31187E-05 1.09445E-05-4.76749E-19 1.24450E-18
 -1      2367 1.15101E-04-3.85196E-05-3.28764E-05 9.18811E-06 1.61899E-19 1.07372E-18
 -1      2368 1.16664E-04-3.70200E-05-3.40974E-05 1.23597E-05-9.04254E-19 2.10767E-18
 -1      2369 1.14363E-04-3.90354E-05-3.23390E-05 6.28529E-06-2.19249E-19 2.16485E-19
 -1      2370 1.14363E-04-3.92520E-05-3.21870E-05 3.86507E-06-4.15162E-19 8.13797E-20
 -1      2371 1.16783E-04-4.07237E-05-3.25729E-05 7.32358E-06-5.63563E-19-1.93941E-20
 -1      2372 1.12673E-04-3.84814E-05-3.18705E-05 1.10122E-06 4.26597E-19-6.18081E-19
 -1      2373 1.11929E-04-3.77628E-05-3.17575E-05-1.05961E-06-3.43712E-19-2.38941E-19
 -1      2374 1.14248E-04-4.05641E-05-3.15922E-05 1.36652E-06-2.76315E-19-1.58142E-19
 -1      2375 1.10039E-04-3.65074E-05-3.15771E-05-3.02943E-06-8.71981E-19 2.48967E-19
 -1      2376 1.08927E-04-3.54692E-05-3.14519E-05-4.54292E-06 1.27381E-19 1.23012E-18
 -1      2377 1.10572E-04-3.81935E-05-3.10532E-05-3.42203E-06-1.55137E-19-1.66892E-19
 -1      2378 1.07262E-04-3.42627E-05-3.13271E-05-5.66325E-06 6.62828E-19 7.98626E-19
 -1      2379 1.06046E-04-3.32710E-05-3.11664E-05-6.50925E-06 8.45192E-19 1.62775E-18
 -1      2380 1.06965E-04-3.52803E-05-3.07567E-05-6.45952E-06 7.48099E-19 1.63900E-18
 -1      2381 1.04724E-04-3.23226E-05-3.10504E-05-6.96430E-06 5.80461E-19 2.05366E-18
 -1      2382 1.03546E-04-3.15129E-05-3.08560E-05-7.27901E-06 8.28004E-19 1.58967E-18
 -1      2383 1.03955E-04-3.27355E-05-3.05499E-05-7.96064E-06 1.09071E-18 1.16899E-18
 -1      2384 1.02533E-04-3.08382E-05-3.07323E-05-7.28330E-06 9.68821E-19 1.97471E-18
 -1      2385 1.01454E-04-3.02181E-05-3.05197E-05-7.22977E-06 1.09932E-18 1.53273E-18
 -1      2386 1.01611E-04-3.08293E-05-3.03536E-05-8.35083E-06 5.06713E-19 1.38266E-18
 -1      2387 1.00675E-04-2.97544E-05-3.03905E-05-6.95290E-06 9.51680E-20 1.88207E-18
 -1      2388 9.97169E-05-2.92821E-05-3.01790E-05-6.66258E-06-1.82804E-19 1.62765E-18
 -1      2389 9.98129E-05-2.95038E-05-3.01451E-05-8.01654E-06 5.21296E-19 2.25032E-18
 -1      2390 9.90987E-05-2.89523E-05-3.00537E-05-6.21544E-06-4.29962E-19 1.23789E-18
 -1      2391 9.82683E-05-2.85772E-05-2.98606E-05-5.77330E-06-1.20873E-18 7.10198E-19
 -1      2392 9.84114E-05-2.85907E-05-2.99318E-05-7.23442E-06-6.03829E-19 2.89886E-18
 -1      2393 9.77537E-05-2.83142E-05-2.97490E-05-5.21633E-06-2.10874E-18 6.64381E-20
 -1      2394 9.70601E-05-2.80021E-05-2.95874E-05-4.66448E-06-1.55860E-18 5.35178E-20
 -1      2395 9.72782E-05-2.79188E-05-2.97312E-05-6.17391E-06-1.99319E-18 1.47120E-18
 -1      2396 9.33068E-05-2.76773E-05-2.81194E-05-4.04869E-07 1.06068E-18 1.07593E-19
 -1      2397 9.33847E-05-2.75735E-05-2.81803E-05-1.16628E-07 1.32186E-18 4.26249E-19
 -1      2398 9.32599E-05-2.78398E-05-2.80321E-05-8.20981E-07 9.03452E-19-2.87471E-19
 -1      2399 9.32126E-05-2.77499E-05-2.80424E-05-6.76918E-07 8.74923E-19-8.19959E-20
 -1      2400 9.39907E-05-2.77947E-05-2.83812E-05-4.43021E-07 1.23161E-18-4.38091E-19
 -1      2401 9.33633E-05-2.79734E-05-2.80206E-05-1.01298E-06 9.15308E-19-2.27458E-19
 -1      2402 9.32450E-05-2.78936E-05-2.80012E-05-9.54115E-07 9.25704E-19-1.70494E-19
 -1      2403 9.39098E-05-2.80004E-05-2.82552E-05-9.04881E-07 9.61444E-19-5.69398E-19
 -1      2404 9.35551E-05-2.80867E-05-2.80552E-05-1.07311E-06 8.48840E-19-2.71776E-20
 -1      2405 9.34005E-05-2.80164E-05-2.80190E-05-1.06274E-06 8.14190E-19-9.98255E-20
 -1      2406 9.39491E-05-2.81450E-05-2.82075E-05-1.12419E-06 8.40662E-19-5.72578E-19
 -1      2407 9.37950E-05-2.81828E-05-2.81173E-05-1.06248E-06 3.41821E-19 1.06739E-19
 -1      2408 9.36245E-05-2.81218E-05-2.80720E-05-1.07637E-06 8.33940E-19 2.36025E-19
 -1      2409 9.40653E-05-2.82501E-05-2.82103E-05-1.20002E-06 6.73663E-19-1.85117E-19
 -1      2410 9.40589E-05-2.82641E-05-2.81956E-05-1.02331E-06 3.03905E-19 9.74432E-20
 -1      2411 9.38833E-05-2.82116E-05-2.81457E-05-1.04462E-06 2.43295E-19 1.70531E-19
 -1      2412 9.42275E-05-2.83270E-05-2.82457E-05-1.19968E-06 3.65957E-19 4.79822E-21
 -1      2413 9.43358E-05-2.83330E-05-2.82845E-05-9.85956E-07 3.54029E-19-1.17745E-19
 -1      2414 9.41589E-05-2.82876E-05-2.82318E-05-1.00245E-06 3.55125E-19 1.39015E-20
 -1      2415 9.44167E-05-2.83821E-05-2.83024E-05-1.17044E-06 4.82072E-19-1.40578E-19
 -1      2416 9.46242E-05-2.83927E-05-2.83820E-05-9.73184E-07 1.42242E-19 2.94501E-19
 -1      2417 9.44444E-05-2.83524E-05-2.83265E-05-9.75511E-07 3.96193E-19 1.17132E-19
 -1      2418 9.46235E-05-2.84204E-05-2.83743E-05-1.14670E-06 2.71168E-19-2.97750E-19
 -1      2419 9.49300E-05-2.84471E-05-2.84890E-05-1.00304E-06 2.74600E-19-1.66885E-19
 -1      2420 9.47419E-05-2.84093E-05-2.84294E-05-9.83604E-07 3.67445E-19 2.59328E-19
 -1      2421 9.48459E-05-2.84459E-05-2.84587E-05-1.15459E-06 3.02448E-19-2.30107E-19
 -1      2422 9.52652E-05-2.85010E-05-2.86084E-05-1.09066E-06 3.94092E-19-4.90231E-19
 -1      2423 9.50600E-05-2.84626E-05-2.85426E-05-1.04291E-06 4.08639E-19-1.79358E-19
 -1      2424 9.50878E-05-2.84626E-05-2.85554E-05-1.21493E-06 3.80934E-19-5.83040E-19
 -1      2425 9.56462E-05-2.85601E-05-2.87451E-05-1.24932E-06 4.38720E-20-2.08687E-19
 -1      2426 9.54126E-05-2.85172E-05-2.86698E-05-1.16738E-06 2.67279E-19-2.47743E-19
 -1      2427 9.53580E-05-2.84748E-05-2.86663E-05-1.34522E-06 2.46120E-19-3.57470E-19
 -1      2428 9.60938E-05-2.86315E-05-2.89048E-05-1.49078E-06 1.78689E-19-6.24409E-19
 -1      2429 9.58182E-05-2.85795E-05-2.88164E-05-1.36941E-06-3.16934E-20-3.66239E-19
 -1      2430 9.56686E-05-2.84874E-05-2.87946E-05-1.56065E-06 2.19914E-19-1.87588E-19
 -1      2431 9.66316E-05-2.87237E-05-2.90941E-05-1.82468E-06 1.09746E-20-2.86725E-19
 -1      2432 9.62987E-05-2.86570E-05-2.89884E-05-1.65972E-06 3.16399E-19-4.66429E-19
 -1      2433 9.60354E-05-2.85064E-05-2.89443E-05-1.87427E-06 2.80776E-19-2.08686E-19
 -1      2434 9.72859E-05-2.88484E-05-2.93194E-05-2.25678E-06-5.36636E-19-2.29708E-19
 -1      2435 9.68791E-05-2.87599E-05-2.91925E-05-2.04616E-06-2.45620E-19-2.87630E-19
 -1      2436 9.64766E-05-2.85406E-05-2.91194E-05-2.29607E-06-3.45512E-19 2.60413E-20
 -1      2437 9.80839E-05-2.90205E-05-2.95863E-05-2.78542E-06-5.09522E-19-1.96397E-19
 -1      2438 9.75869E-05-2.89013E-05-2.94347E-05-2.53115E-06-7.55336E-19-3.03933E-19
 -1      2439 9.70134E-05-2.86025E-05-2.93236E-05-2.83055E-06-6.82943E-19-1.84773E-19
 -1      2440 9.90528E-05-2.92610E-05-2.98980E-05-3.39567E-06-6.72779E-20-4.11726E-19
 -1      2441 9.84506E-05-2.90993E-05-2.97194E-05-3.10711E-06 1.27996E-19 1.05743E-19
 -1      2442 9.76696E-05-2.87112E-05-2.95590E-05-3.47246E-06-2.49191E-19-1.99378E-19
 -1      2443 1.00217E-04-2.95987E-05-3.02533E-05-4.05019E-06 6.79226E-19-5.77540E-19
 -1      2444 9.94990E-05-2.93794E-05-3.00481E-05-3.74899E-06 5.26269E-20-4.57188E-19
 -1      2445 9.84728E-05-2.88959E-05-2.98249E-05-4.19973E-06 3.16222E-19-7.11245E-19
 -1      2446 1.01596E-04-3.00735E-05-3.06444E-05-4.67608E-06 8.04673E-19 4.66373E-19
 -1      2447 1.00760E-04-2.97772E-05-3.04172E-05-4.40320E-06 1.07488E-18 1.39202E-20
 -1      2448 9.94557E-05-2.92008E-05-3.01165E-05-4.96289E-06 4.98066E-19-3.96569E-20
 -1      2449 1.03200E-04-3.07369E-05-3.10545E-05-5.14827E-06-1.75326E-19-2.84798E-20
 -1      2450 1.02256E-04-3.03414E-05-3.08158E-05-4.97232E-06 4.01976E-19 1.62253E-19
 -1      2451 1.00659E-04-2.96906E-05-3.04236E-05-5.67039E-06 6.54696E-19 8.00667E-19
 -1      2452 1.05021E-04-3.16475E-05-3.14564E-05-5.27274E-06-7.28242E-19-1.47599E-19
 -1      2453 1.04002E-04-3.11325E-05-3.12236E-05-5.29716E-06-5.98254E-19 5.28477E-20
 -1      2454 1.02132E-04-3.04528E-05-3.07307E-05-6.17042E-06-2.51500E-19 5.69489E-20
 -1      2455 1.07016E-04-3.28484E-05-3.18140E-05-4.78025E-06 1.55806E-19-5.19425E-19
 -1      2456 1.05991E-04-3.22109E-05-3.16120E-05-5.14197E-06-1.03891E-19-7.78764E-19
 -1      2457 1.03934E-04-3.15878E-05-3.10193E-05-6.23313E-06 3.31443E-20-8.82550E-19
 -1      2458 1.09079E-04-3.43121E-05-3.20910E-05-3.35316E-06 4.62612E-19-5.07973E-19
 -1      2459 1.08166E-04-3.35985E-05-3.19477E-05-4.19904E-06 4.45357E-19-1.18876E-19
 -1      2460 1.06107E-04-3.31709E-05-3.12753E-05-5.54488E-06 1.55051E-19-1.81257E-19
 -1      2461 1.10975E-04-3.58359E-05-3.22680E-05-7.26749E-07-1.68996E-19-4.17145E-19
 -1      2462 1.10363E-04-3.51955E-05-3.22051E-05-2.14619E-06 2.81830E-19-3.40502E-19
 -1      2463 1.08624E-04-3.51561E-05-3.15032E-05-3.74108E-06 1.98618E-19-8.36290E-19
 -1      2464 1.12275E-04-3.69116E-05-3.23662E-05 3.08701E-06-7.12964E-19 1.17367E-18
 -1      2465 1.12219E-04-3.66473E-05-3.23851E-05 1.18883E-06-8.60913E-19 4.21996E-19
 -1      2466 1.11264E-04-3.72104E-05-3.17452E-05-5.29737E-07-1.12711E-18-6.46882E-20
 -1      2467 1.12355E-04-3.67040E-05-3.24609E-05 7.43766E-06-4.47571E-20 2.69593E-18
 -1      2468 1.13099E-04-3.72292E-05-3.25330E-05 5.50259E-06-7.67293E-21 2.34945E-18
 -1      2469 1.13445E-04-3.85222E-05-3.20944E-05 4.02167E-06-1.22313E-18 1.69686E-18
 -1      2470 1.10671E-04-3.44417E-05-3.26518E-05 1.07435E-05-7.57342E-20 2.38168E-18
 -1      2471 1.12252E-04-3.60080E-05-3.27252E-05 9.61249E-06 4.47157E-19 2.91301E-18
 -1      2472 1.14211E-04-3.78847E-05-3.26678E-05 9.00435E-06 1.55496E-19 3.06266E-18
 -1      2473 1.07433E-04-3.03240E-05-3.29780E-05 1.08305E-05-3.93784E-19 1.97395E-18
 -1      2474 1.09414E-04-3.25669E-05-3.30126E-05 1.14274E-05-2.07287E-19 2.32051E-18
 -1      2475 1.12726E-04-3.44262E-05-3.35112E-05 1.23326E-05 2.05296E-19 2.50908E-18
 -1      2476 1.04163E-04-2.62707E-05-3.33233E-05 6.38534E-06-5.29078E-19 1.03663E-18
 -1      2477 1.05643E-04-2.80380E-05-3.33275E-05 8.96665E-06-5.07082E-19 1.55108E-18
 -1      2478 1.09380E-04-2.89915E-05-3.44726E-05 1.13774E-05-1.28332E-19 2.09252E-18
 -1      2479 1.03095E-04-2.50119E-05-3.34705E-05-1.22320E-06 1.33606E-19 9.94703E-19
 -1      2480 1.03222E-04-2.51164E-05-3.34787E-05 2.33144E-06-2.47664E-19 8.62544E-19
 -1      2481 1.06338E-04-2.45208E-05-3.51529E-05 5.08797E-06-2.83438E-19 8.17343E-19
 -1      2482 1.05153E-04-2.75754E-05-3.33164E-05-8.15870E-06 1.03121E-18 4.44434E-19
 -1      2483 1.03865E-04-2.59450E-05-3.33309E-05-5.41624E-06 8.46504E-19 7.61421E-19
 -1      2484 1.06114E-04-2.42334E-05-3.51789E-05-3.88404E-06 5.91480E-19 1.16191E-18
 -1      2485 1.08825E-04-3.20577E-05-3.29760E-05-1.10978E-05 1.30725E-18 7.25153E-19
 -1      2486 1.06912E-04-2.98243E-05-3.29635E-05-1.03020E-05 1.09222E-18 8.94407E-19
 -1      2487 1.08885E-04-2.83689E-05-3.45240E-05-1.06295E-05 1.19498E-18 4.69604E-19
 -1      2488 1.11752E-04-3.56869E-05-3.26436E-05-9.62882E-06 1.35648E-18 1.38054E-18
 -1      2489 1.10153E-04-3.40439E-05-3.25916E-05-1.06209E-05 1.79364E-18 1.36786E-18
 -1      2490 1.12270E-04-3.39085E-05-3.35402E-05-1.21145E-05 1.41531E-18 1.41540E-18
 -1      2491 1.12699E-04-3.71145E-05-3.24065E-05-5.59850E-06 5.27341E-19 1.39282E-18
 -1      2492 1.11919E-04-3.65111E-05-3.23519E-05-7.47914E-06 9.38817E-19 2.14609E-18
 -1      2493 1.13922E-04-3.76509E-05-3.26390E-05-9.05682E-06 1.51594E-18 1.93968E-18
 -1      2494 1.11837E-04-3.66565E-05-3.22158E-05-1.15931E-06-1.16196E-18 2.26002E-18
 -1      2495 1.11888E-04-3.68745E-05-3.22140E-05-3.07784E-06 1.60169E-19 1.91990E-18
 -1      2496 1.13273E-04-3.85485E-05-3.20092E-05-4.05936E-06 1.78666E-19 3.85601E-18
 -1      2497 1.09896E-04-3.52226E-05-3.19929E-05 2.39962E-06-1.39657E-18 1.85872E-18
 -1      2498 1.10548E-04-3.58577E-05-3.20754E-05 9.16541E-07-1.75987E-18 1.15332E-18
 -1      2499 1.11091E-04-3.73660E-05-3.16067E-05 6.87377E-07-1.14887E-18 2.99522E-18
 -1      2500 1.07537E-04-3.35679E-05-3.16917E-05 4.68322E-06-1.20231E-18 1.60272E-18
 -1      2501 1.08533E-04-3.43083E-05-3.18586E-05 3.75887E-06-1.39563E-18 1.58917E-18
 -1      2502 1.08347E-04-3.53116E-05-3.13198E-05 4.15358E-06-1.43829E-18 7.28632E-19
 -1      2503 1.05154E-04-3.20810E-05-3.13101E-05 5.81426E-06-2.16113E-19 1.88798E-18
 -1      2504 1.06295E-04-3.27673E-05-3.15397E-05 5.38000E-06-6.82730E-19 1.63552E-18
 -1      2505 1.05667E-04-3.32468E-05-3.10554E-05 6.19219E-06-1.01833E-18 1.27516E-18
 -1      2506 1.02934E-04-3.08783E-05-3.08755E-05 6.08912E-06 1.46756E-18 1.96879E-18
 -1      2507 1.04088E-04-3.14587E-05-3.11379E-05 6.01488E-06 1.09167E-18 2.25979E-18
 -1      2508 1.03306E-04-3.15446E-05-3.07693E-05 7.05790E-06 2.67557E-19-5.20214E-21
 -1      2509 1.00949E-04-2.99386E-05-3.04272E-05 5.79293E-06 8.28100E-19 2.12496E-18
 -1      2510 1.02035E-04-3.04155E-05-3.06934E-05 5.95936E-06 1.41614E-18 2.31132E-18
 -1      2511 1.01306E-04-3.02634E-05-3.04579E-05 7.09279E-06 1.20496E-18 6.12507E-20
 -1      2512 9.92193E-05-2.91950E-05-3.00035E-05 5.12715E-06-6.27507E-19 1.86436E-18
 -1      2513 1.00190E-04-2.95880E-05-3.02497E-05 5.45415E-06 2.64130E-19 2.10486E-18
 -1      2514 9.96259E-05-2.93218E-05-3.01400E-05 6.58945E-06 5.36005E-19 1.95479E-18
 -1      2515 9.77468E-05-2.85787E-05-2.96350E-05 4.21060E-06 1.02730E-18 1.07095E-18
 -1      2516 9.85772E-05-2.89115E-05-2.98443E-05 4.65588E-06-3.64633E-19 2.19159E-18
 -1      2517 9.82111E-05-2.86028E-05-2.98437E-05 5.73891E-06-7.69679E-20 1.06697E-19
 -1      2518 9.65253E-05-2.80502E-05-2.93357E-05 3.10980E-06 1.16030E-18 1.24571E-18
 -1      2519 9.72045E-05-2.83361E-05-2.95016E-05 3.64422E-06 1.42931E-18 8.37242E-19
 -1      2520 9.70159E-05-2.80111E-05-2.95859E-05 4.64025E-06 8.25216E-19 3.97230E-19
 -1      2521 9.60561E-05-2.78589E-05-2.92174E-05 2.41849E-06 1.29723E-18 9.29433E-19
 -1      2522 9.28218E-05-2.30243E-05-2.99309E-05 3.83374E-06 1.10317E-18 1.30588E-18
 -1      2523 9.32377E-05-2.36165E-05-2.98327E-05 4.16669E-06 5.19966E-19-3.12189E-19
 -1      2524 9.21367E-05-2.20664E-05-3.00493E-05 2.74408E-06 3.52440E-19 8.77614E-19
 -1      2525 9.24499E-05-2.25128E-05-2.99748E-05 3.30002E-06 1.02440E-18 3.96483E-19
 -1      2526 9.24190E-05-2.29822E-05-2.97491E-05 4.08054E-06 1.27547E-18 4.92434E-19
 -1      2527 9.46211E-05-2.55328E-05-2.96181E-05 4.41988E-06-1.31486E-19-8.89200E-19
 -1      2528 9.51157E-05-2.62270E-05-2.95096E-05 4.22115E-06 2.49975E-19-9.36067E-19
 -1      2529 9.36949E-05-2.42363E-05-2.97809E-05 4.41087E-06-6.74957E-20-1.18524E-18
 -1      2530 9.41544E-05-2.48905E-05-2.96732E-05 4.46498E-06 5.28431E-19-3.57008E-19
 -1      2531 9.44503E-05-2.54105E-05-2.95941E-05 5.09732E-06 8.30137E-19-5.38281E-19
 -1      2532 9.34053E-05-2.41414E-05-2.96791E-05 4.91584E-06 1.72480E-18-7.40039E-20
 -1      2533 9.17169E-05-2.14811E-05-3.01192E-05 1.28404E-06-7.20401E-19-1.97433E-18
 -1      2534 9.18879E-05-2.17234E-05-3.00788E-05 1.98987E-06-1.56628E-19-7.44444E-19
 -1      2535 9.16785E-05-2.21049E-05-2.98033E-05 2.70970E-06 1.79646E-19-2.54079E-19
 -1      2536 9.16209E-05-2.13503E-05-3.01304E-05-3.54372E-07-1.02077E-18-1.41594E-18
 -1      2537 9.16256E-05-2.13554E-05-3.01298E-05 4.06553E-07-1.19783E-18-1.24298E-18
 -1      2538 9.12721E-05-2.16228E-05-2.98331E-05 9.69559E-07 5.91312E-19-1.91420E-18
 -1      2539 9.18643E-05-2.16952E-05-3.00815E-05-1.94831E-06-1.01383E-18-9.02751E-19
 -1      2540 9.17018E-05-2.14615E-05-3.01207E-05-1.23632E-06-1.32963E-18-1.45294E-18
 -1      2541 9.12589E-05-2.16075E-05-2.98339E-05-9.07953E-07-6.52936E-19-2.24390E-18
 -1      2542 9.24033E-05-2.24522E-05-2.99813E-05-3.26168E-06-1.07065E-18 3.00670E-19
 -1      2543 9.21006E-05-2.20201E-05-3.00535E-05-2.70263E-06-8.97737E-19 2.23038E-19
 -1      2544 9.16390E-05-2.20573E-05-2.98063E-05-2.65266E-06-8.75378E-19-2.22076E-19
 -1      2545 9.31883E-05-2.35491E-05-2.98411E-05-4.16263E-06-4.39940E-19 2.42597E-18
 -1      2546 9.27726E-05-2.29576E-05-2.99385E-05-3.81455E-06-4.34782E-19 5.36608E-19
 -1      2547 9.23586E-05-2.29082E-05-2.97544E-05-4.04668E-06-3.65629E-19 7.56457E-19
 -1      2548 9.41246E-05-2.48470E-05-2.96811E-05-4.50418E-06-1.12390E-18 1.89432E-18
 -1      2549 9.36453E-05-2.41681E-05-2.97898E-05-4.42928E-06-1.32323E-18 3.54490E-18
 -1      2550 9.33368E-05-2.40606E-05-2.96858E-05-4.91879E-06-7.92450E-19 1.87840E-18
 -1      2551 9.51054E-05-2.62002E-05-2.95179E-05-4.23451E-06-1.13225E-18-7.25052E-19
 -1      2552 9.46180E-05-2.55062E-05-2.96267E-05-4.45144E-06-1.44650E-18 2.86965E-19
 -1      2553 9.44503E-05-2.53719E-05-2.96058E-05-5.13926E-06-1.17324E-18 3.98825E-19
 -1      2554 2.47005E-05-2.25689E-05-8.13374E-07 2.18750E-05-7.34166E-19 4.20128E-19
 -1      2555 1.86188E-05-1.92137E-05 4.08625E-07 8.04006E-06-1.16933E-18 7.55553E-19
 -1      2556 5.34972E-05-3.51038E-05-7.87850E-06 4.02423E-05-8.51268E-19-6.29557E-19
 -1      2557 3.71025E-05-2.87545E-05-3.34179E-06 3.12968E-05-8.54021E-19 1.02703E-19
 -1      2558 1.89443E-05-1.89679E-05 2.60984E-07-6.59252E-06-8.19293E-19 1.58946E-18
 -1      2559 2.60013E-05-2.15661E-05-1.71759E-06-2.19991E-05-3.37437E-19 3.02391E-19
 -1      2560 9.35887E-05-2.74597E-05-2.83294E-05 3.80802E-07 1.54986E-18 5.85368E-19
 -1      2561 9.38723E-05-2.73248E-05-2.84765E-05 9.15698E-07 1.74951E-18 9.65821E-19
 -1      2562 9.42443E-05-2.74784E-05-2.86278E-05 4.12430E-07 1.69662E-18-2.04957E-19
 -1      2563 9.56873E-05-2.71936E-05-2.93466E-05-3.08785E-06 1.15061E-18-2.94706E-19
 -1      2564 9.17054E-05-5.11501E-05-1.75228E-05 4.21887E-05 8.43433E-19-1.21375E-18
 -1      2565 7.55362E-05-4.51350E-05-1.26892E-05 4.16672E-05-1.54160E-19-1.37542E-18
 -1      2566 1.28368E-04-5.84206E-05-3.04162E-05 2.48906E-05 1.67818E-19-5.81382E-19
 -1      2567 1.10097E-04-5.65206E-05-2.27263E-05 3.41037E-05 7.76306E-19-8.71597E-19
 -1      2568 7.15521E-05-4.32566E-05-1.18432E-05-4.15564E-05 1.35928E-18-2.36841E-18
 -1      2569 8.79185E-05-4.98101E-05-1.62189E-05-4.23715E-05 1.27224E-18-3.02808E-18
 -1      2570 1.44349E-04-4.89808E-05-4.14253E-05 2.98549E-06-8.26420E-19 5.99699E-19
 -1      2571 1.39323E-04-5.44140E-05-3.62881E-05 8.78965E-06-3.92600E-19-5.21349E-19
 -1      2572 1.46419E-04-1.25042E-05-5.78774E-05-3.17801E-06-3.17595E-18-6.45757E-18
 -1      2573 1.48586E-04-1.66159E-05-5.68514E-05-4.76907E-06-3.26256E-18-6.40293E-18
 -1      2574 1.45207E-04-1.23970E-05-5.74476E-05-3.10797E-06 2.87906E-18-3.07791E-19
 -1      2575 1.47502E-04-1.70926E-05-5.61874E-05-5.06863E-06 2.02314E-18 1.50984E-19
 -1      2576 8.78729E-05-1.08081E-05-3.30635E-05-1.52086E-06 3.65287E-19-4.53737E-18
 -1      2577 8.79767E-05-1.09297E-05-3.30543E-05-2.64108E-06-3.25979E-20-4.62758E-18
 -1      2578 8.93755E-05-1.31018E-05-3.26908E-05-2.93494E-06-2.18872E-19-4.31797E-18
 -1      2579 8.91301E-05-1.27673E-05-3.27301E-05-9.42493E-07 4.84705E-19-4.25081E-18
 -1      2580 1.43070E-04-1.37798E-05-5.58618E-05 5.08289E-06 3.80911E-18 8.82291E-19
 -1      2581 1.44505E-04-1.11163E-05-5.75795E-05 1.33244E-06 3.77268E-18 2.75921E-19
 -1      2582 4.96572E-05-3.52047E-05-6.04354E-06-3.75303E-05-2.97097E-18-5.26219E-18
 -1      2583 6.57005E-05-4.13128E-05-1.05830E-05-4.30847E-05-2.56609E-18-3.04064E-18
 -1      2584 1.45012E-04-2.97113E-05-4.96627E-05 7.80532E-06 1.98185E-18 3.39237E-19
 -1      2585 1.43850E-04-2.25058E-05-5.26552E-05 7.82181E-06 2.95170E-18 5.56289E-19
 -1      2586 1.42261E-04-4.96027E-05-3.98377E-05-7.84871E-06 1.18812E-18-2.72533E-19
 -1      2587 1.47510E-04-4.12078E-05-4.61170E-05 7.53060E-07 1.61826E-18-1.16891E-19
 -1      2588 1.24947E-04-5.75694E-05-2.88713E-05-2.46697E-05-5.75665E-19-1.34551E-18
 -1      2589 1.35540E-04-5.62531E-05-3.43275E-05-1.84688E-05 8.37186E-19-3.71000E-19
 -1      2590 1.01830E-04-5.45728E-05-2.02545E-05-3.70242E-05 8.55292E-19-3.06975E-18
 -1      2591 1.17809E-04-5.74279E-05-2.60078E-05-3.25356E-05 1.72922E-18-3.61895E-18
 -1      2592 1.03060E-04-5.44127E-05-2.05532E-05-3.62627E-05 1.60237E-18-3.32630E-18
 -1      2593 8.93847E-05-5.05172E-05-1.64601E-05-3.96811E-05-2.53792E-18-2.90216E-18
 -1      2594 1.10252E-04-5.57635E-05-2.35074E-05-3.60387E-05-1.55621E-18-3.21814E-18
 -1      2595 1.20945E-04-5.88987E-05-2.63726E-05-2.65037E-05-2.01086E-18-2.03325E-18
 -1      2596 2.35675E-05-2.20293E-05-5.11191E-07-1.93589E-05-2.25565E-18-5.04620E-18
 -1      2597 3.44628E-05-2.71795E-05-3.02141E-06-3.13717E-05-2.44793E-18-6.44169E-18
 -1      2598 1.87989E-05-1.78863E-05-2.08260E-07 8.10094E-06-9.51430E-19-2.11589E-18
 -1      2599 1.82316E-05-1.82550E-05 1.98334E-07-6.36675E-06-1.21226E-18-3.33477E-18
 -1      2600 3.88538E-05-2.85336E-05-4.29524E-06 3.34875E-05-8.41951E-19-3.73732E-18
 -1      2601 2.62424E-05-2.27311E-05-1.29343E-06 2.19011E-05-8.11140E-19-3.02348E-18
 -1      2602 1.16809E-04-5.60837E-05-2.59803E-05 3.33516E-05-1.75992E-18-6.87134E-18
 -1      2603 1.01991E-04-5.40612E-05-2.04343E-05 3.70123E-05-1.42619E-18-4.53787E-18
 -1      2604 1.39010E-04-5.32902E-05-3.69652E-05 1.81643E-05-1.71090E-18-6.43914E-18
 -1      2605 1.27149E-04-5.57547E-05-3.07466E-05 2.46140E-05-2.00916E-18-6.23437E-18
 -1      2606 1.26413E-04-5.91423E-05-2.87660E-05 2.38426E-05-3.57766E-19-4.65275E-18
 -1      2607 1.49450E-04-4.07041E-05-4.69805E-05 1.39712E-06-2.94863E-18-3.75574E-18
 -1      2608 1.44500E-04-4.71212E-05-4.18959E-05 7.14547E-06-1.73055E-18-5.53155E-18
 -1      2609 1.50856E-04-2.37727E-05-5.48614E-05-5.02216E-06-2.97605E-18-5.47903E-18
 -1      2610 1.49516E-04-3.04951E-05-5.12640E-05-3.63002E-06-3.31105E-18-4.62480E-18
 -1      2611 1.46560E-04-1.31766E-05-5.75051E-05 3.49321E-06-3.50460E-18-5.56998E-18
 -1      2612 1.46140E-04-1.14809E-05-5.81361E-05 6.89989E-07-3.44531E-18-5.86942E-18
 -1      2613 1.48944E-04-2.79901E-05-5.20512E-05 4.36293E-06-2.89664E-18-6.96960E-18
 -1      2614 1.48896E-04-1.98556E-05-5.57573E-05 5.52425E-06-3.28119E-18-6.26201E-18
 -1      2615 1.45868E-04-4.54342E-05-4.32157E-05-4.75560E-06-5.95808E-19-6.13866E-18
 -1      2616 1.49334E-04-3.91188E-05-4.76990E-05-9.92681E-10-1.50772E-18-7.29422E-18
 -1      2617 1.29664E-04-5.64985E-05-3.14753E-05-2.20133E-05 1.95612E-18-4.58965E-18
 -1      2618 1.41805E-04-5.27554E-05-3.84053E-05-1.48487E-05 8.11987E-19-4.87976E-18
 -1      2619 1.42154E-04-5.17795E-05-3.87590E-05-3.96734E-06 9.67662E-19-5.76808E-18
 -1      2620 4.06248E-05-2.76060E-05-5.09959E-06-3.17534E-05 6.90332E-20-9.04419E-19
 -1      2621 5.25935E-05-3.31155E-05-8.06860E-06-3.91572E-05 8.07011E-19-2.04537E-18
 -1      2622 9.50544E-05-2.00192E-05-3.22064E-05-1.17639E-05-3.25486E-18-2.06913E-18
 -1      2623 9.54498E-05-2.33603E-05-3.09212E-05-7.98112E-06-2.94846E-18-1.74180E-18
 -1      2624 9.50586E-05-2.25494E-05-3.10497E-05-7.67181E-06-2.74278E-18-2.32410E-18
 -1      2625 9.32067E-05-1.76193E-05-3.24117E-05-1.14183E-05-3.11784E-18-2.81282E-18
 -1      2626 9.63044E-05-2.50865E-05-3.05478E-05 7.60622E-06 3.21368E-18 2.41353E-18
 -1      2627 9.74274E-05-2.37704E-05-3.15887E-05 1.07055E-05 3.40587E-18 2.85438E-18
 -1      2628 9.58659E-05-2.12964E-05-3.20142E-05 1.19081E-05 3.72285E-18 1.60412E-18
 -1      2629 9.58557E-05-2.41549E-05-3.07622E-05 7.69873E-06 3.27720E-18 8.56569E-19
 -1      2630 1.35468E-04-1.05792E-05-5.37957E-05-1.40386E-06 2.70987E-18 2.28170E-19
 -1      2631 9.08122E-05-1.50463E-05-3.24624E-05-6.81170E-06-1.69826E-18-4.19444E-18
 -1      2632 8.97203E-05-1.31949E-05-3.28480E-05-7.96267E-06-1.82380E-18-4.49342E-18
 -1      2633 9.03439E-05-1.39112E-05-3.28187E-05-9.19375E-06-2.33705E-18-4.27769E-18
 -1      2634 9.47092E-05-2.69306E-05-2.90607E-05 1.89722E-06 2.15731E-18 1.21149E-19
 -1      2635 9.42287E-05-1.90771E-05-3.22530E-05 1.16176E-05 3.73894E-18 1.34281E-19
 -1      2636 1.38968E-04-1.59663E-05-5.29682E-05 7.17911E-06-2.96885E-18-5.37633E-18
 -1      2637 1.40451E-04-1.90771E-05-5.21883E-05-8.95974E-06-2.09768E-18-3.85951E-18
 -1      2638 1.41026E-04-4.18813E-05-4.27212E-05-6.94012E-06-3.06361E-19 1.47807E-19
 -1      2639 1.41388E-04-5.29110E-05-3.78976E-05 6.67614E-06-2.06808E-19-3.30258E-18
 -1      2640 6.94169E-05-3.96152E-05-1.23387E-05 4.01256E-05-4.74127E-19-5.84453E-19
 -1      2641 5.29509E-05-3.31703E-05-8.03850E-06 3.74699E-05-6.31675E-19-3.42942E-18
 -1      2642 4.97907E-05-2.70538E-05-9.15423E-06 3.37915E-05-2.54322E-19-3.33689E-18
 -1      2643 6.71267E-05-3.78414E-05-1.24645E-05 3.92112E-05-6.16216E-20-3.68353E-18
 -1      2644 9.59973E-05-2.75075E-05-2.93495E-05 3.31464E-06 8.63850E-19 3.93174E-19
 -1      2645 9.57310E-05-2.70380E-05-2.94404E-05 3.73259E-06 5.22063E-19 3.57578E-19
 -1      2646 2.90218E-05-1.76955E-05-4.28647E-06 1.50772E-05-3.19755E-19-2.88542E-18
 -1      2647 2.49943E-05-1.60916E-05-3.28057E-06 7.49965E-07-9.19295E-19 7.42424E-19
 -1      2648 3.73873E-05-2.30710E-05-5.59959E-06 2.68928E-05-5.74182E-19 6.46286E-19
 -1      2649 3.86711E-05-2.18901E-05-6.65179E-06-2.59248E-05-3.29284E-19-5.59254E-19
 -1      2650 9.47024E-05-2.05995E-05-3.17140E-05 9.68462E-06 3.48557E-18-2.28851E-19
 -1      2651 1.33163E-04-5.77590E-05-3.22958E-05 1.39002E-05 4.86832E-19-3.19755E-19
 -1      2652 4.80322E-05-2.93610E-05-7.53397E-06-3.46083E-05-3.18590E-18-5.06187E-18
 -1      2653 1.06960E-04-5.55203E-05-2.16850E-05 3.45842E-05 1.43000E-18-3.91356E-19
 -1      2654 9.20440E-05-1.62331E-05-3.25317E-05-1.04032E-05-2.72079E-18-3.46383E-18
 -1      2655 1.27691E-04-5.94678E-05-2.90751E-05-2.19503E-05 1.49999E-18-4.96626E-18
 -1      2656 7.02272E-05-3.89154E-05-1.30556E-05-3.91464E-05 1.35779E-18-2.67493E-18
 -1      2657 1.39172E-04-5.47288E-05-3.60969E-05-6.05524E-06 1.10247E-19 6.56874E-19
 -1      2658 1.41160E-04-3.71593E-05-4.47587E-05 8.14372E-06 1.44165E-18 6.25957E-19
 -1      2659 1.38856E-04-2.08634E-05-5.07629E-05-9.69914E-06 9.24536E-19-7.01026E-19
 -1      2660 1.36912E-04-1.06249E-05-5.43913E-05-1.79209E-06-3.62107E-18-4.13159E-18
 -1      2661 9.52919E-05-5.21595E-05-1.82993E-05 3.90522E-05-1.14879E-18-3.97604E-18
 -1      2662 8.77815E-05-4.75891E-05-1.66847E-05 4.00738E-05-4.04458E-19-4.07883E-18
 -1      2663 1.07785E-04-5.58968E-05-2.22985E-05 3.35018E-05-1.69089E-19-3.99049E-18
 -1      2664 8.52762E-05-4.72477E-05-1.59328E-05-4.01056E-05-2.69187E-18-2.89421E-18
 -1      2665 1.35272E-04-1.72330E-05-5.08990E-05 9.71591E-06 3.17468E-18 1.49882E-18
 -1      2666 2.78590E-05-1.71649E-05-4.03896E-06-1.33679E-05-1.73758E-18-4.34020E-18
 -1      2667 1.44428E-04-3.64042E-05-4.63541E-05-7.51653E-06-1.47214E-18-1.68856E-18
 -1      2668 1.43597E-04-3.36969E-05-4.72039E-05 8.45718E-06-1.67797E-18-6.79829E-18
 -1      2669 9.62688E-05-2.76399E-05-2.93980E-05-3.64370E-06 9.42136E-19 4.39711E-19
 -1      2670 9.55826E-05-2.68034E-05-2.94826E-05-4.07168E-06 6.12114E-21 4.04192E-19
 -1      2671 9.56310E-05-2.66788E-05-2.95474E-05-4.87658E-06-9.89516E-19 1.38399E-18
 -1      2672 9.67806E-05-2.78556E-05-2.95249E-05-4.22598E-06-7.12070E-19 5.19140E-19
 -1      2673 9.58208E-05-2.69319E-05-2.95173E-05 4.57303E-06 4.44869E-19-2.24327E-19
 -1      2674 9.64736E-05-2.74591E-05-2.95851E-05-5.11495E-06-1.02898E-18 1.73916E-18
 -1      2675 9.05882E-05-1.51806E-05-3.23399E-05 3.20081E-06 1.75340E-18-3.61250E-18
 -1      2676 9.04008E-05-1.49099E-05-3.23735E-05 2.26550E-06 1.49101E-18-3.73082E-18
 -1      2677 9.02680E-05-1.47072E-05-3.24031E-05 1.42480E-06 1.28363E-18-3.78479E-18
 -1      2678 9.02034E-05-1.46149E-05-3.24144E-05 4.66323E-07 9.18782E-19-3.80160E-18
 -1      2679 9.14537E-05-1.66002E-05-3.20670E-05 1.64428E-06 1.30047E-18-3.58453E-18
 -1      2680 9.21555E-05-1.75557E-05-3.20093E-05 6.48535E-06 2.89639E-18-2.57136E-18
 -1      2681 9.16356E-05-1.67623E-05-3.21110E-05 5.64453E-06 2.61318E-18-2.84201E-18
 -1      2682 9.35614E-05-1.97756E-05-3.16647E-05 7.61030E-06 3.17733E-18-1.75572E-18
 -1      2683 9.27784E-05-1.85237E-05-3.18405E-05 7.03198E-06 2.96956E-18-2.20039E-18
 -1      2684 9.34469E-05-1.98692E-05-3.15105E-05 5.74663E-06 2.71324E-18-2.19856E-18
 -1      2685 9.52029E-05-2.54042E-05-2.99260E-05 3.99227E-06 2.55197E-18-4.24165E-19
 -1      2686 9.55402E-05-2.45552E-05-3.03897E-05 5.62515E-06 2.75811E-18-2.71363E-19
 -1      2687 1.33964E-04-5.59450E-05-3.38214E-05 5.16661E-06 9.14418E-19 4.25369E-19
 -1      2688 1.27062E-04-5.90809E-05-2.88417E-05 1.80986E-05 1.03724E-18 3.21661E-19
 -1      2689 9.49642E-05-2.66822E-05-2.92693E-05 1.79216E-06 2.04997E-18-5.14565E-19
 -1      2690 9.52319E-05-2.61866E-05-2.95538E-05 2.80225E-06 2.30855E-18-4.15575E-19
 -1      2691 9.52645E-05-2.50174E-05-3.01029E-05 3.83399E-06 2.52824E-18-1.02742E-18
 -1      2692 9.46944E-05-2.19039E-05-3.12026E-05 7.85690E-06 3.20064E-18-5.24121E-19
 -1      2693 8.09394E-05-4.31056E-05-1.63176E-05 3.96949E-05 9.69535E-19 1.43996E-19
 -1      2694 6.29074E-05-3.28970E-05-1.21938E-05 3.66680E-05-8.68209E-20 3.92917E-19
 -1      2695 9.53520E-05-2.59011E-05-2.97356E-05-2.71607E-06-1.79135E-18-2.22002E-18
 -1      2696 9.51872E-05-2.64859E-05-2.94554E-05-1.73241E-06-1.46740E-18-2.14873E-18
 -1      2697 9.52103E-05-2.69965E-05-2.92111E-05-9.87507E-07-1.33152E-18-2.05700E-18
 -1      2698 9.50766E-05-2.73481E-05-2.90326E-05-3.78190E-07-1.10110E-18-2.20168E-18
 -1      2699 9.54155E-05-2.63224E-05-2.96175E-05-1.62628E-06-1.51980E-18-2.26796E-18
 -1      2700 9.50450E-05-2.76509E-05-2.88672E-05 9.46021E-08-9.95832E-19-2.13100E-18
 -1      2701 9.49695E-05-2.78718E-05-2.87588E-05 4.52570E-07-9.72453E-19-2.20795E-18
 -1      2702 9.54179E-05-2.73102E-05-2.91966E-05-3.38051E-07-1.11654E-18-2.26005E-18
 -1      2703 9.49289E-05-2.80523E-05-2.86513E-05 7.31324E-07-7.36827E-19-2.12570E-18
 -1      2704 9.49046E-05-2.81940E-05-2.85908E-05 9.25739E-07-7.57805E-19-2.01357E-18
 -1      2705 9.53598E-05-2.79151E-05-2.89118E-05 4.67794E-07-8.42427E-19-2.09209E-18
 -1      2706 9.48715E-05-2.82989E-05-2.85251E-05 1.07459E-06-9.47115E-19-1.88962E-18
 -1      2707 9.48848E-05-2.83891E-05-2.84975E-05 1.16673E-06-8.95750E-19-1.96415E-18
 -1      2708 9.52985E-05-2.82810E-05-2.87274E-05 9.34905E-07-7.94886E-19-1.97391E-18
 -1      2709 9.48630E-05-2.84447E-05-2.84619E-05 1.23420E-06-7.82367E-19-1.84562E-18
 -1      2710 9.49017E-05-2.84993E-05-2.84567E-05 1.26701E-06-7.95648E-19-1.76477E-18
 -1      2711 9.52532E-05-2.84919E-05-2.86163E-05 1.17918E-06-8.51888E-19-1.80383E-18
 -1      2712 9.48904E-05-2.85213E-05-2.84429E-05 1.28912E-06-8.09244E-19-1.58416E-18
 -1      2713 9.49456E-05-2.85499E-05-2.84532E-05 1.29325E-06-7.59910E-19-1.32646E-18
 -1      2714 9.52268E-05-2.85979E-05-2.85586E-05 1.28827E-06-6.91223E-19-1.17776E-18
 -1      2715 9.49428E-05-2.85478E-05-2.84553E-05 1.29679E-06-5.80780E-19-9.67938E-19
 -1      2716 9.50091E-05-2.85570E-05-2.84768E-05 1.29465E-06-2.31057E-19-1.04616E-18
 -1      2717 9.52171E-05-2.86299E-05-2.85399E-05 1.32770E-06-5.28464E-19-5.60840E-19
 -1      2718 9.50128E-05-2.85367E-05-2.84910E-05 1.29983E-06-2.90488E-19-1.12502E-18
 -1      2719 9.50878E-05-2.85309E-05-2.85212E-05 1.30830E-06-2.00200E-19-1.29702E-18
 -1      2720 9.52205E-05-2.86076E-05-2.85503E-05 1.34666E-06-4.61348E-19-6.35465E-19
 -1      2721 9.50966E-05-2.84961E-05-2.85449E-05 1.33076E-06-8.13852E-20-1.37648E-18
 -1      2722 9.51804E-05-2.84785E-05-2.85827E-05 1.36308E-06-2.01285E-19-1.33241E-18
 -1      2723 9.52341E-05-2.85434E-05-2.85833E-05 1.38266E-06-2.90674E-19-1.21149E-18
 -1      2724 9.51934E-05-2.84315E-05-2.86146E-05 1.41540E-06-4.17655E-19-1.28579E-18
 -1      2725 9.52879E-05-2.84047E-05-2.86597E-05 1.48245E-06-5.76726E-19-1.29186E-18
 -1      2726 9.52559E-05-2.84450E-05-2.86346E-05 1.46518E-06-1.64919E-19-1.01349E-18
 -1      2727 9.53046E-05-2.83467E-05-2.86990E-05 1.57523E-06-8.93558E-19-8.80216E-19
 -1      2728 9.54133E-05-2.83129E-05-2.87519E-05 1.68630E-06-7.00884E-19-7.97396E-19
 -1      2729 9.52850E-05-2.83173E-05-2.87016E-05 1.61833E-06-5.96339E-19-1.18490E-18
 -1      2730 9.54340E-05-2.82452E-05-2.87983E-05 1.82871E-06-8.21002E-19-9.53894E-19
 -1      2731 9.55618E-05-2.82071E-05-2.88600E-05 1.99185E-06-7.20024E-19-9.99362E-19
 -1      2732 9.53212E-05-2.81637E-05-2.87829E-05 1.86252E-06-9.28489E-19-4.21937E-19
 -1      2733 9.55870E-05-2.81312E-05-2.89131E-05 2.19190E-06-6.29734E-19-1.26041E-18
 -1      2734 9.57400E-05-2.80926E-05-2.89844E-05 2.41369E-06-7.34058E-19-1.37695E-18
 -1      2735 9.53655E-05-2.79877E-05-2.88772E-05 2.21532E-06-6.99255E-19-5.06036E-19
 -1      2736 9.57717E-05-2.80117E-05-2.90438E-05 2.67788E-06-7.87815E-19-1.28628E-18
 -1      2737 9.59573E-05-2.79788E-05-2.91253E-05 2.96266E-06-6.96264E-19-1.23938E-18
 -1      2738 9.54207E-05-2.77953E-05-2.89833E-05 2.69144E-06-7.71861E-19-7.23460E-19
 -1      2739 9.59992E-05-2.78993E-05-2.91898E-05 3.29515E-06-7.16547E-19-8.47944E-19
 -1      2740 9.62271E-05-2.78822E-05-2.92813E-05 3.64340E-06-4.95861E-19-5.08983E-19
 -1      2741 9.54925E-05-2.75978E-05-2.90987E-05 3.30158E-06-5.67308E-19-5.27039E-19
 -1      2742 9.62867E-05-2.78163E-05-2.93486E-05 4.04444E-06-2.13292E-19-8.00763E-19
 -1      2743 9.65693E-05-2.78319E-05-2.94488E-05 4.45010E-06 3.90467E-19-1.19023E-18
 -1      2744 9.55920E-05-2.74166E-05-2.92192E-05 4.05024E-06-3.90071E-19-5.86352E-19
 -1      2745 9.66614E-05-2.78010E-05-2.95151E-05 4.91357E-06 5.83327E-19-1.36994E-18
 -1      2746 9.70166E-05-2.78767E-05-2.96210E-05 5.35997E-06 4.88196E-19-1.58428E-18
 -1      2747 9.57411E-05-2.72899E-05-2.93379E-05 4.93200E-06 1.31824E-19-8.22626E-19
 -1      2748 9.71684E-05-2.79172E-05-2.96810E-05 5.86970E-06 6.64297E-19-1.40248E-18
 -1      2749 9.76232E-05-2.80959E-05-2.97874E-05 6.32378E-06 7.97580E-19-1.32945E-18
 -1      2750 9.59804E-05-2.72828E-05-2.94449E-05 5.92608E-06 5.22597E-19-1.31948E-18
 -1      2751 9.78829E-05-2.82654E-05-2.98345E-05 6.84788E-06 8.22364E-19-1.46331E-18
 -1      2752 9.84780E-05-2.86108E-05-2.99346E-05 7.25240E-06 8.71855E-19-1.16494E-18
 -1      2753 9.63832E-05-2.75000E-05-2.95274E-05 6.98829E-06 8.11671E-19-1.24351E-18
 -1      2754 9.89265E-05-2.89945E-05-2.99629E-05 7.73469E-06 4.76936E-19-1.47510E-18
 -1      2755 9.97217E-05-2.95928E-05-3.00500E-05 7.99861E-06 4.10448E-19-1.42379E-18
 -1      2756 9.70747E-05-2.81005E-05-2.95723E-05 8.03884E-06 3.43981E-19-1.58831E-18
 -1      2757 1.00484E-04-3.03039E-05-3.00583E-05 8.34461E-06 2.05278E-19-1.59121E-18
 -1      2758 1.01556E-04-3.12539E-05-3.01306E-05 8.33275E-06 6.60971E-20-1.32744E-18
 -1      2759 9.82561E-05-2.93064E-05-2.95722E-05 8.94263E-06 3.23057E-19-1.41627E-18
 -1      2760 1.02804E-04-3.24152E-05-3.01313E-05 8.38681E-06 9.30861E-19-1.17792E-18
 -1      2761 1.04224E-04-3.37867E-05-3.02007E-05 7.91376E-06 1.61172E-18-6.33399E-19
 -1      2762 1.00222E-04-3.13877E-05-2.95393E-05 9.47471E-06 6.72842E-19-1.03162E-18
 -1      2763 1.06146E-04-3.54670E-05-3.02348E-05 7.42749E-06 1.25949E-18-4.84935E-19
 -1      2764 1.07912E-04-3.71963E-05-3.03397E-05 6.27030E-06 5.51943E-19-4.96730E-19
 -1      2765 1.03340E-04-3.45794E-05-2.95297E-05 9.26273E-06 1.54932E-18-8.46309E-19
 -1      2766 1.10597E-04-3.92601E-05-3.04972E-05 4.88854E-06 3.68940E-19 1.83164E-19
 -1      2767 1.12498E-04-4.09610E-05-3.07171E-05 2.86318E-06 5.83235E-19 6.37436E-19
 -1      2768 1.07921E-04-3.88480E-05-2.96829E-05 7.71684E-06 7.63265E-19-5.65934E-19
 -1      2769 1.15686E-04-4.28154E-05-3.11595E-05 2.13353E-07 5.05236E-19 1.33192E-18
 -1      2770 1.17145E-04-4.35582E-05-3.16175E-05-2.60285E-06 8.37079E-19 1.68757E-18
 -1      2771 1.13864E-04-4.34217E-05-3.02703E-05 4.05185E-06 7.38304E-19 9.85668E-19
 -1      2772 1.19801E-04-4.38282E-05-3.25584E-05-6.43779E-06 1.47813E-18 1.82148E-18
 -1      2773 1.19972E-04-4.23337E-05-3.33493E-05-9.20215E-06 1.51023E-18 2.33733E-18
 -1      2774 1.19964E-04-4.61045E-05-3.17265E-05-2.37003E-06 1.46097E-18 1.50534E-18
 -1      2775 1.20761E-04-3.97387E-05-3.48694E-05-1.28574E-05 1.02657E-18 2.49180E-18
 -1      2776 1.19147E-04-3.51616E-05-3.59739E-05-1.39871E-05 1.11082E-18 2.54282E-18
 -1      2777 1.23527E-04-4.35217E-05-3.44777E-05-1.02585E-05 1.26025E-18 1.74936E-18
 -1      2778 1.17073E-04-2.96737E-05-3.77907E-05-1.43328E-05 5.52226E-19 2.28212E-18
 -1      2779 1.14669E-04-2.42396E-05-3.88023E-05-1.20299E-05 3.32460E-20 1.96798E-18
 -1      2780 1.22479E-04-3.35612E-05-3.81639E-05-1.50459E-05 1.08463E-18 1.65947E-18
 -1      2781 1.12317E-04-1.97287E-05-4.00001E-05-7.06187E-06-5.48401E-19 1.73688E-18
 -1      2782 1.11453E-04-1.77898E-05-4.03245E-05-1.82968E-06-3.55436E-19 1.56894E-18
 -1      2783 1.17537E-04-2.06256E-05-4.17676E-05-1.07310E-05-9.81446E-19 1.45833E-18
 -1      2784 1.11848E-04-1.87371E-05-4.00831E-05 5.15407E-06-7.44807E-19 1.29445E-18
 -1      2785 1.13526E-04-2.21542E-05-3.94843E-05 9.74418E-06-1.19927E-18 1.02537E-18
 -1      2786 1.15537E-04-1.60180E-05-4.29383E-05 1.76189E-06-1.07817E-18 2.84070E-19
 -1      2787 1.16068E-04-2.75313E-05-3.79732E-05 1.32293E-05-1.11141E-18 1.21455E-18
 -1      2788 1.18518E-04-3.31688E-05-3.68608E-05 1.43916E-05-8.89252E-19 1.46052E-18
 -1      2789 1.18991E-04-2.39643E-05-4.09287E-05 1.27550E-05-1.06271E-18-7.56215E-19
 -1      2790 1.19818E-04-3.80486E-05-3.50593E-05 1.25582E-05-1.95708E-18 1.50354E-18
 -1      2791 1.20768E-04-4.16824E-05-3.40215E-05 1.06606E-05-1.83493E-18 3.46185E-19
 -1      2792 1.23476E-04-3.77918E-05-3.68115E-05 1.34931E-05-1.89033E-18 2.44528E-19
 -1      2793 1.19406E-04-4.33660E-05-3.26508E-05 6.79540E-06-9.33084E-19-5.66533E-19
 -1      2794 1.18683E-04-4.40925E-05-3.19456E-05 3.74764E-06-5.31664E-19-1.25183E-18
 -1      2795 1.22813E-04-4.50634E-05-3.33974E-05 7.42081E-06-2.14915E-18-5.24168E-19
 -1      2796 1.15693E-04-4.31211E-05-3.11738E-05 1.85222E-07-2.12056E-20-1.85529E-18
 -1      2797 1.13967E-04-4.19606E-05-3.07899E-05-2.49264E-06-3.53893E-19-1.60909E-18
 -1      2798 1.18199E-04-4.58056E-05-3.10798E-05-4.93983E-07-5.10038E-19-1.39857E-18
 -1      2799 1.10874E-04-3.99421E-05-3.04482E-05-4.76984E-06-4.57795E-20-8.20982E-19
 -1      2800 1.08925E-04-3.81569E-05-3.02613E-05-6.57668E-06 8.04504E-19-1.32731E-19
 -1      2801 1.11906E-04-4.22344E-05-2.99345E-05-6.10280E-06 2.19784E-19-1.23834E-18
 -1      2802 1.06464E-04-3.61722E-05-3.01498E-05-7.69253E-06 7.15670E-19 5.98550E-19
 -1      2803 1.04748E-04-3.45153E-05-3.00508E-05-8.67093E-06 9.81904E-19 4.15730E-19
 -1      2804 1.06308E-04-3.76140E-05-2.95089E-05-9.13676E-06 1.04947E-18 3.25567E-19
 -1      2805 1.03038E-04-3.29808E-05-3.00329E-05-9.00946E-06 1.00356E-18 3.61928E-19
 -1      2806 1.01679E-04-3.17101E-05-2.99571E-05-9.36402E-06 6.24890E-19 1.28048E-19
 -1      2807 1.02174E-04-3.36306E-05-2.94259E-05-1.03009E-05 8.14990E-19-1.28372E-18
 -1      2808 1.00582E-04-3.06692E-05-2.99618E-05-9.23997E-06 7.42418E-19 1.01036E-18
 -1      2809 9.95474E-05-2.97844E-05-2.98825E-05-9.17578E-06 1.52496E-18 1.71558E-18
 -1      2810 9.94211E-05-3.07508E-05-2.94617E-05-1.03241E-05 1.06849E-18 5.37552E-20
 -1      2811 9.88690E-05-2.91308E-05-2.98822E-05-8.79315E-06 9.81624E-19 2.04367E-18
 -1      2812 9.80774E-05-2.85360E-05-2.97957E-05-8.46553E-06 7.07751E-19 2.68394E-18
 -1      2813 9.76891E-05-2.88691E-05-2.95123E-05-9.70285E-06 1.35067E-18 1.89247E-18
 -1      2814 9.76520E-05-2.81334E-05-2.97861E-05-7.94101E-06 1.58642E-19 2.48811E-18
 -1      2815 9.70279E-05-2.77213E-05-2.96993E-05-7.45071E-06-1.28446E-18 2.68266E-18
 -1      2816 9.66146E-05-2.77004E-05-2.95439E-05-8.72746E-06 2.89084E-20 1.06171E-18
 -1      2817 9.67340E-05-2.74498E-05-2.96858E-05-6.84736E-06-2.67438E-18 2.14329E-18
 -1      2818 9.62297E-05-2.71345E-05-2.96091E-05-6.24801E-06-1.96118E-18 1.85195E-18
 -1      2819 9.59160E-05-2.69591E-05-2.95584E-05-7.55408E-06-1.77228E-18 5.67869E-19
 -1      2820 9.44731E-05-2.81067E-05-2.84421E-05-9.14873E-07 9.62846E-19-6.43464E-19
 -1      2821 9.44855E-05-2.79829E-05-2.84900E-05-7.29901E-07 1.12444E-18-5.41164E-19
 -1      2822 9.53225E-05-2.63508E-05-2.95578E-05 5.72385E-06 3.69750E-19-1.85102E-18
 -1      2823 9.61178E-05-2.71636E-05-2.95410E-05 5.23035E-06 5.50833E-19-7.68782E-19
 -1      2824 9.66491E-05-2.74611E-05-2.96387E-05 5.85932E-06 4.80724E-19-8.26896E-19
 -1      2825 9.45438E-05-2.78352E-05-2.85900E-05-4.45966E-07 1.11829E-18-7.46174E-19
 -1      2826 9.46301E-05-2.76509E-05-2.86870E-05-9.65280E-08 1.32806E-18-5.92916E-19
 -1      2827 9.50065E-05-2.78910E-05-2.87722E-05-4.64611E-07 1.10991E-18-9.71671E-19
 -1      2828 9.45405E-05-2.83902E-05-2.83483E-05-1.23714E-06 3.92069E-19-4.28718E-19
 -1      2829 9.44722E-05-2.83320E-05-2.83428E-05-1.21183E-06 4.93389E-19-6.05456E-19
 -1      2830 9.46376E-05-2.84544E-05-2.83621E-05-1.25133E-06 4.08965E-19-4.86305E-19
 -1      2831 9.45509E-05-2.84162E-05-2.83425E-05-1.25460E-06 5.46677E-19-4.09955E-19
 -1      2832 9.49188E-05-2.85079E-05-2.84653E-05-1.28657E-06 4.69245E-19-1.04139E-18
 -1      2833 9.47587E-05-2.84853E-05-2.84003E-05-1.23823E-06 5.70386E-19-4.52167E-19
 -1      2834 9.46607E-05-2.84624E-05-2.83712E-05-1.24863E-06 5.08333E-19-4.14597E-19
 -1      2835 9.49572E-05-2.85547E-05-2.84607E-05-1.31431E-06 4.84102E-19-9.31207E-19
 -1      2836 9.48974E-05-2.84909E-05-2.84569E-05-1.23381E-06 1.62212E-20-4.69200E-19
 -1      2837 9.47911E-05-2.84797E-05-2.84204E-05-1.23536E-06 2.25144E-19-3.33651E-19
 -1      2838 9.50152E-05-2.85581E-05-2.84836E-05-1.31791E-06 2.64142E-19-6.68028E-19
 -1      2839 9.50525E-05-2.84771E-05-2.85286E-05-1.26577E-06 4.92433E-19-5.45868E-19
 -1      2840 9.49373E-05-2.84747E-05-2.84857E-05-1.24609E-06 2.85459E-19-2.43673E-19
 -1      2841 9.50881E-05-2.85283E-05-2.85273E-05-1.33484E-06 1.00549E-19-5.62127E-19
 -1      2842 9.52265E-05-2.84484E-05-2.86147E-05-1.35643E-06-1.15488E-19-2.68263E-19
 -1      2843 9.50995E-05-2.84523E-05-2.85651E-05-1.30541E-06 3.38580E-19-2.88171E-19
 -1      2844 9.51743E-05-2.84722E-05-2.85881E-05-1.39424E-06 2.94907E-19 3.15954E-20
 -1      2845 9.54255E-05-2.84090E-05-2.87160E-05-1.52451E-06 2.10968E-19-2.52488E-19
 -1      2846 9.52814E-05-2.84165E-05-2.86586E-05-1.43358E-06 1.36774E-21-2.46041E-19
 -1      2847 9.52744E-05-2.83946E-05-2.86643E-05-1.51968E-06 4.99998E-20 1.11566E-19
 -1      2848 9.56581E-05-2.83633E-05-2.88342E-05-1.78618E-06 2.86412E-19-1.98677E-19
 -1      2849 9.54901E-05-2.83714E-05-2.87675E-05-1.64791E-06 3.62417E-19 6.11772E-20
 -1      2850 9.53914E-05-2.82992E-05-2.87554E-05-1.73096E-06 1.78447E-19 4.83457E-20
 -1      2851 9.59355E-05-2.83174E-05-2.89716E-05-2.15503E-06 4.42530E-20 1.33128E-19
 -1      2852 9.57351E-05-2.83220E-05-2.88938E-05-1.96337E-06 2.37581E-20-9.33382E-20
 -1      2853 9.55299E-05-2.81904E-05-2.88616E-05-2.04499E-06 3.54512E-20 1.97778E-19
 -1      2854 9.62714E-05-2.82803E-05-2.91302E-05-2.64099E-06-1.43707E-19 1.06841E-19
 -1      2855 9.60289E-05-2.82755E-05-2.90397E-05-2.39199E-06 1.76160E-19 3.51896E-19
 -1      2856 9.56970E-05-2.80744E-05-2.89831E-05-2.47570E-06 8.27220E-20 2.37374E-19
 -1      2857 9.66826E-05-2.82670E-05-2.93111E-05-3.24776E-06-5.34341E-19-3.29888E-19
 -1      2858 9.63869E-05-2.82437E-05-2.92067E-05-2.94121E-06-4.23867E-19-1.27980E-19
 -1      2859 9.59024E-05-2.79619E-05-2.91196E-05-3.03275E-06 6.36595E-20-3.63734E-19
 -1      2860 9.71905E-05-2.83014E-05-2.95133E-05-3.96834E-06-1.08938E-19-5.74976E-19
 -1      2861 9.68288E-05-2.82458E-05-2.93950E-05-3.61043E-06-5.50985E-19-7.38575E-19
 -1      2862 9.61608E-05-2.78718E-05-2.92693E-05-3.71888E-06-9.29012E-20-5.03771E-19
 -1      2863 9.78241E-05-2.84227E-05-2.97328E-05-4.77803E-06-6.25568E-20-3.18643E-19
 -1      2864 9.73814E-05-2.83132E-05-2.96024E-05-4.38555E-06 2.65960E-19-3.22529E-19
 -1      2865 9.64947E-05-2.78368E-05-2.94280E-05-4.52546E-06-2.06025E-19-9.26420E-19
 -1      2866 9.86253E-05-2.86921E-05-2.99618E-05-5.62417E-06 6.29514E-19-6.72440E-20
 -1      2867 9.80829E-05-2.84962E-05-2.98231E-05-5.23040E-06 1.23332E-19-3.68752E-19
 -1      2868 9.69408E-05-2.79107E-05-2.95887E-05-5.42574E-06 1.61856E-19-3.25669E-19
 -1      2869 9.96558E-05-2.92011E-05-3.01883E-05-6.41199E-06 6.66552E-19 5.25178E-20
 -1      2870 9.89900E-05-2.88721E-05-3.00478E-05-6.07455E-06 8.93057E-19 9.09594E-20
 -1      2871 9.75593E-05-2.81787E-05-2.97413E-05-6.36493E-06 4.35617E-19-5.67587E-19
 -1      2872 1.01006E-04-3.00757E-05-3.03977E-05-6.98685E-06-1.00254E-19 2.84312E-21
 -1      2873 1.00187E-04-2.95528E-05-3.02640E-05-6.79654E-06 2.68248E-19 2.99224E-19
 -1      2874 9.84476E-05-2.87677E-05-2.98739E-05-7.24627E-06 2.57606E-19 4.26529E-19
 -1      2875 1.02797E-04-3.14653E-05-3.05790E-05-7.11510E-06 1.01024E-20-5.88265E-19
 -1      2876 1.01794E-04-3.06835E-05-3.04596E-05-7.20301E-06-1.23403E-20-4.81792E-19
 -1      2877 9.97540E-05-2.98501E-05-2.99774E-05-7.91153E-06-1.29264E-19-1.41332E-19
 -1      2878 1.05156E-04-3.34922E-05-3.07363E-05-6.47211E-06-1.80241E-19 3.04210E-19
 -1      2879 1.03956E-04-3.24154E-05-3.06322E-05-7.00746E-06 9.83509E-20 7.42217E-20
 -1      2880 1.01684E-04-3.16242E-05-3.00554E-05-8.11533E-06-5.94073E-19-2.72654E-19
 -1      2881 1.08145E-04-3.61235E-05-3.09089E-05-4.65772E-06-1.72236E-19 6.44379E-19
 -1      2882 1.06797E-04-3.48214E-05-3.08050E-05-5.82155E-06 2.04243E-19 2.79419E-19
 -1      2883 1.04469E-04-3.42401E-05-3.01421E-05-7.49688E-06-4.79128E-19 6.09991E-19
 -1      2884 1.11577E-04-3.89311E-05-3.11961E-05-1.30217E-06-1.64506E-18 1.67178E-18
 -1      2885 1.10275E-04-3.77055E-05-3.10505E-05-3.20300E-06-1.12556E-18 1.19768E-18
 -1      2886 1.08249E-04-3.76073E-05-3.03290E-05-5.57074E-06-1.16595E-18 1.83004E-18
 -1      2887 1.14769E-04-4.07900E-05-3.17715E-05 3.65392E-06-9.37436E-19 1.41567E-18
 -1      2888 1.13935E-04-4.03120E-05-3.15118E-05 1.15247E-06-1.08694E-18 1.19945E-18
 -1      2889 1.12811E-04-4.10719E-05-3.07938E-05-1.82691E-06-1.06003E-18 1.78853E-18
 -1      2890 1.16415E-04-3.98772E-05-3.28354E-05 9.29255E-06 3.40224E-19 1.99429E-18
 -1      2891 1.16590E-04-4.10419E-05-3.23916E-05 6.86814E-06-2.52782E-19 2.07555E-18
 -1      2892 1.17142E-04-4.29506E-05-3.18056E-05 3.87712E-06-4.47093E-19 9.77185E-19
 -1      2893 1.15221E-04-3.47952E-05-3.44334E-05 1.31031E-05 5.40420E-19 2.15299E-18
 -1      2894 1.16627E-04-3.79851E-05-3.38158E-05 1.20870E-05 8.53677E-19 2.59926E-18
 -1      2895 1.19345E-04-4.08909E-05-3.35994E-05 1.03527E-05 3.33661E-19 1.87839E-18
 -1      2896 1.11387E-04-2.67764E-05-3.62286E-05 1.16058E-05 3.28702E-19 5.14973E-19
 -1      2897 1.13400E-04-3.07942E-05-3.56163E-05 1.33704E-05 3.94889E-19 1.45261E-18
 -1      2898 1.17746E-04-3.36293E-05-3.60444E-05 1.42966E-05 1.05436E-18 1.63554E-18
 -1      2899 1.08064E-04-2.10331E-05-3.73790E-05 3.75309E-06-1.69512E-19 2.73080E-19
 -1      2900 1.09261E-04-2.31435E-05-3.70941E-05 7.98494E-06 8.73370E-20 3.68881E-19
 -1      2901 1.13606E-04-2.42290E-05-3.84214E-05 1.08764E-05 2.68139E-19 3.31428E-19
 -1      2902 1.08804E-04-2.25346E-05-3.71856E-05-6.60879E-06 9.52409E-19-2.45021E-19
 -1      2903 1.08036E-04-2.08460E-05-3.74273E-05-2.29011E-06 4.72988E-19-2.27633E-19
 -1      2904 1.10861E-04-1.88767E-05-3.95540E-05 6.36916E-07 2.71659E-19-5.62448E-19
 -1      2905 1.12866E-04-2.99609E-05-3.57611E-05-1.27541E-05 8.96306E-19-3.12919E-19
 -1      2906 1.10921E-04-2.59626E-05-3.63724E-05-1.07790E-05 1.10067E-18-6.27971E-20
 -1      2907 1.13013E-04-2.29836E-05-3.86526E-05-9.97661E-06 1.06983E-18-1.20604E-18
 -1      2908 1.16306E-04-3.74206E-05-3.39274E-05-1.21032E-05 1.20157E-18 5.89747E-20
 -1      2909 1.14783E-04-3.40092E-05-3.45783E-05-1.28820E-05 1.04315E-18-2.64297E-19
 -1      2910 1.17309E-04-3.25172E-05-3.63285E-05-1.39603E-05 5.52530E-19-1.17937E-18
 -1      2911 1.16540E-04-4.09426E-05-3.24175E-05-7.00694E-06 9.76639E-19 1.32350E-18
 -1      2912 1.16296E-04-3.95910E-05-3.28924E-05-9.37479E-06 1.37862E-18 1.13503E-18
 -1      2913 1.19322E-04-4.04466E-05-3.37718E-05-1.06330E-05 2.63649E-19 1.13224E-19
 -1      2914 1.14034E-04-4.05392E-05-3.14633E-05-1.15479E-06-3.20365E-19 2.43878E-18
 -1      2915 1.14830E-04-4.08868E-05-3.17545E-05-3.73713E-06 3.31284E-19 2.32733E-18
 -1      2916 1.17384E-04-4.30532E-05-3.18742E-05-4.06952E-06 9.66858E-20 1.08432E-18
 -1      2917 1.10338E-04-3.80396E-05-3.09368E-05 3.47842E-06-6.53466E-19 1.99370E-18
 -1      2918 1.11666E-04-3.92324E-05-3.11088E-05 1.44939E-06-3.72934E-19 2.79059E-18
 -1      2919 1.13161E-04-4.14876E-05-3.07700E-05 1.93224E-06-3.04792E-19 8.85922E-19
 -1      2920 1.06721E-04-3.51124E-05-3.06471E-05 6.37705E-06-4.82386E-19 9.25288E-19
 -1      2921 1.08140E-04-3.64465E-05-3.07705E-05 5.08697E-06-5.43249E-19 1.93534E-18
 -1      2922 1.08515E-04-3.80895E-05-3.02380E-05 5.99252E-06 7.75399E-21 2.40828E-18
 -1      2923 1.03708E-04-3.25954E-05-3.04479E-05 7.78920E-06-7.59987E-19-1.18617E-19
 -1      2924 1.05000E-04-3.37343E-05-3.05664E-05 7.15079E-06-5.60921E-19 1.41812E-20
 -1      2925 1.04579E-04-3.46457E-05-3.00159E-05 8.19671E-06 1.12067E-19 9.10751E-19
 -1      2926 1.01372E-04-3.07202E-05-3.02618E-05 8.13961E-06 7.06488E-19-8.36214E-19
 -1      2927 1.02472E-04-3.15802E-05-3.03918E-05 7.98406E-06-3.84566E-19-9.68455E-19
 -1      2928 1.01633E-04-3.18953E-05-2.99188E-05 9.02218E-06 2.72514E-19-1.30127E-18
 -1      2929 9.95938E-05-2.94160E-05-3.00657E-05 7.80239E-06 1.18027E-18-8.84484E-19
 -1      2930 1.00512E-04-3.00342E-05-3.02047E-05 7.97103E-06 1.06417E-18-1.17824E-18
 -1      2931 9.95528E-05-2.99533E-05-2.98486E-05 8.94747E-06 5.52662E-19-1.11859E-18
 -1      2932 9.82385E-05-2.85237E-05-2.98664E-05 7.03499E-06 3.95155E-19-1.69522E-19
 -1      2933 9.89883E-05-2.89658E-05-3.00038E-05 7.40965E-06 1.18653E-18 1.84802E-20
 -1      2934 9.80910E-05-2.86600E-05-2.97708E-05 8.32483E-06 1.22061E-18-1.41433E-18
 -1      2935 9.70720E-05-2.78010E-05-2.96758E-05 6.22926E-06 4.90218E-19-7.50584E-19
 -1      2936 9.76877E-05-2.81444E-05-2.97938E-05 6.74811E-06 2.03219E-19-1.56751E-18
 -1      2937 9.69077E-05-2.77388E-05-2.96645E-05 7.57608E-06 9.35076E-19-2.13563E-18
 -1      2938 9.59303E-05-2.69620E-05-2.95844E-05 6.82109E-06 3.21131E-19-2.08287E-18
 -1      2939 9.05422E-05-2.16109E-05-2.95549E-05 6.06291E-07 1.13266E-18-2.29978E-18
 -1      2940 9.06751E-05-2.17377E-05-2.95497E-05 1.57207E-06 1.19850E-18-2.26785E-18
 -1      2941 9.60890E-05-2.69919E-05-2.96041E-05-5.80211E-06-7.64009E-19 1.00938E-18
 -1      2942 9.57884E-05-2.68118E-05-2.95573E-05-5.34137E-06-5.11043E-19 1.92308E-18
 -1      2943 9.54897E-05-2.65121E-05-2.95667E-05-6.47070E-06-1.75982E-18 5.05702E-20
 -1      2944 9.17822E-05-2.28510E-05-2.95615E-05 4.26437E-06 5.29560E-19-1.49765E-19
 -1      2945 9.23178E-05-2.33685E-05-2.95410E-05 4.84850E-06 9.97775E-19 8.17753E-19
 -1      2946 9.06489E-05-2.17116E-05-2.95507E-05-1.49636E-06 1.27972E-19-1.35050E-18
 -1      2947 9.05325E-05-2.15990E-05-2.95550E-05-5.25356E-07 4.75442E-19-2.79931E-18
 -1      2948 8.99272E-05-2.15877E-05-2.92716E-05 4.90027E-08 8.26693E-19-3.61827E-18
 -1      2949 9.09421E-05-2.20133E-05-2.95586E-05 2.61773E-06 2.38208E-19-1.10442E-18
 -1      2950 9.13025E-05-2.23600E-05-2.95446E-05 3.44574E-06 9.87609E-19-1.39493E-19
 -1      2951 9.11173E-05-2.26643E-05-2.93264E-05 4.26564E-06 7.35580E-19 2.34184E-19
 -1      2952 9.02494E-05-2.18816E-05-2.92856E-05 2.32307E-06 1.01032E-18-1.57128E-18
 -1      2953 9.12347E-05-2.22889E-05-2.95467E-05-3.36583E-06-1.08321E-18-1.38781E-18
 -1      2954 9.08943E-05-2.19616E-05-2.95597E-05-2.53717E-06-6.01136E-19-1.57154E-19
 -1      2955 9.02026E-05-2.18326E-05-2.92859E-05-2.22040E-06 4.45946E-19-1.67627E-18
 -1      2956 9.22309E-05-2.32750E-05-2.95447E-05-4.81559E-06-5.71946E-19 3.84159E-19
 -1      2957 9.17018E-05-2.27636E-05-2.95642E-05-4.21016E-06-9.09231E-19 1.81009E-19
 -1      2958 9.10261E-05-2.25705E-05-2.93269E-05-4.18624E-06-1.05822E-18-6.02242E-19
 -1      2959 9.34916E-05-2.45311E-05-2.95472E-05-5.61794E-06-1.37031E-18 2.23918E-18
 -1      2960 9.28618E-05-2.39042E-05-2.95700E-05-5.34053E-06-4.88105E-19 5.83746E-19
 -1      2961 9.22856E-05-2.36926E-05-2.93923E-05-5.60818E-06-1.52902E-18 7.95710E-19
 -1      2962 3.61127E-05-1.63895E-05-7.77069E-06-1.76608E-05-9.06113E-19-5.18808E-19
 -1      2963 4.77157E-05-2.22313E-05-1.05577E-05-2.77572E-05-5.11926E-19-1.08198E-18
 -1      2964 9.78410E-05-5.04919E-05-1.98475E-05-3.55391E-05 2.33135E-18-2.90199E-18
 -1      2965 1.09700E-04-5.58796E-05-2.32470E-05-3.18167E-05 1.51566E-18-3.89672E-18
 -1      2966 9.28462E-05-1.80070E-05-3.20738E-05-8.82289E-06-2.55590E-18-3.38311E-18
 -1      2967 1.14318E-04-5.65462E-05-2.42087E-05-2.81033E-05-2.92533E-18-2.83714E-18
 -1      2968 1.25188E-04-5.91724E-05-2.87842E-05-1.94870E-05-1.54478E-18-4.95726E-19
 -1      2969 4.55657E-05-2.36698E-05-8.85540E-06-2.98602E-05-3.27410E-18-5.08347E-18
 -1      2970 5.90639E-05-3.19606E-05-1.14633E-05-3.76129E-05-3.36833E-18-3.28490E-18
 -1      2971 1.34966E-04-3.51251E-05-4.34279E-05-1.20275E-05-1.76395E-19-9.34595E-19
 -1      2972 1.35109E-04-4.52564E-05-3.87128E-05-7.47885E-06 3.41672E-19-1.99476E-19
 -1      2973 1.39481E-04-5.06329E-05-3.87675E-05-9.24499E-07-2.09058E-19-1.81307E-18
 -1      2974 1.36732E-04-5.63959E-05-3.44938E-05 7.88690E-06 3.09802E-19-2.99214E-18
 -1      2975 1.33982E-04-5.61118E-05-3.32077E-05-5.94254E-06 4.49523E-20 3.69095E-19
 -1      2976 1.37818E-04-5.11523E-05-3.77003E-05 1.83331E-06 6.18175E-19 3.82753E-19
 -1      2977 9.47106E-05-2.74032E-05-2.88487E-05 3.92310E-07 1.64310E-18-7.58503E-19
 -1      2978 9.48906E-05-2.71119E-05-2.90203E-05 1.00053E-06 1.79411E-18-6.00922E-19
 -1      2979 9.52472E-05-2.64941E-05-2.94722E-05 1.74366E-06 2.02590E-18-1.17091E-18
 -1      2980 9.51250E-05-2.73689E-05-2.90481E-05 3.74510E-07 1.52969E-18-1.18979E-18
 -1      2981 4.63680E-05-2.40020E-05-9.39121E-06 3.08677E-05-4.86620E-19-1.02279E-19
 -1      2982 3.59661E-05-1.77472E-05-7.23379E-06 2.02270E-05-1.42937E-19 1.33365E-18
 -1      2983 9.44795E-05-2.82807E-05-2.83696E-05-1.14725E-06 7.38882E-19-7.20575E-19
 -1      2984 9.44422E-05-2.81955E-05-2.83852E-05-1.06352E-06 9.24460E-19-6.82773E-19
 -1      2985 9.49340E-05-2.82103E-05-2.86024E-05-9.41856E-07 9.42111E-19-8.76538E-19
 -1      2986 9.49077E-05-2.84017E-05-2.85074E-05-1.18493E-06 5.52532E-19-1.13739E-18
 -1      2987 9.51954E-05-2.39707E-05-3.05159E-05-5.31566E-06-2.23198E-18-2.57175E-18
 -1      2988 9.51488E-05-2.49927E-05-3.00853E-05-3.80418E-06-2.01145E-18-2.45177E-18
 -1      2989 9.52144E-05-2.47016E-05-3.02196E-05-3.54442E-06-1.76664E-18-2.62103E-18
 -1      2990 1.28174E-04-1.01589E-05-5.12375E-05 9.74118E-07-3.57829E-18-2.13006E-18
 -1      2991 1.28928E-04-1.13242E-05-5.09651E-05-5.15633E-06-3.82181E-18-2.40912E-18
 -1      2992 1.15005E-04-5.77404E-05-2.48756E-05 2.92834E-05 1.47151E-18-4.70904E-19
 -1      2993 1.00825E-04-5.19721E-05-2.03724E-05 3.49989E-05 1.77220E-18-1.22567E-18
 -1      2994 1.32618E-04-1.89716E-05-4.91859E-05 1.11506E-05-2.29080E-18-4.18508E-18
 -1      2995 1.30168E-04-1.29904E-05-5.08593E-05 6.68302E-06-2.83142E-18-3.13895E-18
 -1      2996 1.22694E-04-5.88589E-05-2.71273E-05-2.25581E-05 6.12828E-19-4.98717E-18
 -1      2997 1.32717E-04-5.92104E-05-3.18510E-05-1.40986E-05 1.00786E-18-5.16616E-18
 -1      2998 9.12000E-05-1.60951E-05-3.22158E-05 4.92531E-06 2.38650E-18-3.07035E-18
 -1      2999 9.08604E-05-1.55967E-05-3.22777E-05 4.00138E-06 1.98972E-18-3.37467E-18
 -1      3000 9.18413E-05-1.72063E-05-3.19707E-05 3.20427E-06 1.74595E-18-3.25000E-18
 -1      3001 9.25032E-05-1.82661E-05-3.17959E-05 4.62351E-06 2.28701E-18-2.73904E-18
 -1      3002 9.08270E-05-1.55514E-05-3.22828E-05-3.93880E-06-7.12241E-19-4.08998E-18
 -1      3003 9.11552E-05-1.60326E-05-3.22223E-05-4.86872E-06-1.13773E-18-4.13589E-18
 -1      3004 1.29943E-04-1.69736E-05-4.91450E-05-9.70225E-06 1.08018E-18-1.36420E-18
 -1      3005 1.32056E-04-2.42197E-05-4.66057E-05-1.27051E-05 4.29446E-19-1.37262E-18
 -1      3006 1.36698E-04-4.23195E-05-4.06327E-05 9.58806E-06 9.08760E-19 7.34166E-19
 -1      3007 1.32566E-04-3.24186E-05-4.37142E-05 1.35292E-05 1.85818E-18 1.01829E-18
 -1      3008 1.32816E-04-4.59640E-05-3.73713E-05 8.41961E-06 7.20282E-19 1.30141E-18
 -1      3009 6.41166E-05-3.20601E-05-1.32487E-05-3.54453E-05 1.17314E-19-2.70638E-18
 -1      3010 8.12290E-05-4.24148E-05-1.64805E-05-3.87822E-05 8.19822E-19-2.48054E-18
 -1      3011 9.07462E-05-4.47963E-05-1.93881E-05-3.44520E-05 8.93937E-19-3.10745E-18
 -1      3012 3.05933E-05-1.29455E-05-7.08936E-06-6.89602E-06-1.19919E-18-2.97203E-18
 -1      3013 3.61516E-05-1.69664E-05-7.76882E-06-2.06859E-05-1.61932E-18-4.99898E-18
 -1      3014 1.28182E-04-2.03252E-05-4.65404E-05 1.28018E-05 2.77297E-18 1.43948E-18
 -1      3015 1.26784E-04-1.39317E-05-4.90790E-05 7.57701E-06 2.91231E-18 1.10506E-18
 -1      3016 1.37507E-04-3.20092E-05-4.59081E-05-1.18369E-05-4.81326E-19-1.60682E-18
 -1      3017 1.39369E-04-4.08820E-05-4.23187E-05-9.63299E-06-1.88465E-19-1.16319E-18
 -1      3018 3.06548E-05-1.38106E-05-6.69665E-06 8.86778E-06-5.29713E-19 2.19000E-18
 -1      3019 3.03681E-05-1.33654E-05-6.85293E-06-6.33126E-06-1.02221E-18 1.07086E-18
 -1      3020 7.67788E-05-4.07685E-05-1.48202E-05-3.86381E-05-2.94016E-18-2.44930E-18
 -1      3021 9.60518E-05-5.02346E-05-1.98541E-05-3.67322E-05-2.65746E-18-3.18220E-18
 -1      3022 3.81676E-05-1.78796E-05-8.19726E-06 2.21508E-05-3.50089E-19-2.80834E-18
 -1      3023 3.11002E-05-1.31702E-05-7.13287E-06 7.93252E-06-5.13937E-19-2.11822E-18
 -1      3024 1.31708E-04-5.90863E-05-3.13508E-05 1.62164E-05 5.31566E-19-3.42932E-18
 -1      3025 1.22678E-04-5.88804E-05-2.72717E-05 2.32845E-05 3.69306E-19-3.74150E-18
 -1      3026 1.33892E-04-5.75731E-05-3.26240E-05 8.19195E-06 8.27392E-19-2.12626E-18
 -1      3027 1.38029E-04-3.84498E-05-4.28380E-05 1.07273E-05-1.44874E-18-5.78852E-18
 -1      3028 1.35420E-04-2.89726E-05-4.63677E-05 1.20903E-05-1.91758E-18-5.42207E-18
 -1      3029 1.31418E-04-1.61071E-05-5.01625E-05-9.61756E-06-1.69936E-18-1.84860E-18
 -1      3030 1.34723E-04-2.27981E-05-4.84133E-05-1.23107E-05-3.90482E-19-1.44652E-18
 -1      3031 1.37582E-04-5.53374E-05-3.52707E-05-4.76873E-06 9.64387E-19-5.31905E-18
 -1      3032 1.39699E-04-4.91235E-05-3.94437E-05 2.86019E-06 1.64377E-20-5.37368E-18
 -1      3033 1.33804E-04-5.67430E-05-3.29416E-05-6.21050E-06 7.10952E-19-4.70733E-18
 -1      3034 1.26087E-04-9.96506E-06-5.04209E-05 1.56161E-06 2.41531E-18 2.29969E-19
 -1      3035 1.27793E-04-1.15349E-05-5.03767E-05-5.32695E-06 1.69788E-18-1.06604E-18
 -1      3036 1.23006E-04-1.54163E-05-4.64135E-05-8.11048E-06 1.16753E-18-1.57162E-18
 -1      3037 9.52023E-05-2.62085E-05-2.95669E-05-5.53875E-06-9.91523E-19 9.06950E-20
 -1      3038 9.15854E-05-1.66923E-05-3.21200E-05-5.58840E-06-1.46439E-18-4.00419E-18
 -1      3039 9.20544E-05-1.74398E-05-3.20245E-05-6.45807E-06-1.87405E-18-3.87565E-18
 -1      3040 9.24435E-05-1.81976E-05-3.18062E-05-4.56637E-06-1.33655E-18-3.74136E-18
 -1      3041 9.13219E-05-1.63973E-05-3.20984E-05 2.85168E-08 7.00542E-19-3.58049E-18
 -1      3042 9.01990E-05-1.46099E-05-3.24148E-05-3.83718E-07 6.49739E-19-3.92344E-18
 -1      3043 9.02549E-05-1.46902E-05-3.24046E-05-1.34258E-06 2.62439E-19-3.99404E-18
 -1      3044 9.43491E-05-2.14227E-05-3.12585E-05 7.23011E-06 3.09799E-18-1.25097E-18
 -1      3045 1.20896E-04-5.70745E-05-2.71836E-05 2.03289E-05 1.53144E-18-2.29281E-19
 -1      3046 1.25017E-04-1.48963E-05-4.75707E-05-8.02284E-06-1.97073E-18-6.70691E-19
 -1      3047 9.30375E-05-4.63182E-05-1.96242E-05 3.44007E-05 2.07756E-18 2.50695E-19
 -1      3048 8.02370E-05-4.27027E-05-1.56158E-05 3.90188E-05 4.38234E-19-4.14718E-18
 -1      3049 7.34392E-05-3.66545E-05-1.53365E-05 3.68087E-05 5.72065E-19-3.43218E-18
 -1      3050 9.21611E-05-4.72131E-05-1.91813E-05 3.55296E-05 9.46348E-19-3.77988E-18
 -1      3051 9.23918E-05-2.38024E-05-2.93896E-05 5.62030E-06 1.25933E-18-3.00680E-19
 -1      3052 9.29198E-05-2.39872E-05-2.95645E-05 5.33591E-06 1.81929E-18-1.13508E-18
 -1      3053 9.35704E-05-2.46093E-05-2.95369E-05 5.63519E-06 2.04686E-18-5.17020E-19
 -1      3054 4.04998E-05-1.51565E-05-1.01883E-05 1.31812E-05-1.71974E-19 1.74828E-18
 -1      3055 9.46563E-05-2.56881E-05-2.95705E-05 5.78796E-06 6.93184E-19-1.87561E-19
 -1      3056 4.79026E-05-1.99166E-05-1.13564E-05-2.36731E-05-2.39424E-18-3.60953E-18
 -1      3057 5.78657E-05-2.60150E-05-1.33463E-05 3.04189E-05 2.57392E-19-2.77795E-18
 -1      3058 4.72589E-05-2.15494E-05-1.03780E-05 2.68170E-05 1.77877E-19-3.17394E-18
 -1      3059 4.79215E-05-1.75462E-05-1.26217E-05 2.05886E-05-3.31719E-19-2.25554E-18
 -1      3060 5.41868E-05-2.07084E-05-1.39889E-05-2.42740E-05-1.46846E-18-1.60026E-18
 -1      3061 5.84377E-05-2.62998E-05-1.32640E-05-3.10102E-05-6.65662E-19-1.76003E-18
 -1      3062 6.90408E-05-3.01095E-05-1.63818E-05-3.08480E-05-1.07449E-18-3.11041E-18
 -1      3063 4.04285E-05-1.43203E-05-1.05415E-05-9.92953E-06-9.65353E-19 2.71474E-19
 -1      3064 9.45769E-05-2.55347E-05-2.95900E-05-5.60857E-06-1.14178E-18 5.34878E-19
 -1      3065 7.31993E-05-3.56522E-05-1.55741E-05-3.54390E-05-3.19236E-18-2.64348E-18
 -1      3066 9.46116E-05-2.24653E-05-3.09127E-05 5.70450E-06 2.82587E-18-1.47411E-18
 -1      3067 1.18151E-04-5.66756E-05-2.61274E-05-2.32648E-05 1.26573E-18-3.94630E-18
 -1      3068 9.28691E-05-1.86374E-05-3.18104E-05-7.07150E-06-2.09482E-18-3.57190E-18
 -1      3069 9.42374E-05-2.09650E-05-3.14402E-05-7.74137E-06-2.60172E-18-2.94405E-18
 -1      3070 9.47407E-05-2.27730E-05-3.08479E-05-6.05483E-06-2.39739E-18-2.73603E-18
 -1      3071 9.35195E-05-2.00318E-05-3.14767E-05-5.75104E-06-1.84252E-18-3.41775E-18
 -1      3072 1.31121E-04-2.81263E-05-4.44056E-05-1.38987E-05 2.41616E-19-2.68721E-19
 -1      3073 1.26228E-04-2.74276E-05-4.26299E-05 1.38741E-05 1.54435E-18 1.75410E-18
 -1      3074 9.45884E-05-2.24130E-05-3.09124E-05-5.48405E-06-2.05714E-18-2.88259E-18
 -1      3075 1.05097E-04-5.16753E-05-2.26251E-05-3.00074E-05-2.73020E-18-3.04649E-18
 -1      3076 1.28679E-04-2.43748E-05-4.49673E-05 1.33348E-05-1.35557E-18-3.78348E-18
 -1      3077 1.28479E-04-5.63585E-05-3.08541E-05-9.65618E-06-6.48563E-19-5.05467E-19
 -1      3078 1.30020E-04-4.42203E-05-3.68755E-05-1.01269E-05 2.41960E-19-1.29670E-18
 -1      3079 1.34873E-04-5.16889E-05-3.57683E-05-3.24725E-06 4.38555E-19-4.83126E-19
 -1      3080 1.29560E-04-5.37775E-05-3.25501E-05 2.48662E-06 7.54749E-19-9.35071E-19
 -1      3081 1.36852E-04-4.58491E-05-3.90135E-05-7.79876E-06 9.16913E-20-8.62385E-19
 -1      3082 1.28383E-04-2.99212E-05-4.24006E-05-1.41823E-05 4.95197E-19-1.70280E-18
 -1      3083 1.16996E-04-5.78227E-05-2.52227E-05 2.71061E-05 3.53213E-19-3.47310E-18
 -1      3084 1.08960E-04-5.42068E-05-2.32541E-05 2.98762E-05 3.97100E-19-2.67516E-18
 -1      3085 1.22910E-04-5.80514E-05-2.77592E-05 1.91429E-05 1.00358E-18-2.00662E-18
 -1      3086 1.23820E-04-1.30957E-05-4.79239E-05 3.94883E-06-2.72554E-18-2.17523E-18
 -1      3087 9.03793E-05-1.48818E-05-3.23764E-05-2.18026E-06-3.55692E-20-3.94523E-18
 -1      3088 9.05617E-05-1.51450E-05-3.23434E-05-3.13307E-06-4.26269E-19-4.03115E-18
 -1      3089 9.18111E-05-1.71681E-05-3.19761E-05-3.14255E-06-5.64763E-19-3.74337E-18
 -1      3090 9.14388E-05-1.65809E-05-3.20692E-05-1.58464E-06 8.66143E-20-3.67151E-18
 -1      3091 3.84883E-05-1.29552E-05-1.02996E-05 5.52267E-07-6.16164E-19-2.22389E-18
 -1      3092 1.20782E-04-1.37417E-05-4.62858E-05 4.67643E-06 1.80714E-18 2.50325E-19
 -1      3093 9.47745E-05-2.59044E-05-2.95154E-05-6.36543E-06-2.49598E-18-5.45306E-19
 -1      3094 9.40135E-05-2.50845E-05-2.95458E-05-5.95156E-06-2.03703E-18 1.09515E-18
 -1      3095 9.36302E-05-2.49198E-05-2.94431E-05-6.42635E-06-2.46280E-18 6.66782E-19
 -1      3096 9.49458E-05-2.60737E-05-2.95092E-05-6.82316E-06-2.52997E-18-1.76951E-19
 -1      3097 1.35481E-04-4.40523E-05-3.93317E-05 8.86369E-06-4.54486E-19-4.98394E-18
 -1      3098 6.02779E-05-2.79039E-05-1.32859E-05 3.16774E-05 1.46801E-19-1.24937E-20
 -1      3099 1.22209E-04-5.54778E-05-2.87760E-05 1.40610E-05 6.51279E-19 1.46775E-19
 -1      3100 1.14396E-04-5.40675E-05-2.54601E-05 2.33591E-05 9.10799E-19-5.67618E-19
 -1      3101 9.42817E-05-2.18506E-05-3.10633E-05 4.97987E-06 2.57482E-18-1.88719E-18
 -1      3102 9.38246E-05-2.09097E-05-3.12511E-05 4.63159E-06 2.39204E-18-2.26249E-18
 -1      3103 4.42433E-05-1.27097E-05-1.31408E-05 7.36616E-06-2.89275E-19-1.21528E-18
 -1      3104 4.35680E-05-1.23426E-05-1.30235E-05-6.55669E-06-6.89167E-19-2.58620E-18
 -1      3105 9.49324E-05-2.34739E-05-3.06205E-05-4.12941E-06-1.66938E-18-3.03379E-18
 -1      3106 9.51594E-05-2.45877E-05-3.02632E-05-2.97315E-06-1.58494E-18-2.91530E-18
 -1      3107 9.56882E-05-2.68626E-05-2.94817E-05-7.39688E-07-1.03292E-18-2.15364E-18
 -1      3108 9.56638E-05-2.73058E-05-2.93043E-05-2.07834E-07-9.01772E-19-2.14448E-18
 -1      3109 9.57074E-05-2.76845E-05-2.91416E-05 1.81045E-07-8.32333E-19-1.93508E-18
 -1      3110 9.56718E-05-2.79631E-05-2.90223E-05 5.07305E-07-7.38929E-19-1.92469E-18
 -1      3111 9.59075E-05-2.73000E-05-2.94061E-05-1.45145E-07-7.46607E-19-1.88014E-18
 -1      3112 9.56620E-05-2.81908E-05-2.89086E-05 7.42635E-07-7.59221E-19-1.81124E-18
 -1      3113 9.56316E-05-2.83605E-05-2.88322E-05 9.27808E-07-7.86427E-19-1.80884E-18
 -1      3114 9.59458E-05-2.80045E-05-2.91214E-05 5.13046E-07-7.23911E-19-1.72930E-18
 -1      3115 9.55963E-05-2.84873E-05-2.87562E-05 1.05740E-06-6.91830E-19-1.73066E-18
 -1      3116 9.55758E-05-2.85825E-05-2.87114E-05 1.15186E-06-6.49476E-19-1.56686E-18
 -1      3117 9.59063E-05-2.84260E-05-2.89237E-05 9.06003E-07-7.12542E-19-1.76630E-18
 -1      3118 9.55288E-05-2.86397E-05-2.86641E-05 1.21484E-06-5.25439E-19-1.17601E-18
 -1      3119 9.55178E-05-2.86825E-05-2.86426E-05 1.25687E-06-5.63869E-19-9.35194E-19
 -1      3120 9.58292E-05-2.86523E-05-2.87932E-05 1.12059E-06-4.89218E-19-1.33505E-18
 -1      3121 9.54659E-05-2.86903E-05-2.86172E-05 1.28419E-06-7.45569E-19-6.88003E-19
 -1      3122 9.54628E-05-2.86948E-05-2.86129E-05 1.30262E-06-2.78773E-19-6.87675E-19
 -1      3123 9.57345E-05-2.87405E-05-2.87142E-05 1.22790E-06-5.09291E-19-9.41214E-19
 -1      3124 9.54087E-05-2.86664E-05-2.86042E-05 1.31823E-06-3.47315E-19-7.14470E-19
 -1      3125 9.54118E-05-2.86418E-05-2.86130E-05 1.33491E-06-5.52025E-19-9.55857E-19
 -1      3126 9.56317E-05-2.87285E-05-2.86748E-05 1.28389E-06-4.61946E-19-7.35714E-19
 -1      3127 9.53559E-05-2.85854E-05-2.86173E-05 1.35739E-06-5.24461E-19-5.20640E-19
 -1      3128 9.53638E-05-2.85379E-05-2.86365E-05 1.38922E-06-2.46093E-19-7.64194E-19
 -1      3129 9.55241E-05-2.86408E-05-2.86658E-05 1.33202E-06-4.10802E-19-3.83507E-19
 -1      3130 9.53050E-05-2.84582E-05-2.86509E-05 1.43332E-06-2.65166E-19-8.81375E-19
 -1      3131 9.53168E-05-2.83914E-05-2.86786E-05 1.49381E-06-2.96916E-19-8.59020E-19
 -1      3132 9.54112E-05-2.84927E-05-2.86804E-05 1.40633E-06-3.19187E-19-3.69224E-19
 -1      3133 9.52529E-05-2.82909E-05-2.87010E-05 1.57162E-06-3.30891E-19-1.29029E-18
 -1      3134 9.52683E-05-2.82075E-05-2.87361E-05 1.67195E-06-3.82969E-19-9.79638E-19
 -1      3135 9.52899E-05-2.82934E-05-2.87133E-05 1.53415E-06-5.03508E-19-1.27956E-18
 -1      3136 9.51965E-05-2.80875E-05-2.87648E-05 1.79375E-06-7.99574E-19-9.89466E-19
 -1      3137 9.52155E-05-2.79892E-05-2.88065E-05 1.94344E-06-8.91752E-19-8.20188E-19
 -1      3138 9.51553E-05-2.80477E-05-2.87605E-05 1.73814E-06-5.61158E-19-1.19515E-18
 -1      3139 9.51325E-05-2.78507E-05-2.88396E-05 2.11820E-06-9.54176E-19-7.66373E-19
 -1      3140 9.51560E-05-2.77401E-05-2.88871E-05 2.32531E-06-9.18002E-19-1.07614E-18
 -1      3141 9.50015E-05-2.77587E-05-2.88179E-05 2.03761E-06-8.99946E-19-1.24206E-18
 -1      3142 9.50589E-05-2.75849E-05-2.89228E-05 2.56090E-06-8.06867E-19-1.01849E-18
 -1      3143 9.50886E-05-2.74665E-05-2.89748E-05 2.83180E-06-6.71605E-19-1.06217E-18
 -1      3144 9.48225E-05-2.74304E-05-2.88814E-05 2.44930E-06-8.53332E-19-1.06111E-18
 -1      3145 9.49757E-05-2.72993E-05-2.90103E-05 3.13479E-06-4.99624E-19-1.00708E-18
 -1      3146 9.50155E-05-2.71813E-05-2.90650E-05 3.47344E-06-3.94971E-19-6.74635E-19
 -1      3147 9.46136E-05-2.70701E-05-2.89457E-05 2.98745E-06-5.45380E-19-1.12283E-18
 -1      3148 9.48879E-05-2.70120E-05-2.90965E-05 3.84871E-06-2.71705E-19-3.82425E-19
 -1      3149 9.49456E-05-2.69093E-05-2.91508E-05 4.25535E-06-3.81960E-19-3.37591E-19
 -1      3150 9.43740E-05-2.66940E-05-2.90036E-05 3.66335E-06-3.14958E-19-8.90254E-19
 -1      3151 9.48103E-05-2.67566E-05-2.91730E-05 4.70545E-06-3.13975E-19-4.37547E-19
 -1      3152 9.49010E-05-2.66953E-05-2.92225E-05 5.17471E-06 2.49449E-19-8.05511E-19
 -1      3153 9.41111E-05-2.63327E-05-2.90456E-05 4.48469E-06-2.02343E-19-4.43036E-19
 -1      3154 9.47760E-05-2.65920E-05-2.92285E-05 5.69901E-06 2.21936E-19-7.26697E-19
 -1      3155 9.49275E-05-2.66152E-05-2.92670E-05 6.21725E-06 6.40640E-19-8.86880E-19
 -1      3156 9.38484E-05-2.60406E-05-2.90586E-05 5.45470E-06 2.65288E-19-7.94268E-19
 -1      3157 9.48499E-05-2.66155E-05-2.92486E-05 6.81070E-06 7.78318E-19-8.94291E-19
 -1      3158 9.51115E-05-2.67908E-05-2.92687E-05 7.35222E-06 8.17278E-19-1.14907E-18
 -1      3159 9.36382E-05-2.59092E-05-2.90266E-05 6.57139E-06 5.24930E-19-5.06596E-19
 -1      3160 9.51500E-05-2.69793E-05-2.92175E-05 8.00289E-06 3.45877E-19-1.17724E-18
 -1      3161 9.56042E-05-2.74072E-05-2.92131E-05 8.52403E-06 1.91729E-19-1.07310E-18
 -1      3162 9.35810E-05-2.60835E-05-2.89317E-05 7.82612E-06 5.69969E-19-6.20633E-19
 -1      3163 9.58770E-05-2.79073E-05-2.91235E-05 9.20688E-06 1.51008E-19-7.08542E-19
 -1      3164 9.66520E-05-2.87256E-05-2.90939E-05 9.63564E-06 1.87245E-19-6.40502E-19
 -1      3165 9.38554E-05-2.67825E-05-2.87585E-05 9.19857E-06 3.49685E-19 6.06687E-20
 -1      3166 9.73498E-05-2.97028E-05-2.89707E-05 1.02951E-05 4.80149E-19-9.67910E-19
 -1      3167 9.86238E-05-3.10755E-05-2.89296E-05 1.05113E-05 9.31170E-19-8.87769E-19
 -1      3168 9.47590E-05-2.83167E-05-2.85043E-05 1.06391E-05 2.04340E-19-4.23036E-19
 -1      3169 1.00030E-04-3.27172E-05-2.88021E-05 1.10167E-05 1.45749E-18-9.40437E-19
 -1      3170 1.02002E-04-3.47768E-05-2.87945E-05 1.08173E-05 1.56118E-18-1.01686E-18
 -1      3171 9.67554E-05-3.10857E-05-2.81997E-05 1.20150E-05 1.19374E-18-1.47659E-18
 -1      3172 1.04481E-04-3.72127E-05-2.87432E-05 1.08698E-05 1.28267E-18-1.30025E-18
 -1      3173 1.07249E-04-3.98886E-05-2.88686E-05 9.92471E-06 7.94064E-19-3.31225E-19
 -1      3174 1.00495E-04-3.54953E-05-2.79505E-05 1.29773E-05 1.59928E-18-1.61702E-18
 -1      3175 1.11106E-04-4.29554E-05-2.90686E-05 8.93631E-06 7.69031E-19 4.48118E-19
 -1      3176 1.14440E-04-4.56401E-05-2.95116E-05 6.80639E-06 1.08346E-18 6.79155E-19
 -1      3177 1.06708E-04-4.16373E-05-2.80122E-05 1.27377E-05 1.50464E-18-6.03895E-19
 -1      3178 1.19489E-04-4.83958E-05-3.03115E-05 3.97775E-06 1.07390E-18 7.89842E-19
 -1      3179 1.22596E-04-4.92846E-05-3.14228E-05 2.20114E-07 1.61651E-18 1.09077E-18
 -1      3180 1.15546E-04-4.83849E-05-2.89012E-05 9.83967E-06 1.22008E-18 2.32987E-19
 -1      3181 1.28275E-04-3.88443E-05-3.89354E-05-1.37388E-05 6.72544E-19 5.62615E-19
 -1      3182 1.26059E-04-3.04734E-05-4.12268E-05-1.46070E-05 3.64859E-19-1.43996E-19
 -1      3183 1.18250E-04-1.34392E-05-4.55438E-05-3.53220E-06-2.75857E-18-2.86727E-19
 -1      3184 1.18351E-04-1.34396E-05-4.53450E-05 3.52690E-06-2.19816E-18-1.41481E-18
 -1      3185 1.23611E-04-2.43878E-05-4.28412E-05 1.24283E-05-8.44386E-19-2.82128E-18
 -1      3186 1.26106E-04-3.22006E-05-4.05704E-05 1.50138E-05-1.33159E-18-2.62485E-18
 -1      3187 1.27221E-04-3.91003E-05-3.81712E-05 1.29090E-05-1.77395E-18-2.04932E-18
 -1      3188 1.26795E-04-4.79418E-05-3.38010E-05 5.88247E-06-2.26657E-18-2.44409E-19
 -1      3189 1.24996E-04-4.98116E-05-3.21376E-05 1.56046E-06-1.95181E-18-1.73569E-19
 -1      3190 1.20060E-04-4.86854E-05-3.06538E-05-2.89304E-06-1.38633E-18-2.51632E-19
 -1      3191 1.16923E-04-4.70037E-05-2.98239E-05-6.02544E-06-3.93549E-19-8.66296E-19
 -1      3192 1.22816E-04-5.15493E-05-3.06988E-05-4.71604E-06-1.83284E-18-2.14637E-19
 -1      3193 1.12281E-04-4.41318E-05-2.92445E-05-8.41667E-06 4.81796E-19-8.68978E-19
 -1      3194 1.09096E-04-4.13536E-05-2.89180E-05-1.01851E-05 7.43607E-19-2.62094E-19
 -1      3195 1.13210E-04-4.66576E-05-2.86564E-05-1.09242E-05 1.06404E-19 1.46543E-18
 -1      3196 1.05716E-04-3.84966E-05-2.88103E-05-1.09201E-05 9.26106E-19-5.23526E-19
 -1      3197 1.03199E-04-3.59809E-05-2.87378E-05-1.16481E-05 1.01562E-18-5.90267E-19
 -1      3198 1.05221E-04-3.99977E-05-2.80599E-05-1.32052E-05 6.73514E-19-6.37978E-19
 -1      3199 1.01095E-04-3.38185E-05-2.88208E-05-1.15394E-05-2.35896E-19-1.78200E-18
 -1      3200 9.93549E-05-3.19582E-05-2.88481E-05-1.16333E-05-2.92334E-19-1.80183E-18
 -1      3201 9.98658E-05-3.44496E-05-2.81107E-05-1.32724E-05-4.05271E-19-2.34990E-18
 -1      3202 9.81929E-05-3.05295E-05-2.89835E-05-1.11562E-05 1.13650E-18-1.43916E-18
 -1      3203 9.70795E-05-2.92999E-05-2.90326E-05-1.08939E-05 1.79526E-18-1.13281E-18
 -1      3204 9.67128E-05-3.05715E-05-2.83904E-05-1.23614E-05 9.03991E-19-2.27252E-18
 -1      3205 9.65228E-05-2.84454E-05-2.91625E-05-1.02800E-05 1.12432E-18 1.77316E-19
 -1      3206 9.58352E-05-2.76833E-05-2.92032E-05-9.82586E-06 1.00805E-18 2.41209E-19
 -1      3207 9.50684E-05-2.81435E-05-2.87047E-05-1.10988E-05 2.03488E-18-3.03609E-18
 -1      3208 9.56188E-05-2.72024E-05-2.93108E-05-9.17112E-06 3.50110E-19-4.57688E-20
 -1      3209 9.51971E-05-2.67392E-05-2.93386E-05-8.60710E-06-6.51195E-19-4.02341E-19
 -1      3210 9.43375E-05-2.67300E-05-2.89826E-05-9.74818E-06 3.23060E-19-1.88529E-18
 -1      3211 9.52055E-05-2.65316E-05-2.94233E-05-8.02887E-06-1.73828E-18-1.57371E-21
 -1      3212 9.49224E-05-2.62218E-05-2.94426E-05-7.39552E-06-2.11802E-18-7.98040E-20
 -1      3213 9.41826E-05-2.56283E-05-2.93851E-05-7.30025E-06-2.39066E-18-1.01875E-18
 -1      3214 9.41547E-05-2.60110E-05-2.92085E-05-8.47299E-06-1.31094E-18-1.04690E-18
 -1      3215 9.76794E-05-4.57883E-05-2.16919E-05-2.99880E-05-2.56423E-18-3.60210E-18
 -1      3216 1.10943E-04-5.27351E-05-2.53262E-05-2.40877E-05-2.40420E-18-2.57445E-18
 -1      3217 8.95506E-05-2.18422E-05-2.90149E-05-2.99613E-06 6.38011E-19-1.24128E-18
 -1      3218 8.92130E-05-2.15912E-05-2.89956E-05-1.88997E-06 1.53700E-18-2.25890E-18
 -1      3219 9.53763E-05-2.79301E-05-2.89092E-05-4.96987E-07 8.53084E-19-1.17777E-18
 -1      3220 9.54287E-05-2.76782E-05-2.90231E-05-1.56644E-07 1.09096E-18-1.18819E-18
 -1      3221 1.28737E-04-5.55432E-05-3.12470E-05-6.48891E-06-2.74154E-19-2.85246E-18
 -1      3222 1.31700E-04-5.29935E-05-3.40711E-05 5.97601E-07-2.36163E-19-3.17606E-18
 -1      3223 9.52511E-05-2.86386E-05-2.85461E-05-1.31100E-06 1.49833E-19-9.80950E-19
 -1      3224 9.52283E-05-2.86230E-05-2.85441E-05-1.29908E-06 3.38469E-19-1.09340E-18
 -1      3225 9.52619E-05-2.86084E-05-2.85645E-05-1.27415E-06 4.44270E-19-1.16036E-18
 -1      3226 9.52513E-05-2.85603E-05-2.85790E-05-1.23638E-06 3.77914E-19-1.11010E-18
 -1      3227 9.55253E-05-2.86843E-05-2.86490E-05-1.26733E-06 3.06941E-19-9.44135E-19
 -1      3228 9.52620E-05-2.85465E-05-2.85891E-05-1.36633E-06-3.21688E-19-5.26495E-19
 -1      3229 9.52231E-05-2.85744E-05-2.85651E-05-1.34473E-06-1.45533E-19-8.08630E-19
 -1      3230 9.52802E-05-2.84449E-05-2.86399E-05-1.44989E-06 1.16904E-20 1.00129E-19
 -1      3231 9.52345E-05-2.84881E-05-2.86076E-05-1.40149E-06-1.13141E-19-3.86941E-19
 -1      3232 9.53526E-05-2.85270E-05-2.86408E-05-1.41040E-06-3.62072E-19-9.29681E-19
 -1      3233 9.53057E-05-2.83140E-05-2.87063E-05-1.60370E-06 1.57194E-19-1.32186E-19
 -1      3234 9.52524E-05-2.83700E-05-2.86666E-05-1.51745E-06 2.03354E-19 1.71363E-19
 -1      3235 9.52980E-05-2.83755E-05-2.86820E-05-1.52016E-06 6.41784E-20-7.27069E-19
 -1      3236 9.53390E-05-2.81577E-05-2.87869E-05-1.84744E-06 1.81905E-19-3.09603E-21
 -1      3237 9.52762E-05-2.82242E-05-2.87399E-05-1.71403E-06 2.24618E-19 1.20304E-20
 -1      3238 9.52409E-05-2.81865E-05-2.87382E-05-1.70445E-06 1.04525E-19-7.98519E-20
 -1      3239 9.53812E-05-2.79800E-05-2.88804E-05-2.19791E-06-3.55018E-19 5.13970E-19
 -1      3240 9.53062E-05-2.80541E-05-2.88262E-05-2.00951E-06-2.19250E-19 2.36455E-19
 -1      3241 9.51784E-05-2.79637E-05-2.88067E-05-1.98293E-06-1.44127E-19 2.39517E-19
 -1      3242 9.54355E-05-2.77876E-05-2.89853E-05-2.66891E-06 3.11623E-19-3.92813E-19
 -1      3243 9.53442E-05-2.78648E-05-2.89242E-05-2.41944E-06 4.46326E-20 2.61978E-21
 -1      3244 9.51084E-05-2.77114E-05-2.88845E-05-2.37243E-06-3.82222E-20 1.17047E-19
 -1      3245 9.55083E-05-2.75929E-05-2.90992E-05-3.26983E-06-1.74127E-19-6.11628E-19
 -1      3246 9.53950E-05-2.76655E-05-2.90319E-05-2.95595E-06 3.24502E-19-2.82701E-19
 -1      3247 9.50306E-05-2.74377E-05-2.89682E-05-2.88679E-06 1.46778E-19-6.11987E-19
 -1      3248 9.56119E-05-2.74185E-05-2.92175E-05-4.00351E-06-6.69446E-20-4.56399E-19
 -1      3249 9.54675E-05-2.74729E-05-2.91459E-05-3.62611E-06-2.05568E-19-2.49972E-19
 -1      3250 9.49488E-05-2.71581E-05-2.90528E-05-3.53578E-06-3.28916E-19 2.11059E-20
 -1      3251 9.57696E-05-2.73039E-05-2.93335E-05-4.86242E-06-1.63105E-19-5.17246E-19
 -1      3252 9.55796E-05-2.73174E-05-2.92607E-05-4.42916E-06-1.83981E-19-3.11079E-19
 -1      3253 9.48746E-05-2.69011E-05-2.91312E-05-4.32362E-06-2.42517E-19 6.56215E-20
 -1      3254 9.60238E-05-2.73149E-05-2.94371E-05-5.82320E-06 4.94158E-21-9.60795E-20
 -1      3255 9.57645E-05-2.72508E-05-2.93677E-05-5.35209E-06 7.91178E-20-1.52581E-19
 -1      3256 9.48343E-05-2.67171E-05-2.91935E-05-5.24626E-06-2.28544E-19 6.10710E-19
 -1      3257 9.64496E-05-2.75560E-05-2.95158E-05-6.83881E-06 3.30557E-19-3.24008E-20
 -1      3258 9.60815E-05-2.73575E-05-2.94559E-05-6.36323E-06 3.45841E-19-3.83122E-20
 -1      3259 9.48801E-05-2.66889E-05-2.92271E-05-6.28775E-06 1.06240E-19 7.33283E-19
 -1      3260 9.71727E-05-2.81828E-05-2.95569E-05-7.82703E-06-1.72456E-19 3.51438E-19
 -1      3261 9.66331E-05-2.77674E-05-2.95123E-05-7.40270E-06 2.27297E-19 1.10700E-19
 -1      3262 9.51067E-05-2.69469E-05-2.92177E-05-7.41470E-06 3.11711E-19 1.64547E-19
 -1      3263 9.83900E-05-2.94093E-05-2.95537E-05-8.65222E-06-3.17106E-19-1.10805E-19
 -1      3264 9.75864E-05-2.86679E-05-2.95269E-05-8.36699E-06 1.85796E-20 8.33074E-20
 -1      3265 9.56758E-05-2.76840E-05-2.91536E-05-8.56614E-06 1.22173E-19-4.42674E-20
 -1      3266 1.00381E-04-3.14892E-05-2.95189E-05-9.09469E-06-8.77993E-19-4.52644E-19
 -1      3267 9.91937E-05-3.03028E-05-2.95019E-05-9.08209E-06-6.74020E-19-4.31749E-19
 -1      3268 9.68450E-05-2.91641E-05-2.90343E-05-9.63179E-06-2.45722E-19 1.24927E-19
 -1      3269 1.03477E-04-3.46366E-05-2.95072E-05-8.80621E-06-8.69385E-19-2.70200E-19
 -1      3270 1.01792E-04-3.29292E-05-2.94697E-05-9.25954E-06-9.65963E-19-4.15466E-19
 -1      3271 9.89881E-05-3.16984E-05-2.88885E-05-1.04066E-05-9.13839E-19-3.75646E-19
 -1      3272 1.07935E-04-3.88030E-05-2.96513E-05-7.24240E-06-1.74080E-18-6.01443E-21
 -1      3273 1.05742E-04-3.66876E-05-2.95242E-05-8.42118E-06-1.01759E-18-2.16296E-19
 -1      3274 1.02581E-04-3.55541E-05-2.88050E-05-1.05022E-05-1.34321E-18-1.06148E-18
 -1      3275 1.13582E-04-4.32497E-05-3.02018E-05-3.72820E-06-8.69006E-19-3.35496E-19
 -1      3276 1.11159E-04-4.12492E-05-2.98640E-05-5.87054E-06-1.36447E-18 1.15144E-19
 -1      3277 1.08018E-04-4.06251E-05-2.89843E-05-9.20469E-06-1.25590E-18-1.34441E-18
 -1      3278 1.19332E-04-4.58194E-05-3.15757E-05 2.33593E-06-7.35860E-19 1.14381E-18
 -1      3279 1.17480E-04-4.53048E-05-3.08405E-05-7.76711E-07-8.16625E-19 8.91343E-19
 -1      3280 1.15245E-04-4.59712E-05-2.97944E-05-5.56090E-06-1.74390E-18 8.13152E-20
 -1      3281 1.22375E-04-3.22721E-05-3.87290E-05 1.47135E-05 1.10443E-18 1.92819E-18
 -1      3282 1.24522E-04-3.88791E-05-3.69461E-05 1.35323E-05 8.13152E-19 1.99198E-18
 -1      3283 1.15426E-04-1.79549E-05-4.20509E-05 9.23749E-06 8.46768E-19 5.69841E-19
 -1      3284 1.17813E-04-2.33646E-05-4.09311E-05 1.27687E-05 1.33392E-18 1.77644E-18
 -1      3285 1.14826E-04-1.52171E-05-4.32062E-05-3.46208E-06 1.20242E-18-1.04587E-18
 -1      3286 1.14837E-04-1.49457E-05-4.31963E-05 2.56043E-06 6.44169E-19-6.07078E-19
 -1      3287 1.19419E-04-2.45634E-05-4.11761E-05-1.30710E-05 9.22525E-19-1.27317E-18
 -1      3288 1.16836E-04-1.87102E-05-4.23609E-05-9.11516E-06 1.28463E-18-1.31158E-18
 -1      3289 1.24458E-04-3.86651E-05-3.70748E-05-1.32429E-05 1.82086E-19-7.35198E-19
 -1      3290 1.22163E-04-3.21644E-05-3.87524E-05-1.37969E-05 6.35751E-19-1.14155E-18
 -1      3291 1.23998E-04-4.62407E-05-3.33844E-05-6.75749E-06 6.82259E-21-6.14503E-19
 -1      3292 1.23959E-04-4.30208E-05-3.47867E-05-9.81108E-06 1.20768E-19-1.02544E-18
 -1      3293 1.11767E-04-4.18856E-05-2.98493E-05 6.09440E-06-9.74167E-19 1.00479E-18
 -1      3294 1.14211E-04-4.38097E-05-3.02312E-05 3.83028E-06-8.83404E-19 8.77132E-19
 -1      3295 1.06185E-04-3.73167E-05-2.94434E-05 9.01753E-06 4.53560E-19 9.57025E-19
 -1      3296 1.08467E-04-3.94725E-05-2.95946E-05 7.69972E-06-2.40101E-19 9.17756E-19
 -1      3297 1.08832E-04-4.15423E-05-2.89712E-05 9.66618E-06-6.55926E-19-4.94308E-19
 -1      3298 1.02067E-04-3.34342E-05-2.93687E-05 1.00960E-05 6.84797E-19-3.56361E-19
 -1      3299 1.03846E-04-3.52115E-05-2.94147E-05 9.52493E-06 6.92729E-19 1.20355E-18
 -1      3300 1.03164E-04-3.62905E-05-2.87415E-05 1.12502E-05 4.49785E-19-8.23872E-21
 -1      3301 9.93219E-05-3.06414E-05-2.94094E-05 1.00810E-05-8.79123E-20-4.55562E-19
 -1      3302 1.00589E-04-3.19145E-05-2.94241E-05 1.00152E-05 4.60951E-19-2.23860E-20
 -1      3303 9.94127E-05-3.22698E-05-2.88264E-05 1.13469E-05-1.45512E-19-2.59088E-19
 -1      3304 9.75912E-05-2.88141E-05-2.94637E-05 9.45992E-06 1.25703E-18-1.42342E-19
 -1      3305 9.84661E-05-2.96598E-05-2.94791E-05 9.70595E-06 8.62361E-19-2.92192E-19
 -1      3306 9.71574E-05-2.95599E-05-2.90017E-05 1.07041E-05 2.80727E-19 8.29798E-19
 -1      3307 9.65369E-05-2.76773E-05-2.95000E-05 8.50212E-06 1.20719E-18-2.25529E-19
 -1      3308 9.71331E-05-2.82221E-05-2.95233E-05 8.93052E-06 5.34044E-19-6.10857E-19
 -1      3309 9.58845E-05-2.78557E-05-2.91746E-05 9.70205E-06 8.16797E-19 4.19871E-19
 -1      3310 1.30490E-04-4.75782E-05-3.55849E-05 7.67579E-06-8.61882E-19-2.73555E-18
 -1      3311 1.01209E-04-4.90589E-05-2.25743E-05 3.03612E-05 1.55081E-18-1.29368E-18
 -1      3312 8.57479E-05-4.00537E-05-1.90966E-05 3.32961E-05 1.82176E-18 3.07314E-19
 -1      3313 1.06902E-04-4.89403E-05-2.45594E-05 2.41199E-05 9.55453E-19-9.64506E-19
 -1      3314 9.24049E-05-1.83436E-05-3.17557E-05 1.81384E-06 1.35639E-18-3.37725E-18
 -1      3315 9.22855E-05-1.81406E-05-3.17882E-05 1.05960E-06 1.00585E-18-3.32870E-18
 -1      3316 1.23274E-04-2.37092E-05-4.33210E-05-1.37195E-05 2.17899E-19 8.32739E-20
 -1      3317 9.23490E-05-2.40833E-05-2.92477E-05-6.40007E-06-1.83681E-18 9.74502E-19
 -1      3318 9.15239E-05-2.34502E-05-2.91940E-05-5.87433E-06-1.68917E-18 3.40817E-19
 -1      3319 8.90339E-05-2.14401E-05-2.89763E-05-5.29036E-07 1.45206E-18-3.35912E-18
 -1      3320 8.90499E-05-2.14527E-05-2.89764E-05 6.75628E-07 1.30717E-18-3.11658E-18
 -1      3321 8.83473E-05-2.13526E-05-2.86952E-05-1.30722E-06 1.94774E-18-2.25449E-18
 -1      3322 1.32170E-04-5.47829E-05-3.35693E-05 1.71183E-06 6.72531E-19 2.23855E-19
 -1      3323 1.28546E-04-5.65067E-05-3.08272E-05 8.64523E-06 1.40016E-18-1.14019E-18
 -1      3324 9.43135E-05-2.55174E-05-2.94821E-05 6.34904E-06 1.20312E-18 3.64592E-19
 -1      3325 9.52109E-05-2.42748E-05-3.04027E-05 4.28383E-06 2.49325E-18-1.30654E-18
 -1      3326 9.46437E-05-2.27335E-05-3.08083E-05 4.78503E-06 2.56200E-18-1.53758E-18
 -1      3327 9.49250E-05-2.35895E-05-3.05727E-05 3.68277E-06 2.31291E-18-1.62053E-18
 -1      3328 9.52378E-05-2.51983E-05-3.00306E-05 3.01200E-06 2.33565E-18-1.35720E-18
 -1      3329 1.22968E-04-5.52643E-05-2.86414E-05-1.32356E-05-1.55159E-18-9.71573E-19
 -1      3330 1.28336E-04-5.36010E-05-3.23405E-05-2.53472E-06-5.24856E-19-1.97994E-19
 -1      3331 1.12477E-04-5.33447E-05-2.49947E-05-2.42692E-05 1.07581E-18-2.62684E-18
 -1      3332 1.22891E-04-5.72417E-05-2.84242E-05-1.66636E-05 6.68468E-19-3.76109E-18
 -1      3333 8.51965E-05-3.92874E-05-1.93452E-05-3.24378E-05-5.36013E-19-3.66749E-18
 -1      3334 9.90324E-05-4.77453E-05-2.21207E-05-3.09293E-05 8.85944E-19-2.60876E-18
 -1      3335 9.07148E-05-2.27713E-05-2.91071E-05-5.04519E-06-6.67810E-19-5.73211E-19
 -1      3336 9.00820E-05-2.22979E-05-2.90703E-05-4.15462E-06 1.70606E-19-1.29885E-18
 -1      3337 8.91607E-05-2.19754E-05-2.87813E-05-3.91486E-06 1.28819E-18-1.49187E-18
 -1      3338 9.06442E-05-2.31130E-05-2.89415E-05-5.95370E-06-9.95198E-19-1.12376E-18
 -1      3339 4.70894E-05-1.68214E-05-1.27173E-05 1.88576E-05 5.06420E-19 1.70889E-18
 -1      3340 4.24951E-05-1.31061E-05-1.22388E-05 7.40173E-06-2.24173E-19 2.34850E-18
 -1      3341 1.20772E-04-1.66245E-05-4.49642E-05-9.25105E-06-1.32349E-18 1.68215E-19
 -1      3342 6.73855E-05-2.93294E-05-1.58345E-05-3.13506E-05-3.00983E-18-1.71905E-18
 -1      3343 8.12289E-05-3.79784E-05-1.86696E-05-3.33884E-05-3.11745E-18-2.62077E-18
 -1      3344 9.52518E-05-2.86138E-05-2.85565E-05-1.32960E-06 3.10822E-20-8.52736E-19
 -1      3345 9.52202E-05-2.86226E-05-2.85422E-05-1.32133E-06 9.82177E-20-8.10439E-19
 -1      3346 9.54644E-05-2.86929E-05-2.86186E-05-1.31608E-06-1.22916E-20-1.02485E-18
 -1      3347 9.54073E-05-2.86357E-05-2.86181E-05-1.35186E-06-1.48732E-19-8.80215E-19
 -1      3348 4.84267E-05-1.60833E-05-1.35344E-05-1.75572E-05-1.32906E-18-2.80431E-18
 -1      3349 5.68741E-05-2.25584E-05-1.44848E-05-2.70169E-05-2.55862E-18-2.17253E-18
 -1      3350 6.72566E-05-2.53922E-05-1.75232E-05-2.57107E-05-2.05411E-18-1.64430E-18
 -1      3351 9.40645E-05-2.13161E-05-3.12014E-05-5.28719E-06-1.83076E-18-3.30891E-18
 -1      3352 9.45120E-05-2.24307E-05-3.08918E-05-4.62863E-06-1.72573E-18-3.09710E-18
 -1      3353 9.34533E-05-2.01030E-05-3.14320E-05-4.88549E-06-1.53021E-18-3.45226E-18
 -1      3354 4.23990E-05-1.24655E-05-1.23521E-05-3.39128E-06-1.95561E-19 1.49607E-18
 -1      3355 4.65187E-05-1.51824E-05-1.31258E-05-1.42045E-05-2.02613E-19-3.95141E-19
 -1      3356 9.55154E-05-2.55646E-05-2.99609E-05-2.15211E-06-1.45713E-18-2.64715E-18
 -1      3357 9.55405E-05-2.62550E-05-2.97068E-05-1.33689E-06-1.20209E-18-2.48031E-18
 -1      3358 9.57147E-05-2.61787E-05-2.98015E-05-1.16594E-06-9.81088E-19-2.22991E-18
 -1      3359 6.97143E-05-3.07624E-05-1.67248E-05 3.20767E-05 1.44964E-18 1.25620E-18
 -1      3360 5.68845E-05-2.21114E-05-1.43796E-05 2.56043E-05 4.13802E-19 1.13460E-18
 -1      3361 1.31019E-04-4.64717E-05-3.62490E-05-8.39408E-06 5.58618E-19 5.75241E-19
 -1      3362 1.27692E-04-4.36500E-05-3.62103E-05 1.03138E-05 4.83841E-19 1.69899E-18
 -1      3363 1.22411E-04-4.31541E-05-3.40227E-05 9.68522E-06 1.80951E-19 2.29183E-18
 -1      3364 1.22272E-04-4.55998E-05-3.28937E-05 6.63814E-06-1.94526E-19 1.93634E-18
 -1      3365 1.29719E-04-5.04721E-05-3.39260E-05 4.59089E-06 5.38197E-20 1.15758E-18
 -1      3366 1.27871E-04-4.76153E-05-3.43798E-05-6.46426E-06 1.36168E-18 1.14659E-18
 -1      3367 9.22262E-05-1.80407E-05-3.18068E-05 4.08985E-07 8.26355E-19-3.30628E-18
 -1      3368 9.22223E-05-1.80358E-05-3.18073E-05-3.60021E-07 5.51309E-19-3.43177E-18
 -1      3369 9.31789E-05-1.96199E-05-3.15073E-05 6.29785E-07 8.55708E-19-3.10679E-18
 -1      3370 9.43627E-05-2.19771E-05-3.09974E-05 3.64484E-06 2.13096E-18-2.18883E-18
 -1      3371 9.34497E-05-2.02114E-05-3.14124E-05 4.25165E-06 2.27539E-18-2.47976E-18
 -1      3372 9.30973E-05-1.95551E-05-3.15277E-05 3.66342E-06 1.95773E-18-2.66203E-18
 -1      3373 5.26979E-05-1.49178E-05-1.57791E-05-1.05045E-05-1.04050E-18-2.45724E-18
 -1      3374 1.24725E-04-5.07842E-05-3.17969E-05-3.01220E-07-5.44803E-19 3.73877E-19
 -1      3375 1.02407E-04-5.06865E-05-2.18284E-05 3.17689E-05 1.12465E-18-2.92510E-18
 -1      3376 9.40892E-05-4.51841E-05-2.07670E-05 3.21381E-05 2.18741E-18-3.22645E-18
 -1      3377 1.09921E-04-5.28747E-05-2.45095E-05 2.56709E-05 1.62948E-18-2.12094E-18
 -1      3378 9.52559E-05-2.44918E-05-3.03333E-05-2.62502E-06-1.39370E-18-2.87706E-18
 -1      3379 1.24022E-04-5.28957E-05-3.07151E-05 5.38047E-06 1.79894E-18-2.25192E-19
 -1      3380 1.26277E-04-5.02721E-05-3.24647E-05-2.18333E-06 1.93510E-18 8.32633E-19
 -1      3381 9.16436E-05-2.35739E-05-2.91947E-05 5.90665E-06 1.03125E-18 4.51403E-19
 -1      3382 9.25010E-05-2.42120E-05-2.92433E-05 6.41943E-06 1.53211E-18-1.12152E-18
 -1      3383 4.83740E-05-1.34915E-05-1.44984E-05 2.38398E-06 2.08764E-19 2.19593E-18
 -1      3384 1.22349E-04-4.81757E-05-3.18344E-05 1.64359E-06-7.32488E-19 1.07404E-18
 -1      3385 1.20544E-04-1.71025E-05-4.49850E-05 9.86026E-06-1.06281E-18-2.14096E-18
 -1      3386 9.08394E-05-2.28920E-05-2.91087E-05 5.12103E-06 3.10780E-19 9.58534E-19
 -1      3387 9.08190E-05-2.32629E-05-2.89464E-05 6.00593E-06 5.32715E-19-1.32373E-19
 -1      3388 9.01860E-05-2.23989E-05-2.90720E-05 4.25902E-06 5.02988E-19-3.06172E-19
 -1      3389 8.08864E-05-3.43784E-05-1.96201E-05 2.92479E-05 1.69671E-18 7.93140E-19
 -1      3390 1.15258E-04-5.13696E-05-2.73042E-05-1.59881E-05-2.18145E-18-1.97879E-18
 -1      3391 5.82903E-05-1.98309E-05-1.60555E-05 2.02417E-05 1.18913E-18 1.33424E-18
 -1      3392 1.24778E-04-5.46046E-05-3.00415E-05 8.45955E-06 1.75947E-18-4.09765E-19
 -1      3393 1.24501E-04-5.71455E-05-2.89480E-05 1.48284E-05 1.51963E-18-6.99305E-19
 -1      3394 1.19190E-04-5.51448E-05-2.71713E-05 1.84248E-05 1.47781E-18-1.06750E-18
 -1      3395 1.21275E-04-5.28210E-05-2.90829E-05 1.02315E-05 1.86673E-18-1.93497E-19
 -1      3396 9.57004E-05-2.73147E-05-2.93135E-05 2.11879E-07 1.23272E-18-1.34410E-18
 -1      3397 9.54157E-05-2.73319E-05-2.91856E-05 2.66768E-07 1.32914E-18-1.23193E-18
 -1      3398 9.54746E-05-2.69268E-05-2.93624E-05 8.32210E-07 1.58688E-18-1.31871E-18
 -1      3399 9.55891E-05-2.85875E-05-2.87186E-05-1.15949E-06 3.96463E-19-1.10010E-18
 -1      3400 9.52868E-05-2.85035E-05-2.86211E-05-1.17158E-06 3.61008E-19-1.27805E-18
 -1      3401 9.52928E-05-2.84107E-05-2.86584E-05-1.07822E-06 5.84382E-19-1.27059E-18
 -1      3402 9.10146E-05-3.99599E-05-2.15731E-05-2.81996E-05-2.67329E-18-3.41980E-18
 -1      3403 1.16047E-04-4.66867E-05-2.99152E-05 5.54422E-06-1.18909E-18 9.80110E-20
 -1      3404 1.18101E-04-4.57106E-05-3.09345E-05 6.73612E-07-6.59385E-19 3.54523E-19
 -1      3405 1.19896E-04-4.60703E-05-3.16776E-05-2.43372E-06-2.91174E-19-2.37613E-19
 -1      3406 9.60963E-05-2.72442E-05-2.94982E-05 8.08746E-06 1.62585E-18 7.33106E-20
 -1      3407 9.49918E-05-2.67530E-05-2.92635E-05 8.68160E-06 1.21274E-18 1.64181E-18
 -1      3408 9.55663E-05-2.68079E-05-2.94540E-05 7.72175E-06 1.12403E-18-7.72657E-20
 -1      3409 9.25722E-05-1.86357E-05-3.16986E-05 2.42574E-06 1.60586E-18-3.18975E-18
 -1      3410 9.33892E-05-2.00037E-05-3.14297E-05 1.80970E-06 1.40545E-18-3.00492E-18
 -1      3411 9.28097E-05-1.90546E-05-3.16301E-05 3.12042E-06 1.86555E-18-2.92127E-18
 -1      3412 8.92616E-05-2.16400E-05-2.89964E-05 2.01665E-06 1.14655E-18-1.25886E-18
 -1      3413 8.96295E-05-2.19174E-05-2.90160E-05 3.12648E-06 8.05111E-19-1.26154E-18
 -1      3414 8.92675E-05-2.20764E-05-2.87839E-05 4.04180E-06-7.97868E-20-6.82718E-19
 -1      3415 8.83894E-05-2.13926E-05-2.86965E-05 1.48893E-06 1.13162E-18-2.28133E-18
 -1      3416 6.75638E-05-3.04837E-05-1.53777E-05 3.26333E-05 9.39518E-19-2.85228E-18
 -1      3417 6.37056E-05-2.52929E-05-1.62654E-05 2.75637E-05 7.47401E-19-2.38228E-18
 -1      3418 7.79522E-05-3.53516E-05-1.80799E-05 3.21763E-05 1.54700E-18-3.57474E-18
 -1      3419 5.34953E-05-1.77224E-05-1.48656E-05-1.84774E-05-4.60230E-19-1.07780E-18
 -1      3420 6.13212E-05-2.11384E-05-1.70673E-05-2.14879E-05-7.37878E-19-1.60386E-18
 -1      3421 5.43900E-05-1.57641E-05-1.63391E-05-1.28009E-05 5.25452E-19 7.58624E-20
 -1      3422 7.20943E-05-2.82256E-05-1.86257E-05-2.72374E-05-9.31869E-19-3.50539E-18
 -1      3423 7.84896E-05-3.40300E-05-1.87811E-05-3.10901E-05-7.36813E-19-4.38583E-18
 -1      3424 8.72583E-05-3.70185E-05-2.13154E-05-2.77930E-05-3.87107E-19-4.36317E-18
 -1      3425 4.85258E-05-1.42892E-05-1.41430E-05 1.23307E-05-2.74915E-19-8.99443E-19
 -1      3426 5.19916E-05-1.34198E-05-1.63688E-05 5.91664E-06-3.64396E-19-1.30904E-18
 -1      3427 5.47013E-05-1.73617E-05-1.57548E-05 1.72723E-05 1.23237E-19-1.49067E-18
 -1      3428 1.24344E-04-4.93030E-05-3.23013E-05-1.67227E-06-3.30733E-19-1.50426E-18
 -1      3429 1.06501E-04-4.89628E-05-2.44902E-05-2.45052E-05 2.50034E-19-2.31767E-18
 -1      3430 1.23914E-04-5.41550E-05-2.98775E-05-9.09993E-06-6.12524E-19-2.22365E-18
 -1      3431 9.34870E-05-2.50525E-05-2.93567E-05 6.83213E-06 1.51465E-18 7.57421E-19
 -1      3432 9.48901E-05-2.61328E-05-2.94466E-05 6.96060E-06 4.85753E-19 9.17850E-19
 -1      3433 9.52874E-05-2.65017E-05-2.94620E-05 7.41243E-06 9.34971E-19 3.96611E-19
 -1      3434 9.28875E-05-2.48080E-05-2.91759E-05 7.20607E-06 8.59398E-19-5.29751E-19
 -1      3435 9.53544E-05-2.81368E-05-2.87989E-05-7.51062E-07 8.86470E-19-1.14746E-18
 -1      3436 9.56985E-05-2.79713E-05-2.90310E-05-5.07950E-07 8.33416E-19-1.33856E-18
 -1      3437 9.53264E-05-2.82936E-05-2.87296E-05-9.40358E-07 8.30047E-19-1.06230E-18
 -1      3438 1.25005E-04-5.34213E-05-3.06376E-05 5.71609E-06-2.47218E-19-9.52118E-19
 -1      3439 9.53858E-05-2.64931E-05-2.95350E-05 1.37446E-06 1.84086E-18-1.44169E-18
 -1      3440 9.54265E-05-2.58766E-05-2.97935E-05 2.24027E-06 2.08977E-18-1.38934E-18
 -1      3441 9.53464E-05-2.51573E-05-3.00768E-05 2.61688E-06 2.14670E-18-1.50376E-18
 -1      3442 9.55899E-05-2.63861E-05-2.96612E-05 1.23980E-06 1.69714E-18-1.41169E-18
 -1      3443 1.19173E-04-5.09749E-05-2.91020E-05 9.66713E-06-8.97378E-19-1.39315E-18
 -1      3444 9.25535E-05-1.86045E-05-3.17035E-05-2.38071E-06-3.21174E-19-3.40369E-18
 -1      3445 9.27793E-05-1.89945E-05-3.16365E-05-3.08147E-06-7.62380E-19-3.46609E-18
 -1      3446 9.44862E-05-2.23560E-05-3.09078E-05-4.01336E-06-1.53008E-18-3.13423E-18
 -1      3447 9.35279E-05-2.51225E-05-2.93169E-05-7.08628E-06-2.56907E-18-7.36157E-19
 -1      3448 9.28952E-05-2.45635E-05-2.92942E-05-6.77821E-06-1.56175E-18 8.97987E-19
 -1      3449 9.21904E-05-2.42967E-05-2.90971E-05-7.10773E-06-1.56379E-18 7.38902E-19
 -1      3450 9.35067E-05-2.52877E-05-2.92302E-05-7.66933E-06-2.25231E-18-4.52018E-19
 -1      3451 9.28843E-05-1.91599E-05-3.16068E-05-3.68138E-06-1.03168E-18-3.52948E-18
 -1      3452 9.32198E-05-1.97722E-05-3.14970E-05-4.29182E-06-1.39059E-18-3.54910E-18
 -1      3453 9.38512E-05-2.09333E-05-3.12381E-05-3.94148E-06-1.34218E-18-3.31327E-18
 -1      3454 9.35991E-05-2.04317E-05-3.13423E-05-2.86994E-06-8.59045E-19-3.23457E-18
 -1      3455 1.15842E-04-4.85031E-05-2.88024E-05 1.00651E-05-1.59352E-18-2.81023E-18
 -1      3456 1.12576E-04-5.03772E-05-2.69425E-05 1.80180E-05-4.84721E-19-2.36056E-18
 -1      3457 1.03127E-04-4.51653E-05-2.45025E-05 2.35262E-05 7.52900E-19-1.83435E-18
 -1      3458 1.11475E-04-4.55220E-05-2.80800E-05 1.25593E-05-1.39840E-18-1.94863E-18
 -1      3459 5.28312E-05-1.41177E-05-1.64280E-05 7.68016E-06 8.06005E-19 2.43818E-18
 -1      3460 5.24979E-05-1.35237E-05-1.65127E-05-2.33675E-06 1.23032E-18 1.62921E-18
 -1      3461 9.61748E-05-2.77765E-05-2.93063E-05 2.79405E-07-6.65523E-19-1.87617E-18
 -1      3462 9.61684E-05-2.80813E-05-2.91844E-05 5.46210E-07-7.22201E-19-1.78805E-18
 -1      3463 9.61702E-05-2.83266E-05-2.90705E-05 7.23685E-07-5.87944E-19-1.73406E-18
 -1      3464 9.61368E-05-2.85054E-05-2.89867E-05 8.79848E-07-4.31705E-19-1.55768E-18
 -1      3465 9.63595E-05-2.81325E-05-2.92416E-05 5.31424E-07-5.47014E-19-1.78406E-18
 -1      3466 9.60921E-05-2.86348E-05-2.89069E-05 9.79099E-07-4.64369E-19-1.38382E-18
 -1      3467 9.60461E-05-2.87234E-05-2.88528E-05 1.06376E-06-4.38980E-19-1.40871E-18
 -1      3468 9.63186E-05-2.85581E-05-2.90422E-05 8.27294E-07-3.57259E-19-1.51125E-18
 -1      3469 9.59734E-05-2.87696E-05-2.87998E-05 1.11498E-06-2.66528E-19-1.44033E-18
 -1      3470 9.59218E-05-2.87928E-05-2.87686E-05 1.15955E-06-3.41521E-19-1.08723E-18
 -1      3471 9.62038E-05-2.87654E-05-2.89041E-05 9.94466E-07-4.14636E-19-1.70272E-18
 -1      3472 9.58317E-05-2.87782E-05-2.87368E-05 1.18731E-06-5.27839E-19-8.66438E-19
 -1      3473 9.57774E-05-2.87526E-05-2.87231E-05 1.21635E-06-1.76343E-19-5.61883E-19
 -1      3474 9.60437E-05-2.88132E-05-2.88148E-05 1.08739E-06-2.58288E-19-1.16380E-18
 -1      3475 9.56751E-05-2.86919E-05-2.87078E-05 1.24011E-06-1.47326E-19-7.03907E-19
 -1      3476 9.56187E-05-2.86284E-05-2.87077E-05 1.27278E-06-3.10176E-19-4.62743E-19
 -1      3477 9.58540E-05-2.87418E-05-2.87637E-05 1.14994E-06-2.93463E-19-1.06166E-18
 -1      3478 9.55052E-05-2.85308E-05-2.87051E-05 1.30797E-06-5.82225E-19-7.42046E-19
 -1      3479 9.54456E-05-2.84361E-05-2.87155E-05 1.35942E-06-5.55246E-19-9.85980E-19
 -1      3480 9.56408E-05-2.85776E-05-2.87422E-05 1.21694E-06-4.43576E-19-1.37414E-18
 -1      3481 9.53192E-05-2.83067E-05-2.87223E-05 1.41858E-06-7.25676E-19-1.02792E-18
 -1      3482 9.52543E-05-2.81848E-05-2.87409E-05 1.50113E-06-5.72389E-19-1.08443E-18
 -1      3483 9.54035E-05-2.83369E-05-2.87430E-05 1.31634E-06-7.67428E-19-1.07367E-18
 -1      3484 9.51110E-05-2.80260E-05-2.87543E-05 1.59472E-06-4.95881E-19-8.98955E-19
 -1      3485 9.50379E-05-2.78792E-05-2.87789E-05 1.71866E-06-6.32270E-19-8.64608E-19
 -1      3486 9.51365E-05-2.80286E-05-2.87599E-05 1.47098E-06-3.54380E-19-9.73620E-19
 -1      3487 9.48722E-05-2.76921E-05-2.87961E-05 1.85570E-06-9.18276E-19-1.07706E-18
 -1      3488 9.47878E-05-2.75220E-05-2.88244E-05 2.02979E-06-8.74280E-19-7.60220E-19
 -1      3489 9.48305E-05-2.76574E-05-2.87871E-05 1.70007E-06-7.57607E-19-7.18942E-19
 -1      3490 9.45934E-05-2.73077E-05-2.88424E-05 2.21840E-06-7.25455E-19-6.80624E-19
 -1      3491 9.44946E-05-2.71171E-05-2.88720E-05 2.45014E-06-8.64773E-19-6.41343E-19
 -1      3492 9.44737E-05-2.72259E-05-2.88181E-05 2.02029E-06-6.29900E-19-8.32709E-19
 -1      3493 9.42650E-05-2.68782E-05-2.88868E-05 2.69775E-06-8.83199E-19-5.84895E-19
 -1      3494 9.41502E-05-2.66726E-05-2.89145E-05 2.99328E-06-5.15509E-19-6.57329E-19
 -1      3495 9.40533E-05-2.67386E-05-2.88457E-05 2.44665E-06-6.91067E-19-7.68186E-19
 -1      3496 9.38801E-05-2.64155E-05-2.89213E-05 3.30692E-06-1.77990E-19-6.46459E-19
 -1      3497 9.37504E-05-2.62059E-05-2.89426E-05 3.67083E-06-1.70731E-19-5.43364E-19
 -1      3498 9.35575E-05-2.62051E-05-2.88608E-05 2.99298E-06-4.04946E-19-6.81556E-19
 -1      3499 9.34377E-05-2.59440E-05-2.89350E-05 4.05761E-06-4.76837E-19 9.05217E-20
 -1      3500 9.33001E-05-2.57505E-05-2.89440E-05 4.49280E-06-9.53390E-20-4.53759E-19
 -1      3501 9.29785E-05-2.56454E-05-2.88514E-05 3.67294E-06-7.11496E-20 6.77068E-20
 -1      3502 9.29492E-05-2.55078E-05-2.89136E-05 4.96091E-06 5.39028E-19-7.90059E-19
 -1      3503 9.28216E-05-2.53650E-05-2.89026E-05 5.46861E-06 7.16648E-19-4.28508E-19
 -1      3504 9.23176E-05-2.50970E-05-2.88023E-05 4.50190E-06 6.27179E-20-1.36846E-19
 -1      3505 9.24485E-05-2.51828E-05-2.88392E-05 6.02921E-06 4.93075E-19-4.69281E-19
 -1      3506 9.23679E-05-2.51468E-05-2.87990E-05 6.60928E-06 6.88486E-19-4.86717E-19
 -1      3507 9.15931E-05-2.46246E-05-2.86940E-05 5.50065E-06 6.24474E-19-3.53948E-19
 -1      3508 9.20092E-05-2.50909E-05-2.86904E-05 7.27946E-06 8.46346E-19-3.01701E-19
 -1      3509 9.20443E-05-2.52493E-05-2.86115E-05 7.93056E-06 8.14773E-19 5.70671E-20
 -1      3510 9.08534E-05-2.43334E-05-2.85029E-05 6.70177E-06 9.82806E-19 3.19653E-19
 -1      3511 9.17707E-05-2.54208E-05-2.84454E-05 8.73656E-06 3.27145E-19-1.97560E-19
 -1      3512 9.20404E-05-2.59045E-05-2.83210E-05 9.45405E-06 2.36759E-20-1.90255E-19
 -1      3513 9.01984E-05-2.43876E-05-2.82028E-05 8.15853E-06 4.47858E-19-5.70559E-20
 -1      3514 9.19801E-05-2.64518E-05-2.80880E-05 1.04316E-05 2.99171E-21-1.71793E-19
 -1      3515 9.26781E-05-2.74469E-05-2.79209E-05 1.11970E-05 5.19620E-19-3.97188E-19
 -1      3516 8.98140E-05-2.50357E-05-2.77691E-05 9.95359E-06 1.36574E-19-6.80089E-19
 -1      3517 9.30566E-05-2.85799E-05-2.76230E-05 1.23770E-05 6.10748E-19-9.13595E-19
 -1      3518 9.44776E-05-3.03316E-05-2.74390E-05 1.31233E-05 9.94683E-19-9.52395E-19
 -1      3519 9.00306E-05-2.66466E-05-2.71889E-05 1.21960E-05 3.20911E-19-3.75962E-20
 -1      3520 9.56798E-05-3.23215E-05-2.71086E-05 1.44681E-05 1.51973E-18-1.35168E-18
 -1      3521 9.82034E-05-3.50924E-05-2.69844E-05 1.50046E-05 1.75291E-18-1.35448E-18
 -1      3522 9.14238E-05-2.97542E-05-2.64849E-05 1.49638E-05 1.00598E-18-8.92769E-19
 -1      3523 1.00842E-04-3.81954E-05-2.67334E-05 1.61718E-05 1.61208E-18-1.30122E-18
 -1      3524 1.04707E-04-4.19859E-05-2.68354E-05 1.60661E-05 1.70262E-18-1.23189E-18
 -1      3525 9.49982E-05-3.50931E-05-2.57810E-05 1.80803E-05 1.80453E-18-1.20476E-18
 -1      3526 1.09877E-04-4.58865E-05-2.71874E-05 1.53829E-05 1.82879E-18-8.66432E-19
 -1      3527 1.14770E-04-4.97017E-05-2.78974E-05 1.34728E-05 1.54249E-18-7.28908E-19
 -1      3528 1.13956E-04-5.09819E-05-2.71355E-05 1.69858E-05 1.89088E-18-7.30864E-19
 -1      3529 1.02488E-04-4.27544E-05-2.57657E-05 1.96569E-05 1.76041E-18-2.01893E-18
 -1      3530 1.03435E-04-4.02894E-05-2.69959E-05-1.59890E-05 2.31584E-19-1.77556E-19
 -1      3531 9.99824E-05-3.68404E-05-2.69696E-05-1.60784E-05 1.06303E-19-1.03563E-18
 -1      3532 9.77809E-05-3.40720E-05-2.72502E-05-1.49180E-05-9.55543E-19-1.05626E-18
 -1      3533 9.56630E-05-3.16456E-05-2.73986E-05-1.44381E-05-1.34295E-18-1.97017E-18
 -1      3534 9.48565E-05-3.39622E-05-2.61651E-05-1.74915E-05-9.09829E-19-1.28945E-18
 -1      3535 9.46999E-05-2.99160E-05-2.77260E-05-1.32364E-05 9.54078E-20-1.72512E-18
 -1      3536 9.35448E-05-2.83871E-05-2.79144E-05-1.25693E-05 1.46675E-18-2.41691E-18
 -1      3537 9.20087E-05-2.93753E-05-2.68810E-05-1.47098E-05-7.26787E-19-9.00810E-19
 -1      3538 9.32933E-05-2.74054E-05-2.82114E-05-1.15157E-05 1.88989E-18-3.38372E-18
 -1      3539 9.27470E-05-2.65208E-05-2.83847E-05-1.08160E-05 1.80833E-18-3.19209E-18
 -1      3540 9.09979E-05-2.66910E-05-2.75760E-05-1.22729E-05 1.15083E-18-1.55457E-18
 -1      3541 9.28649E-05-2.60242E-05-2.86327E-05-9.93945E-06 9.77593E-19-3.41529E-18
 -1      3542 9.26712E-05-2.55319E-05-2.87797E-05-9.25726E-06-6.42397E-20-2.96723E-18
 -1      3543 9.09915E-05-2.52705E-05-2.81691E-05-1.02775E-05 1.67732E-18-3.82687E-18
 -1      3544 6.52101E-05-2.19031E-05-1.83957E-05-2.16911E-05-1.30537E-18-1.59033E-18
 -1      3545 7.38508E-05-2.84926E-05-1.95558E-05-2.64064E-05-1.71725E-18-1.82091E-18
 -1      3546 9.53039E-05-2.82904E-05-2.87166E-05-1.51669E-06-2.93129E-19-7.20073E-19
 -1      3547 9.53328E-05-2.83862E-05-2.86939E-05-1.44257E-06-3.61723E-19-1.01594E-18
 -1      3548 9.54281E-05-2.84924E-05-2.86837E-05-1.38863E-06-1.82210E-19-1.11967E-18
 -1      3549 9.54565E-05-2.85651E-05-2.86694E-05-1.34499E-06-2.17006E-19-1.14773E-18
 -1      3550 9.54241E-05-2.84164E-05-2.87182E-05-1.37419E-06-3.93961E-19-1.25928E-18
 -1      3551 9.50112E-05-2.77534E-05-2.88204E-05-2.01902E-06-3.20969E-19-1.68778E-19
 -1      3552 9.50455E-05-2.78883E-05-2.87859E-05-1.85364E-06-1.61906E-19-2.55251E-19
 -1      3553 9.48318E-05-2.74263E-05-2.88833E-05-2.42795E-06 6.90623E-20-3.42522E-19
 -1      3554 9.48704E-05-2.75765E-05-2.88453E-05-2.20478E-06-2.71055E-20-2.22513E-19
 -1      3555 9.47391E-05-2.74856E-05-2.88215E-05-2.06135E-06-3.19360E-19-8.60358E-19
 -1      3556 9.46250E-05-2.70706E-05-2.89466E-05-2.96082E-06-1.37490E-19-4.27712E-19
 -1      3557 9.46674E-05-2.72304E-05-2.89076E-05-2.67408E-06-7.92732E-20-6.48109E-19
 -1      3558 9.44361E-05-2.70782E-05-2.88655E-05-2.48911E-06 1.50304E-19-1.03859E-18
 -1      3559 9.43918E-05-2.67034E-05-2.90034E-05-3.62777E-06-3.87890E-19-6.14226E-19
 -1      3560 9.44345E-05-2.68620E-05-2.89666E-05-3.27381E-06-1.97805E-19-5.52085E-19
 -1      3561 9.40835E-05-2.66360E-05-2.89031E-05-3.04075E-06-2.30399E-19-9.73237E-19
 -1      3562 9.41421E-05-2.63573E-05-2.90439E-05-4.43503E-06-5.72187E-19 5.93657E-19
 -1      3563 9.41762E-05-2.64954E-05-2.90138E-05-4.01328E-06-4.76698E-19-1.43651E-19
 -1      3564 9.36792E-05-2.61797E-05-2.89248E-05-3.72844E-06-7.00721E-19-9.11710E-19
 -1      3565 9.39032E-05-2.60884E-05-2.90555E-05-5.38372E-06-4.18396E-19 6.51961E-19
 -1      3566 9.39098E-05-2.61734E-05-2.90381E-05-4.89780E-06-3.61478E-19 5.20735E-19
 -1      3567 9.32319E-05-2.57473E-05-2.89180E-05-4.56305E-06-4.38776E-19-1.79279E-20
 -1      3568 9.37322E-05-2.59894E-05-2.90226E-05-6.46873E-06 3.02350E-19 1.09048E-19
 -1      3569 9.36754E-05-2.59688E-05-2.90252E-05-5.92788E-06 1.85575E-19 3.58132E-19
 -1      3570 9.27690E-05-2.54041E-05-2.88672E-05-5.55544E-06 1.31886E-19-2.09641E-19
 -1      3571 9.37354E-05-2.62049E-05-2.89282E-05-7.67683E-06 4.80088E-19-1.99132E-20
 -1      3572 9.35516E-05-2.59979E-05-2.89584E-05-7.09827E-06 2.45684E-19 4.16959E-19
 -1      3573 9.23506E-05-2.52558E-05-2.87534E-05-6.71864E-06 2.38791E-19-1.79263E-19
 -1      3574 9.40971E-05-2.69499E-05-2.87585E-05-8.98125E-06-1.74704E-19 2.26777E-19
 -1      3575 9.36803E-05-2.64383E-05-2.88211E-05-8.39512E-06 1.20234E-19 1.36350E-20
 -1      3576 9.20912E-05-2.54659E-05-2.85570E-05-8.07044E-06 3.65386E-19 1.81778E-19
 -1      3577 9.51153E-05-2.85247E-05-2.85132E-05-1.03239E-05-5.82728E-19 2.76938E-19
 -1      3578 9.43021E-05-2.75477E-05-2.86041E-05-9.78546E-06-1.85321E-19 3.74829E-19
 -1      3579 9.21927E-05-2.62782E-05-2.82622E-05-9.63238E-06-4.84211E-19 1.93296E-19
 -1      3580 9.72368E-05-3.12993E-05-2.82266E-05-1.15614E-05-1.25352E-18-1.01670E-19
 -1      3581 9.58015E-05-2.96715E-05-2.83209E-05-1.11801E-05-6.65765E-19 1.63242E-19
 -1      3582 9.29972E-05-2.80417E-05-2.78701E-05-1.14081E-05-5.18579E-19 6.35854E-20
 -1      3583 1.01061E-04-3.56509E-05-2.80014E-05-1.23637E-05-4.65907E-19-1.23585E-18
 -1      3584 9.87381E-05-3.32080E-05-2.80350E-05-1.23610E-05-9.26323E-19-7.02091E-19
 -1      3585 9.50410E-05-3.12010E-05-2.74254E-05-1.33131E-05-6.96576E-19-7.84275E-19
 -1      3586 1.07162E-04-4.16085E-05-2.80819E-05-1.19733E-05-1.74854E-18-1.49515E-18
 -1      3587 1.03837E-04-3.84792E-05-2.79139E-05-1.27511E-05-1.26327E-18-1.29966E-18
 -1      3588 9.91083E-05-3.62567E-05-2.70548E-05-1.50148E-05-8.75056E-19-2.21277E-18
 -1      3589 1.03517E-04-3.86744E-05-2.76932E-05 1.40220E-05 2.36952E-19-2.38762E-18
 -1      3590 1.07066E-04-4.17966E-05-2.78892E-05 1.30396E-05-3.77790E-19-2.43093E-18
 -1      3591 1.04380E-04-4.28750E-05-2.65841E-05 1.79036E-05 7.37911E-20-3.66276E-18
 -1      3592 9.47767E-05-2.79600E-05-2.86258E-05 1.08777E-05-1.15250E-19 3.95833E-19
 -1      3593 9.56310E-05-2.90420E-05-2.85114E-05 1.13862E-05 1.41459E-19 2.79201E-19
 -1      3594 9.41091E-05-2.66109E-05-2.89194E-05 9.51529E-06 4.64632E-19 6.29937E-19
 -1      3595 9.45500E-05-2.72567E-05-2.88215E-05 1.01007E-05 1.32541E-19-9.69627E-20
 -1      3596 9.28219E-05-2.67148E-05-2.83602E-05 1.07263E-05 2.18020E-20-3.39210E-19
 -1      3597 8.73812E-05-2.11602E-05-2.83810E-05-2.14239E-06 1.23210E-18-2.34383E-18
 -1      3598 8.71471E-05-2.10110E-05-2.83560E-05-7.18883E-07 8.97655E-19-2.56830E-18
 -1      3599 9.63662E-05-3.02990E-05-2.82909E-05 1.21954E-05-4.14615E-19 4.40969E-19
 -1      3600 9.78821E-05-3.20033E-05-2.81877E-05 1.24894E-05-9.43634E-19 3.31611E-20
 -1      3601 9.36708E-05-2.86863E-05-2.78959E-05 1.24583E-05-1.25972E-19-8.18826E-20
 -1      3602 9.89781E-05-3.37067E-05-2.79269E-05 1.33569E-05-1.20249E-18-2.62848E-19
 -1      3603 1.01430E-04-3.61531E-05-2.79010E-05 1.32139E-05-2.41269E-19-1.33199E-18
 -1      3604 9.81894E-05-3.59459E-05-2.67790E-05 1.64174E-05-8.94181E-19-2.30578E-18
 -1      3605 9.53620E-05-3.16807E-05-2.73520E-05 1.43582E-05-1.63698E-18-4.65074E-19
 -1      3606 9.51668E-05-2.80429E-05-2.87635E-05-1.72068E-06-9.70105E-20-3.79296E-19
 -1      3607 9.51976E-05-2.81592E-05-2.87341E-05-1.60540E-06-3.44873E-20-5.53366E-19
 -1      3608 9.52245E-05-2.81590E-05-2.87423E-05-1.52078E-06-4.13244E-19-9.19526E-19
 -1      3609 9.49990E-05-2.78476E-05-2.87785E-05-1.74394E-06-1.25073E-19-1.00943E-18
 -1      3610 5.50485E-05-1.36788E-05-1.75660E-05-5.01081E-06-6.55292E-19-1.76823E-18
 -1      3611 5.90443E-05-1.68104E-05-1.79365E-05-1.50425E-05-1.29660E-18-2.38980E-18
 -1      3612 9.57571E-05-2.87506E-05-2.87160E-05-1.21570E-06 1.16781E-19-7.99269E-19
 -1      3613 9.57904E-05-2.87184E-05-2.87430E-05-1.17234E-06 3.40550E-19-8.40972E-19
 -1      3614 1.21895E-04-5.05727E-05-3.03603E-05-4.38566E-06-1.59814E-18-1.44373E-19
 -1      3615 1.18647E-04-5.19722E-05-2.83263E-05-1.29462E-05-1.02172E-19-5.62701E-19
 -1      3616 8.89859E-05-3.81575E-05-2.19399E-05 2.79215E-05 9.18793E-19-7.90811E-19
 -1      3617 7.62958E-05-2.91011E-05-1.99458E-05 2.59410E-05 6.94355E-19 8.02352E-19
 -1      3618 8.60507E-05-3.52835E-05-2.14089E-05-2.69290E-05-2.73151E-18-3.23748E-18
 -1      3619 9.82395E-05-4.29560E-05-2.39884E-05-2.46458E-05-2.88109E-18-3.13079E-18
 -1      3620 8.38760E-05-3.18307E-05-2.20262E-05-2.36841E-05-1.88228E-18-2.66474E-18
 -1      3621 9.23878E-05-1.83187E-05-3.17587E-05-1.76145E-06-5.88152E-20-3.35006E-18
 -1      3622 9.33766E-05-1.99902E-05-3.14341E-05-1.76290E-06-1.99013E-19-3.08454E-18
 -1      3623 9.22761E-05-1.81279E-05-3.17898E-05-1.00852E-06 3.53787E-19-3.32866E-18
 -1      3624 9.43118E-05-2.19781E-05-3.10077E-05-3.62858E-06-1.33020E-18-3.17469E-18
 -1      3625 9.47704E-05-2.29620E-05-3.07554E-05-3.20461E-06-1.27034E-18-3.02353E-18
 -1      3626 9.41590E-05-2.16620E-05-3.10808E-05-3.15259E-06-1.00551E-18-3.10670E-18
 -1      3627 9.51483E-05-2.41530E-05-3.04434E-05-2.34809E-06-1.03910E-18-2.79605E-18
 -1      3628 1.10710E-04-4.95393E-05-2.63944E-05-1.95742E-05 2.04704E-19-1.38248E-18
 -1      3629 1.12128E-04-4.77638E-05-2.75378E-05-1.47855E-05-2.03063E-19-1.89388E-19
 -1      3630 1.07319E-04-4.37716E-05-2.70494E-05-1.62204E-05 3.53188E-19-3.28010E-20
 -1      3631 9.99885E-05-4.35608E-05-2.39699E-05-2.46519E-05-4.51376E-19-2.22999E-18
 -1      3632 9.57255E-05-2.55213E-05-3.00701E-05-1.49810E-06-9.05350E-19-2.36528E-18
 -1      3633 9.58468E-05-2.62483E-05-2.98411E-05-8.72328E-07-7.00145E-19-2.24928E-18
 -1      3634 9.52910E-05-2.45600E-05-3.03088E-05 2.88458E-06 2.07249E-18-1.51790E-18
 -1      3635 9.50051E-05-2.37275E-05-3.05540E-05 3.09823E-06 2.10968E-18-1.76377E-18
 -1      3636 9.54308E-05-2.52867E-05-3.00699E-05 2.07170E-06 1.90847E-18-1.49968E-18
 -1      3637 6.50497E-05-2.17771E-05-1.85014E-05 2.08952E-05 1.67572E-18 1.78062E-18
 -1      3638 5.72394E-05-1.66488E-05-1.70832E-05 1.46007E-05 7.39089E-19 1.85013E-18
 -1      3639 6.06555E-05-1.63065E-05-1.87473E-05 9.62439E-06 1.32320E-18 2.18622E-18
 -1      3640 9.60506E-05-2.68829E-05-2.96334E-05-4.29864E-07-6.12442E-19-2.12481E-18
 -1      3641 9.60977E-05-2.73693E-05-2.94625E-05-9.18565E-09-5.43073E-19-1.94717E-18
 -1      3642 9.62813E-05-2.74080E-05-2.95175E-05 4.42901E-08-6.45602E-19-1.89379E-18
 -1      3643 1.16672E-04-5.02324E-05-2.86782E-05-1.10735E-05-2.36543E-18-1.35331E-18
 -1      3644 1.15119E-04-4.77913E-05-2.89317E-05-9.01440E-06-2.59853E-18-4.54767E-19
 -1      3645 1.11245E-04-4.46553E-05-2.83504E-05-1.10544E-05-2.29375E-18-1.06846E-18
 -1      3646 1.08249E-04-4.68280E-05-2.59551E-05-1.94445E-05-2.97071E-18-2.08130E-18
 -1      3647 9.47594E-05-2.30815E-05-3.07264E-05 2.86477E-06 1.86352E-18-2.02904E-18
 -1      3648 1.12708E-04-5.23518E-05-2.58227E-05 2.14124E-05 1.87305E-18-1.34614E-18
 -1      3649 1.05964E-04-4.30140E-05-2.71563E-05-1.53074E-05-2.16419E-18-1.59116E-18
 -1      3650 9.59588E-05-2.80351E-05-2.91143E-05-5.45248E-07 8.10989E-19-1.44925E-18
 -1      3651 9.59767E-05-2.77427E-05-2.92344E-05-2.53264E-07 9.16223E-19-1.39064E-18
 -1      3652 8.72956E-05-3.96386E-05-2.00613E-05 3.13870E-05 2.32331E-18-3.41524E-18
 -1      3653 8.02760E-05-3.35720E-05-1.99368E-05 2.87883E-05 1.86215E-18-2.38172E-18
 -1      3654 9.55842E-05-4.33170E-05-2.24171E-05 2.78776E-05 2.48562E-18-2.24179E-18
 -1      3655 9.52668E-05-2.42020E-05-3.04635E-05-1.97801E-06-8.10810E-19-2.56089E-18
 -1      3656 9.39726E-05-2.11942E-05-3.11984E-05-1.22115E-06 9.18734E-20-2.77243E-18
 -1      3657 9.41031E-05-2.14629E-05-3.11401E-05-1.72924E-06-3.05163E-19-2.92270E-18
 -1      3658 6.64199E-05-1.96883E-05-1.97875E-05-1.62640E-05-1.18126E-18-2.06639E-18
 -1      3659 9.31212E-05-2.54979E-05-2.89729E-05-8.71090E-06 4.82305E-19-2.17771E-18
 -1      3660 9.31361E-05-2.52786E-05-2.90834E-05-8.13126E-06-4.29984E-19-1.00135E-18
 -1      3661 9.24500E-05-2.47695E-05-2.90010E-05-7.90410E-06-5.91325E-20-7.09647E-19
 -1      3662 9.16137E-05-2.47576E-05-2.86417E-05-8.87750E-06 7.66326E-19-1.93078E-18
 -1      3663 1.00616E-04-4.07173E-05-2.57907E-05-1.96643E-05-2.07126E-21-2.08193E-18
 -1      3664 9.58512E-05-2.86670E-05-2.87933E-05-1.11615E-06 2.34417E-19-1.04267E-18
 -1      3665 9.58855E-05-2.85753E-05-2.88432E-05-1.02747E-06 2.71364E-19-1.13200E-18
 -1      3666 9.60501E-05-2.87211E-05-2.88577E-05-1.06403E-06 1.71134E-19-1.17464E-18
 -1      3667 9.56045E-05-2.86143E-05-2.87112E-05-1.28340E-06 6.68589E-20-1.59201E-18
 -1      3668 9.55437E-05-2.86436E-05-2.86689E-05-1.31453E-06-1.06728E-19-9.16594E-19
 -1      3669 9.55729E-05-2.86890E-05-2.86651E-05-1.28846E-06-4.79696E-20-9.39899E-19
 -1      3670 9.61220E-05-2.73698E-05-2.94673E-05 1.79160E-08 9.98472E-19-1.58775E-18
 -1      3671 9.59125E-05-2.73466E-05-2.93922E-05 7.82604E-08 9.89213E-19-1.30662E-18
 -1      3672 9.58875E-05-2.68804E-05-2.95650E-05 5.44654E-07 1.24402E-18-1.35105E-18
 -1      3673 5.89427E-05-1.45667E-05-1.90128E-05-1.71154E-06 2.66570E-18 2.36150E-18
 -1      3674 5.59584E-05-1.44914E-05-1.74504E-05-6.76990E-06 9.89672E-19 3.95723E-19
 -1      3675 6.06208E-05-1.65188E-05-1.88072E-05-1.09916E-05 1.34784E-18-2.03685E-19
 -1      3676 9.42947E-05-2.59803E-05-2.93011E-05 7.83729E-06 1.26943E-18 2.25419E-18
 -1      3677 9.34499E-05-2.56671E-05-2.90379E-05 8.43353E-06 1.06077E-18 6.76985E-19
 -1      3678 9.38376E-05-2.61442E-05-2.90017E-05 8.93576E-06 8.62562E-19 7.96158E-19
 -1      3679 9.23634E-05-2.55266E-05-2.86672E-05 9.27123E-06 6.93034E-19-8.84766E-19
 -1      3680 8.61973E-05-2.07559E-05-2.80277E-05 1.30127E-07 9.46067E-20-1.30426E-18
 -1      3681 8.71782E-05-2.10386E-05-2.83579E-05 9.48417E-07 1.70777E-19-1.52784E-18
 -1      3682 8.74618E-05-2.12323E-05-2.83842E-05 2.34826E-06-4.06894E-19-1.66938E-18
 -1      3683 8.79100E-05-2.15665E-05-2.84518E-05-3.69068E-06 1.21048E-18-2.10490E-18
 -1      3684 8.67499E-05-2.11469E-05-2.81028E-05-3.17988E-06 9.00511E-19-2.23443E-18
 -1      3685 8.86129E-05-2.20088E-05-2.85224E-05-4.88569E-06 8.87197E-19-1.96579E-18
 -1      3686 9.38200E-05-2.08024E-05-3.12661E-05 2.86432E-06 1.75595E-18-2.62908E-18
 -1      3687 9.41297E-05-2.15206E-05-3.11353E-05 1.77584E-06 1.48521E-18-2.82093E-18
 -1      3688 9.39867E-05-2.12183E-05-3.11943E-05 1.24703E-06 1.11994E-18-2.74337E-18
 -1      3689 9.56513E-05-2.83678E-05-2.88402E-05-9.32397E-07 7.75000E-19-1.31235E-18
 -1      3690 9.40658E-05-2.14340E-05-3.11435E-05-2.17706E-06-4.42648E-19-3.07100E-18
 -1      3691 9.41289E-05-2.15552E-05-3.11085E-05-2.68884E-06-7.79894E-19-3.11495E-18
 -1      3692 9.46352E-05-2.25091E-05-3.08864E-05-2.43863E-06-7.18154E-19-2.96464E-18
 -1      3693 9.46885E-05-2.24990E-05-3.09123E-05-1.60442E-06-2.14410E-19-2.78737E-18
 -1      3694 6.78607E-05-2.41701E-05-1.85033E-05 2.33322E-05 1.49668E-18-1.24726E-18
 -1      3695 6.03031E-05-1.99994E-05-1.68153E-05 2.11645E-05 6.56053E-19-1.27013E-18
 -1      3696 5.93214E-05-1.71394E-05-1.80595E-05 1.47808E-05 5.23255E-19-1.05053E-18
 -1      3697 9.31735E-05-1.96116E-05-3.15085E-05-5.87782E-07 3.91019E-19-3.12949E-18
 -1      3698 6.91076E-05-2.45115E-05-1.88139E-05-2.36769E-05-3.47019E-20-2.86379E-18
 -1      3699 7.68003E-05-2.81535E-05-2.08677E-05-2.38370E-05 8.53518E-20-4.06888E-18
 -1      3700 6.68439E-05-2.12821E-05-1.94507E-05-1.90410E-05 1.08751E-18-1.75301E-18
 -1      3701 5.76810E-05-1.42092E-05-1.85104E-05 4.17094E-06 2.58147E-20-7.76544E-19
 -1      3702 5.56314E-05-1.32350E-05-1.78508E-05-8.31427E-07-4.90571E-19-1.57125E-18
 -1      3703 6.10025E-05-1.48081E-05-1.97174E-05-5.08214E-06-4.76615E-19-2.07475E-18
 -1      3704 9.56844E-05-2.87464E-05-2.86871E-05-1.24335E-06-2.88447E-20-8.23960E-19
 -1      3705 9.59199E-05-2.87875E-05-2.87731E-05-1.16309E-06 4.09479E-20-1.07507E-18
 -1      3706 9.56533E-05-2.87347E-05-2.86775E-05-1.26786E-06-1.98352E-19-9.41224E-19
 -1      3707 9.76256E-05-4.03582E-05-2.43769E-05 2.24822E-05-1.06911E-19-1.88401E-18
 -1      3708 8.08339E-05-2.86407E-05-2.23104E-05 2.16559E-05-9.10474E-19-1.40275E-18
 -1      3709 7.31075E-05-2.53278E-05-2.02656E-05 2.25825E-05 7.71329E-19-8.16990E-20
 -1      3710 7.11941E-05-2.20151E-05-2.10102E-05 1.79004E-05-1.98338E-19 4.91438E-19
 -1      3711 1.02762E-04-4.27341E-05-2.56059E-05-1.95692E-05-3.07796E-18-2.68345E-18
 -1      3712 9.21599E-05-3.88650E-05-2.28356E-05-2.63776E-05-8.17400E-19-3.06310E-18
 -1      3713 9.81085E-05-4.00365E-05-2.47429E-05-2.17883E-05-4.10626E-19-2.38060E-18
 -1      3714 9.41207E-05-3.60921E-05-2.47903E-05-2.08413E-05 3.40196E-19-2.54109E-18
 -1      3715 8.60273E-05-3.36627E-05-2.22569E-05-2.50141E-05-1.27620E-18-3.90636E-18
 -1      3716 9.59993E-05-2.62570E-05-2.98868E-05-6.99262E-07-6.26669E-19-1.96265E-18
 -1      3717 8.97471E-05-2.29184E-05-2.86629E-05 6.16364E-06-2.61471E-19 1.82927E-19
 -1      3718 9.07940E-05-2.36201E-05-2.87733E-05 6.96291E-06 2.51563E-19-5.56087E-19
 -1      3719 9.09541E-05-2.41507E-05-2.86207E-05 7.94996E-06 4.15795E-19-1.24184E-18
 -1      3720 9.18646E-05-2.44721E-05-2.89032E-05 7.68069E-06 8.14540E-19-1.58781E-18
 -1      3721 9.38978E-05-2.10416E-05-3.12361E-05 8.07531E-07 9.49096E-19-2.86828E-18
 -1      3722 9.38515E-05-2.09437E-05-3.12559E-05 2.46945E-07 6.41970E-19-2.98637E-18
 -1      3723 9.46469E-05-2.23766E-05-3.09537E-05 8.24828E-07 9.79843E-19-2.55269E-18
 -1      3724 9.17603E-05-2.42677E-05-2.89353E-05-7.53657E-06-3.51026E-19-3.81928E-20
 -1      3725 9.09679E-05-2.40422E-05-2.86912E-05-7.85119E-06 1.23679E-18-4.77331E-19
 -1      3726 9.08122E-05-2.35564E-05-2.88045E-05-6.99078E-06-4.06433E-19-7.93733E-19
 -1      3727 8.97526E-05-2.28700E-05-2.86905E-05-6.18472E-06 4.91922E-19-1.78794E-18
 -1      3728 9.04844E-05-2.40020E-05-2.84857E-05-8.28265E-06 9.65079E-19-1.11439E-18
 -1      3729 8.95511E-05-2.35806E-05-2.82980E-05 7.99771E-06 7.52971E-19-1.71551E-18
 -1      3730 9.08351E-05-2.44371E-05-2.84481E-05 8.66784E-06 1.35677E-18-1.83998E-18
 -1      3731 9.11107E-05-2.49345E-05-2.83402E-05 9.32776E-06 5.91433E-19-9.97368E-19
 -1      3732 9.65122E-05-2.84703E-05-2.91575E-05 6.54292E-07-4.41841E-19-1.69219E-18
 -1      3733 9.64689E-05-2.86373E-05-2.90722E-05 7.72626E-07-4.36097E-19-1.65368E-18
 -1      3734 9.64052E-05-2.87500E-05-2.89930E-05 8.38109E-07-3.45721E-19-1.50772E-18
 -1      3735 9.63332E-05-2.88180E-05-2.89351E-05 9.06209E-07-2.24409E-19-1.51834E-18
 -1      3736 9.65729E-05-2.86781E-05-2.90987E-05 6.86255E-07-3.50975E-19-1.63957E-18
 -1      3737 9.62319E-05-2.88407E-05-2.88810E-05 9.42301E-07-9.58180E-21-1.31923E-18
 -1      3738 9.61421E-05-2.88352E-05-2.88449E-05 9.84044E-07-7.12304E-20-1.12558E-18
 -1      3739 9.64091E-05-2.88342E-05-2.89618E-05 8.00641E-07-3.10025E-20-1.58136E-18
 -1      3740 9.60148E-05-2.87901E-05-2.88107E-05 1.00825E-06-5.43276E-19-9.60105E-19
 -1      3741 9.59123E-05-2.87285E-05-2.87916E-05 1.04271E-06-4.75441E-19-1.13860E-18
 -1      3742 9.61827E-05-2.88209E-05-2.88703E-05 8.71962E-07-2.03311E-19-1.44139E-18
 -1      3743 9.57644E-05-2.86306E-05-2.87727E-05 1.06918E-06-3.13717E-19-1.42704E-18
 -1      3744 9.56505E-05-2.85240E-05-2.87666E-05 1.11160E-06-4.85218E-19-1.42158E-18
 -1      3745 9.59102E-05-2.86779E-05-2.88144E-05 9.30982E-07-6.53543E-19-1.19173E-18
 -1      3746 9.54824E-05-2.83821E-05-2.87593E-05 1.15180E-06-6.17565E-19-1.21523E-18
 -1      3747 9.53553E-05-2.82371E-05-2.87628E-05 1.21444E-06-5.98580E-19-8.11046E-19
 -1      3748 9.55973E-05-2.84305E-05-2.87857E-05 1.00266E-06-4.56830E-19-1.25583E-18
 -1      3749 9.51636E-05-2.80561E-05-2.87634E-05 1.27794E-06-4.57539E-19-4.93660E-19
 -1      3750 9.50194E-05-2.78763E-05-2.87734E-05 1.37094E-06-2.41227E-19-5.41578E-19
 -1      3751 9.52411E-05-2.80939E-05-2.87765E-05 1.10739E-06-1.31635E-19-5.24659E-19
 -1      3752 9.47983E-05-2.76584E-05-2.87783E-05 1.46578E-06-4.27312E-19-4.62305E-19
 -1      3753 9.46316E-05-2.74458E-05-2.87917E-05 1.59760E-06-7.11407E-19-2.36503E-19
 -1      3754 9.48325E-05-2.76763E-05-2.87793E-05 1.26226E-06-3.67982E-19-4.07385E-19
 -1      3755 9.43726E-05-2.71917E-05-2.87970E-05 1.73096E-06-9.50786E-19-9.69275E-20
 -1      3756 9.41769E-05-2.69476E-05-2.88104E-05 1.90910E-06-8.29044E-19-3.36442E-19
 -1      3757 9.43572E-05-2.71812E-05-2.87866E-05 1.48151E-06-8.82375E-19-1.24826E-19
 -1      3758 9.38707E-05-2.66585E-05-2.88117E-05 2.08782E-06-7.37095E-19-7.25213E-19
 -1      3759 9.36395E-05-2.63861E-05-2.88207E-05 2.31891E-06-8.00068E-19-7.16204E-19
 -1      3760 9.37976E-05-2.66110E-05-2.87898E-05 1.77843E-06-1.15986E-18-1.98406E-19
 -1      3761 9.32759E-05-2.60653E-05-2.88124E-05 2.54976E-06-2.82909E-19-4.69647E-19
 -1      3762 9.30039E-05-2.57712E-05-2.88118E-05 2.83999E-06 1.37868E-19-2.22086E-19
 -1      3763 9.31342E-05-2.59702E-05-2.87785E-05 2.16553E-06-2.44051E-19-5.63645E-19
 -1      3764 9.25733E-05-2.54264E-05-2.87868E-05 3.13060E-06 4.31584E-19 3.00356E-19
 -1      3765 9.22582E-05-2.51235E-05-2.87694E-05 3.48650E-06 5.14852E-19 4.29351E-19
 -1      3766 9.23472E-05-2.52698E-05-2.87396E-05 2.65598E-06 4.81530E-19 2.54523E-19
 -1      3767 9.17529E-05-2.47695E-05-2.87187E-05 3.84693E-06-1.91756E-19 7.07034E-19
 -1      3768 9.13986E-05-2.44807E-05-2.86757E-05 4.27675E-06 2.28429E-20 3.44238E-19
 -1      3769 9.14189E-05-2.45309E-05-2.86565E-05 3.26627E-06 4.32401E-19 6.99515E-19
 -1      3770 9.08146E-05-2.41434E-05-2.85873E-05 4.72230E-06 2.63654E-19 3.21296E-19
 -1      3771 9.04365E-05-2.39067E-05-2.85075E-05 5.23883E-06 6.57849E-19 4.55586E-19
 -1      3772 9.03371E-05-2.37916E-05-2.85078E-05 4.02071E-06-1.38605E-20 1.23322E-18
 -1      3773 8.97768E-05-2.36273E-05-2.83667E-05 5.79521E-06 8.81497E-19 1.71839E-19
 -1      3774 8.94100E-05-2.35030E-05-2.82368E-05 6.42026E-06 1.05502E-18 2.20541E-19
 -1      3775 8.90991E-05-2.31133E-05-2.82660E-05 4.95988E-06 9.22918E-19 4.76784E-19
 -1      3776 8.86899E-05-2.33456E-05-2.80256E-05 7.13139E-06 6.81196E-19-3.51493E-19
 -1      3777 8.84032E-05-2.34262E-05-2.78312E-05 7.90178E-06 5.19562E-20-1.61311E-19
 -1      3778 8.77196E-05-2.25916E-05-2.78970E-05 6.15495E-06 3.71965E-19-1.10243E-18
 -1      3779 8.76593E-05-2.34864E-05-2.75283E-05 8.84134E-06 1.73346E-19-4.47368E-19
 -1      3780 8.75780E-05-2.39121E-05-2.72568E-05 9.81440E-06 4.58263E-19-1.53510E-19
 -1      3781 8.62431E-05-2.23703E-05-2.73590E-05 7.72858E-06 1.15676E-19-6.81711E-19
 -1      3782 8.68884E-05-2.43323E-05-2.68384E-05 1.10995E-05 3.78976E-19-4.61058E-19
 -1      3783 8.72348E-05-2.53162E-05-2.64856E-05 1.23506E-05 5.59271E-19-2.38976E-19
 -1      3784 8.47691E-05-2.26683E-05-2.66023E-05 9.88578E-06 2.75197E-19-5.62696E-19
 -1      3785 8.67691E-05-2.63211E-05-2.59284E-05 1.41514E-05 6.44857E-19-4.96399E-20
 -1      3786 8.79257E-05-2.81877E-05-2.55134E-05 1.57274E-05 9.71666E-19-2.55773E-19
 -1      3787 8.35070E-05-2.38352E-05-2.55711E-05 1.29411E-05 4.40632E-19-5.66962E-19
 -1      3788 8.80729E-05-3.01137E-05-2.48087E-05 1.82509E-05 8.31795E-19-1.12187E-18
 -1      3789 9.06753E-05-3.34208E-05-2.44171E-05 2.00552E-05 1.21513E-18-1.70605E-18
 -1      3790 8.29283E-05-2.64456E-05-2.42119E-05 1.72922E-05 3.20245E-19-9.91636E-19
 -1      3791 9.24775E-05-3.30728E-05-2.53659E-05-1.86173E-05 2.74053E-20-2.56024E-18
 -1      3792 9.03338E-05-3.02454E-05-2.57494E-05-1.70253E-05-7.18575E-19-1.43996E-18
 -1      3793 8.91390E-05-3.24414E-05-2.43533E-05-2.07413E-05-1.73172E-19-3.50858E-18
 -1      3794 6.64885E-05-1.80213E-05-2.07916E-05-1.24342E-05-1.03967E-18-2.40303E-18
 -1      3795 7.22252E-05-2.27610E-05-2.12171E-05-1.89000E-05-6.72941E-19-1.89828E-18
 -1      3796 9.00098E-05-2.85128E-05-2.63009E-05-1.51397E-05-1.05178E-18-1.21013E-18
 -1      3797 8.90939E-05-2.68663E-05-2.66943E-05-1.37636E-05 4.25540E-19-6.46878E-19
 -1      3798 8.73103E-05-2.77173E-05-2.55581E-05-1.61541E-05-3.18309E-19-1.58962E-18
 -1      3799 8.94011E-05-2.59479E-05-2.71565E-05-1.23309E-05 1.22730E-18-1.06153E-18
 -1      3800 8.91725E-05-2.50721E-05-2.74973E-05-1.12414E-05 1.52320E-18-1.50240E-18
 -1      3801 8.73125E-05-2.51949E-05-2.66188E-05-1.27276E-05 6.50950E-19-4.02870E-19
 -1      3802 8.97274E-05-2.46515E-05-2.78682E-05-1.01609E-05 1.52945E-18-1.99017E-18
 -1      3803 8.98180E-05-2.42084E-05-2.81491E-05-9.31242E-06 9.23422E-19-2.41391E-18
 -1      3804 8.81268E-05-2.39740E-05-2.74806E-05-1.02365E-05 9.06538E-19-1.09642E-18
 -1      3805 9.40570E-05-2.67401E-05-2.88468E-05-2.42583E-06 1.16002E-19-1.36851E-18
 -1      3806 9.42229E-05-2.69708E-05-2.88284E-05-2.18985E-06-9.44203E-20-1.44945E-18
 -1      3807 9.44757E-05-2.72227E-05-2.88196E-05-2.00113E-06-8.52687E-20-1.57983E-18
 -1      3808 9.46179E-05-2.74308E-05-2.87994E-05-1.82085E-06-1.46918E-19-1.32939E-18
 -1      3809 9.41205E-05-2.69013E-05-2.88048E-05-1.93119E-06-7.22173E-21-1.72423E-18
 -1      3810 9.29998E-05-2.56707E-05-2.88513E-05-3.64383E-06-8.27059E-19-1.19101E-18
 -1      3811 9.32176E-05-2.59193E-05-2.88508E-05-3.27852E-06-9.05735E-19-1.37873E-18
 -1      3812 9.23618E-05-2.51460E-05-2.88017E-05-4.46489E-06-5.56425E-19-1.22818E-18
 -1      3813 9.25968E-05-2.53729E-05-2.88204E-05-4.02680E-06-5.51616E-19-1.09160E-18
 -1      3814 9.21855E-05-2.50921E-05-2.87470E-05-3.54394E-06-8.28145E-19-1.72686E-18
 -1      3815 9.16771E-05-2.47086E-05-2.86937E-05-5.45113E-06 3.92898E-20-6.96011E-19
 -1      3816 9.19085E-05-2.48742E-05-2.87406E-05-4.93363E-06-1.16121E-19-9.12392E-19
 -1      3817 9.13329E-05-2.44758E-05-2.86445E-05-4.35900E-06-4.07688E-19-1.46479E-18
 -1      3818 9.10028E-05-2.44664E-05-2.85048E-05-6.63167E-06 6.84699E-21-6.30875E-20
 -1      3819 9.11884E-05-2.45081E-05-2.85905E-05-6.02481E-06 1.72884E-19-5.86698E-19
 -1      3820 9.03910E-05-2.39480E-05-2.84664E-05-5.35909E-06-7.20157E-20-4.96926E-19
 -1      3821 9.04503E-05-2.45848E-05-2.82106E-05-8.05292E-06-9.55823E-21 2.03992E-19
 -1      3822 9.05128E-05-2.44071E-05-2.83453E-05-7.34113E-06 1.36436E-19 5.10554E-20
 -1      3823 8.94047E-05-2.36188E-05-2.81853E-05-6.59861E-06-2.02068E-19-5.85368E-19
 -1      3824 9.02214E-05-2.53110E-05-2.77892E-05-9.78397E-06-1.58702E-19-5.31501E-20
 -1      3825 9.00251E-05-2.47718E-05-2.79800E-05-8.94686E-06 2.09319E-19 5.51014E-19
 -1      3826 8.84667E-05-2.36551E-05-2.77701E-05-8.16639E-06-2.68524E-19-3.61135E-19
 -1      3827 9.06660E-05-2.70102E-05-2.72337E-05-1.19132E-05-4.55596E-19-6.12226E-19
 -1      3828 8.99826E-05-2.58992E-05-2.74749E-05-1.09381E-05-4.23114E-19-3.64522E-19
 -1      3829 8.77454E-05-2.43018E-05-2.71896E-05-1.02063E-05-1.07102E-19-3.87827E-19
 -1      3830 9.23973E-05-3.01910E-05-2.65785E-05-1.44964E-05-2.37408E-19-2.44749E-18
 -1      3831 9.08551E-05-2.82228E-05-2.68361E-05-1.34049E-05-4.05682E-19-1.52464E-18
 -1      3832 8.75671E-05-2.59523E-05-2.64190E-05-1.29460E-05 1.26967E-19-2.19249E-18
 -1      3833 9.62809E-05-3.54598E-05-2.59513E-05-1.72571E-05-6.82993E-19-2.97098E-18
 -1      3834 9.33831E-05-3.23234E-05-2.61280E-05-1.62643E-05-3.28850E-19-2.63283E-18
 -1      3835 8.86424E-05-2.93784E-05-2.55011E-05-1.66038E-05-1.13517E-19-2.76463E-18
 -1      3836 9.35083E-05-3.61543E-05-2.44704E-05 2.13905E-05-7.08852E-19-1.43101E-18
 -1      3837 9.53349E-05-2.42913E-05-3.04282E-05 2.11017E-06 1.60918E-18-1.91501E-18
 -1      3838 9.46535E-05-2.27205E-05-3.08449E-05 2.54336E-06 1.76434E-18-2.24131E-18
 -1      3839 9.84854E-05-3.88225E-05-2.54417E-05-1.94534E-05-2.02069E-18-2.90772E-18
 -1      3840 9.54106E-05-2.83343E-05-2.87445E-05-1.29816E-06-6.00066E-19-1.30644E-18
 -1      3841 9.55067E-05-2.84562E-05-2.87379E-05-1.23886E-06-2.17341E-19-1.47689E-18
 -1      3842 9.06655E-05-2.52664E-05-2.80270E-05 1.03027E-05 2.24283E-19-6.34390E-19
 -1      3843 9.09228E-05-2.60286E-05-2.77862E-05 1.11489E-05 4.02279E-19-4.99962E-19
 -1      3844 8.89420E-05-2.41143E-05-2.77751E-05 9.67993E-06 3.86998E-19-1.73981E-18
 -1      3845 9.59253E-05-2.84470E-05-2.89211E-05-9.15447E-07 5.03335E-19-1.17288E-18
 -1      3846 9.59567E-05-2.82724E-05-2.90012E-05-7.47106E-07 6.87628E-19-1.29070E-18
 -1      3847 9.61856E-05-2.80821E-05-2.91896E-05-5.40637E-07 7.09045E-19-1.41135E-18
 -1      3848 9.63620E-05-2.70546E-05-2.96963E-05-1.64358E-07-4.69965E-19-1.87245E-18
 -1      3849 9.64323E-05-2.75321E-05-2.95347E-05 1.46046E-07-6.06040E-19-1.92839E-18
 -1      3850 9.38429E-05-2.09343E-05-3.12564E-05-2.13817E-07 4.55020E-19-3.04802E-18
 -1      3851 9.38880E-05-2.10332E-05-3.12380E-05-7.63715E-07 1.97556E-19-2.89819E-18
 -1      3852 9.46682E-05-2.23754E-05-3.09548E-05-8.28381E-07 7.45109E-20-2.71770E-18
 -1      3853 9.45689E-05-2.21894E-05-3.09964E-05 2.98083E-09 4.39304E-19-2.79004E-18
 -1      3854 9.59709E-05-2.56998E-05-3.00970E-05-8.98197E-07-4.80865E-19-2.22241E-18
 -1      3855 9.61449E-05-2.64331E-05-2.98887E-05-4.37262E-07-4.21790E-19-2.00006E-18
 -1      3856 9.62893E-05-2.65466E-05-2.98960E-05-3.09049E-07-4.51352E-19-2.12007E-18
 -1      3857 8.19609E-05-2.84291E-05-2.28130E-05-2.08137E-05-5.35032E-19-2.09636E-18
 -1      3858 9.13566E-05-3.48461E-05-2.43801E-05-2.12441E-05-1.42418E-18-3.59878E-18
 -1      3859 9.31934E-05-2.53590E-05-2.90609E-05 8.05539E-06 6.50663E-19 1.57579E-19
 -1      3860 9.07171E-05-2.67635E-05-2.73991E-05 1.23493E-05-4.66478E-19-4.98320E-19
 -1      3861 9.14335E-05-2.80594E-05-2.71169E-05 1.33540E-05-1.04050E-18-1.52266E-18
 -1      3862 8.82632E-05-2.52654E-05-2.70175E-05 1.19376E-05-4.67408E-19-8.07085E-19
 -1      3863 6.53671E-05-1.75425E-05-2.04887E-05 1.12627E-05 1.55780E-18 1.40299E-18
 -1      3864 6.22340E-05-1.51560E-05-1.99259E-05 5.16900E-06 1.73672E-18 2.03145E-18
 -1      3865 9.57392E-05-2.64389E-05-2.97077E-05 9.38758E-07 1.41706E-18-1.30914E-18
 -1      3866 9.56564E-05-2.59006E-05-2.98873E-05 1.52158E-06 1.68745E-18-1.39069E-18
 -1      3867 9.55592E-05-2.53185E-05-3.01068E-05 1.73259E-06 1.64552E-18-1.58138E-18
 -1      3868 9.59028E-05-2.64217E-05-2.97773E-05 7.71956E-07 1.31235E-18-1.28441E-18
 -1      3869 9.44411E-05-2.22245E-05-3.09563E-05 2.14178E-06 1.56628E-18-2.55359E-18
 -1      3870 9.35666E-05-2.62154E-05-2.88613E-05-2.96894E-06-4.62418E-19-1.30202E-18
 -1      3871 9.37591E-05-2.64619E-05-2.88490E-05-2.67102E-06 4.48352E-20-1.08697E-18
 -1      3872 9.29326E-05-2.57271E-05-2.87964E-05-2.88100E-06-5.16234E-19-1.24485E-18
 -1      3873 8.80290E-05-2.16762E-05-2.84569E-05 3.86640E-06-3.41761E-19-8.05837E-19
 -1      3874 8.87702E-05-2.21760E-05-2.85300E-05 5.04192E-06-5.64909E-19 4.19393E-19
 -1      3875 8.86369E-05-2.24905E-05-2.83364E-05 6.10821E-06-2.03374E-19-3.65112E-19
 -1      3876 8.68696E-05-2.12450E-05-2.81097E-05 3.40580E-06-1.40574E-18-6.60674E-19
 -1      3877 1.06322E-04-4.78512E-05-2.47290E-05 2.33722E-05 2.10985E-18-1.29479E-18
 -1      3878 9.52616E-05-2.41474E-05-3.04979E-05-1.60357E-06-4.72373E-19-2.51515E-18
 -1      3879 9.65150E-05-2.79335E-05-2.93873E-05 3.41054E-07-5.49951E-19-1.75320E-18
 -1      3880 9.65183E-05-2.82352E-05-2.92676E-05 5.38210E-07-4.40752E-19-1.73074E-18
 -1      3881 9.65658E-05-2.76053E-05-2.95532E-05 1.71195E-07-5.57032E-19-1.80833E-18
 -1      3882 9.49572E-05-3.45394E-05-2.57930E-05 1.78978E-05-9.88605E-19-1.18962E-18
 -1      3883 8.71912E-05-3.18273E-05-2.36948E-05 2.16647E-05-1.19363E-18 3.59976E-19
 -1      3884 8.33802E-05-2.79610E-05-2.37895E-05 1.90130E-05-6.64643E-19-8.66339E-19
 -1      3885 9.29033E-05-3.20605E-05-2.60649E-05 1.68448E-05-1.67488E-18-7.66215E-19
 -1      3886 9.90257E-05-4.28368E-05-2.39866E-05 2.38895E-05 2.26560E-18-1.96514E-18
 -1      3887 9.54109E-05-2.43018E-05-3.04840E-05-1.28723E-06-3.26587E-19-2.61175E-18
 -1      3888 9.66430E-05-2.82957E-05-2.92918E-05 4.91459E-07-4.63561E-19-1.83036E-18
 -1      3889 9.38864E-05-3.80545E-05-2.37556E-05 2.33564E-05 2.20641E-18-2.27616E-18
 -1      3890 6.54772E-05-1.60496E-05-2.09836E-05-8.18154E-06-5.80232E-19-2.48201E-18
 -1      3891 7.02781E-05-1.83890E-05-2.22016E-05-1.08107E-05-1.65133E-19-2.27271E-18
 -1      3892 6.35720E-05-1.72042E-05-1.97544E-05 1.20464E-05 7.84501E-19-6.45836E-19
 -1      3893 5.96858E-05-1.48108E-05-1.89066E-05 8.24393E-06 3.34474E-19-2.19434E-20
 -1      3894 6.18545E-05-1.47315E-05-2.02021E-05 2.76755E-06-2.11973E-19-4.09130E-19
 -1      3895 8.92667E-05-2.33846E-05-2.82089E-05-8.19938E-06 1.18527E-18-1.59756E-18
 -1      3896 9.35746E-05-2.63383E-05-2.88109E-05-2.34879E-06-9.68930E-20-1.38539E-18
 -1      3897 9.63726E-05-2.81738E-05-2.92317E-05-5.59085E-07 4.64027E-19-1.49882E-18
 -1      3898 9.63723E-05-2.78720E-05-2.93517E-05-3.32706E-07 7.05679E-19-1.59130E-18
 -1      3899 9.62174E-05-2.87819E-05-2.89010E-05-9.90065E-07 1.14800E-19-1.30896E-18
 -1      3900 9.62773E-05-2.87047E-05-2.89570E-05-9.15028E-07 2.95442E-19-1.29238E-18
 -1      3901 9.56502E-05-2.85780E-05-2.87431E-05-1.19946E-06 1.66010E-19-1.78154E-18
 -1      3902 9.57379E-05-2.86649E-05-2.87465E-05-1.16035E-06 1.22547E-19-1.70107E-18
 -1      3903 9.56284E-05-2.85022E-05-2.87687E-05-1.11534E-06-9.57372E-20-1.64324E-18
 -1      3904 8.85198E-05-2.24005E-05-2.83545E-05-6.07658E-06 1.02419E-18-2.27005E-18
 -1      3905 9.62922E-05-2.74666E-05-2.95021E-05-1.00050E-07 8.56778E-19-1.69269E-18
 -1      3906 9.62221E-05-2.69848E-05-2.96670E-05 2.54979E-07 1.05280E-18-1.68170E-18
 -1      3907 9.64504E-05-2.75310E-05-2.95366E-05-1.36917E-07 7.26131E-19-1.49608E-18
 -1      3908 9.45845E-05-2.74045E-05-2.87891E-05-1.61324E-06 7.89619E-20-1.07876E-18
 -1      3909 9.48334E-05-2.76528E-05-2.87888E-05-1.68192E-06-1.85157E-19-1.08434E-18
 -1      3910 9.49556E-05-2.78338E-05-2.87704E-05-1.55049E-06-1.06558E-19-1.16858E-18
 -1      3911 9.55523E-05-2.50085E-05-3.02383E-05 1.53320E-06 1.42153E-18-1.74330E-18
 -1      3912 6.39641E-05-1.57161E-05-2.06008E-05 1.01409E-06 2.09265E-18 1.43579E-18
 -1      3913 9.52484E-05-2.81769E-05-2.87478E-05-1.36201E-06-5.99144E-19-1.37354E-18
 -1      3914 9.53257E-05-2.82088E-05-2.87640E-05-1.22145E-06-3.89945E-19-1.30658E-18
 -1      3915 9.51411E-05-2.80241E-05-2.87617E-05-1.45269E-06-2.82556E-19-1.02308E-18
 -1      3916 8.48235E-05-2.03628E-05-2.76324E-05-7.13357E-07-4.46799E-19-5.73755E-19
 -1      3917 8.48612E-05-2.03972E-05-2.76365E-05 1.02275E-06-1.27064E-18-4.66377E-19
 -1      3918 9.61471E-05-2.85052E-05-2.89919E-05-8.76967E-07 3.87788E-19-1.20194E-18
 -1      3919 9.49851E-05-2.32265E-05-3.07383E-05 1.54900E-06 1.35438E-18-2.45378E-18
 -1      3920 9.54551E-05-2.43534E-05-3.04891E-05-9.40024E-07-1.40886E-19-2.52326E-18
 -1      3921 9.53547E-05-2.39458E-05-3.06125E-05-4.54712E-07 1.10961E-20-2.63910E-18
 -1      3922 9.54150E-05-2.41363E-05-3.05662E-05-7.80710E-07-1.63412E-19-2.53658E-18
 -1      3923 9.60970E-05-2.56357E-05-3.01724E-05-5.41907E-07-2.13168E-19-2.51377E-18
 -1      3924 8.57990E-05-2.10267E-05-2.77781E-05-4.27457E-06-2.59723E-19-2.80179E-18
 -1      3925 8.51928E-05-2.06339E-05-2.76878E-05-2.72476E-06 7.37711E-20-2.64452E-18
 -1      3926 8.38424E-05-2.01630E-05-2.72730E-05-1.89072E-06-1.42032E-18-1.33806E-18
 -1      3927 6.55273E-05-1.85323E-05-1.99060E-05-1.44866E-05 1.05610E-18-7.02349E-19
 -1      3928 7.16194E-05-2.15363E-05-2.14004E-05-1.64460E-05 1.01601E-18-9.46976E-19
 -1      3929 6.55441E-05-1.71552E-05-2.07958E-05-9.60179E-06 2.39313E-18-2.46500E-19
 -1      3930 9.14801E-05-2.89833E-05-2.67779E-05 1.44695E-05-1.31072E-18-2.09357E-18
 -1      3931 9.24579E-05-3.06166E-05-2.64438E-05 1.55106E-05-1.75199E-18-2.04019E-18
 -1      3932 8.86365E-05-2.92256E-05-2.54463E-05 1.69907E-05-5.48674E-19-1.44643E-18
 -1      3933 8.81142E-05-2.69609E-05-2.62232E-05 1.43954E-05-1.99379E-18-2.72177E-18
 -1      3934 8.14606E-05-2.61347E-05-2.35484E-05-1.75319E-05-1.60208E-19-2.70599E-18
 -1      3935 9.57696E-05-2.87433E-05-2.87272E-05-1.22330E-06-7.63853E-20-1.05483E-18
 -1      3936 8.52774E-05-3.25761E-05-2.25554E-05 2.38144E-05 1.27654E-18-2.78430E-18
 -1      3937 7.05629E-05-1.98036E-05-2.15949E-05 1.39451E-05-1.80678E-19 1.27358E-18
 -1      3938 7.12493E-05-1.86766E-05-2.25474E-05 1.00319E-05 6.07475E-19-1.09957E-18
 -1      3939 7.63288E-05-2.27326E-05-2.29893E-05 1.55269E-05-1.22963E-18-1.03719E-18
 -1      3940 8.69167E-05-2.17974E-05-2.79277E-05 5.68924E-06-8.14291E-19-5.74471E-19
 -1      3941 8.80598E-05-2.25180E-05-2.80800E-05 6.82778E-06-2.00752E-19-1.76940E-18
 -1      3942 8.77617E-05-2.27676E-05-2.78675E-05 7.65852E-06 9.39992E-20-2.16795E-18
 -1      3943 8.23533E-05-3.00033E-05-2.23108E-05-2.25155E-05-3.43710E-19-3.50979E-18
 -1      3944 9.55185E-05-2.45163E-05-3.04370E-05 1.31312E-06 1.30092E-18-2.16818E-18
 -1      3945 9.52709E-05-2.38320E-05-3.06164E-05 1.06337E-06 1.10530E-18-2.46392E-18
 -1      3946 6.46453E-05-1.52591E-05-2.11348E-05-4.09199E-06-3.50453E-19-1.96733E-18
 -1      3947 9.52048E-05-2.36466E-05-3.06804E-05 8.22402E-07 9.87237E-19-2.39275E-18
 -1      3948 9.51526E-05-2.34856E-05-3.07232E-05 4.73400E-07 7.74575E-19-2.49683E-18
 -1      3949 9.57558E-05-2.47901E-05-3.03976E-05 6.63306E-07 8.41293E-19-2.28603E-18
 -1      3950 9.60566E-05-2.88226E-05-2.88136E-05-1.07562E-06-1.05167E-20-1.20092E-18
 -1      3951 9.61291E-05-2.88152E-05-2.88475E-05-1.03259E-06 5.95470E-20-1.28629E-18
 -1      3952 9.63287E-05-2.88093E-05-2.89383E-05-9.00857E-07 1.69875E-19-1.37031E-18
 -1      3953 8.09264E-05-3.05932E-05-2.14301E-05 2.40996E-05 1.57388E-18-2.21110E-18
 -1      3954 7.34074E-05-2.66266E-05-1.97736E-05 2.44801E-05 1.29570E-18-2.12071E-18
 -1      3955 6.90651E-05-2.20082E-05-2.02119E-05 1.94093E-05 1.00158E-18-1.34752E-18
 -1      3956 7.83786E-05-2.62459E-05-2.23793E-05 2.01156E-05 4.80082E-19-1.92782E-18
 -1      3957 9.65640E-05-2.88308E-05-2.90275E-05 6.31016E-07-6.50072E-20-1.77089E-18
 -1      3958 9.64632E-05-2.88661E-05-2.89701E-05 6.80219E-07 8.05080E-20-1.68990E-18
 -1      3959 9.63325E-05-2.88558E-05-2.89183E-05 7.00581E-07 2.47293E-20-1.56674E-18
 -1      3960 9.62053E-05-2.88145E-05-2.88811E-05 7.35429E-07-2.39447E-19-1.47816E-18
 -1      3961 9.64694E-05-2.88573E-05-2.89772E-05 5.40602E-07 4.08157E-20-1.31508E-18
 -1      3962 9.60435E-05-2.87339E-05-2.88475E-05 7.52502E-07-3.53032E-19-1.23969E-18
 -1      3963 9.58955E-05-2.86326E-05-2.88259E-05 7.86377E-07-5.86761E-19-9.62052E-19
 -1      3964 9.61789E-05-2.87700E-05-2.88899E-05 5.86393E-07-1.27056E-19-1.27363E-18
 -1      3965 9.57069E-05-2.84956E-05-2.88061E-05 8.09017E-07-3.63946E-19-8.57512E-19
 -1      3966 9.55384E-05-2.83445E-05-2.87963E-05 8.52449E-07 1.91496E-19-4.92742E-19
 -1      3967 9.58316E-05-2.85500E-05-2.88349E-05 6.31626E-07 1.03874E-20-5.21795E-19
 -1      3968 9.53215E-05-2.81588E-05-2.87862E-05 8.87813E-07-2.59198E-20-5.72807E-19
 -1      3969 9.51294E-05-2.79637E-05-2.87842E-05 9.49828E-07-1.52879E-19-4.31285E-19
 -1      3970 9.54300E-05-2.82203E-05-2.88034E-05 6.90849E-07 6.63947E-20-1.38127E-19
 -1      3971 9.48794E-05-2.77336E-05-2.87799E-05 1.00407E-06-1.71117E-19-8.45517E-19
 -1      3972 9.46576E-05-2.74977E-05-2.87820E-05 1.09190E-06-3.77052E-19-8.76511E-19
 -1      3973 9.49681E-05-2.77928E-05-2.87874E-05 7.76775E-07-3.96356E-19-9.24709E-19
 -1      3974 9.43660E-05-2.72248E-05-2.87790E-05 1.16994E-06-7.44602E-19-9.27162E-19
 -1      3975 9.41061E-05-2.69488E-05-2.87812E-05 1.28967E-06-9.63571E-19-8.91641E-19
 -1      3976 9.44320E-05-2.72745E-05-2.87784E-05 9.00048E-07-5.09878E-19-1.47694E-18
 -1      3977 9.37617E-05-2.66332E-05-2.87749E-05 1.39718E-06-1.07405E-18-9.18282E-19
 -1      3978 9.34545E-05-2.63190E-05-2.87722E-05 1.55471E-06-1.00754E-18-7.66494E-19
 -1      3979 9.38024E-05-2.66679E-05-2.87672E-05 1.06807E-06-9.26021E-19-1.53822E-18
 -1      3980 9.30452E-05-2.59625E-05-2.87567E-05 1.69609E-06-4.55877E-19-4.04099E-19
 -1      3981 9.26804E-05-2.56130E-05-2.87434E-05 1.89682E-06 3.00909E-19-1.03356E-19
 -1      3982 9.30569E-05-2.59745E-05-2.87430E-05 1.29191E-06-5.45479E-19-6.49971E-19
 -1      3983 9.21918E-05-2.52189E-05-2.87114E-05 2.07769E-06 5.39534E-19-2.36730E-19
 -1      3984 9.17595E-05-2.48411E-05-2.86800E-05 2.32787E-06 6.34444E-19 1.29227E-19
 -1      3985 9.21687E-05-2.51993E-05-2.86924E-05 1.57870E-06 4.35742E-19-2.30464E-19
 -1      3986 9.11767E-05-2.44171E-05-2.86222E-05 2.55568E-06 3.87058E-19-8.34880E-20
 -1      3987 9.06687E-05-2.40239E-05-2.85630E-05 2.86381E-06 3.46354E-19-1.33932E-19
 -1      3988 9.11089E-05-2.43521E-05-2.85987E-05 1.93990E-06 3.78128E-19-6.29489E-19
 -1      3989 8.99754E-05-2.35839E-05-2.84674E-05 3.14977E-06 3.22951E-19 1.95589E-19
 -1      3990 8.93870E-05-2.31967E-05-2.83680E-05 3.52964E-06 3.52550E-19 3.97955E-19
 -1      3991 8.98465E-05-2.34523E-05-2.84402E-05 2.39155E-06 6.44147E-19-8.18022E-19
 -1      3992 8.85640E-05-2.27623E-05-2.82189E-05 3.89282E-06-7.61405E-20-3.73369E-21
 -1      3993 8.78966E-05-2.24141E-05-2.80635E-05 4.36885E-06 1.92985E-19-7.53260E-19
 -1      3994 8.83467E-05-2.25303E-05-2.81887E-05 2.96049E-06-2.39786E-19-7.97527E-19
 -1      3995 8.69198E-05-2.20162E-05-2.78403E-05 4.84395E-06 5.86479E-19-1.51888E-18
 -1      3996 8.61857E-05-2.17570E-05-2.76093E-05 5.46016E-06 2.11173E-19-1.65133E-18
 -1      3997 8.65668E-05-2.16286E-05-2.78072E-05 3.69530E-06-1.83900E-19-1.55372E-18
 -1      3998 8.50238E-05-2.14401E-05-2.72845E-05 6.10862E-06 2.53567E-19-1.56247E-18
 -1      3999 8.42554E-05-2.13435E-05-2.69536E-05 6.94062E-06 6.10525E-20-1.21563E-18
 -1      4000 8.44506E-05-2.08061E-05-2.72463E-05 4.68779E-06 5.13421E-19-1.63964E-18
 -1      4001 8.28594E-05-2.11646E-05-2.64890E-05 7.86676E-06-4.40955E-19-5.81673E-19
 -1      4002 8.21274E-05-2.13412E-05-2.60286E-05 9.04067E-06 1.78374E-19-7.87739E-19
 -1      4003 8.19210E-05-2.01403E-05-2.64381E-05 6.08704E-06 1.72499E-19-1.57288E-18
 -1      4004 8.04368E-05-2.13853E-05-2.53677E-05 1.04450E-05 3.72316E-19-9.29184E-19
 -1      4005 7.98747E-05-2.20190E-05-2.47342E-05 1.21554E-05 2.70002E-19-1.27059E-18
 -1      4006 7.88377E-05-1.97346E-05-2.52817E-05 8.18606E-06 1.59398E-20-8.86815E-19
 -1      4007 7.88524E-05-2.29005E-05-2.40527E-05 1.44290E-05-8.78565E-20-1.78422E-18
 -1      4008 7.88671E-05-2.43854E-05-2.32343E-05 1.69202E-05-6.53870E-20-2.16175E-18
 -1      4009 7.46842E-05-2.25218E-05-2.22625E-05 1.70001E-05 6.49635E-20-2.21725E-18
 -1      4010 7.59736E-05-2.02124E-05-2.38547E-05 1.16791E-05-1.07385E-19-1.91760E-18
 -1      4011 8.11687E-05-2.71400E-05-2.31184E-05-1.96287E-05 8.01892E-19-2.93754E-18
 -1      4012 9.67508E-05-2.81411E-05-2.94023E-05 3.27155E-07-5.53952E-19-1.80764E-18
 -1      4013 9.67465E-05-2.84123E-05-2.92884E-05 4.56082E-07-4.48039E-19-1.79653E-18
 -1      4014 8.43197E-05-2.37522E-05-2.59141E-05-1.22646E-05 3.87490E-19-1.01243E-18
 -1      4015 8.46200E-05-2.30517E-05-2.64218E-05-1.08795E-05 1.14955E-18-8.68415E-19
 -1      4016 8.58931E-05-2.28772E-05-2.69823E-05-9.60572E-06 2.64614E-19-8.47440E-19
 -1      4017 8.63886E-05-2.25676E-05-2.73829E-05-8.58241E-06-4.65703E-20-8.32414E-19
 -1      4018 8.30498E-05-2.15366E-05-2.63364E-05-9.04707E-06 5.37787E-19-9.88777E-19
 -1      4019 9.63704E-05-2.84128E-05-2.91205E-05-7.01202E-07 3.28934E-19-1.42056E-18
 -1      4020 9.65263E-05-2.82305E-05-2.92703E-05-5.27029E-07 4.32980E-19-1.58771E-18
 -1      4021 9.63322E-05-2.85847E-05-2.90362E-05-8.35293E-07 3.28865E-19-1.39937E-18
 -1      4022 9.64701E-05-2.86308E-05-2.90752E-05-7.64264E-07 3.14581E-19-1.45088E-18
 -1      4023 9.03865E-05-2.38604E-05-2.85089E-05-4.01600E-06-1.82215E-19-1.56655E-18
 -1      4024 9.08438E-05-2.41824E-05-2.85819E-05-3.59638E-06-5.35264E-19-1.61067E-18
 -1      4025 9.14391E-05-2.45692E-05-2.86572E-05-3.25662E-06-7.75646E-19-1.32031E-18
 -1      4026 9.18447E-05-2.49087E-05-2.86972E-05-2.91380E-06-6.02434E-19-1.17622E-18
 -1      4027 9.05923E-05-2.39780E-05-2.85370E-05-2.92307E-06-5.12283E-19-1.30760E-18
 -1      4028 8.79048E-05-2.27717E-05-2.79053E-05-6.16064E-06 8.92451E-20-1.42891E-18
 -1      4029 8.84053E-05-2.29197E-05-2.80856E-05-5.51205E-06 1.38867E-19-1.28056E-18
 -1      4030 8.65638E-05-2.26428E-05-2.73779E-05-7.73110E-06-4.88223E-19-9.51205E-19
 -1      4031 8.70091E-05-2.25840E-05-2.76370E-05-6.89338E-06-4.09480E-19-1.47674E-18
 -1      4032 8.61550E-05-2.18213E-05-2.75494E-05-5.71833E-06-2.14613E-19-1.35746E-18
 -1      4033 8.53014E-05-2.30731E-05-2.66427E-05-9.84415E-06-2.51405E-20-1.40034E-18
 -1      4034 8.55900E-05-2.26727E-05-2.69980E-05-8.73290E-06-2.78840E-19-9.58335E-19
 -1      4035 8.42914E-05-2.14984E-05-2.68777E-05-7.36955E-06-3.87139E-19-1.50153E-18
 -1      4036 8.44689E-05-2.44162E-05-2.56971E-05-1.27957E-05 5.96434E-19-2.33543E-18
 -1      4037 8.42316E-05-2.33978E-05-2.61183E-05-1.12472E-05 6.11857E-19-1.67677E-18
 -1      4038 8.22552E-05-2.16339E-05-2.59379E-05-9.77030E-06 5.27907E-19-2.18857E-18
 -1      4039 8.06932E-05-2.42154E-05-2.41790E-05-1.52917E-05 1.07401E-20-2.18462E-18
 -1      4040 7.50002E-05-1.93326E-05-2.39213E-05-9.53202E-06 5.52170E-19-2.56094E-18
 -1      4041 7.74001E-05-2.14629E-05-2.39033E-05-1.32093E-05 2.85480E-19-2.34041E-18
 -1      4042 8.71989E-05-2.29786E-05-2.75149E-05 8.53984E-06-2.76725E-20-2.76255E-18
 -1      4043 9.59181E-05-2.59799E-05-2.99662E-05 9.58813E-07 1.34593E-18-1.60943E-18
 -1      4044 9.56627E-05-2.50395E-05-3.02657E-05 1.24910E-06 1.34800E-18-1.95777E-18
 -1      4045 9.59052E-05-2.55342E-05-3.01649E-05 7.68861E-07 1.16854E-18-2.08415E-18
 -1      4046 9.60526E-05-2.64928E-05-2.98192E-05 5.48477E-07 1.19558E-18-1.64594E-18
 -1      4047 9.51364E-05-2.34223E-05-3.07455E-05 2.07722E-07 5.55756E-19-2.45916E-18
 -1      4048 9.51433E-05-2.34432E-05-3.07458E-05-1.86333E-07 2.10669E-19-2.56280E-18
 -1      4049 9.57016E-05-2.45235E-05-3.04857E-05 2.60061E-07 5.93884E-19-2.23938E-18
 -1      4050 8.77650E-05-2.24422E-05-2.79941E-05-6.93220E-06 7.20482E-19-1.46136E-18
 -1      4051 8.91994E-05-2.32278E-05-2.82692E-05-4.96115E-06-3.16414E-19-1.06833E-18
 -1      4052 8.96946E-05-2.34929E-05-2.83881E-05-4.44442E-06-8.11682E-20-1.20712E-18
 -1      4053 8.93155E-05-2.31716E-05-2.83325E-05-3.62782E-06-3.59007E-19-1.24671E-18
 -1      4054 7.70664E-05-2.38767E-05-2.27471E-05-1.76229E-05 1.00696E-18-2.12388E-18
 -1      4055 8.39188E-05-2.62925E-05-2.46207E-05-1.63964E-05 3.80649E-19-2.54878E-18
 -1      4056 8.34585E-05-2.47112E-05-2.52091E-05-1.44418E-05-5.51711E-20-1.65026E-18
 -1      4057 7.48134E-05-2.11950E-05-2.30613E-05-1.37985E-05 1.18752E-18-1.51986E-18
 -1      4058 8.58239E-05-2.32744E-05-2.68379E-05 1.02541E-05 3.45854E-19-2.99090E-18
 -1      4059 8.55687E-05-2.39384E-05-2.63821E-05 1.15808E-05-3.82483E-19-2.22934E-18
 -1      4060 9.37925E-05-2.66107E-05-2.87908E-05-1.76245E-06 3.62482E-20-1.16002E-18
 -1      4061 9.40460E-05-2.68904E-05-2.87864E-05-1.58983E-06 1.03495E-19-8.69240E-19
 -1      4062 6.79237E-05-1.64470E-05-2.21059E-05 2.03038E-06 1.20728E-18 3.47164E-19
 -1      4063 6.59622E-05-1.57342E-05-2.13125E-05-4.08236E-06 2.62760E-18 6.11928E-19
 -1      4064 9.23517E-05-2.52884E-05-2.87403E-05-2.64300E-06-5.46793E-19-9.78655E-19
 -1      4065 9.27027E-05-2.56206E-05-2.87578E-05-2.36471E-06-3.61163E-19-8.79884E-19
 -1      4066 9.16849E-05-2.47852E-05-2.86617E-05-2.36279E-06-4.82152E-19-6.10115E-19
 -1      4067 8.52849E-05-2.06837E-05-2.77028E-05 2.71697E-06-2.00261E-18-1.16517E-18
 -1      4068 8.59624E-05-2.11252E-05-2.77874E-05 4.28069E-06-1.56635E-18-7.42476E-19
 -1      4069 8.53708E-05-2.11429E-05-2.75120E-05 5.06126E-06-1.46942E-18-1.89267E-18
 -1      4070 8.39268E-05-2.02038E-05-2.72890E-05 1.91632E-06-1.94268E-18-2.19224E-19
 -1      4071 6.47113E-05-1.49775E-05-2.11974E-05-1.27983E-06-6.11684E-20-1.29330E-18
 -1      4072 6.79888E-05-1.59670E-05-2.23600E-05-3.57716E-06 2.96728E-19-1.47214E-18
 -1      4073 6.56617E-05-1.55117E-05-2.14953E-05 2.62150E-06-9.87877E-20-3.14990E-20
 -1      4074 9.63145E-05-2.63871E-05-2.99737E-05-2.51610E-07-1.64808E-19-2.30107E-18
 -1      4075 9.58654E-05-2.87460E-05-2.87638E-05-1.13424E-06 8.89903E-20-1.27328E-18
 -1      4076 9.59460E-05-2.87913E-05-2.87805E-05-1.10167E-06 1.54037E-19-1.17400E-18
 -1      4077 9.61320E-05-2.88232E-05-2.88479E-05-9.81647E-07 1.59126E-19-1.30336E-18
 -1      4078 9.58965E-05-2.87122E-05-2.87942E-05-1.04339E-06 4.29202E-19-1.44162E-18
 -1      4079 9.66206E-05-2.73368E-05-2.96885E-05 2.09974E-08-4.12572E-19-2.00741E-18
 -1      4080 9.66944E-05-2.77788E-05-2.95396E-05 2.27932E-07-4.72874E-19-1.86321E-18
 -1      4081 9.67864E-05-2.78821E-05-2.95289E-05 1.98930E-07-4.81933E-19-1.89418E-18
 -1      4082 9.67165E-05-2.86138E-05-2.91852E-05 5.17448E-07-3.89864E-19-1.77857E-18
 -1      4083 9.66538E-05-2.87503E-05-2.91024E-05 5.96802E-07-3.11867E-19-1.71506E-18
 -1      4084 9.66890E-05-2.87767E-05-2.91059E-05 4.75714E-07-1.14893E-19-1.55796E-18
 -1      4085 9.31313E-05-2.59768E-05-2.87794E-05-2.15051E-06-3.75664E-19-8.48311E-19
 -1      4086 9.34308E-05-2.62870E-05-2.87827E-05-1.92842E-06-1.93394E-19-1.08176E-18
 -1      4087 9.33944E-05-2.62639E-05-2.87646E-05-1.56506E-06-1.45739E-19-6.67619E-19
 -1      4088 8.58447E-05-2.14885E-05-2.75651E-05-6.22181E-06-3.57284E-20-7.01330E-19
 -1      4089 8.53130E-05-2.73434E-05-2.48150E-05 1.68201E-05 3.35862E-19-2.66179E-19
 -1      4090 7.99576E-05-2.46808E-05-2.35994E-05 1.68777E-05-4.73718E-19-1.18256E-18
 -1      4091 7.84505E-05-2.25071E-05-2.40485E-05 1.38255E-05 2.67586E-19-5.41979E-19
 -1      4092 8.48420E-05-2.61265E-05-2.52341E-05 1.53463E-05-4.83811E-19-1.30648E-18
 -1      4093 7.40804E-05-1.90107E-05-2.35949E-05 8.33432E-06 1.67716E-19-1.86427E-18
 -1      4094 7.03981E-05-1.70403E-05-2.27103E-05 5.75077E-06 1.06913E-18-1.46369E-18
 -1      4095 7.12164E-05-1.70312E-05-2.32567E-05 1.11151E-06 1.12056E-18-3.13495E-19
 -1      4096 9.64268E-05-2.65456E-05-2.99484E-05-1.57639E-07-1.44302E-19-2.27316E-18
 -1      4097 9.66545E-05-2.83415E-05-2.92799E-05-5.10198E-07 3.79238E-19-1.51938E-18
 -1      4098 9.66553E-05-2.80579E-05-2.93958E-05-3.52654E-07 5.70112E-19-1.40793E-18
 -1      4099 9.55975E-05-2.84288E-05-2.87851E-05-9.85824E-07-4.19982E-19-1.21300E-18
 -1      4100 9.57416E-05-2.85601E-05-2.87933E-05-9.41374E-07 1.92899E-19-1.25450E-18
 -1      4101 7.14407E-05-2.08810E-05-2.15544E-05 1.55858E-05 4.57835E-19-1.51017E-18
 -1      4102 6.67760E-05-1.85952E-05-2.04648E-05 1.44522E-05 6.29779E-19-1.35120E-18
 -1      4103 6.59894E-05-1.66692E-05-2.11879E-05 9.00326E-06-1.65502E-20-4.47458E-19
 -1      4104 7.17498E-05-1.94994E-05-2.24470E-05 1.26601E-05-2.99128E-19-1.77396E-18
 -1      4105 8.78396E-05-2.24245E-05-2.80169E-05-4.52873E-06-9.44551E-20-1.02456E-18
 -1      4106 8.07448E-05-2.23489E-05-2.50065E-05-1.24081E-05 5.26900E-19-1.95344E-18
 -1      4107 9.65856E-05-2.76771E-05-2.95368E-05-2.12352E-07 5.52556E-19-1.56456E-18
 -1      4108 9.65062E-05-2.72191E-05-2.96931E-05 3.52299E-08 6.77916E-19-1.60019E-18
 -1      4109 9.66989E-05-2.77713E-05-2.95391E-05-2.08781E-07 4.38280E-19-1.32527E-18
 -1      4110 9.43524E-05-2.71777E-05-2.87876E-05-1.46540E-06 6.36597E-20-9.42880E-19
 -1      4111 9.45661E-05-2.74237E-05-2.87805E-05-1.33718E-06-5.85065E-20-1.08937E-18
 -1      4112 9.40574E-05-2.69001E-05-2.87770E-05-1.29405E-06 9.00419E-20-4.61916E-19
 -1      4113 7.24053E-05-1.71278E-05-2.36009E-05-5.59185E-06 8.99070E-19-2.27178E-18
 -1      4114 7.82236E-05-1.97743E-05-2.50400E-05-8.11883E-06 8.91003E-19-2.43463E-18
 -1      4115 8.48062E-05-2.18497E-05-2.69784E-05 8.00646E-06-4.68388E-19-3.36493E-18
 -1      4116 9.61975E-05-2.65504E-05-2.98468E-05 4.06623E-07 1.11904E-18-1.70987E-18
 -1      4117 9.49812E-05-2.78411E-05-2.87731E-05-1.38226E-06-1.65903E-19-1.30919E-18
 -1      4118 9.52394E-05-2.80901E-05-2.87767E-05-1.08998E-06-3.93831E-19-1.16891E-18
 -1      4119 9.54024E-05-2.82626E-05-2.87762E-05-1.02540E-06-6.31844E-19-1.10114E-18
 -1      4120 9.55109E-05-2.83163E-05-2.87971E-05-8.49815E-07-3.72442E-19-1.06734E-18
 -1      4121 9.65817E-05-2.87065E-05-2.90904E-05-6.89915E-07 2.50483E-19-1.29496E-18
 -1      4122 9.66356E-05-2.85572E-05-2.91741E-05-5.94573E-07 3.87961E-19-1.34157E-18
 -1      4123 9.67451E-05-2.84040E-05-2.92892E-05-4.41986E-07 3.92093E-19-9.92067E-19
 -1      4124 9.58795E-05-2.49495E-05-3.03833E-05-1.99062E-07 1.57668E-20-2.34920E-18
 -1      4125 6.95832E-05-1.75927E-05-2.22327E-05-7.32459E-06 1.70050E-18 6.75482E-19
 -1      4126 8.51173E-05-2.44951E-05-2.60228E-05 1.27402E-05-1.17392E-18-2.24844E-18
 -1      4127 8.51219E-05-2.52378E-05-2.56360E-05 1.39069E-05-1.73019E-18-1.87371E-18
 -1      4128 8.21017E-05-2.35146E-05-2.50554E-05 1.34927E-05-5.12816E-19 2.64583E-19
 -1      4129 8.28071E-05-2.24178E-05-2.58574E-05 1.09097E-05-6.06768E-19-2.33589E-18
 -1      4130 9.26117E-05-2.55549E-05-2.87312E-05-1.91660E-06-3.36143E-19-4.11228E-19
 -1      4131 8.20906E-05-1.96436E-05-2.67726E-05 1.42704E-06-1.47997E-18 7.30708E-19
 -1      4132 8.25908E-05-1.99587E-05-2.68545E-05 3.11628E-06-1.85132E-18-3.88285E-19
 -1      4133 9.64159E-05-2.88507E-05-2.89564E-05-7.94480E-07-1.88671E-20-1.13734E-18
 -1      4134 9.65033E-05-2.88010E-05-2.90139E-05-7.37809E-07 5.72020E-20-1.33615E-18
 -1      4135 9.66469E-05-2.87389E-05-2.91039E-05-5.84622E-07 1.89113E-19-9.58882E-19
 -1      4136 9.60603E-05-2.56598E-05-3.01760E-05 5.25825E-07 7.91377E-19-2.15991E-18
 -1      4137 9.60322E-05-2.54928E-05-3.02390E-05 3.77069E-07 6.97274E-19-2.26762E-18
 -1      4138 8.25338E-05-1.99047E-05-2.68498E-05-3.20759E-06-1.73761E-18-2.27421E-18
 -1      4139 8.20404E-05-1.96182E-05-2.67707E-05-1.12538E-06-2.12831E-18 1.74591E-19
 -1      4140 8.06390E-05-1.92313E-05-2.62994E-05 1.14899E-07-1.57363E-18-3.16946E-19
 -1      4141 9.68089E-05-2.84746E-05-2.92862E-05 3.70003E-07-4.01080E-19-1.82671E-18
 -1      4142 9.61835E-05-2.61223E-05-3.00226E-05 4.96846E-07 8.36528E-19-1.92691E-18
 -1      4143 9.65897E-05-2.88715E-05-2.90217E-05 3.60478E-07 2.21575E-19-1.19678E-18
 -1      4144 9.64589E-05-2.88667E-05-2.89679E-05 3.90920E-07 9.57846E-20-1.00021E-18
 -1      4145 9.68158E-05-2.85168E-05-2.92729E-05-3.83776E-07 1.46371E-19-1.13096E-18
 -1      4146 9.68385E-05-2.82748E-05-2.93817E-05-2.82678E-07 1.96950E-19-1.39419E-18
 -1      4147 8.66482E-05-2.17600E-05-2.78129E-05-3.76977E-06 8.17163E-20-8.38213E-19
 -1      4148 8.74496E-05-2.21476E-05-2.80095E-05-3.33371E-06-1.74556E-19-5.80586E-19
 -1      4149 9.63016E-05-2.88187E-05-2.89213E-05 3.95964E-07-4.44559E-20-9.03691E-19
 -1      4150 9.61399E-05-2.87384E-05-2.88859E-05 4.20609E-07-8.88894E-20-8.00682E-19
 -1      4151 9.64081E-05-2.88349E-05-2.89602E-05 2.21736E-07 2.65543E-19-9.22276E-19
 -1      4152 9.59498E-05-2.86216E-05-2.88555E-05 4.27355E-07-8.87487E-21-7.45540E-19
 -1      4153 9.57621E-05-2.84813E-05-2.88341E-05 4.54226E-07 2.46123E-19-4.59320E-19
 -1      4154 9.60630E-05-2.86702E-05-2.88825E-05 2.39670E-07-1.06313E-20-3.73629E-19
 -1      4155 9.55394E-05-2.83066E-05-2.88156E-05 4.64238E-07 6.78182E-20-4.73627E-19
 -1      4156 9.53236E-05-2.81132E-05-2.88039E-05 5.00098E-07-4.10253E-19-7.47690E-19
 -1      4157 9.56558E-05-2.83759E-05-2.88336E-05 2.59306E-07 1.15815E-19-7.26767E-19
 -1      4158 9.50683E-05-2.78900E-05-2.87930E-05 5.19030E-07-6.05023E-19-5.86012E-19
 -1      4159 9.48185E-05-2.76491E-05-2.87869E-05 5.66744E-07-5.05580E-19-8.66786E-19
 -1      4160 9.51848E-05-2.79731E-05-2.88031E-05 2.89399E-07-3.46532E-19-5.29547E-19
 -1      4161 9.45240E-05-2.73792E-05-2.87792E-05 5.94921E-07-6.36250E-19-9.61634E-19
 -1      4162 9.42303E-05-2.70930E-05-2.87744E-05 6.57233E-07-6.76215E-19-9.49178E-19
 -1      4163 9.46455E-05-2.74736E-05-2.87837E-05 3.32285E-07-6.98068E-19-6.25978E-19
 -1      4164 9.38810E-05-2.67728E-05-2.87651E-05 7.02844E-07-7.14415E-19-1.08346E-18
 -1      4165 9.35377E-05-2.64419E-05-2.87566E-05 7.87392E-07-7.37129E-19-6.79693E-19
 -1      4166 9.39991E-05-2.68614E-05-2.87655E-05 3.93362E-07-6.76070E-19-7.52899E-19
 -1      4167 9.31237E-05-2.60788E-05-2.87399E-05 8.45951E-07-4.81705E-19-2.99687E-19
 -1      4168 9.27157E-05-2.57041E-05-2.87215E-05 9.53028E-07 2.66561E-20 5.19245E-20
 -1      4169 9.32516E-05-2.61670E-05-2.87381E-05 4.70998E-07-2.58352E-19-2.54669E-19
 -1      4170 9.22210E-05-2.52956E-05-2.86904E-05 1.03082E-06 1.61390E-19 1.80236E-19
 -1      4171 9.17337E-05-2.48802E-05-2.86548E-05 1.16415E-06 4.81771E-19-2.11967E-19
 -1      4172 9.23562E-05-2.53761E-05-2.86886E-05 5.70865E-07 1.57862E-19 3.14467E-20
 -1      4173 9.11413E-05-2.44309E-05-2.86005E-05 1.26440E-06 2.04499E-19-2.59156E-19
 -1      4174 9.05593E-05-2.39813E-05-2.85381E-05 1.42850E-06 6.66805E-20-5.18668E-19
 -1      4175 9.12856E-05-2.44963E-05-2.86010E-05 6.97709E-07 3.32237E-20-5.92901E-19
 -1      4176 8.98488E-05-2.34986E-05-2.84492E-05 1.55622E-06 1.49485E-19-1.12570E-18
 -1      4177 8.91553E-05-2.30256E-05-2.83475E-05 1.75839E-06 2.65843E-19-1.68151E-18
 -1      4178 9.00026E-05-2.35369E-05-2.84549E-05 8.56055E-07-3.66938E-19-1.90280E-18
 -1      4179 8.83004E-05-2.25206E-05-2.82089E-05 1.92170E-06-1.21982E-20-1.95221E-18
 -1      4180 8.74754E-05-2.20399E-05-2.80518E-05 2.17535E-06-7.79441E-19-2.23541E-18
 -1      4181 8.84623E-05-2.25129E-05-2.82238E-05 1.05408E-06-2.49390E-19-3.25450E-18
 -1      4182 8.64392E-05-2.15265E-05-2.78437E-05 2.38797E-06-4.90260E-19-2.08269E-18
 -1      4183 8.54558E-05-2.10579E-05-2.76095E-05 2.71914E-06 1.96579E-19-2.15493E-18
 -1      4184 8.66047E-05-2.14434E-05-2.78723E-05 1.30601E-06-3.79424E-19-2.94508E-18
 -1      4185 8.41772E-05-2.05462E-05-2.73044E-05 3.00547E-06 3.87118E-19-1.93448E-18
 -1      4186 8.30035E-05-2.01140E-05-2.69639E-05 3.46420E-06 4.78108E-19-1.64497E-18
 -1      4187 8.43399E-05-2.03456E-05-2.73528E-05 1.63530E-06 3.91785E-19-1.83407E-18
 -1      4188 8.13820E-05-1.96281E-05-2.65208E-05 3.89577E-06 4.54513E-19-1.92799E-18
 -1      4189 7.99803E-05-1.92684E-05-2.60324E-05 4.56297E-06 2.03104E-19-1.81200E-18
 -1      4190 8.14839E-05-1.91990E-05-2.65966E-05 2.08823E-06 1.96717E-19-1.87066E-18
 -1      4191 7.78440E-05-1.87579E-05-2.53890E-05 5.16729E-06 7.22886E-20-1.70607E-18
 -1      4192 7.60891E-05-1.85103E-05-2.46860E-05 6.22926E-06 3.20162E-19-1.48924E-18
 -1      4193 7.79101E-05-1.81055E-05-2.55073E-05 2.86702E-06 1.49228E-19-2.14928E-18
 -1      4194 8.06201E-05-2.03872E-05-2.57922E-05-7.50792E-06-2.48460E-20-1.10180E-18
 -1      4195 8.19783E-05-2.04932E-05-2.63934E-05-6.49726E-06 4.84104E-19-1.44604E-18
 -1      4196 9.67945E-05-2.87400E-05-2.91661E-05 3.03860E-07 1.99759E-21-1.41938E-18
 -1      4197 9.67052E-05-2.88306E-05-2.90891E-05 3.51801E-07 2.62886E-19-1.23184E-18
 -1      4198 9.66798E-05-2.88389E-05-2.90750E-05 2.00799E-07 2.86470E-19-1.25559E-18
 -1      4199 9.62046E-05-2.57723E-05-3.01836E-05 4.44946E-09 1.63424E-19-1.90362E-18
 -1      4200 9.63861E-05-2.62520E-05-3.00656E-05-1.68620E-07-1.34439E-20-2.19918E-18
 -1      4201 9.66992E-05-2.72023E-05-2.97824E-05 4.81237E-08-2.12149E-19-2.10253E-18
 -1      4202 9.58735E-05-2.86103E-05-2.88275E-05-7.80676E-07 2.37517E-19-8.04933E-19
 -1      4203 9.59124E-05-2.86799E-05-2.88127E-05-9.15700E-07 4.43309E-19-1.22804E-18
 -1      4204 9.60400E-05-2.87637E-05-2.88331E-05-8.80638E-07 4.49420E-19-1.14159E-18
 -1      4205 8.98531E-05-2.34968E-05-2.84418E-05-2.40960E-06-8.15349E-19-4.35521E-19
 -1      4206 9.04509E-05-2.39243E-05-2.85243E-05-2.14042E-06-4.33857E-19-3.91354E-19
 -1      4207 7.17566E-05-1.67805E-05-2.35951E-05-1.11296E-06 4.69789E-19-1.46814E-18
 -1      4208 7.51541E-05-1.75304E-05-2.47470E-05-7.65117E-07 7.57367E-19-1.62468E-18
 -1      4209 8.21793E-05-2.04544E-05-2.64722E-05-6.30633E-06 2.63813E-19-1.88208E-18
 -1      4210 8.32121E-05-2.06274E-05-2.68717E-05-5.42664E-06-2.02597E-19-1.49869E-18
 -1      4211 8.46108E-05-2.10155E-05-2.72585E-05-4.80629E-06-1.04525E-19-1.48234E-18
 -1      4212 8.55242E-05-2.13274E-05-2.75452E-05-4.21625E-06 2.23811E-19-1.05227E-18
 -1      4213 8.53635E-05-2.09523E-05-2.75469E-05-2.89221E-06 2.96883E-19-1.18214E-18
 -1      4214 8.29022E-05-2.00026E-05-2.68805E-05-3.73628E-06-6.69346E-20-1.69636E-18
 -1      4215 7.72596E-05-1.81503E-05-2.54186E-05-9.93151E-07 6.68256E-19-2.34562E-18
 -1      4216 9.11017E-05-2.43749E-05-2.86000E-05-1.94324E-06-5.65404E-19-5.06312E-19
 -1      4217 9.16105E-05-2.47869E-05-2.86487E-05-1.72659E-06-3.23463E-19-2.29418E-19
 -1      4218 9.04793E-05-2.38872E-05-2.85145E-05-1.44982E-06-7.96255E-19-9.83766E-21
 -1      4219 9.48284E-05-2.76703E-05-2.87802E-05-1.24383E-06-2.70237E-20-1.39891E-18
 -1      4220 9.50148E-05-2.78812E-05-2.87746E-05-1.15008E-06-9.65091E-20-1.18137E-18
 -1      4221 9.50964E-05-2.79280E-05-2.87842E-05-9.50198E-07-1.15809E-19-1.60048E-18
 -1      4222 9.46097E-05-2.74472E-05-2.87804E-05-1.09315E-06-2.32423E-19-1.10901E-18
 -1      4223 8.42669E-05-2.09480E-05-2.71248E-05-5.80162E-06-3.12204E-19-2.01583E-18
 -1      4224 9.21554E-05-2.52084E-05-2.86936E-05-1.57318E-06 1.40020E-19-3.91486E-19
 -1      4225 9.25856E-05-2.55916E-05-2.87194E-05-1.39938E-06 3.09344E-20-1.76139E-19
 -1      4226 9.16621E-05-2.47941E-05-2.86388E-05-1.16842E-06-2.56372E-19-4.21014E-19
 -1      4227 7.74163E-05-2.08352E-05-2.41889E-05-1.11992E-05 1.12373E-18-1.50678E-18
 -1      4228 7.83810E-05-2.02726E-05-2.49714E-05-9.05850E-06 5.30089E-19-9.05850E-19
 -1      4229 7.76578E-05-1.90797E-05-2.50625E-05-6.27193E-06-2.20559E-20-5.29701E-19
 -1      4230 7.27640E-05-1.88285E-05-2.30296E-05-1.00413E-05 9.50356E-19-5.76350E-19
 -1      4231 7.22856E-05-1.77199E-05-2.34674E-05-5.24192E-06 4.78736E-19 3.32500E-19
 -1      4232 7.93936E-05-1.97139E-05-2.56213E-05-6.80899E-06 7.81360E-19-1.98591E-18
 -1      4233 9.68829E-05-2.83645E-05-2.93649E-05 2.16148E-07-2.62223E-19-1.70250E-18
 -1      4234 9.68572E-05-2.85850E-05-2.92595E-05 2.93001E-07-1.29141E-19-1.57808E-18
 -1      4235 9.68610E-05-2.86402E-05-2.92387E-05 1.64562E-07 1.22100E-20-1.42662E-18
 -1      4236 9.61289E-05-2.56537E-05-3.02106E-05 2.56686E-07 5.78348E-19-1.83738E-18
 -1      4237 9.61150E-05-2.55980E-05-3.02334E-05 8.47070E-08 2.62326E-19-1.77101E-18
 -1      4238 9.66071E-05-2.67503E-05-2.99285E-05 4.07145E-08 6.45114E-20-1.53083E-18
 -1      4239 9.64357E-05-2.64081E-05-3.00023E-05 1.81457E-07 4.71459E-19-1.91183E-18
 -1      4240 9.30416E-05-2.59753E-05-2.87440E-05-1.28112E-06-4.61120E-19-1.39170E-20
 -1      4241 9.34049E-05-2.63223E-05-2.87555E-05-1.14349E-06 2.86244E-20-1.85116E-19
 -1      4242 9.26528E-05-2.56275E-05-2.87112E-05-9.48305E-07 4.74496E-20-1.67751E-19
 -1      4243 8.83801E-05-2.26088E-05-2.81914E-05-3.00157E-06-4.45705E-19-4.99802E-19
 -1      4244 8.90759E-05-2.30311E-05-2.83219E-05-2.66358E-06-5.24609E-19-6.25868E-19
 -1      4245 8.73840E-05-2.19367E-05-2.80055E-05-2.27452E-06-1.39419E-19-5.41176E-19
 -1      4246 9.63564E-05-2.66755E-05-2.98671E-05 2.00948E-07 6.84052E-19-1.79011E-18
 -1      4247 9.64772E-05-2.68091E-05-2.98550E-05 1.11055E-07 5.42487E-19-1.91093E-18
 -1      4248 7.88505E-05-1.87830E-05-2.56628E-05-4.48246E-06 7.14340E-19-1.76562E-18
 -1      4249 9.68612E-05-2.80510E-05-2.94905E-05-1.70847E-07 1.29834E-19-1.54967E-18
 -1      4250 9.67963E-05-2.79465E-05-2.95113E-05-2.28114E-07 2.44102E-19-1.36317E-18
 -1      4251 9.67326E-05-2.75319E-05-2.96558E-05-7.52908E-08 3.34886E-19-1.59208E-18
 -1      4252 7.30093E-05-1.70561E-05-2.39331E-05 3.97751E-06 5.74834E-19-7.46150E-19
 -1      4253 7.32213E-05-1.79581E-05-2.37288E-05 7.22602E-06 1.08718E-19-1.08700E-18
 -1      4254 7.19908E-05-1.83506E-05-2.29375E-05 9.31530E-06-3.52836E-19-1.46171E-18
 -1      4255 9.58246E-05-2.85496E-05-2.88319E-05-6.18560E-07 1.99718E-19-1.22793E-18
 -1      4256 9.59957E-05-2.86727E-05-2.88534E-05-5.86071E-07 4.82220E-19-1.23858E-18
 -1      4257 8.90683E-05-2.29258E-05-2.83140E-05-1.80929E-06-6.42493E-19 3.41043E-19
 -1      4258 9.68060E-05-2.76767E-05-2.96304E-05 7.30547E-08-3.67607E-19-1.96775E-18
 -1      4259 9.68656E-05-2.80610E-05-2.94892E-05 1.90844E-07-4.11544E-19-1.87199E-18
 -1      4260 9.37869E-05-2.66632E-05-2.87678E-05-1.05366E-06 1.77427E-19-3.82875E-19
 -1      4261 9.40888E-05-2.69680E-05-2.87715E-05-9.42979E-07-2.22638E-19-5.48661E-19
 -1      4262 9.34814E-05-2.63762E-05-2.87504E-05-7.79109E-07-1.17405E-19 2.32647E-20
 -1      4263 8.01395E-05-1.89791E-05-2.62594E-05-1.09015E-06 1.83161E-19-2.18945E-18
 -1      4264 8.28196E-05-2.03405E-05-2.67913E-05 4.91885E-06-9.43786E-19-1.50051E-18
 -1      4265 8.38799E-05-2.10022E-05-2.69563E-05 6.35192E-06-8.80699E-19-2.23603E-18
 -1      4266 8.23241E-05-2.11436E-05-2.62040E-05 8.02545E-06-2.51360E-21-1.96357E-18
 -1      4267 8.09936E-05-1.97525E-05-2.62344E-05 4.51268E-06-6.87111E-19-9.57869E-19
 -1      4268 7.95525E-05-2.20872E-05-2.46034E-05 1.21931E-05 3.73353E-19-9.72392E-20
 -1      4269 7.65423E-05-2.01902E-05-2.40492E-05 1.07761E-05-3.60417E-19-1.50069E-18
 -1      4270 7.98129E-05-2.15167E-05-2.50479E-05 1.08182E-05-2.91723E-19-9.14983E-19
 -1      4271 8.13097E-05-2.11066E-05-2.58452E-05 8.77830E-06 1.16163E-19-1.85404E-18
 -1      4272 8.08207E-05-2.13985E-05-2.54526E-05 9.87418E-06-1.86641E-19-1.22867E-18
 -1      4273 7.86368E-05-2.00346E-05-2.50505E-05 8.49358E-06 7.21293E-20-1.85296E-18
 -1      4274 8.04858E-05-2.01713E-05-2.58175E-05 7.00656E-06 2.96122E-19-7.84470E-19
 -1      4275 7.30811E-05-1.72738E-05-2.38220E-05-1.82863E-06 5.04156E-19 4.96671E-19
 -1      4276 7.54571E-05-1.82941E-05-2.44896E-05-4.30148E-06 5.60994E-20 8.76820E-20
 -1      4277 7.77938E-05-1.87056E-05-2.53544E-05-3.10095E-06 6.39942E-19 9.50054E-19
 -1      4278 7.43416E-05-1.77144E-05-2.43024E-05 1.54567E-06 4.64464E-19 3.85962E-20
 -1      4279 9.69018E-05-2.81691E-05-2.94577E-05 1.07357E-07-1.84417E-19-1.65305E-18
 -1      4280 7.51856E-05-1.88859E-05-2.41943E-05 7.03922E-06 1.50560E-19-2.52372E-18
 -1      4281 6.71225E-05-1.59683E-05-2.17892E-05 5.31532E-06-6.09425E-20 4.74198E-19
 -1      4282 6.91521E-05-1.61907E-05-2.26760E-05 1.94469E-06 2.84365E-19-1.80205E-19
 -1      4283 9.61872E-05-2.88289E-05-2.88670E-05-8.59936E-07 3.60800E-19-1.15055E-18
 -1      4284 9.62972E-05-2.88543E-05-2.89036E-05-8.21872E-07 8.09856E-20-1.16748E-18
 -1      4285 9.64517E-05-2.88526E-05-2.89717E-05-6.69125E-07 1.32248E-20-1.01990E-18
 -1      4286 9.61889E-05-2.87968E-05-2.88829E-05-7.27092E-07 3.63646E-19-1.18323E-18
 -1      4287 9.65766E-05-2.69682E-05-2.98349E-05 2.36480E-08 3.75160E-19-1.71945E-18
 -1      4288 9.66915E-05-2.88012E-05-2.90958E-05-4.75214E-07-1.37301E-20-9.73692E-19
 -1      4289 9.67731E-05-2.86928E-05-2.91755E-05-4.12586E-07 2.16503E-19-9.05548E-19
 -1      4290 9.68484E-05-2.85761E-05-2.92614E-05-2.76548E-07 2.17111E-20-1.13614E-18
 -1      4291 9.54185E-05-2.82153E-05-2.88017E-05-6.77263E-07-2.84283E-19-1.56993E-18
 -1      4292 9.56177E-05-2.83904E-05-2.88126E-05-6.33072E-07-1.88272E-19-1.36907E-18
 -1      4293 9.57372E-05-2.84596E-05-2.88342E-05-4.39497E-07 1.46625E-19-1.62382E-18
 -1      4294 8.22121E-05-1.99866E-05-2.66481E-05-4.37499E-06-5.00446E-19-1.74925E-18
 -1      4295 9.67692E-05-2.73837E-05-2.97344E-05 1.79184E-08-7.98117E-20-1.74723E-18
 -1      4296 7.97399E-05-1.91480E-05-2.59592E-05 3.14216E-06-9.74004E-19-1.66879E-18
 -1      4297 7.98441E-05-1.95325E-05-2.58723E-05 4.92443E-06-2.18864E-19-1.92839E-18
 -1      4298 7.89378E-05-1.94555E-05-2.55101E-05 5.56834E-06-2.27193E-19-2.75023E-18
 -1      4299 9.61685E-05-2.87369E-05-2.88992E-05 4.06394E-08 7.44840E-20-9.01873E-19
 -1      4300 9.59801E-05-2.86216E-05-2.88682E-05 5.38577E-08 1.23459E-19-6.84169E-19
 -1      4301 9.57060E-05-2.84222E-05-2.88360E-05-1.01783E-07 1.84887E-19-8.82026E-19
 -1      4302 9.54822E-05-2.82398E-05-2.88180E-05-9.26448E-08 1.97674E-19-9.09265E-19
 -1      4303 9.47720E-05-2.76090E-05-2.87877E-05 5.37575E-08-5.11704E-19-8.37188E-19
 -1      4304 9.44717E-05-2.73303E-05-2.87784E-05 8.02979E-08-6.85490E-19-4.64528E-19
 -1      4305 9.40690E-05-2.69515E-05-2.87672E-05-1.61240E-07-6.34947E-19-3.63117E-19
 -1      4306 9.37082E-05-2.66223E-05-2.87563E-05-1.45749E-07-5.33530E-19-5.28916E-19
 -1      4307 9.33172E-05-2.62717E-05-2.87417E-05-2.00611E-07-2.07152E-19-1.83727E-19
 -1      4308 9.28919E-05-2.58918E-05-2.87225E-05-1.79160E-07 1.09823E-19-1.85851E-19
 -1      4309 9.24274E-05-2.54985E-05-2.86953E-05-2.51037E-07 3.10688E-20-4.23044E-19
 -1      4310 9.19209E-05-2.50720E-05-2.86610E-05-2.23988E-07-1.42723E-20-5.00798E-19
 -1      4311 9.13653E-05-2.46377E-05-2.86130E-05-3.16019E-07-3.94200E-19-4.56782E-19
 -1      4312 9.07585E-05-2.41680E-05-2.85543E-05-2.83793E-07-5.89597E-19-9.62919E-19
 -1      4313 9.00931E-05-2.36993E-05-2.84748E-05-4.00618E-07-8.39587E-19-9.37290E-19
 -1      4314 8.93639E-05-2.31928E-05-2.83800E-05-3.62446E-07-7.51104E-19-1.31402E-18
 -1      4315 8.85661E-05-2.27000E-05-2.82552E-05-5.12038E-07-4.95232E-19-1.18515E-18
 -1      4316 8.76862E-05-2.21655E-05-2.81086E-05-4.66151E-07-3.15417E-19-1.65080E-18
 -1      4317 8.67258E-05-2.16624E-05-2.79201E-05-6.61929E-07 6.61505E-20-1.52408E-18
 -1      4318 8.56555E-05-2.11098E-05-2.77010E-05-6.05060E-07 3.41885E-19-1.21351E-18
 -1      4319 8.44891E-05-2.06115E-05-2.74242E-05-8.68701E-07 1.41946E-19-1.35225E-18
 -1      4320 8.31696E-05-2.00479E-05-2.71042E-05-7.99328E-07-1.59522E-21-1.54230E-18
 -1      4321 8.17406E-05-1.95797E-05-2.67057E-05-1.16348E-06 1.70265E-19-1.76994E-18
 -1      4322 9.67613E-05-2.88299E-05-2.91135E-05 3.42237E-08 1.41487E-19-1.15967E-18
 -1      4323 9.66412E-05-2.88739E-05-2.90432E-05 4.67169E-08 3.45837E-19-1.18841E-18
 -1      4324 6.92551E-05-1.70229E-05-2.23469E-05 7.78318E-06-8.17668E-20-5.67578E-19
 -1      4325 9.61189E-05-2.87162E-05-2.88867E-05-4.05184E-07 4.74960E-19-1.37527E-18
 -1      4326 9.61758E-05-2.87753E-05-2.88852E-05-5.73999E-07 4.87715E-19-1.22435E-18
 -1      4327 9.63213E-05-2.88384E-05-2.89215E-05-5.44867E-07 2.35111E-19-1.31534E-18
 -1      4328 9.66670E-05-2.71355E-05-2.97964E-05-5.98230E-09 1.97541E-19-1.45389E-18
 -1      4329 9.67541E-05-2.73383E-05-2.97550E-05-3.49698E-08-1.10966E-20-1.41885E-18
 -1      4330 9.65015E-05-2.88679E-05-2.89856E-05 3.65007E-08 4.47296E-19-1.26214E-18
 -1      4331 9.63436E-05-2.88213E-05-2.89382E-05 4.93665E-08 3.33345E-19-1.29976E-18
 -1      4332 9.62503E-05-2.87713E-05-2.89198E-05-1.40161E-07 4.13095E-19-1.28212E-18
 -1      4333 9.65642E-05-2.88601E-05-2.90161E-05-1.29055E-07 3.72410E-19-1.11868E-18
 -1      4334 7.70225E-05-1.91691E-05-2.48016E-05 6.47590E-06-1.55224E-19-2.76199E-18
 -1      4335 7.52119E-05-1.80677E-05-2.44137E-05 4.00414E-06 2.92409E-19-2.68165E-18
 -1      4336 7.62014E-05-1.81851E-05-2.48956E-05 1.28794E-06 6.15650E-19-6.78785E-19
 -1      4337 7.80052E-05-1.92555E-05-2.52183E-05 5.72843E-06 2.24364E-20-3.21730E-18
 -1      4338 9.68878E-05-2.86247E-05-2.92561E-05-7.30588E-08-8.86675E-20-1.17333E-18
 -1      4339 9.68170E-05-2.87659E-05-2.91631E-05-5.65265E-08 4.39323E-20-1.14610E-18
 -1      4340 9.69144E-05-2.81291E-05-2.94809E-05-5.90652E-08-4.06485E-20-1.40836E-18
 -1      4341 9.69274E-05-2.84217E-05-2.93571E-05-3.04789E-08-5.21939E-20-1.24345E-18
 -1      4342 9.68636E-05-2.77559E-05-2.96135E-05-5.65631E-09 1.43422E-20-1.44458E-18
 -1      4343 7.84198E-05-1.86633E-05-2.55943E-05-1.82356E-06-3.35973E-19 8.07882E-19
 -1      4344 7.83078E-05-1.86249E-05-2.55841E-05 9.30841E-07-2.71622E-19 4.23105E-19
 -1      4345 7.21624E-05-1.66619E-05-2.36921E-05 1.56471E-06 7.96840E-19-1.01520E-18
 -1      4346 9.67563E-05-2.88116E-05-2.91207E-05-2.23161E-07 6.78409E-20-8.39903E-19
 -1      4347 9.53260E-05-2.81038E-05-2.88075E-05-4.05800E-07 8.92860E-20-1.43955E-18
 -1      4348 9.52742E-05-2.80604E-05-2.88076E-05-3.18869E-08 5.12894E-20-9.00728E-19
 -1      4349 9.50189E-05-2.78292E-05-2.87958E-05-2.06797E-08-4.57053E-20-7.07163E-19
 -1      4350 9.52116E-05-2.80299E-05-2.87939E-05-6.23086E-07-1.76490E-19-1.57894E-18
 -1      4351 9.42469E-05-2.70999E-05-2.87725E-05-4.44468E-07-6.29696E-19-5.80138E-19
 -1      4352 9.49821E-05-2.78117E-05-2.87890E-05-6.79250E-07-1.24319E-19-1.61439E-18
 -1      4353 9.48779E-05-2.76910E-05-2.87907E-05-2.80478E-07-4.07062E-19-1.14536E-18
 -1      4354 8.02556E-05-1.93503E-05-2.61101E-05-3.63693E-06-7.12833E-19-2.58855E-19
 -1      4355 9.44737E-05-2.73206E-05-2.87798E-05-6.87215E-07-6.44281E-19-1.06619E-18
 -1      4356 9.47383E-05-2.75852E-05-2.87824E-05-6.17660E-07-3.93375E-19-1.34490E-18
 -1      4357 9.60089E-05-2.86458E-05-2.88684E-05-2.82805E-07 5.89742E-19-1.18878E-18
 -1      4358 9.61901E-05-2.87569E-05-2.89010E-05-2.68832E-07 5.54636E-19-1.22400E-18
 -1      4359 9.65662E-05-2.88633E-05-2.90156E-05-5.20828E-07 7.43687E-20-9.58270E-19
 -1      4360 9.66738E-05-2.88230E-05-2.90793E-05-3.60240E-07 8.96385E-20-8.93903E-19
 -1      4361 9.66291E-05-2.88699E-05-2.90388E-05-2.70091E-07 2.00339E-19-9.13207E-19
 -1      4362 9.64475E-05-2.88700E-05-2.89613E-05-5.58563E-07 1.56601E-19-1.11451E-18
 -1      4363 7.71827E-05-1.83707E-05-2.51960E-05 1.29086E-06 5.59733E-19-5.80399E-19
 -1      4364 9.64217E-05-2.88474E-05-2.89606E-05-4.01901E-07 3.25712E-19-1.15607E-18
 -1      4365 7.78151E-05-1.86678E-05-2.52972E-05 3.58065E-06 2.00707E-19-3.69707E-18
 -1      4366 9.58044E-05-2.84945E-05-2.88470E-05-2.95970E-07 2.16700E-19-1.31080E-18
 -1      4367 9.63632E-05-2.88333E-05-2.89406E-05-2.65762E-07 5.52533E-19-1.39132E-18
 -1      4368 9.64908E-05-2.88686E-05-2.89818E-05-2.72360E-07 4.19775E-19-1.08881E-18
 -3
    1PSTEP                         4           1           1          
  100CL  101 1.000000000        4368                     0    1           1
 -4  ERROR       1    1
 -5  STR(%)      1    1    0    0
 -1         1 2.92271E+01
 -1         2 2.46834E+01
 -1         3 7.19408E-02
 -1         4 8.51975E-02
 -1         5 1.40434E+01
 -1         6 1.31476E+01
 -1         7 1.31476E+01
 -1         8 3.66208E+00
 -1         9 1.82107E+00
 -1        10 1.28970E+00
 -1        11 1.04451E+00
 -1        12 8.98388E-01
 -1        13 8.08487E-01
 -1        14 7.54436E-01
 -1        15 7.56386E-01
 -1        16 8.12726E-01
 -1        17 8.99939E-01
 -1        18 1.05117E+00
 -1        19 1.30591E+00
 -1        20 1.83292E+00
 -1        21 3.50383E+00
 -1        22 8.64384E+00
 -1        23 1.31476E+01
 -1        24 4.32213E+00
 -1        25 3.34709E+00
 -1        26 2.11849E+00
 -1        27 1.37074E+00
 -1        28 1.02129E+00
 -1        29 7.84652E-01
 -1        30 6.08077E-01
 -1        31 4.72054E-01
 -1        32 3.66994E-01
 -1        33 2.92016E-01
 -1        34 2.34512E-01
 -1        35 1.91353E-01
 -1        36 1.60748E-01
 -1        37 1.46388E-01
 -1        38 1.60983E-01
 -1        39 1.95241E-01
 -1        40 2.42420E-01
 -1        41 3.02668E-01
 -1        42 3.74724E-01
 -1        43 4.54903E-01
 -1        44 5.35707E-01
 -1        45 6.66259E-01
 -1        46 8.41236E-01
 -1        47 1.05262E+00
 -1        48 1.26023E+00
 -1        49 1.37738E+00
 -1        50 1.37738E+00
 -1        51 1.40926E+00
 -1        52 1.40926E+00
 -1        53 1.83129E+00
 -1        54 3.11868E+00
 -1        55 4.05011E+00
 -1        56 4.05011E+00
 -1        57 3.98536E+00
 -1        58 3.86684E+00
 -1        59 2.66844E+00
 -1        60 1.70164E+00
 -1        61 1.37649E+00
 -1        62 1.37649E+00
 -1        63 1.35719E+00
 -1        64 1.35629E+00
 -1        65 1.18100E+00
 -1        66 9.26609E-01
 -1        67 7.64363E-01
 -1        68 7.18635E-01
 -1        69 6.19710E-01
 -1        70 4.97717E-01
 -1        71 3.72786E-01
 -1        72 1.40434E+01
 -1        73 3.39801E+00
 -1        74 2.41755E+00
 -1        75 1.67118E+00
 -1        76 1.15108E+00
 -1        77 9.11240E-01
 -1        78 7.38808E-01
 -1        79 5.98554E-01
 -1        80 4.83437E-01
 -1        81 3.89924E-01
 -1        82 3.18010E-01
 -1        83 2.64136E-01
 -1        84 2.23092E-01
 -1        85 1.95077E-01
 -1        86 1.84524E-01
 -1        87 1.95953E-01
 -1        88 2.16063E-01
 -1        89 2.42124E-01
 -1        90 2.99473E-01
 -1        91 3.69354E-01
 -1        92 4.46331E-01
 -1        93 5.22659E-01
 -1        94 5.85203E-01
 -1        95 6.13915E-01
 -1        96 6.92940E-01
 -1        97 8.98300E-01
 -1        98 1.06229E+00
 -1        99 1.16285E+00
 -1       100 1.45750E+00
 -1       101 1.45750E+00
 -1       102 1.76788E+00
 -1       103 2.19616E+00
 -1       104 3.16719E+00
 -1       105 3.46983E+00
 -1       106 3.76000E+00
 -1       107 3.76000E+00
 -1       108 2.91818E+00
 -1       109 1.64903E+00
 -1       110 1.12184E+00
 -1       111 1.17003E+00
 -1       112 1.32420E+00
 -1       113 1.32420E+00
 -1       114 1.26961E+00
 -1       115 1.09628E+00
 -1       116 8.94499E-01
 -1       117 6.96627E-01
 -1       118 6.03648E-01
 -1       119 4.47077E-01
 -1       120 2.67961E-01
 -1       121 1.25141E-01
 -1       122 1.25141E-01
 -1       123 1.01160E-01
 -1       124 5.43417E-02
 -1       125 4.82209E-02
 -1       126 8.54674E-02
 -1       127 1.09920E-01
 -1       128 1.17949E-01
 -1       129 1.17949E-01
 -1       130 1.10885E-01
 -1       131 8.63962E-02
 -1       132 5.04744E-02
 -1       133 5.48007E-02
 -1       134 1.02188E-01
 -1       135 1.69814E-01
 -1       136 1.95380E-01
 -1       137 2.48046E+01
 -1       138 4.85228E+01
 -1       139 4.85228E+01
 -1       140 2.13821E+01
 -1       141 1.26656E+01
 -1       142 1.26656E+01
 -1       143 1.24995E+01
 -1       144 1.24995E+01
 -1       145 1.21539E+01
 -1       146 1.47931E+01
 -1       147 3.91386E+01
 -1       148 3.91386E+01
 -1       149 2.51104E+01
 -1       150 2.51104E+01
 -1       151 2.58602E+01
 -1       152 2.85144E+01
 -1       153 2.93306E+01
 -1       154 1.23796E+01
 -1       155 1.18845E+01
 -1       156 1.18845E+01
 -1       157 1.18076E+01
 -1       158 1.26612E+01
 -1       159 1.26612E+01
 -1       160 1.24430E+01
 -1       161 2.66421E+01
 -1       162 2.88423E+01
 -1       163 2.88423E+01
 -1       164 2.46834E+01
 -1       165 6.07666E+00
 -1       166 2.29563E+00
 -1       167 1.50631E+00
 -1       168 1.15589E+00
 -1       169 9.72234E-01
 -1       170 8.63734E-01
 -1       171 7.96190E-01
 -1       172 7.56386E-01
 -1       173 7.99556E-01
 -1       174 8.66834E-01
 -1       175 9.80015E-01
 -1       176 1.17094E+00
 -1       177 1.52558E+00
 -1       178 2.25875E+00
 -1       179 3.93027E+00
 -1       180 1.40434E+01
 -1       181 4.32213E+00
 -1       182 3.34709E+00
 -1       183 2.11849E+00
 -1       184 1.45390E+00
 -1       185 1.03366E+00
 -1       186 7.84652E-01
 -1       187 6.08077E-01
 -1       188 4.81761E-01
 -1       189 3.85470E-01
 -1       190 3.07918E-01
 -1       191 2.51569E-01
 -1       192 2.06154E-01
 -1       193 1.68801E-01
 -1       194 1.46388E-01
 -1       195 1.41641E-01
 -1       196 1.60983E-01
 -1       197 1.96012E-01
 -1       198 2.42420E-01
 -1       199 3.02668E-01
 -1       200 3.80353E-01
 -1       201 5.00179E-01
 -1       202 6.32481E-01
 -1       203 7.64866E-01
 -1       204 8.83044E-01
 -1       205 1.05262E+00
 -1       206 1.26023E+00
 -1       207 1.37738E+00
 -1       208 1.31269E+00
 -1       209 1.40926E+00
 -1       210 1.37249E+00
 -1       211 1.90831E+00
 -1       212 3.11868E+00
 -1       213 4.05011E+00
 -1       214 3.98536E+00
 -1       215 3.86684E+00
 -1       216 2.66844E+00
 -1       217 1.70164E+00
 -1       218 1.23987E+00
 -1       219 1.37649E+00
 -1       220 1.35719E+00
 -1       221 1.35629E+00
 -1       222 1.18100E+00
 -1       223 9.30895E-01
 -1       224 7.64363E-01
 -1       225 7.18635E-01
 -1       226 6.19710E-01
 -1       227 4.97717E-01
 -1       228 3.72786E-01
 -1       229 3.39801E+00
 -1       230 2.41755E+00
 -1       231 1.67118E+00
 -1       232 1.15108E+00
 -1       233 9.11240E-01
 -1       234 7.38808E-01
 -1       235 5.98554E-01
 -1       236 4.83437E-01
 -1       237 3.89924E-01
 -1       238 3.18010E-01
 -1       239 2.64136E-01
 -1       240 2.23092E-01
 -1       241 1.95077E-01
 -1       242 1.83720E-01
 -1       243 1.84524E-01
 -1       244 1.95953E-01
 -1       245 2.16377E-01
 -1       246 2.65436E-01
 -1       247 3.22553E-01
 -1       248 3.84154E-01
 -1       249 4.46331E-01
 -1       250 5.22659E-01
 -1       251 5.85203E-01
 -1       252 6.17975E-01
 -1       253 7.57956E-01
 -1       254 8.98300E-01
 -1       255 1.06229E+00
 -1       256 1.16285E+00
 -1       257 1.45750E+00
 -1       258 1.44641E+00
 -1       259 1.76788E+00
 -1       260 2.23498E+00
 -1       261 3.16719E+00
 -1       262 3.46983E+00
 -1       263 3.76000E+00
 -1       264 2.91818E+00
 -1       265 1.64903E+00
 -1       266 1.12184E+00
 -1       267 1.05017E+00
 -1       268 1.17003E+00
 -1       269 1.32420E+00
 -1       270 1.26961E+00
 -1       271 1.09628E+00
 -1       272 8.94499E-01
 -1       273 6.96627E-01
 -1       274 6.03648E-01
 -1       275 4.47077E-01
 -1       276 2.68883E-01
 -1       277 1.61360E-01
 -1       278 1.61360E-01
 -1       279 1.58134E-01
 -1       280 7.56042E-02
 -1       281 1.47214E-01
 -1       282 1.98128E-01
 -1       283 2.21869E-01
 -1       284 2.22270E-01
 -1       285 2.22270E-01
 -1       286 1.99627E-01
 -1       287 1.51860E-01
 -1       288 8.16597E-02
 -1       289 1.58338E-01
 -1       290 1.58338E-01
 -1       291 2.09636E-01
 -1       292 2.97104E+01
 -1       293 2.96495E+01
 -1       294 4.85228E+01
 -1       295 2.35993E+01
 -1       296 1.15986E+01
 -1       297 1.26656E+01
 -1       298 1.19925E+01
 -1       299 1.24995E+01
 -1       300 1.21539E+01
 -1       301 1.15879E+01
 -1       302 1.47931E+01
 -1       303 3.91386E+01
 -1       304 3.61094E+01
 -1       305 2.66160E+01
 -1       306 2.66160E+01
 -1       307 2.61757E+01
 -1       308 2.93306E+01
 -1       309 2.93306E+01
 -1       310 1.23796E+01
 -1       311 1.09865E+01
 -1       312 1.18845E+01
 -1       313 1.18076E+01
 -1       314 1.17600E+01
 -1       315 1.26612E+01
 -1       316 1.15681E+01
 -1       317 1.24430E+01
 -1       318 2.83843E+01
 -1       319 3.21101E+01
 -1       320 3.21101E+01
 -1       321 2.97104E+01
 -1       322 1.04387E+00
 -1       323 2.47798E+00
 -1       324 7.90157E-01
 -1       325 6.93146E-01
 -1       326 6.31245E-01
 -1       327 5.87485E-01
 -1       328 5.90719E-01
 -1       329 6.34000E-01
 -1       330 7.00293E-01
 -1       331 7.95081E-01
 -1       332 9.30160E-01
 -1       333 1.15717E+00
 -1       334 1.32633E+00
 -1       335 2.20276E+00
 -1       336 1.91659E+00
 -1       337 1.73448E+00
 -1       338 1.27369E+00
 -1       339 9.14359E-01
 -1       340 6.64407E-01
 -1       341 5.48208E-01
 -1       342 4.53806E-01
 -1       343 3.71554E-01
 -1       344 3.05547E-01
 -1       345 2.51569E-01
 -1       346 2.06154E-01
 -1       347 1.68801E-01
 -1       348 1.40972E-01
 -1       349 1.22524E-01
 -1       350 1.35368E-01
 -1       351 1.60954E-01
 -1       352 1.96012E-01
 -1       353 2.59089E-01
 -1       354 3.51046E-01
 -1       355 4.57858E-01
 -1       356 5.75824E-01
 -1       357 6.96017E-01
 -1       358 8.02180E-01
 -1       359 8.95856E-01
 -1       360 1.00306E+00
 -1       361 1.05239E+00
 -1       362 9.57460E-01
 -1       363 8.26025E-01
 -1       364 8.59361E-01
 -1       365 1.30124E+00
 -1       366 1.80845E+00
 -1       367 2.38262E+00
 -1       368 2.41797E+00
 -1       369 2.45567E+00
 -1       370 2.24479E+00
 -1       371 1.70807E+00
 -1       372 1.11873E+00
 -1       373 8.87848E-01
 -1       374 7.97092E-01
 -1       375 9.79834E-01
 -1       376 1.00340E+00
 -1       377 8.97719E-01
 -1       378 7.58889E-01
 -1       379 6.47752E-01
 -1       380 5.34997E-01
 -1       381 4.46052E-01
 -1       382 3.25905E-01
 -1       383 1.13438E+00
 -1       384 8.97047E-01
 -1       385 7.10373E-01
 -1       386 5.52425E-01
 -1       387 4.47141E-01
 -1       388 3.82803E-01
 -1       389 3.21531E-01
 -1       390 2.66684E-01
 -1       391 2.24703E-01
 -1       392 1.92844E-01
 -1       393 1.67726E-01
 -1       394 1.54235E-01
 -1       395 1.49600E-01
 -1       396 1.52110E-01
 -1       397 1.80509E-01
 -1       398 2.30043E-01
 -1       399 3.17051E-01
 -1       400 4.19499E-01
 -1       401 5.34357E-01
 -1       402 6.53596E-01
 -1       403 7.62028E-01
 -1       404 8.55977E-01
 -1       405 9.18191E-01
 -1       406 9.18191E-01
 -1       407 8.83741E-01
 -1       408 6.96147E-01
 -1       409 6.61914E-01
 -1       410 1.05662E+00
 -1       411 1.69690E+00
 -1       412 1.94350E+00
 -1       413 1.94350E+00
 -1       414 1.91621E+00
 -1       415 2.20542E+00
 -1       416 1.96279E+00
 -1       417 1.27385E+00
 -1       418 7.67182E-01
 -1       419 6.23589E-01
 -1       420 8.33040E-01
 -1       421 9.20932E-01
 -1       422 9.53749E-01
 -1       423 8.76008E-01
 -1       424 7.66334E-01
 -1       425 6.38238E-01
 -1       426 5.22609E-01
 -1       427 4.14169E-01
 -1       428 2.68883E-01
 -1       429 1.68698E-01
 -1       430 3.04437E-01
 -1       431 3.04437E-01
 -1       432 1.89908E-01
 -1       433 2.67208E-01
 -1       434 3.12443E-01
 -1       435 3.12443E-01
 -1       436 3.13450E-01
 -1       437 3.13450E-01
 -1       438 2.72997E-01
 -1       439 1.96190E-01
 -1       440 1.73688E-01
 -1       441 2.65491E-01
 -1       442 2.96495E+01
 -1       443 2.97104E+01
 -1       444 2.85018E+01
 -1       445 1.72821E+01
 -1       446 1.05000E+01
 -1       447 9.16614E-01
 -1       448 1.02623E+01
 -1       449 1.10239E+01
 -1       450 1.06874E+01
 -1       451 8.89641E+00
 -1       452 7.15190E+00
 -1       453 1.33834E+01
 -1       454 2.32131E+01
 -1       455 2.13598E+01
 -1       456 3.72010E+01
 -1       457 3.72010E+01
 -1       458 2.57444E+01
 -1       459 2.04190E+01
 -1       460 1.19709E+01
 -1       461 6.95704E+00
 -1       462 8.34548E+00
 -1       463 1.01780E+01
 -1       464 1.09027E+01
 -1       465 1.05446E+01
 -1       466 8.31681E+00
 -1       467 7.34044E+00
 -1       468 1.12939E+01
 -1       469 1.93229E+01
 -1       470 3.21101E+01
 -1       471 2.94798E+01
 -1       472 8.13760E+00
 -1       473 1.82051E+01
 -1       474 1.05278E+00
 -1       475 4.85317E-01
 -1       476 5.09587E-01
 -1       477 4.31536E-01
 -1       478 4.57039E-01
 -1       479 4.86284E-01
 -1       480 5.10052E-01
 -1       481 5.10052E-01
 -1       482 6.04383E-01
 -1       483 8.97047E-01
 -1       484 8.03998E-01
 -1       485 5.67467E+00
 -1       486 7.08063E-01
 -1       487 5.94820E-01
 -1       488 4.83027E-01
 -1       489 3.84717E-01
 -1       490 3.33726E-01
 -1       491 2.85542E-01
 -1       492 2.40016E-01
 -1       493 1.99228E-01
 -1       494 1.63767E-01
 -1       495 1.33250E-01
 -1       496 1.06624E-01
 -1       497 9.99529E-02
 -1       498 1.16925E-01
 -1       499 1.51712E-01
 -1       500 2.20194E-01
 -1       501 3.01873E-01
 -1       502 3.97786E-01
 -1       503 5.07197E-01
 -1       504 6.26415E-01
 -1       505 7.47255E-01
 -1       506 8.55342E-01
 -1       507 9.38252E-01
 -1       508 1.08128E+00
 -1       509 1.20505E+00
 -1       510 1.26061E+00
 -1       511 1.47231E+00
 -1       512 1.62902E+00
 -1       513 1.83215E+00
 -1       514 2.01707E+00
 -1       515 2.98687E+00
 -1       516 3.10471E+00
 -1       517 2.55803E+00
 -1       518 1.83154E+00
 -1       519 1.66120E+00
 -1       520 1.62626E+00
 -1       521 1.34143E+00
 -1       522 1.18583E+00
 -1       523 1.09181E+00
 -1       524 9.41769E-01
 -1       525 8.09721E-01
 -1       526 7.05679E-01
 -1       527 5.75531E-01
 -1       528 4.41249E-01
 -1       529 5.52425E-01
 -1       530 4.47141E-01
 -1       531 3.82803E-01
 -1       532 3.21531E-01
 -1       533 2.66684E-01
 -1       534 2.20330E-01
 -1       535 1.81144E-01
 -1       536 1.48611E-01
 -1       537 1.22630E-01
 -1       538 1.07934E-01
 -1       539 1.25066E-01
 -1       540 1.49103E-01
 -1       541 2.04533E-01
 -1       542 2.83271E-01
 -1       543 3.75627E-01
 -1       544 4.80369E-01
 -1       545 5.92910E-01
 -1       546 7.03677E-01
 -1       547 7.96474E-01
 -1       548 8.72461E-01
 -1       549 9.58984E-01
 -1       550 1.01579E+00
 -1       551 9.85422E-01
 -1       552 1.10276E+00
 -1       553 1.15618E+00
 -1       554 1.46759E+00
 -1       555 1.77856E+00
 -1       556 2.34540E+00
 -1       557 2.35491E+00
 -1       558 2.45098E+00
 -1       559 1.83121E+00
 -1       560 1.55274E+00
 -1       561 1.13871E+00
 -1       562 1.12092E+00
 -1       563 9.12487E-01
 -1       564 9.43572E-01
 -1       565 8.78095E-01
 -1       566 7.79600E-01
 -1       567 6.90868E-01
 -1       568 5.79323E-01
 -1       569 4.64760E-01
 -1       570 3.54351E-01
 -1       571 3.27682E-01
 -1       572 4.05712E-01
 -1       573 3.66867E-01
 -1       574 3.84751E-01
 -1       575 4.23181E-01
 -1       576 4.23181E-01
 -1       577 4.22021E-01
 -1       578 4.10764E-01
 -1       579 3.38480E-01
 -1       580 3.01466E-01
 -1       581 3.01466E-01
 -1       582 2.85018E+01
 -1       583 2.09549E+01
 -1       584 2.94798E+01
 -1       585 7.10373E-01
 -1       586 1.41466E+01
 -1       587 8.74388E+00
 -1       588 1.42759E+01
 -1       589 6.17352E+00
 -1       590 7.58821E+00
 -1       591 7.46201E+00
 -1       592 4.56912E-01
 -1       593 7.56522E+00
 -1       594 1.73514E+01
 -1       595 5.80868E+00
 -1       596 4.02631E+00
 -1       597 7.23336E+00
 -1       598 9.06126E+00
 -1       599 1.28890E+01
 -1       600 2.15268E+01
 -1       601 3.72010E+01
 -1       602 2.57444E+01
 -1       603 9.29665E+00
 -1       604 5.56107E+00
 -1       605 3.95845E+00
 -1       606 6.12007E+00
 -1       607 7.54472E+00
 -1       608 6.25156E+00
 -1       609 4.06113E+00
 -1       610 5.86106E+00
 -1       611 1.86889E+01
 -1       612 8.75932E-01
 -1       613 1.32950E+00
 -1       614 7.15848E-01
 -1       615 1.45737E+01
 -1       616 9.87276E+00
 -1       617 2.79892E-01
 -1       618 3.58212E-01
 -1       619 3.43159E-01
 -1       620 3.61318E-01
 -1       621 3.36887E-01
 -1       622 5.44460E-01
 -1       623 5.70405E+00
 -1       624 5.20162E-01
 -1       625 1.18939E+01
 -1       626 4.02006E-01
 -1       627 3.88561E-01
 -1       628 3.47710E-01
 -1       629 2.97600E-01
 -1       630 2.46694E-01
 -1       631 2.13454E-01
 -1       632 1.82143E-01
 -1       633 1.51054E-01
 -1       634 1.21037E-01
 -1       635 9.19434E-02
 -1       636 6.28746E-02
 -1       637 7.21890E-02
 -1       638 1.10920E-01
 -1       639 1.68905E-01
 -1       640 2.38170E-01
 -1       641 3.20987E-01
 -1       642 4.19382E-01
 -1       643 5.34801E-01
 -1       644 6.67528E-01
 -1       645 8.15609E-01
 -1       646 9.72708E-01
 -1       647 1.12382E+00
 -1       648 1.35970E+00
 -1       649 1.67316E+00
 -1       650 1.98389E+00
 -1       651 2.32941E+00
 -1       652 1.93447E+00
 -1       653 2.71933E+00
 -1       654 3.18089E+00
 -1       655 4.20749E+00
 -1       656 3.78288E+00
 -1       657 2.55803E+00
 -1       658 2.61173E+00
 -1       659 2.61935E+00
 -1       660 2.06243E+00
 -1       661 1.69644E+00
 -1       662 1.39058E+00
 -1       663 1.09236E+00
 -1       664 9.41769E-01
 -1       665 7.74186E-01
 -1       666 6.08163E-01
 -1       667 4.56255E-01
 -1       668 3.33109E-01
 -1       669 6.01348E-01
 -1       670 4.01889E-01
 -1       671 2.43635E-01
 -1       672 2.06885E-01
 -1       673 1.72102E-01
 -1       674 1.40093E-01
 -1       675 1.10655E-01
 -1       676 8.28569E-02
 -1       677 8.59505E-02
 -1       678 1.05455E-01
 -1       679 1.63286E-01
 -1       680 2.32025E-01
 -1       681 3.13484E-01
 -1       682 4.08719E-01
 -1       683 5.17394E-01
 -1       684 6.36853E-01
 -1       685 7.60804E-01
 -1       686 8.77511E-01
 -1       687 9.86706E-01
 -1       688 1.17449E+00
 -1       689 1.36063E+00
 -1       690 1.48424E+00
 -1       691 1.86896E+00
 -1       692 1.91231E+00
 -1       693 2.58280E+00
 -1       694 3.45967E+00
 -1       695 4.17233E+00
 -1       696 4.83685E+00
 -1       697 3.35210E+00
 -1       698 2.80320E+00
 -1       699 2.39299E+00
 -1       700 1.85483E+00
 -1       701 1.41759E+00
 -1       702 1.30168E+00
 -1       703 1.11141E+00
 -1       704 9.01690E-01
 -1       705 7.80076E-01
 -1       706 6.64915E-01
 -1       707 5.59015E-01
 -1       708 5.51725E-01
 -1       709 3.01466E-01
 -1       710 4.93325E-01
 -1       711 5.54704E-01
 -1       712 5.51725E-01
 -1       713 5.54704E-01
 -1       714 5.02610E-01
 -1       715 3.81436E-01
 -1       716 1.43241E+01
 -1       717 8.05904E+00
 -1       718 8.27067E+00
 -1       719 1.40296E+01
 -1       720 3.35210E+00
 -1       721 3.22475E+00
 -1       722 5.03062E+00
 -1       723 4.69295E-01
 -1       724 1.55132E+01
 -1       725 2.80056E-01
 -1       726 4.07822E-01
 -1       727 5.63206E+00
 -1       728 9.26029E+00
 -1       729 5.00014E+00
 -1       730 5.84853E+00
 -1       731 3.61318E-01
 -1       732 3.61366E-01
 -1       733 4.83685E+00
 -1       734 3.45967E+00
 -1       735 1.09733E+01
 -1       736 1.61527E+01
 -1       737 4.74655E+00
 -1       738 3.18089E+00
 -1       739 1.30992E+01
 -1       740 1.03066E+01
 -1       741 1.65246E+01
 -1       742 4.91609E+00
 -1       743 3.36228E+00
 -1       744 4.72927E+00
 -1       745 3.33239E+00
 -1       746 5.81948E+00
 -1       747 4.13723E-01
 -1       748 3.42762E-01
 -1       749 9.31985E+00
 -1       750 6.01348E-01
 -1       751 9.61666E+00
 -1       752 9.19331E+00
 -1       753 4.44121E-01
 -1       754 3.63960E+00
 -1       755 5.62905E+00
 -1       756 3.57710E-01
 -1       757 3.25248E-01
 -1       758 5.76480E+00
 -1       759 2.39897E-01
 -1       760 9.59488E+00
 -1       761 1.95998E-01
 -1       762 2.58219E-01
 -1       763 2.50989E-01
 -1       764 2.27941E-01
 -1       765 1.97411E-01
 -1       766 1.69710E-01
 -1       767 1.44775E-01
 -1       768 1.16901E-01
 -1       769 8.73438E-02
 -1       770 5.63131E-02
 -1       771 5.37532E-02
 -1       772 7.90086E-02
 -1       773 1.28397E-01
 -1       774 1.91113E-01
 -1       775 2.66473E-01
 -1       776 3.56005E-01
 -1       777 4.60009E-01
 -1       778 5.76339E-01
 -1       779 7.21092E-01
 -1       780 9.20300E-01
 -1       781 1.18109E+00
 -1       782 1.51060E+00
 -1       783 1.87037E+00
 -1       784 2.39684E+00
 -1       785 3.24117E+00
 -1       786 3.54733E+00
 -1       787 3.51293E+00
 -1       788 3.48430E+00
 -1       789 2.82252E+00
 -1       790 2.11721E+00
 -1       791 1.63966E+00
 -1       792 1.29532E+00
 -1       793 9.85143E-01
 -1       794 7.32913E-01
 -1       795 4.74464E-01
 -1       796 7.53121E+00
 -1       797 6.97970E-01
 -1       798 2.89959E-01
 -1       799 1.58523E-01
 -1       800 1.87760E-01
 -1       801 9.61680E-02
 -1       802 6.71637E-02
 -1       803 4.53772E-02
 -1       804 6.67702E-02
 -1       805 1.14245E-01
 -1       806 1.70544E-01
 -1       807 2.38061E-01
 -1       808 3.19491E-01
 -1       809 4.21035E-01
 -1       810 5.43613E-01
 -1       811 6.87483E-01
 -1       812 8.50214E-01
 -1       813 1.04535E+00
 -1       814 1.25446E+00
 -1       815 1.53089E+00
 -1       816 1.95858E+00
 -1       817 2.37105E+00
 -1       818 3.32530E+00
 -1       819 2.86995E+00
 -1       820 2.13873E+00
 -1       821 1.56171E+00
 -1       822 1.18978E+00
 -1       823 9.66695E-01
 -1       824 7.93117E-01
 -1       825 7.95746E+00
 -1       826 2.88161E-01
 -1       827 5.31854E-01
 -1       828 7.02924E-01
 -1       829 2.74823E+00
 -1       830 2.82562E-01
 -1       831 5.32825E+00
 -1       832 5.60786E+00
 -1       833 6.50117E+00
 -1       834 6.92614E-01
 -1       835 8.58558E+00
 -1       836 7.76521E+00
 -1       837 1.27342E-01
 -1       838 9.59488E+00
 -1       839 2.01441E-01
 -1       840 8.58558E+00
 -1       841 2.37160E-01
 -1       842 9.42267E+00
 -1       843 2.92673E+00
 -1       844 2.82164E-01
 -1       845 2.81378E-01
 -1       846 5.99525E+00
 -1       847 5.98766E-01
 -1       848 6.83636E-01
 -1       849 4.79205E+00
 -1       850 3.09161E-01
 -1       851 2.17801E-01
 -1       852 3.20649E+00
 -1       853 6.64946E-01
 -1       854 2.88161E-01
 -1       855 7.02924E-01
 -1       856 7.34870E+00
 -1       857 6.02032E+00
 -1       858 6.29077E+00
 -1       859 7.05407E+00
 -1       860 6.01348E-01
 -1       861 2.56381E-01
 -1       862 2.73386E-01
 -1       863 2.87833E-01
 -1       864 4.74464E-01
 -1       865 2.39133E-01
 -1       866 5.90722E+00
 -1       867 7.00029E+00
 -1       868 1.83272E-01
 -1       869 1.74290E-01
 -1       870 1.55907E-01
 -1       871 1.34393E-01
 -1       872 1.16286E-01
 -1       873 9.44832E-02
 -1       874 7.21180E-02
 -1       875 7.60550E-02
 -1       876 8.32726E-02
 -1       877 1.22455E-01
 -1       878 1.80243E-01
 -1       879 2.50909E-01
 -1       880 3.37269E-01
 -1       881 4.42339E-01
 -1       882 5.69160E-01
 -1       883 7.20261E-01
 -1       884 8.96057E-01
 -1       885 1.12635E+00
 -1       886 1.48076E+00
 -1       887 2.12314E+00
 -1       888 2.99708E+00
 -1       889 3.63439E+00
 -1       890 5.05830E+00
 -1       891 2.82252E+00
 -1       892 2.11721E+00
 -1       893 1.51886E+00
 -1       894 1.11463E+00
 -1       895 8.97133E-01
 -1       896 5.77705E+00
 -1       897 6.49764E-02
 -1       898 7.68865E-02
 -1       899 1.02992E-01
 -1       900 1.58081E-01
 -1       901 2.24649E-01
 -1       902 3.04792E-01
 -1       903 4.00248E-01
 -1       904 5.11842E-01
 -1       905 6.38389E-01
 -1       906 7.84984E-01
 -1       907 9.92613E-01
 -1       908 1.31312E+00
 -1       909 1.74914E+00
 -1       910 2.26999E+00
 -1       911 2.89146E+00
 -1       912 4.20000E+00
 -1       913 1.34604E+00
 -1       914 1.09639E+00
 -1       915 9.11965E-01
 -1       916 1.69287E+00
 -1       917 2.32196E+00
 -1       918 6.99047E-02
 -1       919 5.47091E+00
 -1       920 1.49068E-01
 -1       921 6.30585E+00
 -1       922 5.77705E+00
 -1       923 2.87833E-01
 -1       924 1.38557E-01
 -1       925 4.13101E+00
 -1       926 1.81891E-01
 -1       927 1.61334E-01
 -1       928 7.00029E+00
 -1       929 1.76045E-01
 -1       930 4.32843E+00
 -1       931 2.10972E-01
 -1       932 5.53014E+00
 -1       933 2.19081E-01
 -1       934 6.94432E-01
 -1       935 1.73124E-01
 -1       936 1.03602E-01
 -1       937 2.09717E-01
 -1       938 5.89339E+00
 -1       939 7.93117E-01
 -1       940 9.25732E-01
 -1       941 1.04784E+00
 -1       942 2.27111E-01
 -1       943 1.81891E-01
 -1       944 4.65273E+00
 -1       945 5.17390E+00
 -1       946 5.40757E+00
 -1       947 1.28078E-01
 -1       948 4.62348E+00
 -1       949 4.89210E+00
 -1       950 9.38495E-01
 -1       951 2.19192E-01
 -1       952 8.04494E-01
 -1       953 1.09639E+00
 -1       954 1.33435E-01
 -1       955 1.22056E-01
 -1       956 1.05985E-01
 -1       957 9.27779E-02
 -1       958 8.44869E-02
 -1       959 8.92798E-02
 -1       960 9.72484E-02
 -1       961 1.11531E-01
 -1       962 1.54953E-01
 -1       963 2.15165E-01
 -1       964 2.90367E-01
 -1       965 3.84851E-01
 -1       966 5.04627E-01
 -1       967 6.58533E-01
 -1       968 8.59677E-01
 -1       969 1.12635E+00
 -1       970 1.48076E+00
 -1       971 1.94739E+00
 -1       972 2.43338E+00
 -1       973 3.92564E+00
 -1       974 3.86211E+00
 -1       975 5.05607E+00
 -1       976 2.01175E+00
 -1       977 1.57440E+00
 -1       978 1.14958E+00
 -1       979 2.02035E-01
 -1       980 1.42612E-01
 -1       981 3.65526E-01
 -1       982 4.77047E-01
 -1       983 6.14897E-01
 -1       984 7.84984E-01
 -1       985 9.92613E-01
 -1       986 1.24142E+00
 -1       987 1.70193E+00
 -1       988 3.83294E+00
 -1       989 5.05607E+00
 -1       990 2.27111E-01
 -1       991 8.11612E-02
 -1       992 1.34604E+00
 -1       993 1.96398E-01
 -1       994 1.24887E-01
 -1       995 2.19081E-01
 -1       996 1.85088E-01
 -1       997 1.60391E+00
 -1       998 4.77303E+00
 -1       999 1.62802E-01
 -1      1000 2.75228E-01
 -1      1001 9.38495E-01
 -1      1002 1.35653E-01
 -1      1003 3.30339E+00
 -1      1004 4.16328E+00
 -1      1005 3.43575E+00
 -1      1006 1.55722E-01
 -1      1007 1.36185E-01
 -1      1008 8.35492E-02
 -1      1009 1.46985E-01
 -1      1010 1.01438E-01
 -1      1011 8.74500E-02
 -1      1012 1.13570E+00
 -1      1013 1.95343E-01
 -1      1014 1.29705E+00
 -1      1015 3.91095E+00
 -1      1016 1.93660E+00
 -1      1017 3.84831E+00
 -1      1018 1.47950E+00
 -1      1019 1.53388E-01
 -1      1020 1.64804E-01
 -1      1021 1.17934E-01
 -1      1022 3.92564E+00
 -1      1023 9.47483E-02
 -1      1024 8.59092E-02
 -1      1025 8.95003E-02
 -1      1026 9.56053E-02
 -1      1027 1.02867E-01
 -1      1028 1.12165E-01
 -1      1029 1.36714E-01
 -1      1030 1.71257E-01
 -1      1031 2.25603E-01
 -1      1032 2.99584E-01
 -1      1033 3.95580E-01
 -1      1034 5.23196E-01
 -1      1035 6.99291E-01
 -1      1036 9.53039E-01
 -1      1037 1.33225E+00
 -1      1038 1.93035E+00
 -1      1039 2.52999E+00
 -1      1040 2.52999E+00
 -1      1041 1.01701E-01
 -1      1042 2.01175E+00
 -1      1043 1.57440E+00
 -1      1044 1.50512E-01
 -1      1045 5.24273E-01
 -1      1046 3.98563E-01
 -1      1047 9.20324E-01
 -1      1048 1.22027E+00
 -1      1049 2.32702E+00
 -1      1050 4.16328E+00
 -1      1051 1.11775E-01
 -1      1052 1.95343E-01
 -1      1053 6.91332E-01
 -1      1054 3.57306E+00
 -1      1055 1.47401E+00
 -1      1056 1.65868E-01
 -1      1057 3.36941E+00
 -1      1058 3.01696E-01
 -1      1059 1.47950E+00
 -1      1060 3.14029E+00
 -1      1061 1.02490E-01
 -1      1062 9.06957E-02
 -1      1063 1.01896E-01
 -1      1064 2.25867E-01
 -1      1065 2.59120E+00
 -1      1066 2.61801E+00
 -1      1067 1.16303E-01
 -1      1068 8.79583E-02
 -1      1069 3.14756E+00
 -1      1070 1.04955E-01
 -1      1071 1.57542E-01
 -1      1072 3.59120E+00
 -1      1073 8.74500E-02
 -1      1074 1.15319E-01
 -1      1075 1.58919E+00
 -1      1076 1.57665E+00
 -1      1077 1.06216E-01
 -1      1078 1.14524E-01
 -1      1079 1.57665E+00
 -1      1080 8.59930E-02
 -1      1081 8.74216E-02
 -1      1082 6.96366E-01
 -1      1083 8.95003E-02
 -1      1084 1.20317E-01
 -1      1085 1.02867E-01
 -1      1086 1.12165E-01
 -1      1087 1.41750E-01
 -1      1088 1.71257E-01
 -1      1089 2.13309E-01
 -1      1090 2.67948E-01
 -1      1091 3.38486E-01
 -1      1092 4.30683E-01
 -1      1093 5.58609E-01
 -1      1094 7.33859E-01
 -1      1095 9.97437E-01
 -1      1096 1.86028E+00
 -1      1097 3.14029E+00
 -1      1098 1.89795E+00
 -1      1099 8.15777E-02
 -1      1100 1.23290E-01
 -1      1101 8.72568E-02
 -1      1102 3.86564E-01
 -1      1103 1.88461E+00
 -1      1104 9.70822E-01
 -1      1105 3.05472E-01
 -1      1106 1.01438E-01
 -1      1107 2.42308E-01
 -1      1108 3.03094E+00
 -1      1109 8.41476E-02
 -1      1110 1.23290E-01
 -1      1111 1.92956E-01
 -1      1112 5.14270E-01
 -1      1113 7.68636E-02
 -1      1114 2.52999E+00
 -1      1115 1.19996E-01
 -1      1116 6.95977E-02
 -1      1117 1.57542E-01
 -1      1118 1.47950E+00
 -1      1119 1.83114E+00
 -1      1120 1.33080E+00
 -1      1121 2.19336E+00
 -1      1122 9.30405E-02
 -1      1123 8.95637E-02
 -1      1124 1.20317E-01
 -1      1125 1.54297E+00
 -1      1126 1.20317E-01
 -1      1127 1.57542E-01
 -1      1128 8.86512E-02
 -1      1129 8.90716E-02
 -1      1130 8.90716E-02
 -1      1131 1.28017E+00
 -1      1132 1.01076E-01
 -1      1133 8.95637E-02
 -1      1134 1.31476E+01
 -1      1135 8.40484E+00
 -1      1136 2.74157E+00
 -1      1137 1.55538E+00
 -1      1138 1.16711E+00
 -1      1139 9.71450E-01
 -1      1140 8.53438E-01
 -1      1141 7.81462E-01
 -1      1142 7.55411E-01
 -1      1143 7.84556E-01
 -1      1144 8.56333E-01
 -1      1145 9.75554E-01
 -1      1146 1.17854E+00
 -1      1147 1.56942E+00
 -1      1148 2.66837E+00
 -1      1149 6.07384E+00
 -1      1150 1.13436E+01
 -1      1151 1.31476E+01
 -1      1152 8.73487E+00
 -1      1153 3.83461E+00
 -1      1154 2.73279E+00
 -1      1155 1.74461E+00
 -1      1156 1.19602E+00
 -1      1157 9.02970E-01
 -1      1158 6.96364E-01
 -1      1159 5.40065E-01
 -1      1160 4.19524E-01
 -1      1161 3.29505E-01
 -1      1162 2.63264E-01
 -1      1163 2.12932E-01
 -1      1164 1.76050E-01
 -1      1165 1.53568E-01
 -1      1166 1.53686E-01
 -1      1167 1.78112E-01
 -1      1168 2.18831E-01
 -1      1169 2.72544E-01
 -1      1170 3.38696E-01
 -1      1171 4.14813E-01
 -1      1172 4.95305E-01
 -1      1173 6.00983E-01
 -1      1174 7.53747E-01
 -1      1175 9.46930E-01
 -1      1176 1.15643E+00
 -1      1177 1.31880E+00
 -1      1178 1.37738E+00
 -1      1179 1.39332E+00
 -1      1180 1.40926E+00
 -1      1181 1.62027E+00
 -1      1182 2.47498E+00
 -1      1183 3.58439E+00
 -1      1184 4.05011E+00
 -1      1185 4.01774E+00
 -1      1186 3.92610E+00
 -1      1187 3.26764E+00
 -1      1188 2.18504E+00
 -1      1189 1.53907E+00
 -1      1190 1.37649E+00
 -1      1191 1.36684E+00
 -1      1192 1.35674E+00
 -1      1193 1.26865E+00
 -1      1194 1.05381E+00
 -1      1195 8.45486E-01
 -1      1196 7.41499E-01
 -1      1197 6.69172E-01
 -1      1198 5.58713E-01
 -1      1199 4.35251E-01
 -1      1200 2.28992E-01
 -1      1201 1.40434E+01
 -1      1202 8.72072E+00
 -1      1203 2.90778E+00
 -1      1204 2.04436E+00
 -1      1205 1.41113E+00
 -1      1206 1.03116E+00
 -1      1207 8.25024E-01
 -1      1208 6.68681E-01
 -1      1209 5.40996E-01
 -1      1210 4.36681E-01
 -1      1211 3.53967E-01
 -1      1212 2.91073E-01
 -1      1213 2.43614E-01
 -1      1214 2.09085E-01
 -1      1215 1.89801E-01
 -1      1216 1.90239E-01
 -1      1217 2.06008E-01
 -1      1218 2.29093E-01
 -1      1219 2.70799E-01
 -1      1220 3.34414E-01
 -1      1221 4.07843E-01
 -1      1222 4.84495E-01
 -1      1223 5.53931E-01
 -1      1224 5.99559E-01
 -1      1225 6.53427E-01
 -1      1226 7.95620E-01
 -1      1227 9.80296E-01
 -1      1228 1.11257E+00
 -1      1229 1.31018E+00
 -1      1230 1.45750E+00
 -1      1231 1.61269E+00
 -1      1232 1.98202E+00
 -1      1233 2.68168E+00
 -1      1234 3.31851E+00
 -1      1235 3.61492E+00
 -1      1236 3.76000E+00
 -1      1237 3.33909E+00
 -1      1238 2.28360E+00
 -1      1239 1.38543E+00
 -1      1240 1.14593E+00
 -1      1241 1.24711E+00
 -1      1242 1.32420E+00
 -1      1243 1.29690E+00
 -1      1244 1.18294E+00
 -1      1245 9.95389E-01
 -1      1246 7.95563E-01
 -1      1247 6.50138E-01
 -1      1248 5.25362E-01
 -1      1249 3.57519E-01
 -1      1250 1.69951E-01
 -1      1251 9.85408E-02
 -1      1252 1.25141E-01
 -1      1253 1.13151E-01
 -1      1254 7.77510E-02
 -1      1255 5.12813E-02
 -1      1256 6.68441E-02
 -1      1257 9.76936E-02
 -1      1258 1.13934E-01
 -1      1259 1.17949E-01
 -1      1260 1.14417E-01
 -1      1261 9.86405E-02
 -1      1262 6.84353E-02
 -1      1263 5.26376E-02
 -1      1264 7.84943E-02
 -1      1265 1.36001E-01
 -1      1266 1.82597E-01
 -1      1267 1.40289E-01
 -1      1268 2.47440E+01
 -1      1269 3.66637E+01
 -1      1270 4.85228E+01
 -1      1271 3.49525E+01
 -1      1272 1.70238E+01
 -1      1273 1.26656E+01
 -1      1274 1.25826E+01
 -1      1275 1.24995E+01
 -1      1276 1.23267E+01
 -1      1277 1.34735E+01
 -1      1278 2.69659E+01
 -1      1279 3.91386E+01
 -1      1280 3.21245E+01
 -1      1281 2.51104E+01
 -1      1282 2.54853E+01
 -1      1283 2.71873E+01
 -1      1284 2.89225E+01
 -1      1285 2.92789E+01
 -1      1286 2.08034E+01
 -1      1287 1.21320E+01
 -1      1288 1.18845E+01
 -1      1289 1.18461E+01
 -1      1290 1.22344E+01
 -1      1291 1.26612E+01
 -1      1292 1.25521E+01
 -1      1293 1.95425E+01
 -1      1294 2.77422E+01
 -1      1295 2.88423E+01
 -1      1296 2.67628E+01
 -1      1297 2.46834E+01
 -1      1298 1.31476E+01
 -1      1299 4.86937E+00
 -1      1300 9.61213E+00
 -1      1301 2.05835E+00
 -1      1302 2.97886E+00
 -1      1303 4.18615E+00
 -1      1304 1.39801E+00
 -1      1305 1.66369E+00
 -1      1306 1.90097E+00
 -1      1307 1.10020E+00
 -1      1308 1.22280E+00
 -1      1309 1.33110E+00
 -1      1310 9.35311E-01
 -1      1311 1.00837E+00
 -1      1312 1.06406E+00
 -1      1313 8.36111E-01
 -1      1314 8.81061E-01
 -1      1315 9.17984E-01
 -1      1316 7.75313E-01
 -1      1317 8.02338E-01
 -1      1318 8.29962E-01
 -1      1319 7.56386E-01
 -1      1320 7.55411E-01
 -1      1321 7.76288E-01
 -1      1322 8.06141E-01
 -1      1323 7.77971E-01
 -1      1324 7.77971E-01
 -1      1325 8.83386E-01
 -1      1326 8.39780E-01
 -1      1327 8.33195E-01
 -1      1328 1.01559E+00
 -1      1329 9.39977E-01
 -1      1330 9.23424E-01
 -1      1331 1.23843E+00
 -1      1332 1.11105E+00
 -1      1333 1.07548E+00
 -1      1334 1.67925E+00
 -1      1335 1.41574E+00
 -1      1336 1.34826E+00
 -1      1337 2.88129E+00
 -1      1338 2.04583E+00
 -1      1339 1.89216E+00
 -1      1340 6.28706E+00
 -1      1341 3.71705E+00
 -1      1342 3.09451E+00
 -1      1343 1.40434E+01
 -1      1344 1.13436E+01
 -1      1345 8.98685E+00
 -1      1346 1.40434E+01
 -1      1347 8.73487E+00
 -1      1348 4.32213E+00
 -1      1349 3.83461E+00
 -1      1350 3.34709E+00
 -1      1351 3.83461E+00
 -1      1352 2.73279E+00
 -1      1353 2.11849E+00
 -1      1354 2.73279E+00
 -1      1355 1.78619E+00
 -1      1356 1.41232E+00
 -1      1357 1.78619E+00
 -1      1358 1.20220E+00
 -1      1359 1.02747E+00
 -1      1360 1.24378E+00
 -1      1361 9.02970E-01
 -1      1362 7.84652E-01
 -1      1363 9.09155E-01
 -1      1364 6.96364E-01
 -1      1365 6.08077E-01
 -1      1366 6.96364E-01
 -1      1367 5.44919E-01
 -1      1368 4.76907E-01
 -1      1369 5.44919E-01
 -1      1370 4.28762E-01
 -1      1371 3.76232E-01
 -1      1372 4.33616E-01
 -1      1373 3.37456E-01
 -1      1374 2.99967E-01
 -1      1375 3.46694E-01
 -1      1376 2.71792E-01
 -1      1377 2.43040E-01
 -1      1378 2.79743E-01
 -1      1379 2.20333E-01
 -1      1380 1.98753E-01
 -1      1381 2.28862E-01
 -1      1382 1.80077E-01
 -1      1383 1.64775E-01
 -1      1384 1.87478E-01
 -1      1385 1.53568E-01
 -1      1386 1.46388E-01
 -1      1387 1.57595E-01
 -1      1388 1.44015E-01
 -1      1389 1.51312E-01
 -1      1390 1.44015E-01
 -1      1391 1.60983E-01
 -1      1392 1.78112E-01
 -1      1393 1.51312E-01
 -1      1394 1.95626E-01
 -1      1395 2.19216E-01
 -1      1396 1.78497E-01
 -1      1397 2.42420E-01
 -1      1398 2.72544E-01
 -1      1399 2.19216E-01
 -1      1400 3.02668E-01
 -1      1401 3.38696E-01
 -1      1402 2.72544E-01
 -1      1403 3.77538E-01
 -1      1404 4.17628E-01
 -1      1405 3.41511E-01
 -1      1406 4.77541E-01
 -1      1407 5.17943E-01
 -1      1408 4.40266E-01
 -1      1409 5.84094E-01
 -1      1410 6.49370E-01
 -1      1411 5.66330E-01
 -1      1412 7.15562E-01
 -1      1413 8.03051E-01
 -1      1414 6.98673E-01
 -1      1415 8.62140E-01
 -1      1416 9.67834E-01
 -1      1417 8.23955E-01
 -1      1418 1.05262E+00
 -1      1419 1.15643E+00
 -1      1420 9.67834E-01
 -1      1421 1.26023E+00
 -1      1422 1.31880E+00
 -1      1423 1.15643E+00
 -1      1424 1.37738E+00
 -1      1425 1.37738E+00
 -1      1426 1.31880E+00
 -1      1427 1.34503E+00
 -1      1428 1.36097E+00
 -1      1429 1.34503E+00
 -1      1430 1.40926E+00
 -1      1431 1.40926E+00
 -1      1432 1.36097E+00
 -1      1433 1.39088E+00
 -1      1434 1.60189E+00
 -1      1435 1.39088E+00
 -1      1436 1.86980E+00
 -1      1437 2.51350E+00
 -1      1438 1.64040E+00
 -1      1439 3.11868E+00
 -1      1440 3.58439E+00
 -1      1441 2.51350E+00
 -1      1442 4.05011E+00
 -1      1443 4.05011E+00
 -1      1444 3.58439E+00
 -1      1445 4.01774E+00
 -1      1446 3.98536E+00
 -1      1447 4.01774E+00
 -1      1448 3.92610E+00
 -1      1449 3.86684E+00
 -1      1450 3.92610E+00
 -1      1451 3.26764E+00
 -1      1452 2.66844E+00
 -1      1453 3.26764E+00
 -1      1454 2.18504E+00
 -1      1455 1.70164E+00
 -1      1456 2.18504E+00
 -1      1457 1.47076E+00
 -1      1458 1.30818E+00
 -1      1459 1.47076E+00
 -1      1460 1.37649E+00
 -1      1461 1.37649E+00
 -1      1462 1.30818E+00
 -1      1463 1.36684E+00
 -1      1464 1.35719E+00
 -1      1465 1.36684E+00
 -1      1466 1.35674E+00
 -1      1467 1.35629E+00
 -1      1468 1.35674E+00
 -1      1469 1.26865E+00
 -1      1470 1.18100E+00
 -1      1471 1.26865E+00
 -1      1472 1.05595E+00
 -1      1473 9.28752E-01
 -1      1474 1.05595E+00
 -1      1475 8.45486E-01
 -1      1476 7.64363E-01
 -1      1477 8.47629E-01
 -1      1478 7.41499E-01
 -1      1479 7.18635E-01
 -1      1480 7.41499E-01
 -1      1481 6.69172E-01
 -1      1482 6.19710E-01
 -1      1483 6.69172E-01
 -1      1484 5.58713E-01
 -1      1485 4.97717E-01
 -1      1486 5.58713E-01
 -1      1487 4.35251E-01
 -1      1488 3.72786E-01
 -1      1489 4.35251E-01
 -1      1490 2.84083E-01
 -1      1491 2.84083E-01
 -1      1492 3.39801E+00
 -1      1493 8.72072E+00
 -1      1494 8.72072E+00
 -1      1495 2.41755E+00
 -1      1496 2.90778E+00
 -1      1497 2.90778E+00
 -1      1498 1.67118E+00
 -1      1499 2.04436E+00
 -1      1500 2.04436E+00
 -1      1501 1.15108E+00
 -1      1502 1.41113E+00
 -1      1503 1.41113E+00
 -1      1504 9.11240E-01
 -1      1505 1.03116E+00
 -1      1506 1.03116E+00
 -1      1507 7.38808E-01
 -1      1508 8.25024E-01
 -1      1509 8.25024E-01
 -1      1510 5.98554E-01
 -1      1511 6.68681E-01
 -1      1512 6.68681E-01
 -1      1513 4.83437E-01
 -1      1514 5.40996E-01
 -1      1515 5.40996E-01
 -1      1516 3.89924E-01
 -1      1517 4.36681E-01
 -1      1518 4.36681E-01
 -1      1519 3.18010E-01
 -1      1520 3.53967E-01
 -1      1521 3.53967E-01
 -1      1522 2.64136E-01
 -1      1523 2.91073E-01
 -1      1524 2.91073E-01
 -1      1525 2.23092E-01
 -1      1526 2.43614E-01
 -1      1527 2.43614E-01
 -1      1528 1.95077E-01
 -1      1529 2.09085E-01
 -1      1530 2.09085E-01
 -1      1531 1.84122E-01
 -1      1532 1.89399E-01
 -1      1533 1.89399E-01
 -1      1534 1.90239E-01
 -1      1535 1.84524E-01
 -1      1536 1.84122E-01
 -1      1537 2.06008E-01
 -1      1538 1.95953E-01
 -1      1539 1.90239E-01
 -1      1540 2.29250E-01
 -1      1541 2.16220E-01
 -1      1542 2.06165E-01
 -1      1543 2.82455E-01
 -1      1544 2.53780E-01
 -1      1545 2.40906E-01
 -1      1546 3.45954E-01
 -1      1547 3.11013E-01
 -1      1548 2.93994E-01
 -1      1549 4.15243E-01
 -1      1550 3.76754E-01
 -1      1551 3.53354E-01
 -1      1552 4.84495E-01
 -1      1553 4.46331E-01
 -1      1554 4.15243E-01
 -1      1555 5.53931E-01
 -1      1556 5.22659E-01
 -1      1557 4.84495E-01
 -1      1558 5.99559E-01
 -1      1559 5.85203E-01
 -1      1560 5.53931E-01
 -1      1561 6.55457E-01
 -1      1562 6.15945E-01
 -1      1563 6.01589E-01
 -1      1564 8.28128E-01
 -1      1565 7.25448E-01
 -1      1566 6.87965E-01
 -1      1567 9.80296E-01
 -1      1568 8.98300E-01
 -1      1569 8.28128E-01
 -1      1570 1.11257E+00
 -1      1571 1.06229E+00
 -1      1572 9.80296E-01
 -1      1573 1.31018E+00
 -1      1574 1.16285E+00
 -1      1575 1.11257E+00
 -1      1576 1.45750E+00
 -1      1577 1.45750E+00
 -1      1578 1.31018E+00
 -1      1579 1.60714E+00
 -1      1580 1.45196E+00
 -1      1581 1.45196E+00
 -1      1582 1.98202E+00
 -1      1583 1.76788E+00
 -1      1584 1.60714E+00
 -1      1585 2.70108E+00
 -1      1586 2.21557E+00
 -1      1587 2.00143E+00
 -1      1588 3.31851E+00
 -1      1589 3.16719E+00
 -1      1590 2.70108E+00
 -1      1591 3.61492E+00
 -1      1592 3.46983E+00
 -1      1593 3.31851E+00
 -1      1594 3.76000E+00
 -1      1595 3.76000E+00
 -1      1596 3.61492E+00
 -1      1597 2.91818E+00
 -1      1598 3.33909E+00
 -1      1599 3.33909E+00
 -1      1600 1.64903E+00
 -1      1601 2.28360E+00
 -1      1602 2.28360E+00
 -1      1603 1.12184E+00
 -1      1604 1.38543E+00
 -1      1605 1.38543E+00
 -1      1606 1.11010E+00
 -1      1607 1.08600E+00
 -1      1608 1.08600E+00
 -1      1609 1.24711E+00
 -1      1610 1.17003E+00
 -1      1611 1.11010E+00
 -1      1612 1.32420E+00
 -1      1613 1.32420E+00
 -1      1614 1.24711E+00
 -1      1615 1.26961E+00
 -1      1616 1.29690E+00
 -1      1617 1.29690E+00
 -1      1618 1.09628E+00
 -1      1619 1.18294E+00
 -1      1620 1.18294E+00
 -1      1621 8.94499E-01
 -1      1622 9.95389E-01
 -1      1623 9.95389E-01
 -1      1624 6.96627E-01
 -1      1625 7.95563E-01
 -1      1626 7.95563E-01
 -1      1627 6.03648E-01
 -1      1628 6.50138E-01
 -1      1629 6.50138E-01
 -1      1630 4.47077E-01
 -1      1631 5.25362E-01
 -1      1632 5.25362E-01
 -1      1633 2.68422E-01
 -1      1634 3.57980E-01
 -1      1635 3.57980E-01
 -1      1636 1.96551E-01
 -1      1637 1.43250E-01
 -1      1638 1.43250E-01
 -1      1639 1.31260E-01
 -1      1640 1.43250E-01
 -1      1641 1.61360E-01
 -1      1642 1.06238E-01
 -1      1643 1.29647E-01
 -1      1644 1.59747E-01
 -1      1645 6.19126E-02
 -1      1646 6.49730E-02
 -1      1647 1.16869E-01
 -1      1648 1.16341E-01
 -1      1649 9.77174E-02
 -1      1650 1.11409E-01
 -1      1651 1.54024E-01
 -1      1652 1.41798E-01
 -1      1653 1.72671E-01
 -1      1654 1.69909E-01
 -1      1655 1.65894E-01
 -1      1656 2.09998E-01
 -1      1657 1.70110E-01
 -1      1658 1.70110E-01
 -1      1659 2.22069E-01
 -1      1660 1.66578E-01
 -1      1661 1.70110E-01
 -1      1662 2.22270E-01
 -1      1663 1.43012E-01
 -1      1664 1.55256E-01
 -1      1665 2.10949E-01
 -1      1666 1.01167E-01
 -1      1667 1.19128E-01
 -1      1668 1.75744E-01
 -1      1669 6.82302E-02
 -1      1670 6.60671E-02
 -1      1671 1.16760E-01
 -1      1672 1.30263E-01
 -1      1673 1.06569E-01
 -1      1674 1.19999E-01
 -1      1675 1.64076E-01
 -1      1676 1.30263E-01
 -1      1677 1.58338E-01
 -1      1678 2.02508E-01
 -1      1679 1.89725E-01
 -1      1680 1.83987E-01
 -1      1681 2.91211E-01
 -1      1682 2.72575E+01
 -1      1683 2.71969E+01
 -1      1684 3.90861E+01
 -1      1685 2.72270E+01
 -1      1686 4.85228E+01
 -1      1687 4.85228E+01
 -1      1688 2.24907E+01
 -1      1689 3.60611E+01
 -1      1690 1.21321E+01
 -1      1691 1.64903E+01
 -1      1692 1.26656E+01
 -1      1693 1.26656E+01
 -1      1694 1.22460E+01
 -1      1695 1.23291E+01
 -1      1696 1.24995E+01
 -1      1697 1.24995E+01
 -1      1698 1.21539E+01
 -1      1699 1.23267E+01
 -1      1700 1.31905E+01
 -1      1701 1.18709E+01
 -1      1702 2.69659E+01
 -1      1703 1.47931E+01
 -1      1704 3.91386E+01
 -1      1705 3.91386E+01
 -1      1706 3.06099E+01
 -1      1707 3.76240E+01
 -1      1708 2.58632E+01
 -1      1709 2.58632E+01
 -1      1710 2.62381E+01
 -1      1711 2.58632E+01
 -1      1712 2.73450E+01
 -1      1713 2.60179E+01
 -1      1714 2.93306E+01
 -1      1715 2.89225E+01
 -1      1716 2.92789E+01
 -1      1717 2.93306E+01
 -1      1718 1.23796E+01
 -1      1719 2.08034E+01
 -1      1720 1.14355E+01
 -1      1721 1.16830E+01
 -1      1722 1.18845E+01
 -1      1723 1.18845E+01
 -1      1724 1.18076E+01
 -1      1725 1.18461E+01
 -1      1726 1.22106E+01
 -1      1727 1.17838E+01
 -1      1728 1.26612E+01
 -1      1729 1.26612E+01
 -1      1730 1.20055E+01
 -1      1731 1.21146E+01
 -1      1732 1.95425E+01
 -1      1733 1.24430E+01
 -1      1734 2.86133E+01
 -1      1735 2.75132E+01
 -1      1736 3.04762E+01
 -1      1737 3.04762E+01
 -1      1738 2.83967E+01
 -1      1739 3.04762E+01
 -1      1740 2.71969E+01
 -1      1741 2.71969E+01
 -1      1742 1.75989E+01
 -1      1743 3.60611E+01
 -1      1744 1.97012E-01
 -1      1745 2.15122E-01
 -1      1746 2.96799E+01
 -1      1747 3.90861E+01
 -1      1748 2.97104E+01
 -1      1749 1.21321E+01
 -1      1750 1.23291E+01
 -1      1751 1.22460E+01
 -1      1752 1.23267E+01
 -1      1753 1.18709E+01
 -1      1754 1.31905E+01
 -1      1755 2.69659E+01
 -1      1756 3.76240E+01
 -1      1757 3.13627E+01
 -1      1758 2.66160E+01
 -1      1759 2.63958E+01
 -1      1760 2.77532E+01
 -1      1761 2.93306E+01
 -1      1762 2.08551E+01
 -1      1763 1.16830E+01
 -1      1764 1.14355E+01
 -1      1765 1.18461E+01
 -1      1766 1.17838E+01
 -1      1767 1.22106E+01
 -1      1768 1.21146E+01
 -1      1769 1.20055E+01
 -1      1770 2.04136E+01
 -1      1771 3.02472E+01
 -1      1772 3.21101E+01
 -1      1773 3.09102E+01
 -1      1774 9.61213E+00
 -1      1775 1.27509E+00
 -1      1776 1.66975E+00
 -1      1777 2.38681E+00
 -1      1778 4.27732E+00
 -1      1779 1.76093E+00
 -1      1780 8.81196E-01
 -1      1781 9.73026E-01
 -1      1782 7.78440E-01
 -1      1783 8.32690E-01
 -1      1784 7.41652E-01
 -1      1785 7.13717E-01
 -1      1786 7.47490E-01
 -1      1787 6.62195E-01
 -1      1788 6.71936E-01
 -1      1789 6.91837E-01
 -1      1790 6.09365E-01
 -1      1791 6.95137E-01
 -1      1792 6.73552E-01
 -1      1793 5.89102E-01
 -1      1794 7.50417E-01
 -1      1795 7.16778E-01
 -1      1796 6.12359E-01
 -1      1797 8.40154E-01
 -1      1798 7.83563E-01
 -1      1799 6.67147E-01
 -1      1800 9.83010E-01
 -1      1801 8.87548E-01
 -1      1802 7.47687E-01
 -1      1803 1.22787E+00
 -1      1804 1.05055E+00
 -1      1805 8.62621E-01
 -1      1806 1.70796E+00
 -1      1807 1.34137E+00
 -1      1808 1.04367E+00
 -1      1809 2.62830E+00
 -1      1810 1.79254E+00
 -1      1811 1.24175E+00
 -1      1812 8.12310E+00
 -1      1813 3.06652E+00
 -1      1814 1.76455E+00
 -1      1815 2.80038E+00
 -1      1816 5.19940E+00
 -1      1817 2.16707E+00
 -1      1818 2.65730E+00
 -1      1819 2.05967E+00
 -1      1820 3.40006E+00
 -1      1821 2.54078E+00
 -1      1822 1.92648E+00
 -1      1823 1.69609E+00
 -1      1824 1.36379E+00
 -1      1825 1.50408E+00
 -1      1826 1.18413E+00
 -1      1827 9.74008E-01
 -1      1828 1.09402E+00
 -1      1829 8.49032E-01
 -1      1830 7.24529E-01
 -1      1831 7.89383E-01
 -1      1832 6.66430E-01
 -1      1833 5.78143E-01
 -1      1834 6.06308E-01
 -1      1835 5.30941E-01
 -1      1836 4.67784E-01
 -1      1837 5.01007E-01
 -1      1838 4.26657E-01
 -1      1839 3.78512E-01
 -1      1840 4.12680E-01
 -1      1841 3.45508E-01
 -1      1842 3.06732E-01
 -1      1843 3.38550E-01
 -1      1844 2.79743E-01
 -1      1845 2.51569E-01
 -1      1846 2.78558E-01
 -1      1847 2.28862E-01
 -1      1848 2.06154E-01
 -1      1849 2.28862E-01
 -1      1850 1.87478E-01
 -1      1851 1.68801E-01
 -1      1852 1.87478E-01
 -1      1853 1.54887E-01
 -1      1854 1.43680E-01
 -1      1855 1.54887E-01
 -1      1856 1.34456E-01
 -1      1857 1.32082E-01
 -1      1858 1.31748E-01
 -1      1859 1.38504E-01
 -1      1860 1.48176E-01
 -1      1861 1.28946E-01
 -1      1862 1.60968E-01
 -1      1863 1.78483E-01
 -1      1864 1.48161E-01
 -1      1865 1.96012E-01
 -1      1866 2.19216E-01
 -1      1867 1.78483E-01
 -1      1868 2.50755E-01
 -1      1869 2.80879E-01
 -1      1870 2.27551E-01
 -1      1871 3.26857E-01
 -1      1872 3.65699E-01
 -1      1873 3.05068E-01
 -1      1874 4.19105E-01
 -1      1875 4.79018E-01
 -1      1876 4.04452E-01
 -1      1877 5.38002E-01
 -1      1878 6.04153E-01
 -1      1879 5.16841E-01
 -1      1880 6.64249E-01
 -1      1881 7.30441E-01
 -1      1882 6.35921E-01
 -1      1883 7.83523E-01
 -1      1884 8.42612E-01
 -1      1885 7.49098E-01
 -1      1886 8.89450E-01
 -1      1887 9.74240E-01
 -1      1888 8.49018E-01
 -1      1889 1.02784E+00
 -1      1890 1.13164E+00
 -1      1891 9.49458E-01
 -1      1892 1.15631E+00
 -1      1893 1.21489E+00
 -1      1894 1.02773E+00
 -1      1895 1.16742E+00
 -1      1896 1.13507E+00
 -1      1897 1.00493E+00
 -1      1898 1.06936E+00
 -1      1899 1.11764E+00
 -1      1900 8.91742E-01
 -1      1901 1.13431E+00
 -1      1902 1.11593E+00
 -1      1903 8.42693E-01
 -1      1904 1.33687E+00
 -1      1905 1.60478E+00
 -1      1906 1.08030E+00
 -1      1907 1.85838E+00
 -1      1908 2.46357E+00
 -1      1909 1.55485E+00
 -1      1910 2.75065E+00
 -1      1911 3.21637E+00
 -1      1912 2.09554E+00
 -1      1913 3.23404E+00
 -1      1914 3.20166E+00
 -1      1915 2.40030E+00
 -1      1916 3.22052E+00
 -1      1917 3.16126E+00
 -1      1918 2.43682E+00
 -1      1919 3.05582E+00
 -1      1920 2.45662E+00
 -1      1921 2.35023E+00
 -1      1922 2.18825E+00
 -1      1923 1.70485E+00
 -1      1924 1.97643E+00
 -1      1925 1.41019E+00
 -1      1926 1.17930E+00
 -1      1927 1.41340E+00
 -1      1928 1.06386E+00
 -1      1929 1.13217E+00
 -1      1930 1.00329E+00
 -1      1931 1.08679E+00
 -1      1932 1.07714E+00
 -1      1933 8.42470E-01
 -1      1934 1.16851E+00
 -1      1935 1.16806E+00
 -1      1936 8.88463E-01
 -1      1937 1.17984E+00
 -1      1938 1.09220E+00
 -1      1939 9.91615E-01
 -1      1940 1.03936E+00
 -1      1941 9.14307E-01
 -1      1942 9.50558E-01
 -1      1943 8.44892E-01
 -1      1944 7.61626E-01
 -1      1945 8.28304E-01
 -1      1946 7.06057E-01
 -1      1947 6.83193E-01
 -1      1948 7.03321E-01
 -1      1949 6.26816E-01
 -1      1950 5.77354E-01
 -1      1951 5.91375E-01
 -1      1952 5.32881E-01
 -1      1953 4.71884E-01
 -1      1954 4.90525E-01
 -1      1955 4.11811E-01
 -1      1956 3.49345E-01
 -1      1957 2.67770E-01
 -1      1958 3.85978E-01
 -1      1959 1.40278E+00
 -1      1960 1.77596E+00
 -1      1961 1.52548E+00
 -1      1962 1.02406E+00
 -1      1963 1.28411E+00
 -1      1964 1.01571E+00
 -1      1965 8.10806E-01
 -1      1966 9.30725E-01
 -1      1967 8.03710E-01
 -1      1968 6.45617E-01
 -1      1969 7.31833E-01
 -1      1970 6.31399E-01
 -1      1971 5.22848E-01
 -1      1972 5.92975E-01
 -1      1973 4.99783E-01
 -1      1974 4.33120E-01
 -1      1975 4.90679E-01
 -1      1976 4.14972E-01
 -1      1977 3.55728E-01
 -1      1978 4.02484E-01
 -1      1979 3.52167E-01
 -1      1980 2.92347E-01
 -1      1981 3.28304E-01
 -1      1982 2.94107E-01
 -1      1983 2.44420E-01
 -1      1984 2.71356E-01
 -1      1985 2.45693E-01
 -1      1986 2.07968E-01
 -1      1987 2.28490E-01
 -1      1988 2.08773E-01
 -1      1989 1.81402E-01
 -1      1990 1.95409E-01
 -1      1991 1.80285E-01
 -1      1992 1.68978E-01
 -1      1993 1.74656E-01
 -1      1994 1.60981E-01
 -1      1995 1.67062E-01
 -1      1996 1.66660E-01
 -1      1997 1.51917E-01
 -1      1998 1.74032E-01
 -1      1999 1.68317E-01
 -1      2000 1.50855E-01
 -1      2001 1.98443E-01
 -1      2002 1.88231E-01
 -1      2003 1.66310E-01
 -1      2004 2.47739E-01
 -1      2005 2.23210E-01
 -1      2006 2.05276E-01
 -1      2007 3.19802E-01
 -1      2008 2.91243E-01
 -1      2009 2.73547E-01
 -1      2010 4.01826E-01
 -1      2011 3.71026E-01
 -1      2012 3.68275E-01
 -1      2013 4.90344E-01
 -1      2014 4.59256E-01
 -1      2015 4.76928E-01
 -1      2016 5.88127E-01
 -1      2017 5.49963E-01
 -1      2018 5.93976E-01
 -1      2019 6.73615E-01
 -1      2020 6.42343E-01
 -1      2021 7.07812E-01
 -1      2022 7.36976E-01
 -1      2023 7.20590E-01
 -1      2024 8.09002E-01
 -1      2025 8.38073E-01
 -1      2026 7.68083E-01
 -1      2027 8.87084E-01
 -1      2028 9.08245E-01
 -1      2029 8.38073E-01
 -1      2030 9.18191E-01
 -1      2031 9.73017E-01
 -1      2032 8.91020E-01
 -1      2033 9.00966E-01
 -1      2034 9.29500E-01
 -1      2035 8.79220E-01
 -1      2036 7.89944E-01
 -1      2037 1.05971E+00
 -1      2038 9.12383E-01
 -1      2039 6.79030E-01
 -1      2040 1.25151E+00
 -1      2041 1.25706E+00
 -1      2042 8.59267E-01
 -1      2043 1.73239E+00
 -1      2044 1.57165E+00
 -1      2045 1.37676E+00
 -1      2046 2.08924E+00
 -1      2047 1.85569E+00
 -1      2048 1.82020E+00
 -1      2049 2.55535E+00
 -1      2050 2.08924E+00
 -1      2051 1.94350E+00
 -1      2052 2.69302E+00
 -1      2053 2.54170E+00
 -1      2054 1.92986E+00
 -1      2055 2.98271E+00
 -1      2056 2.83763E+00
 -1      2057 2.06082E+00
 -1      2058 2.44049E+00
 -1      2059 2.86140E+00
 -1      2060 2.08411E+00
 -1      2061 1.46144E+00
 -1      2062 2.09602E+00
 -1      2063 1.61832E+00
 -1      2064 9.44510E-01
 -1      2065 1.20810E+00
 -1      2066 1.02052E+00
 -1      2067 8.36879E-01
 -1      2068 8.72714E-01
 -1      2069 6.95386E-01
 -1      2070 1.00154E+00
 -1      2071 9.41604E-01
 -1      2072 7.28315E-01
 -1      2073 1.12256E+00
 -1      2074 1.04548E+00
 -1      2075 8.76986E-01
 -1      2076 1.11168E+00
 -1      2077 1.13897E+00
 -1      2078 9.37341E-01
 -1      2079 9.86144E-01
 -1      2080 1.07281E+00
 -1      2081 9.14879E-01
 -1      2082 8.30416E-01
 -1      2083 9.31307E-01
 -1      2084 8.21171E-01
 -1      2085 6.67433E-01
 -1      2086 7.66368E-01
 -1      2087 7.02286E-01
 -1      2088 5.63128E-01
 -1      2089 6.09618E-01
 -1      2090 5.80423E-01
 -1      2091 4.30623E-01
 -1      2092 5.08908E-01
 -1      2093 4.68389E-01
 -1      2094 2.68883E-01
 -1      2095 3.57980E-01
 -1      2096 3.41526E-01
 -1      2097 2.15122E-01
 -1      2098 1.22151E-01
 -1      2099 1.63416E-01
 -1      2100 2.31285E-01
 -1      2101 2.32898E-01
 -1      2102 2.36567E-01
 -1      2103 2.32898E-01
 -1      2104 2.32898E-01
 -1      2105 2.86660E-01
 -1      2106 3.04437E-01
 -1      2107 1.68561E-01
 -1      2108 1.32756E-01
 -1      2109 1.79303E-01
 -1      2110 2.32668E-01
 -1      2111 2.07211E-01
 -1      2112 2.28558E-01
 -1      2113 2.67156E-01
 -1      2114 2.55286E-01
 -1      2115 2.89826E-01
 -1      2116 2.67357E-01
 -1      2117 2.67156E-01
 -1      2118 3.12443E-01
 -1      2119 2.67860E-01
 -1      2120 2.67860E-01
 -1      2121 3.12947E-01
 -1      2122 2.56539E-01
 -1      2123 2.67860E-01
 -1      2124 3.13450E-01
 -1      2125 2.12429E-01
 -1      2126 2.36312E-01
 -1      2127 2.93224E-01
 -1      2128 1.38925E-01
 -1      2129 1.74025E-01
 -1      2130 2.34594E-01
 -1      2131 1.66013E-01
 -1      2132 1.27674E-01
 -1      2133 1.84939E-01
 -1      2134 2.11915E-01
 -1      2135 2.11915E-01
 -1      2136 2.19590E-01
 -1      2137 3.90861E+01
 -1      2138 2.96495E+01
 -1      2139 2.97104E+01
 -1      2140 2.97104E+01
 -1      2141 2.90756E+01
 -1      2142 2.91061E+01
 -1      2143 2.04407E+01
 -1      2144 3.29025E+01
 -1      2145 2.34658E+01
 -1      2146 1.10493E+01
 -1      2147 1.70496E+01
 -1      2148 1.03625E+00
 -1      2149 1.21146E+00
 -1      2150 9.80244E-01
 -1      2151 8.53386E-01
 -1      2152 1.11274E+01
 -1      2153 1.14640E+01
 -1      2154 1.17617E+01
 -1      2155 1.15082E+01
 -1      2156 1.14206E+01
 -1      2157 1.15934E+01
 -1      2158 1.02422E+01
 -1      2159 1.05252E+01
 -1      2160 9.79189E+00
 -1      2161 1.09725E+01
 -1      2162 9.36991E+00
 -1      2163 2.62610E+01
 -1      2164 1.40883E+01
 -1      2165 1.02677E+01
 -1      2166 2.96612E+01
 -1      2167 3.11758E+01
 -1      2168 2.39879E+01
 -1      2169 2.87346E+01
 -1      2170 3.19085E+01
 -1      2171 3.19085E+01
 -1      2172 3.16883E+01
 -1      2173 3.19085E+01
 -1      2174 2.75375E+01
 -1      2175 2.59601E+01
 -1      2176 2.48748E+01
 -1      2177 2.48748E+01
 -1      2178 1.21753E+01
 -1      2179 2.06508E+01
 -1      2180 8.97177E+00
 -1      2181 9.66831E+00
 -1      2182 1.01150E+01
 -1      2183 9.66600E+00
 -1      2184 1.09928E+01
 -1      2185 1.10312E+01
 -1      2186 1.13314E+01
 -1      2187 1.13552E+01
 -1      2188 1.16029E+01
 -1      2189 1.11523E+01
 -1      2190 1.07237E+01
 -1      2191 9.94246E+00
 -1      2192 1.04890E+01
 -1      2193 9.89170E+00
 -1      2194 9.45427E+00
 -1      2195 7.82862E+00
 -1      2196 1.98391E+01
 -1      2197 1.18684E+01
 -1      2198 2.57165E+01
 -1      2199 2.38536E+01
 -1      2200 3.21101E+01
 -1      2201 3.21101E+01
 -1      2202 2.95951E+01
 -1      2203 3.07950E+01
 -1      2204 3.07950E+01
 -1      2205 1.04016E+01
 -1      2206 9.86808E+00
 -1      2207 9.31879E+00
 -1      2208 1.38911E+01
 -1      2209 2.91253E+00
 -1      2210 9.19997E+00
 -1      2211 2.10623E+00
 -1      2212 2.90756E+01
 -1      2213 2.91061E+01
 -1      2214 2.37564E-01
 -1      2215 2.95951E+01
 -1      2216 2.57165E+01
 -1      2217 9.31718E+00
 -1      2218 9.43071E+00
 -1      2219 1.05404E+01
 -1      2220 9.26173E+00
 -1      2221 7.65126E+00
 -1      2222 9.46398E+00
 -1      2223 1.61950E+01
 -1      2224 2.37679E+01
 -1      2225 2.19748E+01
 -1      2226 1.93121E+01
 -1      2227 3.14727E+01
 -1      2228 3.72010E+01
 -1      2229 2.92804E+01
 -1      2230 1.82983E+01
 -1      2231 8.02415E+00
 -1      2232 1.06431E+01
 -1      2233 1.08556E+01
 -1      2234 2.22865E+01
 -1      2235 1.53084E+01
 -1      2236 1.09358E+00
 -1      2237 1.48468E+00
 -1      2238 5.58281E-01
 -1      2239 5.89231E-01
 -1      2240 6.01367E-01
 -1      2241 6.49872E-01
 -1      2242 4.97452E-01
 -1      2243 5.11127E-01
 -1      2244 5.09511E-01
 -1      2245 5.45520E-01
 -1      2246 5.23879E-01
 -1      2247 4.44288E-01
 -1      2248 5.93289E-01
 -1      2249 5.60142E-01
 -1      2250 4.71662E-01
 -1      2251 6.52567E-01
 -1      2252 6.05173E-01
 -1      2253 4.98168E-01
 -1      2254 7.20106E-01
 -1      2255 6.52567E-01
 -1      2256 5.10052E-01
 -1      2257 8.80778E-01
 -1      2258 7.67272E-01
 -1      2259 5.57218E-01
 -1      2260 8.97047E-01
 -1      2261 1.01571E+00
 -1      2262 9.74915E-01
 -1      2263 1.26924E+00
 -1      2264 1.03884E+00
 -1      2265 7.96850E+00
 -1      2266 6.90613E+00
 -1      2267 9.90876E-01
 -1      2268 8.11211E-01
 -1      2269 7.56030E-01
 -1      2270 7.54589E-01
 -1      2271 6.29613E-01
 -1      2272 6.51441E-01
 -1      2273 5.73717E-01
 -1      2274 5.15618E-01
 -1      2275 5.38923E-01
 -1      2276 4.66463E-01
 -1      2277 4.19262E-01
 -1      2278 4.33872E-01
 -1      2279 3.93766E-01
 -1      2280 3.52640E-01
 -1      2281 3.59222E-01
 -1      2282 3.28548E-01
 -1      2283 2.95544E-01
 -1      2284 3.09634E-01
 -1      2285 2.72781E-01
 -1      2286 2.45792E-01
 -1      2287 2.62779E-01
 -1      2288 2.25399E-01
 -1      2289 2.02691E-01
 -1      2290 2.19622E-01
 -1      2291 1.84961E-01
 -1      2292 1.66284E-01
 -1      2293 1.81498E-01
 -1      2294 1.51026E-01
 -1      2295 1.37111E-01
 -1      2296 1.48509E-01
 -1      2297 1.23798E-01
 -1      2298 1.14574E-01
 -1      2299 1.19937E-01
 -1      2300 1.11238E-01
 -1      2301 1.17661E-01
 -1      2302 1.03289E-01
 -1      2303 1.26147E-01
 -1      2304 1.38939E-01
 -1      2305 1.08439E-01
 -1      2306 1.56333E-01
 -1      2307 1.73862E-01
 -1      2308 1.34318E-01
 -1      2309 2.08103E-01
 -1      2310 2.39642E-01
 -1      2311 1.85953E-01
 -1      2312 2.80481E-01
 -1      2313 3.26460E-01
 -1      2314 2.61034E-01
 -1      2315 3.74416E-01
 -1      2316 4.27822E-01
 -1      2317 3.49830E-01
 -1      2318 4.82527E-01
 -1      2319 5.41511E-01
 -1      2320 4.52491E-01
 -1      2321 6.01120E-01
 -1      2322 6.61216E-01
 -1      2323 5.66806E-01
 -1      2324 7.21636E-01
 -1      2325 7.74717E-01
 -1      2326 6.86835E-01
 -1      2327 8.28761E-01
 -1      2328 8.75599E-01
 -1      2329 8.01298E-01
 -1      2330 9.17054E-01
 -1      2331 9.70656E-01
 -1      2332 8.96797E-01
 -1      2333 1.04217E+00
 -1      2334 1.06684E+00
 -1      2335 1.00977E+00
 -1      2336 1.12872E+00
 -1      2337 1.08125E+00
 -1      2338 1.14316E+00
 -1      2339 1.10904E+00
 -1      2340 1.04332E+00
 -1      2341 1.23283E+00
 -1      2342 1.14917E+00
 -1      2343 1.16583E+00
 -1      2344 1.36646E+00
 -1      2345 1.24419E+00
 -1      2346 1.46513E+00
 -1      2347 1.55067E+00
 -1      2348 1.56670E+00
 -1      2349 1.82030E+00
 -1      2350 1.73059E+00
 -1      2351 1.91276E+00
 -1      2352 2.19985E+00
 -1      2353 1.92461E+00
 -1      2354 2.68475E+00
 -1      2355 2.70242E+00
 -1      2356 2.50197E+00
 -1      2357 2.76134E+00
 -1      2358 2.78019E+00
 -1      2359 3.04579E+00
 -1      2360 2.50685E+00
 -1      2361 2.40141E+00
 -1      2362 2.83137E+00
 -1      2363 2.03817E+00
 -1      2364 1.76980E+00
 -1      2365 2.19478E+00
 -1      2366 1.68463E+00
 -1      2367 1.38997E+00
 -1      2368 1.74637E+00
 -1      2369 1.37249E+00
 -1      2370 1.25705E+00
 -1      2371 1.64373E+00
 -1      2372 1.11464E+00
 -1      2373 1.06926E+00
 -1      2374 1.48385E+00
 -1      2375 9.91458E-01
 -1      2376 1.08283E+00
 -1      2377 1.26363E+00
 -1      2378 1.03582E+00
 -1      2379 1.04760E+00
 -1      2380 1.13882E+00
 -1      2381 9.72583E-01
 -1      2382 9.19744E-01
 -1      2383 1.01679E+00
 -1      2384 8.53720E-01
 -1      2385 7.84305E-01
 -1      2386 8.75745E-01
 -1      2387 7.32284E-01
 -1      2388 6.76716E-01
 -1      2389 7.57700E-01
 -1      2390 6.11641E-01
 -1      2391 5.55264E-01
 -1      2392 6.40605E-01
 -1      2393 4.88123E-01
 -1      2394 4.43651E-01
 -1      2395 5.08390E-01
 -1      2396 5.52425E-01
 -1      2397 6.31399E-01
 -1      2398 4.47141E-01
 -1      2399 4.99783E-01
 -1      2400 4.99783E-01
 -1      2401 3.82803E-01
 -1      2402 4.14972E-01
 -1      2403 4.14972E-01
 -1      2404 3.21531E-01
 -1      2405 3.52167E-01
 -1      2406 3.52167E-01
 -1      2407 2.66684E-01
 -1      2408 2.94107E-01
 -1      2409 2.94107E-01
 -1      2410 2.22516E-01
 -1      2411 2.43507E-01
 -1      2412 2.43507E-01
 -1      2413 1.86994E-01
 -1      2414 2.02924E-01
 -1      2415 2.00737E-01
 -1      2416 1.58169E-01
 -1      2417 1.70728E-01
 -1      2418 1.64878E-01
 -1      2419 1.38433E-01
 -1      2420 1.45178E-01
 -1      2421 1.35621E-01
 -1      2422 1.28767E-01
 -1      2423 1.31085E-01
 -1      2424 1.15282E-01
 -1      2425 1.38588E-01
 -1      2426 1.37333E-01
 -1      2427 1.16500E-01
 -1      2428 1.64806E-01
 -1      2429 1.50606E-01
 -1      2430 1.37084E-01
 -1      2431 2.17288E-01
 -1      2432 1.92521E-01
 -1      2433 1.76818E-01
 -1      2434 3.00161E-01
 -1      2435 2.56657E-01
 -1      2436 2.43902E-01
 -1      2437 3.97563E-01
 -1      2438 3.46339E-01
 -1      2439 3.29449E-01
 -1      2440 5.07363E-01
 -1      2441 4.49934E-01
 -1      2442 4.27998E-01
 -1      2443 6.23253E-01
 -1      2444 5.63634E-01
 -1      2445 5.36640E-01
 -1      2446 7.32852E-01
 -1      2447 6.78636E-01
 -1      2448 6.48294E-01
 -1      2449 8.26225E-01
 -1      2450 7.79251E-01
 -1      2451 7.50075E-01
 -1      2452 8.95326E-01
 -1      2453 8.64219E-01
 -1      2454 8.34467E-01
 -1      2455 9.38587E-01
 -1      2456 9.38587E-01
 -1      2457 9.15722E-01
 -1      2458 9.49765E-01
 -1      2459 9.66991E-01
 -1      2460 9.87387E-01
 -1      2461 8.40784E-01
 -1      2462 9.34581E-01
 -1      2463 1.00061E+00
 -1      2464 8.82336E-01
 -1      2465 8.99452E-01
 -1      2466 1.04409E+00
 -1      2467 1.10640E+00
 -1      2468 9.09046E-01
 -1      2469 1.12947E+00
 -1      2470 1.58224E+00
 -1      2471 1.26210E+00
 -1      2472 1.31188E+00
 -1      2473 1.86103E+00
 -1      2474 1.73773E+00
 -1      2475 1.62307E+00
 -1      2476 2.14445E+00
 -1      2477 2.14445E+00
 -1      2478 2.06198E+00
 -1      2479 2.13556E+00
 -1      2480 2.14921E+00
 -1      2481 2.35016E+00
 -1      2482 2.32820E+00
 -1      2483 2.18360E+00
 -1      2484 2.40295E+00
 -1      2485 1.89700E+00
 -1      2486 2.01831E+00
 -1      2487 2.14110E+00
 -1      2488 1.41329E+00
 -1      2489 1.75776E+00
 -1      2490 1.69197E+00
 -1      2491 9.52944E-01
 -1      2492 1.20628E+00
 -1      2493 1.34572E+00
 -1      2494 8.72256E-01
 -1      2495 9.44053E-01
 -1      2496 1.12981E+00
 -1      2497 8.72764E-01
 -1      2498 7.68038E-01
 -1      2499 1.01671E+00
 -1      2500 9.32252E-01
 -1      2501 8.88306E-01
 -1      2502 9.28029E-01
 -1      2503 9.15922E-01
 -1      2504 8.99514E-01
 -1      2505 9.10834E-01
 -1      2506 8.27804E-01
 -1      2507 8.66675E-01
 -1      2508 8.28848E-01
 -1      2509 7.28601E-01
 -1      2510 7.83438E-01
 -1      2511 7.35234E-01
 -1      2512 6.08781E-01
 -1      2513 6.72829E-01
 -1      2514 6.35095E-01
 -1      2515 4.93684E-01
 -1      2516 5.51499E-01
 -1      2517 5.22041E-01
 -1      2518 3.84260E-01
 -1      2519 4.38480E-01
 -1      2520 4.09555E-01
 -1      2521 3.59302E-01
 -1      2522 2.97445E-01
 -1      2523 2.58795E-01
 -1      2524 3.59078E-01
 -1      2525 3.36460E-01
 -1      2526 3.66697E-01
 -1      2527 2.67782E-01
 -1      2528 3.35652E-01
 -1      2529 2.87329E-01
 -1      2530 2.76724E-01
 -1      2531 3.75809E-01
 -1      2532 3.56216E-01
 -1      2533 3.67812E-01
 -1      2534 3.67812E-01
 -1      2535 4.14447E-01
 -1      2536 3.68316E-01
 -1      2537 3.67812E-01
 -1      2538 4.23181E-01
 -1      2539 3.67736E-01
 -1      2540 3.67736E-01
 -1      2541 4.22601E-01
 -1      2542 3.41881E-01
 -1      2543 3.62107E-01
 -1      2544 4.16392E-01
 -1      2545 2.67335E-01
 -1      2546 3.05739E-01
 -1      2547 3.74622E-01
 -1      2548 2.37577E-01
 -1      2549 2.48828E-01
 -1      2550 3.19973E-01
 -1      2551 2.83478E-01
 -1      2552 2.37577E-01
 -1      2553 3.01466E-01
 -1      2554 2.85018E+01
 -1      2555 2.91061E+01
 -1      2556 2.53022E+01
 -1      2557 2.47283E+01
 -1      2558 2.95951E+01
 -1      2559 2.94798E+01
 -1      2560 7.10373E-01
 -1      2561 8.03710E-01
 -1      2562 6.31399E-01
 -1      2563 2.95698E-01
 -1      2564 1.57144E+01
 -1      2565 2.18980E+01
 -1      2566 9.62193E+00
 -1      2567 1.30130E+01
 -1      2568 2.31930E+01
 -1      2569 1.67994E+01
 -1      2570 7.15556E+00
 -1      2571 8.33675E+00
 -1      2572 9.24547E+00
 -1      2573 8.88310E+00
 -1      2574 9.24294E+00
 -1      2575 8.86217E+00
 -1      2576 5.22199E-01
 -1      2577 5.44078E-01
 -1      2578 4.71114E-01
 -1      2579 4.44224E-01
 -1      2580 9.12629E+00
 -1      2581 9.29454E+00
 -1      2582 1.93556E+01
 -1      2583 2.02823E+01
 -1      2584 7.35254E+00
 -1      2585 8.24802E+00
 -1      2586 5.58911E+00
 -1      2587 6.46136E+00
 -1      2588 1.03084E+01
 -1      2589 7.19263E+00
 -1      2590 1.41921E+01
 -1      2591 1.01776E+01
 -1      2592 1.16686E+01
 -1      2593 1.80511E+01
 -1      2594 1.31362E+01
 -1      2595 1.00612E+01
 -1      2596 2.93639E+01
 -1      2597 2.14433E+01
 -1      2598 3.72010E+01
 -1      2599 3.72010E+01
 -1      2600 2.57444E+01
 -1      2601 3.14727E+01
 -1      2602 1.06338E+01
 -1      2603 1.48578E+01
 -1      2604 6.25905E+00
 -1      2605 8.76600E+00
 -1      2606 7.42886E+00
 -1      2607 6.15197E+00
 -1      2608 5.45774E+00
 -1      2609 8.14903E+00
 -1      2610 7.23278E+00
 -1      2611 9.04466E+00
 -1      2612 9.22372E+00
 -1      2613 7.28418E+00
 -1      2614 8.39808E+00
 -1      2615 5.70078E+00
 -1      2616 6.18897E+00
 -1      2617 8.57750E+00
 -1      2618 6.60075E+00
 -1      2619 4.96110E+00
 -1      2620 2.40843E+01
 -1      2621 2.53995E+01
 -1      2622 1.67696E+00
 -1      2623 1.30521E+00
 -1      2624 8.39965E-01
 -1      2625 9.59903E-01
 -1      2626 1.62304E+00
 -1      2627 1.76613E+00
 -1      2628 1.32792E+00
 -1      2629 1.19114E+00
 -1      2630 7.51361E+00
 -1      2631 6.12717E-01
 -1      2632 7.53003E-01
 -1      2633 8.16231E-01
 -1      2634 8.03710E-01
 -1      2635 1.24333E+00
 -1      2636 6.89814E+00
 -1      2637 6.85414E+00
 -1      2638 5.92409E+00
 -1      2639 4.75976E+00
 -1      2640 1.75507E+01
 -1      2641 2.01590E+01
 -1      2642 2.01590E+01
 -1      2643 1.63894E+01
 -1      2644 3.29394E-01
 -1      2645 3.29394E-01
 -1      2646 3.14727E+01
 -1      2647 2.89908E+01
 -1      2648 2.47283E+01
 -1      2649 2.40843E+01
 -1      2650 9.66940E-01
 -1      2651 7.45870E+00
 -1      2652 1.94391E+01
 -1      2653 1.14452E+01
 -1      2654 8.96273E-01
 -1      2655 7.46116E+00
 -1      2656 1.64824E+01
 -1      2657 5.62983E+00
 -1      2658 4.91750E+00
 -1      2659 6.56834E+00
 -1      2660 7.56647E+00
 -1      2661 1.51459E+01
 -1      2662 1.40389E+01
 -1      2663 9.58471E+00
 -1      2664 1.51202E+01
 -1      2665 6.68695E+00
 -1      2666 2.93639E+01
 -1      2667 5.03926E+00
 -1      2668 5.15634E+00
 -1      2669 3.02898E-01
 -1      2670 2.72692E-01
 -1      2671 2.90679E-01
 -1      2672 3.62972E-01
 -1      2673 3.60609E-01
 -1      2674 3.60571E-01
 -1      2675 4.22248E-01
 -1      2676 4.07626E-01
 -1      2677 4.00099E-01
 -1      2678 3.87347E-01
 -1      2679 3.50686E-01
 -1      2680 4.35685E-01
 -1      2681 4.35685E-01
 -1      2682 4.70635E-01
 -1      2683 4.23470E-01
 -1      2684 3.49103E-01
 -1      2685 7.20753E-01
 -1      2686 7.98622E-01
 -1      2687 5.93878E+00
 -1      2688 7.22396E+00
 -1      2689 6.15267E-01
 -1      2690 7.08604E-01
 -1      2691 5.32311E-01
 -1      2692 8.28583E-01
 -1      2693 1.30203E+01
 -1      2694 1.64244E+01
 -1      2695 5.55034E-01
 -1      2696 4.98413E-01
 -1      2697 4.91690E-01
 -1      2698 4.35794E-01
 -1      2699 3.95283E-01
 -1      2700 4.15368E-01
 -1      2701 3.66214E-01
 -1      2702 3.68135E-01
 -1      2703 3.41159E-01
 -1      2704 3.15663E-01
 -1      2705 3.22655E-01
 -1      2706 2.90210E-01
 -1      2707 2.66118E-01
 -1      2708 2.72147E-01
 -1      2709 2.49498E-01
 -1      2710 2.26735E-01
 -1      2711 2.30074E-01
 -1      2712 2.11079E-01
 -1      2713 1.90686E-01
 -1      2714 1.97799E-01
 -1      2715 1.75141E-01
 -1      2716 1.57411E-01
 -1      2717 1.66598E-01
 -1      2718 1.42402E-01
 -1      2719 1.27144E-01
 -1      2720 1.36046E-01
 -1      2721 1.12597E-01
 -1      2722 9.92838E-02
 -1      2723 1.06490E-01
 -1      2724 8.47494E-02
 -1      2725 8.14138E-02
 -1      2726 7.74090E-02
 -1      2727 8.60710E-02
 -1      2728 9.45568E-02
 -1      2729 6.75318E-02
 -1      2730 1.13922E-01
 -1      2731 1.31316E-01
 -1      2732 9.15543E-02
 -1      2733 1.60308E-01
 -1      2734 1.94549E-01
 -1      2735 1.39912E-01
 -1      2736 2.29182E-01
 -1      2737 2.70022E-01
 -1      2738 2.03537E-01
 -1      2739 3.11430E-01
 -1      2740 3.59386E-01
 -1      2741 2.79579E-01
 -1      2742 4.08584E-01
 -1      2743 4.63290E-01
 -1      2744 3.70185E-01
 -1      2745 5.20999E-01
 -1      2746 5.80608E-01
 -1      2747 4.77092E-01
 -1      2748 6.46972E-01
 -1      2749 7.07392E-01
 -1      2750 6.01165E-01
 -1      2751 7.81432E-01
 -1      2752 8.35475E-01
 -1      2753 7.41569E-01
 -1      2754 9.14025E-01
 -1      2755 9.55480E-01
 -1      2756 8.94158E-01
 -1      2757 1.03103E+00
 -1      2758 1.10255E+00
 -1      2759 1.04826E+00
 -1      2760 1.22049E+00
 -1      2761 1.28238E+00
 -1      2762 1.24176E+00
 -1      2763 1.43910E+00
 -1      2764 1.46688E+00
 -1      2765 1.51643E+00
 -1      2766 1.62225E+00
 -1      2767 1.72810E+00
 -1      2768 1.82853E+00
 -1      2769 1.90086E+00
 -1      2770 1.97922E+00
 -1      2771 2.15665E+00
 -1      2772 1.78175E+00
 -1      2773 1.88331E+00
 -1      2774 2.13194E+00
 -1      2775 2.27574E+00
 -1      2776 2.36820E+00
 -1      2777 2.32690E+00
 -1      2778 2.59898E+00
 -1      2779 3.08388E+00
 -1      2780 2.95011E+00
 -1      2781 3.59718E+00
 -1      2782 3.65610E+00
 -1      2783 3.69419E+00
 -1      2784 3.44379E+00
 -1      2785 3.17046E+00
 -1      2786 3.99519E+00
 -1      2787 2.55803E+00
 -1      2788 2.19478E+00
 -1      2789 3.17046E+00
 -1      2790 2.22164E+00
 -1      2791 2.13647E+00
 -1      2792 2.58488E+00
 -1      2793 2.14028E+00
 -1      2794 2.12281E+00
 -1      2795 2.61554E+00
 -1      2796 1.84435E+00
 -1      2797 1.70193E+00
 -1      2798 2.34089E+00
 -1      2799 1.51894E+00
 -1      2800 1.44113E+00
 -1      2801 1.87944E+00
 -1      2802 1.28820E+00
 -1      2803 1.24119E+00
 -1      2804 1.54351E+00
 -1      2805 1.09208E+00
 -1      2806 1.01707E+00
 -1      2807 1.24147E+00
 -1      2808 9.41769E-01
 -1      2809 8.75745E-01
 -1      2810 1.01707E+00
 -1      2811 7.91953E-01
 -1      2812 7.39933E-01
 -1      2813 8.57978E-01
 -1      2814 6.56921E-01
 -1      2815 5.91847E-01
 -1      2816 6.91174E-01
 -1      2817 5.15893E-01
 -1      2818 4.48752E-01
 -1      2819 5.32209E-01
 -1      2820 3.57956E-01
 -1      2821 3.90125E-01
 -1      2822 4.84108E-01
 -1      2823 4.77850E-01
 -1      2824 5.33054E-01
 -1      2825 4.24515E-01
 -1      2826 4.77157E-01
 -1      2827 3.67499E-01
 -1      2828 2.55159E-01
 -1      2829 2.82583E-01
 -1      2830 2.13607E-01
 -1      2831 2.36784E-01
 -1      2832 2.25260E-01
 -1      2833 1.76623E-01
 -1      2834 1.96216E-01
 -1      2835 1.89493E-01
 -1      2836 1.44352E-01
 -1      2837 1.60619E-01
 -1      2838 1.56097E-01
 -1      2839 1.16642E-01
 -1      2840 1.29633E-01
 -1      2841 1.25374E-01
 -1      2842 9.53955E-02
 -1      2843 1.02743E-01
 -1      2844 9.67559E-02
 -1      2845 1.05508E-01
 -1      2846 9.69423E-02
 -1      2847 8.44037E-02
 -1      2848 1.27279E-01
 -1      2849 1.15260E-01
 -1      2850 9.57025E-02
 -1      2851 1.83910E-01
 -1      2852 1.56195E-01
 -1      2853 1.34370E-01
 -1      2854 2.57648E-01
 -1      2855 2.18279E-01
 -1      2856 1.97656E-01
 -1      2857 3.44556E-01
 -1      2858 2.98377E-01
 -1      2859 2.72755E-01
 -1      2860 4.44544E-01
 -1      2861 3.92173E-01
 -1      2862 3.61101E-01
 -1      2863 5.55152E-01
 -1      2864 4.98882E-01
 -1      2865 4.63056E-01
 -1      2866 6.70265E-01
 -1      2867 6.14882E-01
 -1      2868 5.77124E-01
 -1      2869 7.78639E-01
 -1      2870 7.32241E-01
 -1      2871 6.98829E-01
 -1      2872 8.74986E-01
 -1      2873 8.36992E-01
 -1      2874 8.19158E-01
 -1      2875 9.72845E-01
 -1      2876 9.29583E-01
 -1      2877 9.32108E-01
 -1      2878 1.09514E+00
 -1      2879 1.06674E+00
 -1      2880 1.08060E+00
 -1      2881 1.17303E+00
 -1      2882 1.18821E+00
 -1      2883 1.26756E+00
 -1      2884 1.29350E+00
 -1      2885 1.23483E+00
 -1      2886 1.42243E+00
 -1      2887 1.51257E+00
 -1      2888 1.48586E+00
 -1      2889 1.67660E+00
 -1      2890 1.68995E+00
 -1      2891 1.53424E+00
 -1      2892 1.89064E+00
 -1      2893 2.18068E+00
 -1      2894 2.02519E+00
 -1      2895 2.24756E+00
 -1      2896 2.90254E+00
 -1      2897 2.61912E+00
 -1      2898 3.02124E+00
 -1      2899 3.26362E+00
 -1      2900 3.25887E+00
 -1      2901 3.81600E+00
 -1      2902 3.64391E+00
 -1      2903 3.59588E+00
 -1      2904 4.50459E+00
 -1      2905 2.59165E+00
 -1      2906 2.90154E+00
 -1      2907 4.09447E+00
 -1      2908 2.17797E+00
 -1      2909 2.31720E+00
 -1      2910 3.07765E+00
 -1      2911 1.76585E+00
 -1      2912 1.97286E+00
 -1      2913 2.59809E+00
 -1      2914 1.48788E+00
 -1      2915 1.49677E+00
 -1      2916 2.12391E+00
 -1      2917 1.16504E+00
 -1      2918 1.26926E+00
 -1      2919 1.63621E+00
 -1      2920 1.12263E+00
 -1      2921 1.10709E+00
 -1      2922 1.35964E+00
 -1      2923 9.94751E-01
 -1      2924 1.02749E+00
 -1      2925 1.20654E+00
 -1      2926 8.40645E-01
 -1      2927 8.89893E-01
 -1      2928 1.00655E+00
 -1      2929 7.35472E-01
 -1      2930 7.79838E-01
 -1      2931 8.40883E-01
 -1      2932 6.22119E-01
 -1      2933 6.77891E-01
 -1      2934 7.22495E-01
 -1      2935 5.11887E-01
 -1      2936 5.69169E-01
 -1      2937 6.11965E-01
 -1      2938 5.80182E-01
 -1      2939 4.87453E-01
 -1      2940 4.87453E-01
 -1      2941 3.71357E-01
 -1      2942 2.90679E-01
 -1      2943 3.78860E-01
 -1      2944 4.49519E-01
 -1      2945 4.10504E-01
 -1      2946 4.88362E-01
 -1      2947 4.88942E-01
 -1      2948 5.53214E-01
 -1      2949 4.87453E-01
 -1      2950 4.78719E-01
 -1      2951 5.22525E-01
 -1      2952 5.51725E-01
 -1      2953 4.82734E-01
 -1      2954 4.88362E-01
 -1      2955 5.54704E-01
 -1      2956 4.20545E-01
 -1      2957 4.56687E-01
 -1      2958 5.28657E-01
 -1      2959 3.41451E-01
 -1      2960 3.59958E-01
 -1      2961 4.42023E-01
 -1      2962 2.19020E+01
 -1      2963 1.65065E+01
 -1      2964 1.11675E+01
 -1      2965 8.56015E+00
 -1      2966 7.95890E-01
 -1      2967 1.05799E+01
 -1      2968 7.75201E+00
 -1      2969 1.77782E+01
 -1      2970 1.56905E+01
 -1      2971 4.51338E+00
 -1      2972 4.76281E+00
 -1      2973 3.59160E+00
 -1      2974 4.39291E+00
 -1      2975 6.13199E+00
 -1      2976 4.52846E+00
 -1      2977 5.10860E-01
 -1      2978 5.89834E-01
 -1      2979 4.94728E-01
 -1      2980 4.35592E-01
 -1      2981 1.82341E+01
 -1      2982 2.20075E+01
 -1      2983 3.00794E-01
 -1      2984 3.31429E-01
 -1      2985 3.06583E-01
 -1      2986 2.61846E-01
 -1      2987 6.05910E-01
 -1      2988 5.57942E-01
 -1      2989 4.04914E-01
 -1      2990 6.58839E+00
 -1      2991 6.61014E+00
 -1      2992 9.00208E+00
 -1      2993 1.17034E+01
 -1      2994 5.62585E+00
 -1      2995 6.27243E+00
 -1      2996 7.45490E+00
 -1      2997 5.85479E+00
 -1      2998 4.35685E-01
 -1      2999 4.23801E-01
 -1      3000 3.59765E-01
 -1      3001 3.61318E-01
 -1      3002 4.23342E-01
 -1      3003 4.35477E-01
 -1      3004 6.14943E+00
 -1      3005 5.25576E+00
 -1      3006 3.74299E+00
 -1      3007 4.63418E+00
 -1      3008 4.24515E+00
 -1      3009 1.48311E+01
 -1      3010 1.26246E+01
 -1      3011 9.51617E+00
 -1      3012 2.66768E+01
 -1      3013 1.88397E+01
 -1      3014 5.27762E+00
 -1      3015 6.15588E+00
 -1      3016 4.65048E+00
 -1      3017 3.56967E+00
 -1      3018 2.08005E+01
 -1      3019 2.12895E+01
 -1      3020 1.38290E+01
 -1      3021 1.15978E+01
 -1      3022 2.11345E+01
 -1      3023 2.68628E+01
 -1      3024 5.23858E+00
 -1      3025 7.10637E+00
 -1      3026 4.07042E+00
 -1      3027 3.71171E+00
 -1      3028 4.80692E+00
 -1      3029 6.15874E+00
 -1      3030 5.42467E+00
 -1      3031 4.59672E+00
 -1      3032 3.69676E+00
 -1      3033 4.59046E+00
 -1      3034 6.69235E+00
 -1      3035 6.64074E+00
 -1      3036 5.32816E+00
 -1      3037 3.01466E-01
 -1      3038 4.61655E-01
 -1      3039 5.64786E-01
 -1      3040 3.87545E-01
 -1      3041 3.42960E-01
 -1      3042 3.87149E-01
 -1      3043 3.99837E-01
 -1      3044 5.74422E-01
 -1      3045 7.48217E+00
 -1      3046 5.18067E+00
 -1      3047 1.05771E+01
 -1      3048 1.37625E+01
 -1      3049 1.19468E+01
 -1      3050 9.59631E+00
 -1      3051 5.47337E-01
 -1      3052 4.64515E-01
 -1      3053 4.93050E-01
 -1      3054 1.43062E+01
 -1      3055 4.93050E-01
 -1      3056 1.50912E+01
 -1      3057 1.20952E+01
 -1      3058 1.76805E+01
 -1      3059 1.30706E+01
 -1      3060 1.17587E+01
 -1      3061 1.39411E+01
 -1      3062 1.00833E+01
 -1      3063 1.37116E+01
 -1      3064 3.01466E-01
 -1      3065 1.21681E+01
 -1      3066 4.40674E-01
 -1      3067 6.95379E+00
 -1      3068 5.79985E-01
 -1      3069 6.60027E-01
 -1      3070 6.24060E-01
 -1      3071 4.28922E-01
 -1      3072 3.95508E+00
 -1      3073 4.10311E+00
 -1      3074 4.25972E-01
 -1      3075 9.28862E+00
 -1      3076 4.18121E+00
 -1      3077 6.65064E+00
 -1      3078 3.49585E+00
 -1      3079 4.90656E+00
 -1      3080 4.67182E+00
 -1      3081 3.20282E+00
 -1      3082 4.09447E+00
 -1      3083 7.46285E+00
 -1      3084 7.75091E+00
 -1      3085 5.27257E+00
 -1      3086 5.31610E+00
 -1      3087 4.07311E-01
 -1      3088 4.21513E-01
 -1      3089 3.59538E-01
 -1      3090 3.50236E-01
 -1      3091 1.63387E+01
 -1      3092 5.28302E+00
 -1      3093 3.13357E-01
 -1      3094 3.13357E-01
 -1      3095 3.53342E-01
 -1      3096 3.90751E-01
 -1      3097 3.34734E+00
 -1      3098 1.37036E+01
 -1      3099 5.73442E+00
 -1      3100 7.51254E+00
 -1      3101 2.88392E-01
 -1      3102 3.00608E-01
 -1      3103 1.30598E+01
 -1      3104 1.28738E+01
 -1      3105 3.01910E-01
 -1      3106 2.99002E-01
 -1      3107 3.23390E-01
 -1      3108 3.02964E-01
 -1      3109 2.99350E-01
 -1      3110 2.74295E-01
 -1      3111 2.54604E-01
 -1      3112 2.62771E-01
 -1      3113 2.37318E-01
 -1      3114 2.39465E-01
 -1      3115 2.22052E-01
 -1      3116 2.05433E-01
 -1      3117 2.12676E-01
 -1      3118 1.91582E-01
 -1      3119 1.75926E-01
 -1      3120 1.83561E-01
 -1      3121 1.63459E-01
 -1      3122 1.47915E-01
 -1      3123 1.57243E-01
 -1      3124 1.33977E-01
 -1      3125 1.18969E-01
 -1      3126 1.30838E-01
 -1      3127 1.04191E-01
 -1      3128 8.96436E-02
 -1      3129 1.02122E-01
 -1      3130 7.41282E-02
 -1      3131 5.95939E-02
 -1      3132 7.18284E-02
 -1      3133 5.83139E-02
 -1      3134 6.29711E-02
 -1      3135 5.50332E-02
 -1      3136 7.55988E-02
 -1      3137 9.49641E-02
 -1      3138 6.63809E-02
 -1      3139 1.19659E-01
 -1      3140 1.48651E-01
 -1      3141 1.03703E-01
 -1      3142 1.80009E-01
 -1      3143 2.14642E-01
 -1      3144 1.59755E-01
 -1      3145 2.52322E-01
 -1      3146 2.93730E-01
 -1      3147 2.28793E-01
 -1      3148 3.38496E-01
 -1      3149 3.87694E-01
 -1      3150 3.11239E-01
 -1      3151 4.39696E-01
 -1      3152 4.97405E-01
 -1      3153 4.08007E-01
 -1      3154 5.55570E-01
 -1      3155 6.21933E-01
 -1      3156 5.18174E-01
 -1      3157 6.94310E-01
 -1      3158 7.68351E-01
 -1      3159 6.48715E-01
 -1      3160 8.67954E-01
 -1      3161 9.46504E-01
 -1      3162 8.20696E-01
 -1      3163 1.07690E+00
 -1      3164 1.15245E+00
 -1      3165 1.05070E+00
 -1      3166 1.31721E+00
 -1      3167 1.43515E+00
 -1      3168 1.34585E+00
 -1      3169 1.61504E+00
 -1      3170 1.77176E+00
 -1      3171 1.69049E+00
 -1      3172 2.03500E+00
 -1      3173 2.19037E+00
 -1      3174 2.13361E+00
 -1      3175 2.61253E+00
 -1      3176 2.78529E+00
 -1      3177 2.81901E+00
 -1      3178 2.93837E+00
 -1      3179 2.74090E+00
 -1      3180 3.39425E+00
 -1      3181 2.95011E+00
 -1      3182 3.18089E+00
 -1      3183 4.91977E+00
 -1      3184 4.70747E+00
 -1      3185 3.57258E+00
 -1      3186 2.96016E+00
 -1      3187 2.98701E+00
 -1      3188 3.06233E+00
 -1      3189 3.06614E+00
 -1      3190 3.05183E+00
 -1      3191 2.77337E+00
 -1      3192 3.49862E+00
 -1      3193 2.44248E+00
 -1      3194 2.25948E+00
 -1      3195 3.15341E+00
 -1      3196 1.90683E+00
 -1      3197 1.75390E+00
 -1      3198 2.46987E+00
 -1      3199 1.51512E+00
 -1      3200 1.36601E+00
 -1      3201 1.87844E+00
 -1      3202 1.19384E+00
 -1      3203 1.11854E+00
 -1      3204 1.46749E+00
 -1      3205 9.63456E-01
 -1      3206 8.79664E-01
 -1      3207 1.14023E+00
 -1      3208 7.53550E-01
 -1      3209 6.70538E-01
 -1      3210 8.59028E-01
 -1      3211 5.41313E-01
 -1      3212 4.65359E-01
 -1      3213 3.99856E-01
 -1      3214 6.03689E-01
 -1      3215 8.91889E+00
 -1      3216 7.90094E+00
 -1      3217 6.26337E-01
 -1      3218 6.26337E-01
 -1      3219 3.11534E-01
 -1      3220 3.45924E-01
 -1      3221 4.68073E+00
 -1      3222 3.42266E+00
 -1      3223 1.65312E-01
 -1      3224 1.82704E-01
 -1      3225 1.97323E-01
 -1      3226 2.15697E-01
 -1      3227 1.73142E-01
 -1      3228 1.03411E-01
 -1      3229 1.18131E-01
 -1      3230 7.50103E-02
 -1      3231 8.89093E-02
 -1      3232 8.16658E-02
 -1      3233 6.56639E-02
 -1      3234 6.41171E-02
 -1      3235 5.62705E-02
 -1      3236 8.61124E-02
 -1      3237 7.63604E-02
 -1      3238 5.60737E-02
 -1      3239 1.38766E-01
 -1      3240 1.09850E-01
 -1      3241 9.05078E-02
 -1      3242 2.01285E-01
 -1      3243 1.66915E-01
 -1      3244 1.42395E-01
 -1      3245 2.75773E-01
 -1      3246 2.35043E-01
 -1      3247 2.04302E-01
 -1      3248 3.64105E-01
 -1      3249 3.16487E-01
 -1      3250 2.78776E-01
 -1      3251 4.69214E-01
 -1      3252 4.14877E-01
 -1      3253 3.70263E-01
 -1      3254 5.90233E-01
 -1      3255 5.30504E-01
 -1      3256 4.82324E-01
 -1      3257 7.24144E-01
 -1      3258 6.62168E-01
 -1      3259 6.15548E-01
 -1      3260 8.63863E-01
 -1      3261 8.05509E-01
 -1      3262 7.68849E-01
 -1      3263 1.01603E+00
 -1      3264 9.61433E-01
 -1      3265 9.47784E-01
 -1      3266 1.21448E+00
 -1      3267 1.12058E+00
 -1      3268 1.14991E+00
 -1      3269 1.44576E+00
 -1      3270 1.35269E+00
 -1      3271 1.39268E+00
 -1      3272 1.72141E+00
 -1      3273 1.65960E+00
 -1      3274 1.74473E+00
 -1      3275 2.12000E+00
 -1      3276 1.92764E+00
 -1      3277 2.16481E+00
 -1      3278 2.61880E+00
 -1      3279 2.59713E+00
 -1      3280 2.84817E+00
 -1      3281 3.45967E+00
 -1      3282 3.02124E+00
 -1      3283 4.45944E+00
 -1      3284 4.10311E+00
 -1      3285 5.32816E+00
 -1      3286 4.99590E+00
 -1      3287 4.09447E+00
 -1      3288 4.83685E+00
 -1      3289 3.07765E+00
 -1      3290 3.35210E+00
 -1      3291 3.01630E+00
 -1      3292 3.22140E+00
 -1      3293 2.14377E+00
 -1      3294 2.36239E+00
 -1      3295 1.72021E+00
 -1      3296 1.77816E+00
 -1      3297 2.50434E+00
 -1      3298 1.33656E+00
 -1      3299 1.43170E+00
 -1      3300 1.85022E+00
 -1      3301 1.04573E+00
 -1      3302 1.15059E+00
 -1      3303 1.37575E+00
 -1      3304 8.73385E-01
 -1      3305 9.34192E-01
 -1      3306 1.07824E+00
 -1      3307 7.29016E-01
 -1      3308 7.86596E-01
 -1      3309 8.79906E-01
 -1      3310 2.97206E+00
 -1      3311 8.60887E+00
 -1      3312 9.92570E+00
 -1      3313 6.86113E+00
 -1      3314 3.23186E-01
 -1      3315 3.15660E-01
 -1      3316 3.95508E+00
 -1      3317 4.56645E-01
 -1      3318 5.17232E-01
 -1      3319 6.28814E-01
 -1      3320 6.27324E-01
 -1      3321 7.00447E-01
 -1      3322 2.98649E+00
 -1      3323 3.83216E+00
 -1      3324 6.01348E-01
 -1      3325 4.13511E-01
 -1      3326 3.09725E-01
 -1      3327 2.61229E-01
 -1      3328 4.01362E-01
 -1      3329 6.79946E+00
 -1      3330 5.17944E+00
 -1      3331 6.83345E+00
 -1      3332 5.72819E+00
 -1      3333 8.73723E+00
 -1      3334 7.28011E+00
 -1      3335 5.97612E-01
 -1      3336 6.23659E-01
 -1      3337 6.95292E-01
 -1      3338 6.12234E-01
 -1      3339 1.20494E+01
 -1      3340 1.08424E+01
 -1      3341 4.46838E+00
 -1      3342 1.08974E+01
 -1      3343 9.03589E+00
 -1      3344 1.33718E-01
 -1      3345 1.49722E-01
 -1      3346 1.42933E-01
 -1      3347 1.11755E-01
 -1      3348 1.28738E+01
 -1      3349 1.18123E+01
 -1      3350 8.68005E+00
 -1      3351 3.22781E-01
 -1      3352 3.04631E-01
 -1      3353 3.07582E-01
 -1      3354 1.08424E+01
 -1      3355 1.14548E+01
 -1      3356 3.19583E-01
 -1      3357 3.12861E-01
 -1      3358 2.47690E-01
 -1      3359 1.06583E+01
 -1      3360 1.24679E+01
 -1      3361 2.97204E+00
 -1      3362 3.19320E+00
 -1      3363 2.75477E+00
 -1      3364 2.41952E+00
 -1      3365 3.97868E+00
 -1      3366 2.73378E+00
 -1      3367 3.12662E-01
 -1      3368 3.12463E-01
 -1      3369 2.85162E-01
 -1      3370 2.60637E-01
 -1      3371 3.21348E-01
 -1      3372 3.21348E-01
 -1      3373 9.59488E+00
 -1      3374 4.12749E+00
 -1      3375 7.93401E+00
 -1      3376 7.65755E+00
 -1      3377 5.81215E+00
 -1      3378 2.16579E-01
 -1      3379 3.14778E+00
 -1      3380 2.34135E+00
 -1      3381 5.46046E-01
 -1      3382 6.00057E-01
 -1      3383 8.58558E+00
 -1      3384 3.12602E+00
 -1      3385 4.39151E+00
 -1      3386 5.88481E-01
 -1      3387 6.41201E-01
 -1      3388 6.17681E-01
 -1      3389 8.69006E+00
 -1      3390 6.42973E+00
 -1      3391 9.00412E+00
 -1      3392 3.77014E+00
 -1      3393 4.85407E+00
 -1      3394 5.21055E+00
 -1      3395 4.16969E+00
 -1      3396 2.99560E-01
 -1      3397 3.55525E-01
 -1      3398 3.89228E-01
 -1      3399 2.02781E-01
 -1      3400 2.30718E-01
 -1      3401 2.48929E-01
 -1      3402 7.64821E+00
 -1      3403 3.03822E+00
 -1      3404 2.53066E+00
 -1      3405 2.79974E+00
 -1      3406 6.64931E-01
 -1      3407 7.29031E-01
 -1      3408 6.11980E-01
 -1      3409 3.23186E-01
 -1      3410 2.88161E-01
 -1      3411 3.24739E-01
 -1      3412 6.27324E-01
 -1      3413 6.27324E-01
 -1      3414 6.93280E-01
 -1      3415 7.02924E-01
 -1      3416 1.09612E+01
 -1      3417 8.48268E+00
 -1      3418 8.33428E+00
 -1      3419 1.01722E+01
 -1      3420 7.60681E+00
 -1      3421 7.30295E+00
 -1      3422 7.74204E+00
 -1      3423 8.63203E+00
 -1      3424 6.39597E+00
 -1      3425 1.17894E+01
 -1      3426 8.32448E+00
 -1      3427 8.33537E+00
 -1      3428 3.42304E+00
 -1      3429 6.05451E+00
 -1      3430 4.56039E+00
 -1      3431 6.01348E-01
 -1      3432 6.01348E-01
 -1      3433 5.80182E-01
 -1      3434 6.00057E-01
 -1      3435 2.94745E-01
 -1      3436 2.73170E-01
 -1      3437 2.68218E-01
 -1      3438 4.45527E+00
 -1      3439 3.71340E-01
 -1      3440 3.96774E-01
 -1      3441 2.77974E-01
 -1      3442 2.91273E-01
 -1      3443 4.48564E+00
 -1      3444 3.22771E-01
 -1      3445 3.24600E-01
 -1      3446 1.98720E-01
 -1      3447 3.99856E-01
 -1      3448 4.27950E-01
 -1      3449 5.03159E-01
 -1      3450 4.74464E-01
 -1      3451 3.00250E-01
 -1      3452 3.26428E-01
 -1      3453 2.20287E-01
 -1      3454 2.63483E-01
 -1      3455 4.55685E+00
 -1      3456 5.83601E+00
 -1      3457 6.93234E+00
 -1      3458 4.38858E+00
 -1      3459 7.79294E+00
 -1      3460 7.79294E+00
 -1      3461 2.17131E-01
 -1      3462 2.05607E-01
 -1      3463 2.01116E-01
 -1      3464 1.85851E-01
 -1      3465 1.78781E-01
 -1      3466 1.76659E-01
 -1      3467 1.62809E-01
 -1      3468 1.65099E-01
 -1      3469 1.52051E-01
 -1      3470 1.39584E-01
 -1      3471 1.45150E-01
 -1      3472 1.30530E-01
 -1      3473 1.16593E-01
 -1      3474 1.25339E-01
 -1      3475 1.05692E-01
 -1      3476 9.09135E-02
 -1      3477 1.05384E-01
 -1      3478 7.97309E-02
 -1      3479 6.42156E-02
 -1      3480 8.33006E-02
 -1      3481 6.61841E-02
 -1      3482 6.49041E-02
 -1      3483 7.40865E-02
 -1      3484 6.85129E-02
 -1      3485 8.11406E-02
 -1      3486 7.96638E-02
 -1      3487 1.00732E-01
 -1      3488 1.25426E-01
 -1      3489 1.02864E-01
 -1      3490 1.54320E-01
 -1      3491 1.85678E-01
 -1      3492 1.51349E-01
 -1      3493 2.21011E-01
 -1      3494 2.58691E-01
 -1      3495 2.15576E-01
 -1      3496 3.01871E-01
 -1      3497 3.46637E-01
 -1      3498 2.94089E-01
 -1      3499 3.99172E-01
 -1      3500 4.51174E-01
 -1      3501 3.89804E-01
 -1      3502 5.14584E-01
 -1      3503 5.72749E-01
 -1      3504 5.05750E-01
 -1      3505 6.48300E-01
 -1      3506 7.20676E-01
 -1      3507 6.44710E-01
 -1      3508 8.08574E-01
 -1      3509 9.08178E-01
 -1      3510 8.08159E-01
 -1      3511 1.02333E+00
 -1      3512 1.15372E+00
 -1      3513 1.01121E+00
 -1      3514 1.33093E+00
 -1      3515 1.49568E+00
 -1      3516 1.30356E+00
 -1      3517 1.81687E+00
 -1      3518 1.99676E+00
 -1      3519 1.80195E+00
 -1      3520 2.43373E+00
 -1      3521 2.69696E+00
 -1      3522 2.56011E+00
 -1      3523 3.01561E+00
 -1      3524 3.43778E+00
 -1      3525 3.31573E+00
 -1      3526 4.14973E+00
 -1      3527 4.30281E+00
 -1      3528 4.92518E+00
 -1      3529 4.34634E+00
 -1      3530 2.82252E+00
 -1      3531 2.46987E+00
 -1      3532 2.11721E+00
 -1      3533 1.87844E+00
 -1      3534 2.46987E+00
 -1      3535 1.57926E+00
 -1      3536 1.40709E+00
 -1      3537 1.81804E+00
 -1      3538 1.20497E+00
 -1      3539 1.04989E+00
 -1      3540 1.31674E+00
 -1      3541 9.41138E-01
 -1      3542 8.15023E-01
 -1      3543 1.00588E+00
 -1      3544 7.68597E+00
 -1      3545 6.77113E+00
 -1      3546 5.51768E-02
 -1      3547 6.60701E-02
 -1      3548 7.20251E-02
 -1      3549 8.65272E-02
 -1      3550 7.09314E-02
 -1      3551 1.08619E-01
 -1      3552 8.48812E-02
 -1      3553 1.64312E-01
 -1      3554 1.36163E-01
 -1      3555 1.30536E-01
 -1      3556 2.31355E-01
 -1      3557 1.97596E-01
 -1      3558 1.91365E-01
 -1      3559 3.12141E-01
 -1      3560 2.71427E-01
 -1      3561 2.64721E-01
 -1      3562 4.10641E-01
 -1      3563 3.59869E-01
 -1      3564 3.52520E-01
 -1      3565 5.27728E-01
 -1      3566 4.66439E-01
 -1      3567 4.56045E-01
 -1      3568 6.62936E-01
 -1      3569 5.91001E-01
 -1      3570 5.75116E-01
 -1      3571 8.17599E-01
 -1      3572 7.36233E-01
 -1      3573 7.11686E-01
 -1      3574 1.01898E+00
 -1      3575 9.21414E-01
 -1      3576 8.88798E-01
 -1      3577 1.28379E+00
 -1      3578 1.17924E+00
 -1      3579 1.15287E+00
 -1      3580 1.64002E+00
 -1      3581 1.50180E+00
 -1      3582 1.53113E+00
 -1      3583 2.11428E+00
 -1      3584 1.90044E+00
 -1      3585 2.00957E+00
 -1      3586 2.63125E+00
 -1      3587 2.42502E+00
 -1      3588 2.58072E+00
 -1      3589 3.16936E+00
 -1      3590 3.53497E+00
 -1      3591 5.05361E+00
 -1      3592 1.15637E+00
 -1      3593 1.26791E+00
 -1      3594 9.44756E-01
 -1      3595 1.03154E+00
 -1      3596 1.22122E+00
 -1      3597 8.04967E-01
 -1      3598 8.07444E-01
 -1      3599 1.44133E+00
 -1      3600 1.62729E+00
 -1      3601 1.51946E+00
 -1      3602 1.94184E+00
 -1      3603 2.23034E+00
 -1      3604 3.26098E+00
 -1      3605 2.00742E+00
 -1      3606 6.83374E-02
 -1      3607 5.76410E-02
 -1      3608 6.74406E-02
 -1      3609 8.64485E-02
 -1      3610 7.53290E+00
 -1      3611 7.53290E+00
 -1      3612 1.53796E-01
 -1      3613 1.68414E-01
 -1      3614 4.32678E+00
 -1      3615 4.54608E+00
 -1      3616 7.13165E+00
 -1      3617 7.86426E+00
 -1      3618 6.77113E+00
 -1      3619 6.65413E+00
 -1      3620 5.77705E+00
 -1      3621 3.22771E-01
 -1      3622 2.87833E-01
 -1      3623 3.15297E-01
 -1      3624 1.69999E-01
 -1      3625 1.67277E-01
 -1      3626 1.88845E-01
 -1      3627 1.87859E-01
 -1      3628 4.86944E+00
 -1      3629 3.80766E+00
 -1      3630 3.47677E+00
 -1      3631 5.31609E+00
 -1      3632 2.09526E-01
 -1      3633 2.20055E-01
 -1      3634 2.21948E-01
 -1      3635 2.00615E-01
 -1      3636 2.17360E-01
 -1      3637 8.21148E+00
 -1      3638 7.79294E+00
 -1      3639 7.00029E+00
 -1      3640 2.17132E-01
 -1      3641 2.13517E-01
 -1      3642 1.79658E-01
 -1      3643 4.82834E+00
 -1      3644 3.82687E+00
 -1      3645 3.34974E+00
 -1      3646 5.92982E+00
 -1      3647 2.21356E-01
 -1      3648 5.39365E+00
 -1      3649 3.60995E+00
 -1      3650 2.33676E-01
 -1      3651 2.50465E-01
 -1      3652 7.42499E+00
 -1      3653 6.43942E+00
 -1      3654 5.76269E+00
 -1      3655 1.60224E-01
 -1      3656 2.53457E-01
 -1      3657 2.53457E-01
 -1      3658 5.62398E+00
 -1      3659 7.13673E-01
 -1      3660 5.84448E-01
 -1      3661 5.84448E-01
 -1      3662 7.95782E-01
 -1      3663 3.47677E+00
 -1      3664 1.80442E-01
 -1      3665 1.95463E-01
 -1      3666 1.61096E-01
 -1      3667 9.02443E-02
 -1      3668 9.98850E-02
 -1      3669 1.15472E-01
 -1      3670 2.10344E-01
 -1      3671 2.49838E-01
 -1      3672 2.59439E-01
 -1      3673 6.44684E+00
 -1      3674 7.23949E+00
 -1      3675 5.95686E+00
 -1      3676 6.33147E-01
 -1      3677 7.29031E-01
 -1      3678 7.93117E-01
 -1      3679 9.44756E-01
 -1      3680 9.18849E-01
 -1      3681 8.14328E-01
 -1      3682 8.14328E-01
 -1      3683 8.72903E-01
 -1      3684 9.79901E-01
 -1      3685 8.70225E-01
 -1      3686 2.84769E-01
 -1      3687 2.57636E-01
 -1      3688 2.57636E-01
 -1      3689 2.37091E-01
 -1      3690 2.34862E-01
 -1      3691 2.10512E-01
 -1      3692 1.60224E-01
 -1      3693 2.00486E-01
 -1      3694 6.00072E+00
 -1      3695 7.13470E+00
 -1      3696 5.85340E+00
 -1      3697 2.84999E-01
 -1      3698 7.18360E+00
 -1      3699 5.73234E+00
 -1      3700 5.59711E+00
 -1      3701 6.23082E+00
 -1      3702 7.50123E+00
 -1      3703 5.43924E+00
 -1      3704 1.43301E-01
 -1      3705 1.38573E-01
 -1      3706 1.27710E-01
 -1      3707 6.10653E+00
 -1      3708 5.46466E+00
 -1      3709 7.02307E+00
 -1      3710 5.81188E+00
 -1      3711 5.05274E+00
 -1      3712 5.69663E+00
 -1      3713 4.51155E+00
 -1      3714 3.85731E+00
 -1      3715 5.59143E+00
 -1      3716 1.78968E-01
 -1      3717 8.11065E-01
 -1      3718 7.68630E-01
 -1      3719 8.65806E-01
 -1      3720 6.95941E-01
 -1      3721 2.53676E-01
 -1      3722 2.50678E-01
 -1      3723 2.23151E-01
 -1      3724 6.13143E-01
 -1      3725 7.49463E-01
 -1      3726 6.68174E-01
 -1      3727 7.48554E-01
 -1      3728 8.50813E-01
 -1      3729 1.01744E+00
 -1      3730 9.44756E-01
 -1      3731 1.09639E+00
 -1      3732 1.53862E-01
 -1      3733 1.44671E-01
 -1      3734 1.38982E-01
 -1      3735 1.28224E-01
 -1      3736 1.27745E-01
 -1      3737 1.20189E-01
 -1      3738 1.11136E-01
 -1      3739 1.14021E-01
 -1      3740 1.04532E-01
 -1      3741 9.36305E-02
 -1      3742 9.93817E-02
 -1      3743 8.94850E-02
 -1      3744 7.83025E-02
 -1      3745 8.86324E-02
 -1      3746 8.06989E-02
 -1      3747 8.26674E-02
 -1      3748 8.68834E-02
 -1      3749 8.66517E-02
 -1      3750 9.02605E-02
 -1      3751 9.32641E-02
 -1      3752 9.74018E-02
 -1      3753 1.16993E-01
 -1      3754 1.04390E-01
 -1      3755 1.38704E-01
 -1      3756 1.67598E-01
 -1      3757 1.33242E-01
 -1      3758 1.97704E-01
 -1      3759 2.33037E-01
 -1      3760 1.85059E-01
 -1      3761 2.70638E-01
 -1      3762 3.13818E-01
 -1      3763 2.52766E-01
 -1      3764 3.61060E-01
 -1      3765 4.13595E-01
 -1      3766 3.37609E-01
 -1      3767 4.73483E-01
 -1      3768 5.36894E-01
 -1      3769 4.44739E-01
 -1      3770 6.13847E-01
 -1      3771 6.89397E-01
 -1      3772 5.81580E-01
 -1      3773 7.89969E-01
 -1      3774 8.77867E-01
 -1      3775 7.59105E-01
 -1      3776 1.01121E+00
 -1      3777 1.12635E+00
 -1      3778 9.93015E-01
 -1      3779 1.30356E+00
 -1      3780 1.48076E+00
 -1      3781 1.30356E+00
 -1      3782 1.71408E+00
 -1      3783 2.03527E+00
 -1      3784 1.71408E+00
 -1      3785 2.27826E+00
 -1      3786 2.71523E+00
 -1      3787 2.19039E+00
 -1      3788 3.46136E+00
 -1      3789 3.78001E+00
 -1      3790 3.17951E+00
 -1      3791 3.34232E+00
 -1      3792 2.98966E+00
 -1      3793 4.37711E+00
 -1      3794 5.26349E+00
 -1      3795 5.41656E+00
 -1      3796 2.06448E+00
 -1      3797 1.76530E+00
 -1      3798 2.93693E+00
 -1      3799 1.54663E+00
 -1      3800 1.34452E+00
 -1      3801 1.79308E+00
 -1      3802 1.13210E+00
 -1      3803 1.02336E+00
 -1      3804 1.36199E+00
 -1      3805 2.13342E-01
 -1      3806 1.80058E-01
 -1      3807 1.50346E-01
 -1      3808 1.22802E-01
 -1      3809 1.72323E-01
 -1      3810 3.82887E-01
 -1      3811 3.35159E-01
 -1      3812 4.94445E-01
 -1      3813 4.38647E-01
 -1      3814 4.21286E-01
 -1      3815 6.26643E-01
 -1      3816 5.63370E-01
 -1      3817 5.45972E-01
 -1      3818 7.84984E-01
 -1      3819 7.11686E-01
 -1      3820 6.99940E-01
 -1      3821 9.92613E-01
 -1      3822 8.88798E-01
 -1      3823 8.88798E-01
 -1      3824 1.27727E+00
 -1      3825 1.11701E+00
 -1      3826 1.11701E+00
 -1      3827 1.72554E+00
 -1      3828 1.50753E+00
 -1      3829 1.47167E+00
 -1      3830 3.05146E+00
 -1      3831 2.79104E+00
 -1      3832 2.76743E+00
 -1      3833 3.97376E+00
 -1      3834 3.66303E+00
 -1      3835 4.44450E+00
 -1      3836 5.25292E+00
 -1      3837 1.94222E-01
 -1      3838 2.54244E-01
 -1      3839 4.33426E+00
 -1      3840 7.30688E-02
 -1      3841 7.90238E-02
 -1      3842 1.22122E+00
 -1      3843 1.34604E+00
 -1      3844 1.22122E+00
 -1      3845 2.07100E-01
 -1      3846 2.26389E-01
 -1      3847 2.03685E-01
 -1      3848 1.50466E-01
 -1      3849 1.54079E-01
 -1      3850 2.50623E-01
 -1      3851 2.53457E-01
 -1      3852 2.19081E-01
 -1      3853 2.19136E-01
 -1      3854 1.83490E-01
 -1      3855 1.80566E-01
 -1      3856 1.54988E-01
 -1      3857 5.41656E+00
 -1      3858 5.41656E+00
 -1      3859 6.97233E-01
 -1      3860 1.47497E+00
 -1      3861 1.64839E+00
 -1      3862 1.47497E+00
 -1      3863 5.88666E+00
 -1      3864 5.88666E+00
 -1      3865 2.35982E-01
 -1      3866 2.18094E-01
 -1      3867 1.62068E-01
 -1      3868 1.86260E-01
 -1      3869 2.57636E-01
 -1      3870 2.90010E-01
 -1      3871 2.49938E-01
 -1      3872 3.20377E-01
 -1      3873 8.20709E-01
 -1      3874 8.11065E-01
 -1      3875 9.38495E-01
 -1      3876 9.32113E-01
 -1      3877 5.52677E+00
 -1      3878 1.81891E-01
 -1      3879 1.59462E-01
 -1      3880 1.54971E-01
 -1      3881 1.30270E-01
 -1      3882 3.75170E+00
 -1      3883 4.80462E+00
 -1      3884 3.96343E+00
 -1      3885 2.81268E+00
 -1      3886 5.29422E+00
 -1      3887 1.83490E-01
 -1      3888 1.34544E-01
 -1      3889 4.58226E+00
 -1      3890 4.81710E+00
 -1      3891 4.60968E+00
 -1      3892 4.04424E+00
 -1      3893 5.24491E+00
 -1      3894 4.42166E+00
 -1      3895 9.77036E-01
 -1      3896 2.38631E-01
 -1      3897 1.76060E-01
 -1      3898 1.83347E-01
 -1      3899 1.42626E-01
 -1      3900 1.54654E-01
 -1      3901 8.02178E-02
 -1      3902 9.35757E-02
 -1      3903 8.23552E-02
 -1      3904 9.26165E-01
 -1      3905 1.78978E-01
 -1      3906 1.78351E-01
 -1      3907 1.51353E-01
 -1      3908 1.22025E-01
 -1      3909 1.02215E-01
 -1      3910 8.56711E-02
 -1      3911 1.94957E-01
 -1      3912 5.33321E+00
 -1      3913 7.62132E-02
 -1      3914 8.43056E-02
 -1      3915 7.86773E-02
 -1      3916 1.02383E+00
 -1      3917 1.03071E+00
 -1      3918 1.84761E-01
 -1      3919 2.27111E-01
 -1      3920 2.02084E-01
 -1      3921 2.07212E-01
 -1      3922 2.07212E-01
 -1      3923 1.90216E-01
 -1      3924 1.17244E+00
 -1      3925 1.10451E+00
 -1      3926 1.21637E+00
 -1      3927 4.96564E+00
 -1      3928 4.54243E+00
 -1      3929 4.90217E+00
 -1      3930 1.81474E+00
 -1      3931 2.12928E+00
 -1      3932 2.62000E+00
 -1      3933 1.77026E+00
 -1      3934 5.05607E+00
 -1      3935 1.15840E-01
 -1      3936 4.72789E+00
 -1      3937 5.42430E+00
 -1      3938 4.31067E+00
 -1      3939 4.23590E+00
 -1      3940 1.20900E+00
 -1      3941 1.20900E+00
 -1      3942 1.28795E+00
 -1      3943 5.03300E+00
 -1      3944 1.90250E-01
 -1      3945 1.90250E-01
 -1      3946 4.78542E+00
 -1      3947 1.95957E-01
 -1      3948 1.91998E-01
 -1      3949 1.59096E-01
 -1      3950 1.23006E-01
 -1      3951 1.33501E-01
 -1      3952 1.27059E-01
 -1      3953 4.72789E+00
 -1      3954 5.63717E+00
 -1      3955 4.28919E+00
 -1      3956 3.92564E+00
 -1      3957 1.08402E-01
 -1      3958 1.00367E-01
 -1      3959 9.59473E-02
 -1      3960 8.93435E-02
 -1      3961 9.03287E-02
 -1      3962 9.11391E-02
 -1      3963 8.69936E-02
 -1      3964 8.77047E-02
 -1      3965 9.00461E-02
 -1      3966 9.24425E-02
 -1      3967 9.25528E-02
 -1      3968 9.60733E-02
 -1      3969 1.00058E-01
 -1      3970 9.92360E-02
 -1      3971 1.04707E-01
 -1      3972 1.11848E-01
 -1      3973 1.07516E-01
 -1      3974 1.24123E-01
 -1      3975 1.45834E-01
 -1      3976 1.24440E-01
 -1      3977 1.63105E-01
 -1      3978 1.93211E-01
 -1      3979 1.53986E-01
 -1      3980 2.20384E-01
 -1      3981 2.57985E-01
 -1      3982 1.98430E-01
 -1      3983 2.94975E-01
 -1      3984 3.42217E-01
 -1      3985 2.62593E-01
 -1      3986 3.90215E-01
 -1      3987 4.50103E-01
 -1      3988 3.47582E-01
 -1      3989 5.13911E-01
 -1      3990 5.90864E-01
 -1      3991 4.59388E-01
 -1      3992 6.78912E-01
 -1      3993 7.79484E-01
 -1      3994 6.11243E-01
 -1      3995 9.06358E-01
 -1      3996 1.03970E+00
 -1      3997 8.26165E-01
 -1      3998 1.22930E+00
 -1      3999 1.40651E+00
 -1      4000 1.14265E+00
 -1      4001 1.70556E+00
 -1      4002 1.93887E+00
 -1      4003 1.63130E+00
 -1      4004 2.23869E+00
 -1      4005 2.48168E+00
 -1      4006 2.23017E+00
 -1      4007 2.48168E+00
 -1      4008 3.22781E+00
 -1      4009 3.22781E+00
 -1      4010 2.52999E+00
 -1      4011 4.51801E+00
 -1      4012 1.18677E-01
 -1      4013 1.17568E-01
 -1      4014 2.01175E+00
 -1      4015 1.79308E+00
 -1      4016 1.57440E+00
 -1      4017 1.36199E+00
 -1      4018 1.79308E+00
 -1      4019 1.73455E-01
 -1      4020 1.53117E-01
 -1      4021 1.61818E-01
 -1      4022 1.43348E-01
 -1      4023 5.69585E-01
 -1      4024 5.00660E-01
 -1      4025 4.37805E-01
 -1      4026 3.82045E-01
 -1      4027 4.61418E-01
 -1      4028 9.56469E-01
 -1      4029 8.52654E-01
 -1      4030 1.23085E+00
 -1      4031 1.10644E+00
 -1      4032 1.07030E+00
 -1      4033 2.01447E+00
 -1      4034 1.78422E+00
 -1      4035 1.77365E+00
 -1      4036 3.99811E+00
 -1      4037 2.93260E+00
 -1      4038 3.24515E+00
 -1      4039 4.44450E+00
 -1      4040 4.16328E+00
 -1      4041 4.60968E+00
 -1      4042 1.41277E+00
 -1      4043 1.37288E-01
 -1      4044 1.69443E-01
 -1      4045 1.32582E-01
 -1      4046 1.60746E-01
 -1      4047 2.07268E-01
 -1      4048 2.07212E-01
 -1      4049 1.80074E-01
 -1      4050 1.09871E+00
 -1      4051 7.38158E-01
 -1      4052 6.53114E-01
 -1      4053 6.07802E-01
 -1      4054 4.37348E+00
 -1      4055 3.71758E+00
 -1      4056 2.79240E+00
 -1      4057 3.74200E+00
 -1      4058 1.41002E+00
 -1      4059 1.53896E+00
 -1      4060 1.83951E-01
 -1      4061 1.54240E-01
 -1      4062 4.07122E+00
 -1      4063 4.63140E+00
 -1      4064 3.33611E-01
 -1      4065 2.88462E-01
 -1      4066 3.50130E-01
 -1      4067 1.20262E+00
 -1      4068 1.20900E+00
 -1      4069 1.47950E+00
 -1      4070 1.30760E+00
 -1      4071 4.27393E+00
 -1      4072 3.65178E+00
 -1      4073 3.28802E+00
 -1      4074 1.60115E-01
 -1      4075 1.03046E-01
 -1      4076 1.15284E-01
 -1      4077 1.10212E-01
 -1      4078 9.30195E-02
 -1      4079 1.07791E-01
 -1      4080 1.13174E-01
 -1      4081 9.61983E-02
 -1      4082 1.17666E-01
 -1      4083 1.11976E-01
 -1      4084 9.83223E-02
 -1      4085 2.50547E-01
 -1      4086 2.13951E-01
 -1      4087 1.95867E-01
 -1      4088 1.31112E+00
 -1      4089 2.94730E+00
 -1      4090 3.60734E+00
 -1      4091 3.21976E+00
 -1      4092 2.26390E+00
 -1      4093 3.23316E+00
 -1      4094 3.69552E+00
 -1      4095 2.99371E+00
 -1      4096 1.43020E-01
 -1      4097 1.33407E-01
 -1      4098 1.36012E-01
 -1      4099 8.45598E-02
 -1      4100 8.57538E-02
 -1      4101 3.53660E+00
 -1      4102 3.90014E+00
 -1      4103 3.29165E+00
 -1      4104 2.83877E+00
 -1      4105 8.05828E-01
 -1      4106 2.79240E+00
 -1      4107 1.30339E-01
 -1      4108 1.25970E-01
 -1      4109 1.10629E-01
 -1      4110 1.50077E-01
 -1      4111 1.29490E-01
 -1      4112 1.61705E-01
 -1      4113 3.87724E+00
 -1      4114 3.87724E+00
 -1      4115 1.47675E+00
 -1      4116 1.29380E-01
 -1      4117 9.44438E-02
 -1      4118 8.74500E-02
 -1      4119 8.43056E-02
 -1      4120 8.77042E-02
 -1      4121 1.25752E-01
 -1      4122 1.32916E-01
 -1      4123 1.15811E-01
 -1      4124 1.95343E-01
 -1      4125 3.64018E+00
 -1      4126 1.59655E+00
 -1      4127 1.76289E+00
 -1      4128 2.09020E+00
 -1      4129 1.53160E+00
 -1      4130 2.63781E-01
 -1      4131 1.35617E+00
 -1      4132 1.52807E+00
 -1      4133 1.12075E-01
 -1      4134 1.21201E-01
 -1      4135 1.10768E-01
 -1      4136 1.33956E-01
 -1      4137 1.39664E-01
 -1      4138 1.43685E+00
 -1      4139 1.35617E+00
 -1      4140 1.57665E+00
 -1      4141 1.01799E-01
 -1      4142 1.13149E-01
 -1      4143 9.03706E-02
 -1      4144 8.59511E-02
 -1      4145 1.01371E-01
 -1      4146 1.01862E-01
 -1      4147 8.08345E-01
 -1      4148 6.93849E-01
 -1      4149 8.77047E-02
 -1      4150 8.95003E-02
 -1      4151 8.77467E-02
 -1      4152 1.04909E-01
 -1      4153 1.07961E-01
 -1      4154 1.04909E-01
 -1      4155 9.92360E-02
 -1      4156 1.02867E-01
 -1      4157 1.11592E-01
 -1      4158 1.07516E-01
 -1      4159 1.12165E-01
 -1      4160 1.07516E-01
 -1      4161 1.26958E-01
 -1      4162 1.39232E-01
 -1      4163 1.26958E-01
 -1      4164 1.53986E-01
 -1      4165 1.71257E-01
 -1      4166 1.56504E-01
 -1      4167 1.92283E-01
 -1      4168 2.19456E-01
 -1      4169 1.92283E-01
 -1      4170 2.46775E-01
 -1      4171 2.83766E-01
 -1      4172 2.40628E-01
 -1      4173 3.19035E-01
 -1      4174 3.67033E-01
 -1      4175 3.03217E-01
 -1      4176 4.13132E-01
 -1      4177 4.76939E-01
 -1      4178 3.84585E-01
 -1      4179 5.40902E-01
 -1      4180 6.28950E-01
 -1      4181 4.94646E-01
 -1      4182 7.16575E-01
 -1      4183 8.43449E-01
 -1      4184 6.46234E-01
 -1      4185 9.75238E-01
 -1      4186 1.16485E+00
 -1      4187 8.65648E-01
 -1      4188 1.59627E+00
 -1      4189 1.89532E+00
 -1      4190 1.42886E+00
 -1      4191 2.53532E+00
 -1      4192 2.83514E+00
 -1      4193 2.50029E+00
 -1      4194 1.95485E+00
 -1      4195 1.73618E+00
 -1      4196 9.17370E-02
 -1      4197 8.81630E-02
 -1      4198 8.37853E-02
 -1      4199 1.59317E-01
 -1      4200 1.59317E-01
 -1      4201 1.06993E-01
 -1      4202 8.76075E-02
 -1      4203 8.54030E-02
 -1      4204 9.48732E-02
 -1      4205 4.55418E-01
 -1      4206 3.92564E-01
 -1      4207 3.65178E+00
 -1      4208 3.36574E+00
 -1      4209 2.10581E+00
 -1      4210 1.55244E+00
 -1      4211 1.09555E+00
 -1      4212 9.45573E-01
 -1      4213 8.33594E-01
 -1      4214 1.42772E+00
 -1      4215 2.72574E+00
 -1      4216 3.52017E-01
 -1      4217 3.03584E-01
 -1      4218 3.46018E-01
 -1      4219 1.01438E-01
 -1      4220 9.44438E-02
 -1      4221 9.44438E-02
 -1      4222 1.29490E-01
 -1      4223 1.43573E+00
 -1      4224 2.72002E-01
 -1      4225 2.34088E-01
 -1      4226 2.73890E-01
 -1      4227 3.30200E+00
 -1      4228 2.52134E+00
 -1      4229 2.46444E+00
 -1      4230 3.47094E+00
 -1      4231 3.20018E+00
 -1      4232 2.95911E+00
 -1      4233 9.29242E-02
 -1      4234 9.30220E-02
 -1      4235 8.28627E-02
 -1      4236 1.44047E-01
 -1      4237 1.59317E-01
 -1      4238 1.23290E-01
 -1      4239 1.18907E-01
 -1      4240 2.09412E-01
 -1      4241 1.79412E-01
 -1      4242 2.17632E-01
 -1      4243 6.02801E-01
 -1      4244 5.19271E-01
 -1      4245 6.05318E-01
 -1      4246 1.30754E-01
 -1      4247 1.09740E-01
 -1      4248 2.73790E+00
 -1      4249 8.21426E-02
 -1      4250 9.65832E-02
 -1      4251 9.09094E-02
 -1      4252 2.83514E+00
 -1      4253 2.52999E+00
 -1      4254 2.52999E+00
 -1      4255 1.03977E-01
 -1      4256 1.03626E-01
 -1      4257 4.50417E-01
 -1      4258 8.01467E-02
 -1      4259 8.56493E-02
 -1      4260 1.61705E-01
 -1      4261 1.57542E-01
 -1      4262 1.75249E-01
 -1      4263 1.87245E+00
 -1      4264 1.47950E+00
 -1      4265 1.47950E+00
 -1      4266 1.47675E+00
 -1      4267 1.52807E+00
 -1      4268 2.21117E+00
 -1      4269 2.83973E+00
 -1      4270 1.71017E+00
 -1      4271 1.40240E+00
 -1      4272 1.46000E+00
 -1      4273 1.58097E+00
 -1      4274 1.40515E+00
 -1      4275 2.78138E+00
 -1      4276 2.61215E+00
 -1      4277 2.04565E+00
 -1      4278 2.40568E+00
 -1      4279 7.68726E-02
 -1      4280 2.22458E+00
 -1      4281 2.98287E+00
 -1      4282 2.83514E+00
 -1      4283 9.77651E-02
 -1      4284 1.05487E-01
 -1      4285 9.96285E-02
 -1      4286 9.01486E-02
 -1      4287 1.14123E-01
 -1      4288 9.78901E-02
 -1      4289 1.02442E-01
 -1      4290 8.84926E-02
 -1      4291 1.03884E-01
 -1      4292 1.04138E-01
 -1      4293 1.20157E-01
 -1      4294 1.59750E+00
 -1      4295 9.64440E-02
 -1      4296 1.55981E+00
 -1      4297 1.51124E+00
 -1      4298 1.43689E+00
 -1      4299 1.04909E-01
 -1      4300 1.20317E-01
 -1      4301 1.20317E-01
 -1      4302 1.11592E-01
 -1      4303 1.34853E-01
 -1      4304 1.49646E-01
 -1      4305 1.49646E-01
 -1      4306 1.64399E-01
 -1      4307 1.82107E-01
 -1      4308 2.03133E-01
 -1      4309 2.27809E-01
 -1      4310 2.55128E-01
 -1      4311 2.86710E-01
 -1      4312 3.21979E-01
 -1      4313 3.62525E-01
 -1      4314 4.08624E-01
 -1      4315 4.72477E-01
 -1      4316 5.36440E-01
 -1      4317 6.27488E-01
 -1      4318 7.15113E-01
 -1      4319 8.52341E-01
 -1      4320 9.84130E-01
 -1      4321 1.44102E+00
 -1      4322 8.51144E-02
 -1      4323 8.73221E-02
 -1      4324 2.83877E+00
 -1      4325 1.04534E-01
 -1      4326 8.81642E-02
 -1      4327 9.10560E-02
 -1      4328 1.00077E-01
 -1      4329 1.00077E-01
 -1      4330 8.75323E-02
 -1      4331 8.92860E-02
 -1      4332 1.04694E-01
 -1      4333 8.88614E-02
 -1      4334 1.55566E+00
 -1      4335 1.94909E+00
 -1      4336 1.73676E+00
 -1      4337 1.30549E+00
 -1      4338 8.68556E-02
 -1      4339 8.55707E-02
 -1      4340 7.85096E-02
 -1      4341 8.57846E-02
 -1      4342 7.32306E-02
 -1      4343 1.88500E+00
 -1      4344 1.88500E+00
 -1      4345 3.14029E+00
 -1      4346 8.91074E-02
 -1      4347 1.10696E-01
 -1      4348 1.01971E-01
 -1      4349 1.06620E-01
 -1      4350 9.42628E-02
 -1      4351 1.57542E-01
 -1      4352 1.01257E-01
 -1      4353 1.29309E-01
 -1      4354 1.73730E+00
 -1      4355 1.57542E-01
 -1      4356 1.29490E-01
 -1      4357 1.20157E-01
 -1      4358 1.04694E-01
 -1      4359 9.78901E-02
 -1      4360 8.95637E-02
 -1      4361 8.91074E-02
 -1      4362 9.13021E-02
 -1      4363 1.86817E+00
 -1      4364 8.93176E-02
 -1      4365 1.41157E+00
 -1      4366 1.20317E-01
 -1      4367 8.90716E-02
 -1      4368 8.93176E-02
 -3
 9999
