    1C
    1UUSER                                                              
    1UDATE              26.october.2022                                 
    1UTIME              23:49:41                                        
    1UHOST                                                              
    1UPGM               CalculiX                                        
    1UVERSION           Version 2.17                             
    1UCOMPILETIME       Thu Jul 23 21:43:50 CEST 2020                    
    1UDIR                                                               
    1UDBN                                                               
    1UMAT    1SOLIDMATERIAL                                             
    2C                          4342                                     1
 -1         1 8.44125E+01 2.79681E+01 0.00000E+00
 -1         2 8.82713E+01 2.17124E+01 0.00000E+00
 -1         3 1.50000E+02 0.00000E+00 0.00000E+00
 -1         4 1.50000E+02 5.00000E+01 0.00000E+00
 -1         5 0.00000E+00 0.00000E+00 0.00000E+00
 -1         6 0.00000E+00 5.00000E+01 0.00000E+00
 -1         7 0.00000E+00 4.70500E+01 0.00000E+00
 -1         8 0.00000E+00 4.41000E+01 0.00000E+00
 -1         9 0.00000E+00 4.11500E+01 0.00000E+00
 -1        10 0.00000E+00 3.82000E+01 0.00000E+00
 -1        11 0.00000E+00 3.52500E+01 0.00000E+00
 -1        12 0.00000E+00 3.23500E+01 0.00000E+00
 -1        13 0.00000E+00 2.94000E+01 0.00000E+00
 -1        14 0.00000E+00 2.64500E+01 0.00000E+00
 -1        15 0.00000E+00 2.35000E+01 0.00000E+00
 -1        16 0.00000E+00 2.05500E+01 0.00000E+00
 -1        17 0.00000E+00 1.76000E+01 0.00000E+00
 -1        18 0.00000E+00 1.47000E+01 0.00000E+00
 -1        19 0.00000E+00 1.17500E+01 0.00000E+00
 -1        20 0.00000E+00 8.80000E+00 0.00000E+00
 -1        21 0.00000E+00 5.85000E+00 0.00000E+00
 -1        22 0.00000E+00 2.90000E+00 0.00000E+00
 -1        23 3.15000E+00 5.00000E+01 0.00000E+00
 -1        24 6.15000E+00 5.00000E+01 0.00000E+00
 -1        25 9.15000E+00 5.00000E+01 0.00000E+00
 -1        26 1.21500E+01 5.00000E+01 0.00000E+00
 -1        27 1.51500E+01 5.00000E+01 0.00000E+00
 -1        28 1.81500E+01 5.00000E+01 0.00000E+00
 -1        29 2.11500E+01 5.00000E+01 0.00000E+00
 -1        30 2.41500E+01 5.00000E+01 0.00000E+00
 -1        31 2.71500E+01 5.00000E+01 0.00000E+00
 -1        32 3.01500E+01 5.00000E+01 0.00000E+00
 -1        33 3.31500E+01 5.00000E+01 0.00000E+00
 -1        34 3.61500E+01 5.00000E+01 0.00000E+00
 -1        35 3.91500E+01 5.00000E+01 0.00000E+00
 -1        36 4.21500E+01 5.00000E+01 0.00000E+00
 -1        37 4.51500E+01 5.00000E+01 0.00000E+00
 -1        38 4.81500E+01 5.00000E+01 0.00000E+00
 -1        39 5.11500E+01 5.00000E+01 0.00000E+00
 -1        40 5.41500E+01 5.00000E+01 0.00000E+00
 -1        41 5.71500E+01 5.00000E+01 0.00000E+00
 -1        42 6.01500E+01 5.00000E+01 0.00000E+00
 -1        43 6.31500E+01 5.00000E+01 0.00000E+00
 -1        44 6.61500E+01 5.00000E+01 0.00000E+00
 -1        45 6.91500E+01 5.00000E+01 0.00000E+00
 -1        46 7.21500E+01 5.00000E+01 0.00000E+00
 -1        47 7.51500E+01 5.00000E+01 0.00000E+00
 -1        48 7.81500E+01 5.00000E+01 0.00000E+00
 -1        49 8.11500E+01 5.00000E+01 0.00000E+00
 -1        50 8.41500E+01 5.00000E+01 0.00000E+00
 -1        51 8.71500E+01 5.00000E+01 0.00000E+00
 -1        52 9.01500E+01 5.00000E+01 0.00000E+00
 -1        53 9.31500E+01 5.00000E+01 0.00000E+00
 -1        54 9.61500E+01 5.00000E+01 0.00000E+00
 -1        55 9.91500E+01 5.00000E+01 0.00000E+00
 -1        56 1.02150E+02 5.00000E+01 0.00000E+00
 -1        57 1.05150E+02 5.00000E+01 0.00000E+00
 -1        58 1.08150E+02 5.00000E+01 0.00000E+00
 -1        59 1.11150E+02 5.00000E+01 0.00000E+00
 -1        60 1.14150E+02 5.00000E+01 0.00000E+00
 -1        61 1.17150E+02 5.00000E+01 0.00000E+00
 -1        62 1.20150E+02 5.00000E+01 0.00000E+00
 -1        63 1.23150E+02 5.00000E+01 0.00000E+00
 -1        64 1.26150E+02 5.00000E+01 0.00000E+00
 -1        65 1.29150E+02 5.00000E+01 0.00000E+00
 -1        66 1.32150E+02 5.00000E+01 0.00000E+00
 -1        67 1.35150E+02 5.00000E+01 0.00000E+00
 -1        68 1.38150E+02 5.00000E+01 0.00000E+00
 -1        69 1.41150E+02 5.00000E+01 0.00000E+00
 -1        70 1.44150E+02 5.00000E+01 0.00000E+00
 -1        71 1.47150E+02 5.00000E+01 0.00000E+00
 -1        72 3.15000E+00 0.00000E+00 0.00000E+00
 -1        73 6.15000E+00 0.00000E+00 0.00000E+00
 -1        74 9.15000E+00 0.00000E+00 0.00000E+00
 -1        75 1.21500E+01 0.00000E+00 0.00000E+00
 -1        76 1.51500E+01 0.00000E+00 0.00000E+00
 -1        77 1.81500E+01 0.00000E+00 0.00000E+00
 -1        78 2.11500E+01 0.00000E+00 0.00000E+00
 -1        79 2.41500E+01 0.00000E+00 0.00000E+00
 -1        80 2.71500E+01 0.00000E+00 0.00000E+00
 -1        81 3.01500E+01 0.00000E+00 0.00000E+00
 -1        82 3.31500E+01 0.00000E+00 0.00000E+00
 -1        83 3.61500E+01 0.00000E+00 0.00000E+00
 -1        84 3.91500E+01 0.00000E+00 0.00000E+00
 -1        85 4.21500E+01 0.00000E+00 0.00000E+00
 -1        86 4.51500E+01 0.00000E+00 0.00000E+00
 -1        87 4.81500E+01 0.00000E+00 0.00000E+00
 -1        88 5.11500E+01 0.00000E+00 0.00000E+00
 -1        89 5.41500E+01 0.00000E+00 0.00000E+00
 -1        90 5.71500E+01 0.00000E+00 0.00000E+00
 -1        91 6.01500E+01 0.00000E+00 0.00000E+00
 -1        92 6.31500E+01 0.00000E+00 0.00000E+00
 -1        93 6.61500E+01 0.00000E+00 0.00000E+00
 -1        94 6.91500E+01 0.00000E+00 0.00000E+00
 -1        95 7.21500E+01 0.00000E+00 0.00000E+00
 -1        96 7.51500E+01 0.00000E+00 0.00000E+00
 -1        97 7.81500E+01 0.00000E+00 0.00000E+00
 -1        98 8.11500E+01 0.00000E+00 0.00000E+00
 -1        99 8.41500E+01 0.00000E+00 0.00000E+00
 -1       100 8.71500E+01 0.00000E+00 0.00000E+00
 -1       101 9.01500E+01 0.00000E+00 0.00000E+00
 -1       102 9.31500E+01 0.00000E+00 0.00000E+00
 -1       103 9.61500E+01 0.00000E+00 0.00000E+00
 -1       104 9.91500E+01 0.00000E+00 0.00000E+00
 -1       105 1.02150E+02 0.00000E+00 0.00000E+00
 -1       106 1.05150E+02 0.00000E+00 0.00000E+00
 -1       107 1.08150E+02 0.00000E+00 0.00000E+00
 -1       108 1.11150E+02 0.00000E+00 0.00000E+00
 -1       109 1.14150E+02 0.00000E+00 0.00000E+00
 -1       110 1.17150E+02 0.00000E+00 0.00000E+00
 -1       111 1.20150E+02 0.00000E+00 0.00000E+00
 -1       112 1.23150E+02 0.00000E+00 0.00000E+00
 -1       113 1.26150E+02 0.00000E+00 0.00000E+00
 -1       114 1.29150E+02 0.00000E+00 0.00000E+00
 -1       115 1.32150E+02 0.00000E+00 0.00000E+00
 -1       116 1.35150E+02 0.00000E+00 0.00000E+00
 -1       117 1.38150E+02 0.00000E+00 0.00000E+00
 -1       118 1.41150E+02 0.00000E+00 0.00000E+00
 -1       119 1.44150E+02 0.00000E+00 0.00000E+00
 -1       120 1.47150E+02 0.00000E+00 0.00000E+00
 -1       121 1.50000E+02 2.95000E+00 0.00000E+00
 -1       122 1.50000E+02 5.90000E+00 0.00000E+00
 -1       123 1.50000E+02 8.85000E+00 0.00000E+00
 -1       124 1.50000E+02 1.18000E+01 0.00000E+00
 -1       125 1.50000E+02 1.47500E+01 0.00000E+00
 -1       126 1.50000E+02 1.76500E+01 0.00000E+00
 -1       127 1.50000E+02 2.06000E+01 0.00000E+00
 -1       128 1.50000E+02 2.35500E+01 0.00000E+00
 -1       129 1.50000E+02 2.65000E+01 0.00000E+00
 -1       130 1.50000E+02 2.94500E+01 0.00000E+00
 -1       131 1.50000E+02 3.24000E+01 0.00000E+00
 -1       132 1.50000E+02 3.53000E+01 0.00000E+00
 -1       133 1.50000E+02 3.82500E+01 0.00000E+00
 -1       134 1.50000E+02 4.12000E+01 0.00000E+00
 -1       135 1.50000E+02 4.41500E+01 0.00000E+00
 -1       136 1.50000E+02 4.71000E+01 0.00000E+00
 -1       137 8.80873E+01 2.01180E+01 0.00000E+00
 -1       138 8.76243E+01 1.87731E+01 0.00000E+00
 -1       139 8.67785E+01 1.73914E+01 0.00000E+00
 -1       140 8.57173E+01 1.63056E+01 0.00000E+00
 -1       141 8.44800E+01 1.54911E+01 0.00000E+00
 -1       142 8.31155E+01 1.49597E+01 0.00000E+00
 -1       143 8.15537E+01 1.47181E+01 0.00000E+00
 -1       144 7.98390E+01 1.48605E+01 0.00000E+00
 -1       145 7.83863E+01 1.53346E+01 0.00000E+00
 -1       146 7.69121E+01 1.62355E+01 0.00000E+00
 -1       147 7.58289E+01 1.73102E+01 0.00000E+00
 -1       148 7.49324E+01 1.87430E+01 0.00000E+00
 -1       149 7.44283E+01 2.02386E+01 0.00000E+00
 -1       150 7.42714E+01 2.17420E+01 0.00000E+00
 -1       151 7.44480E+01 2.32751E+01 0.00000E+00
 -1       152 7.49313E+01 2.46796E+01 0.00000E+00
 -1       153 7.57422E+01 2.60053E+01 0.00000E+00
 -1       154 7.67958E+01 2.70948E+01 0.00000E+00
 -1       155 7.80961E+01 2.79508E+01 0.00000E+00
 -1       156 7.95062E+01 2.84862E+01 0.00000E+00
 -1       157 8.12056E+01 2.87121E+01 0.00000E+00
 -1       158 8.28704E+01 2.85274E+01 0.00000E+00
 -1       159 8.56784E+01 2.71510E+01 0.00000E+00
 -1       160 8.67200E+01 2.61070E+01 0.00000E+00
 -1       161 8.75798E+01 2.47461E+01 0.00000E+00
 -1       162 8.81098E+01 2.32075E+01 0.00000E+00
 -1       163 2.59800E+00 4.55750E+01 0.00000E+00
 -1       164 2.59800E+00 4.26250E+01 0.00000E+00
 -1       165 2.59800E+00 3.96750E+01 0.00000E+00
 -1       166 2.59800E+00 3.67250E+01 0.00000E+00
 -1       167 2.59800E+00 3.38250E+01 0.00000E+00
 -1       168 2.59800E+00 3.08750E+01 0.00000E+00
 -1       169 2.59800E+00 2.79250E+01 0.00000E+00
 -1       170 2.59800E+00 2.49750E+01 0.00000E+00
 -1       171 2.59800E+00 2.20250E+01 0.00000E+00
 -1       172 2.59800E+00 1.90750E+01 0.00000E+00
 -1       173 2.59800E+00 1.61750E+01 0.00000E+00
 -1       174 2.59800E+00 1.32250E+01 0.00000E+00
 -1       175 2.59800E+00 1.02750E+01 0.00000E+00
 -1       176 2.59800E+00 7.32500E+00 0.00000E+00
 -1       177 2.59800E+00 4.37500E+00 0.00000E+00
 -1       178 2.87400E+00 2.18750E+00 0.00000E+00
 -1       179 4.65000E+00 4.74020E+01 0.00000E+00
 -1       180 7.65000E+00 4.74020E+01 0.00000E+00
 -1       181 1.06500E+01 4.74020E+01 0.00000E+00
 -1       182 1.36500E+01 4.74020E+01 0.00000E+00
 -1       183 1.66500E+01 4.74020E+01 0.00000E+00
 -1       184 1.96500E+01 4.74020E+01 0.00000E+00
 -1       185 2.26500E+01 4.74020E+01 0.00000E+00
 -1       186 2.56500E+01 4.74020E+01 0.00000E+00
 -1       187 2.86500E+01 4.74020E+01 0.00000E+00
 -1       188 3.16500E+01 4.74020E+01 0.00000E+00
 -1       189 3.46500E+01 4.74020E+01 0.00000E+00
 -1       190 3.76500E+01 4.74020E+01 0.00000E+00
 -1       191 4.06500E+01 4.74020E+01 0.00000E+00
 -1       192 4.36500E+01 4.74020E+01 0.00000E+00
 -1       193 4.66500E+01 4.74020E+01 0.00000E+00
 -1       194 4.96500E+01 4.74020E+01 0.00000E+00
 -1       195 5.26500E+01 4.74020E+01 0.00000E+00
 -1       196 5.56500E+01 4.74020E+01 0.00000E+00
 -1       197 5.86500E+01 4.74020E+01 0.00000E+00
 -1       198 6.16500E+01 4.74020E+01 0.00000E+00
 -1       199 6.46500E+01 4.74020E+01 0.00000E+00
 -1       200 6.76500E+01 4.74020E+01 0.00000E+00
 -1       201 7.06500E+01 4.74020E+01 0.00000E+00
 -1       202 7.36500E+01 4.74020E+01 0.00000E+00
 -1       203 7.66500E+01 4.74020E+01 0.00000E+00
 -1       204 7.96500E+01 4.74020E+01 0.00000E+00
 -1       205 8.26500E+01 4.74020E+01 0.00000E+00
 -1       206 8.56500E+01 4.74020E+01 0.00000E+00
 -1       207 8.86500E+01 4.74020E+01 0.00000E+00
 -1       208 9.16500E+01 4.74020E+01 0.00000E+00
 -1       209 9.46500E+01 4.74020E+01 0.00000E+00
 -1       210 9.76500E+01 4.74020E+01 0.00000E+00
 -1       211 1.00650E+02 4.74020E+01 0.00000E+00
 -1       212 1.03650E+02 4.74020E+01 0.00000E+00
 -1       213 1.06650E+02 4.74020E+01 0.00000E+00
 -1       214 1.09650E+02 4.74020E+01 0.00000E+00
 -1       215 1.12650E+02 4.74020E+01 0.00000E+00
 -1       216 1.15650E+02 4.74020E+01 0.00000E+00
 -1       217 1.18650E+02 4.74020E+01 0.00000E+00
 -1       218 1.21650E+02 4.74020E+01 0.00000E+00
 -1       219 1.24650E+02 4.74020E+01 0.00000E+00
 -1       220 1.27650E+02 4.74020E+01 0.00000E+00
 -1       221 1.30650E+02 4.74020E+01 0.00000E+00
 -1       222 1.33650E+02 4.74020E+01 0.00000E+00
 -1       223 1.36650E+02 4.74020E+01 0.00000E+00
 -1       224 1.39650E+02 4.74020E+01 0.00000E+00
 -1       225 1.42650E+02 4.74020E+01 0.00000E+00
 -1       226 1.45650E+02 4.74020E+01 0.00000E+00
 -1       227 5.87400E+00 2.18750E+00 0.00000E+00
 -1       228 8.87400E+00 2.18750E+00 0.00000E+00
 -1       229 1.18740E+01 2.18750E+00 0.00000E+00
 -1       230 1.48740E+01 2.18750E+00 0.00000E+00
 -1       231 1.78740E+01 2.18750E+00 0.00000E+00
 -1       232 2.08740E+01 2.18750E+00 0.00000E+00
 -1       233 2.38740E+01 2.18750E+00 0.00000E+00
 -1       234 2.68740E+01 2.18750E+00 0.00000E+00
 -1       235 2.98740E+01 2.18750E+00 0.00000E+00
 -1       236 3.28740E+01 2.18750E+00 0.00000E+00
 -1       237 3.58740E+01 2.18750E+00 0.00000E+00
 -1       238 3.88740E+01 2.18750E+00 0.00000E+00
 -1       239 4.18740E+01 2.18750E+00 0.00000E+00
 -1       240 4.48740E+01 2.18750E+00 0.00000E+00
 -1       241 4.78740E+01 2.18750E+00 0.00000E+00
 -1       242 5.08740E+01 2.18750E+00 0.00000E+00
 -1       243 5.38740E+01 2.18750E+00 0.00000E+00
 -1       244 5.68740E+01 2.18750E+00 0.00000E+00
 -1       245 5.98740E+01 2.18750E+00 0.00000E+00
 -1       246 6.28740E+01 2.18750E+00 0.00000E+00
 -1       247 6.58740E+01 2.18750E+00 0.00000E+00
 -1       248 6.88740E+01 2.18750E+00 0.00000E+00
 -1       249 7.18740E+01 2.18750E+00 0.00000E+00
 -1       250 7.48740E+01 2.18750E+00 0.00000E+00
 -1       251 7.78740E+01 2.18750E+00 0.00000E+00
 -1       252 8.08740E+01 2.18750E+00 0.00000E+00
 -1       253 8.38740E+01 2.18750E+00 0.00000E+00
 -1       254 8.68740E+01 2.18750E+00 0.00000E+00
 -1       255 8.98740E+01 2.18750E+00 0.00000E+00
 -1       256 9.28740E+01 2.18750E+00 0.00000E+00
 -1       257 9.58740E+01 2.18750E+00 0.00000E+00
 -1       258 9.88740E+01 2.18750E+00 0.00000E+00
 -1       259 1.01874E+02 2.18750E+00 0.00000E+00
 -1       260 1.04874E+02 2.18750E+00 0.00000E+00
 -1       261 1.07874E+02 2.18750E+00 0.00000E+00
 -1       262 1.10874E+02 2.18750E+00 0.00000E+00
 -1       263 1.13874E+02 2.18750E+00 0.00000E+00
 -1       264 1.16874E+02 2.18750E+00 0.00000E+00
 -1       265 1.19874E+02 2.18750E+00 0.00000E+00
 -1       266 1.22874E+02 2.18750E+00 0.00000E+00
 -1       267 1.25874E+02 2.18750E+00 0.00000E+00
 -1       268 1.28874E+02 2.18750E+00 0.00000E+00
 -1       269 1.31874E+02 2.18750E+00 0.00000E+00
 -1       270 1.34874E+02 2.18750E+00 0.00000E+00
 -1       271 1.37874E+02 2.18750E+00 0.00000E+00
 -1       272 1.40874E+02 2.18750E+00 0.00000E+00
 -1       273 1.43874E+02 2.18750E+00 0.00000E+00
 -1       274 1.46874E+02 2.18750E+00 0.00000E+00
 -1       275 1.47402E+02 4.42500E+00 0.00000E+00
 -1       276 1.47402E+02 7.37500E+00 0.00000E+00
 -1       277 1.47402E+02 1.03250E+01 0.00000E+00
 -1       278 1.47402E+02 1.32750E+01 0.00000E+00
 -1       279 1.47402E+02 1.61750E+01 0.00000E+00
 -1       280 1.47402E+02 1.91250E+01 0.00000E+00
 -1       281 1.47402E+02 2.20750E+01 0.00000E+00
 -1       282 1.47402E+02 2.50250E+01 0.00000E+00
 -1       283 1.47402E+02 2.79750E+01 0.00000E+00
 -1       284 1.47402E+02 3.09250E+01 0.00000E+00
 -1       285 1.47402E+02 3.38250E+01 0.00000E+00
 -1       286 1.47402E+02 3.67750E+01 0.00000E+00
 -1       287 1.47402E+02 3.97250E+01 0.00000E+00
 -1       288 1.47402E+02 4.26750E+01 0.00000E+00
 -1       289 1.46526E+02 4.50385E+01 0.00000E+00
 -1       290 8.95502E+01 2.07570E+01 0.00000E+00
 -1       291 8.90022E+01 1.90509E+01 0.00000E+00
 -1       292 8.85213E+01 1.72743E+01 0.00000E+00
 -1       293 8.73546E+01 1.57668E+01 0.00000E+00
 -1       294 8.58113E+01 1.48157E+01 0.00000E+00
 -1       295 8.42377E+01 1.40957E+01 0.00000E+00
 -1       296 8.25455E+01 1.34752E+01 0.00000E+00
 -1       297 8.05752E+01 1.33306E+01 0.00000E+00
 -1       298 7.87365E+01 1.39450E+01 0.00000E+00
 -1       299 7.69296E+01 1.46076E+01 0.00000E+00
 -1       300 7.55166E+01 1.59122E+01 0.00000E+00
 -1       301 7.42108E+01 1.72946E+01 0.00000E+00
 -1       302 7.34520E+01 1.90768E+01 0.00000E+00
 -1       303 7.31440E+01 2.08645E+01 0.00000E+00
 -1       304 7.31553E+01 2.26473E+01 0.00000E+00
 -1       305 7.32264E+01 2.44809E+01 0.00000E+00
 -1       306 7.42310E+01 2.60188E+01 0.00000E+00
 -1       307 7.53372E+01 2.74511E+01 0.00000E+00
 -1       308 7.67332E+01 2.86054E+01 0.00000E+00
 -1       309 7.83411E+01 2.94303E+01 0.00000E+00
 -1       310 8.01741E+01 2.99671E+01 0.00000E+00
 -1       311 8.22087E+01 3.01578E+01 0.00000E+00
 -1       312 8.41691E+01 2.97025E+01 0.00000E+00
 -1       313 8.57030E+01 2.85782E+01 0.00000E+00
 -1       314 8.70575E+01 2.74853E+01 0.00000E+00
 -1       315 8.83165E+01 2.61637E+01 0.00000E+00
 -1       316 8.91495E+01 2.44263E+01 0.00000E+00
 -1       317 8.93960E+01 2.25902E+01 0.00000E+00
 -1       318 5.19600E+00 4.11500E+01 0.00000E+00
 -1       319 5.19600E+00 4.41000E+01 0.00000E+00
 -1       320 5.19600E+00 3.52750E+01 0.00000E+00
 -1       321 5.19600E+00 3.23250E+01 0.00000E+00
 -1       322 5.19600E+00 2.93750E+01 0.00000E+00
 -1       323 5.19600E+00 2.64250E+01 0.00000E+00
 -1       324 5.19600E+00 2.34750E+01 0.00000E+00
 -1       325 5.19600E+00 2.05250E+01 0.00000E+00
 -1       326 5.19600E+00 1.76250E+01 0.00000E+00
 -1       327 5.19600E+00 1.46750E+01 0.00000E+00
 -1       328 5.19600E+00 1.17250E+01 0.00000E+00
 -1       329 5.19600E+00 8.77500E+00 0.00000E+00
 -1       330 5.19600E+00 5.82500E+00 0.00000E+00
 -1       331 5.53500E+00 4.00625E+00 0.00000E+00
 -1       332 8.53500E+00 4.00625E+00 0.00000E+00
 -1       333 9.15000E+00 4.48040E+01 0.00000E+00
 -1       334 1.21500E+01 4.48040E+01 0.00000E+00
 -1       335 1.51500E+01 4.48040E+01 0.00000E+00
 -1       336 1.81500E+01 4.48040E+01 0.00000E+00
 -1       337 2.11500E+01 4.48040E+01 0.00000E+00
 -1       338 2.41500E+01 4.48040E+01 0.00000E+00
 -1       339 2.71500E+01 4.48040E+01 0.00000E+00
 -1       340 3.01500E+01 4.48040E+01 0.00000E+00
 -1       341 3.31500E+01 4.48040E+01 0.00000E+00
 -1       342 3.61500E+01 4.48040E+01 0.00000E+00
 -1       343 3.91500E+01 4.48040E+01 0.00000E+00
 -1       344 4.21500E+01 4.48040E+01 0.00000E+00
 -1       345 4.51500E+01 4.48040E+01 0.00000E+00
 -1       346 4.81500E+01 4.48040E+01 0.00000E+00
 -1       347 5.11500E+01 4.48040E+01 0.00000E+00
 -1       348 5.41500E+01 4.48040E+01 0.00000E+00
 -1       349 5.71500E+01 4.48040E+01 0.00000E+00
 -1       350 6.01500E+01 4.48040E+01 0.00000E+00
 -1       351 6.31500E+01 4.48040E+01 0.00000E+00
 -1       352 6.61500E+01 4.48040E+01 0.00000E+00
 -1       353 6.91500E+01 4.48040E+01 0.00000E+00
 -1       354 7.21500E+01 4.48040E+01 0.00000E+00
 -1       355 7.51500E+01 4.48040E+01 0.00000E+00
 -1       356 7.81500E+01 4.48040E+01 0.00000E+00
 -1       357 8.11500E+01 4.48040E+01 0.00000E+00
 -1       358 8.41500E+01 4.48040E+01 0.00000E+00
 -1       359 8.71500E+01 4.48040E+01 0.00000E+00
 -1       360 9.01500E+01 4.48040E+01 0.00000E+00
 -1       361 9.31500E+01 4.48040E+01 0.00000E+00
 -1       362 9.61500E+01 4.48040E+01 0.00000E+00
 -1       363 9.91500E+01 4.48040E+01 0.00000E+00
 -1       364 1.02150E+02 4.48040E+01 0.00000E+00
 -1       365 1.05150E+02 4.48040E+01 0.00000E+00
 -1       366 1.08150E+02 4.48040E+01 0.00000E+00
 -1       367 1.11150E+02 4.48040E+01 0.00000E+00
 -1       368 1.14150E+02 4.48040E+01 0.00000E+00
 -1       369 1.17150E+02 4.48040E+01 0.00000E+00
 -1       370 1.20150E+02 4.48040E+01 0.00000E+00
 -1       371 1.23150E+02 4.48040E+01 0.00000E+00
 -1       372 1.26150E+02 4.48040E+01 0.00000E+00
 -1       373 1.29150E+02 4.48040E+01 0.00000E+00
 -1       374 1.32150E+02 4.48040E+01 0.00000E+00
 -1       375 1.35150E+02 4.48040E+01 0.00000E+00
 -1       376 1.38150E+02 4.48040E+01 0.00000E+00
 -1       377 1.41150E+02 4.48040E+01 0.00000E+00
 -1       378 1.43838E+02 4.49212E+01 0.00000E+00
 -1       379 1.15350E+01 4.00625E+00 0.00000E+00
 -1       380 1.45350E+01 4.00625E+00 0.00000E+00
 -1       381 1.75350E+01 4.00625E+00 0.00000E+00
 -1       382 2.05350E+01 4.00625E+00 0.00000E+00
 -1       383 2.35350E+01 4.00625E+00 0.00000E+00
 -1       384 2.65350E+01 4.00625E+00 0.00000E+00
 -1       385 2.95350E+01 4.00625E+00 0.00000E+00
 -1       386 3.25350E+01 4.00625E+00 0.00000E+00
 -1       387 3.55350E+01 4.00625E+00 0.00000E+00
 -1       388 3.85350E+01 4.00625E+00 0.00000E+00
 -1       389 4.15350E+01 4.00625E+00 0.00000E+00
 -1       390 4.45350E+01 4.00625E+00 0.00000E+00
 -1       391 4.75350E+01 4.00625E+00 0.00000E+00
 -1       392 5.05350E+01 4.00625E+00 0.00000E+00
 -1       393 5.35350E+01 4.00625E+00 0.00000E+00
 -1       394 5.65350E+01 4.00625E+00 0.00000E+00
 -1       395 5.95350E+01 4.00625E+00 0.00000E+00
 -1       396 6.25350E+01 4.00625E+00 0.00000E+00
 -1       397 6.55350E+01 4.00625E+00 0.00000E+00
 -1       398 6.85350E+01 4.00625E+00 0.00000E+00
 -1       399 7.15350E+01 4.00625E+00 0.00000E+00
 -1       400 7.45350E+01 4.00625E+00 0.00000E+00
 -1       401 7.75350E+01 4.00625E+00 0.00000E+00
 -1       402 8.05350E+01 4.00625E+00 0.00000E+00
 -1       403 8.35350E+01 4.00625E+00 0.00000E+00
 -1       404 8.65350E+01 4.00625E+00 0.00000E+00
 -1       405 8.95350E+01 4.00625E+00 0.00000E+00
 -1       406 9.25350E+01 4.00625E+00 0.00000E+00
 -1       407 9.55350E+01 4.00625E+00 0.00000E+00
 -1       408 9.85350E+01 4.00625E+00 0.00000E+00
 -1       409 1.01535E+02 4.00625E+00 0.00000E+00
 -1       410 1.04535E+02 4.00625E+00 0.00000E+00
 -1       411 1.07535E+02 4.00625E+00 0.00000E+00
 -1       412 1.10535E+02 4.00625E+00 0.00000E+00
 -1       413 1.13535E+02 4.00625E+00 0.00000E+00
 -1       414 1.16535E+02 4.00625E+00 0.00000E+00
 -1       415 1.19535E+02 4.00625E+00 0.00000E+00
 -1       416 1.22535E+02 4.00625E+00 0.00000E+00
 -1       417 1.25535E+02 4.00625E+00 0.00000E+00
 -1       418 1.28535E+02 4.00625E+00 0.00000E+00
 -1       419 1.31535E+02 4.00625E+00 0.00000E+00
 -1       420 1.34535E+02 4.00625E+00 0.00000E+00
 -1       421 1.37535E+02 4.00625E+00 0.00000E+00
 -1       422 1.40535E+02 4.00625E+00 0.00000E+00
 -1       423 1.43535E+02 4.00625E+00 0.00000E+00
 -1       424 1.45469E+02 4.21562E+00 0.00000E+00
 -1       425 1.44804E+02 1.18000E+01 0.00000E+00
 -1       426 1.44804E+02 8.85000E+00 0.00000E+00
 -1       427 1.45136E+02 6.53281E+00 0.00000E+00
 -1       428 1.44804E+02 1.47000E+01 0.00000E+00
 -1       429 1.44804E+02 1.76500E+01 0.00000E+00
 -1       430 1.44804E+02 2.06000E+01 0.00000E+00
 -1       431 1.44804E+02 2.35500E+01 0.00000E+00
 -1       432 1.44804E+02 2.65000E+01 0.00000E+00
 -1       433 1.44804E+02 2.94500E+01 0.00000E+00
 -1       434 1.44804E+02 3.23500E+01 0.00000E+00
 -1       435 1.44804E+02 3.53000E+01 0.00000E+00
 -1       436 1.44804E+02 3.82500E+01 0.00000E+00
 -1       437 1.44804E+02 4.12000E+01 0.00000E+00
 -1       438 9.00938E+01 1.78021E+01 0.00000E+00
 -1       439 9.10987E+01 2.18104E+01 0.00000E+00
 -1       440 9.06418E+01 1.95082E+01 0.00000E+00
 -1       441 8.90293E+01 1.56760E+01 0.00000E+00
 -1       442 8.73070E+01 1.41165E+01 0.00000E+00
 -1       443 5.19600E+00 3.82125E+01 0.00000E+00
 -1       444 8.38378E+01 1.25685E+01 0.00000E+00
 -1       445 8.17104E+01 1.13581E+01 0.00000E+00
 -1       446 7.92185E+01 1.23290E+01 0.00000E+00
 -1       447 7.73580E+01 1.29807E+01 0.00000E+00
 -1       448 7.52301E+01 1.41844E+01 0.00000E+00
 -1       449 7.39244E+01 1.55668E+01 0.00000E+00
 -1       450 7.23305E+01 1.75467E+01 0.00000E+00
 -1       451 7.20206E+01 1.97505E+01 0.00000E+00
 -1       452 7.17697E+01 2.17647E+01 0.00000E+00
 -1       453 7.18408E+01 2.35983E+01 0.00000E+00
 -1       454 7.25734E+01 2.60046E+01 0.00000E+00
 -1       455 7.36920E+01 2.75785E+01 0.00000E+00
 -1       456 7.51558E+01 2.90917E+01 0.00000E+00
 -1       457 7.66777E+01 3.06930E+01 0.00000E+00
 -1       458 7.88697E+01 3.10231E+01 0.00000E+00
 -1       459 8.10313E+01 3.17701E+01 0.00000E+00
 -1       460 8.35390E+01 3.14376E+01 0.00000E+00
 -1       461 8.57518E+01 3.02533E+01 0.00000E+00
 -1       462 8.72467E+01 2.91057E+01 0.00000E+00
 -1       463 8.88075E+01 2.78919E+01 0.00000E+00
 -1       464 8.99018E+01 2.58554E+01 0.00000E+00
 -1       465 9.08523E+01 2.36465E+01 0.00000E+00
 -1       466 8.57033E+01 1.29723E+01 0.00000E+00
 -1       467 9.06018E+01 1.62037E+01 0.00000E+00
 -1       468 8.51218E+01 3.19884E+01 0.00000E+00
 -1       469 7.11878E+01 2.51220E+01 0.00000E+00
 -1       470 7.56585E+01 1.25575E+01 0.00000E+00
 -1       471 1.00350E+01 6.60425E+00 0.00000E+00
 -1       472 7.79400E+00 3.08500E+01 0.00000E+00
 -1       473 7.79400E+00 3.38000E+01 0.00000E+00
 -1       474 7.79400E+00 2.49500E+01 0.00000E+00
 -1       475 7.79400E+00 2.20000E+01 0.00000E+00
 -1       476 7.79400E+00 1.91000E+01 0.00000E+00
 -1       477 7.79400E+00 1.61500E+01 0.00000E+00
 -1       478 7.79400E+00 1.32000E+01 0.00000E+00
 -1       479 7.79400E+00 1.02500E+01 0.00000E+00
 -1       480 1.30350E+01 6.60425E+00 0.00000E+00
 -1       481 1.06500E+01 4.22060E+01 0.00000E+00
 -1       482 8.51334E+01 1.10941E+01 0.00000E+00
 -1       483 1.36500E+01 4.22060E+01 0.00000E+00
 -1       484 1.66500E+01 4.22060E+01 0.00000E+00
 -1       485 1.96500E+01 4.22060E+01 0.00000E+00
 -1       486 2.26500E+01 4.22060E+01 0.00000E+00
 -1       487 2.56500E+01 4.22060E+01 0.00000E+00
 -1       488 2.86500E+01 4.22060E+01 0.00000E+00
 -1       489 3.16500E+01 4.22060E+01 0.00000E+00
 -1       490 3.46500E+01 4.22060E+01 0.00000E+00
 -1       491 3.76500E+01 4.22060E+01 0.00000E+00
 -1       492 4.06500E+01 4.22060E+01 0.00000E+00
 -1       493 4.36500E+01 4.22060E+01 0.00000E+00
 -1       494 4.66500E+01 4.22060E+01 0.00000E+00
 -1       495 4.96500E+01 4.22060E+01 0.00000E+00
 -1       496 5.26500E+01 4.22060E+01 0.00000E+00
 -1       497 5.56500E+01 4.22060E+01 0.00000E+00
 -1       498 5.86500E+01 4.22060E+01 0.00000E+00
 -1       499 6.16500E+01 4.22060E+01 0.00000E+00
 -1       500 6.46500E+01 4.22060E+01 0.00000E+00
 -1       501 6.76500E+01 4.22060E+01 0.00000E+00
 -1       502 7.06500E+01 4.22060E+01 0.00000E+00
 -1       503 7.36500E+01 4.22060E+01 0.00000E+00
 -1       504 7.66500E+01 4.22060E+01 0.00000E+00
 -1       505 7.96500E+01 4.22060E+01 0.00000E+00
 -1       506 8.26500E+01 4.22060E+01 0.00000E+00
 -1       507 8.56500E+01 4.22060E+01 0.00000E+00
 -1       508 8.86500E+01 4.22060E+01 0.00000E+00
 -1       509 9.16500E+01 4.22060E+01 0.00000E+00
 -1       510 9.46500E+01 4.22060E+01 0.00000E+00
 -1       511 9.76500E+01 4.22060E+01 0.00000E+00
 -1       512 1.00650E+02 4.22060E+01 0.00000E+00
 -1       513 1.03650E+02 4.22060E+01 0.00000E+00
 -1       514 1.06650E+02 4.22060E+01 0.00000E+00
 -1       515 1.09650E+02 4.22060E+01 0.00000E+00
 -1       516 1.12650E+02 4.22060E+01 0.00000E+00
 -1       517 1.15650E+02 4.22060E+01 0.00000E+00
 -1       518 1.18650E+02 4.22060E+01 0.00000E+00
 -1       519 1.21650E+02 4.22060E+01 0.00000E+00
 -1       520 1.24650E+02 4.22060E+01 0.00000E+00
 -1       521 1.27650E+02 4.22060E+01 0.00000E+00
 -1       522 1.30650E+02 4.22060E+01 0.00000E+00
 -1       523 1.33650E+02 4.22060E+01 0.00000E+00
 -1       524 1.36650E+02 4.22060E+01 0.00000E+00
 -1       525 1.39650E+02 4.22060E+01 0.00000E+00
 -1       526 9.20007E+01 1.81306E+01 0.00000E+00
 -1       527 1.90350E+01 6.60425E+00 0.00000E+00
 -1       528 2.20350E+01 6.60425E+00 0.00000E+00
 -1       529 2.50350E+01 6.60425E+00 0.00000E+00
 -1       530 2.80350E+01 6.60425E+00 0.00000E+00
 -1       531 3.10350E+01 6.60425E+00 0.00000E+00
 -1       532 3.40350E+01 6.60425E+00 0.00000E+00
 -1       533 3.70350E+01 6.60425E+00 0.00000E+00
 -1       534 4.00350E+01 6.60425E+00 0.00000E+00
 -1       535 4.30350E+01 6.60425E+00 0.00000E+00
 -1       536 4.60350E+01 6.60425E+00 0.00000E+00
 -1       537 4.90350E+01 6.60425E+00 0.00000E+00
 -1       538 5.20350E+01 6.60425E+00 0.00000E+00
 -1       539 5.50350E+01 6.60425E+00 0.00000E+00
 -1       540 5.80350E+01 6.60425E+00 0.00000E+00
 -1       541 6.10350E+01 6.60425E+00 0.00000E+00
 -1       542 6.40350E+01 6.60425E+00 0.00000E+00
 -1       543 6.70350E+01 6.60425E+00 0.00000E+00
 -1       544 7.00350E+01 6.60425E+00 0.00000E+00
 -1       545 7.30350E+01 6.60425E+00 0.00000E+00
 -1       546 7.60350E+01 6.60425E+00 0.00000E+00
 -1       547 7.90350E+01 6.60425E+00 0.00000E+00
 -1       548 8.20350E+01 6.60425E+00 0.00000E+00
 -1       549 8.50350E+01 6.60425E+00 0.00000E+00
 -1       550 8.80350E+01 6.60425E+00 0.00000E+00
 -1       551 9.10350E+01 6.60425E+00 0.00000E+00
 -1       552 9.40350E+01 6.60425E+00 0.00000E+00
 -1       553 9.70350E+01 6.60425E+00 0.00000E+00
 -1       554 1.00035E+02 6.60425E+00 0.00000E+00
 -1       555 1.03035E+02 6.60425E+00 0.00000E+00
 -1       556 1.06035E+02 6.60425E+00 0.00000E+00
 -1       557 1.09035E+02 6.60425E+00 0.00000E+00
 -1       558 1.12035E+02 6.60425E+00 0.00000E+00
 -1       559 1.15035E+02 6.60425E+00 0.00000E+00
 -1       560 1.18035E+02 6.60425E+00 0.00000E+00
 -1       561 1.21035E+02 6.60425E+00 0.00000E+00
 -1       562 1.24035E+02 6.60425E+00 0.00000E+00
 -1       563 1.27035E+02 6.60425E+00 0.00000E+00
 -1       564 1.30035E+02 6.60425E+00 0.00000E+00
 -1       565 1.33035E+02 6.60425E+00 0.00000E+00
 -1       566 1.36035E+02 6.60425E+00 0.00000E+00
 -1       567 1.39035E+02 6.60425E+00 0.00000E+00
 -1       568 1.42035E+02 6.60425E+00 0.00000E+00
 -1       569 1.42206E+02 1.61750E+01 0.00000E+00
 -1       570 1.42206E+02 1.91250E+01 0.00000E+00
 -1       571 1.42206E+02 1.03250E+01 0.00000E+00
 -1       572 1.42206E+02 1.32500E+01 0.00000E+00
 -1       573 1.42206E+02 2.20750E+01 0.00000E+00
 -1       574 1.42206E+02 2.50250E+01 0.00000E+00
 -1       575 1.42206E+02 2.79750E+01 0.00000E+00
 -1       576 1.42206E+02 3.08750E+01 0.00000E+00
 -1       577 1.42206E+02 3.38250E+01 0.00000E+00
 -1       578 1.42206E+02 3.67750E+01 0.00000E+00
 -1       579 1.42206E+02 3.97250E+01 0.00000E+00
 -1       580 8.93193E+01 1.36249E+01 0.00000E+00
 -1       581 1.60350E+01 6.60425E+00 0.00000E+00
 -1       582 9.24704E+01 2.03417E+01 0.00000E+00
 -1       583 9.17986E+01 2.53626E+01 0.00000E+00
 -1       584 9.25923E+01 2.29454E+01 0.00000E+00
 -1       585 7.02764E+01 2.05559E+01 0.00000E+00
 -1       586 7.79400E+00 2.79000E+01 0.00000E+00
 -1       587 7.98418E+01 1.02454E+01 0.00000E+00
 -1       588 7.05601E+01 1.84215E+01 0.00000E+00
 -1       589 8.30060E+01 9.88375E+00 0.00000E+00
 -1       590 7.77213E+01 1.10361E+01 0.00000E+00
 -1       591 7.33913E+01 1.37554E+01 0.00000E+00
 -1       592 7.18713E+01 2.76881E+01 0.00000E+00
 -1       593 7.17974E+01 1.57353E+01 0.00000E+00
 -1       594 7.04263E+01 2.27349E+01 0.00000E+00
 -1       595 7.32514E+01 2.94693E+01 0.00000E+00
 -1       596 7.47733E+01 3.10706E+01 0.00000E+00
 -1       597 7.75308E+01 3.24712E+01 0.00000E+00
 -1       598 7.96924E+01 3.32182E+01 0.00000E+00
 -1       599 8.25106E+01 3.33041E+01 0.00000E+00
 -1       600 8.77478E+01 3.13058E+01 0.00000E+00
 -1       601 8.93085E+01 3.00920E+01 0.00000E+00
 -1       602 9.08655E+01 2.76855E+01 0.00000E+00
 -1       603 7.92300E+00 4.16780E+01 0.00000E+00
 -1       604 7.61550E+00 6.21462E+00 0.00000E+00
 -1       605 8.73553E+01 1.23528E+01 0.00000E+00
 -1       606 7.79400E+00 3.67375E+01 0.00000E+00
 -1       607 9.08918E+01 1.41526E+01 0.00000E+00
 -1       608 1.41678E+02 4.22645E+01 0.00000E+00
 -1       609 7.56264E+01 3.28488E+01 0.00000E+00
 -1       610 7.00271E+01 1.66101E+01 0.00000E+00
 -1       611 7.04857E+01 2.68054E+01 0.00000E+00
 -1       612 7.38197E+01 1.21285E+01 0.00000E+00
 -1       613 6.97733E+01 2.42586E+01 0.00000E+00
 -1       614 8.40934E+01 3.38549E+01 0.00000E+00
 -1       615 8.16536E+01 9.32816E+00 0.00000E+00
 -1       616 1.03920E+01 2.05500E+01 0.00000E+00
 -1       617 1.03920E+01 2.35000E+01 0.00000E+00
 -1       618 1.03920E+01 1.46750E+01 0.00000E+00
 -1       619 1.03920E+01 1.17250E+01 0.00000E+00
 -1       620 1.15350E+01 9.20225E+00 0.00000E+00
 -1       621 9.40772E+01 1.88450E+01 0.00000E+00
 -1       622 1.45350E+01 9.20225E+00 0.00000E+00
 -1       623 1.51500E+01 3.96080E+01 0.00000E+00
 -1       624 1.81500E+01 3.96080E+01 0.00000E+00
 -1       625 2.11500E+01 3.96080E+01 0.00000E+00
 -1       626 2.41500E+01 3.96080E+01 0.00000E+00
 -1       627 2.71500E+01 3.96080E+01 0.00000E+00
 -1       628 3.01500E+01 3.96080E+01 0.00000E+00
 -1       629 3.31500E+01 3.96080E+01 0.00000E+00
 -1       630 3.61500E+01 3.96080E+01 0.00000E+00
 -1       631 3.91500E+01 3.96080E+01 0.00000E+00
 -1       632 4.21500E+01 3.96080E+01 0.00000E+00
 -1       633 4.51500E+01 3.96080E+01 0.00000E+00
 -1       634 4.81500E+01 3.96080E+01 0.00000E+00
 -1       635 5.11500E+01 3.96080E+01 0.00000E+00
 -1       636 5.41500E+01 3.96080E+01 0.00000E+00
 -1       637 5.71500E+01 3.96080E+01 0.00000E+00
 -1       638 6.01500E+01 3.96080E+01 0.00000E+00
 -1       639 6.31500E+01 3.96080E+01 0.00000E+00
 -1       640 6.61500E+01 3.96080E+01 0.00000E+00
 -1       641 6.91500E+01 3.96080E+01 0.00000E+00
 -1       642 7.21500E+01 3.96080E+01 0.00000E+00
 -1       643 7.51500E+01 3.96080E+01 0.00000E+00
 -1       644 7.81500E+01 3.96080E+01 0.00000E+00
 -1       645 8.11500E+01 3.96080E+01 0.00000E+00
 -1       646 8.41500E+01 3.96080E+01 0.00000E+00
 -1       647 8.71500E+01 3.96080E+01 0.00000E+00
 -1       648 9.01500E+01 3.96080E+01 0.00000E+00
 -1       649 9.31500E+01 3.96080E+01 0.00000E+00
 -1       650 9.61500E+01 3.96080E+01 0.00000E+00
 -1       651 9.91500E+01 3.96080E+01 0.00000E+00
 -1       652 1.02150E+02 3.96080E+01 0.00000E+00
 -1       653 1.05150E+02 3.96080E+01 0.00000E+00
 -1       654 1.08150E+02 3.96080E+01 0.00000E+00
 -1       655 1.11150E+02 3.96080E+01 0.00000E+00
 -1       656 1.14150E+02 3.96080E+01 0.00000E+00
 -1       657 1.17150E+02 3.96080E+01 0.00000E+00
 -1       658 1.20150E+02 3.96080E+01 0.00000E+00
 -1       659 1.23150E+02 3.96080E+01 0.00000E+00
 -1       660 1.26150E+02 3.96080E+01 0.00000E+00
 -1       661 1.29150E+02 3.96080E+01 0.00000E+00
 -1       662 1.32150E+02 3.96080E+01 0.00000E+00
 -1       663 1.35150E+02 3.96080E+01 0.00000E+00
 -1       664 1.38150E+02 3.96080E+01 0.00000E+00
 -1       665 8.10441E+01 3.51430E+01 0.00000E+00
 -1       666 2.05350E+01 9.20225E+00 0.00000E+00
 -1       667 2.95350E+01 9.20225E+00 0.00000E+00
 -1       668 3.25350E+01 9.20225E+00 0.00000E+00
 -1       669 3.55350E+01 9.20225E+00 0.00000E+00
 -1       670 3.85350E+01 9.20225E+00 0.00000E+00
 -1       671 4.15350E+01 9.20225E+00 0.00000E+00
 -1       672 4.45350E+01 9.20225E+00 0.00000E+00
 -1       673 4.75350E+01 9.20225E+00 0.00000E+00
 -1       674 5.05350E+01 9.20225E+00 0.00000E+00
 -1       675 5.35350E+01 9.20225E+00 0.00000E+00
 -1       676 5.65350E+01 9.20225E+00 0.00000E+00
 -1       677 5.95350E+01 9.20225E+00 0.00000E+00
 -1       678 6.25350E+01 9.20225E+00 0.00000E+00
 -1       679 6.55350E+01 9.20225E+00 0.00000E+00
 -1       680 6.85350E+01 9.20225E+00 0.00000E+00
 -1       681 7.15350E+01 9.20225E+00 0.00000E+00
 -1       682 7.45350E+01 9.20225E+00 0.00000E+00
 -1       683 8.65350E+01 9.15721E+00 0.00000E+00
 -1       684 8.95350E+01 9.15721E+00 0.00000E+00
 -1       685 9.25350E+01 9.15721E+00 0.00000E+00
 -1       686 9.55350E+01 9.15721E+00 0.00000E+00
 -1       687 9.85350E+01 9.15721E+00 0.00000E+00
 -1       688 1.01535E+02 9.15721E+00 0.00000E+00
 -1       689 1.04535E+02 9.15721E+00 0.00000E+00
 -1       690 1.07535E+02 9.15721E+00 0.00000E+00
 -1       691 1.10535E+02 9.15721E+00 0.00000E+00
 -1       692 1.13535E+02 9.15721E+00 0.00000E+00
 -1       693 1.16535E+02 9.15721E+00 0.00000E+00
 -1       694 1.19535E+02 9.15721E+00 0.00000E+00
 -1       695 1.22535E+02 9.15721E+00 0.00000E+00
 -1       696 1.25535E+02 9.15721E+00 0.00000E+00
 -1       697 1.28535E+02 9.15721E+00 0.00000E+00
 -1       698 1.31535E+02 9.15721E+00 0.00000E+00
 -1       699 1.34535E+02 9.15721E+00 0.00000E+00
 -1       700 1.37535E+02 9.15721E+00 0.00000E+00
 -1       701 1.39870E+02 9.74111E+00 0.00000E+00
 -1       702 9.38249E+01 2.46891E+01 0.00000E+00
 -1       703 1.39608E+02 2.35500E+01 0.00000E+00
 -1       704 6.88842E+01 1.92847E+01 0.00000E+00
 -1       705 1.39608E+02 1.76500E+01 0.00000E+00
 -1       706 1.39608E+02 2.65000E+01 0.00000E+00
 -1       707 1.39608E+02 2.06000E+01 0.00000E+00
 -1       708 9.26892E+01 1.61595E+01 0.00000E+00
 -1       709 1.39608E+02 2.94000E+01 0.00000E+00
 -1       710 1.39608E+02 3.23500E+01 0.00000E+00
 -1       711 1.39608E+02 3.53000E+01 0.00000E+00
 -1       712 1.75350E+01 9.20225E+00 0.00000E+00
 -1       713 9.44119E+01 2.15555E+01 0.00000E+00
 -1       714 8.93607E+01 1.14086E+01 0.00000E+00
 -1       715 8.68662E+01 3.33071E+01 0.00000E+00
 -1       716 1.40178E+02 3.96665E+01 0.00000E+00
 -1       717 2.65350E+01 9.20225E+00 0.00000E+00
 -1       718 2.35350E+01 9.20225E+00 0.00000E+00
 -1       719 1.21500E+01 3.96080E+01 0.00000E+00
 -1       720 9.18084E+01 3.00024E+01 0.00000E+00
 -1       721 1.03920E+01 1.76125E+01 0.00000E+00
 -1       722 1.03920E+01 3.23250E+01 0.00000E+00
 -1       723 7.10731E+01 2.97318E+01 0.00000E+00
 -1       724 8.48764E+01 9.07100E+00 0.00000E+00
 -1       725 7.82409E+01 9.19077E+00 0.00000E+00
 -1       726 7.55724E+01 1.02817E+01 0.00000E+00
 -1       727 7.12584E+01 1.36698E+01 0.00000E+00
 -1       728 6.84731E+01 2.17747E+01 0.00000E+00
 -1       729 9.29235E+01 2.71633E+01 0.00000E+00
 -1       730 7.26477E+01 3.15670E+01 0.00000E+00
 -1       731 7.79967E+01 3.46241E+01 0.00000E+00
 -1       732 8.98897E+01 3.24496E+01 0.00000E+00
 -1       733 1.03920E+01 3.52625E+01 0.00000E+00
 -1       734 1.03920E+01 2.64500E+01 0.00000E+00
 -1       735 7.35008E+01 3.33452E+01 0.00000E+00
 -1       736 9.09332E+01 1.19364E+01 0.00000E+00
 -1       737 8.26269E+01 3.56938E+01 0.00000E+00
 -1       738 6.78201E+01 2.32983E+01 0.00000E+00
 -1       739 9.56446E+01 2.32992E+01 0.00000E+00
 -1       740 6.94881E+01 1.45447E+01 0.00000E+00
 -1       741 1.39870E+02 1.26661E+01 0.00000E+00
 -1       742 6.83511E+01 1.74734E+01 0.00000E+00
 -1       743 7.60922E+01 3.50017E+01 0.00000E+00
 -1       744 6.96875E+01 2.88491E+01 0.00000E+00
 -1       745 1.39739E+02 1.51581E+01 0.00000E+00
 -1       746 7.16868E+01 1.20429E+01 0.00000E+00
 -1       747 1.03920E+01 2.93875E+01 0.00000E+00
 -1       748 6.90712E+01 2.59421E+01 0.00000E+00
 -1       749 8.71723E+01 1.00854E+01 0.00000E+00
 -1       750 1.38879E+02 3.74540E+01 0.00000E+00
 -1       751 1.05210E+01 3.87342E+01 0.00000E+00
 -1       752 9.62793E+01 1.99489E+01 0.00000E+00
 -1       753 1.29900E+01 1.32000E+01 0.00000E+00
 -1       754 3.40350E+01 1.18003E+01 0.00000E+00
 -1       755 1.66500E+01 3.70100E+01 0.00000E+00
 -1       756 7.91481E+01 3.70699E+01 0.00000E+00
 -1       757 1.96500E+01 3.70100E+01 0.00000E+00
 -1       758 2.26500E+01 3.70100E+01 0.00000E+00
 -1       759 2.56500E+01 3.70100E+01 0.00000E+00
 -1       760 2.86500E+01 3.70100E+01 0.00000E+00
 -1       761 3.16500E+01 3.70100E+01 0.00000E+00
 -1       762 3.46500E+01 3.70100E+01 0.00000E+00
 -1       763 3.76500E+01 3.70100E+01 0.00000E+00
 -1       764 4.06500E+01 3.70100E+01 0.00000E+00
 -1       765 4.36500E+01 3.70100E+01 0.00000E+00
 -1       766 4.66500E+01 3.70100E+01 0.00000E+00
 -1       767 4.96500E+01 3.70100E+01 0.00000E+00
 -1       768 5.26500E+01 3.70100E+01 0.00000E+00
 -1       769 5.56500E+01 3.70100E+01 0.00000E+00
 -1       770 5.86500E+01 3.70100E+01 0.00000E+00
 -1       771 6.16500E+01 3.70100E+01 0.00000E+00
 -1       772 6.46500E+01 3.70100E+01 0.00000E+00
 -1       773 6.76500E+01 3.70100E+01 0.00000E+00
 -1       774 7.06500E+01 3.70100E+01 0.00000E+00
 -1       775 7.36500E+01 3.70100E+01 0.00000E+00
 -1       776 8.86500E+01 3.70100E+01 0.00000E+00
 -1       777 9.16500E+01 3.70100E+01 0.00000E+00
 -1       778 9.46500E+01 3.70100E+01 0.00000E+00
 -1       779 9.76500E+01 3.70100E+01 0.00000E+00
 -1       780 1.00650E+02 3.70100E+01 0.00000E+00
 -1       781 1.03650E+02 3.70100E+01 0.00000E+00
 -1       782 1.06650E+02 3.70100E+01 0.00000E+00
 -1       783 1.09650E+02 3.70100E+01 0.00000E+00
 -1       784 1.12650E+02 3.70100E+01 0.00000E+00
 -1       785 1.15650E+02 3.70100E+01 0.00000E+00
 -1       786 1.18650E+02 3.70100E+01 0.00000E+00
 -1       787 1.21650E+02 3.70100E+01 0.00000E+00
 -1       788 1.24650E+02 3.70100E+01 0.00000E+00
 -1       789 1.27650E+02 3.70100E+01 0.00000E+00
 -1       790 1.30650E+02 3.70100E+01 0.00000E+00
 -1       791 1.33650E+02 3.70100E+01 0.00000E+00
 -1       792 1.36264E+02 3.72320E+01 0.00000E+00
 -1       793 3.10350E+01 1.18003E+01 0.00000E+00
 -1       794 4.00350E+01 1.18003E+01 0.00000E+00
 -1       795 4.30350E+01 1.18003E+01 0.00000E+00
 -1       796 4.60350E+01 1.18003E+01 0.00000E+00
 -1       797 4.90350E+01 1.18003E+01 0.00000E+00
 -1       798 5.20350E+01 1.18003E+01 0.00000E+00
 -1       799 5.50350E+01 1.18003E+01 0.00000E+00
 -1       800 5.80350E+01 1.18003E+01 0.00000E+00
 -1       801 6.10350E+01 1.18003E+01 0.00000E+00
 -1       802 6.40350E+01 1.18003E+01 0.00000E+00
 -1       803 6.70350E+01 1.18003E+01 0.00000E+00
 -1       804 9.70350E+01 1.17552E+01 0.00000E+00
 -1       805 1.00035E+02 1.17552E+01 0.00000E+00
 -1       806 1.03035E+02 1.17552E+01 0.00000E+00
 -1       807 1.06035E+02 1.17552E+01 0.00000E+00
 -1       808 1.09035E+02 1.17552E+01 0.00000E+00
 -1       809 1.12035E+02 1.17552E+01 0.00000E+00
 -1       810 1.15035E+02 1.17552E+01 0.00000E+00
 -1       811 1.18035E+02 1.17552E+01 0.00000E+00
 -1       812 1.21035E+02 1.17552E+01 0.00000E+00
 -1       813 1.24035E+02 1.17552E+01 0.00000E+00
 -1       814 1.27035E+02 1.17552E+01 0.00000E+00
 -1       815 1.30035E+02 1.17552E+01 0.00000E+00
 -1       816 1.33035E+02 1.17552E+01 0.00000E+00
 -1       817 1.36035E+02 1.17552E+01 0.00000E+00
 -1       818 1.37953E+02 1.22107E+01 0.00000E+00
 -1       819 1.37010E+02 2.50250E+01 0.00000E+00
 -1       820 1.37010E+02 3.38250E+01 0.00000E+00
 -1       821 1.37010E+02 2.79250E+01 0.00000E+00
 -1       822 1.27710E+01 3.74352E+01 0.00000E+00
 -1       823 1.37010E+02 3.08750E+01 0.00000E+00
 -1       824 9.49857E+01 2.65133E+01 0.00000E+00
 -1       825 9.31930E+01 1.39000E+01 0.00000E+00
 -1       826 3.70350E+01 1.18003E+01 0.00000E+00
 -1       827 9.27262E+01 3.26978E+01 0.00000E+00
 -1       828 2.80350E+01 1.18003E+01 0.00000E+00
 -1       829 2.50350E+01 1.18003E+01 0.00000E+00
 -1       830 1.29900E+01 2.20250E+01 0.00000E+00
 -1       831 7.00501E+01 3.22027E+01 0.00000E+00
 -1       832 1.37625E+01 1.12011E+01 0.00000E+00
 -1       833 9.52045E+01 1.65609E+01 0.00000E+00
 -1       834 8.58772E+01 3.55924E+01 0.00000E+00
 -1       835 8.90288E+01 3.51732E+01 0.00000E+00
 -1       836 2.20350E+01 1.18003E+01 0.00000E+00
 -1       837 6.66558E+01 2.01957E+01 0.00000E+00
 -1       838 9.45862E+01 2.94549E+01 0.00000E+00
 -1       839 1.29900E+01 2.49750E+01 0.00000E+00
 -1       840 1.29900E+01 1.61375E+01 0.00000E+00
 -1       841 9.74067E+01 1.76648E+01 0.00000E+00
 -1       842 1.29900E+01 3.37938E+01 0.00000E+00
 -1       843 6.99165E+01 1.29178E+01 0.00000E+00
 -1       844 6.71180E+01 2.49818E+01 0.00000E+00
 -1       845 9.75120E+01 2.16926E+01 0.00000E+00
 -1       846 6.78121E+01 1.54079E+01 0.00000E+00
 -1       847 6.61227E+01 1.83843E+01 0.00000E+00
 -1       848 1.37010E+02 2.20750E+01 0.00000E+00
 -1       849 1.37010E+02 1.91250E+01 0.00000E+00
 -1       850 1.67625E+01 1.12011E+01 0.00000E+00
 -1       851 1.93988E+01 1.15007E+01 0.00000E+00
 -1       852 6.86645E+01 3.13200E+01 0.00000E+00
 -1       853 7.09031E+01 3.39809E+01 0.00000E+00
 -1       854 1.37141E+02 1.66331E+01 0.00000E+00
 -1       855 1.29900E+01 1.90875E+01 0.00000E+00
 -1       856 6.82730E+01 2.79858E+01 0.00000E+00
 -1       857 9.68054E+01 2.51234E+01 0.00000E+00
 -1       858 1.29900E+01 3.08563E+01 0.00000E+00
 -1       859 1.36637E+02 3.55285E+01 0.00000E+00
 -1       860 6.60028E+01 2.17194E+01 0.00000E+00
 -1       861 2.11500E+01 3.44120E+01 0.00000E+00
 -1       862 2.41500E+01 3.44120E+01 0.00000E+00
 -1       863 2.71500E+01 3.44120E+01 0.00000E+00
 -1       864 3.01500E+01 3.44120E+01 0.00000E+00
 -1       865 3.31500E+01 3.44120E+01 0.00000E+00
 -1       866 3.61500E+01 3.44120E+01 0.00000E+00
 -1       867 3.91500E+01 3.44120E+01 0.00000E+00
 -1       868 4.21500E+01 3.44120E+01 0.00000E+00
 -1       869 4.51500E+01 3.44120E+01 0.00000E+00
 -1       870 4.81500E+01 3.44120E+01 0.00000E+00
 -1       871 5.11500E+01 3.44120E+01 0.00000E+00
 -1       872 5.41500E+01 3.44120E+01 0.00000E+00
 -1       873 5.71500E+01 3.44120E+01 0.00000E+00
 -1       874 6.01500E+01 3.44120E+01 0.00000E+00
 -1       875 6.31500E+01 3.44120E+01 0.00000E+00
 -1       876 6.61500E+01 3.44120E+01 0.00000E+00
 -1       877 1.34412E+02 2.64750E+01 0.00000E+00
 -1       878 9.91500E+01 3.44120E+01 0.00000E+00
 -1       879 1.02150E+02 3.44120E+01 0.00000E+00
 -1       880 1.05150E+02 3.44120E+01 0.00000E+00
 -1       881 1.08150E+02 3.44120E+01 0.00000E+00
 -1       882 1.11150E+02 3.44120E+01 0.00000E+00
 -1       883 1.14150E+02 3.44120E+01 0.00000E+00
 -1       884 1.17150E+02 3.44120E+01 0.00000E+00
 -1       885 1.20150E+02 3.44120E+01 0.00000E+00
 -1       886 1.23150E+02 3.44120E+01 0.00000E+00
 -1       887 1.26150E+02 3.44120E+01 0.00000E+00
 -1       888 1.29150E+02 3.44120E+01 0.00000E+00
 -1       889 1.32150E+02 3.44120E+01 0.00000E+00
 -1       890 3.25350E+01 1.43982E+01 0.00000E+00
 -1       891 4.45350E+01 1.43982E+01 0.00000E+00
 -1       892 4.15350E+01 1.43982E+01 0.00000E+00
 -1       893 5.05350E+01 1.43982E+01 0.00000E+00
 -1       894 5.35350E+01 1.43982E+01 0.00000E+00
 -1       895 5.65350E+01 1.43982E+01 0.00000E+00
 -1       896 5.95350E+01 1.43982E+01 0.00000E+00
 -1       897 6.25350E+01 1.43982E+01 0.00000E+00
 -1       898 6.86261E+01 1.22700E+01 0.00000E+00
 -1       899 1.04535E+02 1.43532E+01 0.00000E+00
 -1       900 1.01535E+02 1.43532E+01 0.00000E+00
 -1       901 1.44274E+01 3.46401E+01 0.00000E+00
 -1       902 9.85350E+01 1.43532E+01 0.00000E+00
 -1       903 1.07535E+02 1.43532E+01 0.00000E+00
 -1       904 1.10535E+02 1.43532E+01 0.00000E+00
 -1       905 1.13535E+02 1.43532E+01 0.00000E+00
 -1       906 1.16535E+02 1.43532E+01 0.00000E+00
 -1       907 1.19535E+02 1.43532E+01 0.00000E+00
 -1       908 1.22535E+02 1.43532E+01 0.00000E+00
 -1       909 1.25535E+02 1.43532E+01 0.00000E+00
 -1       910 1.28535E+02 1.43532E+01 0.00000E+00
 -1       911 1.31535E+02 1.43532E+01 0.00000E+00
 -1       912 1.34535E+02 1.43532E+01 0.00000E+00
 -1       913 9.68176E+01 2.82600E+01 0.00000E+00
 -1       914 2.35350E+01 1.43982E+01 0.00000E+00
 -1       915 2.95350E+01 1.43982E+01 0.00000E+00
 -1       916 2.65350E+01 1.43982E+01 0.00000E+00
 -1       917 1.29900E+01 2.79188E+01 0.00000E+00
 -1       918 1.37547E+02 1.44219E+01 0.00000E+00
 -1       919 1.59900E+01 1.32000E+01 0.00000E+00
 -1       920 4.75350E+01 1.43982E+01 0.00000E+00
 -1       921 9.58708E+01 3.23466E+01 0.00000E+00
 -1       922 1.81500E+01 3.44120E+01 0.00000E+00
 -1       923 9.86394E+01 1.94085E+01 0.00000E+00
 -1       924 1.34412E+02 2.94250E+01 0.00000E+00
 -1       925 1.55880E+01 2.05562E+01 0.00000E+00
 -1       926 6.42908E+01 2.00839E+01 0.00000E+00
 -1       927 6.63198E+01 2.70255E+01 0.00000E+00
 -1       928 1.34394E+02 3.49702E+01 0.00000E+00
 -1       929 3.55350E+01 1.43982E+01 0.00000E+00
 -1       930 6.55837E+01 1.63189E+01 0.00000E+00
 -1       931 3.85350E+01 1.43982E+01 0.00000E+00
 -1       932 2.05351E+01 1.43983E+01 0.00000E+00
 -1       933 1.34412E+02 2.35250E+01 0.00000E+00
 -1       934 1.34412E+02 2.05750E+01 0.00000E+00
 -1       935 6.53007E+01 2.34028E+01 0.00000E+00
 -1       936 1.55880E+01 2.35063E+01 0.00000E+00
 -1       937 9.81021E+01 3.11516E+01 0.00000E+00
 -1       938 1.34543E+02 1.80831E+01 0.00000E+00
 -1       939 6.72500E+01 3.04567E+01 0.00000E+00
 -1       940 1.44274E+01 3.17026E+01 0.00000E+00
 -1       941 9.86728E+01 2.35168E+01 0.00000E+00
 -1       942 2.26500E+01 3.18140E+01 0.00000E+00
 -1       943 2.56500E+01 3.18140E+01 0.00000E+00
 -1       944 2.86500E+01 3.18140E+01 0.00000E+00
 -1       945 3.16500E+01 3.18140E+01 0.00000E+00
 -1       946 3.46500E+01 3.18140E+01 0.00000E+00
 -1       947 3.76500E+01 3.18140E+01 0.00000E+00
 -1       948 4.06500E+01 3.18140E+01 0.00000E+00
 -1       949 4.36500E+01 3.18140E+01 0.00000E+00
 -1       950 4.66500E+01 3.18140E+01 0.00000E+00
 -1       951 4.96500E+01 3.18140E+01 0.00000E+00
 -1       952 5.26500E+01 3.18140E+01 0.00000E+00
 -1       953 5.56500E+01 3.18140E+01 0.00000E+00
 -1       954 5.86500E+01 3.18140E+01 0.00000E+00
 -1       955 6.16500E+01 3.18140E+01 0.00000E+00
 -1       956 6.46500E+01 3.18140E+01 0.00000E+00
 -1       957 5.80350E+01 1.69963E+01 0.00000E+00
 -1       958 1.55880E+01 1.76063E+01 0.00000E+00
 -1       959 4.30350E+01 1.69963E+01 0.00000E+00
 -1       960 1.01102E+02 3.11516E+01 0.00000E+00
 -1       961 1.04102E+02 3.11516E+01 0.00000E+00
 -1       962 1.07102E+02 3.11516E+01 0.00000E+00
 -1       963 1.10102E+02 3.11516E+01 0.00000E+00
 -1       964 1.13102E+02 3.11516E+01 0.00000E+00
 -1       965 1.16102E+02 3.11516E+01 0.00000E+00
 -1       966 1.19102E+02 3.11516E+01 0.00000E+00
 -1       967 1.22102E+02 3.11516E+01 0.00000E+00
 -1       968 1.25102E+02 3.11516E+01 0.00000E+00
 -1       969 1.28102E+02 3.11516E+01 0.00000E+00
 -1       970 1.31102E+02 3.11516E+01 0.00000E+00
 -1       971 6.37518E+01 1.80185E+01 0.00000E+00
 -1       972 2.20351E+01 1.69963E+01 0.00000E+00
 -1       973 5.50350E+01 1.69963E+01 0.00000E+00
 -1       974 5.20350E+01 1.69963E+01 0.00000E+00
 -1       975 6.10350E+01 1.69963E+01 0.00000E+00
 -1       976 1.09035E+02 1.69512E+01 0.00000E+00
 -1       977 1.12035E+02 1.69512E+01 0.00000E+00
 -1       978 1.15035E+02 1.69512E+01 0.00000E+00
 -1       979 1.18035E+02 1.69512E+01 0.00000E+00
 -1       980 1.21035E+02 1.69512E+01 0.00000E+00
 -1       981 1.24035E+02 1.69512E+01 0.00000E+00
 -1       982 1.27035E+02 1.69512E+01 0.00000E+00
 -1       983 1.30035E+02 1.69512E+01 0.00000E+00
 -1       984 1.00087E+02 1.68808E+01 0.00000E+00
 -1       985 1.82625E+01 1.37991E+01 0.00000E+00
 -1       986 2.50351E+01 1.69963E+01 0.00000E+00
 -1       987 1.03087E+02 1.68808E+01 0.00000E+00
 -1       988 3.10350E+01 1.69963E+01 0.00000E+00
 -1       989 1.44274E+01 2.87651E+01 0.00000E+00
 -1       990 1.06061E+02 1.69160E+01 0.00000E+00
 -1       991 1.34056E+02 3.24883E+01 0.00000E+00
 -1       992 2.80350E+01 1.69963E+01 0.00000E+00
 -1       993 6.35887E+01 2.17674E+01 0.00000E+00
 -1       994 1.55880E+01 2.64500E+01 0.00000E+00
 -1       995 9.90293E+01 2.66831E+01 0.00000E+00
 -1       996 1.96500E+01 3.18140E+01 0.00000E+00
 -1       997 1.87365E+01 1.66109E+01 0.00000E+00
 -1       998 1.31814E+02 2.79500E+01 0.00000E+00
 -1       999 1.81860E+01 1.90812E+01 0.00000E+00
 -1      1000 4.60350E+01 1.69963E+01 0.00000E+00
 -1      1001 6.45025E+01 2.54465E+01 0.00000E+00
 -1      1002 3.40350E+01 1.69963E+01 0.00000E+00
 -1      1003 6.15740E+01 1.90617E+01 0.00000E+00
 -1      1004 1.31814E+02 2.50000E+01 0.00000E+00
 -1      1005 4.00350E+01 1.69963E+01 0.00000E+00
 -1      1006 1.00066E+02 2.89174E+01 0.00000E+00
 -1      1007 1.31814E+02 2.20500E+01 0.00000E+00
 -1      1008 1.81860E+01 2.20313E+01 0.00000E+00
 -1      1009 6.81657E+01 3.36319E+01 0.00000E+00
 -1      1010 1.30924E+02 1.95006E+01 0.00000E+00
 -1      1011 9.98001E+01 2.12327E+01 0.00000E+00
 -1      1012 4.90350E+01 1.69963E+01 0.00000E+00
 -1      1013 1.70387E+01 3.02895E+01 0.00000E+00
 -1      1014 6.06681E+01 2.18392E+01 0.00000E+00
 -1      1015 6.39849E+01 2.94197E+01 0.00000E+00
 -1      1016 2.71500E+01 2.92160E+01 0.00000E+00
 -1      1017 3.01500E+01 2.92160E+01 0.00000E+00
 -1      1018 3.31500E+01 2.92160E+01 0.00000E+00
 -1      1019 3.61500E+01 2.92160E+01 0.00000E+00
 -1      1020 3.91500E+01 2.92160E+01 0.00000E+00
 -1      1021 4.21500E+01 2.92160E+01 0.00000E+00
 -1      1022 4.51500E+01 2.92160E+01 0.00000E+00
 -1      1023 4.81500E+01 2.92160E+01 0.00000E+00
 -1      1024 5.11500E+01 2.92160E+01 0.00000E+00
 -1      1025 5.41500E+01 2.92160E+01 0.00000E+00
 -1      1026 5.71500E+01 2.92160E+01 0.00000E+00
 -1      1027 6.01500E+01 2.92160E+01 0.00000E+00
 -1      1028 2.14846E+01 1.94666E+01 0.00000E+00
 -1      1029 2.44846E+01 1.94666E+01 0.00000E+00
 -1      1030 1.03066E+02 2.89174E+01 0.00000E+00
 -1      1031 1.06066E+02 2.89174E+01 0.00000E+00
 -1      1032 1.09066E+02 2.89174E+01 0.00000E+00
 -1      1033 1.12066E+02 2.89174E+01 0.00000E+00
 -1      1034 1.15066E+02 2.89174E+01 0.00000E+00
 -1      1035 1.18066E+02 2.89174E+01 0.00000E+00
 -1      1036 1.21066E+02 2.89174E+01 0.00000E+00
 -1      1037 1.24066E+02 2.89174E+01 0.00000E+00
 -1      1038 1.27066E+02 2.89174E+01 0.00000E+00
 -1      1039 1.29440E+02 2.84337E+01 0.00000E+00
 -1      1040 1.81993E+01 2.79745E+01 0.00000E+00
 -1      1041 1.13535E+02 1.95492E+01 0.00000E+00
 -1      1042 5.85740E+01 1.90617E+01 0.00000E+00
 -1      1043 5.35350E+01 1.95942E+01 0.00000E+00
 -1      1044 1.16535E+02 1.95492E+01 0.00000E+00
 -1      1045 1.10535E+02 1.95492E+01 0.00000E+00
 -1      1046 1.19535E+02 1.95492E+01 0.00000E+00
 -1      1047 1.22535E+02 1.95492E+01 0.00000E+00
 -1      1048 1.25535E+02 1.95492E+01 0.00000E+00
 -1      1049 1.28230E+02 1.95249E+01 0.00000E+00
 -1      1050 1.01444E+02 1.90568E+01 0.00000E+00
 -1      1051 6.27905E+01 2.38111E+01 0.00000E+00
 -1      1052 3.70350E+01 1.69963E+01 0.00000E+00
 -1      1053 5.60545E+01 1.93280E+01 0.00000E+00
 -1      1054 1.81860E+01 2.49750E+01 0.00000E+00
 -1      1055 2.41500E+01 2.92160E+01 0.00000E+00
 -1      1056 2.11500E+01 2.92160E+01 0.00000E+00
 -1      1057 5.05350E+01 1.95942E+01 0.00000E+00
 -1      1058 1.01388E+02 2.48143E+01 0.00000E+00
 -1      1059 2.74845E+01 1.94666E+01 0.00000E+00
 -1      1060 4.45350E+01 1.95942E+01 0.00000E+00
 -1      1061 1.29440E+02 2.54837E+01 0.00000E+00
 -1      1062 4.15350E+01 1.95942E+01 0.00000E+00
 -1      1063 1.07561E+02 1.95140E+01 0.00000E+00
 -1      1064 1.02227E+02 2.68658E+01 0.00000E+00
 -1      1065 1.29440E+02 2.25337E+01 0.00000E+00
 -1      1066 3.25350E+01 1.95942E+01 0.00000E+00
 -1      1067 3.00098E+01 1.95304E+01 0.00000E+00
 -1      1068 1.04587E+02 1.94788E+01 0.00000E+00
 -1      1069 4.75350E+01 1.95942E+01 0.00000E+00
 -1      1070 2.26500E+01 2.66180E+01 0.00000E+00
 -1      1071 2.56500E+01 2.66180E+01 0.00000E+00
 -1      1072 3.16500E+01 2.66180E+01 0.00000E+00
 -1      1073 3.46500E+01 2.66180E+01 0.00000E+00
 -1      1074 3.76500E+01 2.66180E+01 0.00000E+00
 -1      1075 4.06500E+01 2.66180E+01 0.00000E+00
 -1      1076 4.36500E+01 2.66180E+01 0.00000E+00
 -1      1077 4.66500E+01 2.66180E+01 0.00000E+00
 -1      1078 4.96500E+01 2.66180E+01 0.00000E+00
 -1      1079 5.26500E+01 2.66180E+01 0.00000E+00
 -1      1080 5.56500E+01 2.66180E+01 0.00000E+00
 -1      1081 5.86500E+01 2.66180E+01 0.00000E+00
 -1      1082 1.21035E+02 2.21472E+01 0.00000E+00
 -1      1083 3.55350E+01 1.95942E+01 0.00000E+00
 -1      1084 2.14299E+01 2.28000E+01 0.00000E+00
 -1      1085 1.05227E+02 2.68658E+01 0.00000E+00
 -1      1086 1.08227E+02 2.68658E+01 0.00000E+00
 -1      1087 1.11227E+02 2.68658E+01 0.00000E+00
 -1      1088 1.14227E+02 2.68658E+01 0.00000E+00
 -1      1089 1.17227E+02 2.68658E+01 0.00000E+00
 -1      1090 1.20227E+02 2.68658E+01 0.00000E+00
 -1      1091 1.23227E+02 2.68658E+01 0.00000E+00
 -1      1092 1.26227E+02 2.68658E+01 0.00000E+00
 -1      1093 1.27833E+02 2.61748E+01 0.00000E+00
 -1      1094 5.75825E+01 2.19874E+01 0.00000E+00
 -1      1095 1.15035E+02 2.21472E+01 0.00000E+00
 -1      1096 1.12035E+02 2.21472E+01 0.00000E+00
 -1      1097 1.24035E+02 2.21472E+01 0.00000E+00
 -1      1098 6.02197E+01 2.44499E+01 0.00000E+00
 -1      1099 2.44299E+01 2.28000E+01 0.00000E+00
 -1      1100 1.02944E+02 2.16548E+01 0.00000E+00
 -1      1101 2.86500E+01 2.66180E+01 0.00000E+00
 -1      1102 3.85350E+01 1.95942E+01 0.00000E+00
 -1      1103 6.15762E+01 2.60323E+01 0.00000E+00
 -1      1104 1.18035E+02 2.21472E+01 0.00000E+00
 -1      1105 5.20350E+01 2.21922E+01 0.00000E+00
 -1      1106 2.04180E+01 2.57965E+01 0.00000E+00
 -1      1107 1.04497E+02 2.43822E+01 0.00000E+00
 -1      1108 1.06043E+02 2.20943E+01 0.00000E+00
 -1      1109 1.27833E+02 2.32248E+01 0.00000E+00
 -1      1110 4.30350E+01 2.21922E+01 0.00000E+00
 -1      1111 1.09017E+02 2.21294E+01 0.00000E+00
 -1      1112 2.74299E+01 2.28000E+01 0.00000E+00
 -1      1113 4.90350E+01 2.21922E+01 0.00000E+00
 -1      1114 3.12068E+01 2.21595E+01 0.00000E+00
 -1      1115 5.48088E+01 2.20898E+01 0.00000E+00
 -1      1116 3.42068E+01 2.21595E+01 0.00000E+00
 -1      1117 4.60350E+01 2.21922E+01 0.00000E+00
 -1      1118 1.16535E+02 2.47452E+01 0.00000E+00
 -1      1119 3.61500E+01 2.40200E+01 0.00000E+00
 -1      1120 3.91500E+01 2.40200E+01 0.00000E+00
 -1      1121 1.09727E+02 2.42678E+01 0.00000E+00
 -1      1122 1.19535E+02 2.47452E+01 0.00000E+00
 -1      1123 1.22535E+02 2.47452E+01 0.00000E+00
 -1      1124 1.07122E+02 2.44976E+01 0.00000E+00
 -1      1125 3.01500E+01 2.40200E+01 0.00000E+00
 -1      1126 3.31500E+01 2.40200E+01 0.00000E+00
 -1      1127 0.00000E+00 4.85250E+01 0.00000E+00
 -1      1128 0.00000E+00 4.55750E+01 0.00000E+00
 -1      1129 0.00000E+00 4.26250E+01 0.00000E+00
 -1      1130 0.00000E+00 3.96750E+01 0.00000E+00
 -1      1131 0.00000E+00 3.67250E+01 0.00000E+00
 -1      1132 0.00000E+00 3.38000E+01 0.00000E+00
 -1      1133 0.00000E+00 3.08750E+01 0.00000E+00
 -1      1134 0.00000E+00 2.79250E+01 0.00000E+00
 -1      1135 0.00000E+00 2.49750E+01 0.00000E+00
 -1      1136 0.00000E+00 2.20250E+01 0.00000E+00
 -1      1137 0.00000E+00 1.90750E+01 0.00000E+00
 -1      1138 0.00000E+00 1.61500E+01 0.00000E+00
 -1      1139 0.00000E+00 1.32250E+01 0.00000E+00
 -1      1140 0.00000E+00 1.02750E+01 0.00000E+00
 -1      1141 0.00000E+00 7.32500E+00 0.00000E+00
 -1      1142 0.00000E+00 4.37500E+00 0.00000E+00
 -1      1143 0.00000E+00 1.45000E+00 0.00000E+00
 -1      1144 1.57500E+00 5.00000E+01 0.00000E+00
 -1      1145 4.65000E+00 5.00000E+01 0.00000E+00
 -1      1146 7.65000E+00 5.00000E+01 0.00000E+00
 -1      1147 1.06500E+01 5.00000E+01 0.00000E+00
 -1      1148 1.36500E+01 5.00000E+01 0.00000E+00
 -1      1149 1.66500E+01 5.00000E+01 0.00000E+00
 -1      1150 1.96500E+01 5.00000E+01 0.00000E+00
 -1      1151 2.26500E+01 5.00000E+01 0.00000E+00
 -1      1152 2.56500E+01 5.00000E+01 0.00000E+00
 -1      1153 2.86500E+01 5.00000E+01 0.00000E+00
 -1      1154 3.16500E+01 5.00000E+01 0.00000E+00
 -1      1155 3.46500E+01 5.00000E+01 0.00000E+00
 -1      1156 3.76500E+01 5.00000E+01 0.00000E+00
 -1      1157 4.06500E+01 5.00000E+01 0.00000E+00
 -1      1158 4.36500E+01 5.00000E+01 0.00000E+00
 -1      1159 4.66500E+01 5.00000E+01 0.00000E+00
 -1      1160 4.96500E+01 5.00000E+01 0.00000E+00
 -1      1161 5.26500E+01 5.00000E+01 0.00000E+00
 -1      1162 5.56500E+01 5.00000E+01 0.00000E+00
 -1      1163 5.86500E+01 5.00000E+01 0.00000E+00
 -1      1164 6.16500E+01 5.00000E+01 0.00000E+00
 -1      1165 6.46500E+01 5.00000E+01 0.00000E+00
 -1      1166 6.76500E+01 5.00000E+01 0.00000E+00
 -1      1167 7.06500E+01 5.00000E+01 0.00000E+00
 -1      1168 7.36500E+01 5.00000E+01 0.00000E+00
 -1      1169 7.66500E+01 5.00000E+01 0.00000E+00
 -1      1170 7.96500E+01 5.00000E+01 0.00000E+00
 -1      1171 8.26500E+01 5.00000E+01 0.00000E+00
 -1      1172 8.56500E+01 5.00000E+01 0.00000E+00
 -1      1173 8.86500E+01 5.00000E+01 0.00000E+00
 -1      1174 9.16500E+01 5.00000E+01 0.00000E+00
 -1      1175 9.46500E+01 5.00000E+01 0.00000E+00
 -1      1176 9.76500E+01 5.00000E+01 0.00000E+00
 -1      1177 1.00650E+02 5.00000E+01 0.00000E+00
 -1      1178 1.03650E+02 5.00000E+01 0.00000E+00
 -1      1179 1.06650E+02 5.00000E+01 0.00000E+00
 -1      1180 1.09650E+02 5.00000E+01 0.00000E+00
 -1      1181 1.12650E+02 5.00000E+01 0.00000E+00
 -1      1182 1.15650E+02 5.00000E+01 0.00000E+00
 -1      1183 1.18650E+02 5.00000E+01 0.00000E+00
 -1      1184 1.21650E+02 5.00000E+01 0.00000E+00
 -1      1185 1.24650E+02 5.00000E+01 0.00000E+00
 -1      1186 1.27650E+02 5.00000E+01 0.00000E+00
 -1      1187 1.30650E+02 5.00000E+01 0.00000E+00
 -1      1188 1.33650E+02 5.00000E+01 0.00000E+00
 -1      1189 1.36650E+02 5.00000E+01 0.00000E+00
 -1      1190 1.39650E+02 5.00000E+01 0.00000E+00
 -1      1191 1.42650E+02 5.00000E+01 0.00000E+00
 -1      1192 1.45650E+02 5.00000E+01 0.00000E+00
 -1      1193 1.48575E+02 5.00000E+01 0.00000E+00
 -1      1194 1.57500E+00 0.00000E+00 0.00000E+00
 -1      1195 4.65000E+00 0.00000E+00 0.00000E+00
 -1      1196 7.65000E+00 0.00000E+00 0.00000E+00
 -1      1197 1.06500E+01 0.00000E+00 0.00000E+00
 -1      1198 1.36500E+01 0.00000E+00 0.00000E+00
 -1      1199 1.66500E+01 0.00000E+00 0.00000E+00
 -1      1200 1.96500E+01 0.00000E+00 0.00000E+00
 -1      1201 2.26500E+01 0.00000E+00 0.00000E+00
 -1      1202 2.56500E+01 0.00000E+00 0.00000E+00
 -1      1203 2.86500E+01 0.00000E+00 0.00000E+00
 -1      1204 3.16500E+01 0.00000E+00 0.00000E+00
 -1      1205 3.46500E+01 0.00000E+00 0.00000E+00
 -1      1206 3.76500E+01 0.00000E+00 0.00000E+00
 -1      1207 4.06500E+01 0.00000E+00 0.00000E+00
 -1      1208 4.36500E+01 0.00000E+00 0.00000E+00
 -1      1209 4.66500E+01 0.00000E+00 0.00000E+00
 -1      1210 4.96500E+01 0.00000E+00 0.00000E+00
 -1      1211 5.26500E+01 0.00000E+00 0.00000E+00
 -1      1212 5.56500E+01 0.00000E+00 0.00000E+00
 -1      1213 5.86500E+01 0.00000E+00 0.00000E+00
 -1      1214 6.16500E+01 0.00000E+00 0.00000E+00
 -1      1215 6.46500E+01 0.00000E+00 0.00000E+00
 -1      1216 6.76500E+01 0.00000E+00 0.00000E+00
 -1      1217 7.06500E+01 0.00000E+00 0.00000E+00
 -1      1218 7.36500E+01 0.00000E+00 0.00000E+00
 -1      1219 7.66500E+01 0.00000E+00 0.00000E+00
 -1      1220 7.96500E+01 0.00000E+00 0.00000E+00
 -1      1221 8.26500E+01 0.00000E+00 0.00000E+00
 -1      1222 8.56500E+01 0.00000E+00 0.00000E+00
 -1      1223 8.86500E+01 0.00000E+00 0.00000E+00
 -1      1224 9.16500E+01 0.00000E+00 0.00000E+00
 -1      1225 9.46500E+01 0.00000E+00 0.00000E+00
 -1      1226 9.76500E+01 0.00000E+00 0.00000E+00
 -1      1227 1.00650E+02 0.00000E+00 0.00000E+00
 -1      1228 1.03650E+02 0.00000E+00 0.00000E+00
 -1      1229 1.06650E+02 0.00000E+00 0.00000E+00
 -1      1230 1.09650E+02 0.00000E+00 0.00000E+00
 -1      1231 1.12650E+02 0.00000E+00 0.00000E+00
 -1      1232 1.15650E+02 0.00000E+00 0.00000E+00
 -1      1233 1.18650E+02 0.00000E+00 0.00000E+00
 -1      1234 1.21650E+02 0.00000E+00 0.00000E+00
 -1      1235 1.24650E+02 0.00000E+00 0.00000E+00
 -1      1236 1.27650E+02 0.00000E+00 0.00000E+00
 -1      1237 1.30650E+02 0.00000E+00 0.00000E+00
 -1      1238 1.33650E+02 0.00000E+00 0.00000E+00
 -1      1239 1.36650E+02 0.00000E+00 0.00000E+00
 -1      1240 1.39650E+02 0.00000E+00 0.00000E+00
 -1      1241 1.42650E+02 0.00000E+00 0.00000E+00
 -1      1242 1.45650E+02 0.00000E+00 0.00000E+00
 -1      1243 1.48575E+02 0.00000E+00 0.00000E+00
 -1      1244 1.50000E+02 1.47500E+00 0.00000E+00
 -1      1245 1.50000E+02 4.42500E+00 0.00000E+00
 -1      1246 1.50000E+02 7.37500E+00 0.00000E+00
 -1      1247 1.50000E+02 1.03250E+01 0.00000E+00
 -1      1248 1.50000E+02 1.32750E+01 0.00000E+00
 -1      1249 1.50000E+02 1.62000E+01 0.00000E+00
 -1      1250 1.50000E+02 1.91250E+01 0.00000E+00
 -1      1251 1.50000E+02 2.20750E+01 0.00000E+00
 -1      1252 1.50000E+02 2.50250E+01 0.00000E+00
 -1      1253 1.50000E+02 2.79750E+01 0.00000E+00
 -1      1254 1.50000E+02 3.09250E+01 0.00000E+00
 -1      1255 1.50000E+02 3.38500E+01 0.00000E+00
 -1      1256 1.50000E+02 3.67750E+01 0.00000E+00
 -1      1257 1.50000E+02 3.97250E+01 0.00000E+00
 -1      1258 1.50000E+02 4.26750E+01 0.00000E+00
 -1      1259 1.50000E+02 4.56250E+01 0.00000E+00
 -1      1260 1.50000E+02 4.85500E+01 0.00000E+00
 -1      1261 8.82252E+01 2.09099E+01 0.00000E+00
 -1      1262 8.78901E+01 1.94338E+01 0.00000E+00
 -1      1263 8.72415E+01 1.80577E+01 0.00000E+00
 -1      1264 8.62774E+01 1.68197E+01 0.00000E+00
 -1      1265 8.51202E+01 1.58655E+01 0.00000E+00
 -1      1266 8.38116E+01 1.51896E+01 0.00000E+00
 -1      1267 8.23414E+01 1.47947E+01 0.00000E+00
 -1      1268 8.06920E+01 1.47364E+01 0.00000E+00
 -1      1269 7.90997E+01 1.50578E+01 0.00000E+00
 -1      1270 7.76213E+01 1.57394E+01 0.00000E+00
 -1      1271 7.63411E+01 1.67432E+01 0.00000E+00
 -1      1272 7.53372E+01 1.79994E+01 0.00000E+00
 -1      1273 7.46380E+01 1.94765E+01 0.00000E+00
 -1      1274 7.43091E+01 2.09861E+01 0.00000E+00
 -1      1275 7.43173E+01 2.25134E+01 0.00000E+00
 -1      1276 7.46523E+01 2.39902E+01 0.00000E+00
 -1      1277 7.52999E+01 2.53650E+01 0.00000E+00
 -1      1278 7.62394E+01 2.65786E+01 0.00000E+00
 -1      1279 7.74221E+01 2.75591E+01 0.00000E+00
 -1      1280 7.87867E+01 2.82566E+01 0.00000E+00
 -1      1281 8.03490E+01 2.86514E+01 0.00000E+00
 -1      1282 8.20435E+01 2.86697E+01 0.00000E+00
 -1      1283 8.36579E+01 2.82930E+01 0.00000E+00
 -1      1284 8.50675E+01 2.75937E+01 0.00000E+00
 -1      1285 8.62268E+01 2.66565E+01 0.00000E+00
 -1      1286 8.71891E+01 2.54514E+01 0.00000E+00
 -1      1287 8.78897E+01 2.39923E+01 0.00000E+00
 -1      1288 8.82309E+01 2.24643E+01 0.00000E+00
 -1      1289 1.57500E+00 4.85250E+01 0.00000E+00
 -1      1290 1.29900E+00 4.48375E+01 0.00000E+00
 -1      1291 1.29900E+00 4.63125E+01 0.00000E+00
 -1      1292 1.29900E+00 4.18875E+01 0.00000E+00
 -1      1293 1.29900E+00 4.33625E+01 0.00000E+00
 -1      1294 2.59800E+00 4.41000E+01 0.00000E+00
 -1      1295 1.29900E+00 3.89375E+01 0.00000E+00
 -1      1296 1.29900E+00 4.04125E+01 0.00000E+00
 -1      1297 2.59800E+00 4.11500E+01 0.00000E+00
 -1      1298 1.29900E+00 3.59875E+01 0.00000E+00
 -1      1299 1.29900E+00 3.74625E+01 0.00000E+00
 -1      1300 2.59800E+00 3.82000E+01 0.00000E+00
 -1      1301 1.29900E+00 3.30875E+01 0.00000E+00
 -1      1302 1.29900E+00 3.45375E+01 0.00000E+00
 -1      1303 2.59800E+00 3.52750E+01 0.00000E+00
 -1      1304 1.29900E+00 3.01375E+01 0.00000E+00
 -1      1305 1.29900E+00 3.16125E+01 0.00000E+00
 -1      1306 2.59800E+00 3.23500E+01 0.00000E+00
 -1      1307 1.29900E+00 2.71875E+01 0.00000E+00
 -1      1308 1.29900E+00 2.86625E+01 0.00000E+00
 -1      1309 2.59800E+00 2.94000E+01 0.00000E+00
 -1      1310 1.29900E+00 2.42375E+01 0.00000E+00
 -1      1311 1.29900E+00 2.57125E+01 0.00000E+00
 -1      1312 2.59800E+00 2.64500E+01 0.00000E+00
 -1      1313 1.29900E+00 2.12875E+01 0.00000E+00
 -1      1314 1.29900E+00 2.27625E+01 0.00000E+00
 -1      1315 2.59800E+00 2.35000E+01 0.00000E+00
 -1      1316 1.29900E+00 1.83375E+01 0.00000E+00
 -1      1317 1.29900E+00 1.98125E+01 0.00000E+00
 -1      1318 2.59800E+00 2.05500E+01 0.00000E+00
 -1      1319 1.29900E+00 1.54375E+01 0.00000E+00
 -1      1320 1.29900E+00 1.68875E+01 0.00000E+00
 -1      1321 2.59800E+00 1.76250E+01 0.00000E+00
 -1      1322 1.29900E+00 1.24875E+01 0.00000E+00
 -1      1323 1.29900E+00 1.39625E+01 0.00000E+00
 -1      1324 2.59800E+00 1.47000E+01 0.00000E+00
 -1      1325 1.29900E+00 9.53750E+00 0.00000E+00
 -1      1326 1.29900E+00 1.10125E+01 0.00000E+00
 -1      1327 2.59800E+00 1.17500E+01 0.00000E+00
 -1      1328 1.29900E+00 6.58750E+00 0.00000E+00
 -1      1329 1.29900E+00 8.06250E+00 0.00000E+00
 -1      1330 2.59800E+00 8.80000E+00 0.00000E+00
 -1      1331 1.29900E+00 3.63750E+00 0.00000E+00
 -1      1332 1.29900E+00 5.11250E+00 0.00000E+00
 -1      1333 2.59800E+00 5.85000E+00 0.00000E+00
 -1      1334 1.43700E+00 1.09375E+00 0.00000E+00
 -1      1335 1.43700E+00 2.54375E+00 0.00000E+00
 -1      1336 2.73600E+00 3.28125E+00 0.00000E+00
 -1      1337 3.01200E+00 1.09375E+00 0.00000E+00
 -1      1338 3.90000E+00 4.87010E+01 0.00000E+00
 -1      1339 5.40000E+00 4.87010E+01 0.00000E+00
 -1      1340 6.90000E+00 4.87010E+01 0.00000E+00
 -1      1341 8.40000E+00 4.87010E+01 0.00000E+00
 -1      1342 6.15000E+00 4.74020E+01 0.00000E+00
 -1      1343 9.90000E+00 4.87010E+01 0.00000E+00
 -1      1344 1.14000E+01 4.87010E+01 0.00000E+00
 -1      1345 9.15000E+00 4.74020E+01 0.00000E+00
 -1      1346 1.29000E+01 4.87010E+01 0.00000E+00
 -1      1347 1.44000E+01 4.87010E+01 0.00000E+00
 -1      1348 1.21500E+01 4.74020E+01 0.00000E+00
 -1      1349 1.59000E+01 4.87010E+01 0.00000E+00
 -1      1350 1.74000E+01 4.87010E+01 0.00000E+00
 -1      1351 1.51500E+01 4.74020E+01 0.00000E+00
 -1      1352 1.89000E+01 4.87010E+01 0.00000E+00
 -1      1353 2.04000E+01 4.87010E+01 0.00000E+00
 -1      1354 1.81500E+01 4.74020E+01 0.00000E+00
 -1      1355 2.19000E+01 4.87010E+01 0.00000E+00
 -1      1356 2.34000E+01 4.87010E+01 0.00000E+00
 -1      1357 2.11500E+01 4.74020E+01 0.00000E+00
 -1      1358 2.49000E+01 4.87010E+01 0.00000E+00
 -1      1359 2.64000E+01 4.87010E+01 0.00000E+00
 -1      1360 2.41500E+01 4.74020E+01 0.00000E+00
 -1      1361 2.79000E+01 4.87010E+01 0.00000E+00
 -1      1362 2.94000E+01 4.87010E+01 0.00000E+00
 -1      1363 2.71500E+01 4.74020E+01 0.00000E+00
 -1      1364 3.09000E+01 4.87010E+01 0.00000E+00
 -1      1365 3.24000E+01 4.87010E+01 0.00000E+00
 -1      1366 3.01500E+01 4.74020E+01 0.00000E+00
 -1      1367 3.39000E+01 4.87010E+01 0.00000E+00
 -1      1368 3.54000E+01 4.87010E+01 0.00000E+00
 -1      1369 3.31500E+01 4.74020E+01 0.00000E+00
 -1      1370 3.69000E+01 4.87010E+01 0.00000E+00
 -1      1371 3.84000E+01 4.87010E+01 0.00000E+00
 -1      1372 3.61500E+01 4.74020E+01 0.00000E+00
 -1      1373 3.99000E+01 4.87010E+01 0.00000E+00
 -1      1374 4.14000E+01 4.87010E+01 0.00000E+00
 -1      1375 3.91500E+01 4.74020E+01 0.00000E+00
 -1      1376 4.29000E+01 4.87010E+01 0.00000E+00
 -1      1377 4.44000E+01 4.87010E+01 0.00000E+00
 -1      1378 4.21500E+01 4.74020E+01 0.00000E+00
 -1      1379 4.59000E+01 4.87010E+01 0.00000E+00
 -1      1380 4.74000E+01 4.87010E+01 0.00000E+00
 -1      1381 4.51500E+01 4.74020E+01 0.00000E+00
 -1      1382 4.89000E+01 4.87010E+01 0.00000E+00
 -1      1383 5.04000E+01 4.87010E+01 0.00000E+00
 -1      1384 4.81500E+01 4.74020E+01 0.00000E+00
 -1      1385 5.19000E+01 4.87010E+01 0.00000E+00
 -1      1386 5.34000E+01 4.87010E+01 0.00000E+00
 -1      1387 5.11500E+01 4.74020E+01 0.00000E+00
 -1      1388 5.49000E+01 4.87010E+01 0.00000E+00
 -1      1389 5.64000E+01 4.87010E+01 0.00000E+00
 -1      1390 5.41500E+01 4.74020E+01 0.00000E+00
 -1      1391 5.79000E+01 4.87010E+01 0.00000E+00
 -1      1392 5.94000E+01 4.87010E+01 0.00000E+00
 -1      1393 5.71500E+01 4.74020E+01 0.00000E+00
 -1      1394 6.09000E+01 4.87010E+01 0.00000E+00
 -1      1395 6.24000E+01 4.87010E+01 0.00000E+00
 -1      1396 6.01500E+01 4.74020E+01 0.00000E+00
 -1      1397 6.39000E+01 4.87010E+01 0.00000E+00
 -1      1398 6.54000E+01 4.87010E+01 0.00000E+00
 -1      1399 6.31500E+01 4.74020E+01 0.00000E+00
 -1      1400 6.69000E+01 4.87010E+01 0.00000E+00
 -1      1401 6.84000E+01 4.87010E+01 0.00000E+00
 -1      1402 6.61500E+01 4.74020E+01 0.00000E+00
 -1      1403 6.99000E+01 4.87010E+01 0.00000E+00
 -1      1404 7.14000E+01 4.87010E+01 0.00000E+00
 -1      1405 6.91500E+01 4.74020E+01 0.00000E+00
 -1      1406 7.29000E+01 4.87010E+01 0.00000E+00
 -1      1407 7.44000E+01 4.87010E+01 0.00000E+00
 -1      1408 7.21500E+01 4.74020E+01 0.00000E+00
 -1      1409 7.59000E+01 4.87010E+01 0.00000E+00
 -1      1410 7.74000E+01 4.87010E+01 0.00000E+00
 -1      1411 7.51500E+01 4.74020E+01 0.00000E+00
 -1      1412 7.89000E+01 4.87010E+01 0.00000E+00
 -1      1413 8.04000E+01 4.87010E+01 0.00000E+00
 -1      1414 7.81500E+01 4.74020E+01 0.00000E+00
 -1      1415 8.19000E+01 4.87010E+01 0.00000E+00
 -1      1416 8.34000E+01 4.87010E+01 0.00000E+00
 -1      1417 8.11500E+01 4.74020E+01 0.00000E+00
 -1      1418 8.49000E+01 4.87010E+01 0.00000E+00
 -1      1419 8.64000E+01 4.87010E+01 0.00000E+00
 -1      1420 8.41500E+01 4.74020E+01 0.00000E+00
 -1      1421 8.79000E+01 4.87010E+01 0.00000E+00
 -1      1422 8.94000E+01 4.87010E+01 0.00000E+00
 -1      1423 8.71500E+01 4.74020E+01 0.00000E+00
 -1      1424 9.09000E+01 4.87010E+01 0.00000E+00
 -1      1425 9.24000E+01 4.87010E+01 0.00000E+00
 -1      1426 9.01500E+01 4.74020E+01 0.00000E+00
 -1      1427 9.39000E+01 4.87010E+01 0.00000E+00
 -1      1428 9.54000E+01 4.87010E+01 0.00000E+00
 -1      1429 9.31500E+01 4.74020E+01 0.00000E+00
 -1      1430 9.69000E+01 4.87010E+01 0.00000E+00
 -1      1431 9.84000E+01 4.87010E+01 0.00000E+00
 -1      1432 9.61500E+01 4.74020E+01 0.00000E+00
 -1      1433 9.99000E+01 4.87010E+01 0.00000E+00
 -1      1434 1.01400E+02 4.87010E+01 0.00000E+00
 -1      1435 9.91500E+01 4.74020E+01 0.00000E+00
 -1      1436 1.02900E+02 4.87010E+01 0.00000E+00
 -1      1437 1.04400E+02 4.87010E+01 0.00000E+00
 -1      1438 1.02150E+02 4.74020E+01 0.00000E+00
 -1      1439 1.05900E+02 4.87010E+01 0.00000E+00
 -1      1440 1.07400E+02 4.87010E+01 0.00000E+00
 -1      1441 1.05150E+02 4.74020E+01 0.00000E+00
 -1      1442 1.08900E+02 4.87010E+01 0.00000E+00
 -1      1443 1.10400E+02 4.87010E+01 0.00000E+00
 -1      1444 1.08150E+02 4.74020E+01 0.00000E+00
 -1      1445 1.11900E+02 4.87010E+01 0.00000E+00
 -1      1446 1.13400E+02 4.87010E+01 0.00000E+00
 -1      1447 1.11150E+02 4.74020E+01 0.00000E+00
 -1      1448 1.14900E+02 4.87010E+01 0.00000E+00
 -1      1449 1.16400E+02 4.87010E+01 0.00000E+00
 -1      1450 1.14150E+02 4.74020E+01 0.00000E+00
 -1      1451 1.17900E+02 4.87010E+01 0.00000E+00
 -1      1452 1.19400E+02 4.87010E+01 0.00000E+00
 -1      1453 1.17150E+02 4.74020E+01 0.00000E+00
 -1      1454 1.20900E+02 4.87010E+01 0.00000E+00
 -1      1455 1.22400E+02 4.87010E+01 0.00000E+00
 -1      1456 1.20150E+02 4.74020E+01 0.00000E+00
 -1      1457 1.23900E+02 4.87010E+01 0.00000E+00
 -1      1458 1.25400E+02 4.87010E+01 0.00000E+00
 -1      1459 1.23150E+02 4.74020E+01 0.00000E+00
 -1      1460 1.26900E+02 4.87010E+01 0.00000E+00
 -1      1461 1.28400E+02 4.87010E+01 0.00000E+00
 -1      1462 1.26150E+02 4.74020E+01 0.00000E+00
 -1      1463 1.29900E+02 4.87010E+01 0.00000E+00
 -1      1464 1.31400E+02 4.87010E+01 0.00000E+00
 -1      1465 1.29150E+02 4.74020E+01 0.00000E+00
 -1      1466 1.32900E+02 4.87010E+01 0.00000E+00
 -1      1467 1.34400E+02 4.87010E+01 0.00000E+00
 -1      1468 1.32150E+02 4.74020E+01 0.00000E+00
 -1      1469 1.35900E+02 4.87010E+01 0.00000E+00
 -1      1470 1.37400E+02 4.87010E+01 0.00000E+00
 -1      1471 1.35150E+02 4.74020E+01 0.00000E+00
 -1      1472 1.38900E+02 4.87010E+01 0.00000E+00
 -1      1473 1.40400E+02 4.87010E+01 0.00000E+00
 -1      1474 1.38150E+02 4.74020E+01 0.00000E+00
 -1      1475 1.41900E+02 4.87010E+01 0.00000E+00
 -1      1476 1.43400E+02 4.87010E+01 0.00000E+00
 -1      1477 1.41150E+02 4.74020E+01 0.00000E+00
 -1      1478 1.44900E+02 4.87010E+01 0.00000E+00
 -1      1479 1.46400E+02 4.87010E+01 0.00000E+00
 -1      1480 1.44150E+02 4.74020E+01 0.00000E+00
 -1      1481 1.48575E+02 4.85500E+01 0.00000E+00
 -1      1482 1.47825E+02 4.72510E+01 0.00000E+00
 -1      1483 6.01200E+00 1.09375E+00 0.00000E+00
 -1      1484 4.51200E+00 1.09375E+00 0.00000E+00
 -1      1485 4.37400E+00 2.18750E+00 0.00000E+00
 -1      1486 9.01200E+00 1.09375E+00 0.00000E+00
 -1      1487 7.51200E+00 1.09375E+00 0.00000E+00
 -1      1488 7.37400E+00 2.18750E+00 0.00000E+00
 -1      1489 1.20120E+01 1.09375E+00 0.00000E+00
 -1      1490 1.05120E+01 1.09375E+00 0.00000E+00
 -1      1491 1.03740E+01 2.18750E+00 0.00000E+00
 -1      1492 1.50120E+01 1.09375E+00 0.00000E+00
 -1      1493 1.35120E+01 1.09375E+00 0.00000E+00
 -1      1494 1.33740E+01 2.18750E+00 0.00000E+00
 -1      1495 1.80120E+01 1.09375E+00 0.00000E+00
 -1      1496 1.65120E+01 1.09375E+00 0.00000E+00
 -1      1497 1.63740E+01 2.18750E+00 0.00000E+00
 -1      1498 2.10120E+01 1.09375E+00 0.00000E+00
 -1      1499 1.95120E+01 1.09375E+00 0.00000E+00
 -1      1500 1.93740E+01 2.18750E+00 0.00000E+00
 -1      1501 2.40120E+01 1.09375E+00 0.00000E+00
 -1      1502 2.25120E+01 1.09375E+00 0.00000E+00
 -1      1503 2.23740E+01 2.18750E+00 0.00000E+00
 -1      1504 2.70120E+01 1.09375E+00 0.00000E+00
 -1      1505 2.55120E+01 1.09375E+00 0.00000E+00
 -1      1506 2.53740E+01 2.18750E+00 0.00000E+00
 -1      1507 3.00120E+01 1.09375E+00 0.00000E+00
 -1      1508 2.85120E+01 1.09375E+00 0.00000E+00
 -1      1509 2.83740E+01 2.18750E+00 0.00000E+00
 -1      1510 3.30120E+01 1.09375E+00 0.00000E+00
 -1      1511 3.15120E+01 1.09375E+00 0.00000E+00
 -1      1512 3.13740E+01 2.18750E+00 0.00000E+00
 -1      1513 3.60120E+01 1.09375E+00 0.00000E+00
 -1      1514 3.45120E+01 1.09375E+00 0.00000E+00
 -1      1515 3.43740E+01 2.18750E+00 0.00000E+00
 -1      1516 3.90120E+01 1.09375E+00 0.00000E+00
 -1      1517 3.75120E+01 1.09375E+00 0.00000E+00
 -1      1518 3.73740E+01 2.18750E+00 0.00000E+00
 -1      1519 4.20120E+01 1.09375E+00 0.00000E+00
 -1      1520 4.05120E+01 1.09375E+00 0.00000E+00
 -1      1521 4.03740E+01 2.18750E+00 0.00000E+00
 -1      1522 4.50120E+01 1.09375E+00 0.00000E+00
 -1      1523 4.35120E+01 1.09375E+00 0.00000E+00
 -1      1524 4.33740E+01 2.18750E+00 0.00000E+00
 -1      1525 4.80120E+01 1.09375E+00 0.00000E+00
 -1      1526 4.65120E+01 1.09375E+00 0.00000E+00
 -1      1527 4.63740E+01 2.18750E+00 0.00000E+00
 -1      1528 5.10120E+01 1.09375E+00 0.00000E+00
 -1      1529 4.95120E+01 1.09375E+00 0.00000E+00
 -1      1530 4.93740E+01 2.18750E+00 0.00000E+00
 -1      1531 5.40120E+01 1.09375E+00 0.00000E+00
 -1      1532 5.25120E+01 1.09375E+00 0.00000E+00
 -1      1533 5.23740E+01 2.18750E+00 0.00000E+00
 -1      1534 5.70120E+01 1.09375E+00 0.00000E+00
 -1      1535 5.55120E+01 1.09375E+00 0.00000E+00
 -1      1536 5.53740E+01 2.18750E+00 0.00000E+00
 -1      1537 6.00120E+01 1.09375E+00 0.00000E+00
 -1      1538 5.85120E+01 1.09375E+00 0.00000E+00
 -1      1539 5.83740E+01 2.18750E+00 0.00000E+00
 -1      1540 6.30120E+01 1.09375E+00 0.00000E+00
 -1      1541 6.15120E+01 1.09375E+00 0.00000E+00
 -1      1542 6.13740E+01 2.18750E+00 0.00000E+00
 -1      1543 6.60120E+01 1.09375E+00 0.00000E+00
 -1      1544 6.45120E+01 1.09375E+00 0.00000E+00
 -1      1545 6.43740E+01 2.18750E+00 0.00000E+00
 -1      1546 6.90120E+01 1.09375E+00 0.00000E+00
 -1      1547 6.75120E+01 1.09375E+00 0.00000E+00
 -1      1548 6.73740E+01 2.18750E+00 0.00000E+00
 -1      1549 7.20120E+01 1.09375E+00 0.00000E+00
 -1      1550 7.05120E+01 1.09375E+00 0.00000E+00
 -1      1551 7.03740E+01 2.18750E+00 0.00000E+00
 -1      1552 7.50120E+01 1.09375E+00 0.00000E+00
 -1      1553 7.35120E+01 1.09375E+00 0.00000E+00
 -1      1554 7.33740E+01 2.18750E+00 0.00000E+00
 -1      1555 7.80120E+01 1.09375E+00 0.00000E+00
 -1      1556 7.65120E+01 1.09375E+00 0.00000E+00
 -1      1557 7.63740E+01 2.18750E+00 0.00000E+00
 -1      1558 8.10120E+01 1.09375E+00 0.00000E+00
 -1      1559 7.95120E+01 1.09375E+00 0.00000E+00
 -1      1560 7.93740E+01 2.18750E+00 0.00000E+00
 -1      1561 8.40120E+01 1.09375E+00 0.00000E+00
 -1      1562 8.25120E+01 1.09375E+00 0.00000E+00
 -1      1563 8.23740E+01 2.18750E+00 0.00000E+00
 -1      1564 8.70120E+01 1.09375E+00 0.00000E+00
 -1      1565 8.55120E+01 1.09375E+00 0.00000E+00
 -1      1566 8.53740E+01 2.18750E+00 0.00000E+00
 -1      1567 9.00120E+01 1.09375E+00 0.00000E+00
 -1      1568 8.85120E+01 1.09375E+00 0.00000E+00
 -1      1569 8.83740E+01 2.18750E+00 0.00000E+00
 -1      1570 9.30120E+01 1.09375E+00 0.00000E+00
 -1      1571 9.15120E+01 1.09375E+00 0.00000E+00
 -1      1572 9.13740E+01 2.18750E+00 0.00000E+00
 -1      1573 9.60120E+01 1.09375E+00 0.00000E+00
 -1      1574 9.45120E+01 1.09375E+00 0.00000E+00
 -1      1575 9.43740E+01 2.18750E+00 0.00000E+00
 -1      1576 9.90120E+01 1.09375E+00 0.00000E+00
 -1      1577 9.75120E+01 1.09375E+00 0.00000E+00
 -1      1578 9.73740E+01 2.18750E+00 0.00000E+00
 -1      1579 1.02012E+02 1.09375E+00 0.00000E+00
 -1      1580 1.00512E+02 1.09375E+00 0.00000E+00
 -1      1581 1.00374E+02 2.18750E+00 0.00000E+00
 -1      1582 1.05012E+02 1.09375E+00 0.00000E+00
 -1      1583 1.03512E+02 1.09375E+00 0.00000E+00
 -1      1584 1.03374E+02 2.18750E+00 0.00000E+00
 -1      1585 1.08012E+02 1.09375E+00 0.00000E+00
 -1      1586 1.06512E+02 1.09375E+00 0.00000E+00
 -1      1587 1.06374E+02 2.18750E+00 0.00000E+00
 -1      1588 1.11012E+02 1.09375E+00 0.00000E+00
 -1      1589 1.09512E+02 1.09375E+00 0.00000E+00
 -1      1590 1.09374E+02 2.18750E+00 0.00000E+00
 -1      1591 1.14012E+02 1.09375E+00 0.00000E+00
 -1      1592 1.12512E+02 1.09375E+00 0.00000E+00
 -1      1593 1.12374E+02 2.18750E+00 0.00000E+00
 -1      1594 1.17012E+02 1.09375E+00 0.00000E+00
 -1      1595 1.15512E+02 1.09375E+00 0.00000E+00
 -1      1596 1.15374E+02 2.18750E+00 0.00000E+00
 -1      1597 1.20012E+02 1.09375E+00 0.00000E+00
 -1      1598 1.18512E+02 1.09375E+00 0.00000E+00
 -1      1599 1.18374E+02 2.18750E+00 0.00000E+00
 -1      1600 1.23012E+02 1.09375E+00 0.00000E+00
 -1      1601 1.21512E+02 1.09375E+00 0.00000E+00
 -1      1602 1.21374E+02 2.18750E+00 0.00000E+00
 -1      1603 1.26012E+02 1.09375E+00 0.00000E+00
 -1      1604 1.24512E+02 1.09375E+00 0.00000E+00
 -1      1605 1.24374E+02 2.18750E+00 0.00000E+00
 -1      1606 1.29012E+02 1.09375E+00 0.00000E+00
 -1      1607 1.27512E+02 1.09375E+00 0.00000E+00
 -1      1608 1.27374E+02 2.18750E+00 0.00000E+00
 -1      1609 1.32012E+02 1.09375E+00 0.00000E+00
 -1      1610 1.30512E+02 1.09375E+00 0.00000E+00
 -1      1611 1.30374E+02 2.18750E+00 0.00000E+00
 -1      1612 1.35012E+02 1.09375E+00 0.00000E+00
 -1      1613 1.33512E+02 1.09375E+00 0.00000E+00
 -1      1614 1.33374E+02 2.18750E+00 0.00000E+00
 -1      1615 1.38012E+02 1.09375E+00 0.00000E+00
 -1      1616 1.36512E+02 1.09375E+00 0.00000E+00
 -1      1617 1.36374E+02 2.18750E+00 0.00000E+00
 -1      1618 1.41012E+02 1.09375E+00 0.00000E+00
 -1      1619 1.39512E+02 1.09375E+00 0.00000E+00
 -1      1620 1.39374E+02 2.18750E+00 0.00000E+00
 -1      1621 1.44012E+02 1.09375E+00 0.00000E+00
 -1      1622 1.42512E+02 1.09375E+00 0.00000E+00
 -1      1623 1.42374E+02 2.18750E+00 0.00000E+00
 -1      1624 1.47012E+02 1.09375E+00 0.00000E+00
 -1      1625 1.45512E+02 1.09375E+00 0.00000E+00
 -1      1626 1.45374E+02 2.18750E+00 0.00000E+00
 -1      1627 1.48575E+02 1.47500E+00 0.00000E+00
 -1      1628 1.48701E+02 5.16250E+00 0.00000E+00
 -1      1629 1.48701E+02 3.68750E+00 0.00000E+00
 -1      1630 1.48701E+02 8.11250E+00 0.00000E+00
 -1      1631 1.48701E+02 6.63750E+00 0.00000E+00
 -1      1632 1.47402E+02 5.90000E+00 0.00000E+00
 -1      1633 1.48701E+02 1.10625E+01 0.00000E+00
 -1      1634 1.48701E+02 9.58750E+00 0.00000E+00
 -1      1635 1.47402E+02 8.85000E+00 0.00000E+00
 -1      1636 1.48701E+02 1.40125E+01 0.00000E+00
 -1      1637 1.48701E+02 1.25375E+01 0.00000E+00
 -1      1638 1.47402E+02 1.18000E+01 0.00000E+00
 -1      1639 1.48701E+02 1.69125E+01 0.00000E+00
 -1      1640 1.48701E+02 1.54625E+01 0.00000E+00
 -1      1641 1.47402E+02 1.47250E+01 0.00000E+00
 -1      1642 1.48701E+02 1.98625E+01 0.00000E+00
 -1      1643 1.48701E+02 1.83875E+01 0.00000E+00
 -1      1644 1.47402E+02 1.76500E+01 0.00000E+00
 -1      1645 1.48701E+02 2.28125E+01 0.00000E+00
 -1      1646 1.48701E+02 2.13375E+01 0.00000E+00
 -1      1647 1.47402E+02 2.06000E+01 0.00000E+00
 -1      1648 1.48701E+02 2.57625E+01 0.00000E+00
 -1      1649 1.48701E+02 2.42875E+01 0.00000E+00
 -1      1650 1.47402E+02 2.35500E+01 0.00000E+00
 -1      1651 1.48701E+02 2.87125E+01 0.00000E+00
 -1      1652 1.48701E+02 2.72375E+01 0.00000E+00
 -1      1653 1.47402E+02 2.65000E+01 0.00000E+00
 -1      1654 1.48701E+02 3.16625E+01 0.00000E+00
 -1      1655 1.48701E+02 3.01875E+01 0.00000E+00
 -1      1656 1.47402E+02 2.94500E+01 0.00000E+00
 -1      1657 1.48701E+02 3.45625E+01 0.00000E+00
 -1      1658 1.48701E+02 3.31125E+01 0.00000E+00
 -1      1659 1.47402E+02 3.23750E+01 0.00000E+00
 -1      1660 1.48701E+02 3.75125E+01 0.00000E+00
 -1      1661 1.48701E+02 3.60375E+01 0.00000E+00
 -1      1662 1.47402E+02 3.53000E+01 0.00000E+00
 -1      1663 1.48701E+02 4.04625E+01 0.00000E+00
 -1      1664 1.48701E+02 3.89875E+01 0.00000E+00
 -1      1665 1.47402E+02 3.82500E+01 0.00000E+00
 -1      1666 1.48701E+02 4.34125E+01 0.00000E+00
 -1      1667 1.48701E+02 4.19375E+01 0.00000E+00
 -1      1668 1.47402E+02 4.12000E+01 0.00000E+00
 -1      1669 1.48263E+02 4.60692E+01 0.00000E+00
 -1      1670 1.48263E+02 4.45942E+01 0.00000E+00
 -1      1671 1.46964E+02 4.38568E+01 0.00000E+00
 -1      1672 1.46088E+02 4.62202E+01 0.00000E+00
 -1      1673 8.88188E+01 2.04375E+01 0.00000E+00
 -1      1674 8.89108E+01 2.12347E+01 0.00000E+00
 -1      1675 8.83133E+01 1.89120E+01 0.00000E+00
 -1      1676 8.85448E+01 1.95845E+01 0.00000E+00
 -1      1677 8.76499E+01 1.73329E+01 0.00000E+00
 -1      1678 8.80728E+01 1.80237E+01 0.00000E+00
 -1      1679 8.65360E+01 1.60362E+01 0.00000E+00
 -1      1680 8.70666E+01 1.65791E+01 0.00000E+00
 -1      1681 8.51456E+01 1.51534E+01 0.00000E+00
 -1      1682 8.57643E+01 1.55607E+01 0.00000E+00
 -1      1683 8.36766E+01 1.45277E+01 0.00000E+00
 -1      1684 8.43588E+01 1.47934E+01 0.00000E+00
 -1      1685 8.20496E+01 1.40966E+01 0.00000E+00
 -1      1686 8.28305E+01 1.42174E+01 0.00000E+00
 -1      1687 8.02071E+01 1.40956E+01 0.00000E+00
 -1      1688 8.10644E+01 1.40244E+01 0.00000E+00
 -1      1689 7.85614E+01 1.46398E+01 0.00000E+00
 -1      1690 7.92878E+01 1.44028E+01 0.00000E+00
 -1      1691 7.69208E+01 1.54215E+01 0.00000E+00
 -1      1692 7.76580E+01 1.49711E+01 0.00000E+00
 -1      1693 7.56727E+01 1.66112E+01 0.00000E+00
 -1      1694 7.62143E+01 1.60739E+01 0.00000E+00
 -1      1695 7.45716E+01 1.80188E+01 0.00000E+00
 -1      1696 7.50199E+01 1.73024E+01 0.00000E+00
 -1      1697 7.39401E+01 1.96577E+01 0.00000E+00
 -1      1698 7.41922E+01 1.89099E+01 0.00000E+00
 -1      1699 7.37077E+01 2.13033E+01 0.00000E+00
 -1      1700 7.37861E+01 2.05516E+01 0.00000E+00
 -1      1701 7.38016E+01 2.29612E+01 0.00000E+00
 -1      1702 7.37133E+01 2.21947E+01 0.00000E+00
 -1      1703 7.40788E+01 2.45803E+01 0.00000E+00
 -1      1704 7.38372E+01 2.38780E+01 0.00000E+00
 -1      1705 7.49866E+01 2.60120E+01 0.00000E+00
 -1      1706 7.45812E+01 2.53492E+01 0.00000E+00
 -1      1707 7.60665E+01 2.72729E+01 0.00000E+00
 -1      1708 7.55397E+01 2.67282E+01 0.00000E+00
 -1      1709 7.74146E+01 2.82781E+01 0.00000E+00
 -1      1710 7.67645E+01 2.78501E+01 0.00000E+00
 -1      1711 7.89236E+01 2.89583E+01 0.00000E+00
 -1      1712 7.82186E+01 2.86906E+01 0.00000E+00
 -1      1713 8.06898E+01 2.93396E+01 0.00000E+00
 -1      1714 7.98401E+01 2.92267E+01 0.00000E+00
 -1      1715 8.25395E+01 2.93426E+01 0.00000E+00
 -1      1716 8.17072E+01 2.94350E+01 0.00000E+00
 -1      1717 8.42908E+01 2.88353E+01 0.00000E+00
 -1      1718 8.35197E+01 2.91149E+01 0.00000E+00
 -1      1719 8.56907E+01 2.78646E+01 0.00000E+00
 -1      1720 8.50577E+01 2.82731E+01 0.00000E+00
 -1      1721 8.68887E+01 2.67962E+01 0.00000E+00
 -1      1722 8.63679E+01 2.73182E+01 0.00000E+00
 -1      1723 8.79482E+01 2.54549E+01 0.00000E+00
 -1      1724 8.75182E+01 2.61353E+01 0.00000E+00
 -1      1725 8.86297E+01 2.38169E+01 0.00000E+00
 -1      1726 8.83647E+01 2.45862E+01 0.00000E+00
 -1      1727 8.88337E+01 2.21513E+01 0.00000E+00
 -1      1728 8.87529E+01 2.28989E+01 0.00000E+00
 -1      1729 8.65830E+01 1.52913E+01 0.00000E+00
 -1      1730 8.79380E+01 1.65206E+01 0.00000E+00
 -1      1731 1.48437E+02 2.56875E+00 0.00000E+00
 -1      1732 1.47138E+02 3.30625E+00 0.00000E+00
 -1      1733 8.92762E+01 1.99040E+01 0.00000E+00
 -1      1734 8.87618E+01 1.81626E+01 0.00000E+00
 -1      1735 8.94731E+01 2.16736E+01 0.00000E+00
 -1      1736 8.50245E+01 1.44557E+01 0.00000E+00
 -1      1737 8.33916E+01 1.37854E+01 0.00000E+00
 -1      1738 8.15604E+01 1.34029E+01 0.00000E+00
 -1      1739 7.96559E+01 1.36378E+01 0.00000E+00
 -1      1740 7.78331E+01 1.42763E+01 0.00000E+00
 -1      1741 7.62231E+01 1.52599E+01 0.00000E+00
 -1      1742 7.48637E+01 1.66034E+01 0.00000E+00
 -1      1743 7.38314E+01 1.81857E+01 0.00000E+00
 -1      1744 7.32980E+01 1.99707E+01 0.00000E+00
 -1      1745 7.31496E+01 2.17559E+01 0.00000E+00
 -1      1746 7.31908E+01 2.35641E+01 0.00000E+00
 -1      1747 7.37287E+01 2.52499E+01 0.00000E+00
 -1      1748 7.47841E+01 2.67349E+01 0.00000E+00
 -1      1749 7.60352E+01 2.80283E+01 0.00000E+00
 -1      1750 7.75371E+01 2.90179E+01 0.00000E+00
 -1      1751 7.92576E+01 2.96987E+01 0.00000E+00
 -1      1752 8.11914E+01 3.00625E+01 0.00000E+00
 -1      1753 8.31889E+01 2.99302E+01 0.00000E+00
 -1      1754 8.49360E+01 2.91404E+01 0.00000E+00
 -1      1755 8.63802E+01 2.80317E+01 0.00000E+00
 -1      1756 8.76870E+01 2.68245E+01 0.00000E+00
 -1      1757 8.87330E+01 2.52950E+01 0.00000E+00
 -1      1758 8.92728E+01 2.35082E+01 0.00000E+00
 -1      1759 2.87400E+00 4.77875E+01 0.00000E+00
 -1      1760 3.89700E+00 4.04125E+01 0.00000E+00
 -1      1761 3.89700E+00 4.18875E+01 0.00000E+00
 -1      1762 3.89700E+00 4.33625E+01 0.00000E+00
 -1      1763 3.89700E+00 4.48375E+01 0.00000E+00
 -1      1764 5.19600E+00 4.26250E+01 0.00000E+00
 -1      1765 3.89700E+00 3.45500E+01 0.00000E+00
 -1      1766 3.89700E+00 3.60000E+01 0.00000E+00
 -1      1767 3.89700E+00 3.16000E+01 0.00000E+00
 -1      1768 3.89700E+00 3.30750E+01 0.00000E+00
 -1      1769 5.19600E+00 3.38000E+01 0.00000E+00
 -1      1770 3.89700E+00 2.86500E+01 0.00000E+00
 -1      1771 3.89700E+00 3.01250E+01 0.00000E+00
 -1      1772 5.19600E+00 3.08500E+01 0.00000E+00
 -1      1773 3.89700E+00 2.57000E+01 0.00000E+00
 -1      1774 3.89700E+00 2.71750E+01 0.00000E+00
 -1      1775 5.19600E+00 2.79000E+01 0.00000E+00
 -1      1776 3.89700E+00 2.27500E+01 0.00000E+00
 -1      1777 3.89700E+00 2.42250E+01 0.00000E+00
 -1      1778 5.19600E+00 2.49500E+01 0.00000E+00
 -1      1779 3.89700E+00 1.98000E+01 0.00000E+00
 -1      1780 3.89700E+00 2.12750E+01 0.00000E+00
 -1      1781 5.19600E+00 2.20000E+01 0.00000E+00
 -1      1782 3.89700E+00 1.69000E+01 0.00000E+00
 -1      1783 3.89700E+00 1.83500E+01 0.00000E+00
 -1      1784 5.19600E+00 1.90750E+01 0.00000E+00
 -1      1785 3.89700E+00 1.39500E+01 0.00000E+00
 -1      1786 3.89700E+00 1.54250E+01 0.00000E+00
 -1      1787 5.19600E+00 1.61500E+01 0.00000E+00
 -1      1788 3.89700E+00 1.10000E+01 0.00000E+00
 -1      1789 3.89700E+00 1.24750E+01 0.00000E+00
 -1      1790 5.19600E+00 1.32000E+01 0.00000E+00
 -1      1791 3.89700E+00 8.05000E+00 0.00000E+00
 -1      1792 3.89700E+00 9.52500E+00 0.00000E+00
 -1      1793 5.19600E+00 1.02500E+01 0.00000E+00
 -1      1794 3.89700E+00 5.10000E+00 0.00000E+00
 -1      1795 3.89700E+00 6.57500E+00 0.00000E+00
 -1      1796 5.19600E+00 7.30000E+00 0.00000E+00
 -1      1797 4.20450E+00 3.09687E+00 0.00000E+00
 -1      1798 4.06650E+00 4.19063E+00 0.00000E+00
 -1      1799 5.36550E+00 4.91563E+00 0.00000E+00
 -1      1800 5.70450E+00 3.09687E+00 0.00000E+00
 -1      1801 3.62400E+00 4.64885E+01 0.00000E+00
 -1      1802 8.70450E+00 3.09687E+00 0.00000E+00
 -1      1803 7.20450E+00 3.09687E+00 0.00000E+00
 -1      1804 7.03500E+00 4.00625E+00 0.00000E+00
 -1      1805 4.92300E+00 4.57510E+01 0.00000E+00
 -1      1806 8.40000E+00 4.61030E+01 0.00000E+00
 -1      1807 9.90000E+00 4.61030E+01 0.00000E+00
 -1      1808 1.14000E+01 4.61030E+01 0.00000E+00
 -1      1809 1.29000E+01 4.61030E+01 0.00000E+00
 -1      1810 1.06500E+01 4.48040E+01 0.00000E+00
 -1      1811 1.44000E+01 4.61030E+01 0.00000E+00
 -1      1812 1.59000E+01 4.61030E+01 0.00000E+00
 -1      1813 1.36500E+01 4.48040E+01 0.00000E+00
 -1      1814 1.74000E+01 4.61030E+01 0.00000E+00
 -1      1815 1.89000E+01 4.61030E+01 0.00000E+00
 -1      1816 1.66500E+01 4.48040E+01 0.00000E+00
 -1      1817 2.04000E+01 4.61030E+01 0.00000E+00
 -1      1818 2.19000E+01 4.61030E+01 0.00000E+00
 -1      1819 1.96500E+01 4.48040E+01 0.00000E+00
 -1      1820 2.34000E+01 4.61030E+01 0.00000E+00
 -1      1821 2.49000E+01 4.61030E+01 0.00000E+00
 -1      1822 2.26500E+01 4.48040E+01 0.00000E+00
 -1      1823 2.64000E+01 4.61030E+01 0.00000E+00
 -1      1824 2.79000E+01 4.61030E+01 0.00000E+00
 -1      1825 2.56500E+01 4.48040E+01 0.00000E+00
 -1      1826 2.94000E+01 4.61030E+01 0.00000E+00
 -1      1827 3.09000E+01 4.61030E+01 0.00000E+00
 -1      1828 2.86500E+01 4.48040E+01 0.00000E+00
 -1      1829 3.24000E+01 4.61030E+01 0.00000E+00
 -1      1830 3.39000E+01 4.61030E+01 0.00000E+00
 -1      1831 3.16500E+01 4.48040E+01 0.00000E+00
 -1      1832 3.54000E+01 4.61030E+01 0.00000E+00
 -1      1833 3.69000E+01 4.61030E+01 0.00000E+00
 -1      1834 3.46500E+01 4.48040E+01 0.00000E+00
 -1      1835 3.84000E+01 4.61030E+01 0.00000E+00
 -1      1836 3.99000E+01 4.61030E+01 0.00000E+00
 -1      1837 3.76500E+01 4.48040E+01 0.00000E+00
 -1      1838 4.14000E+01 4.61030E+01 0.00000E+00
 -1      1839 4.29000E+01 4.61030E+01 0.00000E+00
 -1      1840 4.06500E+01 4.48040E+01 0.00000E+00
 -1      1841 4.44000E+01 4.61030E+01 0.00000E+00
 -1      1842 4.59000E+01 4.61030E+01 0.00000E+00
 -1      1843 4.36500E+01 4.48040E+01 0.00000E+00
 -1      1844 4.74000E+01 4.61030E+01 0.00000E+00
 -1      1845 4.89000E+01 4.61030E+01 0.00000E+00
 -1      1846 4.66500E+01 4.48040E+01 0.00000E+00
 -1      1847 5.04000E+01 4.61030E+01 0.00000E+00
 -1      1848 5.19000E+01 4.61030E+01 0.00000E+00
 -1      1849 4.96500E+01 4.48040E+01 0.00000E+00
 -1      1850 5.34000E+01 4.61030E+01 0.00000E+00
 -1      1851 5.49000E+01 4.61030E+01 0.00000E+00
 -1      1852 5.26500E+01 4.48040E+01 0.00000E+00
 -1      1853 5.64000E+01 4.61030E+01 0.00000E+00
 -1      1854 5.79000E+01 4.61030E+01 0.00000E+00
 -1      1855 5.56500E+01 4.48040E+01 0.00000E+00
 -1      1856 5.94000E+01 4.61030E+01 0.00000E+00
 -1      1857 6.09000E+01 4.61030E+01 0.00000E+00
 -1      1858 5.86500E+01 4.48040E+01 0.00000E+00
 -1      1859 6.24000E+01 4.61030E+01 0.00000E+00
 -1      1860 6.39000E+01 4.61030E+01 0.00000E+00
 -1      1861 6.16500E+01 4.48040E+01 0.00000E+00
 -1      1862 6.54000E+01 4.61030E+01 0.00000E+00
 -1      1863 6.69000E+01 4.61030E+01 0.00000E+00
 -1      1864 6.46500E+01 4.48040E+01 0.00000E+00
 -1      1865 6.84000E+01 4.61030E+01 0.00000E+00
 -1      1866 6.99000E+01 4.61030E+01 0.00000E+00
 -1      1867 6.76500E+01 4.48040E+01 0.00000E+00
 -1      1868 7.14000E+01 4.61030E+01 0.00000E+00
 -1      1869 7.29000E+01 4.61030E+01 0.00000E+00
 -1      1870 7.06500E+01 4.48040E+01 0.00000E+00
 -1      1871 7.44000E+01 4.61030E+01 0.00000E+00
 -1      1872 7.59000E+01 4.61030E+01 0.00000E+00
 -1      1873 7.36500E+01 4.48040E+01 0.00000E+00
 -1      1874 7.74000E+01 4.61030E+01 0.00000E+00
 -1      1875 7.89000E+01 4.61030E+01 0.00000E+00
 -1      1876 7.66500E+01 4.48040E+01 0.00000E+00
 -1      1877 8.04000E+01 4.61030E+01 0.00000E+00
 -1      1878 8.19000E+01 4.61030E+01 0.00000E+00
 -1      1879 7.96500E+01 4.48040E+01 0.00000E+00
 -1      1880 8.34000E+01 4.61030E+01 0.00000E+00
 -1      1881 8.49000E+01 4.61030E+01 0.00000E+00
 -1      1882 8.26500E+01 4.48040E+01 0.00000E+00
 -1      1883 8.64000E+01 4.61030E+01 0.00000E+00
 -1      1884 8.79000E+01 4.61030E+01 0.00000E+00
 -1      1885 8.56500E+01 4.48040E+01 0.00000E+00
 -1      1886 8.94000E+01 4.61030E+01 0.00000E+00
 -1      1887 9.09000E+01 4.61030E+01 0.00000E+00
 -1      1888 8.86500E+01 4.48040E+01 0.00000E+00
 -1      1889 9.24000E+01 4.61030E+01 0.00000E+00
 -1      1890 9.39000E+01 4.61030E+01 0.00000E+00
 -1      1891 9.16500E+01 4.48040E+01 0.00000E+00
 -1      1892 9.54000E+01 4.61030E+01 0.00000E+00
 -1      1893 9.69000E+01 4.61030E+01 0.00000E+00
 -1      1894 9.46500E+01 4.48040E+01 0.00000E+00
 -1      1895 9.84000E+01 4.61030E+01 0.00000E+00
 -1      1896 9.99000E+01 4.61030E+01 0.00000E+00
 -1      1897 9.76500E+01 4.48040E+01 0.00000E+00
 -1      1898 1.01400E+02 4.61030E+01 0.00000E+00
 -1      1899 1.02900E+02 4.61030E+01 0.00000E+00
 -1      1900 1.00650E+02 4.48040E+01 0.00000E+00
 -1      1901 1.04400E+02 4.61030E+01 0.00000E+00
 -1      1902 1.05900E+02 4.61030E+01 0.00000E+00
 -1      1903 1.03650E+02 4.48040E+01 0.00000E+00
 -1      1904 1.07400E+02 4.61030E+01 0.00000E+00
 -1      1905 1.08900E+02 4.61030E+01 0.00000E+00
 -1      1906 1.06650E+02 4.48040E+01 0.00000E+00
 -1      1907 1.10400E+02 4.61030E+01 0.00000E+00
 -1      1908 1.11900E+02 4.61030E+01 0.00000E+00
 -1      1909 1.09650E+02 4.48040E+01 0.00000E+00
 -1      1910 1.13400E+02 4.61030E+01 0.00000E+00
 -1      1911 1.14900E+02 4.61030E+01 0.00000E+00
 -1      1912 1.12650E+02 4.48040E+01 0.00000E+00
 -1      1913 1.16400E+02 4.61030E+01 0.00000E+00
 -1      1914 1.17900E+02 4.61030E+01 0.00000E+00
 -1      1915 1.15650E+02 4.48040E+01 0.00000E+00
 -1      1916 1.19400E+02 4.61030E+01 0.00000E+00
 -1      1917 1.20900E+02 4.61030E+01 0.00000E+00
 -1      1918 1.18650E+02 4.48040E+01 0.00000E+00
 -1      1919 1.22400E+02 4.61030E+01 0.00000E+00
 -1      1920 1.23900E+02 4.61030E+01 0.00000E+00
 -1      1921 1.21650E+02 4.48040E+01 0.00000E+00
 -1      1922 1.25400E+02 4.61030E+01 0.00000E+00
 -1      1923 1.26900E+02 4.61030E+01 0.00000E+00
 -1      1924 1.24650E+02 4.48040E+01 0.00000E+00
 -1      1925 1.28400E+02 4.61030E+01 0.00000E+00
 -1      1926 1.29900E+02 4.61030E+01 0.00000E+00
 -1      1927 1.27650E+02 4.48040E+01 0.00000E+00
 -1      1928 1.31400E+02 4.61030E+01 0.00000E+00
 -1      1929 1.32900E+02 4.61030E+01 0.00000E+00
 -1      1930 1.30650E+02 4.48040E+01 0.00000E+00
 -1      1931 1.34400E+02 4.61030E+01 0.00000E+00
 -1      1932 1.35900E+02 4.61030E+01 0.00000E+00
 -1      1933 1.33650E+02 4.48040E+01 0.00000E+00
 -1      1934 1.37400E+02 4.61030E+01 0.00000E+00
 -1      1935 1.38900E+02 4.61030E+01 0.00000E+00
 -1      1936 1.36650E+02 4.48040E+01 0.00000E+00
 -1      1937 1.40400E+02 4.61030E+01 0.00000E+00
 -1      1938 1.41900E+02 4.61030E+01 0.00000E+00
 -1      1939 1.39650E+02 4.48040E+01 0.00000E+00
 -1      1940 1.43244E+02 4.61616E+01 0.00000E+00
 -1      1941 1.44744E+02 4.61616E+01 0.00000E+00
 -1      1942 1.45182E+02 4.49799E+01 0.00000E+00
 -1      1943 1.42494E+02 4.48626E+01 0.00000E+00
 -1      1944 1.17045E+01 3.09687E+00 0.00000E+00
 -1      1945 1.02045E+01 3.09687E+00 0.00000E+00
 -1      1946 1.00350E+01 4.00625E+00 0.00000E+00
 -1      1947 1.47045E+01 3.09687E+00 0.00000E+00
 -1      1948 1.32045E+01 3.09687E+00 0.00000E+00
 -1      1949 1.30350E+01 4.00625E+00 0.00000E+00
 -1      1950 1.77045E+01 3.09687E+00 0.00000E+00
 -1      1951 1.62045E+01 3.09687E+00 0.00000E+00
 -1      1952 1.60350E+01 4.00625E+00 0.00000E+00
 -1      1953 2.07045E+01 3.09687E+00 0.00000E+00
 -1      1954 1.92045E+01 3.09687E+00 0.00000E+00
 -1      1955 1.90350E+01 4.00625E+00 0.00000E+00
 -1      1956 2.37045E+01 3.09687E+00 0.00000E+00
 -1      1957 2.22045E+01 3.09687E+00 0.00000E+00
 -1      1958 2.20350E+01 4.00625E+00 0.00000E+00
 -1      1959 2.67045E+01 3.09687E+00 0.00000E+00
 -1      1960 2.52045E+01 3.09687E+00 0.00000E+00
 -1      1961 2.50350E+01 4.00625E+00 0.00000E+00
 -1      1962 2.97045E+01 3.09687E+00 0.00000E+00
 -1      1963 2.82045E+01 3.09687E+00 0.00000E+00
 -1      1964 2.80350E+01 4.00625E+00 0.00000E+00
 -1      1965 3.27045E+01 3.09687E+00 0.00000E+00
 -1      1966 3.12045E+01 3.09687E+00 0.00000E+00
 -1      1967 3.10350E+01 4.00625E+00 0.00000E+00
 -1      1968 3.57045E+01 3.09687E+00 0.00000E+00
 -1      1969 3.42045E+01 3.09687E+00 0.00000E+00
 -1      1970 3.40350E+01 4.00625E+00 0.00000E+00
 -1      1971 3.87045E+01 3.09687E+00 0.00000E+00
 -1      1972 3.72045E+01 3.09687E+00 0.00000E+00
 -1      1973 3.70350E+01 4.00625E+00 0.00000E+00
 -1      1974 4.17045E+01 3.09687E+00 0.00000E+00
 -1      1975 4.02045E+01 3.09687E+00 0.00000E+00
 -1      1976 4.00350E+01 4.00625E+00 0.00000E+00
 -1      1977 4.47045E+01 3.09687E+00 0.00000E+00
 -1      1978 4.32045E+01 3.09687E+00 0.00000E+00
 -1      1979 4.30350E+01 4.00625E+00 0.00000E+00
 -1      1980 4.77045E+01 3.09687E+00 0.00000E+00
 -1      1981 4.62045E+01 3.09687E+00 0.00000E+00
 -1      1982 4.60350E+01 4.00625E+00 0.00000E+00
 -1      1983 5.07045E+01 3.09687E+00 0.00000E+00
 -1      1984 4.92045E+01 3.09687E+00 0.00000E+00
 -1      1985 4.90350E+01 4.00625E+00 0.00000E+00
 -1      1986 5.37045E+01 3.09687E+00 0.00000E+00
 -1      1987 5.22045E+01 3.09687E+00 0.00000E+00
 -1      1988 5.20350E+01 4.00625E+00 0.00000E+00
 -1      1989 5.67045E+01 3.09687E+00 0.00000E+00
 -1      1990 5.52045E+01 3.09687E+00 0.00000E+00
 -1      1991 5.50350E+01 4.00625E+00 0.00000E+00
 -1      1992 5.97045E+01 3.09687E+00 0.00000E+00
 -1      1993 5.82045E+01 3.09687E+00 0.00000E+00
 -1      1994 5.80350E+01 4.00625E+00 0.00000E+00
 -1      1995 6.27045E+01 3.09687E+00 0.00000E+00
 -1      1996 6.12045E+01 3.09687E+00 0.00000E+00
 -1      1997 6.10350E+01 4.00625E+00 0.00000E+00
 -1      1998 6.57045E+01 3.09687E+00 0.00000E+00
 -1      1999 6.42045E+01 3.09687E+00 0.00000E+00
 -1      2000 6.40350E+01 4.00625E+00 0.00000E+00
 -1      2001 6.87045E+01 3.09687E+00 0.00000E+00
 -1      2002 6.72045E+01 3.09687E+00 0.00000E+00
 -1      2003 6.70350E+01 4.00625E+00 0.00000E+00
 -1      2004 7.17045E+01 3.09687E+00 0.00000E+00
 -1      2005 7.02045E+01 3.09687E+00 0.00000E+00
 -1      2006 7.00350E+01 4.00625E+00 0.00000E+00
 -1      2007 7.47045E+01 3.09687E+00 0.00000E+00
 -1      2008 7.32045E+01 3.09687E+00 0.00000E+00
 -1      2009 7.30350E+01 4.00625E+00 0.00000E+00
 -1      2010 7.77045E+01 3.09687E+00 0.00000E+00
 -1      2011 7.62045E+01 3.09687E+00 0.00000E+00
 -1      2012 7.60350E+01 4.00625E+00 0.00000E+00
 -1      2013 8.07045E+01 3.09687E+00 0.00000E+00
 -1      2014 7.92045E+01 3.09687E+00 0.00000E+00
 -1      2015 7.90350E+01 4.00625E+00 0.00000E+00
 -1      2016 8.37045E+01 3.09687E+00 0.00000E+00
 -1      2017 8.22045E+01 3.09687E+00 0.00000E+00
 -1      2018 8.20350E+01 4.00625E+00 0.00000E+00
 -1      2019 8.67045E+01 3.09687E+00 0.00000E+00
 -1      2020 8.52045E+01 3.09687E+00 0.00000E+00
 -1      2021 8.50350E+01 4.00625E+00 0.00000E+00
 -1      2022 8.97045E+01 3.09687E+00 0.00000E+00
 -1      2023 8.82045E+01 3.09687E+00 0.00000E+00
 -1      2024 8.80350E+01 4.00625E+00 0.00000E+00
 -1      2025 9.27045E+01 3.09687E+00 0.00000E+00
 -1      2026 9.12045E+01 3.09687E+00 0.00000E+00
 -1      2027 9.10350E+01 4.00625E+00 0.00000E+00
 -1      2028 9.57045E+01 3.09687E+00 0.00000E+00
 -1      2029 9.42045E+01 3.09687E+00 0.00000E+00
 -1      2030 9.40350E+01 4.00625E+00 0.00000E+00
 -1      2031 9.87045E+01 3.09687E+00 0.00000E+00
 -1      2032 9.72045E+01 3.09687E+00 0.00000E+00
 -1      2033 9.70350E+01 4.00625E+00 0.00000E+00
 -1      2034 1.01704E+02 3.09687E+00 0.00000E+00
 -1      2035 1.00204E+02 3.09687E+00 0.00000E+00
 -1      2036 1.00035E+02 4.00625E+00 0.00000E+00
 -1      2037 1.04704E+02 3.09687E+00 0.00000E+00
 -1      2038 1.03204E+02 3.09687E+00 0.00000E+00
 -1      2039 1.03035E+02 4.00625E+00 0.00000E+00
 -1      2040 1.07704E+02 3.09687E+00 0.00000E+00
 -1      2041 1.06204E+02 3.09687E+00 0.00000E+00
 -1      2042 1.06035E+02 4.00625E+00 0.00000E+00
 -1      2043 1.10704E+02 3.09687E+00 0.00000E+00
 -1      2044 1.09204E+02 3.09687E+00 0.00000E+00
 -1      2045 1.09035E+02 4.00625E+00 0.00000E+00
 -1      2046 1.13704E+02 3.09687E+00 0.00000E+00
 -1      2047 1.12204E+02 3.09687E+00 0.00000E+00
 -1      2048 1.12035E+02 4.00625E+00 0.00000E+00
 -1      2049 1.16704E+02 3.09687E+00 0.00000E+00
 -1      2050 1.15204E+02 3.09687E+00 0.00000E+00
 -1      2051 1.15035E+02 4.00625E+00 0.00000E+00
 -1      2052 1.19704E+02 3.09687E+00 0.00000E+00
 -1      2053 1.18204E+02 3.09687E+00 0.00000E+00
 -1      2054 1.18035E+02 4.00625E+00 0.00000E+00
 -1      2055 1.22704E+02 3.09687E+00 0.00000E+00
 -1      2056 1.21204E+02 3.09687E+00 0.00000E+00
 -1      2057 1.21035E+02 4.00625E+00 0.00000E+00
 -1      2058 1.25704E+02 3.09687E+00 0.00000E+00
 -1      2059 1.24204E+02 3.09687E+00 0.00000E+00
 -1      2060 1.24035E+02 4.00625E+00 0.00000E+00
 -1      2061 1.28704E+02 3.09687E+00 0.00000E+00
 -1      2062 1.27204E+02 3.09687E+00 0.00000E+00
 -1      2063 1.27035E+02 4.00625E+00 0.00000E+00
 -1      2064 1.31704E+02 3.09687E+00 0.00000E+00
 -1      2065 1.30204E+02 3.09687E+00 0.00000E+00
 -1      2066 1.30035E+02 4.00625E+00 0.00000E+00
 -1      2067 1.34704E+02 3.09687E+00 0.00000E+00
 -1      2068 1.33204E+02 3.09687E+00 0.00000E+00
 -1      2069 1.33035E+02 4.00625E+00 0.00000E+00
 -1      2070 1.37704E+02 3.09687E+00 0.00000E+00
 -1      2071 1.36204E+02 3.09687E+00 0.00000E+00
 -1      2072 1.36035E+02 4.00625E+00 0.00000E+00
 -1      2073 1.40704E+02 3.09687E+00 0.00000E+00
 -1      2074 1.39204E+02 3.09687E+00 0.00000E+00
 -1      2075 1.39035E+02 4.00625E+00 0.00000E+00
 -1      2076 1.43704E+02 3.09687E+00 0.00000E+00
 -1      2077 1.42204E+02 3.09687E+00 0.00000E+00
 -1      2078 1.42035E+02 4.00625E+00 0.00000E+00
 -1      2079 1.46171E+02 3.20156E+00 0.00000E+00
 -1      2080 1.44671E+02 3.20156E+00 0.00000E+00
 -1      2081 1.44502E+02 4.11094E+00 0.00000E+00
 -1      2082 1.46435E+02 4.32031E+00 0.00000E+00
 -1      2083 1.46103E+02 1.25375E+01 0.00000E+00
 -1      2084 1.46103E+02 1.10625E+01 0.00000E+00
 -1      2085 1.46103E+02 9.58750E+00 0.00000E+00
 -1      2086 1.46103E+02 8.11250E+00 0.00000E+00
 -1      2087 1.44804E+02 1.03250E+01 0.00000E+00
 -1      2088 1.46269E+02 6.95391E+00 0.00000E+00
 -1      2089 1.46269E+02 5.47891E+00 0.00000E+00
 -1      2090 1.45302E+02 5.37422E+00 0.00000E+00
 -1      2091 1.44970E+02 7.69141E+00 0.00000E+00
 -1      2092 1.46103E+02 1.54375E+01 0.00000E+00
 -1      2093 1.46103E+02 1.39875E+01 0.00000E+00
 -1      2094 1.44804E+02 1.32500E+01 0.00000E+00
 -1      2095 1.46103E+02 1.83875E+01 0.00000E+00
 -1      2096 1.46103E+02 1.69125E+01 0.00000E+00
 -1      2097 1.44804E+02 1.61750E+01 0.00000E+00
 -1      2098 1.46103E+02 2.13375E+01 0.00000E+00
 -1      2099 1.46103E+02 1.98625E+01 0.00000E+00
 -1      2100 1.44804E+02 1.91250E+01 0.00000E+00
 -1      2101 1.46103E+02 2.42875E+01 0.00000E+00
 -1      2102 1.46103E+02 2.28125E+01 0.00000E+00
 -1      2103 1.44804E+02 2.20750E+01 0.00000E+00
 -1      2104 1.46103E+02 2.72375E+01 0.00000E+00
 -1      2105 1.46103E+02 2.57625E+01 0.00000E+00
 -1      2106 1.44804E+02 2.50250E+01 0.00000E+00
 -1      2107 1.46103E+02 3.01875E+01 0.00000E+00
 -1      2108 1.46103E+02 2.87125E+01 0.00000E+00
 -1      2109 1.44804E+02 2.79750E+01 0.00000E+00
 -1      2110 1.46103E+02 3.30875E+01 0.00000E+00
 -1      2111 1.46103E+02 3.16375E+01 0.00000E+00
 -1      2112 1.44804E+02 3.09000E+01 0.00000E+00
 -1      2113 1.46103E+02 3.60375E+01 0.00000E+00
 -1      2114 1.46103E+02 3.45625E+01 0.00000E+00
 -1      2115 1.44804E+02 3.38250E+01 0.00000E+00
 -1      2116 1.46103E+02 3.89875E+01 0.00000E+00
 -1      2117 1.46103E+02 3.75125E+01 0.00000E+00
 -1      2118 1.44804E+02 3.67750E+01 0.00000E+00
 -1      2119 1.46103E+02 4.19375E+01 0.00000E+00
 -1      2120 1.46103E+02 4.04625E+01 0.00000E+00
 -1      2121 1.44804E+02 3.97250E+01 0.00000E+00
 -1      2122 8.93076E+01 1.75382E+01 0.00000E+00
 -1      2123 8.95480E+01 1.84265E+01 0.00000E+00
 -1      2124 9.03244E+01 2.12837E+01 0.00000E+00
 -1      2125 9.02473E+01 2.22003E+01 0.00000E+00
 -1      2126 8.98220E+01 1.92795E+01 0.00000E+00
 -1      2127 9.00960E+01 2.01326E+01 0.00000E+00
 -1      2128 9.03678E+01 1.86551E+01 0.00000E+00
 -1      2129 8.81920E+01 1.57214E+01 0.00000E+00
 -1      2130 8.87753E+01 1.64752E+01 0.00000E+00
 -1      2131 8.65592E+01 1.44661E+01 0.00000E+00
 -1      2132 8.73308E+01 1.49417E+01 0.00000E+00
 -1      2133 3.89700E+00 3.74688E+01 0.00000E+00
 -1      2134 3.89700E+00 3.89437E+01 0.00000E+00
 -1      2135 5.19600E+00 3.96813E+01 0.00000E+00
 -1      2136 5.19600E+00 3.67438E+01 0.00000E+00
 -1      2137 8.31917E+01 1.30218E+01 0.00000E+00
 -1      2138 8.40378E+01 1.33321E+01 0.00000E+00
 -1      2139 8.11428E+01 1.23444E+01 0.00000E+00
 -1      2140 8.21280E+01 1.24166E+01 0.00000E+00
 -1      2141 7.89775E+01 1.31370E+01 0.00000E+00
 -1      2142 7.98969E+01 1.28298E+01 0.00000E+00
 -1      2143 7.71438E+01 1.37941E+01 0.00000E+00
 -1      2144 7.80473E+01 1.34628E+01 0.00000E+00
 -1      2145 7.53734E+01 1.50483E+01 0.00000E+00
 -1      2146 7.60799E+01 1.43960E+01 0.00000E+00
 -1      2147 7.40676E+01 1.64307E+01 0.00000E+00
 -1      2148 7.47205E+01 1.57395E+01 0.00000E+00
 -1      2149 7.45773E+01 1.48756E+01 0.00000E+00
 -1      2150 7.28913E+01 1.83117E+01 0.00000E+00
 -1      2151 7.32706E+01 1.74206E+01 0.00000E+00
 -1      2152 7.25823E+01 2.03075E+01 0.00000E+00
 -1      2153 7.27363E+01 1.94137E+01 0.00000E+00
 -1      2154 7.24625E+01 2.22060E+01 0.00000E+00
 -1      2155 7.24568E+01 2.13146E+01 0.00000E+00
 -1      2156 7.25336E+01 2.40396E+01 0.00000E+00
 -1      2157 7.24980E+01 2.31228E+01 0.00000E+00
 -1      2158 7.18052E+01 2.26815E+01 0.00000E+00
 -1      2159 7.34022E+01 2.60117E+01 0.00000E+00
 -1      2160 7.28999E+01 2.52428E+01 0.00000E+00
 -1      2161 7.45146E+01 2.75148E+01 0.00000E+00
 -1      2162 7.39615E+01 2.67986E+01 0.00000E+00
 -1      2163 7.59445E+01 2.88486E+01 0.00000E+00
 -1      2164 7.52465E+01 2.82714E+01 0.00000E+00
 -1      2165 7.75094E+01 3.00616E+01 0.00000E+00
 -1      2166 7.67055E+01 2.96492E+01 0.00000E+00
 -1      2167 7.95219E+01 3.04951E+01 0.00000E+00
 -1      2168 7.86054E+01 3.02267E+01 0.00000E+00
 -1      2169 8.16200E+01 3.09640E+01 0.00000E+00
 -1      2170 8.06027E+01 3.08686E+01 0.00000E+00
 -1      2171 8.38540E+01 3.05701E+01 0.00000E+00
 -1      2172 8.28738E+01 3.07977E+01 0.00000E+00
 -1      2173 8.57274E+01 2.94157E+01 0.00000E+00
 -1      2174 8.49604E+01 2.99779E+01 0.00000E+00
 -1      2175 8.71521E+01 2.82955E+01 0.00000E+00
 -1      2176 8.64748E+01 2.88419E+01 0.00000E+00
 -1      2177 8.85620E+01 2.70278E+01 0.00000E+00
 -1      2178 8.79325E+01 2.76886E+01 0.00000E+00
 -1      2179 8.95257E+01 2.51408E+01 0.00000E+00
 -1      2180 8.91092E+01 2.60095E+01 0.00000E+00
 -1      2181 9.01241E+01 2.31183E+01 0.00000E+00
 -1      2182 9.00009E+01 2.40364E+01 0.00000E+00
 -1      2183 9.09755E+01 2.27284E+01 0.00000E+00
 -1      2184 8.49705E+01 1.35340E+01 0.00000E+00
 -1      2185 8.57573E+01 1.38940E+01 0.00000E+00
 -1      2186 8.65051E+01 1.35444E+01 0.00000E+00
 -1      2187 6.42300E+00 4.57510E+01 0.00000E+00
 -1      2188 8.47706E+01 1.27704E+01 0.00000E+00
 -1      2189 7.17300E+00 4.44520E+01 0.00000E+00
 -1      2190 9.08702E+01 2.06593E+01 0.00000E+00
 -1      2191 8.98155E+01 1.59399E+01 0.00000E+00
 -1      2192 8.95615E+01 1.67390E+01 0.00000E+00
 -1      2193 9.03478E+01 1.70029E+01 0.00000E+00
 -1      2194 1.45665E+02 4.31193E+01 0.00000E+00
 -1      2195 8.81681E+01 1.48962E+01 0.00000E+00
 -1      2196 9.03770E+01 2.47509E+01 0.00000E+00
 -1      2197 8.93547E+01 2.68736E+01 0.00000E+00
 -1      2198 8.80271E+01 2.84988E+01 0.00000E+00
 -1      2199 8.64993E+01 2.96795E+01 0.00000E+00
 -1      2200 8.46454E+01 3.08455E+01 0.00000E+00
 -1      2201 8.43304E+01 3.17130E+01 0.00000E+00
 -1      2202 8.54368E+01 3.11209E+01 0.00000E+00
 -1      2203 8.22851E+01 3.16039E+01 0.00000E+00
 -1      2204 7.99505E+01 3.13966E+01 0.00000E+00
 -1      2205 7.77737E+01 3.08580E+01 0.00000E+00
 -1      2206 7.59168E+01 2.98923E+01 0.00000E+00
 -1      2207 7.44239E+01 2.83351E+01 0.00000E+00
 -1      2208 7.22071E+01 2.48015E+01 0.00000E+00
 -1      2209 7.15143E+01 2.43601E+01 0.00000E+00
 -1      2210 7.18806E+01 2.55633E+01 0.00000E+00
 -1      2211 7.18952E+01 2.07576E+01 0.00000E+00
 -1      2212 7.31274E+01 1.65567E+01 0.00000E+00
 -1      2213 7.62941E+01 1.35825E+01 0.00000E+00
 -1      2214 7.65083E+01 1.27691E+01 0.00000E+00
 -1      2215 7.54443E+01 1.33710E+01 0.00000E+00
 -1      2216 7.82883E+01 1.26548E+01 0.00000E+00
 -1      2217 8.27741E+01 1.19633E+01 0.00000E+00
 -1      2218 8.04645E+01 1.18435E+01 0.00000E+00
 -1      2219 7.21756E+01 1.86486E+01 0.00000E+00
 -1      2220 7.31327E+01 2.67915E+01 0.00000E+00
 -1      2221 1.07850E+01 5.30525E+00 0.00000E+00
 -1      2222 9.28500E+00 5.30525E+00 0.00000E+00
 -1      2223 6.49500E+00 3.01125E+01 0.00000E+00
 -1      2224 6.49500E+00 3.15875E+01 0.00000E+00
 -1      2225 6.49500E+00 3.30625E+01 0.00000E+00
 -1      2226 6.49500E+00 3.45375E+01 0.00000E+00
 -1      2227 7.79400E+00 3.23250E+01 0.00000E+00
 -1      2228 6.49500E+00 2.42125E+01 0.00000E+00
 -1      2229 6.49500E+00 2.56875E+01 0.00000E+00
 -1      2230 6.49500E+00 2.12625E+01 0.00000E+00
 -1      2231 6.49500E+00 2.27375E+01 0.00000E+00
 -1      2232 7.79400E+00 2.34750E+01 0.00000E+00
 -1      2233 6.49500E+00 1.83625E+01 0.00000E+00
 -1      2234 6.49500E+00 1.98125E+01 0.00000E+00
 -1      2235 7.79400E+00 2.05500E+01 0.00000E+00
 -1      2236 6.49500E+00 1.54125E+01 0.00000E+00
 -1      2237 6.49500E+00 1.68875E+01 0.00000E+00
 -1      2238 7.79400E+00 1.76250E+01 0.00000E+00
 -1      2239 6.49500E+00 1.24625E+01 0.00000E+00
 -1      2240 6.49500E+00 1.39375E+01 0.00000E+00
 -1      2241 7.79400E+00 1.46750E+01 0.00000E+00
 -1      2242 6.49500E+00 9.51250E+00 0.00000E+00
 -1      2243 6.49500E+00 1.09875E+01 0.00000E+00
 -1      2244 7.79400E+00 1.17250E+01 0.00000E+00
 -1      2245 1.37850E+01 5.30525E+00 0.00000E+00
 -1      2246 1.22850E+01 5.30525E+00 0.00000E+00
 -1      2247 1.15350E+01 6.60425E+00 0.00000E+00
 -1      2248 9.90000E+00 4.35050E+01 0.00000E+00
 -1      2249 1.14000E+01 4.35050E+01 0.00000E+00
 -1      2250 8.44856E+01 1.18313E+01 0.00000E+00
 -1      2251 8.54183E+01 1.20332E+01 0.00000E+00
 -1      2252 1.29000E+01 4.35050E+01 0.00000E+00
 -1      2253 1.44000E+01 4.35050E+01 0.00000E+00
 -1      2254 1.21500E+01 4.22060E+01 0.00000E+00
 -1      2255 1.59000E+01 4.35050E+01 0.00000E+00
 -1      2256 1.74000E+01 4.35050E+01 0.00000E+00
 -1      2257 1.51500E+01 4.22060E+01 0.00000E+00
 -1      2258 1.89000E+01 4.35050E+01 0.00000E+00
 -1      2259 2.04000E+01 4.35050E+01 0.00000E+00
 -1      2260 1.81500E+01 4.22060E+01 0.00000E+00
 -1      2261 2.19000E+01 4.35050E+01 0.00000E+00
 -1      2262 2.34000E+01 4.35050E+01 0.00000E+00
 -1      2263 2.11500E+01 4.22060E+01 0.00000E+00
 -1      2264 2.49000E+01 4.35050E+01 0.00000E+00
 -1      2265 2.64000E+01 4.35050E+01 0.00000E+00
 -1      2266 2.41500E+01 4.22060E+01 0.00000E+00
 -1      2267 2.79000E+01 4.35050E+01 0.00000E+00
 -1      2268 2.94000E+01 4.35050E+01 0.00000E+00
 -1      2269 2.71500E+01 4.22060E+01 0.00000E+00
 -1      2270 3.09000E+01 4.35050E+01 0.00000E+00
 -1      2271 3.24000E+01 4.35050E+01 0.00000E+00
 -1      2272 3.01500E+01 4.22060E+01 0.00000E+00
 -1      2273 3.39000E+01 4.35050E+01 0.00000E+00
 -1      2274 3.54000E+01 4.35050E+01 0.00000E+00
 -1      2275 3.31500E+01 4.22060E+01 0.00000E+00
 -1      2276 3.69000E+01 4.35050E+01 0.00000E+00
 -1      2277 3.84000E+01 4.35050E+01 0.00000E+00
 -1      2278 3.61500E+01 4.22060E+01 0.00000E+00
 -1      2279 3.99000E+01 4.35050E+01 0.00000E+00
 -1      2280 4.14000E+01 4.35050E+01 0.00000E+00
 -1      2281 3.91500E+01 4.22060E+01 0.00000E+00
 -1      2282 4.29000E+01 4.35050E+01 0.00000E+00
 -1      2283 4.44000E+01 4.35050E+01 0.00000E+00
 -1      2284 4.21500E+01 4.22060E+01 0.00000E+00
 -1      2285 4.59000E+01 4.35050E+01 0.00000E+00
 -1      2286 4.74000E+01 4.35050E+01 0.00000E+00
 -1      2287 4.51500E+01 4.22060E+01 0.00000E+00
 -1      2288 4.89000E+01 4.35050E+01 0.00000E+00
 -1      2289 5.04000E+01 4.35050E+01 0.00000E+00
 -1      2290 4.81500E+01 4.22060E+01 0.00000E+00
 -1      2291 5.19000E+01 4.35050E+01 0.00000E+00
 -1      2292 5.34000E+01 4.35050E+01 0.00000E+00
 -1      2293 5.11500E+01 4.22060E+01 0.00000E+00
 -1      2294 5.49000E+01 4.35050E+01 0.00000E+00
 -1      2295 5.64000E+01 4.35050E+01 0.00000E+00
 -1      2296 5.41500E+01 4.22060E+01 0.00000E+00
 -1      2297 5.79000E+01 4.35050E+01 0.00000E+00
 -1      2298 5.94000E+01 4.35050E+01 0.00000E+00
 -1      2299 5.71500E+01 4.22060E+01 0.00000E+00
 -1      2300 6.09000E+01 4.35050E+01 0.00000E+00
 -1      2301 6.24000E+01 4.35050E+01 0.00000E+00
 -1      2302 6.01500E+01 4.22060E+01 0.00000E+00
 -1      2303 6.39000E+01 4.35050E+01 0.00000E+00
 -1      2304 6.54000E+01 4.35050E+01 0.00000E+00
 -1      2305 6.31500E+01 4.22060E+01 0.00000E+00
 -1      2306 6.69000E+01 4.35050E+01 0.00000E+00
 -1      2307 6.84000E+01 4.35050E+01 0.00000E+00
 -1      2308 6.61500E+01 4.22060E+01 0.00000E+00
 -1      2309 6.99000E+01 4.35050E+01 0.00000E+00
 -1      2310 7.14000E+01 4.35050E+01 0.00000E+00
 -1      2311 6.91500E+01 4.22060E+01 0.00000E+00
 -1      2312 7.29000E+01 4.35050E+01 0.00000E+00
 -1      2313 7.44000E+01 4.35050E+01 0.00000E+00
 -1      2314 7.21500E+01 4.22060E+01 0.00000E+00
 -1      2315 7.59000E+01 4.35050E+01 0.00000E+00
 -1      2316 7.74000E+01 4.35050E+01 0.00000E+00
 -1      2317 7.51500E+01 4.22060E+01 0.00000E+00
 -1      2318 7.89000E+01 4.35050E+01 0.00000E+00
 -1      2319 8.04000E+01 4.35050E+01 0.00000E+00
 -1      2320 7.81500E+01 4.22060E+01 0.00000E+00
 -1      2321 8.19000E+01 4.35050E+01 0.00000E+00
 -1      2322 8.34000E+01 4.35050E+01 0.00000E+00
 -1      2323 8.11500E+01 4.22060E+01 0.00000E+00
 -1      2324 8.49000E+01 4.35050E+01 0.00000E+00
 -1      2325 8.64000E+01 4.35050E+01 0.00000E+00
 -1      2326 8.41500E+01 4.22060E+01 0.00000E+00
 -1      2327 8.79000E+01 4.35050E+01 0.00000E+00
 -1      2328 8.94000E+01 4.35050E+01 0.00000E+00
 -1      2329 8.71500E+01 4.22060E+01 0.00000E+00
 -1      2330 9.09000E+01 4.35050E+01 0.00000E+00
 -1      2331 9.24000E+01 4.35050E+01 0.00000E+00
 -1      2332 9.01500E+01 4.22060E+01 0.00000E+00
 -1      2333 9.39000E+01 4.35050E+01 0.00000E+00
 -1      2334 9.54000E+01 4.35050E+01 0.00000E+00
 -1      2335 9.31500E+01 4.22060E+01 0.00000E+00
 -1      2336 9.69000E+01 4.35050E+01 0.00000E+00
 -1      2337 9.84000E+01 4.35050E+01 0.00000E+00
 -1      2338 9.61500E+01 4.22060E+01 0.00000E+00
 -1      2339 9.99000E+01 4.35050E+01 0.00000E+00
 -1      2340 1.01400E+02 4.35050E+01 0.00000E+00
 -1      2341 9.91500E+01 4.22060E+01 0.00000E+00
 -1      2342 1.02900E+02 4.35050E+01 0.00000E+00
 -1      2343 1.04400E+02 4.35050E+01 0.00000E+00
 -1      2344 1.02150E+02 4.22060E+01 0.00000E+00
 -1      2345 1.05900E+02 4.35050E+01 0.00000E+00
 -1      2346 1.07400E+02 4.35050E+01 0.00000E+00
 -1      2347 1.05150E+02 4.22060E+01 0.00000E+00
 -1      2348 1.08900E+02 4.35050E+01 0.00000E+00
 -1      2349 1.10400E+02 4.35050E+01 0.00000E+00
 -1      2350 1.08150E+02 4.22060E+01 0.00000E+00
 -1      2351 1.11900E+02 4.35050E+01 0.00000E+00
 -1      2352 1.13400E+02 4.35050E+01 0.00000E+00
 -1      2353 1.11150E+02 4.22060E+01 0.00000E+00
 -1      2354 1.14900E+02 4.35050E+01 0.00000E+00
 -1      2355 1.16400E+02 4.35050E+01 0.00000E+00
 -1      2356 1.14150E+02 4.22060E+01 0.00000E+00
 -1      2357 1.17900E+02 4.35050E+01 0.00000E+00
 -1      2358 1.19400E+02 4.35050E+01 0.00000E+00
 -1      2359 1.17150E+02 4.22060E+01 0.00000E+00
 -1      2360 1.20900E+02 4.35050E+01 0.00000E+00
 -1      2361 1.22400E+02 4.35050E+01 0.00000E+00
 -1      2362 1.20150E+02 4.22060E+01 0.00000E+00
 -1      2363 1.23900E+02 4.35050E+01 0.00000E+00
 -1      2364 1.25400E+02 4.35050E+01 0.00000E+00
 -1      2365 1.23150E+02 4.22060E+01 0.00000E+00
 -1      2366 1.26900E+02 4.35050E+01 0.00000E+00
 -1      2367 1.28400E+02 4.35050E+01 0.00000E+00
 -1      2368 1.26150E+02 4.22060E+01 0.00000E+00
 -1      2369 1.29900E+02 4.35050E+01 0.00000E+00
 -1      2370 1.31400E+02 4.35050E+01 0.00000E+00
 -1      2371 1.29150E+02 4.22060E+01 0.00000E+00
 -1      2372 1.32900E+02 4.35050E+01 0.00000E+00
 -1      2373 1.34400E+02 4.35050E+01 0.00000E+00
 -1      2374 1.32150E+02 4.22060E+01 0.00000E+00
 -1      2375 1.35900E+02 4.35050E+01 0.00000E+00
 -1      2376 1.37400E+02 4.35050E+01 0.00000E+00
 -1      2377 1.35150E+02 4.22060E+01 0.00000E+00
 -1      2378 1.38900E+02 4.35050E+01 0.00000E+00
 -1      2379 1.40400E+02 4.35050E+01 0.00000E+00
 -1      2380 1.38150E+02 4.22060E+01 0.00000E+00
 -1      2381 9.10473E+01 1.79663E+01 0.00000E+00
 -1      2382 9.13213E+01 1.88194E+01 0.00000E+00
 -1      2383 1.97850E+01 5.30525E+00 0.00000E+00
 -1      2384 1.82850E+01 5.30525E+00 0.00000E+00
 -1      2385 2.27850E+01 5.30525E+00 0.00000E+00
 -1      2386 2.12850E+01 5.30525E+00 0.00000E+00
 -1      2387 2.05350E+01 6.60425E+00 0.00000E+00
 -1      2388 2.57850E+01 5.30525E+00 0.00000E+00
 -1      2389 2.42850E+01 5.30525E+00 0.00000E+00
 -1      2390 2.35350E+01 6.60425E+00 0.00000E+00
 -1      2391 2.87850E+01 5.30525E+00 0.00000E+00
 -1      2392 2.72850E+01 5.30525E+00 0.00000E+00
 -1      2393 2.65350E+01 6.60425E+00 0.00000E+00
 -1      2394 3.17850E+01 5.30525E+00 0.00000E+00
 -1      2395 3.02850E+01 5.30525E+00 0.00000E+00
 -1      2396 2.95350E+01 6.60425E+00 0.00000E+00
 -1      2397 3.47850E+01 5.30525E+00 0.00000E+00
 -1      2398 3.32850E+01 5.30525E+00 0.00000E+00
 -1      2399 3.25350E+01 6.60425E+00 0.00000E+00
 -1      2400 3.77850E+01 5.30525E+00 0.00000E+00
 -1      2401 3.62850E+01 5.30525E+00 0.00000E+00
 -1      2402 3.55350E+01 6.60425E+00 0.00000E+00
 -1      2403 4.07850E+01 5.30525E+00 0.00000E+00
 -1      2404 3.92850E+01 5.30525E+00 0.00000E+00
 -1      2405 3.85350E+01 6.60425E+00 0.00000E+00
 -1      2406 4.37850E+01 5.30525E+00 0.00000E+00
 -1      2407 4.22850E+01 5.30525E+00 0.00000E+00
 -1      2408 4.15350E+01 6.60425E+00 0.00000E+00
 -1      2409 4.67850E+01 5.30525E+00 0.00000E+00
 -1      2410 4.52850E+01 5.30525E+00 0.00000E+00
 -1      2411 4.45350E+01 6.60425E+00 0.00000E+00
 -1      2412 4.97850E+01 5.30525E+00 0.00000E+00
 -1      2413 4.82850E+01 5.30525E+00 0.00000E+00
 -1      2414 4.75350E+01 6.60425E+00 0.00000E+00
 -1      2415 5.27850E+01 5.30525E+00 0.00000E+00
 -1      2416 5.12850E+01 5.30525E+00 0.00000E+00
 -1      2417 5.05350E+01 6.60425E+00 0.00000E+00
 -1      2418 5.57850E+01 5.30525E+00 0.00000E+00
 -1      2419 5.42850E+01 5.30525E+00 0.00000E+00
 -1      2420 5.35350E+01 6.60425E+00 0.00000E+00
 -1      2421 5.87850E+01 5.30525E+00 0.00000E+00
 -1      2422 5.72850E+01 5.30525E+00 0.00000E+00
 -1      2423 5.65350E+01 6.60425E+00 0.00000E+00
 -1      2424 6.17850E+01 5.30525E+00 0.00000E+00
 -1      2425 6.02850E+01 5.30525E+00 0.00000E+00
 -1      2426 5.95350E+01 6.60425E+00 0.00000E+00
 -1      2427 6.47850E+01 5.30525E+00 0.00000E+00
 -1      2428 6.32850E+01 5.30525E+00 0.00000E+00
 -1      2429 6.25350E+01 6.60425E+00 0.00000E+00
 -1      2430 6.77850E+01 5.30525E+00 0.00000E+00
 -1      2431 6.62850E+01 5.30525E+00 0.00000E+00
 -1      2432 6.55350E+01 6.60425E+00 0.00000E+00
 -1      2433 7.07850E+01 5.30525E+00 0.00000E+00
 -1      2434 6.92850E+01 5.30525E+00 0.00000E+00
 -1      2435 6.85350E+01 6.60425E+00 0.00000E+00
 -1      2436 7.37850E+01 5.30525E+00 0.00000E+00
 -1      2437 7.22850E+01 5.30525E+00 0.00000E+00
 -1      2438 7.15350E+01 6.60425E+00 0.00000E+00
 -1      2439 7.67850E+01 5.30525E+00 0.00000E+00
 -1      2440 7.52850E+01 5.30525E+00 0.00000E+00
 -1      2441 7.45350E+01 6.60425E+00 0.00000E+00
 -1      2442 7.97850E+01 5.30525E+00 0.00000E+00
 -1      2443 7.82850E+01 5.30525E+00 0.00000E+00
 -1      2444 7.75350E+01 6.60425E+00 0.00000E+00
 -1      2445 8.27850E+01 5.30525E+00 0.00000E+00
 -1      2446 8.12850E+01 5.30525E+00 0.00000E+00
 -1      2447 8.05350E+01 6.60425E+00 0.00000E+00
 -1      2448 8.57850E+01 5.30525E+00 0.00000E+00
 -1      2449 8.42850E+01 5.30525E+00 0.00000E+00
 -1      2450 8.35350E+01 6.60425E+00 0.00000E+00
 -1      2451 8.87850E+01 5.30525E+00 0.00000E+00
 -1      2452 8.72850E+01 5.30525E+00 0.00000E+00
 -1      2453 8.65350E+01 6.60425E+00 0.00000E+00
 -1      2454 9.17850E+01 5.30525E+00 0.00000E+00
 -1      2455 9.02850E+01 5.30525E+00 0.00000E+00
 -1      2456 8.95350E+01 6.60425E+00 0.00000E+00
 -1      2457 9.47850E+01 5.30525E+00 0.00000E+00
 -1      2458 9.32850E+01 5.30525E+00 0.00000E+00
 -1      2459 9.25350E+01 6.60425E+00 0.00000E+00
 -1      2460 9.77850E+01 5.30525E+00 0.00000E+00
 -1      2461 9.62850E+01 5.30525E+00 0.00000E+00
 -1      2462 9.55350E+01 6.60425E+00 0.00000E+00
 -1      2463 1.00785E+02 5.30525E+00 0.00000E+00
 -1      2464 9.92850E+01 5.30525E+00 0.00000E+00
 -1      2465 9.85350E+01 6.60425E+00 0.00000E+00
 -1      2466 1.03785E+02 5.30525E+00 0.00000E+00
 -1      2467 1.02285E+02 5.30525E+00 0.00000E+00
 -1      2468 1.01535E+02 6.60425E+00 0.00000E+00
 -1      2469 1.06785E+02 5.30525E+00 0.00000E+00
 -1      2470 1.05285E+02 5.30525E+00 0.00000E+00
 -1      2471 1.04535E+02 6.60425E+00 0.00000E+00
 -1      2472 1.09785E+02 5.30525E+00 0.00000E+00
 -1      2473 1.08285E+02 5.30525E+00 0.00000E+00
 -1      2474 1.07535E+02 6.60425E+00 0.00000E+00
 -1      2475 1.12785E+02 5.30525E+00 0.00000E+00
 -1      2476 1.11285E+02 5.30525E+00 0.00000E+00
 -1      2477 1.10535E+02 6.60425E+00 0.00000E+00
 -1      2478 1.15785E+02 5.30525E+00 0.00000E+00
 -1      2479 1.14285E+02 5.30525E+00 0.00000E+00
 -1      2480 1.13535E+02 6.60425E+00 0.00000E+00
 -1      2481 1.18785E+02 5.30525E+00 0.00000E+00
 -1      2482 1.17285E+02 5.30525E+00 0.00000E+00
 -1      2483 1.16535E+02 6.60425E+00 0.00000E+00
 -1      2484 1.21785E+02 5.30525E+00 0.00000E+00
 -1      2485 1.20285E+02 5.30525E+00 0.00000E+00
 -1      2486 1.19535E+02 6.60425E+00 0.00000E+00
 -1      2487 1.24785E+02 5.30525E+00 0.00000E+00
 -1      2488 1.23285E+02 5.30525E+00 0.00000E+00
 -1      2489 1.22535E+02 6.60425E+00 0.00000E+00
 -1      2490 1.27785E+02 5.30525E+00 0.00000E+00
 -1      2491 1.26285E+02 5.30525E+00 0.00000E+00
 -1      2492 1.25535E+02 6.60425E+00 0.00000E+00
 -1      2493 1.30785E+02 5.30525E+00 0.00000E+00
 -1      2494 1.29285E+02 5.30525E+00 0.00000E+00
 -1      2495 1.28535E+02 6.60425E+00 0.00000E+00
 -1      2496 1.33785E+02 5.30525E+00 0.00000E+00
 -1      2497 1.32285E+02 5.30525E+00 0.00000E+00
 -1      2498 1.31535E+02 6.60425E+00 0.00000E+00
 -1      2499 1.36785E+02 5.30525E+00 0.00000E+00
 -1      2500 1.35285E+02 5.30525E+00 0.00000E+00
 -1      2501 1.34535E+02 6.60425E+00 0.00000E+00
 -1      2502 1.39785E+02 5.30525E+00 0.00000E+00
 -1      2503 1.38285E+02 5.30525E+00 0.00000E+00
 -1      2504 1.37535E+02 6.60425E+00 0.00000E+00
 -1      2505 1.42785E+02 5.30525E+00 0.00000E+00
 -1      2506 1.41285E+02 5.30525E+00 0.00000E+00
 -1      2507 1.40535E+02 6.60425E+00 0.00000E+00
 -1      2508 1.44336E+02 5.26953E+00 0.00000E+00
 -1      2509 1.43505E+02 1.69125E+01 0.00000E+00
 -1      2510 1.43505E+02 1.54375E+01 0.00000E+00
 -1      2511 1.43505E+02 1.98625E+01 0.00000E+00
 -1      2512 1.43505E+02 1.83875E+01 0.00000E+00
 -1      2513 1.42206E+02 1.76500E+01 0.00000E+00
 -1      2514 1.43505E+02 1.10625E+01 0.00000E+00
 -1      2515 1.43505E+02 9.58750E+00 0.00000E+00
 -1      2516 1.43505E+02 1.39750E+01 0.00000E+00
 -1      2517 1.43505E+02 1.25250E+01 0.00000E+00
 -1      2518 1.42206E+02 1.17875E+01 0.00000E+00
 -1      2519 1.42206E+02 1.47125E+01 0.00000E+00
 -1      2520 1.43505E+02 2.28125E+01 0.00000E+00
 -1      2521 1.43505E+02 2.13375E+01 0.00000E+00
 -1      2522 1.42206E+02 2.06000E+01 0.00000E+00
 -1      2523 1.43505E+02 2.57625E+01 0.00000E+00
 -1      2524 1.43505E+02 2.42875E+01 0.00000E+00
 -1      2525 1.42206E+02 2.35500E+01 0.00000E+00
 -1      2526 1.43505E+02 2.87125E+01 0.00000E+00
 -1      2527 1.43505E+02 2.72375E+01 0.00000E+00
 -1      2528 1.42206E+02 2.65000E+01 0.00000E+00
 -1      2529 1.43505E+02 3.16125E+01 0.00000E+00
 -1      2530 1.43505E+02 3.01625E+01 0.00000E+00
 -1      2531 1.42206E+02 2.94250E+01 0.00000E+00
 -1      2532 1.43505E+02 3.45625E+01 0.00000E+00
 -1      2533 1.43505E+02 3.30875E+01 0.00000E+00
 -1      2534 1.42206E+02 3.23500E+01 0.00000E+00
 -1      2535 1.43505E+02 3.75125E+01 0.00000E+00
 -1      2536 1.43505E+02 3.60375E+01 0.00000E+00
 -1      2537 1.42206E+02 3.53000E+01 0.00000E+00
 -1      2538 1.43505E+02 4.04625E+01 0.00000E+00
 -1      2539 1.43505E+02 3.89875E+01 0.00000E+00
 -1      2540 1.42206E+02 3.82500E+01 0.00000E+00
 -1      2541 1.44321E+02 4.30606E+01 0.00000E+00
 -1      2542 8.83132E+01 1.38707E+01 0.00000E+00
 -1      2543 8.91743E+01 1.46504E+01 0.00000E+00
 -1      2544 1.67850E+01 5.30525E+00 0.00000E+00
 -1      2545 1.52850E+01 5.30525E+00 0.00000E+00
 -1      2546 1.75350E+01 6.60425E+00 0.00000E+00
 -1      2547 9.15561E+01 1.99250E+01 0.00000E+00
 -1      2548 9.17845E+01 2.10761E+01 0.00000E+00
 -1      2549 9.13254E+01 2.45045E+01 0.00000E+00
 -1      2550 9.08502E+01 2.56090E+01 0.00000E+00
 -1      2551 9.18455E+01 2.23779E+01 0.00000E+00
 -1      2552 9.17223E+01 2.32959E+01 0.00000E+00
 -1      2553 7.10230E+01 2.11603E+01 0.00000E+00
 -1      2554 7.11485E+01 2.01532E+01 0.00000E+00
 -1      2555 6.49500E+00 2.71625E+01 0.00000E+00
 -1      2556 6.49500E+00 2.86375E+01 0.00000E+00
 -1      2557 7.79400E+00 2.93750E+01 0.00000E+00
 -1      2558 7.79400E+00 2.64250E+01 0.00000E+00
 -1      2559 7.95302E+01 1.12872E+01 0.00000E+00
 -1      2560 8.07761E+01 1.08018E+01 0.00000E+00
 -1      2561 7.12904E+01 1.90860E+01 0.00000E+00
 -1      2562 7.14453E+01 1.79841E+01 0.00000E+00
 -1      2563 8.23582E+01 1.06209E+01 0.00000E+00
 -1      2564 8.34219E+01 1.12261E+01 0.00000E+00
 -1      2565 8.40697E+01 1.04889E+01 0.00000E+00
 -1      2566 7.75396E+01 1.20084E+01 0.00000E+00
 -1      2567 7.84699E+01 1.16826E+01 0.00000E+00
 -1      2568 7.36579E+01 1.46611E+01 0.00000E+00
 -1      2569 7.43107E+01 1.39699E+01 0.00000E+00
 -1      2570 7.27816E+01 2.76333E+01 0.00000E+00
 -1      2571 7.22223E+01 2.68463E+01 0.00000E+00
 -1      2572 7.20639E+01 1.66410E+01 0.00000E+00
 -1      2573 7.28609E+01 1.56510E+01 0.00000E+00
 -1      2574 7.25944E+01 1.47454E+01 0.00000E+00
 -1      2575 7.11335E+01 2.31666E+01 0.00000E+00
 -1      2576 7.10980E+01 2.22498E+01 0.00000E+00
 -1      2577 7.42036E+01 2.92805E+01 0.00000E+00
 -1      2578 7.34717E+01 2.85239E+01 0.00000E+00
 -1      2579 7.57255E+01 3.08818E+01 0.00000E+00
 -1      2580 7.49646E+01 3.00812E+01 0.00000E+00
 -1      2581 7.40123E+01 3.02700E+01 0.00000E+00
 -1      2582 7.82003E+01 3.17471E+01 0.00000E+00
 -1      2583 7.71043E+01 3.15821E+01 0.00000E+00
 -1      2584 8.03619E+01 3.24941E+01 0.00000E+00
 -1      2585 7.92811E+01 3.21206E+01 0.00000E+00
 -1      2586 7.86116E+01 3.28447E+01 0.00000E+00
 -1      2587 8.30248E+01 3.23708E+01 0.00000E+00
 -1      2588 8.17710E+01 3.25371E+01 0.00000E+00
 -1      2589 8.74973E+01 3.02058E+01 0.00000E+00
 -1      2590 8.67498E+01 3.07796E+01 0.00000E+00
 -1      2591 8.90580E+01 2.89920E+01 0.00000E+00
 -1      2592 8.82776E+01 2.95989E+01 0.00000E+00
 -1      2593 8.85281E+01 3.06989E+01 0.00000E+00
 -1      2594 9.03836E+01 2.67704E+01 0.00000E+00
 -1      2595 8.98365E+01 2.77887E+01 0.00000E+00
 -1      2596 6.55950E+00 4.28890E+01 0.00000E+00
 -1      2597 8.53650E+00 4.32410E+01 0.00000E+00
 -1      2598 9.28650E+00 4.19420E+01 0.00000E+00
 -1      2599 6.55950E+00 4.14140E+01 0.00000E+00
 -1      2600 8.07525E+00 5.11044E+00 0.00000E+00
 -1      2601 6.57525E+00 5.11044E+00 0.00000E+00
 -1      2602 6.40575E+00 6.01981E+00 0.00000E+00
 -1      2603 8.82525E+00 6.40944E+00 0.00000E+00
 -1      2604 8.65293E+01 1.26625E+01 0.00000E+00
 -1      2605 8.73311E+01 1.32347E+01 0.00000E+00
 -1      2606 7.79400E+00 3.52687E+01 0.00000E+00
 -1      2607 6.49500E+00 3.60062E+01 0.00000E+00
 -1      2608 6.49500E+00 3.74750E+01 0.00000E+00
 -1      2609 1.45350E+01 6.60425E+00 0.00000E+00
 -1      2610 6.40575E+00 7.49481E+00 0.00000E+00
 -1      2611 8.62443E+01 1.17235E+01 0.00000E+00
 -1      2612 6.55950E+00 3.99453E+01 0.00000E+00
 -1      2613 9.00870E+01 2.88887E+01 0.00000E+00
 -1      2614 9.01056E+01 1.38887E+01 0.00000E+00
 -1      2615 8.99606E+01 1.49143E+01 0.00000E+00
 -1      2616 9.07468E+01 1.51782E+01 0.00000E+00
 -1      2617 9.13013E+01 1.71672E+01 0.00000E+00
 -1      2618 9.25313E+01 2.16436E+01 0.00000E+00
 -1      2619 1.43586E+02 6.56853E+00 0.00000E+00
 -1      2620 9.21954E+01 2.41540E+01 0.00000E+00
 -1      2621 1.43419E+02 7.72713E+00 0.00000E+00
 -1      2622 1.42758E+02 4.35929E+01 0.00000E+00
 -1      2623 1.43241E+02 4.17323E+01 0.00000E+00
 -1      2624 1.41942E+02 4.09948E+01 0.00000E+00
 -1      2625 1.41414E+02 4.35342E+01 0.00000E+00
 -1      2626 8.11015E+01 3.32611E+01 0.00000E+00
 -1      2627 7.61521E+01 3.17709E+01 0.00000E+00
 -1      2628 7.51999E+01 3.19597E+01 0.00000E+00
 -1      2629 7.65786E+01 3.26600E+01 0.00000E+00
 -1      2630 8.83373E+01 1.29888E+01 0.00000E+00
 -1      2631 7.70475E+00 8.23231E+00 0.00000E+00
 -1      2632 9.22356E+01 1.92362E+01 0.00000E+00
 -1      2633 9.13320E+01 2.65240E+01 0.00000E+00
 -1      2634 1.42120E+02 8.46463E+00 0.00000E+00
 -1      2635 7.04182E+01 1.94887E+01 0.00000E+00
 -1      2636 7.11788E+01 1.70784E+01 0.00000E+00
 -1      2637 7.09122E+01 1.61727E+01 0.00000E+00
 -1      2638 7.02936E+01 1.75158E+01 0.00000E+00
 -1      2639 7.25613E+01 2.85787E+01 0.00000E+00
 -1      2640 7.03513E+01 2.16454E+01 0.00000E+00
 -1      2641 8.64348E+01 3.16471E+01 0.00000E+00
 -1      2642 7.15295E+01 2.64050E+01 0.00000E+00
 -1      2643 7.08367E+01 2.59637E+01 0.00000E+00
 -1      2644 7.11785E+01 2.72467E+01 0.00000E+00
 -1      2645 7.45249E+01 1.31565E+01 0.00000E+00
 -1      2646 7.47391E+01 1.23430E+01 0.00000E+00
 -1      2647 7.36055E+01 1.29420E+01 0.00000E+00
 -1      2648 7.66899E+01 1.17968E+01 0.00000E+00
 -1      2649 7.87816E+01 1.06408E+01 0.00000E+00
 -1      2650 7.08070E+01 2.39284E+01 0.00000E+00
 -1      2651 7.00998E+01 2.34968E+01 0.00000E+00
 -1      2652 7.04806E+01 2.46903E+01 0.00000E+00
 -1      2653 8.38162E+01 3.26462E+01 0.00000E+00
 -1      2654 8.33020E+01 3.35795E+01 0.00000E+00
 -1      2655 8.46076E+01 3.29216E+01 0.00000E+00
 -1      2656 1.40664E+02 4.22352E+01 0.00000E+00
 -1      2657 8.07477E+01 9.78680E+00 0.00000E+00
 -1      2658 8.16820E+01 1.03431E+01 0.00000E+00
 -1      2659 9.09300E+00 1.98250E+01 0.00000E+00
 -1      2660 9.09300E+00 2.12750E+01 0.00000E+00
 -1      2661 9.09300E+00 2.27500E+01 0.00000E+00
 -1      2662 9.09300E+00 2.42250E+01 0.00000E+00
 -1      2663 1.03920E+01 2.20250E+01 0.00000E+00
 -1      2664 9.09300E+00 1.39375E+01 0.00000E+00
 -1      2665 9.09300E+00 1.54125E+01 0.00000E+00
 -1      2666 9.09300E+00 1.09875E+01 0.00000E+00
 -1      2667 9.09300E+00 1.24625E+01 0.00000E+00
 -1      2668 1.03920E+01 1.32000E+01 0.00000E+00
 -1      2669 1.22850E+01 7.90325E+00 0.00000E+00
 -1      2670 1.07850E+01 7.90325E+00 0.00000E+00
 -1      2671 9.30390E+01 1.84878E+01 0.00000E+00
 -1      2672 9.32738E+01 1.95934E+01 0.00000E+00
 -1      2673 1.52850E+01 7.90325E+00 0.00000E+00
 -1      2674 1.37850E+01 7.90325E+00 0.00000E+00
 -1      2675 1.30350E+01 9.20225E+00 0.00000E+00
 -1      2676 8.91450E+00 8.42712E+00 0.00000E+00
 -1      2677 7.85850E+00 3.92077E+01 0.00000E+00
 -1      2678 8.23298E+01 9.60596E+00 0.00000E+00
 -1      2679 1.44000E+01 4.09070E+01 0.00000E+00
 -1      2680 1.59000E+01 4.09070E+01 0.00000E+00
 -1      2681 1.74000E+01 4.09070E+01 0.00000E+00
 -1      2682 1.89000E+01 4.09070E+01 0.00000E+00
 -1      2683 1.66500E+01 3.96080E+01 0.00000E+00
 -1      2684 2.04000E+01 4.09070E+01 0.00000E+00
 -1      2685 2.19000E+01 4.09070E+01 0.00000E+00
 -1      2686 1.96500E+01 3.96080E+01 0.00000E+00
 -1      2687 2.34000E+01 4.09070E+01 0.00000E+00
 -1      2688 2.49000E+01 4.09070E+01 0.00000E+00
 -1      2689 2.26500E+01 3.96080E+01 0.00000E+00
 -1      2690 2.64000E+01 4.09070E+01 0.00000E+00
 -1      2691 2.79000E+01 4.09070E+01 0.00000E+00
 -1      2692 2.56500E+01 3.96080E+01 0.00000E+00
 -1      2693 2.94000E+01 4.09070E+01 0.00000E+00
 -1      2694 3.09000E+01 4.09070E+01 0.00000E+00
 -1      2695 2.86500E+01 3.96080E+01 0.00000E+00
 -1      2696 3.24000E+01 4.09070E+01 0.00000E+00
 -1      2697 3.39000E+01 4.09070E+01 0.00000E+00
 -1      2698 3.16500E+01 3.96080E+01 0.00000E+00
 -1      2699 3.54000E+01 4.09070E+01 0.00000E+00
 -1      2700 3.69000E+01 4.09070E+01 0.00000E+00
 -1      2701 3.46500E+01 3.96080E+01 0.00000E+00
 -1      2702 3.84000E+01 4.09070E+01 0.00000E+00
 -1      2703 3.99000E+01 4.09070E+01 0.00000E+00
 -1      2704 3.76500E+01 3.96080E+01 0.00000E+00
 -1      2705 4.14000E+01 4.09070E+01 0.00000E+00
 -1      2706 4.29000E+01 4.09070E+01 0.00000E+00
 -1      2707 4.06500E+01 3.96080E+01 0.00000E+00
 -1      2708 4.44000E+01 4.09070E+01 0.00000E+00
 -1      2709 4.59000E+01 4.09070E+01 0.00000E+00
 -1      2710 4.36500E+01 3.96080E+01 0.00000E+00
 -1      2711 4.74000E+01 4.09070E+01 0.00000E+00
 -1      2712 4.89000E+01 4.09070E+01 0.00000E+00
 -1      2713 4.66500E+01 3.96080E+01 0.00000E+00
 -1      2714 5.04000E+01 4.09070E+01 0.00000E+00
 -1      2715 5.19000E+01 4.09070E+01 0.00000E+00
 -1      2716 4.96500E+01 3.96080E+01 0.00000E+00
 -1      2717 5.34000E+01 4.09070E+01 0.00000E+00
 -1      2718 5.49000E+01 4.09070E+01 0.00000E+00
 -1      2719 5.26500E+01 3.96080E+01 0.00000E+00
 -1      2720 5.64000E+01 4.09070E+01 0.00000E+00
 -1      2721 5.79000E+01 4.09070E+01 0.00000E+00
 -1      2722 5.56500E+01 3.96080E+01 0.00000E+00
 -1      2723 5.94000E+01 4.09070E+01 0.00000E+00
 -1      2724 6.09000E+01 4.09070E+01 0.00000E+00
 -1      2725 5.86500E+01 3.96080E+01 0.00000E+00
 -1      2726 6.24000E+01 4.09070E+01 0.00000E+00
 -1      2727 6.39000E+01 4.09070E+01 0.00000E+00
 -1      2728 6.16500E+01 3.96080E+01 0.00000E+00
 -1      2729 6.54000E+01 4.09070E+01 0.00000E+00
 -1      2730 6.69000E+01 4.09070E+01 0.00000E+00
 -1      2731 6.46500E+01 3.96080E+01 0.00000E+00
 -1      2732 6.84000E+01 4.09070E+01 0.00000E+00
 -1      2733 6.99000E+01 4.09070E+01 0.00000E+00
 -1      2734 6.76500E+01 3.96080E+01 0.00000E+00
 -1      2735 7.14000E+01 4.09070E+01 0.00000E+00
 -1      2736 7.29000E+01 4.09070E+01 0.00000E+00
 -1      2737 7.06500E+01 3.96080E+01 0.00000E+00
 -1      2738 7.44000E+01 4.09070E+01 0.00000E+00
 -1      2739 7.59000E+01 4.09070E+01 0.00000E+00
 -1      2740 7.36500E+01 3.96080E+01 0.00000E+00
 -1      2741 7.74000E+01 4.09070E+01 0.00000E+00
 -1      2742 7.89000E+01 4.09070E+01 0.00000E+00
 -1      2743 7.66500E+01 3.96080E+01 0.00000E+00
 -1      2744 8.04000E+01 4.09070E+01 0.00000E+00
 -1      2745 8.19000E+01 4.09070E+01 0.00000E+00
 -1      2746 7.96500E+01 3.96080E+01 0.00000E+00
 -1      2747 8.34000E+01 4.09070E+01 0.00000E+00
 -1      2748 8.49000E+01 4.09070E+01 0.00000E+00
 -1      2749 8.26500E+01 3.96080E+01 0.00000E+00
 -1      2750 8.64000E+01 4.09070E+01 0.00000E+00
 -1      2751 8.79000E+01 4.09070E+01 0.00000E+00
 -1      2752 8.56500E+01 3.96080E+01 0.00000E+00
 -1      2753 8.94000E+01 4.09070E+01 0.00000E+00
 -1      2754 9.09000E+01 4.09070E+01 0.00000E+00
 -1      2755 8.86500E+01 3.96080E+01 0.00000E+00
 -1      2756 9.24000E+01 4.09070E+01 0.00000E+00
 -1      2757 9.39000E+01 4.09070E+01 0.00000E+00
 -1      2758 9.16500E+01 3.96080E+01 0.00000E+00
 -1      2759 9.54000E+01 4.09070E+01 0.00000E+00
 -1      2760 9.69000E+01 4.09070E+01 0.00000E+00
 -1      2761 9.46500E+01 3.96080E+01 0.00000E+00
 -1      2762 9.84000E+01 4.09070E+01 0.00000E+00
 -1      2763 9.99000E+01 4.09070E+01 0.00000E+00
 -1      2764 9.76500E+01 3.96080E+01 0.00000E+00
 -1      2765 1.01400E+02 4.09070E+01 0.00000E+00
 -1      2766 1.02900E+02 4.09070E+01 0.00000E+00
 -1      2767 1.00650E+02 3.96080E+01 0.00000E+00
 -1      2768 1.04400E+02 4.09070E+01 0.00000E+00
 -1      2769 1.05900E+02 4.09070E+01 0.00000E+00
 -1      2770 1.03650E+02 3.96080E+01 0.00000E+00
 -1      2771 1.07400E+02 4.09070E+01 0.00000E+00
 -1      2772 1.08900E+02 4.09070E+01 0.00000E+00
 -1      2773 1.06650E+02 3.96080E+01 0.00000E+00
 -1      2774 1.10400E+02 4.09070E+01 0.00000E+00
 -1      2775 1.11900E+02 4.09070E+01 0.00000E+00
 -1      2776 1.09650E+02 3.96080E+01 0.00000E+00
 -1      2777 1.13400E+02 4.09070E+01 0.00000E+00
 -1      2778 1.14900E+02 4.09070E+01 0.00000E+00
 -1      2779 1.12650E+02 3.96080E+01 0.00000E+00
 -1      2780 1.16400E+02 4.09070E+01 0.00000E+00
 -1      2781 1.17900E+02 4.09070E+01 0.00000E+00
 -1      2782 1.15650E+02 3.96080E+01 0.00000E+00
 -1      2783 1.19400E+02 4.09070E+01 0.00000E+00
 -1      2784 1.20900E+02 4.09070E+01 0.00000E+00
 -1      2785 1.18650E+02 3.96080E+01 0.00000E+00
 -1      2786 1.22400E+02 4.09070E+01 0.00000E+00
 -1      2787 1.23900E+02 4.09070E+01 0.00000E+00
 -1      2788 1.21650E+02 3.96080E+01 0.00000E+00
 -1      2789 1.25400E+02 4.09070E+01 0.00000E+00
 -1      2790 1.26900E+02 4.09070E+01 0.00000E+00
 -1      2791 1.24650E+02 3.96080E+01 0.00000E+00
 -1      2792 1.28400E+02 4.09070E+01 0.00000E+00
 -1      2793 1.29900E+02 4.09070E+01 0.00000E+00
 -1      2794 1.27650E+02 3.96080E+01 0.00000E+00
 -1      2795 1.31400E+02 4.09070E+01 0.00000E+00
 -1      2796 1.32900E+02 4.09070E+01 0.00000E+00
 -1      2797 1.30650E+02 3.96080E+01 0.00000E+00
 -1      2798 1.34400E+02 4.09070E+01 0.00000E+00
 -1      2799 1.35900E+02 4.09070E+01 0.00000E+00
 -1      2800 1.33650E+02 3.96080E+01 0.00000E+00
 -1      2801 1.37400E+02 4.09070E+01 0.00000E+00
 -1      2802 1.38900E+02 4.09070E+01 0.00000E+00
 -1      2803 1.36650E+02 3.96080E+01 0.00000E+00
 -1      2804 8.17774E+01 3.42235E+01 0.00000E+00
 -1      2805 8.03683E+01 3.41806E+01 0.00000E+00
 -1      2806 2.12850E+01 7.90325E+00 0.00000E+00
 -1      2807 1.97850E+01 7.90325E+00 0.00000E+00
 -1      2808 3.02850E+01 7.90325E+00 0.00000E+00
 -1      2809 2.87850E+01 7.90325E+00 0.00000E+00
 -1      2810 3.32850E+01 7.90325E+00 0.00000E+00
 -1      2811 3.17850E+01 7.90325E+00 0.00000E+00
 -1      2812 3.10350E+01 9.20225E+00 0.00000E+00
 -1      2813 3.62850E+01 7.90325E+00 0.00000E+00
 -1      2814 3.47850E+01 7.90325E+00 0.00000E+00
 -1      2815 3.40350E+01 9.20225E+00 0.00000E+00
 -1      2816 3.92850E+01 7.90325E+00 0.00000E+00
 -1      2817 3.77850E+01 7.90325E+00 0.00000E+00
 -1      2818 3.70350E+01 9.20225E+00 0.00000E+00
 -1      2819 4.22850E+01 7.90325E+00 0.00000E+00
 -1      2820 4.07850E+01 7.90325E+00 0.00000E+00
 -1      2821 4.00350E+01 9.20225E+00 0.00000E+00
 -1      2822 4.52850E+01 7.90325E+00 0.00000E+00
 -1      2823 4.37850E+01 7.90325E+00 0.00000E+00
 -1      2824 4.30350E+01 9.20225E+00 0.00000E+00
 -1      2825 4.82850E+01 7.90325E+00 0.00000E+00
 -1      2826 4.67850E+01 7.90325E+00 0.00000E+00
 -1      2827 4.60350E+01 9.20225E+00 0.00000E+00
 -1      2828 5.12850E+01 7.90325E+00 0.00000E+00
 -1      2829 4.97850E+01 7.90325E+00 0.00000E+00
 -1      2830 4.90350E+01 9.20225E+00 0.00000E+00
 -1      2831 5.42850E+01 7.90325E+00 0.00000E+00
 -1      2832 5.27850E+01 7.90325E+00 0.00000E+00
 -1      2833 5.20350E+01 9.20225E+00 0.00000E+00
 -1      2834 5.72850E+01 7.90325E+00 0.00000E+00
 -1      2835 5.57850E+01 7.90325E+00 0.00000E+00
 -1      2836 5.50350E+01 9.20225E+00 0.00000E+00
 -1      2837 6.02850E+01 7.90325E+00 0.00000E+00
 -1      2838 5.87850E+01 7.90325E+00 0.00000E+00
 -1      2839 5.80350E+01 9.20225E+00 0.00000E+00
 -1      2840 6.32850E+01 7.90325E+00 0.00000E+00
 -1      2841 6.17850E+01 7.90325E+00 0.00000E+00
 -1      2842 6.10350E+01 9.20225E+00 0.00000E+00
 -1      2843 6.62850E+01 7.90325E+00 0.00000E+00
 -1      2844 6.47850E+01 7.90325E+00 0.00000E+00
 -1      2845 6.40350E+01 9.20225E+00 0.00000E+00
 -1      2846 6.92850E+01 7.90325E+00 0.00000E+00
 -1      2847 6.77850E+01 7.90325E+00 0.00000E+00
 -1      2848 6.70350E+01 9.20225E+00 0.00000E+00
 -1      2849 7.22850E+01 7.90325E+00 0.00000E+00
 -1      2850 7.07850E+01 7.90325E+00 0.00000E+00
 -1      2851 7.00350E+01 9.20225E+00 0.00000E+00
 -1      2852 7.52850E+01 7.90325E+00 0.00000E+00
 -1      2853 7.37850E+01 7.90325E+00 0.00000E+00
 -1      2854 7.30350E+01 9.20225E+00 0.00000E+00
 -1      2855 8.18443E+01 7.96621E+00 0.00000E+00
 -1      2856 8.03443E+01 7.96621E+00 0.00000E+00
 -1      2857 8.33443E+01 7.96621E+00 0.00000E+00
 -1      2858 8.72850E+01 7.88073E+00 0.00000E+00
 -1      2859 8.57850E+01 7.88073E+00 0.00000E+00
 -1      2860 9.02850E+01 7.88073E+00 0.00000E+00
 -1      2861 8.87850E+01 7.88073E+00 0.00000E+00
 -1      2862 8.80350E+01 9.15721E+00 0.00000E+00
 -1      2863 9.32850E+01 7.88073E+00 0.00000E+00
 -1      2864 9.17850E+01 7.88073E+00 0.00000E+00
 -1      2865 9.10350E+01 9.15721E+00 0.00000E+00
 -1      2866 9.62850E+01 7.88073E+00 0.00000E+00
 -1      2867 9.47850E+01 7.88073E+00 0.00000E+00
 -1      2868 9.40350E+01 9.15721E+00 0.00000E+00
 -1      2869 9.92850E+01 7.88073E+00 0.00000E+00
 -1      2870 9.77850E+01 7.88073E+00 0.00000E+00
 -1      2871 9.70350E+01 9.15721E+00 0.00000E+00
 -1      2872 1.02285E+02 7.88073E+00 0.00000E+00
 -1      2873 1.00785E+02 7.88073E+00 0.00000E+00
 -1      2874 1.00035E+02 9.15721E+00 0.00000E+00
 -1      2875 1.05285E+02 7.88073E+00 0.00000E+00
 -1      2876 1.03785E+02 7.88073E+00 0.00000E+00
 -1      2877 1.03035E+02 9.15721E+00 0.00000E+00
 -1      2878 1.08285E+02 7.88073E+00 0.00000E+00
 -1      2879 1.06785E+02 7.88073E+00 0.00000E+00
 -1      2880 1.06035E+02 9.15721E+00 0.00000E+00
 -1      2881 1.11285E+02 7.88073E+00 0.00000E+00
 -1      2882 1.09785E+02 7.88073E+00 0.00000E+00
 -1      2883 1.09035E+02 9.15721E+00 0.00000E+00
 -1      2884 1.14285E+02 7.88073E+00 0.00000E+00
 -1      2885 1.12785E+02 7.88073E+00 0.00000E+00
 -1      2886 1.12035E+02 9.15721E+00 0.00000E+00
 -1      2887 1.17285E+02 7.88073E+00 0.00000E+00
 -1      2888 1.15785E+02 7.88073E+00 0.00000E+00
 -1      2889 1.15035E+02 9.15721E+00 0.00000E+00
 -1      2890 1.20285E+02 7.88073E+00 0.00000E+00
 -1      2891 1.18785E+02 7.88073E+00 0.00000E+00
 -1      2892 1.18035E+02 9.15721E+00 0.00000E+00
 -1      2893 1.23285E+02 7.88073E+00 0.00000E+00
 -1      2894 1.21785E+02 7.88073E+00 0.00000E+00
 -1      2895 1.21035E+02 9.15721E+00 0.00000E+00
 -1      2896 1.26285E+02 7.88073E+00 0.00000E+00
 -1      2897 1.24785E+02 7.88073E+00 0.00000E+00
 -1      2898 1.24035E+02 9.15721E+00 0.00000E+00
 -1      2899 1.29285E+02 7.88073E+00 0.00000E+00
 -1      2900 1.27785E+02 7.88073E+00 0.00000E+00
 -1      2901 1.27035E+02 9.15721E+00 0.00000E+00
 -1      2902 1.32285E+02 7.88073E+00 0.00000E+00
 -1      2903 1.30785E+02 7.88073E+00 0.00000E+00
 -1      2904 1.30035E+02 9.15721E+00 0.00000E+00
 -1      2905 1.35285E+02 7.88073E+00 0.00000E+00
 -1      2906 1.33785E+02 7.88073E+00 0.00000E+00
 -1      2907 1.33035E+02 9.15721E+00 0.00000E+00
 -1      2908 1.38285E+02 7.88073E+00 0.00000E+00
 -1      2909 1.36785E+02 7.88073E+00 0.00000E+00
 -1      2910 1.36035E+02 9.15721E+00 0.00000E+00
 -1      2911 1.40953E+02 8.17268E+00 0.00000E+00
 -1      2912 1.39453E+02 8.17268E+00 0.00000E+00
 -1      2913 1.38703E+02 9.44916E+00 0.00000E+00
 -1      2914 1.41038E+02 1.00331E+01 0.00000E+00
 -1      2915 9.32086E+01 2.38173E+01 0.00000E+00
 -1      2916 9.28118E+01 2.50258E+01 0.00000E+00
 -1      2917 1.40907E+02 2.42875E+01 0.00000E+00
 -1      2918 1.40907E+02 2.28125E+01 0.00000E+00
 -1      2919 6.95803E+01 1.99203E+01 0.00000E+00
 -1      2920 6.97222E+01 1.88531E+01 0.00000E+00
 -1      2921 1.40907E+02 1.83875E+01 0.00000E+00
 -1      2922 1.40907E+02 1.69125E+01 0.00000E+00
 -1      2923 1.40907E+02 2.72375E+01 0.00000E+00
 -1      2924 1.40907E+02 2.57625E+01 0.00000E+00
 -1      2925 1.39608E+02 2.50250E+01 0.00000E+00
 -1      2926 1.40907E+02 2.13375E+01 0.00000E+00
 -1      2927 1.40907E+02 1.98625E+01 0.00000E+00
 -1      2928 1.39608E+02 1.91250E+01 0.00000E+00
 -1      2929 1.39608E+02 2.20750E+01 0.00000E+00
 -1      2930 9.16455E+01 1.61816E+01 0.00000E+00
 -1      2931 9.23450E+01 1.71451E+01 0.00000E+00
 -1      2932 1.40907E+02 3.01375E+01 0.00000E+00
 -1      2933 1.40907E+02 2.86875E+01 0.00000E+00
 -1      2934 1.39608E+02 2.79500E+01 0.00000E+00
 -1      2935 1.40907E+02 3.30875E+01 0.00000E+00
 -1      2936 1.40907E+02 3.16125E+01 0.00000E+00
 -1      2937 1.39608E+02 3.08750E+01 0.00000E+00
 -1      2938 1.40907E+02 3.60375E+01 0.00000E+00
 -1      2939 1.40907E+02 3.45625E+01 0.00000E+00
 -1      2940 1.39608E+02 3.38250E+01 0.00000E+00
 -1      2941 1.82850E+01 7.90325E+00 0.00000E+00
 -1      2942 1.67850E+01 7.90325E+00 0.00000E+00
 -1      2943 1.60350E+01 9.20225E+00 0.00000E+00
 -1      2944 1.90350E+01 9.20225E+00 0.00000E+00
 -1      2945 9.34412E+01 2.09486E+01 0.00000E+00
 -1      2946 9.35021E+01 2.22505E+01 0.00000E+00
 -1      2947 8.83580E+01 1.18807E+01 0.00000E+00
 -1      2948 8.93400E+01 1.25168E+01 0.00000E+00
 -1      2949 8.73070E+01 3.23065E+01 0.00000E+00
 -1      2950 8.59940E+01 3.26477E+01 0.00000E+00
 -1      2951 1.40928E+02 4.09655E+01 0.00000E+00
 -1      2952 1.41192E+02 3.96958E+01 0.00000E+00
 -1      2953 1.39914E+02 4.09362E+01 0.00000E+00
 -1      2954 2.72850E+01 7.90325E+00 0.00000E+00
 -1      2955 2.57850E+01 7.90325E+00 0.00000E+00
 -1      2956 2.80350E+01 9.20225E+00 0.00000E+00
 -1      2957 2.42850E+01 7.90325E+00 0.00000E+00
 -1      2958 2.27850E+01 7.90325E+00 0.00000E+00
 -1      2959 2.50350E+01 9.20225E+00 0.00000E+00
 -1      2960 1.14000E+01 4.09070E+01 0.00000E+00
 -1      2961 1.29000E+01 4.09070E+01 0.00000E+00
 -1      2962 1.36500E+01 3.96080E+01 0.00000E+00
 -1      2963 9.13369E+01 2.88439E+01 0.00000E+00
 -1      2964 9.05585E+01 3.00472E+01 0.00000E+00
 -1      2965 9.09300E+00 1.68813E+01 0.00000E+00
 -1      2966 9.09300E+00 1.83563E+01 0.00000E+00
 -1      2967 1.03920E+01 1.90812E+01 0.00000E+00
 -1      2968 1.03920E+01 1.61437E+01 0.00000E+00
 -1      2969 9.09300E+00 3.15875E+01 0.00000E+00
 -1      2970 9.09300E+00 3.30625E+01 0.00000E+00
 -1      2971 7.21622E+01 2.96006E+01 0.00000E+00
 -1      2972 7.14722E+01 2.87099E+01 0.00000E+00
 -1      2973 8.39412E+01 9.47737E+00 0.00000E+00
 -1      2974 8.50049E+01 1.00825E+01 0.00000E+00
 -1      2975 7.79811E+01 1.01135E+01 0.00000E+00
 -1      2976 7.90414E+01 9.71811E+00 0.00000E+00
 -1      2977 7.56155E+01 1.14196E+01 0.00000E+00
 -1      2978 7.66468E+01 1.06589E+01 0.00000E+00
 -1      2979 7.15279E+01 1.47025E+01 0.00000E+00
 -1      2980 7.23249E+01 1.37126E+01 0.00000E+00
 -1      2981 6.94497E+01 2.22548E+01 0.00000E+00
 -1      2982 6.93747E+01 2.11653E+01 0.00000E+00
 -1      2983 9.23610E+01 2.62629E+01 0.00000E+00
 -1      2984 9.18945E+01 2.74244E+01 0.00000E+00
 -1      2985 7.37105E+01 3.13188E+01 0.00000E+00
 -1      2986 7.29495E+01 3.05182E+01 0.00000E+00
 -1      2987 7.88445E+01 3.39211E+01 0.00000E+00
 -1      2988 7.77637E+01 3.35476E+01 0.00000E+00
 -1      2989 8.95991E+01 3.12708E+01 0.00000E+00
 -1      2990 8.88187E+01 3.18777E+01 0.00000E+00
 -1      2991 1.03920E+01 3.37938E+01 0.00000E+00
 -1      2992 9.09300E+00 3.45313E+01 0.00000E+00
 -1      2993 9.09300E+00 3.60000E+01 0.00000E+00
 -1      2994 1.03920E+01 2.49750E+01 0.00000E+00
 -1      2995 9.09300E+00 2.57000E+01 0.00000E+00
 -1      2996 9.09300E+00 2.71750E+01 0.00000E+00
 -1      2997 9.66450E+00 9.72612E+00 0.00000E+00
 -1      2998 9.42446E+01 2.02003E+01 0.00000E+00
 -1      2999 9.08490E+01 3.12260E+01 0.00000E+00
 -1      3000 7.95204E+01 3.48835E+01 0.00000E+00
 -1      3001 7.41370E+01 3.22079E+01 0.00000E+00
 -1      3002 7.30742E+01 3.24561E+01 0.00000E+00
 -1      3003 7.45636E+01 3.30970E+01 0.00000E+00
 -1      3004 2.20350E+01 9.20225E+00 0.00000E+00
 -1      3005 9.01263E+01 1.27806E+01 0.00000E+00
 -1      3006 9.09125E+01 1.30445E+01 0.00000E+00
 -1      3007 9.01470E+01 1.16725E+01 0.00000E+00
 -1      3008 9.17905E+01 1.51561E+01 0.00000E+00
 -1      3009 9.33742E+01 2.59262E+01 0.00000E+00
 -1      3010 1.39164E+02 3.96372E+01 0.00000E+00
 -1      3011 8.25688E+01 3.44989E+01 0.00000E+00
 -1      3012 8.18355E+01 3.54184E+01 0.00000E+00
 -1      3013 8.33602E+01 3.47743E+01 0.00000E+00
 -1      3014 6.91232E+01 2.30166E+01 0.00000E+00
 -1      3015 6.81466E+01 2.25365E+01 0.00000E+00
 -1      3016 6.87967E+01 2.37785E+01 0.00000E+00
 -1      3017 9.50283E+01 2.24273E+01 0.00000E+00
 -1      3018 9.41184E+01 2.31223E+01 0.00000E+00
 -1      3019 9.47348E+01 2.39941E+01 0.00000E+00
 -1      3020 7.06427E+01 1.51400E+01 0.00000E+00
 -1      3021 7.03732E+01 1.41072E+01 0.00000E+00
 -1      3022 6.97576E+01 1.55774E+01 0.00000E+00
 -1      3023 7.86379E+01 7.89751E+00 0.00000E+00
 -1      3024 7.71379E+01 7.89751E+00 0.00000E+00
 -1      3025 1.41038E+02 1.14956E+01 0.00000E+00
 -1      3026 1.39870E+02 1.12036E+01 0.00000E+00
 -1      3027 1.41038E+02 1.29581E+01 0.00000E+00
 -1      3028 7.46961E+01 1.12051E+01 0.00000E+00
 -1      3029 9.33832E+01 1.75023E+01 0.00000E+00
 -1      3030 6.86177E+01 1.83791E+01 0.00000E+00
 -1      3031 6.94556E+01 1.79474E+01 0.00000E+00
 -1      3032 6.91891E+01 1.70417E+01 0.00000E+00
 -1      3033 7.69066E+01 9.73623E+00 0.00000E+00
 -1      3034 1.41192E+02 3.82207E+01 0.00000E+00
 -1      3035 7.68115E+01 3.37364E+01 0.00000E+00
 -1      3036 7.58593E+01 3.39252E+01 0.00000E+00
 -1      3037 7.70444E+01 3.48129E+01 0.00000E+00
 -1      3038 8.83780E+01 3.28783E+01 0.00000E+00
 -1      3039 6.86786E+01 2.05297E+01 0.00000E+00
 -1      3040 8.54798E+01 3.35810E+01 0.00000E+00
 -1      3041 7.07794E+01 2.82686E+01 0.00000E+00
 -1      3042 7.00866E+01 2.78273E+01 0.00000E+00
 -1      3043 7.03803E+01 2.92905E+01 0.00000E+00
 -1      3044 1.09635E+01 1.04636E+01 0.00000E+00
 -1      3045 1.40973E+02 1.56665E+01 0.00000E+00
 -1      3046 1.40973E+02 1.42040E+01 0.00000E+00
 -1      3047 1.39805E+02 1.39121E+01 0.00000E+00
 -1      3048 1.39674E+02 1.64040E+01 0.00000E+00
 -1      3049 7.25391E+01 1.28992E+01 0.00000E+00
 -1      3050 7.27533E+01 1.20857E+01 0.00000E+00
 -1      3051 7.14726E+01 1.28564E+01 0.00000E+00
 -1      3052 9.09300E+00 2.86437E+01 0.00000E+00
 -1      3053 9.09300E+00 3.01187E+01 0.00000E+00
 -1      3054 1.03920E+01 3.08563E+01 0.00000E+00
 -1      3055 1.03920E+01 2.79188E+01 0.00000E+00
 -1      3056 9.23660E+01 2.85829E+01 0.00000E+00
 -1      3057 7.01295E+01 2.55320E+01 0.00000E+00
 -1      3058 6.94223E+01 2.51003E+01 0.00000E+00
 -1      3059 6.97784E+01 2.63737E+01 0.00000E+00
 -1      3060 8.61529E+01 1.05897E+01 0.00000E+00
 -1      3061 8.72638E+01 1.12191E+01 0.00000E+00
 -1      3062 7.18604E+01 3.06494E+01 0.00000E+00
 -1      3063 1.39529E+02 3.85602E+01 0.00000E+00
 -1      3064 1.40542E+02 3.71145E+01 0.00000E+00
 -1      3065 1.39243E+02 3.63770E+01 0.00000E+00
 -1      3066 1.38514E+02 3.85310E+01 0.00000E+00
 -1      3067 9.15750E+00 3.77359E+01 0.00000E+00
 -1      3068 9.22200E+00 4.02061E+01 0.00000E+00
 -1      3069 1.05855E+01 4.04701E+01 0.00000E+00
 -1      3070 1.04565E+01 3.69984E+01 0.00000E+00
 -1      3071 8.82665E+01 1.07470E+01 0.00000E+00
 -1      3072 1.13355E+01 3.91711E+01 0.00000E+00
 -1      3073 9.51783E+01 1.93970E+01 0.00000E+00
 -1      3074 9.53456E+01 2.07522E+01 0.00000E+00
 -1      3075 1.16910E+01 1.24625E+01 0.00000E+00
 -1      3076 1.16910E+01 1.39375E+01 0.00000E+00
 -1      3077 3.47850E+01 1.05013E+01 0.00000E+00
 -1      3078 3.32850E+01 1.05013E+01 0.00000E+00
 -1      3079 1.59000E+01 3.83090E+01 0.00000E+00
 -1      3080 1.74000E+01 3.83090E+01 0.00000E+00
 -1      3081 8.00961E+01 3.61064E+01 0.00000E+00
 -1      3082 7.85724E+01 3.58470E+01 0.00000E+00
 -1      3083 1.89000E+01 3.83090E+01 0.00000E+00
 -1      3084 2.04000E+01 3.83090E+01 0.00000E+00
 -1      3085 1.81500E+01 3.70100E+01 0.00000E+00
 -1      3086 2.19000E+01 3.83090E+01 0.00000E+00
 -1      3087 2.34000E+01 3.83090E+01 0.00000E+00
 -1      3088 2.11500E+01 3.70100E+01 0.00000E+00
 -1      3089 2.49000E+01 3.83090E+01 0.00000E+00
 -1      3090 2.64000E+01 3.83090E+01 0.00000E+00
 -1      3091 2.41500E+01 3.70100E+01 0.00000E+00
 -1      3092 2.79000E+01 3.83090E+01 0.00000E+00
 -1      3093 2.94000E+01 3.83090E+01 0.00000E+00
 -1      3094 2.71500E+01 3.70100E+01 0.00000E+00
 -1      3095 3.09000E+01 3.83090E+01 0.00000E+00
 -1      3096 3.24000E+01 3.83090E+01 0.00000E+00
 -1      3097 3.01500E+01 3.70100E+01 0.00000E+00
 -1      3098 3.39000E+01 3.83090E+01 0.00000E+00
 -1      3099 3.54000E+01 3.83090E+01 0.00000E+00
 -1      3100 3.31500E+01 3.70100E+01 0.00000E+00
 -1      3101 3.69000E+01 3.83090E+01 0.00000E+00
 -1      3102 3.84000E+01 3.83090E+01 0.00000E+00
 -1      3103 3.61500E+01 3.70100E+01 0.00000E+00
 -1      3104 3.99000E+01 3.83090E+01 0.00000E+00
 -1      3105 4.14000E+01 3.83090E+01 0.00000E+00
 -1      3106 3.91500E+01 3.70100E+01 0.00000E+00
 -1      3107 4.29000E+01 3.83090E+01 0.00000E+00
 -1      3108 4.44000E+01 3.83090E+01 0.00000E+00
 -1      3109 4.21500E+01 3.70100E+01 0.00000E+00
 -1      3110 4.59000E+01 3.83090E+01 0.00000E+00
 -1      3111 4.74000E+01 3.83090E+01 0.00000E+00
 -1      3112 4.51500E+01 3.70100E+01 0.00000E+00
 -1      3113 4.89000E+01 3.83090E+01 0.00000E+00
 -1      3114 5.04000E+01 3.83090E+01 0.00000E+00
 -1      3115 4.81500E+01 3.70100E+01 0.00000E+00
 -1      3116 5.19000E+01 3.83090E+01 0.00000E+00
 -1      3117 5.34000E+01 3.83090E+01 0.00000E+00
 -1      3118 5.11500E+01 3.70100E+01 0.00000E+00
 -1      3119 5.49000E+01 3.83090E+01 0.00000E+00
 -1      3120 5.64000E+01 3.83090E+01 0.00000E+00
 -1      3121 5.41500E+01 3.70100E+01 0.00000E+00
 -1      3122 5.79000E+01 3.83090E+01 0.00000E+00
 -1      3123 5.94000E+01 3.83090E+01 0.00000E+00
 -1      3124 5.71500E+01 3.70100E+01 0.00000E+00
 -1      3125 6.09000E+01 3.83090E+01 0.00000E+00
 -1      3126 6.24000E+01 3.83090E+01 0.00000E+00
 -1      3127 6.01500E+01 3.70100E+01 0.00000E+00
 -1      3128 6.39000E+01 3.83090E+01 0.00000E+00
 -1      3129 6.54000E+01 3.83090E+01 0.00000E+00
 -1      3130 6.31500E+01 3.70100E+01 0.00000E+00
 -1      3131 6.69000E+01 3.83090E+01 0.00000E+00
 -1      3132 6.84000E+01 3.83090E+01 0.00000E+00
 -1      3133 6.61500E+01 3.70100E+01 0.00000E+00
 -1      3134 6.99000E+01 3.83090E+01 0.00000E+00
 -1      3135 7.14000E+01 3.83090E+01 0.00000E+00
 -1      3136 6.91500E+01 3.70100E+01 0.00000E+00
 -1      3137 7.29000E+01 3.83090E+01 0.00000E+00
 -1      3138 7.44000E+01 3.83090E+01 0.00000E+00
 -1      3139 7.21500E+01 3.70100E+01 0.00000E+00
 -1      3140 7.56211E+01 3.73048E+01 0.00000E+00
 -1      3141 7.71211E+01 3.73048E+01 0.00000E+00
 -1      3142 8.18885E+01 3.76509E+01 0.00000E+00
 -1      3143 8.33885E+01 3.76509E+01 0.00000E+00
 -1      3144 8.79000E+01 3.83090E+01 0.00000E+00
 -1      3145 8.94000E+01 3.83090E+01 0.00000E+00
 -1      3146 9.09000E+01 3.83090E+01 0.00000E+00
 -1      3147 9.24000E+01 3.83090E+01 0.00000E+00
 -1      3148 9.01500E+01 3.70100E+01 0.00000E+00
 -1      3149 9.39000E+01 3.83090E+01 0.00000E+00
 -1      3150 9.54000E+01 3.83090E+01 0.00000E+00
 -1      3151 9.31500E+01 3.70100E+01 0.00000E+00
 -1      3152 9.69000E+01 3.83090E+01 0.00000E+00
 -1      3153 9.84000E+01 3.83090E+01 0.00000E+00
 -1      3154 9.61500E+01 3.70100E+01 0.00000E+00
 -1      3155 9.99000E+01 3.83090E+01 0.00000E+00
 -1      3156 1.01400E+02 3.83090E+01 0.00000E+00
 -1      3157 9.91500E+01 3.70100E+01 0.00000E+00
 -1      3158 1.02900E+02 3.83090E+01 0.00000E+00
 -1      3159 1.04400E+02 3.83090E+01 0.00000E+00
 -1      3160 1.02150E+02 3.70100E+01 0.00000E+00
 -1      3161 1.05900E+02 3.83090E+01 0.00000E+00
 -1      3162 1.07400E+02 3.83090E+01 0.00000E+00
 -1      3163 1.05150E+02 3.70100E+01 0.00000E+00
 -1      3164 1.08900E+02 3.83090E+01 0.00000E+00
 -1      3165 1.10400E+02 3.83090E+01 0.00000E+00
 -1      3166 1.08150E+02 3.70100E+01 0.00000E+00
 -1      3167 1.11900E+02 3.83090E+01 0.00000E+00
 -1      3168 1.13400E+02 3.83090E+01 0.00000E+00
 -1      3169 1.11150E+02 3.70100E+01 0.00000E+00
 -1      3170 1.14900E+02 3.83090E+01 0.00000E+00
 -1      3171 1.16400E+02 3.83090E+01 0.00000E+00
 -1      3172 1.14150E+02 3.70100E+01 0.00000E+00
 -1      3173 1.17900E+02 3.83090E+01 0.00000E+00
 -1      3174 1.19400E+02 3.83090E+01 0.00000E+00
 -1      3175 1.17150E+02 3.70100E+01 0.00000E+00
 -1      3176 1.20900E+02 3.83090E+01 0.00000E+00
 -1      3177 1.22400E+02 3.83090E+01 0.00000E+00
 -1      3178 1.20150E+02 3.70100E+01 0.00000E+00
 -1      3179 1.23900E+02 3.83090E+01 0.00000E+00
 -1      3180 1.25400E+02 3.83090E+01 0.00000E+00
 -1      3181 1.23150E+02 3.70100E+01 0.00000E+00
 -1      3182 1.26900E+02 3.83090E+01 0.00000E+00
 -1      3183 1.28400E+02 3.83090E+01 0.00000E+00
 -1      3184 1.26150E+02 3.70100E+01 0.00000E+00
 -1      3185 1.29900E+02 3.83090E+01 0.00000E+00
 -1      3186 1.31400E+02 3.83090E+01 0.00000E+00
 -1      3187 1.29150E+02 3.70100E+01 0.00000E+00
 -1      3188 1.32900E+02 3.83090E+01 0.00000E+00
 -1      3189 1.34400E+02 3.83090E+01 0.00000E+00
 -1      3190 1.32150E+02 3.70100E+01 0.00000E+00
 -1      3191 1.35707E+02 3.84200E+01 0.00000E+00
 -1      3192 1.37207E+02 3.84200E+01 0.00000E+00
 -1      3193 1.37572E+02 3.73430E+01 0.00000E+00
 -1      3194 1.34957E+02 3.71210E+01 0.00000E+00
 -1      3195 7.99473E+01 9.25947E+00 0.00000E+00
 -1      3196 3.17850E+01 1.05013E+01 0.00000E+00
 -1      3197 3.02850E+01 1.05013E+01 0.00000E+00
 -1      3198 3.25350E+01 1.18003E+01 0.00000E+00
 -1      3199 4.07850E+01 1.05013E+01 0.00000E+00
 -1      3200 3.92850E+01 1.05013E+01 0.00000E+00
 -1      3201 4.37850E+01 1.05013E+01 0.00000E+00
 -1      3202 4.22850E+01 1.05013E+01 0.00000E+00
 -1      3203 4.15350E+01 1.18003E+01 0.00000E+00
 -1      3204 4.67850E+01 1.05013E+01 0.00000E+00
 -1      3205 4.52850E+01 1.05013E+01 0.00000E+00
 -1      3206 4.45350E+01 1.18003E+01 0.00000E+00
 -1      3207 4.97850E+01 1.05013E+01 0.00000E+00
 -1      3208 4.82850E+01 1.05013E+01 0.00000E+00
 -1      3209 4.75350E+01 1.18003E+01 0.00000E+00
 -1      3210 5.27850E+01 1.05013E+01 0.00000E+00
 -1      3211 5.12850E+01 1.05013E+01 0.00000E+00
 -1      3212 5.05350E+01 1.18003E+01 0.00000E+00
 -1      3213 5.57850E+01 1.05013E+01 0.00000E+00
 -1      3214 5.42850E+01 1.05013E+01 0.00000E+00
 -1      3215 5.35350E+01 1.18003E+01 0.00000E+00
 -1      3216 5.87850E+01 1.05013E+01 0.00000E+00
 -1      3217 5.72850E+01 1.05013E+01 0.00000E+00
 -1      3218 5.65350E+01 1.18003E+01 0.00000E+00
 -1      3219 6.17850E+01 1.05013E+01 0.00000E+00
 -1      3220 6.02850E+01 1.05013E+01 0.00000E+00
 -1      3221 5.95350E+01 1.18003E+01 0.00000E+00
 -1      3222 6.47850E+01 1.05013E+01 0.00000E+00
 -1      3223 6.32850E+01 1.05013E+01 0.00000E+00
 -1      3224 6.25350E+01 1.18003E+01 0.00000E+00
 -1      3225 6.77850E+01 1.05013E+01 0.00000E+00
 -1      3226 6.62850E+01 1.05013E+01 0.00000E+00
 -1      3227 6.55350E+01 1.18003E+01 0.00000E+00
 -1      3228 7.16109E+01 1.06226E+01 0.00000E+00
 -1      3229 7.01109E+01 1.06226E+01 0.00000E+00
 -1      3230 7.31109E+01 1.06226E+01 0.00000E+00
 -1      3231 7.63879E+01 9.19651E+00 0.00000E+00
 -1      3232 8.57057E+01 9.11411E+00 0.00000E+00
 -1      3233 8.49557E+01 7.83762E+00 0.00000E+00
 -1      3234 8.32650E+01 9.19958E+00 0.00000E+00
 -1      3235 9.77850E+01 1.04562E+01 0.00000E+00
 -1      3236 9.62850E+01 1.04562E+01 0.00000E+00
 -1      3237 1.00785E+02 1.04562E+01 0.00000E+00
 -1      3238 9.92850E+01 1.04562E+01 0.00000E+00
 -1      3239 9.85350E+01 1.17552E+01 0.00000E+00
 -1      3240 1.03785E+02 1.04562E+01 0.00000E+00
 -1      3241 1.02285E+02 1.04562E+01 0.00000E+00
 -1      3242 1.01535E+02 1.17552E+01 0.00000E+00
 -1      3243 1.06785E+02 1.04562E+01 0.00000E+00
 -1      3244 1.05285E+02 1.04562E+01 0.00000E+00
 -1      3245 1.04535E+02 1.17552E+01 0.00000E+00
 -1      3246 1.09785E+02 1.04562E+01 0.00000E+00
 -1      3247 1.08285E+02 1.04562E+01 0.00000E+00
 -1      3248 1.07535E+02 1.17552E+01 0.00000E+00
 -1      3249 1.12785E+02 1.04562E+01 0.00000E+00
 -1      3250 1.11285E+02 1.04562E+01 0.00000E+00
 -1      3251 1.10535E+02 1.17552E+01 0.00000E+00
 -1      3252 1.15785E+02 1.04562E+01 0.00000E+00
 -1      3253 1.14285E+02 1.04562E+01 0.00000E+00
 -1      3254 1.13535E+02 1.17552E+01 0.00000E+00
 -1      3255 1.18785E+02 1.04562E+01 0.00000E+00
 -1      3256 1.17285E+02 1.04562E+01 0.00000E+00
 -1      3257 1.16535E+02 1.17552E+01 0.00000E+00
 -1      3258 1.21785E+02 1.04562E+01 0.00000E+00
 -1      3259 1.20285E+02 1.04562E+01 0.00000E+00
 -1      3260 1.19535E+02 1.17552E+01 0.00000E+00
 -1      3261 1.24785E+02 1.04562E+01 0.00000E+00
 -1      3262 1.23285E+02 1.04562E+01 0.00000E+00
 -1      3263 1.22535E+02 1.17552E+01 0.00000E+00
 -1      3264 1.27785E+02 1.04562E+01 0.00000E+00
 -1      3265 1.26285E+02 1.04562E+01 0.00000E+00
 -1      3266 1.25535E+02 1.17552E+01 0.00000E+00
 -1      3267 1.30785E+02 1.04562E+01 0.00000E+00
 -1      3268 1.29285E+02 1.04562E+01 0.00000E+00
 -1      3269 1.28535E+02 1.17552E+01 0.00000E+00
 -1      3270 1.33785E+02 1.04562E+01 0.00000E+00
 -1      3271 1.32285E+02 1.04562E+01 0.00000E+00
 -1      3272 1.31535E+02 1.17552E+01 0.00000E+00
 -1      3273 1.36785E+02 1.04562E+01 0.00000E+00
 -1      3274 1.35285E+02 1.04562E+01 0.00000E+00
 -1      3275 1.34535E+02 1.17552E+01 0.00000E+00
 -1      3276 1.38912E+02 1.09759E+01 0.00000E+00
 -1      3277 1.37744E+02 1.06839E+01 0.00000E+00
 -1      3278 1.36994E+02 1.19829E+01 0.00000E+00
 -1      3279 1.38912E+02 1.24384E+01 0.00000E+00
 -1      3280 1.38309E+02 2.57625E+01 0.00000E+00
 -1      3281 1.38309E+02 2.42875E+01 0.00000E+00
 -1      3282 1.38309E+02 3.45625E+01 0.00000E+00
 -1      3283 1.38309E+02 3.30875E+01 0.00000E+00
 -1      3284 1.38309E+02 2.86625E+01 0.00000E+00
 -1      3285 1.38309E+02 2.72125E+01 0.00000E+00
 -1      3286 1.37010E+02 2.64750E+01 0.00000E+00
 -1      3287 1.16460E+01 3.80848E+01 0.00000E+00
 -1      3288 1.24605E+01 3.85216E+01 0.00000E+00
 -1      3289 1.39605E+01 3.85216E+01 0.00000E+00
 -1      3290 1.15815E+01 3.63489E+01 0.00000E+00
 -1      3291 1.38309E+02 3.16125E+01 0.00000E+00
 -1      3292 1.38309E+02 3.01375E+01 0.00000E+00
 -1      3293 1.37010E+02 2.94000E+01 0.00000E+00
 -1      3294 1.37010E+02 3.23500E+01 0.00000E+00
 -1      3295 9.44053E+01 2.56012E+01 0.00000E+00
 -1      3296 9.39546E+01 2.68383E+01 0.00000E+00
 -1      3297 9.20424E+01 1.40263E+01 0.00000E+00
 -1      3298 9.29411E+01 1.50298E+01 0.00000E+00
 -1      3299 9.43640E+01 1.15286E+01 0.00000E+00
 -1      3300 9.28640E+01 1.15286E+01 0.00000E+00
 -1      3301 3.77850E+01 1.05013E+01 0.00000E+00
 -1      3302 3.62850E+01 1.05013E+01 0.00000E+00
 -1      3303 3.55350E+01 1.18003E+01 0.00000E+00
 -1      3304 3.85350E+01 1.18003E+01 0.00000E+00
 -1      3305 9.22673E+01 3.13501E+01 0.00000E+00
 -1      3306 9.13080E+01 3.25737E+01 0.00000E+00
 -1      3307 2.87850E+01 1.05013E+01 0.00000E+00
 -1      3308 2.72850E+01 1.05013E+01 0.00000E+00
 -1      3309 2.95350E+01 1.18003E+01 0.00000E+00
 -1      3310 2.57850E+01 1.05013E+01 0.00000E+00
 -1      3311 2.42850E+01 1.05013E+01 0.00000E+00
 -1      3312 2.65350E+01 1.18003E+01 0.00000E+00
 -1      3313 1.16910E+01 2.12875E+01 0.00000E+00
 -1      3314 1.16910E+01 2.27625E+01 0.00000E+00
 -1      3315 8.60244E+01 9.57819E+00 0.00000E+00
 -1      3316 7.13489E+01 3.18848E+01 0.00000E+00
 -1      3317 7.05616E+01 3.09672E+01 0.00000E+00
 -1      3318 1.26488E+01 1.02017E+01 0.00000E+00
 -1      3319 1.20772E+01 1.14631E+01 0.00000E+00
 -1      3320 1.33763E+01 1.22006E+01 0.00000E+00
 -1      3321 1.41488E+01 1.02017E+01 0.00000E+00
 -1      3322 9.39468E+01 1.63602E+01 0.00000E+00
 -1      3323 9.46408E+01 1.77030E+01 0.00000E+00
 -1      3324 8.63717E+01 3.44497E+01 0.00000E+00
 -1      3325 8.49853E+01 3.47236E+01 0.00000E+00
 -1      3326 8.94593E+01 3.38114E+01 0.00000E+00
 -1      3327 8.79475E+01 3.42402E+01 0.00000E+00
 -1      3328 2.27850E+01 1.05013E+01 0.00000E+00
 -1      3329 2.12850E+01 1.05013E+01 0.00000E+00
 -1      3330 2.35350E+01 1.18003E+01 0.00000E+00
 -1      3331 6.75644E+01 2.09852E+01 0.00000E+00
 -1      3332 6.77700E+01 1.97402E+01 0.00000E+00
 -1      3333 9.37549E+01 2.83091E+01 0.00000E+00
 -1      3334 9.31973E+01 2.97287E+01 0.00000E+00
 -1      3335 1.16910E+01 2.42375E+01 0.00000E+00
 -1      3336 1.16910E+01 2.57125E+01 0.00000E+00
 -1      3337 1.29900E+01 2.35000E+01 0.00000E+00
 -1      3338 1.29900E+01 1.46687E+01 0.00000E+00
 -1      3339 1.16910E+01 1.54063E+01 0.00000E+00
 -1      3340 1.16910E+01 1.68750E+01 0.00000E+00
 -1      3341 9.21881E+01 3.48539E+01 0.00000E+00
 -1      3342 9.07698E+01 3.47298E+01 0.00000E+00
 -1      3343 9.63056E+01 1.71129E+01 0.00000E+00
 -1      3344 9.57419E+01 1.82549E+01 0.00000E+00
 -1      3345 9.68430E+01 1.88069E+01 0.00000E+00
 -1      3346 1.16910E+01 3.30594E+01 0.00000E+00
 -1      3347 1.16910E+01 3.45281E+01 0.00000E+00
 -1      3348 7.47965E+01 3.41734E+01 0.00000E+00
 -1      3349 7.48711E+01 3.60058E+01 0.00000E+00
 -1      3350 7.05874E+01 1.32938E+01 0.00000E+00
 -1      3351 7.08016E+01 1.24803E+01 0.00000E+00
 -1      3352 6.97023E+01 1.37312E+01 0.00000E+00
 -1      3353 8.42521E+01 3.56431E+01 0.00000E+00
 -1      3354 8.50136E+01 3.76002E+01 0.00000E+00
 -1      3355 7.86491E+01 3.83389E+01 0.00000E+00
 -1      3356 8.01491E+01 3.83389E+01 0.00000E+00
 -1      3357 8.65136E+01 3.76002E+01 0.00000E+00
 -1      3358 6.84457E+01 2.46202E+01 0.00000E+00
 -1      3359 6.74691E+01 2.41401E+01 0.00000E+00
 -1      3360 6.80946E+01 2.54619E+01 0.00000E+00
 -1      3361 9.59620E+01 2.16241E+01 0.00000E+00
 -1      3362 9.65783E+01 2.24959E+01 0.00000E+00
 -1      3363 9.68957E+01 2.08208E+01 0.00000E+00
 -1      3364 6.89196E+01 1.60090E+01 0.00000E+00
 -1      3365 6.86501E+01 1.49763E+01 0.00000E+00
 -1      3366 6.80816E+01 1.64406E+01 0.00000E+00
 -1      3367 9.20631E+01 1.29182E+01 0.00000E+00
 -1      3368 6.63893E+01 1.92900E+01 0.00000E+00
 -1      3369 6.75035E+01 1.88345E+01 0.00000E+00
 -1      3370 6.72369E+01 1.79289E+01 0.00000E+00
 -1      3371 1.37010E+02 2.35500E+01 0.00000E+00
 -1      3372 1.38309E+02 2.28125E+01 0.00000E+00
 -1      3373 1.38309E+02 2.13375E+01 0.00000E+00
 -1      3374 9.17341E+01 1.05468E+01 0.00000E+00
 -1      3375 9.02341E+01 1.05468E+01 0.00000E+00
 -1      3376 1.47105E+01 3.72226E+01 0.00000E+00
 -1      3377 1.38309E+02 1.98625E+01 0.00000E+00
 -1      3378 1.38309E+02 1.83875E+01 0.00000E+00
 -1      3379 1.37010E+02 2.06000E+01 0.00000E+00
 -1      3380 9.47860E+01 2.79841E+01 0.00000E+00
 -1      3381 1.56488E+01 1.02017E+01 0.00000E+00
 -1      3382 1.52625E+01 1.12011E+01 0.00000E+00
 -1      3383 1.71488E+01 1.02017E+01 0.00000E+00
 -1      3384 1.99669E+01 1.03515E+01 0.00000E+00
 -1      3385 1.84669E+01 1.03515E+01 0.00000E+00
 -1      3386 1.80806E+01 1.13509E+01 0.00000E+00
 -1      3387 2.07169E+01 1.16505E+01 0.00000E+00
 -1      3388 9.51140E+01 1.28276E+01 0.00000E+00
 -1      3389 9.41987E+01 1.52305E+01 0.00000E+00
 -1      3390 6.98688E+01 3.05259E+01 0.00000E+00
 -1      3391 6.91760E+01 3.00846E+01 0.00000E+00
 -1      3392 6.93573E+01 3.17614E+01 0.00000E+00
 -1      3393 7.22020E+01 3.36630E+01 0.00000E+00
 -1      3394 7.17754E+01 3.27739E+01 0.00000E+00
 -1      3395 7.04766E+01 3.30918E+01 0.00000E+00
 -1      3396 1.38375E+02 1.71415E+01 0.00000E+00
 -1      3397 1.38440E+02 1.58956E+01 0.00000E+00
 -1      3398 1.37076E+02 1.78790E+01 0.00000E+00
 -1      3399 8.72636E+01 3.63012E+01 0.00000E+00
 -1      3400 1.16910E+01 1.98188E+01 0.00000E+00
 -1      3401 1.29900E+01 2.05562E+01 0.00000E+00
 -1      3402 1.16910E+01 1.83500E+01 0.00000E+00
 -1      3403 6.93793E+01 2.73956E+01 0.00000E+00
 -1      3404 6.86721E+01 2.69639E+01 0.00000E+00
 -1      3405 6.89803E+01 2.84175E+01 0.00000E+00
 -1      3406 8.74530E+01 3.53828E+01 0.00000E+00
 -1      3407 9.53152E+01 2.49062E+01 0.00000E+00
 -1      3408 9.58956E+01 2.58183E+01 0.00000E+00
 -1      3409 9.62250E+01 2.42113E+01 0.00000E+00
 -1      3410 1.16910E+01 3.01219E+01 0.00000E+00
 -1      3411 1.16910E+01 3.15906E+01 0.00000E+00
 -1      3412 1.29900E+01 3.23250E+01 0.00000E+00
 -1      3413 1.37758E+02 3.64912E+01 0.00000E+00
 -1      3414 1.38123E+02 3.54142E+01 0.00000E+00
 -1      3415 1.36824E+02 3.46768E+01 0.00000E+00
 -1      3416 1.36451E+02 3.63802E+01 0.00000E+00
 -1      3417 6.69115E+01 2.25089E+01 0.00000E+00
 -1      3418 6.72379E+01 2.17470E+01 0.00000E+00
 -1      3419 6.63293E+01 2.09575E+01 0.00000E+00
 -1      3420 9.36562E+01 3.10764E+01 0.00000E+00
 -1      3421 9.36881E+01 3.48539E+01 0.00000E+00
 -1      3422 7.35754E+01 3.51776E+01 0.00000E+00
 -1      3423 7.76202E+01 3.60358E+01 0.00000E+00
 -1      3424 8.94479E+01 1.02829E+01 0.00000E+00
 -1      3425 2.04000E+01 3.57110E+01 0.00000E+00
 -1      3426 2.19000E+01 3.57110E+01 0.00000E+00
 -1      3427 2.34000E+01 3.57110E+01 0.00000E+00
 -1      3428 2.49000E+01 3.57110E+01 0.00000E+00
 -1      3429 2.26500E+01 3.44120E+01 0.00000E+00
 -1      3430 2.64000E+01 3.57110E+01 0.00000E+00
 -1      3431 2.79000E+01 3.57110E+01 0.00000E+00
 -1      3432 2.56500E+01 3.44120E+01 0.00000E+00
 -1      3433 2.94000E+01 3.57110E+01 0.00000E+00
 -1      3434 3.09000E+01 3.57110E+01 0.00000E+00
 -1      3435 2.86500E+01 3.44120E+01 0.00000E+00
 -1      3436 3.24000E+01 3.57110E+01 0.00000E+00
 -1      3437 3.39000E+01 3.57110E+01 0.00000E+00
 -1      3438 3.16500E+01 3.44120E+01 0.00000E+00
 -1      3439 3.54000E+01 3.57110E+01 0.00000E+00
 -1      3440 3.69000E+01 3.57110E+01 0.00000E+00
 -1      3441 3.46500E+01 3.44120E+01 0.00000E+00
 -1      3442 3.84000E+01 3.57110E+01 0.00000E+00
 -1      3443 3.99000E+01 3.57110E+01 0.00000E+00
 -1      3444 3.76500E+01 3.44120E+01 0.00000E+00
 -1      3445 4.14000E+01 3.57110E+01 0.00000E+00
 -1      3446 4.29000E+01 3.57110E+01 0.00000E+00
 -1      3447 4.06500E+01 3.44120E+01 0.00000E+00
 -1      3448 4.44000E+01 3.57110E+01 0.00000E+00
 -1      3449 4.59000E+01 3.57110E+01 0.00000E+00
 -1      3450 4.36500E+01 3.44120E+01 0.00000E+00
 -1      3451 4.74000E+01 3.57110E+01 0.00000E+00
 -1      3452 4.89000E+01 3.57110E+01 0.00000E+00
 -1      3453 4.66500E+01 3.44120E+01 0.00000E+00
 -1      3454 5.04000E+01 3.57110E+01 0.00000E+00
 -1      3455 5.19000E+01 3.57110E+01 0.00000E+00
 -1      3456 4.96500E+01 3.44120E+01 0.00000E+00
 -1      3457 5.34000E+01 3.57110E+01 0.00000E+00
 -1      3458 5.49000E+01 3.57110E+01 0.00000E+00
 -1      3459 5.26500E+01 3.44120E+01 0.00000E+00
 -1      3460 5.64000E+01 3.57110E+01 0.00000E+00
 -1      3461 5.79000E+01 3.57110E+01 0.00000E+00
 -1      3462 5.56500E+01 3.44120E+01 0.00000E+00
 -1      3463 5.94000E+01 3.57110E+01 0.00000E+00
 -1      3464 6.09000E+01 3.57110E+01 0.00000E+00
 -1      3465 5.86500E+01 3.44120E+01 0.00000E+00
 -1      3466 6.24000E+01 3.57110E+01 0.00000E+00
 -1      3467 6.39000E+01 3.57110E+01 0.00000E+00
 -1      3468 6.16500E+01 3.44120E+01 0.00000E+00
 -1      3469 6.54000E+01 3.57110E+01 0.00000E+00
 -1      3470 6.69000E+01 3.57110E+01 0.00000E+00
 -1      3471 6.46500E+01 3.44120E+01 0.00000E+00
 -1      3472 6.92766E+01 3.54954E+01 0.00000E+00
 -1      3473 7.07766E+01 3.54954E+01 0.00000E+00
 -1      3474 7.22766E+01 3.54954E+01 0.00000E+00
 -1      3475 8.83537E+01 9.62130E+00 0.00000E+00
 -1      3476 1.35711E+02 2.72000E+01 0.00000E+00
 -1      3477 1.35711E+02 2.57500E+01 0.00000E+00
 -1      3478 9.84000E+01 3.57110E+01 0.00000E+00
 -1      3479 9.99000E+01 3.57110E+01 0.00000E+00
 -1      3480 1.01400E+02 3.57110E+01 0.00000E+00
 -1      3481 1.02900E+02 3.57110E+01 0.00000E+00
 -1      3482 1.00650E+02 3.44120E+01 0.00000E+00
 -1      3483 1.04400E+02 3.57110E+01 0.00000E+00
 -1      3484 1.05900E+02 3.57110E+01 0.00000E+00
 -1      3485 1.03650E+02 3.44120E+01 0.00000E+00
 -1      3486 1.07400E+02 3.57110E+01 0.00000E+00
 -1      3487 1.08900E+02 3.57110E+01 0.00000E+00
 -1      3488 1.06650E+02 3.44120E+01 0.00000E+00
 -1      3489 1.10400E+02 3.57110E+01 0.00000E+00
 -1      3490 1.11900E+02 3.57110E+01 0.00000E+00
 -1      3491 1.09650E+02 3.44120E+01 0.00000E+00
 -1      3492 1.13400E+02 3.57110E+01 0.00000E+00
 -1      3493 1.14900E+02 3.57110E+01 0.00000E+00
 -1      3494 1.12650E+02 3.44120E+01 0.00000E+00
 -1      3495 1.16400E+02 3.57110E+01 0.00000E+00
 -1      3496 1.17900E+02 3.57110E+01 0.00000E+00
 -1      3497 1.15650E+02 3.44120E+01 0.00000E+00
 -1      3498 1.19400E+02 3.57110E+01 0.00000E+00
 -1      3499 1.20900E+02 3.57110E+01 0.00000E+00
 -1      3500 1.18650E+02 3.44120E+01 0.00000E+00
 -1      3501 1.22400E+02 3.57110E+01 0.00000E+00
 -1      3502 1.23900E+02 3.57110E+01 0.00000E+00
 -1      3503 1.21650E+02 3.44120E+01 0.00000E+00
 -1      3504 1.25400E+02 3.57110E+01 0.00000E+00
 -1      3505 1.26900E+02 3.57110E+01 0.00000E+00
 -1      3506 1.24650E+02 3.44120E+01 0.00000E+00
 -1      3507 1.28400E+02 3.57110E+01 0.00000E+00
 -1      3508 1.29900E+02 3.57110E+01 0.00000E+00
 -1      3509 1.27650E+02 3.44120E+01 0.00000E+00
 -1      3510 1.31400E+02 3.57110E+01 0.00000E+00
 -1      3511 1.32900E+02 3.57110E+01 0.00000E+00
 -1      3512 1.30650E+02 3.44120E+01 0.00000E+00
 -1      3513 9.03394E+01 3.60916E+01 0.00000E+00
 -1      3514 3.32850E+01 1.30992E+01 0.00000E+00
 -1      3515 3.17850E+01 1.30992E+01 0.00000E+00
 -1      3516 4.52850E+01 1.30992E+01 0.00000E+00
 -1      3517 4.37850E+01 1.30992E+01 0.00000E+00
 -1      3518 4.22850E+01 1.30992E+01 0.00000E+00
 -1      3519 4.07850E+01 1.30992E+01 0.00000E+00
 -1      3520 4.30350E+01 1.43982E+01 0.00000E+00
 -1      3521 5.12850E+01 1.30992E+01 0.00000E+00
 -1      3522 4.97850E+01 1.30992E+01 0.00000E+00
 -1      3523 5.42850E+01 1.30992E+01 0.00000E+00
 -1      3524 5.27850E+01 1.30992E+01 0.00000E+00
 -1      3525 5.20350E+01 1.43982E+01 0.00000E+00
 -1      3526 5.72850E+01 1.30992E+01 0.00000E+00
 -1      3527 5.57850E+01 1.30992E+01 0.00000E+00
 -1      3528 5.50350E+01 1.43982E+01 0.00000E+00
 -1      3529 6.02850E+01 1.30992E+01 0.00000E+00
 -1      3530 5.87850E+01 1.30992E+01 0.00000E+00
 -1      3531 5.80350E+01 1.43982E+01 0.00000E+00
 -1      3532 6.32850E+01 1.30992E+01 0.00000E+00
 -1      3533 6.17850E+01 1.30992E+01 0.00000E+00
 -1      3534 6.10350E+01 1.43982E+01 0.00000E+00
 -1      3535 7.01564E+01 1.21565E+01 0.00000E+00
 -1      3536 6.85805E+01 1.07361E+01 0.00000E+00
 -1      3537 6.78305E+01 1.20351E+01 0.00000E+00
 -1      3538 7.50537E+01 9.74196E+00 0.00000E+00
 -1      3539 7.41774E+01 1.06654E+01 0.00000E+00
 -1      3540 1.05285E+02 1.30542E+01 0.00000E+00
 -1      3541 1.03785E+02 1.30542E+01 0.00000E+00
 -1      3542 1.02285E+02 1.30542E+01 0.00000E+00
 -1      3543 1.00785E+02 1.30542E+01 0.00000E+00
 -1      3544 1.03035E+02 1.43532E+01 0.00000E+00
 -1      3545 1.35992E+01 3.60377E+01 0.00000E+00
 -1      3546 1.55387E+01 3.58251E+01 0.00000E+00
 -1      3547 8.68537E+01 9.62130E+00 0.00000E+00
 -1      3548 9.92850E+01 1.30542E+01 0.00000E+00
 -1      3549 9.77850E+01 1.30542E+01 0.00000E+00
 -1      3550 1.00035E+02 1.43532E+01 0.00000E+00
 -1      3551 1.08285E+02 1.30542E+01 0.00000E+00
 -1      3552 1.06785E+02 1.30542E+01 0.00000E+00
 -1      3553 1.06035E+02 1.43532E+01 0.00000E+00
 -1      3554 1.11285E+02 1.30542E+01 0.00000E+00
 -1      3555 1.09785E+02 1.30542E+01 0.00000E+00
 -1      3556 1.09035E+02 1.43532E+01 0.00000E+00
 -1      3557 1.14285E+02 1.30542E+01 0.00000E+00
 -1      3558 1.12785E+02 1.30542E+01 0.00000E+00
 -1      3559 1.12035E+02 1.43532E+01 0.00000E+00
 -1      3560 1.17285E+02 1.30542E+01 0.00000E+00
 -1      3561 1.15785E+02 1.30542E+01 0.00000E+00
 -1      3562 1.15035E+02 1.43532E+01 0.00000E+00
 -1      3563 1.20285E+02 1.30542E+01 0.00000E+00
 -1      3564 1.18785E+02 1.30542E+01 0.00000E+00
 -1      3565 1.18035E+02 1.43532E+01 0.00000E+00
 -1      3566 1.23285E+02 1.30542E+01 0.00000E+00
 -1      3567 1.21785E+02 1.30542E+01 0.00000E+00
 -1      3568 1.21035E+02 1.43532E+01 0.00000E+00
 -1      3569 1.26285E+02 1.30542E+01 0.00000E+00
 -1      3570 1.24785E+02 1.30542E+01 0.00000E+00
 -1      3571 1.24035E+02 1.43532E+01 0.00000E+00
 -1      3572 1.29285E+02 1.30542E+01 0.00000E+00
 -1      3573 1.27785E+02 1.30542E+01 0.00000E+00
 -1      3574 1.27035E+02 1.43532E+01 0.00000E+00
 -1      3575 1.32285E+02 1.30542E+01 0.00000E+00
 -1      3576 1.30785E+02 1.30542E+01 0.00000E+00
 -1      3577 1.30035E+02 1.43532E+01 0.00000E+00
 -1      3578 1.35285E+02 1.30542E+01 0.00000E+00
 -1      3579 1.33785E+02 1.30542E+01 0.00000E+00
 -1      3580 1.33035E+02 1.43532E+01 0.00000E+00
 -1      3581 8.08875E+01 3.63818E+01 0.00000E+00
 -1      3582 9.59017E+01 2.73867E+01 0.00000E+00
 -1      3583 9.57019E+01 2.88575E+01 0.00000E+00
 -1      3584 2.42850E+01 1.30992E+01 0.00000E+00
 -1      3585 2.27850E+01 1.30992E+01 0.00000E+00
 -1      3586 8.88394E+01 3.60916E+01 0.00000E+00
 -1      3587 3.02850E+01 1.30992E+01 0.00000E+00
 -1      3588 2.87850E+01 1.30992E+01 0.00000E+00
 -1      3589 3.10350E+01 1.43982E+01 0.00000E+00
 -1      3590 2.72850E+01 1.30992E+01 0.00000E+00
 -1      3591 2.57850E+01 1.30992E+01 0.00000E+00
 -1      3592 2.50350E+01 1.43982E+01 0.00000E+00
 -1      3593 1.16910E+01 2.71844E+01 0.00000E+00
 -1      3594 1.16910E+01 2.86531E+01 0.00000E+00
 -1      3595 1.29900E+01 2.93875E+01 0.00000E+00
 -1      3596 1.38643E+02 1.47900E+01 0.00000E+00
 -1      3597 1.38709E+02 1.35440E+01 0.00000E+00
 -1      3598 1.37750E+02 1.33163E+01 0.00000E+00
 -1      3599 1.37344E+02 1.55275E+01 0.00000E+00
 -1      3600 9.61198E+01 1.41581E+01 0.00000E+00
 -1      3601 1.48763E+01 1.22006E+01 0.00000E+00
 -1      3602 1.44900E+01 1.32000E+01 0.00000E+00
 -1      3603 1.63762E+01 1.22006E+01 0.00000E+00
 -1      3604 4.82850E+01 1.30992E+01 0.00000E+00
 -1      3605 4.67850E+01 1.30992E+01 0.00000E+00
 -1      3606 4.60350E+01 1.43982E+01 0.00000E+00
 -1      3607 4.90350E+01 1.43982E+01 0.00000E+00
 -1      3608 9.52285E+01 3.09007E+01 0.00000E+00
 -1      3609 9.42985E+01 3.25222E+01 0.00000E+00
 -1      3610 1.74000E+01 3.57110E+01 0.00000E+00
 -1      3611 1.89000E+01 3.57110E+01 0.00000E+00
 -1      3612 1.96500E+01 3.44120E+01 0.00000E+00
 -1      3613 9.52604E+01 3.46783E+01 0.00000E+00
 -1      3614 9.68698E+01 1.54571E+01 0.00000E+00
 -1      3615 1.44900E+01 1.46687E+01 0.00000E+00
 -1      3616 9.80230E+01 1.85367E+01 0.00000E+00
 -1      3617 9.74594E+01 1.96787E+01 0.00000E+00
 -1      3618 9.80757E+01 2.05505E+01 0.00000E+00
 -1      3619 6.85266E+01 3.41964E+01 0.00000E+00
 -1      3620 9.67604E+01 3.46783E+01 0.00000E+00
 -1      3621 9.75104E+01 3.33793E+01 0.00000E+00
 -1      3622 1.35711E+02 2.86750E+01 0.00000E+00
 -1      3623 1.34412E+02 2.79500E+01 0.00000E+00
 -1      3624 1.35711E+02 3.01500E+01 0.00000E+00
 -1      3625 1.42890E+01 1.98219E+01 0.00000E+00
 -1      3626 1.42890E+01 2.12906E+01 0.00000E+00
 -1      3627 6.51468E+01 2.09017E+01 0.00000E+00
 -1      3628 6.54733E+01 2.01398E+01 0.00000E+00
 -1      3629 6.76955E+01 2.64838E+01 0.00000E+00
 -1      3630 6.67189E+01 2.60036E+01 0.00000E+00
 -1      3631 6.72964E+01 2.75056E+01 0.00000E+00
 -1      3632 1.34022E+02 3.59901E+01 0.00000E+00
 -1      3633 1.35329E+02 3.61011E+01 0.00000E+00
 -1      3634 1.35515E+02 3.52494E+01 0.00000E+00
 -1      3635 1.33272E+02 3.46911E+01 0.00000E+00
 -1      3636 3.47850E+01 1.30992E+01 0.00000E+00
 -1      3637 3.40350E+01 1.43982E+01 0.00000E+00
 -1      3638 3.62850E+01 1.30992E+01 0.00000E+00
 -1      3639 6.69674E+01 1.68961E+01 0.00000E+00
 -1      3640 6.66979E+01 1.58634E+01 0.00000E+00
 -1      3641 6.58532E+01 1.73516E+01 0.00000E+00
 -1      3642 6.52067E+01 1.92341E+01 0.00000E+00
 -1      3643 4.00350E+01 1.43982E+01 0.00000E+00
 -1      3644 3.92850E+01 1.30992E+01 0.00000E+00
 -1      3645 3.77850E+01 1.30992E+01 0.00000E+00
 -1      3646 2.20350E+01 1.43983E+01 0.00000E+00
 -1      3647 2.12850E+01 1.30993E+01 0.00000E+00
 -1      3648 6.48094E+01 1.40596E+01 0.00000E+00
 -1      3649 6.40594E+01 1.53586E+01 0.00000E+00
 -1      3650 6.63094E+01 1.40596E+01 0.00000E+00
 -1      3651 6.82191E+01 1.38390E+01 0.00000E+00
 -1      3652 6.74236E+01 1.36041E+01 0.00000E+00
 -1      3653 1.35711E+02 2.42750E+01 0.00000E+00
 -1      3654 1.35711E+02 2.28000E+01 0.00000E+00
 -1      3655 1.34412E+02 2.50000E+01 0.00000E+00
 -1      3656 1.36791E+02 1.30885E+01 0.00000E+00
 -1      3657 1.35711E+02 2.13250E+01 0.00000E+00
 -1      3658 1.35711E+02 1.98500E+01 0.00000E+00
 -1      3659 1.34412E+02 2.20500E+01 0.00000E+00
 -1      3660 6.65604E+01 2.33506E+01 0.00000E+00
 -1      3661 6.56517E+01 2.25611E+01 0.00000E+00
 -1      3662 6.62093E+01 2.41923E+01 0.00000E+00
 -1      3663 9.68115E+01 2.66917E+01 0.00000E+00
 -1      3664 1.62887E+01 3.45261E+01 0.00000E+00
 -1      3665 1.99669E+01 1.29495E+01 0.00000E+00
 -1      3666 9.79709E+01 1.60090E+01 0.00000E+00
 -1      3667 1.28805E+01 3.56145E+01 0.00000E+00
 -1      3668 1.55880E+01 2.20313E+01 0.00000E+00
 -1      3669 1.42890E+01 2.27656E+01 0.00000E+00
 -1      3670 1.42890E+01 2.42406E+01 0.00000E+00
 -1      3671 6.90571E+01 1.34073E+01 0.00000E+00
 -1      3672 1.37087E+01 3.42169E+01 0.00000E+00
 -1      3673 9.63442E+01 3.03033E+01 0.00000E+00
 -1      3674 9.69865E+01 3.17491E+01 0.00000E+00
 -1      3675 9.74599E+01 2.97058E+01 0.00000E+00
 -1      3676 2.80350E+01 1.43982E+01 0.00000E+00
 -1      3677 1.29900E+01 1.76125E+01 0.00000E+00
 -1      3678 1.35777E+02 1.86040E+01 0.00000E+00
 -1      3679 1.35842E+02 1.73581E+01 0.00000E+00
 -1      3680 1.34478E+02 1.93290E+01 0.00000E+00
 -1      3681 1.29900E+01 2.64469E+01 0.00000E+00
 -1      3682 6.84687E+01 2.96529E+01 0.00000E+00
 -1      3683 6.77615E+01 2.92212E+01 0.00000E+00
 -1      3684 6.79572E+01 3.08884E+01 0.00000E+00
 -1      3685 1.37087E+01 3.27482E+01 0.00000E+00
 -1      3686 1.44274E+01 3.31713E+01 0.00000E+00
 -1      3687 1.37087E+01 3.12794E+01 0.00000E+00
 -1      3688 1.36041E+02 1.43875E+01 0.00000E+00
 -1      3689 9.71587E+01 2.34080E+01 0.00000E+00
 -1      3690 9.77391E+01 2.43201E+01 0.00000E+00
 -1      3691 9.80924E+01 2.26047E+01 0.00000E+00
 -1      3692 1.35702E+02 3.43976E+01 0.00000E+00
 -1      3693 2.19000E+01 3.31130E+01 0.00000E+00
 -1      3694 2.34000E+01 3.31130E+01 0.00000E+00
 -1      3695 2.49000E+01 3.31130E+01 0.00000E+00
 -1      3696 2.64000E+01 3.31130E+01 0.00000E+00
 -1      3697 2.41500E+01 3.18140E+01 0.00000E+00
 -1      3698 2.79000E+01 3.31130E+01 0.00000E+00
 -1      3699 2.94000E+01 3.31130E+01 0.00000E+00
 -1      3700 2.71500E+01 3.18140E+01 0.00000E+00
 -1      3701 3.09000E+01 3.31130E+01 0.00000E+00
 -1      3702 3.24000E+01 3.31130E+01 0.00000E+00
 -1      3703 3.01500E+01 3.18140E+01 0.00000E+00
 -1      3704 3.39000E+01 3.31130E+01 0.00000E+00
 -1      3705 3.54000E+01 3.31130E+01 0.00000E+00
 -1      3706 3.31500E+01 3.18140E+01 0.00000E+00
 -1      3707 3.69000E+01 3.31130E+01 0.00000E+00
 -1      3708 3.84000E+01 3.31130E+01 0.00000E+00
 -1      3709 3.61500E+01 3.18140E+01 0.00000E+00
 -1      3710 3.99000E+01 3.31130E+01 0.00000E+00
 -1      3711 4.14000E+01 3.31130E+01 0.00000E+00
 -1      3712 3.91500E+01 3.18140E+01 0.00000E+00
 -1      3713 4.29000E+01 3.31130E+01 0.00000E+00
 -1      3714 4.44000E+01 3.31130E+01 0.00000E+00
 -1      3715 4.21500E+01 3.18140E+01 0.00000E+00
 -1      3716 4.59000E+01 3.31130E+01 0.00000E+00
 -1      3717 4.74000E+01 3.31130E+01 0.00000E+00
 -1      3718 4.51500E+01 3.18140E+01 0.00000E+00
 -1      3719 4.89000E+01 3.31130E+01 0.00000E+00
 -1      3720 5.04000E+01 3.31130E+01 0.00000E+00
 -1      3721 4.81500E+01 3.18140E+01 0.00000E+00
 -1      3722 5.19000E+01 3.31130E+01 0.00000E+00
 -1      3723 5.34000E+01 3.31130E+01 0.00000E+00
 -1      3724 5.11500E+01 3.18140E+01 0.00000E+00
 -1      3725 5.49000E+01 3.31130E+01 0.00000E+00
 -1      3726 5.64000E+01 3.31130E+01 0.00000E+00
 -1      3727 5.41500E+01 3.18140E+01 0.00000E+00
 -1      3728 5.79000E+01 3.31130E+01 0.00000E+00
 -1      3729 5.94000E+01 3.31130E+01 0.00000E+00
 -1      3730 5.71500E+01 3.18140E+01 0.00000E+00
 -1      3731 6.09000E+01 3.31130E+01 0.00000E+00
 -1      3732 6.24000E+01 3.31130E+01 0.00000E+00
 -1      3733 6.01500E+01 3.18140E+01 0.00000E+00
 -1      3734 6.39000E+01 3.31130E+01 0.00000E+00
 -1      3735 6.54000E+01 3.31130E+01 0.00000E+00
 -1      3736 6.31500E+01 3.18140E+01 0.00000E+00
 -1      3737 9.86261E+01 3.27818E+01 0.00000E+00
 -1      3738 5.87850E+01 1.56973E+01 0.00000E+00
 -1      3739 5.72850E+01 1.56973E+01 0.00000E+00
 -1      3740 1.42890E+01 1.83469E+01 0.00000E+00
 -1      3741 1.55880E+01 1.90812E+01 0.00000E+00
 -1      3742 1.42890E+01 1.68719E+01 0.00000E+00
 -1      3743 4.37850E+01 1.56973E+01 0.00000E+00
 -1      3744 4.22850E+01 1.56973E+01 0.00000E+00
 -1      3745 1.00126E+02 3.27818E+01 0.00000E+00
 -1      3746 1.01626E+02 3.27818E+01 0.00000E+00
 -1      3747 9.96021E+01 3.11516E+01 0.00000E+00
 -1      3748 1.03126E+02 3.27818E+01 0.00000E+00
 -1      3749 1.04626E+02 3.27818E+01 0.00000E+00
 -1      3750 1.02602E+02 3.11516E+01 0.00000E+00
 -1      3751 1.06126E+02 3.27818E+01 0.00000E+00
 -1      3752 1.07626E+02 3.27818E+01 0.00000E+00
 -1      3753 1.05602E+02 3.11516E+01 0.00000E+00
 -1      3754 1.09126E+02 3.27818E+01 0.00000E+00
 -1      3755 1.10626E+02 3.27818E+01 0.00000E+00
 -1      3756 1.08602E+02 3.11516E+01 0.00000E+00
 -1      3757 1.12126E+02 3.27818E+01 0.00000E+00
 -1      3758 1.13626E+02 3.27818E+01 0.00000E+00
 -1      3759 1.11602E+02 3.11516E+01 0.00000E+00
 -1      3760 1.15126E+02 3.27818E+01 0.00000E+00
 -1      3761 1.16626E+02 3.27818E+01 0.00000E+00
 -1      3762 1.14602E+02 3.11516E+01 0.00000E+00
 -1      3763 1.18126E+02 3.27818E+01 0.00000E+00
 -1      3764 1.19626E+02 3.27818E+01 0.00000E+00
 -1      3765 1.17602E+02 3.11516E+01 0.00000E+00
 -1      3766 1.21126E+02 3.27818E+01 0.00000E+00
 -1      3767 1.22626E+02 3.27818E+01 0.00000E+00
 -1      3768 1.20602E+02 3.11516E+01 0.00000E+00
 -1      3769 1.24126E+02 3.27818E+01 0.00000E+00
 -1      3770 1.25626E+02 3.27818E+01 0.00000E+00
 -1      3771 1.23602E+02 3.11516E+01 0.00000E+00
 -1      3772 1.27126E+02 3.27818E+01 0.00000E+00
 -1      3773 1.28626E+02 3.27818E+01 0.00000E+00
 -1      3774 1.26602E+02 3.11516E+01 0.00000E+00
 -1      3775 1.30126E+02 3.27818E+01 0.00000E+00
 -1      3776 1.31626E+02 3.27818E+01 0.00000E+00
 -1      3777 1.29602E+02 3.11516E+01 0.00000E+00
 -1      3778 6.49372E+01 1.82014E+01 0.00000E+00
 -1      3779 6.46677E+01 1.71687E+01 0.00000E+00
 -1      3780 6.40213E+01 1.90512E+01 0.00000E+00
 -1      3781 2.27850E+01 1.56973E+01 0.00000E+00
 -1      3782 2.12851E+01 1.56973E+01 0.00000E+00
 -1      3783 5.57850E+01 1.56973E+01 0.00000E+00
 -1      3784 5.42850E+01 1.56973E+01 0.00000E+00
 -1      3785 5.65350E+01 1.69963E+01 0.00000E+00
 -1      3786 5.27850E+01 1.56973E+01 0.00000E+00
 -1      3787 5.12850E+01 1.56973E+01 0.00000E+00
 -1      3788 5.35350E+01 1.69963E+01 0.00000E+00
 -1      3789 6.17850E+01 1.56973E+01 0.00000E+00
 -1      3790 6.02850E+01 1.56973E+01 0.00000E+00
 -1      3791 5.95350E+01 1.69963E+01 0.00000E+00
 -1      3792 6.31434E+01 1.62084E+01 0.00000E+00
 -1      3793 1.09785E+02 1.56522E+01 0.00000E+00
 -1      3794 1.08285E+02 1.56522E+01 0.00000E+00
 -1      3795 1.12785E+02 1.56522E+01 0.00000E+00
 -1      3796 1.11285E+02 1.56522E+01 0.00000E+00
 -1      3797 1.10535E+02 1.69512E+01 0.00000E+00
 -1      3798 1.15785E+02 1.56522E+01 0.00000E+00
 -1      3799 1.14285E+02 1.56522E+01 0.00000E+00
 -1      3800 1.13535E+02 1.69512E+01 0.00000E+00
 -1      3801 1.18785E+02 1.56522E+01 0.00000E+00
 -1      3802 1.17285E+02 1.56522E+01 0.00000E+00
 -1      3803 1.16535E+02 1.69512E+01 0.00000E+00
 -1      3804 1.21785E+02 1.56522E+01 0.00000E+00
 -1      3805 1.20285E+02 1.56522E+01 0.00000E+00
 -1      3806 1.19535E+02 1.69512E+01 0.00000E+00
 -1      3807 1.24785E+02 1.56522E+01 0.00000E+00
 -1      3808 1.23285E+02 1.56522E+01 0.00000E+00
 -1      3809 1.22535E+02 1.69512E+01 0.00000E+00
 -1      3810 1.27785E+02 1.56522E+01 0.00000E+00
 -1      3811 1.26285E+02 1.56522E+01 0.00000E+00
 -1      3812 1.25535E+02 1.69512E+01 0.00000E+00
 -1      3813 1.30785E+02 1.56522E+01 0.00000E+00
 -1      3814 1.29285E+02 1.56522E+01 0.00000E+00
 -1      3815 1.28535E+02 1.69512E+01 0.00000E+00
 -1      3816 9.93111E+01 1.56170E+01 0.00000E+00
 -1      3817 9.87469E+01 1.72728E+01 0.00000E+00
 -1      3818 9.93633E+01 1.81447E+01 0.00000E+00
 -1      3819 1.00811E+02 1.56170E+01 0.00000E+00
 -1      3820 1.88306E+01 1.26499E+01 0.00000E+00
 -1      3821 1.75125E+01 1.25001E+01 0.00000E+00
 -1      3822 1.71263E+01 1.34996E+01 0.00000E+00
 -1      3823 1.93988E+01 1.40987E+01 0.00000E+00
 -1      3824 1.57890E+01 1.54031E+01 0.00000E+00
 -1      3825 2.57850E+01 1.56973E+01 0.00000E+00
 -1      3826 2.42850E+01 1.56973E+01 0.00000E+00
 -1      3827 2.35351E+01 1.69963E+01 0.00000E+00
 -1      3828 6.92713E+01 1.25939E+01 0.00000E+00
 -1      3829 1.03811E+02 1.56170E+01 0.00000E+00
 -1      3830 1.02311E+02 1.56170E+01 0.00000E+00
 -1      3831 1.01587E+02 1.68808E+01 0.00000E+00
 -1      3832 3.17850E+01 1.56973E+01 0.00000E+00
 -1      3833 3.02850E+01 1.56973E+01 0.00000E+00
 -1      3834 1.37087E+01 2.83419E+01 0.00000E+00
 -1      3835 1.37087E+01 2.98107E+01 0.00000E+00
 -1      3836 1.44274E+01 3.02338E+01 0.00000E+00
 -1      3837 1.06798E+02 1.56346E+01 0.00000E+00
 -1      3838 1.05298E+02 1.56346E+01 0.00000E+00
 -1      3839 1.04574E+02 1.68984E+01 0.00000E+00
 -1      3840 1.07548E+02 1.69336E+01 0.00000E+00
 -1      3841 1.33103E+02 3.34502E+01 0.00000E+00
 -1      3842 1.34225E+02 3.37293E+01 0.00000E+00
 -1      3843 1.35533E+02 3.31567E+01 0.00000E+00
 -1      3844 1.32579E+02 3.18200E+01 0.00000E+00
 -1      3845 1.35838E+02 1.54931E+01 0.00000E+00
 -1      3846 2.87850E+01 1.56973E+01 0.00000E+00
 -1      3847 2.72850E+01 1.56973E+01 0.00000E+00
 -1      3848 2.65350E+01 1.69963E+01 0.00000E+00
 -1      3849 2.95350E+01 1.69963E+01 0.00000E+00
 -1      3850 6.47957E+01 2.17434E+01 0.00000E+00
 -1      3851 6.39397E+01 2.09257E+01 0.00000E+00
 -1      3852 6.44447E+01 2.25851E+01 0.00000E+00
 -1      3853 1.42890E+01 2.57125E+01 0.00000E+00
 -1      3854 1.42890E+01 2.71844E+01 0.00000E+00
 -1      3855 1.55880E+01 2.49781E+01 0.00000E+00
 -1      3856 9.79173E+01 2.59032E+01 0.00000E+00
 -1      3857 9.79234E+01 2.74716E+01 0.00000E+00
 -1      3858 1.62887E+01 3.30573E+01 0.00000E+00
 -1      3859 1.89000E+01 3.31130E+01 0.00000E+00
 -1      3860 2.04000E+01 3.31130E+01 0.00000E+00
 -1      3861 2.11500E+01 3.18140E+01 0.00000E+00
 -1      3862 1.35533E+02 3.16817E+01 0.00000E+00
 -1      3863 1.34234E+02 3.09567E+01 0.00000E+00
 -1      3864 1.34539E+02 1.62181E+01 0.00000E+00
 -1      3865 1.96358E+01 1.55046E+01 0.00000E+00
 -1      3866 1.84995E+01 1.52050E+01 0.00000E+00
 -1      3867 1.33039E+02 1.62181E+01 0.00000E+00
 -1      3868 6.59500E+01 3.11353E+01 0.00000E+00
 -1      3869 6.67000E+01 3.24343E+01 0.00000E+00
 -1      3870 6.23934E+01 1.75074E+01 0.00000E+00
 -1      3871 1.33113E+02 2.86875E+01 0.00000E+00
 -1      3872 1.33113E+02 2.72125E+01 0.00000E+00
 -1      3873 1.68870E+01 1.83438E+01 0.00000E+00
 -1      3874 1.68870E+01 1.98188E+01 0.00000E+00
 -1      3875 4.52850E+01 1.56973E+01 0.00000E+00
 -1      3876 4.45350E+01 1.69963E+01 0.00000E+00
 -1      3877 4.67850E+01 1.56973E+01 0.00000E+00
 -1      3878 3.70350E+01 1.43982E+01 0.00000E+00
 -1      3879 6.54112E+01 2.62360E+01 0.00000E+00
 -1      3880 6.58102E+01 2.52142E+01 0.00000E+00
 -1      3881 6.49016E+01 2.44247E+01 0.00000E+00
 -1      3882 2.03858E+01 1.68036E+01 0.00000E+00
 -1      3883 3.47850E+01 1.56973E+01 0.00000E+00
 -1      3884 3.32850E+01 1.56973E+01 0.00000E+00
 -1      3885 3.25350E+01 1.69963E+01 0.00000E+00
 -1      3886 6.29324E+01 1.95728E+01 0.00000E+00
 -1      3887 6.26629E+01 1.85401E+01 0.00000E+00
 -1      3888 6.13045E+01 1.80290E+01 0.00000E+00
 -1      3889 1.33113E+02 2.57375E+01 0.00000E+00
 -1      3890 1.33113E+02 2.42625E+01 0.00000E+00
 -1      3891 1.31814E+02 2.64750E+01 0.00000E+00
 -1      3892 4.07850E+01 1.56973E+01 0.00000E+00
 -1      3893 3.92850E+01 1.56973E+01 0.00000E+00
 -1      3894 4.15350E+01 1.69963E+01 0.00000E+00
 -1      3895 1.50077E+01 2.76075E+01 0.00000E+00
 -1      3896 6.67849E+01 2.87411E+01 0.00000E+00
 -1      3897 1.32289E+02 1.75171E+01 0.00000E+00
 -1      3898 6.25813E+01 2.04146E+01 0.00000E+00
 -1      3899 9.84417E+01 2.85887E+01 0.00000E+00
 -1      3900 9.90839E+01 3.00345E+01 0.00000E+00
 -1      3901 1.00584E+02 3.00345E+01 0.00000E+00
 -1      3902 9.95475E+01 2.78002E+01 0.00000E+00
 -1      3903 9.88510E+01 2.50999E+01 0.00000E+00
 -1      3904 1.33113E+02 2.27875E+01 0.00000E+00
 -1      3905 1.33113E+02 2.13125E+01 0.00000E+00
 -1      3906 1.31814E+02 2.35250E+01 0.00000E+00
 -1      3907 1.68870E+01 2.12938E+01 0.00000E+00
 -1      3908 1.68870E+01 2.27687E+01 0.00000E+00
 -1      3909 1.81860E+01 2.05562E+01 0.00000E+00
 -1      3910 1.32757E+02 3.02883E+01 0.00000E+00
 -1      3911 6.91079E+01 3.29173E+01 0.00000E+00
 -1      3912 6.84151E+01 3.24760E+01 0.00000E+00
 -1      3913 6.95344E+01 3.38064E+01 0.00000E+00
 -1      3914 1.32668E+02 2.00378E+01 0.00000E+00
 -1      3915 1.32734E+02 1.87918E+01 0.00000E+00
 -1      3916 1.30480E+02 1.82259E+01 0.00000E+00
 -1      3917 1.31369E+02 2.07753E+01 0.00000E+00
 -1      3918 9.86561E+01 2.14627E+01 0.00000E+00
 -1      3919 9.92365E+01 2.23748E+01 0.00000E+00
 -1      3920 9.92197E+01 2.03206E+01 0.00000E+00
 -1      3921 4.97850E+01 1.56973E+01 0.00000E+00
 -1      3922 4.82850E+01 1.56973E+01 0.00000E+00
 -1      3923 4.75350E+01 1.69963E+01 0.00000E+00
 -1      3924 5.05350E+01 1.69963E+01 0.00000E+00
 -1      3925 1.57330E+01 3.09961E+01 0.00000E+00
 -1      3926 1.75943E+01 3.23508E+01 0.00000E+00
 -1      3927 1.83443E+01 3.10518E+01 0.00000E+00
 -1      3928 1.57330E+01 2.95273E+01 0.00000E+00
 -1      3929 6.21284E+01 2.18033E+01 0.00000E+00
 -1      3930 6.11210E+01 2.04504E+01 0.00000E+00
 -1      3931 6.43175E+01 3.06169E+01 0.00000E+00
 -1      3932 6.56174E+01 2.99382E+01 0.00000E+00
 -1      3933 6.51524E+01 2.82226E+01 0.00000E+00
 -1      3934 6.28175E+01 3.06169E+01 0.00000E+00
 -1      3935 1.71622E+01 1.71086E+01 0.00000E+00
 -1      3936 1.84613E+01 1.78461E+01 0.00000E+00
 -1      3937 2.64000E+01 3.05150E+01 0.00000E+00
 -1      3938 2.79000E+01 3.05150E+01 0.00000E+00
 -1      3939 2.94000E+01 3.05150E+01 0.00000E+00
 -1      3940 3.09000E+01 3.05150E+01 0.00000E+00
 -1      3941 2.86500E+01 2.92160E+01 0.00000E+00
 -1      3942 3.24000E+01 3.05150E+01 0.00000E+00
 -1      3943 3.39000E+01 3.05150E+01 0.00000E+00
 -1      3944 3.16500E+01 2.92160E+01 0.00000E+00
 -1      3945 3.54000E+01 3.05150E+01 0.00000E+00
 -1      3946 3.69000E+01 3.05150E+01 0.00000E+00
 -1      3947 3.46500E+01 2.92160E+01 0.00000E+00
 -1      3948 3.84000E+01 3.05150E+01 0.00000E+00
 -1      3949 3.99000E+01 3.05150E+01 0.00000E+00
 -1      3950 3.76500E+01 2.92160E+01 0.00000E+00
 -1      3951 4.14000E+01 3.05150E+01 0.00000E+00
 -1      3952 4.29000E+01 3.05150E+01 0.00000E+00
 -1      3953 4.06500E+01 2.92160E+01 0.00000E+00
 -1      3954 4.44000E+01 3.05150E+01 0.00000E+00
 -1      3955 4.59000E+01 3.05150E+01 0.00000E+00
 -1      3956 4.36500E+01 2.92160E+01 0.00000E+00
 -1      3957 4.74000E+01 3.05150E+01 0.00000E+00
 -1      3958 4.89000E+01 3.05150E+01 0.00000E+00
 -1      3959 4.66500E+01 2.92160E+01 0.00000E+00
 -1      3960 5.04000E+01 3.05150E+01 0.00000E+00
 -1      3961 5.19000E+01 3.05150E+01 0.00000E+00
 -1      3962 4.96500E+01 2.92160E+01 0.00000E+00
 -1      3963 5.34000E+01 3.05150E+01 0.00000E+00
 -1      3964 5.49000E+01 3.05150E+01 0.00000E+00
 -1      3965 5.26500E+01 2.92160E+01 0.00000E+00
 -1      3966 5.64000E+01 3.05150E+01 0.00000E+00
 -1      3967 5.79000E+01 3.05150E+01 0.00000E+00
 -1      3968 5.56500E+01 2.92160E+01 0.00000E+00
 -1      3969 5.94000E+01 3.05150E+01 0.00000E+00
 -1      3970 6.09000E+01 3.05150E+01 0.00000E+00
 -1      3971 5.86500E+01 2.92160E+01 0.00000E+00
 -1      3972 2.01105E+01 1.80388E+01 0.00000E+00
 -1      3973 1.98353E+01 1.92739E+01 0.00000E+00
 -1      3974 2.17598E+01 1.82315E+01 0.00000E+00
 -1      3975 2.47598E+01 1.82315E+01 0.00000E+00
 -1      3976 2.32598E+01 1.82315E+01 0.00000E+00
 -1      3977 2.29846E+01 1.94666E+01 0.00000E+00
 -1      3978 1.31458E+02 2.95508E+01 0.00000E+00
 -1      3979 1.02084E+02 3.00345E+01 0.00000E+00
 -1      3980 1.03584E+02 3.00345E+01 0.00000E+00
 -1      3981 1.01566E+02 2.89174E+01 0.00000E+00
 -1      3982 1.05084E+02 3.00345E+01 0.00000E+00
 -1      3983 1.06584E+02 3.00345E+01 0.00000E+00
 -1      3984 1.04566E+02 2.89174E+01 0.00000E+00
 -1      3985 1.08084E+02 3.00345E+01 0.00000E+00
 -1      3986 1.09584E+02 3.00345E+01 0.00000E+00
 -1      3987 1.07566E+02 2.89174E+01 0.00000E+00
 -1      3988 1.11084E+02 3.00345E+01 0.00000E+00
 -1      3989 1.12584E+02 3.00345E+01 0.00000E+00
 -1      3990 1.10566E+02 2.89174E+01 0.00000E+00
 -1      3991 1.14084E+02 3.00345E+01 0.00000E+00
 -1      3992 1.15584E+02 3.00345E+01 0.00000E+00
 -1      3993 1.13566E+02 2.89174E+01 0.00000E+00
 -1      3994 1.17084E+02 3.00345E+01 0.00000E+00
 -1      3995 1.18584E+02 3.00345E+01 0.00000E+00
 -1      3996 1.16566E+02 2.89174E+01 0.00000E+00
 -1      3997 1.20084E+02 3.00345E+01 0.00000E+00
 -1      3998 1.21584E+02 3.00345E+01 0.00000E+00
 -1      3999 1.19566E+02 2.89174E+01 0.00000E+00
 -1      4000 1.23084E+02 3.00345E+01 0.00000E+00
 -1      4001 1.24584E+02 3.00345E+01 0.00000E+00
 -1      4002 1.22566E+02 2.89174E+01 0.00000E+00
 -1      4003 1.26084E+02 3.00345E+01 0.00000E+00
 -1      4004 1.27584E+02 3.00345E+01 0.00000E+00
 -1      4005 1.25566E+02 2.89174E+01 0.00000E+00
 -1      4006 1.28771E+02 2.97927E+01 0.00000E+00
 -1      4007 1.30271E+02 2.97927E+01 0.00000E+00
 -1      4008 1.30627E+02 2.81918E+01 0.00000E+00
 -1      4009 1.28253E+02 2.86755E+01 0.00000E+00
 -1      4010 1.68937E+01 2.72122E+01 0.00000E+00
 -1      4011 1.63133E+01 2.83698E+01 0.00000E+00
 -1      4012 1.76190E+01 2.91320E+01 0.00000E+00
 -1      4013 1.14285E+02 1.82502E+01 0.00000E+00
 -1      4014 1.12785E+02 1.82502E+01 0.00000E+00
 -1      4015 5.98045E+01 1.80290E+01 0.00000E+00
 -1      4016 5.83045E+01 1.80290E+01 0.00000E+00
 -1      4017 6.00740E+01 1.90617E+01 0.00000E+00
 -1      4018 5.42850E+01 1.82952E+01 0.00000E+00
 -1      4019 5.27850E+01 1.82952E+01 0.00000E+00
 -1      4020 1.17285E+02 1.82502E+01 0.00000E+00
 -1      4021 1.15785E+02 1.82502E+01 0.00000E+00
 -1      4022 1.15035E+02 1.95492E+01 0.00000E+00
 -1      4023 1.11285E+02 1.82502E+01 0.00000E+00
 -1      4024 1.09785E+02 1.82502E+01 0.00000E+00
 -1      4025 1.12035E+02 1.95492E+01 0.00000E+00
 -1      4026 1.69253E+01 1.57027E+01 0.00000E+00
 -1      4027 1.20285E+02 1.82502E+01 0.00000E+00
 -1      4028 1.18785E+02 1.82502E+01 0.00000E+00
 -1      4029 1.18035E+02 1.95492E+01 0.00000E+00
 -1      4030 1.23285E+02 1.82502E+01 0.00000E+00
 -1      4031 1.21785E+02 1.82502E+01 0.00000E+00
 -1      4032 1.21035E+02 1.95492E+01 0.00000E+00
 -1      4033 1.26285E+02 1.82502E+01 0.00000E+00
 -1      4034 1.24785E+02 1.82502E+01 0.00000E+00
 -1      4035 1.24035E+02 1.95492E+01 0.00000E+00
 -1      4036 1.29132E+02 1.82381E+01 0.00000E+00
 -1      4037 1.27632E+02 1.82381E+01 0.00000E+00
 -1      4038 1.26882E+02 1.95371E+01 0.00000E+00
 -1      4039 1.29577E+02 1.95128E+01 0.00000E+00
 -1      4040 1.00765E+02 1.79688E+01 0.00000E+00
 -1      4041 1.00042E+02 1.92326E+01 0.00000E+00
 -1      4042 1.00622E+02 2.01447E+01 0.00000E+00
 -1      4043 1.02265E+02 1.79688E+01 0.00000E+00
 -1      4044 6.40456E+01 2.36070E+01 0.00000E+00
 -1      4045 6.31896E+01 2.27892E+01 0.00000E+00
 -1      4046 6.36465E+01 2.46288E+01 0.00000E+00
 -1      4047 3.77850E+01 1.56973E+01 0.00000E+00
 -1      4048 3.62850E+01 1.56973E+01 0.00000E+00
 -1      4049 3.85350E+01 1.69963E+01 0.00000E+00
 -1      4050 6.77078E+01 3.20443E+01 0.00000E+00
 -1      4051 5.70448E+01 1.81621E+01 0.00000E+00
 -1      4052 5.55448E+01 1.81621E+01 0.00000E+00
 -1      4053 5.47948E+01 1.94611E+01 0.00000E+00
 -1      4054 5.73143E+01 1.91949E+01 0.00000E+00
 -1      4055 1.68870E+01 2.42406E+01 0.00000E+00
 -1      4056 1.68870E+01 2.57125E+01 0.00000E+00
 -1      4057 1.81860E+01 2.35031E+01 0.00000E+00
 -1      4058 2.34000E+01 3.05150E+01 0.00000E+00
 -1      4059 2.49000E+01 3.05150E+01 0.00000E+00
 -1      4060 2.56500E+01 2.92160E+01 0.00000E+00
 -1      4061 2.04000E+01 3.05150E+01 0.00000E+00
 -1      4062 2.19000E+01 3.05150E+01 0.00000E+00
 -1      4063 2.26500E+01 2.92160E+01 0.00000E+00
 -1      4064 5.12850E+01 1.82952E+01 0.00000E+00
 -1      4065 4.97850E+01 1.82952E+01 0.00000E+00
 -1      4066 5.20350E+01 1.95942E+01 0.00000E+00
 -1      4067 1.00030E+02 2.41656E+01 0.00000E+00
 -1      4068 1.00209E+02 2.57487E+01 0.00000E+00
 -1      4069 6.42437E+01 2.74331E+01 0.00000E+00
 -1      4070 1.98353E+01 2.07489E+01 0.00000E+00
 -1      4071 6.17293E+01 2.28251E+01 0.00000E+00
 -1      4072 6.20675E+01 2.93179E+01 0.00000E+00
 -1      4073 1.81927E+01 2.64747E+01 0.00000E+00
 -1      4074 2.62598E+01 1.82315E+01 0.00000E+00
 -1      4075 2.59846E+01 1.94666E+01 0.00000E+00
 -1      4076 2.77598E+01 1.82314E+01 0.00000E+00
 -1      4077 4.52850E+01 1.82952E+01 0.00000E+00
 -1      4078 4.37850E+01 1.82952E+01 0.00000E+00
 -1      4079 3.55350E+01 1.69963E+01 0.00000E+00
 -1      4080 1.29440E+02 2.69587E+01 0.00000E+00
 -1      4081 1.30627E+02 2.67168E+01 0.00000E+00
 -1      4082 1.30627E+02 2.52418E+01 0.00000E+00
 -1      4083 5.96210E+01 2.04504E+01 0.00000E+00
 -1      4084 4.22850E+01 1.82952E+01 0.00000E+00
 -1      4085 4.07850E+01 1.82952E+01 0.00000E+00
 -1      4086 4.30350E+01 1.95942E+01 0.00000E+00
 -1      4087 1.09048E+02 1.95316E+01 0.00000E+00
 -1      4088 1.08298E+02 1.82326E+01 0.00000E+00
 -1      4089 1.06811E+02 1.82150E+01 0.00000E+00
 -1      4090 1.00628E+02 2.67745E+01 0.00000E+00
 -1      4091 1.01146E+02 2.78916E+01 0.00000E+00
 -1      4092 1.02646E+02 2.78916E+01 0.00000E+00
 -1      4093 1.01807E+02 2.58401E+01 0.00000E+00
 -1      4094 1.30627E+02 2.37668E+01 0.00000E+00
 -1      4095 1.30627E+02 2.22918E+01 0.00000E+00
 -1      4096 1.29440E+02 2.40087E+01 0.00000E+00
 -1      4097 1.30182E+02 2.10171E+01 0.00000E+00
 -1      4098 3.32850E+01 1.82952E+01 0.00000E+00
 -1      4099 3.17850E+01 1.82952E+01 0.00000E+00
 -1      4100 3.05224E+01 1.82633E+01 0.00000E+00
 -1      4101 2.90224E+01 1.82634E+01 0.00000E+00
 -1      4102 2.87472E+01 1.94985E+01 0.00000E+00
 -1      4103 3.12724E+01 1.95623E+01 0.00000E+00
 -1      4104 1.05324E+02 1.81974E+01 0.00000E+00
 -1      4105 1.03837E+02 1.81798E+01 0.00000E+00
 -1      4106 1.06074E+02 1.94964E+01 0.00000E+00
 -1      4107 1.90943E+01 2.97528E+01 0.00000E+00
 -1      4108 1.00594E+02 2.30235E+01 0.00000E+00
 -1      4109 4.82850E+01 1.82952E+01 0.00000E+00
 -1      4110 4.67850E+01 1.82952E+01 0.00000E+00
 -1      4111 4.60350E+01 1.95942E+01 0.00000E+00
 -1      4112 4.90350E+01 1.95942E+01 0.00000E+00
 -1      4113 1.03015E+02 1.92678E+01 0.00000E+00
 -1      4114 2.19000E+01 2.79170E+01 0.00000E+00
 -1      4115 2.34000E+01 2.79170E+01 0.00000E+00
 -1      4116 2.49000E+01 2.79170E+01 0.00000E+00
 -1      4117 2.64000E+01 2.79170E+01 0.00000E+00
 -1      4118 2.41500E+01 2.66180E+01 0.00000E+00
 -1      4119 3.09000E+01 2.79170E+01 0.00000E+00
 -1      4120 3.24000E+01 2.79170E+01 0.00000E+00
 -1      4121 3.39000E+01 2.79170E+01 0.00000E+00
 -1      4122 3.54000E+01 2.79170E+01 0.00000E+00
 -1      4123 3.31500E+01 2.66180E+01 0.00000E+00
 -1      4124 3.69000E+01 2.79170E+01 0.00000E+00
 -1      4125 3.84000E+01 2.79170E+01 0.00000E+00
 -1      4126 3.61500E+01 2.66180E+01 0.00000E+00
 -1      4127 3.99000E+01 2.79170E+01 0.00000E+00
 -1      4128 4.14000E+01 2.79170E+01 0.00000E+00
 -1      4129 3.91500E+01 2.66180E+01 0.00000E+00
 -1      4130 4.29000E+01 2.79170E+01 0.00000E+00
 -1      4131 4.44000E+01 2.79170E+01 0.00000E+00
 -1      4132 4.21500E+01 2.66180E+01 0.00000E+00
 -1      4133 4.59000E+01 2.79170E+01 0.00000E+00
 -1      4134 4.74000E+01 2.79170E+01 0.00000E+00
 -1      4135 4.51500E+01 2.66180E+01 0.00000E+00
 -1      4136 4.89000E+01 2.79170E+01 0.00000E+00
 -1      4137 5.04000E+01 2.79170E+01 0.00000E+00
 -1      4138 4.81500E+01 2.66180E+01 0.00000E+00
 -1      4139 5.19000E+01 2.79170E+01 0.00000E+00
 -1      4140 5.34000E+01 2.79170E+01 0.00000E+00
 -1      4141 5.11500E+01 2.66180E+01 0.00000E+00
 -1      4142 5.49000E+01 2.79170E+01 0.00000E+00
 -1      4143 5.64000E+01 2.79170E+01 0.00000E+00
 -1      4144 5.41500E+01 2.66180E+01 0.00000E+00
 -1      4145 5.79000E+01 2.79170E+01 0.00000E+00
 -1      4146 5.94000E+01 2.79170E+01 0.00000E+00
 -1      4147 5.71500E+01 2.66180E+01 0.00000E+00
 -1      4148 1.21785E+02 2.08482E+01 0.00000E+00
 -1      4149 1.20285E+02 2.08482E+01 0.00000E+00
 -1      4150 1.96747E+01 2.85952E+01 0.00000E+00
 -1      4151 3.62850E+01 1.82952E+01 0.00000E+00
 -1      4152 3.47850E+01 1.82952E+01 0.00000E+00
 -1      4153 3.40350E+01 1.95942E+01 0.00000E+00
 -1      4154 2.14573E+01 2.11333E+01 0.00000E+00
 -1      4155 1.98080E+01 2.24156E+01 0.00000E+00
 -1      4156 1.04146E+02 2.78916E+01 0.00000E+00
 -1      4157 1.05646E+02 2.78916E+01 0.00000E+00
 -1      4158 1.03727E+02 2.68658E+01 0.00000E+00
 -1      4159 1.07146E+02 2.78916E+01 0.00000E+00
 -1      4160 1.08646E+02 2.78916E+01 0.00000E+00
 -1      4161 1.06727E+02 2.68658E+01 0.00000E+00
 -1      4162 1.10146E+02 2.78916E+01 0.00000E+00
 -1      4163 1.11646E+02 2.78916E+01 0.00000E+00
 -1      4164 1.09727E+02 2.68658E+01 0.00000E+00
 -1      4165 1.13146E+02 2.78916E+01 0.00000E+00
 -1      4166 1.14646E+02 2.78916E+01 0.00000E+00
 -1      4167 1.12727E+02 2.68658E+01 0.00000E+00
 -1      4168 1.16146E+02 2.78916E+01 0.00000E+00
 -1      4169 1.17646E+02 2.78916E+01 0.00000E+00
 -1      4170 1.15727E+02 2.68658E+01 0.00000E+00
 -1      4171 1.19146E+02 2.78916E+01 0.00000E+00
 -1      4172 1.20646E+02 2.78916E+01 0.00000E+00
 -1      4173 1.18727E+02 2.68658E+01 0.00000E+00
 -1      4174 1.22146E+02 2.78916E+01 0.00000E+00
 -1      4175 1.23646E+02 2.78916E+01 0.00000E+00
 -1      4176 1.21727E+02 2.68658E+01 0.00000E+00
 -1      4177 1.25146E+02 2.78916E+01 0.00000E+00
 -1      4178 1.26646E+02 2.78916E+01 0.00000E+00
 -1      4179 1.24727E+02 2.68658E+01 0.00000E+00
 -1      4180 1.27450E+02 2.75461E+01 0.00000E+00
 -1      4181 1.28637E+02 2.73042E+01 0.00000E+00
 -1      4182 1.28637E+02 2.58292E+01 0.00000E+00
 -1      4183 1.27030E+02 2.65203E+01 0.00000E+00
 -1      4184 5.91253E+01 2.19133E+01 0.00000E+00
 -1      4185 5.80783E+01 2.05245E+01 0.00000E+00
 -1      4186 1.98080E+01 2.38875E+01 0.00000E+00
 -1      4187 1.15785E+02 2.08482E+01 0.00000E+00
 -1      4188 1.14285E+02 2.08482E+01 0.00000E+00
 -1      4189 1.12785E+02 2.08482E+01 0.00000E+00
 -1      4190 1.11285E+02 2.08482E+01 0.00000E+00
 -1      4191 1.13535E+02 2.21472E+01 0.00000E+00
 -1      4192 1.24785E+02 2.08482E+01 0.00000E+00
 -1      4193 1.23285E+02 2.08482E+01 0.00000E+00
 -1      4194 1.22535E+02 2.21472E+01 0.00000E+00
 -1      4195 6.15051E+01 2.41305E+01 0.00000E+00
 -1      4196 6.04439E+01 2.31445E+01 0.00000E+00
 -1      4197 2.44573E+01 2.11333E+01 0.00000E+00
 -1      4198 2.29573E+01 2.11333E+01 0.00000E+00
 -1      4199 2.29299E+01 2.28000E+01 0.00000E+00
 -1      4200 1.28835E+02 2.10293E+01 0.00000E+00
 -1      4201 1.03765E+02 2.05668E+01 0.00000E+00
 -1      4202 1.02194E+02 2.03558E+01 0.00000E+00
 -1      4203 1.01372E+02 2.14437E+01 0.00000E+00
 -1      4204 2.79000E+01 2.79170E+01 0.00000E+00
 -1      4205 2.94000E+01 2.79170E+01 0.00000E+00
 -1      4206 3.01500E+01 2.66180E+01 0.00000E+00
 -1      4207 1.02166E+02 2.32345E+01 0.00000E+00
 -1      4208 3.92850E+01 1.82952E+01 0.00000E+00
 -1      4209 3.77850E+01 1.82952E+01 0.00000E+00
 -1      4210 3.70350E+01 1.95942E+01 0.00000E+00
 -1      4211 4.00350E+01 1.95942E+01 0.00000E+00
 -1      4212 6.08631E+01 2.76241E+01 0.00000E+00
 -1      4213 6.27806E+01 2.77260E+01 0.00000E+00
 -1      4214 6.30394E+01 2.57394E+01 0.00000E+00
 -1      4215 6.01131E+01 2.63251E+01 0.00000E+00
 -1      4216 1.18785E+02 2.08482E+01 0.00000E+00
 -1      4217 1.17285E+02 2.08482E+01 0.00000E+00
 -1      4218 1.19535E+02 2.21472E+01 0.00000E+00
 -1      4219 5.27850E+01 2.08932E+01 0.00000E+00
 -1      4220 5.12850E+01 2.08932E+01 0.00000E+00
 -1      4221 6.21834E+01 2.49217E+01 0.00000E+00
 -1      4222 1.93087E+01 2.68855E+01 0.00000E+00
 -1      4223 2.07840E+01 2.75063E+01 0.00000E+00
 -1      4224 2.15340E+01 2.62073E+01 0.00000E+00
 -1      4225 1.93020E+01 2.53857E+01 0.00000E+00
 -1      4226 2.71500E+01 2.66180E+01 0.00000E+00
 -1      4227 1.03720E+02 2.30185E+01 0.00000E+00
 -1      4228 1.02942E+02 2.45982E+01 0.00000E+00
 -1      4229 1.16535E+02 2.21472E+01 0.00000E+00
 -1      4230 5.89011E+01 2.32186E+01 0.00000E+00
 -1      4231 1.06802E+02 2.08041E+01 0.00000E+00
 -1      4232 1.05315E+02 2.07866E+01 0.00000E+00
 -1      4233 1.28637E+02 2.43542E+01 0.00000E+00
 -1      4234 1.28637E+02 2.28792E+01 0.00000E+00
 -1      4235 1.27833E+02 2.46998E+01 0.00000E+00
 -1      4236 1.04494E+02 2.18745E+01 0.00000E+00
 -1      4237 4.37850E+01 2.08932E+01 0.00000E+00
 -1      4238 4.22850E+01 2.08932E+01 0.00000E+00
 -1      4239 2.09240E+01 2.42982E+01 0.00000E+00
 -1      4240 1.09776E+02 2.08393E+01 0.00000E+00
 -1      4241 1.08289E+02 2.08217E+01 0.00000E+00
 -1      4242 1.07530E+02 2.21118E+01 0.00000E+00
 -1      4243 1.03362E+02 2.56240E+01 0.00000E+00
 -1      4244 2.74572E+01 2.11333E+01 0.00000E+00
 -1      4245 2.59572E+01 2.11333E+01 0.00000E+00
 -1      4246 2.59299E+01 2.28000E+01 0.00000E+00
 -1      4247 1.10526E+02 2.21383E+01 0.00000E+00
 -1      4248 1.26684E+02 2.13870E+01 0.00000E+00
 -1      4249 1.25934E+02 2.26860E+01 0.00000E+00
 -1      4250 6.08980E+01 2.52411E+01 0.00000E+00
 -1      4251 1.28032E+02 2.13748E+01 0.00000E+00
 -1      4252 5.05350E+01 2.21922E+01 0.00000E+00
 -1      4253 4.97850E+01 2.08932E+01 0.00000E+00
 -1      4254 4.82850E+01 2.08932E+01 0.00000E+00
 -1      4255 3.18709E+01 2.08769E+01 0.00000E+00
 -1      4256 3.06083E+01 2.08450E+01 0.00000E+00
 -1      4257 5.68185E+01 2.06577E+01 0.00000E+00
 -1      4258 5.54316E+01 2.07089E+01 0.00000E+00
 -1      4259 5.41719E+01 2.08420E+01 0.00000E+00
 -1      4260 5.34219E+01 2.21410E+01 0.00000E+00
 -1      4261 5.61957E+01 2.20386E+01 0.00000E+00
 -1      4262 3.48709E+01 2.08769E+01 0.00000E+00
 -1      4263 3.33709E+01 2.08769E+01 0.00000E+00
 -1      4264 3.27068E+01 2.21595E+01 0.00000E+00
 -1      4265 4.67850E+01 2.08932E+01 0.00000E+00
 -1      4266 4.52850E+01 2.08932E+01 0.00000E+00
 -1      4267 4.75350E+01 2.21922E+01 0.00000E+00
 -1      4268 4.45350E+01 2.21922E+01 0.00000E+00
 -1      4269 1.05270E+02 2.32382E+01 0.00000E+00
 -1      4270 1.17285E+02 2.34462E+01 0.00000E+00
 -1      4271 1.15785E+02 2.34462E+01 0.00000E+00
 -1      4272 3.54000E+01 2.53190E+01 0.00000E+00
 -1      4273 3.69000E+01 2.53190E+01 0.00000E+00
 -1      4274 3.84000E+01 2.53190E+01 0.00000E+00
 -1      4275 3.99000E+01 2.53190E+01 0.00000E+00
 -1      4276 3.76500E+01 2.40200E+01 0.00000E+00
 -1      4277 4.18425E+01 2.44051E+01 0.00000E+00
 -1      4278 4.33425E+01 2.44051E+01 0.00000E+00
 -1      4279 4.48425E+01 2.44051E+01 0.00000E+00
 -1      4280 4.63425E+01 2.44051E+01 0.00000E+00
 -1      4281 4.78425E+01 2.44051E+01 0.00000E+00
 -1      4282 4.93425E+01 2.44051E+01 0.00000E+00
 -1      4283 5.08425E+01 2.44051E+01 0.00000E+00
 -1      4284 5.23425E+01 2.44051E+01 0.00000E+00
 -1      4285 5.37294E+01 2.43539E+01 0.00000E+00
 -1      4286 5.52294E+01 2.43539E+01 0.00000E+00
 -1      4287 1.04862E+02 2.56240E+01 0.00000E+00
 -1      4288 2.35400E+01 2.47090E+01 0.00000E+00
 -1      4289 2.50400E+01 2.47090E+01 0.00000E+00
 -1      4290 5.94348E+01 2.55340E+01 0.00000E+00
 -1      4291 2.65400E+01 2.47090E+01 0.00000E+00
 -1      4292 1.08977E+02 2.55668E+01 0.00000E+00
 -1      4293 1.10477E+02 2.55668E+01 0.00000E+00
 -1      4294 1.11631E+02 2.45065E+01 0.00000E+00
 -1      4295 1.13131E+02 2.45065E+01 0.00000E+00
 -1      4296 1.15381E+02 2.58055E+01 0.00000E+00
 -1      4297 1.16881E+02 2.58055E+01 0.00000E+00
 -1      4298 1.18381E+02 2.58055E+01 0.00000E+00
 -1      4299 1.19881E+02 2.58055E+01 0.00000E+00
 -1      4300 1.18035E+02 2.47452E+01 0.00000E+00
 -1      4301 1.21381E+02 2.58055E+01 0.00000E+00
 -1      4302 1.22881E+02 2.58055E+01 0.00000E+00
 -1      4303 1.21035E+02 2.47452E+01 0.00000E+00
 -1      4304 1.23631E+02 2.45065E+01 0.00000E+00
 -1      4305 1.25131E+02 2.45065E+01 0.00000E+00
 -1      4306 2.20400E+01 2.47090E+01 0.00000E+00
 -1      4307 6.71579E+01 3.40219E+01 0.00000E+00
 -1      4308 1.06583E+02 2.32959E+01 0.00000E+00
 -1      4309 1.05809E+02 2.44399E+01 0.00000E+00
 -1      4310 1.06174E+02 2.56817E+01 0.00000E+00
 -1      4311 1.08070E+02 2.33135E+01 0.00000E+00
 -1      4312 2.87198E+01 2.11652E+01 0.00000E+00
 -1      4313 4.10925E+01 2.31061E+01 0.00000E+00
 -1      4314 4.03425E+01 2.18071E+01 0.00000E+00
 -1      4315 2.94000E+01 2.53190E+01 0.00000E+00
 -1      4316 3.09000E+01 2.53190E+01 0.00000E+00
 -1      4317 2.93183E+01 2.24797E+01 0.00000E+00
 -1      4318 2.80400E+01 2.47090E+01 0.00000E+00
 -1      4319 3.24000E+01 2.53190E+01 0.00000E+00
 -1      4320 3.39000E+01 2.53190E+01 0.00000E+00
 -1      4321 3.46500E+01 2.40200E+01 0.00000E+00
 -1      4322 3.16500E+01 2.40200E+01 0.00000E+00
 -1      4323 1.20285E+02 2.34462E+01 0.00000E+00
 -1      4324 1.18785E+02 2.34462E+01 0.00000E+00
 -1      4325 5.66163E+01 2.43027E+01 0.00000E+00
 -1      4326 5.81163E+01 2.43027E+01 0.00000E+00
 -1      4327 1.10881E+02 2.32075E+01 0.00000E+00
 -1      4328 1.07674E+02 2.56817E+01 0.00000E+00
 -1      4329 1.08424E+02 2.43827E+01 0.00000E+00
 -1      4330 1.21785E+02 2.34462E+01 0.00000E+00
 -1      4331 1.14285E+02 2.34462E+01 0.00000E+00
 -1      4332 1.27030E+02 2.50453E+01 0.00000E+00
 -1      4333 3.88425E+01 2.18071E+01 0.00000E+00
 -1      4334 1.09372E+02 2.31986E+01 0.00000E+00
 -1      4335 3.73425E+01 2.18071E+01 0.00000E+00
 -1      4336 3.58425E+01 2.18071E+01 0.00000E+00
 -1      4337 3.36784E+01 2.30898E+01 0.00000E+00
 -1      4338 3.21784E+01 2.30898E+01 0.00000E+00
 -1      4339 3.06784E+01 2.30898E+01 0.00000E+00
 -1      4340 2.87900E+01 2.34100E+01 0.00000E+00
 -1      4341 1.23285E+02 2.34462E+01 0.00000E+00
 -1      4342 3.51784E+01 2.30898E+01 0.00000E+00
 -3
    3C                          2090                                     1
 -1       163    8    0    1
 -2         6         7        23      1127      1289      1144
 -1       164    8    0    1
 -2         7         8       163      1128      1290      1291
 -1       165    8    0    1
 -2         8         9       164      1129      1292      1293
 -1       166    8    0    1
 -2         8       164       163      1293      1294      1290
 -1       167    8    0    1
 -2         9        10       165      1130      1295      1296
 -1       168    8    0    1
 -2         9       165       164      1296      1297      1292
 -1       169    8    0    1
 -2        10        11       166      1131      1298      1299
 -1       170    8    0    1
 -2        10       166       165      1299      1300      1295
 -1       171    8    0    1
 -2        11        12       167      1132      1301      1302
 -1       172    8    0    1
 -2        11       167       166      1302      1303      1298
 -1       173    8    0    1
 -2        12        13       168      1133      1304      1305
 -1       174    8    0    1
 -2        12       168       167      1305      1306      1301
 -1       175    8    0    1
 -2        13        14       169      1134      1307      1308
 -1       176    8    0    1
 -2        13       169       168      1308      1309      1304
 -1       177    8    0    1
 -2        14        15       170      1135      1310      1311
 -1       178    8    0    1
 -2        14       170       169      1311      1312      1307
 -1       179    8    0    1
 -2        15        16       171      1136      1313      1314
 -1       180    8    0    1
 -2        15       171       170      1314      1315      1310
 -1       181    8    0    1
 -2        16        17       172      1137      1316      1317
 -1       182    8    0    1
 -2        16       172       171      1317      1318      1313
 -1       183    8    0    1
 -2        17        18       173      1138      1319      1320
 -1       184    8    0    1
 -2        17       173       172      1320      1321      1316
 -1       185    8    0    1
 -2        18        19       174      1139      1322      1323
 -1       186    8    0    1
 -2        18       174       173      1323      1324      1319
 -1       187    8    0    1
 -2        19        20       175      1140      1325      1326
 -1       188    8    0    1
 -2        19       175       174      1326      1327      1322
 -1       189    8    0    1
 -2        20        21       176      1141      1328      1329
 -1       190    8    0    1
 -2        20       176       175      1329      1330      1325
 -1       191    8    0    1
 -2        21        22       177      1142      1331      1332
 -1       192    8    0    1
 -2        21       177       176      1332      1333      1328
 -1       193    8    0    1
 -2        22         5       178      1143      1334      1335
 -1       194    8    0    1
 -2       177        22       178      1331      1335      1336
 -1       195    8    0    1
 -2         5        72       178      1194      1337      1334
 -1       196    8    0    1
 -2        24        23       179      1145      1338      1339
 -1       197    8    0    1
 -2        25        24       180      1146      1340      1341
 -1       198    8    0    1
 -2        24       179       180      1339      1342      1340
 -1       199    8    0    1
 -2        26        25       181      1147      1343      1344
 -1       200    8    0    1
 -2        25       180       181      1341      1345      1343
 -1       201    8    0    1
 -2        27        26       182      1148      1346      1347
 -1       202    8    0    1
 -2        26       181       182      1344      1348      1346
 -1       203    8    0    1
 -2        28        27       183      1149      1349      1350
 -1       204    8    0    1
 -2        27       182       183      1347      1351      1349
 -1       205    8    0    1
 -2        29        28       184      1150      1352      1353
 -1       206    8    0    1
 -2        28       183       184      1350      1354      1352
 -1       207    8    0    1
 -2        30        29       185      1151      1355      1356
 -1       208    8    0    1
 -2        29       184       185      1353      1357      1355
 -1       209    8    0    1
 -2        31        30       186      1152      1358      1359
 -1       210    8    0    1
 -2        30       185       186      1356      1360      1358
 -1       211    8    0    1
 -2        32        31       187      1153      1361      1362
 -1       212    8    0    1
 -2        31       186       187      1359      1363      1361
 -1       213    8    0    1
 -2        33        32       188      1154      1364      1365
 -1       214    8    0    1
 -2        32       187       188      1362      1366      1364
 -1       215    8    0    1
 -2        34        33       189      1155      1367      1368
 -1       216    8    0    1
 -2        33       188       189      1365      1369      1367
 -1       217    8    0    1
 -2        35        34       190      1156      1370      1371
 -1       218    8    0    1
 -2        34       189       190      1368      1372      1370
 -1       219    8    0    1
 -2        36        35       191      1157      1373      1374
 -1       220    8    0    1
 -2        35       190       191      1371      1375      1373
 -1       221    8    0    1
 -2        37        36       192      1158      1376      1377
 -1       222    8    0    1
 -2        36       191       192      1374      1378      1376
 -1       223    8    0    1
 -2        38        37       193      1159      1379      1380
 -1       224    8    0    1
 -2        37       192       193      1377      1381      1379
 -1       225    8    0    1
 -2        39        38       194      1160      1382      1383
 -1       226    8    0    1
 -2        38       193       194      1380      1384      1382
 -1       227    8    0    1
 -2        40        39       195      1161      1385      1386
 -1       228    8    0    1
 -2        39       194       195      1383      1387      1385
 -1       229    8    0    1
 -2        41        40       196      1162      1388      1389
 -1       230    8    0    1
 -2        40       195       196      1386      1390      1388
 -1       231    8    0    1
 -2        42        41       197      1163      1391      1392
 -1       232    8    0    1
 -2        41       196       197      1389      1393      1391
 -1       233    8    0    1
 -2        43        42       198      1164      1394      1395
 -1       234    8    0    1
 -2        42       197       198      1392      1396      1394
 -1       235    8    0    1
 -2        44        43       199      1165      1397      1398
 -1       236    8    0    1
 -2        43       198       199      1395      1399      1397
 -1       237    8    0    1
 -2        45        44       200      1166      1400      1401
 -1       238    8    0    1
 -2        44       199       200      1398      1402      1400
 -1       239    8    0    1
 -2        46        45       201      1167      1403      1404
 -1       240    8    0    1
 -2        45       200       201      1401      1405      1403
 -1       241    8    0    1
 -2        47        46       202      1168      1406      1407
 -1       242    8    0    1
 -2        46       201       202      1404      1408      1406
 -1       243    8    0    1
 -2        48        47       203      1169      1409      1410
 -1       244    8    0    1
 -2        47       202       203      1407      1411      1409
 -1       245    8    0    1
 -2        49        48       204      1170      1412      1413
 -1       246    8    0    1
 -2        48       203       204      1410      1414      1412
 -1       247    8    0    1
 -2        50        49       205      1171      1415      1416
 -1       248    8    0    1
 -2        49       204       205      1413      1417      1415
 -1       249    8    0    1
 -2        51        50       206      1172      1418      1419
 -1       250    8    0    1
 -2        50       205       206      1416      1420      1418
 -1       251    8    0    1
 -2        52        51       207      1173      1421      1422
 -1       252    8    0    1
 -2        51       206       207      1419      1423      1421
 -1       253    8    0    1
 -2        53        52       208      1174      1424      1425
 -1       254    8    0    1
 -2        52       207       208      1422      1426      1424
 -1       255    8    0    1
 -2        54        53       209      1175      1427      1428
 -1       256    8    0    1
 -2        53       208       209      1425      1429      1427
 -1       257    8    0    1
 -2        55        54       210      1176      1430      1431
 -1       258    8    0    1
 -2        54       209       210      1428      1432      1430
 -1       259    8    0    1
 -2        56        55       211      1177      1433      1434
 -1       260    8    0    1
 -2        55       210       211      1431      1435      1433
 -1       261    8    0    1
 -2        57        56       212      1178      1436      1437
 -1       262    8    0    1
 -2        56       211       212      1434      1438      1436
 -1       263    8    0    1
 -2        58        57       213      1179      1439      1440
 -1       264    8    0    1
 -2        57       212       213      1437      1441      1439
 -1       265    8    0    1
 -2        59        58       214      1180      1442      1443
 -1       266    8    0    1
 -2        58       213       214      1440      1444      1442
 -1       267    8    0    1
 -2        60        59       215      1181      1445      1446
 -1       268    8    0    1
 -2        59       214       215      1443      1447      1445
 -1       269    8    0    1
 -2        61        60       216      1182      1448      1449
 -1       270    8    0    1
 -2        60       215       216      1446      1450      1448
 -1       271    8    0    1
 -2        62        61       217      1183      1451      1452
 -1       272    8    0    1
 -2        61       216       217      1449      1453      1451
 -1       273    8    0    1
 -2        63        62       218      1184      1454      1455
 -1       274    8    0    1
 -2        62       217       218      1452      1456      1454
 -1       275    8    0    1
 -2        64        63       219      1185      1457      1458
 -1       276    8    0    1
 -2        63       218       219      1455      1459      1457
 -1       277    8    0    1
 -2        65        64       220      1186      1460      1461
 -1       278    8    0    1
 -2        64       219       220      1458      1462      1460
 -1       279    8    0    1
 -2        66        65       221      1187      1463      1464
 -1       280    8    0    1
 -2        65       220       221      1461      1465      1463
 -1       281    8    0    1
 -2        67        66       222      1188      1466      1467
 -1       282    8    0    1
 -2        66       221       222      1464      1468      1466
 -1       283    8    0    1
 -2        68        67       223      1189      1469      1470
 -1       284    8    0    1
 -2        67       222       223      1467      1471      1469
 -1       285    8    0    1
 -2        69        68       224      1190      1472      1473
 -1       286    8    0    1
 -2        68       223       224      1470      1474      1472
 -1       287    8    0    1
 -2        70        69       225      1191      1475      1476
 -1       288    8    0    1
 -2        69       224       225      1473      1477      1475
 -1       289    8    0    1
 -2        71        70       226      1192      1478      1479
 -1       290    8    0    1
 -2        70       225       226      1476      1480      1478
 -1       291    8    0    1
 -2         4        71       136      1193      1481      1260
 -1       292    8    0    1
 -2       136        71       226      1481      1479      1482
 -1       293    8    0    1
 -2        72        73       227      1195      1483      1484
 -1       294    8    0    1
 -2        72       227       178      1484      1485      1337
 -1       295    8    0    1
 -2        73        74       228      1196      1486      1487
 -1       296    8    0    1
 -2        73       228       227      1487      1488      1483
 -1       297    8    0    1
 -2        74        75       229      1197      1489      1490
 -1       298    8    0    1
 -2        74       229       228      1490      1491      1486
 -1       299    8    0    1
 -2        75        76       230      1198      1492      1493
 -1       300    8    0    1
 -2        75       230       229      1493      1494      1489
 -1       301    8    0    1
 -2        76        77       231      1199      1495      1496
 -1       302    8    0    1
 -2        76       231       230      1496      1497      1492
 -1       303    8    0    1
 -2        77        78       232      1200      1498      1499
 -1       304    8    0    1
 -2        77       232       231      1499      1500      1495
 -1       305    8    0    1
 -2        78        79       233      1201      1501      1502
 -1       306    8    0    1
 -2        78       233       232      1502      1503      1498
 -1       307    8    0    1
 -2        79        80       234      1202      1504      1505
 -1       308    8    0    1
 -2        79       234       233      1505      1506      1501
 -1       309    8    0    1
 -2        80        81       235      1203      1507      1508
 -1       310    8    0    1
 -2        80       235       234      1508      1509      1504
 -1       311    8    0    1
 -2        81        82       236      1204      1510      1511
 -1       312    8    0    1
 -2        81       236       235      1511      1512      1507
 -1       313    8    0    1
 -2        82        83       237      1205      1513      1514
 -1       314    8    0    1
 -2        82       237       236      1514      1515      1510
 -1       315    8    0    1
 -2        83        84       238      1206      1516      1517
 -1       316    8    0    1
 -2        83       238       237      1517      1518      1513
 -1       317    8    0    1
 -2        84        85       239      1207      1519      1520
 -1       318    8    0    1
 -2        84       239       238      1520      1521      1516
 -1       319    8    0    1
 -2        85        86       240      1208      1522      1523
 -1       320    8    0    1
 -2        85       240       239      1523      1524      1519
 -1       321    8    0    1
 -2        86        87       241      1209      1525      1526
 -1       322    8    0    1
 -2        86       241       240      1526      1527      1522
 -1       323    8    0    1
 -2        87        88       242      1210      1528      1529
 -1       324    8    0    1
 -2        87       242       241      1529      1530      1525
 -1       325    8    0    1
 -2        88        89       243      1211      1531      1532
 -1       326    8    0    1
 -2        88       243       242      1532      1533      1528
 -1       327    8    0    1
 -2        89        90       244      1212      1534      1535
 -1       328    8    0    1
 -2        89       244       243      1535      1536      1531
 -1       329    8    0    1
 -2        90        91       245      1213      1537      1538
 -1       330    8    0    1
 -2        90       245       244      1538      1539      1534
 -1       331    8    0    1
 -2        91        92       246      1214      1540      1541
 -1       332    8    0    1
 -2        91       246       245      1541      1542      1537
 -1       333    8    0    1
 -2        92        93       247      1215      1543      1544
 -1       334    8    0    1
 -2        92       247       246      1544      1545      1540
 -1       335    8    0    1
 -2        93        94       248      1216      1546      1547
 -1       336    8    0    1
 -2        93       248       247      1547      1548      1543
 -1       337    8    0    1
 -2        94        95       249      1217      1549      1550
 -1       338    8    0    1
 -2        94       249       248      1550      1551      1546
 -1       339    8    0    1
 -2        95        96       250      1218      1552      1553
 -1       340    8    0    1
 -2        95       250       249      1553      1554      1549
 -1       341    8    0    1
 -2        96        97       251      1219      1555      1556
 -1       342    8    0    1
 -2        96       251       250      1556      1557      1552
 -1       343    8    0    1
 -2        97        98       252      1220      1558      1559
 -1       344    8    0    1
 -2        97       252       251      1559      1560      1555
 -1       345    8    0    1
 -2        98        99       253      1221      1561      1562
 -1       346    8    0    1
 -2        98       253       252      1562      1563      1558
 -1       347    8    0    1
 -2        99       100       254      1222      1564      1565
 -1       348    8    0    1
 -2        99       254       253      1565      1566      1561
 -1       349    8    0    1
 -2       100       101       255      1223      1567      1568
 -1       350    8    0    1
 -2       100       255       254      1568      1569      1564
 -1       351    8    0    1
 -2       101       102       256      1224      1570      1571
 -1       352    8    0    1
 -2       101       256       255      1571      1572      1567
 -1       353    8    0    1
 -2       102       103       257      1225      1573      1574
 -1       354    8    0    1
 -2       102       257       256      1574      1575      1570
 -1       355    8    0    1
 -2       103       104       258      1226      1576      1577
 -1       356    8    0    1
 -2       103       258       257      1577      1578      1573
 -1       357    8    0    1
 -2       104       105       259      1227      1579      1580
 -1       358    8    0    1
 -2       104       259       258      1580      1581      1576
 -1       359    8    0    1
 -2       105       106       260      1228      1582      1583
 -1       360    8    0    1
 -2       105       260       259      1583      1584      1579
 -1       361    8    0    1
 -2       106       107       261      1229      1585      1586
 -1       362    8    0    1
 -2       106       261       260      1586      1587      1582
 -1       363    8    0    1
 -2       107       108       262      1230      1588      1589
 -1       364    8    0    1
 -2       107       262       261      1589      1590      1585
 -1       365    8    0    1
 -2       108       109       263      1231      1591      1592
 -1       366    8    0    1
 -2       108       263       262      1592      1593      1588
 -1       367    8    0    1
 -2       109       110       264      1232      1594      1595
 -1       368    8    0    1
 -2       109       264       263      1595      1596      1591
 -1       369    8    0    1
 -2       110       111       265      1233      1597      1598
 -1       370    8    0    1
 -2       110       265       264      1598      1599      1594
 -1       371    8    0    1
 -2       111       112       266      1234      1600      1601
 -1       372    8    0    1
 -2       111       266       265      1601      1602      1597
 -1       373    8    0    1
 -2       112       113       267      1235      1603      1604
 -1       374    8    0    1
 -2       112       267       266      1604      1605      1600
 -1       375    8    0    1
 -2       113       114       268      1236      1606      1607
 -1       376    8    0    1
 -2       113       268       267      1607      1608      1603
 -1       377    8    0    1
 -2       114       115       269      1237      1609      1610
 -1       378    8    0    1
 -2       114       269       268      1610      1611      1606
 -1       379    8    0    1
 -2       115       116       270      1238      1612      1613
 -1       380    8    0    1
 -2       115       270       269      1613      1614      1609
 -1       381    8    0    1
 -2       116       117       271      1239      1615      1616
 -1       382    8    0    1
 -2       116       271       270      1616      1617      1612
 -1       383    8    0    1
 -2       117       118       272      1240      1618      1619
 -1       384    8    0    1
 -2       117       272       271      1619      1620      1615
 -1       385    8    0    1
 -2       118       119       273      1241      1621      1622
 -1       386    8    0    1
 -2       118       273       272      1622      1623      1618
 -1       387    8    0    1
 -2       119       120       274      1242      1624      1625
 -1       388    8    0    1
 -2       119       274       273      1625      1626      1621
 -1       389    8    0    1
 -2       120         3       121      1243      1244      1627
 -1       390    8    0    1
 -2       121       122       275      1245      1628      1629
 -1       391    8    0    1
 -2       122       123       276      1246      1630      1631
 -1       392    8    0    1
 -2       122       276       275      1631      1632      1628
 -1       393    8    0    1
 -2       123       124       277      1247      1633      1634
 -1       394    8    0    1
 -2       123       277       276      1634      1635      1630
 -1       395    8    0    1
 -2       124       125       278      1248      1636      1637
 -1       396    8    0    1
 -2       124       278       277      1637      1638      1633
 -1       397    8    0    1
 -2       125       126       279      1249      1639      1640
 -1       398    8    0    1
 -2       125       279       278      1640      1641      1636
 -1       399    8    0    1
 -2       126       127       280      1250      1642      1643
 -1       400    8    0    1
 -2       126       280       279      1643      1644      1639
 -1       401    8    0    1
 -2       127       128       281      1251      1645      1646
 -1       402    8    0    1
 -2       127       281       280      1646      1647      1642
 -1       403    8    0    1
 -2       128       129       282      1252      1648      1649
 -1       404    8    0    1
 -2       128       282       281      1649      1650      1645
 -1       405    8    0    1
 -2       129       130       283      1253      1651      1652
 -1       406    8    0    1
 -2       129       283       282      1652      1653      1648
 -1       407    8    0    1
 -2       130       131       284      1254      1654      1655
 -1       408    8    0    1
 -2       130       284       283      1655      1656      1651
 -1       409    8    0    1
 -2       131       132       285      1255      1657      1658
 -1       410    8    0    1
 -2       131       285       284      1658      1659      1654
 -1       411    8    0    1
 -2       132       133       286      1256      1660      1661
 -1       412    8    0    1
 -2       132       286       285      1661      1662      1657
 -1       413    8    0    1
 -2       133       134       287      1257      1663      1664
 -1       414    8    0    1
 -2       133       287       286      1664      1665      1660
 -1       415    8    0    1
 -2       134       135       288      1258      1666      1667
 -1       416    8    0    1
 -2       134       288       287      1667      1668      1663
 -1       417    8    0    1
 -2       135       136       289      1259      1669      1670
 -1       418    8    0    1
 -2       288       135       289      1666      1670      1671
 -1       419    8    0    1
 -2       136       226       289      1482      1672      1669
 -1       420    8    0    1
 -2         2       137       290      1261      1673      1674
 -1       421    8    0    1
 -2       137       138       291      1262      1675      1676
 -1       422    8    0    1
 -2       138       139       292      1263      1677      1678
 -1       423    8    0    1
 -2       139       140       293      1264      1679      1680
 -1       424    8    0    1
 -2       140       141       294      1265      1681      1682
 -1       425    8    0    1
 -2       141       142       295      1266      1683      1684
 -1       426    8    0    1
 -2       142       143       296      1267      1685      1686
 -1       427    8    0    1
 -2       143       144       297      1268      1687      1688
 -1       428    8    0    1
 -2       144       145       298      1269      1689      1690
 -1       429    8    0    1
 -2       145       146       299      1270      1691      1692
 -1       430    8    0    1
 -2       146       147       300      1271      1693      1694
 -1       431    8    0    1
 -2       147       148       301      1272      1695      1696
 -1       432    8    0    1
 -2       148       149       302      1273      1697      1698
 -1       433    8    0    1
 -2       149       150       303      1274      1699      1700
 -1       434    8    0    1
 -2       150       151       304      1275      1701      1702
 -1       435    8    0    1
 -2       151       152       305      1276      1703      1704
 -1       436    8    0    1
 -2       152       153       306      1277      1705      1706
 -1       437    8    0    1
 -2       153       154       307      1278      1707      1708
 -1       438    8    0    1
 -2       154       155       308      1279      1709      1710
 -1       439    8    0    1
 -2       155       156       309      1280      1711      1712
 -1       440    8    0    1
 -2       156       157       310      1281      1713      1714
 -1       441    8    0    1
 -2       157       158       311      1282      1715      1716
 -1       442    8    0    1
 -2       158         1       312      1283      1717      1718
 -1       443    8    0    1
 -2         1       159       313      1284      1719      1720
 -1       444    8    0    1
 -2       159       160       314      1285      1721      1722
 -1       445    8    0    1
 -2       160       161       315      1286      1723      1724
 -1       446    8    0    1
 -2       161       162       316      1287      1725      1726
 -1       447    8    0    1
 -2       162         2       317      1288      1727      1728
 -1       448    8    0    1
 -2       293       140       294      1679      1682      1729
 -1       449    8    0    1
 -2       292       139       293      1677      1680      1730
 -1       450    8    0    1
 -2       120       121       274      1627      1731      1624
 -1       451    8    0    1
 -2       121       275       274      1629      1732      1731
 -1       452    8    0    1
 -2       290       137       291      1673      1676      1733
 -1       453    8    0    1
 -2       291       138       292      1675      1678      1734
 -1       454    8    0    1
 -2         2       290       317      1674      1735      1727
 -1       455    8    0    1
 -2       141       295       294      1684      1736      1681
 -1       456    8    0    1
 -2       142       296       295      1686      1737      1683
 -1       457    8    0    1
 -2       143       297       296      1688      1738      1685
 -1       458    8    0    1
 -2       144       298       297      1690      1739      1687
 -1       459    8    0    1
 -2       145       299       298      1692      1740      1689
 -1       460    8    0    1
 -2       146       300       299      1694      1741      1691
 -1       461    8    0    1
 -2       147       301       300      1696      1742      1693
 -1       462    8    0    1
 -2       148       302       301      1698      1743      1695
 -1       463    8    0    1
 -2       149       303       302      1700      1744      1697
 -1       464    8    0    1
 -2       150       304       303      1702      1745      1699
 -1       465    8    0    1
 -2       151       305       304      1704      1746      1701
 -1       466    8    0    1
 -2       152       306       305      1706      1747      1703
 -1       467    8    0    1
 -2       153       307       306      1708      1748      1705
 -1       468    8    0    1
 -2       154       308       307      1710      1749      1707
 -1       469    8    0    1
 -2       155       309       308      1712      1750      1709
 -1       470    8    0    1
 -2       156       310       309      1714      1751      1711
 -1       471    8    0    1
 -2       157       311       310      1716      1752      1713
 -1       472    8    0    1
 -2       158       312       311      1718      1753      1715
 -1       473    8    0    1
 -2         1       313       312      1720      1754      1717
 -1       474    8    0    1
 -2       159       314       313      1722      1755      1719
 -1       475    8    0    1
 -2       160       315       314      1724      1756      1721
 -1       476    8    0    1
 -2       161       316       315      1726      1757      1723
 -1       477    8    0    1
 -2       162       317       316      1728      1758      1725
 -1       478    8    0    1
 -2        23         7       163      1289      1291      1759
 -1       479    8    0    1
 -2       164       165       318      1297      1760      1761
 -1       480    8    0    1
 -2       163       164       319      1294      1762      1763
 -1       481    8    0    1
 -2       164       318       319      1761      1764      1762
 -1       482    8    0    1
 -2       166       167       320      1303      1765      1766
 -1       483    8    0    1
 -2       167       168       321      1306      1767      1768
 -1       484    8    0    1
 -2       167       321       320      1768      1769      1765
 -1       485    8    0    1
 -2       168       169       322      1309      1770      1771
 -1       486    8    0    1
 -2       168       322       321      1771      1772      1767
 -1       487    8    0    1
 -2       169       170       323      1312      1773      1774
 -1       488    8    0    1
 -2       169       323       322      1774      1775      1770
 -1       489    8    0    1
 -2       170       171       324      1315      1776      1777
 -1       490    8    0    1
 -2       170       324       323      1777      1778      1773
 -1       491    8    0    1
 -2       171       172       325      1318      1779      1780
 -1       492    8    0    1
 -2       171       325       324      1780      1781      1776
 -1       493    8    0    1
 -2       172       173       326      1321      1782      1783
 -1       494    8    0    1
 -2       172       326       325      1783      1784      1779
 -1       495    8    0    1
 -2       173       174       327      1324      1785      1786
 -1       496    8    0    1
 -2       173       327       326      1786      1787      1782
 -1       497    8    0    1
 -2       174       175       328      1327      1788      1789
 -1       498    8    0    1
 -2       174       328       327      1789      1790      1785
 -1       499    8    0    1
 -2       175       176       329      1330      1791      1792
 -1       500    8    0    1
 -2       175       329       328      1792      1793      1788
 -1       501    8    0    1
 -2       176       177       330      1333      1794      1795
 -1       502    8    0    1
 -2       176       330       329      1795      1796      1791
 -1       503    8    0    1
 -2       177       178       331      1336      1797      1798
 -1       504    8    0    1
 -2       330       177       331      1794      1798      1799
 -1       505    8    0    1
 -2       178       227       331      1485      1800      1797
 -1       506    8    0    1
 -2       179        23       163      1338      1759      1801
 -1       507    8    0    1
 -2       227       228       332      1488      1802      1803
 -1       508    8    0    1
 -2       227       332       331      1803      1804      1800
 -1       509    8    0    1
 -2       179       163       319      1801      1763      1805
 -1       510    8    0    1
 -2       181       180       333      1345      1806      1807
 -1       511    8    0    1
 -2       182       181       334      1348      1808      1809
 -1       512    8    0    1
 -2       181       333       334      1807      1810      1808
 -1       513    8    0    1
 -2       183       182       335      1351      1811      1812
 -1       514    8    0    1
 -2       182       334       335      1809      1813      1811
 -1       515    8    0    1
 -2       184       183       336      1354      1814      1815
 -1       516    8    0    1
 -2       183       335       336      1812      1816      1814
 -1       517    8    0    1
 -2       185       184       337      1357      1817      1818
 -1       518    8    0    1
 -2       184       336       337      1815      1819      1817
 -1       519    8    0    1
 -2       186       185       338      1360      1820      1821
 -1       520    8    0    1
 -2       185       337       338      1818      1822      1820
 -1       521    8    0    1
 -2       187       186       339      1363      1823      1824
 -1       522    8    0    1
 -2       186       338       339      1821      1825      1823
 -1       523    8    0    1
 -2       188       187       340      1366      1826      1827
 -1       524    8    0    1
 -2       187       339       340      1824      1828      1826
 -1       525    8    0    1
 -2       189       188       341      1369      1829      1830
 -1       526    8    0    1
 -2       188       340       341      1827      1831      1829
 -1       527    8    0    1
 -2       190       189       342      1372      1832      1833
 -1       528    8    0    1
 -2       189       341       342      1830      1834      1832
 -1       529    8    0    1
 -2       191       190       343      1375      1835      1836
 -1       530    8    0    1
 -2       190       342       343      1833      1837      1835
 -1       531    8    0    1
 -2       192       191       344      1378      1838      1839
 -1       532    8    0    1
 -2       191       343       344      1836      1840      1838
 -1       533    8    0    1
 -2       193       192       345      1381      1841      1842
 -1       534    8    0    1
 -2       192       344       345      1839      1843      1841
 -1       535    8    0    1
 -2       194       193       346      1384      1844      1845
 -1       536    8    0    1
 -2       193       345       346      1842      1846      1844
 -1       537    8    0    1
 -2       195       194       347      1387      1847      1848
 -1       538    8    0    1
 -2       194       346       347      1845      1849      1847
 -1       539    8    0    1
 -2       196       195       348      1390      1850      1851
 -1       540    8    0    1
 -2       195       347       348      1848      1852      1850
 -1       541    8    0    1
 -2       197       196       349      1393      1853      1854
 -1       542    8    0    1
 -2       196       348       349      1851      1855      1853
 -1       543    8    0    1
 -2       198       197       350      1396      1856      1857
 -1       544    8    0    1
 -2       197       349       350      1854      1858      1856
 -1       545    8    0    1
 -2       199       198       351      1399      1859      1860
 -1       546    8    0    1
 -2       198       350       351      1857      1861      1859
 -1       547    8    0    1
 -2       200       199       352      1402      1862      1863
 -1       548    8    0    1
 -2       199       351       352      1860      1864      1862
 -1       549    8    0    1
 -2       201       200       353      1405      1865      1866
 -1       550    8    0    1
 -2       200       352       353      1863      1867      1865
 -1       551    8    0    1
 -2       202       201       354      1408      1868      1869
 -1       552    8    0    1
 -2       201       353       354      1866      1870      1868
 -1       553    8    0    1
 -2       203       202       355      1411      1871      1872
 -1       554    8    0    1
 -2       202       354       355      1869      1873      1871
 -1       555    8    0    1
 -2       204       203       356      1414      1874      1875
 -1       556    8    0    1
 -2       203       355       356      1872      1876      1874
 -1       557    8    0    1
 -2       205       204       357      1417      1877      1878
 -1       558    8    0    1
 -2       204       356       357      1875      1879      1877
 -1       559    8    0    1
 -2       206       205       358      1420      1880      1881
 -1       560    8    0    1
 -2       205       357       358      1878      1882      1880
 -1       561    8    0    1
 -2       207       206       359      1423      1883      1884
 -1       562    8    0    1
 -2       206       358       359      1881      1885      1883
 -1       563    8    0    1
 -2       208       207       360      1426      1886      1887
 -1       564    8    0    1
 -2       207       359       360      1884      1888      1886
 -1       565    8    0    1
 -2       209       208       361      1429      1889      1890
 -1       566    8    0    1
 -2       208       360       361      1887      1891      1889
 -1       567    8    0    1
 -2       210       209       362      1432      1892      1893
 -1       568    8    0    1
 -2       209       361       362      1890      1894      1892
 -1       569    8    0    1
 -2       211       210       363      1435      1895      1896
 -1       570    8    0    1
 -2       210       362       363      1893      1897      1895
 -1       571    8    0    1
 -2       212       211       364      1438      1898      1899
 -1       572    8    0    1
 -2       211       363       364      1896      1900      1898
 -1       573    8    0    1
 -2       213       212       365      1441      1901      1902
 -1       574    8    0    1
 -2       212       364       365      1899      1903      1901
 -1       575    8    0    1
 -2       214       213       366      1444      1904      1905
 -1       576    8    0    1
 -2       213       365       366      1902      1906      1904
 -1       577    8    0    1
 -2       215       214       367      1447      1907      1908
 -1       578    8    0    1
 -2       214       366       367      1905      1909      1907
 -1       579    8    0    1
 -2       216       215       368      1450      1910      1911
 -1       580    8    0    1
 -2       215       367       368      1908      1912      1910
 -1       581    8    0    1
 -2       217       216       369      1453      1913      1914
 -1       582    8    0    1
 -2       216       368       369      1911      1915      1913
 -1       583    8    0    1
 -2       218       217       370      1456      1916      1917
 -1       584    8    0    1
 -2       217       369       370      1914      1918      1916
 -1       585    8    0    1
 -2       219       218       371      1459      1919      1920
 -1       586    8    0    1
 -2       218       370       371      1917      1921      1919
 -1       587    8    0    1
 -2       220       219       372      1462      1922      1923
 -1       588    8    0    1
 -2       219       371       372      1920      1924      1922
 -1       589    8    0    1
 -2       221       220       373      1465      1925      1926
 -1       590    8    0    1
 -2       220       372       373      1923      1927      1925
 -1       591    8    0    1
 -2       222       221       374      1468      1928      1929
 -1       592    8    0    1
 -2       221       373       374      1926      1930      1928
 -1       593    8    0    1
 -2       223       222       375      1471      1931      1932
 -1       594    8    0    1
 -2       222       374       375      1929      1933      1931
 -1       595    8    0    1
 -2       224       223       376      1474      1934      1935
 -1       596    8    0    1
 -2       223       375       376      1932      1936      1934
 -1       597    8    0    1
 -2       225       224       377      1477      1937      1938
 -1       598    8    0    1
 -2       224       376       377      1935      1939      1937
 -1       599    8    0    1
 -2       226       225       378      1480      1940      1941
 -1       600    8    0    1
 -2       289       226       378      1672      1941      1942
 -1       601    8    0    1
 -2       225       377       378      1938      1943      1940
 -1       602    8    0    1
 -2       228       229       379      1491      1944      1945
 -1       603    8    0    1
 -2       228       379       332      1945      1946      1802
 -1       604    8    0    1
 -2       229       230       380      1494      1947      1948
 -1       605    8    0    1
 -2       229       380       379      1948      1949      1944
 -1       606    8    0    1
 -2       230       231       381      1497      1950      1951
 -1       607    8    0    1
 -2       230       381       380      1951      1952      1947
 -1       608    8    0    1
 -2       231       232       382      1500      1953      1954
 -1       609    8    0    1
 -2       231       382       381      1954      1955      1950
 -1       610    8    0    1
 -2       232       233       383      1503      1956      1957
 -1       611    8    0    1
 -2       232       383       382      1957      1958      1953
 -1       612    8    0    1
 -2       233       234       384      1506      1959      1960
 -1       613    8    0    1
 -2       233       384       383      1960      1961      1956
 -1       614    8    0    1
 -2       234       235       385      1509      1962      1963
 -1       615    8    0    1
 -2       234       385       384      1963      1964      1959
 -1       616    8    0    1
 -2       235       236       386      1512      1965      1966
 -1       617    8    0    1
 -2       235       386       385      1966      1967      1962
 -1       618    8    0    1
 -2       236       237       387      1515      1968      1969
 -1       619    8    0    1
 -2       236       387       386      1969      1970      1965
 -1       620    8    0    1
 -2       237       238       388      1518      1971      1972
 -1       621    8    0    1
 -2       237       388       387      1972      1973      1968
 -1       622    8    0    1
 -2       238       239       389      1521      1974      1975
 -1       623    8    0    1
 -2       238       389       388      1975      1976      1971
 -1       624    8    0    1
 -2       239       240       390      1524      1977      1978
 -1       625    8    0    1
 -2       239       390       389      1978      1979      1974
 -1       626    8    0    1
 -2       240       241       391      1527      1980      1981
 -1       627    8    0    1
 -2       240       391       390      1981      1982      1977
 -1       628    8    0    1
 -2       241       242       392      1530      1983      1984
 -1       629    8    0    1
 -2       241       392       391      1984      1985      1980
 -1       630    8    0    1
 -2       242       243       393      1533      1986      1987
 -1       631    8    0    1
 -2       242       393       392      1987      1988      1983
 -1       632    8    0    1
 -2       243       244       394      1536      1989      1990
 -1       633    8    0    1
 -2       243       394       393      1990      1991      1986
 -1       634    8    0    1
 -2       244       245       395      1539      1992      1993
 -1       635    8    0    1
 -2       244       395       394      1993      1994      1989
 -1       636    8    0    1
 -2       245       246       396      1542      1995      1996
 -1       637    8    0    1
 -2       245       396       395      1996      1997      1992
 -1       638    8    0    1
 -2       246       247       397      1545      1998      1999
 -1       639    8    0    1
 -2       246       397       396      1999      2000      1995
 -1       640    8    0    1
 -2       247       248       398      1548      2001      2002
 -1       641    8    0    1
 -2       247       398       397      2002      2003      1998
 -1       642    8    0    1
 -2       248       249       399      1551      2004      2005
 -1       643    8    0    1
 -2       248       399       398      2005      2006      2001
 -1       644    8    0    1
 -2       249       250       400      1554      2007      2008
 -1       645    8    0    1
 -2       249       400       399      2008      2009      2004
 -1       646    8    0    1
 -2       250       251       401      1557      2010      2011
 -1       647    8    0    1
 -2       250       401       400      2011      2012      2007
 -1       648    8    0    1
 -2       251       252       402      1560      2013      2014
 -1       649    8    0    1
 -2       251       402       401      2014      2015      2010
 -1       650    8    0    1
 -2       252       253       403      1563      2016      2017
 -1       651    8    0    1
 -2       252       403       402      2017      2018      2013
 -1       652    8    0    1
 -2       253       254       404      1566      2019      2020
 -1       653    8    0    1
 -2       253       404       403      2020      2021      2016
 -1       654    8    0    1
 -2       254       255       405      1569      2022      2023
 -1       655    8    0    1
 -2       254       405       404      2023      2024      2019
 -1       656    8    0    1
 -2       255       256       406      1572      2025      2026
 -1       657    8    0    1
 -2       255       406       405      2026      2027      2022
 -1       658    8    0    1
 -2       256       257       407      1575      2028      2029
 -1       659    8    0    1
 -2       256       407       406      2029      2030      2025
 -1       660    8    0    1
 -2       257       258       408      1578      2031      2032
 -1       661    8    0    1
 -2       257       408       407      2032      2033      2028
 -1       662    8    0    1
 -2       258       259       409      1581      2034      2035
 -1       663    8    0    1
 -2       258       409       408      2035      2036      2031
 -1       664    8    0    1
 -2       259       260       410      1584      2037      2038
 -1       665    8    0    1
 -2       259       410       409      2038      2039      2034
 -1       666    8    0    1
 -2       260       261       411      1587      2040      2041
 -1       667    8    0    1
 -2       260       411       410      2041      2042      2037
 -1       668    8    0    1
 -2       261       262       412      1590      2043      2044
 -1       669    8    0    1
 -2       261       412       411      2044      2045      2040
 -1       670    8    0    1
 -2       262       263       413      1593      2046      2047
 -1       671    8    0    1
 -2       262       413       412      2047      2048      2043
 -1       672    8    0    1
 -2       263       264       414      1596      2049      2050
 -1       673    8    0    1
 -2       263       414       413      2050      2051      2046
 -1       674    8    0    1
 -2       264       265       415      1599      2052      2053
 -1       675    8    0    1
 -2       264       415       414      2053      2054      2049
 -1       676    8    0    1
 -2       265       266       416      1602      2055      2056
 -1       677    8    0    1
 -2       265       416       415      2056      2057      2052
 -1       678    8    0    1
 -2       266       267       417      1605      2058      2059
 -1       679    8    0    1
 -2       266       417       416      2059      2060      2055
 -1       680    8    0    1
 -2       267       268       418      1608      2061      2062
 -1       681    8    0    1
 -2       267       418       417      2062      2063      2058
 -1       682    8    0    1
 -2       268       269       419      1611      2064      2065
 -1       683    8    0    1
 -2       268       419       418      2065      2066      2061
 -1       684    8    0    1
 -2       269       270       420      1614      2067      2068
 -1       685    8    0    1
 -2       269       420       419      2068      2069      2064
 -1       686    8    0    1
 -2       270       271       421      1617      2070      2071
 -1       687    8    0    1
 -2       270       421       420      2071      2072      2067
 -1       688    8    0    1
 -2       271       272       422      1620      2073      2074
 -1       689    8    0    1
 -2       271       422       421      2074      2075      2070
 -1       690    8    0    1
 -2       272       273       423      1623      2076      2077
 -1       691    8    0    1
 -2       272       423       422      2077      2078      2073
 -1       692    8    0    1
 -2       273       274       424      1626      2079      2080
 -1       693    8    0    1
 -2       423       273       424      2076      2080      2081
 -1       694    8    0    1
 -2       274       275       424      1732      2082      2079
 -1       695    8    0    1
 -2       277       278       425      1638      2083      2084
 -1       696    8    0    1
 -2       276       277       426      1635      2085      2086
 -1       697    8    0    1
 -2       277       425       426      2084      2087      2085
 -1       698    8    0    1
 -2       275       276       427      1632      2088      2089
 -1       699    8    0    1
 -2       424       275       427      2082      2089      2090
 -1       700    8    0    1
 -2       276       426       427      2086      2091      2088
 -1       701    8    0    1
 -2       278       279       428      1641      2092      2093
 -1       702    8    0    1
 -2       278       428       425      2093      2094      2083
 -1       703    8    0    1
 -2       279       280       429      1644      2095      2096
 -1       704    8    0    1
 -2       279       429       428      2096      2097      2092
 -1       705    8    0    1
 -2       280       281       430      1647      2098      2099
 -1       706    8    0    1
 -2       280       430       429      2099      2100      2095
 -1       707    8    0    1
 -2       281       282       431      1650      2101      2102
 -1       708    8    0    1
 -2       281       431       430      2102      2103      2098
 -1       709    8    0    1
 -2       282       283       432      1653      2104      2105
 -1       710    8    0    1
 -2       282       432       431      2105      2106      2101
 -1       711    8    0    1
 -2       283       284       433      1656      2107      2108
 -1       712    8    0    1
 -2       283       433       432      2108      2109      2104
 -1       713    8    0    1
 -2       284       285       434      1659      2110      2111
 -1       714    8    0    1
 -2       284       434       433      2111      2112      2107
 -1       715    8    0    1
 -2       285       286       435      1662      2113      2114
 -1       716    8    0    1
 -2       285       435       434      2114      2115      2110
 -1       717    8    0    1
 -2       286       287       436      1665      2116      2117
 -1       718    8    0    1
 -2       286       436       435      2117      2118      2113
 -1       719    8    0    1
 -2       287       288       437      1668      2119      2120
 -1       720    8    0    1
 -2       287       437       436      2120      2121      2116
 -1       721    8    0    1
 -2       291       292       438      1734      2122      2123
 -1       722    8    0    1
 -2       317       290       439      1735      2124      2125
 -1       723    8    0    1
 -2       290       291       440      1733      2126      2127
 -1       724    8    0    1
 -2       291       438       440      2123      2128      2126
 -1       725    8    0    1
 -2       292       293       441      1730      2129      2130
 -1       726    8    0    1
 -2       293       294       442      1729      2131      2132
 -1       727    8    0    1
 -2       165       166       443      1300      2133      2134
 -1       728    8    0    1
 -2       318       165       443      1760      2134      2135
 -1       729    8    0    1
 -2       166       320       443      1766      2136      2133
 -1       730    8    0    1
 -2       295       296       444      1737      2137      2138
 -1       731    8    0    1
 -2       296       297       445      1738      2139      2140
 -1       732    8    0    1
 -2       297       298       446      1739      2141      2142
 -1       733    8    0    1
 -2       298       299       447      1740      2143      2144
 -1       734    8    0    1
 -2       299       300       448      1741      2145      2146
 -1       735    8    0    1
 -2       300       301       449      1742      2147      2148
 -1       736    8    0    1
 -2       300       449       448      2148      2149      2145
 -1       737    8    0    1
 -2       301       302       450      1743      2150      2151
 -1       738    8    0    1
 -2       302       303       451      1744      2152      2153
 -1       739    8    0    1
 -2       303       304       452      1745      2154      2155
 -1       740    8    0    1
 -2       304       305       453      1746      2156      2157
 -1       741    8    0    1
 -2       304       453       452      2157      2158      2154
 -1       742    8    0    1
 -2       305       306       454      1747      2159      2160
 -1       743    8    0    1
 -2       306       307       455      1748      2161      2162
 -1       744    8    0    1
 -2       307       308       456      1749      2163      2164
 -1       745    8    0    1
 -2       308       309       457      1750      2165      2166
 -1       746    8    0    1
 -2       309       310       458      1751      2167      2168
 -1       747    8    0    1
 -2       310       311       459      1752      2169      2170
 -1       748    8    0    1
 -2       311       312       460      1753      2171      2172
 -1       749    8    0    1
 -2       312       313       461      1754      2173      2174
 -1       750    8    0    1
 -2       313       314       462      1755      2175      2176
 -1       751    8    0    1
 -2       314       315       463      1756      2177      2178
 -1       752    8    0    1
 -2       315       316       464      1757      2179      2180
 -1       753    8    0    1
 -2       316       317       465      1758      2181      2182
 -1       754    8    0    1
 -2       317       439       465      2125      2183      2181
 -1       755    8    0    1
 -2       294       295       466      1736      2184      2185
 -1       756    8    0    1
 -2       442       294       466      2131      2185      2186
 -1       757    8    0    1
 -2       179       319       180      1805      2187      1342
 -1       758    8    0    1
 -2       295       444       466      2138      2188      2184
 -1       759    8    0    1
 -2       333       180       319      1806      2187      2189
 -1       760    8    0    1
 -2       439       290       440      2124      2127      2190
 -1       761    8    0    1
 -2       292       441       467      2130      2191      2192
 -1       762    8    0    1
 -2       292       467       438      2192      2193      2122
 -1       763    8    0    1
 -2       437       288       289      2119      1671      2194
 -1       764    8    0    1
 -2       441       293       442      2129      2132      2195
 -1       765    8    0    1
 -2       464       316       465      2179      2182      2196
 -1       766    8    0    1
 -2       463       315       464      2177      2180      2197
 -1       767    8    0    1
 -2       462       314       463      2175      2178      2198
 -1       768    8    0    1
 -2       461       313       462      2173      2176      2199
 -1       769    8    0    1
 -2       460       312       468      2171      2200      2201
 -1       770    8    0    1
 -2       312       461       468      2174      2202      2200
 -1       771    8    0    1
 -2       459       311       460      2169      2172      2203
 -1       772    8    0    1
 -2       458       310       459      2167      2170      2204
 -1       773    8    0    1
 -2       457       309       458      2165      2168      2205
 -1       774    8    0    1
 -2       456       308       457      2163      2166      2206
 -1       775    8    0    1
 -2       455       307       456      2161      2164      2207
 -1       776    8    0    1
 -2       453       305       469      2156      2208      2209
 -1       777    8    0    1
 -2       305       454       469      2160      2210      2208
 -1       778    8    0    1
 -2       451       303       452      2152      2155      2211
 -1       779    8    0    1
 -2       449       301       450      2147      2151      2212
 -1       780    8    0    1
 -2       447       299       470      2143      2213      2214
 -1       781    8    0    1
 -2       299       448       470      2146      2215      2213
 -1       782    8    0    1
 -2       446       298       447      2141      2144      2216
 -1       783    8    0    1
 -2       444       296       445      2137      2140      2217
 -1       784    8    0    1
 -2       445       297       446      2139      2142      2218
 -1       785    8    0    1
 -2       450       302       451      2150      2153      2219
 -1       786    8    0    1
 -2       454       306       455      2159      2162      2220
 -1       787    8    0    1
 -2       332       379       471      1946      2221      2222
 -1       788    8    0    1
 -2       321       322       472      1772      2223      2224
 -1       789    8    0    1
 -2       320       321       473      1769      2225      2226
 -1       790    8    0    1
 -2       321       472       473      2224      2227      2225
 -1       791    8    0    1
 -2       323       324       474      1778      2228      2229
 -1       792    8    0    1
 -2       324       325       475      1781      2230      2231
 -1       793    8    0    1
 -2       324       475       474      2231      2232      2228
 -1       794    8    0    1
 -2       325       326       476      1784      2233      2234
 -1       795    8    0    1
 -2       325       476       475      2234      2235      2230
 -1       796    8    0    1
 -2       326       327       477      1787      2236      2237
 -1       797    8    0    1
 -2       326       477       476      2237      2238      2233
 -1       798    8    0    1
 -2       327       328       478      1790      2239      2240
 -1       799    8    0    1
 -2       327       478       477      2240      2241      2236
 -1       800    8    0    1
 -2       328       329       479      1793      2242      2243
 -1       801    8    0    1
 -2       328       479       478      2243      2244      2239
 -1       802    8    0    1
 -2       379       380       480      1949      2245      2246
 -1       803    8    0    1
 -2       379       480       471      2246      2247      2221
 -1       804    8    0    1
 -2       334       333       481      1810      2248      2249
 -1       805    8    0    1
 -2       466       444       482      2188      2250      2251
 -1       806    8    0    1
 -2       335       334       483      1813      2252      2253
 -1       807    8    0    1
 -2       334       481       483      2249      2254      2252
 -1       808    8    0    1
 -2       336       335       484      1816      2255      2256
 -1       809    8    0    1
 -2       335       483       484      2253      2257      2255
 -1       810    8    0    1
 -2       337       336       485      1819      2258      2259
 -1       811    8    0    1
 -2       336       484       485      2256      2260      2258
 -1       812    8    0    1
 -2       338       337       486      1822      2261      2262
 -1       813    8    0    1
 -2       337       485       486      2259      2263      2261
 -1       814    8    0    1
 -2       339       338       487      1825      2264      2265
 -1       815    8    0    1
 -2       338       486       487      2262      2266      2264
 -1       816    8    0    1
 -2       340       339       488      1828      2267      2268
 -1       817    8    0    1
 -2       339       487       488      2265      2269      2267
 -1       818    8    0    1
 -2       341       340       489      1831      2270      2271
 -1       819    8    0    1
 -2       340       488       489      2268      2272      2270
 -1       820    8    0    1
 -2       342       341       490      1834      2273      2274
 -1       821    8    0    1
 -2       341       489       490      2271      2275      2273
 -1       822    8    0    1
 -2       343       342       491      1837      2276      2277
 -1       823    8    0    1
 -2       342       490       491      2274      2278      2276
 -1       824    8    0    1
 -2       344       343       492      1840      2279      2280
 -1       825    8    0    1
 -2       343       491       492      2277      2281      2279
 -1       826    8    0    1
 -2       345       344       493      1843      2282      2283
 -1       827    8    0    1
 -2       344       492       493      2280      2284      2282
 -1       828    8    0    1
 -2       346       345       494      1846      2285      2286
 -1       829    8    0    1
 -2       345       493       494      2283      2287      2285
 -1       830    8    0    1
 -2       347       346       495      1849      2288      2289
 -1       831    8    0    1
 -2       346       494       495      2286      2290      2288
 -1       832    8    0    1
 -2       348       347       496      1852      2291      2292
 -1       833    8    0    1
 -2       347       495       496      2289      2293      2291
 -1       834    8    0    1
 -2       349       348       497      1855      2294      2295
 -1       835    8    0    1
 -2       348       496       497      2292      2296      2294
 -1       836    8    0    1
 -2       350       349       498      1858      2297      2298
 -1       837    8    0    1
 -2       349       497       498      2295      2299      2297
 -1       838    8    0    1
 -2       351       350       499      1861      2300      2301
 -1       839    8    0    1
 -2       350       498       499      2298      2302      2300
 -1       840    8    0    1
 -2       352       351       500      1864      2303      2304
 -1       841    8    0    1
 -2       351       499       500      2301      2305      2303
 -1       842    8    0    1
 -2       353       352       501      1867      2306      2307
 -1       843    8    0    1
 -2       352       500       501      2304      2308      2306
 -1       844    8    0    1
 -2       354       353       502      1870      2309      2310
 -1       845    8    0    1
 -2       353       501       502      2307      2311      2309
 -1       846    8    0    1
 -2       355       354       503      1873      2312      2313
 -1       847    8    0    1
 -2       354       502       503      2310      2314      2312
 -1       848    8    0    1
 -2       356       355       504      1876      2315      2316
 -1       849    8    0    1
 -2       355       503       504      2313      2317      2315
 -1       850    8    0    1
 -2       357       356       505      1879      2318      2319
 -1       851    8    0    1
 -2       356       504       505      2316      2320      2318
 -1       852    8    0    1
 -2       358       357       506      1882      2321      2322
 -1       853    8    0    1
 -2       357       505       506      2319      2323      2321
 -1       854    8    0    1
 -2       359       358       507      1885      2324      2325
 -1       855    8    0    1
 -2       358       506       507      2322      2326      2324
 -1       856    8    0    1
 -2       360       359       508      1888      2327      2328
 -1       857    8    0    1
 -2       359       507       508      2325      2329      2327
 -1       858    8    0    1
 -2       361       360       509      1891      2330      2331
 -1       859    8    0    1
 -2       360       508       509      2328      2332      2330
 -1       860    8    0    1
 -2       362       361       510      1894      2333      2334
 -1       861    8    0    1
 -2       361       509       510      2331      2335      2333
 -1       862    8    0    1
 -2       363       362       511      1897      2336      2337
 -1       863    8    0    1
 -2       362       510       511      2334      2338      2336
 -1       864    8    0    1
 -2       364       363       512      1900      2339      2340
 -1       865    8    0    1
 -2       363       511       512      2337      2341      2339
 -1       866    8    0    1
 -2       365       364       513      1903      2342      2343
 -1       867    8    0    1
 -2       364       512       513      2340      2344      2342
 -1       868    8    0    1
 -2       366       365       514      1906      2345      2346
 -1       869    8    0    1
 -2       365       513       514      2343      2347      2345
 -1       870    8    0    1
 -2       367       366       515      1909      2348      2349
 -1       871    8    0    1
 -2       366       514       515      2346      2350      2348
 -1       872    8    0    1
 -2       368       367       516      1912      2351      2352
 -1       873    8    0    1
 -2       367       515       516      2349      2353      2351
 -1       874    8    0    1
 -2       369       368       517      1915      2354      2355
 -1       875    8    0    1
 -2       368       516       517      2352      2356      2354
 -1       876    8    0    1
 -2       370       369       518      1918      2357      2358
 -1       877    8    0    1
 -2       369       517       518      2355      2359      2357
 -1       878    8    0    1
 -2       371       370       519      1921      2360      2361
 -1       879    8    0    1
 -2       370       518       519      2358      2362      2360
 -1       880    8    0    1
 -2       372       371       520      1924      2363      2364
 -1       881    8    0    1
 -2       371       519       520      2361      2365      2363
 -1       882    8    0    1
 -2       373       372       521      1927      2366      2367
 -1       883    8    0    1
 -2       372       520       521      2364      2368      2366
 -1       884    8    0    1
 -2       374       373       522      1930      2369      2370
 -1       885    8    0    1
 -2       373       521       522      2367      2371      2369
 -1       886    8    0    1
 -2       375       374       523      1933      2372      2373
 -1       887    8    0    1
 -2       374       522       523      2370      2374      2372
 -1       888    8    0    1
 -2       376       375       524      1936      2375      2376
 -1       889    8    0    1
 -2       375       523       524      2373      2377      2375
 -1       890    8    0    1
 -2       377       376       525      1939      2378      2379
 -1       891    8    0    1
 -2       376       524       525      2376      2380      2378
 -1       892    8    0    1
 -2       440       438       526      2128      2381      2382
 -1       893    8    0    1
 -2       381       382       527      1955      2383      2384
 -1       894    8    0    1
 -2       382       383       528      1958      2385      2386
 -1       895    8    0    1
 -2       382       528       527      2386      2387      2383
 -1       896    8    0    1
 -2       383       384       529      1961      2388      2389
 -1       897    8    0    1
 -2       383       529       528      2389      2390      2385
 -1       898    8    0    1
 -2       384       385       530      1964      2391      2392
 -1       899    8    0    1
 -2       384       530       529      2392      2393      2388
 -1       900    8    0    1
 -2       385       386       531      1967      2394      2395
 -1       901    8    0    1
 -2       385       531       530      2395      2396      2391
 -1       902    8    0    1
 -2       386       387       532      1970      2397      2398
 -1       903    8    0    1
 -2       386       532       531      2398      2399      2394
 -1       904    8    0    1
 -2       387       388       533      1973      2400      2401
 -1       905    8    0    1
 -2       387       533       532      2401      2402      2397
 -1       906    8    0    1
 -2       388       389       534      1976      2403      2404
 -1       907    8    0    1
 -2       388       534       533      2404      2405      2400
 -1       908    8    0    1
 -2       389       390       535      1979      2406      2407
 -1       909    8    0    1
 -2       389       535       534      2407      2408      2403
 -1       910    8    0    1
 -2       390       391       536      1982      2409      2410
 -1       911    8    0    1
 -2       390       536       535      2410      2411      2406
 -1       912    8    0    1
 -2       391       392       537      1985      2412      2413
 -1       913    8    0    1
 -2       391       537       536      2413      2414      2409
 -1       914    8    0    1
 -2       392       393       538      1988      2415      2416
 -1       915    8    0    1
 -2       392       538       537      2416      2417      2412
 -1       916    8    0    1
 -2       393       394       539      1991      2418      2419
 -1       917    8    0    1
 -2       393       539       538      2419      2420      2415
 -1       918    8    0    1
 -2       394       395       540      1994      2421      2422
 -1       919    8    0    1
 -2       394       540       539      2422      2423      2418
 -1       920    8    0    1
 -2       395       396       541      1997      2424      2425
 -1       921    8    0    1
 -2       395       541       540      2425      2426      2421
 -1       922    8    0    1
 -2       396       397       542      2000      2427      2428
 -1       923    8    0    1
 -2       396       542       541      2428      2429      2424
 -1       924    8    0    1
 -2       397       398       543      2003      2430      2431
 -1       925    8    0    1
 -2       397       543       542      2431      2432      2427
 -1       926    8    0    1
 -2       398       399       544      2006      2433      2434
 -1       927    8    0    1
 -2       398       544       543      2434      2435      2430
 -1       928    8    0    1
 -2       399       400       545      2009      2436      2437
 -1       929    8    0    1
 -2       399       545       544      2437      2438      2433
 -1       930    8    0    1
 -2       400       401       546      2012      2439      2440
 -1       931    8    0    1
 -2       400       546       545      2440      2441      2436
 -1       932    8    0    1
 -2       401       402       547      2015      2442      2443
 -1       933    8    0    1
 -2       401       547       546      2443      2444      2439
 -1       934    8    0    1
 -2       402       403       548      2018      2445      2446
 -1       935    8    0    1
 -2       402       548       547      2446      2447      2442
 -1       936    8    0    1
 -2       403       404       549      2021      2448      2449
 -1       937    8    0    1
 -2       403       549       548      2449      2450      2445
 -1       938    8    0    1
 -2       404       405       550      2024      2451      2452
 -1       939    8    0    1
 -2       404       550       549      2452      2453      2448
 -1       940    8    0    1
 -2       405       406       551      2027      2454      2455
 -1       941    8    0    1
 -2       405       551       550      2455      2456      2451
 -1       942    8    0    1
 -2       406       407       552      2030      2457      2458
 -1       943    8    0    1
 -2       406       552       551      2458      2459      2454
 -1       944    8    0    1
 -2       407       408       553      2033      2460      2461
 -1       945    8    0    1
 -2       407       553       552      2461      2462      2457
 -1       946    8    0    1
 -2       408       409       554      2036      2463      2464
 -1       947    8    0    1
 -2       408       554       553      2464      2465      2460
 -1       948    8    0    1
 -2       409       410       555      2039      2466      2467
 -1       949    8    0    1
 -2       409       555       554      2467      2468      2463
 -1       950    8    0    1
 -2       410       411       556      2042      2469      2470
 -1       951    8    0    1
 -2       410       556       555      2470      2471      2466
 -1       952    8    0    1
 -2       411       412       557      2045      2472      2473
 -1       953    8    0    1
 -2       411       557       556      2473      2474      2469
 -1       954    8    0    1
 -2       412       413       558      2048      2475      2476
 -1       955    8    0    1
 -2       412       558       557      2476      2477      2472
 -1       956    8    0    1
 -2       413       414       559      2051      2478      2479
 -1       957    8    0    1
 -2       413       559       558      2479      2480      2475
 -1       958    8    0    1
 -2       414       415       560      2054      2481      2482
 -1       959    8    0    1
 -2       414       560       559      2482      2483      2478
 -1       960    8    0    1
 -2       415       416       561      2057      2484      2485
 -1       961    8    0    1
 -2       415       561       560      2485      2486      2481
 -1       962    8    0    1
 -2       416       417       562      2060      2487      2488
 -1       963    8    0    1
 -2       416       562       561      2488      2489      2484
 -1       964    8    0    1
 -2       417       418       563      2063      2490      2491
 -1       965    8    0    1
 -2       417       563       562      2491      2492      2487
 -1       966    8    0    1
 -2       418       419       564      2066      2493      2494
 -1       967    8    0    1
 -2       418       564       563      2494      2495      2490
 -1       968    8    0    1
 -2       419       420       565      2069      2496      2497
 -1       969    8    0    1
 -2       419       565       564      2497      2498      2493
 -1       970    8    0    1
 -2       420       421       566      2072      2499      2500
 -1       971    8    0    1
 -2       420       566       565      2500      2501      2496
 -1       972    8    0    1
 -2       421       422       567      2075      2502      2503
 -1       973    8    0    1
 -2       421       567       566      2503      2504      2499
 -1       974    8    0    1
 -2       422       423       568      2078      2505      2506
 -1       975    8    0    1
 -2       422       568       567      2506      2507      2502
 -1       976    8    0    1
 -2       423       424       427      2081      2090      2508
 -1       977    8    0    1
 -2       428       429       569      2097      2509      2510
 -1       978    8    0    1
 -2       429       430       570      2100      2511      2512
 -1       979    8    0    1
 -2       429       570       569      2512      2513      2509
 -1       980    8    0    1
 -2       426       425       571      2087      2514      2515
 -1       981    8    0    1
 -2       425       428       572      2094      2516      2517
 -1       982    8    0    1
 -2       571       425       572      2514      2517      2518
 -1       983    8    0    1
 -2       428       569       572      2510      2519      2516
 -1       984    8    0    1
 -2       430       431       573      2103      2520      2521
 -1       985    8    0    1
 -2       430       573       570      2521      2522      2511
 -1       986    8    0    1
 -2       431       432       574      2106      2523      2524
 -1       987    8    0    1
 -2       431       574       573      2524      2525      2520
 -1       988    8    0    1
 -2       432       433       575      2109      2526      2527
 -1       989    8    0    1
 -2       432       575       574      2527      2528      2523
 -1       990    8    0    1
 -2       433       434       576      2112      2529      2530
 -1       991    8    0    1
 -2       433       576       575      2530      2531      2526
 -1       992    8    0    1
 -2       434       435       577      2115      2532      2533
 -1       993    8    0    1
 -2       434       577       576      2533      2534      2529
 -1       994    8    0    1
 -2       435       436       578      2118      2535      2536
 -1       995    8    0    1
 -2       435       578       577      2536      2537      2532
 -1       996    8    0    1
 -2       436       437       579      2121      2538      2539
 -1       997    8    0    1
 -2       436       579       578      2539      2540      2535
 -1       998    8    0    1
 -2       437       289       378      2194      1942      2541
 -1       999    8    0    1
 -2       441       442       580      2195      2542      2543
 -1      1000    8    0    1
 -2       380       381       581      1952      2544      2545
 -1      1001    8    0    1
 -2       381       527       581      2384      2546      2544
 -1      1002    8    0    1
 -2       439       440       582      2190      2547      2548
 -1      1003    8    0    1
 -2       464       465       583      2196      2549      2550
 -1      1004    8    0    1
 -2       465       439       584      2183      2551      2552
 -1      1005    8    0    1
 -2       451       452       585      2211      2553      2554
 -1      1006    8    0    1
 -2       322       323       586      1775      2555      2556
 -1      1007    8    0    1
 -2       472       322       586      2223      2556      2557
 -1      1008    8    0    1
 -2       323       474       586      2229      2558      2555
 -1      1009    8    0    1
 -2       445       446       587      2218      2559      2560
 -1      1010    8    0    1
 -2       450       451       588      2219      2561      2562
 -1      1011    8    0    1
 -2       444       445       589      2217      2563      2564
 -1      1012    8    0    1
 -2       444       589       482      2564      2565      2250
 -1      1013    8    0    1
 -2       446       447       590      2216      2566      2567
 -1      1014    8    0    1
 -2       448       449       591      2149      2568      2569
 -1      1015    8    0    1
 -2       454       455       592      2220      2570      2571
 -1      1016    8    0    1
 -2       449       450       593      2212      2572      2573
 -1      1017    8    0    1
 -2       449       593       591      2573      2574      2568
 -1      1018    8    0    1
 -2       452       453       594      2158      2575      2576
 -1      1019    8    0    1
 -2       455       456       595      2207      2577      2578
 -1      1020    8    0    1
 -2       456       457       596      2206      2579      2580
 -1      1021    8    0    1
 -2       456       596       595      2580      2581      2577
 -1      1022    8    0    1
 -2       457       458       597      2205      2582      2583
 -1      1023    8    0    1
 -2       458       459       598      2204      2584      2585
 -1      1024    8    0    1
 -2       458       598       597      2585      2586      2582
 -1      1025    8    0    1
 -2       459       460       599      2203      2587      2588
 -1      1026    8    0    1
 -2       461       462       600      2199      2589      2590
 -1      1027    8    0    1
 -2       462       463       601      2198      2591      2592
 -1      1028    8    0    1
 -2       462       601       600      2592      2593      2589
 -1      1029    8    0    1
 -2       463       464       602      2197      2594      2595
 -1      1030    8    0    1
 -2       333       319       603      2189      2596      2597
 -1      1031    8    0    1
 -2       481       333       603      2248      2597      2598
 -1      1032    8    0    1
 -2       319       318       603      1764      2599      2596
 -1      1033    8    0    1
 -2       331       332       604      1804      2600      2601
 -1      1034    8    0    1
 -2       330       331       604      1799      2601      2602
 -1      1035    8    0    1
 -2       332       471       604      2222      2603      2600
 -1      1036    8    0    1
 -2       442       466       605      2186      2604      2605
 -1      1037    8    0    1
 -2       320       473       606      2226      2606      2607
 -1      1038    8    0    1
 -2       320       606       443      2607      2608      2136
 -1      1039    8    0    1
 -2       480       380       581      2245      2545      2609
 -1      1040    8    0    1
 -2       329       330       604      1796      2602      2610
 -1      1041    8    0    1
 -2       605       466       482      2604      2251      2611
 -1      1042    8    0    1
 -2       603       318       443      2599      2135      2612
 -1      1043    8    0    1
 -2       601       463       602      2591      2595      2613
 -1      1044    8    0    1
 -2       441       580       607      2543      2614      2615
 -1      1045    8    0    1
 -2       441       607       467      2615      2616      2191
 -1      1046    8    0    1
 -2       526       438       467      2381      2193      2617
 -1      1047    8    0    1
 -2       439       582       584      2548      2618      2551
 -1      1048    8    0    1
 -2       423       427       568      2508      2619      2505
 -1      1049    8    0    1
 -2       583       465       584      2549      2552      2620
 -1      1050    8    0    1
 -2       427       426       568      2091      2621      2619
 -1      1051    8    0    1
 -2       437       378       608      2541      2622      2623
 -1      1052    8    0    1
 -2       579       437       608      2538      2623      2624
 -1      1053    8    0    1
 -2       378       377       608      1943      2625      2622
 -1      1054    8    0    1
 -2       598       459       599      2584      2588      2626
 -1      1055    8    0    1
 -2       596       457       609      2579      2627      2628
 -1      1056    8    0    1
 -2       457       597       609      2583      2629      2627
 -1      1057    8    0    1
 -2       580       442       605      2542      2605      2630
 -1      1058    8    0    1
 -2       329       604       479      2610      2631      2242
 -1      1059    8    0    1
 -2       582       440       526      2547      2382      2632
 -1      1060    8    0    1
 -2       464       583       602      2550      2633      2594
 -1      1061    8    0    1
 -2       568       426       571      2621      2515      2634
 -1      1062    8    0    1
 -2       451       585       588      2554      2635      2561
 -1      1063    8    0    1
 -2       593       450       610      2572      2636      2637
 -1      1064    8    0    1
 -2       450       588       610      2562      2638      2636
 -1      1065    8    0    1
 -2       592       455       595      2570      2578      2639
 -1      1066    8    0    1
 -2       452       594       585      2576      2640      2553
 -1      1067    8    0    1
 -2       468       461       600      2202      2590      2641
 -1      1068    8    0    1
 -2       469       454       611      2210      2642      2643
 -1      1069    8    0    1
 -2       454       592       611      2571      2644      2642
 -1      1070    8    0    1
 -2       470       448       612      2215      2645      2646
 -1      1071    8    0    1
 -2       448       591       612      2569      2647      2645
 -1      1072    8    0    1
 -2       447       470       590      2214      2648      2566
 -1      1073    8    0    1
 -2       446       590       587      2567      2649      2559
 -1      1074    8    0    1
 -2       594       453       613      2575      2650      2651
 -1      1075    8    0    1
 -2       453       469       613      2209      2652      2650
 -1      1076    8    0    1
 -2       599       460       614      2587      2653      2654
 -1      1077    8    0    1
 -2       460       468       614      2201      2655      2653
 -1      1078    8    0    1
 -2       608       377       525      2625      2379      2656
 -1      1079    8    0    1
 -2       445       587       615      2560      2657      2658
 -1      1080    8    0    1
 -2       475       476       616      2235      2659      2660
 -1      1081    8    0    1
 -2       474       475       617      2232      2661      2662
 -1      1082    8    0    1
 -2       475       616       617      2660      2663      2661
 -1      1083    8    0    1
 -2       477       478       618      2241      2664      2665
 -1      1084    8    0    1
 -2       478       479       619      2244      2666      2667
 -1      1085    8    0    1
 -2       478       619       618      2667      2668      2664
 -1      1086    8    0    1
 -2       471       480       620      2247      2669      2670
 -1      1087    8    0    1
 -2       582       526       621      2632      2671      2672
 -1      1088    8    0    1
 -2       480       581       622      2609      2673      2674
 -1      1089    8    0    1
 -2       480       622       620      2674      2675      2669
 -1      1090    8    0    1
 -2       604       471       479      2603      2676      2631
 -1      1091    8    0    1
 -2       603       443       606      2612      2608      2677
 -1      1092    8    0    1
 -2       445       615       589      2658      2678      2563
 -1      1093    8    0    1
 -2       484       483       623      2257      2679      2680
 -1      1094    8    0    1
 -2       485       484       624      2260      2681      2682
 -1      1095    8    0    1
 -2       484       623       624      2680      2683      2681
 -1      1096    8    0    1
 -2       486       485       625      2263      2684      2685
 -1      1097    8    0    1
 -2       485       624       625      2682      2686      2684
 -1      1098    8    0    1
 -2       487       486       626      2266      2687      2688
 -1      1099    8    0    1
 -2       486       625       626      2685      2689      2687
 -1      1100    8    0    1
 -2       488       487       627      2269      2690      2691
 -1      1101    8    0    1
 -2       487       626       627      2688      2692      2690
 -1      1102    8    0    1
 -2       489       488       628      2272      2693      2694
 -1      1103    8    0    1
 -2       488       627       628      2691      2695      2693
 -1      1104    8    0    1
 -2       490       489       629      2275      2696      2697
 -1      1105    8    0    1
 -2       489       628       629      2694      2698      2696
 -1      1106    8    0    1
 -2       491       490       630      2278      2699      2700
 -1      1107    8    0    1
 -2       490       629       630      2697      2701      2699
 -1      1108    8    0    1
 -2       492       491       631      2281      2702      2703
 -1      1109    8    0    1
 -2       491       630       631      2700      2704      2702
 -1      1110    8    0    1
 -2       493       492       632      2284      2705      2706
 -1      1111    8    0    1
 -2       492       631       632      2703      2707      2705
 -1      1112    8    0    1
 -2       494       493       633      2287      2708      2709
 -1      1113    8    0    1
 -2       493       632       633      2706      2710      2708
 -1      1114    8    0    1
 -2       495       494       634      2290      2711      2712
 -1      1115    8    0    1
 -2       494       633       634      2709      2713      2711
 -1      1116    8    0    1
 -2       496       495       635      2293      2714      2715
 -1      1117    8    0    1
 -2       495       634       635      2712      2716      2714
 -1      1118    8    0    1
 -2       497       496       636      2296      2717      2718
 -1      1119    8    0    1
 -2       496       635       636      2715      2719      2717
 -1      1120    8    0    1
 -2       498       497       637      2299      2720      2721
 -1      1121    8    0    1
 -2       497       636       637      2718      2722      2720
 -1      1122    8    0    1
 -2       499       498       638      2302      2723      2724
 -1      1123    8    0    1
 -2       498       637       638      2721      2725      2723
 -1      1124    8    0    1
 -2       500       499       639      2305      2726      2727
 -1      1125    8    0    1
 -2       499       638       639      2724      2728      2726
 -1      1126    8    0    1
 -2       501       500       640      2308      2729      2730
 -1      1127    8    0    1
 -2       500       639       640      2727      2731      2729
 -1      1128    8    0    1
 -2       502       501       641      2311      2732      2733
 -1      1129    8    0    1
 -2       501       640       641      2730      2734      2732
 -1      1130    8    0    1
 -2       503       502       642      2314      2735      2736
 -1      1131    8    0    1
 -2       502       641       642      2733      2737      2735
 -1      1132    8    0    1
 -2       504       503       643      2317      2738      2739
 -1      1133    8    0    1
 -2       503       642       643      2736      2740      2738
 -1      1134    8    0    1
 -2       505       504       644      2320      2741      2742
 -1      1135    8    0    1
 -2       504       643       644      2739      2743      2741
 -1      1136    8    0    1
 -2       506       505       645      2323      2744      2745
 -1      1137    8    0    1
 -2       505       644       645      2742      2746      2744
 -1      1138    8    0    1
 -2       507       506       646      2326      2747      2748
 -1      1139    8    0    1
 -2       506       645       646      2745      2749      2747
 -1      1140    8    0    1
 -2       508       507       647      2329      2750      2751
 -1      1141    8    0    1
 -2       507       646       647      2748      2752      2750
 -1      1142    8    0    1
 -2       509       508       648      2332      2753      2754
 -1      1143    8    0    1
 -2       508       647       648      2751      2755      2753
 -1      1144    8    0    1
 -2       510       509       649      2335      2756      2757
 -1      1145    8    0    1
 -2       509       648       649      2754      2758      2756
 -1      1146    8    0    1
 -2       511       510       650      2338      2759      2760
 -1      1147    8    0    1
 -2       510       649       650      2757      2761      2759
 -1      1148    8    0    1
 -2       512       511       651      2341      2762      2763
 -1      1149    8    0    1
 -2       511       650       651      2760      2764      2762
 -1      1150    8    0    1
 -2       513       512       652      2344      2765      2766
 -1      1151    8    0    1
 -2       512       651       652      2763      2767      2765
 -1      1152    8    0    1
 -2       514       513       653      2347      2768      2769
 -1      1153    8    0    1
 -2       513       652       653      2766      2770      2768
 -1      1154    8    0    1
 -2       515       514       654      2350      2771      2772
 -1      1155    8    0    1
 -2       514       653       654      2769      2773      2771
 -1      1156    8    0    1
 -2       516       515       655      2353      2774      2775
 -1      1157    8    0    1
 -2       515       654       655      2772      2776      2774
 -1      1158    8    0    1
 -2       517       516       656      2356      2777      2778
 -1      1159    8    0    1
 -2       516       655       656      2775      2779      2777
 -1      1160    8    0    1
 -2       518       517       657      2359      2780      2781
 -1      1161    8    0    1
 -2       517       656       657      2778      2782      2780
 -1      1162    8    0    1
 -2       519       518       658      2362      2783      2784
 -1      1163    8    0    1
 -2       518       657       658      2781      2785      2783
 -1      1164    8    0    1
 -2       520       519       659      2365      2786      2787
 -1      1165    8    0    1
 -2       519       658       659      2784      2788      2786
 -1      1166    8    0    1
 -2       521       520       660      2368      2789      2790
 -1      1167    8    0    1
 -2       520       659       660      2787      2791      2789
 -1      1168    8    0    1
 -2       522       521       661      2371      2792      2793
 -1      1169    8    0    1
 -2       521       660       661      2790      2794      2792
 -1      1170    8    0    1
 -2       523       522       662      2374      2795      2796
 -1      1171    8    0    1
 -2       522       661       662      2793      2797      2795
 -1      1172    8    0    1
 -2       524       523       663      2377      2798      2799
 -1      1173    8    0    1
 -2       523       662       663      2796      2800      2798
 -1      1174    8    0    1
 -2       525       524       664      2380      2801      2802
 -1      1175    8    0    1
 -2       524       663       664      2799      2803      2801
 -1      1176    8    0    1
 -2       598       599       665      2626      2804      2805
 -1      1177    8    0    1
 -2       527       528       666      2387      2806      2807
 -1      1178    8    0    1
 -2       530       531       667      2396      2808      2809
 -1      1179    8    0    1
 -2       531       532       668      2399      2810      2811
 -1      1180    8    0    1
 -2       531       668       667      2811      2812      2808
 -1      1181    8    0    1
 -2       532       533       669      2402      2813      2814
 -1      1182    8    0    1
 -2       532       669       668      2814      2815      2810
 -1      1183    8    0    1
 -2       533       534       670      2405      2816      2817
 -1      1184    8    0    1
 -2       533       670       669      2817      2818      2813
 -1      1185    8    0    1
 -2       534       535       671      2408      2819      2820
 -1      1186    8    0    1
 -2       534       671       670      2820      2821      2816
 -1      1187    8    0    1
 -2       535       536       672      2411      2822      2823
 -1      1188    8    0    1
 -2       535       672       671      2823      2824      2819
 -1      1189    8    0    1
 -2       536       537       673      2414      2825      2826
 -1      1190    8    0    1
 -2       536       673       672      2826      2827      2822
 -1      1191    8    0    1
 -2       537       538       674      2417      2828      2829
 -1      1192    8    0    1
 -2       537       674       673      2829      2830      2825
 -1      1193    8    0    1
 -2       538       539       675      2420      2831      2832
 -1      1194    8    0    1
 -2       538       675       674      2832      2833      2828
 -1      1195    8    0    1
 -2       539       540       676      2423      2834      2835
 -1      1196    8    0    1
 -2       539       676       675      2835      2836      2831
 -1      1197    8    0    1
 -2       540       541       677      2426      2837      2838
 -1      1198    8    0    1
 -2       540       677       676      2838      2839      2834
 -1      1199    8    0    1
 -2       541       542       678      2429      2840      2841
 -1      1200    8    0    1
 -2       541       678       677      2841      2842      2837
 -1      1201    8    0    1
 -2       542       543       679      2432      2843      2844
 -1      1202    8    0    1
 -2       542       679       678      2844      2845      2840
 -1      1203    8    0    1
 -2       543       544       680      2435      2846      2847
 -1      1204    8    0    1
 -2       543       680       679      2847      2848      2843
 -1      1205    8    0    1
 -2       544       545       681      2438      2849      2850
 -1      1206    8    0    1
 -2       544       681       680      2850      2851      2846
 -1      1207    8    0    1
 -2       545       546       682      2441      2852      2853
 -1      1208    8    0    1
 -2       545       682       681      2853      2854      2849
 -1      1209    8    0    1
 -2       547       548       615      2447      2855      2856
 -1      1210    8    0    1
 -2       548       549       615      2450      2857      2855
 -1      1211    8    0    1
 -2       549       550       683      2453      2858      2859
 -1      1212    8    0    1
 -2       550       551       684      2456      2860      2861
 -1      1213    8    0    1
 -2       550       684       683      2861      2862      2858
 -1      1214    8    0    1
 -2       551       552       685      2459      2863      2864
 -1      1215    8    0    1
 -2       551       685       684      2864      2865      2860
 -1      1216    8    0    1
 -2       552       553       686      2462      2866      2867
 -1      1217    8    0    1
 -2       552       686       685      2867      2868      2863
 -1      1218    8    0    1
 -2       553       554       687      2465      2869      2870
 -1      1219    8    0    1
 -2       553       687       686      2870      2871      2866
 -1      1220    8    0    1
 -2       554       555       688      2468      2872      2873
 -1      1221    8    0    1
 -2       554       688       687      2873      2874      2869
 -1      1222    8    0    1
 -2       555       556       689      2471      2875      2876
 -1      1223    8    0    1
 -2       555       689       688      2876      2877      2872
 -1      1224    8    0    1
 -2       556       557       690      2474      2878      2879
 -1      1225    8    0    1
 -2       556       690       689      2879      2880      2875
 -1      1226    8    0    1
 -2       557       558       691      2477      2881      2882
 -1      1227    8    0    1
 -2       557       691       690      2882      2883      2878
 -1      1228    8    0    1
 -2       558       559       692      2480      2884      2885
 -1      1229    8    0    1
 -2       558       692       691      2885      2886      2881
 -1      1230    8    0    1
 -2       559       560       693      2483      2887      2888
 -1      1231    8    0    1
 -2       559       693       692      2888      2889      2884
 -1      1232    8    0    1
 -2       560       561       694      2486      2890      2891
 -1      1233    8    0    1
 -2       560       694       693      2891      2892      2887
 -1      1234    8    0    1
 -2       561       562       695      2489      2893      2894
 -1      1235    8    0    1
 -2       561       695       694      2894      2895      2890
 -1      1236    8    0    1
 -2       562       563       696      2492      2896      2897
 -1      1237    8    0    1
 -2       562       696       695      2897      2898      2893
 -1      1238    8    0    1
 -2       563       564       697      2495      2899      2900
 -1      1239    8    0    1
 -2       563       697       696      2900      2901      2896
 -1      1240    8    0    1
 -2       564       565       698      2498      2902      2903
 -1      1241    8    0    1
 -2       564       698       697      2903      2904      2899
 -1      1242    8    0    1
 -2       565       566       699      2501      2905      2906
 -1      1243    8    0    1
 -2       565       699       698      2906      2907      2902
 -1      1244    8    0    1
 -2       566       567       700      2504      2908      2909
 -1      1245    8    0    1
 -2       566       700       699      2909      2910      2905
 -1      1246    8    0    1
 -2       567       568       701      2507      2911      2912
 -1      1247    8    0    1
 -2       700       567       701      2908      2912      2913
 -1      1248    8    0    1
 -2       568       571       701      2634      2914      2911
 -1      1249    8    0    1
 -2       583       584       702      2620      2915      2916
 -1      1250    8    0    1
 -2       573       574       703      2525      2917      2918
 -1      1251    8    0    1
 -2       588       585       704      2635      2919      2920
 -1      1252    8    0    1
 -2       569       570       705      2513      2921      2922
 -1      1253    8    0    1
 -2       574       575       706      2528      2923      2924
 -1      1254    8    0    1
 -2       574       706       703      2924      2925      2917
 -1      1255    8    0    1
 -2       570       573       707      2522      2926      2927
 -1      1256    8    0    1
 -2       705       570       707      2921      2927      2928
 -1      1257    8    0    1
 -2       573       703       707      2918      2929      2926
 -1      1258    8    0    1
 -2       526       467       708      2617      2930      2931
 -1      1259    8    0    1
 -2       575       576       709      2531      2932      2933
 -1      1260    8    0    1
 -2       575       709       706      2933      2934      2923
 -1      1261    8    0    1
 -2       576       577       710      2534      2935      2936
 -1      1262    8    0    1
 -2       576       710       709      2936      2937      2932
 -1      1263    8    0    1
 -2       577       578       711      2537      2938      2939
 -1      1264    8    0    1
 -2       577       711       710      2939      2940      2935
 -1      1265    8    0    1
 -2       581       527       712      2546      2941      2942
 -1      1266    8    0    1
 -2       622       581       712      2673      2942      2943
 -1      1267    8    0    1
 -2       527       666       712      2807      2944      2941
 -1      1268    8    0    1
 -2       584       582       713      2618      2945      2946
 -1      1269    8    0    1
 -2       580       605       714      2630      2947      2948
 -1      1270    8    0    1
 -2       468       600       715      2641      2949      2950
 -1      1271    8    0    1
 -2       579       608       716      2624      2951      2952
 -1      1272    8    0    1
 -2       608       525       716      2656      2953      2951
 -1      1273    8    0    1
 -2       529       530       717      2393      2954      2955
 -1      1274    8    0    1
 -2       530       667       717      2809      2956      2954
 -1      1275    8    0    1
 -2       528       529       718      2390      2957      2958
 -1      1276    8    0    1
 -2       529       717       718      2955      2959      2957
 -1      1277    8    0    1
 -2       483       481       719      2254      2960      2961
 -1      1278    8    0    1
 -2       483       719       623      2961      2962      2679
 -1      1279    8    0    1
 -2       601       602       720      2613      2963      2964
 -1      1280    8    0    1
 -2       476       477       721      2238      2965      2966
 -1      1281    8    0    1
 -2       616       476       721      2659      2966      2967
 -1      1282    8    0    1
 -2       477       618       721      2665      2968      2965
 -1      1283    8    0    1
 -2       473       472       722      2227      2969      2970
 -1      1284    8    0    1
 -2       592       595       723      2639      2971      2972
 -1      1285    8    0    1
 -2       482       589       724      2565      2973      2974
 -1      1286    8    0    1
 -2       587       590       725      2649      2975      2976
 -1      1287    8    0    1
 -2       590       470       726      2648      2977      2978
 -1      1288    8    0    1
 -2       591       593       727      2574      2979      2980
 -1      1289    8    0    1
 -2       585       594       728      2640      2981      2982
 -1      1290    8    0    1
 -2       602       583       729      2633      2983      2984
 -1      1291    8    0    1
 -2       595       596       730      2581      2985      2986
 -1      1292    8    0    1
 -2       597       598       731      2586      2987      2988
 -1      1293    8    0    1
 -2       600       601       732      2593      2989      2990
 -1      1294    8    0    1
 -2       473       722       733      2970      2991      2992
 -1      1295    8    0    1
 -2       473       733       606      2992      2993      2606
 -1      1296    8    0    1
 -2       474       617       734      2662      2994      2995
 -1      1297    8    0    1
 -2       474       734       586      2995      2996      2558
 -1      1298    8    0    1
 -2       479       471       620      2676      2670      2997
 -1      1299    8    0    1
 -2       582       621       713      2672      2998      2945
 -1      1300    8    0    1
 -2       732       601       720      2989      2964      2999
 -1      1301    8    0    1
 -2       731       598       665      2987      2805      3000
 -1      1302    8    0    1
 -2       730       596       735      2985      3001      3002
 -1      1303    8    0    1
 -2       596       609       735      2628      3003      3001
 -1      1304    8    0    1
 -2       666       528       718      2806      2958      3004
 -1      1305    8    0    1
 -2       607       580       736      2614      3005      3006
 -1      1306    8    0    1
 -2       580       714       736      2948      3007      3005
 -1      1307    8    0    1
 -2       467       607       708      2616      3008      2930
 -1      1308    8    0    1
 -2       729       583       702      2983      2916      3009
 -1      1309    8    0    1
 -2       525       664       716      2802      3010      2953
 -1      1310    8    0    1
 -2       665       599       737      2804      3011      3012
 -1      1311    8    0    1
 -2       599       614       737      2654      3013      3011
 -1      1312    8    0    1
 -2       728       594       738      2981      3014      3015
 -1      1313    8    0    1
 -2       594       613       738      2651      3016      3014
 -1      1314    8    0    1
 -2       584       713       739      2946      3017      3018
 -1      1315    8    0    1
 -2       584       739       702      3018      3019      2915
 -1      1316    8    0    1
 -2       727       593       740      2979      3020      3021
 -1      1317    8    0    1
 -2       593       610       740      2637      3022      3020
 -1      1318    8    0    1
 -2       546       547       725      2444      3023      3024
 -1      1319    8    0    1
 -2       701       571       741      2914      3025      3026
 -1      1320    8    0    1
 -2       571       572       741      2518      3027      3025
 -1      1321    8    0    1
 -2       726       470       612      2977      2646      3028
 -1      1322    8    0    1
 -2       526       708       621      2931      3029      2671
 -1      1323    8    0    1
 -2       588       704       742      2920      3030      3031
 -1      1324    8    0    1
 -2       588       742       610      3031      3032      2638
 -1      1325    8    0    1
 -2       725       590       726      2975      2978      3033
 -1      1326    8    0    1
 -2       578       579       716      2540      2952      3034
 -1      1327    8    0    1
 -2       609       597       743      2629      3035      3036
 -1      1328    8    0    1
 -2       597       731       743      2988      3037      3035
 -1      1329    8    0    1
 -2       715       600       732      2949      2990      3038
 -1      1330    8    0    1
 -2       704       585       728      2919      2982      3039
 -1      1331    8    0    1
 -2       468       715       614      2950      3040      2655
 -1      1332    8    0    1
 -2       611       592       744      2644      3041      3042
 -1      1333    8    0    1
 -2       592       723       744      2972      3043      3041
 -1      1334    8    0    1
 -2       479       620       619      2997      3044      2666
 -1      1335    8    0    1
 -2       572       569       745      2519      3045      3046
 -1      1336    8    0    1
 -2       741       572       745      3027      3046      3047
 -1      1337    8    0    1
 -2       569       705       745      2922      3048      3045
 -1      1338    8    0    1
 -2       612       591       746      2647      3049      3050
 -1      1339    8    0    1
 -2       591       727       746      2980      3051      3049
 -1      1340    8    0    1
 -2       472       586       747      2557      3052      3053
 -1      1341    8    0    1
 -2       722       472       747      2969      3053      3054
 -1      1342    8    0    1
 -2       586       734       747      2996      3055      3052
 -1      1343    8    0    1
 -2       720       602       729      2963      2984      3056
 -1      1344    8    0    1
 -2       613       469       748      2652      3057      3058
 -1      1345    8    0    1
 -2       469       611       748      2643      3059      3057
 -1      1346    8    0    1
 -2       605       482       749      2611      3060      3061
 -1      1347    8    0    1
 -2       723       595       730      2971      2986      3062
 -1      1348    8    0    1
 -2       578       716       750      3034      3063      3064
 -1      1349    8    0    1
 -2       711       578       750      2938      3064      3065
 -1      1350    8    0    1
 -2       716       664       750      3010      3066      3063
 -1      1351    8    0    1
 -2       603       606       751      2677      3067      3068
 -1      1352    8    0    1
 -2       481       603       751      2598      3068      3069
 -1      1353    8    0    1
 -2       606       733       751      2993      3070      3067
 -1      1354    8    0    1
 -2       605       749       714      3061      3071      2947
 -1      1355    8    0    1
 -2       481       751       719      3069      3072      2960
 -1      1356    8    0    1
 -2       713       621       752      2998      3073      3074
 -1      1357    8    0    1
 -2       618       619       753      2668      3075      3076
 -1      1358    8    0    1
 -2       668       669       754      2815      3077      3078
 -1      1359    8    0    1
 -2       624       623       755      2683      3079      3080
 -1      1360    8    0    1
 -2       731       665       756      3000      3081      3082
 -1      1361    8    0    1
 -2       625       624       757      2686      3083      3084
 -1      1362    8    0    1
 -2       624       755       757      3080      3085      3083
 -1      1363    8    0    1
 -2       626       625       758      2689      3086      3087
 -1      1364    8    0    1
 -2       625       757       758      3084      3088      3086
 -1      1365    8    0    1
 -2       627       626       759      2692      3089      3090
 -1      1366    8    0    1
 -2       626       758       759      3087      3091      3089
 -1      1367    8    0    1
 -2       628       627       760      2695      3092      3093
 -1      1368    8    0    1
 -2       627       759       760      3090      3094      3092
 -1      1369    8    0    1
 -2       629       628       761      2698      3095      3096
 -1      1370    8    0    1
 -2       628       760       761      3093      3097      3095
 -1      1371    8    0    1
 -2       630       629       762      2701      3098      3099
 -1      1372    8    0    1
 -2       629       761       762      3096      3100      3098
 -1      1373    8    0    1
 -2       631       630       763      2704      3101      3102
 -1      1374    8    0    1
 -2       630       762       763      3099      3103      3101
 -1      1375    8    0    1
 -2       632       631       764      2707      3104      3105
 -1      1376    8    0    1
 -2       631       763       764      3102      3106      3104
 -1      1377    8    0    1
 -2       633       632       765      2710      3107      3108
 -1      1378    8    0    1
 -2       632       764       765      3105      3109      3107
 -1      1379    8    0    1
 -2       634       633       766      2713      3110      3111
 -1      1380    8    0    1
 -2       633       765       766      3108      3112      3110
 -1      1381    8    0    1
 -2       635       634       767      2716      3113      3114
 -1      1382    8    0    1
 -2       634       766       767      3111      3115      3113
 -1      1383    8    0    1
 -2       636       635       768      2719      3116      3117
 -1      1384    8    0    1
 -2       635       767       768      3114      3118      3116
 -1      1385    8    0    1
 -2       637       636       769      2722      3119      3120
 -1      1386    8    0    1
 -2       636       768       769      3117      3121      3119
 -1      1387    8    0    1
 -2       638       637       770      2725      3122      3123
 -1      1388    8    0    1
 -2       637       769       770      3120      3124      3122
 -1      1389    8    0    1
 -2       639       638       771      2728      3125      3126
 -1      1390    8    0    1
 -2       638       770       771      3123      3127      3125
 -1      1391    8    0    1
 -2       640       639       772      2731      3128      3129
 -1      1392    8    0    1
 -2       639       771       772      3126      3130      3128
 -1      1393    8    0    1
 -2       641       640       773      2734      3131      3132
 -1      1394    8    0    1
 -2       640       772       773      3129      3133      3131
 -1      1395    8    0    1
 -2       642       641       774      2737      3134      3135
 -1      1396    8    0    1
 -2       641       773       774      3132      3136      3134
 -1      1397    8    0    1
 -2       643       642       775      2740      3137      3138
 -1      1398    8    0    1
 -2       642       774       775      3135      3139      3137
 -1      1399    8    0    1
 -2       644       643       743      2743      3140      3141
 -1      1400    8    0    1
 -2       646       645       737      2749      3142      3143
 -1      1401    8    0    1
 -2       648       647       776      2755      3144      3145
 -1      1402    8    0    1
 -2       649       648       777      2758      3146      3147
 -1      1403    8    0    1
 -2       648       776       777      3145      3148      3146
 -1      1404    8    0    1
 -2       650       649       778      2761      3149      3150
 -1      1405    8    0    1
 -2       649       777       778      3147      3151      3149
 -1      1406    8    0    1
 -2       651       650       779      2764      3152      3153
 -1      1407    8    0    1
 -2       650       778       779      3150      3154      3152
 -1      1408    8    0    1
 -2       652       651       780      2767      3155      3156
 -1      1409    8    0    1
 -2       651       779       780      3153      3157      3155
 -1      1410    8    0    1
 -2       653       652       781      2770      3158      3159
 -1      1411    8    0    1
 -2       652       780       781      3156      3160      3158
 -1      1412    8    0    1
 -2       654       653       782      2773      3161      3162
 -1      1413    8    0    1
 -2       653       781       782      3159      3163      3161
 -1      1414    8    0    1
 -2       655       654       783      2776      3164      3165
 -1      1415    8    0    1
 -2       654       782       783      3162      3166      3164
 -1      1416    8    0    1
 -2       656       655       784      2779      3167      3168
 -1      1417    8    0    1
 -2       655       783       784      3165      3169      3167
 -1      1418    8    0    1
 -2       657       656       785      2782      3170      3171
 -1      1419    8    0    1
 -2       656       784       785      3168      3172      3170
 -1      1420    8    0    1
 -2       658       657       786      2785      3173      3174
 -1      1421    8    0    1
 -2       657       785       786      3171      3175      3173
 -1      1422    8    0    1
 -2       659       658       787      2788      3176      3177
 -1      1423    8    0    1
 -2       658       786       787      3174      3178      3176
 -1      1424    8    0    1
 -2       660       659       788      2791      3179      3180
 -1      1425    8    0    1
 -2       659       787       788      3177      3181      3179
 -1      1426    8    0    1
 -2       661       660       789      2794      3182      3183
 -1      1427    8    0    1
 -2       660       788       789      3180      3184      3182
 -1      1428    8    0    1
 -2       662       661       790      2797      3185      3186
 -1      1429    8    0    1
 -2       661       789       790      3183      3187      3185
 -1      1430    8    0    1
 -2       663       662       791      2800      3188      3189
 -1      1431    8    0    1
 -2       662       790       791      3186      3190      3188
 -1      1432    8    0    1
 -2       664       663       792      2803      3191      3192
 -1      1433    8    0    1
 -2       750       664       792      3066      3192      3193
 -1      1434    8    0    1
 -2       663       791       792      3189      3194      3191
 -1      1435    8    0    1
 -2       725       547       615      3023      2856      3195
 -1      1436    8    0    1
 -2       667       668       793      2812      3196      3197
 -1      1437    8    0    1
 -2       668       754       793      3078      3198      3196
 -1      1438    8    0    1
 -2       670       671       794      2821      3199      3200
 -1      1439    8    0    1
 -2       671       672       795      2824      3201      3202
 -1      1440    8    0    1
 -2       671       795       794      3202      3203      3199
 -1      1441    8    0    1
 -2       672       673       796      2827      3204      3205
 -1      1442    8    0    1
 -2       672       796       795      3205      3206      3201
 -1      1443    8    0    1
 -2       673       674       797      2830      3207      3208
 -1      1444    8    0    1
 -2       673       797       796      3208      3209      3204
 -1      1445    8    0    1
 -2       674       675       798      2833      3210      3211
 -1      1446    8    0    1
 -2       674       798       797      3211      3212      3207
 -1      1447    8    0    1
 -2       675       676       799      2836      3213      3214
 -1      1448    8    0    1
 -2       675       799       798      3214      3215      3210
 -1      1449    8    0    1
 -2       676       677       800      2839      3216      3217
 -1      1450    8    0    1
 -2       676       800       799      3217      3218      3213
 -1      1451    8    0    1
 -2       677       678       801      2842      3219      3220
 -1      1452    8    0    1
 -2       677       801       800      3220      3221      3216
 -1      1453    8    0    1
 -2       678       679       802      2845      3222      3223
 -1      1454    8    0    1
 -2       678       802       801      3223      3224      3219
 -1      1455    8    0    1
 -2       679       680       803      2848      3225      3226
 -1      1456    8    0    1
 -2       679       803       802      3226      3227      3222
 -1      1457    8    0    1
 -2       680       681       746      2851      3228      3229
 -1      1458    8    0    1
 -2       681       682       746      2854      3230      3228
 -1      1459    8    0    1
 -2       682       546       725      2852      3024      3231
 -1      1460    8    0    1
 -2       549       683       724      2859      3232      3233
 -1      1461    8    0    1
 -2       615       549       724      2857      3233      3234
 -1      1462    8    0    1
 -2       686       687       804      2871      3235      3236
 -1      1463    8    0    1
 -2       687       688       805      2874      3237      3238
 -1      1464    8    0    1
 -2       687       805       804      3238      3239      3235
 -1      1465    8    0    1
 -2       688       689       806      2877      3240      3241
 -1      1466    8    0    1
 -2       688       806       805      3241      3242      3237
 -1      1467    8    0    1
 -2       689       690       807      2880      3243      3244
 -1      1468    8    0    1
 -2       689       807       806      3244      3245      3240
 -1      1469    8    0    1
 -2       690       691       808      2883      3246      3247
 -1      1470    8    0    1
 -2       690       808       807      3247      3248      3243
 -1      1471    8    0    1
 -2       691       692       809      2886      3249      3250
 -1      1472    8    0    1
 -2       691       809       808      3250      3251      3246
 -1      1473    8    0    1
 -2       692       693       810      2889      3252      3253
 -1      1474    8    0    1
 -2       692       810       809      3253      3254      3249
 -1      1475    8    0    1
 -2       693       694       811      2892      3255      3256
 -1      1476    8    0    1
 -2       693       811       810      3256      3257      3252
 -1      1477    8    0    1
 -2       694       695       812      2895      3258      3259
 -1      1478    8    0    1
 -2       694       812       811      3259      3260      3255
 -1      1479    8    0    1
 -2       695       696       813      2898      3261      3262
 -1      1480    8    0    1
 -2       695       813       812      3262      3263      3258
 -1      1481    8    0    1
 -2       696       697       814      2901      3264      3265
 -1      1482    8    0    1
 -2       696       814       813      3265      3266      3261
 -1      1483    8    0    1
 -2       697       698       815      2904      3267      3268
 -1      1484    8    0    1
 -2       697       815       814      3268      3269      3264
 -1      1485    8    0    1
 -2       698       699       816      2907      3270      3271
 -1      1486    8    0    1
 -2       698       816       815      3271      3272      3267
 -1      1487    8    0    1
 -2       699       700       817      2910      3273      3274
 -1      1488    8    0    1
 -2       699       817       816      3274      3275      3270
 -1      1489    8    0    1
 -2       700       701       818      2913      3276      3277
 -1      1490    8    0    1
 -2       817       700       818      3273      3277      3278
 -1      1491    8    0    1
 -2       701       741       818      3026      3279      3276
 -1      1492    8    0    1
 -2       703       706       819      2925      3280      3281
 -1      1493    8    0    1
 -2       710       711       820      2940      3282      3283
 -1      1494    8    0    1
 -2       615       587       725      2657      2976      3195
 -1      1495    8    0    1
 -2       706       709       821      2934      3284      3285
 -1      1496    8    0    1
 -2       706       821       819      3285      3286      3280
 -1      1497    8    0    1
 -2       719       751       822      3072      3287      3288
 -1      1498    8    0    1
 -2       623       719       822      2962      3288      3289
 -1      1499    8    0    1
 -2       751       733       822      3070      3290      3287
 -1      1500    8    0    1
 -2       709       710       823      2937      3291      3292
 -1      1501    8    0    1
 -2       821       709       823      3284      3292      3293
 -1      1502    8    0    1
 -2       710       820       823      3283      3294      3291
 -1      1503    8    0    1
 -2       729       702       824      3009      3295      3296
 -1      1504    8    0    1
 -2       708       607       825      3008      3297      3298
 -1      1505    8    0    1
 -2       685       686       825      2868      3299      3300
 -1      1506    8    0    1
 -2       669       670       826      2818      3301      3302
 -1      1507    8    0    1
 -2       754       669       826      3077      3302      3303
 -1      1508    8    0    1
 -2       670       794       826      3200      3304      3301
 -1      1509    8    0    1
 -2       732       720       827      2999      3305      3306
 -1      1510    8    0    1
 -2       717       667       828      2956      3307      3308
 -1      1511    8    0    1
 -2       667       793       828      3197      3309      3307
 -1      1512    8    0    1
 -2       718       717       829      2959      3310      3311
 -1      1513    8    0    1
 -2       717       828       829      3308      3312      3310
 -1      1514    8    0    1
 -2       617       616       830      2663      3313      3314
 -1      1515    8    0    1
 -2       749       482       724      3060      2974      3315
 -1      1516    8    0    1
 -2       723       730       831      3062      3316      3317
 -1      1517    8    0    1
 -2       619       620       832      3044      3318      3319
 -1      1518    8    0    1
 -2       753       619       832      3075      3319      3320
 -1      1519    8    0    1
 -2       620       622       832      2675      3321      3318
 -1      1520    8    0    1
 -2       621       708       833      3029      3322      3323
 -1      1521    8    0    1
 -2       614       715       834      3040      3324      3325
 -1      1522    8    0    1
 -2       715       732       835      3038      3326      3327
 -1      1523    8    0    1
 -2       666       718       836      3004      3328      3329
 -1      1524    8    0    1
 -2       718       829       836      3311      3330      3328
 -1      1525    8    0    1
 -2       704       728       837      3039      3331      3332
 -1      1526    8    0    1
 -2       720       729       838      3056      3333      3334
 -1      1527    8    0    1
 -2       734       617       839      2994      3335      3336
 -1      1528    8    0    1
 -2       617       830       839      3314      3337      3335
 -1      1529    8    0    1
 -2       618       753       840      3076      3338      3339
 -1      1530    8    0    1
 -2       618       840       721      3339      3340      2968
 -1      1531    8    0    1
 -2       732       827       777      3306      3341      3342
 -1      1532    8    0    1
 -2       621       833       841      3323      3343      3344
 -1      1533    8    0    1
 -2       621       841       752      3344      3345      3073
 -1      1534    8    0    1
 -2       733       722       842      2991      3346      3347
 -1      1535    8    0    1
 -2       735       609       743      3003      3036      3348
 -1      1536    8    0    1
 -2       643       775       743      3138      3349      3140
 -1      1537    8    0    1
 -2       746       727       843      3051      3350      3351
 -1      1538    8    0    1
 -2       727       740       843      3021      3352      3350
 -1      1539    8    0    1
 -2       737       614       834      3013      3325      3353
 -1      1540    8    0    1
 -2       646       737       834      3143      3353      3354
 -1      1541    8    0    1
 -2       645       644       756      2746      3355      3356
 -1      1542    8    0    1
 -2       647       646       834      2752      3354      3357
 -1      1543    8    0    1
 -2       738       613       844      3016      3358      3359
 -1      1544    8    0    1
 -2       613       748       844      3058      3360      3358
 -1      1545    8    0    1
 -2       739       713       845      3017      3361      3362
 -1      1546    8    0    1
 -2       713       752       845      3074      3363      3361
 -1      1547    8    0    1
 -2       740       610       846      3022      3364      3365
 -1      1548    8    0    1
 -2       610       742       846      3032      3366      3364
 -1      1549    8    0    1
 -2       607       736       825      3006      3367      3297
 -1      1550    8    0    1
 -2       704       837       847      3332      3368      3369
 -1      1551    8    0    1
 -2       704       847       742      3369      3370      3030
 -1      1552    8    0    1
 -2       703       819       848      3281      3371      3372
 -1      1553    8    0    1
 -2       703       848       707      3372      3373      2929
 -1      1554    8    0    1
 -2       684       685       736      2865      3374      3375
 -1      1555    8    0    1
 -2       623       822       755      3289      3376      3079
 -1      1556    8    0    1
 -2       705       707       849      2928      3377      3378
 -1      1557    8    0    1
 -2       707       848       849      3373      3379      3377
 -1      1558    8    0    1
 -2       729       824       838      3296      3380      3333
 -1      1559    8    0    1
 -2       832       622       850      3321      3381      3382
 -1      1560    8    0    1
 -2       622       712       850      2943      3383      3381
 -1      1561    8    0    1
 -2       712       666       851      2944      3384      3385
 -1      1562    8    0    1
 -2       850       712       851      3383      3385      3386
 -1      1563    8    0    1
 -2       666       836       851      3329      3387      3384
 -1      1564    8    0    1
 -2       825       686       804      3299      3236      3388
 -1      1565    8    0    1
 -2       708       825       833      3298      3389      3322
 -1      1566    8    0    1
 -2       744       723       852      3043      3390      3391
 -1      1567    8    0    1
 -2       723       831       852      3317      3392      3390
 -1      1568    8    0    1
 -2       730       735       853      3002      3393      3394
 -1      1569    8    0    1
 -2       730       853       831      3394      3395      3316
 -1      1570    8    0    1
 -2       745       705       854      3048      3396      3397
 -1      1571    8    0    1
 -2       705       849       854      3378      3398      3396
 -1      1572    8    0    1
 -2       776       647       834      3144      3357      3399
 -1      1573    8    0    1
 -2       830       616       855      3313      3400      3401
 -1      1574    8    0    1
 -2       616       721       855      2967      3402      3400
 -1      1575    8    0    1
 -2       748       611       856      3059      3403      3404
 -1      1576    8    0    1
 -2       611       744       856      3042      3405      3403
 -1      1577    8    0    1
 -2       834       715       835      3324      3327      3406
 -1      1578    8    0    1
 -2       824       702       857      3295      3407      3408
 -1      1579    8    0    1
 -2       702       739       857      3019      3409      3407
 -1      1580    8    0    1
 -2       722       747       858      3054      3410      3411
 -1      1581    8    0    1
 -2       722       858       842      3411      3412      3346
 -1      1582    8    0    1
 -2       711       750       859      3065      3413      3414
 -1      1583    8    0    1
 -2       820       711       859      3282      3414      3415
 -1      1584    8    0    1
 -2       750       792       859      3193      3416      3413
 -1      1585    8    0    1
 -2       728       738       860      3015      3417      3418
 -1      1586    8    0    1
 -2       728       860       837      3418      3419      3331
 -1      1587    8    0    1
 -2       720       838       827      3334      3420      3305
 -1      1588    8    0    1
 -2       777       827       778      3341      3421      3151
 -1      1589    8    0    1
 -2       735       743       775      3348      3349      3422
 -1      1590    8    0    1
 -2       644       743       756      3141      3423      3355
 -1      1591    8    0    1
 -2       736       714       684      3007      3424      3375
 -1      1592    8    0    1
 -2       731       756       743      3082      3423      3037
 -1      1593    8    0    1
 -2       758       757       861      3088      3425      3426
 -1      1594    8    0    1
 -2       759       758       862      3091      3427      3428
 -1      1595    8    0    1
 -2       758       861       862      3426      3429      3427
 -1      1596    8    0    1
 -2       760       759       863      3094      3430      3431
 -1      1597    8    0    1
 -2       759       862       863      3428      3432      3430
 -1      1598    8    0    1
 -2       761       760       864      3097      3433      3434
 -1      1599    8    0    1
 -2       760       863       864      3431      3435      3433
 -1      1600    8    0    1
 -2       762       761       865      3100      3436      3437
 -1      1601    8    0    1
 -2       761       864       865      3434      3438      3436
 -1      1602    8    0    1
 -2       763       762       866      3103      3439      3440
 -1      1603    8    0    1
 -2       762       865       866      3437      3441      3439
 -1      1604    8    0    1
 -2       764       763       867      3106      3442      3443
 -1      1605    8    0    1
 -2       763       866       867      3440      3444      3442
 -1      1606    8    0    1
 -2       765       764       868      3109      3445      3446
 -1      1607    8    0    1
 -2       764       867       868      3443      3447      3445
 -1      1608    8    0    1
 -2       766       765       869      3112      3448      3449
 -1      1609    8    0    1
 -2       765       868       869      3446      3450      3448
 -1      1610    8    0    1
 -2       767       766       870      3115      3451      3452
 -1      1611    8    0    1
 -2       766       869       870      3449      3453      3451
 -1      1612    8    0    1
 -2       768       767       871      3118      3454      3455
 -1      1613    8    0    1
 -2       767       870       871      3452      3456      3454
 -1      1614    8    0    1
 -2       769       768       872      3121      3457      3458
 -1      1615    8    0    1
 -2       768       871       872      3455      3459      3457
 -1      1616    8    0    1
 -2       770       769       873      3124      3460      3461
 -1      1617    8    0    1
 -2       769       872       873      3458      3462      3460
 -1      1618    8    0    1
 -2       771       770       874      3127      3463      3464
 -1      1619    8    0    1
 -2       770       873       874      3461      3465      3463
 -1      1620    8    0    1
 -2       772       771       875      3130      3466      3467
 -1      1621    8    0    1
 -2       771       874       875      3464      3468      3466
 -1      1622    8    0    1
 -2       773       772       876      3133      3469      3470
 -1      1623    8    0    1
 -2       772       875       876      3467      3471      3469
 -1      1624    8    0    1
 -2       774       773       853      3136      3472      3473
 -1      1625    8    0    1
 -2       775       774       853      3139      3473      3474
 -1      1626    8    0    1
 -2       684       714       749      3424      3071      3475
 -1      1627    8    0    1
 -2       819       821       877      3286      3476      3477
 -1      1628    8    0    1
 -2       735       775       853      3422      3474      3393
 -1      1629    8    0    1
 -2       780       779       878      3157      3478      3479
 -1      1630    8    0    1
 -2       781       780       879      3160      3480      3481
 -1      1631    8    0    1
 -2       780       878       879      3479      3482      3480
 -1      1632    8    0    1
 -2       782       781       880      3163      3483      3484
 -1      1633    8    0    1
 -2       781       879       880      3481      3485      3483
 -1      1634    8    0    1
 -2       783       782       881      3166      3486      3487
 -1      1635    8    0    1
 -2       782       880       881      3484      3488      3486
 -1      1636    8    0    1
 -2       784       783       882      3169      3489      3490
 -1      1637    8    0    1
 -2       783       881       882      3487      3491      3489
 -1      1638    8    0    1
 -2       785       784       883      3172      3492      3493
 -1      1639    8    0    1
 -2       784       882       883      3490      3494      3492
 -1      1640    8    0    1
 -2       786       785       884      3175      3495      3496
 -1      1641    8    0    1
 -2       785       883       884      3493      3497      3495
 -1      1642    8    0    1
 -2       787       786       885      3178      3498      3499
 -1      1643    8    0    1
 -2       786       884       885      3496      3500      3498
 -1      1644    8    0    1
 -2       788       787       886      3181      3501      3502
 -1      1645    8    0    1
 -2       787       885       886      3499      3503      3501
 -1      1646    8    0    1
 -2       789       788       887      3184      3504      3505
 -1      1647    8    0    1
 -2       788       886       887      3502      3506      3504
 -1      1648    8    0    1
 -2       790       789       888      3187      3507      3508
 -1      1649    8    0    1
 -2       789       887       888      3505      3509      3507
 -1      1650    8    0    1
 -2       791       790       889      3190      3510      3511
 -1      1651    8    0    1
 -2       790       888       889      3508      3512      3510
 -1      1652    8    0    1
 -2       835       732       777      3326      3342      3513
 -1      1653    8    0    1
 -2       793       754       890      3198      3514      3515
 -1      1654    8    0    1
 -2       795       796       891      3206      3516      3517
 -1      1655    8    0    1
 -2       794       795       892      3203      3518      3519
 -1      1656    8    0    1
 -2       795       891       892      3517      3520      3518
 -1      1657    8    0    1
 -2       797       798       893      3212      3521      3522
 -1      1658    8    0    1
 -2       798       799       894      3215      3523      3524
 -1      1659    8    0    1
 -2       798       894       893      3524      3525      3521
 -1      1660    8    0    1
 -2       799       800       895      3218      3526      3527
 -1      1661    8    0    1
 -2       799       895       894      3527      3528      3523
 -1      1662    8    0    1
 -2       800       801       896      3221      3529      3530
 -1      1663    8    0    1
 -2       800       896       895      3530      3531      3526
 -1      1664    8    0    1
 -2       801       802       897      3224      3532      3533
 -1      1665    8    0    1
 -2       801       897       896      3533      3534      3529
 -1      1666    8    0    1
 -2       680       746       898      3229      3535      3536
 -1      1667    8    0    1
 -2       803       680       898      3225      3536      3537
 -1      1668    8    0    1
 -2       682       725       726      3231      3033      3538
 -1      1669    8    0    1
 -2       746       682       612      3230      3539      3050
 -1      1670    8    0    1
 -2       806       807       899      3245      3540      3541
 -1      1671    8    0    1
 -2       736       685       825      3374      3300      3367
 -1      1672    8    0    1
 -2       805       806       900      3242      3542      3543
 -1      1673    8    0    1
 -2       806       899       900      3541      3544      3542
 -1      1674    8    0    1
 -2       755       822       901      3376      3545      3546
 -1      1675    8    0    1
 -2       683       684       749      2862      3475      3547
 -1      1676    8    0    1
 -2       804       805       902      3239      3548      3549
 -1      1677    8    0    1
 -2       805       900       902      3543      3550      3548
 -1      1678    8    0    1
 -2       807       808       903      3248      3551      3552
 -1      1679    8    0    1
 -2       807       903       899      3552      3553      3540
 -1      1680    8    0    1
 -2       808       809       904      3251      3554      3555
 -1      1681    8    0    1
 -2       808       904       903      3555      3556      3551
 -1      1682    8    0    1
 -2       809       810       905      3254      3557      3558
 -1      1683    8    0    1
 -2       809       905       904      3558      3559      3554
 -1      1684    8    0    1
 -2       810       811       906      3257      3560      3561
 -1      1685    8    0    1
 -2       810       906       905      3561      3562      3557
 -1      1686    8    0    1
 -2       811       812       907      3260      3563      3564
 -1      1687    8    0    1
 -2       811       907       906      3564      3565      3560
 -1      1688    8    0    1
 -2       812       813       908      3263      3566      3567
 -1      1689    8    0    1
 -2       812       908       907      3567      3568      3563
 -1      1690    8    0    1
 -2       813       814       909      3266      3569      3570
 -1      1691    8    0    1
 -2       813       909       908      3570      3571      3566
 -1      1692    8    0    1
 -2       814       815       910      3269      3572      3573
 -1      1693    8    0    1
 -2       814       910       909      3573      3574      3569
 -1      1694    8    0    1
 -2       815       816       911      3272      3575      3576
 -1      1695    8    0    1
 -2       815       911       910      3576      3577      3572
 -1      1696    8    0    1
 -2       816       817       912      3275      3578      3579
 -1      1697    8    0    1
 -2       816       912       911      3579      3580      3575
 -1      1698    8    0    1
 -2       645       756       737      3356      3581      3142
 -1      1699    8    0    1
 -2       838       824       913      3380      3582      3583
 -1      1700    8    0    1
 -2       726       612       682      3028      3539      3538
 -1      1701    8    0    1
 -2       836       829       914      3330      3584      3585
 -1      1702    8    0    1
 -2       835       777       776      3513      3148      3586
 -1      1703    8    0    1
 -2       828       793       915      3309      3587      3588
 -1      1704    8    0    1
 -2       793       890       915      3515      3589      3587
 -1      1705    8    0    1
 -2       829       828       916      3312      3590      3591
 -1      1706    8    0    1
 -2       829       916       914      3591      3592      3584
 -1      1707    8    0    1
 -2       747       734       917      3055      3593      3594
 -1      1708    8    0    1
 -2       747       917       858      3594      3595      3410
 -1      1709    8    0    1
 -2       741       745       918      3047      3596      3597
 -1      1710    8    0    1
 -2       818       741       918      3279      3597      3598
 -1      1711    8    0    1
 -2       745       854       918      3397      3599      3596
 -1      1712    8    0    1
 -2       833       825       804      3389      3388      3600
 -1      1713    8    0    1
 -2       753       832       919      3320      3601      3602
 -1      1714    8    0    1
 -2       832       850       919      3382      3603      3601
 -1      1715    8    0    1
 -2       796       797       920      3209      3604      3605
 -1      1716    8    0    1
 -2       891       796       920      3516      3605      3606
 -1      1717    8    0    1
 -2       797       893       920      3522      3607      3604
 -1      1718    8    0    1
 -2       834       835       776      3406      3586      3399
 -1      1719    8    0    1
 -2       827       838       921      3420      3608      3609
 -1      1720    8    0    1
 -2       757       755       922      3085      3610      3611
 -1      1721    8    0    1
 -2       757       922       861      3611      3612      3425
 -1      1722    8    0    1
 -2       778       827       921      3421      3609      3613
 -1      1723    8    0    1
 -2       589       615       724      2678      3234      2973
 -1      1724    8    0    1
 -2       833       804       902      3600      3549      3614
 -1      1725    8    0    1
 -2       840       753       919      3338      3602      3615
 -1      1726    8    0    1
 -2       752       841       923      3345      3616      3617
 -1      1727    8    0    1
 -2       752       923       845      3617      3618      3363
 -1      1728    8    0    1
 -2       773       876       853      3470      3619      3472
 -1      1729    8    0    1
 -2       878       779       921      3478      3620      3621
 -1      1730    8    0    1
 -2       877       821       924      3476      3622      3623
 -1      1731    8    0    1
 -2       821       823       924      3293      3624      3622
 -1      1732    8    0    1
 -2       830       855       925      3401      3625      3626
 -1      1733    8    0    1
 -2       837       860       926      3419      3627      3628
 -1      1734    8    0    1
 -2       844       748       927      3360      3629      3630
 -1      1735    8    0    1
 -2       748       856       927      3404      3631      3629
 -1      1736    8    0    1
 -2       779       778       921      3154      3613      3620
 -1      1737    8    0    1
 -2       792       791       928      3194      3632      3633
 -1      1738    8    0    1
 -2       859       792       928      3416      3633      3634
 -1      1739    8    0    1
 -2       791       889       928      3511      3635      3632
 -1      1740    8    0    1
 -2       890       754       929      3514      3636      3637
 -1      1741    8    0    1
 -2       754       826       929      3303      3638      3636
 -1      1742    8    0    1
 -2       846       742       930      3366      3639      3640
 -1      1743    8    0    1
 -2       742       847       930      3370      3641      3639
 -1      1744    8    0    1
 -2       847       837       926      3368      3628      3642
 -1      1745    8    0    1
 -2       794       892       931      3519      3643      3644
 -1      1746    8    0    1
 -2       794       931       826      3644      3645      3304
 -1      1747    8    0    1
 -2       836       914       932      3585      3646      3647
 -1      1748    8    0    1
 -2       897       802       930      3532      3648      3649
 -1      1749    8    0    1
 -2       802       803       930      3227      3650      3648
 -1      1750    8    0    1
 -2       803       898       846      3537      3651      3652
 -1      1751    8    0    1
 -2       848       819       933      3371      3653      3654
 -1      1752    8    0    1
 -2       819       877       933      3477      3655      3653
 -1      1753    8    0    1
 -2       724       683       749      3232      3547      3315
 -1      1754    8    0    1
 -2       817       818       918      3278      3598      3656
 -1      1755    8    0    1
 -2       849       848       934      3379      3657      3658
 -1      1756    8    0    1
 -2       848       933       934      3654      3659      3657
 -1      1757    8    0    1
 -2       860       738       935      3417      3660      3661
 -1      1758    8    0    1
 -2       738       844       935      3359      3662      3660
 -1      1759    8    0    1
 -2       913       824       857      3582      3408      3663
 -1      1760    8    0    1
 -2       755       901       922      3546      3664      3610
 -1      1761    8    0    1
 -2       851       836       932      3387      3647      3665
 -1      1762    8    0    1
 -2       841       833       902      3343      3614      3666
 -1      1763    8    0    1
 -2       822       733       842      3290      3347      3667
 -1      1764    8    0    1
 -2       830       925       936      3626      3668      3669
 -1      1765    8    0    1
 -2       830       936       839      3669      3670      3337
 -1      1766    8    0    1
 -2       846       898       740      3651      3671      3365
 -1      1767    8    0    1
 -2       822       842       901      3667      3672      3545
 -1      1768    8    0    1
 -2       665       737       756      3012      3581      3081
 -1      1769    8    0    1
 -2       921       838       937      3608      3673      3674
 -1      1770    8    0    1
 -2       838       913       937      3583      3675      3673
 -1      1771    8    0    1
 -2       916       828       915      3590      3588      3676
 -1      1772    8    0    1
 -2       721       840       855      3340      3677      3402
 -1      1773    8    0    1
 -2       854       849       938      3398      3678      3679
 -1      1774    8    0    1
 -2       849       934       938      3658      3680      3678
 -1      1775    8    0    1
 -2       917       734       839      3593      3336      3681
 -1      1776    8    0    1
 -2       856       744       939      3405      3682      3683
 -1      1777    8    0    1
 -2       744       852       939      3391      3684      3682
 -1      1778    8    0    1
 -2       901       842       940      3672      3685      3686
 -1      1779    8    0    1
 -2       842       858       940      3412      3687      3685
 -1      1780    8    0    1
 -2       817       918       912      3656      3688      3578
 -1      1781    8    0    1
 -2       857       739       941      3409      3689      3690
 -1      1782    8    0    1
 -2       739       845       941      3362      3691      3689
 -1      1783    8    0    1
 -2       820       859       928      3415      3634      3692
 -1      1784    8    0    1
 -2       862       861       942      3429      3693      3694
 -1      1785    8    0    1
 -2       863       862       943      3432      3695      3696
 -1      1786    8    0    1
 -2       862       942       943      3694      3697      3695
 -1      1787    8    0    1
 -2       864       863       944      3435      3698      3699
 -1      1788    8    0    1
 -2       863       943       944      3696      3700      3698
 -1      1789    8    0    1
 -2       865       864       945      3438      3701      3702
 -1      1790    8    0    1
 -2       864       944       945      3699      3703      3701
 -1      1791    8    0    1
 -2       866       865       946      3441      3704      3705
 -1      1792    8    0    1
 -2       865       945       946      3702      3706      3704
 -1      1793    8    0    1
 -2       867       866       947      3444      3707      3708
 -1      1794    8    0    1
 -2       866       946       947      3705      3709      3707
 -1      1795    8    0    1
 -2       868       867       948      3447      3710      3711
 -1      1796    8    0    1
 -2       867       947       948      3708      3712      3710
 -1      1797    8    0    1
 -2       869       868       949      3450      3713      3714
 -1      1798    8    0    1
 -2       868       948       949      3711      3715      3713
 -1      1799    8    0    1
 -2       870       869       950      3453      3716      3717
 -1      1800    8    0    1
 -2       869       949       950      3714      3718      3716
 -1      1801    8    0    1
 -2       871       870       951      3456      3719      3720
 -1      1802    8    0    1
 -2       870       950       951      3717      3721      3719
 -1      1803    8    0    1
 -2       872       871       952      3459      3722      3723
 -1      1804    8    0    1
 -2       871       951       952      3720      3724      3722
 -1      1805    8    0    1
 -2       873       872       953      3462      3725      3726
 -1      1806    8    0    1
 -2       872       952       953      3723      3727      3725
 -1      1807    8    0    1
 -2       874       873       954      3465      3728      3729
 -1      1808    8    0    1
 -2       873       953       954      3726      3730      3728
 -1      1809    8    0    1
 -2       875       874       955      3468      3731      3732
 -1      1810    8    0    1
 -2       874       954       955      3729      3733      3731
 -1      1811    8    0    1
 -2       876       875       956      3471      3734      3735
 -1      1812    8    0    1
 -2       875       955       956      3732      3736      3734
 -1      1813    8    0    1
 -2       878       921       937      3621      3674      3737
 -1      1814    8    0    1
 -2       895       896       957      3531      3738      3739
 -1      1815    8    0    1
 -2       925       855       958      3625      3740      3741
 -1      1816    8    0    1
 -2       855       840       958      3677      3742      3740
 -1      1817    8    0    1
 -2       892       891       959      3520      3743      3744
 -1      1818    8    0    1
 -2       879       878       960      3482      3745      3746
 -1      1819    8    0    1
 -2       878       937       960      3737      3747      3745
 -1      1820    8    0    1
 -2       880       879       961      3485      3748      3749
 -1      1821    8    0    1
 -2       879       960       961      3746      3750      3748
 -1      1822    8    0    1
 -2       881       880       962      3488      3751      3752
 -1      1823    8    0    1
 -2       880       961       962      3749      3753      3751
 -1      1824    8    0    1
 -2       882       881       963      3491      3754      3755
 -1      1825    8    0    1
 -2       881       962       963      3752      3756      3754
 -1      1826    8    0    1
 -2       883       882       964      3494      3757      3758
 -1      1827    8    0    1
 -2       882       963       964      3755      3759      3757
 -1      1828    8    0    1
 -2       884       883       965      3497      3760      3761
 -1      1829    8    0    1
 -2       883       964       965      3758      3762      3760
 -1      1830    8    0    1
 -2       885       884       966      3500      3763      3764
 -1      1831    8    0    1
 -2       884       965       966      3761      3765      3763
 -1      1832    8    0    1
 -2       886       885       967      3503      3766      3767
 -1      1833    8    0    1
 -2       885       966       967      3764      3768      3766
 -1      1834    8    0    1
 -2       887       886       968      3506      3769      3770
 -1      1835    8    0    1
 -2       886       967       968      3767      3771      3769
 -1      1836    8    0    1
 -2       888       887       969      3509      3772      3773
 -1      1837    8    0    1
 -2       887       968       969      3770      3774      3772
 -1      1838    8    0    1
 -2       889       888       970      3512      3775      3776
 -1      1839    8    0    1
 -2       888       969       970      3773      3777      3775
 -1      1840    8    0    1
 -2       930       847       971      3641      3778      3779
 -1      1841    8    0    1
 -2       847       926       971      3642      3780      3778
 -1      1842    8    0    1
 -2       932       914       972      3646      3781      3782
 -1      1843    8    0    1
 -2       894       895       973      3528      3783      3784
 -1      1844    8    0    1
 -2       895       957       973      3739      3785      3783
 -1      1845    8    0    1
 -2       893       894       974      3525      3786      3787
 -1      1846    8    0    1
 -2       894       973       974      3784      3788      3786
 -1      1847    8    0    1
 -2       896       897       975      3534      3789      3790
 -1      1848    8    0    1
 -2       896       975       957      3790      3791      3738
 -1      1849    8    0    1
 -2       897       930       971      3649      3779      3792
 -1      1850    8    0    1
 -2       930       803       846      3650      3652      3640
 -1      1851    8    0    1
 -2       903       904       976      3556      3793      3794
 -1      1852    8    0    1
 -2       904       905       977      3559      3795      3796
 -1      1853    8    0    1
 -2       904       977       976      3796      3797      3793
 -1      1854    8    0    1
 -2       905       906       978      3562      3798      3799
 -1      1855    8    0    1
 -2       905       978       977      3799      3800      3795
 -1      1856    8    0    1
 -2       906       907       979      3565      3801      3802
 -1      1857    8    0    1
 -2       906       979       978      3802      3803      3798
 -1      1858    8    0    1
 -2       907       908       980      3568      3804      3805
 -1      1859    8    0    1
 -2       907       980       979      3805      3806      3801
 -1      1860    8    0    1
 -2       908       909       981      3571      3807      3808
 -1      1861    8    0    1
 -2       908       981       980      3808      3809      3804
 -1      1862    8    0    1
 -2       909       910       982      3574      3810      3811
 -1      1863    8    0    1
 -2       909       982       981      3811      3812      3807
 -1      1864    8    0    1
 -2       910       911       983      3577      3813      3814
 -1      1865    8    0    1
 -2       910       983       982      3814      3815      3810
 -1      1866    8    0    1
 -2       841       902       984      3666      3816      3817
 -1      1867    8    0    1
 -2       923       841       984      3616      3817      3818
 -1      1868    8    0    1
 -2       902       900       984      3550      3819      3816
 -1      1869    8    0    1
 -2       850       851       985      3386      3820      3821
 -1      1870    8    0    1
 -2       919       850       985      3603      3821      3822
 -1      1871    8    0    1
 -2       851       932       985      3665      3823      3820
 -1      1872    8    0    1
 -2       840       919       958      3615      3824      3742
 -1      1873    8    0    1
 -2       914       916       986      3592      3825      3826
 -1      1874    8    0    1
 -2       914       986       972      3826      3827      3781
 -1      1875    8    0    1
 -2       740       898       843      3671      3828      3352
 -1      1876    8    0    1
 -2       900       899       987      3544      3829      3830
 -1      1877    8    0    1
 -2       900       987       984      3830      3831      3819
 -1      1878    8    0    1
 -2       915       890       988      3589      3832      3833
 -1      1879    8    0    1
 -2       858       917       989      3595      3834      3835
 -1      1880    8    0    1
 -2       858       989       940      3835      3836      3687
 -1      1881    8    0    1
 -2       899       903       990      3553      3837      3838
 -1      1882    8    0    1
 -2       987       899       990      3829      3838      3839
 -1      1883    8    0    1
 -2       903       976       990      3794      3840      3837
 -1      1884    8    0    1
 -2       928       889       991      3635      3841      3842
 -1      1885    8    0    1
 -2       820       928       991      3692      3842      3843
 -1      1886    8    0    1
 -2       889       970       991      3776      3844      3841
 -1      1887    8    0    1
 -2       918       854       912      3599      3845      3688
 -1      1888    8    0    1
 -2       916       915       992      3676      3846      3847
 -1      1889    8    0    1
 -2       986       916       992      3825      3847      3848
 -1      1890    8    0    1
 -2       915       988       992      3833      3849      3846
 -1      1891    8    0    1
 -2       926       860       993      3627      3850      3851
 -1      1892    8    0    1
 -2       860       935       993      3661      3852      3850
 -1      1893    8    0    1
 -2       917       839       994      3681      3853      3854
 -1      1894    8    0    1
 -2       839       936       994      3670      3855      3853
 -1      1895    8    0    1
 -2       913       857       995      3663      3856      3857
 -1      1896    8    0    1
 -2       922       901       940      3664      3686      3858
 -1      1897    8    0    1
 -2       861       922       996      3612      3859      3860
 -1      1898    8    0    1
 -2       861       996       942      3860      3861      3693
 -1      1899    8    0    1
 -2       823       820       991      3294      3843      3862
 -1      1900    8    0    1
 -2       823       991       924      3862      3863      3624
 -1      1901    8    0    1
 -2       912       854       938      3845      3679      3864
 -1      1902    8    0    1
 -2       985       932       997      3823      3865      3866
 -1      1903    8    0    1
 -2       912       938       911      3864      3867      3580
 -1      1904    8    0    1
 -2       876       956       939      3735      3868      3869
 -1      1905    8    0    1
 -2       897       971       975      3792      3870      3789
 -1      1906    8    0    1
 -2       877       924       998      3623      3871      3872
 -1      1907    8    0    1
 -2       925       958       999      3741      3873      3874
 -1      1908    8    0    1
 -2       959       891      1000      3743      3875      3876
 -1      1909    8    0    1
 -2       891       920      1000      3606      3877      3875
 -1      1910    8    0    1
 -2       826       931       929      3645      3878      3638
 -1      1911    8    0    1
 -2       844       927      1001      3630      3879      3880
 -1      1912    8    0    1
 -2       844      1001       935      3880      3881      3662
 -1      1913    8    0    1
 -2       997       932       972      3865      3782      3882
 -1      1914    8    0    1
 -2       890       929      1002      3637      3883      3884
 -1      1915    8    0    1
 -2       890      1002       988      3884      3885      3832
 -1      1916    8    0    1
 -2       971       926      1003      3780      3886      3887
 -1      1917    8    0    1
 -2       971      1003       975      3887      3888      3870
 -1      1918    8    0    1
 -2       933       877      1004      3655      3889      3890
 -1      1919    8    0    1
 -2       877       998      1004      3872      3891      3889
 -1      1920    8    0    1
 -2       931       892      1005      3643      3892      3893
 -1      1921    8    0    1
 -2       892       959      1005      3744      3894      3892
 -1      1922    8    0    1
 -2       898       746       843      3535      3351      3828
 -1      1923    8    0    1
 -2       917       994       989      3854      3895      3834
 -1      1924    8    0    1
 -2       927       856       939      3631      3683      3896
 -1      1925    8    0    1
 -2       983       911       938      3813      3867      3897
 -1      1926    8    0    1
 -2       926       993      1003      3851      3898      3886
 -1      1927    8    0    1
 -2       937       913      1006      3675      3899      3900
 -1      1928    8    0    1
 -2       960       937      1006      3747      3900      3901
 -1      1929    8    0    1
 -2       913       995      1006      3857      3902      3899
 -1      1930    8    0    1
 -2       857       941       995      3690      3903      3856
 -1      1931    8    0    1
 -2       934       933      1007      3659      3904      3905
 -1      1932    8    0    1
 -2       933      1004      1007      3890      3906      3904
 -1      1933    8    0    1
 -2       936       925      1008      3668      3907      3908
 -1      1934    8    0    1
 -2       925       999      1008      3874      3909      3907
 -1      1935    8    0    1
 -2       991       970       924      3844      3910      3863
 -1      1936    8    0    1
 -2       852       831      1009      3392      3911      3912
 -1      1937    8    0    1
 -2      1009       831       853      3911      3395      3913
 -1      1938    8    0    1
 -2       938       934      1010      3680      3914      3915
 -1      1939    8    0    1
 -2       983       938      1010      3897      3915      3916
 -1      1940    8    0    1
 -2       934      1007      1010      3905      3917      3914
 -1      1941    8    0    1
 -2       941       845      1011      3691      3918      3919
 -1      1942    8    0    1
 -2       845       923      1011      3618      3920      3918
 -1      1943    8    0    1
 -2       920       893      1012      3607      3921      3922
 -1      1944    8    0    1
 -2       920      1012      1000      3922      3923      3877
 -1      1945    8    0    1
 -2       893       974      1012      3787      3924      3921
 -1      1946    8    0    1
 -2       922       940      1013      3858      3925      3926
 -1      1947    8    0    1
 -2       996       922      1013      3859      3926      3927
 -1      1948    8    0    1
 -2       940       989      1013      3836      3928      3925
 -1      1949    8    0    1
 -2      1003       993      1014      3898      3929      3930
 -1      1950    8    0    1
 -2       939       956      1015      3868      3931      3932
 -1      1951    8    0    1
 -2       927       939      1015      3896      3932      3933
 -1      1952    8    0    1
 -2       956       955      1015      3736      3934      3931
 -1      1953    8    0    1
 -2       999       958       997      3873      3935      3936
 -1      1954    8    0    1
 -2       944       943      1016      3700      3937      3938
 -1      1955    8    0    1
 -2       945       944      1017      3703      3939      3940
 -1      1956    8    0    1
 -2       944      1016      1017      3938      3941      3939
 -1      1957    8    0    1
 -2       946       945      1018      3706      3942      3943
 -1      1958    8    0    1
 -2       945      1017      1018      3940      3944      3942
 -1      1959    8    0    1
 -2       947       946      1019      3709      3945      3946
 -1      1960    8    0    1
 -2       946      1018      1019      3943      3947      3945
 -1      1961    8    0    1
 -2       948       947      1020      3712      3948      3949
 -1      1962    8    0    1
 -2       947      1019      1020      3946      3950      3948
 -1      1963    8    0    1
 -2       949       948      1021      3715      3951      3952
 -1      1964    8    0    1
 -2       948      1020      1021      3949      3953      3951
 -1      1965    8    0    1
 -2       950       949      1022      3718      3954      3955
 -1      1966    8    0    1
 -2       949      1021      1022      3952      3956      3954
 -1      1967    8    0    1
 -2       951       950      1023      3721      3957      3958
 -1      1968    8    0    1
 -2       950      1022      1023      3955      3959      3957
 -1      1969    8    0    1
 -2       952       951      1024      3724      3960      3961
 -1      1970    8    0    1
 -2       951      1023      1024      3958      3962      3960
 -1      1971    8    0    1
 -2       953       952      1025      3727      3963      3964
 -1      1972    8    0    1
 -2       952      1024      1025      3961      3965      3963
 -1      1973    8    0    1
 -2       954       953      1026      3730      3966      3967
 -1      1974    8    0    1
 -2       953      1025      1026      3964      3968      3966
 -1      1975    8    0    1
 -2       955       954      1027      3733      3969      3970
 -1      1976    8    0    1
 -2       954      1026      1027      3967      3971      3969
 -1      1977    8    0    1
 -2       999       997      1028      3936      3972      3973
 -1      1978    8    0    1
 -2       997       972      1028      3882      3974      3972
 -1      1979    8    0    1
 -2       972       986      1029      3827      3975      3976
 -1      1980    8    0    1
 -2       972      1029      1028      3976      3977      3974
 -1      1981    8    0    1
 -2       998       924       970      3871      3910      3978
 -1      1982    8    0    1
 -2       961       960      1030      3750      3979      3980
 -1      1983    8    0    1
 -2       960      1006      1030      3901      3981      3979
 -1      1984    8    0    1
 -2       962       961      1031      3753      3982      3983
 -1      1985    8    0    1
 -2       961      1030      1031      3980      3984      3982
 -1      1986    8    0    1
 -2       963       962      1032      3756      3985      3986
 -1      1987    8    0    1
 -2       962      1031      1032      3983      3987      3985
 -1      1988    8    0    1
 -2       964       963      1033      3759      3988      3989
 -1      1989    8    0    1
 -2       963      1032      1033      3986      3990      3988
 -1      1990    8    0    1
 -2       965       964      1034      3762      3991      3992
 -1      1991    8    0    1
 -2       964      1033      1034      3989      3993      3991
 -1      1992    8    0    1
 -2       966       965      1035      3765      3994      3995
 -1      1993    8    0    1
 -2       965      1034      1035      3992      3996      3994
 -1      1994    8    0    1
 -2       967       966      1036      3768      3997      3998
 -1      1995    8    0    1
 -2       966      1035      1036      3995      3999      3997
 -1      1996    8    0    1
 -2       968       967      1037      3771      4000      4001
 -1      1997    8    0    1
 -2       967      1036      1037      3998      4002      4000
 -1      1998    8    0    1
 -2       969       968      1038      3774      4003      4004
 -1      1999    8    0    1
 -2       968      1037      1038      4001      4005      4003
 -1      2000    8    0    1
 -2       970       969      1039      3777      4006      4007
 -1      2001    8    0    1
 -2       998       970      1039      3978      4007      4008
 -1      2002    8    0    1
 -2       969      1038      1039      4004      4009      4006
 -1      2003    8    0    1
 -2       989       994      1040      3895      4010      4011
 -1      2004    8    0    1
 -2       989      1040      1013      4011      4012      3928
 -1      2005    8    0    1
 -2       977       978      1041      3800      4013      4014
 -1      2006    8    0    1
 -2       957       975      1042      3791      4015      4016
 -1      2007    8    0    1
 -2       975      1003      1042      3888      4017      4015
 -1      2008    8    0    1
 -2       974       973      1043      3788      4018      4019
 -1      2009    8    0    1
 -2       978       979      1044      3803      4020      4021
 -1      2010    8    0    1
 -2       978      1044      1041      4021      4022      4013
 -1      2011    8    0    1
 -2       976       977      1045      3797      4023      4024
 -1      2012    8    0    1
 -2       977      1041      1045      4014      4025      4023
 -1      2013    8    0    1
 -2       919       985       958      3822      4026      3824
 -1      2014    8    0    1
 -2       979       980      1046      3806      4027      4028
 -1      2015    8    0    1
 -2       979      1046      1044      4028      4029      4020
 -1      2016    8    0    1
 -2       980       981      1047      3809      4030      4031
 -1      2017    8    0    1
 -2       980      1047      1046      4031      4032      4027
 -1      2018    8    0    1
 -2       981       982      1048      3812      4033      4034
 -1      2019    8    0    1
 -2       981      1048      1047      4034      4035      4030
 -1      2020    8    0    1
 -2       982       983      1049      3815      4036      4037
 -1      2021    8    0    1
 -2      1048       982      1049      4033      4037      4038
 -1      2022    8    0    1
 -2       983      1010      1049      3916      4039      4036
 -1      2023    8    0    1
 -2       923       984      1050      3818      4040      4041
 -1      2024    8    0    1
 -2      1011       923      1050      3920      4041      4042
 -1      2025    8    0    1
 -2       984       987      1050      3831      4043      4040
 -1      2026    8    0    1
 -2       993       935      1051      3852      4044      4045
 -1      2027    8    0    1
 -2       935      1001      1051      3881      4046      4044
 -1      2028    8    0    1
 -2       997       958       985      3935      4026      3866
 -1      2029    8    0    1
 -2       929       931      1052      3878      4047      4048
 -1      2030    8    0    1
 -2       931      1005      1052      3893      4049      4047
 -1      2031    8    0    1
 -2       852      1009       939      3912      4050      3684
 -1      2032    8    0    1
 -2       973       957      1053      3785      4051      4052
 -1      2033    8    0    1
 -2      1043       973      1053      4018      4052      4053
 -1      2034    8    0    1
 -2       957      1042      1053      4016      4054      4051
 -1      2035    8    0    1
 -2       994       936      1054      3855      4055      4056
 -1      2036    8    0    1
 -2       936      1008      1054      3908      4057      4055
 -1      2037    8    0    1
 -2       943       942      1055      3697      4058      4059
 -1      2038    8    0    1
 -2       943      1055      1016      4059      4060      3937
 -1      2039    8    0    1
 -2       942       996      1056      3861      4061      4062
 -1      2040    8    0    1
 -2       942      1056      1055      4062      4063      4058
 -1      2041    8    0    1
 -2      1012       974      1057      3924      4064      4065
 -1      2042    8    0    1
 -2       974      1043      1057      4019      4066      4064
 -1      2043    8    0    1
 -2       995       941      1058      3903      4067      4068
 -1      2044    8    0    1
 -2       927      1015      1001      3933      4069      3879
 -1      2045    8    0    1
 -2       999      1028      1008      3973      4070      3909
 -1      2046    8    0    1
 -2       993      1051      1014      4045      4071      3929
 -1      2047    8    0    1
 -2       955      1027      1015      3970      4072      3934
 -1      2048    8    0    1
 -2      1040       994      1054      4010      4056      4073
 -1      2049    8    0    1
 -2      1029       986      1059      3975      4074      4075
 -1      2050    8    0    1
 -2       986       992      1059      3848      4076      4074
 -1      2051    8    0    1
 -2       959      1000      1060      3876      4077      4078
 -1      2052    8    0    1
 -2      1002       929      1052      3883      4048      4079
 -1      2053    8    0    1
 -2       998      1039      1061      4008      4080      4081
 -1      2054    8    0    1
 -2       998      1061      1004      4081      4082      3891
 -1      2055    8    0    1
 -2      1042      1003      1014      4017      3930      4083
 -1      2056    8    0    1
 -2      1005       959      1062      3894      4084      4085
 -1      2057    8    0    1
 -2       959      1060      1062      4078      4086      4084
 -1      2058    8    0    1
 -2       976      1045      1063      4024      4087      4088
 -1      2059    8    0    1
 -2       976      1063       990      4088      4089      3840
 -1      2060    8    0    1
 -2      1006       995      1064      3902      4090      4091
 -1      2061    8    0    1
 -2      1030      1006      1064      3981      4091      4092
 -1      2062    8    0    1
 -2       995      1058      1064      4068      4093      4090
 -1      2063    8    0    1
 -2      1007      1004      1065      3906      4094      4095
 -1      2064    8    0    1
 -2      1004      1061      1065      4082      4096      4094
 -1      2065    8    0    1
 -2      1010      1007      1065      3917      4095      4097
 -1      2066    8    0    1
 -2       988      1002      1066      3885      4098      4099
 -1      2067    8    0    1
 -2       992       988      1067      3849      4100      4101
 -1      2068    8    0    1
 -2      1059       992      1067      4076      4101      4102
 -1      2069    8    0    1
 -2       988      1066      1067      4099      4103      4100
 -1      2070    8    0    1
 -2       987       990      1068      3839      4104      4105
 -1      2071    8    0    1
 -2       990      1063      1068      4089      4106      4104
 -1      2072    8    0    1
 -2       996      1013      1056      3927      4107      4061
 -1      2073    8    0    1
 -2       941      1011      1058      3919      4108      4067
 -1      2074    8    0    1
 -2      1000      1012      1069      3923      4109      4110
 -1      2075    8    0    1
 -2      1060      1000      1069      4077      4110      4111
 -1      2076    8    0    1
 -2      1012      1057      1069      4065      4112      4109
 -1      2077    8    0    1
 -2       987      1068      1050      4105      4113      4043
 -1      2078    8    0    1
 -2      1055      1056      1070      4063      4114      4115
 -1      2079    8    0    1
 -2      1016      1055      1071      4060      4116      4117
 -1      2080    8    0    1
 -2      1055      1070      1071      4115      4118      4116
 -1      2081    8    0    1
 -2      1018      1017      1072      3944      4119      4120
 -1      2082    8    0    1
 -2      1019      1018      1073      3947      4121      4122
 -1      2083    8    0    1
 -2      1018      1072      1073      4120      4123      4121
 -1      2084    8    0    1
 -2      1020      1019      1074      3950      4124      4125
 -1      2085    8    0    1
 -2      1019      1073      1074      4122      4126      4124
 -1      2086    8    0    1
 -2      1021      1020      1075      3953      4127      4128
 -1      2087    8    0    1
 -2      1020      1074      1075      4125      4129      4127
 -1      2088    8    0    1
 -2      1022      1021      1076      3956      4130      4131
 -1      2089    8    0    1
 -2      1021      1075      1076      4128      4132      4130
 -1      2090    8    0    1
 -2      1023      1022      1077      3959      4133      4134
 -1      2091    8    0    1
 -2      1022      1076      1077      4131      4135      4133
 -1      2092    8    0    1
 -2      1024      1023      1078      3962      4136      4137
 -1      2093    8    0    1
 -2      1023      1077      1078      4134      4138      4136
 -1      2094    8    0    1
 -2      1025      1024      1079      3965      4139      4140
 -1      2095    8    0    1
 -2      1024      1078      1079      4137      4141      4139
 -1      2096    8    0    1
 -2      1026      1025      1080      3968      4142      4143
 -1      2097    8    0    1
 -2      1025      1079      1080      4140      4144      4142
 -1      2098    8    0    1
 -2      1027      1026      1081      3971      4145      4146
 -1      2099    8    0    1
 -2      1026      1080      1081      4143      4147      4145
 -1      2100    8    0    1
 -2      1046      1047      1082      4032      4148      4149
 -1      2101    8    0    1
 -2      1013      1040      1056      4012      4150      4107
 -1      2102    8    0    1
 -2      1002      1052      1083      4079      4151      4152
 -1      2103    8    0    1
 -2      1002      1083      1066      4152      4153      4098
 -1      2104    8    0    1
 -2      1008      1028      1084      4070      4154      4155
 -1      2105    8    0    1
 -2      1031      1030      1085      3984      4156      4157
 -1      2106    8    0    1
 -2      1030      1064      1085      4092      4158      4156
 -1      2107    8    0    1
 -2      1032      1031      1086      3987      4159      4160
 -1      2108    8    0    1
 -2      1031      1085      1086      4157      4161      4159
 -1      2109    8    0    1
 -2      1033      1032      1087      3990      4162      4163
 -1      2110    8    0    1
 -2      1032      1086      1087      4160      4164      4162
 -1      2111    8    0    1
 -2      1034      1033      1088      3993      4165      4166
 -1      2112    8    0    1
 -2      1033      1087      1088      4163      4167      4165
 -1      2113    8    0    1
 -2      1035      1034      1089      3996      4168      4169
 -1      2114    8    0    1
 -2      1034      1088      1089      4166      4170      4168
 -1      2115    8    0    1
 -2      1036      1035      1090      3999      4171      4172
 -1      2116    8    0    1
 -2      1035      1089      1090      4169      4173      4171
 -1      2117    8    0    1
 -2      1037      1036      1091      4002      4174      4175
 -1      2118    8    0    1
 -2      1036      1090      1091      4172      4176      4174
 -1      2119    8    0    1
 -2      1038      1037      1092      4005      4177      4178
 -1      2120    8    0    1
 -2      1037      1091      1092      4175      4179      4177
 -1      2121    8    0    1
 -2      1039      1038      1093      4009      4180      4181
 -1      2122    8    0    1
 -2      1061      1039      1093      4080      4181      4182
 -1      2123    8    0    1
 -2      1038      1092      1093      4178      4183      4180
 -1      2124    8    0    1
 -2      1042      1014      1094      4083      4184      4185
 -1      2125    8    0    1
 -2      1054      1008      1084      4057      4155      4186
 -1      2126    8    0    1
 -2      1041      1044      1095      4022      4187      4188
 -1      2127    8    0    1
 -2      1045      1041      1096      4025      4189      4190
 -1      2128    8    0    1
 -2      1041      1095      1096      4188      4191      4189
 -1      2129    8    0    1
 -2      1047      1048      1097      4035      4192      4193
 -1      2130    8    0    1
 -2      1047      1097      1082      4193      4194      4148
 -1      2131    8    0    1
 -2      1014      1051      1098      4071      4195      4196
 -1      2132    8    0    1
 -2      1028      1029      1099      3977      4197      4198
 -1      2133    8    0    1
 -2      1028      1099      1084      4198      4199      4154
 -1      2134    8    0    1
 -2      1010      1065      1049      4097      4200      4039
 -1      2135    8    0    1
 -2      1050      1068      1100      4113      4201      4202
 -1      2136    8    0    1
 -2      1050      1100      1011      4202      4203      4042
 -1      2137    8    0    1
 -2      1017      1016      1101      3941      4204      4205
 -1      2138    8    0    1
 -2      1017      1101      1072      4205      4206      4119
 -1      2139    8    0    1
 -2      1058      1011      1100      4108      4203      4207
 -1      2140    8    0    1
 -2      1052      1005      1102      4049      4208      4209
 -1      2141    8    0    1
 -2      1083      1052      1102      4151      4209      4210
 -1      2142    8    0    1
 -2      1005      1062      1102      4085      4211      4208
 -1      2143    8    0    1
 -2      1015      1027      1103      4072      4212      4213
 -1      2144    8    0    1
 -2      1001      1015      1103      4069      4213      4214
 -1      2145    8    0    1
 -2      1027      1081      1103      4146      4215      4212
 -1      2146    8    0    1
 -2      1044      1046      1104      4029      4216      4217
 -1      2147    8    0    1
 -2      1046      1082      1104      4149      4218      4216
 -1      2148    8    0    1
 -2      1057      1043      1105      4066      4219      4220
 -1      2149    8    0    1
 -2      1051      1001      1103      4046      4214      4221
 -1      2150    8    0    1
 -2      1056      1040      1106      4150      4222      4223
 -1      2151    8    0    1
 -2      1070      1056      1106      4114      4223      4224
 -1      2152    8    0    1
 -2      1040      1054      1106      4073      4225      4222
 -1      2153    8    0    1
 -2      1016      1071      1101      4117      4226      4204
 -1      2154    8    0    1
 -2      1058      1100      1107      4207      4227      4228
 -1      2155    8    0    1
 -2      1044      1104      1095      4217      4229      4187
 -1      2156    8    0    1
 -2      1014      1098      1094      4196      4230      4184
 -1      2157    8    0    1
 -2      1068      1063      1108      4106      4231      4232
 -1      2158    8    0    1
 -2      1065      1061      1109      4096      4233      4234
 -1      2159    8    0    1
 -2      1061      1093      1109      4182      4235      4233
 -1      2160    8    0    1
 -2      1068      1108      1100      4232      4236      4201
 -1      2161    8    0    1
 -2      1062      1060      1110      4086      4237      4238
 -1      2162    8    0    1
 -2      1054      1084      1106      4186      4239      4225
 -1      2163    8    0    1
 -2      1063      1045      1111      4087      4240      4241
 -1      2164    8    0    1
 -2      1063      1111      1108      4241      4242      4231
 -1      2165    8    0    1
 -2      1064      1058      1107      4093      4228      4243
 -1      2166    8    0    1
 -2      1029      1059      1112      4075      4244      4245
 -1      2167    8    0    1
 -2      1029      1112      1099      4245      4246      4197
 -1      2168    8    0    1
 -2      1045      1096      1111      4190      4247      4240
 -1      2169    8    0    1
 -2      1097      1048      1109      4192      4248      4249
 -1      2170    8    0    1
 -2      1098      1051      1103      4195      4221      4250
 -1      2171    8    0    1
 -2      1048      1049      1109      4038      4251      4248
 -1      2172    8    0    1
 -2      1057      1105      1113      4220      4252      4253
 -1      2173    8    0    1
 -2      1057      1113      1069      4253      4254      4112
 -1      2174    8    0    1
 -2      1067      1066      1114      4103      4255      4256
 -1      2175    8    0    1
 -2      1053      1042      1094      4054      4185      4257
 -1      2176    8    0    1
 -2      1043      1053      1115      4053      4258      4259
 -1      2177    8    0    1
 -2      1105      1043      1115      4219      4259      4260
 -1      2178    8    0    1
 -2      1053      1094      1115      4257      4261      4258
 -1      2179    8    0    1
 -2      1066      1083      1116      4153      4262      4263
 -1      2180    8    0    1
 -2      1066      1116      1114      4263      4264      4255
 -1      2181    8    0    1
 -2      1060      1069      1117      4111      4265      4266
 -1      2182    8    0    1
 -2      1069      1113      1117      4254      4267      4265
 -1      2183    8    0    1
 -2      1110      1060      1117      4237      4266      4268
 -1      2184    8    0    1
 -2      1107      1100      1108      4227      4236      4269
 -1      2185    8    0    1
 -2      1095      1104      1118      4229      4270      4271
 -1      2186    8    0    1
 -2      1074      1073      1119      4126      4272      4273
 -1      2187    8    0    1
 -2      1075      1074      1120      4129      4274      4275
 -1      2188    8    0    1
 -2      1074      1119      1120      4273      4276      4274
 -1      2189    8    0    1
 -2      1076      1075      1110      4132      4277      4278
 -1      2190    8    0    1
 -2      1077      1076      1117      4135      4279      4280
 -1      2191    8    0    1
 -2      1078      1077      1113      4138      4281      4282
 -1      2192    8    0    1
 -2      1079      1078      1105      4141      4283      4284
 -1      2193    8    0    1
 -2      1080      1079      1115      4144      4285      4286
 -1      2194    8    0    1
 -2      1064      1107      1085      4243      4287      4158
 -1      2195    8    0    1
 -2      1065      1109      1049      4234      4251      4200
 -1      2196    8    0    1
 -2      1071      1070      1099      4118      4288      4289
 -1      2197    8    0    1
 -2      1103      1081      1098      4215      4290      4250
 -1      2198    8    0    1
 -2      1071      1099      1112      4289      4246      4291
 -1      2199    8    0    1
 -2      1087      1086      1121      4164      4292      4293
 -1      2200    8    0    1
 -2      1088      1087      1096      4167      4294      4295
 -1      2201    8    0    1
 -2      1089      1088      1118      4170      4296      4297
 -1      2202    8    0    1
 -2      1090      1089      1122      4173      4298      4299
 -1      2203    8    0    1
 -2      1089      1118      1122      4297      4300      4298
 -1      2204    8    0    1
 -2      1091      1090      1123      4176      4301      4302
 -1      2205    8    0    1
 -2      1090      1122      1123      4299      4303      4301
 -1      2206    8    0    1
 -2      1092      1091      1097      4179      4304      4305
 -1      2207    8    0    1
 -2      1106      1084      1070      4239      4306      4224
 -1      2208    8    0    1
 -2       853       876      1009      3619      4307      3913
 -1      2209    8    0    1
 -2      1105      1078      1113      4283      4282      4252
 -1      2210    8    0    1
 -2      1110      1117      1076      4268      4279      4278
 -1      2211    8    0    1
 -2       939      1009       876      4050      4307      3869
 -1      2212    8    0    1
 -2      1107      1108      1124      4269      4308      4309
 -1      2213    8    0    1
 -2      1085      1107      1124      4287      4309      4310
 -1      2214    8    0    1
 -2      1108      1111      1124      4242      4311      4308
 -1      2215    8    0    1
 -2      1084      1099      1070      4199      4288      4306
 -1      2216    8    0    1
 -2      1059      1067      1112      4102      4312      4244
 -1      2217    8    0    1
 -2      1062      1110      1120      4238      4313      4314
 -1      2218    8    0    1
 -2      1072      1101      1125      4206      4315      4316
 -1      2219    8    0    1
 -2      1067      1114      1112      4256      4317      4312
 -1      2220    8    0    1
 -2      1101      1071      1112      4226      4291      4318
 -1      2221    8    0    1
 -2      1073      1072      1126      4123      4319      4320
 -1      2222    8    0    1
 -2      1119      1073      1126      4272      4320      4321
 -1      2223    8    0    1
 -2      1072      1125      1126      4316      4322      4319
 -1      2224    8    0    1
 -2      1104      1082      1122      4218      4323      4324
 -1      2225    8    0    1
 -2      1110      1075      1120      4277      4275      4313
 -1      2226    8    0    1
 -2      1077      1117      1113      4280      4267      4281
 -1      2227    8    0    1
 -2      1118      1104      1122      4270      4324      4300
 -1      2228    8    0    1
 -2      1079      1105      1115      4284      4260      4285
 -1      2229    8    0    1
 -2      1080      1115      1094      4286      4261      4325
 -1      2230    8    0    1
 -2      1081      1080      1094      4147      4325      4326
 -1      2231    8    0    1
 -2      1098      1081      1094      4290      4326      4230
 -1      2232    8    0    1
 -2      1096      1087      1121      4294      4293      4327
 -1      2233    8    0    1
 -2      1121      1086      1124      4292      4328      4329
 -1      2234    8    0    1
 -2      1122      1082      1123      4323      4330      4303
 -1      2235    8    0    1
 -2      1086      1085      1124      4161      4310      4328
 -1      2236    8    0    1
 -2      1088      1096      1118      4295      4331      4296
 -1      2237    8    0    1
 -2      1092      1097      1109      4305      4249      4332
 -1      2238    8    0    1
 -2      1062      1120      1102      4314      4333      4211
 -1      2239    8    0    1
 -2      1096      1121      1111      4327      4334      4247
 -1      2240    8    0    1
 -2      1083      1102      1119      4210      4335      4336
 -1      2241    8    0    1
 -2      1114      1116      1126      4264      4337      4338
 -1      2242    8    0    1
 -2      1124      1111      1121      4311      4334      4329
 -1      2243    8    0    1
 -2      1114      1126      1125      4338      4322      4339
 -1      2244    8    0    1
 -2      1092      1109      1093      4332      4235      4183
 -1      2245    8    0    1
 -2      1101      1112      1125      4318      4340      4315
 -1      2246    8    0    1
 -2      1125      1112      1114      4340      4317      4339
 -1      2247    8    0    1
 -2      1096      1095      1118      4191      4271      4331
 -1      2248    8    0    1
 -2      1102      1120      1119      4333      4276      4335
 -1      2249    8    0    1
 -2      1082      1097      1123      4194      4341      4330
 -1      2250    8    0    1
 -2      1083      1119      1116      4336      4342      4262
 -1      2251    8    0    1
 -2      1116      1119      1126      4342      4321      4337
 -1      2252    8    0    1
 -2      1097      1091      1123      4304      4302      4341
 -3
    1PSTEP                         1           1           1          
  100CL  101 1.000000000        4342                     0    1           1
 -4  DISP        4    1
 -5  D1          1    2    1    0
 -5  D2          1    2    2    0
 -5  D3          1    2    3    0
 -5  ALL         1    2    0    0    1ALL
 -1         1 8.56276E-03-5.14612E-04-4.30978E-14
 -1         2 1.03932E-02 3.10928E-04-4.98424E-14
 -1         3 1.55846E-02 1.77002E-03-1.24987E-13
 -1         4 1.48116E-02 3.58674E-04-1.26479E-13
 -1         5 0.00000E+00 0.00000E+00 0.00000E+00
 -1         6 0.00000E+00 0.00000E+00 0.00000E+00
 -1         7 0.00000E+00 0.00000E+00 0.00000E+00
 -1         8 0.00000E+00 0.00000E+00 0.00000E+00
 -1         9 0.00000E+00 0.00000E+00 0.00000E+00
 -1        10 0.00000E+00 0.00000E+00 0.00000E+00
 -1        11 0.00000E+00 0.00000E+00 0.00000E+00
 -1        12 0.00000E+00 0.00000E+00 0.00000E+00
 -1        13 0.00000E+00 0.00000E+00 0.00000E+00
 -1        14 0.00000E+00 0.00000E+00 0.00000E+00
 -1        15 0.00000E+00 0.00000E+00 0.00000E+00
 -1        16 0.00000E+00 0.00000E+00 0.00000E+00
 -1        17 0.00000E+00 0.00000E+00 0.00000E+00
 -1        18 0.00000E+00 0.00000E+00 0.00000E+00
 -1        19 0.00000E+00 0.00000E+00 0.00000E+00
 -1        20 0.00000E+00 0.00000E+00 0.00000E+00
 -1        21 0.00000E+00 0.00000E+00 0.00000E+00
 -1        22 0.00000E+00 0.00000E+00 0.00000E+00
 -1        23 3.98598E-04-2.55447E-04 3.78691E-17
 -1        24 6.79685E-04-3.95294E-04-6.57704E-17
 -1        25 9.38065E-04-4.93729E-04-3.06968E-16
 -1        26 1.18992E-03-5.64033E-04-6.82705E-16
 -1        27 1.43992E-03-6.14752E-04-1.18972E-15
 -1        28 1.69026E-03-6.50857E-04-1.82560E-15
 -1        29 1.94207E-03-6.75729E-04-2.58972E-15
 -1        30 2.19591E-03-6.91794E-04-3.48050E-15
 -1        31 2.45213E-03-7.00853E-04-4.49801E-15
 -1        32 2.71094E-03-7.04281E-04-5.63505E-15
 -1        33 2.97259E-03-7.03169E-04-6.88989E-15
 -1        34 3.23739E-03-6.98445E-04-8.25555E-15
 -1        35 3.50575E-03-6.90986E-04-9.73404E-15
 -1        36 3.77824E-03-6.81738E-04-1.13256E-14
 -1        37 4.05552E-03-6.71829E-04-1.30250E-14
 -1        38 4.33832E-03-6.62690E-04-1.48290E-14
 -1        39 4.62727E-03-6.56142E-04-1.67398E-14
 -1        40 4.92271E-03-6.54435E-04-1.87580E-14
 -1        41 5.22438E-03-6.60150E-04-2.08811E-14
 -1        42 5.53102E-03-6.75894E-04-2.31082E-14
 -1        43 5.83993E-03-7.03649E-04-2.54431E-14
 -1        44 6.14686E-03-7.43740E-04-2.78963E-14
 -1        45 6.44630E-03-7.93529E-04-3.04711E-14
 -1        46 6.73277E-03-8.46319E-04-3.31702E-14
 -1        47 7.00290E-03-8.91340E-04-3.59958E-14
 -1        48 7.25783E-03-9.15697E-04-3.89505E-14
 -1        49 7.50438E-03-9.08282E-04-4.20375E-14
 -1        50 7.75370E-03-8.64078E-04-4.52506E-14
 -1        51 8.01755E-03-7.86094E-04-4.85684E-14
 -1        52 8.30444E-03-6.82838E-04-5.19595E-14
 -1        53 8.62000E-03-5.62929E-04-5.53779E-14
 -1        54 8.97550E-03-4.35283E-04-5.87841E-14
 -1        55 9.38879E-03-3.29401E-04-6.21722E-14
 -1        56 9.84331E-03-2.99859E-04-6.56353E-14
 -1        57 1.02650E-02-3.35564E-04-6.93311E-14
 -1        58 1.06304E-02-3.09491E-04-7.32207E-14
 -1        59 1.10086E-02-2.02135E-04-7.69899E-14
 -1        60 1.13226E-02-1.52170E-04-8.07436E-14
 -1        61 1.16306E-02-1.06812E-04-8.45226E-14
 -1        62 1.19334E-02-6.42873E-05-8.83361E-14
 -1        63 1.22317E-02-2.32588E-05-9.21761E-14
 -1        64 1.25265E-02 1.72212E-05-9.60132E-14
 -1        65 1.28183E-02 5.77886E-05-9.98512E-14
 -1        66 1.31080E-02 9.88427E-05-1.03690E-13
 -1        67 1.33960E-02 1.40614E-04-1.07519E-13
 -1        68 1.36829E-02 1.83212E-04-1.11342E-13
 -1        69 1.39690E-02 2.26663E-04-1.15164E-13
 -1        70 1.42547E-02 2.70912E-04-1.18981E-13
 -1        71 1.45403E-02 3.15787E-04-1.22814E-13
 -1        72 3.94825E-04 2.46518E-04 5.46777E-17
 -1        73 6.72795E-04 3.77332E-04-1.89058E-17
 -1        74 9.34525E-04 4.63527E-04-2.18216E-16
 -1        75 1.19183E-03 5.22764E-04-5.43734E-16
 -1        76 1.44927E-03 5.63261E-04-9.98157E-16
 -1        77 1.70896E-03 5.90209E-04-1.57997E-15
 -1        78 1.97190E-03 6.07190E-04-2.28817E-15
 -1        79 2.23862E-03 6.16810E-04-3.11947E-15
 -1        80 2.50942E-03 6.21033E-04-4.07422E-15
 -1        81 2.78453E-03 6.21380E-04-5.15075E-15
 -1        82 3.06423E-03 6.19074E-04-6.34817E-15
 -1        83 3.34892E-03 6.15156E-04-7.66365E-15
 -1        84 3.63920E-03 6.10616E-04-9.09570E-15
 -1        85 3.93592E-03 6.06521E-04-1.06454E-14
 -1        86 4.24022E-03 6.04180E-04-1.23129E-14
 -1        87 4.55359E-03 6.05342E-04-1.40919E-14
 -1        88 4.87772E-03 6.12445E-04-1.59785E-14
 -1        89 5.21444E-03 6.28885E-04-1.79742E-14
 -1        90 5.56524E-03 6.59276E-04-2.00884E-14
 -1        91 5.93056E-03 7.09488E-04-2.23237E-14
 -1        92 6.30849E-03 7.86131E-04-2.46778E-14
 -1        93 6.69322E-03 8.94842E-04-2.71447E-14
 -1        94 7.07370E-03 1.03670E-03-2.97320E-14
 -1        95 7.43441E-03 1.20285E-03-3.24398E-14
 -1        96 7.76040E-03 1.36990E-03-3.52685E-14
 -1        97 8.04674E-03 1.50194E-03-3.82079E-14
 -1        98 8.30652E-03 1.56401E-03-4.12535E-14
 -1        99 8.56810E-03 1.54142E-03-4.43959E-14
 -1       100 8.86011E-03 1.44956E-03-4.76255E-14
 -1       101 9.19624E-03 1.32373E-03-5.09370E-14
 -1       102 9.57873E-03 1.19777E-03-5.43121E-14
 -1       103 9.95758E-03 1.11344E-03-5.77473E-14
 -1       104 1.03402E-02 1.06269E-03-6.12274E-14
 -1       105 1.07157E-02 1.04383E-03-6.47452E-14
 -1       106 1.10783E-02 1.05064E-03-6.83009E-14
 -1       107 1.14267E-02 1.07610E-03-7.19072E-14
 -1       108 1.17615E-02 1.11414E-03-7.55579E-14
 -1       109 1.20845E-02 1.16010E-03-7.92557E-14
 -1       110 1.23980E-02 1.21065E-03-8.29844E-14
 -1       111 1.27038E-02 1.26356E-03-8.67403E-14
 -1       112 1.30037E-02 1.31736E-03-9.05249E-14
 -1       113 1.32992E-02 1.37114E-03-9.43335E-14
 -1       114 1.35914E-02 1.42438E-03-9.81550E-14
 -1       115 1.38811E-02 1.47679E-03-1.01986E-13
 -1       116 1.41691E-02 1.52823E-03-1.05809E-13
 -1       117 1.44560E-02 1.57867E-03-1.09650E-13
 -1       118 1.47420E-02 1.62815E-03-1.13515E-13
 -1       119 1.50277E-02 1.67676E-03-1.17400E-13
 -1       120 1.53132E-02 1.72472E-03-1.21296E-13
 -1       121 1.55377E-02 1.68568E-03-1.25138E-13
 -1       122 1.54911E-02 1.60125E-03-1.25306E-13
 -1       123 1.54451E-02 1.51695E-03-1.25452E-13
 -1       124 1.53996E-02 1.43305E-03-1.25579E-13
 -1       125 1.53546E-02 1.34972E-03-1.25691E-13
 -1       126 1.53106E-02 1.26841E-03-1.25805E-13
 -1       127 1.52657E-02 1.18624E-03-1.25881E-13
 -1       128 1.52205E-02 1.10444E-03-1.25937E-13
 -1       129 1.51749E-02 1.02276E-03-1.25996E-13
 -1       130 1.51290E-02 9.40958E-04-1.26048E-13
 -1       131 1.50827E-02 8.58782E-04-1.26093E-13
 -1       132 1.50371E-02 7.77473E-04-1.26163E-13
 -1       133 1.49910E-02 6.94156E-04-1.26231E-13
 -1       134 1.49452E-02 6.10277E-04-1.26297E-13
 -1       135 1.49000E-02 5.25996E-04-1.26362E-13
 -1       136 1.48553E-02 4.41596E-04-1.26427E-13
 -1       137 1.03558E-02 4.95664E-04-4.96049E-14
 -1       138 1.02283E-02 6.55114E-04-4.90662E-14
 -1       139 9.97883E-03 8.28008E-04-4.80672E-14
 -1       140 9.65239E-03 9.70936E-04-4.68265E-14
 -1       141 9.25947E-03 1.08296E-03-4.54152E-14
 -1       142 8.81517E-03 1.15765E-03-4.38909E-14
 -1       143 8.30009E-03 1.19051E-03-4.21869E-14
 -1       144 7.72965E-03 1.16509E-03-4.03493E-14
 -1       145 7.23958E-03 1.09214E-03-3.88092E-14
 -1       146 6.74231E-03 9.61511E-04-3.72612E-14
 -1       147 6.37256E-03 8.15771E-04-3.61201E-14
 -1       148 6.05920E-03 6.33613E-04-3.51586E-14
 -1       149 5.86931E-03 4.53343E-04-3.45871E-14
 -1       150 5.78616E-03 2.78744E-04-3.43434E-14
 -1       151 5.80191E-03 1.04536E-04-3.44031E-14
 -1       152 5.91053E-03-5.03231E-05-3.47412E-14
 -1       153 6.11434E-03-1.98868E-04-3.53730E-14
 -1       154 6.39206E-03-3.22025E-04-3.62354E-14
 -1       155 6.74358E-03-4.22429E-04-3.73270E-14
 -1       156 7.13217E-03-4.91336E-04-3.85416E-14
 -1       157 7.61028E-03-5.34092E-04-4.00466E-14
 -1       158 8.09177E-03-5.40115E-04-4.15793E-14
 -1       159 8.99212E-03-4.66002E-04-4.45192E-14
 -1       160 9.41117E-03-3.85328E-04-4.59760E-14
 -1       161 9.87095E-03-2.20035E-04-4.76860E-14
 -1       162 1.03249E-02 1.35291E-04-4.97155E-14
 -1       163 2.31020E-04-1.24628E-04-2.50247E-17
 -1       164 2.16091E-04-9.54289E-05-4.42592E-17
 -1       165 2.10529E-04-7.49272E-05-5.47014E-17
 -1       166 2.07962E-04-5.83852E-05-6.01190E-17
 -1       167 2.06758E-04-4.42078E-05-6.28871E-17
 -1       168 2.06246E-04-3.10157E-05-6.40391E-17
 -1       169 2.06172E-04-1.84979E-05-6.42593E-17
 -1       170 2.06401E-04-6.22794E-06-6.42830E-17
 -1       171 2.06879E-04 6.16476E-06-6.35817E-17
 -1       172 2.07616E-04 1.90524E-05-6.20841E-17
 -1       173 2.08672E-04 3.26231E-05-5.93770E-17
 -1       174 2.10305E-04 4.79193E-05-5.49386E-17
 -1       175 2.13031E-04 6.56436E-05-4.75999E-17
 -1       176 2.18306E-04 8.76085E-05-3.50130E-17
 -1       177 2.30957E-04 1.18606E-04-1.33730E-17
 -1       178 2.85965E-04 1.74054E-04 9.45289E-18
 -1       179 4.51030E-04-2.60715E-04-6.93686E-17
 -1       180 7.37009E-04-3.79980E-04-2.68584E-16
 -1       181 1.00834E-03-4.64460E-04-5.95847E-16
 -1       182 1.27268E-03-5.24991E-04-1.05155E-15
 -1       183 1.53369E-03-5.68102E-04-1.63328E-15
 -1       184 1.79350E-03-5.98098E-04-2.34075E-15
 -1       185 2.05338E-03-6.17971E-04-3.17352E-15
 -1       186 2.31411E-03-6.29880E-04-4.13023E-15
 -1       187 2.57621E-03-6.35432E-04-5.20778E-15
 -1       188 2.84007E-03-6.35851E-04-6.40231E-15
 -1       189 3.10606E-03-6.32122E-04-7.71080E-15
 -1       190 3.37455E-03-6.25112E-04-9.12912E-15
 -1       191 3.64596E-03-6.15692E-04-1.06584E-14
 -1       192 3.92080E-03-6.04860E-04-1.22961E-14
 -1       193 4.19956E-03-5.93873E-04-1.40403E-14
 -1       194 4.48275E-03-5.84363E-04-1.58888E-14
 -1       195 4.77071E-03-5.78425E-04-1.78408E-14
 -1       196 5.06349E-03-5.78623E-04-1.98967E-14
 -1       197 5.36063E-03-5.87817E-04-2.20545E-14
 -1       198 5.66095E-03-6.08706E-04-2.43144E-14
 -1       199 5.96234E-03-6.42949E-04-2.66835E-14
 -1       200 6.26186E-03-6.89866E-04-2.91661E-14
 -1       201 6.55610E-03-7.44951E-04-3.17649E-14
 -1       202 6.84218E-03-7.98962E-04-3.44835E-14
 -1       203 7.11923E-03-8.38681E-04-3.73226E-14
 -1       204 7.38963E-03-8.50167E-04-4.02842E-14
 -1       205 7.65923E-03-8.23766E-04-4.33682E-14
 -1       206 7.93596E-03-7.58278E-04-4.65667E-14
 -1       207 8.22720E-03-6.60963E-04-4.98553E-14
 -1       208 8.53765E-03-5.42374E-04-5.32031E-14
 -1       209 8.86838E-03-4.10420E-04-5.65521E-14
 -1       210 9.22469E-03-2.75284E-04-5.98467E-14
 -1       211 9.62441E-03-1.83760E-04-6.31205E-14
 -1       212 1.00620E-02-2.01674E-04-6.66619E-14
 -1       213 1.04906E-02-2.44909E-04-7.08151E-14
 -1       214 1.09031E-02-1.47208E-04-7.51543E-14
 -1       215 1.12143E-02-9.55643E-05-7.88889E-14
 -1       216 1.15209E-02-4.95168E-05-8.26488E-14
 -1       217 1.18233E-02-6.98588E-06-8.64372E-14
 -1       218 1.21218E-02 3.36164E-05-9.02550E-14
 -1       219 1.24171E-02 7.34279E-05-9.40864E-14
 -1       220 1.27099E-02 1.13218E-04-9.79155E-14
 -1       221 1.30005E-02 1.53473E-04-1.01740E-13
 -1       222 1.32895E-02 1.94476E-04-1.05569E-13
 -1       223 1.35772E-02 2.36372E-04-1.09391E-13
 -1       224 1.38642E-02 2.79207E-04-1.13215E-13
 -1       225 1.41505E-02 3.22953E-04-1.17036E-13
 -1       226 1.44364E-02 3.67497E-04-1.20861E-13
 -1       227 5.81569E-04 3.07856E-04-8.36733E-17
 -1       228 8.61207E-04 3.98788E-04-2.94700E-16
 -1       229 1.13214E-03 4.60731E-04-6.27756E-16
 -1       230 1.39980E-03 5.02697E-04-1.08524E-15
 -1       231 1.66710E-03 5.30351E-04-1.66720E-15
 -1       232 1.93568E-03 5.47544E-04-2.37400E-15
 -1       233 2.20650E-03 5.57043E-04-3.20362E-15
 -1       234 2.48016E-03 5.60906E-04-4.15483E-15
 -1       235 2.75710E-03 5.60698E-04-5.22581E-15
 -1       236 3.03773E-03 5.57656E-04-6.41670E-15
 -1       237 3.32247E-03 5.52808E-04-7.72538E-15
 -1       238 3.61188E-03 5.47103E-04-9.14825E-15
 -1       239 3.90665E-03 5.41545E-04-1.06865E-14
 -1       240 4.20767E-03 5.37356E-04-1.23400E-14
 -1       241 4.51602E-03 5.36182E-04-1.41060E-14
 -1       242 4.83290E-03 5.40343E-04-1.59793E-14
 -1       243 5.15954E-03 5.53142E-04-1.79630E-14
 -1       244 5.49695E-03 5.79162E-04-2.00606E-14
 -1       245 5.84545E-03 6.24421E-04-2.22751E-14
 -1       246 6.20402E-03 6.96016E-04-2.46115E-14
 -1       247 6.56947E-03 8.00613E-04-2.70598E-14
 -1       248 6.93577E-03 9.40962E-04-2.96275E-14
 -1       249 7.29428E-03 1.11015E-03-3.23139E-14
 -1       250 7.63610E-03 1.28568E-03-3.51209E-14
 -1       251 7.95711E-03 1.42968E-03-3.80519E-14
 -1       252 8.26304E-03 1.50230E-03-4.10952E-14
 -1       253 8.56898E-03 1.48410E-03-4.42347E-14
 -1       254 8.89109E-03 1.38955E-03-4.74631E-14
 -1       255 9.23706E-03 1.25705E-03-5.07733E-14
 -1       256 9.60127E-03 1.12844E-03-5.41494E-14
 -1       257 9.97204E-03 1.03740E-03-5.75763E-14
 -1       258 1.03359E-02 9.84394E-04-6.10498E-14
 -1       259 1.06938E-02 9.65096E-04-6.45658E-14
 -1       260 1.10421E-02 9.72642E-04-6.81229E-14
 -1       261 1.13798E-02 9.99447E-04-7.17235E-14
 -1       262 1.17073E-02 1.03904E-03-7.53662E-14
 -1       263 1.20256E-02 1.08652E-03-7.90514E-14
 -1       264 1.23361E-02 1.13847E-03-8.27726E-14
 -1       265 1.26404E-02 1.19257E-03-8.65228E-14
 -1       266 1.29397E-02 1.24737E-03-9.03053E-14
 -1       267 1.32350E-02 1.30197E-03-9.41072E-14
 -1       268 1.35275E-02 1.35587E-03-9.79247E-14
 -1       269 1.38177E-02 1.40879E-03-1.01753E-13
 -1       270 1.41062E-02 1.46063E-03-1.05580E-13
 -1       271 1.43936E-02 1.51137E-03-1.09418E-13
 -1       272 1.46802E-02 1.56107E-03-1.13280E-13
 -1       273 1.49663E-02 1.60983E-03-1.17158E-13
 -1       274 1.52521E-02 1.65784E-03-1.21049E-13
 -1       275 1.52669E-02 1.60235E-03-1.21851E-13
 -1       276 1.52206E-02 1.51827E-03-1.22000E-13
 -1       277 1.51750E-02 1.43451E-03-1.22134E-13
 -1       278 1.51299E-02 1.35118E-03-1.22264E-13
 -1       279 1.50860E-02 1.26975E-03-1.22372E-13
 -1       280 1.50413E-02 1.18736E-03-1.22465E-13
 -1       281 1.49964E-02 1.10532E-03-1.22547E-13
 -1       282 1.49510E-02 1.02347E-03-1.22619E-13
 -1       283 1.49052E-02 9.41609E-04-1.22686E-13
 -1       284 1.48590E-02 8.59556E-04-1.22751E-13
 -1       285 1.48133E-02 7.78549E-04-1.22817E-13
 -1       286 1.47669E-02 6.95698E-04-1.22884E-13
 -1       287 1.47207E-02 6.12367E-04-1.22947E-13
 -1       288 1.46751E-02 5.28610E-04-1.23008E-13
 -1       289 1.45556E-02 4.48081E-04-1.21941E-13
 -1       290 1.04131E-02 3.71058E-04-5.12769E-14
 -1       291 1.02873E-02 4.78061E-04-5.06158E-14
 -1       292 1.00280E-02 5.91155E-04-5.00387E-14
 -1       293 9.66631E-03 7.71368E-04-4.86479E-14
 -1       294 9.29331E-03 9.72025E-04-4.68742E-14
 -1       295 8.90466E-03 1.13812E-03-4.51010E-14
 -1       296 8.49088E-03 1.25255E-03-4.32324E-14
 -1       297 8.06415E-03 1.26920E-03-4.11193E-14
 -1       298 7.61559E-03 1.16117E-03-3.91955E-14
 -1       299 7.17499E-03 9.75544E-04-3.73495E-14
 -1       300 6.70715E-03 7.68355E-04-3.59185E-14
 -1       301 6.30904E-03 5.59880E-04-3.46230E-14
 -1       302 5.97938E-03 4.09410E-04-3.38389E-14
 -1       303 5.79702E-03 3.02056E-04-3.34691E-14
 -1       304 5.75807E-03 2.07170E-04-3.33886E-14
 -1       305 5.85612E-03 1.18540E-04-3.33824E-14
 -1       306 6.06944E-03-1.16909E-05-3.41609E-14
 -1       307 6.36665E-03-1.62093E-04-3.50533E-14
 -1       308 6.70661E-03-3.25272E-04-3.62175E-14
 -1       309 7.05713E-03-4.72389E-04-3.75940E-14
 -1       310 7.42704E-03-5.78470E-04-3.92100E-14
 -1       311 7.80598E-03-6.12369E-04-4.10654E-14
 -1       312 8.18850E-03-5.52636E-04-4.29157E-14
 -1       313 8.61248E-03-4.43187E-04-4.44841E-14
 -1       314 9.02281E-03-3.00503E-04-4.61047E-14
 -1       315 9.48306E-03-9.78273E-05-4.79781E-14
 -1       316 1.00269E-02 1.28284E-04-4.98757E-14
 -1       317 1.03911E-02 2.75332E-04-5.11555E-14
 -1       318 4.36493E-04-1.67943E-04-1.87384E-16
 -1       319 4.54915E-04-2.13574E-04-1.56169E-16
 -1       320 4.22680E-04-1.01306E-04-2.16241E-16
 -1       321 4.20391E-04-7.39490E-05-2.21794E-16
 -1       322 4.19495E-04-4.85116E-05-2.24247E-16
 -1       323 4.19542E-04-2.40157E-05-2.24718E-16
 -1       324 4.20328E-04 3.25802E-07-2.23156E-16
 -1       325 4.21809E-04 2.52461E-05-2.19500E-16
 -1       326 4.24050E-04 5.10719E-05-2.13249E-16
 -1       327 4.27476E-04 7.96547E-05-2.03532E-16
 -1       328 4.32870E-04 1.11958E-04-1.88262E-16
 -1       329 4.42118E-04 1.50261E-04-1.64341E-16
 -1       330 4.60453E-04 1.98950E-04-1.27438E-16
 -1       331 5.13518E-04 2.49554E-04-1.12218E-16
 -1       332 7.96761E-04 3.42242E-04-3.29238E-16
 -1       333 8.27572E-04-3.59200E-04-4.95057E-16
 -1       334 1.10113E-03-4.29888E-04-9.02822E-16
 -1       335 1.37073E-03-4.80859E-04-1.43462E-15
 -1       336 1.63790E-03-5.16841E-04-2.08896E-15
 -1       337 1.90381E-03-5.41279E-04-2.86575E-15
 -1       338 2.16932E-03-5.56698E-04-3.76444E-15
 -1       339 2.43506E-03-5.64963E-04-4.78295E-15
 -1       340 2.70148E-03-5.67474E-04-5.91831E-15
 -1       341 2.96895E-03-5.65310E-04-7.16859E-15
 -1       342 3.23783E-03-5.59366E-04-8.52969E-15
 -1       343 3.50846E-03-5.50466E-04-9.99983E-15
 -1       344 3.78123E-03-5.39496E-04-1.15786E-14
 -1       345 4.05656E-03-5.27526E-04-1.32632E-14
 -1       346 4.33490E-03-5.15948E-04-1.50512E-14
 -1       347 4.61672E-03-5.06590E-04-1.69409E-14
 -1       348 4.90245E-03-5.01789E-04-1.89312E-14
 -1       349 5.19236E-03-5.04359E-04-2.10218E-14
 -1       350 5.48646E-03-5.17351E-04-2.32107E-14
 -1       351 5.78426E-03-5.43465E-04-2.55031E-14
 -1       352 6.08449E-03-5.83976E-04-2.78990E-14
 -1       353 6.38486E-03-6.37157E-04-3.04028E-14
 -1       354 6.68228E-03-6.96568E-04-3.30192E-14
 -1       355 6.97377E-03-7.50200E-04-3.57485E-14
 -1       356 7.25828E-03-7.82086E-04-3.85908E-14
 -1       357 7.53842E-03-7.77343E-04-4.15514E-14
 -1       358 7.82052E-03-7.28596E-04-4.46271E-14
 -1       359 8.11227E-03-6.40188E-04-4.78134E-14
 -1       360 8.41879E-03-5.25439E-04-5.10861E-14
 -1       361 8.74023E-03-3.98485E-04-5.44093E-14
 -1       362 9.06193E-03-2.64194E-04-5.77023E-14
 -1       363 9.38884E-03-1.09788E-04-6.08072E-14
 -1       364 9.79376E-03-1.81326E-05-6.37459E-14
 -1       365 1.02774E-02-1.21310E-04-6.74938E-14
 -1       366 1.08100E-02-9.40914E-05-7.33259E-14
 -1       367 1.11177E-02-4.03504E-05-7.70408E-14
 -1       368 1.14214E-02 6.80708E-06-8.07863E-14
 -1       369 1.17216E-02 4.97159E-05-8.45533E-14
 -1       370 1.20186E-02 9.01933E-05-8.83463E-14
 -1       371 1.23130E-02 1.29563E-04-9.21631E-14
 -1       372 1.26052E-02 1.68734E-04-9.59862E-14
 -1       373 1.28957E-02 2.08292E-04-9.98093E-14
 -1       374 1.31848E-02 2.48584E-04-1.03626E-13
 -1       375 1.34728E-02 2.89794E-04-1.07446E-13
 -1       376 1.37600E-02 3.31993E-04-1.11266E-13
 -1       377 1.40466E-02 3.75176E-04-1.15083E-13
 -1       378 1.43012E-02 4.11307E-04-1.18509E-13
 -1       379 1.07412E-03 4.06526E-04-6.64667E-16
 -1       380 1.34785E-03 4.50235E-04-1.12130E-15
 -1       381 1.62022E-03 4.79026E-04-1.69996E-15
 -1       382 1.89278E-03 4.96883E-04-2.40150E-15
 -1       383 2.16656E-03 5.06697E-04-3.22508E-15
 -1       384 2.44226E-03 5.10612E-04-4.16920E-15
 -1       385 2.72040E-03 5.10253E-04-5.23205E-15
 -1       386 3.00140E-03 5.06880E-04-6.41396E-15
 -1       387 3.28567E-03 5.01528E-04-7.71240E-15
 -1       388 3.57369E-03 4.95125E-04-9.12340E-15
 -1       389 3.86600E-03 4.88631E-04-1.06484E-14
 -1       390 4.16329E-03 4.83197E-04-1.22872E-14
 -1       391 4.46636E-03 4.80362E-04-1.40387E-14
 -1       392 4.77612E-03 4.82303E-04-1.58984E-14
 -1       393 5.09356E-03 4.92139E-04-1.78664E-14
 -1       394 5.41969E-03 5.14247E-04-1.99465E-14
 -1       395 5.75529E-03 5.54485E-04-2.21419E-14
 -1       396 6.10073E-03 6.20015E-04-2.44572E-14
 -1       397 6.45534E-03 7.18154E-04-2.68863E-14
 -1       398 6.81666E-03 8.53385E-04-2.94324E-14
 -1       399 7.17945E-03 1.02180E-03-3.20974E-14
 -1       400 7.53583E-03 1.20398E-03-3.48849E-14
 -1       401 7.87893E-03 1.36157E-03-3.78005E-14
 -1       402 8.20950E-03 1.44878E-03-4.08350E-14
 -1       403 8.53837E-03 1.43844E-03-4.39704E-14
 -1       404 8.87903E-03 1.34298E-03-4.71975E-14
 -1       405 9.23594E-03 1.20573E-03-5.05063E-14
 -1       406 9.60217E-03 1.07332E-03-5.38814E-14
 -1       407 9.96809E-03 9.76728E-04-5.73065E-14
 -1       408 1.03268E-02 9.21405E-04-6.07729E-14
 -1       409 1.06739E-02 9.01389E-04-6.42844E-14
 -1       410 1.10117E-02 9.08941E-04-6.78384E-14
 -1       411 1.13402E-02 9.36169E-04-7.14323E-14
 -1       412 1.16604E-02 9.76405E-04-7.50705E-14
 -1       413 1.19733E-02 1.02463E-03-7.87468E-14
 -1       414 1.22801E-02 1.07732E-03-8.24586E-14
 -1       415 1.25818E-02 1.13213E-03-8.62043E-14
 -1       416 1.28794E-02 1.18757E-03-8.99804E-14
 -1       417 1.31739E-02 1.24273E-03-9.37782E-14
 -1       418 1.34658E-02 1.29709E-03-9.75933E-14
 -1       419 1.37559E-02 1.35041E-03-1.01418E-13
 -1       420 1.40445E-02 1.40258E-03-1.05243E-13
 -1       421 1.43320E-02 1.45359E-03-1.09081E-13
 -1       422 1.46188E-02 1.50350E-03-1.12940E-13
 -1       423 1.49050E-02 1.55242E-03-1.16815E-13
 -1       424 1.50860E-02 1.57752E-03-1.19330E-13
 -1       425 1.49052E-02 1.35171E-03-1.18828E-13
 -1       426 1.49503E-02 1.43507E-03-1.18697E-13
 -1       427 1.50179E-02 1.50618E-03-1.19017E-13
 -1       428 1.48613E-02 1.27026E-03-1.18947E-13
 -1       429 1.48168E-02 1.18788E-03-1.19053E-13
 -1       430 1.47722E-02 1.10590E-03-1.19146E-13
 -1       431 1.47272E-02 1.02417E-03-1.19232E-13
 -1       432 1.46816E-02 9.42517E-04-1.19313E-13
 -1       433 1.46355E-02 8.60764E-04-1.19394E-13
 -1       434 1.45897E-02 7.80134E-04-1.19468E-13
 -1       435 1.45431E-02 6.97717E-04-1.19539E-13
 -1       436 1.44965E-02 6.14826E-04-1.19603E-13
 -1       437 1.44504E-02 5.31447E-04-1.19667E-13
 -1       438 1.01922E-02 4.71866E-04-5.18131E-14
 -1       439 1.04401E-02 3.35036E-04-5.30673E-14
 -1       440 1.03716E-02 3.96515E-04-5.24804E-14
 -1       441 9.82710E-03 6.30931E-04-5.05364E-14
 -1       442 9.39540E-03 8.57357E-04-4.85217E-14
 -1       443 4.27227E-04-1.31835E-04-2.05704E-16
 -1       444 8.67799E-03 1.21725E-03-4.46137E-14
 -1       445 8.29525E-03 1.31900E-03-4.22918E-14
 -1       446 7.86127E-03 1.24114E-03-3.96965E-14
 -1       447 7.49285E-03 1.07863E-03-3.78069E-14
 -1       448 6.99968E-03 8.07504E-04-3.57092E-14
 -1       449 6.60615E-03 6.04942E-04-3.44453E-14
 -1       450 6.14744E-03 3.86452E-04-3.29409E-14
 -1       451 5.86385E-03 2.93074E-04-3.25825E-14
 -1       452 5.74308E-03 2.29697E-04-3.22920E-14
 -1       453 5.76526E-03 1.80672E-04-3.22886E-14
 -1       454 5.97842E-03 8.25013E-05-3.28281E-14
 -1       455 6.24374E-03-4.01861E-05-3.37194E-14
 -1       456 6.58560E-03-2.12650E-04-3.49275E-14
 -1       457 6.94091E-03-3.95343E-04-3.62414E-14
 -1       458 7.26892E-03-5.46227E-04-3.81307E-14
 -1       459 7.59145E-03-6.30276E-04-4.00972E-14
 -1       460 7.94455E-03-5.99243E-04-4.23937E-14
 -1       461 8.35140E-03-4.61125E-04-4.45001E-14
 -1       462 8.70456E-03-3.05169E-04-4.60760E-14
 -1       463 9.10120E-03-1.16167E-04-4.79249E-14
 -1       464 9.69858E-03 8.19529E-05-4.99517E-14
 -1       465 1.02636E-02 2.62023E-04-5.22313E-14
 -1       466 9.01916E-03 1.05944E-03-4.66810E-14
 -1       467 1.00444E-02 5.26069E-04-5.23371E-14
 -1       468 8.11240E-03-5.27050E-04-4.39330E-14
 -1       469 5.83252E-03 1.39136E-04-3.17275E-14
 -1       470 7.27064E-03 9.34007E-04-3.61457E-14
 -1       471 9.02870E-04 3.11426E-04-5.64493E-16
 -1       472 6.40074E-04-8.94278E-05-4.76022E-16
 -1       473 6.42921E-04-1.27804E-04-4.68450E-16
 -1       474 6.39801E-04-1.73399E-05-4.77503E-16
 -1       475 6.41706E-04 1.85795E-05-4.72123E-16
 -1       476 6.44894E-04 5.51468E-05-4.62863E-16
 -1       477 6.49805E-04 9.47574E-05-4.47867E-16
 -1       478 6.57200E-04 1.38225E-04-4.25607E-16
 -1       479 6.68787E-04 1.87459E-04-3.92569E-16
 -1       480 1.18116E-03 3.62196E-04-9.80315E-16
 -1       481 9.34930E-04-3.34650E-04-7.46900E-16
 -1       482 8.80883E-03 1.17736E-03-4.59801E-14
 -1       483 1.20802E-03-3.91672E-04-1.23039E-15
 -1       484 1.47986E-03-4.33200E-04-1.83399E-15
 -1       485 1.75048E-03-4.62277E-04-2.55794E-15
 -1       486 2.02022E-03-4.81491E-04-3.40088E-15
 -1       487 2.28948E-03-4.92854E-04-4.36248E-15
 -1       488 2.55858E-03-4.97903E-04-5.44051E-15
 -1       489 2.82782E-03-4.97810E-04-6.63191E-15
 -1       490 3.09746E-03-4.93507E-04-7.93583E-15
 -1       491 3.36776E-03-4.85788E-04-9.34970E-15
 -1       492 3.63901E-03-4.75433E-04-1.08707E-14
 -1       493 3.91153E-03-4.63328E-04-1.24975E-14
 -1       494 4.18574E-03-4.50585E-04-1.42275E-14
 -1       495 4.46218E-03-4.38679E-04-1.60580E-14
 -1       496 4.74150E-03-4.29556E-04-1.79857E-14
 -1       497 5.02454E-03-4.25709E-04-2.00115E-14
 -1       498 5.31224E-03-4.30153E-04-2.21342E-14
 -1       499 5.60545E-03-4.46187E-04-2.43552E-14
 -1       500 5.90458E-03-4.76780E-04-2.66745E-14
 -1       501 6.20886E-03-5.23316E-04-2.90918E-14
 -1       502 6.51564E-03-5.83528E-04-3.16117E-14
 -1       503 6.82029E-03-6.48971E-04-3.42364E-14
 -1       504 7.11779E-03-7.03551E-04-3.69659E-14
 -1       505 7.40639E-03-7.26742E-04-3.98045E-14
 -1       506 7.68996E-03-7.01774E-04-4.27561E-14
 -1       507 7.97737E-03-6.25720E-04-4.58207E-14
 -1       508 8.27674E-03-5.12727E-04-4.89988E-14
 -1       509 8.58994E-03-3.84866E-04-5.22778E-14
 -1       510 8.92751E-03-2.60973E-04-5.56355E-14
 -1       511 9.24403E-03-1.45357E-04-5.89374E-14
 -1       512 9.45353E-03 9.60354E-05-6.13556E-14
 -1       513 9.76028E-03 1.59838E-04-6.31668E-14
 -1       514 1.02983E-02-1.03006E-04-6.80079E-14
 -1       515 1.10315E-02 1.35967E-05-7.51994E-14
 -1       516 1.13315E-02 6.17645E-05-7.89270E-14
 -1       517 1.16283E-02 1.05142E-04-8.26754E-14
 -1       518 1.19224E-02 1.45688E-04-8.64493E-14
 -1       519 1.22145E-02 1.84846E-04-9.02454E-14
 -1       520 1.25050E-02 2.23626E-04-9.40580E-14
 -1       521 1.27943E-02 2.62687E-04-9.78744E-14
 -1       522 1.30826E-02 3.02432E-04-1.01689E-13
 -1       523 1.33701E-02 3.43080E-04-1.05502E-13
 -1       524 1.36570E-02 3.84727E-04-1.09318E-13
 -1       525 1.39435E-02 4.27386E-04-1.13129E-13
 -1       526 1.03256E-02 4.21250E-04-5.39805E-14
 -1       527 1.73521E-03 4.18826E-04-2.16910E-15
 -1       528 2.01215E-03 4.31729E-04-2.94384E-15
 -1       529 2.28985E-03 4.37796E-04-3.83754E-15
 -1       530 2.56878E-03 4.38854E-04-4.84958E-15
 -1       531 2.84934E-03 4.36309E-04-5.97929E-15
 -1       532 3.13184E-03 4.31276E-04-7.22467E-15
 -1       533 3.41660E-03 4.24694E-04-8.58282E-15
 -1       534 3.70394E-03 4.17456E-04-1.00521E-14
 -1       535 3.99424E-03 4.10542E-04-1.16332E-14
 -1       536 4.28795E-03 4.05188E-04-1.33269E-14
 -1       537 4.58561E-03 4.03090E-04-1.51295E-14
 -1       538 4.88793E-03 4.06653E-04-1.70400E-14
 -1       539 5.19591E-03 4.19284E-04-1.90581E-14
 -1       540 5.51095E-03 4.45687E-04-2.11886E-14
 -1       541 5.83505E-03 4.92072E-04-2.34354E-14
 -1       542 6.17089E-03 5.66015E-04-2.57969E-14
 -1       543 6.52116E-03 6.75361E-04-2.82727E-14
 -1       544 6.88668E-03 8.25007E-04-3.08662E-14
 -1       545 7.26321E-03 1.00964E-03-3.35813E-14
 -1       546 7.63913E-03 1.20266E-03-3.64272E-14
 -1       547 8.00401E-03 1.34941E-03-3.94030E-14
 -1       548 8.35868E-03 1.39258E-03-4.24991E-14
 -1       549 8.71916E-03 1.32060E-03-4.56947E-14
 -1       550 9.09482E-03 1.17829E-03-4.89810E-14
 -1       551 9.47655E-03 1.02890E-03-5.23415E-14
 -1       552 9.85082E-03 9.13436E-04-5.57481E-14
 -1       553 1.02100E-02 8.43385E-04-5.91934E-14
 -1       554 1.05489E-02 8.14032E-04-6.26846E-14
 -1       555 1.08754E-02 8.14945E-04-6.62206E-14
 -1       556 1.11925E-02 8.37659E-04-6.97929E-14
 -1       557 1.15026E-02 8.75066E-04-7.34070E-14
 -1       558 1.18073E-02 9.21749E-04-7.70640E-14
 -1       559 1.21079E-02 9.73830E-04-8.07560E-14
 -1       560 1.24051E-02 1.02866E-03-8.44816E-14
 -1       561 1.26997E-02 1.08451E-03-8.82381E-14
 -1       562 1.29922E-02 1.14030E-03-9.20223E-14
 -1       563 1.32829E-02 1.19539E-03-9.58233E-14
 -1       564 1.35722E-02 1.24946E-03-9.96395E-14
 -1       565 1.38605E-02 1.30236E-03-1.03463E-13
 -1       566 1.41480E-02 1.35405E-03-1.07293E-13
 -1       567 1.44348E-02 1.40458E-03-1.11139E-13
 -1       568 1.47212E-02 1.45404E-03-1.15007E-13
 -1       569 1.45923E-02 1.18766E-03-1.15639E-13
 -1       570 1.45481E-02 1.10587E-03-1.15745E-13
 -1       571 1.46803E-02 1.35144E-03-1.15400E-13
 -1       572 1.46362E-02 1.26926E-03-1.15527E-13
 -1       573 1.45034E-02 1.02446E-03-1.15846E-13
 -1       574 1.44582E-02 9.43238E-04-1.15939E-13
 -1       575 1.44123E-02 8.61991E-04-1.16029E-13
 -1       576 1.43665E-02 7.81903E-04-1.16112E-13
 -1       577 1.43196E-02 7.00044E-04-1.16190E-13
 -1       578 1.42727E-02 6.17669E-04-1.16262E-13
 -1       579 1.42260E-02 5.34714E-04-1.16327E-13
 -1       580 9.61380E-03 7.35768E-04-5.07693E-14
 -1       581 1.45845E-03 3.96689E-04-1.51466E-15
 -1       582 1.04599E-02 3.69373E-04-5.45846E-14
 -1       583 9.98397E-03 2.01283E-04-5.24230E-14
 -1       584 1.04380E-02 3.30420E-04-5.48002E-14
 -1       585 5.76125E-03 2.25118E-04-3.10996E-14
 -1       586 6.39195E-04-5.29967E-05-4.78787E-16
 -1       587 8.03727E-03 1.30691E-03-4.03169E-14
 -1       588 5.94041E-03 2.80130E-04-3.13936E-14
 -1       589 8.47698E-03 1.31426E-03-4.36345E-14
 -1       590 7.70134E-03 1.17311E-03-3.81718E-14
 -1       591 6.80795E-03 6.62294E-04-3.39998E-14
 -1       592 6.09862E-03 2.74338E-05-3.22505E-14
 -1       593 6.35962E-03 4.40283E-04-3.25285E-14
 -1       594 5.71355E-03 1.92050E-04-3.11646E-14
 -1       595 6.40617E-03-1.16180E-04-3.33767E-14
 -1       596 6.72063E-03-2.84536E-04-3.46621E-14
 -1       597 7.14646E-03-5.05860E-04-3.70546E-14
 -1       598 7.42553E-03-6.11124E-04-3.90004E-14
 -1       599 7.75052E-03-6.30362E-04-4.15727E-14
 -1       600 8.49114E-03-3.25752E-04-4.64567E-14
 -1       601 8.80745E-03-1.51556E-04-4.80370E-14
 -1       602 9.31119E-03 5.97398E-06-4.99454E-14
 -1       603 6.82741E-04-2.56403E-04-4.20423E-16
 -1       604 6.81680E-04 2.64327E-04-3.05958E-16
 -1       605 9.21887E-03 9.51890E-04-4.84963E-14
 -1       606 6.48728E-04-1.69390E-04-4.54721E-16
 -1       607 9.86177E-03 6.25634E-04-5.25863E-14
 -1       608 1.41360E-02 4.55118E-04-1.15709E-13
 -1       609 6.92134E-03-4.11781E-04-3.54441E-14
 -1       610 6.09905E-03 3.25968E-04-3.09790E-14
 -1       611 5.91780E-03 8.56018E-05-3.11442E-14
 -1       612 7.04441E-03 7.93298E-04-3.44087E-14
 -1       613 5.72972E-03 1.57886E-04-3.06064E-14
 -1       614 7.90819E-03-5.87072E-04-4.31016E-14
 -1       615 8.29514E-03 1.34749E-03-4.21853E-14
 -1       616 8.70369E-04 4.66427E-05-8.05928E-16
 -1       617 8.66654E-04-2.05695E-08-8.17773E-16
 -1       618 8.84807E-04 1.46999E-04-7.58931E-16
 -1       619 8.97419E-04 2.03938E-04-7.18714E-16
 -1       620 1.01850E-03 2.76013E-04-8.28673E-16
 -1       621 1.04733E-02 4.03613E-04-5.63734E-14
 -1       622 1.29680E-03 3.14331E-04-1.32049E-15
 -1       623 1.32383E-03-3.49844E-04-1.57890E-15
 -1       624 1.59684E-03-3.82479E-04-2.25114E-15
 -1       625 1.86951E-03-4.05063E-04-3.04062E-15
 -1       626 2.14164E-03-4.19460E-04-3.94652E-15
 -1       627 2.41323E-03-4.27201E-04-4.96811E-15
 -1       628 2.68434E-03-4.29489E-04-6.10263E-15
 -1       629 2.95507E-03-4.27267E-04-7.34953E-15
 -1       630 3.22553E-03-4.21298E-04-8.70587E-15
 -1       631 3.49587E-03-4.12265E-04-1.01718E-14
 -1       632 3.76631E-03-4.00873E-04-1.17424E-14
 -1       633 4.03715E-03-3.87956E-04-1.34157E-14
 -1       634 4.30885E-03-3.74597E-04-1.51897E-14
 -1       635 4.58214E-03-3.62248E-04-1.70597E-14
 -1       636 4.85806E-03-3.52862E-04-1.90256E-14
 -1       637 5.13807E-03-3.49006E-04-2.10862E-14
 -1       638 5.42405E-03-3.53939E-04-2.32414E-14
 -1       639 5.71801E-03-3.71541E-04-2.54918E-14
 -1       640 6.02139E-03-4.05823E-04-2.78341E-14
 -1       641 6.33364E-03-4.59431E-04-3.02666E-14
 -1       642 6.65073E-03-5.30274E-04-3.27951E-14
 -1       643 6.96500E-03-6.07286E-04-3.54181E-14
 -1       644 7.26687E-03-6.65601E-04-3.81418E-14
 -1       645 7.55671E-03-6.77429E-04-4.09688E-14
 -1       646 7.83956E-03-6.23874E-04-4.38993E-14
 -1       647 8.12825E-03-5.13736E-04-4.69434E-14
 -1       648 8.42915E-03-3.79278E-04-5.01138E-14
 -1       649 8.72351E-03-2.38879E-04-5.34260E-14
 -1       650 9.05986E-03-8.49109E-05-5.68444E-14
 -1       651 1.00291E-02-1.36696E-04-6.25131E-14
 -1       652 9.19992E-03 8.62865E-05-6.04337E-14
 -1       653 8.10393E-03 2.76797E-04-5.63254E-14
 -1       654 1.04046E-02 9.47495E-05-7.03141E-14
 -1       655 1.12506E-02 1.15470E-04-7.70674E-14
 -1       656 1.15430E-02 1.58980E-04-8.08013E-14
 -1       657 1.18332E-02 1.99545E-04-8.45574E-14
 -1       658 1.21218E-02 2.38620E-04-8.83338E-14
 -1       659 1.24095E-02 2.77223E-04-9.21309E-14
 -1       660 1.26965E-02 3.16034E-04-9.59383E-14
 -1       661 1.29831E-02 3.55473E-04-9.97468E-14
 -1       662 1.32695E-02 3.95775E-04-1.03556E-13
 -1       663 1.35556E-02 4.37049E-04-1.07366E-13
 -1       664 1.38415E-02 4.79321E-04-1.11173E-13
 -1       665 7.56973E-03-6.41154E-04-4.03891E-14
 -1       666 1.85456E-03 3.56015E-04-2.65671E-15
 -1       667 2.69405E-03 3.66075E-04-5.54294E-15
 -1       668 2.97530E-03 3.61969E-04-6.73633E-15
 -1       669 3.25751E-03 3.55951E-04-8.04174E-15
 -1       670 3.54081E-03 3.48881E-04-9.45763E-15
 -1       671 3.82530E-03 3.41622E-04-1.09848E-14
 -1       672 4.11114E-03 3.35171E-04-1.26223E-14
 -1       673 4.39851E-03 3.30810E-04-1.43688E-14
 -1       674 4.68778E-03 3.30286E-04-1.62214E-14
 -1       675 4.97960E-03 3.36020E-04-1.81806E-14
 -1       676 5.27523E-03 3.51353E-04-2.02488E-14
 -1       677 5.57696E-03 3.80821E-04-2.24277E-14
 -1       678 5.88873E-03 4.30540E-04-2.47213E-14
 -1       679 6.21647E-03 5.08687E-04-2.71268E-14
 -1       680 6.56707E-03 6.25224E-04-2.96466E-14
 -1       681 6.94553E-03 7.90115E-04-3.22850E-14
 -1       682 7.34696E-03 9.99512E-04-3.50537E-14
 -1       683 8.94749E-03 1.16015E-03-4.74427E-14
 -1       684 9.35638E-03 9.81677E-04-5.07881E-14
 -1       685 9.74818E-03 8.43968E-04-5.41842E-14
 -1       686 1.01146E-02 7.62408E-04-5.76141E-14
 -1       687 1.04473E-02 7.27679E-04-6.10828E-14
 -1       688 1.07627E-02 7.25227E-04-6.45991E-14
 -1       689 1.10667E-02 7.45128E-04-6.81526E-14
 -1       690 1.13642E-02 7.80112E-04-7.17461E-14
 -1       691 1.16578E-02 8.24884E-04-7.53803E-14
 -1       692 1.19494E-02 8.75630E-04-7.90514E-14
 -1       693 1.22396E-02 9.29668E-04-8.27623E-14
 -1       694 1.25288E-02 9.85171E-04-8.65027E-14
 -1       695 1.28173E-02 1.04094E-03-9.02730E-14
 -1       696 1.31053E-02 1.09625E-03-9.40596E-14
 -1       697 1.33927E-02 1.15067E-03-9.78629E-14
 -1       698 1.36797E-02 1.20399E-03-1.01678E-13
 -1       699 1.39664E-02 1.25615E-03-1.05500E-13
 -1       700 1.42528E-02 1.30715E-03-1.09336E-13
 -1       701 1.44667E-02 1.32962E-03-1.12361E-13
 -1       702 1.02576E-02 3.05967E-04-5.53733E-14
 -1       703 1.42351E-02 9.43430E-04-1.12566E-13
 -1       704 5.78825E-03 2.22573E-04-2.99793E-14
 -1       705 1.43240E-02 1.10505E-03-1.12353E-13
 -1       706 1.41895E-02 8.62884E-04-1.12666E-13
 -1       707 1.42799E-02 1.02407E-03-1.12461E-13
 -1       708 1.02150E-02 4.85232E-04-5.46957E-14
 -1       709 1.41439E-02 7.83543E-04-1.12759E-13
 -1       710 1.40968E-02 7.02441E-04-1.12848E-13
 -1       711 1.40494E-02 6.20764E-04-1.12924E-13
 -1       712 1.57557E-03 3.40097E-04-1.92977E-15
 -1       713 1.05337E-02 3.65309E-04-5.68434E-14
 -1       714 9.44094E-03 8.68118E-04-5.07047E-14
 -1       715 8.22733E-03-4.37620E-04-4.56763E-14
 -1       716 1.40338E-02 5.06803E-04-1.13750E-13
 -1       717 2.41362E-03 3.67297E-04-4.46447E-15
 -1       718 2.13386E-03 3.64446E-04-3.50242E-15
 -1       719 1.05106E-03-3.05109E-04-1.02422E-15
 -1       720 9.09667E-03-3.54883E-05-5.03977E-14
 -1       721 8.76215E-04 9.51515E-05-7.87087E-16
 -1       722 8.67867E-04-1.39176E-04-8.14398E-16
 -1       723 6.19469E-03-5.58139E-05-3.16163E-14
 -1       724 8.72130E-03 1.25632E-03-4.56223E-14
 -1       725 7.84794E-03 1.25521E-03-3.86683E-14
 -1       726 7.43322E-03 1.03282E-03-3.60603E-14
 -1       727 6.54941E-03 5.24020E-04-3.20794E-14
 -1       728 5.66398E-03 1.79843E-04-2.96033E-14
 -1       729 9.68080E-03 1.60951E-04-5.25541E-14
 -1       730 6.49299E-03-2.03449E-04-3.29207E-14
 -1       731 7.24197E-03-5.72787E-04-3.75979E-14
 -1       732 8.64988E-03-2.22209E-04-4.85412E-14
 -1       733 8.73800E-04-1.89469E-04-7.98657E-16
 -1       734 8.64891E-04-4.58270E-05-8.23123E-16
 -1       735 6.68132E-03-3.27760E-04-3.36767E-14
 -1       736 9.68742E-03 7.55420E-04-5.25125E-14
 -1       737 7.72291E-03-6.30688E-04-4.19183E-14
 -1       738 5.63205E-03 1.52191E-04-2.90601E-14
 -1       739 1.05480E-02 3.52776E-04-5.83092E-14
 -1       740 6.26488E-03 3.98234E-04-3.05369E-14
 -1       741 1.44228E-02 1.24752E-03-1.12491E-13
 -1       742 5.89646E-03 2.56139E-04-2.95634E-14
 -1       743 7.03157E-03-5.07027E-04-3.59562E-14
 -1       744 6.00090E-03 7.17286E-06-3.05047E-14
 -1       745 1.43734E-02 1.17602E-03-1.12425E-13
 -1       746 6.76133E-03 6.42787E-04-3.24610E-14
 -1       747 8.65167E-04-9.17455E-05-8.22154E-16
 -1       748 5.77411E-03 1.12820E-04-3.00245E-14
 -1       749 9.06488E-03 1.07960E-03-4.81898E-14
 -1       750 1.39455E-02 5.50160E-04-1.12052E-13
 -1       751 8.98704E-04-2.57221E-04-7.84844E-16
 -1       752 1.06148E-02 4.02203E-04-5.89455E-14
 -1       753 1.12785E-03 2.03882E-04-1.14129E-15
 -1       754 3.09829E-03 2.88311E-04-7.50300E-15
 -1       755 1.44583E-03-3.04134E-04-1.94859E-15
 -1       756 7.37065E-03-6.39127E-04-3.88315E-14
 -1       757 1.71968E-03-3.28832E-04-2.68555E-15
 -1       758 1.99363E-03-3.45580E-04-3.53759E-15
 -1       759 2.26718E-03-3.55726E-04-4.50343E-15
 -1       760 2.54005E-03-3.60384E-04-5.58222E-15
 -1       761 2.81206E-03-3.60445E-04-6.77291E-15
 -1       762 3.08314E-03-3.56618E-04-8.07388E-15
 -1       763 3.35324E-03-3.49489E-04-9.48237E-15
 -1       764 3.62241E-03-3.39597E-04-1.09984E-14
 -1       765 3.89077E-03-3.27524E-04-1.26166E-14
 -1       766 4.15862E-03-3.13978E-04-1.43362E-14
 -1       767 4.42651E-03-2.99906E-04-1.61520E-14
 -1       768 4.69535E-03-2.86610E-04-1.80606E-14
 -1       769 4.96664E-03-2.75918E-04-2.00639E-14
 -1       770 5.24260E-03-2.70414E-04-2.21608E-14
 -1       771 5.52625E-03-2.73760E-04-2.43491E-14
 -1       772 5.82116E-03-2.91053E-04-2.66254E-14
 -1       773 6.13028E-03-3.28607E-04-2.89851E-14
 -1       774 6.45368E-03-3.92860E-04-3.14309E-14
 -1       775 6.78469E-03-4.82184E-04-3.39587E-14
 -1       776 8.27971E-03-3.88338E-04-4.79611E-14
 -1       777 8.58070E-03-2.73832E-04-5.11325E-14
 -1       778 8.80109E-03-1.31082E-04-5.44568E-14
 -1       779 8.81352E-03-1.62035E-05-5.73284E-14
 -1       780 9.42879E-03-1.57727E-05-6.04154E-14
 -1       781 9.86760E-03 1.24552E-04-6.25403E-14
 -1       782 1.04034E-02 3.28252E-04-6.77340E-14
 -1       783 1.11783E-02 1.68265E-04-7.52073E-14
 -1       784 1.14654E-02 2.11146E-04-7.89220E-14
 -1       785 1.17505E-02 2.51406E-04-8.26639E-14
 -1       786 1.20346E-02 2.90368E-04-8.64248E-14
 -1       787 1.23185E-02 3.28949E-04-9.02017E-14
 -1       788 1.26024E-02 3.67756E-04-9.39980E-14
 -1       789 1.28866E-02 4.07172E-04-9.78011E-14
 -1       790 1.31710E-02 4.47410E-04-1.01603E-13
 -1       791 1.34558E-02 4.88571E-04-1.05407E-13
 -1       792 1.37005E-02 5.19042E-04-1.08731E-13
 -1       793 2.81788E-03 2.93248E-04-6.24902E-15
 -1       794 3.65866E-03 2.75414E-04-1.03400E-14
 -1       795 3.93839E-03 2.69064E-04-1.19243E-14
 -1       796 4.21765E-03 2.64029E-04-1.36162E-14
 -1       797 4.49638E-03 2.61546E-04-1.54119E-14
 -1       798 4.77472E-03 2.63235E-04-1.73143E-14
 -1       799 5.05324E-03 2.71237E-04-1.93220E-14
 -1       800 5.33337E-03 2.88381E-04-2.14365E-14
 -1       801 5.61808E-03 3.18502E-04-2.36601E-14
 -1       802 5.91262E-03 3.67092E-04-2.59951E-14
 -1       803 6.22772E-03 4.43835E-04-2.84398E-14
 -1       804 1.03762E-02 6.35222E-04-5.94812E-14
 -1       805 1.06756E-02 6.34974E-04-6.29756E-14
 -1       806 1.09622E-02 6.55402E-04-6.65150E-14
 -1       807 1.12434E-02 6.89455E-04-7.00887E-14
 -1       808 1.15229E-02 7.32566E-04-7.37036E-14
 -1       809 1.18027E-02 7.81533E-04-7.73561E-14
 -1       810 1.20835E-02 8.34021E-04-8.10464E-14
 -1       811 1.23654E-02 8.88340E-04-8.47709E-14
 -1       812 1.26483E-02 9.43304E-04-8.85290E-14
 -1       813 1.29320E-02 9.98125E-04-9.23051E-14
 -1       814 1.32163E-02 1.05231E-03-9.60966E-14
 -1       815 1.35011E-02 1.10559E-03-9.98996E-14
 -1       816 1.37862E-02 1.15785E-03-1.03713E-13
 -1       817 1.40715E-02 1.20904E-03-1.07537E-13
 -1       818 1.42472E-02 1.22852E-03-1.10011E-13
 -1       819 1.39673E-02 8.63134E-04-1.09311E-13
 -1       820 1.38269E-02 6.23892E-04-1.09591E-13
 -1       821 1.39219E-02 7.84744E-04-1.09413E-13
 -1       822 1.09530E-03-2.67370E-04-1.16149E-15
 -1       823 1.38748E-02 7.04634E-04-1.09508E-13
 -1       824 1.00466E-02 2.87913E-04-5.59800E-14
 -1       825 1.00923E-02 5.79676E-04-5.51734E-14
 -1       826 3.37858E-03 2.82105E-04-8.86647E-15
 -1       827 8.95632E-03-9.52034E-05-5.17139E-14
 -1       828 2.53746E-03 2.96075E-04-5.10668E-15
 -1       829 2.25709E-03 2.95808E-04-4.07846E-15
 -1       830 1.09971E-03 2.67418E-05-1.24045E-15
 -1       831 6.23243E-03-1.58333E-04-3.08252E-14
 -1       832 1.21068E-03 2.57347E-04-1.23447E-15
 -1       833 1.04360E-02 4.65089E-04-5.75838E-14
 -1       834 8.03946E-03-5.16674E-04-4.49982E-14
 -1       835 8.34062E-03-3.34710E-04-4.79261E-14
 -1       836 1.97687E-03 2.91241E-04-3.16466E-15
 -1       837 5.63457E-03 1.77110E-04-2.81644E-14
 -1       838 9.49777E-03 9.56625E-05-5.42757E-14
 -1       839 1.09613E-03-2.80180E-05-1.25290E-15
 -1       840 1.11502E-03 1.41514E-04-1.18666E-15
 -1       841 1.06351E-02 4.53222E-04-6.01730E-14
 -1       842 1.10227E-03-1.94777E-04-1.23587E-15
 -1       843 6.46461E-03 4.98684E-04-3.09042E-14
 -1       844 5.62889E-03 1.16549E-04-2.84911E-14
 -1       845 1.06808E-02 3.89871E-04-6.04300E-14
 -1       846 6.02904E-03 3.13404E-04-2.91260E-14
 -1       847 5.69157E-03 2.01819E-04-2.77477E-14
 -1       848 1.40124E-02 9.42813E-04-1.09201E-13
 -1       849 1.40565E-02 1.02275E-03-1.09091E-13
 -1       850 1.48925E-03 2.83226E-04-1.82460E-15
 -1       851 1.73282E-03 2.90320E-04-2.44821E-15
 -1       852 6.04486E-03-9.42247E-05-2.97085E-14
 -1       853 6.40131E-03-2.65257E-04-3.15523E-14
 -1       854 1.41055E-02 1.09287E-03-1.09159E-13
 -1       855 1.10589E-03 8.27089E-05-1.21894E-15
 -1       856 5.83165E-03 4.51466E-05-2.93854E-14
 -1       857 1.04174E-02 3.48755E-04-5.90262E-14
 -1       858 1.09698E-03-1.37534E-04-1.25096E-15
 -1       859 1.37638E-02 5.71573E-04-1.09163E-13
 -1       860 5.55982E-03 1.49728E-04-2.76373E-14
 -1       861 1.84720E-03-2.72386E-04-3.13686E-15
 -1       862 2.12198E-03-2.84146E-04-4.04871E-15
 -1       863 2.39629E-03-2.90760E-04-5.07237E-15
 -1       864 2.66963E-03-2.92987E-04-6.20698E-15
 -1       865 2.94167E-03-2.91433E-04-7.45237E-15
 -1       866 3.21216E-03-2.86574E-04-8.80615E-15
 -1       867 3.48092E-03-2.78804E-04-1.02657E-14
 -1       868 3.74788E-03-2.68487E-04-1.18300E-14
 -1       869 4.01305E-03-2.56022E-04-1.34965E-14
 -1       870 4.27669E-03-2.41908E-04-1.52597E-14
 -1       871 4.53933E-03-2.26838E-04-1.71163E-14
 -1       872 4.80204E-03-2.11823E-04-1.90651E-14
 -1       873 5.06663E-03-1.98421E-04-2.11076E-14
 -1       874 5.33602E-03-1.89163E-04-2.32423E-14
 -1       875 5.61454E-03-1.88283E-04-2.54623E-14
 -1       876 5.90776E-03-2.03039E-04-2.77615E-14
 -1       877 1.37005E-02 7.84543E-04-1.06070E-13
 -1       878 9.57237E-03 1.11749E-04-5.93563E-14
 -1       879 1.00524E-02 1.76687E-04-6.27918E-14
 -1       880 1.05861E-02 3.07159E-04-6.71051E-14
 -1       881 1.11148E-02 2.20337E-04-7.33479E-14
 -1       882 1.13949E-02 2.61547E-04-7.70417E-14
 -1       883 1.16736E-02 3.00979E-04-8.07655E-14
 -1       884 1.19522E-02 3.39676E-04-8.45142E-14
 -1       885 1.22314E-02 3.78320E-04-8.82788E-14
 -1       886 1.25115E-02 4.17353E-04-9.20578E-14
 -1       887 1.27926E-02 4.57044E-04-9.58500E-14
 -1       888 1.30746E-02 4.97539E-04-9.96503E-14
 -1       889 1.33575E-02 5.38901E-04-1.03450E-13
 -1       890 2.94034E-03 2.21276E-04-6.96656E-15
 -1       891 4.04457E-03 2.00990E-04-1.28705E-14
 -1       892 3.77110E-03 2.05457E-04-1.12317E-14
 -1       893 4.58395E-03 1.98546E-04-1.64588E-14
 -1       894 4.84923E-03 2.02978E-04-1.84076E-14
 -1       895 5.11162E-03 2.13208E-04-2.04610E-14
 -1       896 5.37202E-03 2.31179E-04-2.26190E-14
 -1       897 5.63342E-03 2.59635E-04-2.48826E-14
 -1       898 6.37065E-03 4.78014E-04-2.97885E-14
 -1       899 1.11373E-02 6.05240E-04-6.84276E-14
 -1       900 1.08774E-02 5.70627E-04-6.48688E-14
 -1       901 1.23436E-03-2.27668E-04-1.50315E-15
 -1       902 1.06163E-02 5.46678E-04-6.13494E-14
 -1       903 1.13996E-02 6.47027E-04-7.20242E-14
 -1       904 1.16656E-02 6.93854E-04-7.56578E-14
 -1       905 1.19353E-02 7.44074E-04-7.93296E-14
 -1       906 1.22084E-02 7.96354E-04-8.30412E-14
 -1       907 1.24845E-02 8.49649E-04-8.67855E-14
 -1       908 1.27629E-02 9.03191E-04-9.05523E-14
 -1       909 1.30433E-02 9.56455E-04-9.43334E-14
 -1       910 1.33251E-02 1.00911E-03-9.81248E-14
 -1       911 1.36080E-02 1.06097E-03-1.01929E-13
 -1       912 1.38917E-02 1.11197E-03-1.05743E-13
 -1       913 9.99055E-03 2.58240E-04-5.78684E-14
 -1       914 2.10118E-03 2.24978E-04-3.69242E-15
 -1       915 2.66114E-03 2.24921E-04-5.76411E-15
 -1       916 2.38131E-03 2.26470E-04-4.67160E-15
 -1       917 1.09514E-03-8.23990E-05-1.25633E-15
 -1       918 1.41762E-02 1.16038E-03-1.09586E-13
 -1       919 1.40499E-03 2.28496E-04-1.71154E-15
 -1       920 4.31565E-03 1.98323E-04-1.46136E-14
 -1       921 9.39410E-03 3.70972E-05-5.56856E-14
 -1       922 1.57261E-03-2.54599E-04-2.33816E-15
 -1       923 1.07478E-02 4.33671E-04-6.16730E-14
 -1       924 1.36534E-02 7.05662E-04-1.06171E-13
 -1       925 1.33830E-03 6.02177E-05-1.74174E-15
 -1       926 5.50812E-03 1.53781E-04-2.63050E-14
 -1       927 5.64582E-03 6.27699E-05-2.78601E-14
 -1       928 1.35603E-02 5.55114E-04-1.06304E-13
 -1       929 3.21861E-03 2.16339E-04-8.27862E-15
 -1       930 5.77762E-03 2.44112E-04-2.73115E-14
 -1       931 3.49565E-03 2.10830E-04-9.69983E-15
 -1       932 1.82117E-03 2.19318E-04-2.82774E-15
 -1       933 1.37462E-02 8.63125E-04-1.05961E-13
 -1       934 1.37904E-02 9.41808E-04-1.05846E-13
 -1       935 5.51129E-03 1.19951E-04-2.70821E-14
 -1       936 1.33234E-03-2.12205E-06-1.76364E-15
 -1       937 9.83204E-03 1.77972E-04-5.87950E-14
 -1       938 1.38391E-02 1.01083E-03-1.05911E-13
 -1       939 5.86834E-03-4.82293E-05-2.85888E-14
 -1       940 1.22744E-03-1.65670E-04-1.52356E-15
 -1       941 1.07129E-02 3.74263E-04-6.18339E-14
 -1       942 1.97876E-03-2.13356E-04-3.60401E-15
 -1       943 2.25409E-03-2.21099E-04-4.57294E-15
 -1       944 2.52867E-03-2.25016E-04-5.65227E-15
 -1       945 2.80190E-03-2.25551E-04-6.84192E-15
 -1       946 3.07330E-03-2.23048E-04-8.14031E-15
 -1       947 3.34250E-03-2.17760E-04-9.54501E-15
 -1       948 3.60917E-03-2.09874E-04-1.10552E-14
 -1       949 3.87309E-03-1.99551E-04-1.26681E-14
 -1       950 4.13413E-03-1.86955E-04-1.43820E-14
 -1       951 4.39236E-03-1.72302E-04-1.61879E-14
 -1       952 4.64816E-03-1.55927E-04-1.80876E-14
 -1       953 4.90243E-03-1.38409E-04-2.00786E-14
 -1       954 5.15695E-03-1.20869E-04-2.21627E-14
 -1       955 5.41495E-03-1.05702E-04-2.43344E-14
 -1       956 5.68197E-03-9.72911E-05-2.65857E-14
 -1       957 5.15918E-03 1.63408E-04-2.15968E-14
 -1       958 1.34743E-03 1.24402E-04-1.70729E-15
 -1       959 3.87970E-03 1.39904E-04-1.21309E-14
 -1       960 1.02522E-02 2.83299E-04-6.27598E-14
 -1       961 1.06755E-02 3.61109E-04-6.70211E-14
 -1       962 1.11227E-02 2.94345E-04-7.20293E-14
 -1       963 1.13904E-02 3.31978E-04-7.57032E-14
 -1       964 1.16592E-02 3.69775E-04-7.94128E-14
 -1       965 1.19298E-02 4.08112E-04-8.31464E-14
 -1       966 1.22025E-02 4.47182E-04-8.69023E-14
 -1       967 1.24776E-02 4.87067E-04-9.06706E-14
 -1       968 1.27547E-02 5.27791E-04-9.44514E-14
 -1       969 1.30336E-02 5.69331E-04-9.82402E-14
 -1       970 1.33142E-02 6.11660E-04-1.02036E-13
 -1       971 5.55269E-03 1.84460E-04-2.58776E-14
 -1       972 1.94748E-03 1.55716E-04-3.30999E-15
 -1       973 4.91550E-03 1.50523E-04-1.95006E-14
 -1       974 4.66480E-03 1.42669E-04-1.75064E-14
 -1       975 5.39500E-03 1.82414E-04-2.37935E-14
 -1       976 1.15337E-02 6.13307E-04-7.39560E-14
 -1       977 1.17915E-02 6.60478E-04-7.76121E-14
 -1       978 1.20554E-02 7.09867E-04-8.13077E-14
 -1       979 1.23241E-02 7.60639E-04-8.50405E-14
 -1       980 1.25968E-02 8.12094E-04-8.87997E-14
 -1       981 1.28727E-02 8.63698E-04-9.25706E-14
 -1       982 1.31511E-02 9.15085E-04-9.63544E-14
 -1       983 1.34314E-02 9.66017E-04-1.00146E-13
 -1       984 1.08109E-02 4.96133E-04-6.32754E-14
 -1       985 1.61282E-03 2.26420E-04-2.23534E-15
 -1       986 2.22702E-03 1.57709E-04-4.23961E-15
 -1       987 1.10444E-02 5.31264E-04-6.68190E-14
 -1       988 2.78471E-03 1.54547E-04-6.43446E-15
 -1       989 1.22449E-03-1.06077E-04-1.53212E-15
 -1       990 1.12851E-02 5.70325E-04-7.03688E-14
 -1       991 1.35697E-02 6.17943E-04-1.05814E-13
 -1       992 2.50629E-03 1.57042E-04-5.28181E-15
 -1       993 5.42749E-03 1.23398E-04-2.57677E-14
 -1       994 1.32947E-03-6.35300E-05-1.77421E-15
 -1       995 1.04426E-02 3.43269E-04-6.14134E-14
 -1       996 1.70349E-03-2.01235E-04-2.74668E-15
 -1       997 1.64244E-03 1.58695E-04-2.41264E-15
 -1       998 1.34337E-02 7.06577E-04-1.02834E-13
 -1       999 1.58153E-03 9.82821E-05-2.31840E-15
 -1      1000 4.14602E-03 1.38272E-04-1.38223E-14
 -1      1001 5.48507E-03 7.78339E-05-2.64639E-14
 -1      1002 3.06177E-03 1.50953E-04-7.69562E-15
 -1      1003 5.36311E-03 1.47142E-04-2.42258E-14
 -1      1004 1.34804E-02 7.83995E-04-1.02732E-13
 -1      1005 3.60981E-03 1.43012E-04-1.05445E-14
 -1      1006 1.03275E-02 3.16619E-04-6.20871E-14
 -1      1007 1.35252E-02 8.61254E-04-1.02618E-13
 -1      1008 1.57287E-03 2.98769E-05-2.35255E-15
 -1      1009 6.09032E-03-1.92314E-04-2.93397E-14
 -1      1010 1.34792E-02 9.13737E-04-1.01386E-13
 -1      1011 1.08227E-02 4.18216E-04-6.30946E-14
 -1      1012 4.40799E-03 1.38900E-04-1.56143E-14
 -1      1013 1.46256E-03-1.52463E-04-2.09867E-15
 -1      1014 5.24139E-03 9.60232E-05-2.35799E-14
 -1      1015 5.54887E-03-2.22517E-05-2.60721E-14
 -1      1016 2.38976E-03-1.56827E-04-5.10963E-15
 -1      1017 2.66428E-03-1.58941E-04-6.24341E-15
 -1      1018 2.93701E-03-1.58565E-04-7.48585E-15
 -1      1019 3.20735E-03-1.55802E-04-8.83624E-15
 -1      1020 3.47482E-03-1.50693E-04-1.02916E-14
 -1      1021 3.73893E-03-1.43217E-04-1.18525E-14
 -1      1022 3.99927E-03-1.33315E-04-1.35150E-14
 -1      1023 4.25547E-03-1.20889E-04-1.52743E-14
 -1      1024 4.50727E-03-1.05837E-04-1.71265E-14
 -1      1025 4.75455E-03-8.80789E-05-1.90696E-14
 -1      1026 4.99755E-03-6.76659E-05-2.11070E-14
 -1      1027 5.23715E-03-4.50216E-05-2.32328E-14
 -1      1028 1.88570E-03 9.29535E-05-3.19845E-15
 -1      1029 2.16438E-03 9.37276E-05-4.11282E-15
 -1      1030 1.06820E-02 3.83836E-04-6.61570E-14
 -1      1031 1.10174E-02 4.02289E-04-7.03522E-14
 -1      1032 1.13604E-02 3.72602E-04-7.43874E-14
 -1      1033 1.16212E-02 4.09516E-04-7.80781E-14
 -1      1034 1.18856E-02 4.47858E-04-8.18013E-14
 -1      1035 1.21536E-02 4.87471E-04-8.55466E-14
 -1      1036 1.24249E-02 5.28194E-04-8.93105E-14
 -1      1037 1.26991E-02 5.69874E-04-9.30847E-14
 -1      1038 1.29758E-02 6.12374E-04-9.68633E-14
 -1      1039 1.32043E-02 6.59084E-04-9.98466E-14
 -1      1040 1.56716E-03-1.05318E-04-2.38328E-15
 -1      1041 1.19027E-02 6.28985E-04-7.95687E-14
 -1      1042 5.14600E-03 1.27083E-04-2.20240E-14
 -1      1043 4.74406E-03 9.43246E-05-1.85558E-14
 -1      1044 1.21645E-02 6.76471E-04-8.32894E-14
 -1      1045 1.16476E-02 5.83310E-04-7.58902E-14
 -1      1046 1.24317E-02 7.25105E-04-8.70400E-14
 -1      1047 1.27032E-02 7.74369E-04-9.08060E-14
 -1      1048 1.29781E-02 8.23846E-04-9.45796E-14
 -1      1049 1.32277E-02 8.68894E-04-9.79786E-14
 -1      1050 1.09360E-02 4.70524E-04-6.49595E-14
 -1      1051 5.36499E-03 8.62015E-05-2.51667E-14
 -1      1052 3.33697E-03 1.46906E-04-9.06572E-15
 -1      1053 4.94795E-03 1.09256E-04-2.02537E-14
 -1      1054 1.56766E-03-3.72225E-05-2.37285E-15
 -1      1055 2.11412E-03-1.52043E-04-4.08589E-15
 -1      1056 1.83821E-03-1.44341E-04-3.17187E-15
 -1      1057 4.49866E-03 8.61103E-05-1.66188E-14
 -1      1058 1.08591E-02 3.75960E-04-6.50631E-14
 -1      1059 2.44288E-03 9.27403E-05-5.13965E-15
 -1      1060 3.98672E-03 7.92498E-05-1.30380E-14
 -1      1061 1.32519E-02 7.35273E-04-9.97464E-14
 -1      1062 3.72262E-03 7.92096E-05-1.13990E-14
 -1      1063 1.14033E-02 5.41125E-04-7.22797E-14
 -1      1064 1.07431E-02 3.88795E-04-6.55522E-14
 -1      1065 1.32969E-02 8.11118E-04-9.96369E-14
 -1      1066 2.90852E-03 8.55521E-05-7.11755E-15
 -1      1067 2.67628E-03 8.93463E-05-6.09029E-15
 -1      1068 1.11695E-02 5.01859E-04-6.87083E-14
 -1      1069 4.24575E-03 8.13206E-05-1.47797E-14
 -1      1070 1.97670E-03-8.43142E-05-3.61297E-15
 -1      1071 2.25319E-03-8.88569E-05-4.58041E-15
 -1      1072 2.80328E-03-9.29537E-05-6.84450E-15
 -1      1073 3.07531E-03-9.24382E-05-8.13896E-15
 -1      1074 3.34444E-03-9.00841E-05-9.54025E-15
 -1      1075 3.61009E-03-8.57242E-05-1.10485E-14
 -1      1076 3.87152E-03-7.91913E-05-1.26592E-14
 -1      1077 4.12819E-03-7.01461E-05-1.43700E-14
 -1      1078 4.37934E-03-5.82865E-05-1.61771E-14
 -1      1079 4.62417E-03-4.32172E-05-1.80748E-14
 -1      1080 4.86171E-03-2.44776E-05-2.00658E-14
 -1      1081 5.09077E-03-1.73226E-06-2.21509E-14
 -1      1082 1.25328E-02 6.88408E-04-8.90316E-14
 -1      1083 3.18287E-03 8.29118E-05-8.43717E-15
 -1      1084 1.87031E-03 1.08278E-05-3.22652E-15
 -1      1085 1.10238E-02 4.21478E-04-6.94272E-14
 -1      1086 1.13078E-02 4.27351E-04-7.32687E-14
 -1      1087 1.15951E-02 4.44593E-04-7.69875E-14
 -1      1088 1.18539E-02 4.83438E-04-8.07005E-14
 -1      1089 1.21178E-02 5.23878E-04-8.44363E-14
 -1      1090 1.23859E-02 5.65692E-04-8.81939E-14
 -1      1091 1.26578E-02 6.08532E-04-9.19671E-14
 -1      1092 1.29326E-02 6.52222E-04-9.57395E-14
 -1      1093 1.30921E-02 6.93439E-04-9.77407E-14
 -1      1094 5.02225E-03 7.11055E-05-2.13608E-14
 -1      1095 1.20022E-02 5.96735E-04-8.15335E-14
 -1      1096 1.17458E-02 5.53040E-04-7.78263E-14
 -1      1097 1.28048E-02 7.35491E-04-9.28055E-14
 -1      1098 5.19557E-03 5.11031E-05-2.32679E-14
 -1      1099 2.14786E-03 8.90917E-06-4.14479E-15
 -1      1100 1.10330E-02 4.45212E-04-6.68246E-14
 -1      1101 2.52899E-03-9.17412E-05-5.65811E-15
 -1      1102 3.45446E-03 8.06329E-05-9.86495E-15
 -1      1103 5.29849E-03 3.60465E-05-2.42675E-14
 -1      1104 1.22650E-02 6.42005E-04-8.52730E-14
 -1      1105 4.59285E-03 3.94772E-05-1.76267E-14
 -1      1106 1.77185E-03-6.02579E-05-2.96177E-15
 -1      1107 1.11015E-02 4.15328E-04-6.87535E-14
 -1      1108 1.12600E-02 4.74202E-04-7.05437E-14
 -1      1109 1.31378E-02 7.68253E-04-9.76346E-14
 -1      1110 3.83627E-03 1.96299E-05-1.22626E-14
 -1      1111 1.14959E-02 5.11762E-04-7.41392E-14
 -1      1112 2.42518E-03 6.78988E-06-5.17451E-15
 -1      1113 4.34758E-03 2.98703E-05-1.57419E-14
 -1      1114 2.77498E-03 2.07454E-05-6.61614E-15
 -1      1115 4.81249E-03 5.35913E-05-1.94523E-14
 -1      1116 3.04893E-03 1.91645E-05-7.89024E-15
 -1      1117 4.09495E-03 2.34550E-05-1.39545E-14
 -1      1118 1.20939E-02 5.61933E-04-8.35009E-14
 -1      1119 3.21735E-03-2.74508E-05-8.80194E-15
 -1      1120 3.48540E-03-2.61346E-05-1.02554E-14
 -1      1121 1.15207E-02 4.79477E-04-7.50754E-14
 -1      1122 1.23595E-02 6.05287E-04-8.72521E-14
 -1      1123 1.26295E-02 6.49684E-04-9.10226E-14
 -1      1124 1.13046E-02 4.42870E-04-7.19154E-14
 -1      1125 2.67192E-03-2.62382E-05-6.21716E-15
 -1      1126 2.94594E-03-2.74016E-05-7.45490E-15
 -1      1127 0.00000E+00 0.00000E+00 0.00000E+00
 -1      1128 0.00000E+00 0.00000E+00 0.00000E+00
 -1      1129 0.00000E+00 0.00000E+00 0.00000E+00
 -1      1130 0.00000E+00 0.00000E+00 0.00000E+00
 -1      1131 0.00000E+00 0.00000E+00 0.00000E+00
 -1      1132 0.00000E+00 0.00000E+00 0.00000E+00
 -1      1133 0.00000E+00 0.00000E+00 0.00000E+00
 -1      1134 0.00000E+00 0.00000E+00 0.00000E+00
 -1      1135 0.00000E+00 0.00000E+00 0.00000E+00
 -1      1136 0.00000E+00 0.00000E+00 0.00000E+00
 -1      1137 0.00000E+00 0.00000E+00 0.00000E+00
 -1      1138 0.00000E+00 0.00000E+00 0.00000E+00
 -1      1139 0.00000E+00 0.00000E+00 0.00000E+00
 -1      1140 0.00000E+00 0.00000E+00 0.00000E+00
 -1      1141 0.00000E+00 0.00000E+00 0.00000E+00
 -1      1142 0.00000E+00 0.00000E+00 0.00000E+00
 -1      1143 0.00000E+00 0.00000E+00 0.00000E+00
 -1      1144 2.05234E-04-1.44709E-04 1.65341E-17
 -1      1145 5.33561E-04-3.31589E-04-3.26074E-17
 -1      1146 8.03987E-04-4.53557E-04-2.02339E-16
 -1      1147 1.06132E-03-5.36744E-04-5.11771E-16
 -1      1148 1.31361E-03-5.95666E-04-9.53881E-16
 -1      1149 1.56450E-03-6.37713E-04-1.52581E-15
 -1      1150 1.81594E-03-6.67165E-04-2.22625E-15
 -1      1151 2.06897E-03-6.86847E-04-3.05299E-15
 -1      1152 2.32413E-03-6.98798E-04-4.00621E-15
 -1      1153 2.58174E-03-7.04549E-04-5.08362E-15
 -1      1154 2.84205E-03-7.05290E-04-6.27902E-15
 -1      1155 3.10534E-03-7.01988E-04-7.58905E-15
 -1      1156 3.37198E-03-6.95505E-04-9.01066E-15
 -1      1157 3.64246E-03-6.86714E-04-1.05463E-14
 -1      1158 3.91739E-03-6.76614E-04-1.21919E-14
 -1      1159 4.19746E-03-6.66458E-04-1.39427E-14
 -1      1160 4.48331E-03-6.57863E-04-1.57998E-14
 -1      1161 4.77545E-03-6.52896E-04-1.77642E-14
 -1      1162 5.07388E-03-6.54066E-04-1.98333E-14
 -1      1163 5.37785E-03-6.64153E-04-2.20085E-14
 -1      1164 5.68543E-03-6.85740E-04-2.42907E-14
 -1      1165 5.99319E-03-7.20341E-04-2.66863E-14
 -1      1166 6.29634E-03-7.67117E-04-2.91995E-14
 -1      1167 6.58941E-03-8.21472E-04-3.18347E-14
 -1      1168 6.86793E-03-8.74273E-04-3.45984E-14
 -1      1169 7.13072E-03-9.12748E-04-3.74876E-14
 -1      1170 7.38168E-03-9.23695E-04-4.05066E-14
 -1      1171 7.62988E-03-8.98180E-04-4.36530E-14
 -1      1172 7.88704E-03-8.35259E-04-4.69193E-14
 -1      1173 8.16340E-03-7.41478E-04-5.02723E-14
 -1      1174 8.46539E-03-6.25655E-04-5.36756E-14
 -1      1175 8.79878E-03-4.92704E-04-5.70926E-14
 -1      1176 9.18045E-03-3.62942E-04-6.05046E-14
 -1      1177 9.61837E-03-2.90683E-04-6.39404E-14
 -1      1178 1.00621E-02-3.08936E-04-6.75081E-14
 -1      1179 1.04442E-02-3.34104E-04-7.12745E-14
 -1      1180 1.08091E-02-2.58687E-04-7.51213E-14
 -1      1181 1.11651E-02-1.74827E-04-7.88715E-14
 -1      1182 1.14761E-02-1.27873E-04-8.26384E-14
 -1      1183 1.17815E-02-8.45150E-05-8.64350E-14
 -1      1184 1.20821E-02-4.31884E-05-9.02574E-14
 -1      1185 1.23787E-02-2.76221E-06-9.40940E-14
 -1      1186 1.26721E-02 3.75344E-05-9.79315E-14
 -1      1187 1.29629E-02 7.81970E-05-1.01775E-13
 -1      1188 1.32518E-02 1.19521E-04-1.05612E-13
 -1      1189 1.35393E-02 1.61662E-04-1.09433E-13
 -1      1190 1.38258E-02 2.04680E-04-1.13253E-13
 -1      1191 1.41118E-02 2.48561E-04-1.17073E-13
 -1      1192 1.43974E-02 2.93194E-04-1.20899E-13
 -1      1193 1.46759E-02 3.37159E-04-1.24648E-13
 -1      1194 2.17790E-04 1.52440E-04 2.80402E-17
 -1      1195 5.29355E-04 3.21528E-04 3.15774E-18
 -1      1196 7.99750E-04 4.29537E-04-1.33614E-16
 -1      1197 1.06098E-03 5.00815E-04-3.97225E-16
 -1      1198 1.31951E-03 5.48922E-04-7.88066E-16
 -1      1199 1.57873E-03 5.81178E-04-1.30684E-15
 -1      1200 1.84041E-03 6.02018E-04-1.95213E-15
 -1      1201 2.10545E-03 6.14456E-04-2.72124E-15
 -1      1202 2.37434E-03 6.20699E-04-3.61466E-15
 -1      1203 2.64740E-03 6.22432E-04-4.62998E-15
 -1      1204 2.92490E-03 6.20976E-04-5.76684E-15
 -1      1205 3.20718E-03 6.17419E-04-7.02303E-15
 -1      1206 3.49476E-03 6.12728E-04-8.39610E-15
 -1      1207 3.78836E-03 6.07873E-04-9.88799E-15
 -1      1208 4.08899E-03 6.03978E-04-1.14969E-14
 -1      1209 4.39793E-03 6.02494E-04-1.32196E-14
 -1      1210 4.71675E-03 6.05438E-04-1.50515E-14
 -1      1211 5.04719E-03 6.15666E-04-1.69928E-14
 -1      1212 5.39084E-03 6.37197E-04-1.90474E-14
 -1      1213 5.74865E-03 6.75455E-04-2.12249E-14
 -1      1214 6.11990E-03 7.37180E-04-2.35197E-14
 -1      1215 6.50090E-03 8.29454E-04-2.59286E-14
 -1      1216 6.88350E-03 9.57007E-04-2.84555E-14
 -1      1217 7.25460E-03 1.11723E-03-3.11042E-14
 -1      1218 7.59873E-03 1.29398E-03-3.38753E-14
 -1      1219 7.90520E-03 1.45496E-03-3.67585E-14
 -1      1220 8.17755E-03 1.55981E-03-3.97436E-14
 -1      1221 8.43693E-03 1.57934E-03-4.28347E-14
 -1      1222 8.71290E-03 1.51365E-03-4.60218E-14
 -1      1223 9.02676E-03 1.39265E-03-4.92904E-14
 -1      1224 9.38548E-03 1.25725E-03-5.26354E-14
 -1      1225 9.76812E-03 1.14610E-03-5.60391E-14
 -1      1226 1.01489E-02 1.07676E-03-5.94963E-14
 -1      1227 1.05276E-02 1.04277E-03-6.29937E-14
 -1      1228 1.08963E-02 1.03874E-03-6.65275E-14
 -1      1229 1.12516E-02 1.05707E-03-7.01068E-14
 -1      1230 1.15931E-02 1.09076E-03-7.37352E-14
 -1      1231 1.19220E-02 1.13427E-03-7.74152E-14
 -1      1232 1.22404E-02 1.18364E-03-8.11280E-14
 -1      1233 1.25501E-02 1.23615E-03-8.48697E-14
 -1      1234 1.28531E-02 1.29002E-03-8.86360E-14
 -1      1235 1.31510E-02 1.34415E-03-9.24308E-14
 -1      1236 1.34449E-02 1.39787E-03-9.62459E-14
 -1      1237 1.37359E-02 1.45082E-03-1.00071E-13
 -1      1238 1.40249E-02 1.50280E-03-1.03895E-13
 -1      1239 1.43124E-02 1.55376E-03-1.07728E-13
 -1      1240 1.45989E-02 1.60371E-03-1.11582E-13
 -1      1241 1.48848E-02 1.65271E-03-1.15459E-13
 -1      1242 1.51704E-02 1.70091E-03-1.19349E-13
 -1      1243 1.54488E-02 1.74744E-03-1.23145E-13
 -1      1244 1.55611E-02 1.72792E-03-1.25059E-13
 -1      1245 1.55143E-02 1.64352E-03-1.25222E-13
 -1      1246 1.54679E-02 1.55915E-03-1.25386E-13
 -1      1247 1.54222E-02 1.47504E-03-1.25519E-13
 -1      1248 1.53770E-02 1.39143E-03-1.25634E-13
 -1      1249 1.53326E-02 1.30911E-03-1.25746E-13
 -1      1250 1.52882E-02 1.22735E-03-1.25844E-13
 -1      1251 1.52432E-02 1.14535E-03-1.25905E-13
 -1      1252 1.51978E-02 1.06360E-03-1.25964E-13
 -1      1253 1.51520E-02 9.81843E-04-1.26023E-13
 -1      1254 1.51059E-02 8.99838E-04-1.26065E-13
 -1      1255 1.50599E-02 8.18084E-04-1.26124E-13
 -1      1256 1.50139E-02 7.35770E-04-1.26198E-13
 -1      1257 1.49679E-02 6.52171E-04-1.26263E-13
 -1      1258 1.49224E-02 5.68089E-04-1.26331E-13
 -1      1259 1.48775E-02 4.83740E-04-1.26399E-13
 -1      1260 1.48334E-02 4.00069E-04-1.26464E-13
 -1      1261 1.04271E-02 3.90138E-04-4.97756E-14
 -1      1262 1.03264E-02 5.40818E-04-4.93829E-14
 -1      1263 1.01140E-02 6.99699E-04-4.86246E-14
 -1      1264 9.79694E-03 8.68332E-04-4.74894E-14
 -1      1265 9.42085E-03 1.02085E-03-4.61640E-14
 -1      1266 9.00277E-03 1.14343E-03-4.46989E-14
 -1      1267 8.54034E-03 1.21860E-03-4.30845E-14
 -1      1268 8.02358E-03 1.22671E-03-4.13093E-14
 -1      1269 7.51556E-03 1.16059E-03-3.96153E-14
 -1      1270 7.02587E-03 1.02921E-03-3.80496E-14
 -1      1271 6.58033E-03 8.61564E-04-3.66970E-14
 -1      1272 6.20972E-03 6.83548E-04-3.56216E-14
 -1      1273 5.93057E-03 5.07109E-04-3.48504E-14
 -1      1274 5.77750E-03 3.49899E-04-3.44422E-14
 -1      1275 5.74259E-03 2.01748E-04-3.43521E-14
 -1      1276 5.82131E-03 5.75576E-05-3.45604E-14
 -1      1277 6.00134E-03-8.76217E-05-3.50517E-14
 -1      1278 6.26822E-03-2.31795E-04-3.58157E-14
 -1      1279 6.59809E-03-3.64781E-04-3.68071E-14
 -1      1280 6.96929E-03-4.74391E-04-3.79787E-14
 -1      1281 7.38641E-03-5.50967E-04-3.93554E-14
 -1      1282 7.83969E-03-5.82531E-04-4.08958E-14
 -1      1283 8.28621E-03-5.67213E-04-4.24354E-14
 -1      1284 8.70984E-03-5.16267E-04-4.39038E-14
 -1      1285 9.12490E-03-4.33013E-04-4.53204E-14
 -1      1286 9.58720E-03-2.95966E-04-4.68507E-14
 -1      1287 1.00878E-02-4.76397E-05-4.86218E-14
 -1      1288 1.04101E-02 2.36553E-04-4.98229E-14
 -1      1289 1.60940E-04-1.07998E-04-3.18484E-18
 -1      1290 1.08070E-04-5.66517E-05-2.66578E-17
 -1      1291 1.13117E-04-6.66987E-05-2.02204E-17
 -1      1292 1.04010E-04-4.40547E-05-3.72423E-17
 -1      1293 1.05842E-04-4.97751E-05-3.40168E-17
 -1      1294 2.17167E-04-1.07577E-04-8.01768E-17
 -1      1295 1.02507E-04-3.48688E-05-4.29886E-17
 -1      1296 1.03309E-04-3.92748E-05-4.13488E-17
 -1      1297 2.10110E-04-8.39722E-05-9.90690E-17
 -1      1298 1.01840E-04-2.71953E-05-4.61464E-17
 -1      1299 1.02208E-04-3.09572E-05-4.53739E-17
 -1      1300 2.07073E-04-6.60633E-05-1.09789E-16
 -1      1301 1.01575E-04-2.04225E-05-4.78404E-17
 -1      1302 1.01733E-04-2.37609E-05-4.74881E-17
 -1      1303 2.05680E-04-5.10521E-05-1.15820E-16
 -1      1304 1.01507E-04-1.40005E-05-4.88027E-17
 -1      1305 1.01551E-04-1.71819E-05-4.87078E-17
 -1      1306 2.05067E-04-3.75442E-05-1.19235E-16
 -1      1307 1.01571E-04-7.81867E-06-4.89653E-17
 -1      1308 1.01540E-04-1.08966E-05-4.90195E-17
 -1      1309 2.04900E-04-2.47980E-05-1.20739E-16
 -1      1310 1.01723E-04-1.69223E-06-4.90330E-17
 -1      1311 1.01639E-04-4.75953E-06-4.90601E-17
 -1      1312 2.05031E-04-1.24700E-05-1.21092E-16
 -1      1313 1.01950E-04 4.54968E-06-4.83690E-17
 -1      1314 1.01818E-04 1.40522E-06-4.85316E-17
 -1      1315 2.05382E-04-1.84956E-07-1.20401E-16
 -1      1316 1.02258E-04 1.10860E-05-4.71357E-17
 -1      1317 1.02069E-04 7.76981E-06-4.75694E-17
 -1      1318 2.05932E-04 1.24104E-05-1.18395E-16
 -1      1319 1.02677E-04 1.80039E-05-4.49673E-17
 -1      1320 1.02407E-04 1.44658E-05-4.56314E-17
 -1      1321 2.06703E-04 2.55809E-05-1.14749E-16
 -1      1322 1.03320E-04 2.58296E-05-4.16469E-17
 -1      1323 1.02885E-04 2.17822E-05-4.27582E-17
 -1      1324 2.07808E-04 3.98951E-05-1.08962E-16
 -1      1325 1.04420E-04 3.49300E-05-3.64021E-17
 -1      1326 1.03640E-04 3.01542E-05-3.83808E-17
 -1      1327 2.09520E-04 5.61864E-05-1.00248E-16
 -1      1328 1.06687E-04 4.63486E-05-2.77691E-17
 -1      1329 1.05036E-04 4.02039E-05-3.14554E-17
 -1      1330 2.12506E-04 7.55914E-05-8.66413E-17
 -1      1331 1.12698E-04 6.34178E-05-1.37558E-17
 -1      1332 1.08390E-04 5.37489E-05-2.05998E-17
 -1      1333 2.18928E-04 1.01081E-04-6.58788E-17
 -1      1334 1.50864E-04 1.04030E-04 8.37546E-18
 -1      1335 1.30467E-04 8.11296E-05-5.50233E-18
 -1      1336 2.46734E-04 1.42403E-04-4.08473E-17
 -1      1337 3.21045E-04 2.08090E-04-4.39102E-18
 -1      1338 4.06680E-04-2.57394E-04-4.83825E-17
 -1      1339 5.53879E-04-3.32283E-04-1.05059E-16
 -1      1340 6.95098E-04-3.93206E-04-1.98070E-16
 -1      1341 8.32182E-04-4.43151E-04-3.24759E-16
 -1      1342 5.88467E-04-3.28059E-04-1.88123E-16
 -1      1343 9.65980E-04-4.85036E-04-4.83649E-16
 -1      1344 1.09744E-03-5.19923E-04-6.75472E-16
 -1      1345 8.69275E-04-4.30069E-04-4.51123E-16
 -1      1346 1.22739E-03-5.49586E-04-8.99495E-16
 -1      1347 1.35632E-03-5.74456E-04-1.15623E-15
 -1      1348 1.13887E-03-5.01333E-04-8.42466E-16
 -1      1349 1.48470E-03-5.95536E-04-1.44462E-15
 -1      1350 1.61278E-03-6.13122E-04-1.76488E-15
 -1      1351 1.40247E-03-5.51830E-04-1.36135E-15
 -1      1352 1.74081E-03-6.27794E-04-2.11693E-15
 -1      1353 1.86893E-03-6.39812E-04-2.50036E-15
 -1      1354 1.66333E-03-5.87307E-04-2.00619E-15
 -1      1355 1.99729E-03-6.49537E-04-2.91519E-15
 -1      1356 2.12596E-03-6.57195E-04-3.36127E-15
 -1      1357 1.92342E-03-6.11398E-04-2.77629E-15
 -1      1358 2.25502E-03-6.63022E-04-3.83848E-15
 -1      1359 2.38451E-03-6.67208E-04-4.34649E-15
 -1      1360 2.18387E-03-6.26628E-04-3.67065E-15
 -1      1361 2.51450E-03-6.69916E-04-4.88474E-15
 -1      1362 2.64502E-03-6.71304E-04-5.45298E-15
 -1      1363 2.44538E-03-6.34831E-04-4.68682E-15
 -1      1364 2.77613E-03-6.71489E-04-6.05002E-15
 -1      1365 2.90784E-03-6.70608E-04-6.67637E-15
 -1      1366 2.70843E-03-6.37377E-04-5.82189E-15
 -1      1367 3.04023E-03-6.68750E-04-7.33037E-15
 -1      1368 3.17331E-03-6.66044E-04-8.01231E-15
 -1      1369 2.97342E-03-6.35334E-04-7.07264E-15
 -1      1370 3.30717E-03-6.62567E-04-8.72269E-15
 -1      1371 3.44184E-03-6.58453E-04-9.46121E-15
 -1      1372 3.24073E-03-6.29587E-04-8.43565E-15
 -1      1373 3.57740E-03-6.53785E-04-1.02279E-14
 -1      1374 3.71391E-03-6.48714E-04-1.10211E-14
 -1      1375 3.51074E-03-6.20968E-04-9.91068E-15
 -1      1376 3.85143E-03-6.43348E-04-1.18416E-14
 -1      1377 3.99005E-03-6.37867E-04-1.26895E-14
 -1      1378 3.78393E-03-6.10374E-04-1.14946E-14
 -1      1379 4.12984E-03-6.32427E-04-1.35633E-14
 -1      1380 4.27086E-03-6.27245E-04-1.44627E-14
 -1      1381 4.06078E-03-5.98900E-04-1.31852E-14
 -1      1382 4.41317E-03-6.22544E-04-1.53885E-14
 -1      1383 4.55682E-03-6.18585E-04-1.63417E-14
 -1      1384 4.34178E-03-5.87969E-04-1.49806E-14
 -1      1385 4.70183E-03-6.15674E-04-1.73210E-14
 -1      1386 4.84820E-03-6.14109E-04-1.83259E-14
 -1      1387 4.62732E-03-5.79454E-04-1.68810E-14
 -1      1388 4.99590E-03-6.14282E-04-1.93569E-14
 -1      1389 5.14483E-03-6.16500E-04-2.04142E-14
 -1      1390 4.91759E-03-5.75736E-04-1.88847E-14
 -1      1391 5.29488E-03-6.21208E-04-2.14973E-14
 -1      1392 5.44582E-03-6.28670E-04-2.26064E-14
 -1      1393 5.21237E-03-5.79657E-04-2.09910E-14
 -1      1394 5.59740E-03-6.39296E-04-2.37423E-14
 -1      1395 5.74928E-03-6.53208E-04-2.49068E-14
 -1      1396 5.51084E-03-5.94225E-04-2.32007E-14
 -1      1397 5.90106E-03-6.70619E-04-2.60985E-14
 -1      1398 6.05226E-03-6.91366E-04-2.73183E-14
 -1      1399 5.81142E-03-6.21948E-04-2.55160E-14
 -1      1400 6.20238E-03-7.15239E-04-2.85680E-14
 -1      1401 6.35089E-03-7.41635E-04-2.98455E-14
 -1      1402 6.11164E-03-6.63690E-04-2.79434E-14
 -1      1403 6.49731E-03-7.69694E-04-3.11546E-14
 -1      1404 6.64121E-03-7.98288E-04-3.24949E-14
 -1      1405 6.40844E-03-7.17119E-04-3.04839E-14
 -1      1406 6.78231E-03-8.25842E-04-3.38645E-14
 -1      1407 6.92051E-03-8.50802E-04-3.52656E-14
 -1      1408 6.69872E-03-7.75270E-04-3.31419E-14
 -1      1409 7.05592E-03-8.71147E-04-3.66984E-14
 -1      1410 7.18894E-03-8.85283E-04-3.81615E-14
 -1      1411 6.98058E-03-8.26246E-04-3.59203E-14
 -1      1412 7.32022E-03-8.91384E-04-3.96566E-14
 -1      1413 7.45066E-03-8.88394E-04-4.11822E-14
 -1      1414 7.25469E-03-8.55277E-04-3.88190E-14
 -1      1415 7.58134E-03-8.75421E-04-4.27396E-14
 -1      1416 7.71341E-03-8.52450E-04-4.43269E-14
 -1      1417 7.52511E-03-8.49316E-04-4.18410E-14
 -1      1418 7.84806E-03-8.19861E-04-4.59403E-14
 -1      1419 7.98637E-03-7.78725E-04-4.75793E-14
 -1      1420 7.79880E-03-8.02352E-04-4.49790E-14
 -1      1421 8.12928E-03-7.30236E-04-4.92382E-14
 -1      1422 8.27744E-03-6.75698E-04-5.09125E-14
 -1      1423 8.08366E-03-7.18055E-04-4.82199E-14
 -1      1424 8.43146E-03-6.16184E-04-5.25978E-14
 -1      1425 8.59176E-03-5.52412E-04-5.42865E-14
 -1      1426 8.38574E-03-6.06499E-04-5.15365E-14
 -1      1427 8.75883E-03-4.84863E-04-5.59742E-14
 -1      1428 8.93313E-03-4.12965E-04-5.76605E-14
 -1      1429 8.70729E-03-4.76940E-04-5.48862E-14
 -1      1430 9.11556E-03-3.40626E-04-5.93380E-14
 -1      1431 9.31160E-03-2.80318E-04-6.10173E-14
 -1      1432 9.04674E-03-3.31034E-04-5.82178E-14
 -1      1433 9.52087E-03-2.39723E-04-6.27037E-14
 -1      1434 9.73596E-03-2.25160E-04-6.44305E-14
 -1      1435 9.42066E-03-2.00513E-04-6.15054E-14
 -1      1436 9.95515E-03-2.39562E-04-6.62166E-14
 -1      1437 1.01662E-02-2.67776E-04-6.80903E-14
 -1      1438 9.84646E-03-1.65960E-04-6.48766E-14
 -1      1439 1.03634E-02-2.89540E-04-7.00545E-14
 -1      1440 1.05553E-02-2.81831E-04-7.20632E-14
 -1      1441 1.02807E-02-2.30638E-04-6.86867E-14
 -1      1442 1.07528E-02-2.36081E-04-7.41079E-14
 -1      1443 1.09530E-02-1.72465E-04-7.60790E-14
 -1      1444 1.06914E-02-2.12024E-04-7.30442E-14
 -1      1445 1.11100E-02-1.46569E-04-7.79477E-14
 -1      1446 1.12657E-02-1.22235E-04-7.98236E-14
 -1      1447 1.10582E-02-1.18704E-04-7.70260E-14
 -1      1448 1.14202E-02-9.91418E-05-8.17055E-14
 -1      1449 1.15733E-02-7.70452E-05-8.35937E-14
 -1      1450 1.13670E-02-7.05999E-05-8.07749E-14
 -1      1451 1.17254E-02-5.57104E-05-8.54908E-14
 -1      1452 1.18763E-02-3.49368E-05-8.73947E-14
 -1      1453 1.16715E-02-2.69482E-05-8.45497E-14
 -1      1454 1.20262E-02-1.45658E-05-8.93027E-14
 -1      1455 1.21751E-02 5.55739E-06-9.12147E-14
 -1      1456 1.19720E-02 1.41110E-05-8.83499E-14
 -1      1457 1.23232E-02 2.55316E-05-9.31313E-14
 -1      1458 1.24705E-02 4.54706E-05-9.50477E-14
 -1      1459 1.22690E-02 5.39372E-05-9.21705E-14
 -1      1460 1.26171E-02 6.54299E-05-9.69640E-14
 -1      1461 1.27631E-02 8.54895E-05-9.88816E-14
 -1      1462 1.25631E-02 9.34665E-05-9.60002E-14
 -1      1463 1.29085E-02 1.05675E-04-1.00799E-13
 -1      1464 1.30535E-02 1.26041E-04-1.02717E-13
 -1      1465 1.28549E-02 1.33305E-04-9.98281E-14
 -1      1466 1.31980E-02 1.46595E-04-1.04631E-13
 -1      1467 1.33422E-02 1.67370E-04-1.06545E-13
 -1      1468 1.31447E-02 1.73818E-04-1.03656E-13
 -1      1469 1.34861E-02 1.88362E-04-1.08458E-13
 -1      1470 1.36297E-02 2.09592E-04-1.10367E-13
 -1      1471 1.34332E-02 2.15202E-04-1.07481E-13
 -1      1472 1.37731E-02 2.31049E-04-1.12277E-13
 -1      1473 1.39164E-02 2.52740E-04-1.14187E-13
 -1      1474 1.37206E-02 2.57540E-04-1.11304E-13
 -1      1475 1.40595E-02 2.74649E-04-1.16099E-13
 -1      1476 1.42025E-02 2.96773E-04-1.18011E-13
 -1      1477 1.40072E-02 3.00837E-04-1.15124E-13
 -1      1478 1.43454E-02 3.19081E-04-1.19924E-13
 -1      1479 1.44883E-02 3.41550E-04-1.21839E-13
 -1      1480 1.42934E-02 3.45027E-04-1.18947E-13
 -1      1481 1.46977E-02 3.78590E-04-1.24627E-13
 -1      1482 1.46458E-02 4.04401E-04-1.23643E-13
 -1      1483 6.17324E-04 3.47304E-04-8.51505E-17
 -1      1484 4.72736E-04 2.84837E-04-2.90024E-17
 -1      1485 4.27860E-04 2.48701E-04-5.61075E-17
 -1      1486 8.93407E-04 4.36626E-04-2.92071E-16
 -1      1487 7.57061E-04 3.96327E-04-1.73039E-16
 -1      1488 7.17341E-04 3.62060E-04-2.06107E-16
 -1      1489 1.16044E-03 4.96367E-04-6.21803E-16
 -1      1490 1.02753E-03 4.69428E-04-4.41216E-16
 -1      1491 9.94615E-04 4.37175E-04-4.78811E-16
 -1      1492 1.42448E-03 5.36583E-04-1.07842E-15
 -1      1493 1.29253E-03 5.18537E-04-8.34307E-16
 -1      1494 1.26516E-03 4.87521E-04-8.74599E-16
 -1      1495 1.68874E-03 5.63025E-04-1.66040E-15
 -1      1496 1.55642E-03 5.51290E-04-1.35349E-15
 -1      1497 1.53327E-03 5.20955E-04-1.39470E-15
 -1      1498 1.95491E-03 5.79430E-04-2.36721E-15
 -1      1499 1.82149E-03 5.72312E-04-1.99844E-15
 -1      1500 1.80152E-03 5.42291E-04-2.03892E-15
 -1      1501 2.22392E-03 5.88444E-04-3.19729E-15
 -1      1502 2.08901E-03 5.84729E-04-2.76698E-15
 -1      1503 2.07140E-03 5.54785E-04-2.80709E-15
 -1      1504 2.49632E-03 5.92038E-04-4.15003E-15
 -1      1505 2.35967E-03 5.90813E-04-3.65811E-15
 -1      1506 2.34375E-03 5.60787E-04-3.69720E-15
 -1      1507 2.77251E-03 5.91724E-04-5.22332E-15
 -1      1508 2.63392E-03 5.92282E-04-4.67183E-15
 -1      1509 2.61913E-03 5.62057E-04-4.70786E-15
 -1      1510 3.05285E-03 5.88698E-04-6.41720E-15
 -1      1511 2.91214E-03 5.90472E-04-5.80537E-15
 -1      1512 2.89800E-03 5.59952E-04-5.83886E-15
 -1      1513 3.33779E-03 5.83963E-04-7.72765E-15
 -1      1514 3.19472E-03 5.86468E-04-7.05745E-15
 -1      1515 3.18077E-03 5.55560E-04-7.08775E-15
 -1      1516 3.62793E-03 5.78453E-04-9.15548E-15
 -1      1517 3.48218E-03 5.81223E-04-8.42718E-15
 -1      1518 3.46794E-03 5.49823E-04-8.45296E-15
 -1      1519 3.92405E-03 5.73161E-04-1.07002E-14
 -1      1520 3.77519E-03 5.75680E-04-9.91293E-15
 -1      1521 3.76015E-03 5.43666E-04-9.93389E-15
 -1      1522 4.22716E-03 5.69305E-04-1.23598E-14
 -1      1523 4.07467E-03 5.70926E-04-1.15158E-14
 -1      1524 4.05818E-03 5.38138E-04-1.15295E-14
 -1      1525 4.53849E-03 5.68534E-04-1.41301E-14
 -1      1526 4.38172E-03 5.68364E-04-1.32315E-14
 -1      1527 4.36300E-03 5.34603E-04-1.32395E-14
 -1      1528 4.85944E-03 5.73186E-04-1.60112E-14
 -1      1529 4.69767E-03 5.69956E-04-1.50571E-14
 -1      1530 4.67574E-03 5.34969E-04-1.50583E-14
 -1      1531 5.19138E-03 5.86607E-04-1.80013E-14
 -1      1532 5.02395E-03 5.78507E-04-1.69926E-14
 -1      1533 4.99756E-03 5.41988E-04-1.69876E-14
 -1      1534 5.53535E-03 6.13476E-04-2.01090E-14
 -1      1535 5.36180E-03 5.98002E-04-1.90407E-14
 -1      1536 5.32953E-03 5.59599E-04-1.90290E-14
 -1      1537 5.89144E-03 6.59988E-04-2.23372E-14
 -1      1538 5.71190E-03 6.33885E-04-2.12072E-14
 -1      1539 5.67223E-03 5.93243E-04-2.11869E-14
 -1      1540 6.25793E-03 7.33500E-04-2.46767E-14
 -1      1541 6.07355E-03 6.93040E-04-2.34929E-14
 -1      1542 6.02530E-03 6.49888E-04-2.34615E-14
 -1      1543 6.63029E-03 8.40949E-04-2.71374E-14
 -1      1544 6.44378E-03 7.82912E-04-2.58926E-14
 -1      1545 6.38671E-03 7.37260E-04-2.58531E-14
 -1      1546 7.00049E-03 9.85093E-04-2.97137E-14
 -1      1547 6.81634E-03 9.08931E-04-2.84104E-14
 -1      1548 6.75209E-03 8.61381E-04-2.83610E-14
 -1      1549 7.35767E-03 1.15844E-03-3.24126E-14
 -1      1550 7.18153E-03 1.06951E-03-3.10482E-14
 -1      1551 7.11442E-03 1.02162E-03-3.09884E-14
 -1      1552 7.69144E-03 1.33704E-03-3.52344E-14
 -1      1553 7.52804E-03 1.24938E-03-3.38083E-14
 -1      1554 7.46503E-03 1.20372E-03-3.37372E-14
 -1      1555 7.99820E-03 1.48155E-03-3.81615E-14
 -1      1556 7.84800E-03 1.41608E-03-3.66836E-14
 -1      1557 7.79699E-03 1.37538E-03-3.66056E-14
 -1      1558 8.28640E-03 1.55169E-03-4.11995E-14
 -1      1559 8.14348E-03 1.52734E-03-3.96681E-14
 -1      1560 8.11052E-03 1.49274E-03-3.95871E-14
 -1      1561 8.57532E-03 1.52876E-03-4.43386E-14
 -1      1562 8.42926E-03 1.55114E-03-4.27572E-14
 -1      1563 8.41607E-03 1.52098E-03-4.26758E-14
 -1      1564 8.88486E-03 1.42874E-03-4.75688E-14
 -1      1565 8.72649E-03 1.48589E-03-4.59438E-14
 -1      1566 8.72999E-03 1.45666E-03-4.58610E-14
 -1      1567 9.22486E-03 1.29157E-03-5.08737E-14
 -1      1568 9.05086E-03 1.36207E-03-4.92117E-14
 -1      1569 9.06428E-03 1.33088E-03-4.91294E-14
 -1      1570 9.59224E-03 1.15875E-03-5.42485E-14
 -1      1571 9.40590E-03 1.22258E-03-5.25512E-14
 -1      1572 9.41972E-03 1.18909E-03-5.24695E-14
 -1      1573 9.96523E-03 1.06857E-03-5.76762E-14
 -1      1574 9.78049E-03 1.10910E-03-5.59585E-14
 -1      1575 9.78702E-03 1.07285E-03-5.58703E-14
 -1      1576 1.03356E-02 1.01598E-03-6.11531E-14
 -1      1577 1.01507E-02 1.03777E-03-5.94089E-14
 -1      1578 1.01541E-02 9.99664E-04-5.93222E-14
 -1      1579 1.07006E-02 9.97637E-04-6.46672E-14
 -1      1580 1.05192E-02 1.00300E-03-6.29057E-14
 -1      1581 1.05144E-02 9.64158E-04-6.28154E-14
 -1      1582 1.10555E-02 1.00615E-03-6.82255E-14
 -1      1583 1.08795E-02 9.99057E-04-6.64407E-14
 -1      1584 1.08670E-02 9.60183E-04-6.63517E-14
 -1      1585 1.13986E-02 1.03370E-03-7.18238E-14
 -1      1586 1.12286E-02 1.01799E-03-7.00198E-14
 -1      1587 1.12098E-02 9.79522E-04-6.99292E-14
 -1      1588 1.17302E-02 1.07374E-03-7.54747E-14
 -1      1589 1.15658E-02 1.05249E-03-7.36428E-14
 -1      1590 1.15423E-02 1.01466E-03-7.35505E-14
 -1      1591 1.20515E-02 1.12143E-03-7.91675E-14
 -1      1592 1.18921E-02 1.09686E-03-7.73162E-14
 -1      1593 1.18653E-02 1.05974E-03-7.72173E-14
 -1      1594 1.23642E-02 1.17339E-03-8.28888E-14
 -1      1595 1.22088E-02 1.14703E-03-8.10247E-14
 -1      1596 1.21798E-02 1.11060E-03-8.09198E-14
 -1      1597 1.26698E-02 1.22740E-03-8.66431E-14
 -1      1598 1.25178E-02 1.20024E-03-8.47624E-14
 -1      1599 1.24874E-02 1.16443E-03-8.46554E-14
 -1      1600 1.29699E-02 1.28204E-03-9.04202E-14
 -1      1601 1.28205E-02 1.25470E-03-8.85281E-14
 -1      1602 1.27893E-02 1.21943E-03-8.84184E-14
 -1      1603 1.32658E-02 1.33646E-03-9.42231E-14
 -1      1604 1.31183E-02 1.30932E-03-9.23190E-14
 -1      1605 1.30868E-02 1.27450E-03-9.22081E-14
 -1      1606 1.35584E-02 1.39017E-03-9.80441E-14
 -1      1607 1.34124E-02 1.36343E-03-9.61314E-14
 -1      1608 1.33808E-02 1.32897E-03-9.60167E-14
 -1      1609 1.38487E-02 1.44292E-03-1.01867E-13
 -1      1610 1.37038E-02 1.41668E-03-9.99556E-14
 -1      1611 1.36722E-02 1.38251E-03-9.98386E-14
 -1      1612 1.41372E-02 1.49460E-03-1.05695E-13
 -1      1613 1.39931E-02 1.46890E-03-1.03781E-13
 -1      1614 1.39617E-02 1.43497E-03-1.03666E-13
 -1      1615 1.44244E-02 1.54521E-03-1.09539E-13
 -1      1616 1.42809E-02 1.52004E-03-1.07614E-13
 -1      1617 1.42497E-02 1.48629E-03-1.07498E-13
 -1      1618 1.47109E-02 1.59478E-03-1.13401E-13
 -1      1619 1.45677E-02 1.57012E-03-1.11467E-13
 -1      1620 1.45368E-02 1.53651E-03-1.11350E-13
 -1      1621 1.49969E-02 1.64343E-03-1.17281E-13
 -1      1622 1.48539E-02 1.61921E-03-1.15339E-13
 -1      1623 1.48232E-02 1.58570E-03-1.15221E-13
 -1      1624 1.52826E-02 1.69136E-03-1.21171E-13
 -1      1625 1.51397E-02 1.66747E-03-1.19226E-13
 -1      1626 1.51091E-02 1.63401E-03-1.19103E-13
 -1      1627 1.54254E-02 1.70530E-03-1.23216E-13
 -1      1628 1.53789E-02 1.60193E-03-1.23575E-13
 -1      1629 1.54022E-02 1.64407E-03-1.23494E-13
 -1      1630 1.53327E-02 1.51781E-03-1.23726E-13
 -1      1631 1.53557E-02 1.55984E-03-1.23653E-13
 -1      1632 1.52436E-02 1.56036E-03-1.21925E-13
 -1      1633 1.52872E-02 1.43402E-03-1.23854E-13
 -1      1634 1.53099E-02 1.47586E-03-1.23792E-13
 -1      1635 1.51976E-02 1.47644E-03-1.22067E-13
 -1      1636 1.52422E-02 1.35070E-03-1.23973E-13
 -1      1637 1.52647E-02 1.39230E-03-1.23917E-13
 -1      1638 1.51523E-02 1.39290E-03-1.22197E-13
 -1      1639 1.51983E-02 1.26929E-03-1.24085E-13
 -1      1640 1.52202E-02 1.30993E-03-1.24030E-13
 -1      1641 1.51079E-02 1.31052E-03-1.22316E-13
 -1      1642 1.51535E-02 1.18694E-03-1.24173E-13
 -1      1643 1.51759E-02 1.22806E-03-1.24134E-13
 -1      1644 1.50636E-02 1.22860E-03-1.22422E-13
 -1      1645 1.51085E-02 1.10493E-03-1.24241E-13
 -1      1646 1.51311E-02 1.14590E-03-1.24207E-13
 -1      1647 1.50189E-02 1.14637E-03-1.22508E-13
 -1      1648 1.50630E-02 1.02307E-03-1.24308E-13
 -1      1649 1.50858E-02 1.06399E-03-1.24276E-13
 -1      1650 1.49738E-02 1.06440E-03-1.22582E-13
 -1      1651 1.50171E-02 9.41160E-04-1.24367E-13
 -1      1652 1.50401E-02 9.82135E-04-1.24338E-13
 -1      1653 1.49282E-02 9.82528E-04-1.22653E-13
 -1      1654 1.49708E-02 8.58992E-04-1.24422E-13
 -1      1655 1.49940E-02 9.00119E-04-1.24395E-13
 -1      1656 1.48822E-02 9.00552E-04-1.22719E-13
 -1      1657 1.49252E-02 7.77815E-04-1.24487E-13
 -1      1658 1.49480E-02 8.18460E-04-1.24453E-13
 -1      1659 1.48362E-02 8.19007E-04-1.22783E-13
 -1      1660 1.48788E-02 6.94747E-04-1.24557E-13
 -1      1661 1.49019E-02 7.36344E-04-1.24522E-13
 -1      1662 1.47900E-02 7.37073E-04-1.22850E-13
 -1      1663 1.48328E-02 6.11185E-04-1.24620E-13
 -1      1664 1.48557E-02 6.53023E-04-1.24591E-13
 -1      1665 1.47436E-02 6.53981E-04-1.22917E-13
 -1      1666 1.47874E-02 5.27220E-04-1.24688E-13
 -1      1667 1.48100E-02 5.69243E-04-1.24653E-13
 -1      1668 1.46977E-02 5.70439E-04-1.22980E-13
 -1      1669 1.47053E-02 4.44762E-04-1.24182E-13
 -1      1670 1.47277E-02 4.86869E-04-1.24151E-13
 -1      1671 1.46152E-02 4.88264E-04-1.22475E-13
 -1      1672 1.44958E-02 4.07708E-04-1.21401E-13
 -1      1673 1.04242E-02 3.92843E-04-5.04449E-14
 -1      1674 1.04518E-02 3.45957E-04-5.05636E-14
 -1      1675 1.02729E-02 5.07922E-04-4.98514E-14
 -1      1676 1.03560E-02 4.55574E-04-5.01222E-14
 -1      1677 9.98024E-03 6.43442E-04-4.90616E-14
 -1      1678 1.01302E-02 5.66619E-04-4.95685E-14
 -1      1679 9.60723E-03 8.29425E-04-4.77498E-14
 -1      1680 9.78119E-03 7.42429E-04-4.83663E-14
 -1      1681 9.22305E-03 1.02629E-03-4.61697E-14
 -1      1682 9.40756E-03 9.41543E-04-4.68708E-14
 -1      1683 8.82473E-03 1.18248E-03-4.45323E-14
 -1      1684 9.01048E-03 1.11668E-03-4.52880E-14
 -1      1685 8.39950E-03 1.27737E-03-4.27532E-14
 -1      1686 8.59386E-03 1.24489E-03-4.36014E-14
 -1      1687 7.94674E-03 1.26593E-03-4.07856E-14
 -1      1688 8.15746E-03 1.28763E-03-4.16936E-14
 -1      1689 7.49668E-03 1.14466E-03-3.90554E-14
 -1      1690 7.69536E-03 1.20797E-03-3.98183E-14
 -1      1691 7.03019E-03 9.44214E-04-3.73536E-14
 -1      1692 7.25638E-03 1.04602E-03-3.81168E-14
 -1      1693 6.57989E-03 7.43005E-04-3.60581E-14
 -1      1694 6.77189E-03 8.34768E-04-3.66197E-14
 -1      1695 6.18571E-03 5.41520E-04-3.49214E-14
 -1      1696 6.36636E-03 6.27937E-04-3.53905E-14
 -1      1697 5.89122E-03 3.97552E-04-3.42350E-14
 -1      1698 6.00780E-03 4.59210E-04-3.45121E-14
 -1      1699 5.74453E-03 2.90453E-04-3.39246E-14
 -1      1700 5.79419E-03 3.37966E-04-3.40397E-14
 -1      1701 5.73971E-03 1.90163E-04-3.39164E-14
 -1      1702 5.72414E-03 2.36357E-04-3.38790E-14
 -1      1703 5.86922E-03 9.38175E-05-3.40871E-14
 -1      1704 5.79455E-03 1.41986E-04-3.39124E-14
 -1      1705 6.10774E-03-4.96937E-05-3.47998E-14
 -1      1706 5.98350E-03 1.61871E-05-3.44765E-14
 -1      1707 6.41946E-03-2.06513E-04-3.56855E-14
 -1      1708 6.27020E-03-1.32428E-04-3.52492E-14
 -1      1709 6.77119E-03-3.70942E-04-3.68231E-14
 -1      1710 6.60541E-03-2.95427E-04-3.62696E-14
 -1      1711 7.12769E-03-5.09986E-04-3.81308E-14
 -1      1712 6.96539E-03-4.50812E-04-3.75159E-14
 -1      1713 7.51527E-03-6.05179E-04-3.97052E-14
 -1      1714 7.33395E-03-5.68936E-04-3.89431E-14
 -1      1715 7.90432E-03-6.24944E-04-4.14108E-14
 -1      1716 7.73023E-03-6.27534E-04-4.06370E-14
 -1      1717 8.29610E-03-5.64258E-04-4.31089E-14
 -1      1718 8.11897E-03-5.99865E-04-4.23458E-14
 -1      1719 8.70618E-03-4.62650E-04-4.46024E-14
 -1      1720 8.52736E-03-5.14098E-04-4.39023E-14
 -1      1721 9.11793E-03-3.24803E-04-4.61254E-14
 -1      1722 8.92073E-03-3.93708E-04-4.54255E-14
 -1      1723 9.61253E-03-1.11728E-04-4.78614E-14
 -1      1724 9.36528E-03-2.14128E-04-4.70736E-14
 -1      1725 1.01863E-02 1.54602E-04-4.96730E-14
 -1      1726 9.91480E-03 2.45837E-05-4.88158E-14
 -1      1727 1.04404E-02 2.90487E-04-5.05005E-14
 -1      1728 1.03979E-02 2.43157E-04-5.04370E-14
 -1      1729 9.44747E-03 8.47001E-04-4.77748E-14
 -1      1730 9.83847E-03 6.37175E-04-4.93544E-14
 -1      1731 1.53948E-02 1.67185E-03-1.23094E-13
 -1      1732 1.52594E-02 1.63017E-03-1.21448E-13
 -1      1733 1.03948E-02 3.95134E-04-5.09534E-14
 -1      1734 1.01790E-02 4.92438E-04-5.03419E-14
 -1      1735 1.04566E-02 3.25605E-04-5.12178E-14
 -1      1736 9.05740E-03 1.06078E-03-4.60118E-14
 -1      1737 8.66250E-03 1.22981E-03-4.41990E-14
 -1      1738 8.26994E-03 1.31202E-03-4.22133E-14
 -1      1739 7.86926E-03 1.25854E-03-4.02003E-14
 -1      1740 7.43299E-03 1.08603E-03-3.83117E-14
 -1      1741 6.97891E-03 8.53916E-04-3.66691E-14
 -1      1742 6.52024E-03 6.22320E-04-3.52941E-14
 -1      1743 6.12463E-03 4.39403E-04-3.42488E-14
 -1      1744 5.84427E-03 3.27070E-04-3.36682E-14
 -1      1745 5.72444E-03 2.51869E-04-3.34424E-14
 -1      1746 5.76242E-03 1.83163E-04-3.34016E-14
 -1      1747 5.94167E-03 9.62754E-05-3.37953E-14
 -1      1748 6.22470E-03-4.69719E-05-3.46371E-14
 -1      1749 6.56571E-03-2.20358E-04-3.56732E-14
 -1      1750 6.92027E-03-4.01129E-04-3.69526E-14
 -1      1751 7.27320E-03-5.54022E-04-3.84610E-14
 -1      1752 7.62710E-03-6.40203E-04-4.02063E-14
 -1      1753 7.97409E-03-6.26801E-04-4.20685E-14
 -1      1754 8.34066E-03-5.27654E-04-4.37781E-14
 -1      1755 8.73977E-03-3.86896E-04-4.53661E-14
 -1      1756 9.17324E-03-1.95904E-04-4.70801E-14
 -1      1757 9.71741E-03 3.65229E-05-4.89052E-14
 -1      1758 1.02635E-02 2.30119E-04-5.05497E-14
 -1      1759 2.74740E-04-1.73391E-04-4.51435E-17
 -1      1760 3.18448E-04-1.19546E-04-1.57792E-16
 -1      1761 3.22425E-04-1.34813E-04-1.47506E-16
 -1      1762 3.28150E-04-1.52727E-04-1.34848E-16
 -1      1763 3.37555E-04-1.73541E-04-1.17270E-16
 -1      1764 4.39298E-04-1.89952E-04-2.14076E-16
 -1      1765 3.11649E-04-7.13682E-05-1.78866E-16
 -1      1766 3.12562E-04-8.19528E-05-1.75532E-16
 -1      1767 3.10649E-04-5.12028E-05-1.83068E-16
 -1      1768 3.11051E-04-6.10500E-05-1.81265E-16
 -1      1769 4.19178E-04-8.75626E-05-2.66050E-16
 -1      1770 3.10396E-04-3.22537E-05-1.84721E-16
 -1      1771 3.10460E-04-4.16023E-05-1.84179E-16
 -1      1772 4.17880E-04-6.12704E-05-2.70969E-16
 -1      1773 3.10651E-04-1.38329E-05-1.84897E-16
 -1      1774 3.10474E-04-2.29982E-05-1.84965E-16
 -1      1775 4.17607E-04-3.63688E-05-2.72812E-16
 -1      1776 3.11309E-04 4.63128E-06-1.83284E-16
 -1      1777 3.10932E-04-4.62494E-06-1.84382E-16
 -1      1778 4.18071E-04-1.19928E-05-2.72297E-16
 -1      1779 3.12363E-04 2.36919E-05-1.79598E-16
 -1      1780 3.11778E-04 1.40689E-05-1.81617E-16
 -1      1781 4.19163E-04 1.26060E-05-2.69140E-16
 -1      1782 3.13872E-04 4.36108E-05-1.73432E-16
 -1      1783 3.13037E-04 3.34875E-05-1.76928E-16
 -1      1784 4.20891E-04 3.79544E-05-2.62973E-16
 -1      1785 3.16144E-04 6.58736E-05-1.64189E-16
 -1      1786 3.14869E-04 5.44695E-05-1.69515E-16
 -1      1787 4.23442E-04 6.51082E-05-2.53663E-16
 -1      1788 3.19767E-04 9.14020E-05-1.50040E-16
 -1      1789 3.17699E-04 7.81979E-05-1.58104E-16
 -1      1790 4.27322E-04 9.54843E-05-2.39582E-16
 -1      1791 3.26278E-04 1.22489E-04-1.27800E-16
 -1      1792 3.22440E-04 1.06187E-04-1.40296E-16
 -1      1793 4.33589E-04 1.30692E-04-2.17721E-16
 -1      1794 3.40603E-04 1.64212E-04-9.41359E-17
 -1      1795 3.31965E-04 1.41816E-04-1.13055E-16
 -1      1796 4.45180E-04 1.74058E-04-1.84816E-16
 -1      1797 3.92878E-04 2.17957E-04-7.08933E-17
 -1      1798 3.65063E-04 1.88180E-04-8.61941E-17
 -1      1799 4.79463E-04 2.24923E-04-1.55326E-16
 -1      1800 5.38546E-04 2.80860E-04-1.31907E-16
 -1      1801 3.26744E-04-1.88985E-04-8.31583E-17
 -1      1802 8.24081E-04 3.74495E-04-3.47256E-16
 -1      1803 6.82263E-04 3.32124E-04-2.24620E-16
 -1      1804 6.50607E-04 3.02905E-04-2.39514E-16
 -1      1805 4.40581E-04-2.35502E-04-1.51978E-16
 -1      1806 7.74452E-04-3.73780E-04-4.14667E-16
 -1      1807 9.13375E-04-4.15867E-04-5.83003E-16
 -1      1808 1.04979E-03-4.51513E-04-7.82536E-16
 -1      1809 1.18493E-03-4.81378E-04-1.01372E-15
 -1      1810 9.61832E-04-4.00631E-04-7.20168E-16
 -1      1811 1.31870E-03-5.06754E-04-1.27600E-15
 -1      1812 1.45166E-03-5.27913E-04-1.56972E-15
 -1      1813 1.23450E-03-4.60579E-04-1.18911E-15
 -1      1814 1.58399E-03-5.45705E-04-1.89448E-15
 -1      1815 1.71591E-03-5.60342E-04-2.25037E-15
 -1      1816 1.50355E-03-5.03148E-04-1.78168E-15
 -1      1817 1.84763E-03-5.72377E-04-2.63692E-15
 -1      1818 1.97922E-03-5.81990E-04-3.05444E-15
 -1      1819 1.77047E-03-5.32564E-04-2.49716E-15
 -1      1820 2.11086E-03-5.89551E-04-3.50281E-15
 -1      1821 2.24258E-03-5.95213E-04-3.98089E-15
 -1      1822 2.03642E-03-5.51836E-04-3.33464E-15
 -1      1823 2.37450E-03-5.99232E-04-4.48940E-15
 -1      1824 2.50664E-03-6.01736E-04-5.02759E-15
 -1      1825 2.30220E-03-5.63140E-04-4.29280E-15
 -1      1826 2.63909E-03-6.02906E-04-5.59532E-15
 -1      1827 2.77187E-03-6.02852E-04-6.19170E-15
 -1      1828 2.56839E-03-5.68078E-04-5.36943E-15
 -1      1829 2.90506E-03-6.01706E-04-6.81662E-15
 -1      1830 3.03868E-03-5.99569E-04-7.46914E-15
 -1      1831 2.83543E-03-5.67859E-04-6.56147E-15
 -1      1832 3.17278E-03-5.96550E-04-8.15026E-15
 -1      1833 3.30743E-03-5.92746E-04-8.85921E-15
 -1      1834 3.10367E-03-5.63436E-04-7.86640E-15
 -1      1835 3.44265E-03-5.88262E-04-9.59528E-15
 -1      1836 3.57852E-03-5.83205E-04-1.03592E-14
 -1      1837 3.37349E-03-5.55635E-04-9.28214E-15
 -1      1838 3.71506E-03-5.77699E-04-1.11490E-14
 -1      1839 3.85237E-03-5.71870E-04-1.19663E-14
 -1      1840 3.64523E-03-5.45278E-04-1.08062E-14
 -1      1841 3.99045E-03-5.65881E-04-1.28101E-14
 -1      1842 4.12943E-03-5.59891E-04-1.36800E-14
 -1      1843 3.91931E-03-5.33310E-04-1.24376E-14
 -1      1844 4.26929E-03-5.54126E-04-1.45757E-14
 -1      1845 4.41014E-03-5.48786E-04-1.54968E-14
 -1      1846 4.19614E-03-5.20940E-04-1.41738E-14
 -1      1847 4.55199E-03-5.44177E-04-1.64452E-14
 -1      1848 4.69488E-03-5.40550E-04-1.74184E-14
 -1      1849 4.47618E-03-5.09769E-04-1.60128E-14
 -1      1850 4.83886E-03-5.38295E-04-1.84162E-14
 -1      1851 4.98386E-03-5.37712E-04-1.94397E-14
 -1      1852 4.75986E-03-5.01903E-04-1.79523E-14
 -1      1853 5.12998E-03-5.39253E-04-2.04901E-14
 -1      1854 5.27700E-03-5.43244E-04-2.15641E-14
 -1      1855 5.04754E-03-4.99995E-04-1.99932E-14
 -1      1856 5.42505E-03-5.50136E-04-2.26639E-14
 -1      1857 5.57373E-03-5.60220E-04-2.37900E-14
 -1      1858 5.33939E-03-5.07133E-04-2.21341E-14
 -1      1859 5.72323E-03-5.73813E-04-2.49412E-14
 -1      1860 5.87287E-03-5.91052E-04-2.61207E-14
 -1      1861 5.63523E-03-5.26446E-04-2.43746E-14
 -1      1862 6.02289E-03-6.11915E-04-2.73275E-14
 -1      1863 6.17243E-03-6.36213E-04-2.85608E-14
 -1      1864 5.93428E-03-5.60268E-04-2.67198E-14
 -1      1865 6.32168E-03-6.63349E-04-2.98233E-14
 -1      1866 6.46974E-03-6.92582E-04-3.11127E-14
 -1      1867 6.23486E-03-6.08741E-04-2.91720E-14
 -1      1868 6.61669E-03-7.22583E-04-3.24312E-14
 -1      1869 6.76193E-03-7.51960E-04-3.37780E-14
 -1      1870 6.53426E-03-6.67985E-04-3.17327E-14
 -1      1871 6.90537E-03-7.78728E-04-3.51545E-14
 -1      1872 7.04710E-03-8.01033E-04-3.65613E-14
 -1      1873 6.82926E-03-7.28517E-04-3.44035E-14
 -1      1874 7.18691E-03-8.16723E-04-3.79976E-14
 -1      1875 7.32588E-03-8.24073E-04-3.94622E-14
 -1      1876 7.11749E-03-7.75413E-04-3.71893E-14
 -1      1877 7.46373E-03-8.21523E-04-4.09580E-14
 -1      1878 7.60238E-03-8.08303E-04-4.24823E-14
 -1      1879 7.39953E-03-7.91799E-04-4.00905E-14
 -1      1880 7.74162E-03-7.84044E-04-4.40344E-14
 -1      1881 7.88361E-03-7.49547E-04-4.56142E-14
 -1      1882 7.68002E-03-7.65196E-04-4.31056E-14
 -1      1883 8.02816E-03-7.05592E-04-4.72193E-14
 -1      1884 8.17696E-03-6.54283E-04-4.88463E-14
 -1      1885 7.96661E-03-6.93815E-04-4.62324E-14
 -1      1886 8.32970E-03-5.97059E-04-5.04909E-14
 -1      1887 8.48685E-03-5.35175E-04-5.21496E-14
 -1      1888 8.26640E-03-5.88021E-04-4.94569E-14
 -1      1889 8.64751E-03-4.70288E-04-5.38106E-14
 -1      1890 8.81145E-03-4.02145E-04-5.54746E-14
 -1      1891 8.58157E-03-4.62914E-04-5.27502E-14
 -1      1892 8.97460E-03-3.31977E-04-5.71236E-14
 -1      1893 9.14087E-03-2.53759E-04-5.87559E-14
 -1      1894 8.90396E-03-3.32004E-04-5.60626E-14
 -1      1895 9.30864E-03-1.64339E-04-6.03524E-14
 -1      1896 9.49981E-03-1.05379E-04-6.19355E-14
 -1      1897 9.21264E-03-1.64998E-04-5.92829E-14
 -1      1898 9.72988E-03-7.78052E-05-6.35467E-14
 -1      1899 9.95757E-03-9.20395E-05-6.52539E-14
 -1      1900 9.57698E-03-1.43678E-07-6.22730E-14
 -1      1901 1.01910E-02-1.52160E-04-6.71694E-14
 -1      1902 1.04129E-02-1.98919E-04-6.93486E-14
 -1      1903 1.00537E-02-3.41651E-05-6.54705E-14
 -1      1904 1.06236E-02-1.89476E-04-7.18145E-14
 -1      1905 1.08543E-02-1.18337E-04-7.42486E-14
 -1      1906 1.05488E-02-1.60434E-04-7.01230E-14
 -1      1907 1.10095E-02-9.12624E-05-7.61058E-14
 -1      1908 1.11637E-02-6.60734E-05-7.79724E-14
 -1      1909 1.09637E-02-6.42411E-05-7.51898E-14
 -1      1910 1.13168E-02-4.23743E-05-7.98431E-14
 -1      1911 1.14690E-02-1.99201E-05-8.17225E-14
 -1      1912 1.12693E-02-1.45133E-05-7.89163E-14
 -1      1913 1.16202E-02 1.60269E-06-8.36105E-14
 -1      1914 1.17705E-02 2.23890E-05-8.55032E-14
 -1      1915 1.15711E-02 2.98650E-05-8.26714E-14
 -1      1916 1.19199E-02 4.26670E-05-8.74018E-14
 -1      1917 1.20685E-02 6.25839E-05-8.93044E-14
 -1      1918 1.18697E-02 7.10137E-05-8.64533E-14
 -1      1919 1.22164E-02 8.22936E-05-9.12115E-14
 -1      1920 1.23637E-02 1.01902E-04-9.31223E-14
 -1      1921 1.21654E-02 1.10512E-04-9.02558E-14
 -1      1922 1.25103E-02 1.21506E-04-9.50361E-14
 -1      1923 1.26564E-02 1.41179E-04-9.69492E-14
 -1      1924 1.24588E-02 1.49467E-04-9.40731E-14
 -1      1925 1.28021E-02 1.60973E-04-9.88602E-14
 -1      1926 1.29472E-02 1.80939E-04-1.00772E-13
 -1      1927 1.27502E-02 1.88609E-04-9.78952E-14
 -1      1928 1.30920E-02 2.01101E-04-1.02686E-13
 -1      1929 1.32365E-02 2.21489E-04-1.04598E-13
 -1      1930 1.30400E-02 2.28384E-04-1.01716E-13
 -1      1931 1.33807E-02 2.42110E-04-1.06506E-13
 -1      1932 1.35246E-02 2.62982E-04-1.08417E-13
 -1      1933 1.33286E-02 2.69041E-04-1.05536E-13
 -1      1934 1.36682E-02 2.84099E-04-1.10329E-13
 -1      1935 1.38118E-02 3.05471E-04-1.12238E-13
 -1      1936 1.36162E-02 3.10693E-04-1.09352E-13
 -1      1937 1.39551E-02 3.27082E-04-1.14151E-13
 -1      1938 1.40983E-02 3.48936E-04-1.16062E-13
 -1      1939 1.39032E-02 3.53364E-04-1.13175E-13
 -1      1940 1.42256E-02 3.67027E-04-1.17771E-13
 -1      1941 1.43686E-02 3.89289E-04-1.19684E-13
 -1      1942 1.44283E-02 4.29532E-04-1.20221E-13
 -1      1943 1.41738E-02 3.93052E-04-1.16796E-13
 -1      1944 1.10099E-03 4.37449E-04-6.81706E-16
 -1      1945 9.63142E-04 4.09101E-04-4.99112E-16
 -1      1946 9.32936E-04 3.80912E-04-5.15674E-16
 -1      1947 1.37320E-03 4.79650E-04-1.13925E-15
 -1      1948 1.23736E-03 4.60762E-04-8.94982E-16
 -1      1949 1.20980E-03 4.33774E-04-9.11773E-16
 -1      1950 1.64385E-03 5.07206E-04-1.71945E-15
 -1      1951 1.50854E-03 4.95021E-04-1.41394E-15
 -1      1952 1.48357E-03 4.68883E-04-1.42949E-15
 -1      1953 1.91488E-03 5.24148E-04-2.42330E-15
 -1      1954 1.77922E-03 5.16838E-04-2.05601E-15
 -1      1955 1.75642E-03 4.91227E-04-2.06951E-15
 -1      1956 2.18746E-03 5.33310E-04-3.24968E-15
 -1      1957 2.05092E-03 5.29579E-04-2.82115E-15
 -1      1958 2.02982E-03 5.04259E-04-2.83194E-15
 -1      1959 2.46233E-03 5.36776E-04-4.19649E-15
 -1      1960 2.32458E-03 5.35660E-04-3.70822E-15
 -1      1961 2.30471E-03 5.10466E-04-3.71562E-15
 -1      1962 2.74004E-03 5.36117E-04-5.26338E-15
 -1      1963 2.60081E-03 5.36886E-04-4.71479E-15
 -1      1964 2.58174E-03 5.11694E-04-4.71860E-15
 -1      1965 3.02101E-03 5.32558E-04-6.44920E-15
 -1      1966 2.88009E-03 5.34636E-04-5.84137E-15
 -1      1967 2.86140E-03 5.09350E-04-5.84088E-15
 -1      1968 3.30570E-03 5.27103E-04-7.75064E-15
 -1      1969 3.16286E-03 5.30008E-04-7.08533E-15
 -1      1970 3.14413E-03 5.04541E-04-7.07983E-15
 -1      1971 3.59464E-03 5.20657E-04-9.16796E-15
 -1      1972 3.44960E-03 5.23941E-04-8.44486E-15
 -1      1973 3.43037E-03 4.98205E-04-8.43414E-15
 -1      1974 3.88845E-03 5.14167E-04-1.06998E-14
 -1      1975 3.74088E-03 5.17343E-04-9.91949E-15
 -1      1976 3.72064E-03 4.91239E-04-9.90196E-15
 -1      1977 4.18790E-03 5.08778E-04-1.23463E-14
 -1      1978 4.03740E-03 5.11238E-04-1.15088E-14
 -1      1979 4.01555E-03 4.84639E-04-1.14845E-14
 -1      1980 4.49392E-03 5.06042E-04-1.41030E-14
 -1      1981 4.34001E-03 5.06948E-04-1.32115E-14
 -1      1982 4.31583E-03 4.79684E-04-1.31804E-14
 -1      1983 4.80751E-03 5.08179E-04-1.59704E-14
 -1      1984 4.64967E-03 5.06322E-04-1.50228E-14
 -1      1985 4.62231E-03 4.78162E-04-1.49849E-14
 -1      1986 5.12969E-03 5.18403E-04-1.79462E-14
 -1      1987 4.96743E-03 5.12036E-04-1.69442E-14
 -1      1988 4.93591E-03 4.82659E-04-1.68988E-14
 -1      1989 5.46134E-03 5.41275E-04-2.00382E-14
 -1      1990 5.29426E-03 5.27938E-04-1.89783E-14
 -1      1991 5.25757E-03 4.96909E-04-1.89243E-14
 -1      1992 5.80289E-03 5.82954E-04-2.22451E-14
 -1      1993 5.63087E-03 5.59374E-04-2.11264E-14
 -1      1994 5.58815E-03 5.26127E-04-2.10640E-14
 -1      1995 6.15391E-03 6.51001E-04-2.45669E-14
 -1      1996 5.97735E-03 6.13274E-04-2.33916E-14
 -1      1997 5.92823E-03 5.77154E-04-2.33189E-14
 -1      1998 6.51261E-03 7.53099E-04-2.70079E-14
 -1      1999 6.33267E-03 6.97529E-04-2.57732E-14
 -1      2000 6.27782E-03 6.57976E-04-2.56912E-14
 -1      2001 6.87510E-03 8.93603E-04-2.95635E-14
 -1      2002 6.69402E-03 8.18719E-04-2.82706E-14
 -1      2003 6.63572E-03 7.75744E-04-2.81783E-14
 -1      2004 7.23504E-03 1.06757E-03-3.22404E-14
 -1      2005 7.05625E-03 9.77467E-04-3.08873E-14
 -1      2006 6.99853E-03 9.32368E-04-3.07840E-14
 -1      2007 7.58443E-03 1.25316E-03-3.50421E-14
 -1      2008 7.41178E-03 1.16109E-03-3.36246E-14
 -1      2009 7.35970E-03 1.11714E-03-3.35109E-14
 -1      2010 7.91763E-03 1.41003E-03-3.79585E-14
 -1      2011 7.75298E-03 1.33795E-03-3.64860E-14
 -1      2012 7.71058E-03 1.29945E-03-3.63622E-14
 -1      2013 8.23741E-03 1.49287E-03-4.09913E-14
 -1      2014 8.07807E-03 1.46263E-03-3.94615E-14
 -1      2015 8.04652E-03 1.43211E-03-3.93328E-14
 -1      2016 8.55604E-03 1.47652E-03-4.41256E-14
 -1      2017 8.39506E-03 1.49653E-03-4.25465E-14
 -1      2018 8.37332E-03 1.47247E-03-4.24145E-14
 -1      2019 8.88844E-03 1.37560E-03-4.73544E-14
 -1      2020 8.71954E-03 1.43405E-03-4.57286E-14
 -1      2021 8.70591E-03 1.41158E-03-4.55947E-14
 -1      2022 9.23933E-03 1.23367E-03-5.06602E-14
 -1      2023 9.06166E-03 1.30692E-03-4.89980E-14
 -1      2024 9.05503E-03 1.28254E-03-4.88623E-14
 -1      2025 9.60233E-03 1.09813E-03-5.40279E-14
 -1      2026 9.42023E-03 1.16302E-03-5.23368E-14
 -1      2027 9.41798E-03 1.13624E-03-5.22033E-14
 -1      2028 9.96895E-03 1.00112E-03-5.74543E-14
 -1      2029 9.78570E-03 1.04442E-03-5.57339E-14
 -1      2030 9.78474E-03 1.01536E-03-5.55994E-14
 -1      2031 1.03296E-02 9.46073E-04-6.09258E-14
 -1      2032 1.01515E-02 9.68916E-04-5.91862E-14
 -1      2033 1.01478E-02 9.38090E-04-5.90459E-14
 -1      2034 1.06810E-02 9.26793E-04-6.44383E-14
 -1      2035 1.05065E-02 9.32469E-04-6.26771E-14
 -1      2036 1.05004E-02 9.00974E-04-6.25368E-14
 -1      2037 1.10235E-02 9.35390E-04-6.79947E-14
 -1      2038 1.08535E-02 9.28122E-04-6.62110E-14
 -1      2039 1.08424E-02 8.96471E-04-6.60707E-14
 -1      2040 1.13566E-02 9.63632E-04-7.15904E-14
 -1      2041 1.11912E-02 9.47474E-04-6.97881E-14
 -1      2042 1.11752E-02 9.15896E-04-6.96440E-14
 -1      2043 1.16807E-02 1.00468E-03-7.52305E-14
 -1      2044 1.15197E-02 9.82859E-04-7.34037E-14
 -1      2045 1.14994E-02 9.51496E-04-7.32587E-14
 -1      2046 1.19967E-02 1.05347E-03-7.89115E-14
 -1      2047 1.18396E-02 1.02831E-03-7.70664E-14
 -1      2048 1.18159E-02 9.97247E-04-7.69161E-14
 -1      2049 1.23058E-02 1.10650E-03-8.26264E-14
 -1      2050 1.21520E-02 1.07959E-03-8.07651E-14
 -1      2051 1.21258E-02 1.04886E-03-8.06101E-14
 -1      2052 1.26092E-02 1.16149E-03-8.63739E-14
 -1      2053 1.24581E-02 1.13384E-03-8.44961E-14
 -1      2054 1.24302E-02 1.10345E-03-8.43390E-14
 -1      2055 1.29081E-02 1.21698E-03-9.01501E-14
 -1      2056 1.27592E-02 1.18922E-03-8.82595E-14
 -1      2057 1.27300E-02 1.15915E-03-8.80975E-14
 -1      2058 1.32033E-02 1.27212E-03-9.39457E-14
 -1      2059 1.30561E-02 1.24462E-03-9.20456E-14
 -1      2060 1.30261E-02 1.21484E-03-9.18838E-14
 -1      2061 1.34958E-02 1.32642E-03-9.77625E-14
 -1      2062 1.33499E-02 1.29938E-03-9.58513E-14
 -1      2063 1.33195E-02 1.26986E-03-9.56862E-14
 -1      2064 1.37861E-02 1.37964E-03-1.01583E-13
 -1      2065 1.36412E-02 1.35317E-03-9.96727E-14
 -1      2066 1.36105E-02 1.32386E-03-9.95055E-14
 -1      2067 1.40749E-02 1.43171E-03-1.05412E-13
 -1      2068 1.39307E-02 1.40582E-03-1.03498E-13
 -1      2069 1.38999E-02 1.37670E-03-1.03329E-13
 -1      2070 1.43625E-02 1.48262E-03-1.09253E-13
 -1      2071 1.42188E-02 1.45730E-03-1.07329E-13
 -1      2072 1.41881E-02 1.42833E-03-1.07160E-13
 -1      2073 1.46493E-02 1.53242E-03-1.13116E-13
 -1      2074 1.45060E-02 1.50765E-03-1.11184E-13
 -1      2075 1.44753E-02 1.47880E-03-1.11012E-13
 -1      2076 1.49355E-02 1.58124E-03-1.16987E-13
 -1      2077 1.47924E-02 1.55695E-03-1.15049E-13
 -1      2078 1.47618E-02 1.52820E-03-1.14879E-13
 -1      2079 1.51689E-02 1.61777E-03-1.20189E-13
 -1      2080 1.50260E-02 1.59380E-03-1.18244E-13
 -1      2081 1.49954E-02 1.56511E-03-1.18071E-13
 -1      2082 1.51764E-02 1.59005E-03-1.20588E-13
 -1      2083 1.50175E-02 1.35166E-03-1.20546E-13
 -1      2084 1.50400E-02 1.39326E-03-1.20482E-13
 -1      2085 1.50626E-02 1.43498E-03-1.20414E-13
 -1      2086 1.50853E-02 1.47680E-03-1.20348E-13
 -1      2087 1.49276E-02 1.39342E-03-1.18765E-13
 -1      2088 1.51192E-02 1.51237E-03-1.20508E-13
 -1      2089 1.51423E-02 1.55436E-03-1.20433E-13
 -1      2090 1.50518E-02 1.54192E-03-1.19174E-13
 -1      2091 1.49839E-02 1.47068E-03-1.18858E-13
 -1      2092 1.49736E-02 1.27020E-03-1.20659E-13
 -1      2093 1.49955E-02 1.31087E-03-1.20602E-13
 -1      2094 1.48831E-02 1.31101E-03-1.18892E-13
 -1      2095 1.49291E-02 1.18778E-03-1.20763E-13
 -1      2096 1.49513E-02 1.22894E-03-1.20712E-13
 -1      2097 1.48390E-02 1.22909E-03-1.19002E-13
 -1      2098 1.48843E-02 1.10571E-03-1.20848E-13
 -1      2099 1.49067E-02 1.14671E-03-1.20808E-13
 -1      2100 1.47945E-02 1.14690E-03-1.19104E-13
 -1      2101 1.48391E-02 1.02385E-03-1.20928E-13
 -1      2102 1.48618E-02 1.06477E-03-1.20887E-13
 -1      2103 1.47497E-02 1.06504E-03-1.19193E-13
 -1      2104 1.47934E-02 9.42030E-04-1.21004E-13
 -1      2105 1.48163E-02 9.82952E-04-1.20968E-13
 -1      2106 1.47045E-02 9.83342E-04-1.19277E-13
 -1      2107 1.47472E-02 8.60069E-04-1.21075E-13
 -1      2108 1.47704E-02 9.01081E-04-1.21039E-13
 -1      2109 1.46586E-02 9.01633E-04-1.19358E-13
 -1      2110 1.47015E-02 7.79211E-04-1.21144E-13
 -1      2111 1.47244E-02 8.19685E-04-1.21109E-13
 -1      2112 1.46126E-02 8.20433E-04-1.19432E-13
 -1      2113 1.46549E-02 6.96559E-04-1.21212E-13
 -1      2114 1.46782E-02 7.37940E-04-1.21177E-13
 -1      2115 1.45664E-02 7.38906E-04-1.19504E-13
 -1      2116 1.46085E-02 6.13449E-04-1.21277E-13
 -1      2117 1.46316E-02 6.55060E-04-1.21244E-13
 -1      2118 1.45197E-02 6.56249E-04-1.19572E-13
 -1      2119 1.45626E-02 5.29890E-04-1.21339E-13
 -1      2120 1.45855E-02 5.71719E-04-1.21309E-13
 -1      2121 1.44733E-02 5.73108E-04-1.19637E-13
 -1      2122 1.01140E-02 4.80219E-04-5.09382E-14
 -1      2123 1.02511E-02 4.33870E-04-5.12284E-14
 -1      2124 1.04653E-02 3.38377E-04-5.21762E-14
 -1      2125 1.04529E-02 3.22091E-04-5.21145E-14
 -1      2126 1.03539E-02 3.94124E-04-5.15561E-14
 -1      2127 1.04259E-02 3.66649E-04-5.18850E-14
 -1      2128 1.03096E-02 3.99645E-04-5.21563E-14
 -1      2129 9.72012E-03 6.54816E-04-4.95987E-14
 -1      2130 9.90901E-03 5.65023E-04-5.02968E-14
 -1      2131 9.29738E-03 8.92121E-04-4.77166E-14
 -1      2132 9.48458E-03 7.80888E-04-4.85977E-14
 -1      2133 3.13773E-04-9.34861E-05-1.71223E-16
 -1      2134 3.15687E-04-1.05798E-04-1.65314E-16
 -1      2135 4.27768E-04-1.49404E-04-2.40883E-16
 -1      2136 4.22022E-04-1.16355E-04-2.56915E-16
 -1      2137 8.56501E-03 1.27021E-03-4.39608E-14
 -1      2138 8.73513E-03 1.19847E-03-4.48896E-14
 -1      2139 8.19842E-03 1.33961E-03-4.17481E-14
 -1      2140 8.35931E-03 1.32887E-03-4.27982E-14
 -1      2141 7.78916E-03 1.23109E-03-3.94954E-14
 -1      2142 7.96982E-03 1.29672E-03-4.04469E-14
 -1      2143 7.39444E-03 1.02811E-03-3.76243E-14
 -1      2144 7.59072E-03 1.14023E-03-3.85408E-14
 -1      2145 6.90841E-03 7.54186E-04-3.58542E-14
 -1      2146 7.13056E-03 8.76606E-04-3.65596E-14
 -1      2147 6.48191E-03 5.35062E-04-3.45676E-14
 -1      2148 6.69154E-03 6.42311E-04-3.52078E-14
 -1      2149 6.83164E-03 6.76081E-04-3.51063E-14
 -1      2150 6.05564E-03 3.53496E-04-3.34157E-14
 -1      2151 6.23151E-03 4.16343E-04-3.37971E-14
 -1      2152 5.79761E-03 2.78060E-04-3.30467E-14
 -1      2153 5.89673E-03 3.07868E-04-3.32237E-14
 -1      2154 5.71230E-03 2.29784E-04-3.28606E-14
 -1      2155 5.73197E-03 2.47922E-04-3.28940E-14
 -1      2156 5.78193E-03 1.83989E-04-3.28590E-14
 -1      2157 5.72866E-03 2.06478E-04-3.28560E-14
 -1      2158 5.71072E-03 2.13487E-04-3.23088E-14
 -1      2159 6.02529E-03 8.56830E-05-3.35245E-14
 -1      2160 5.90354E-03 1.35953E-04-3.31290E-14
 -1      2161 6.32924E-03-5.70686E-05-3.44240E-14
 -1      2162 6.17202E-03 1.80962E-05-3.39719E-14
 -1      2163 6.68526E-03-2.46789E-04-3.56173E-14
 -1      2164 6.51769E-03-1.53997E-04-3.50297E-14
 -1      2165 7.03993E-03-4.38646E-04-3.69732E-14
 -1      2166 6.88494E-03-3.49778E-04-3.62757E-14
 -1      2167 7.36670E-03-5.92300E-04-3.87395E-14
 -1      2168 7.21418E-03-5.26941E-04-3.79219E-14
 -1      2169 7.68521E-03-6.61214E-04-4.06580E-14
 -1      2170 7.54029E-03-6.42385E-04-3.97253E-14
 -1      2171 8.02049E-03-6.10155E-04-4.27437E-14
 -1      2172 7.87152E-03-6.47450E-04-4.18172E-14
 -1      2173 8.40118E-03-4.66819E-04-4.45975E-14
 -1      2174 8.22846E-03-5.37052E-04-4.38178E-14
 -1      2175 8.75918E-03-2.99808E-04-4.61934E-14
 -1      2176 8.58126E-03-3.87121E-04-4.54109E-14
 -1      2177 9.18556E-03-8.77447E-05-4.80388E-14
 -1      2178 8.95798E-03-1.93430E-04-4.71683E-14
 -1      2179 9.81855E-03 1.21209E-04-4.99252E-14
 -1      2180 9.52376E-03 1.90673E-05-4.90430E-14
 -1      2181 1.03452E-02 2.73583E-04-5.16194E-14
 -1      2182 1.01468E-02 2.26111E-04-5.10102E-14
 -1      2183 1.04025E-02 3.02029E-04-5.27125E-14
 -1      2184 8.91664E-03 1.10744E-03-4.59209E-14
 -1      2185 9.09065E-03 1.00652E-03-4.68029E-14
 -1      2186 9.16750E-03 9.49800E-04-4.76191E-14
 -1      2187 5.83363E-04-2.97311E-04-2.49475E-16
 -1      2188 8.81418E-03 1.15620E-03-4.56733E-14
 -1      2189 6.36212E-04-2.93419E-04-3.38962E-16
 -1      2190 1.04580E-02 3.50367E-04-5.27795E-14
 -1      2191 9.93051E-03 5.35666E-04-5.14451E-14
 -1      2192 1.00184E-02 5.03475E-04-5.12001E-14
 -1      2193 1.01173E-02 4.61217E-04-5.20884E-14
 -1      2194 1.45027E-02 4.89738E-04-1.20803E-13
 -1      2195 9.59036E-03 7.09340E-04-4.95377E-14
 -1      2196 9.97966E-03 1.81975E-04-5.11029E-14
 -1      2197 9.29782E-03-1.82080E-05-4.89636E-14
 -1      2198 8.79981E-03-2.09542E-04-4.71120E-14
 -1      2199 8.45444E-03-3.98861E-04-4.53901E-14
 -1      2200 8.10204E-03-5.68081E-04-4.35271E-14
 -1      2201 8.00459E-03-5.91814E-04-4.32616E-14
 -1      2202 8.17432E-03-5.14712E-04-4.43126E-14
 -1      2203 7.76006E-03-6.59843E-04-4.13175E-14
 -1      2204 7.45533E-03-6.24727E-04-3.91744E-14
 -1      2205 7.13465E-03-4.85441E-04-3.72371E-14
 -1      2206 6.80231E-03-2.94685E-04-3.56244E-14
 -1      2207 6.43408E-03-9.43496E-05-3.43580E-14
 -1      2208 5.83231E-03 1.66978E-04-3.25792E-14
 -1      2209 5.77520E-03 1.81412E-04-3.20303E-14
 -1      2210 5.88940E-03 1.46360E-04-3.23055E-14
 -1      2211 5.75707E-03 2.45095E-04-3.24537E-14
 -1      2212 6.37074E-03 4.48591E-04-3.37107E-14
 -1      2213 7.28810E-03 9.42866E-04-3.67876E-14
 -1      2214 7.41640E-03 1.00780E-03-3.70083E-14
 -1      2215 7.18202E-03 8.59518E-04-3.59656E-14
 -1      2216 7.71128E-03 1.18755E-03-3.87880E-14
 -1      2217 8.45459E-03 1.31239E-03-4.34784E-14
 -1      2218 8.10001E-03 1.33220E-03-4.10262E-14
 -1      2219 5.97598E-03 3.04105E-04-3.27820E-14
 -1      2220 6.10758E-03 6.14306E-05-3.33033E-14
 -1      2221 9.85039E-04 3.61763E-04-6.50914E-16
 -1      2222 8.44630E-04 3.30449E-04-4.77713E-16
 -1      2223 5.26926E-04-6.79969E-05-3.86098E-16
 -1      2224 5.27495E-04-8.37403E-05-3.83848E-16
 -1      2225 5.28457E-04-1.00039E-04-3.80582E-16
 -1      2226 5.29896E-04-1.16937E-04-3.76083E-16
 -1      2227 6.39055E-04-1.08723E-04-5.18452E-16
 -1      2228 5.27500E-04-7.21484E-06-3.85691E-16
 -1      2229 5.26991E-04-2.22888E-05-3.86979E-16
 -1      2230 5.29198E-04 2.34345E-05-3.80338E-16
 -1      2231 5.28238E-04 8.01209E-06-3.83604E-16
 -1      2232 6.38688E-04 4.61157E-07-5.21176E-16
 -1      2233 5.31835E-04 5.49318E-05-3.71407E-16
 -1      2234 5.30389E-04 3.89744E-05-3.76476E-16
 -1      2235 6.41155E-04 3.67140E-05-5.13207E-16
 -1      2236 5.35823E-04 8.94531E-05-3.57407E-16
 -1      2237 5.33640E-04 7.18300E-05-3.65064E-16
 -1      2238 6.44988E-04 7.48116E-05-5.00115E-16
 -1      2239 5.41907E-04 1.27960E-04-3.36333E-16
 -1      2240 5.38549E-04 1.08136E-04-3.47880E-16
 -1      2241 6.50740E-04 1.16394E-04-4.80112E-16
 -1      2242 5.51803E-04 1.72703E-04-3.04878E-16
 -1      2243 5.46278E-04 1.49424E-04-3.22320E-16
 -1      2244 6.59511E-04 1.62853E-04-4.50716E-16
 -1      2245 1.26311E-03 4.09076E-04-1.08699E-15
 -1      2246 1.12437E-03 3.87863E-04-8.53823E-16
 -1      2247 1.03982E-03 3.41686E-04-7.92714E-16
 -1      2248 8.76593E-04-3.50225E-04-6.55319E-16
 -1      2249 1.01429E-03-3.84616E-04-8.62727E-16
 -1      2250 8.71422E-03 1.21481E-03-4.53307E-14
 -1      2251 8.86729E-03 1.12852E-03-4.63588E-14
 -1      2252 1.15108E-03-4.14031E-04-1.10074E-15
 -1      2253 1.28733E-03-4.38887E-04-1.36925E-15
 -1      2254 1.06922E-03-3.67645E-04-1.01106E-15
 -1      2255 1.42286E-03-4.59960E-04-1.66792E-15
 -1      2256 1.55793E-03-4.77491E-04-1.99747E-15
 -1      2257 1.34252E-03-4.16462E-04-1.55396E-15
 -1      2258 1.69255E-03-4.92095E-04-2.35714E-15
 -1      2259 1.82687E-03-5.03959E-04-2.74711E-15
 -1      2260 1.61430E-03-4.51165E-04-2.21700E-15
 -1      2261 1.96097E-03-5.13528E-04-3.16706E-15
 -1      2262 2.09492E-03-5.20954E-04-3.61720E-15
 -1      2263 1.88485E-03-4.74740E-04-3.00000E-15
 -1      2264 2.22881E-03-5.26553E-04-4.09666E-15
 -1      2265 2.36268E-03-5.30449E-04-4.60587E-15
 -1      2266 2.15460E-03-4.89529E-04-3.90134E-15
 -1      2267 2.49660E-03-5.32871E-04-5.14438E-15
 -1      2268 2.63061E-03-5.33919E-04-5.71156E-15
 -1      2269 2.42395E-03-4.97303E-04-4.92067E-15
 -1      2270 2.76475E-03-5.33761E-04-6.30739E-15
 -1      2271 2.89907E-03-5.32483E-04-6.93140E-15
 -1      2272 2.69325E-03-4.99402E-04-6.05489E-15
 -1      2273 3.03360E-03-5.30216E-04-7.58360E-15
 -1      2274 3.16839E-03-5.27038E-04-8.26356E-15
 -1      2275 2.96278E-03-4.96855E-04-7.30235E-15
 -1      2276 3.30347E-03-5.23065E-04-8.97031E-15
 -1      2277 3.43889E-03-5.18379E-04-9.70491E-15
 -1      2278 3.23281E-03-4.90496E-04-8.66070E-15
 -1      2279 3.57467E-03-5.13097E-04-1.04663E-14
 -1      2280 3.71090E-03-5.07319E-04-1.12539E-14
 -1      2281 3.50362E-03-4.81085E-04-1.01277E-14
 -1      2282 3.84758E-03-5.01187E-04-1.20679E-14
 -1      2283 3.98480E-03-4.94826E-04-1.29086E-14
 -1      2284 3.77551E-03-4.69426E-04-1.17014E-14
 -1      2285 4.12258E-03-4.88423E-04-1.37755E-14
 -1      2286 4.26102E-03-4.82148E-04-1.46673E-14
 -1      2287 4.04885E-03-4.56491E-04-1.33792E-14
 -1      2288 4.40014E-03-4.76249E-04-1.55844E-14
 -1      2289 4.54005E-03-4.70953E-04-1.65270E-14
 -1      2290 4.32411E-03-4.43558E-04-1.51600E-14
 -1      2291 4.68081E-03-4.66581E-04-1.74942E-14
 -1      2292 4.82247E-03-4.63433E-04-1.84852E-14
 -1      2293 4.60187E-03-4.32335E-04-1.70392E-14
 -1      2294 4.96516E-03-4.61893E-04-1.95016E-14
 -1      2295 5.10886E-03-4.62339E-04-2.05435E-14
 -1      2296 4.88289E-03-4.25072E-04-1.90167E-14
 -1      2297 5.25378E-03-4.65184E-04-2.16103E-14
 -1      2298 5.39977E-03-4.70863E-04-2.27003E-14
 -1      2299 5.16811E-03-4.24603E-04-2.10915E-14
 -1      2300 5.54711E-03-4.79737E-04-2.38160E-14
 -1      2301 5.69547E-03-4.92228E-04-2.49562E-14
 -1      2302 5.45850E-03-4.34240E-04-2.32648E-14
 -1      2303 5.84517E-03-5.08512E-04-2.61228E-14
 -1      2304 5.99558E-03-5.28807E-04-2.73150E-14
 -1      2305 5.75485E-03-4.57398E-04-2.55355E-14
 -1      2306 6.14702E-03-5.52911E-04-2.85331E-14
 -1      2307 6.29858E-03-5.80575E-04-2.97771E-14
 -1      2308 6.05713E-03-4.96650E-04-2.79056E-14
 -1      2309 6.45039E-03-6.11005E-04-3.10483E-14
 -1      2310 6.60140E-03-6.43066E-04-3.23450E-14
 -1      2311 6.36371E-03-5.52046E-04-3.03761E-14
 -1      2312 6.75147E-03-6.75235E-04-3.36678E-14
 -1      2313 6.89989E-03-7.05389E-04-3.50186E-14
 -1      2314 6.67072E-03-6.18523E-04-3.29484E-14
 -1      2315 7.04623E-03-7.31442E-04-3.63991E-14
 -1      2316 7.19080E-03-7.50601E-04-3.78069E-14
 -1      2317 6.97260E-03-6.83497E-04-3.56254E-14
 -1      2318 7.33311E-03-7.60911E-04-3.92414E-14
 -1      2319 7.47469E-03-7.60119E-04-4.07045E-14
 -1      2320 7.26522E-03-7.27056E-04-3.84105E-14
 -1      2321 7.61524E-03-7.47015E-04-4.21960E-14
 -1      2322 7.75722E-03-7.21493E-04-4.37148E-14
 -1      2323 7.54950E-03-7.28408E-04-4.13035E-14
 -1      2324 7.90025E-03-6.83555E-04-4.52611E-14
 -1      2325 8.04701E-03-6.36004E-04-4.68353E-14
 -1      2326 7.83258E-03-6.75552E-04-4.43065E-14
 -1      2327 8.19652E-03-5.79239E-04-4.84330E-14
 -1      2328 8.35090E-03-5.18585E-04-5.00556E-14
 -1      2329 8.12427E-03-5.74465E-04-4.74195E-14
 -1      2330 8.50983E-03-4.54302E-04-5.16919E-14
 -1      2331 8.67098E-03-3.88720E-04-5.33454E-14
 -1      2332 8.43204E-03-4.47275E-04-5.06353E-14
 -1      2333 8.83371E-03-3.28059E-04-5.50036E-14
 -1      2334 8.99460E-03-2.66167E-04-5.66592E-14
 -1      2335 8.75448E-03-3.15375E-04-5.39372E-14
 -1      2336 9.14042E-03-1.99778E-04-5.82666E-14
 -1      2337 9.27403E-03-9.21271E-05-5.97988E-14
 -1      2338 9.08588E-03-2.10595E-04-5.72818E-14
 -1      2339 9.39926E-03 8.80514E-05-6.11766E-14
 -1      2340 9.59202E-03 1.70214E-04-6.24189E-14
 -1      2341 9.30636E-03 3.63623E-05-6.03892E-14
 -1      2342 9.85355E-03 1.15557E-04-6.38455E-14
 -1      2343 1.01051E-02 1.53088E-05-6.55302E-14
 -1      2344 9.56327E-03 2.89629E-04-6.22936E-14
 -1      2345 1.03753E-02-1.00384E-04-6.79187E-14
 -1      2346 1.06476E-02-1.25606E-04-7.09793E-14
 -1      2347 1.00680E-02 2.75306E-05-6.51385E-14
 -1      2348 1.09204E-02-3.74974E-05-7.42729E-14
 -1      2349 1.10728E-02-1.13842E-05-7.61285E-14
 -1      2350 1.06771E-02-8.83775E-05-7.17016E-14
 -1      2351 1.12242E-02 1.29926E-05-7.79902E-14
 -1      2352 1.13747E-02 3.59353E-05-7.98591E-14
 -1      2353 1.11815E-02 4.01829E-05-7.70657E-14
 -1      2354 1.15244E-02 5.77671E-05-8.17352E-14
 -1      2355 1.16733E-02 7.87180E-05-8.36187E-14
 -1      2356 1.14798E-02 8.52989E-05-8.08015E-14
 -1      2357 1.18215E-02 9.90383E-05-8.55093E-14
 -1      2358 1.19690E-02 1.18895E-04-8.74037E-14
 -1      2359 1.17752E-02 1.26699E-04-8.45638E-14
 -1      2360 1.21160E-02 1.38467E-04-8.93022E-14
 -1      2361 1.22625E-02 1.57872E-04-9.12046E-14
 -1      2362 1.20682E-02 1.66100E-04-8.83499E-14
 -1      2363 1.24085E-02 1.77228E-04-9.31105E-14
 -1      2364 1.25541E-02 1.96614E-04-9.50202E-14
 -1      2365 1.23595E-02 2.04724E-04-9.21506E-14
 -1      2366 1.26993E-02 2.16102E-04-9.69292E-14
 -1      2367 1.28441E-02 2.35743E-04-9.88379E-14
 -1      2368 1.26494E-02 2.43391E-04-9.59630E-14
 -1      2369 1.29887E-02 2.55574E-04-1.00747E-13
 -1      2370 1.31330E-02 2.75628E-04-1.02657E-13
 -1      2371 1.29382E-02 2.82616E-04-9.97781E-14
 -1      2372 1.32771E-02 2.95918E-04-1.04565E-13
 -1      2373 1.34209E-02 3.16462E-04-1.06471E-13
 -1      2374 1.32261E-02 3.22694E-04-1.03590E-13
 -1      2375 1.35646E-02 3.37261E-04-1.08380E-13
 -1      2376 1.37081E-02 3.58323E-04-1.10288E-13
 -1      2377 1.35134E-02 3.63766E-04-1.07405E-13
 -1      2378 1.38515E-02 3.79638E-04-1.12196E-13
 -1      2379 1.39947E-02 4.01208E-04-1.14107E-13
 -1      2380 1.38001E-02 4.05877E-04-1.11219E-13
 -1      2381 1.02715E-02 4.08045E-04-5.29064E-14
 -1      2382 1.03651E-02 3.82695E-04-5.32398E-14
 -1      2383 1.81444E-03 4.59853E-04-2.32076E-15
 -1      2384 1.67679E-03 4.51389E-04-1.96680E-15
 -1      2385 2.09019E-03 4.70740E-04-3.11936E-15
 -1      2386 1.95222E-03 4.66242E-04-2.70507E-15
 -1      2387 1.87344E-03 4.27851E-04-2.57625E-15
 -1      2388 2.36712E-03 4.75291E-04-4.03746E-15
 -1      2389 2.22848E-03 4.73703E-04-3.56345E-15
 -1      2390 2.15100E-03 4.36691E-04-3.41029E-15
 -1      2391 2.64581E-03 4.75229E-04-5.07465E-15
 -1      2392 2.50622E-03 4.75754E-04-4.54119E-15
 -1      2393 2.42949E-03 4.39702E-04-4.36272E-15
 -1      2394 2.92668E-03 4.71872E-04-6.22977E-15
 -1      2395 2.78595E-03 4.73895E-04-5.63719E-15
 -1      2396 2.70937E-03 4.38476E-04-5.43309E-15
 -1      2397 3.21015E-03 4.66269E-04-7.49963E-15
 -1      2398 3.06806E-03 4.69292E-04-6.85068E-15
 -1      2399 2.99100E-03 4.34243E-04-6.61994E-15
 -1      2400 3.49660E-03 4.59325E-04-8.88332E-15
 -1      2401 3.35296E-03 4.62908E-04-8.17739E-15
 -1      2402 3.27472E-03 4.27996E-04-7.92083E-15
 -1      2403 3.78649E-03 4.51929E-04-1.03807E-14
 -1      2404 3.64107E-03 4.55621E-04-9.61800E-15
 -1      2405 3.56086E-03 4.20609E-04-9.33409E-15
 -1      2406 4.08032E-03 4.45107E-04-1.19912E-14
 -1      2407 3.93285E-03 4.48370E-04-1.11718E-14
 -1      2408 3.84975E-03 4.12971E-04-1.08603E-14
 -1      2409 4.37870E-03 4.40203E-04-1.37124E-14
 -1      2410 4.22887E-03 4.42314E-04-1.28383E-14
 -1      2411 4.14180E-03 4.06138E-04-1.24976E-14
 -1      2412 4.68233E-03 4.39117E-04-1.55434E-14
 -1      2413 4.52977E-03 4.39041E-04-1.46142E-14
 -1      2414 4.43749E-03 4.01514E-04-1.42457E-14
 -1      2415 4.99202E-03 4.44599E-04-1.74822E-14
 -1      2416 4.83632E-03 4.40836E-04-1.64994E-14
 -1      2417 4.73742E-03 4.01091E-04-1.61014E-14
 -1      2418 5.30877E-03 4.60592E-04-1.95341E-14
 -1      2419 5.14943E-03 4.50997E-04-1.84939E-14
 -1      2420 5.04239E-03 4.07734E-04-1.80668E-14
 -1      2421 5.63372E-03 4.92551E-04-2.16980E-14
 -1      2422 5.47016E-03 4.74183E-04-2.06013E-14
 -1      2423 5.35359E-03 4.25504E-04-2.01422E-14
 -1      2424 5.96827E-03 5.47560E-04-2.39768E-14
 -1      2425 5.79982E-03 5.16667E-04-2.28234E-14
 -1      2426 5.67273E-03 4.59973E-04-2.23307E-14
 -1      2427 6.31381E-03 6.33794E-04-2.63729E-14
 -1      2428 6.13984E-03 5.86195E-04-2.51596E-14
 -1      2429 6.00235E-03 5.18363E-04-2.46339E-14
 -1      2430 6.67099E-03 7.58507E-04-2.88830E-14
 -1      2431 6.49142E-03 6.90937E-04-2.76136E-14
 -1      2432 6.34560E-03 6.09172E-04-2.70518E-14
 -1      2433 7.03776E-03 9.23159E-04-3.15141E-14
 -1      2434 6.85400E-03 8.36050E-04-3.01835E-14
 -1      2435 6.70492E-03 7.40192E-04-2.95871E-14
 -1      2436 7.40741E-03 1.11520E-03-3.42686E-14
 -1      2437 7.22345E-03 1.01742E-03-3.28746E-14
 -1      2438 7.07917E-03 9.13357E-04-3.22413E-14
 -1      2439 7.76818E-03 1.29885E-03-3.71465E-14
 -1      2440 7.58956E-03 1.21160E-03-3.56924E-14
 -1      2441 7.45937E-03 1.11457E-03-3.50223E-14
 -1      2442 8.11331E-03 1.41971E-03-4.01485E-14
 -1      2443 7.94164E-03 1.37094E-03-3.86336E-14
 -1      2444 7.82970E-03 1.29985E-03-3.79320E-14
 -1      2445 8.45082E-03 1.43424E-03-4.32597E-14
 -1      2446 8.28050E-03 1.44189E-03-4.16913E-14
 -1      2447 8.18304E-03 1.40591E-03-4.09662E-14
 -1      2448 8.79822E-03 1.34238E-03-4.64717E-14
 -1      2449 8.62124E-03 1.39820E-03-4.48542E-14
 -1      2450 8.53327E-03 1.38698E-03-4.41114E-14
 -1      2451 9.16353E-03 1.19537E-03-4.97672E-14
 -1      2452 8.97914E-03 1.27189E-03-4.81091E-14
 -1      2453 8.89828E-03 1.26313E-03-4.73527E-14
 -1      2454 9.53673E-03 1.04912E-03-5.31238E-14
 -1      2455 9.35054E-03 1.11920E-03-5.14376E-14
 -1      2456 9.27978E-03 1.10238E-03-5.06720E-14
 -1      2457 9.90581E-03 9.39733E-04-5.65366E-14
 -1      2458 9.72288E-03 9.88810E-04-5.48243E-14
 -1      2459 9.66136E-03 9.61344E-04-5.40503E-14
 -1      2460 1.02650E-02 8.75806E-04-5.99981E-14
 -1      2461 1.00873E-02 9.02590E-04-5.82625E-14
 -1      2462 1.00304E-02 8.66372E-04-5.74782E-14
 -1      2463 1.06072E-02 8.51044E-04-6.34975E-14
 -1      2464 1.04377E-02 8.59189E-04-6.17411E-14
 -1      2465 1.03803E-02 8.17535E-04-6.09472E-14
 -1      2466 1.09390E-02 8.55986E-04-6.70418E-14
 -1      2467 1.07745E-02 8.50354E-04-6.52647E-14
 -1      2468 1.07127E-02 8.05064E-04-6.44597E-14
 -1      2469 1.12619E-02 8.82022E-04-7.06263E-14
 -1      2470 1.11015E-02 8.66836E-04-6.88295E-14
 -1      2471 1.10341E-02 8.18932E-04-6.80145E-14
 -1      2472 1.15774E-02 9.21957E-04-7.42489E-14
 -1      2473 1.14205E-02 9.00608E-04-7.24322E-14
 -1      2474 1.13473E-02 8.50913E-04-7.16072E-14
 -1      2475 1.18868E-02 9.70410E-04-7.79161E-14
 -1      2476 1.17328E-02 9.45373E-04-7.60783E-14
 -1      2477 1.16545E-02 8.94557E-04-7.52415E-14
 -1      2478 1.21910E-02 1.02362E-03-8.16172E-14
 -1      2479 1.20394E-02 9.96595E-04-7.97619E-14
 -1      2480 1.19570E-02 9.45186E-04-7.89150E-14
 -1      2481 1.24911E-02 1.07908E-03-8.53519E-14
 -1      2482 1.23415E-02 1.05118E-03-8.34806E-14
 -1      2483 1.22559E-02 9.99571E-04-8.26244E-14
 -1      2484 1.27877E-02 1.13520E-03-8.91169E-14
 -1      2485 1.26397E-02 1.10713E-03-8.72304E-14
 -1      2486 1.25519E-02 1.05558E-03-8.63658E-14
 -1      2487 1.30815E-02 1.19102E-03-9.29033E-14
 -1      2488 1.29349E-02 1.16319E-03-9.10095E-14
 -1      2489 1.28455E-02 1.11186E-03-9.01362E-14
 -1      2490 1.33732E-02 1.24599E-03-9.67105E-14
 -1      2491 1.32276E-02 1.21864E-03-9.48040E-14
 -1      2492 1.31371E-02 1.16762E-03-9.39257E-14
 -1      2493 1.36632E-02 1.29984E-03-1.00529E-13
 -1      2494 1.35184E-02 1.27307E-03-9.86198E-14
 -1      2495 1.34272E-02 1.22240E-03-9.77327E-14
 -1      2496 1.39519E-02 1.35248E-03-1.04354E-13
 -1      2497 1.38077E-02 1.32632E-03-1.02441E-13
 -1      2498 1.37161E-02 1.27601E-03-1.01553E-13
 -1      2499 1.42395E-02 1.40390E-03-1.08191E-13
 -1      2500 1.40958E-02 1.37834E-03-1.06271E-13
 -1      2501 1.40041E-02 1.32838E-03-1.05380E-13
 -1      2502 1.45265E-02 1.45415E-03-1.12045E-13
 -1      2503 1.43831E-02 1.42917E-03-1.10113E-13
 -1      2504 1.42912E-02 1.37953E-03-1.09219E-13
 -1      2505 1.48129E-02 1.50333E-03-1.15912E-13
 -1      2506 1.46697E-02 1.47887E-03-1.13978E-13
 -1      2507 1.45779E-02 1.42953E-03-1.13072E-13
 -1      2508 1.49613E-02 1.52940E-03-1.17915E-13
 -1      2509 1.47046E-02 1.18792E-03-1.17349E-13
 -1      2510 1.47267E-02 1.22904E-03-1.17294E-13
 -1      2511 1.46601E-02 1.10601E-03-1.17450E-13
 -1      2512 1.46824E-02 1.14692E-03-1.17400E-13
 -1      2513 1.45702E-02 1.14674E-03-1.15698E-13
 -1      2514 1.47927E-02 1.35175E-03-1.17117E-13
 -1      2515 1.48152E-02 1.39339E-03-1.17050E-13
 -1      2516 1.47487E-02 1.26993E-03-1.17237E-13
 -1      2517 1.47705E-02 1.31060E-03-1.17179E-13
 -1      2518 1.46581E-02 1.31034E-03-1.15468E-13
 -1      2519 1.46142E-02 1.22844E-03-1.15588E-13
 -1      2520 1.46153E-02 1.02440E-03-1.17542E-13
 -1      2521 1.46378E-02 1.06518E-03-1.17497E-13
 -1      2522 1.45258E-02 1.06515E-03-1.15801E-13
 -1      2523 1.45699E-02 9.42914E-04-1.17632E-13
 -1      2524 1.45926E-02 9.83656E-04-1.17586E-13
 -1      2525 1.44809E-02 9.83846E-04-1.15898E-13
 -1      2526 1.45238E-02 8.61366E-04-1.17714E-13
 -1      2527 1.45469E-02 9.02163E-04-1.17674E-13
 -1      2528 1.44353E-02 9.02619E-04-1.15989E-13
 -1      2529 1.44781E-02 7.80965E-04-1.17792E-13
 -1      2530 1.45010E-02 8.21206E-04-1.17753E-13
 -1      2531 1.43894E-02 8.21958E-04-1.16074E-13
 -1      2532 1.44312E-02 6.98792E-04-1.17866E-13
 -1      2533 1.44547E-02 7.39935E-04-1.17830E-13
 -1      2534 1.43431E-02 7.40992E-04-1.16155E-13
 -1      2535 1.43845E-02 6.16133E-04-1.17936E-13
 -1      2536 1.44078E-02 6.57527E-04-1.17903E-13
 -1      2537 1.42961E-02 6.58874E-04-1.16231E-13
 -1      2538 1.43381E-02 5.32944E-04-1.17999E-13
 -1      2539 1.43612E-02 5.74602E-04-1.17966E-13
 -1      2540 1.42492E-02 5.76199E-04-1.16299E-13
 -1      2541 1.43756E-02 4.71346E-04-1.19089E-13
 -1      2542 9.47586E-03 7.66231E-04-4.96560E-14
 -1      2543 9.68976E-03 6.51333E-04-5.06604E-14
 -1      2544 1.53911E-03 4.40335E-04-1.64327E-15
 -1      2545 1.40126E-03 4.26479E-04-1.34999E-15
 -1      2546 1.59622E-03 4.11081E-04-1.86182E-15
 -1      2547 1.04435E-02 3.59606E-04-5.35393E-14
 -1      2548 1.04823E-02 3.49535E-04-5.38329E-14
 -1      2549 1.00866E-02 1.95929E-04-5.23236E-14
 -1      2550 9.77222E-03 1.08614E-04-5.12010E-14
 -1      2551 1.04682E-02 3.36733E-04-5.39382E-14
 -1      2552 1.03616E-02 2.99232E-04-5.34203E-14
 -1      2553 5.72244E-03 2.21750E-04-3.17197E-14
 -1      2554 5.78507E-03 2.34430E-04-3.18570E-14
 -1      2555 5.26710E-04-3.73904E-05-3.87507E-16
 -1      2556 5.26679E-04-5.25610E-05-3.87155E-16
 -1      2557 6.37442E-04-7.13453E-05-5.24063E-16
 -1      2558 6.37421E-04-3.53188E-05-5.24686E-16
 -1      2559 7.97806E-03 1.30457E-03-4.00493E-14
 -1      2560 8.16145E-03 1.35153E-03-4.13325E-14
 -1      2561 5.88652E-03 2.58856E-04-3.20136E-14
 -1      2562 6.02744E-03 2.93412E-04-3.21843E-14
 -1      2563 8.38149E-03 1.34739E-03-4.29967E-14
 -1      2564 8.53465E-03 1.29601E-03-4.41539E-14
 -1      2565 8.61462E-03 1.27722E-03-4.48304E-14
 -1      2566 7.64309E-03 1.14067E-03-3.80332E-14
 -1      2567 7.80324E-03 1.23154E-03-3.89695E-14
 -1      2568 6.74258E-03 6.01128E-04-3.42576E-14
 -1      2569 6.93414E-03 7.07769E-04-3.48799E-14
 -1      2570 6.18028E-03 3.28430E-05-3.30195E-14
 -1      2571 6.04240E-03 8.82910E-05-3.25688E-14
 -1      2572 6.26026E-03 3.76110E-04-3.27643E-14
 -1      2573 6.49457E-03 4.78243E-04-3.35061E-14
 -1      2574 6.59457E-03 5.16941E-04-3.32879E-14
 -1      2575 5.71027E-03 2.01967E-04-3.17509E-14
 -1      2576 5.69828E-03 2.10274E-04-3.17466E-14
 -1      2577 6.52100E-03-1.34712E-04-3.41921E-14
 -1      2578 6.35110E-03-4.67057E-05-3.35833E-14
 -1      2579 6.85928E-03-3.30614E-04-3.54974E-14
 -1      2580 6.69498E-03-2.30882E-04-3.48368E-14
 -1      2581 6.58749E-03-1.82182E-04-3.40546E-14
 -1      2582 7.23353E-03-5.40055E-04-3.76525E-14
 -1      2583 7.08367E-03-4.59563E-04-3.66960E-14
 -1      2584 7.51430E-03-6.47774E-04-3.96172E-14
 -1      2585 7.38201E-03-6.04533E-04-3.86239E-14
 -1      2586 7.30969E-03-5.82814E-04-3.80778E-14
 -1      2587 7.82402E-03-6.46204E-04-4.20616E-14
 -1      2588 7.67956E-03-6.64066E-04-4.09062E-14
 -1      2589 8.49464E-03-3.14486E-04-4.63851E-14
 -1      2590 8.35114E-03-4.00534E-04-4.56192E-14
 -1      2591 8.78298E-03-1.27581E-04-4.80945E-14
 -1      2592 8.62749E-03-2.21544E-04-4.72351E-14
 -1      2593 8.52697E-03-2.38597E-04-4.74128E-14
 -1      2594 9.36362E-03 1.71638E-05-5.01333E-14
 -1      2595 9.04709E-03-5.50049E-05-4.91688E-14
 -1      2596 5.63959E-04-2.40351E-04-3.13280E-16
 -1      2597 7.48517E-04-3.08050E-04-4.99221E-16
 -1      2598 8.05193E-04-2.98893E-04-6.11124E-16
 -1      2599 5.54734E-04-2.14032E-04-3.33148E-16
 -1      2600 7.33550E-04 3.05338E-04-3.54534E-16
 -1      2601 5.91585E-04 2.61417E-04-2.34567E-16
 -1      2602 5.66268E-04 2.35790E-04-2.42265E-16
 -1      2603 7.88744E-04 2.92229E-04-4.60637E-16
 -1      2604 9.08485E-03 9.99311E-04-4.76112E-14
 -1      2605 9.26181E-03 8.89478E-04-4.85280E-14
 -1      2606 6.42935E-04-1.48685E-04-5.06865E-16
 -1      2607 5.31984E-04-1.34712E-04-3.69970E-16
 -1      2608 5.34746E-04-1.53527E-04-3.61974E-16
 -1      2609 1.31861E-03 3.83594E-04-1.26774E-15
 -1      2610 5.54834E-04 2.06267E-04-2.69004E-16
 -1      2611 8.97895E-03 1.07329E-03-4.72576E-14
 -1      2612 5.47915E-04-1.90439E-04-3.48815E-16
 -1      2613 8.84004E-03-8.00612E-05-4.91240E-14
 -1      2614 9.72537E-03 6.52695E-04-5.16859E-14
 -1      2615 9.81877E-03 5.90846E-04-5.15665E-14
 -1      2616 9.94026E-03 5.44838E-04-5.24755E-14
 -1      2617 1.02053E-02 4.35457E-04-5.31681E-14
 -1      2618 1.04957E-02 3.48975E-04-5.47005E-14
 -1      2619 1.48694E-02 1.48033E-03-1.17010E-13
 -1      2620 1.02152E-02 2.44602E-04-5.36200E-14
 -1      2621 1.48356E-02 1.44472E-03-1.16852E-13
 -1      2622 1.42184E-02 4.33106E-04-1.17107E-13
 -1      2623 1.42931E-02 4.93076E-04-1.17688E-13
 -1      2624 1.41808E-02 4.94883E-04-1.16019E-13
 -1      2625 1.40911E-02 4.15094E-04-1.15399E-13
 -1      2626 7.59394E-03-6.59281E-04-4.03462E-14
 -1      2627 6.96805E-03-4.00618E-04-3.58936E-14
 -1      2628 6.85202E-03-3.46060E-04-3.50954E-14
 -1      2629 7.05623E-03-4.63356E-04-3.62998E-14
 -1      2630 9.39110E-03 8.24884E-04-4.96445E-14
 -1      2631 6.69002E-04 2.25417E-04-3.90516E-16
 -1      2632 1.04273E-02 3.73446E-04-5.42927E-14
 -1      2633 9.51144E-03 3.56224E-05-5.12617E-14
 -1      2634 1.47004E-02 1.40271E-03-1.15208E-13
 -1      2635 5.81811E-03 2.30572E-04-3.12719E-14
 -1      2636 6.12756E-03 3.16890E-04-3.19821E-14
 -1      2637 6.22384E-03 3.48437E-04-3.17749E-14
 -1      2638 6.01097E-03 2.75542E-04-3.12172E-14
 -1      2639 6.25941E-03-1.33865E-05-3.28452E-14
 -1      2640 5.69648E-03 2.05816E-04-3.11564E-14
 -1      2641 8.23936E-03-4.45813E-04-4.53119E-14
 -1      2642 5.94859E-03 1.19412E-04-3.20150E-14
 -1      2643 5.86560E-03 1.37447E-04-3.14630E-14
 -1      2644 6.00225E-03 8.65592E-05-3.17294E-14
 -1      2645 7.06869E-03 7.79584E-04-3.50946E-14
 -1      2646 7.18514E-03 8.52273E-04-3.53045E-14
 -1      2647 6.95641E-03 7.11348E-04-3.42379E-14
 -1      2648 7.52606E-03 1.06920E-03-3.71898E-14
 -1      2649 7.89203E-03 1.27333E-03-3.92734E-14
 -1      2650 5.72996E-03 1.87195E-04-3.14697E-14
 -1      2651 5.69509E-03 1.84954E-04-3.09092E-14
 -1      2652 5.75960E-03 1.70801E-04-3.11940E-14
 -1      2653 7.90259E-03-6.18432E-04-4.28269E-14
 -1      2654 7.81989E-03-6.34671E-04-4.24161E-14
 -1      2655 7.97419E-03-5.80226E-04-4.36003E-14
 -1      2656 1.40396E-02 4.41121E-04-1.14417E-13
 -1      2657 8.17341E-03 1.36092E-03-4.12794E-14
 -1      2658 8.28956E-03 1.36206E-03-4.22721E-14
 -1      2659 7.55163E-04 5.25340E-05-6.66595E-16
 -1      2660 7.53257E-04 3.15592E-05-6.73018E-16
 -1      2661 7.51712E-04 1.06161E-05-6.78128E-16
 -1      2662 7.50571E-04-1.00162E-05-6.81868E-16
 -1      2663 8.66426E-04 2.31783E-05-8.55856E-16
 -1      2664 7.68310E-04 1.45286E-04-6.21207E-16
 -1      2665 7.64028E-04 1.20562E-04-6.36223E-16
 -1      2666 7.80149E-04 1.99142E-04-5.82542E-16
 -1      2667 7.73650E-04 1.71419E-04-6.03684E-16
 -1      2668 8.88252E-04 1.75679E-04-7.80341E-16
 -1      2669 1.09706E-03 3.20735E-04-9.41237E-16
 -1      2670 9.57278E-04 2.96528E-04-7.28923E-16
 -1      2671 1.04184E-02 3.89067E-04-5.51866E-14
 -1      2672 1.04854E-02 3.73475E-04-5.54899E-14
 -1      2673 1.37613E-03 3.57302E-04-1.45442E-15
 -1      2674 1.23659E-03 3.40872E-04-1.18307E-15
 -1      2675 1.15576E-03 2.98751E-04-1.09667E-15
 -1      2676 7.79403E-04 2.48388E-04-5.16419E-16
 -1      2677 6.59686E-04-2.11107E-04-4.84340E-16
 -1      2678 8.37748E-03 1.35977E-03-4.29358E-14
 -1      2679 1.26324E-03-3.73286E-04-1.43940E-15
 -1      2680 1.39992E-03-3.93248E-04-1.74348E-15
 -1      2681 1.53632E-03-4.10128E-04-2.07684E-15
 -1      2682 1.67254E-03-4.24126E-04-2.44027E-15
 -1      2683 1.45896E-03-3.69255E-04-1.93752E-15
 -1      2684 1.80852E-03-4.35662E-04-2.83336E-15
 -1      2685 1.94431E-03-4.44897E-04-3.25570E-15
 -1      2686 1.73228E-03-3.96468E-04-2.66749E-15
 -1      2687 2.07991E-03-4.52161E-04-3.70786E-15
 -1      2688 2.21538E-03-4.57582E-04-4.18857E-15
 -1      2689 2.00501E-03-4.14551E-04-3.51483E-15
 -1      2690 2.35072E-03-4.61411E-04-4.69830E-15
 -1      2691 2.48596E-03-4.63750E-04-5.23705E-15
 -1      2692 2.27712E-03-4.25242E-04-4.47790E-15
 -1      2693 2.62115E-03-4.64786E-04-5.80463E-15
 -1      2694 2.75629E-03-4.64600E-04-6.39979E-15
 -1      2695 2.54864E-03-4.29915E-04-5.55580E-15
 -1      2696 2.89142E-03-4.63337E-04-7.02303E-15
 -1      2697 3.02656E-03-4.61065E-04-7.67429E-15
 -1      2698 2.81969E-03-4.29632E-04-6.74614E-15
 -1      2699 3.16172E-03-4.57904E-04-8.35315E-15
 -1      2700 3.29696E-03-4.53917E-04-9.05878E-15
 -1      2701 3.09037E-03-4.25228E-04-8.04753E-15
 -1      2702 3.43228E-03-4.49217E-04-9.79151E-15
 -1      2703 3.56773E-03-4.43873E-04-1.05515E-14
 -1      2704 3.36082E-03-4.17407E-04-9.45801E-15
 -1      2705 3.70333E-03-4.38010E-04-1.13373E-14
 -1      2706 3.83915E-03-4.31715E-04-1.21485E-14
 -1      2707 3.63122E-03-4.06835E-04-1.09753E-14
 -1      2708 3.97520E-03-4.25139E-04-1.29862E-14
 -1      2709 4.11157E-03-4.18407E-04-1.38500E-14
 -1      2710 3.90181E-03-3.94259E-04-1.25966E-14
 -1      2711 4.24831E-03-4.11709E-04-1.47385E-14
 -1      2712 4.38553E-03-4.05226E-04-1.56515E-14
 -1      2713 4.17299E-03-3.80614E-04-1.43204E-14
 -1      2714 4.52329E-03-3.99200E-04-1.65893E-14
 -1      2715 4.66174E-03-3.93892E-04-1.75509E-14
 -1      2716 4.44533E-03-3.67150E-04-1.61430E-14
 -1      2717 4.80100E-03-3.89597E-04-1.85363E-14
 -1      2718 4.94120E-03-3.86681E-04-1.95457E-14
 -1      2719 4.71974E-03-3.55562E-04-1.80613E-14
 -1      2720 5.08258E-03-3.85480E-04-2.05806E-14
 -1      2721 5.22523E-03-3.86492E-04-2.16389E-14
 -1      2722 4.99749E-03-3.48125E-04-2.00753E-14
 -1      2723 5.36949E-03-3.90057E-04-2.27208E-14
 -1      2724 5.51533E-03-3.96798E-04-2.38269E-14
 -1      2725 5.28034E-03-3.47805E-04-2.21850E-14
 -1      2726 5.66321E-03-4.06989E-04-2.49573E-14
 -1      2727 5.81286E-03-4.21317E-04-2.61115E-14
 -1      2728 5.57040E-03-3.58306E-04-2.43882E-14
 -1      2729 5.96476E-03-4.39894E-04-2.72898E-14
 -1      2730 6.11819E-03-4.63132E-04-2.84920E-14
 -1      2731 5.86967E-03-3.83908E-04-2.66862E-14
 -1      2732 6.27347E-03-4.90798E-04-2.97187E-14
 -1      2733 6.42943E-03-5.22629E-04-3.09695E-14
 -1      2734 6.17884E-03-4.28504E-04-2.90756E-14
 -1      2735 6.58606E-03-5.57743E-04-3.22457E-14
 -1      2736 6.74169E-03-5.94372E-04-3.35445E-14
 -1      2737 6.49564E-03-4.93249E-04-3.15584E-14
 -1      2738 6.89572E-03-6.30961E-04-3.48712E-14
 -1      2739 7.04720E-03-6.63627E-04-3.62233E-14
 -1      2740 6.81344E-03-5.72247E-04-3.41366E-14
 -1      2741 7.19529E-03-6.90037E-04-3.76012E-14
 -1      2742 7.34082E-03-7.06327E-04-3.90040E-14
 -1      2743 7.12232E-03-6.47305E-04-3.68126E-14
 -1      2744 7.48328E-03-7.09891E-04-4.04344E-14
 -1      2745 7.62466E-03-6.98352E-04-4.18911E-14
 -1      2746 7.41636E-03-6.88322E-04-3.95880E-14
 -1      2747 7.76431E-03-6.70942E-04-4.33749E-14
 -1      2748 7.90665E-03-6.29172E-04-4.48844E-14
 -1      2749 7.69846E-03-6.68149E-04-4.24657E-14
 -1      2750 8.04851E-03-5.72943E-04-4.64231E-14
 -1      2751 8.19696E-03-5.10043E-04-4.79907E-14
 -1      2752 7.97715E-03-5.77896E-04-4.54458E-14
 -1      2753 8.34778E-03-4.35703E-04-4.95901E-14
 -1      2754 8.50426E-03-3.68257E-04-5.12124E-14
 -1      2755 8.26701E-03-4.36035E-04-4.85415E-14
 -1      2756 8.65921E-03-3.05937E-04-5.28590E-14
 -1      2757 8.82140E-03-2.37665E-04-5.45337E-14
 -1      2758 8.56498E-03-3.00727E-04-5.17698E-14
 -1      2759 9.00766E-03-1.76305E-04-5.62060E-14
 -1      2760 9.21042E-03-1.54468E-04-5.79961E-14
 -1      2761 8.86983E-03-1.52494E-04-5.50744E-14
 -1      2762 9.42230E-03-1.74780E-04-5.99853E-14
 -1      2763 9.45059E-03 1.56722E-04-6.11294E-14
 -1      2764 9.42819E-03-4.56609E-05-5.89382E-14
 -1      2765 9.11526E-03 3.77125E-04-6.04087E-14
 -1      2766 9.07990E-03 4.26887E-04-6.04730E-14
 -1      2767 9.25866E-03 1.50836E-04-6.01875E-14
 -1      2768 9.37724E-03 3.49435E-04-6.16175E-14
 -1      2769 9.70192E-03-7.97183E-05-6.42122E-14
 -1      2770 8.39281E-03 4.05714E-04-5.80334E-14
 -1      2771 1.02280E-02-8.65262E-05-6.88517E-14
 -1      2772 1.07098E-02 1.41228E-05-7.28423E-14
 -1      2773 9.45855E-03 1.55910E-04-6.53979E-14
 -1      2774 1.11412E-02 6.71311E-05-7.61416E-14
 -1      2775 1.12897E-02 9.03981E-05-7.80017E-14
 -1      2776 1.08773E-02 9.14800E-05-7.43463E-14
 -1      2777 1.14374E-02 1.12442E-04-7.98694E-14
 -1      2778 1.15844E-02 1.33537E-04-8.17416E-14
 -1      2779 1.13970E-02 1.39237E-04-7.89354E-14
 -1      2780 1.17307E-02 1.53922E-04-8.36204E-14
 -1      2781 1.18766E-02 1.73786E-04-8.55075E-14
 -1      2782 1.16881E-02 1.80705E-04-8.26791E-14
 -1      2783 1.20220E-02 1.93309E-04-8.73977E-14
 -1      2784 1.21671E-02 2.12619E-04-8.92912E-14
 -1      2785 1.19774E-02 2.20063E-04-8.64454E-14
 -1      2786 1.23119E-02 2.31844E-04-9.11910E-14
 -1      2787 1.24564E-02 2.51065E-04-9.30919E-14
 -1      2788 1.22655E-02 2.58543E-04-9.02304E-14
 -1      2789 1.26006E-02 2.70368E-04-9.49977E-14
 -1      2790 1.27446E-02 2.89799E-04-9.69025E-14
 -1      2791 1.25528E-02 2.96981E-04-9.40315E-14
 -1      2792 1.28885E-02 3.09412E-04-9.88071E-14
 -1      2793 1.30322E-02 3.29232E-04-1.00714E-13
 -1      2794 1.28396E-02 3.35910E-04-9.78379E-14
 -1      2795 1.31758E-02 3.49285E-04-1.02620E-13
 -1      2796 1.33193E-02 3.69585E-04-1.04525E-13
 -1      2797 1.31261E-02 3.75645E-04-1.01647E-13
 -1      2798 1.34626E-02 3.90139E-04-1.06431E-13
 -1      2799 1.36059E-02 4.10955E-04-1.08337E-13
 -1      2800 1.34123E-02 4.16342E-04-1.05457E-13
 -1      2801 1.37491E-02 4.32027E-04-1.10241E-13
 -1      2802 1.38922E-02 4.53356E-04-1.12147E-13
 -1      2803 1.36984E-02 4.58058E-04-1.09264E-13
 -1      2804 7.65336E-03-6.59910E-04-4.10484E-14
 -1      2805 7.51096E-03-6.51029E-04-3.97486E-14
 -1      2806 1.93332E-03 3.95228E-04-2.83621E-15
 -1      2807 1.79403E-03 3.89232E-04-2.44592E-15
 -1      2808 2.77241E-03 4.01534E-04-5.79459E-15
 -1      2809 2.63194E-03 4.03062E-04-5.22852E-15
 -1      2810 3.05436E-03 3.96597E-04-7.01236E-15
 -1      2811 2.91320E-03 3.99347E-04-6.38923E-15
 -1      2812 2.83490E-03 3.64559E-04-6.15861E-15
 -1      2813 3.33787E-03 3.89891E-04-8.34306E-15
 -1      2814 3.19590E-03 3.93415E-04-7.66404E-15
 -1      2815 3.11674E-03 3.59084E-04-7.40707E-15
 -1      2816 3.62317E-03 3.82268E-04-9.78595E-15
 -1      2817 3.48027E-03 3.86145E-04-9.05058E-15
 -1      2818 3.39958E-03 3.52108E-04-8.76741E-15
 -1      2819 3.91049E-03 3.74616E-04-1.13405E-14
 -1      2820 3.76654E-03 3.78390E-04-1.05492E-14
 -1      2821 3.68353E-03 3.44456E-04-1.02391E-14
 -1      2822 4.20011E-03 3.68014E-04-1.30050E-14
 -1      2823 4.05497E-03 3.71112E-04-1.21586E-14
 -1      2824 3.96872E-03 3.37016E-04-1.18213E-14
 -1      2825 4.49240E-03 3.63910E-04-1.47790E-14
 -1      2826 4.34586E-03 3.65549E-04-1.38790E-14
 -1      2827 4.25529E-03 3.30879E-04-1.35136E-14
 -1      2828 4.78787E-03 3.64344E-04-1.66600E-14
 -1      2829 4.63966E-03 3.63415E-04-1.57062E-14
 -1      2830 4.54349E-03 3.27509E-04-1.53127E-14
 -1      2831 5.08737E-03 3.72215E-04-1.86505E-14
 -1      2832 4.93701E-03 3.67136E-04-1.76415E-14
 -1      2833 4.83380E-03 3.28940E-04-1.72191E-14
 -1      2834 5.39235E-03 3.91580E-04-2.07494E-14
 -1      2835 5.23904E-03 3.80145E-04-1.96854E-14
 -1      2836 5.12713E-03 3.38008E-04-1.92323E-14
 -1      2837 5.70524E-03 4.27966E-04-2.29625E-14
 -1      2838 5.54763E-03 4.07182E-04-2.18421E-14
 -1      2839 5.42529E-03 3.58627E-04-2.13560E-14
 -1      2840 6.02987E-03 4.88638E-04-2.52882E-14
 -1      2841 5.86590E-03 4.54609E-04-2.41109E-14
 -1      2842 5.73149E-03 3.96123E-04-2.35916E-14
 -1      2843 6.37138E-03 5.82461E-04-2.77290E-14
 -1      2844 6.19842E-03 5.30497E-04-2.64937E-14
 -1      2845 6.05109E-03 4.57729E-04-2.59398E-14
 -1      2846 6.73449E-03 7.18798E-04-3.02853E-14
 -1      2847 6.55055E-03 6.44566E-04-2.89920E-14
 -1      2848 6.39144E-03 5.53492E-04-2.84014E-14
 -1      2849 7.11934E-03 9.00432E-04-3.29662E-14
 -1      2850 6.92555E-03 8.03738E-04-3.16106E-14
 -1      2851 6.76013E-03 6.94477E-04-3.09808E-14
 -1      2852 7.51429E-03 1.11448E-03-3.57742E-14
 -1      2853 7.31772E-03 1.00643E-03-3.43532E-14
 -1      2854 7.15679E-03 8.88469E-04-3.36851E-14
 -1      2855 8.32539E-03 1.39083E-03-4.23727E-14
 -1      2856 8.14331E-03 1.37879E-03-4.08136E-14
 -1      2857 8.50959E-03 1.36275E-03-4.39604E-14
 -1      2858 9.00891E-03 1.17323E-03-4.82398E-14
 -1      2859 8.81332E-03 1.25724E-03-4.65916E-14
 -1      2860 9.40544E-03 1.00269E-03-5.15791E-14
 -1      2861 9.20780E-03 1.08474E-03-4.99013E-14
 -1      2862 9.13808E-03 1.07014E-03-4.91284E-14
 -1      2863 9.79183E-03 8.72945E-04-5.49746E-14
 -1      2864 9.60181E-03 9.31256E-04-5.32713E-14
 -1      2865 9.54540E-03 8.99993E-04-5.24920E-14
 -1      2866 1.01573E-02 7.96042E-04-5.84185E-14
 -1      2867 9.97829E-03 8.28783E-04-5.66925E-14
 -1      2868 9.93038E-03 7.87871E-04-5.59055E-14
 -1      2869 1.04944E-02 7.64090E-04-6.18962E-14
 -1      2870 1.03284E-02 7.75675E-04-6.01517E-14
 -1      2871 1.02823E-02 7.32189E-04-5.93557E-14
 -1      2872 1.08158E-02 7.63877E-04-6.54201E-14
 -1      2873 1.06568E-02 7.60756E-04-6.36525E-14
 -1      2874 1.06067E-02 7.16171E-04-6.28452E-14
 -1      2875 1.11266E-02 7.86093E-04-6.89842E-14
 -1      2876 1.09722E-02 7.72741E-04-6.71972E-14
 -1      2877 1.09159E-02 7.27243E-04-6.63805E-14
 -1      2878 1.14305E-02 8.23297E-04-7.25864E-14
 -1      2879 1.12792E-02 8.03210E-04-7.07805E-14
 -1      2880 1.12160E-02 7.56698E-04-6.99534E-14
 -1      2881 1.17300E-02 8.69986E-04-7.62320E-14
 -1      2882 1.15806E-02 8.45722E-04-7.44048E-14
 -1      2883 1.15111E-02 7.98205E-04-7.35684E-14
 -1      2884 1.20263E-02 9.22240E-04-7.99148E-14
 -1      2885 1.18784E-02 8.95598E-04-7.80697E-14
 -1      2886 1.18034E-02 8.47243E-04-7.72227E-14
 -1      2887 1.23204E-02 9.77366E-04-8.36304E-14
 -1      2888 1.21736E-02 9.49564E-04-8.17676E-14
 -1      2889 1.20941E-02 9.00609E-04-8.09131E-14
 -1      2890 1.26126E-02 1.03359E-03-8.73803E-14
 -1      2891 1.24667E-02 1.00542E-03-8.55032E-14
 -1      2892 1.23838E-02 9.56103E-04-8.46385E-14
 -1      2893 1.29034E-02 1.08978E-03-9.11515E-14
 -1      2894 1.27582E-02 1.06173E-03-8.92615E-14
 -1      2895 1.26727E-02 1.01226E-03-8.83918E-14
 -1      2896 1.31930E-02 1.14529E-03-9.49459E-14
 -1      2897 1.30483E-02 1.11765E-03-9.30482E-14
 -1      2898 1.29610E-02 1.06817E-03-9.21691E-14
 -1      2899 1.34816E-02 1.19975E-03-9.87536E-14
 -1      2900 1.33374E-02 1.17266E-03-9.68484E-14
 -1      2901 1.32487E-02 1.12328E-03-9.59653E-14
 -1      2902 1.37695E-02 1.25301E-03-1.02572E-13
 -1      2903 1.36256E-02 1.22654E-03-1.00661E-13
 -1      2904 1.35360E-02 1.17731E-03-9.97731E-14
 -1      2905 1.40567E-02 1.30505E-03-1.06401E-13
 -1      2906 1.39132E-02 1.27918E-03-1.04484E-13
 -1      2907 1.38229E-02 1.23016E-03-1.03591E-13
 -1      2908 1.43434E-02 1.35588E-03-1.10242E-13
 -1      2909 1.42001E-02 1.33061E-03-1.08321E-13
 -1      2910 1.41094E-02 1.28180E-03-1.07421E-13
 -1      2911 1.45936E-02 1.39187E-03-1.13688E-13
 -1      2912 1.44505E-02 1.36709E-03-1.11756E-13
 -1      2913 1.43596E-02 1.31852E-03-1.10853E-13
 -1      2914 1.45734E-02 1.34068E-03-1.13885E-13
 -1      2915 1.03741E-02 3.31462E-04-5.50844E-14
 -1      2916 1.01023E-02 2.36859E-04-5.39028E-14
 -1      2917 1.43466E-02 9.43416E-04-1.14258E-13
 -1      2918 1.43692E-02 9.83880E-04-1.14210E-13
 -1      2919 5.75569E-03 2.09790E-04-3.05664E-14
 -1      2920 5.84450E-03 2.27569E-04-3.07077E-14
 -1      2921 1.44360E-02 1.10559E-03-1.14054E-13
 -1      2922 1.44580E-02 1.14636E-03-1.13999E-13
 -1      2923 1.43008E-02 8.62487E-04-1.14353E-13
 -1      2924 1.43238E-02 9.02965E-04-1.14306E-13
 -1      2925 1.42124E-02 9.03158E-04-1.12624E-13
 -1      2926 1.43916E-02 1.02437E-03-1.14158E-13
 -1      2927 1.44139E-02 1.06494E-03-1.14107E-13
 -1      2928 1.43020E-02 1.06450E-03-1.12414E-13
 -1      2929 1.42576E-02 9.83720E-04-1.12521E-13
 -1      2930 1.01315E-02 4.71466E-04-5.35237E-14
 -1      2931 1.02783E-02 4.27193E-04-5.43492E-14
 -1      2932 1.42551E-02 7.82738E-04-1.14438E-13
 -1      2933 1.42780E-02 8.22651E-04-1.14396E-13
 -1      2934 1.41668E-02 8.23240E-04-1.12720E-13
 -1      2935 1.42081E-02 7.01221E-04-1.14519E-13
 -1      2936 1.42316E-02 7.42041E-04-1.14480E-13
 -1      2937 1.41204E-02 7.43043E-04-1.12808E-13
 -1      2938 1.41609E-02 6.19155E-04-1.14594E-13
 -1      2939 1.41845E-02 6.60265E-04-1.14556E-13
 -1      2940 1.40731E-02 6.61666E-04-1.12888E-13
 -1      2941 1.65478E-03 3.81100E-04-2.08577E-15
 -1      2942 1.51547E-03 3.70625E-04-1.75531E-15
 -1      2943 1.43501E-03 3.30306E-04-1.64713E-15
 -1      2944 1.71438E-03 3.50559E-04-2.31462E-15
 -1      2945 1.05211E-02 3.60050E-04-5.57209E-14
 -1      2946 1.05117E-02 3.53402E-04-5.58273E-14
 -1      2947 9.30610E-03 8.95362E-04-4.96177E-14
 -1      2948 9.49668E-03 7.86298E-04-5.07494E-14
 -1      2949 8.28031E-03-3.92319E-04-4.61873E-14
 -1      2950 8.12787E-03-4.95247E-04-4.49253E-14
 -1      2951 1.40847E-02 4.80934E-04-1.14728E-13
 -1      2952 1.41298E-02 5.20642E-04-1.15038E-13
 -1      2953 1.39884E-02 4.67088E-04-1.13438E-13
 -1      2954 2.49178E-03 4.03767E-04-4.69160E-15
 -1      2955 2.35187E-03 4.03536E-04-4.18345E-15
 -1      2956 2.55392E-03 3.67648E-04-5.02357E-15
 -1      2957 2.21219E-03 4.02151E-04-3.70480E-15
 -1      2958 2.07269E-03 3.99480E-04-3.25578E-15
 -1      2959 2.27364E-03 3.67293E-04-4.00366E-15
 -1      2960 9.89669E-04-3.22483E-04-9.21084E-16
 -1      2961 1.12651E-03-3.49782E-04-1.16531E-15
 -1      2962 1.18540E-03-3.30810E-04-1.32510E-15
 -1      2963 8.78361E-03-9.74153E-05-4.95146E-14
 -1      2964 8.65606E-03-1.32194E-04-4.88255E-14
 -1      2965 7.60469E-04 9.70400E-05-6.48339E-16
 -1      2966 7.57564E-04 7.43850E-05-6.58477E-16
 -1      2967 8.71091E-04 7.08230E-05-8.39823E-16
 -1      2968 8.78066E-04 1.21102E-04-8.15483E-16
 -1      2969 7.51058E-04-1.13839E-04-6.79619E-16
 -1      2970 7.52703E-04-1.35823E-04-6.74387E-16
 -1      2971 6.31136E-03-5.85509E-05-3.25320E-14
 -1      2972 6.16001E-03 1.01288E-05-3.19665E-14
 -1      2973 8.58809E-03 1.30870E-03-4.46553E-14
 -1      2974 8.73739E-03 1.23322E-03-4.58327E-14
 -1      2975 7.80034E-03 1.23429E-03-3.84596E-14
 -1      2976 7.95183E-03 1.30657E-03-3.95235E-14
 -1      2977 7.39241E-03 9.85560E-04-3.61424E-14
 -1      2978 7.58897E-03 1.11387E-03-3.71417E-14
 -1      2979 6.47301E-03 4.54801E-04-3.23377E-14
 -1      2980 6.69291E-03 5.64299E-04-3.30613E-14
 -1      2981 5.66608E-03 1.88674E-04-3.04094E-14
 -1      2982 5.68732E-03 1.93462E-04-3.03714E-14
 -1      2983 9.57100E-03 6.84324E-05-5.19379E-14
 -1      2984 9.13676E-03-4.84484E-05-5.06190E-14
 -1      2985 6.62561E-03-2.26783E-04-3.38311E-14
 -1      2986 6.47550E-03-1.42066E-04-3.31867E-14
 -1      2987 7.34518E-03-6.08374E-04-3.83572E-14
 -1      2988 7.22035E-03-5.53804E-04-3.73763E-14
 -1      2989 8.55267E-03-1.55604E-04-4.83552E-14
 -1      2990 8.43505E-03-2.40104E-04-4.75509E-14
 -1      2991 8.68240E-04-1.64602E-04-8.50963E-16
 -1      2992 7.55119E-04-1.58569E-04-6.67340E-16
 -1      2993 7.58421E-04-1.82279E-04-6.58057E-16
 -1      2994 8.63707E-04-2.30900E-05-8.64949E-16
 -1      2995 7.49809E-04-3.05371E-05-6.84010E-16
 -1      2996 7.49443E-04-5.10289E-05-6.84972E-16
 -1      2997 8.39775E-04 2.34900E-04-6.28566E-16
 -1      2998 1.05385E-02 3.74401E-04-5.66203E-14
 -1      2999 8.57413E-03-1.46891E-04-4.90196E-14
 -1      3000 7.41848E-03-6.36451E-04-3.90366E-14
 -1      3001 6.72887E-03-2.96737E-04-3.42132E-14
 -1      3002 6.60673E-03-2.58236E-04-3.33371E-14
 -1      3003 6.81873E-03-3.64466E-04-3.46054E-14
 -1      3004 1.99386E-03 3.62163E-04-3.10052E-15
 -1      3005 9.62719E-03 7.24232E-04-5.16493E-14
 -1      3006 9.75499E-03 6.71061E-04-5.25574E-14
 -1      3007 9.55056E-03 7.96630E-04-5.16189E-14
 -1      3008 1.00462E-02 5.21710E-04-5.36498E-14
 -1      3009 9.78778E-03 1.88211E-04-5.34866E-14
 -1      3010 1.39375E-02 4.92967E-04-1.12458E-13
 -1      3011 7.72864E-03-6.50664E-04-4.18094E-14
 -1      3012 7.64645E-03-6.57443E-04-4.12121E-14
 -1      3013 7.79893E-03-6.30112E-04-4.25808E-14
 -1      3014 5.65760E-03 1.77336E-04-3.01324E-14
 -1      3015 5.62498E-03 1.67238E-04-2.93580E-14
 -1      3016 5.66025E-03 1.65715E-04-2.98600E-14
 -1      3017 1.05621E-02 3.61647E-04-5.75856E-14
 -1      3018 1.05049E-02 3.49768E-04-5.65577E-14
 -1      3019 1.04330E-02 3.50864E-04-5.68971E-14
 -1      3020 6.32348E-03 3.88981E-04-3.15574E-14
 -1      3021 6.40912E-03 4.35312E-04-3.13319E-14
 -1      3022 6.18524E-03 3.37907E-04-3.07915E-14
 -1      3023 7.94000E-03 1.32267E-03-3.90729E-14
 -1      3024 7.75207E-03 1.24151E-03-3.75781E-14
 -1      3025 1.45513E-02 1.29951E-03-1.13948E-13
 -1      3026 1.44446E-02 1.28852E-03-1.12432E-13
 -1      3027 1.45294E-02 1.25851E-03-1.14010E-13
 -1      3028 7.26918E-03 9.13224E-04-3.52623E-14
 -1      3029 1.03733E-02 4.16483E-04-5.55448E-14
 -1      3030 5.82725E-03 2.21357E-04-2.98014E-14
 -1      3031 5.91327E-03 2.43858E-04-3.05033E-14
 -1      3032 5.98541E-03 2.66042E-04-3.02942E-14
 -1      3033 7.66470E-03 1.16640E-03-3.73858E-14
 -1      3034 1.41532E-02 5.62166E-04-1.15008E-13
 -1      3035 7.11106E-03-5.11053E-04-3.65577E-14
 -1      3036 7.00042E-03-4.65720E-04-3.57454E-14
 -1      3037 7.15075E-03-5.50029E-04-3.68261E-14
 -1      3038 8.30637E-03-3.08826E-04-4.71346E-14
 -1      3039 5.69217E-03 1.90177E-04-2.98177E-14
 -1      3040 8.03026E-03-5.34054E-04-4.44979E-14
 -1      3041 6.05725E-03 4.40464E-05-3.14084E-14
 -1      3042 5.96111E-03 6.80572E-05-3.08544E-14
 -1      3043 6.09872E-03-2.86113E-06-3.10936E-14
 -1      3044 9.54718E-04 2.40351E-04-8.12637E-16
 -1      3045 1.44828E-02 1.18196E-03-1.14036E-13
 -1      3046 1.45046E-02 1.22265E-03-1.13977E-13
 -1      3047 1.43980E-02 1.21173E-03-1.12463E-13
 -1      3048 1.43486E-02 1.14048E-03-1.12396E-13
 -1      3049 6.81100E-03 6.31533E-04-3.32610E-14
 -1      3050 6.91919E-03 7.01557E-04-3.34578E-14
 -1      3051 6.67163E-03 5.65471E-04-3.23026E-14
 -1      3052 7.49500E-04-7.16054E-05-6.84633E-16
 -1      3053 7.50010E-04-9.25262E-05-6.82736E-16
 -1      3054 8.64217E-04-1.15683E-04-8.63066E-16
 -1      3055 8.62899E-04-6.89781E-05-8.67267E-16
 -1      3056 8.72997E-03-1.49941E-04-4.92681E-14
 -1      3057 5.79541E-03 1.48700E-04-3.09010E-14
 -1      3058 5.73528E-03 1.51354E-04-3.03417E-14
 -1      3059 5.83291E-03 1.21865E-04-3.06143E-14
 -1      3060 8.91432E-03 1.13442E-03-4.71125E-14
 -1      3061 9.10432E-03 1.01586E-03-4.83679E-14
 -1      3062 6.35505E-03-1.10207E-04-3.23009E-14
 -1      3063 1.39894E-02 5.28496E-04-1.12899E-13
 -1      3064 1.41090E-02 5.83722E-04-1.14156E-13
 -1      3065 1.39974E-02 5.85465E-04-1.12487E-13
 -1      3066 1.38934E-02 5.14751E-04-1.11609E-13
 -1      3067 7.69534E-04-2.13237E-04-6.51877E-16
 -1      3068 7.86971E-04-2.61109E-04-6.30870E-16
 -1      3069 9.12348E-04-2.96367E-04-8.08747E-16
 -1      3070 8.82730E-04-2.23354E-04-8.35784E-16
 -1      3071 9.22995E-03 9.70244E-04-4.94638E-14
 -1      3072 9.72172E-04-2.82746E-04-9.40654E-16
 -1      3073 1.05620E-02 3.91597E-04-5.76680E-14
 -1      3074 1.05911E-02 3.79762E-04-5.79022E-14
 -1      3075 1.01032E-03 2.06768E-04-9.56930E-16
 -1      3076 1.00348E-03 1.75960E-04-9.80891E-16
 -1      3077 3.17818E-03 3.21849E-04-7.80392E-15
 -1      3078 3.03746E-03 3.24966E-04-7.15073E-15
 -1      3079 1.38261E-03-3.29031E-04-1.79889E-15
 -1      3080 1.51957E-03-3.44459E-04-2.13639E-15
 -1      3081 7.47255E-03-6.56129E-04-3.96676E-14
 -1      3082 7.32031E-03-6.22374E-04-3.82583E-14
 -1      3083 1.65651E-03-3.57466E-04-2.50288E-15
 -1      3084 1.79343E-03-3.68178E-04-2.89867E-15
 -1      3085 1.58144E-03-3.18866E-04-2.33999E-15
 -1      3086 1.93023E-03-3.76884E-04-3.32331E-15
 -1      3087 2.06691E-03-3.83711E-04-3.77713E-15
 -1      3088 1.85576E-03-3.39302E-04-3.13364E-15
 -1      3089 2.20343E-03-3.88897E-04-4.25926E-15
 -1      3090 2.33979E-03-3.92542E-04-4.76947E-15
 -1      3091 2.12983E-03-3.52458E-04-4.04208E-15
 -1      3092 2.47597E-03-3.94836E-04-5.30851E-15
 -1      3093 2.61197E-03-3.95854E-04-5.87621E-15
 -1      3094 2.40327E-03-3.59578E-04-5.06412E-15
 -1      3095 2.74780E-03-3.95748E-04-6.47094E-15
 -1      3096 2.88345E-03-3.94574E-04-7.09375E-15
 -1      3097 2.67588E-03-3.61671E-04-6.19821E-15
 -1      3098 3.01893E-03-3.92456E-04-7.74442E-15
 -1      3099 3.15426E-03-3.89437E-04-8.42218E-15
 -1      3100 2.94755E-03-3.59531E-04-7.44383E-15
 -1      3101 3.28942E-03-3.85627E-04-9.12676E-15
 -1      3102 3.42445E-03-3.81069E-04-9.85793E-15
 -1      3103 3.21820E-03-3.53790E-04-8.79854E-15
 -1      3104 3.55935E-03-3.75869E-04-1.06162E-14
 -1      3105 3.69416E-03-3.70079E-04-1.14003E-14
 -1      3106 3.48786E-03-3.44993E-04-1.02599E-14
 -1      3107 3.82889E-03-3.63818E-04-1.22094E-14
 -1      3108 3.96362E-03-3.57161E-04-1.30448E-14
 -1      3109 3.75659E-03-3.33679E-04-1.18259E-14
 -1      3110 4.09835E-03-3.50248E-04-1.39060E-14
 -1      3111 4.23322E-03-3.43195E-04-1.47913E-14
 -1      3112 4.02459E-03-3.20471E-04-1.34946E-14
 -1      3113 4.36825E-03-3.36176E-04-1.57001E-14
 -1      3114 4.50362E-03-3.29375E-04-1.66338E-14
 -1      3115 4.29229E-03-3.06169E-04-1.52622E-14
 -1      3116 4.63942E-03-3.22998E-04-1.75915E-14
 -1      3117 4.77588E-03-3.17334E-04-1.85716E-14
 -1      3118 4.56041E-03-2.91872E-04-1.71250E-14
 -1      3119 4.91319E-03-3.12624E-04-1.95761E-14
 -1      3120 5.05160E-03-3.09313E-04-2.06048E-14
 -1      3121 4.83019E-03-2.79113E-04-1.90830E-14
 -1      3122 5.19145E-03-3.07659E-04-2.16561E-14
 -1      3123 5.33301E-03-3.08339E-04-2.27308E-14
 -1      3124 5.10353E-03-2.70064E-04-2.11338E-14
 -1      3125 5.47676E-03-3.11615E-04-2.38286E-14
 -1      3126 5.62289E-03-3.18427E-04-2.49494E-14
 -1      3127 5.38319E-03-2.67837E-04-2.32774E-14
 -1      3128 5.77202E-03-3.29009E-04-2.60930E-14
 -1      3129 5.92403E-03-3.44592E-04-2.72585E-14
 -1      3130 5.67273E-03-2.76862E-04-2.55108E-14
 -1      3131 6.07957E-03-3.65367E-04-2.84476E-14
 -1      3132 6.23772E-03-3.92179E-04-2.96574E-14
 -1      3133 5.97592E-03-3.03448E-04-2.78316E-14
 -1      3134 6.39910E-03-4.24669E-04-3.08900E-14
 -1      3135 6.56135E-03-4.63032E-04-3.21445E-14
 -1      3136 6.29494E-03-3.54422E-04-3.02383E-14
 -1      3137 6.72502E-03-5.06690E-04-3.34217E-14
 -1      3138 6.88636E-03-5.51889E-04-3.47214E-14
 -1      3139 6.62615E-03-4.34188E-04-3.27277E-14
 -1      3140 7.01217E-03-5.60856E-04-3.57334E-14
 -1      3141 7.17131E-03-6.06691E-04-3.70651E-14
 -1      3142 7.63379E-03-6.63809E-04-4.15008E-14
 -1      3143 7.77378E-03-6.35931E-04-4.29343E-14
 -1      3144 8.17119E-03-4.42919E-04-4.75143E-14
 -1      3145 8.31907E-03-3.61849E-04-4.90714E-14
 -1      3146 8.40340E-03-2.98858E-04-5.05008E-14
 -1      3147 8.53947E-03-2.40674E-04-5.21422E-14
 -1      3148 8.30673E-03-2.94231E-04-4.93718E-14
 -1      3149 8.69018E-03-1.52635E-04-5.39124E-14
 -1      3150 8.80949E-03-5.46952E-05-5.55289E-14
 -1      3151 8.54203E-03-1.75359E-04-5.26197E-14
 -1      3152 8.97202E-03 2.65534E-05-5.71896E-14
 -1      3153 9.05576E-03 4.80917E-05-5.89930E-14
 -1      3154 8.72652E-03-2.55724E-07-5.58020E-14
 -1      3155 9.36608E-03-1.90839E-04-6.06730E-14
 -1      3156 9.13437E-03 3.49956E-05-6.00601E-14
 -1      3157 9.11052E-03-1.24789E-05-5.92975E-14
 -1      3158 9.11943E-03 1.71327E-04-6.02414E-14
 -1      3159 9.40563E-03 1.70859E-04-6.14371E-14
 -1      3160 9.64162E-03-1.23555E-05-6.18794E-14
 -1      3161 9.69653E-03 4.79041E-04-6.40628E-14
 -1      3162 1.02503E-02 2.92191E-04-6.88339E-14
 -1      3163 1.01305E-02 3.21692E-04-6.49994E-14
 -1      3164 1.07696E-02 1.60471E-04-7.27907E-14
 -1      3165 1.12134E-02 1.43768E-04-7.61435E-14
 -1      3166 1.07892E-02 2.75224E-04-7.17016E-14
 -1      3167 1.13587E-02 1.65672E-04-7.80005E-14
 -1      3168 1.15033E-02 1.86680E-04-7.98663E-14
 -1      3169 1.13224E-02 1.91811E-04-7.70661E-14
 -1      3170 1.16473E-02 2.06989E-04-8.17360E-14
 -1      3171 1.17910E-02 2.26802E-04-8.36128E-14
 -1      3172 1.16082E-02 2.32795E-04-8.07927E-14
 -1      3173 1.19343E-02 2.46279E-04-8.54940E-14
 -1      3174 1.20774E-02 2.65546E-04-8.73794E-14
 -1      3175 1.18926E-02 2.71944E-04-8.45424E-14
 -1      3176 1.22204E-02 2.84725E-04-8.92731E-14
 -1      3177 1.23633E-02 3.03891E-04-9.11672E-14
 -1      3178 1.21765E-02 3.10357E-04-8.83125E-14
 -1      3179 1.25061E-02 3.23132E-04-9.30638E-14
 -1      3180 1.26489E-02 3.42489E-04-9.49649E-14
 -1      3181 1.24603E-02 3.48781E-04-9.20986E-14
 -1      3182 1.27916E-02 3.62019E-04-9.68662E-14
 -1      3183 1.29343E-02 3.81742E-04-9.87683E-14
 -1      3184 1.27443E-02 3.87694E-04-9.58940E-14
 -1      3185 1.30771E-02 4.01691E-04-1.00672E-13
 -1      3186 1.32198E-02 4.21872E-04-1.02576E-13
 -1      3187 1.30286E-02 4.27379E-04-9.96959E-14
 -1      3188 1.33626E-02 4.42302E-04-1.04481E-13
 -1      3189 1.35053E-02 4.62978E-04-1.06383E-13
 -1      3190 1.33132E-02 4.67979E-04-1.03501E-13
 -1      3191 1.36279E-02 4.78105E-04-1.08044E-13
 -1      3192 1.37707E-02 4.99243E-04-1.09947E-13
 -1      3193 1.38228E-02 5.34519E-04-1.10388E-13
 -1      3194 1.35780E-02 5.03769E-04-1.07064E-13
 -1      3195 8.07732E-03 1.34807E-03-4.04387E-14
 -1      3196 2.89685E-03 3.27662E-04-6.52511E-15
 -1      3197 2.75633E-03 3.29866E-04-5.92783E-15
 -1      3198 2.95825E-03 2.90981E-04-6.89477E-15
 -1      3199 3.74208E-03 3.07377E-04-1.06941E-14
 -1      3200 3.60093E-03 3.11108E-04-9.92996E-15
 -1      3201 4.02463E-03 3.00399E-04-1.23041E-14
 -1      3202 3.88328E-03 3.03780E-04-1.14857E-14
 -1      3203 3.79886E-03 2.71165E-04-1.11508E-14
 -1      3204 4.30760E-03 2.94976E-04-1.40222E-14
 -1      3205 4.16603E-03 2.97428E-04-1.31493E-14
 -1      3206 4.07831E-03 2.64892E-04-1.27879E-14
 -1      3207 4.59112E-03 2.92552E-04-1.58466E-14
 -1      3208 4.44924E-03 2.93297E-04-1.49217E-14
 -1      3209 4.35717E-03 2.60414E-04-1.45321E-14
 -1      3210 4.87560E-03 2.95092E-04-1.77781E-14
 -1      3211 4.73316E-03 2.93067E-04-1.67989E-14
 -1      3212 4.63545E-03 2.59113E-04-1.63814E-14
 -1      3213 5.16202E-03 3.05273E-04-1.98147E-14
 -1      3214 5.01843E-03 2.99026E-04-1.87826E-14
 -1      3215 4.91347E-03 2.62816E-04-1.83361E-14
 -1      3216 5.45245E-03 3.26728E-04-2.19625E-14
 -1      3217 5.30650E-03 3.14277E-04-2.08750E-14
 -1      3218 5.19220E-03 2.73923E-04-2.03975E-14
 -1      3219 5.75078E-03 3.64419E-04-2.42193E-14
 -1      3220 5.60026E-03 3.43029E-04-2.30771E-14
 -1      3221 5.47391E-03 2.95630E-04-2.25665E-14
 -1      3222 6.06392E-03 4.25537E-04-2.65892E-14
 -1      3223 5.90500E-03 3.91114E-04-2.53905E-14
 -1      3224 5.76303E-03 3.32363E-04-2.48449E-14
 -1      3225 6.40150E-03 5.21278E-04-2.90694E-14
 -1      3226 6.22907E-03 4.67480E-04-2.78150E-14
 -1      3227 6.06789E-03 3.91122E-04-2.72331E-14
 -1      3228 6.87650E-03 7.09718E-04-3.24120E-14
 -1      3229 6.68038E-03 6.20920E-04-3.10775E-14
 -1      3230 7.08134E-03 8.16844E-04-3.37765E-14
 -1      3231 7.61328E-03 1.14729E-03-3.68693E-14
 -1      3232 8.81896E-03 1.22130E-03-4.65582E-14
 -1      3233 8.70745E-03 1.30269E-03-4.56889E-14
 -1      3234 8.49936E-03 1.34034E-03-4.39194E-14
 -1      3235 1.04074E-02 6.73657E-04-6.02946E-14
 -1      3236 1.02449E-02 6.85789E-04-5.85612E-14
 -1      3237 1.07166E-02 6.73209E-04-6.37980E-14
 -1      3238 1.05642E-02 6.70399E-04-6.20408E-14
 -1      3239 1.05290E-02 6.23577E-04-6.12346E-14
 -1      3240 1.10126E-02 6.94507E-04-6.73434E-14
 -1      3241 1.08657E-02 6.81811E-04-6.55654E-14
 -1      3242 1.08213E-02 6.36763E-04-6.47504E-14
 -1      3243 1.13022E-02 7.30083E-04-7.09272E-14
 -1      3244 1.11579E-02 7.10893E-04-6.91307E-14
 -1      3245 1.11044E-02 6.66290E-04-6.83054E-14
 -1      3246 1.15889E-02 7.74982E-04-7.45505E-14
 -1      3247 1.14457E-02 7.51610E-04-7.27328E-14
 -1      3248 1.13840E-02 7.06543E-04-7.18999E-14
 -1      3249 1.18746E-02 8.25676E-04-7.82155E-14
 -1      3250 1.17317E-02 7.99766E-04-7.63783E-14
 -1      3251 1.16632E-02 7.53837E-04-7.55334E-14
 -1      3252 1.21602E-02 8.79647E-04-8.19127E-14
 -1      3253 1.20173E-02 8.52361E-04-8.00603E-14
 -1      3254 1.19431E-02 8.05521E-04-7.92049E-14
 -1      3255 1.24459E-02 9.35136E-04-8.56472E-14
 -1      3256 1.23030E-02 9.07274E-04-8.37738E-14
 -1      3257 1.22243E-02 8.59649E-04-8.29130E-14
 -1      3258 1.27317E-02 9.90962E-04-8.94051E-14
 -1      3259 1.25888E-02 9.63053E-04-8.75245E-14
 -1      3260 1.25065E-02 9.14829E-04-8.66530E-14
 -1      3261 1.30177E-02 1.04638E-03-9.31871E-14
 -1      3262 1.28747E-02 1.01875E-03-9.12932E-14
 -1      3263 1.27898E-02 9.70112E-04-9.04200E-14
 -1      3264 1.33038E-02 1.10095E-03-9.69825E-14
 -1      3265 1.31607E-02 1.07378E-03-9.50836E-14
 -1      3266 1.30738E-02 1.02489E-03-9.42028E-14
 -1      3267 1.35898E-02 1.15445E-03-1.00790E-13
 -1      3268 1.34468E-02 1.12784E-03-9.88847E-14
 -1      3269 1.33584E-02 1.07882E-03-9.79979E-14
 -1      3270 1.38758E-02 1.20680E-03-1.04609E-13
 -1      3271 1.37328E-02 1.18077E-03-1.02698E-13
 -1      3272 1.36434E-02 1.13172E-03-1.01806E-13
 -1      3273 1.41618E-02 1.25801E-03-1.08441E-13
 -1      3274 1.40188E-02 1.23254E-03-1.06523E-13
 -1      3275 1.39287E-02 1.18353E-03-1.05626E-13
 -1      3276 1.43567E-02 1.27904E-03-1.11190E-13
 -1      3277 1.42498E-02 1.26775E-03-1.09679E-13
 -1      3278 1.41592E-02 1.21884E-03-1.08776E-13
 -1      3279 1.43349E-02 1.23810E-03-1.11252E-13
 -1      3280 1.40783E-02 8.63102E-04-1.10996E-13
 -1      3281 1.41012E-02 9.03166E-04-1.10944E-13
 -1      3282 1.39380E-02 6.22334E-04-1.11256E-13
 -1      3283 1.39618E-02 6.63048E-04-1.11219E-13
 -1      3284 1.40328E-02 7.84216E-04-1.11087E-13
 -1      3285 1.40557E-02 8.23693E-04-1.11040E-13
 -1      3286 1.39448E-02 8.23966E-04-1.09367E-13
 -1      3287 9.94472E-04-2.65043E-04-1.00470E-15
 -1      3288 1.07058E-03-2.87723E-04-1.13286E-15
 -1      3289 1.20701E-03-3.09880E-04-1.40269E-15
 -1      3290 9.81354E-04-2.28575E-04-1.01447E-15
 -1      3291 1.39856E-02 7.03581E-04-1.11178E-13
 -1      3292 1.40093E-02 7.43965E-04-1.11134E-13
 -1      3293 1.38984E-02 7.44763E-04-1.09460E-13
 -1      3294 1.38508E-02 6.64371E-04-1.09549E-13
 -1      3295 1.00984E-02 3.31579E-04-5.56500E-14
 -1      3296 9.58424E-03 1.85749E-04-5.37336E-14
 -1      3297 9.97310E-03 5.76477E-04-5.38888E-14
 -1      3298 1.01502E-02 5.10317E-04-5.49467E-14
 -1      3299 1.00773E-02 6.61133E-04-5.64115E-14
 -1      3300 9.89949E-03 6.96709E-04-5.46947E-14
 -1      3301 3.45992E-03 3.14820E-04-9.19351E-15
 -1      3302 3.31899E-03 3.18445E-04-8.48486E-15
 -1      3303 3.23870E-03 2.85029E-04-8.20332E-15
 -1      3304 3.51894E-03 2.78165E-04-9.62177E-15
 -1      3305 8.78645E-03-1.57536E-04-5.07559E-14
 -1      3306 8.67368E-03-1.38452E-04-5.01731E-14
 -1      3307 2.61591E-03 3.31425E-04-5.35883E-15
 -1      3308 2.47557E-03 3.32254E-04-4.81828E-15
 -1      3309 2.67770E-03 2.95236E-04-5.69751E-15
 -1      3310 2.33532E-03 3.32166E-04-4.30627E-15
 -1      3311 2.19513E-03 3.31053E-04-3.82318E-15
 -1      3312 2.39712E-03 2.96901E-04-4.61287E-15
 -1      3313 9.82834E-04 3.80463E-05-1.05418E-15
 -1      3314 9.80707E-04 1.23663E-05-1.06181E-15
 -1      3315 8.87066E-03 1.18390E-03-4.69275E-14
 -1      3316 6.37160E-03-1.63314E-04-3.19062E-14
 -1      3317 6.22935E-03-9.29951E-05-3.12549E-14
 -1      3318 1.11240E-03 2.69684E-04-1.05964E-15
 -1      3319 1.05139E-03 2.33325E-04-9.97683E-16
 -1      3320 1.16708E-03 2.31291E-04-1.22679E-15
 -1      3321 1.25181E-03 2.87044E-04-1.31568E-15
 -1      3322 1.03350E-02 4.51851E-04-5.61461E-14
 -1      3323 1.04658E-02 4.18112E-04-5.69929E-14
 -1      3324 8.08219E-03-4.88205E-04-4.54296E-14
 -1      3325 7.95313E-03-5.66461E-04-4.41163E-14
 -1      3326 8.31330E-03-2.50341E-04-4.81661E-14
 -1      3327 8.21266E-03-3.79038E-04-4.69092E-14
 -1      3328 2.05501E-03 3.28678E-04-3.36942E-15
 -1      3329 1.91494E-03 3.24906E-04-2.94434E-15
 -1      3330 2.11657E-03 2.94889E-04-3.64301E-15
 -1      3331 5.63190E-03 1.73199E-04-2.89112E-14
 -1      3332 5.69431E-03 1.87207E-04-2.90913E-14
 -1      3333 9.21242E-03 4.18361E-05-5.27536E-14
 -1      3334 8.96726E-03-9.14893E-05-5.17618E-14
 -1      3335 9.79127E-04-1.30343E-05-1.06713E-15
 -1      3336 9.78104E-04-3.82708E-05-1.07049E-15
 -1      3337 1.09594E-03-7.85564E-07-1.28964E-15
 -1      3338 1.11916E-03 1.72979E-04-1.20521E-15
 -1      3339 9.97689E-04 1.46526E-04-1.00141E-15
 -1      3340 9.92903E-04 1.18217E-04-1.01873E-15
 -1      3341 8.55932E-03-2.10601E-04-5.12036E-14
 -1      3342 8.30964E-03-1.94560E-04-4.91932E-14
 -1      3343 1.05482E-02 4.44988E-04-5.88873E-14
 -1      3344 1.05574E-02 4.15531E-04-5.82791E-14
 -1      3345 1.06381E-02 4.18610E-04-5.95710E-14
 -1      3346 9.82364E-04-1.67154E-04-1.05765E-15
 -1      3347 9.85603E-04-1.94670E-04-1.04798E-15
 -1      3348 6.87696E-03-4.22217E-04-3.48478E-14
 -1      3349 6.91891E-03-4.94236E-04-3.50043E-14
 -1      3350 6.51742E-03 4.91533E-04-3.15207E-14
 -1      3351 6.62050E-03 5.52046E-04-3.17078E-14
 -1      3352 6.36959E-03 4.28928E-04-3.07518E-14
 -1      3353 7.86715E-03-5.98686E-04-4.35194E-14
 -1      3354 7.91765E-03-5.79666E-04-4.45148E-14
 -1      3355 7.32390E-03-6.60199E-04-3.85378E-14
 -1      3356 7.46954E-03-6.74182E-04-3.99306E-14
 -1      3357 8.05623E-03-5.10635E-04-4.59935E-14
 -1      3358 5.66970E-03 1.48978E-04-2.95712E-14
 -1      3359 5.61271E-03 1.41680E-04-2.88037E-14
 -1      3360 5.68530E-03 1.29158E-04-2.92863E-14
 -1      3361 1.06167E-02 3.76649E-04-5.86401E-14
 -1      3362 1.06316E-02 3.73643E-04-5.93782E-14
 -1      3363 1.06652E-02 3.92858E-04-5.96987E-14
 -1      3364 6.06632E-03 2.97008E-04-3.00773E-14
 -1      3365 6.14208E-03 3.33998E-04-2.98551E-14
 -1      3366 5.95720E-03 2.65844E-04-2.93759E-14
 -1      3367 9.88857E-03 6.41184E-04-5.38539E-14
 -1      3368 5.64816E-03 1.79702E-04-2.79845E-14
 -1      3369 5.73355E-03 1.97882E-04-2.88843E-14
 -1      3370 5.77963E-03 2.12349E-04-2.86750E-14
 -1      3371 1.39900E-02 9.02949E-04-1.09266E-13
 -1      3372 1.41237E-02 9.43229E-04-1.10891E-13
 -1      3373 1.41460E-02 9.83340E-04-1.10836E-13
 -1      3374 9.69991E-03 7.90045E-04-5.33561E-14
 -1      3375 9.49943E-03 8.60834E-04-5.16590E-14
 -1      3376 1.26847E-03-2.89502E-04-1.56930E-15
 -1      3377 1.41681E-02 1.02353E-03-1.10781E-13
 -1      3378 1.41901E-02 1.06383E-03-1.10727E-13
 -1      3379 1.40345E-02 9.82709E-04-1.09155E-13
 -1      3380 9.60282E-03 2.09885E-04-5.51051E-14
 -1      3381 1.39139E-03 3.01341E-04-1.60078E-15
 -1      3382 1.34841E-03 2.72909E-04-1.55236E-15
 -1      3383 1.53119E-03 3.12866E-04-1.91515E-15
 -1      3384 1.79295E-03 3.24194E-04-2.58959E-15
 -1      3385 1.65300E-03 3.17053E-04-2.22032E-15
 -1      3386 1.61000E-03 2.88819E-04-2.16203E-15
 -1      3387 1.85415E-03 2.92417E-04-2.83154E-15
 -1      3388 1.02263E-02 5.91559E-04-5.73313E-14
 -1      3389 1.02796E-02 4.95079E-04-5.63887E-14
 -1      3390 6.12896E-03-5.78744E-05-3.06936E-14
 -1      3391 6.03138E-03-2.91030E-05-3.01370E-14
 -1      3392 6.14218E-03-1.13224E-04-3.02979E-14
 -1      3393 6.55121E-03-2.86489E-04-3.26524E-14
 -1      3394 6.46503E-03-2.24109E-04-3.22749E-14
 -1      3395 6.32712E-03-2.03127E-04-3.12226E-14
 -1      3396 1.42147E-02 1.09905E-03-1.10762E-13
 -1      3397 1.42392E-02 1.13441E-03-1.10796E-13
 -1      3398 1.40810E-02 1.05772E-03-1.09132E-13
 -1      3399 8.11733E-03-4.47261E-04-4.65187E-14
 -1      3400 9.85548E-04 6.40822E-05-1.04467E-15
 -1      3401 1.10079E-03 5.46613E-05-1.27224E-15
 -1      3402 9.88858E-04 9.07030E-05-1.03287E-15
 -1      3403 5.87501E-03 8.59164E-05-3.02922E-14
 -1      3404 5.79638E-03 9.58287E-05-2.97327E-14
 -1      3405 5.91080E-03 4.50951E-05-2.99757E-14
 -1      3406 8.13581E-03-4.23524E-04-4.65694E-14
 -1      3407 1.03343E-02 3.60357E-04-5.71510E-14
 -1      3408 1.01741E-02 3.62749E-04-5.74929E-14
 -1      3409 1.04838E-02 3.71429E-04-5.86037E-14
 -1      3410 9.78561E-04-1.14376E-04-1.06912E-15
 -1      3411 9.80039E-04-1.40441E-04-1.06458E-15
 -1      3412 1.09731E-03-1.66523E-04-1.28653E-15
 -1      3413 1.38544E-02 5.60904E-04-1.10605E-13
 -1      3414 1.39065E-02 5.96051E-04-1.11042E-13
 -1      3415 1.37953E-02 5.97773E-04-1.09375E-13
 -1      3416 1.37320E-02 5.45354E-04-1.08943E-13
 -1      3417 5.57702E-03 1.52238E-04-2.83775E-14
 -1      3418 5.59920E-03 1.62136E-04-2.86435E-14
 -1      3419 5.57907E-03 1.58751E-04-2.79288E-14
 -1      3420 9.10999E-03-7.48989E-05-5.30964E-14
 -1      3421 8.76903E-03-1.53866E-04-5.31207E-14
 -1      3422 6.75631E-03-4.08554E-04-3.38564E-14
 -1      3423 7.21953E-03-5.96125E-04-3.74188E-14
 -1      3424 9.37605E-03 9.19897E-04-5.07613E-14
 -1      3425 1.78187E-03-3.02043E-04-2.94583E-15
 -1      3426 1.91925E-03-3.09849E-04-3.37241E-15
 -1      3427 2.05656E-03-3.16077E-04-3.82729E-15
 -1      3428 2.19376E-03-3.20813E-04-4.31048E-15
 -1      3429 1.98375E-03-2.79863E-04-3.61476E-15
 -1      3430 2.33077E-03-3.24229E-04-4.82210E-15
 -1      3431 2.46758E-03-3.26391E-04-5.36142E-15
 -1      3432 2.25858E-03-2.88845E-04-4.58233E-15
 -1      3433 2.60413E-03-3.27441E-04-5.92807E-15
 -1      3434 2.74040E-03-3.27424E-04-6.52295E-15
 -1      3435 2.53262E-03-2.93064E-04-5.66076E-15
 -1      3436 2.87636E-03-3.26460E-04-7.14519E-15
 -1      3437 3.01201E-03-3.24575E-04-7.79548E-15
 -1      3438 2.80547E-03-2.93203E-04-6.84984E-15
 -1      3439 3.14732E-03-3.21874E-04-8.47262E-15
 -1      3440 3.28228E-03-3.18373E-04-9.17604E-15
 -1      3441 3.07683E-03-2.89798E-04-8.14886E-15
 -1      3442 3.41688E-03-3.14167E-04-9.90607E-15
 -1      3443 3.55115E-03-3.09273E-04-1.06627E-14
 -1      3444 3.34650E-03-2.83272E-04-9.55525E-15
 -1      3445 3.68504E-03-3.03787E-04-1.14456E-14
 -1      3446 3.81863E-03-2.97734E-04-1.22530E-14
 -1      3447 3.61434E-03-2.73987E-04-1.10670E-14
 -1      3448 3.95188E-03-2.91218E-04-1.30862E-14
 -1      3449 4.08489E-03-2.84287E-04-1.39449E-14
 -1      3450 3.88032E-03-2.62306E-04-1.26819E-14
 -1      3451 4.21767E-03-2.77062E-04-1.48273E-14
 -1      3452 4.35035E-03-2.69631E-04-1.57332E-14
 -1      3453 4.14456E-03-2.48653E-04-1.43959E-14
 -1      3454 4.48299E-03-2.62132E-04-1.66640E-14
 -1      3455 4.61580E-03-2.54732E-04-1.76176E-14
 -1      3456 4.40745E-03-2.33591E-04-1.62069E-14
 -1      3457 4.74889E-03-2.47584E-04-1.85939E-14
 -1      3458 4.88259E-03-2.40987E-04-1.95946E-14
 -1      3459 4.66979E-03-2.17922E-04-1.81110E-14
 -1      3460 5.01711E-03-2.35108E-04-2.06182E-14
 -1      3461 5.15292E-03-2.30466E-04-2.16647E-14
 -1      3462 4.93303E-03-2.02854E-04-2.01076E-14
 -1      3463 5.29037E-03-2.27232E-04-2.27333E-14
 -1      3464 5.43006E-03-2.26333E-04-2.38249E-14
 -1      3465 5.19962E-03-1.90297E-04-2.21968E-14
 -1      3466 5.57259E-03-2.27954E-04-2.49381E-14
 -1      3467 5.71848E-03-2.33547E-04-2.60722E-14
 -1      3468 5.47340E-03-1.83499E-04-2.43746E-14
 -1      3469 5.86869E-03-2.43319E-04-2.72277E-14
 -1      3470 6.02326E-03-2.59757E-04-2.84046E-14
 -1      3471 5.75982E-03-1.87996E-04-2.66366E-14
 -1      3472 6.27379E-03-2.90574E-04-3.03036E-14
 -1      3473 6.44096E-03-3.27216E-04-3.15293E-14
 -1      3474 6.61180E-03-3.74546E-04-3.27741E-14
 -1      3475 9.19555E-03 1.02644E-03-4.95066E-14
 -1      3476 1.38111E-02 7.84758E-04-1.07741E-13
 -1      3477 1.38339E-02 8.23693E-04-1.07695E-13
 -1      3478 9.21062E-03 7.11284E-05-5.83135E-14
 -1      3479 9.47075E-03 3.09710E-05-6.01611E-14
 -1      3480 9.74237E-03 2.23178E-05-6.16161E-14
 -1      3481 1.00089E-02 1.53053E-04-6.33112E-14
 -1      3482 9.80653E-03 1.28711E-04-6.12185E-14
 -1      3483 1.02665E-02 2.85022E-04-6.51751E-14
 -1      3484 1.05479E-02 3.32738E-04-6.77088E-14
 -1      3485 1.03347E-02 2.48029E-04-6.48892E-14
 -1      3486 1.08421E-02 3.06365E-04-7.09409E-14
 -1      3487 1.11459E-02 1.96388E-04-7.42852E-14
 -1      3488 1.08518E-02 3.24075E-04-7.00443E-14
 -1      3489 1.12881E-02 2.17581E-04-7.61315E-14
 -1      3490 1.14297E-02 2.38097E-04-7.79861E-14
 -1      3491 1.12558E-02 2.43037E-04-7.51970E-14
 -1      3492 1.15707E-02 2.58041E-04-7.98474E-14
 -1      3493 1.17116E-02 2.77634E-04-8.17163E-14
 -1      3494 1.15349E-02 2.82743E-04-7.89024E-14
 -1      3495 1.18523E-02 2.96973E-04-8.35902E-14
 -1      3496 1.19930E-02 3.16185E-04-8.54691E-14
 -1      3497 1.18133E-02 3.21353E-04-8.26371E-14
 -1      3498 1.21337E-02 3.35354E-04-8.73517E-14
 -1      3499 1.22745E-02 3.54551E-04-8.92409E-14
 -1      3500 1.20919E-02 3.59685E-04-8.63929E-14
 -1      3501 1.24155E-02 3.73841E-04-9.11335E-14
 -1      3502 1.25566E-02 3.93259E-04-9.30259E-14
 -1      3503 1.23714E-02 3.98273E-04-9.01645E-14
 -1      3504 1.26978E-02 4.12852E-04-9.49235E-14
 -1      3505 1.28392E-02 4.32633E-04-9.68219E-14
 -1      3506 1.26520E-02 4.37451E-04-9.39522E-14
 -1      3507 1.29808E-02 4.52633E-04-9.87191E-14
 -1      3508 1.31225E-02 4.72852E-04-1.00621E-13
 -1      3509 1.29335E-02 4.77411E-04-9.77443E-14
 -1      3510 1.32644E-02 4.93308E-04-1.02522E-13
 -1      3511 1.34064E-02 5.13991E-04-1.04424E-13
 -1      3512 1.32159E-02 5.18244E-04-1.01544E-13
 -1      3513 8.30110E-03-2.60947E-04-4.93083E-14
 -1      3514 3.01916E-03 2.54625E-04-7.26703E-15
 -1      3515 2.87929E-03 2.57120E-04-6.63941E-15
 -1      3516 4.13010E-03 2.30677E-04-1.32729E-14
 -1      3517 3.99228E-03 2.33167E-04-1.24280E-14
 -1      3518 3.85413E-03 2.35988E-04-1.16094E-14
 -1      3519 3.71560E-03 2.39087E-04-1.08172E-14
 -1      3520 3.90801E-03 2.01955E-04-1.20695E-14
 -1      3521 4.67699E-03 2.27398E-04-1.69165E-14
 -1      3522 4.54090E-03 2.26907E-04-1.59665E-14
 -1      3523 4.94793E-03 2.32355E-04-1.88937E-14
 -1      3524 4.81258E-03 2.29162E-04-1.78920E-14
 -1      3525 4.71601E-03 1.97463E-04-1.74510E-14
 -1      3526 5.21806E-03 2.44310E-04-2.09781E-14
 -1      3527 5.08292E-03 2.37312E-04-1.99223E-14
 -1      3528 4.97924E-03 2.03730E-04-1.94512E-14
 -1      3529 5.48953E-03 2.65929E-04-2.31687E-14
 -1      3530 5.35326E-03 2.53651E-04-2.20599E-14
 -1      3531 5.23976E-03 2.16374E-04-2.15575E-14
 -1      3532 5.76681E-03 3.01048E-04-2.54666E-14
 -1      3533 5.62675E-03 2.81354E-04-2.43040E-14
 -1      3534 5.49936E-03 2.37374E-04-2.37678E-14
 -1      3535 6.56836E-03 5.37527E-04-3.11382E-14
 -1      3536 6.48095E-03 5.41131E-04-2.97524E-14
 -1      3537 6.30199E-03 4.47135E-04-2.91393E-14
 -1      3538 7.40924E-03 1.01970E-03-3.55883E-14
 -1      3539 7.23123E-03 8.96914E-04-3.47693E-14
 -1      3540 1.11905E-02 6.42331E-04-6.92666E-14
 -1      3541 1.10552E-02 6.23331E-04-6.74783E-14
 -1      3542 1.09198E-02 6.06589E-04-6.57006E-14
 -1      3543 1.07831E-02 5.92886E-04-6.39322E-14
 -1      3544 1.10101E-02 5.81881E-04-6.66507E-14
 -1      3545 1.16237E-03-2.49502E-04-1.36905E-15
 -1      3546 1.33787E-03-2.66521E-04-1.75931E-15
 -1      3547 8.98580E-03 1.12593E-03-4.78437E-14
 -1      3548 1.06452E-02 5.82493E-04-6.21740E-14
 -1      3549 1.05038E-02 5.77016E-04-6.04263E-14
 -1      3550 1.07511E-02 5.49885E-04-6.31129E-14
 -1      3551 1.14612E-02 6.85846E-04-7.28711E-14
 -1      3552 1.13256E-02 6.63283E-04-7.10658E-14
 -1      3553 1.12701E-02 6.21799E-04-7.02280E-14
 -1      3554 1.17339E-02 7.34593E-04-7.65169E-14
 -1      3555 1.15972E-02 7.09672E-04-7.46881E-14
 -1      3556 1.15335E-02 6.67288E-04-7.38446E-14
 -1      3557 1.20089E-02 7.86644E-04-8.01967E-14
 -1      3558 1.18710E-02 7.60282E-04-7.83521E-14
 -1      3559 1.18008E-02 7.16687E-04-7.74974E-14
 -1      3560 1.22863E-02 8.40514E-04-8.39134E-14
 -1      3561 1.21473E-02 8.13407E-04-8.20514E-14
 -1      3562 1.20719E-02 7.68606E-04-8.11887E-14
 -1      3563 1.25658E-02 8.95105E-04-8.76629E-14
 -1      3564 1.24258E-02 8.67758E-04-8.57851E-14
 -1      3565 1.23463E-02 8.21904E-04-8.49166E-14
 -1      3566 1.28469E-02 9.49654E-04-9.14305E-14
 -1      3567 1.27061E-02 9.22409E-04-8.95437E-14
 -1      3568 1.26235E-02 8.75706E-04-8.86708E-14
 -1      3569 1.31292E-02 1.00367E-03-9.52169E-14
 -1      3570 1.29879E-02 9.76741E-04-9.33220E-14
 -1      3571 1.29028E-02 9.29390E-04-9.24419E-14
 -1      3572 1.34126E-02 1.05686E-03-9.90131E-14
 -1      3573 1.32708E-02 1.03037E-03-9.71142E-14
 -1      3574 1.31839E-02 9.82553E-04-9.62297E-14
 -1      3575 1.36967E-02 1.10908E-03-1.02820E-13
 -1      3576 1.35546E-02 1.08309E-03-1.00914E-13
 -1      3577 1.34663E-02 1.03495E-03-1.00025E-13
 -1      3578 1.39813E-02 1.16031E-03-1.06641E-13
 -1      3579 1.38390E-02 1.13482E-03-1.04730E-13
 -1      3580 1.37497E-02 1.08648E-03-1.03833E-13
 -1      3581 7.54670E-03-6.61498E-04-4.04255E-14
 -1      3582 9.91524E-03 3.04078E-04-5.69029E-14
 -1      3583 9.65363E-03 1.76727E-04-5.61854E-14
 -1      3584 2.17855E-03 2.60832E-04-3.92094E-15
 -1      3585 2.03828E-03 2.58953E-04-3.46240E-15
 -1      3586 8.23285E-03-3.40849E-04-4.80260E-14
 -1      3587 2.73931E-03 2.59165E-04-6.03955E-15
 -1      3588 2.59921E-03 2.60697E-04-5.46777E-15
 -1      3589 2.80073E-03 2.23327E-04-6.38518E-15
 -1      3590 2.45904E-03 2.61557E-04-4.92377E-15
 -1      3591 2.31881E-03 2.61666E-04-4.40804E-15
 -1      3592 2.24082E-03 2.26598E-04-4.20367E-15
 -1      3593 9.77647E-04-6.34782E-05-1.07183E-15
 -1      3594 9.77779E-04-8.87659E-05-1.07134E-15
 -1      3595 1.09394E-03-1.10239E-04-1.29672E-15
 -1      3596 1.42747E-02 1.16828E-03-1.11008E-13
 -1      3597 1.42993E-02 1.20394E-03-1.11039E-13
 -1      3598 1.42116E-02 1.19438E-03-1.09801E-13
 -1      3599 1.41408E-02 1.12653E-03-1.09378E-13
 -1      3600 1.03962E-02 5.34898E-04-5.85498E-14
 -1      3601 1.30609E-03 2.45226E-04-1.50205E-15
 -1      3602 1.26450E-03 2.18279E-04-1.45031E-15
 -1      3603 1.44559E-03 2.56675E-04-1.80662E-15
 -1      3604 4.40444E-03 2.27383E-04-1.50422E-14
 -1      3605 4.26746E-03 2.28726E-04-1.41440E-14
 -1      3606 4.18016E-03 1.97849E-04-1.37595E-14
 -1      3607 4.44961E-03 1.95964E-04-1.55535E-14
 -1      3608 9.37202E-03 3.43821E-05-5.51801E-14
 -1      3609 9.13052E-03-8.03092E-05-5.39080E-14
 -1      3610 1.50730E-03-2.81018E-04-2.17851E-15
 -1      3611 1.64453E-03-2.92472E-04-2.54801E-15
 -1      3612 1.70869E-03-2.65270E-04-2.76051E-15
 -1      3613 8.99083E-03-7.15452E-05-5.48977E-14
 -1      3614 1.05222E-02 4.93636E-04-5.94727E-14
 -1      3615 1.25714E-03 1.84608E-04-1.47892E-15
 -1      3616 1.07054E-02 4.35585E-04-6.09331E-14
 -1      3617 1.06895E-02 4.12383E-04-6.03162E-14
 -1      3618 1.07298E-02 4.08278E-04-6.10630E-14
 -1      3619 6.15299E-03-2.17190E-04-2.96731E-14
 -1      3620 9.19745E-03-1.49208E-05-5.65786E-14
 -1      3621 9.49731E-03 5.87113E-05-5.77672E-14
 -1      3622 1.37876E-02 7.45071E-04-1.07790E-13
 -1      3623 1.36771E-02 7.45183E-04-1.06120E-13
 -1      3624 1.37639E-02 7.05248E-04-1.07837E-13
 -1      3625 1.22022E-03 7.28276E-05-1.50943E-15
 -1      3626 1.21681E-03 4.29063E-05-1.52217E-15
 -1      3627 5.52132E-03 1.47470E-04-2.70005E-14
 -1      3628 5.56222E-03 1.59025E-04-2.72565E-14
 -1      3629 5.70643E-03 1.01121E-04-2.89663E-14
 -1      3630 5.62624E-03 9.99992E-05-2.82050E-14
 -1      3631 5.72850E-03 6.84073E-05-2.86513E-14
 -1      3632 1.35080E-02 5.21941E-04-1.05853E-13
 -1      3633 1.36301E-02 5.37216E-04-1.07513E-13
 -1      3634 1.36619E-02 5.63346E-04-1.07731E-13
 -1      3635 1.34588E-02 5.47055E-04-1.04872E-13
 -1      3636 3.15886E-03 2.51820E-04-7.92235E-15
 -1      3637 3.07959E-03 2.18713E-04-7.64215E-15
 -1      3638 3.29840E-03 2.48755E-04-8.60482E-15
 -1      3639 5.83579E-03 2.34242E-04-2.84588E-14
 -1      3640 5.89382E-03 2.61623E-04-2.82374E-14
 -1      3641 5.72550E-03 2.10335E-04-2.75586E-14
 -1      3642 5.58382E-03 1.68750E-04-2.70481E-14
 -1      3643 3.63359E-03 2.07323E-04-1.04849E-14
 -1      3644 3.57680E-03 2.42294E-04-1.00524E-14
 -1      3645 3.43771E-03 2.45565E-04-9.31479E-15
 -1      3646 1.96044E-03 2.23350E-04-3.28252E-15
 -1      3647 1.89807E-03 2.55799E-04-3.03285E-15
 -1      3648 5.85217E-03 2.92432E-04-2.66930E-14
 -1      3649 5.70749E-03 2.41600E-04-2.61175E-14
 -1      3650 5.99238E-03 3.19677E-04-2.79050E-14
 -1      3651 6.19902E-03 3.73911E-04-2.94872E-14
 -1      3652 6.13573E-03 3.62205E-04-2.88193E-14
 -1      3653 1.38567E-02 8.63250E-04-1.07641E-13
 -1      3654 1.38792E-02 9.02817E-04-1.07586E-13
 -1      3655 1.37235E-02 8.23838E-04-1.06018E-13
 -1      3656 1.41238E-02 1.18470E-03-1.08565E-13
 -1      3657 1.39014E-02 9.42427E-04-1.07529E-13
 -1      3658 1.39233E-02 9.82140E-04-1.07471E-13
 -1      3659 1.37685E-02 9.02393E-04-1.05907E-13
 -1      3660 5.56082E-03 1.39022E-04-2.80948E-14
 -1      3661 5.51883E-03 1.35260E-04-2.73894E-14
 -1      3662 5.55278E-03 1.24381E-04-2.78162E-14
 -1      3663 1.01810E-02 3.39358E-04-5.83965E-14
 -1      3664 1.40159E-03-2.43662E-04-1.93746E-15
 -1      3665 1.77583E-03 2.55777E-04-2.67481E-15
 -1      3666 1.06319E-02 4.88102E-04-6.07750E-14
 -1      3667 1.09580E-03-2.31540E-04-1.24212E-15
 -1      3668 1.33348E-03 2.89506E-05-1.79406E-15
 -1      3669 1.21410E-03 1.32810E-05-1.53210E-15
 -1      3670 1.21209E-03-1.60510E-05-1.53930E-15
 -1      3671 6.32702E-03 4.20948E-04-3.01960E-14
 -1      3672 1.16633E-03-2.12047E-04-1.40751E-15
 -1      3673 9.59294E-03 1.18513E-04-5.67582E-14
 -1      3674 9.60616E-03 1.03373E-04-5.73328E-14
 -1      3675 9.88057E-03 2.19968E-04-5.83679E-14
 -1      3676 2.52103E-03 2.26244E-04-5.23838E-15
 -1      3677 1.10834E-03 1.12170E-04-1.24489E-15
 -1      3678 1.39477E-02 1.01686E-03-1.07505E-13
 -1      3679 1.39721E-02 1.05173E-03-1.07538E-13
 -1      3680 1.38148E-02 9.76189E-04-1.05882E-13
 -1      3681 1.09362E-03-5.54165E-05-1.29756E-15
 -1      3682 5.93931E-03-5.78328E-06-2.95754E-14
 -1      3683 5.85144E-03 1.17667E-05-2.90165E-14
 -1      3684 5.95600E-03-5.85347E-05-2.91788E-14
 -1      3685 1.16281E-03-1.81704E-04-1.41792E-15
 -1      3686 1.22872E-03-1.97159E-04-1.55556E-15
 -1      3687 1.16033E-03-1.52081E-04-1.42562E-15
 -1      3688 1.40338E-02 1.13626E-03-1.07664E-13
 -1      3689 1.06380E-02 3.67079E-04-6.00756E-14
 -1      3690 1.05764E-02 3.82431E-04-6.04468E-14
 -1      3691 1.07105E-02 3.83819E-04-6.11433E-14
 -1      3692 1.36936E-02 5.89419E-04-1.07946E-13
 -1      3693 1.91154E-03-2.43998E-04-3.40519E-15
 -1      3694 2.04924E-03-2.49366E-04-3.86118E-15
 -1      3695 2.18685E-03-2.53546E-04-4.34497E-15
 -1      3696 2.32431E-03-2.56588E-04-4.85697E-15
 -1      3697 2.11566E-03-2.18405E-04-4.11094E-15
 -1      3698 2.46152E-03-2.58610E-04-5.39662E-15
 -1      3699 2.59844E-03-2.59642E-04-5.96315E-15
 -1      3700 2.39087E-03-2.24106E-04-5.13450E-15
 -1      3701 2.73499E-03-2.59789E-04-6.55757E-15
 -1      3702 2.87115E-03-2.59064E-04-7.17955E-15
 -1      3703 2.66498E-03-2.26201E-04-6.26840E-15
 -1      3704 3.00686E-03-2.57556E-04-7.82885E-15
 -1      3705 3.14210E-03-2.55264E-04-8.50529E-15
 -1      3706 2.93743E-03-2.25086E-04-7.51165E-15
 -1      3707 3.27680E-03-2.52270E-04-9.20737E-15
 -1      3708 3.41098E-03-2.48560E-04-9.93636E-15
 -1      3709 3.20781E-03-2.21054E-04-8.86255E-15
 -1      3710 3.54458E-03-2.44214E-04-1.06922E-14
 -1      3711 3.67760E-03-2.39215E-04-1.14734E-14
 -1      3712 3.47575E-03-2.14313E-04-1.03196E-14
 -1      3713 3.81002E-03-2.33643E-04-1.22800E-14
 -1      3714 3.94186E-03-2.27486E-04-1.31119E-14
 -1      3715 3.74099E-03-2.05025E-04-1.18810E-14
 -1      3716 4.07309E-03-2.20829E-04-1.39680E-14
 -1      3717 4.20381E-03-2.13674E-04-1.48483E-14
 -1      3718 4.00332E-03-1.93331E-04-1.35434E-14
 -1      3719 4.33398E-03-2.06115E-04-1.57533E-14
 -1      3720 4.46377E-03-1.98188E-04-1.66815E-14
 -1      3721 4.26272E-03-1.79394E-04-1.53035E-14
 -1      3722 4.59318E-03-1.89992E-04-1.76329E-14
 -1      3723 4.72250E-03-1.81634E-04-1.86069E-14
 -1      3724 4.51940E-03-1.63443E-04-1.71581E-14
 -1      3725 4.85177E-03-1.73214E-04-1.96034E-14
 -1      3726 4.98146E-03-1.64994E-04-2.06239E-14
 -1      3727 4.77397E-03-1.45851E-04-1.91050E-14
 -1      3728 5.11169E-03-1.57076E-04-2.16673E-14
 -1      3729 5.24320E-03-1.49993E-04-2.27323E-14
 -1      3730 5.02780E-03-1.27328E-04-2.11430E-14
 -1      3731 5.37623E-03-1.43846E-04-2.38191E-14
 -1      3732 5.51192E-03-1.39822E-04-2.49269E-14
 -1      3733 5.28339E-03-1.09264E-04-2.32712E-14
 -1      3734 5.65080E-03-1.38092E-04-2.60558E-14
 -1      3735 5.79430E-03-1.40879E-04-2.72043E-14
 -1      3736 5.54531E-03-9.48638E-05-2.54838E-14
 -1      3737 9.72020E-03 1.31759E-04-5.91950E-14
 -1      3738 5.25824E-03 1.90777E-04-2.21359E-14
 -1      3739 5.13373E-03 1.83266E-04-2.10595E-14
 -1      3740 1.22442E-03 1.03446E-04-1.49399E-15
 -1      3741 1.34100E-03 9.23446E-05-1.76568E-15
 -1      3742 1.22939E-03 1.34774E-04-1.47521E-15
 -1      3743 3.96085E-03 1.69180E-04-1.25315E-14
 -1      3744 3.82555E-03 1.71150E-04-1.17127E-14
 -1      3745 9.93364E-03 1.94825E-04-6.10515E-14
 -1      3746 1.01767E-02 2.37951E-04-6.29716E-14
 -1      3747 1.00423E-02 2.36647E-04-6.08267E-14
 -1      3748 1.04178E-02 2.89777E-04-6.49944E-14
 -1      3749 1.06516E-02 3.50840E-04-6.72396E-14
 -1      3750 1.04673E-02 3.41177E-04-6.48441E-14
 -1      3751 1.08926E-02 3.40067E-04-6.98531E-14
 -1      3752 1.11191E-02 2.60145E-04-7.27002E-14
 -1      3753 1.08974E-02 3.77334E-04-6.93941E-14
 -1      3754 1.12562E-02 2.79693E-04-7.45362E-14
 -1      3755 1.13932E-02 2.98987E-04-7.63794E-14
 -1      3756 1.12579E-02 3.14964E-04-7.38695E-14
 -1      3757 1.15300E-02 3.18105E-04-7.82322E-14
 -1      3758 1.16669E-02 3.37149E-04-8.00921E-14
 -1      3759 1.15257E-02 3.52081E-04-7.75577E-14
 -1      3760 1.18040E-02 3.56206E-04-8.19608E-14
 -1      3761 1.19414E-02 3.75305E-04-8.38329E-14
 -1      3762 1.17950E-02 3.89750E-04-8.12776E-14
 -1      3763 1.20791E-02 3.94529E-04-8.57099E-14
 -1      3764 1.22172E-02 4.13869E-04-8.75917E-14
 -1      3765 1.20664E-02 4.28178E-04-8.50221E-14
 -1      3766 1.23557E-02 4.33397E-04-8.94756E-14
 -1      3767 1.24947E-02 4.53087E-04-9.13650E-14
 -1      3768 1.23401E-02 4.67463E-04-8.87839E-14
 -1      3769 1.26340E-02 4.72998E-04-9.32563E-14
 -1      3770 1.27737E-02 4.93094E-04-9.51505E-14
 -1      3771 1.26161E-02 5.07629E-04-9.25587E-14
 -1      3772 1.29137E-02 5.13422E-04-9.70459E-14
 -1      3773 1.30541E-02 5.33949E-04-9.89413E-14
 -1      3774 1.28940E-02 5.48664E-04-9.63426E-14
 -1      3775 1.31948E-02 5.54705E-04-1.00840E-13
 -1      3776 1.33358E-02 5.75656E-04-1.02740E-13
 -1      3777 1.31738E-02 5.90532E-04-1.00134E-13
 -1      3778 5.61574E-03 1.83758E-04-2.68349E-14
 -1      3779 5.65267E-03 2.02523E-04-2.66169E-14
 -1      3780 5.51884E-03 1.61894E-04-2.61227E-14
 -1      3781 2.02330E-03 1.90535E-04-3.53745E-15
 -1      3782 1.88327E-03 1.88277E-04-3.10385E-15
 -1      3783 5.00825E-03 1.77261E-04-2.00098E-14
 -1      3784 4.88130E-03 1.72777E-04-1.89849E-14
 -1      3785 5.03542E-03 1.52997E-04-2.05669E-14
 -1      3786 4.75322E-03 1.69490E-04-1.79856E-14
 -1      3787 4.62381E-03 1.67432E-04-1.70131E-14
 -1      3788 4.78905E-03 1.43533E-04-1.85215E-14
 -1      3789 5.50369E-03 2.11320E-04-2.43650E-14
 -1      3790 5.38123E-03 2.00104E-04-2.32378E-14
 -1      3791 5.27394E-03 1.67568E-04-2.27121E-14
 -1      3792 5.58774E-03 2.11043E-04-2.54162E-14
 -1      3793 1.16008E-02 6.50539E-04-7.48151E-14
 -1      3794 1.14712E-02 6.26885E-04-7.29972E-14
 -1      3795 1.18641E-02 6.99892E-04-7.84816E-14
 -1      3796 1.17318E-02 6.74860E-04-7.66443E-14
 -1      3797 1.16634E-02 6.34823E-04-7.57884E-14
 -1      3798 1.21322E-02 7.51251E-04-8.21828E-14
 -1      3799 1.19975E-02 7.25349E-04-8.03272E-14
 -1      3800 1.19238E-02 6.83656E-04-7.94651E-14
 -1      3801 1.24043E-02 8.03708E-04-8.59198E-14
 -1      3802 1.22678E-02 7.77366E-04-8.40468E-14
 -1      3803 1.21898E-02 7.34172E-04-8.31765E-14
 -1      3804 1.26797E-02 8.56551E-04-8.96766E-14
 -1      3805 1.25416E-02 8.30100E-04-8.77965E-14
 -1      3806 1.24604E-02 7.85624E-04-8.69206E-14
 -1      3807 1.29578E-02 9.09261E-04-9.34531E-14
 -1      3808 1.28184E-02 8.82934E-04-9.15632E-14
 -1      3809 1.27346E-02 8.37413E-04-9.06840E-14
 -1      3810 1.32378E-02 9.61504E-04-9.72398E-14
 -1      3811 1.30976E-02 9.35448E-04-9.53442E-14
 -1      3812 1.30117E-02 8.89098E-04-9.44601E-14
 -1      3813 1.35195E-02 1.01307E-03-1.01035E-13
 -1      3814 1.33785E-02 9.87377E-04-9.91366E-14
 -1      3815 1.32910E-02 9.40396E-04-9.82478E-14
 -1      3816 1.07261E-02 5.10546E-04-6.23226E-14
 -1      3817 1.07271E-02 4.66796E-04-6.17311E-14
 -1      3818 1.07882E-02 4.58016E-04-6.24850E-14
 -1      3819 1.08476E-02 5.26319E-04-6.40820E-14
 -1      3820 1.67160E-03 2.59028E-04-2.37951E-15
 -1      3821 1.54957E-03 2.56248E-04-2.06432E-15
 -1      3822 1.50761E-03 2.29050E-04-2.00256E-15
 -1      3823 1.71599E-03 2.24178E-04-2.56030E-15
 -1      3824 1.37365E-03 1.75968E-04-1.75287E-15
 -1      3825 2.30340E-03 1.92234E-04-4.49096E-15
 -1      3826 2.16336E-03 1.91818E-04-3.99988E-15
 -1      3827 2.08656E-03 1.57402E-04-3.79763E-15
 -1      3828 6.42360E-03 4.72554E-04-3.03743E-14
 -1      3829 1.10935E-02 5.63142E-04-6.76304E-14
 -1      3830 1.09697E-02 5.43898E-04-6.58507E-14
 -1      3831 1.09317E-02 5.08138E-04-6.50509E-14
 -1      3832 2.86202E-03 1.87800E-04-6.73303E-15
 -1      3833 2.72270E-03 1.89623E-04-6.13110E-15
 -1      3834 1.15800E-03-9.43980E-05-1.43246E-15
 -1      3835 1.15876E-03-1.23040E-04-1.43048E-15
 -1      3836 1.22392E-03-1.36223E-04-1.57017E-15
 -1      3837 1.13442E-02 6.04797E-04-7.12049E-14
 -1      3838 1.12175E-02 5.83054E-04-6.94057E-14
 -1      3839 1.11673E-02 5.46970E-04-6.85958E-14
 -1      3840 1.14109E-02 5.89035E-04-7.21656E-14
 -1      3841 1.34637E-02 5.78426E-04-1.04627E-13
 -1      3842 1.35649E-02 5.86697E-04-1.06057E-13
 -1      3843 1.36980E-02 6.20979E-04-1.07699E-13
 -1      3844 1.34417E-02 6.14945E-04-1.03920E-13
 -1      3845 1.39987E-02 1.10252E-03-1.07455E-13
 -1      3846 2.58313E-03 1.91024E-04-5.55681E-15
 -1      3847 2.44334E-03 1.91942E-04-5.00995E-15
 -1      3848 2.36625E-03 1.57813E-04-4.78243E-15
 -1      3849 2.64530E-03 1.55982E-04-5.87864E-15
 -1      3850 5.48470E-03 1.34355E-04-2.67255E-14
 -1      3851 5.45456E-03 1.35137E-04-2.60642E-14
 -1      3852 5.45619E-03 1.21487E-04-2.64537E-14
 -1      3853 1.21079E-03-4.51822E-05-1.54404E-15
 -1      3854 1.21020E-03-7.42986E-05-1.54603E-15
 -1      3855 1.32905E-03-3.30194E-05-1.81062E-15
 -1      3856 1.04152E-02 3.72630E-04-6.01085E-14
 -1      3857 1.02096E-02 3.27432E-04-5.96321E-14
 -1      3858 1.39756E-03-2.10280E-04-1.95060E-15
 -1      3859 1.63634E-03-2.29230E-04-2.57777E-15
 -1      3860 1.77388E-03-2.37307E-04-2.97742E-15
 -1      3861 1.84002E-03-2.08601E-04-3.19855E-15
 -1      3862 1.37222E-02 6.61146E-04-1.07658E-13
 -1      3863 1.36117E-02 6.61927E-04-1.05990E-13
 -1      3864 1.38655E-02 1.06113E-03-1.05830E-13
 -1      3865 1.73047E-03 1.89301E-04-2.65521E-15
 -1      3866 1.62617E-03 1.93110E-04-2.36286E-15
 -1      3867 1.37239E-02 1.03603E-03-1.03923E-13
 -1      3868 5.77607E-03-6.45980E-05-2.76148E-14
 -1      3869 5.89784E-03-1.18207E-04-2.82069E-14
 -1      3870 5.47110E-03 1.76286E-04-2.48573E-14
 -1      3871 1.35434E-02 7.06271E-04-1.04500E-13
 -1      3872 1.35671E-02 7.45406E-04-1.04452E-13
 -1      3873 1.46296E-03 1.12675E-04-2.04074E-15
 -1      3874 1.45808E-03 7.90756E-05-2.05989E-15
 -1      3875 4.09533E-03 1.67636E-04-1.33762E-14
 -1      3876 4.01286E-03 1.37737E-04-1.29948E-14
 -1      3877 4.22897E-03 1.66527E-04-1.42468E-14
 -1      3878 3.35732E-03 2.13147E-04-9.00888E-15
 -1      3879 5.55234E-03 7.89664E-05-2.71906E-14
 -1      3880 5.54978E-03 1.03520E-04-2.75010E-14
 -1      3881 5.48482E-03 1.03376E-04-2.68026E-14
 -1      3882 1.79392E-03 1.58411E-04-2.88170E-15
 -1      3883 3.13967E-03 1.83335E-04-8.01997E-15
 -1      3884 3.00102E-03 1.85690E-04-7.36313E-15
 -1      3885 2.92320E-03 1.52680E-04-7.08475E-15
 -1      3886 5.43076E-03 1.45028E-04-2.52870E-14
 -1      3887 5.44922E-03 1.59275E-04-2.50738E-14
 -1      3888 5.37201E-03 1.58922E-04-2.40406E-14
 -1      3889 1.35904E-02 7.84412E-04-1.04398E-13
 -1      3890 1.36132E-02 8.23369E-04-1.04346E-13
 -1      3891 1.34573E-02 7.45349E-04-1.02783E-13
 -1      3892 3.68956E-03 1.73360E-04-1.09198E-14
 -1      3893 3.55289E-03 1.75798E-04-1.01540E-14
 -1      3894 3.74485E-03 1.40492E-04-1.13572E-14
 -1      3895 1.27512E-03-8.57048E-05-1.69274E-15
 -1      3896 5.74625E-03 2.40067E-05-2.82530E-14
 -1      3897 1.36351E-02 9.88637E-04-1.03029E-13
 -1      3898 5.38495E-03 1.30438E-04-2.50255E-14
 -1      3899 1.01411E-02 2.98976E-04-6.00087E-14
 -1      3900 1.00860E-02 2.60122E-04-6.04477E-14
 -1      3901 1.02894E-02 3.12659E-04-6.24517E-14
 -1      3902 1.03799E-02 3.46676E-04-6.16979E-14
 -1      3903 1.05997E-02 3.73580E-04-6.16351E-14
 -1      3904 1.36357E-02 8.62310E-04-1.04290E-13
 -1      3905 1.36577E-02 9.01324E-04-1.04230E-13
 -1      3906 1.35031E-02 8.22571E-04-1.02675E-13
 -1      3907 1.45400E-03 4.59803E-05-2.07552E-15
 -1      3908 1.45077E-03 1.32648E-05-2.08796E-15
 -1      3909 1.57555E-03 6.40524E-05-2.37588E-15
 -1      3910 1.34838E-02 6.58465E-04-1.04099E-13
 -1      3911 6.16793E-03-1.65935E-04-3.01163E-14
 -1      3912 6.07449E-03-1.34686E-04-2.95573E-14
 -1      3913 6.24917E-03-2.17912E-04-3.04752E-14
 -1      3914 1.36347E-02 9.27906E-04-1.03615E-13
 -1      3915 1.36588E-02 9.62051E-04-1.03647E-13
 -1      3916 1.34555E-02 9.39741E-04-1.00766E-13
 -1      3917 1.35024E-02 8.87461E-04-1.02000E-13
 -1      3918 1.07600E-02 4.02749E-04-6.17682E-14
 -1      3919 1.07821E-02 3.96812E-04-6.24755E-14
 -1      3920 1.07981E-02 4.22770E-04-6.23928E-14
 -1      3921 4.49330E-03 1.66290E-04-1.60657E-14
 -1      3922 4.36162E-03 1.66078E-04-1.51429E-14
 -1      3923 4.27680E-03 1.36773E-04-1.47359E-14
 -1      3924 4.53584E-03 1.38414E-04-1.65777E-14
 -1      3925 1.34311E-03-1.60842E-04-1.84057E-15
 -1      3926 1.51511E-03-2.03227E-04-2.25915E-15
 -1      3927 1.58143E-03-1.77310E-04-2.45120E-15
 -1      3928 1.34156E-03-1.29307E-04-1.84547E-15
 -1      3929 5.32925E-03 1.07516E-04-2.46925E-14
 -1      3930 5.28946E-03 1.18128E-04-2.39316E-14
 -1      3931 5.61127E-03-5.10026E-05-2.63617E-14
 -1      3932 5.69990E-03-2.19461E-05-2.73527E-14
 -1      3933 5.59698E-03 2.82018E-05-2.69924E-14
 -1      3934 5.48282E-03-5.89987E-05-2.52303E-14
 -1      3935 1.49322E-03 1.42246E-04-2.08422E-15
 -1      3936 1.61048E-03 1.28544E-04-2.40513E-15
 -1      3937 2.32078E-03-1.89643E-04-4.87533E-15
 -1      3938 2.45831E-03-1.91439E-04-5.41472E-15
 -1      3939 2.59551E-03-1.92488E-04-5.98176E-15
 -1      3940 2.73230E-03-1.92784E-04-6.57570E-15
 -1      3941 2.52659E-03-1.58654E-04-5.69756E-15
 -1      3942 2.86861E-03-1.92401E-04-7.19752E-15
 -1      3943 3.00439E-03-1.91317E-04-7.84594E-15
 -1      3944 2.80039E-03-1.59461E-04-6.88608E-15
 -1      3945 3.13956E-03-1.89601E-04-8.52096E-15
 -1      3946 3.27409E-03-1.87217E-04-9.22209E-15
 -1      3947 3.07203E-03-1.57827E-04-8.18207E-15
 -1      3948 3.40791E-03-1.84228E-04-9.95027E-15
 -1      3949 3.54099E-03-1.80586E-04-1.07050E-14
 -1      3950 3.34099E-03-1.53821E-04-9.58433E-15
 -1      3951 3.67325E-03-1.76356E-04-1.14850E-14
 -1      3952 3.80471E-03-1.71481E-04-1.22908E-14
 -1      3953 3.60675E-03-1.47442E-04-1.10921E-14
 -1      3954 3.93527E-03-1.66024E-04-1.31212E-14
 -1      3955 4.06497E-03-1.59924E-04-1.39766E-14
 -1      3956 3.86887E-03-1.38641E-04-1.27023E-14
 -1      3957 4.19373E-03-1.53247E-04-1.48565E-14
 -1      3958 4.32161E-03-1.45932E-04-1.57605E-14
 -1      3959 4.12695E-03-1.27315E-04-1.44131E-14
 -1      3960 4.44853E-03-1.38049E-04-1.66867E-14
 -1      3961 4.57466E-03-1.29549E-04-1.76366E-14
 -1      3962 4.38064E-03-1.13333E-04-1.62191E-14
 -1      3963 4.69988E-03-1.20502E-04-1.86099E-14
 -1      3964 4.82451E-03-1.10905E-04-1.96054E-14
 -1      3965 4.62973E-03-9.65446E-05-1.81180E-14
 -1      3966 4.94843E-03-1.00823E-04-2.06233E-14
 -1      3967 5.07222E-03-9.04021E-05-2.16651E-14
 -1      3968 4.87426E-03-7.68110E-05-2.01086E-14
 -1      3969 5.19576E-03-7.97159E-05-2.27287E-14
 -1      3970 5.32004E-03-6.91369E-05-2.38128E-14
 -1      3971 5.11478E-03-5.42271E-05-2.21908E-14
 -1      3972 1.76279E-03 1.27132E-04-2.83172E-15
 -1      3973 1.73235E-03 9.64103E-05-2.77934E-15
 -1      3974 1.91539E-03 1.24373E-04-3.29339E-15
 -1      3975 2.19474E-03 1.25724E-04-4.21432E-15
 -1      3976 2.05505E-03 1.25376E-04-3.73960E-15
 -1      3977 2.02419E-03 9.37265E-05-3.67881E-15
 -1      3978 1.33742E-02 6.59220E-04-1.02434E-13
 -1      3979 1.04829E-02 3.55996E-04-6.44829E-14
 -1      3980 1.06739E-02 3.92641E-04-6.65659E-14
 -1      3981 1.05073E-02 3.67592E-04-6.40892E-14
 -1      3982 1.08574E-02 4.05259E-04-6.87585E-14
 -1      3983 1.10426E-02 3.72212E-04-7.10542E-14
 -1      3984 1.08452E-02 4.17497E-04-6.81962E-14
 -1      3985 1.12454E-02 3.36099E-04-7.32162E-14
 -1      3986 1.13768E-02 3.54100E-04-7.50510E-14
 -1      3987 1.11831E-02 3.89243E-04-7.24049E-14
 -1      3988 1.15087E-02 3.72424E-04-7.68986E-14
 -1      3989 1.16413E-02 3.90984E-04-7.87510E-14
 -1      3990 1.14919E-02 3.91973E-04-7.62343E-14
 -1      3991 1.17745E-02 4.09868E-04-8.06086E-14
 -1      3992 1.19085E-02 4.28987E-04-8.24756E-14
 -1      3993 1.17540E-02 4.29268E-04-7.99410E-14
 -1      3994 1.20432E-02 4.48423E-04-8.43476E-14
 -1      3995 1.21786E-02 4.68088E-04-8.62249E-14
 -1      3996 1.20199E-02 4.68019E-04-8.36718E-14
 -1      3997 1.23148E-02 4.88042E-04-8.81033E-14
 -1      3998 1.24516E-02 5.08209E-04-8.99878E-14
 -1      3999 1.22894E-02 5.08048E-04-8.74235E-14
 -1      4000 1.25890E-02 5.28642E-04-9.18763E-14
 -1      4001 1.27271E-02 5.49273E-04-9.37656E-14
 -1      4002 1.25620E-02 5.49152E-04-9.11921E-14
 -1      4003 1.28657E-02 5.70138E-04-9.56587E-14
 -1      4004 1.30048E-02 5.91186E-04-9.75504E-14
 -1      4005 1.28373E-02 5.91188E-04-9.49712E-14
 -1      4006 1.31194E-02 6.14279E-04-9.90425E-14
 -1      4007 1.32593E-02 6.35730E-04-1.00939E-13
 -1      4008 1.33189E-02 6.82799E-04-1.01340E-13
 -1      4009 1.30900E-02 6.35728E-04-9.83533E-14
 -1      4010 1.44660E-03-8.42597E-05-2.10833E-15
 -1      4011 1.39374E-03-1.07261E-04-1.97580E-15
 -1      4012 1.51317E-03-1.29794E-04-2.27944E-15
 -1      4013 1.19803E-02 6.67776E-04-8.04506E-14
 -1      4014 1.18501E-02 6.43520E-04-7.86032E-14
 -1      4015 5.26146E-03 1.49236E-04-2.29286E-14
 -1      4016 5.14766E-03 1.41130E-04-2.18412E-14
 -1      4017 5.25110E-03 1.32737E-04-2.31423E-14
 -1      4018 4.82461E-03 1.19670E-04-1.90567E-14
 -1      4019 4.70230E-03 1.15600E-04-1.80609E-14
 -1      4020 1.22451E-02 7.17234E-04-8.41719E-14
 -1      4021 1.21120E-02 6.92324E-04-8.23057E-14
 -1      4022 1.20339E-02 6.51806E-04-8.14349E-14
 -1      4023 1.17216E-02 6.19832E-04-7.67619E-14
 -1      4024 1.15949E-02 5.96582E-04-7.49310E-14
 -1      4025 1.17758E-02 6.04916E-04-7.77356E-14
 -1      4026 1.47746E-03 1.74554E-04-2.00506E-15
 -1      4027 1.25147E-02 7.67560E-04-8.79197E-14
 -1      4028 1.23793E-02 7.42300E-04-8.60425E-14
 -1      4029 1.22982E-02 7.00119E-04-8.51643E-14
 -1      4030 1.27881E-02 8.18225E-04-9.16883E-14
 -1      4031 1.26510E-02 7.92859E-04-8.98031E-14
 -1      4032 1.25674E-02 7.49277E-04-8.89197E-14
 -1      4033 1.30646E-02 8.68848E-04-9.54646E-14
 -1      4034 1.29260E-02 8.43546E-04-9.35752E-14
 -1      4035 1.28405E-02 7.98809E-04-9.26898E-14
 -1      4036 1.33295E-02 9.16957E-04-9.90618E-14
 -1      4037 1.31898E-02 8.91813E-04-9.71663E-14
 -1      4038 1.31028E-02 8.46185E-04-9.62759E-14
 -1      4039 1.33533E-02 8.91201E-04-9.96807E-14
 -1      4040 1.08848E-02 4.77527E-04-6.41241E-14
 -1      4041 1.08470E-02 4.47719E-04-6.33186E-14
 -1      4042 1.08886E-02 4.41093E-04-6.40333E-14
 -1      4043 1.09954E-02 4.96319E-04-6.58941E-14
 -1      4044 5.43077E-03 1.04335E-04-2.61480E-14
 -1      4045 5.38359E-03 1.05022E-04-2.54956E-14
 -1      4046 5.41308E-03 8.54282E-05-2.58440E-14
 -1      4047 3.41566E-03 1.78306E-04-9.41569E-15
 -1      4048 3.27789E-03 1.80866E-04-8.70396E-15
 -1      4049 3.47350E-03 1.44327E-04-9.82505E-15
 -1      4050 5.98296E-03-1.08540E-04-2.89937E-14
 -1      4051 5.04679E-03 1.32555E-04-2.09508E-14
 -1      4052 4.92839E-03 1.26567E-04-1.99097E-14
 -1      4053 4.84393E-03 9.94490E-05-1.94264E-14
 -1      4054 5.04401E-03 1.15107E-04-2.11603E-14
 -1      4055 1.44835E-03-1.91229E-05-2.09728E-15
 -1      4056 1.44675E-03-5.13768E-05-2.10353E-15
 -1      4057 1.56859E-03-3.83133E-06-2.40336E-15
 -1      4058 2.04509E-03-1.83556E-04-3.87972E-15
 -1      4059 2.18302E-03-1.87019E-04-4.36372E-15
 -1      4060 2.25127E-03-1.55266E-04-4.61966E-15
 -1      4061 1.76925E-03-1.73853E-04-2.99477E-15
 -1      4062 1.90714E-03-1.79170E-04-3.42338E-15
 -1      4063 1.97519E-03-1.49081E-04-3.65189E-15
 -1      4064 4.57805E-03 1.12369E-04-1.70909E-14
 -1      4065 4.45195E-03 1.10142E-04-1.61459E-14
 -1      4066 4.62044E-03 8.81694E-05-1.76048E-14
 -1      4067 1.07911E-02 3.77636E-04-6.34546E-14
 -1      4068 1.06605E-02 3.74751E-04-6.32163E-14
 -1      4069 5.50588E-03 3.84556E-05-2.62982E-14
 -1      4070 1.72738E-03 6.07035E-05-2.80005E-15
 -1      4071 5.29372E-03 9.03401E-05-2.44003E-14
 -1      4072 5.38864E-03-2.83666E-05-2.46690E-14
 -1      4073 1.56567E-03-7.15379E-05-2.41910E-15
 -1      4074 2.33435E-03 1.25504E-04-4.71698E-15
 -1      4075 2.30308E-03 9.34420E-05-4.64852E-15
 -1      4076 2.47381E-03 1.24819E-04-5.24758E-15
 -1      4077 4.06449E-03 1.07659E-04-1.34599E-14
 -1      4078 3.93269E-03 1.08028E-04-1.26155E-14
 -1      4079 3.19944E-03 1.48592E-04-8.40072E-15
 -1      4080 1.32285E-02 6.97298E-04-9.97951E-14
 -1      4081 1.33428E-02 7.21235E-04-1.01289E-13
 -1      4082 1.33661E-02 7.59549E-04-1.01236E-13
 -1      4083 5.18661E-03 1.07828E-04-2.28301E-14
 -1      4084 3.79981E-03 1.08765E-04-1.17962E-14
 -1      4085 3.66589E-03 1.09895E-04-1.10030E-14
 -1      4086 3.85463E-03 7.82260E-05-1.22376E-14
 -1      4087 1.15267E-02 5.60632E-04-7.40887E-14
 -1      4088 1.14715E-02 5.74640E-04-7.31262E-14
 -1      4089 1.13503E-02 5.53221E-04-7.13325E-14
 -1      4090 1.05957E-02 3.80560E-04-6.34103E-14
 -1      4091 1.05485E-02 3.73882E-04-6.38043E-14
 -1      4092 1.07075E-02 4.04953E-04-6.57875E-14
 -1      4093 1.07950E-02 3.94853E-04-6.52456E-14
 -1      4094 1.33888E-02 7.97789E-04-1.01181E-13
 -1      4095 1.34110E-02 8.36055E-04-1.01123E-13
 -1      4096 1.32748E-02 7.73159E-04-9.96892E-14
 -1      4097 1.33882E-02 8.62030E-04-1.00508E-13
 -1      4098 2.98439E-03 1.18029E-04-7.43977E-15
 -1      4099 2.84623E-03 1.19695E-04-6.80800E-15
 -1      4100 2.72977E-03 1.21793E-04-6.29648E-15
 -1      4101 2.59083E-03 1.23115E-04-5.71591E-15
 -1      4102 2.55920E-03 9.10564E-05-5.63991E-15
 -1      4103 2.79216E-03 8.73165E-05-6.62838E-15
 -1      4104 1.12317E-02 5.32755E-04-6.95468E-14
 -1      4105 1.11157E-02 5.12824E-04-6.77707E-14
 -1      4106 1.12885E-02 5.19449E-04-7.04970E-14
 -1      4107 1.64867E-03-1.50373E-04-2.64758E-15
 -1      4108 1.08563E-02 3.99571E-04-6.40886E-14
 -1      4109 4.32425E-03 1.08613E-04-1.52255E-14
 -1      4110 4.19503E-03 1.07868E-04-1.43299E-14
 -1      4111 4.11603E-03 7.89777E-05-1.39273E-14
 -1      4112 4.37172E-03 8.20645E-05-1.57168E-14
 -1      4113 1.10565E-02 4.83291E-04-6.68344E-14
 -1      4114 1.90598E-03-1.15109E-04-3.42799E-15
 -1      4115 2.04418E-03-1.18381E-04-3.88407E-15
 -1      4116 2.18238E-03-1.21074E-04-4.36767E-15
 -1      4117 2.32045E-03-1.23186E-04-4.87898E-15
 -1      4118 2.11411E-03-8.71193E-05-4.11953E-15
 -1      4119 2.73280E-03-1.26299E-04-6.57734E-15
 -1      4120 2.86932E-03-1.26265E-04-7.19836E-15
 -1      4121 3.00524E-03-1.25732E-04-7.84633E-15
 -1      4122 3.14048E-03-1.24646E-04-8.52016E-15
 -1      4123 2.93910E-03-9.32603E-05-7.51290E-15
 -1      4124 3.27497E-03-1.23055E-04-9.22144E-15
 -1      4125 3.40865E-03-1.20894E-04-9.94886E-15
 -1      4126 3.20977E-03-9.18307E-05-8.86128E-15
 -1      4127 3.54144E-03-1.18206E-04-1.07014E-14
 -1      4128 3.67328E-03-1.14904E-04-1.14811E-14
 -1      4129 3.47717E-03-8.84843E-05-1.03146E-14
 -1      4130 3.80406E-03-1.11051E-04-1.22868E-14
 -1      4131 3.93377E-03-1.06541E-04-1.31163E-14
 -1      4132 3.74066E-03-8.30405E-05-1.18727E-14
 -1      4133 4.06229E-03-1.01410E-04-1.39719E-14
 -1      4134 4.18962E-03-9.55623E-05-1.48520E-14
 -1      4135 3.99956E-03-7.52180E-05-1.35333E-14
 -1      4136 4.31560E-03-8.90331E-05-1.57540E-14
 -1      4137 4.44028E-03-8.17087E-05-1.66802E-14
 -1      4138 4.25322E-03-6.47070E-05-1.52919E-14
 -1      4139 4.56343E-03-7.36288E-05-1.76301E-14
 -1      4140 4.68521E-03-6.46548E-05-1.86028E-14
 -1      4141 4.50082E-03-5.11052E-05-1.71445E-14
 -1      4142 4.80526E-03-5.48335E-05-1.95981E-14
 -1      4143 4.92392E-03-4.40235E-05-2.06164E-14
 -1      4144 4.74143E-03-3.39329E-05-1.90900E-14
 -1      4145 5.04061E-03-3.23226E-05-2.16588E-14
 -1      4146 5.15610E-03-1.96161E-05-2.27224E-14
 -1      4147 4.97385E-03-1.26249E-05-2.11292E-14
 -1      4148 1.26187E-02 7.30711E-04-8.99187E-14
 -1      4149 1.24835E-02 7.06619E-04-8.80352E-14
 -1      4150 1.70131E-03-1.25212E-04-2.80269E-15
 -1      4151 3.25908E-03 1.14540E-04-8.78454E-15
 -1      4152 3.12203E-03 1.16308E-04-8.09834E-15
 -1      4153 3.04563E-03 8.39201E-05-7.79753E-15
 -1      4154 1.87644E-03 5.17546E-05-3.25299E-15
 -1      4155 1.72028E-03 2.07939E-05-2.81121E-15
 -1      4156 1.08595E-02 4.23774E-04-6.78022E-14
 -1      4157 1.10060E-02 4.26696E-04-6.98056E-14
 -1      4158 1.08827E-02 4.23274E-04-6.74091E-14
 -1      4159 1.11586E-02 4.18270E-04-7.18207E-14
 -1      4160 1.13223E-02 4.08987E-04-7.37942E-14
 -1      4161 1.11579E-02 4.34055E-04-7.13035E-14
 -1      4162 1.14811E-02 4.09809E-04-7.56942E-14
 -1      4163 1.16099E-02 4.28190E-04-7.75417E-14
 -1      4164 1.14499E-02 4.36615E-04-7.51221E-14
 -1      4165 1.17399E-02 4.47127E-04-7.93945E-14
 -1      4166 1.18710E-02 4.66438E-04-8.12532E-14
 -1      4167 1.17253E-02 4.64282E-04-7.88456E-14
 -1      4168 1.20033E-02 4.86181E-04-8.31198E-14
 -1      4169 1.21366E-02 5.06259E-04-8.49924E-14
 -1      4170 1.19863E-02 5.03785E-04-8.25670E-14
 -1      4171 1.22709E-02 5.26688E-04-8.68694E-14
 -1      4172 1.24060E-02 5.47374E-04-8.87497E-14
 -1      4173 1.22520E-02 5.44849E-04-8.63120E-14
 -1      4174 1.25421E-02 5.68342E-04-9.06339E-14
 -1      4175 1.26788E-02 5.89530E-04-9.25223E-14
 -1      4176 1.25219E-02 5.87138E-04-9.00761E-14
 -1      4177 1.28163E-02 6.10953E-04-9.44109E-14
 -1      4178 1.29545E-02 6.32542E-04-9.63014E-14
 -1      4179 1.27951E-02 6.30361E-04-9.38497E-14
 -1      4180 1.30344E-02 6.52967E-04-9.73051E-14
 -1      4181 1.31483E-02 6.76535E-04-9.87944E-14
 -1      4182 1.31721E-02 7.14304E-04-9.87425E-14
 -1      4183 1.30125E-02 6.72793E-04-9.67404E-14
 -1      4184 5.12867E-03 8.17565E-05-2.24878E-14
 -1      4185 5.07499E-03 9.67566E-05-2.17219E-14
 -1      4186 1.71720E-03-1.41882E-05-2.82364E-15
 -1      4187 1.20849E-02 6.35605E-04-8.24189E-14
 -1      4188 1.19549E-02 6.12474E-04-8.05612E-14
 -1      4189 1.18266E-02 5.89871E-04-7.87101E-14
 -1      4190 1.17002E-02 5.67674E-04-7.68670E-14
 -1      4191 1.18745E-02 5.74270E-04-7.96835E-14
 -1      4192 1.28918E-02 7.79121E-04-9.36885E-14
 -1      4193 1.27548E-02 7.54871E-04-9.18015E-14
 -1      4194 1.26688E-02 7.11704E-04-9.09136E-14
 -1      4195 5.27537E-03 6.92889E-05-2.42393E-14
 -1      4196 5.20793E-03 7.37543E-05-2.34544E-14
 -1      4197 2.15477E-03 5.11483E-05-4.16855E-15
 -1      4198 2.01557E-03 5.16195E-05-3.69672E-15
 -1      4199 2.00813E-03 9.85319E-06-3.70887E-15
 -1      4200 1.32628E-02 8.39992E-04-9.88056E-14
 -1      4201 1.11077E-02 4.71589E-04-6.77740E-14
 -1      4202 1.09956E-02 4.55864E-04-6.58975E-14
 -1      4203 1.09322E-02 4.30538E-04-6.49621E-14
 -1      4204 2.45827E-03-1.24763E-04-5.41772E-15
 -1      4205 2.59575E-03-1.25787E-04-5.98412E-15
 -1      4206 2.66579E-03-9.29006E-05-6.27287E-15
 -1      4207 1.09595E-02 4.11948E-04-6.59534E-14
 -1      4208 3.53109E-03 1.11267E-04-1.02363E-14
 -1      4209 3.39545E-03 1.12860E-04-9.49689E-15
 -1      4210 3.31868E-03 8.12563E-05-9.17070E-15
 -1      4211 3.58857E-03 7.91903E-05-1.06508E-14
 -1      4212 5.26239E-03-1.04757E-07-2.37791E-14
 -1      4213 5.40680E-03 1.68114E-05-2.51966E-14
 -1      4214 5.38727E-03 6.03061E-05-2.53873E-14
 -1      4215 5.19147E-03 1.87877E-05-2.32306E-14
 -1      4216 1.23493E-02 6.82734E-04-8.61573E-14
 -1      4217 1.22164E-02 6.59004E-04-8.42859E-14
 -1      4218 1.23990E-02 6.64852E-04-8.71513E-14
 -1      4219 4.66403E-03 6.56520E-05-1.81192E-14
 -1      4220 4.54305E-03 6.09514E-05-1.71519E-14
 -1      4221 5.32276E-03 6.40166E-05-2.47456E-14
 -1      4222 1.66786E-03-8.38711E-05-2.70514E-15
 -1      4223 1.80331E-03-1.02375E-04-3.10655E-15
 -1      4224 1.87318E-03-7.25057E-05-3.31752E-15
 -1      4225 1.66844E-03-4.87589E-05-2.69834E-15
 -1      4226 2.39053E-03-9.08406E-05-5.14133E-15
 -1      4227 1.10753E-02 4.31191E-04-6.77964E-14
 -1      4228 1.09842E-02 3.96730E-04-6.69110E-14
 -1      4229 1.21338E-02 6.18877E-04-8.34046E-14
 -1      4230 5.10149E-03 6.01097E-05-2.23389E-14
 -1      4231 1.13368E-02 5.06101E-04-7.14204E-14
 -1      4232 1.12220E-02 4.87029E-04-6.96339E-14
 -1      4233 1.31951E-02 7.51934E-04-9.86892E-14
 -1      4234 1.32174E-02 7.89544E-04-9.86318E-14
 -1      4235 1.31155E-02 7.30869E-04-9.76906E-14
 -1      4236 1.11493E-02 4.58868E-04-6.86859E-14
 -1      4237 3.90976E-03 4.88444E-05-1.26814E-14
 -1      4238 3.77860E-03 4.82632E-05-1.18616E-14
 -1      4239 1.81942E-03-2.52544E-05-3.13309E-15
 -1      4240 1.15753E-02 5.46207E-04-7.50247E-14
 -1      4241 1.14546E-02 5.25698E-04-7.32175E-14
 -1      4242 1.13797E-02 4.92170E-04-7.23450E-14
 -1      4243 1.09393E-02 4.14359E-04-6.72034E-14
 -1      4244 2.43284E-03 4.95337E-05-5.19559E-15
 -1      4245 2.29388E-03 5.04477E-05-4.66811E-15
 -1      4246 2.28587E-03 7.73338E-06-4.68186E-15
 -1      4247 1.16219E-02 5.31690E-04-7.59878E-14
 -1      4248 1.30588E-02 7.96319E-04-9.61067E-14
 -1      4249 1.29711E-02 7.51980E-04-9.52137E-14
 -1      4250 5.23889E-03 4.56739E-05-2.37971E-14
 -1      4251 1.31834E-02 8.18250E-04-9.78076E-14
 -1      4252 4.46940E-03 3.33998E-05-1.67021E-14
 -1      4253 4.41994E-03 5.70062E-05-1.62091E-14
 -1      4254 4.29485E-03 5.39938E-05-1.52901E-14
 -1      4255 2.84085E-03 5.29340E-05-6.90081E-15
 -1      4256 2.72494E-03 5.47383E-05-6.38682E-15
 -1      4257 4.97966E-03 8.76054E-05-2.08383E-14
 -1      4258 4.87381E-03 7.97233E-05-1.98832E-14
 -1      4259 4.77431E-03 7.19557E-05-1.90347E-14
 -1      4260 4.70111E-03 4.52030E-05-1.85591E-14
 -1      4261 4.91504E-03 6.09267E-05-2.04265E-14
 -1      4262 3.11495E-03 5.07469E-05-8.19737E-15
 -1      4263 2.97822E-03 5.18156E-05-7.53580E-15
 -1      4264 2.91180E-03 1.96100E-05-7.27426E-15
 -1      4265 4.16803E-03 5.16198E-05-1.43949E-14
 -1      4266 4.03960E-03 4.99776E-05-1.35258E-14
 -1      4267 4.22083E-03 2.55655E-05-1.48651E-14
 -1      4268 3.96540E-03 2.06162E-05-1.31262E-14
 -1      4269 1.11872E-02 4.44881E-04-6.96572E-14
 -1      4270 1.21810E-02 6.01555E-04-8.43903E-14
 -1      4271 1.20498E-02 5.79555E-04-8.25218E-14
 -1      4272 3.14533E-03-6.01383E-05-8.50374E-15
 -1      4273 3.28003E-03-5.93854E-05-9.20410E-15
 -1      4274 3.41383E-03-5.82398E-05-9.93055E-15
 -1      4275 3.54667E-03-5.65935E-05-1.06827E-14
 -1      4276 3.35131E-03-2.73631E-05-9.54843E-15
 -1      4277 3.72035E-03-3.27939E-05-1.16856E-14
 -1      4278 3.85076E-03-3.03778E-05-1.24983E-14
 -1      4279 3.97983E-03-2.74834E-05-1.33348E-14
 -1      4280 4.10750E-03-2.38587E-05-1.41973E-14
 -1      4281 4.23358E-03-1.96444E-05-1.50845E-14
 -1      4282 4.35802E-03-1.45402E-05-1.59941E-14
 -1      4283 4.48054E-03-8.74146E-06-1.69274E-14
 -1      4284 4.60110E-03-1.85285E-06-1.78859E-14
 -1      4285 4.71068E-03 6.16084E-06-1.87918E-14
 -1      4286 4.82670E-03 1.50783E-05-1.97945E-14
 -1      4287 1.10599E-02 4.27243E-04-6.90609E-14
 -1      4288 2.06040E-03-3.84374E-05-3.91507E-15
 -1      4289 2.19901E-03-4.00685E-05-4.40009E-15
 -1      4290 5.13759E-03 2.65122E-05-2.27378E-14
 -1      4291 2.33749E-03-4.15389E-05-4.91261E-15
 -1      4292 1.14151E-02 4.56046E-04-7.41709E-14
 -1      4293 1.15546E-02 4.67995E-04-7.60388E-14
 -1      4294 1.16771E-02 4.99649E-04-7.74243E-14
 -1      4295 1.18043E-02 5.19646E-04-7.92711E-14
 -1      4296 1.19756E-02 5.22627E-04-8.21029E-14
 -1      4297 1.21071E-02 5.43298E-04-8.39711E-14
 -1      4298 1.22398E-02 5.64388E-04-8.58444E-14
 -1      4299 1.23736E-02 5.85758E-04-8.77227E-14
 -1      4300 1.22269E-02 5.83487E-04-8.53750E-14
 -1      4301 1.25085E-02 6.07438E-04-8.96058E-14
 -1      4302 1.26442E-02 6.29311E-04-9.14913E-14
 -1      4303 1.24945E-02 6.27364E-04-8.91332E-14
 -1      4304 1.27331E-02 6.71885E-04-9.23856E-14
 -1      4305 1.28700E-02 6.94538E-04-9.42748E-14
 -1      4306 1.92179E-03-3.66183E-05-3.45770E-15
 -1      4307 6.00150E-03-1.89970E-04-2.85834E-14
 -1      4308 1.12875E-02 4.59074E-04-7.12374E-14
 -1      4309 1.12056E-02 4.29482E-04-7.03377E-14
 -1      4310 1.11669E-02 4.36456E-04-7.06876E-14
 -1      4311 1.14049E-02 4.77038E-04-7.30366E-14
 -1      4312 2.54945E-03 4.78403E-05-5.66065E-15
 -1      4313 3.66046E-03-3.57454E-06-1.12706E-14
 -1      4314 3.60139E-03 2.64690E-05-1.08580E-14
 -1      4315 2.59940E-03-5.93178E-05-5.97154E-15
 -1      4316 2.73678E-03-6.00291E-05-6.56365E-15
 -1      4317 2.59974E-03 1.35368E-05-5.90890E-15
 -1      4318 2.47573E-03-4.27664E-05-5.45286E-15
 -1      4319 2.87362E-03-6.04340E-05-7.18346E-15
 -1      4320 3.00983E-03-6.04609E-05-7.83030E-15
 -1      4321 3.08152E-03-2.79159E-05-8.14964E-15
 -1      4322 2.80868E-03-2.72287E-05-6.85755E-15
 -1      4323 1.24472E-02 6.46433E-04-8.81427E-14
 -1      4324 1.23135E-02 6.23834E-04-8.62649E-14
 -1      4325 4.93153E-03 2.49674E-05-2.07422E-14
 -1      4326 5.04187E-03 3.64062E-05-2.17912E-14
 -1      4327 1.16360E-02 5.15662E-04-7.64600E-14
 -1      4328 1.12960E-02 4.44333E-04-7.25642E-14
 -1      4329 1.14146E-02 4.61187E-04-7.35000E-14
 -1      4330 1.25821E-02 6.69215E-04-9.00257E-14
 -1      4331 1.19201E-02 5.57972E-04-8.06598E-14
 -1      4332 1.30360E-02 7.09933E-04-9.66874E-14
 -1      4333 3.46800E-03 2.63496E-05-1.00983E-14
 -1      4334 1.15119E-02 4.95758E-04-7.46168E-14
 -1      4335 3.33364E-03 2.64990E-05-9.36514E-15
 -1      4336 3.19841E-03 2.69706E-05-8.65851E-15
 -1      4337 2.99671E-03-4.38782E-06-7.70721E-15
 -1      4338 2.85999E-03-3.77422E-06-7.06534E-15
 -1      4339 2.72268E-03-2.99625E-06-6.45069E-15
 -1      4340 2.54811E-03-9.99684E-06-5.71967E-15
 -1      4341 1.27179E-02 6.92222E-04-9.19100E-14
 -1      4342 3.13274E-03-4.75276E-06-8.37558E-15
 -3
    1PSTEP                         2           1           1          
  100CL  101 1.000000000        4342                     0    1           1
 -4  STRESS      6    1
 -5  SXX         1    4    1    1
 -5  SYY         1    4    2    2
 -5  SZZ         1    4    3    3
 -5  SXY         1    4    1    2
 -5  SYZ         1    4    2    3
 -5  SZX         1    4    3    1
 -1         1 4.11705E+01 1.01872E+01 9.40106E-01-1.97526E+01-4.54796E-13 8.28837E-13
 -1         2-7.34960E-01-2.45052E+01-3.37587E+00-1.63688E-01 1.14008E-13 1.62582E-13
 -1         3 1.99995E+01-2.84503E-04 4.87225E-03-3.37908E-04-2.96875E-13-3.56380E-13
 -1         4 1.99994E+01-4.27392E-04 4.65212E-03 4.79214E-04 3.33259E-14 1.44408E-13
 -1         5 3.12149E+01 5.85388E+00 2.57981E+00 5.92315E+00-3.82402E-14 2.76351E-12
 -1         6 3.47306E+01 1.19248E+01 5.01835E+00-8.41885E+00-1.64813E-13 2.66261E-12
 -1         7 2.00362E+01 5.87395E+00-1.37201E-01-4.63915E+00-2.38420E-14 5.08541E-13
 -1         8 1.88920E+01 5.70154E+00 4.25534E-02-3.26944E+00-3.17246E-14-1.50816E-13
 -1         9 1.83641E+01 5.53966E+00 4.29307E-02-2.57354E+00-2.80435E-14-5.13067E-13
 -1        10 1.81357E+01 5.46380E+00 4.59801E-02-2.03951E+00-1.74080E-14-6.86908E-13
 -1        11 1.80346E+01 5.42889E+00 4.61304E-02-1.57914E+00-1.49763E-14-7.59588E-13
 -1        12 1.79952E+01 5.41444E+00 4.53020E-02-1.16743E+00-5.21631E-15-7.89999E-13
 -1        13 1.79887E+01 5.41108E+00 4.44740E-02-7.73334E-01-3.75719E-15-7.95681E-13
 -1        14 1.80030E+01 5.41472E+00 4.43370E-02-3.91069E-01 3.44484E-15-7.90244E-13
 -1        15 1.80316E+01 5.42323E+00 4.50327E-02-9.59462E-03 4.10869E-15-7.93976E-13
 -1        16 1.80722E+01 5.43597E+00 4.65921E-02 3.81636E-01 8.92168E-15-7.80551E-13
 -1        17 1.81273E+01 5.45362E+00 4.89406E-02 7.94022E-01 1.37091E-14-7.40912E-13
 -1        18 1.82036E+01 5.47886E+00 5.16477E-02 1.23309E+00 1.72254E-14-6.77247E-13
 -1        19 1.83247E+01 5.51919E+00 5.35762E-02 1.73295E+00 2.53322E-14-5.67063E-13
 -1        20 1.85423E+01 5.59195E+00 5.25898E-02 2.31798E+00 3.11036E-14-3.53638E-13
 -1        21 1.90060E+01 5.74684E+00 5.19716E-02 3.06386E+00 3.92048E-14 5.51703E-14
 -1        22 2.03878E+01 6.13191E+00 1.40441E-01 4.26335E+00 3.19189E-15 8.94045E-13
 -1        23 2.22423E+01-1.32962E+00-9.02669E-01-7.08623E-01-1.13416E-13 2.08471E-12
 -1        24 1.85786E+01-9.68365E-02-3.02084E-01 5.73883E-02-3.05728E-14 1.56484E-12
 -1        25 1.78249E+01-5.53181E-02-6.84497E-02 5.69122E-02-5.86337E-15 1.06247E-12
 -1        26 1.75578E+01-2.21350E-02-7.46113E-03 3.05102E-02 1.34246E-15 7.45277E-13
 -1        27 1.75104E+01-1.22620E-02 5.79431E-04 2.06952E-02 3.78506E-15 5.08007E-13
 -1        28 1.75747E+01-7.04667E-03 7.05189E-04 1.47401E-02-4.54107E-15 3.42301E-13
 -1        29 1.76976E+01-4.23986E-03 4.10961E-04 1.08769E-02-1.48009E-14 2.12779E-13
 -1        30 1.78519E+01-2.77034E-03 2.18547E-04 8.22939E-03 3.10361E-15 8.65176E-14
 -1        31 1.80255E+01-2.11096E-03-1.23447E-04 6.40948E-03-2.56422E-15-1.00078E-13
 -1        32 1.82151E+01-1.96708E-03-7.12104E-04 5.25344E-03-1.62782E-14-2.62549E-13
 -1        33 1.84233E+01-2.14562E-03-1.52122E-03 4.70263E-03 2.34482E-14-3.19818E-13
 -1        34 1.86571E+01-2.49038E-03-2.46787E-03 4.74997E-03-2.71935E-14-4.22794E-13
 -1        35 1.89250E+01-2.84347E-03-3.42174E-03 5.40847E-03 5.79753E-15-5.83870E-13
 -1        36 1.92360E+01-3.01727E-03-4.18004E-03 6.67951E-03 5.63969E-15-6.16399E-13
 -1        37 1.95963E+01-2.77370E-03-4.42515E-03 8.50504E-03-4.48189E-14-5.71676E-13
 -1        38 2.00055E+01-1.81711E-03-3.67991E-03 1.06886E-02-1.56027E-14-6.89275E-13
 -1        39 2.04513E+01 1.80945E-04-1.29220E-03 1.27732E-02-3.19417E-14-8.66889E-13
 -1        40 2.09032E+01 3.49292E-03 3.48190E-03 1.38823E-02-2.24976E-14-8.87318E-13
 -1        41 2.13052E+01 8.13958E-03 1.11731E-02 1.25785E-02 1.98452E-15-1.05942E-12
 -1        42 2.15728E+01 1.35752E-02 2.14493E-02 6.90698E-03 9.75131E-15-1.25833E-12
 -1        43 2.15985E+01 1.83176E-02 3.21021E-02-5.05836E-03-5.95331E-14-1.45236E-12
 -1        44 2.12770E+01 1.98438E-02 3.83211E-02-2.38384E-02 1.40312E-14-1.57781E-12
 -1        45 2.05552E+01 1.51939E-02 3.32840E-02-4.63882E-02-7.29165E-14-1.92447E-12
 -1        46 1.94994E+01 2.71296E-03 1.19716E-02-6.45321E-02 1.85544E-14-2.49461E-12
 -1        47 1.83448E+01-1.56873E-02-2.28744E-02-6.67930E-02 4.69009E-14-2.74019E-12
 -1        48 1.74665E+01-3.37683E-02-5.76238E-02-4.55115E-02-7.32264E-14-3.34353E-12
 -1        49 1.72449E+01-4.35616E-02-7.33138E-02-5.14205E-03 3.25421E-14-4.17750E-12
 -1        50 1.78711E+01-4.14661E-02-6.04602E-02 3.48454E-02-1.27879E-14-4.95765E-12
 -1        51 1.92333E+01-3.24676E-02-3.57242E-02 5.08103E-02 3.24418E-14-5.29918E-12
 -1        52 2.10439E+01-3.01820E-02-5.39733E-02 4.11835E-02-3.70581E-14-5.33983E-12
 -1        53 2.32880E+01-3.00385E-02-1.61039E-01 7.13515E-02-5.03850E-15-4.99884E-12
 -1        54 2.66491E+01-1.34356E-02-2.40688E-01 2.49598E-01 9.05543E-14-3.70988E-12
 -1        55 3.08538E+01 5.76123E-02 1.29623E-01 2.51563E-01 2.21725E-13-1.30669E-12
 -1        56 3.15470E+01 5.75605E-02 9.93305E-02-4.16164E-01 4.47333E-13 9.30332E-13
 -1        57 2.66868E+01 3.58754E-02-9.07141E-01-6.80245E-01 2.50557E-13 1.84627E-12
 -1        58 2.50861E+01 1.43740E-01-3.53052E-01 5.09143E-01 1.56500E-13 2.12158E-12
 -1        59 2.42023E+01-9.71826E-02 5.83249E-01 1.57206E-01-6.32768E-13 1.05381E-13
 -1        60 2.17639E+01-1.45341E-03-3.31899E-03-1.04497E-02 2.56486E-14-7.18231E-13
 -1        61 2.13724E+01-2.83836E-03-4.72529E-03-8.14653E-03 1.30804E-13-6.32533E-13
 -1        62 2.10323E+01-3.41594E-03-5.01214E-03-5.96438E-03-1.20788E-15-3.36698E-13
 -1        63 2.07499E+01-3.47127E-03-4.68092E-03-4.12831E-03-1.01351E-13-3.08930E-13
 -1        64 2.05237E+01-3.22779E-03-4.06753E-03-2.69580E-03 2.48421E-14-5.65716E-13
 -1        65 2.03479E+01-2.84459E-03-3.38168E-03-1.63873E-03 3.15319E-14-7.76215E-13
 -1        66 2.02153E+01-2.42730E-03-2.75128E-03-8.89441E-04 4.65792E-14-5.52752E-13
 -1        67 2.01187E+01-2.04067E-03-2.25970E-03-3.60744E-04 1.54356E-14 3.91913E-13
 -1        68 2.00520E+01-1.71451E-03-1.96093E-03 5.68213E-05 1.03559E-13 6.66208E-13
 -1        69 2.00105E+01-1.43088E-03-1.82382E-03 5.13000E-04-1.21451E-13 6.23109E-13
 -1        70 1.99916E+01-1.00331E-03-1.45097E-03 1.27611E-03 1.26064E-13 6.31113E-13
 -1        71 1.99931E+01 1.72665E-04 7.21547E-04 2.09759E-03 1.66378E-14 6.77105E-13
 -1        72 2.01505E+01-3.86571E-01-9.42723E-01-3.03498E-01 3.69635E-14 2.51706E-12
 -1        73 1.86327E+01-6.27397E-02-2.76751E-01-5.40225E-02 2.70357E-14 1.90466E-12
 -1        74 1.81140E+01-1.95644E-02-5.99480E-02-2.07231E-02 7.30394E-15 1.45263E-12
 -1        75 1.80068E+01-9.60261E-03-8.21990E-03-1.53082E-02 1.96469E-14 1.11851E-12
 -1        76 1.81014E+01-5.30785E-03 6.83593E-04-1.18900E-02-2.32778E-15 8.63629E-13
 -1        77 1.82963E+01-3.11241E-03 1.18834E-03-9.35864E-03 1.30050E-14 7.18501E-13
 -1        78 1.85428E+01-1.99674E-03 8.25297E-04-7.39341E-03-1.06289E-14 5.99801E-13
 -1        79 1.88172E+01-1.52115E-03 4.48359E-04-5.75744E-03 2.62357E-14 4.88608E-13
 -1        80 1.91097E+01-1.46962E-03-1.05145E-04-4.35356E-03-2.87949E-14 3.74692E-13
 -1        81 1.94195E+01-1.72389E-03-9.57010E-04-3.16578E-03 2.74199E-14 3.11853E-13
 -1        82 1.97526E+01-2.20978E-03-2.14462E-03-2.22849E-03-9.72227E-15 1.97108E-13
 -1        83 2.01205E+01-2.86548E-03-3.67248E-03-1.62115E-03 2.06396E-14 1.23724E-13
 -1        84 2.05390E+01-3.61449E-03-5.52561E-03-1.48266E-03 2.13290E-14-5.53724E-14
 -1        85 2.10277E+01-4.33180E-03-7.63797E-03-2.03892E-03 3.46554E-15-2.00835E-13
 -1        86 2.16085E+01-4.79568E-03-9.81012E-03-3.63791E-03-1.08059E-14-1.98684E-13
 -1        87 2.23022E+01-4.62157E-03-1.15468E-02-6.77557E-03-1.76897E-14-2.04870E-13
 -1        88 2.31227E+01-3.18971E-03-1.17713E-02-1.20630E-02-4.21392E-14-1.59890E-13
 -1        89 2.40647E+01 3.77030E-04-8.41444E-03-2.00074E-02 6.90600E-14-3.82040E-13
 -1        90 2.50837E+01 7.01351E-03 1.89745E-03-3.03432E-02 1.07649E-14-7.82766E-13
 -1        91 2.60650E+01 1.70134E-02 2.33040E-02-4.05540E-02-6.27529E-14-5.35549E-13
 -1        92 2.67893E+01 2.85070E-02 5.76820E-02-4.36140E-02-8.85858E-15-3.65413E-13
 -1        93 2.69222E+01 3.56101E-02 9.77125E-02-2.66036E-02-1.04400E-14-3.87858E-13
 -1        94 2.60866E+01 2.84958E-02 1.18125E-01 2.50295E-02 2.02039E-14-5.85160E-13
 -1        95 2.40911E+01 1.03369E-03 7.97630E-02 1.09620E-01 1.94042E-14-6.94840E-13
 -1        96 2.12924E+01-3.62359E-02-3.50529E-02 1.85102E-01-3.31801E-14-6.57668E-14
 -1        97 1.87714E+01-5.90760E-02-1.73637E-01 1.81923E-01-3.46511E-14 4.47309E-13
 -1        98 1.78625E+01-4.99484E-02-2.32977E-01 7.10101E-02 8.50622E-15 1.35638E-13
 -1        99 1.91756E+01-1.98942E-02-1.65430E-01-8.01276E-02-2.45825E-14-4.93987E-13
 -1       100 2.20460E+01-1.52527E-03-4.15063E-02-1.57215E-01-4.08540E-14-5.03382E-13
 -1       101 2.52754E+01-1.16607E-01 5.72471E-02-1.50965E-01-1.19254E-14-6.00325E-13
 -1       102 2.73600E+01 5.07571E-01 5.98582E-01-5.29923E-01 9.39041E-14-9.43547E-13
 -1       103 2.68271E+01 2.32758E-02 9.44151E-02-3.81248E-02-1.12694E-14-9.22233E-13
 -1       104 2.66174E+01 1.29501E-02 5.34160E-02 3.36022E-03 9.42595E-15-4.65922E-13
 -1       105 2.58513E+01 4.36672E-03 1.91189E-02 2.30714E-02 2.13235E-14-2.75726E-13
 -1       106 2.48653E+01-1.22957E-03-1.75465E-03 2.82465E-02-4.01827E-14-1.01467E-13
 -1       107 2.38743E+01-4.14005E-03-1.13701E-02 2.62386E-02 2.76815E-14-2.89456E-13
 -1       108 2.29871E+01-5.21534E-03-1.41215E-02 2.16286E-02-2.47903E-14-8.88158E-13
 -1       109 2.22435E+01-5.23018E-03-1.34868E-02 1.67065E-02 2.23121E-14-2.27622E-13
 -1       110 2.16457E+01-4.72485E-03-1.15395E-02 1.23978E-02 1.29863E-14 2.28832E-14
 -1       111 2.11790E+01-4.02475E-03-9.32145E-03 8.95051E-03-5.47584E-15 3.47544E-13
 -1       112 2.08224E+01-3.30579E-03-7.28037E-03 6.32636E-03-8.93965E-15 4.77321E-13
 -1       113 2.05548E+01-2.65326E-03-5.56825E-03 4.39246E-03 5.19813E-14 1.86167E-13
 -1       114 2.03575E+01-2.10272E-03-4.20941E-03 3.00336E-03-1.02445E-13 2.75119E-13
 -1       115 2.02148E+01-1.66381E-03-3.18666E-03 2.02830E-03 1.57461E-13 2.68270E-14
 -1       116 2.01143E+01-1.32960E-03-2.48023E-03 1.34917E-03 8.40707E-15-9.27938E-14
 -1       117 2.00469E+01-1.08256E-03-2.07491E-03 8.47068E-04 1.39249E-13-1.08163E-12
 -1       118 2.00066E+01-8.79078E-04-1.88989E-03 3.70790E-04 1.03545E-15-1.12052E-12
 -1       119 1.99897E+01-4.93116E-04-1.40592E-03-4.65974E-04-1.16313E-14-1.10005E-12
 -1       120 1.99929E+01 6.93670E-04 9.04153E-04-1.94485E-03 1.65396E-13-8.46870E-13
 -1       121 2.00000E+01-6.72895E-03 5.60349E-04-2.53659E-03-8.65541E-13-1.09819E-13
 -1       122 1.99990E+01-8.36535E-03-1.68849E-03-8.37378E-04-7.57783E-13-1.50768E-14
 -1       123 1.99991E+01 1.10005E-02-1.65989E-03 4.61443E-04 1.83092E-13 3.02762E-13
 -1       124 1.99994E+01 4.66442E-02-8.84852E-04 1.21180E-03 4.80951E-13 1.76179E-13
 -1       125 1.99999E+01 9.02754E-02 1.52268E-05 1.45562E-03 3.19137E-13-8.74772E-14
 -1       126 2.00004E+01 1.32116E-01 7.78754E-04 1.32813E-03 2.65735E-13 8.12617E-14
 -1       127 2.00008E+01 1.65450E-01 1.32498E-03 9.11287E-04 1.38180E-12 6.91059E-14
 -1       128 2.00009E+01 1.83558E-01 1.60151E-03 3.25445E-04 1.04445E-12 3.05120E-14
 -1       129 2.00009E+01 1.83376E-01 1.58613E-03-3.10532E-04 9.30348E-13 5.83196E-14
 -1       130 2.00007E+01 1.65074E-01 1.28859E-03-8.80294E-04 1.20078E-12-1.31195E-13
 -1       131 2.00004E+01 1.31973E-01 7.39217E-04-1.28650E-03 2.54558E-13 6.71365E-15
 -1       132 1.99999E+01 9.07707E-02 1.26874E-05-1.39892E-03-3.40325E-13 4.45669E-13
 -1       133 1.99994E+01 4.79142E-02-8.31009E-04-1.16547E-03-2.96911E-13-2.92026E-15
 -1       134 1.99990E+01 1.25572E-02-1.65316E-03-5.79017E-04-7.97110E-13 8.75446E-14
 -1       135 1.99992E+01-6.67277E-03-1.47019E-03 1.01488E-03-6.64793E-13 4.88943E-14
 -1       136 1.99993E+01-6.12995E-03 5.31025E-04 3.65175E-03-8.28944E-13 6.82040E-15
 -1       137-1.47083E+00-1.97789E+01-3.12629E+00-3.97506E+00 1.46436E-12 8.63511E-14
 -1       138-1.82690E+00-8.87481E+00-2.45752E+00-3.29595E+00 8.99336E-13 7.40241E-14
 -1       139 3.87397E+00 3.26584E+00-1.23479E+00 4.01117E+00-1.30446E-12-9.91207E-13
 -1       140 1.77169E+01 1.01472E+01 3.57791E-01 1.33379E+01-8.59257E-13-9.62175E-13
 -1       141 3.79921E+01 9.63766E+00 1.93707E+00 1.86195E+01-4.83030E-13-1.15885E-12
 -1       142 5.82228E+01 4.66338E+00 3.21650E+00 1.48978E+01-5.11854E-13-1.57385E-12
 -1       143 6.94933E+01 1.18115E+00 3.89247E+00 2.46822E+00-3.84137E-14-2.62636E-12
 -1       144 6.37818E+01 3.33408E+00 3.57217E+00-1.23672E+01 9.93861E-13-4.80954E-12
 -1       145 4.47737E+01 9.13370E+00 2.41725E+00-1.94954E+01 2.89319E-12-6.11078E-12
 -1       146 2.08121E+01 1.17403E+01 7.20176E-01-1.54769E+01 4.79328E-12-6.09796E-12
 -1       147 5.33602E+00 6.18156E+00-8.81437E-01-5.97815E+00 6.40310E-12-5.17592E-12
 -1       148-1.35832E+00-6.85554E+00-2.25497E+00 2.37380E+00 6.38295E-12-3.13097E-12
 -1       149-1.37647E+00-1.91468E+01-3.04463E+00 3.75246E+00 5.54251E-12-1.22455E-12
 -1       150-6.25323E-01-2.41559E+01-3.25670E+00-1.03773E-01 4.33686E-12-3.53328E-14
 -1       151-1.49818E+00-1.94305E+01-2.87754E+00-4.06614E+00 3.37105E-12 8.17648E-13
 -1       152-1.61828E+00-8.89246E+00-2.08060E+00-3.08019E+00 2.64899E-12 1.14228E-12
 -1       153 2.80273E+00 2.78408E+00-9.04582E-01 3.05764E+00 1.69154E-12 1.44268E-12
 -1       154 1.46495E+01 8.86426E+00 3.90590E-01 1.12890E+01 1.57496E-12 1.92696E-12
 -1       155 3.25908E+01 8.10210E+00 1.57927E+00 1.57454E+01 1.37607E-12 2.73426E-12
 -1       156 4.97372E+01 3.66855E+00 2.37185E+00 1.22278E+01 8.53893E-13 3.40605E-12
 -1       157 5.95437E+01 8.78096E-01 2.59457E+00 3.15314E-01-3.17593E-14 4.14024E-12
 -1       158 5.53278E+01 3.75526E+00 2.01553E+00-1.24939E+01-9.83838E-13 3.87468E-12
 -1       159 2.44663E+01 1.58766E+01 3.53596E-02-1.93180E+01 4.45033E-12-5.60882E-12
 -1       160 1.05986E+01 1.51206E+01-4.46339E-01-1.20166E+01 1.68781E-11-1.36937E-11
 -1       161 2.25050E+00-1.83974E+00-2.06678E+00 9.64783E-01 3.85250E-11-2.04441E-11
 -1       162-1.09378E+01-3.87233E+01-1.16581E+01-2.62189E+00 5.57661E-11 1.10234E-11
 -1       163 2.01800E+01 3.58470E+00-5.63367E-02-3.59609E+00-3.82160E-13 1.62377E-13
 -1       164 1.91710E+01 4.07003E+00-4.45887E-02-2.84131E+00-3.44698E-13-2.51287E-13
 -1       165 1.87069E+01 4.32506E+00-3.03765E-02-2.26561E+00-2.79760E-13-4.79495E-13
 -1       166 1.84879E+01 4.45700E+00-2.25956E-02-1.78087E+00-2.12242E-13-6.01280E-13
 -1       167 1.83838E+01 4.53691E+00-1.84580E-02-1.35394E+00-1.45075E-13-6.50096E-13
 -1       168 1.83391E+01 4.58859E+00-1.64895E-02-9.53504E-01-9.00774E-14-6.66725E-13
 -1       169 1.83330E+01 4.61800E+00-1.55897E-02-5.71779E-01-2.12876E-14-6.58782E-13
 -1       170 1.83538E+01 4.62805E+00-1.53842E-02-1.96809E-01 4.56981E-14-6.64732E-13
 -1       171 1.83969E+01 4.61905E+00-1.57851E-02 1.81988E-01 9.69163E-14-6.59002E-13
 -1       172 1.84629E+01 4.58911E+00-1.68778E-02 5.75246E-01 1.43749E-13-6.37383E-13
 -1       173 1.85570E+01 4.53484E+00-1.90256E-02 9.87576E-01 2.03818E-13-5.90354E-13
 -1       174 1.87009E+01 4.44432E+00-2.31629E-02 1.44826E+00 2.82929E-13-5.07611E-13
 -1       175 1.89374E+01 4.29419E+00-3.14410E-02 1.97285E+00 3.44982E-13-3.66778E-13
 -1       176 1.93854E+01 4.01580E+00-4.46182E-02 2.58975E+00 4.00643E-13-9.17044E-14
 -1       177 2.04035E+01 3.30977E+00-5.63053E-02 3.27709E+00 3.83152E-13 4.14106E-13
 -1       178 2.15631E+01 1.08575E+00-3.20646E-01 2.80744E+00 2.85820E-13 1.08105E-12
 -1       179 2.11146E+01 8.39124E-01 8.23426E-04-1.97087E+00-3.31565E-13 6.45574E-13
 -1       180 1.95819E+01 1.89226E-01-9.82734E-03-8.05267E-01-2.84085E-13 4.82644E-13
 -1       181 1.87758E+01 1.02371E-01 1.31875E-02-3.31766E-01-1.93207E-13 3.39634E-13
 -1       182 1.83988E+01 4.92548E-02 9.87910E-03-1.11629E-01-1.61625E-13 2.07180E-13
 -1       183 1.82334E+01 2.57653E-02 5.24904E-03 1.98962E-03-1.05963E-13 1.31287E-13
 -1       184 1.81912E+01 1.39798E-02 2.66798E-03 6.44576E-02-7.84556E-14 8.24216E-14
 -1       185 1.82223E+01 8.07629E-03 1.48052E-03 1.00480E-01-8.50660E-14 4.40850E-14
 -1       186 1.82996E+01 5.65277E-03 9.53410E-04 1.23465E-01-9.72970E-14 1.21187E-16
 -1       187 1.84092E+01 5.49331E-03 7.25997E-04 1.41597E-01-1.03412E-13-3.36281E-14
 -1       188 1.85454E+01 6.84939E-03 6.44597E-04 1.60205E-01-5.13388E-14-5.64443E-14
 -1       189 1.87076E+01 9.14485E-03 6.33239E-04 1.82716E-01-1.33404E-13-2.19657E-13
 -1       190 1.88980E+01 1.18084E-02 6.38119E-04 2.10954E-01-1.01139E-13-3.14091E-13
 -1       191 1.91204E+01 1.41406E-02 6.07474E-04 2.45028E-01-2.88323E-14-3.25700E-13
 -1       192 1.93777E+01 1.51848E-02 4.85536E-04 2.82883E-01 1.51072E-14-3.30793E-13
 -1       193 1.96696E+01 1.36072E-02 2.15042E-04 3.19557E-01-6.11188E-14-2.65561E-13
 -1       194 1.99899E+01 7.64055E-03-2.49810E-04 3.46229E-01-7.40575E-14-2.46184E-13
 -1       195 2.03231E+01-4.77531E-03-9.16853E-04 3.49428E-01-6.71314E-14-2.44184E-13
 -1       196 2.06410E+01-2.54066E-02-1.71490E-03 3.11141E-01-8.23428E-14-2.98401E-13
 -1       197 2.09006E+01-5.43533E-02-2.45658E-03 2.11329E-01-1.91317E-13-3.80145E-13
 -1       198 2.10459E+01-8.76654E-02-2.82182E-03 3.48955E-02-1.24246E-13-6.37173E-13
 -1       199 2.10167E+01-1.14632E-01-2.49357E-03-2.15243E-01-2.73451E-14-6.45353E-13
 -1       200 2.07695E+01-1.16993E-01-1.26156E-03-5.00981E-01-2.45684E-13-6.48426E-13
 -1       201 2.03083E+01-7.45306E-02 6.76683E-04-7.37303E-01-3.09606E-13-7.35773E-13
 -1       202 1.97190E+01 1.99354E-02 2.95725E-03-8.05032E-01-2.88201E-13-9.53510E-13
 -1       203 1.91809E+01 1.42734E-01 5.22572E-03-6.03726E-01-4.21708E-13-1.38016E-12
 -1       204 1.89255E+01 2.39948E-01 6.83627E-03-1.27669E-01-5.76910E-13-1.72783E-12
 -1       205 1.91459E+01 2.54877E-01 5.99030E-03 4.94402E-01-4.99436E-13-2.23305E-12
 -1       206 1.99005E+01 1.79480E-01 6.59554E-04 1.05156E+00-2.68990E-13-2.70804E-12
 -1       207 2.10906E+01 9.36737E-02-7.97580E-03 1.41086E+00-9.54861E-14-3.00576E-12
 -1       208 2.25211E+01 1.51554E-01-2.95203E-02 1.68987E+00 2.85405E-13-2.85692E-12
 -1       209 2.39902E+01 4.55324E-01-7.91858E-02 2.32807E+00 1.38183E-12-1.68220E-12
 -1       210 2.60142E+01-4.74008E-02-2.40400E-01 3.08786E+00 2.10397E-12 7.19341E-13
 -1       211 2.92280E+01-1.91340E+00-2.30472E-01 1.35145E+00 3.32567E-13 1.57212E-12
 -1       212 3.06876E+01-1.25496E+00-1.75064E-01-2.51572E+00-3.72730E-12-5.12225E-12
 -1       213 2.89816E+01 2.68330E+00 3.13535E-01-1.21058E+00-2.28251E-12-1.45870E-11
 -1       214 2.56278E+01-3.16717E-01 9.19986E-01 3.12518E-01 2.39833E-12-5.16293E-12
 -1       215 2.16232E+01 4.85996E-03-4.12812E-04-3.29349E-01 5.48211E-14-4.97897E-13
 -1       216 2.13145E+01 1.32799E-02 1.45932E-04-3.06738E-01 2.87695E-13-1.38063E-13
 -1       217 2.10327E+01 1.68510E-02 4.98054E-04-2.68579E-01 7.08857E-14-1.11231E-13
 -1       218 2.07880E+01 1.73511E-02 6.78522E-04-2.24860E-01-2.70881E-14-2.44884E-13
 -1       219 2.05836E+01 1.61267E-02 7.35953E-04-1.81731E-01-1.87909E-13-3.97394E-13
 -1       220 2.04182E+01 1.41056E-02 7.15900E-04-1.42506E-01-1.59380E-14-3.59239E-13
 -1       221 2.02881E+01 1.18883E-02 6.53667E-04-1.08559E-01 2.40012E-13-1.78810E-13
 -1       222 2.01886E+01 9.84730E-03 5.71322E-04-8.00177E-02 5.15230E-13-2.12838E-14
 -1       223 2.01151E+01 8.20973E-03 4.76237E-04-5.62513E-02 3.43860E-13 2.93035E-13
 -1       224 2.00633E+01 7.08412E-03 3.65788E-04-3.62102E-02-1.12037E-14 3.90436E-13
 -1       225 2.00294E+01 6.36868E-03 2.80300E-04-1.88928E-02-8.18131E-15 2.71680E-13
 -1       226 2.00092E+01 5.36252E-03 2.18767E-04-4.20474E-03 1.16828E-13 4.17360E-13
 -1       227 2.02332E+01 2.61404E-01-4.83355E-02 1.04517E+00 3.06134E-13 9.17205E-13
 -1       228 1.92596E+01 1.19312E-01 8.36606E-03 3.61708E-01 2.28917E-13 7.06280E-13
 -1       229 1.88494E+01 5.48260E-02 1.23663E-02 8.45308E-02 1.85330E-13 5.10843E-13
 -1       230 1.87248E+01 2.69707E-02 7.41768E-03-4.90230E-02 1.15560E-13 4.07996E-13
 -1       231 1.87578E+01 1.41046E-02 3.79807E-03-1.18927E-01 9.38696E-14 3.16162E-13
 -1       232 1.88811E+01 7.74986E-03 2.01806E-03-1.57396E-01 5.90783E-14 2.23594E-13
 -1       233 1.90589E+01 4.87365E-03 1.22181E-03-1.80320E-01 7.31217E-14 2.00470E-13
 -1       234 1.92732E+01 4.18755E-03 8.57620E-04-1.96888E-01 4.77538E-14 1.51710E-13
 -1       235 1.95167E+01 5.07605E-03 6.89150E-04-2.13196E-01 7.43479E-14 4.89340E-14
 -1       236 1.97894E+01 7.20879E-03 6.20057E-04-2.33745E-01 5.13677E-14 2.99506E-14
 -1       237 2.00967E+01 1.03805E-02 6.00218E-04-2.62096E-01 6.86999E-14-7.63341E-15
 -1       238 2.04479E+01 1.44089E-02 5.87148E-04-3.01109E-01 8.69068E-14-3.62859E-14
 -1       239 2.08549E+01 1.90192E-02 5.30292E-04-3.52826E-01 6.25363E-14-8.74880E-14
 -1       240 2.13308E+01 2.36650E-02 3.64009E-04-4.17913E-01-2.11132E-14-6.54386E-14
 -1       241 2.18872E+01 2.72296E-02 1.17485E-05-4.94391E-01 3.04327E-14-1.74537E-14
 -1       242 2.25296E+01 2.75511E-02-5.81764E-04-5.75283E-01 1.83642E-14-1.79494E-13
 -1       243 2.32500E+01 2.07715E-02-1.36143E-03-6.44758E-01 1.62508E-13-2.96985E-13
 -1       244 2.40162E+01 7.89854E-04-1.99796E-03-6.72789E-01 5.67041E-14-2.36805E-13
 -1       245 2.47564E+01-4.01206E-02-1.75074E-03-6.10273E-01-1.84422E-13-2.02057E-13
 -1       246 2.53467E+01-1.06942E-01 5.00366E-04-3.91367E-01-6.33465E-14-1.17052E-13
 -1       247 2.56102E+01-1.90890E-01 5.14809E-03 4.27887E-02-9.72313E-15-1.27621E-13
 -1       248 2.53560E+01-2.51986E-01 9.90957E-03 6.81819E-01 3.52244E-14-1.09737E-13
 -1       249 2.44819E+01-2.12285E-01 8.43882E-03 1.35082E+00-1.62578E-14-9.11476E-14
 -1       250 2.31404E+01-6.41525E-03-5.82433E-03 1.66520E+00-3.14616E-13 3.85230E-14
 -1       251 2.18591E+01 2.96305E-01-2.60705E-02 1.23547E+00-1.72728E-13 1.20402E-13
 -1       252 2.13438E+01 4.83348E-01-3.47952E-02 8.69734E-02 2.56189E-13-3.75091E-15
 -1       253 2.19813E+01 3.80204E-01-2.52572E-02-1.17463E+00 2.38398E-13-3.13492E-13
 -1       254 2.34676E+01 8.77020E-02-9.96332E-03-1.83616E+00-2.01792E-14-6.65983E-13
 -1       255 2.50861E+01-6.36880E-02 2.80295E-02-1.79133E+00 9.36013E-14-6.72318E-13
 -1       256 2.59205E+01 2.36110E-01 1.42686E-01-1.18234E+00 1.34523E-13-6.90247E-13
 -1       257 2.57800E+01-1.15616E-01 1.15364E-01-2.83874E-01-2.40034E-13-4.39281E-13
 -1       258 2.52687E+01-1.30140E-01-1.26831E-03 3.06303E-01-1.21346E-13-3.03033E-13
 -1       259 2.47085E+01-5.58016E-02-3.43887E-03 5.69261E-01-2.33919E-14-2.73153E-13
 -1       260 2.39960E+01-6.67128E-03-3.17367E-03 6.53926E-01-9.00474E-14-1.36719E-13
 -1       261 2.32626E+01 1.92722E-02-1.94691E-03 6.30623E-01 1.95399E-13-3.26995E-13
 -1       262 2.25842E+01 2.96333E-02-7.29522E-04 5.54994E-01 4.60515E-15-2.63091E-13
 -1       263 2.19963E+01 3.12124E-02 1.20640E-04 4.62150E-01-2.78167E-13-1.82796E-13
 -1       264 2.15083E+01 2.85710E-02 5.91137E-04 3.70999E-01-1.10328E-13 1.37139E-13
 -1       265 2.11155E+01 2.43399E-02 7.85786E-04 2.90115E-01-1.11015E-13 2.20206E-13
 -1       266 2.08066E+01 1.98750E-02 8.13863E-04 2.22265E-01 2.56678E-14 2.54583E-13
 -1       267 2.05685E+01 1.57981E-02 7.55894E-04 1.67291E-01 9.25119E-14 1.36138E-14
 -1       268 2.03881E+01 1.23472E-02 6.61704E-04 1.23733E-01-1.38958E-13 2.11896E-13
 -1       269 2.02539E+01 9.58303E-03 5.56756E-04 8.96569E-02 3.03020E-13 3.97263E-13
 -1       270 2.01565E+01 7.49702E-03 4.48191E-04 6.30434E-02 2.41349E-13 1.31894E-13
 -1       271 2.00881E+01 6.04058E-03 3.26019E-04 4.19554E-02 3.89920E-13-2.19847E-14
 -1       272 2.00429E+01 5.15489E-03 1.86100E-04 2.47057E-02 4.05520E-14-1.55717E-13
 -1       273 2.00162E+01 4.71353E-03 1.92071E-04 1.00363E-02 8.35481E-14-3.58817E-13
 -1       274 2.00035E+01 2.57803E-03 4.58974E-04-1.19502E-03-1.75885E-13-4.71894E-13
 -1       275 2.00054E+01 9.03086E-03 1.97535E-04 4.64787E-03-8.50605E-14 3.22364E-13
 -1       276 2.00057E+01 2.67542E-02 5.06590E-05 1.80923E-02 1.25642E-13 3.85206E-13
 -1       277 2.00035E+01 5.36013E-02 1.43806E-05 2.94377E-02-1.31260E-14 3.39735E-13
 -1       278 2.00008E+01 8.60883E-02-1.21442E-05 3.48310E-02 5.70878E-14 8.86502E-14
 -1       279 1.99981E+01 1.18628E-01-7.94890E-05 3.35392E-02 2.41382E-13 5.37461E-14
 -1       280 1.99958E+01 1.46968E-01-1.45532E-04 2.61063E-02 3.64973E-13 4.51261E-13
 -1       281 1.99944E+01 1.65829E-01-1.94666E-04 1.41090E-02 3.56784E-13 2.05529E-14
 -1       282 1.99939E+01 1.72200E-01-2.11573E-04-2.24521E-04 3.66140E-13-5.13344E-14
 -1       283 1.99945E+01 1.65127E-01-1.93035E-04-1.44176E-02 2.08170E-13 9.54722E-14
 -1       284 1.99960E+01 1.45821E-01-1.43400E-04-2.60714E-02 1.54507E-13-3.81394E-13
 -1       285 1.99981E+01 1.18007E-01-7.30685E-05-3.30759E-02 7.96230E-14-2.27637E-13
 -1       286 2.00007E+01 8.52406E-02-1.09054E-05-3.42762E-02-2.84502E-14-3.16038E-14
 -1       287 2.00034E+01 5.32015E-02 1.63759E-05-2.89846E-02-1.33837E-13-2.46989E-13
 -1       288 2.00054E+01 2.73419E-02 1.59408E-04-1.82853E-02-4.63845E-13 1.88327E-13
 -1       289 2.00094E+01 1.56773E-02 1.54082E-04-1.19828E-02-3.44772E-13 2.04897E-15
 -1       290-7.41994E-01-9.87724E+00-8.42914E-01 1.13863E+00-1.61662E-13 5.51809E-13
 -1       291 2.63683E+00-8.62074E+00-8.30405E-01 3.18531E+00 2.53630E-13 8.15806E-14
 -1       292 1.15351E+01-5.69933E+00-3.90490E-01 6.17674E+00-8.13738E-13-7.10994E-13
 -1       293 2.16300E+01-2.69298E+00-1.19337E-01 6.54332E+00-1.22879E-12-8.22120E-13
 -1       294 3.13171E+01 1.86887E+00 2.97301E-01 6.77824E+00-7.21714E-13-1.07492E-12
 -1       295 4.11431E+01 4.88061E+00 7.79405E-01 5.72738E+00-4.53325E-13-1.40737E-12
 -1       296 4.62908E+01 6.76754E+00 8.98616E-01 1.87683E+00 3.07504E-13-1.97256E-12
 -1       297 4.66915E+01 7.42821E+00 8.83359E-01-1.39781E+00 1.23759E-12-2.44417E-12
 -1       298 4.40342E+01 5.91484E+00 9.24432E-01-5.74130E+00 1.86500E-12-3.01356E-12
 -1       299 3.39349E+01 2.94891E+00 3.88250E-01-6.90430E+00 2.39406E-12-2.95869E-12
 -1       300 2.17022E+01 2.71288E-01-4.40000E-02-7.93404E+00 3.24246E-12-3.00310E-12
 -1       301 1.15473E+01-4.24583E+00-4.31434E-01-6.43433E+00 3.14662E-12-2.56010E-12
 -1       302 3.13413E+00-7.81758E+00-7.57075E-01-3.85341E+00 3.16031E-12-1.80918E-12
 -1       303-8.38661E-01-1.06955E+01-9.92367E-01-1.24802E+00 3.04735E-12-1.00793E-12
 -1       304-9.72868E-01-1.08639E+01-9.41672E-01 7.83108E-01 2.84452E-12 1.59178E-14
 -1       305 3.24641E+00-7.72684E+00-4.65002E-01 3.82472E+00 2.28303E-12 3.69010E-13
 -1       306 8.69035E+00-5.36018E+00-4.17256E-01 4.77156E+00 2.03301E-12 8.37441E-13
 -1       307 1.72418E+01-1.59680E+00-7.50862E-02 5.97769E+00 1.49641E-12 1.69892E-12
 -1       308 2.67060E+01 1.74664E+00 2.75185E-01 5.99448E+00 1.18947E-12 2.24853E-12
 -1       309 3.50175E+01 4.22905E+00 5.18129E-01 4.43788E+00 6.58395E-13 2.63831E-12
 -1       310 4.02361E+01 6.02209E+00 5.58492E-01 9.93818E-01-2.32592E-14 3.30228E-12
 -1       311 3.96562E+01 7.41960E+00 2.32739E-01-2.89898E+00-4.28241E-13 3.82119E-12
 -1       312 3.59750E+01 7.44644E+00-2.42424E-01-6.03508E+00 7.04631E-13 3.63568E-12
 -1       313 2.98575E+01 7.64487E+00-7.06675E-01-9.98541E+00 4.51869E-12 1.72766E-12
 -1       314 2.10711E+01 4.67393E+00-1.41363E+00-1.00132E+01 1.36430E-11-9.21443E-13
 -1       315 1.48728E+01-6.24677E+00-2.33607E+00-1.10944E+01 3.00550E-11-1.87345E-12
 -1       316 4.68655E+00-1.71400E+01-3.77764E+00-1.52018E+01 4.54864E-11 1.19404E-13
 -1       317-4.91216E+00-1.38379E+01-3.06164E+00-3.66346E+00 1.89868E-11 9.36907E-12
 -1       318 1.93040E+01 2.93226E+00-1.69309E-02-2.17808E+00-3.70490E-13-2.29873E-13
 -1       319 1.98970E+01 2.15261E+00-1.72433E-02-2.40386E+00-4.15082E-13 1.13624E-15
 -1       320 1.87921E+01 3.58618E+00-1.41993E-02-1.44084E+00-2.24664E-13-4.76609E-13
 -1       321 1.86983E+01 3.73871E+00-1.27784E-02-1.07356E+00-1.48873E-13-5.19068E-13
 -1       322 1.86620E+01 3.82647E+00-1.19921E-02-7.18049E-01-6.46385E-14-4.91427E-13
 -1       323 1.86656E+01 3.86515E+00-1.16923E-02-3.69312E-01 1.98464E-14-4.98858E-13
 -1       324 1.87012E+01 3.86041E+00-1.18082E-02-2.07779E-02 9.11061E-14-5.06673E-13
 -1       325 1.87668E+01 3.81154E+00-1.23419E-02 3.34434E-01 1.53309E-13-5.00933E-13
 -1       326 1.88643E+01 3.71381E+00-1.34209E-02 6.96620E-01 2.22196E-13-4.72765E-13
 -1       327 1.90094E+01 3.54748E+00-1.53279E-02 1.08289E+00 3.03964E-13-3.94111E-13
 -1       328 1.92279E+01 3.27755E+00-1.84146E-02 1.48520E+00 3.72523E-13-3.03719E-13
 -1       329 1.95781E+01 2.82922E+00-2.20928E-02 1.87677E+00 4.23240E-13-1.50049E-13
 -1       330 2.00925E+01 2.02981E+00-2.90651E-02 2.09080E+00 4.32413E-13 1.72478E-13
 -1       331 2.03952E+01 1.12786E+00-2.34163E-02 1.73276E+00 4.00806E-13 4.71827E-13
 -1       332 1.97754E+01 4.62971E-01 8.12761E-03 7.84212E-01 3.21514E-13 3.61080E-13
 -1       333 1.95707E+01 6.67384E-01 1.20705E-02-1.09152E+00-3.10888E-13 3.64830E-14
 -1       334 1.91274E+01 3.39843E-01 7.11695E-03-5.28949E-01-2.43937E-13-3.02677E-15
 -1       335 1.88491E+01 1.85798E-01 4.18063E-03-2.15286E-01-1.76000E-13-5.13079E-14
 -1       336 1.86911E+01 1.05590E-01 2.04056E-03-3.14670E-02-1.30628E-13-9.70765E-14
 -1       337 1.86188E+01 6.25549E-02 1.03418E-03 7.94282E-02-1.02156E-13-1.20057E-13
 -1       338 1.86057E+01 4.05932E-02 6.03467E-04 1.49877E-01-1.02725E-13-1.15186E-13
 -1       339 1.86345E+01 3.17492E-02 4.37333E-04 1.99748E-01-6.66372E-14-8.62094E-14
 -1       340 1.86951E+01 3.15090E-02 4.01180E-04 2.41846E-01-1.40818E-13-5.50847E-14
 -1       341 1.87825E+01 3.68323E-02 4.33787E-04 2.84577E-01-1.71128E-13-1.42434E-13
 -1       342 1.88950E+01 4.51729E-02 4.96206E-04 3.33093E-01-1.78168E-13-1.28941E-13
 -1       343 1.90332E+01 5.38573E-02 5.51382E-04 3.89586E-01-1.06200E-13-1.50262E-13
 -1       344 1.91984E+01 5.95769E-02 5.55863E-04 4.52990E-01-1.87176E-14-1.75679E-13
 -1       345 1.93920E+01 5.79359E-02 4.56292E-04 5.18204E-01 6.84083E-15-2.90753E-13
 -1       346 1.96138E+01 4.31499E-02 1.90968E-04 5.74942E-01-2.88128E-14-3.12590E-13
 -1       347 1.98607E+01 8.20902E-03-2.99412E-04 6.06505E-01-7.08843E-14-2.55392E-13
 -1       348 2.01251E+01-5.38635E-02-1.04720E-03 5.89178E-01-8.58331E-14-2.25270E-13
 -1       349 2.03927E+01-1.46644E-01-2.00576E-03 4.93670E-01-1.67814E-13-1.87262E-13
 -1       350 2.06398E+01-2.63812E-01-2.99181E-03 2.91035E-01-2.47967E-13-1.70282E-13
 -1       351 2.08303E+01-3.79701E-01-3.57461E-03-3.37264E-02-1.82884E-13-2.42633E-13
 -1       352 2.09169E+01-4.41844E-01-3.36584E-03-4.58515E-01-1.30014E-13-4.19639E-13
 -1       353 2.08508E+01-3.76482E-01-1.81934E-03-8.97041E-01-3.56991E-13-3.41199E-13
 -1       354 2.06110E+01-1.23526E-01 8.78563E-04-1.18638E+00-4.11943E-13-2.91778E-13
 -1       355 2.02530E+01 2.98167E-01 4.72326E-03-1.12563E+00-5.96687E-13-4.89423E-13
 -1       356 1.99400E+01 7.40703E-01 8.49346E-03-5.90921E-01-7.54686E-13-7.09642E-13
 -1       357 1.98915E+01 9.88014E-01 6.59703E-03 3.45678E-01-9.28506E-13-1.00205E-12
 -1       358 2.02775E+01 8.83897E-01-1.20541E-02 1.38964E+00-8.79371E-13-1.50717E-12
 -1       359 2.10847E+01 5.32745E-01-4.90324E-02 2.18820E+00-5.89331E-13-2.24292E-12
 -1       360 2.21235E+01 2.92688E-01-7.36868E-02 2.58821E+00 9.83970E-14-2.53398E-12
 -1       361 2.29559E+01 6.20727E-01-9.29149E-02 2.64965E+00 1.58530E-12-2.42647E-12
 -1       362 2.23558E+01 1.81490E+00-1.99889E-01 3.69384E+00 4.10160E-12-9.53643E-13
 -1       363 2.37656E+01-1.52725E+00-7.95198E-01 6.32140E+00 4.88143E-12 4.44311E-12
 -1       364 3.13637E+01-7.84601E+00-4.42717E-01 2.58205E+00-9.59661E-12 3.60953E-12
 -1       365 3.55686E+01 4.82221E-01 6.45528E-01-3.00637E+00-2.63741E-11-2.36581E-11
 -1       366 3.44578E+01 5.90438E+00 4.79882E+00 2.00801E+00-6.65984E-12-4.91105E-11
 -1       367 2.13908E+01-7.89065E-03-4.95228E-04-5.77441E-01 2.29598E-13-1.34403E-13
 -1       368 2.11410E+01 3.70447E-02 9.98165E-05-5.57296E-01 4.46688E-13 3.22497E-14
 -1       369 2.09147E+01 6.01727E-02 4.58748E-04-5.02649E-01 2.21067E-13-2.10381E-13
 -1       370 2.07170E+01 6.83317E-02 6.33874E-04-4.32069E-01-3.52220E-14 1.19938E-13
 -1       371 2.05493E+01 6.72538E-02 6.83227E-04-3.57898E-01-1.36778E-13 1.46454E-13
 -1       372 2.04108E+01 6.11789E-02 6.56476E-04-2.87508E-01-1.35735E-13 1.18526E-13
 -1       373 2.02989E+01 5.30065E-02 5.90991E-04-2.24666E-01 3.10791E-13 2.48492E-13
 -1       374 2.02106E+01 4.46065E-02 5.11928E-04-1.70706E-01 5.48895E-13 2.76840E-13
 -1       375 2.01424E+01 3.71124E-02 4.32554E-04-1.25418E-01 5.48883E-13 1.75896E-13
 -1       376 2.00910E+01 3.11237E-02 3.62481E-04-8.77565E-02 8.56442E-14 1.05433E-13
 -1       377 2.00532E+01 2.66984E-02 3.49056E-04-5.62945E-02-4.56641E-14 2.40929E-13
 -1       378 2.00281E+01 2.16778E-02 1.96255E-04-3.17197E-02 3.36148E-14 4.93458E-13
 -1       379 1.93561E+01 2.17023E-01 1.03583E-02 2.79913E-01 2.59816E-13 2.89291E-13
 -1       380 1.91461E+01 1.12517E-01 5.96256E-03 1.09091E-02 1.86317E-13 2.05516E-13
 -1       381 1.90893E+01 6.11770E-02 2.81399E-03-1.38839E-01 1.34163E-13 1.07152E-13
 -1       382 1.91315E+01 3.49565E-02 1.35203E-03-2.25512E-01 9.62568E-14 5.09142E-14
 -1       383 1.92384E+01 2.23677E-02 7.67174E-04-2.79122E-01 7.76369E-14 1.80931E-14
 -1       384 1.93897E+01 1.82629E-02 5.64133E-04-3.17301E-01 9.75191E-14 1.43121E-14
 -1       385 1.95753E+01 2.01038E-02 5.45210E-04-3.51578E-01 8.90420E-14-2.32755E-14
 -1       386 1.97915E+01 2.64866E-02 6.34549E-04-3.90228E-01 2.67917E-14-9.36610E-15
 -1       387 2.00396E+01 3.65095E-02 7.96606E-04-4.39553E-01 7.56864E-14-2.00619E-14
 -1       388 2.03242E+01 4.93766E-02 1.00028E-03-5.04391E-01 1.04743E-13-2.48794E-14
 -1       389 2.06522E+01 6.39954E-02 1.20250E-03-5.88022E-01 9.43791E-14-5.87494E-14
 -1       390 2.10317E+01 7.83985E-02 1.33348E-03-6.91396E-01 3.29375E-15-1.00715E-13
 -1       391 2.14701E+01 8.88368E-02 1.28118E-03-8.11383E-01 3.44729E-14-1.85452E-13
 -1       392 2.19720E+01 8.84198E-02 8.82522E-04-9.37602E-01 1.16274E-13-1.75833E-13
 -1       393 2.25364E+01 6.53808E-02-5.65879E-05-1.04741E+00 1.64978E-13-3.49276E-13
 -1       394 2.31520E+01 1.82154E-03-1.67373E-03-1.09914E+00 1.76040E-14-2.67535E-13
 -1       395 2.37925E+01-1.24116E-01-3.88056E-03-1.02590E+00-2.04756E-13-1.01471E-13
 -1       396 2.44081E+01-3.25957E-01-6.21112E-03-7.37690E-01-7.67331E-14-7.26485E-14
 -1       397 2.49160E+01-5.78038E-01-7.24776E-03-1.48790E-01-4.76017E-14 1.79289E-14
 -1       398 2.51907E+01-7.68562E-01-6.93259E-03 7.45380E-01 1.04469E-14 1.43968E-13
 -1       399 2.50834E+01-6.76203E-01-5.78198E-03 1.73992E+00-3.66274E-14 1.43966E-13
 -1       400 2.45133E+01-8.67034E-02-9.71653E-03 2.31946E+00-3.78054E-13 7.82022E-14
 -1       401 2.37117E+01 8.42005E-01-1.91054E-02 1.85621E+00-1.47465E-13 2.43243E-14
 -1       402 2.32646E+01 1.48042E+00-1.65760E-02 2.70994E-01 3.39392E-13-2.24078E-13
 -1       403 2.36143E+01 1.23625E+00-1.42532E-02-1.59490E+00 4.69168E-13-4.81346E-13
 -1       404 2.45546E+01 3.41872E-01-1.27708E-02-2.60403E+00 1.94821E-13-6.83392E-13
 -1       405 2.53876E+01-3.62951E-01-6.23531E-03-2.42383E+00 1.45552E-14-5.11940E-13
 -1       406 2.56120E+01-4.80497E-01 2.20180E-02-1.42009E+00-4.49293E-15-2.03335E-13
 -1       407 2.53561E+01-4.29788E-01 8.01677E-02-2.51149E-01-2.50646E-13-2.00222E-13
 -1       408 2.45406E+01-4.02261E-01 2.23190E-02 5.25214E-01-1.74781E-13-5.76942E-13
 -1       409 2.39049E+01-1.91387E-01-5.65316E-03 9.28179E-01-2.35544E-13-2.96150E-13
 -1       410 2.32932E+01-2.87600E-02-2.76679E-03 1.06003E+00-7.36320E-14 4.21831E-14
 -1       411 2.27038E+01 6.00310E-02-4.74005E-04 1.02872E+00 2.83133E-13 4.95543E-14
 -1       412 2.21693E+01 9.75018E-02 9.30400E-04 9.14669E-01 4.38031E-14 1.05948E-13
 -1       413 2.17050E+01 1.05076E-01 1.58635E-03 7.70474E-01-2.95798E-13 7.98815E-14
 -1       414 2.13143E+01 9.76869E-02 1.75397E-03 6.25809E-01-2.94025E-13 1.65358E-13
 -1       415 2.09941E+01 8.42410E-02 1.65692E-03 4.95049E-01-1.51143E-13 1.08114E-13
 -1       416 2.07371E+01 6.94955E-02 1.44417E-03 3.83567E-01-2.31659E-14 3.27590E-13
 -1       417 2.05347E+01 5.57342E-02 1.20131E-03 2.91923E-01 1.50828E-13 4.09154E-13
 -1       418 2.03780E+01 4.38992E-02 9.71895E-04 2.18363E-01-5.62956E-14 4.74419E-13
 -1       419 2.02588E+01 3.42752E-02 7.73518E-04 1.60186E-01 2.59345E-13 3.98197E-13
 -1       420 2.01699E+01 2.68592E-02 6.09268E-04 1.14425E-01 4.71850E-13 3.48837E-13
 -1       421 2.01052E+01 2.14832E-02 4.73891E-04 7.81905E-02 2.64068E-13 1.67627E-13
 -1       422 2.00595E+01 1.77741E-02 3.42654E-04 4.90250E-02 1.88882E-13 5.08411E-13
 -1       423 2.00288E+01 1.48834E-02 2.41238E-04 2.53116E-02 2.00389E-13 6.65454E-13
 -1       424 2.00154E+01 1.32145E-02 1.33430E-04 1.40294E-02 5.63318E-14 4.24650E-13
 -1       425 2.00078E+01 8.64157E-02 8.19622E-05 6.13949E-02 3.92280E-15 2.93987E-13
 -1       426 2.00172E+01 5.45903E-02 1.66796E-04 4.93701E-02 1.03771E-14 1.11819E-13
 -1       427 2.00189E+01 3.12603E-02 1.97290E-04 3.17188E-02 9.30442E-14 5.49087E-13
 -1       428 1.99973E+01 1.18186E-01-1.81508E-05 6.30318E-02 5.40477E-14-1.51349E-13
 -1       429 1.99875E+01 1.46881E-01-1.05953E-04 5.39758E-02 1.19801E-13 3.15114E-13
 -1       430 1.99803E+01 1.68093E-01-1.71573E-04 3.59288E-02 1.11807E-13 1.45006E-13
 -1       431 1.99766E+01 1.79015E-01-2.07078E-04 1.21193E-02-1.80401E-14-1.58107E-13
 -1       432 1.99769E+01 1.78240E-01-2.06166E-04-1.34800E-02-2.05989E-13-3.38150E-13
 -1       433 1.99809E+01 1.65972E-01-1.68722E-04-3.67440E-02-2.50390E-13 3.13084E-14
 -1       434 1.99880E+01 1.44417E-01-1.01957E-04-5.37297E-02-1.23465E-13-5.08559E-13
 -1       435 1.99974E+01 1.15723E-01-2.39443E-05-6.22326E-02 1.22782E-13 1.33248E-13
 -1       436 2.00076E+01 8.39680E-02 6.13541E-05-6.03813E-02 9.39157E-14-3.43584E-13
 -1       437 2.00167E+01 5.26280E-02 1.48568E-04-4.85906E-02-1.13434E-13-2.50248E-13
 -1       438 9.84358E+00-5.42619E+00-5.51996E-02 6.50837E+00-1.45689E-13 1.63793E-13
 -1       439 1.28027E+00-4.36710E+00-2.70876E-01-5.22876E-01 3.38087E-12 2.83912E-13
 -1       440 4.00404E+00-4.76139E+00-4.48542E-02 4.34541E+00-1.91971E-13 1.07220E-13
 -1       441 2.06373E+01-5.94641E+00-1.79363E-02 6.13526E+00-1.05541E-12-6.01130E-13
 -1       442 2.91822E+01-3.36676E+00 1.68959E-02 3.35762E+00-1.04322E-12-9.93747E-13
 -1       443 1.89668E+01 3.34294E+00-1.99566E-02-1.82309E+00-2.99269E-13-4.00360E-13
 -1       444 3.70575E+01 5.29249E+00 7.10108E-02-6.00628E-01-2.24820E-14-1.50593E-12
 -1       445 3.41565E+01 7.85367E+00-1.49987E-01-7.57801E-01 9.44536E-13-1.64603E-12
 -1       446 3.72559E+01 6.70615E+00 6.53539E-02 7.98767E-02 1.34659E-12-1.60676E-12
 -1       447 3.51331E+01 2.95862E+00 3.30266E-02-9.98334E-01 1.50530E-12-1.42336E-12
 -1       448 2.93851E+01-2.54695E+00-1.70485E-02-3.86478E+00 1.43837E-12-1.47972E-12
 -1       449 2.20593E+01-4.77035E+00-1.92871E-02-6.49900E+00 1.48065E-12-1.35310E-12
 -1       450 1.19317E+01-5.18339E+00 3.59531E-03-7.32004E+00 1.22539E-12-1.34795E-12
 -1       451 3.45605E+00-4.93000E+00-1.11246E-01-4.49666E+00 1.71085E-12-1.15398E-12
 -1       452 8.26668E-01-4.65553E+00-1.00253E-01-3.37400E-01 1.84115E-12-3.56215E-13
 -1       453 2.84970E+00-4.69341E+00-2.96692E-02 3.36484E+00 1.77900E-12-5.22637E-14
 -1       454 1.03575E+01-5.63223E+00-2.72112E-03 6.17904E+00 1.69890E-12 4.32376E-13
 -1       455 1.72033E+01-5.40002E+00-2.01851E-02 5.73145E+00 1.51239E-12 1.22261E-12
 -1       456 2.43789E+01-3.06871E+00 1.29988E-02 3.54898E+00 1.09496E-12 1.72885E-12
 -1       457 2.86199E+01 4.21815E-01-4.26038E-02-1.17310E-02 5.19581E-13 1.70183E-12
 -1       458 3.16584E+01 5.18261E+00-1.93053E-02-8.31720E-01-1.08857E-13 2.49867E-12
 -1       459 3.05930E+01 8.13534E+00-1.80212E-01-1.49671E+00-8.42215E-13 3.15993E-12
 -1       460 2.99856E+01 7.92337E+00-5.32201E-01-1.41820E+00-3.93505E-13 4.18455E-12
 -1       461 2.86568E+01 4.86539E+00-1.20079E+00-3.07647E+00 2.97560E-12 5.08057E-12
 -1       462 2.41819E+01 1.51321E+00-2.14816E+00-5.00170E+00 8.94715E-12 6.36263E-12
 -1       463 1.77414E+01-4.09126E+00-3.42848E+00-1.00464E+01 2.07770E-11 1.02923E-11
 -1       464 1.33006E+01-1.28137E+01-3.57760E+00-1.75050E+01 4.02085E-11 5.75817E-12
 -1       465 2.96162E+00-9.62754E+00-2.38410E+00-1.27421E+01 3.78353E-11 2.89824E-13
 -1       466 3.38624E+01 6.64830E-01-1.47584E-03 2.71359E-01-5.06525E-13-1.12846E-12
 -1       467 1.69224E+01-5.42934E+00 9.39095E-02 6.70032E+00-2.55906E-13 2.88675E-13
 -1       468 2.64619E+01 5.71139E+00-1.01073E+00-2.37086E-01 2.93578E-13 5.39725E-12
 -1       469 8.07725E+00-3.84142E+00 1.22194E-01 5.48068E+00 1.32560E-12 3.26406E-14
 -1       470 3.16273E+01-1.23473E+00-8.23715E-02-1.17442E-01 1.20438E-12-6.33160E-13
 -1       471 1.98039E+01 7.93229E-01 3.76346E-03 7.82081E-01 3.16624E-13 2.23375E-14
 -1       472 1.89658E+01 3.03696E+00-5.02982E-03-7.99714E-01-8.69300E-14-4.41532E-13
 -1       473 1.90291E+01 2.86849E+00-5.42265E-03-1.09273E+00-1.78613E-13-4.40007E-13
 -1       474 1.89700E+01 3.15052E+00-4.80117E-03-2.01020E-01 4.48677E-14-4.54029E-13
 -1       475 1.90251E+01 3.11168E+00-4.92241E-03 1.02362E-01 1.09766E-13-4.51069E-13
 -1       476 1.91122E+01 3.00861E+00-5.27230E-03 4.03886E-01 1.84452E-13-4.38089E-13
 -1       477 1.92384E+01 2.82530E+00-5.85483E-03 7.10585E-01 2.66913E-13-3.74776E-13
 -1       478 1.94111E+01 2.53793E+00-6.42859E-03 1.00410E+00 3.24541E-13-3.08138E-13
 -1       479 1.96530E+01 2.09739E+00-5.61647E-03 1.25580E+00 3.60706E-13-2.19687E-13
 -1       480 1.96008E+01 4.38481E-01 4.84243E-03 2.90711E-01 2.69300E-13-9.81355E-15
 -1       481 1.94538E+01 9.68674E-01 2.93688E-03-1.03127E+00-2.82457E-13-1.35623E-13
 -1       482 3.19674E+01 2.27795E+00-1.34973E-01-2.51610E+00-1.94095E-13-1.49688E-12
 -1       483 1.92632E+01 5.53760E-01 1.84981E-03-5.56423E-01-2.48993E-13-1.34626E-13
 -1       484 1.90969E+01 3.28014E-01 1.07310E-03-2.44842E-01-1.55433E-13-1.37124E-13
 -1       485 1.89789E+01 1.99002E-01 5.28622E-04-4.37342E-02-1.36822E-13-1.46401E-13
 -1       486 1.89065E+01 1.26911E-01 2.80918E-04 8.82286E-02-9.74160E-14-1.56486E-13
 -1       487 1.88715E+01 9.03434E-02 1.82860E-04 1.79551E-01-1.08671E-13-1.53505E-13
 -1       488 1.88661E+01 7.71170E-02 1.55683E-04 2.49931E-01-9.05613E-14-2.11811E-13
 -1       489 1.88849E+01 7.94401E-02 1.65018E-04 3.13028E-01-1.64102E-13-1.64722E-13
 -1       490 1.89248E+01 9.14307E-02 1.93667E-04 3.78022E-01-1.70324E-13-1.25930E-13
 -1       491 1.89848E+01 1.07664E-01 2.27361E-04 4.50347E-01-1.15375E-13-7.93046E-14
 -1       492 1.90655E+01 1.22107E-01 2.49702E-04 5.31761E-01-7.74574E-14-9.60552E-14
 -1       493 1.91692E+01 1.27195E-01 2.39773E-04 6.19890E-01-1.04551E-13-1.65025E-13
 -1       494 1.92996E+01 1.13082E-01 1.70952E-04 7.07279E-01-4.52444E-14-2.01582E-13
 -1       495 1.94621E+01 6.73568E-02 1.16920E-05 7.80084E-01-4.60648E-14-1.80947E-13
 -1       496 1.96635E+01-2.39754E-02-2.69320E-04 8.16670E-01-5.09791E-14-1.46119E-13
 -1       497 1.99109E+01-1.72862E-01-6.96145E-04 7.86861E-01-1.12296E-13-2.05798E-13
 -1       498 2.02084E+01-3.80791E-01-1.22993E-03 6.53402E-01-2.10889E-13-1.33486E-13
 -1       499 2.05483E+01-6.23822E-01-1.74785E-03 3.78856E-01-1.78498E-13-9.38146E-14
 -1       500 2.08974E+01-8.32312E-01-1.73013E-03-5.65497E-02-1.74735E-13-5.36734E-14
 -1       501 2.11831E+01-8.80019E-01-1.52103E-03-6.19852E-01-2.01921E-13 4.52069E-15
 -1       502 2.13006E+01-6.08524E-01-3.93134E-04-1.18016E+00-3.13672E-13 1.19594E-13
 -1       503 2.11572E+01 7.73740E-02 9.06552E-05-1.48441E+00-6.25084E-13 1.04544E-13
 -1       504 2.08084E+01 1.03223E+00 3.27931E-03-1.21609E+00-8.64901E-13-3.70385E-15
 -1       505 2.04638E+01 1.86977E+00 3.77045E-03-2.71504E-01-1.14403E-12-1.81757E-13
 -1       506 2.04432E+01 2.08180E+00-2.46829E-02 1.14923E+00-1.38446E-12-6.19800E-13
 -1       507 2.08808E+01 1.53989E+00-1.17429E-01 2.48573E+00-1.48839E-12-1.41122E-12
 -1       508 2.16484E+01 6.83192E-01-2.59798E-01 3.27354E+00-8.24577E-13-2.34735E-12
 -1       509 2.25700E+01 2.89249E-01-2.51333E-01 3.62536E+00 2.38518E-13-3.49918E-12
 -1       510 2.50117E+01 1.07693E-01 6.32505E-02 2.09337E+00 3.23059E-12-5.41311E-12
 -1       511 1.47471E+01 9.02948E+00-3.01477E-01 2.12307E+00 8.20949E-12-1.74190E-12
 -1       512 1.58924E+01-9.29229E+00-2.36986E+00 1.26063E+01 1.75537E-12 2.47794E-11
 -1       513 3.81311E+01-1.90147E+01 1.43939E+00 9.65368E+00-5.35305E-11 4.55358E-12
 -1       514 4.11633E+01 2.22382E+01 3.39462E+00 1.14960E+01-6.55752E-11-7.84653E-11
 -1       515 4.51977E+01 1.25341E+01 9.85898E+00 6.00543E+00-2.72294E-11-4.68756E-11
 -1       516 2.08921E+01 4.61143E-02-5.08478E-05-7.69560E-01 3.21353E-13-8.69950E-14
 -1       517 2.07065E+01 1.09709E-01 1.54088E-04-7.03337E-01 2.33791E-13-2.54933E-13
 -1       518 2.05544E+01 1.38058E-01 2.61187E-04-6.13320E-01 2.83367E-13-1.17281E-13
 -1       519 2.04302E+01 1.43311E-01 3.00689E-04-5.15860E-01 9.40437E-14 1.78310E-13
 -1       520 2.03293E+01 1.34974E-01 2.97925E-04-4.21209E-01-1.37481E-13 4.18379E-13
 -1       521 2.02478E+01 1.19842E-01 2.72151E-04-3.35086E-01-1.95374E-15 4.00891E-13
 -1       522 2.01826E+01 1.02469E-01 2.37616E-04-2.60037E-01 3.74362E-13 3.68145E-13
 -1       523 2.01311E+01 8.57252E-02 2.04009E-04-1.96520E-01 4.00733E-13 2.61242E-13
 -1       524 2.00905E+01 7.11939E-02 1.72207E-04-1.43755E-01 2.50440E-13 5.97885E-14
 -1       525 2.00589E+01 5.95449E-02 1.63109E-04-1.00307E-01 7.28915E-14 2.13950E-14
 -1       526 1.00685E+01-3.15472E+00 1.46963E-01 5.83690E+00-1.09378E-13 8.64447E-14
 -1       527 1.94274E+01 1.46386E-01 1.07854E-03-1.99593E-01 1.69626E-13-4.61261E-14
 -1       528 1.94415E+01 9.14965E-02 5.17877E-04-3.19249E-01 1.15733E-13-9.31424E-14
 -1       529 1.95030E+01 6.56109E-02 3.18782E-04-4.00984E-01 8.07720E-14-1.18027E-13
 -1       530 1.96006E+01 5.90660E-02 2.76046E-04-4.65079E-01 6.58055E-14-8.22296E-14
 -1       531 1.97272E+01 6.65396E-02 3.13446E-04-5.25923E-01 1.01258E-13-3.23402E-14
 -1       532 1.98794E+01 8.47723E-02 4.03285E-04-5.94180E-01 8.55298E-14-1.04821E-13
 -1       533 2.00564E+01 1.11315E-01 5.29169E-04-6.77901E-01 1.32354E-13-1.01115E-13
 -1       534 2.02594E+01 1.43595E-01 6.72248E-04-7.82885E-01 6.31090E-14-9.57710E-14
 -1       535 2.04911E+01 1.77807E-01 8.02796E-04-9.12340E-01 4.24756E-14-9.89911E-14
 -1       536 2.07553E+01 2.07318E-01 8.70714E-04-1.06569E+00 3.47243E-14-9.81273E-14
 -1       537 2.10574E+01 2.20333E-01 7.94269E-04-1.23625E+00 6.63569E-14-9.34184E-14
 -1       538 2.14056E+01 1.96733E-01 4.52914E-04-1.40735E+00 1.39659E-13-9.99425E-14
 -1       539 2.18141E+01 1.04814E-01-2.97358E-04-1.54671E+00 9.02890E-14 2.34300E-14
 -1       540 2.23076E+01-9.90588E-02-1.54303E-03-1.59905E+00-1.62486E-13 7.00363E-14
 -1       541 2.29234E+01-4.59330E-01-3.23087E-03-1.47824E+00-1.60936E-13 2.88963E-14
 -1       542 2.36994E+01-9.80391E-01-5.47205E-03-1.06897E+00-9.12232E-14 8.39882E-14
 -1       543 2.46341E+01-1.54288E+00-5.70461E-03-2.58435E-01-1.44323E-13 7.44695E-14
 -1       544 2.55850E+01-1.78975E+00-9.32366E-03 9.58074E-01 1.67721E-14 2.23248E-13
 -1       545 2.62420E+01-1.16007E+00-2.13234E-02 2.25813E+00-1.04392E-13 3.11137E-13
 -1       546 2.61871E+01 7.18799E-01-4.42627E-02 2.72961E+00-1.19099E-13-3.10831E-14
 -1       547 2.56948E+01 2.87820E+00-7.56937E-02 1.53100E+00 3.87485E-13-4.03564E-13
 -1       548 2.57528E+01 3.22781E+00-6.20959E-02-9.88994E-01 5.98092E-13-6.74290E-13
 -1       549 2.61081E+01 1.70679E+00-7.55556E-02-2.94844E+00 4.85032E-13-8.20663E-13
 -1       550 2.65633E+01-4.97982E-01-3.81010E-02-3.01488E+00-2.22292E-13-7.47645E-13
 -1       551 2.61985E+01-1.59723E+00-1.52661E-02-1.78257E+00-2.87765E-13-3.72311E-13
 -1       552 2.52843E+01-1.56146E+00 3.01741E-02-2.60402E-01-1.46372E-13-1.99143E-13
 -1       553 2.41074E+01-1.15326E+00 7.72763E-02 8.04969E-01-1.00687E-13-4.19664E-14
 -1       554 2.30622E+01-6.29511E-01-3.79613E-03 1.32592E+00-2.47057E-13-2.35033E-14
 -1       555 2.24328E+01-1.88675E-01-2.07753E-03 1.52311E+00-2.21734E-13-8.36678E-14
 -1       556 2.19467E+01 7.76666E-02-5.34105E-04 1.50035E+00 1.13408E-13-7.27366E-14
 -1       557 2.15628E+01 2.08612E-01 5.08670E-04 1.35935E+00 5.37310E-14 1.95137E-13
 -1       558 2.12509E+01 2.53294E-01 1.02984E-03 1.16863E+00-1.44326E-14 2.18176E-13
 -1       559 2.09927E+01 2.50265E-01 1.18742E-03 9.69038E-01-2.83158E-13-2.69800E-14
 -1       560 2.07782E+01 2.24588E-01 1.14195E-03 7.82344E-01-1.60009E-13-1.38709E-13
 -1       561 2.06009E+01 1.90796E-01 1.00398E-03 6.18387E-01-2.81504E-13-4.52711E-13
 -1       562 2.04560E+01 1.56573E-01 8.38194E-04 4.80056E-01-1.01354E-14-9.49301E-14
 -1       563 2.03392E+01 1.25578E-01 6.77814E-04 3.66490E-01 4.29266E-14-1.40380E-13
 -1       564 2.02466E+01 9.92719E-02 5.37571E-04 2.75013E-01 1.71675E-13-3.01398E-13
 -1       565 2.01742E+01 7.80498E-02 4.19509E-04 2.02229E-01 3.71689E-13 6.50060E-14
 -1       566 2.01185E+01 6.17223E-02 3.41997E-04 1.44619E-01 1.69277E-13 4.36994E-13
 -1       567 2.00763E+01 4.98297E-02 3.27906E-04 9.90194E-02 2.00854E-13 3.15567E-13
 -1       568 2.00442E+01 4.07748E-02 2.63820E-04 6.24563E-02 1.28264E-13 3.51191E-13
 -1       569 1.99818E+01 1.55230E-01-6.03484E-05 8.59562E-02 2.30293E-13 1.65203E-13
 -1       570 1.99639E+01 1.82217E-01-6.74854E-05 6.49049E-02 1.50450E-13 3.50580E-13
 -1       571 2.00245E+01 8.45496E-02 1.25536E-05 8.70475E-02 9.90671E-14 1.09716E-13
 -1       572 2.00033E+01 1.21475E-01-1.88740E-05 9.37907E-02 3.19218E-14 8.98759E-14
 -1       573 1.99525E+01 1.98994E-01-8.76681E-05 3.40775E-02 2.12755E-13-1.93595E-13
 -1       574 1.99490E+01 2.03781E-01-9.59761E-05-1.67463E-03 1.26140E-13-2.26219E-13
 -1       575 1.99536E+01 1.96227E-01-8.63137E-05-3.68883E-02 2.69371E-14-1.65832E-13
 -1       576 1.99654E+01 1.77806E-01-6.07958E-05-6.59016E-02-1.20327E-13-3.83124E-13
 -1       577 1.99829E+01 1.50039E-01-4.08317E-05-8.54177E-02-5.66706E-14-7.93735E-14
 -1       578 2.00033E+01 1.16403E-01-2.79069E-05-9.20589E-02-6.67696E-14-1.04776E-13
 -1       579 2.00235E+01 8.07523E-02 7.04721E-05-8.49068E-02-1.90888E-13-5.51372E-13
 -1       580 2.64042E+01-5.52116E+00 2.49762E-02 3.23571E+00-1.10304E-12-9.52516E-13
 -1       581 1.94759E+01 2.48794E-01 2.40243E-03-1.18292E-02 2.08187E-13-1.61357E-14
 -1       582 5.42842E+00-1.45816E+00 1.77312E-01 2.44632E+00-1.90067E-13 1.70780E-13
 -1       583 1.33828E+01-1.11240E+01-3.42846E+00-1.48875E+01 4.90366E-11-4.02234E-13
 -1       584 7.87199E+00-2.57018E+00 4.53455E-01-5.56345E+00 2.46430E-11-8.23784E-12
 -1       585 4.87963E+00-1.70256E+00 1.60665E-01-2.85417E+00 9.10744E-13-7.17454E-13
 -1       586 1.89489E+01 3.12678E+00-4.83016E-03-5.01576E-01-2.60037E-14-4.47741E-13
 -1       587 3.08640E+01 6.40915E+00-1.79538E-01 1.00712E+00 1.00683E-12-1.25385E-12
 -1       588 9.67011E+00-2.94120E+00 1.47866E-01-6.06474E+00 6.42056E-13-9.14928E-13
 -1       589 3.00596E+01 5.63196E+00-1.75477E-01-2.15282E+00 4.90247E-13-1.76318E-12
 -1       590 3.20007E+01 3.52803E+00-1.43701E-01 1.96662E+00 1.03390E-12-9.97202E-13
 -1       591 2.67163E+01-4.98951E+00-1.36615E-02-3.65274E+00 5.66824E-13-5.58546E-13
 -1       592 1.63750E+01-5.29337E+00 7.24529E-02 5.86275E+00 1.21337E-12 7.16000E-13
 -1       593 1.91616E+01-5.28008E+00 5.32289E-02-6.60134E+00 5.25323E-13-8.03883E-13
 -1       594 4.11229E+00-1.89626E+00 1.61096E-01 1.53659E+00 1.05583E-12-1.87420E-13
 -1       595 2.23244E+01-5.12898E+00 2.46798E-02 3.69586E+00 8.74321E-13 1.23862E-12
 -1       596 2.59189E+01-2.81001E+00-4.09363E-02 5.34832E-01 7.11549E-13 1.10191E-12
 -1       597 2.72447E+01 2.76861E+00-1.29590E-01-2.06892E+00-2.60708E-13 1.98686E-12
 -1       598 2.63985E+01 6.36549E+00-1.95826E-01-2.05737E+00-9.67601E-13 2.40134E-12
 -1       599 2.54920E+01 7.86234E+00-4.05471E-01-4.34178E-01-1.47259E-12 3.11740E-12
 -1       600 2.47762E+01-3.57503E-01-2.38201E+00-1.04077E+00 5.06329E-12 8.92209E-12
 -1       601 2.02260E+01-3.63194E+00-4.20036E+00-1.62455E+00 7.41619E-12 1.50058E-11
 -1       602 5.41864E+00-9.61248E+00-8.71652E+00-2.03727E+01 4.64665E-11 3.64830E-11
 -1       603 1.95227E+01 1.73788E+00-5.22147E-03-1.62721E+00-3.67891E-13-1.70814E-13
 -1       604 1.99706E+01 1.24154E+00-1.09987E-03 1.34146E+00 3.92097E-13 8.44680E-14
 -1       605 3.06943E+01-2.68775E+00-6.97621E-02-1.80180E-01-7.69420E-13-1.06450E-12
 -1       606 1.91505E+01 2.60631E+00-6.10582E-03-1.37260E+00-2.55195E-13-3.82605E-13
 -1       607 2.30166E+01-5.52107E+00 1.22621E-01 4.70127E+00-9.22026E-13-8.18845E-13
 -1       608 2.00414E+01 5.24395E-02 1.64268E-04-7.47010E-02-1.25013E-13-4.80376E-15
 -1       609 2.59098E+01-3.66182E-01-7.11532E-02-1.60326E+00 8.96470E-14 1.45920E-12
 -1       610 1.55386E+01-3.60557E+00 1.10653E-01-6.40584E+00 2.03719E-13-6.81562E-13
 -1       611 1.33398E+01-3.90124E+00 1.22034E-01 5.82999E+00 1.05067E-12 3.21913E-13
 -1       612 2.89180E+01-3.59700E+00-5.18957E-02-6.65825E-01 3.53561E-13-2.45991E-13
 -1       613 7.46046E+00-1.76808E+00 1.63625E-01 3.81061E+00 8.80303E-13-5.27564E-14
 -1       614 2.36608E+01 6.66889E+00-6.49082E-01 7.64447E-01-1.64304E-12 3.59705E-12
 -1       615 2.90715E+01 6.01506E+00-1.35907E-01-8.45371E-01 7.09065E-13-1.47398E-12
 -1       616 1.93064E+01 2.40521E+00-1.53788E-03 1.52338E-01 1.37054E-13-3.88341E-13
 -1       617 1.92349E+01 2.48750E+00-1.46418E-03-8.91125E-02 5.34383E-14-4.02626E-13
 -1       618 1.95338E+01 1.98891E+00-1.55871E-03 5.94956E-01 2.47689E-13-2.79775E-13
 -1       619 1.96716E+01 1.61915E+00-2.21786E-03 7.47106E-01 3.05381E-13-2.44821E-13
 -1       620 1.97711E+01 1.00038E+00 2.75470E-03 6.10781E-01 2.92233E-13-1.67740E-13
 -1       621 1.02948E+01-8.67226E-01 1.45584E-01 3.89529E+00-1.87289E-13 2.04933E-13
 -1       622 1.96993E+01 6.07449E-01 1.03431E-03 2.03691E-01 2.30831E-13-1.69173E-13
 -1       623 1.93382E+01 6.95754E-01-2.95652E-04-4.93874E-01-2.03954E-13-1.77778E-13
 -1       624 1.92468E+01 4.39971E-01 2.35308E-04-2.25108E-01-1.40079E-13-1.85456E-13
 -1       625 1.91623E+01 2.83228E-01 8.13504E-05-3.71176E-02-1.37654E-13-1.99781E-13
 -1       626 1.90943E+01 1.94001E-01 4.96666E-05 9.55869E-02-1.00797E-13-2.05438E-13
 -1       627 1.90435E+01 1.50476E-01 4.08213E-05 1.94710E-01-1.09239E-13-1.79225E-13
 -1       628 1.90083E+01 1.38376E-01 4.37383E-05 2.77119E-01-9.66165E-14-1.59365E-13
 -1       629 1.89870E+01 1.47330E-01 5.33736E-05 3.55279E-01-1.28212E-13-7.83598E-14
 -1       630 1.89786E+01 1.68599E-01 6.66273E-05 4.37825E-01-1.28175E-13-3.86008E-14
 -1       631 1.89834E+01 1.93426E-01 7.99264E-05 5.29857E-01-1.37976E-13-3.91013E-14
 -1       632 1.90037E+01 2.11647E-01 8.81016E-05 6.32859E-01-1.03097E-13-3.34891E-14
 -1       633 1.90447E+01 2.10426E-01 8.38579E-05 7.44206E-01-7.23300E-14-3.83702E-14
 -1       634 1.91153E+01 1.73297E-01 5.66482E-05 8.56209E-01-3.45307E-14-2.28230E-14
 -1       635 1.92301E+01 8.00872E-02-9.50671E-06 9.54615E-01-6.15351E-14 5.17387E-14
 -1       636 1.94098E+01-9.09674E-02-1.38164E-04 1.01650E+00-1.09335E-13 2.28418E-14
 -1       637 1.96808E+01-3.56575E-01-3.86054E-04 1.00774E+00-1.41843E-13 3.95422E-14
 -1       638 2.00687E+01-7.13382E-01-7.00964E-04 8.81056E-01-1.01128E-13 9.22481E-14
 -1       639 2.05814E+01-1.11101E+00-1.07045E-03 5.79150E-01-1.11641E-13 2.44170E-13
 -1       640 2.11784E+01-1.41320E+00-3.26713E-05 5.49892E-02-1.14462E-13 2.17016E-13
 -1       641 2.17238E+01-1.37584E+00-1.46699E-03-6.72792E-01-1.55557E-13 2.77165E-13
 -1       642 2.20254E+01-7.33020E-01-4.20889E-03-1.41577E+00-3.67341E-13 4.50048E-13
 -1       643 2.18930E+01 6.79314E-01 7.02616E-03-1.78872E+00-7.94561E-13 5.82178E-13
 -1       644 2.12825E+01 2.42488E+00-2.19422E-02-1.26036E+00-1.11930E-12 6.22452E-13
 -1       645 2.08074E+01 3.48324E+00-3.13770E-02 2.76519E-01-1.59323E-12 5.08449E-13
 -1       646 2.05863E+01 3.25164E+00-1.75193E-01 2.19868E+00-2.18077E-12-1.30866E-13
 -1       647 2.10121E+01 1.73437E+00-5.17148E-01 3.65617E+00-2.50081E-12-1.38452E-12
 -1       648 2.10536E+01 6.26379E-01-9.64227E-01 3.86498E+00-2.27257E-12-3.01791E-12
 -1       649 2.07848E+01 1.01574E+00-3.16282E-01 6.33757E+00-1.62314E-12-5.99228E-12
 -1       650 3.00732E+01-8.11485E+00-5.41953E-01 1.06807E+01-9.25537E-13-9.63205E-12
 -1       651 1.40683E+01 6.63964E+00 1.47970E+00 1.18577E+01-2.15292E-11 2.36451E-11
 -1       652-3.98682E+01 2.53888E+01 1.81567E+00 5.68838E+00 1.02407E-11 8.28031E-11
 -1       653 7.53629E+01 1.10930E+01 3.12045E+01-5.58564E+00 2.53548E-11-1.67584E-10
 -1       654 9.01999E+01-5.97185E-01 6.22904E+00-1.23671E+00-6.02192E-13-1.25526E-10
 -1       655 3.04869E+01 4.22954E+00 4.08109E+00-8.19152E-01-1.72389E-13-1.04721E-11
 -1       656 2.04248E+01 1.56795E-01 4.69579E-05-8.78512E-01 1.56915E-13-1.54278E-13
 -1       657 2.03144E+01 2.17692E-01 8.54554E-05-7.65892E-01 4.35167E-13-2.88725E-14
 -1       658 2.02366E+01 2.36628E-01 9.97584E-05-6.47001E-01 1.61247E-13-9.53792E-14
 -1       659 2.01802E+01 2.29534E-01 9.94069E-05-5.32371E-01-2.72029E-14-2.00107E-13
 -1       660 2.01381E+01 2.08188E-01 9.03378E-05-4.27987E-01-7.56739E-14-1.11856E-13
 -1       661 2.01058E+01 1.80724E-01 7.72559E-05-3.36664E-01 1.84097E-13 1.37845E-13
 -1       662 2.00804E+01 1.52464E-01 6.55766E-05-2.59086E-01 2.60289E-13-3.62743E-14
 -1       663 2.00600E+01 1.26552E-01 7.49777E-05-1.94566E-01 1.44863E-13-5.49235E-13
 -1       664 2.00430E+01 1.04593E-01 5.37393E-05-1.41778E-01 1.18717E-14-3.61654E-13
 -1       665 2.32157E+01 6.45104E+00-1.96405E-01-7.97228E-01-1.60275E-12 2.18100E-12
 -1       666 1.96175E+01 2.35389E-01 2.91546E-04-2.63997E-01 1.73083E-13-8.57821E-14
 -1       667 1.96978E+01 1.22597E-01 1.02369E-04-5.75103E-01 5.77913E-14-1.14947E-13
 -1       668 1.97654E+01 1.41334E-01 1.28030E-04-6.56601E-01 9.42278E-14-7.94786E-14
 -1       669 1.98472E+01 1.77213E-01 1.68464E-04-7.48202E-01 1.11325E-13-1.49083E-14
 -1       670 1.99410E+01 2.25754E-01 2.21074E-04-8.58091E-01 1.02982E-13-4.32255E-14
 -1       671 2.00454E+01 2.81679E-01 2.79008E-04-9.91950E-01 5.93106E-14-3.90926E-14
 -1       672 2.01604E+01 3.36965E-01 3.31017E-04-1.15267E+00 2.40775E-14-8.02238E-14
 -1       673 2.02888E+01 3.78110E-01 3.58742E-04-1.33942E+00 3.76108E-14-9.34405E-14
 -1       674 2.04388E+01 3.82345E-01 3.31034E-04-1.54606E+00 9.91750E-14-4.23277E-14
 -1       675 2.06299E+01 3.12851E-01 2.04629E-04-1.75852E+00 1.16040E-14 4.25676E-14
 -1       676 2.09021E+01 1.14625E-01-3.49049E-05-1.95057E+00-1.41342E-13 2.17000E-13
 -1       677 2.13285E+01-2.84279E-01-2.43835E-04-2.07671E+00-1.06877E-13 2.54541E-13
 -1       678 2.20335E+01-9.54904E-01 2.84461E-04-2.05268E+00-7.18575E-14 1.71544E-13
 -1       679 2.31472E+01-1.87018E+00-1.50872E-03-1.72906E+00-1.06355E-13 1.41815E-13
 -1       680 2.48217E+01-2.81396E+00 1.01119E-02-9.07664E-01-9.10678E-14 4.31892E-15
 -1       681 2.66043E+01-2.85217E+00-2.57107E-02 5.83696E-01-2.83957E-14 1.27884E-13
 -1       682 2.84197E+01-1.18039E+00-7.43386E-02 2.31880E+00 1.46154E-13-6.40113E-14
 -1       683 2.87769E+01 3.05338E-01-7.39804E-02-3.08900E+00-3.93921E-14-8.90576E-13
 -1       684 2.76528E+01-2.59651E+00-3.99394E-02-1.63497E+00-4.45242E-13-7.91139E-13
 -1       685 2.58589E+01-3.06373E+00 1.56222E-02 1.82533E-01-4.46324E-13-7.31277E-13
 -1       686 2.38179E+01-2.23919E+00 7.01410E-02 1.36589E+00-3.91278E-13-4.60795E-13
 -1       687 2.22575E+01-1.26071E+00 1.41816E-03 1.88513E+00-1.87806E-13-3.14602E-13
 -1       688 2.14741E+01-4.66842E-01 9.85241E-05 1.99150E+00-1.63318E-13-3.47225E-13
 -1       689 2.10152E+01 4.21526E-02-1.52515E-04 1.88920E+00-2.63281E-14-3.56947E-13
 -1       690 2.07522E+01 3.12271E-01 1.34205E-04 1.68980E+00-9.44866E-14-1.89236E-13
 -1       691 2.05923E+01 4.22959E-01 3.46587E-04 1.45479E+00 4.31953E-14-2.33807E-13
 -1       692 2.04832E+01 4.40100E-01 4.24880E-04 1.21779E+00 3.16200E-14-2.16861E-13
 -1       693 2.03989E+01 4.08726E-01 4.20259E-04 9.96817E-01 8.55807E-15-5.73711E-13
 -1       694 2.03279E+01 3.56414E-01 3.75612E-04 8.00597E-01-1.76875E-13-3.63627E-13
 -1       695 2.02660E+01 2.98734E-01 3.17521E-04 6.32235E-01-2.41307E-13-4.03221E-13
 -1       696 2.02120E+01 2.43801E-01 2.59972E-04 4.91446E-01 1.61941E-13-5.60648E-13
 -1       697 2.01654E+01 1.95370E-01 2.07107E-04 3.76006E-01 9.18175E-14-4.30200E-13
 -1       698 2.01260E+01 1.54753E-01 1.56509E-04 2.82834E-01 5.88876E-14-3.63956E-13
 -1       699 2.00931E+01 1.22328E-01 1.33480E-04 2.08465E-01 1.68359E-13-2.04650E-13
 -1       700 2.00659E+01 9.75049E-02 1.68730E-04 1.49607E-01 1.57660E-13-3.02420E-13
 -1       701 2.00425E+01 9.06205E-02 1.00152E-04 1.16163E-01 9.00334E-14 5.30282E-14
 -1       702 1.40221E+01-9.43428E-01 5.95283E-01-1.09826E+01 4.28198E-11-9.69827E-12
 -1       703 1.99129E+01 2.39878E-01-3.55576E-05 2.07015E-02 8.48986E-14-2.76114E-13
 -1       704 9.25287E+00-1.01418E+00 1.50626E-01-4.19258E+00 3.69439E-13-7.24122E-13
 -1       705 1.99500E+01 2.02413E-01-1.37345E-05 1.02406E-01 2.93113E-13 2.75604E-13
 -1       706 1.99142E+01 2.37445E-01-3.36535E-05-2.71672E-02 1.38413E-14-5.04296E-13
 -1       707 1.99253E+01 2.27893E-01-3.33211E-05 6.61174E-02 1.39495E-13 8.78623E-14
 -1       708 1.60049E+01-3.70362E+00 8.84887E-02 5.95473E+00-1.67935E-13 2.53873E-13
 -1       709 1.99282E+01 2.21605E-01-2.47886E-05-7.01011E-02-6.25223E-14-2.91751E-13
 -1       710 1.99531E+01 1.93715E-01-2.75627E-05-1.03659E-01-1.18615E-14-3.67661E-13
 -1       711 1.99856E+01 1.56860E-01-4.27465E-05-1.22424E-01-1.67447E-13-7.76034E-14
 -1       712 1.96447E+01 3.73390E-01 6.69825E-04-7.45032E-02 1.81247E-13-1.23271E-13
 -1       713 8.05354E+00 2.00048E-01 1.50210E-01-2.20509E-03-1.18044E-13 1.19453E-13
 -1       714 2.81926E+01-4.05205E+00-1.65570E-02 9.81444E-02-7.79565E-13-4.91381E-13
 -1       715 2.20523E+01 2.81542E+00-2.01320E+00 3.18664E-01-2.23987E-13 7.59737E-12
 -1       716 2.00330E+01 9.17218E-02 3.62770E-05-1.11580E-01-7.30107E-14-6.57480E-13
 -1       717 1.96478E+01 1.26184E-01 9.57108E-05-4.92808E-01 5.91145E-14-8.22934E-14
 -1       718 1.96196E+01 1.59455E-01 1.07309E-04-3.95395E-01 1.09099E-13-1.00845E-13
 -1       719 1.94088E+01 1.12490E+00 1.65813E-03-8.66902E-01-2.35962E-13-2.27954E-13
 -1       720 1.83539E+01 2.81927E+00-9.17417E-01-6.92636E-02-2.85793E-11 2.34803E-11
 -1       721 1.94070E+01 2.24305E+00-1.62484E-03 3.85561E-01 2.01540E-13-3.56305E-13
 -1       722 1.92141E+01 2.28159E+00-1.59917E-03-7.86199E-01-1.09650E-13-3.58666E-13
 -1       723 2.02471E+01-4.84064E+00 3.63720E-02 4.08017E+00 6.46750E-13 6.78176E-13
 -1       724 2.88565E+01 2.53059E+00-1.69894E-01-3.22793E+00 2.47781E-13-1.22187E-12
 -1       725 2.89112E+01 3.73243E+00-1.50018E-01 2.37758E+00 6.96748E-13-8.47045E-13
 -1       726 2.98191E+01-4.34758E-01-1.41929E-01 2.08290E+00 5.71902E-13-4.31967E-13
 -1       727 2.36677E+01-4.96842E+00 2.54030E-02-4.23183E+00 2.07410E-13-6.40495E-14
 -1       728 7.20545E+00-5.57478E-02 1.61611E-01-4.50707E-01 5.45492E-13-3.06831E-13
 -1       729 2.78539E+01-1.05417E+01-7.75980E-01-1.83070E+01 9.01781E-11-2.71716E-11
 -1       730 2.37597E+01-4.15911E+00-7.51148E-03 1.49690E+00 4.79271E-13 6.77208E-13
 -1       731 2.44466E+01 3.75507E+00-1.04078E-01-2.45009E+00-8.05821E-13 2.01686E-12
 -1       732 2.31641E+01-1.78225E+00-1.46895E+00-4.14412E+00 1.84432E-11 1.06533E-11
 -1       733 1.92783E+01 2.04361E+00-1.62029E-03-9.81943E-01-2.01838E-13-3.48977E-13
 -1       734 1.91943E+01 2.49526E+00-1.44536E-03-3.30419E-01 1.79940E-15-3.97380E-13
 -1       735 2.45582E+01-2.49448E+00-4.12467E-02-6.02064E-01 2.42011E-13 1.03510E-12
 -1       736 2.63447E+01-4.79952E+00 6.25870E-02 1.73310E+00-6.27970E-13-2.54189E-13
 -1       737 2.21224E+01 6.26908E+00-2.77722E-01 5.38313E-01-2.08364E-12 2.07283E-12
 -1       738 8.71571E+00-2.50760E-02 1.28467E-01 1.66983E+00 5.05086E-13-8.29475E-14
 -1       739 1.20049E+01 2.32146E+00 1.12588E+00-5.07366E+00 1.80378E-11-1.48349E-12
 -1       740 2.03374E+01-4.00688E+00 7.20006E-02-5.03944E+00-1.43583E-14-4.39603E-13
 -1       741 2.00091E+01 1.34274E-01-2.96058E-05 1.25282E-01-6.41500E-14 2.92257E-13
 -1       742 1.35166E+01-1.80568E+00 9.55418E-02-5.27227E+00 1.32347E-13-6.21826E-13
 -1       743 2.42829E+01 1.16047E+00-5.10926E-02-2.34494E+00-5.10728E-13 1.64537E-12
 -1       744 1.76966E+01-4.00072E+00 7.18333E-02 4.76291E+00 6.33365E-13 5.15671E-13
 -1       745 1.99786E+01 1.70623E-01-3.43620E-05 1.20297E-01 1.25685E-13 2.64761E-13
 -1       746 2.63138E+01-4.63234E+00-2.00298E-02-1.94855E+00-6.25420E-14-1.74206E-13
 -1       747 1.91868E+01 2.42858E+00-1.47929E-03-5.65187E-01-3.80988E-14-3.93822E-13
 -1       748 1.15194E+01-2.20919E+00 1.17488E-01 4.87060E+00 7.57453E-13 2.14294E-13
 -1       749 2.95215E+01-9.51105E-01-7.59270E-02-2.51797E+00-2.76744E-13-9.82502E-13
 -1       750 2.00115E+01 1.32748E-01-9.70867E-06-1.36435E-01-2.08943E-13-2.98294E-13
 -1       751 1.93887E+01 1.58719E+00-7.86281E-04-1.10295E+00-2.75030E-13-2.64380E-13
 -1       752 1.12401E+01 5.09725E-01 7.43453E-02 1.75701E+00 3.23556E-14 1.40211E-13
 -1       753 1.97008E+01 1.28775E+00 7.38241E-04 3.79234E-01 2.43023E-13-2.25175E-13
 -1       754 1.96996E+01 2.39634E-01 3.55575E-05-7.37904E-01 7.56989E-14-3.69002E-14
 -1       755 1.93958E+01 7.76122E-01 8.90170E-05-4.01539E-01-1.70109E-13-2.34778E-13
 -1       756 2.21532E+01 4.05717E+00-1.04583E-01-1.42206E+00-1.30609E-12 1.41119E-12
 -1       757 1.93446E+01 5.14625E-01 7.61467E-05-1.85379E-01-1.36500E-13-2.31564E-13
 -1       758 1.92789E+01 3.49751E-01 4.97988E-06-2.53170E-02-1.30762E-13-1.85012E-13
 -1       759 1.92095E+01 2.57084E-01 1.02309E-06 9.53404E-02-1.25203E-13-2.08176E-13
 -1       760 1.91410E+01 2.16170E-01 4.68473E-06 1.92090E-01-9.34632E-14-1.94402E-13
 -1       761 1.90752E+01 2.11877E-01 8.85268E-06 2.78479E-01-6.13986E-14-2.14769E-13
 -1       762 1.90126E+01 2.31930E-01 1.37209E-05 3.65102E-01-6.82996E-14-1.13185E-13
 -1       763 1.89538E+01 2.64999E-01 1.93502E-05 4.59698E-01-7.54482E-14-3.78075E-14
 -1       764 1.89005E+01 2.99010E-01 2.59169E-05 5.67257E-01-9.81522E-14 6.41643E-14
 -1       765 1.88572E+01 3.19552E-01 3.27908E-05 6.89986E-01-6.22198E-14 4.46914E-14
 -1       766 1.88325E+01 3.08338E-01 3.87687E-05 8.26991E-01-8.01022E-14 1.36606E-14
 -1       767 1.88414E+01 2.42038E-01 4.01567E-05 9.73436E-01-5.25270E-14-3.79823E-14
 -1       768 1.89088E+01 9.21956E-02 2.45924E-05 1.11873E+00-7.95390E-14 4.17432E-14
 -1       769 1.90717E+01-1.72011E-01-3.37727E-05 1.24283E+00-8.01252E-14 1.59488E-13
 -1       770 1.93802E+01-5.74886E-01-2.90295E-04 1.30958E+00-1.25189E-13 2.19053E-13
 -1       771 1.98910E+01-1.11221E+00-4.07708E-04 1.25637E+00 4.09760E-14 1.79388E-13
 -1       772 2.06445E+01-1.70809E+00-4.13171E-04 9.81105E-01-1.01149E-13 2.62211E-13
 -1       773 2.15903E+01-2.15167E+00 1.04299E-03 3.74129E-01-2.70044E-14 3.60912E-13
 -1       774 2.24920E+01-1.89473E+00-2.52934E-03-6.20310E-01-1.09682E-13 6.42028E-13
 -1       775 2.30661E+01-6.34179E-01-1.27539E-02-1.71158E+00-3.99217E-13 9.53272E-13
 -1       776 1.91539E+01 6.34015E-01-2.20714E+00 4.42481E+00-3.71159E-12 1.90736E-12
 -1       777 2.20117E+01 1.96581E+00 2.70878E-02 3.32734E+00-9.22429E-12-6.96687E-12
 -1       778 1.21084E+01 5.62612E+00-6.55862E-01 3.00827E+00-3.27777E-12-2.95963E-12
 -1       779 1.85333E+01 1.46171E+01 5.14223E+00-6.49523E+00 5.60035E-12-1.87838E-11
 -1       780 3.89968E+01-8.75968E+00 3.26834E+00-1.20422E+01 1.29798E-11 1.79710E-11
 -1       781 4.35375E+01-2.59448E+00 6.23892E+00-9.92975E+00 8.78428E-11 1.79390E-12
 -1       782 4.73428E+01 2.88120E+01 5.33125E+00-2.22611E+01 8.51299E-11-9.25353E-11
 -1       783 4.72115E+01 1.45584E+01 1.11928E+01-9.00935E+00 2.88092E-11-4.95974E-11
 -1       784 2.00685E+01 2.06909E-01 1.25550E-04-1.03879E+00-1.26071E-13 1.92085E-13
 -1       785 2.00025E+01 3.07029E-01 9.64664E-05-8.90713E-01 2.91643E-13 1.78144E-13
 -1       786 1.99762E+01 3.44074E-01 7.32121E-05-7.46236E-01 3.57625E-13 4.55617E-14
 -1       787 1.99710E+01 3.40707E-01 5.56760E-05-6.12636E-01 1.00331E-13 2.66680E-13
 -1       788 1.99758E+01 3.14003E-01 4.24404E-05-4.93655E-01-8.27382E-14 4.85633E-13
 -1       789 1.99842E+01 2.76041E-01 2.73860E-05-3.90711E-01 6.96629E-14 2.71853E-13
 -1       790 1.99927E+01 2.34821E-01 1.76682E-05-3.03728E-01 1.97204E-13 1.05554E-13
 -1       791 1.99998E+01 1.95401E-01 1.98381E-05-2.31738E-01-7.35069E-15 2.06557E-13
 -1       792 2.00085E+01 1.60955E-01 3.03922E-05-1.79828E-01 1.80543E-13-4.62618E-14
 -1       793 1.96944E+01 2.04085E-01 2.73824E-05-6.45570E-01 6.03401E-14-5.33952E-14
 -1       794 1.97059E+01 3.70548E-01 7.29399E-05-9.65386E-01 4.16705E-14-2.40181E-16
 -1       795 1.96995E+01 4.50802E-01 9.71737E-05-1.11318E+00 4.97559E-14-1.32109E-14
 -1       796 1.96836E+01 5.25389E-01 1.22910E-04-1.28901E+00 4.24898E-14-8.93971E-15
 -1       797 1.96601E+01 5.73828E-01 1.49961E-04-1.49483E+00 1.74933E-14-9.35308E-15
 -1       798 1.96400E+01 5.63172E-01 1.73493E-04-1.73161E+00-7.37601E-15 1.89703E-13
 -1       799 1.96517E+01 4.42123E-01 2.08020E-04-1.99976E+00-6.83894E-14 1.52287E-13
 -1       800 1.97560E+01 1.35738E-01 5.79211E-04-2.29743E+00-1.73851E-13 4.01644E-14
 -1       801 2.00587E+01-4.48054E-01 2.06922E-03-2.61511E+00-1.02483E-13 6.49110E-14
 -1       802 2.07859E+01-1.45561E+00-5.47925E-03-2.92599E+00-4.97315E-14 9.08718E-14
 -1       803 2.23260E+01-2.85988E+00 1.74646E-02-3.05403E+00-7.86662E-14 1.03880E-13
 -1       804 2.11855E+01-1.95756E+00 8.00650E-03 2.87796E+00-2.06252E-13-3.03162E-13
 -1       805 2.01722E+01-7.39729E-01 1.56194E-03 2.59949E+00-2.80818E-13-2.78490E-13
 -1       806 1.98083E+01 1.65488E-02 5.85953E-04 2.25583E+00-3.75336E-14-1.58147E-13
 -1       807 1.97117E+01 4.28723E-01 1.46136E-04 1.92374E+00-1.24986E-13-1.64474E-13
 -1       808 1.97372E+01 6.11071E-01 1.63327E-04 1.62118E+00-4.39542E-14-3.54398E-13
 -1       809 1.98040E+01 6.54838E-01 1.66405E-04 1.35116E+00 9.50598E-14-4.20885E-13
 -1       810 1.98738E+01 6.22786E-01 1.48435E-04 1.11246E+00 7.10023E-14-1.67549E-13
 -1       811 1.99315E+01 5.54518E-01 1.22902E-04 9.03898E-01-9.21442E-14-1.18340E-13
 -1       812 1.99735E+01 4.73495E-01 9.90163E-05 7.24361E-01-2.89873E-13-8.12290E-14
 -1       813 2.00010E+01 3.92796E-01 8.17352E-05 5.72360E-01 1.52088E-14-2.30754E-14
 -1       814 2.00172E+01 3.19199E-01 6.93489E-05 4.45766E-01 6.32811E-14 1.59176E-13
 -1       815 2.00250E+01 2.55648E-01 5.29404E-05 3.41744E-01 5.52255E-14 1.59418E-13
 -1       816 2.00272E+01 2.02916E-01 3.97212E-05 2.57934E-01 1.44245E-13 5.33909E-14
 -1       817 2.00253E+01 1.61081E-01 3.37868E-05 1.90702E-01 1.81436E-13 2.01878E-13
 -1       818 2.00155E+01 1.46868E-01-8.09092E-05 1.55399E-01 8.61172E-14 2.54796E-13
 -1       819 1.98635E+01 2.88924E-01-1.24426E-05-6.14877E-03-1.36960E-13-5.36176E-13
 -1       820 1.99491E+01 2.09095E-01-4.35192E-05-1.50558E-01-1.36358E-13-2.19721E-13
 -1       821 1.98755E+01 2.76818E-01-1.51022E-05-6.50486E-02-1.54590E-13-3.67333E-13
 -1       822 1.94012E+01 1.29198E+00 4.37325E-04-7.87442E-01-2.10010E-13-2.72168E-13
 -1       823 1.99053E+01 2.49359E-01 1.52955E-05-1.15715E-01-7.54108E-14-4.44642E-13
 -1       824 2.42011E+01 1.06056E+00 3.59221E+00-1.32556E+01 3.49986E-11-1.87645E-11
 -1       825 2.10886E+01-4.10544E+00 7.76786E-02 4.40051E+00-1.80751E-13 5.95235E-14
 -1       826 1.97048E+01 2.97365E-01 5.05778E-05-8.42067E-01 8.87269E-14-1.37336E-14
 -1       827 2.97549E+01 3.45677E+00 4.56142E+00-7.41945E+00 7.20402E-12-1.06292E-11
 -1       828 1.96925E+01 1.97668E-01 2.02800E-05-5.55352E-01 9.78095E-15-1.41613E-13
 -1       829 1.96969E+01 2.29269E-01 1.27858E-05-4.54769E-01 6.39692E-14-1.33824E-13
 -1       830 1.94499E+01 1.89263E+00-3.09115E-04-4.17053E-02 7.41444E-14-3.18017E-13
 -1       831 2.17952E+01-3.89189E+00 4.55848E-03 2.17203E+00 2.62525E-13 5.07130E-13
 -1       832 1.97405E+01 9.28043E-01-6.61548E-05 3.12232E-01 2.36919E-13-2.07399E-13
 -1       833 1.52459E+01-1.62106E+00 5.83522E-02 4.57320E+00-1.50504E-13 2.71588E-13
 -1       834 2.07062E+01 4.41533E+00-1.03101E+00 2.49459E+00-3.05864E-12 2.88222E-12
 -1       835 1.56092E+01 1.08922E+00-3.33903E+00 2.74921E+00-1.83581E-12 1.01300E-11
 -1       836 1.97091E+01 3.11700E-01-7.96906E-05-3.27821E-01 1.49344E-13-1.57852E-13
 -1       837 1.05400E+01 3.44289E-01 9.09604E-02-2.26637E+00 3.29097E-13-3.74301E-13
 -1       838 3.94529E+01-7.17278E-01 6.37263E+00-2.39162E+00 9.88676E-12-2.61784E-11
 -1       839 1.93944E+01 1.93824E+00-2.58147E-04-2.16333E-01 2.15241E-14-3.51467E-13
 -1       840 1.96210E+01 1.56567E+00 2.40652E-06 2.74661E-01 1.78546E-13-2.70742E-13
 -1       841 1.43992E+01-4.47075E-02 3.56202E-02 3.06416E+00 1.21872E-14 9.54592E-14
 -1       842 1.93728E+01 1.61324E+00-5.20612E-04-6.77269E-01-1.44106E-13-2.97549E-13
 -1       843 2.33885E+01-4.37341E+00 3.68935E-02-3.65310E+00 1.18801E-13 1.88139E-13
 -1       844 1.11301E+01-4.72168E-01 8.14249E-02 3.12910E+00 4.67537E-13 1.58276E-13
 -1       845 1.18916E+01 9.34940E-01 5.10987E-02-1.58582E-01 1.18104E-13-1.58195E-13
 -1       846 1.77454E+01-2.61864E+00 3.78801E-02-5.05314E+00 1.43757E-14-4.56543E-13
 -1       847 1.30424E+01-1.81183E-01 6.23019E-02-3.57805E+00 1.66169E-13-4.31384E-13
 -1       848 1.98713E+01 2.84107E-01-2.64106E-05 5.53592E-02-5.63256E-15-3.43439E-13
 -1       849 1.98989E+01 2.62038E-01-6.26836E-06 1.10291E-01 2.14396E-13 2.12472E-13
 -1       850 1.97263E+01 5.93934E-01 1.12577E-05 1.12760E-02 1.56144E-13-2.03762E-13
 -1       851 1.97172E+01 4.23351E-01 1.13185E-04-1.81871E-01 1.36090E-13-1.66020E-13
 -1       852 2.01530E+01-3.54568E+00 2.33114E-02 3.04391E+00 3.12001E-13 3.88901E-13
 -1       853 2.29033E+01-3.25259E+00-1.94470E-02 5.80201E-01 1.95921E-13 7.24622E-13
 -1       854 1.99364E+01 2.29162E-01 5.15879E-05 1.43156E-01 1.64237E-13 3.89647E-13
 -1       855 1.95270E+01 1.77058E+00-2.63316E-04 1.25707E-01 1.46980E-13-3.37231E-13
 -1       856 1.54897E+01-2.71995E+00 5.27891E-02 4.65727E+00 5.24707E-13 3.17812E-13
 -1       857 1.91192E+01 3.71538E+00 2.01533E+00-9.59725E+00 2.76214E-11-8.47206E-12
 -1       858 1.93572E+01 1.80152E+00-4.63989E-04-5.46286E-01-7.56378E-14-2.86743E-13
 -1       859 1.99771E+01 1.87010E-01 2.16655E-04-1.68386E-01-1.34351E-13-7.71650E-15
 -1       860 1.05030E+01 7.17692E-01 7.84020E-02-5.17550E-01 3.49025E-13-2.24123E-13
 -1       861 1.94109E+01 5.54571E-01-2.65384E-05-1.50073E-01-8.14244E-14-2.03128E-13
 -1       862 1.93497E+01 3.97337E-01-1.03705E-05-2.25654E-02-1.15478E-13-1.93407E-13
 -1       863 1.92707E+01 3.13583E-01-4.98485E-06 7.85379E-02-8.65159E-14-1.30177E-13
 -1       864 1.91802E+01 2.84381E-01-1.90787E-06 1.65556E-01-7.64973E-14-1.21124E-13
 -1       865 1.90811E+01 2.94268E-01-4.33180E-07 2.48992E-01-5.01470E-14-1.50159E-13
 -1       866 1.89749E+01 3.29669E-01 7.90796E-07 3.37661E-01-5.24006E-14-1.71811E-13
 -1       867 1.88629E+01 3.77176E-01 1.44827E-06 4.38683E-01-3.30427E-14-1.73930E-13
 -1       868 1.87476E+01 4.21938E-01 2.94894E-06 5.57659E-01-8.95140E-14-1.29464E-13
 -1       869 1.86345E+01 4.45944E-01 6.45853E-06 6.98977E-01-3.90329E-14-9.61176E-14
 -1       870 1.85342E+01 4.26221E-01 1.52794E-05 8.65864E-01-3.88582E-14-4.85027E-14
 -1       871 1.84663E+01 3.33274E-01 2.87960E-05 1.05998E+00-3.92032E-14-8.50040E-15
 -1       872 1.84639E+01 1.30161E-01 4.55527E-05 1.27949E+00-5.64333E-15 1.31698E-15
 -1       873 1.85802E+01-2.25737E-01 1.08282E-04 1.51332E+00-8.11408E-14 6.23138E-14
 -1       874 1.88939E+01-7.74384E-01-2.94567E-04 1.72855E+00-6.93992E-15 2.03014E-13
 -1       875 1.95142E+01-1.52718E+00 1.38102E-03 1.84853E+00 2.68400E-14 2.16227E-13
 -1       876 2.05525E+01-2.40882E+00 8.33769E-03 1.71518E+00 7.77048E-14 3.24961E-13
 -1       877 1.98071E+01 3.42971E-01-2.34574E-05-4.88198E-02-1.11755E-13-7.07426E-13
 -1       878 2.88868E+01 4.55772E+00 9.26711E-01-1.02781E+01 1.48275E-11-2.81875E-12
 -1       879 3.87464E+01-1.77956E+00 8.86356E-01-7.66774E+00 3.34482E-11-5.50838E-12
 -1       880 4.06098E+01 9.70589E+00 2.49955E+00-6.03490E+00 5.32353E-11-3.92426E-11
 -1       881 3.28120E+01 1.07707E+01 6.34273E+00-6.71370E+00 2.00716E-11-4.43610E-11
 -1       882 1.96160E+01 2.76844E-01 1.08835E-04-1.18959E+00-1.33472E-13-5.28904E-14
 -1       883 1.96125E+01 4.13204E-01 5.33467E-05-9.87237E-01 1.28609E-13 1.43945E-13
 -1       884 1.96509E+01 4.66781E-01 2.77827E-05-8.09239E-01 2.32792E-13-1.44500E-14
 -1       885 1.97071E+01 4.66370E-01 1.73909E-05-6.55417E-01 3.18822E-13-2.32632E-13
 -1       886 1.97672E+01 4.33784E-01 1.75749E-05-5.24384E-01 6.72911E-14-3.03374E-14
 -1       887 1.98233E+01 3.84663E-01 4.17079E-06-4.14242E-01 1.42179E-13 2.33648E-13
 -1       888 1.98721E+01 3.29637E-01 5.19355E-06-3.22883E-01 1.18130E-13 4.27214E-13
 -1       889 1.99129E+01 2.75130E-01 3.04767E-05-2.47987E-01 1.24110E-13-1.20222E-13
 -1       890 1.96066E+01 2.97292E-01-4.16566E-06-6.68998E-01 4.32344E-14-1.66906E-13
 -1       891 1.92499E+01 6.35483E-01 3.40237E-05-1.12869E+00 2.05170E-14-6.86364E-14
 -1       892 1.93742E+01 5.32520E-01 1.62247E-05-9.84653E-01 6.47389E-14-3.49619E-14
 -1       893 1.89004E+01 7.83357E-01 3.49608E-05-1.50919E+00-1.36694E-13 2.95930E-14
 -1       894 1.86782E+01 7.65705E-01-2.79420E-05-1.76682E+00 6.65806E-15 9.79040E-14
 -1       895 1.84471E+01 6.17695E-01-1.86487E-04-2.09850E+00-3.40584E-14 6.95981E-14
 -1       896 1.82591E+01 2.51390E-01-1.32646E-03-2.54812E+00-1.03385E-13-5.99364E-14
 -1       897 1.83100E+01-4.58345E-01 1.16607E-02-3.18204E+00-4.25961E-14-1.49639E-13
 -1       898 2.29428E+01-3.66444E+00 2.35227E-02-3.25180E+00 7.67777E-14 1.21844E-13
 -1       899 1.84129E+01 6.01421E-01-4.70269E-04 2.01041E+00-9.02914E-14-8.06386E-14
 -1       900 1.81761E+01 1.09094E-01-1.04624E-03 2.53610E+00-1.81635E-13-4.02716E-14
 -1       901 1.94203E+01 1.28433E+00 6.54985E-04-5.86354E-01-1.56890E-13-2.62715E-13
 -1       902 1.82440E+01-7.97761E-01 1.53895E-02 3.26021E+00-1.65224E-13 1.70211E-13
 -1       903 1.87114E+01 8.21382E-01-1.10679E-04 1.62808E+00 6.70227E-16-8.74660E-14
 -1       904 1.89990E+01 8.78901E-01 2.16617E-05 1.33525E+00 5.12293E-14-1.80562E-13
 -1       905 1.92476E+01 8.44296E-01 4.02987E-05 1.09875E+00-4.60655E-14-1.49661E-13
 -1       906 1.94497E+01 7.62519E-01 2.91342E-05 9.00562E-01-1.63220E-13-2.28581E-13
 -1       907 1.96076E+01 6.61214E-01 1.76801E-05 7.31668E-01-3.73531E-13-2.49851E-14
 -1       908 1.97275E+01 5.56876E-01 2.04445E-05 5.87590E-01-1.81134E-13-2.89597E-14
 -1       909 1.98162E+01 4.58750E-01 1.37876E-05 4.65763E-01-7.79567E-14 2.21087E-13
 -1       910 1.98807E+01 3.71710E-01 5.13626E-05 3.64025E-01 8.99451E-16 5.71235E-13
 -1       911 1.99250E+01 2.97724E-01-7.15731E-05 2.79579E-01 3.94486E-14 5.45247E-13
 -1       912 1.99573E+01 2.36894E-01 1.92321E-04 2.11588E-01 1.04157E-13 5.79426E-13
 -1       913 2.95806E+01 1.65668E-01 2.53172E+00-8.89155E+00 1.92202E-11-1.35951E-11
 -1       914 1.97292E+01 3.72299E-01-1.09135E-05-3.77877E-01 1.12403E-13-1.19150E-13
 -1       915 1.96556E+01 2.74613E-01-4.38700E-07-5.81703E-01 1.58166E-14-1.53666E-13
 -1       916 1.96964E+01 2.95269E-01-2.51283E-05-4.88650E-01 3.95962E-14-9.23417E-14
 -1       917 1.93625E+01 1.90825E+00-6.15639E-04-3.86504E-01-2.35252E-14-3.92757E-13
 -1       918 1.99771E+01 1.88856E-01 1.02609E-05 1.56419E-01 3.14533E-14 5.94659E-13
 -1       919 1.97485E+01 8.45079E-01-4.15244E-04 8.43122E-02 1.71906E-13-1.93765E-13
 -1       920 1.90928E+01 7.27256E-01 4.36375E-05-1.30099E+00-1.25934E-14 1.03916E-14
 -1       921 3.19988E+01 4.68828E-01 2.76346E+00-3.86298E+00 8.96630E-12-6.57951E-12
 -1       922 1.94488E+01 8.03436E-01-1.25551E-04-3.16834E-01-1.42778E-13-2.22021E-13
 -1       923 1.35919E+01 8.07085E-01 3.29855E-02 1.62814E+00-1.21718E-14 2.53297E-13
 -1       924 1.98377E+01 3.17224E-01-1.01154E-05-1.19761E-01-8.90824E-14-1.58974E-13
 -1       925 1.96054E+01 1.38289E+00 3.05709E-07-6.07633E-02 8.01468E-14-2.82856E-13
 -1       926 1.27193E+01 7.86680E-01 4.04215E-02-1.79173E+00 3.06002E-13-2.53715E-13
 -1       927 1.41464E+01-1.20259E+00 3.37685E-02 3.76295E+00 3.51525E-13 1.75339E-13
 -1       928 1.99506E+01 2.27264E-01 1.48945E-05-2.05603E-01 5.19366E-14-1.62333E-14
 -1       929 1.95465E+01 3.53595E-01-2.28990E-06-7.60364E-01 7.14698E-14-9.64179E-14
 -1       930 1.61830E+01-1.02858E+00 2.82770E-02-4.16596E+00-1.94289E-14-4.66439E-13
 -1       931 1.94710E+01 4.34889E-01 4.84963E-06-8.63610E-01 3.09382E-14-8.04431E-14
 -1       932 1.97500E+01 5.23632E-01-2.33161E-04-2.35124E-01 1.03386E-13-1.27056E-13
 -1       933 1.98031E+01 3.48954E-01-4.82306E-05 2.95884E-02-5.38565E-14-6.13898E-13
 -1       934 1.98277E+01 3.33487E-01-3.29291E-05 1.05550E-01 3.58296E-14-2.49113E-13
 -1       935 1.14064E+01 6.41826E-01 5.25533E-02 1.09987E+00 2.87844E-13 7.32747E-15
 -1       936 1.95444E+01 1.46056E+00-4.51657E-07-1.68044E-01 5.87882E-14-3.25204E-13
 -1       937 3.01903E+01 6.57967E-01 1.17560E+00-5.36419E+00 1.44118E-11-6.53930E-12
 -1       938 1.98702E+01 3.01821E-01-9.66821E-05 1.58139E-01 1.87305E-14 2.29986E-13
 -1       939 1.85869E+01-2.87341E+00 3.03841E-02 3.57148E+00 3.58388E-13 3.63870E-13
 -1       940 1.94223E+01 1.48725E+00 1.41860E-04-5.05369E-01-1.01255E-13-2.52829E-13
 -1       941 1.56802E+01 3.27380E+00 1.42799E+00-3.59935E+00 9.88820E-12-2.24801E-12
 -1       942 1.94574E+01 5.64618E-01 2.39705E-05-1.31552E-01-7.84580E-14-1.61502E-13
 -1       943 1.93876E+01 4.27853E-01-1.72093E-05-4.04437E-02-9.49934E-14-1.56008E-13
 -1       944 1.92919E+01 3.63132E-01-3.21150E-06 3.71077E-02-3.52444E-14-1.27700E-13
 -1       945 1.91753E+01 3.53056E-01-2.78646E-06 1.09073E-01-4.41081E-14-1.30157E-13
 -1       946 1.90406E+01 3.82351E-01-6.79687E-06 1.83495E-01-8.74162E-14-1.03164E-13
 -1       947 1.88888E+01 4.36801E-01-1.17748E-05 2.67791E-01-7.63922E-14-1.39032E-13
 -1       948 1.87208E+01 5.01593E-01-3.05249E-05 3.68909E-01-5.65321E-14-2.02820E-13
 -1       949 1.85378E+01 5.60348E-01-4.84702E-05 4.93817E-01-2.67030E-14-9.80068E-14
 -1       950 1.83441E+01 5.92716E-01-6.85658E-05 6.50356E-01 4.76722E-16-8.14932E-14
 -1       951 1.81486E+01 5.72921E-01-8.71619E-05 8.47877E-01 1.21929E-14-7.45820E-14
 -1       952 1.79696E+01 4.67331E-01-1.10776E-04 1.09820E+00-2.38157E-14 4.14268E-14
 -1       953 1.78413E+01 2.31212E-01-9.72695E-05 1.41454E+00-1.66176E-14 4.77463E-14
 -1       954 1.78271E+01-1.93307E-01 3.51023E-04 1.80638E+00 8.25532E-14 1.36747E-13
 -1       955 1.80338E+01-8.68782E-01-7.18536E-04 2.24890E+00 7.59228E-14 1.77403E-13
 -1       956 1.86753E+01-1.88576E+00 7.19394E-03 2.68246E+00 1.43203E-13 3.07851E-13
 -1       957 1.70108E+01 8.55982E-01-2.18682E-03-1.94007E+00 5.40814E-14-6.64497E-14
 -1       958 1.96761E+01 1.23269E+00-2.61261E-04 3.63846E-02 1.15806E-13-2.77482E-13
 -1       959 1.89786E+01 6.95263E-01-4.29330E-06-9.04131E-01 7.44685E-14 1.59812E-15
 -1       960 3.04833E+01 2.27297E+00 1.48104E-01-4.80463E+00 1.87050E-11-8.14962E-12
 -1       961 3.17059E+01 4.89031E+00 5.36610E-01-2.73463E+00 1.78664E-11-1.98555E-11
 -1       962 2.87172E+01 3.48761E+00 3.36876E+00-4.35763E+00-1.27784E-12-2.71480E-11
 -1       963 1.88989E+01 4.92615E-01-3.15832E-04-1.23869E+00-1.32170E-13 5.34090E-14
 -1       964 1.90439E+01 6.16339E-01-3.17771E-04-9.69829E-01 2.23816E-14-1.58141E-13
 -1       965 1.92024E+01 6.53621E-01-1.64881E-04-7.59948E-01 1.01677E-15-3.06332E-13
 -1       966 1.93560E+01 6.34263E-01-9.96114E-05-5.94607E-01 2.35461E-14-4.31492E-13
 -1       967 1.94947E+01 5.81897E-01-5.55048E-05-4.63721E-01 3.40933E-13-5.08626E-13
 -1       968 1.96148E+01 5.12437E-01-7.83964E-05-3.59542E-01 4.61639E-13-1.35668E-13
 -1       969 1.97147E+01 4.38002E-01-1.30870E-04-2.77024E-01-4.58900E-14-2.11295E-13
 -1       970 1.97962E+01 3.66002E-01-6.12570E-06-2.11480E-01-2.73071E-13-3.61348E-13
 -1       971 1.46560E+01 2.96799E-01 2.27486E-02-2.89987E+00 1.86235E-13-2.95107E-13
 -1       972 1.97333E+01 5.52339E-01 2.04879E-04-2.93629E-01 7.07784E-14-2.02432E-13
 -1       973 1.75852E+01 9.85052E-01-8.83306E-04-1.59153E+00 6.95543E-16-1.95985E-14
 -1       974 1.80540E+01 9.91821E-01-1.12955E-04-1.34931E+00-7.74005E-14-3.52087E-14
 -1       975 1.63349E+01 5.39457E-01 4.13847E-03-2.47808E+00 1.34911E-14-1.78035E-13
 -1       976 1.81182E+01 1.09559E+00-1.46327E-04 1.12540E+00 7.59172E-14-7.78773E-14
 -1       977 1.85712E+01 1.05037E+00-2.94077E-05 9.27104E-01-1.33888E-14-6.83552E-14
 -1       978 1.89273E+01 9.56976E-01-2.40264E-05 7.69728E-01-1.25878E-13-1.04464E-13
 -1       979 1.92051E+01 8.40691E-01-4.53794E-05 6.37025E-01-2.69683E-13-1.10301E-14
 -1       980 1.94196E+01 7.18253E-01 6.37251E-06 5.22409E-01-2.09604E-13-6.61329E-14
 -1       981 1.95833E+01 6.00184E-01-5.67729E-06 4.22894E-01-3.09923E-13 2.24339E-13
 -1       982 1.97072E+01 4.92496E-01-4.13458E-05 3.37865E-01-1.42224E-13 3.63059E-13
 -1       983 1.97991E+01 3.98128E-01-2.23999E-04 2.65162E-01-1.32654E-13 1.64344E-13
 -1       984 1.60752E+01 4.10728E-01 1.05953E-02 2.47301E+00-4.99219E-14 3.77789E-14
 -1       985 1.97550E+01 6.59268E-01-4.73771E-04-9.43468E-02 1.42879E-13-1.79978E-13
 -1       986 1.96962E+01 4.16346E-01 2.24531E-05-4.00874E-01 6.42897E-14-1.31650E-13
 -1       987 1.68896E+01 8.54628E-01-4.28146E-04 1.81280E+00-9.40983E-14-1.08750E-14
 -1       988 1.95556E+01 3.51667E-01 2.85761E-05-5.64361E-01 4.90387E-14-1.33007E-13
 -1       989 1.94311E+01 1.61301E+00-3.19543E-04-3.90571E-01-5.13223E-14-3.60498E-13
 -1       990 1.75665E+01 1.04975E+00-1.90154E-04 1.40157E+00-6.74342E-14 3.36461E-14
 -1       991 1.98879E+01 2.79146E-01-4.30090E-05-1.82511E-01-3.60293E-15-4.47818E-13
 -1       992 1.96359E+01 3.55283E-01 8.64693E-05-4.88150E-01 7.30709E-14-1.38694E-13
 -1       993 1.26414E+01 1.01731E+00 2.46176E-02-4.66123E-01 2.51079E-13-2.43762E-13
 -1       994 1.94995E+01 1.46644E+00 4.94163E-04-2.76151E-01 1.18037E-14-3.24360E-13
 -1       995 2.32897E+01 4.19193E+00 1.31171E+00-8.33261E+00 2.07456E-11-8.58855E-12
 -1       996 1.94911E+01 7.93918E-01-3.02492E-05-2.47449E-01-8.44306E-14-1.73111E-13
 -1       997 1.97421E+01 7.92313E-01 8.00277E-04-1.34800E-01 8.60419E-14-2.15710E-13
 -1       998 1.97489E+01 3.97376E-01 6.99616E-05-1.12410E-01-5.09298E-14-4.18393E-13
 -1       999 1.96966E+01 9.72781E-01 3.90872E-04-1.33894E-01 7.16069E-14-2.71555E-13
 -1      1000 1.87361E+01 8.16412E-01-6.49739E-06-1.02349E+00 1.93693E-14 4.35959E-14
 -1      1001 1.32173E+01 1.37844E-01 2.14951E-02 2.35768E+00 2.69358E-13 9.87838E-14
 -1      1002 1.94542E+01 3.94302E-01-5.02430E-05-6.37789E-01 6.88320E-14-2.00731E-13
 -1      1003 1.48637E+01 9.09371E-01 1.04452E-02-1.88285E+00 1.09370E-13-2.04751E-13
 -1      1004 1.97229E+01 4.19315E-01 3.62158E-05-1.71845E-02-1.29108E-13-7.69254E-13
 -1      1005 1.91729E+01 5.75947E-01-6.03184E-05-8.03421E-01-2.81714E-14-6.36219E-14
 -1      1006 2.67887E+01 3.07245E+00 5.70957E-01-5.91456E+00 1.74840E-11-7.55904E-12
 -1      1007 1.97363E+01 4.15117E-01 1.68424E-04 8.25020E-02-1.82399E-13-6.30230E-13
 -1      1008 1.96432E+01 1.06683E+00 1.21291E-04-1.76130E-01 3.31592E-14-2.76502E-13
 -1      1009 2.13029E+01-3.06303E+00 2.61508E-02 1.74422E+00 3.09149E-13 6.18774E-13
 -1      1010 1.97505E+01 4.17405E-01 1.36152E-04 1.74710E-01-1.65085E-13 1.28789E-13
 -1      1011 1.37247E+01 1.14785E+00 1.70383E-02 1.83890E-01 9.75702E-14-1.98802E-13
 -1      1012 1.84322E+01 9.23415E-01-5.92117E-05-1.16759E+00-7.68090E-14 6.83358E-14
 -1      1013 1.94966E+01 1.15107E+00-5.59353E-04-3.42081E-01-8.03514E-14-2.26467E-13
 -1      1014 1.44253E+01 1.19724E+00 7.47114E-03-4.26480E-01 1.43602E-13-1.88011E-13
 -1      1015 1.66869E+01-1.08074E+00 1.37168E-02 3.03732E+00 1.50609E-13 2.22903E-13
 -1      1016 1.94017E+01 4.44525E-01-3.13398E-05-8.61691E-02-6.47336E-14-2.46549E-13
 -1      1017 1.92851E+01 4.06025E-01 3.86148E-06-3.44307E-02-4.47500E-14-2.01431E-13
 -1      1018 1.91408E+01 4.20209E-01-3.35343E-06 1.82629E-02-4.89936E-14-1.67491E-13
 -1      1019 1.89703E+01 4.72404E-01-1.74636E-05 7.78168E-02-8.65681E-14-1.34850E-13
 -1      1020 1.87724E+01 5.48896E-01-1.55384E-05 1.50597E-01-4.57828E-14-8.84296E-14
 -1      1021 1.85464E+01 6.33443E-01-1.08838E-04 2.43095E-01 4.87933E-14-2.45306E-14
 -1      1022 1.82892E+01 7.10864E-01-1.95906E-04 3.64786E-01-8.85887E-15-7.68106E-14
 -1      1023 1.80008E+01 7.59498E-01-2.41701E-04 5.26130E-01 3.39198E-14-5.63313E-14
 -1      1024 1.76813E+01 7.54357E-01-3.64569E-04 7.43336E-01 2.07236E-14 1.63711E-15
 -1      1025 1.73369E+01 6.61368E-01-5.95657E-04 1.04052E+00 2.80747E-14 7.57391E-14
 -1      1026 1.69864E+01 4.32606E-01-5.11490E-04 1.45054E+00 1.14872E-13 1.94034E-13
 -1      1027 1.66683E+01-3.99551E-03-2.08679E-04 2.03184E+00 1.11201E-13 1.49948E-13
 -1      1028 1.97066E+01 6.75712E-01-3.60902E-04-2.57941E-01 2.48542E-14-2.06947E-13
 -1      1029 1.96705E+01 5.08743E-01-1.32678E-05-3.44100E-01 4.49150E-14-1.68005E-13
 -1      1030 2.56845E+01 5.15665E+00 2.72805E-01-3.80752E+00 1.36714E-11-8.75088E-12
 -1      1031 2.46265E+01 5.05451E+00 7.42970E-01-3.86011E+00 2.54587E-12-1.03066E-11
 -1      1032 2.13704E+01 3.64574E-01 7.89432E-01-8.20495E-01-1.76512E-12-1.41755E-12
 -1      1033 1.86022E+01 7.79518E-01-5.20529E-04-8.89538E-01-1.93458E-13 1.24120E-14
 -1      1034 1.88666E+01 7.95884E-01-1.10188E-04-6.70755E-01 7.46783E-15 1.00533E-13
 -1      1035 1.90995E+01 7.58012E-01-3.13924E-05-5.06978E-01-1.65180E-13 2.92943E-14
 -1      1036 1.92981E+01 6.89466E-01-4.57153E-05-3.84575E-01 1.97182E-13-1.00422E-13
 -1      1037 1.94644E+01 6.05307E-01-1.27422E-04-2.90700E-01 4.10182E-13-4.43759E-13
 -1      1038 1.96001E+01 5.16704E-01-3.38687E-04-2.20548E-01 3.53775E-15-5.50964E-13
 -1      1039 1.96789E+01 4.56986E-01 4.73076E-05-1.60004E-01-2.33860E-13-4.13902E-13
 -1      1040 1.95439E+01 1.07332E+00 3.23511E-04-2.72019E-01-4.21303E-14-2.73543E-13
 -1      1041 1.84269E+01 1.10618E+00-1.14283E-04 4.96460E-01 9.34985E-15-1.48036E-13
 -1      1042 1.59923E+01 1.11084E+00 3.28584E-03-1.45526E+00 8.49822E-14-6.28199E-14
 -1      1043 1.71977E+01 1.16634E+00 1.62942E-04-9.74965E-01-4.00240E-14-1.17474E-13
 -1      1044 1.88141E+01 9.86499E-01-2.30988E-04 4.30234E-01-3.11579E-13 1.23624E-13
 -1      1045 1.79225E+01 1.20565E+00 7.26544E-05 5.69843E-01 2.87640E-14-2.45939E-13
 -1      1046 1.91152E+01 8.55597E-01-1.15208E-05 3.68662E-01-2.07882E-13 2.39842E-13
 -1      1047 1.93474E+01 7.26263E-01 3.60703E-05 3.10335E-01-3.51712E-13 2.62698E-13
 -1      1048 1.95249E+01 6.05251E-01-9.33822E-05 2.55791E-01-3.69327E-13 1.50808E-13
 -1      1049 1.96511E+01 5.05733E-01-1.64499E-05 2.13054E-01 1.06238E-14 5.39085E-14
 -1      1050 1.53030E+01 1.06471E+00 6.09449E-03 1.30754E+00-5.67467E-14 1.00716E-13
 -1      1051 1.33636E+01 8.98634E-01 1.65431E-02 8.91278E-01 2.21554E-13-1.01204E-14
 -1      1052 1.93286E+01 4.72371E-01-6.50497E-05-7.15858E-01-4.18883E-14-1.44923E-13
 -1      1053 1.66551E+01 1.17468E+00 2.04100E-03-1.16944E+00 2.63453E-14-1.58049E-13
 -1      1054 1.95884E+01 1.10497E+00-2.15615E-05-2.24671E-01 3.18285E-15-2.88661E-13
 -1      1055 1.94859E+01 5.52539E-01-5.67364E-05-1.42855E-01-9.85466E-14-2.45685E-13
 -1      1056 1.95323E+01 7.45759E-01-4.31806E-06-2.08618E-01-5.54758E-14-2.42994E-13
 -1      1057 1.77674E+01 1.08516E+00-2.19684E-04-8.68753E-01-6.04692E-14-3.72634E-14
 -1      1058 1.77115E+01 4.33252E+00 1.63082E+00-4.41483E+00 1.23385E-11-2.00310E-12
 -1      1059 1.95999E+01 4.23179E-01 2.97737E-04-4.10439E-01 2.73861E-14-1.25440E-13
 -1      1060 1.85633E+01 8.36646E-01-5.78860E-05-7.17500E-01-3.80929E-14-7.58749E-14
 -1      1061 1.96351E+01 4.89779E-01-2.18537E-04-4.77248E-02 4.10182E-14-8.91328E-13
 -1      1062 1.88429E+01 7.05442E-01-4.81491E-05-6.54625E-01-2.09679E-14-1.48071E-13
 -1      1063 1.72750E+01 1.25852E+00-8.81724E-06 6.72816E-01 3.80220E-14-1.95489E-13
 -1      1064 2.21416E+01 5.95386E+00 8.21122E-01-5.03507E+00 1.63099E-11-3.61509E-12
 -1      1065 1.96418E+01 4.93757E-01 2.66255E-04 7.60504E-02-3.28075E-14-5.22026E-13
 -1      1066 1.94107E+01 4.22274E-01-5.79190E-05-4.98544E-01 7.22134E-14-1.08779E-13
 -1      1067 1.95160E+01 4.01669E-01-1.67511E-04-4.55775E-01 6.67547E-14-1.12980E-13
 -1      1068 1.64090E+01 1.24590E+00-2.29068E-04 8.29429E-01-1.26849E-13-4.67218E-14
 -1      1069 1.82107E+01 9.69152E-01-1.76149E-04-7.86853E-01-1.79516E-15-2.67642E-14
 -1      1070 1.95645E+01 6.81266E-01 2.10576E-05-2.11089E-01-7.57844E-14-2.49402E-13
 -1      1071 1.95030E+01 5.25128E-01 5.87877E-05-1.86361E-01-3.73397E-14-1.90698E-13
 -1      1072 1.92630E+01 4.42024E-01 1.03211E-05-1.38636E-01-4.00293E-14-1.55885E-13
 -1      1073 1.90927E+01 4.83233E-01-3.83913E-05-1.08571E-01-6.33682E-14-1.62368E-13
 -1      1074 1.88895E+01 5.59265E-01-7.03927E-05-6.98610E-02-7.64668E-14-7.31460E-14
 -1      1075 1.86476E+01 6.60046E-01 6.73449E-04-1.46339E-02 3.77518E-15-6.24001E-14
 -1      1076 1.83593E+01 7.68572E-01 4.90123E-04 5.95419E-02 3.68705E-14-1.20610E-13
 -1      1077 1.80225E+01 8.67460E-01 3.58044E-04 1.61886E-01 2.81161E-14-3.35717E-14
 -1      1078 1.76233E+01 9.41113E-01 3.84171E-04 3.08635E-01 2.43017E-14-5.76400E-14
 -1      1079 1.71455E+01 9.65737E-01-1.96402E-04 5.17911E-01 6.01451E-14-9.19351E-15
 -1      1080 1.65675E+01 9.13356E-01-1.55537E-03 8.18397E-01 9.59729E-14-1.90805E-14
 -1      1081 1.59102E+01 7.37473E-01 3.55690E-03 1.24890E+00 5.21866E-14 3.26076E-14
 -1      1082 1.91436E+01 8.17524E-01 8.47717E-05 1.28780E-01-3.25822E-13-6.23214E-14
 -1      1083 1.92599E+01 4.86131E-01 1.75356E-04-5.49516E-01 3.97569E-14-9.27555E-14
 -1      1084 1.96470E+01 7.61498E-01 3.93613E-04-2.40321E-01-7.95861E-15-2.37627E-13
 -1      1085 2.11695E+01 6.07556E+00 6.62730E-01-3.94738E+00 6.61829E-12-2.80567E-12
 -1      1086 2.14536E+01 2.91246E+00 7.13000E-01-2.31672E+00-4.72166E-14-5.96627E-13
 -1      1087 1.94264E+01 1.04458E+00 3.84155E-01-7.58065E-01-2.43423E-13 6.42125E-13
 -1      1088 1.85697E+01 9.30344E-01 1.21975E-03-5.26473E-01-1.92371E-13 3.45642E-13
 -1      1089 1.88807E+01 8.67273E-01 3.41363E-05-3.74432E-01-1.21203E-13 5.63839E-14
 -1      1090 1.91346E+01 7.80509E-01-3.98080E-05-2.69725E-01-1.03368E-13-1.57789E-13
 -1      1091 1.93413E+01 6.83613E-01 7.15208E-04-1.97085E-01 8.39552E-14-5.93291E-13
 -1      1092 1.95055E+01 5.83184E-01 2.55078E-04-1.43630E-01 2.25624E-13-7.90629E-13
 -1      1093 1.95764E+01 5.36760E-01 1.14313E-03-9.03270E-02 2.20286E-14-8.66756E-13
 -1      1094 1.56575E+01 1.27414E+00-1.22178E-05-3.72358E-01 7.34722E-14-1.47195E-13
 -1      1095 1.85039E+01 1.06641E+00 6.06282E-04 1.08415E-01-2.71953E-13 1.36370E-13
 -1      1096 1.80215E+01 1.18260E+00 3.97163E-03 7.04011E-02-2.01081E-13-2.08278E-13
 -1      1097 1.93579E+01 6.97278E-01 1.61046E-04 1.18487E-01-3.97087E-13-1.13783E-13
 -1      1098 1.47595E+01 9.94279E-01-6.38136E-03 7.85244E-01 1.28413E-13 2.36539E-14
 -1      1099 1.96100E+01 5.72910E-01-3.40385E-05-2.78847E-01-4.98732E-15-2.09076E-13
 -1      1100 1.54516E+01 1.27653E+00 5.72977E-03-7.75690E-04-4.48295E-14-1.28874E-13
 -1      1101 1.94003E+01 4.51288E-01 2.48488E-06-1.63533E-01-1.76564E-15-1.33006E-13
 -1      1102 1.90707E+01 5.85320E-01 5.29771E-05-5.99500E-01-6.66248E-14-1.36666E-13
 -1      1103 1.48292E+01 5.30440E-01 1.04110E-02 1.71074E+00 1.36413E-13 3.13914E-14
 -1      1104 1.88610E+01 9.44595E-01 6.59954E-05 1.28243E-01-3.47919E-13-3.47088E-14
 -1      1105 1.71837E+01 1.16865E+00 1.26970E-05-3.89367E-01 2.61727E-14-1.00321E-13
 -1      1106 1.95924E+01 8.64227E-01-2.70938E-04-2.31157E-01-4.44461E-14-2.47100E-13
 -1      1107 1.74035E+01 4.28386E+00 1.22680E+00-2.32065E+00 4.02983E-12 3.74457E-13
 -1      1108 1.66165E+01 1.27813E+00-1.25540E-03-5.73833E-02 2.71844E-14-1.65678E-13
 -1      1109 1.95604E+01 5.52062E-01-3.38836E-04 5.00678E-02-1.13750E-13-5.69880E-13
 -1      1110 1.85227E+01 8.01217E-01-5.03758E-04-4.23324E-01-3.55687E-14-1.69827E-14
 -1      1111 1.74236E+01 1.24648E+00-2.06788E-04 2.58964E-02 3.47404E-14-6.82217E-14
 -1      1112 1.95291E+01 4.70308E-01-2.24115E-04-3.05522E-01 2.57705E-14-2.02544E-13
 -1      1113 1.77352E+01 1.06266E+00-4.94318E-04-4.15502E-01-1.33170E-14-6.72587E-14
 -1      1114 1.93925E+01 4.40100E-01 1.16356E-04-3.61235E-01 5.86584E-14-1.67985E-13
 -1      1115 1.65291E+01 1.23856E+00 2.18868E-04-3.72419E-01 6.83111E-14-7.16674E-14
 -1      1116 1.92319E+01 4.83005E-01-4.36484E-04-3.83059E-01-1.87905E-14-1.13174E-13
 -1      1117 1.81716E+01 9.36117E-01-3.64578E-04-4.25425E-01 6.92071E-15-1.13429E-13
 -1      1118 1.87024E+01 9.62745E-01-1.38204E-03-1.80718E-01-2.63241E-13 3.24587E-14
 -1      1119 1.90479E+01 5.40552E-01 4.11472E-04-2.70855E-01-2.43227E-14 4.02831E-15
 -1      1120 1.88152E+01 6.38961E-01-3.86870E-04-2.60275E-01-2.27435E-14 5.87215E-14
 -1      1121 1.78646E+01 2.11822E+00 3.20008E-01-8.00002E-01-1.87350E-15-9.18016E-14
 -1      1122 1.90080E+01 8.57882E-01 1.91189E-04-1.10404E-01-2.58003E-13-8.08075E-14
 -1      1123 1.92450E+01 7.41198E-01-1.80265E-03-6.55904E-02-2.29869E-13-2.73177E-13
 -1      1124 1.79515E+01 3.39165E+00 8.71675E-01-1.80816E+00 1.43444E-12 7.35290E-14
 -1      1125 1.93929E+01 4.47341E-01-1.48325E-04-2.70090E-01 3.60614E-15-1.73382E-13
 -1      1126 1.92412E+01 4.69296E-01 6.66546E-05-2.73109E-01-3.36132E-14-7.37453E-14
 -1      1127 2.70611E+01 8.79821E+00 2.26612E+00-6.53620E+00-4.50751E-14 1.55692E-12
 -1      1128 1.97607E+01 5.98663E+00 1.94728E-01-3.86258E+00-2.54796E-14 2.48551E-13
 -1      1129 1.86558E+01 5.61655E+00 6.60323E-02-2.90992E+00-1.82770E-14-3.16991E-13
 -1      1130 1.82584E+01 5.49356E+00 5.34959E-02-2.30329E+00-1.22055E-14-5.83402E-13
 -1      1131 1.80896E+01 5.44252E+00 5.21260E-02-1.80763E+00-8.30933E-15-7.10192E-13
 -1      1132 1.80185E+01 5.42090E+00 5.11386E-02-1.37215E+00-5.03937E-15-7.57681E-13
 -1      1133 1.79953E+01 5.41365E+00 5.01392E-02-9.69763E-01-2.48282E-15-7.79020E-13
 -1      1134 1.79992E+01 5.41466E+00 4.96055E-02-5.82027E-01-4.63388E-16-7.77563E-13
 -1      1135 1.80207E+01 5.42122E+00 4.99695E-02-2.00588E-01 6.08021E-16-7.78426E-13
 -1      1136 1.80556E+01 5.43207E+00 5.13239E-02 1.85322E-01 3.07480E-15-7.73194E-13
 -1      1137 1.81038E+01 5.44723E+00 5.36572E-02 5.86615E-01 4.79738E-15-7.46617E-13
 -1      1138 1.81705E+01 5.46823E+00 5.69391E-02 1.01185E+00 8.24514E-15-6.93212E-13
 -1      1139 1.82705E+01 5.49927E+00 6.04074E-02 1.48052E+00 1.08594E-14-6.09201E-13
 -1      1140 1.84440E+01 5.55241E+00 6.40070E-02 2.02166E+00 1.42560E-14-4.42677E-13
 -1      1141 1.88007E+01 5.66260E+00 7.46472E-02 2.68302E+00 1.95954E-14-1.31865E-13
 -1      1142 1.97182E+01 5.96228E+00 1.55988E-01 3.62769E+00 2.13995E-14 4.76726E-13
 -1      1143 2.41312E+01 7.64612E+00 1.35572E+00 5.54106E+00 4.94049E-14 1.75368E-12
 -1      1144 2.79328E+01 3.53194E+00 1.26267E+00-4.11770E+00-1.90931E-13 2.39353E-12
 -1      1145 1.94712E+01-1.70998E-01-5.94757E-01-1.15825E-01-6.62526E-14 1.93770E-12
 -1      1146 1.80155E+01-9.43296E-02-2.31567E-01 5.77599E-02-2.09138E-14 1.30765E-12
 -1      1147 1.76136E+01-4.77883E-02-5.99132E-02 3.75162E-02-6.50435E-15 9.03784E-13
 -1      1148 1.74956E+01-2.51391E-02-1.65134E-02 2.46151E-02-7.71301E-15 6.17648E-13
 -1      1149 1.75222E+01-1.41723E-02-6.64557E-03 1.73356E-02-4.54064E-15 4.47573E-13
 -1      1150 1.76249E+01-8.28896E-03-3.59932E-03 1.27150E-02-8.69042E-15 2.75393E-13
 -1      1151 1.77681E+01-5.13124E-03-2.19782E-03 9.59801E-03-7.72738E-15 1.60641E-13
 -1      1152 1.79341E+01-3.60065E-03-1.70245E-03 7.43667E-03-4.05302E-15-9.75262E-15
 -1      1153 1.81161E+01-3.10621E-03-1.96004E-03 5.99091E-03-8.89208E-16-1.62924E-13
 -1      1154 1.83143E+01-3.28590E-03-2.80955E-03 5.16563E-03-5.84802E-15-3.49677E-13
 -1      1155 1.85340E+01-3.87273E-03-4.05413E-03 4.93450E-03 1.09212E-15-3.32104E-13
 -1      1156 1.87833E+01-4.62002E-03-5.45522E-03 5.30131E-03-1.57370E-14-5.16672E-13
 -1      1157 1.90714E+01-5.24870E-03-6.69454E-03 6.26960E-03-2.26577E-15-6.23902E-13
 -1      1158 1.94067E+01-5.40367E-03-7.31510E-03 7.80333E-03-5.92489E-15-6.32926E-13
 -1      1159 1.97927E+01-4.62063E-03-6.65773E-03 9.76409E-03-2.78614E-14-6.00697E-13
 -1      1160 2.02243E+01-2.32189E-03-3.82633E-03 1.18131E-02-2.08833E-14-7.63518E-13
 -1      1161 2.06813E+01 2.11650E-03 2.24314E-03 1.32757E-02-2.36909E-14-9.05640E-13
 -1      1162 2.11214E+01 9.15523E-03 1.24710E-02 1.30021E-02-1.32458E-14-9.75870E-13
 -1      1163 2.14741E+01 1.86462E-02 2.69012E-02 9.32811E-03 4.06576E-16-1.18846E-12
 -1      1164 2.16405E+01 2.91384E-02 4.34550E-02 3.76632E-04-2.37193E-14-1.31580E-12
 -1      1165 2.15074E+01 3.70993E-02 5.65967E-02-1.50042E-02-1.85702E-14-1.55458E-12
 -1      1166 2.09847E+01 3.69007E-02 5.72144E-02-3.55168E-02-3.16106E-14-1.75725E-12
 -1      1167 2.00682E+01 2.25130E-02 3.58208E-02-5.56030E-02-4.60860E-14-2.26995E-12
 -1      1168 1.89060E+01-7.91901E-03-9.83775E-03-6.55432E-02 2.05481E-14-2.67556E-12
 -1      1169 1.78181E+01-4.69339E-02-6.72392E-02-5.58568E-02-1.21465E-14-3.02081E-12
 -1      1170 1.72128E+01-7.82036E-02-1.10473E-01-2.49520E-02-3.63954E-14-3.79964E-12
 -1      1171 1.74055E+01-8.51833E-02-1.15543E-01 1.54500E-02 6.31613E-15-4.69630E-12
 -1      1172 1.84369E+01-6.60373E-02-8.45954E-02 4.39009E-02 2.37874E-14-5.26861E-12
 -1      1173 2.00623E+01-3.96762E-02-6.53919E-02 4.77401E-02 3.77337E-14-5.47555E-12
 -1      1174 2.20446E+01-4.03071E-02-1.34178E-01 5.29766E-02-5.48867E-15-5.28994E-12
 -1      1175 2.47621E+01-9.72719E-02-2.73085E-01 1.56092E-01-5.02133E-14-4.56496E-12
 -1      1176 2.88808E+01-8.09692E-02-7.87102E-02 2.68097E-01-6.06667E-14-2.66998E-12
 -1      1177 3.20307E+01 3.80179E-01 3.93084E-01-6.05767E-02 3.90972E-13-8.30447E-14
 -1      1178 2.94965E+01 3.12977E-01-2.43829E-01-6.31287E-01 1.19545E-12 1.58162E-12
 -1      1179 2.50855E+01-4.79296E-01-9.70703E-01-1.13820E-01 5.19758E-13 1.86590E-12
 -1      1180 2.68699E+01 2.68201E-01 8.13309E-01 6.21319E-01-1.48352E-12 1.82504E-12
 -1      1181 2.19732E+01-1.30108E-03-2.49486E-03-1.13961E-02-4.28346E-15-8.07156E-13
 -1      1182 2.15602E+01-4.43310E-03-6.53279E-03-9.38823E-03 4.62508E-14-6.78301E-13
 -1      1183 2.11919E+01-5.89054E-03-8.17103E-03-7.19604E-03 5.55693E-14-5.14250E-13
 -1      1184 2.08801E+01-6.23813E-03-8.32030E-03-5.20325E-03-3.45856E-14-2.70300E-13
 -1      1185 2.06264E+01-5.92771E-03-7.65682E-03-3.56339E-03-1.74080E-15-3.15724E-13
 -1      1186 2.04266E+01-5.28511E-03-6.63685E-03-2.30080E-03-1.57106E-14-7.96719E-13
 -1      1187 2.02738E+01-4.52926E-03-5.55122E-03-1.37421E-03 4.03408E-14-6.73626E-13
 -1      1188 2.01605E+01-3.79854E-03-4.58217E-03-7.10338E-04 7.34969E-14-2.53613E-14
 -1      1189 2.00799E+01-3.17242E-03-3.84343E-03-2.14141E-04-9.52423E-15 5.74075E-13
 -1      1190 2.00266E+01-2.67813E-03-3.36306E-03 2.39312E-04-1.76732E-14 5.63738E-13
 -1      1191 1.99969E+01-2.22700E-03-2.91992E-03 8.18931E-04-1.09986E-14 7.33348E-13
 -1      1192 1.99895E+01-1.91990E-03-1.43429E-03 1.83232E-03 3.12313E-14 5.34649E-13
 -1      1193 1.99965E+01 1.23681E-03 2.90913E-03 1.12476E-03 9.77525E-14 5.49083E-13
 -1      1194 2.65077E+01 4.99962E-01 3.32019E-01 1.87085E+00-3.31575E-14 2.79921E-12
 -1      1195 1.92939E+01-6.38723E-02-5.50560E-01 1.20079E-01 1.68546E-14 2.25059E-12
 -1      1196 1.82760E+01-3.90939E-02-1.83439E-01 1.67204E-02 2.04160E-14 1.67812E-12
 -1      1197 1.80044E+01-2.08953E-02-4.75263E-02 5.24912E-04 5.13955E-15 1.32295E-12
 -1      1198 1.80211E+01-1.25605E-02-1.28543E-02-4.12776E-03 1.56320E-14 9.97882E-13
 -1      1199 1.81779E+01-8.14741E-03-5.25040E-03-5.02997E-03 1.22905E-15 7.93900E-13
 -1      1200 1.84052E+01-5.68344E-03-3.38596E-03-4.78264E-03 3.27635E-15 6.62130E-13
 -1      1201 1.86694E+01-4.41215E-03-2.72179E-03-4.09993E-03-9.21409E-16 5.73729E-13
 -1      1202 1.89547E+01-3.97798E-03-2.70634E-03-3.20175E-03 3.65783E-15 4.22377E-13
 -1      1203 1.92562E+01-4.19670E-03-3.36117E-03-2.19557E-03 1.55393E-15 3.69796E-13
 -1      1204 1.95768E+01-4.96307E-03-4.70199E-03-1.16459E-03 7.01744E-15 2.47788E-13
 -1      1205 1.99254E+01-6.20543E-03-6.71638E-03-1.97619E-04 1.12200E-14 1.73205E-13
 -1      1206 2.03155E+01-7.84651E-03-9.37407E-03 5.85905E-04 1.96422E-14 4.11034E-14
 -1      1207 2.07651E+01-9.75052E-03-1.25904E-02 1.00220E-03 1.63475E-14-1.18175E-13
 -1      1208 2.12951E+01-1.16383E-02-1.61247E-02 7.55784E-04-1.27613E-14-2.25271E-13
 -1      1209 2.19275E+01-1.29510E-02-1.93827E-02-6.19759E-04 1.66891E-15-2.11282E-13
 -1      1210 2.26811E+01-1.26515E-02-2.10715E-02-3.81272E-03-2.70842E-14-1.89942E-13
 -1      1211 2.35629E+01-8.99756E-03-1.86859E-02-9.70437E-03-1.63628E-15-2.16466E-13
 -1      1212 2.45529E+01 5.23729E-04-7.99977E-03-1.90724E-02 5.70972E-14-6.12288E-13
 -1      1213 2.55784E+01 1.85536E-02 1.67077E-02-3.16718E-02-2.56884E-14-7.08052E-13
 -1      1214 2.64791E+01 4.56746E-02 6.00101E-02-4.43141E-02-1.39576E-14-4.15577E-13
 -1      1215 2.69780E+01 7.58731E-02 1.18092E-01-4.83242E-02 1.43028E-15-3.63736E-13
 -1      1216 2.66995E+01 9.17699E-02 1.67380E-01-2.90671E-02-9.63899E-15-4.75980E-13
 -1      1217 2.53100E+01 6.74775E-02 1.60483E-01 2.61200E-02 1.22454E-14-6.72462E-13
 -1      1218 2.28335E+01-7.59628E-03 5.34852E-02 1.06729E-01 2.28680E-14-5.36543E-13
 -1      1219 1.99867E+01-9.65924E-02-1.30502E-01 1.65915E-01-3.30517E-14 2.73642E-13
 -1      1220 1.80767E+01-1.35533E-01-2.79509E-01 1.47759E-01-2.61006E-14 3.77878E-13
 -1      1221 1.82121E+01-9.63451E-02-2.82108E-01 4.72729E-02 1.80758E-14-2.43611E-13
 -1      1222 2.03940E+01-2.89835E-02-1.52174E-01-6.56545E-02-1.63966E-14-4.81837E-13
 -1      1223 2.35169E+01-1.45234E-02-5.28619E-03-1.08899E-01-1.05328E-14-5.65575E-13
 -1      1224 2.70071E+01 2.97893E-01 5.09202E-01-5.19101E-01 5.32213E-14-7.62113E-13
 -1      1225 2.65608E+01 4.46506E-02 1.33158E-01-8.30835E-02 4.14824E-14-9.49463E-13
 -1      1226 2.68111E+01 2.87997E-02 9.55031E-02-3.57646E-02-2.16979E-14-7.47167E-13
 -1      1227 2.62934E+01 1.41141E-02 4.99002E-02-2.11309E-03-1.17289E-14-3.51427E-13
 -1      1228 2.53896E+01 3.84283E-03 1.55696E-02 1.56538E-02-1.04517E-15-2.53585E-13
 -1      1229 2.43816E+01-2.19990E-03-4.24353E-03 2.19841E-02-2.43001E-14-1.26257E-13
 -1      1230 2.34309E+01-5.16688E-03-1.31170E-02 2.19607E-02 4.65893E-14-6.35429E-13
 -1      1231 2.26096E+01-6.20580E-03-1.55530E-02 1.91398E-02-7.61652E-16-5.97116E-13
 -1      1232 2.19365E+01-6.16877E-03-1.48201E-02 1.55188E-02 7.85570E-15-5.30565E-14
 -1      1233 2.14038E+01-5.60404E-03-1.28272E-02 1.20472E-02 2.03201E-15 1.05487E-13
 -1      1234 2.09926E+01-4.83522E-03-1.05446E-02 9.08821E-03-1.77731E-14 4.19581E-13
 -1      1235 2.06815E+01-4.04140E-03-8.40890E-03 6.71922E-03 2.84027E-14 3.24938E-13
 -1      1236 2.04501E+01-3.31702E-03-6.58833E-03 4.89681E-03-2.42094E-14 1.38136E-13
 -1      1237 2.02811E+01-2.71118E-03-5.13401E-03 3.53748E-03 7.11009E-14 1.73774E-13
 -1      1238 2.01603E+01-2.24798E-03-4.05726E-03 2.54910E-03-2.71978E-15 6.50026E-14
 -1      1239 2.00769E+01-1.92881E-03-3.35696E-03 1.83460E-03 8.80611E-14-5.08066E-13
 -1      1240 2.00233E+01-1.73425E-03-2.99326E-03 1.27569E-03 7.25835E-14-1.23640E-12
 -1      1241 1.99947E+01-1.50147E-03-2.64905E-03 6.32780E-04 3.78225E-14-1.05764E-12
 -1      1242 1.99884E+01-5.13507E-04-1.03421E-03-5.46232E-04 7.69062E-14-9.97962E-13
 -1      1243 1.99968E+01 1.07832E-03 3.10953E-03-1.08675E-03 5.89570E-15-6.50842E-13
 -1      1244 2.00008E+01-3.26631E-03 2.82421E-03-1.15316E-03-6.29076E-13-8.62158E-14
 -1      1245 1.99985E+01-1.08988E-02-1.55376E-03-1.65038E-03-1.02387E-12-5.94149E-14
 -1      1246 1.99981E+01-1.98890E-03-2.69412E-03-1.69838E-04-2.60325E-13 3.63113E-14
 -1      1247 1.99987E+01 2.66025E-02-1.94162E-03 8.24605E-04 4.67020E-13 7.59415E-14
 -1      1248 1.99996E+01 6.79143E-02-5.76022E-04 1.31043E-03 5.14612E-13 4.64302E-14
 -1      1249 2.00005E+01 1.12312E-01 7.79307E-04 1.36168E-03-7.06880E-14-3.70758E-14
 -1      1250 2.00013E+01 1.51270E-01 1.86167E-03 1.10625E-03 9.84880E-13 7.37183E-14
 -1      1251 2.00018E+01 1.77885E-01 2.55622E-03 6.11581E-04 1.32835E-12-3.13058E-14
 -1      1252 2.00019E+01 1.87131E-01 2.77525E-03 9.15374E-06 9.13097E-13-7.09122E-15
 -1      1253 2.00017E+01 1.77543E-01 2.50817E-03-5.86506E-04 1.03936E-12-1.45478E-14
 -1      1254 2.00012E+01 1.50920E-01 1.79195E-03-1.06294E-03 1.00334E-12-1.49054E-13
 -1      1255 2.00005E+01 1.12404E-01 7.33312E-04-1.32214E-03-1.70291E-13 1.75071E-13
 -1      1256 1.99996E+01 6.87959E-02-5.54988E-04-1.26290E-03-2.95142E-13 8.80191E-14
 -1      1257 1.99987E+01 2.81675E-02-1.85946E-03-8.27193E-04-5.25321E-13 3.62616E-14
 -1      1258 1.99983E+01-7.40916E-04-2.65963E-03 1.04470E-04-6.68402E-13 7.52565E-14
 -1      1259 1.99983E+01-8.79174E-03-1.18401E-03 2.50700E-03-8.21881E-13-6.85652E-14
 -1      1260 2.00008E+01-3.62629E-03 2.62084E-03 1.34190E-03-5.23084E-13 1.70287E-14
 -1      1261-1.18751E+00-2.38348E+01-3.71473E+00-2.37908E+00 1.09923E-12 2.65947E-13
 -1      1262-1.88592E+00-1.54509E+01-3.16137E+00-4.35001E+00 1.25711E-12 2.82052E-13
 -1      1263 2.39076E-01-3.22611E+00-2.15505E+00-3.94750E-01-5.03597E-13-8.03024E-13
 -1      1264 1.01907E+01 7.27057E+00-4.51855E-01 8.61598E+00-1.04872E-12-1.02895E-12
 -1      1265 2.80076E+01 1.07014E+01 1.40849E+00 1.66008E+01-6.27942E-13-9.75220E-13
 -1      1266 4.95693E+01 7.71459E+00 3.14627E+00 1.77559E+01-5.27189E-13-1.34537E-12
 -1      1267 6.65193E+01 3.19991E+00 4.36990E+00 9.29325E+00-2.56448E-13-2.00706E-12
 -1      1268 6.95564E+01 2.41464E+00 4.55792E+00-5.25703E+00 4.63699E-13-3.65380E-12
 -1      1269 5.63182E+01 6.62745E+00 3.67620E+00-1.69869E+01 1.92485E-12-5.68523E-12
 -1      1270 3.32604E+01 1.12824E+01 1.92093E+00-1.82964E+01 3.91709E-12-6.27964E-12
 -1      1271 1.26280E+01 9.66129E+00 8.27589E-04-1.08176E+01 5.71276E-12-5.79004E-12
 -1      1272 1.32385E+00-4.21965E-01-1.75724E+00-1.20833E+00 6.61649E-12-4.30345E-12
 -1      1273-1.62252E+00-1.41307E+01-3.00763E+00 3.79354E+00 5.97833E-12-2.21378E-12
 -1      1274-9.71236E-01-2.33106E+01-3.58607E+00 2.11313E+00 5.04752E-12-6.21173E-13
 -1      1275-9.90139E-01-2.35732E+01-3.51850E+00-2.43447E+00 3.82283E-12 3.66068E-13
 -1      1276-1.97878E+00-1.51253E+01-2.85205E+00-4.13125E+00 3.06521E-12 9.43023E-13
 -1      1277-3.26286E-02-3.36923E+00-1.74748E+00-6.56378E-01 2.14762E-12 1.27698E-12
 -1      1278 8.31049E+00 6.36142E+00-2.17090E-01 7.17769E+00 1.61204E-12 1.59939E-12
 -1      1279 2.38912E+01 9.23195E+00 1.27109E+00 1.40984E+01 1.54121E-12 2.40807E-12
 -1      1280 4.23712E+01 6.42912E+00 2.47384E+00 1.47793E+01 1.16768E-12 3.12994E-12
 -1      1281 5.69866E+01 2.31367E+00 3.14146E+00 6.79262E+00 4.82669E-13 3.77331E-12
 -1      1282 5.98543E+01 2.55380E+00 3.05085E+00-6.42701E+00-3.36078E-13 4.14624E-12
 -1      1283 4.98697E+01 7.52777E+00 2.08870E+00-1.68475E+01-6.36359E-13 2.65604E-12
 -1      1284 3.36135E+01 1.37172E+01 8.78558E-01-2.04116E+01 1.80841E-12-1.87161E-12
 -1      1285 1.78314E+01 1.65619E+01 9.70961E-02-1.65739E+01 1.02854E-11-9.43512E-12
 -1      1286 5.90206E+00 8.24413E+00-1.07873E+00-6.65858E+00 2.81450E-11-1.64952E-11
 -1      1287-1.82365E+00-2.97103E+01-8.72984E+00 8.47592E-01 6.81197E-11-1.20308E-11
 -1      1288-1.01477E+00-2.37736E+01-3.69479E+00 2.17156E+00-9.20042E-13 2.46247E-13
 -1      1289 2.14762E+01 1.77109E+00-7.05159E-01-2.74437E+00-7.09988E-14 1.27526E-12
 -1      1290 1.95547E+01 4.52514E+00-4.95346E-02-3.29805E+00-1.95371E-13-1.47660E-14
 -1      1291 2.00627E+01 4.65103E+00-1.13722E-01-4.11393E+00-2.52326E-13 2.77715E-13
 -1      1292 1.87372E+01 4.81014E+00-2.05941E-02-2.69360E+00-1.91680E-13-4.36446E-13
 -1      1293 1.90299E+01 4.90614E+00-2.57878E-03-3.05973E+00-2.17021E-13-2.55976E-13
 -1      1294 1.96978E+01 3.82583E+00-2.63747E-02-3.08648E+00-3.37896E-13-8.06299E-15
 -1      1295 1.84048E+01 4.89515E+00-4.46918E-03-2.14988E+00-1.53719E-13-6.42455E-13
 -1      1296 1.85454E+01 4.94797E+00 8.48801E-03-2.42317E+00-1.75894E-13-5.50601E-13
 -1      1297 1.89423E+01 4.21843E+00-2.41735E-02-2.54171E+00-2.98497E-13-3.56735E-13
 -1      1298 1.82507E+01 4.94141E+00 2.58226E-03-1.67885E+00-1.16294E-13-7.35847E-13
 -1      1299 1.83168E+01 4.96798E+00 1.09630E-02-1.91201E+00-1.30970E-13-6.95395E-13
 -1      1300 1.86013E+01 4.39899E+00-1.90593E-02-2.01990E+00-2.37079E-13-5.35124E-13
 -1      1301 1.81822E+01 4.97365E+00 6.01032E-03-1.26056E+00-7.45836E-14-7.79821E-13
 -1      1302 1.82115E+01 4.98606E+00 1.14249E-02-1.46773E+00-9.15735E-14-7.58818E-13
 -1      1303 1.84389E+01 4.50136E+00-1.54493E-02-1.56531E+00-1.71189E-13-6.15608E-13
 -1      1304 1.81588E+01 4.99767E+00 7.74731E-03-8.63527E-01-4.43699E-14-7.87663E-13
 -1      1305 1.81673E+01 5.00220E+00 1.09191E-02-1.06104E+00-5.52223E-14-7.85625E-13
 -1      1306 1.83639E+01 4.56658E+00-1.32928E-02-1.15258E+00-1.13647E-13-6.57245E-13
 -1      1307 1.81646E+01 5.01447E+00 9.00414E-03-4.81581E-01-3.37556E-15-7.83113E-13
 -1      1308 1.81593E+01 5.01377E+00 1.01156E-02-6.72771E-01-2.08620E-14-7.81276E-13
 -1      1309 1.83384E+01 4.60696E+00-1.22354E-02-7.62110E-01-5.67437E-14-6.51864E-13
 -1      1310 1.81906E+01 5.02420E+00 1.01413E-02-1.03306E-01 3.04444E-14-7.86465E-13
 -1      1311 1.81753E+01 5.01960E+00 9.35755E-03-2.93883E-01 2.20548E-14-7.85868E-13
 -1      1312 1.83457E+01 4.62677E+00-1.17842E-02-3.84236E-01 1.57979E-14-6.60770E-13
 -1      1313 1.82339E+01 5.02673E+00 1.13213E-02 2.81841E-01 6.09985E-14-7.75432E-13
 -1      1314 1.82095E+01 5.01856E+00 8.62798E-03 8.64615E-02 4.98560E-14-7.84376E-13
 -1      1315 1.83777E+01 4.62757E+00-1.17857E-02-7.80469E-03 6.70480E-14-6.57432E-13
 -1      1316 1.82959E+01 5.02156E+00 1.25287E-02 6.84853E-01 8.69244E-14-7.47437E-13
 -1      1317 1.82610E+01 5.00934E+00 7.78960E-03 4.78834E-01 7.88306E-14-7.68309E-13
 -1      1318 1.84324E+01 4.60862E+00-1.22380E-02 3.77735E-01 1.19220E-13-6.42281E-13
 -1      1319 1.83831E+01 5.00888E+00 1.36529E-02 1.11090E+00 1.25018E-13-6.89332E-13
 -1      1320 1.83333E+01 4.99042E+00 6.44615E-03 8.91228E-01 1.12778E-13-7.23827E-13
 -1      1321 1.85131E+01 4.56737E+00-1.31792E-02 7.79985E-01 1.64249E-13-6.07590E-13
 -1      1322 1.85186E+01 4.98764E+00 1.40379E-02 1.59180E+00 1.75459E-13-5.88928E-13
 -1      1323 1.84396E+01 4.95796E+00 3.66197E-03 1.34068E+00 1.54276E-13-6.47283E-13
 -1      1324 1.86327E+01 4.49670E+00-1.51687E-02 1.21556E+00 2.28586E-13-5.41060E-13
 -1      1325 1.87497E+01 4.95721E+00 1.21507E-02 2.14752E+00 2.16695E-13-4.09450E-13
 -1      1326 1.86117E+01 4.90472E+00-2.95955E-03 1.85115E+00 1.93274E-13-5.21146E-13
 -1      1327 1.88244E+01 4.38071E+00-1.86333E-02 1.70647E+00 2.98904E-13-4.33528E-13
 -1      1328 1.92093E+01 4.90986E+00 9.07379E-03 2.83193E+00 2.53159E-13-6.54130E-14
 -1      1329 1.89293E+01 4.80648E+00-1.75066E-02 2.44690E+00 2.21961E-13-2.69399E-13
 -1      1330 1.91679E+01 4.18114E+00-2.25400E-02 2.27306E+00 3.54022E-13-2.17035E-13
 -1      1331 2.03338E+01 4.70151E+00 1.03866E-02 3.79239E+00 2.17604E-13 5.96495E-13
 -1      1332 1.96397E+01 4.55023E+00-4.26853E-02 3.16636E+00 2.09777E-13 1.95247E-13
 -1      1333 1.98868E+01 3.75407E+00-1.98098E-02 2.92082E+00 3.73760E-13 1.70669E-13
 -1      1334 2.60218E+01 3.05230E+00 8.70791E-01 4.33017E+00 1.09343E-13 1.84214E-12
 -1      1335 2.11715E+01 3.37535E+00-1.71372E-01 3.64824E+00 1.08524E-13 9.74221E-13
 -1      1336 2.13027E+01 2.44709E+00-3.00754E-02 3.21302E+00 3.58193E-13 7.67081E-13
 -1      1337 2.05696E+01 3.41006E-01-7.30453E-01 1.08959E+00 1.91590E-13 1.77136E-12
 -1      1338 2.11844E+01 1.30896E-01-3.87964E-01-1.28985E+00-2.05821E-13 1.33529E-12
 -1      1339 1.98544E+01 3.00954E-01-1.61134E-01-8.18718E-01-1.89772E-13 1.09564E-12
 -1      1340 1.92482E+01 1.50645E-01-7.17902E-02-4.24120E-01-1.50154E-13 9.93116E-13
 -1      1341 1.87512E+01 9.04679E-02-1.51458E-02-3.52524E-01-1.38389E-13 7.69919E-13
 -1      1342 2.01180E+01 3.63665E-01-1.01237E-01-1.30380E+00-3.31360E-13 5.79422E-13
 -1      1343 1.83767E+01 6.41933E-02 2.64456E-03-1.59882E-01-1.04009E-13 6.87873E-13
 -1      1344 1.81924E+01 4.18368E-02 1.25651E-02-1.41678E-01-9.26915E-14 5.43586E-13
 -1      1345 1.90438E+01 1.33513E-01-3.44827E-02-5.48252E-01-2.44162E-13 4.26204E-13
 -1      1346 1.80123E+01 3.21486E-02 1.28312E-02-5.10733E-02-8.01490E-14 4.63758E-13
 -1      1347 1.79648E+01 2.05930E-02 1.07270E-02-4.11293E-02-7.57706E-14 3.50907E-13
 -1      1348 1.85296E+01 5.68225E-02-8.70728E-03-2.15151E-01-1.80593E-13 2.73189E-13
 -1      1349 1.78901E+01 1.72660E-02 8.64161E-03 5.18910E-03-4.84697E-14 3.09147E-13
 -1      1350 1.79086E+01 1.08482E-02 6.36490E-03 1.06268E-02-6.21304E-14 2.32569E-13
 -1      1351 1.82829E+01 2.65922E-02-3.89641E-03-5.19279E-02-1.28610E-13 1.76206E-13
 -1      1352 1.78935E+01 9.75076E-03 4.71899E-03 3.58935E-02-4.73061E-14 1.96100E-13
 -1      1353 1.79464E+01 5.90560E-03 3.73425E-03 3.88918E-02-5.08515E-14 1.40571E-13
 -1      1354 1.81928E+01 1.32501E-02-2.75951E-03 3.48286E-02-1.10165E-13 1.15272E-13
 -1      1355 1.79665E+01 5.81196E-03 2.58352E-03 5.33525E-02-4.00350E-14 1.22112E-13
 -1      1356 1.80380E+01 3.47706E-03 2.41270E-03 5.50951E-02-4.01313E-14 6.20181E-14
 -1      1357 1.81948E+01 6.86664E-03-2.05404E-03 8.33706E-02-6.93159E-14 6.83815E-14
 -1      1358 1.80802E+01 3.93677E-03 1.51290E-03 6.42711E-02-4.81440E-14 4.11476E-14
 -1      1359 1.81633E+01 2.57019E-03 1.72049E-03 6.55161E-02-5.03529E-14-4.08406E-14
 -1      1360 1.82530E+01 4.05398E-03-1.52947E-03 1.12445E-01-1.04465E-13 2.52835E-14
 -1      1361 1.82209E+01 3.38272E-03 9.29908E-04 7.27760E-02-5.21951E-14-7.96993E-14
 -1      1362 1.83132E+01 2.65478E-03 1.30997E-03 7.40447E-02-6.53901E-14-1.43258E-13
 -1      1363 1.83484E+01 3.39603E-03-1.25590E-03 1.32719E-01-9.74113E-14-2.24770E-14
 -1      1364 1.83837E+01 3.71514E-03 5.58741E-04 8.15807E-02-3.82664E-14-1.78219E-13
 -1      1365 1.84861E+01 3.38506E-03 1.03075E-03 8.32354E-02-1.77228E-14-1.98151E-13
 -1      1366 1.84720E+01 4.14555E-03-1.22853E-03 1.50899E-01-8.61221E-14-5.57759E-14
 -1      1367 1.85693E+01 4.62392E-03 2.75048E-04 9.24564E-02-3.95487E-14-2.57296E-13
 -1      1368 1.86847E+01 4.47825E-03 8.08716E-04 9.47298E-02-7.50740E-14-3.20432E-13
 -1      1369 1.86209E+01 5.80545E-03-1.39148E-03 1.71345E-01-8.59287E-14-1.27596E-13
 -1      1370 1.87821E+01 5.82674E-03 1.44480E-05 1.06382E-01-6.67518E-14-3.71032E-13
 -1      1371 1.89145E+01 5.64094E-03 5.95357E-04 1.09374E-01-4.99205E-14-4.30308E-13
 -1      1372 1.87965E+01 7.94082E-03-1.67209E-03 1.96680E-01-1.25902E-13-2.79220E-13
 -1      1373 1.90281E+01 6.99936E-03-2.60708E-04 1.23491E-01-3.95203E-15-4.39112E-13
 -1      1374 1.91814E+01 6.50871E-03 3.53677E-04 1.27134E-01-1.15359E-14-4.50745E-13
 -1      1375 1.90023E+01 1.00574E-02-1.98613E-03 2.27887E-01-6.32168E-14-3.17015E-13
 -1      1376 1.93129E+01 7.71136E-03-5.65657E-04 1.42849E-01 1.21597E-14-4.68685E-13
 -1      1377 1.94897E+01 6.58961E-03 6.14502E-05 1.46840E-01-2.22139E-14-4.66954E-13
 -1      1378 1.92418E+01 1.14943E-02-2.22787E-03 2.64020E-01-1.30222E-14-3.38507E-13
 -1      1379 1.96391E+01 7.36512E-03-8.81820E-04 1.62064E-01-4.92581E-14-4.31710E-13
 -1      1380 1.98385E+01 5.21994E-03-2.73310E-04 1.65770E-01-4.40467E-14-4.95709E-13
 -1      1381 1.95170E+01 1.13194E-02-2.25445E-03 3.01608E-01-2.53344E-14-3.04033E-13
 -1      1382 2.00029E+01 5.15639E-03-1.13406E-03 1.76795E-01-5.03004E-14-4.87012E-13
 -1      1383 2.02182E+01 1.56609E-03-5.86429E-04 1.79123E-01-5.58484E-14-5.56900E-13
 -1      1384 1.98253E+01 8.25459E-03-1.87061E-03 3.33805E-01-8.08865E-14-2.56230E-13
 -1      1385 2.03896E+01 1.08725E-04-1.16367E-03 1.80282E-01-4.48236E-14-5.63075E-13
 -1      1386 2.06054E+01-5.25517E-03-7.28945E-04 1.79585E-01-4.47912E-14-5.89594E-13
 -1      1387 2.01565E+01 7.11173E-04-8.23934E-04 3.49488E-01-6.99626E-14-2.33180E-13
 -1      1388 2.07692E+01-8.71403E-03-7.17458E-04 1.63308E-01-4.80744E-14-5.60772E-13
 -1      1389 2.09581E+01-1.58158E-02-4.62250E-04 1.57406E-01-4.91766E-14-6.51005E-13
 -1      1390 2.04894E+01-1.29006E-02 1.16720E-03 3.32870E-01-6.95633E-14-2.95972E-13
 -1      1391 2.10918E+01-2.16640E-02 4.98845E-04 1.15286E-01-8.26938E-14-7.08602E-13
 -1      1392 2.12134E+01-2.96381E-02 4.77807E-04 1.01845E-01-9.26915E-14-8.58602E-13
 -1      1393 2.07885E+01-3.33300E-02 4.31275E-03 2.64721E-01-1.40299E-13-3.36527E-13
 -1      1394 2.12875E+01-3.74886E-02 2.64775E-03 2.76084E-02-5.58572E-14-9.57234E-13
 -1      1395 2.12924E+01-4.40658E-02 2.17153E-03 5.15033E-03-1.25404E-13-1.04688E-12
 -1      1396 2.10030E+01-5.88967E-02 8.52404E-03 1.26995E-01-1.67119E-13-5.42261E-13
 -1      1397 2.12747E+01-5.20285E-02 5.40202E-03-9.98262E-02-2.89898E-14-1.03419E-12
 -1      1398 2.11168E+01-5.32446E-02 4.21479E-03-1.30091E-01-3.88144E-15-1.07145E-12
 -1      1399 2.10720E+01-8.33362E-02 1.30362E-02-8.71958E-02-7.46781E-14-6.64817E-13
 -1      1400 2.09833E+01-5.74475E-02 7.67677E-03-2.49583E-01-1.10532E-13-1.09182E-12
 -1      1401 2.06430E+01-4.84496E-02 5.48915E-03-2.81502E-01-1.62650E-13-1.26875E-12
 -1      1402 2.09380E+01-9.45586E-02 1.60053E-02-3.58244E-01-1.56380E-13-6.46046E-13
 -1      1403 2.03952E+01-4.39647E-02 7.68172E-03-3.79708E-01-1.99923E-13-1.29640E-12
 -1      1404 1.99087E+01-2.17546E-02 4.54530E-03-4.01260E-01-1.68301E-13-1.53728E-12
 -1      1405 2.05746E+01-7.67947E-02 1.46484E-02-6.24860E-01-2.88772E-13-7.24728E-13
 -1      1406 1.95912E+01-5.81627E-03 4.18200E-03-4.28486E-01-1.17710E-13-1.69968E-12
 -1      1407 1.90693E+01 2.65932E-02 8.62054E-04-4.24989E-01-1.08793E-13-1.82496E-12
 -1      1408 2.00221E+01-1.97834E-02 6.38445E-03-7.83381E-01-3.18363E-13-8.57706E-13
 -1      1409 1.87772E+01 5.00473E-02-1.85164E-03-3.40005E-01-1.52753E-13-2.04154E-12
 -1      1410 1.83897E+01 8.16586E-02-3.87799E-03-3.02869E-01-2.39219E-13-2.30171E-12
 -1      1411 1.94159E+01 6.82560E-02-8.42114E-03-7.20114E-01-3.37938E-13-1.20841E-12
 -1      1412 1.82463E+01 1.01553E-01-7.00996E-03-1.04073E-01-3.33922E-13-2.53226E-12
 -1      1413 1.81610E+01 1.17528E-01-6.36491E-03-3.97683E-02-2.71701E-13-2.88206E-12
 -1      1414 1.89754E+01 1.55720E-01-2.45241E-02-3.78181E-01-5.30468E-13-1.56604E-12
 -1      1415 1.82689E+01 1.21165E-01-7.78257E-03 2.18575E-01-2.42971E-13-3.15863E-12
 -1      1416 1.85702E+01 1.12903E-01-4.63824E-03 2.86932E-01-2.48780E-13-3.49655E-12
 -1      1417 1.89317E+01 1.97957E-01-3.50542E-02 1.81359E-01-5.51826E-13-2.03318E-12
 -1      1418 1.89592E+01 9.75921E-02-4.45443E-03 5.17618E-01-1.52014E-13-3.74421E-12
 -1      1419 1.96049E+01 7.36975E-02-1.87518E-03 5.63499E-01-8.93851E-14-3.89123E-12
 -1      1420 1.94227E+01 1.71326E-01-3.62763E-02 7.82707E-01-3.77812E-13-2.54215E-12
 -1      1421 2.02201E+01 5.70146E-02-4.29480E-03 7.13002E-01-1.05320E-13-4.05476E-12
 -1      1422 2.11004E+01 4.40438E-02-1.23280E-02 7.32466E-01-2.79048E-14-4.06294E-12
 -1      1423 2.04203E+01 1.05317E-01-3.26802E-02 1.24353E+00-1.99760E-13-2.90305E-12
 -1      1424 2.18456E+01 5.98602E-02-3.13675E-02 8.53805E-01 9.30089E-14-3.98655E-12
 -1      1425 2.29723E+01 9.16824E-02-5.29722E-02 8.87127E-01 2.39943E-13-3.77239E-12
 -1      1426 2.17615E+01 1.02858E-01-3.60585E-02 1.54799E+00 1.29431E-13-3.07324E-12
 -1      1427 2.37448E+01 1.94056E-01-1.07060E-01 1.17950E+00 6.16014E-13-3.25082E-12
 -1      1428 2.53300E+01 1.72307E-01-1.39777E-01 1.32568E+00 7.78183E-13-2.61571E-12
 -1      1429 2.32294E+01 3.16954E-01-6.11652E-02 1.96231E+00 8.02428E-13-2.43458E-12
 -1      1430 2.63974E+01 9.57257E-02-1.90653E-01 1.60969E+00 1.05407E-12-1.44379E-12
 -1      1431 2.82136E+01-1.86101E-01-1.46343E-01 1.63913E+00 8.96158E-13-4.04399E-13
 -1      1432 2.49015E+01 1.84492E-01-1.87676E-01 2.74556E+00 1.66164E-12-6.37185E-13
 -1      1433 2.98074E+01-6.34028E-01-3.89439E-02 8.22412E-01 5.25364E-13 2.16653E-13
 -1      1434 3.00818E+01-8.07737E-01-1.38583E-01 2.99583E-01-1.28602E-13 1.03715E-12
 -1      1435 2.75627E+01-1.16206E+00-3.07559E-01 2.49358E+00 1.04225E-12 1.56542E-12
 -1      1436 3.07215E+01-7.24942E-01-1.16188E-01-1.26028E+00-1.25906E-12-1.92410E-12
 -1      1437 2.88462E+01-1.45602E-01-3.73659E-01-1.60042E+00-1.52867E-12-1.83425E-12
 -1      1438 3.02143E+01-1.37107E+00-6.54702E-02-6.36972E-01-1.55970E-12-7.89972E-13
 -1      1439 2.79755E+01 7.25779E-01-2.75076E-01-1.02529E+00-1.25699E-12-6.54135E-12
 -1      1440 2.72421E+01 8.47923E-01 4.14624E-02-2.51933E-01 2.62901E-13-7.05605E-12
 -1      1441 3.01928E+01 7.52252E-01 2.07149E-01-2.52286E+00-1.47038E-12-1.05670E-11
 -1      1442 2.74197E+01 1.62587E-01 8.61319E-01 7.31495E-01 1.94253E-12-3.56942E-12
 -1      1443 2.52185E+01-3.16427E-01 8.07442E-01 1.66909E-01 8.58341E-13-1.99729E-12
 -1      1444 2.97208E+01 1.38825E+00 1.29123E+00 4.44641E-01 3.83304E-14-1.43816E-11
 -1      1445 2.19015E+01-3.09377E-05-7.32462E-04-1.70068E-01 3.02925E-14-6.61313E-13
 -1      1446 2.16981E+01 4.07854E-03-1.09176E-03-1.68414E-01 5.90019E-14-6.17052E-13
 -1      1447 2.17827E+01-2.72401E-03-3.09518E-04-3.27566E-01 4.29103E-14-4.82309E-13
 -1      1448 2.15398E+01 4.81580E-03-4.53054E-04-1.59092E-01 1.37852E-13-4.19420E-13
 -1      1449 2.13498E+01 7.39274E-03-8.92237E-04-1.55439E-01 1.82893E-13-4.07474E-13
 -1      1450 2.14653E+01 6.99466E-03-1.69116E-03-3.19209E-01 1.67515E-13-3.48980E-13
 -1      1451 2.12056E+01 7.18550E-03-1.45404E-04-1.39587E-01 1.16739E-13-3.83377E-13
 -1      1452 2.10391E+01 8.60721E-03-6.10218E-04-1.35147E-01 5.71331E-15-3.27414E-13
 -1      1453 2.11669E+01 1.18914E-02-2.34491E-03-2.88247E-01 1.94110E-13-5.22668E-14
 -1      1454 2.09143E+01 7.90264E-03 1.06256E-04-1.16960E-01 2.85596E-14-3.00956E-13
 -1      1455 2.07752E+01 8.53129E-03-3.42623E-04-1.12481E-01-5.73030E-14-3.28221E-13
 -1      1456 2.09023E+01 1.35379E-02-2.52162E-03-2.46926E-01 3.27958E-14-2.02318E-13
 -1      1457 2.06712E+01 7.63187E-03 2.76417E-04-9.45400E-02-1.56057E-13-4.18723E-13
 -1      1458 2.05591E+01 7.76074E-03-1.28890E-04-9.04302E-02-6.06595E-14-4.63837E-13
 -1      1459 2.06775E+01 1.32319E-02-2.41593E-03-2.03273E-01-1.31547E-13-3.34753E-13
 -1      1460 2.04752E+01 6.85193E-03 3.70039E-04-7.41198E-02-5.19563E-14-5.59235E-13
 -1      1461 2.03877E+01 6.69812E-03 2.28095E-05-7.05584E-02-4.51657E-15-5.95592E-13
 -1      1462 2.04932E+01 1.19120E-02-2.16463E-03-1.61975E-01-1.22234E-13-3.41072E-13
 -1      1463 2.03218E+01 5.88422E-03 4.02198E-04-5.64513E-02 1.15491E-13-3.82040E-13
 -1      1464 2.02555E+01 5.59932E-03 1.16163E-04-5.34723E-02 9.08501E-14-3.28616E-13
 -1      1465 2.03463E+01 1.02041E-02-1.85821E-03-1.25340E-01 1.62801E-13-2.34850E-13
 -1      1466 2.02053E+01 4.93461E-03 3.84830E-04-4.16182E-02 3.10608E-13-3.26905E-13
 -1      1467 2.01568E+01 4.61926E-03 1.53293E-04-3.91663E-02 3.01731E-13 1.04069E-13
 -1      1468 2.02325E+01 8.50448E-03-1.55484E-03-9.40954E-02 3.76895E-13-1.69072E-13
 -1      1469 2.01198E+01 4.13162E-03 3.17928E-04-2.92951E-02 1.50368E-13 3.08303E-13
 -1      1470 2.00861E+01 3.84631E-03 1.29126E-04-2.72591E-02 1.69107E-13 5.17946E-13
 -1      1471 2.01469E+01 7.05795E-03-1.29184E-03-6.79705E-02 4.47704E-13 1.19610E-13
 -1      1472 2.00602E+01 3.54591E-03 1.90611E-04-1.89252E-02 6.98946E-14 5.44775E-13
 -1      1473 2.00390E+01 3.29841E-03 4.87585E-05-1.71615E-02-9.04959E-14 5.37569E-13
 -1      1474 2.00851E+01 6.01273E-03-1.08823E-03-4.61127E-02 1.39364E-13 3.55781E-13
 -1      1475 2.00222E+01 3.13695E-03 1.99031E-05-9.95742E-03-3.01010E-14 4.11625E-13
 -1      1476 2.00120E+01 2.83113E-03 9.94444E-06-8.32998E-03 7.79911E-14 4.42494E-13
 -1      1477 2.00430E+01 5.37645E-03-9.12739E-04-2.74742E-02-4.80645E-14 3.48051E-13
 -1      1478 2.00024E+01 3.01701E-03 6.43762E-05-2.19884E-03 9.81981E-14 5.22797E-13
 -1      1479 2.00015E+01 1.91961E-03 4.81812E-04-6.63419E-04-1.08227E-14 4.72550E-13
 -1      1480 2.00169E+01 4.79598E-03-6.69345E-04-1.15922E-02 9.72087E-14 3.57249E-13
 -1      1481 1.99978E+01-9.91828E-04 1.22616E-03 2.14306E-03-3.84583E-13 4.06750E-13
 -1      1482 2.00027E+01 4.99954E-04 9.85638E-05 4.98243E-04-3.09160E-13 2.60725E-13
 -1      1483 1.95402E+01 7.09680E-02-1.43856E-01 4.26735E-01 1.72886E-13 1.39963E-12
 -1      1484 2.06994E+01 2.06574E-01-2.20250E-01 6.51394E-01 1.47896E-13 1.66478E-12
 -1      1485 2.09267E+01 8.35617E-01-8.34493E-02 1.90282E+00 2.94792E-13 1.07556E-12
 -1      1486 1.87369E+01 3.03856E-02-1.92183E-02 1.46007E-01 1.23434E-13 1.06436E-12
 -1      1487 1.90921E+01 1.08063E-01-5.89588E-02 1.95044E-01 1.23828E-13 1.25791E-12
 -1      1488 1.96363E+01 1.75855E-01-5.29756E-02 6.87005E-01 2.66939E-13 8.27330E-13
 -1      1489 1.84521E+01 1.43276E-02 6.04339E-03 2.11486E-02 1.04189E-13 8.06522E-13
 -1      1490 1.85418E+01 4.92023E-02 1.72578E-03 4.61296E-02 9.16836E-14 9.63760E-13
 -1      1491 1.89980E+01 6.68807E-02-1.17240E-02 2.25777E-01 2.02968E-13 6.30083E-13
 -1      1492 1.84264E+01 7.10894E-03 6.95435E-03-3.86850E-02 6.22488E-14 6.27148E-13
 -1      1493 1.83987E+01 2.51048E-02 1.10764E-02-2.47001E-02 6.90567E-14 7.34583E-13
 -1      1494 1.87521E+01 2.91048E-02-2.58105E-03 2.10121E-02 1.51516E-13 4.66656E-13
 -1      1495 1.85350E+01 3.78183E-03 4.65996E-03-6.95219E-02 5.82876E-14 5.07292E-13
 -1      1496 1.84499E+01 1.41857E-02 8.46716E-03-6.11438E-02 4.01088E-14 5.77895E-13
 -1      1497 1.87185E+01 1.31619E-02-1.90042E-03-8.14301E-02 1.01341E-13 3.76595E-13
 -1      1498 1.87171E+01 2.17871E-03 3.09943E-03-8.61948E-02 2.56930E-14 4.04867E-13
 -1      1499 1.86023E+01 8.63955E-03 5.41143E-03-8.08524E-02 3.65950E-14 4.62429E-13
 -1      1500 1.88038E+01 5.83076E-03-2.05735E-03-1.36207E-01 8.19878E-14 2.71616E-13
 -1      1501 1.89418E+01 1.53380E-03 2.22306E-03-9.60053E-02 4.71534E-14 3.38157E-13
 -1      1502 1.88107E+01 5.82057E-03 3.57503E-03-9.22676E-02 2.69164E-14 3.80323E-13
 -1      1503 1.89586E+01 2.47721E-03-2.00281E-03-1.67281E-01 6.36208E-14 2.20628E-13
 -1      1504 1.91946E+01 1.52905E-03 1.63510E-03-1.03259E-01 5.16340E-15 2.49275E-13
 -1      1505 1.90528E+01 4.64849E-03 2.56459E-03-1.00175E-01 3.53229E-14 3.03381E-13
 -1      1506 1.91569E+01 1.35198E-03-1.90264E-03-1.87220E-01 5.99185E-14 1.92595E-13
 -1      1507 1.94713E+01 2.01006E-03 1.13184E-03-1.10880E-01 5.09873E-14 1.88439E-13
 -1      1508 1.93197E+01 4.63237E-03 1.97724E-03-1.07734E-01 1.91716E-14 2.16909E-13
 -1      1509 1.93867E+01 1.68492E-03-1.92370E-03-2.03696E-01 5.20468E-14 1.01770E-13
 -1      1510 1.97747E+01 2.88893E-03 6.33726E-04-1.21073E-01 1.98340E-14 1.13516E-13
 -1      1511 1.96107E+01 5.52461E-03 1.60908E-03-1.17271E-01 4.32698E-14 1.53461E-13
 -1      1512 1.96447E+01 3.09043E-03-2.13265E-03-2.22030E-01 7.51873E-14 3.08341E-14
 -1      1513 2.01133E+01 4.10387E-03 1.06907E-04-1.35621E-01 4.72507E-14 4.86330E-14
 -1      1514 1.99316E+01 7.18505E-03 1.36478E-03-1.30632E-01 2.43898E-14 8.63749E-14
 -1      1515 1.99337E+01 5.34703E-03-2.55229E-03-2.46268E-01 5.69141E-14 2.52738E-14
 -1      1516 2.04994E+01 5.58688E-03-4.70530E-04-1.55983E-01 5.55399E-14-3.40439E-14
 -1      1517 2.02924E+01 9.50908E-03 1.18815E-03-1.49313E-01 5.04529E-14 1.23165E-14
 -1      1518 2.02612E+01 8.29562E-03-3.19324E-03-2.79632E-01 7.90186E-14-4.29493E-14
 -1      1519 2.09489E+01 7.22051E-03-1.11255E-03-1.83221E-01 2.77502E-14-1.29512E-13
 -1      1520 2.07073E+01 1.23584E-02 1.02936E-03-1.74435E-01 4.70039E-14-8.32585E-14
 -1      1521 2.06378E+01 1.17551E-02-4.05681E-03-3.24597E-01 9.32475E-14-4.01257E-14
 -1      1522 2.14788E+01 8.76697E-03-1.80773E-03-2.17687E-01-2.70539E-14-1.16416E-13
 -1      1523 2.11925E+01 1.54599E-02 8.32909E-04-2.06493E-01-4.12626E-15-1.34056E-13
 -1      1524 2.10764E+01 1.54089E-02-5.11565E-03-3.82570E-01 1.11473E-14-7.23731E-14
 -1      1525 2.21050E+01 9.75192E-03-2.47001E-03-2.58328E-01 4.92575E-15-1.06143E-13
 -1      1526 2.17644E+01 1.82371E-02 5.40716E-04-2.44775E-01 1.21804E-14-1.10434E-13
 -1      1527 2.15897E+01 1.86191E-02-6.26800E-03-4.53007E-01-8.16317E-15-4.91918E-14
 -1      1528 2.28362E+01 9.28767E-03-2.83131E-03-3.01371E-01 6.23850E-16-1.66202E-13
 -1      1529 2.24358E+01 1.95391E-02 1.22321E-04-2.86262E-01 6.58891E-15-1.77983E-13
 -1      1530 2.21871E+01 2.01224E-02-7.24843E-03-5.31650E-01 2.75895E-14-9.37319E-14
 -1      1531 2.36647E+01 5.85356E-03-2.25134E-03-3.38158E-01 1.19020E-13-3.25587E-13
 -1      1532 2.32085E+01 1.72549E-02-3.40377E-04-3.23763E-01 4.85688E-14-2.19201E-13
 -1      1533 2.28691E+01 1.75777E-02-7.47487E-03-6.07481E-01 6.85992E-14-2.55211E-13
 -1      1534 2.45497E+01-2.82069E-03 5.06643E-04-3.52104E-01 3.45514E-14-5.03063E-13
 -1      1535 2.40615E+01 7.94056E-03-4.90209E-04-3.43263E-01 9.06018E-14-3.50914E-13
 -1      1536 2.36182E+01 7.05574E-03-5.84646E-03-6.58159E-01 1.49032E-13-2.59638E-13
 -1      1537 2.53962E+01-1.92966E-02 7.25621E-03-3.15890E-01-1.24633E-13-3.71234E-13
 -1      1538 2.49329E+01-1.30231E-02 4.89136E-04-3.21202E-01-9.41018E-14-4.68854E-13
 -1      1539 2.43860E+01-1.70165E-02-6.47729E-04-6.44796E-01-8.45578E-14-2.33249E-13
 -1      1540 2.60321E+01-4.44537E-02 1.94183E-02-1.92787E-01-5.21787E-14-2.16899E-13
 -1      1541 2.56984E+01-4.94647E-02 3.84354E-03-2.24668E-01-6.50903E-14-2.90393E-13
 -1      1542 2.50779E+01-6.01336E-02 9.96771E-03-5.10202E-01-1.10040E-13-1.67696E-13
 -1      1543 2.62066E+01-7.30741E-02 3.51215E-02 4.96876E-02-3.83114E-15-2.40238E-13
 -1      1544 2.61564E+01-9.89552E-02 1.03213E-02-2.10790E-02-1.59872E-14-2.63184E-13
 -1      1545 2.55433E+01-1.21464E-01 2.63375E-02-1.90718E-01-4.44401E-14-1.38761E-13
 -1      1546 2.56494E+01-8.82171E-02 4.46228E-02 4.04052E-01 1.93144E-14-3.28987E-13
 -1      1547 2.60477E+01-1.43644E-01 1.77741E-02 2.93606E-01 7.37951E-15-2.52017E-13
 -1      1548 2.55885E+01-1.82747E-01 4.34640E-02 3.41969E-01 2.22981E-14-1.09059E-13
 -1      1549 2.42324E+01-6.15521E-02 3.00333E-02 7.68576E-01-1.01030E-14-3.57325E-13
 -1      1550 2.51516E+01-1.44576E-01 1.85151E-02 6.48069E-01 2.58300E-14-3.26954E-13
 -1      1551 2.50440E+01-1.95593E-01 4.89725E-02 1.00221E+00 1.80082E-14-1.09038E-13
 -1      1552 2.22175E+01 2.15687E-02-2.12854E-02 9.26704E-01-1.99957E-13-2.69229E-14
 -1      1553 2.34832E+01-6.10324E-02 1.42540E-03 8.63049E-01-1.27150E-13-3.01967E-13
 -1      1554 2.39059E+01-9.62560E-02 2.71371E-02 1.51327E+00-1.38964E-13-5.70446E-14
 -1      1555 2.03851E+01 1.23530E-01-8.76009E-02 6.67222E-01-9.49952E-14 2.56850E-13
 -1      1556 2.15097E+01 9.43172E-02-3.33731E-02 7.25175E-01-1.06117E-13 8.83044E-14
 -1      1557 2.25106E+01 1.27251E-01-1.96139E-02 1.47514E+00-2.84141E-13 9.59163E-14
 -1      1558 1.97105E+01 1.67952E-01-1.17076E-01 1.70193E-02 1.19117E-13 1.05203E-13
 -1      1559 2.01052E+01 2.28626E-01-6.34585E-02 1.90913E-01 7.77434E-14 2.23682E-13
 -1      1560 2.15176E+01 3.59082E-01-6.11872E-02 6.88073E-01 2.55768E-14 6.00700E-14
 -1      1561 2.06669E+01 1.11957E-01-8.08084E-02-6.77722E-01 9.07000E-14-4.05287E-13
 -1      1562 2.00649E+01 2.37141E-01-6.16333E-02-4.86362E-01 1.58602E-13-1.45616E-13
 -1      1563 2.15305E+01 4.09633E-01-7.02601E-02-5.37988E-01 3.08170E-13-1.60436E-13
 -1      1564 2.28011E+01 9.57727E-03-9.07510E-03-1.02316E+00-4.67768E-14-5.54085E-13
 -1      1565 2.14879E+01 1.22779E-01-2.76186E-02-9.21791E-01-2.13007E-14-5.43829E-13
 -1      1566 2.26078E+01 2.21499E-01-4.95472E-02-1.51627E+00 1.11418E-13-4.71741E-13
 -1      1567 2.52072E+01-2.18125E-02 9.33060E-02-9.86923E-01 3.99444E-14-5.89168E-13
 -1      1568 2.37014E+01 1.20638E-02 2.18086E-02-9.66425E-01 2.44717E-14-5.62689E-13
 -1      1569 2.42062E+01-1.59725E-02-1.42953E-02-1.81200E+00 2.55039E-14-6.65926E-13
 -1      1570 2.68901E+01 5.63801E-01 4.92943E-01-9.35938E-01 1.54904E-13-8.02081E-13
 -1      1571 2.56381E+01 3.18079E-02 6.95492E-02-7.48321E-01 6.82336E-14-6.54435E-13
 -1      1572 2.55158E+01 4.38336E-02 7.24097E-02-1.54029E+00 1.09902E-13-6.83412E-13
 -1      1573 2.61147E+01-6.66865E-02 4.77067E-02-9.13834E-02-1.00958E-13-6.48009E-13
 -1      1574 2.62087E+01 4.16880E-02 2.04471E-01-3.27366E-01-3.69288E-14-7.20864E-13
 -1      1575 2.60562E+01 1.41446E-01 2.14177E-01-7.32645E-01-1.47937E-14-6.09957E-13
 -1      1576 2.59116E+01-3.76893E-02 2.34499E-02 1.70388E-01-6.47642E-14-4.12954E-13
 -1      1577 2.60033E+01-8.23579E-02 1.90181E-02 1.10928E-01-1.10374E-13-5.79418E-13
 -1      1578 2.54139E+01-1.65884E-01 1.25432E-02 6.40941E-02-2.07920E-13-2.83623E-13
 -1      1579 2.52628E+01-1.37891E-02 5.15925E-03 3.05718E-01 3.77550E-14-3.13222E-13
 -1      1580 2.56198E+01-4.55598E-02 5.65250E-03 2.72829E-01 1.06356E-14-3.53485E-13
 -1      1581 2.50200E+01-8.61005E-02 7.90136E-03 4.39888E-01-7.82594E-14-2.96946E-13
 -1      1582 2.44248E+01 9.40999E-04-4.65905E-03 3.45500E-01-6.31067E-14-1.25989E-13
 -1      1583 2.48918E+01-1.65958E-02-2.26450E-03 3.33036E-01-5.19374E-14-1.98550E-13
 -1      1584 2.43750E+01-2.51305E-02 4.07554E-03 6.12254E-01-7.03868E-14-2.52237E-13
 -1      1585 2.35695E+01 8.16673E-03-8.19524E-03 3.29314E-01 8.70536E-14-2.79096E-13
 -1      1586 2.40444E+01 1.27966E-03-5.26570E-03 3.29165E-01 3.70255E-14-1.54519E-13
 -1      1587 2.36427E+01 1.03807E-02 1.62179E-03 6.42154E-01 5.61427E-14-1.84909E-13
 -1      1588 2.27904E+01 1.06559E-02-8.35711E-03 2.87136E-01 2.42402E-14-5.88292E-13
 -1      1589 2.32193E+01 1.03075E-02-5.35606E-03 2.93096E-01 8.06109E-14-3.31214E-13
 -1      1590 2.29292E+01 2.65256E-02 2.89452E-04 5.92463E-01 1.54594E-13-3.40759E-13
 -1      1591 2.21260E+01 1.06189E-02-7.14872E-03 2.37255E-01-1.17641E-13-2.41845E-13
 -1      1592 2.24881E+01 1.36593E-02-4.27760E-03 2.45483E-01-1.79009E-13-5.15345E-13
 -1      1593 2.22910E+01 3.09854E-02-3.65363E-04 5.08292E-01-1.51223E-13-1.75025E-13
 -1      1594 2.15833E+01 9.44942E-03-5.62030E-03 1.89194E-01-6.00230E-14 8.67735E-14
 -1      1595 2.18760E+01 1.38694E-02-3.00079E-03 1.97622E-01-7.30412E-14-4.07122E-14
 -1      1596 2.17500E+01 2.94937E-02-6.57502E-04 4.16454E-01-1.98118E-13-3.80570E-14
 -1      1597 2.11530E+01 7.91455E-03-4.21514E-03 1.47070E-01-6.17746E-14 3.00660E-13
 -1      1598 2.13827E+01 1.25815E-02-1.91925E-03 1.54734E-01-4.85185E-14 1.54017E-13
 -1      1599 2.13081E+01 2.55363E-02-7.61570E-04 3.30587E-01-9.01145E-14 1.92007E-13
 -1      1600 2.08195E+01 6.39161E-03-3.06922E-03 1.12060E-01-2.84965E-14 3.80167E-13
 -1      1601 2.09958E+01 1.07389E-02-1.12374E-03 1.18605E-01-2.22350E-14 3.24985E-13
 -1      1602 2.09568E+01 2.09671E-02-7.67161E-04 2.56328E-01-6.59286E-14 1.80708E-13
 -1      1603 2.05658E+01 5.04327E-03-2.18843E-03 8.39030E-02 7.17141E-14 1.21182E-13
 -1      1604 2.06986E+01 8.83484E-03-5.83638E-04 8.92893E-02 6.09757E-14 2.48531E-13
 -1      1605 2.06833E+01 1.66581E-02-7.21754E-04 1.94981E-01 6.90921E-14 1.44504E-13
 -1      1606 2.03761E+01 3.92487E-03-1.53615E-03 6.17288E-02-1.13584E-13 2.13081E-13
 -1      1607 2.04745E+01 7.10470E-03-2.37159E-04 6.60624E-02-1.62157E-14 2.39680E-13
 -1      1608 2.04744E+01 1.29547E-02-6.53608E-04 1.45746E-01-4.62542E-15 1.49897E-13
 -1      1609 2.02371E+01 3.04484E-03-1.07249E-03 4.44672E-02 2.70501E-13 2.05259E-13
 -1      1610 2.03085E+01 5.64973E-03-2.80753E-05 4.79181E-02 1.35602E-13 3.60107E-13
 -1      1611 2.03176E+01 9.94809E-03-5.83792E-04 1.06941E-01 6.92790E-14 2.23201E-13
 -1      1612 2.01376E+01 2.39415E-03-7.70107E-04 3.10267E-02 9.88772E-14 2.33195E-15
 -1      1613 2.01880E+01 4.50917E-03 8.21210E-05 3.37936E-02 1.28925E-13 7.23413E-14
 -1      1614 2.02022E+01 7.62513E-03-5.32200E-04 7.66024E-02 2.38808E-13 2.88585E-13
 -1      1615 2.00694E+01 1.94974E-03-6.14877E-04 2.03722E-02 2.85354E-13-5.21563E-13
 -1      1616 2.01034E+01 3.68969E-03 1.11265E-04 2.26658E-02 2.39881E-13-1.61900E-13
 -1      1617 2.01196E+01 5.93694E-03-5.19142E-04 5.27632E-02 3.40710E-13 4.49166E-14
 -1      1618 2.00264E+01 1.67873E-03-5.65669E-04 1.15965E-02-3.62107E-14-6.99212E-13
 -1      1619 2.00470E+01 3.17087E-03 6.80672E-05 1.36284E-02 6.33517E-14-7.01338E-13
 -1      1620 2.00631E+01 4.81044E-03-5.56210E-04 3.36117E-02 1.84795E-13-5.43248E-14
 -1      1621 2.00042E+01 1.49780E-03-3.85854E-04 3.99544E-03 2.91879E-14-7.41814E-13
 -1      1622 2.00134E+01 2.86942E-03 2.17106E-05 6.00499E-03 7.00424E-14-6.62950E-13
 -1      1623 2.00273E+01 4.19145E-03-5.65238E-04 1.77141E-02 6.77381E-14-1.95255E-13
 -1      1624 1.99988E+01 8.69090E-04 6.73483E-04-1.66662E-03-5.57288E-14-6.08160E-13
 -1      1625 1.99986E+01 2.07259E-03 2.34959E-04-5.87280E-05-7.63221E-14-7.80232E-13
 -1      1626 2.00078E+01 3.10229E-03-3.59270E-04 4.46788E-03-2.07165E-14-4.94614E-13
 -1      1627 1.99980E+01-1.26873E-03 1.28964E-03-2.02665E-03-3.23829E-13-3.91804E-13
 -1      1628 2.00024E+01 1.92909E-03-3.33578E-04 2.42983E-03-3.78663E-13 2.32786E-13
 -1      1629 2.00020E+01 9.14902E-04 4.12586E-04 9.86585E-04-4.59712E-13 3.06646E-14
 -1      1630 2.00023E+01 2.02615E-02-4.02699E-04 9.71988E-03 1.04980E-13 3.54296E-13
 -1      1631 2.00025E+01 1.06560E-02-2.51007E-04 8.22375E-03-2.78148E-13 1.65951E-13
 -1      1632 2.00050E+01 1.61944E-02-4.99068E-04 1.12492E-02 6.32244E-15 3.58555E-13
 -1      1633 2.00012E+01 5.06384E-02-2.59962E-04 1.54637E-02 2.60914E-13 1.07976E-13
 -1      1634 2.00018E+01 3.37682E-02-2.70251E-04 1.44884E-02 1.34857E-13 3.41159E-13
 -1      1635 2.00038E+01 3.86299E-02-6.17733E-04 2.40042E-02 1.46177E-13 4.23732E-13
 -1      1636 1.99998E+01 8.78052E-02-1.11677E-04 1.80052E-02 2.74926E-13 2.90566E-14
 -1      1637 2.00006E+01 6.72675E-02-1.54807E-04 1.77689E-02 1.41666E-13 1.94314E-13
 -1      1638 2.00018E+01 6.91414E-02-2.80018E-04 3.24685E-02-8.88779E-14 1.26613E-13
 -1      1639 1.99986E+01 1.24234E-01-2.58980E-05 1.70493E-02 2.53760E-13 1.29751E-13
 -1      1640 1.99993E+01 1.04547E-01-5.77796E-05 1.75008E-02 2.16437E-13 4.78952E-14
 -1      1641 1.99996E+01 1.02810E-01 1.24986E-04 3.45067E-02 1.42779E-13 3.98207E-16
 -1      1642 1.99976E+01 1.54575E-01 2.33365E-05 1.29540E-02 7.75030E-13 2.28253E-13
 -1      1643 1.99982E+01 1.38872E-01 1.80015E-06 1.39849E-02 4.12596E-13 3.30980E-13
 -1      1644 1.99976E+01 1.34346E-01 4.85787E-04 3.01029E-02 3.88395E-13 3.65492E-13
 -1      1645 1.99971E+01 1.72865E-01 4.35096E-05 6.59249E-03 7.04770E-13-4.24970E-14
 -1      1646 1.99974E+01 1.64325E-01 2.99428E-05 7.98299E-03 8.35980E-13 8.47734E-14
 -1      1647 1.99962E+01 1.58773E-01 7.49235E-04 2.02854E-02 3.32910E-13 1.75994E-13
 -1      1648 1.99970E+01 1.76088E-01 4.53280E-05-8.56858E-04 6.69314E-13 6.16606E-14
 -1      1649 1.99970E+01 1.76167E-01 4.03051E-05 6.45943E-04 6.96026E-13 4.93921E-14
 -1      1650 1.99954E+01 1.71818E-01 8.81411E-04 6.99892E-03 3.59676E-13-1.48680E-13
 -1      1651 1.99974E+01 1.63818E-01 3.14323E-05-8.10652E-03 6.35829E-13-8.94838E-15
 -1      1652 1.99971E+01 1.72443E-01 3.68268E-05-6.74658E-03 6.32547E-13 1.44840E-13
 -1      1653 1.99955E+01 1.71438E-01 8.70099E-04-7.39011E-03 3.33449E-13 1.03250E-13
 -1      1654 1.99982E+01 1.38254E-01-5.05536E-07-1.39224E-02 2.57410E-13-1.60989E-13
 -1      1655 1.99977E+01 1.53863E-01 2.08631E-05-1.29398E-02 6.45215E-13-1.86857E-13
 -1      1656 1.99963E+01 1.57779E-01 7.19112E-04-2.04278E-02 1.73536E-13-1.72323E-13
 -1      1657 1.99993E+01 1.04512E-01-4.93850E-05-1.72410E-02-7.88208E-14 1.09150E-13
 -1      1658 1.99987E+01 1.23914E-01-2.33510E-05-1.68187E-02 1.47201E-13-1.44359E-13
 -1      1659 1.99977E+01 1.33362E-01 4.60515E-04-2.98367E-02 1.43068E-13-3.72052E-13
 -1      1660 2.00006E+01 6.74488E-02-1.35949E-04-1.74728E-02-1.64045E-13-8.92000E-14
 -1      1661 1.99999E+01 8.76522E-02-1.02591E-04-1.77093E-02-2.01239E-13 2.76473E-13
 -1      1662 1.99996E+01 1.02026E-01 1.06913E-04-3.39973E-02-3.14852E-14 5.60625E-14
 -1      1663 2.00017E+01 3.43236E-02-2.82857E-04-1.43071E-02-4.81652E-13-6.81579E-14
 -1      1664 2.00011E+01 5.10773E-02-2.31468E-04-1.52267E-02-2.65776E-13-5.97155E-14
 -1      1665 2.00017E+01 6.85245E-02-2.76344E-04-3.19649E-02-7.95327E-14-1.97216E-13
 -1      1666 2.00028E+01 1.15843E-02-9.71179E-05-8.45582E-03-5.41577E-13 7.70632E-14
 -1      1667 2.00020E+01 2.12077E-02-3.97532E-04-9.94412E-03-6.38168E-13 1.27420E-13
 -1      1668 2.00034E+01 3.87122E-02-5.90423E-04-2.37827E-02-3.02652E-13-4.94319E-14
 -1      1669 2.00036E+01 4.42717E-03 4.12228E-04-3.45489E-03-5.36846E-13-1.22851E-14
 -1      1670 2.00037E+01 6.46120E-03-3.53200E-04-5.45569E-03-5.61779E-13 8.56989E-15
 -1      1671 2.00075E+01 2.10717E-02-5.18663E-05-1.51938E-02-4.74418E-13 1.17164E-13
 -1      1672 2.00099E+01 1.10154E-02 4.13582E-04-8.29511E-03-4.02979E-14 2.13868E-13
 -1      1673-5.73510E-01-1.43032E+01-1.64465E+00-1.05953E+00 5.99798E-13 2.55129E-13
 -1      1674-5.75724E-01-1.63350E+01-1.80545E+00 1.79302E-01 3.28904E-15 4.58467E-13
 -1      1675 1.02372E+00-8.35289E+00-1.31014E+00 5.75977E-02 6.59250E-13 2.25264E-13
 -1      1676 4.15858E-01-1.33242E+01-1.78722E+00-4.60773E-01 7.65166E-13 5.33878E-14
 -1      1677 8.19608E+00-1.40841E+00-6.44332E-01 4.78667E+00-1.33094E-12-1.48181E-12
 -1      1678 4.68273E+00-6.64276E+00-1.32850E+00 1.86283E+00 2.16605E-13-5.63605E-13
 -1      1679 1.97972E+01 3.60919E+00 1.89647E-01 9.38461E+00-1.07570E-12-9.31810E-13
 -1      1680 1.29318E+01 2.54691E-01-7.05286E-01 5.82669E+00-1.20770E-12-9.16156E-13
 -1      1681 3.40045E+01 6.03587E+00 1.05607E+00 1.23539E+01-6.12843E-13-1.13354E-12
 -1      1682 2.44455E+01 5.52978E+00 1.07270E-01 1.03560E+01-8.14016E-13-9.77662E-13
 -1      1683 4.84581E+01 4.87408E+00 1.69269E+00 1.03199E+01-4.42410E-13-1.50213E-12
 -1      1684 3.92441E+01 6.42447E+00 9.67505E-01 1.20557E+01-4.22218E-13-1.30873E-12
 -1      1685 5.63473E+01 3.72857E+00 1.87414E+00 2.71695E+00 1.25178E-13-2.29461E-12
 -1      1686 5.15910E+01 4.90933E+00 1.58490E+00 7.96095E+00-1.46161E-13-1.80289E-12
 -1      1687 5.43943E+01 4.69144E+00 1.74002E+00-6.30845E+00 1.07697E-12-3.50697E-12
 -1      1688 5.67382E+01 3.89405E+00 1.85303E+00-1.28936E-01 6.12399E-13-2.63230E-12
 -1      1689 4.39794E+01 6.67166E+00 1.25309E+00-1.23897E+01 2.28478E-12-4.51061E-12
 -1      1690 5.24965E+01 4.65038E+00 1.86069E+00-9.22795E+00 1.46598E-12-3.95017E-12
 -1      1691 2.74121E+01 6.70380E+00 2.96022E-01-1.15135E+01 3.44313E-12-4.58100E-12
 -1      1692 3.83456E+01 6.31385E+00 1.22838E+00-1.29172E+01 2.70695E-12-4.48663E-12
 -1      1693 1.32443E+01 3.22444E+00-5.94118E-01-7.35792E+00 4.73710E-12-4.07352E-12
 -1      1694 2.09626E+01 6.19881E+00 3.64357E-01-1.12636E+01 4.08129E-12-4.44267E-12
 -1      1695 4.91386E+00-4.99392E+00-1.28529E+00-2.40632E+00 4.67859E-12-2.92105E-12
 -1      1696 8.97896E+00 9.14009E-01-4.48820E-01-5.91102E+00 4.77529E-12-3.73557E-12
 -1      1697 7.02878E-01-1.26701E+01-1.73392E+00-5.66421E-02 4.31355E-12-1.54783E-12
 -1      1698 1.58553E+00-7.16639E+00-1.20127E+00-8.56001E-01 4.72911E-12-2.37294E-12
 -1      1699-6.08309E-01-1.66992E+01-1.87582E+00-3.85011E-01 3.67084E-12-5.28189E-13
 -1      1700-6.03711E-01-1.44386E+01-1.70631E+00 9.42594E-01 4.28463E-12-1.04022E-12
 -1      1701-8.11573E-01-1.46701E+01-1.62154E+00-1.38803E+00 3.08137E-12 4.05259E-13
 -1      1702-6.93166E-01-1.68136E+01-1.85604E+00 2.84494E-02 3.53806E-12-8.29892E-15
 -1      1703 1.50902E+00-8.18323E+00-9.74473E-01 5.72438E-01 2.47380E-12 7.48651E-13
 -1      1704 8.11703E-01-1.25789E+01-1.41533E+00 2.76758E-02 2.81730E-12 5.89750E-13
 -1      1705 6.16521E+00-1.19272E+00-4.59429E-01 3.71939E+00 1.86062E-12 1.15141E-12
 -1      1706 3.39459E+00-6.47501E+00-1.13328E+00 1.11460E+00 2.30704E-12 1.02118E-12
 -1      1707 1.58906E+01 3.69236E+00 2.09768E-01 8.22813E+00 1.51379E-12 1.77058E-12
 -1      1708 9.93762E+00 5.71012E-01-5.72199E-01 4.91150E+00 1.58873E-12 1.55198E-12
 -1      1709 2.89749E+01 5.14750E+00 8.39431E-01 1.05966E+01 1.27887E-12 2.43172E-12
 -1      1710 2.05844E+01 4.78664E+00 1.00891E-01 8.89414E+00 1.36513E-12 2.14273E-12
 -1      1711 4.13566E+01 4.07523E+00 1.20923E+00 8.32963E+00 7.84039E-13 2.99416E-12
 -1      1712 3.35264E+01 5.34953E+00 6.78025E-01 9.93776E+00 1.01191E-12 2.69906E-12
 -1      1713 4.87324E+01 3.24111E+00 1.18141E+00 1.08251E+00 7.27196E-15 3.67351E-12
 -1      1714 4.44396E+01 4.14816E+00 1.05715E+00 6.24023E+00 3.99708E-13 3.37841E-12
 -1      1715 4.65790E+01 4.93484E+00 6.56161E-01-7.18168E+00-5.63466E-13 3.81873E-12
 -1      1716 4.84511E+01 3.82725E+00 9.58878E-01-1.75276E+00-3.35620E-13 4.01318E-12
 -1      1717 3.82310E+01 7.99186E+00-2.29258E-02-1.25959E+01 4.29434E-13 2.22573E-12
 -1      1718 4.43715E+01 5.54311E+00 4.84163E-01-9.39023E+00-3.03230E-13 3.59954E-12
 -1      1719 2.67964E+01 1.09149E+01-7.07235E-01-1.46304E+01 4.77979E-12-1.79048E-12
 -1      1720 3.46174E+01 8.95660E+00-1.15245E-01-1.46465E+01 1.79404E-12 1.06803E-12
 -1      1721 1.54415E+01 8.92289E+00-1.37478E+00-1.12305E+01 1.53224E-11-7.20679E-12
 -1      1722 2.24646E+01 1.05016E+01-6.67814E-01-1.41699E+01 8.95173E-12-3.57508E-12
 -1      1723 8.04985E+00-5.03066E+00-2.74287E+00-6.10252E+00 3.48077E-11-1.11239E-11
 -1      1724 1.27960E+01 4.30946E+00-1.31138E+00-1.05816E+01 2.33469E-11-7.93643E-12
 -1      1725-5.19585E+00-3.12448E+01-9.30565E+00-1.09314E+01 6.39329E-11 6.00120E-12
 -1      1726 4.86004E+00-9.89571E+00-2.48549E+00-6.41355E+00 4.07225E-11-9.15673E-12
 -1      1727-6.14349E-01-1.68249E+01-1.89233E+00-4.19525E-01-1.32283E-13 4.56302E-13
 -1      1728-8.13476E+00-2.05880E+01-5.71820E+00-3.11313E+00 2.67100E-11 1.40580E-11
 -1      1729 2.65171E+01-3.36581E-01 1.48313E-01 6.56158E+00-9.93816E-13-8.80629E-13
 -1      1730 1.64315E+01-4.58283E+00-3.90722E-01 6.32017E+00-1.50524E-12-1.13687E-12
 -1      1731 2.00012E+01-1.34020E-03 4.34165E-04-2.19447E-03-4.69717E-13-2.95755E-13
 -1      1732 2.00042E+01 5.86386E-03 1.94509E-04 1.50684E-03-1.74497E-13-5.29042E-14
 -1      1733 4.92546E-01-1.01745E+01-1.19463E+00 2.05503E+00 5.01266E-14 2.09055E-13
 -1      1734 6.65192E+00-7.13502E+00-7.27730E-01 4.79290E+00 3.26295E-13 1.65014E-13
 -1      1735-1.31925E+00-1.12417E+01-1.29981E+00-9.98417E-02-1.39160E-13 8.50875E-13
 -1      1736 3.68896E+01 3.89259E+00 8.71223E-01 6.38509E+00-5.16170E-13-1.29785E-12
 -1      1737 4.52926E+01 6.39853E+00 1.42289E+00 4.02665E+00-1.61315E-13-1.64913E-12
 -1      1738 4.78958E+01 8.07602E+00 1.54718E+00 1.86244E-01 7.96752E-13-2.29844E-12
 -1      1739 4.70056E+01 7.31936E+00 1.51448E+00-3.64899E+00 1.57963E-12-2.71094E-12
 -1      1740 3.96253E+01 4.97867E+00 9.83470E-01-6.47572E+00 2.18465E-12-3.05533E-12
 -1      1741 2.84509E+01 2.01412E+00 4.36143E-01-7.84673E+00 2.83595E-12-3.15514E-12
 -1      1742 1.64716E+01-2.16684E+00-2.99749E-01-7.04305E+00 3.31168E-12-2.83257E-12
 -1      1743 7.03354E+00-6.45244E+00-7.85006E-01-5.14739E+00 3.19733E-12-2.31870E-12
 -1      1744 6.88865E-01-9.97849E+00-1.18458E+00-2.46105E+00 3.19661E-12-1.38481E-12
 -1      1745-1.38679E+00-1.16798E+01-1.32810E+00-2.45115E-01 2.95298E-12-5.21805E-13
 -1      1746 6.64200E-01-9.76904E+00-9.54225E-01 2.28204E+00 2.57255E-12 1.98563E-13
 -1      1747 5.54105E+00-7.32108E+00-7.42217E-01 4.09819E+00 2.18836E-12 6.06841E-13
 -1      1748 1.28485E+01-3.61911E+00-3.11112E-01 5.36704E+00 1.76781E-12 1.23213E-12
 -1      1749 2.22601E+01 2.85542E-01 2.45163E-01 6.09574E+00 1.33149E-12 2.06724E-12
 -1      1750 3.15316E+01 3.48601E+00 7.26835E-01 5.31593E+00 9.58816E-13 2.44837E-12
 -1      1751 3.88658E+01 5.64362E+00 1.01508E+00 2.90143E+00 3.40450E-13 2.97962E-12
 -1      1752 4.12888E+01 7.44916E+00 9.60455E-01-9.97355E-01-2.39475E-13 3.54711E-12
 -1      1753 3.91030E+01 8.01779E+00 4.97779E-01-4.62669E+00 1.23790E-13 3.78922E-12
 -1      1754 3.40976E+01 8.09167E+00-3.23741E-02-8.37561E+00 2.45411E-12 2.89463E-12
 -1      1755 2.59479E+01 6.86143E+00-7.64565E-01-1.02889E+01 9.04676E-12 5.74485E-13
 -1      1756 1.80887E+01-1.26175E-01-1.68703E+00-1.03065E+01 2.16205E-11-1.37235E-12
 -1      1757 1.08173E+01-1.28129E+01-3.11119E+00-1.27884E+01 3.86520E-11-7.64389E-13
 -1      1758-3.69923E+00-1.75339E+01-4.96843E+00-1.12121E+01 4.44347E-11 7.88003E-12
 -1      1759 2.20200E+01 1.92869E+00-2.10393E-02-2.70036E+00-2.52263E-13 1.04144E-12
 -1      1760 1.90039E+01 3.59808E+00-3.39204E-02-2.22182E+00-3.16278E-13-3.07785E-13
 -1      1761 1.92273E+01 3.45440E+00-3.89641E-02-2.49598E+00-3.63255E-13-2.02362E-13
 -1      1762 1.95255E+01 3.08679E+00-4.41440E-02-2.61992E+00-3.66783E-13-5.96051E-14
 -1      1763 1.97437E+01 2.73063E+00-1.39457E-01-2.86991E+00-3.93876E-13 1.33366E-13
 -1      1764 1.95739E+01 2.62025E+00-4.06500E-03-2.27890E+00-3.91697E-13-1.08108E-13
 -1      1765 1.85826E+01 4.05677E+00-1.88780E-02-1.39955E+00-1.83625E-13-5.02952E-13
 -1      1766 1.86430E+01 4.01792E+00-1.59813E-02-1.60973E+00-2.22079E-13-4.83972E-13
 -1      1767 1.85154E+01 4.16042E+00-1.57482E-02-1.01505E+00-1.20708E-13-5.35603E-13
 -1      1768 1.85430E+01 4.13600E+00-1.35032E-02-1.21277E+00-1.50380E-13-5.25885E-13
 -1      1769 1.87496E+01 3.67470E+00-8.36684E-03-1.25652E+00-1.84167E-13-4.98089E-13
 -1      1770 1.84957E+01 4.21995E+00-1.39208E-02-6.46121E-01-4.44009E-14-5.16396E-13
 -1      1771 1.85014E+01 4.20610E+00-1.27266E-02-8.34783E-01-8.06904E-14-5.21139E-13
 -1      1772 1.86836E+01 3.79150E+00-8.53090E-03-8.95326E-01-1.06185E-13-5.07261E-13
 -1      1773 1.85092E+01 4.24489E+00-1.28972E-02-2.84086E-01 3.30769E-14-5.25024E-13
 -1      1774 1.84990E+01 4.23991E+00-1.27836E-02-4.69373E-01 2.10253E-15-5.26881E-13
 -1      1775 1.86669E+01 3.85344E+00-8.52493E-03-5.43495E-01-1.74908E-14-5.01502E-13
 -1      1776 1.85497E+01 4.23833E+00-1.24834E-02 7.96780E-02 9.57718E-14-5.25144E-13
 -1      1777 1.85260E+01 4.24203E+00-1.34521E-02-1.07373E-01 6.87700E-14-5.26895E-13
 -1      1778 1.86864E+01 3.87021E+00-8.54007E-03-1.95183E-01 5.15956E-14-5.01935E-13
 -1      1779 1.86165E+01 4.19887E+00-1.27147E-02 4.53944E-01 1.52558E-13-5.09004E-13
 -1      1780 1.85790E+01 4.21236E+00-1.47197E-02 2.59978E-01 1.26470E-13-5.23415E-13
 -1      1781 1.87372E+01 3.84414E+00-8.62721E-03 1.56382E-01 1.18836E-13-5.07335E-13
 -1      1782 1.87133E+01 4.12225E+00-1.38345E-02 8.41036E-01 2.15552E-13-4.74121E-13
 -1      1783 1.86591E+01 4.14719E+00-1.68311E-02 6.38135E-01 1.80299E-13-4.95473E-13
 -1      1784 1.88196E+01 3.77257E+00-8.69019E-03 5.14759E-01 1.84119E-13-4.86685E-13
 -1      1785 1.88582E+01 3.99130E+00-1.67651E-02 1.26404E+00 2.95551E-13-4.01632E-13
 -1      1786 1.87766E+01 4.03507E+00-2.03115E-02 1.03812E+00 2.51468E-13-4.37799E-13
 -1      1787 1.89418E+01 3.64443E+00-8.81614E-03 8.88723E-01 2.59098E-13-4.32276E-13
 -1      1788 1.90838E+01 3.77226E+00-2.41998E-02 1.72564E+00 3.61623E-13-2.85473E-13
 -1      1789 1.89553E+01 3.85044E+00-2.64439E-02 1.47087E+00 3.26073E-13-3.58720E-13
 -1      1790 1.91258E+01 3.43447E+00-8.36797E-03 1.28304E+00 3.32318E-13-3.53169E-13
 -1      1791 1.94624E+01 3.37714E+00-4.30442E-02 2.21836E+00 4.17590E-13-8.02691E-14
 -1      1792 1.92418E+01 3.53747E+00-3.84289E-02 1.93110E+00 3.77614E-13-2.07379E-13
 -1      1793 1.94132E+01 3.09330E+00-5.09731E-03 1.68224E+00 3.89303E-13-2.23032E-13
 -1      1794 2.02286E+01 2.56042E+00-5.45985E-02 2.61530E+00 4.03716E-13 3.24046E-13
 -1      1795 1.97695E+01 2.96471E+00-4.80285E-02 2.37072E+00 4.07268E-13 8.22051E-14
 -1      1796 1.98867E+01 2.49527E+00 3.13551E-03 2.00269E+00 4.22311E-13 1.10988E-14
 -1      1797 2.09547E+01 1.15351E+00-1.16446E-01 2.13909E+00 3.49859E-13 8.17499E-13
 -1      1798 2.05484E+01 2.15823E+00-6.39394E-05 2.51572E+00 3.82968E-13 4.96547E-13
 -1      1799 2.02599E+01 1.60488E+00-2.12310E-02 1.92826E+00 4.13551E-13 3.26218E-13
 -1      1800 2.02428E+01 7.39056E-01-5.85899E-02 1.36916E+00 3.68840E-13 6.95432E-13
 -1      1801 2.09478E+01 2.39060E+00 8.94518E-02-3.04056E+00-3.38240E-13 4.57481E-13
 -1      1802 1.94922E+01 2.81858E-01-7.62299E-03 5.45314E-01 2.85230E-13 5.38510E-13
 -1      1803 1.99831E+01 4.17009E-01-1.15626E-02 9.04037E-01 3.09364E-13 6.31530E-13
 -1      1804 2.00845E+01 8.01093E-01 1.57974E-03 1.24963E+00 3.59868E-13 4.16946E-13
 -1      1805 2.06467E+01 1.69771E+00 7.75953E-02-2.35934E+00-3.66630E-13 3.21784E-13
 -1      1806 1.96428E+01 4.93929E-01 3.14603E-02-9.74150E-01-2.87131E-13 2.57523E-13
 -1      1807 1.91975E+01 3.49866E-01 7.26054E-03-6.86130E-01-2.40360E-13 1.80915E-13
 -1      1808 1.89920E+01 2.58072E-01 2.69443E-02-4.49538E-01-2.14880E-13 1.63793E-13
 -1      1809 1.87834E+01 1.81287E-01 1.03308E-02-3.10816E-01-2.01832E-13 9.48573E-14
 -1      1810 1.93024E+01 4.81522E-01-5.72300E-03-7.91881E-01-2.80729E-13 2.67126E-14
 -1      1811 1.86492E+01 1.37786E-01 1.66244E-02-1.74992E-01-1.72692E-13 8.95048E-14
 -1      1812 1.85539E+01 1.00079E-01 7.21351E-03-1.00717E-01-1.28293E-13 4.64689E-14
 -1      1813 1.89526E+01 2.49887E-01-5.77804E-03-3.64803E-01-2.19924E-13-2.40146E-14
 -1      1814 1.84776E+01 7.71100E-02 8.94489E-03-2.15470E-02-1.11420E-13 2.80691E-14
 -1      1815 1.84493E+01 5.73584E-02 4.67839E-03 2.03367E-02-9.53415E-14 3.08260E-15
 -1      1816 1.87456E+01 1.36968E-01-4.85453E-03-1.19383E-01-1.51008E-13-7.89980E-14
 -1      1817 1.84145E+01 4.48192E-02 4.69745E-03 6.77763E-02-8.06584E-14-1.49836E-14
 -1      1818 1.84261E+01 3.45781E-02 3.32631E-03 9.25718E-02-8.94232E-14-4.17811E-14
 -1      1819 1.86385E+01 7.82579E-02-3.84484E-03 2.62239E-02-1.23012E-13-9.73424E-14
 -1      1820 1.84200E+01 2.79976E-02 2.46658E-03 1.22522E-01-1.02797E-13-3.68657E-14
 -1      1821 1.84567E+01 2.34226E-02 2.68880E-03 1.38622E-01-8.66430E-14-5.82495E-14
 -1      1822 1.86009E+01 4.75585E-02-2.90366E-03 1.15857E-01-1.12400E-13-1.22949E-13
 -1      1823 1.84711E+01 2.05981E-02 1.30082E-03 1.59791E-01-8.78010E-14-3.55847E-14
 -1      1824 1.85253E+01 1.96610E-02 2.45220E-03 1.72322E-01-8.46620E-14-3.50853E-14
 -1      1825 1.86118E+01 3.32305E-02-2.19942E-03 1.75364E-01-7.75087E-14-1.04665E-13
 -1      1826 1.85552E+01 1.93245E-02 7.09909E-04 1.90324E-01-1.17464E-13-2.58339E-14
 -1      1827 1.86236E+01 2.07866E-02 2.45524E-03 2.02614E-01-9.51886E-14-5.43134E-14
 -1      1828 1.86583E+01 2.92581E-02-1.75861E-03 2.20916E-01-1.07736E-13-6.13850E-14
 -1      1829 1.86665E+01 2.20639E-02 4.46513E-04 2.21134E-01-1.07436E-13-9.64227E-14
 -1      1830 1.87484E+01 2.50067E-02 2.59415E-03 2.35320E-01-1.49201E-13-1.74419E-13
 -1      1831 1.87331E+01 3.20213E-02-1.53597E-03 2.63048E-01-1.65851E-13-1.15964E-13
 -1      1832 1.88038E+01 2.71497E-02 3.69887E-04 2.56614E-01-1.70564E-13-1.69115E-13
 -1      1833 1.89001E+01 3.07101E-02 2.77007E-03 2.73839E-01-1.33448E-13-2.24364E-13
 -1      1834 1.88333E+01 3.88494E-02-1.46973E-03 3.08516E-01-1.70601E-13-1.39303E-13
 -1      1835 1.89682E+01 3.29238E-02 3.85492E-04 2.98857E-01-1.04567E-13-2.33619E-13
 -1      1836 1.90805E+01 3.61001E-02 2.86305E-03 3.19225E-01-7.66946E-14-2.60554E-13
 -1      1837 1.89585E+01 4.72399E-02-1.50087E-03 3.60995E-01-1.35894E-13-1.50817E-13
 -1      1838 1.91622E+01 3.73980E-02 4.20924E-04 3.47464E-01-2.76773E-14-2.83506E-13
 -1      1839 1.92915E+01 3.88758E-02 2.71728E-03 3.69806E-01 1.10181E-14-2.77147E-13
 -1      1840 1.91101E+01 5.43080E-02-1.57535E-03 4.21075E-01-7.44733E-14-1.53894E-13
 -1      1841 1.93876E+01 3.79486E-02 4.17350E-04 3.98945E-01 1.53718E-14-2.75587E-13
 -1      1842 1.95334E+01 3.59537E-02 2.13547E-03 4.20412E-01-2.35001E-14-2.42375E-13
 -1      1843 1.92897E+01 5.63156E-02-1.64156E-03 4.85718E-01-8.93003E-16-2.39531E-13
 -1      1844 1.96441E+01 3.10811E-02 3.28541E-04 4.45772E-01-5.25977E-14-2.45588E-13
 -1      1845 1.98027E+01 2.33261E-02 8.91808E-04 4.61333E-01-4.76520E-14-2.52844E-13
 -1      1846 1.94981E+01 4.83001E-02-1.64586E-03 5.47292E-01-2.44399E-14-3.22525E-13
 -1      1847 1.99269E+01 1.24239E-02 1.23510E-04 4.75302E-01-6.28025E-14-2.35792E-13
 -1      1848 2.00898E+01-3.68697E-03-1.21846E-03 4.77333E-01-7.20471E-14-2.15504E-13
 -1      1849 1.97340E+01 2.40043E-02-1.52467E-03 5.92359E-01-4.82733E-14-2.92343E-13
 -1      1850 2.02241E+01-2.26924E-02-2.14213E-04 4.69064E-01-8.84871E-14-2.26392E-13
 -1      1851 2.03769E+01-4.93043E-02-4.26582E-03 4.47461E-01-8.27192E-14-2.72696E-13
 -1      1852 1.99924E+01-2.34205E-02-1.18981E-03 6.00725E-01-9.43556E-14-2.32307E-13
 -1      1853 2.05145E+01-7.74662E-02-6.96727E-04 4.03527E-01-1.09029E-13-2.61294E-13
 -1      1854 2.06355E+01-1.14565E-01-7.99027E-03 3.47138E-01-1.56926E-13-2.48906E-13
 -1      1855 2.02625E+01-9.91256E-02-5.02997E-04 5.45760E-01-1.28531E-13-2.09392E-13
 -1      1856 2.07645E+01-1.49955E-01-1.37023E-03 2.54288E-01-2.42822E-13-2.28639E-13
 -1      1857 2.08268E+01-1.92465E-01-1.15272E-02 1.54747E-01-1.95532E-13-3.43165E-13
 -1      1858 2.05254E+01-2.01655E-01 7.48969E-04 3.97953E-01-2.11983E-13-1.76752E-13
 -1      1859 2.09284E+01-2.27273E-01-2.31604E-03 6.26992E-03-1.07515E-13-3.79031E-13
 -1      1860 2.09048E+01-2.61757E-01-1.32561E-02-1.34816E-01-7.67511E-14-4.71404E-13
 -1      1861 2.07508E+01-3.15085E-01 2.82668E-03 1.34481E-01-2.32312E-13-2.08380E-13
 -1      1862 2.09531E+01-2.79998E-01-3.71991E-03-3.28373E-01-9.58608E-14-5.50544E-13
 -1      1863 2.08269E+01-2.83723E-01-1.10672E-02-4.89968E-01-1.91014E-13-5.41350E-13
 -1      1864 2.08959E+01-4.00636E-01 5.75347E-03-2.42437E-01-1.44779E-13-3.43632E-13
 -1      1865 2.07940E+01-2.62773E-01-5.34723E-03-6.88477E-01-3.16811E-13-4.81674E-13
 -1      1866 2.05733E+01-2.10378E-01-3.38941E-03-8.23279E-01-3.21858E-13-5.86646E-13
 -1      1867 2.09096E+01-3.96583E-01 8.67161E-03-6.79960E-01-2.70104E-13-3.83920E-13
 -1      1868 2.04454E+01-1.31780E-01-6.24001E-03-9.52101E-01-3.40362E-13-5.30923E-13
 -1      1869 2.01764E+01-1.35788E-02 8.88540E-03-9.92716E-01-3.66707E-13-6.20348E-13
 -1      1870 2.07519E+01-2.37989E-01 9.60436E-03-1.05354E+00-3.91229E-13-3.32213E-13
 -1      1871 1.99809E+01 1.16863E-01-3.82255E-03-9.61857E-01-4.26620E-13-6.88171E-13
 -1      1872 1.97478E+01 2.72210E-01 2.13356E-02-8.49394E-01-5.22417E-13-9.10508E-13
 -1      1873 2.04350E+01 9.15385E-02 5.37328E-03-1.17773E+00-4.80559E-13-3.90975E-13
 -1      1874 1.95724E+01 4.08686E-01 3.90195E-03-6.05359E-01-6.09668E-13-1.03231E-12
 -1      1875 1.94764E+01 5.34785E-01 2.77023E-02-3.34269E-01-6.68834E-13-1.19278E-12
 -1      1876 2.00692E+01 5.08539E-01-4.15658E-03-8.82214E-01-6.98872E-13-6.36114E-13
 -1      1877 1.94407E+01 6.10106E-01 1.35999E-02 8.74489E-02-7.30714E-13-1.36167E-12
 -1      1878 1.95619E+01 6.36506E-01 2.13336E-02 4.47269E-01-7.05923E-13-1.60934E-12
 -1      1879 1.98572E+01 8.36983E-01-1.71792E-02-1.37631E-01-8.58303E-13-8.72551E-13
 -1      1880 1.97587E+01 6.02379E-01 1.45093E-02 9.12936E-01-6.98981E-13-1.89585E-12
 -1      1881 2.01214E+01 5.17149E-01 6.43559E-04 1.24097E+00-5.79663E-13-2.17527E-12
 -1      1882 2.00100E+01 9.00912E-01-3.39610E-02 8.72305E-01-9.16942E-13-1.22899E-12
 -1      1883 2.05386E+01 4.06722E-01-3.74851E-03 1.59344E+00-4.46670E-13-2.49843E-12
 -1      1884 2.11072E+01 2.96206E-01-2.48413E-02 1.81006E+00-2.82718E-13-2.61436E-12
 -1      1885 2.06137E+01 6.78684E-01-5.74601E-02 1.80845E+00-7.29070E-13-1.92156E-12
 -1      1886 2.16234E+01 2.29614E-01-3.28977E-02 1.98568E+00-3.49547E-14-2.82874E-12
 -1      1887 2.23013E+01 2.35130E-01-4.95130E-02 2.14590E+00 2.50720E-13-2.69200E-12
 -1      1888 2.15583E+01 3.89304E-01-7.94177E-02 2.40736E+00-2.58460E-13-2.43008E-12
 -1      1889 2.27206E+01 3.39314E-01-8.36738E-02 2.20204E+00 8.05293E-13-2.55849E-12
 -1      1890 2.35033E+01 6.88575E-01-2.45431E-02 2.42050E+00 1.62241E-12-2.03361E-12
 -1      1891 2.25921E+01 3.82291E-01-8.75951E-02 2.65102E+00 8.92411E-13-2.49226E-12
 -1      1892 2.32829E+01 1.01575E+00-1.52696E-01 3.04745E+00 2.64445E-12-1.20512E-12
 -1      1893 2.43395E+01 7.16265E-01-1.96252E-01 3.51981E+00 3.31528E-12-3.11084E-13
 -1      1894 2.29335E+01 1.49718E+00-2.89463E-03 2.96868E+00 2.85508E-12-1.97798E-12
 -1      1895 2.51128E+01-3.42968E-01-3.26703E-01 4.44314E+00 3.31540E-12 2.36205E-12
 -1      1896 2.66364E+01-2.39400E+00-5.86385E-01 3.96834E+00 1.38184E-12 2.62715E-12
 -1      1897 2.26577E+01 2.09339E-01-5.44897E-01 5.08770E+00 4.19975E-12 1.10723E-12
 -1      1898 3.03384E+01-4.14527E+00-1.19433E-01 1.93710E+00-3.75427E-12 2.03504E-12
 -1      1899 3.07781E+01-3.84626E+00-2.52225E-01-1.92107E-01-8.65219E-12-7.85982E-13
 -1      1900 2.65536E+01-5.73313E+00-1.16045E+00 5.33430E+00-2.88164E-12 5.92171E-12
 -1      1901 3.25490E+01-1.16852E+00 1.16495E-01-2.47309E+00-1.44527E-11-1.52573E-11
 -1      1902 3.17126E+01 2.74226E+00 4.99856E-01-2.34815E+00-1.35522E-11-1.75142E-11
 -1      1903 3.29497E+01-3.28643E+00 2.20156E-01-7.84932E-01-1.73797E-11-7.33175E-12
 -1      1904 3.35434E+01 3.28150E+00 2.46483E+00 2.45174E-01 4.56525E-12-3.88281E-11
 -1      1905 2.72728E+01-2.98197E-01 1.42154E+00-1.70437E-02 8.38224E-12-1.38752E-11
 -1      1906 3.98629E+01 5.18171E+00 3.97038E+00-2.01997E-01-1.91127E-11-5.57066E-11
 -1      1907 2.16611E+01-1.60475E-02-2.34115E-03-4.48378E-01 1.15082E-13-3.70229E-13
 -1      1908 2.15083E+01 3.89811E-03 3.14429E-04-4.52481E-01 9.00799E-14-2.87172E-13
 -1      1909 2.15231E+01-4.44893E-02-9.60254E-04-5.61068E-01 1.86698E-13-2.55255E-13
 -1      1910 2.13821E+01 1.76802E-02 1.03117E-04-4.43682E-01 2.56371E-13-2.39295E-13
 -1      1911 2.12303E+01 2.87538E-02 6.53754E-04-4.30501E-01 3.80822E-13-3.55804E-14
 -1      1912 2.12633E+01 1.31697E-02-1.42603E-03-5.69456E-01 3.03154E-13-5.29944E-14
 -1      1913 2.11168E+01 3.60212E-02 1.63350E-03-4.06065E-01 2.93070E-13-1.23509E-13
 -1      1914 2.09768E+01 4.07121E-02 8.68073E-04-3.83827E-01 1.49490E-13-5.64436E-14
 -1      1915 2.10232E+01 4.64133E-02-1.64050E-03-5.31063E-01 3.48528E-13-8.06883E-14
 -1      1916 2.08782E+01 4.34894E-02 2.42716E-03-3.52213E-01 2.89256E-14 5.77009E-14
 -1      1917 2.07557E+01 4.40753E-02 9.72403E-04-3.26635E-01-6.05671E-14 1.81808E-14
 -1      1918 2.08101E+01 6.16952E-02-1.69180E-03-4.67763E-01 1.13670E-13 1.21367E-14
 -1      1919 2.06725E+01 4.40602E-02 2.69874E-03-2.93436E-01-1.01118E-13-2.07604E-14
 -1      1920 2.05696E+01 4.23028E-02 9.91656E-04-2.68085E-01-1.25934E-13-6.40595E-14
 -1      1921 2.06271E+01 6.51760E-02-1.63565E-03-3.94959E-01-1.05456E-13 1.30903E-13
 -1      1922 2.05010E+01 4.07530E-02 2.63890E-03-2.36622E-01-1.97682E-13-8.88322E-14
 -1      1923 2.04173E+01 3.78889E-02 9.54510E-04-2.13452E-01-9.37978E-14-4.52887E-14
 -1      1924 2.04742E+01 6.17337E-02-1.51126E-03-3.22442E-01-1.22917E-13 1.13933E-13
 -1      1925 2.03621E+01 3.56673E-02 2.39355E-03-1.85409E-01 1.98748E-13-8.18242E-14
 -1      1926 2.02960E+01 3.25083E-02 8.87861E-04-1.65261E-01 3.78043E-13 1.75330E-14
 -1      1927 2.03495E+01 5.48534E-02-1.34783E-03-2.55721E-01 4.98933E-14 1.32915E-13
 -1      1928 2.02525E+01 3.01753E-02 2.06288E-03-1.41218E-01 4.18622E-13 4.04701E-14
 -1      1929 2.02018E+01 2.72248E-02 8.11772E-04-1.24211E-01 5.12302E-13 2.68189E-13
 -1      1930 2.02500E+01 4.68578E-02-1.16702E-03-1.97301E-01 4.95182E-13 3.38455E-13
 -1      1931 2.01682E+01 2.51248E-02 1.70668E-03-1.04055E-01 4.98427E-13 2.19095E-13
 -1      1932 2.01306E+01 2.26728E-02 7.34309E-04-8.98684E-02 4.83109E-13 2.47934E-13
 -1      1933 2.01725E+01 3.92074E-02-9.84368E-04-1.47710E-01 5.20547E-13 2.35658E-13
 -1      1934 2.01052E+01 2.09968E-02 1.35152E-03-7.30987E-02 2.23856E-13 1.15669E-13
 -1      1935 2.00786E+01 1.91832E-02 6.61007E-04-6.11935E-02 3.93586E-14 1.66395E-13
 -1      1936 2.01133E+01 3.27547E-02-8.04758E-04-1.06287E-01 3.56873E-13 1.06609E-13
 -1      1937 2.00598E+01 1.78678E-02 9.82593E-04-4.71179E-02-1.30311E-14 1.96174E-13
 -1      1938 2.00423E+01 1.65275E-02 5.68685E-04-3.70003E-02-7.11611E-14 3.14462E-13
 -1      1939 2.00693E+01 2.79033E-02-6.02932E-04-7.18022E-02-5.64718E-15 1.38614E-13
 -1      1940 2.00298E+01 1.50970E-02 7.27539E-04-2.58256E-02-3.41445E-15 3.88436E-13
 -1      1941 2.00193E+01 1.34572E-02 5.12680E-04-1.77048E-02 1.19363E-13 4.13473E-13
 -1      1942 2.00179E+01 1.73806E-02-4.36277E-04-2.16051E-02-1.50857E-13 2.67695E-13
 -1      1943 2.00383E+01 2.31110E-02-6.74660E-04-4.36794E-02 2.00678E-14 4.26639E-13
 -1      1944 1.90977E+01 1.35221E-01 8.15494E-03 1.67424E-01 2.28160E-13 4.01885E-13
 -1      1945 1.93203E+01 1.93504E-01 1.59401E-02 3.32318E-01 2.42384E-13 4.99167E-13
 -1      1946 1.95281E+01 3.31451E-01-1.92317E-03 5.24487E-01 2.92859E-13 3.33267E-13
 -1      1947 1.89368E+01 7.06000E-02 7.17626E-03-2.81775E-02 1.53120E-13 3.03167E-13
 -1      1948 1.90082E+01 9.81386E-02 1.37443E-02 5.75768E-02 1.80244E-13 3.60259E-13
 -1      1949 1.92161E+01 1.57863E-01-2.28663E-03 1.42556E-01 2.20537E-13 2.59182E-13
 -1      1950 1.89267E+01 3.89498E-02 4.81322E-03-1.34788E-01 1.14547E-13 2.04250E-13
 -1      1951 1.89146E+01 5.30374E-02 8.20953E-03-8.66682E-02 1.18623E-13 2.61698E-13
 -1      1952 1.90935E+01 8.07518E-02-3.11513E-03-6.51351E-02 1.66937E-13 1.65852E-13
 -1      1953 1.90100E+01 2.27576E-02 3.44223E-03-1.95517E-01 8.02739E-14 1.35669E-13
 -1      1954 1.89502E+01 3.01228E-02 4.53744E-03-1.66850E-01 9.63210E-14 1.84360E-13
 -1      1955 1.90937E+01 4.33588E-02-3.16990E-03-1.82436E-01 1.15294E-13 7.13362E-14
 -1      1956 1.91525E+01 1.50596E-02 2.80123E-03-2.32749E-01 8.02237E-14 1.20560E-13
 -1      1957 1.90640E+01 1.86049E-02 2.60766E-03-2.14130E-01 6.53078E-14 1.30727E-13
 -1      1958 1.91730E+01 2.50515E-02-2.74124E-03-2.52090E-01 8.52401E-14 4.70348E-14
 -1      1959 1.93355E+01 1.27395E-02 2.54538E-03-2.59607E-01 7.46826E-14 7.95904E-14
 -1      1960 1.92278E+01 1.38781E-02 1.67591E-03-2.45417E-01 7.61361E-14 1.20359E-13
 -1      1961 1.93049E+01 1.73934E-02-2.27788E-03-2.97663E-01 8.44150E-14 2.11136E-14
 -1      1962 1.95503E+01 1.42448E-02 2.52018E-03-2.84760E-01 7.52716E-14-1.34570E-14
 -1      1963 1.94274E+01 1.37450E-02 1.28492E-03-2.71184E-01 7.70265E-14 5.50284E-14
 -1      1964 1.94749E+01 1.66003E-02-1.95174E-03-3.33628E-01 1.01052E-13 8.72143E-15
 -1      1965 1.97952E+01 1.87083E-02 2.66825E-03-3.14514E-01 3.70021E-14 2.95349E-14
 -1      1966 1.96572E+01 1.70400E-02 1.21126E-03-2.98683E-01 6.05442E-14 1.61411E-14
 -1      1967 1.96762E+01 2.07544E-02-1.79532E-03-3.69841E-01 5.56700E-14-3.76300E-14
 -1      1968 2.00736E+01 2.55594E-02 2.96053E-03-3.53755E-01 7.06971E-14-1.81753E-15
 -1      1969 1.99179E+01 2.30577E-02 1.34000E-03-3.33358E-01 6.32336E-14 1.19150E-14
 -1      1970 1.99080E+01 2.87502E-02-1.79485E-03-4.13565E-01 5.18725E-14-4.08954E-15
 -1      1971 2.03924E+01 3.42692E-02 3.35869E-03-4.06291E-01 1.03838E-13-2.81711E-14
 -1      1972 2.02145E+01 3.12524E-02 1.59472E-03-3.79436E-01 9.04491E-14 5.82379E-16
 -1      1973 2.01734E+01 3.97806E-02-1.92959E-03-4.70370E-01 8.66081E-14-2.62699E-15
 -1      1974 2.07610E+01 4.40762E-02 3.78852E-03-4.74732E-01 9.92639E-14-8.95164E-14
 -1      1975 2.05550E+01 4.09753E-02 1.90163E-03-4.40019E-01 1.07544E-13-3.10922E-14
 -1      1976 2.04785E+01 5.29454E-02-2.18386E-03-5.44331E-01 1.14496E-13-5.18074E-14
 -1      1977 2.11897E+01 5.35799E-02 4.10782E-03-5.59795E-01-1.14791E-14-1.00636E-13
 -1      1978 2.09495E+01 5.11282E-02 2.16677E-03-5.16658E-01 6.74482E-15-7.89281E-14
 -1      1979 2.08308E+01 6.67749E-02-2.54799E-03-6.37622E-01 2.69452E-14-6.81701E-14
 -1      1980 2.16878E+01 6.01042E-02 4.06649E-03-6.58746E-01 2.66094E-14-1.08581E-13
 -1      1981 2.14080E+01 5.96254E-02 2.25653E-03-6.08235E-01 2.92192E-15-1.23606E-13
 -1      1982 2.12384E+01 7.85089E-02-3.01577E-03-7.49271E-01 4.08558E-14-1.46486E-13
 -1      1983 2.22594E+01 5.87482E-02 3.27348E-03-7.62584E-01 5.07339E-14-1.48934E-13
 -1      1984 2.19383E+01 6.25685E-02 1.98619E-03-7.08800E-01 6.02795E-14-1.02188E-13
 -1      1985 2.17079E+01 8.29949E-02-3.57545E-03-8.72746E-01 6.10302E-14-2.12812E-13
 -1      1986 2.28989E+01 4.12164E-02 1.21843E-03-8.51513E-01 1.47710E-13-3.42227E-13
 -1      1987 2.25420E+01 5.31167E-02 1.13551E-03-8.03964E-01 8.25906E-14-2.64560E-13
 -1      1988 2.22419E+01 7.11819E-02-4.18073E-03-9.91909E-01 1.46052E-13-2.09861E-13
 -1      1989 2.35830E+01-4.87624E-03-2.54885E-03-8.88835E-01 1.77545E-14-2.28035E-13
 -1      1990 2.32085E+01 2.04050E-02-4.76453E-04-8.65708E-01 9.87500E-14-3.07742E-13
 -1      1991 2.28349E+01 2.86637E-02-4.67744E-03-1.07515E+00 1.06469E-13-3.58051E-13
 -1      1992 2.42614E+01-9.39692E-02-7.95080E-03-8.15442E-01-2.04349E-13-1.33104E-13
 -1      1993 2.39069E+01-5.00473E-02-2.84063E-03-8.46697E-01-9.10474E-14-1.64257E-13
 -1      1994 2.34695E+01-6.38631E-02-4.66322E-03-1.06877E+00-9.40810E-14-1.70582E-13
 -1      1995 2.48481E+01-2.33092E-01-1.35573E-02-5.52562E-01-7.03196E-14-1.24918E-13
 -1      1996 2.45747E+01-1.70741E-01-5.63959E-03-6.78822E-01-1.56253E-13-1.32783E-13
 -1      1997 2.41085E+01-2.23233E-01-3.29732E-03-8.94358E-01-1.58120E-13-7.76722E-14
 -1      1998 2.52191E+01-3.99586E-01-1.58555E-02-2.85672E-02-3.58307E-14-7.95457E-14
 -1      1999 2.51080E+01-3.35571E-01-7.95104E-03-2.87321E-01-4.77465E-14-9.21945E-14
 -1      2000 2.46858E+01-4.43065E-01 6.86263E-04-4.62352E-01-4.69728E-14-3.53875E-14
 -1      2001 2.52284E+01-5.10546E-01-1.11500E-02 7.49240E-01 3.83200E-14 7.92769E-16
 -1      2002 2.53586E+01-4.90494E-01-9.46557E-03 3.60841E-01-1.05783E-14 6.53644E-15
 -1      2003 2.50953E+01-6.53875E-01 8.13053E-03 2.77873E-01-4.28980E-14 8.09730E-14
 -1      2004 2.47618E+01-4.14990E-01 3.35119E-04 1.58176E+00-2.99847E-14-2.01263E-14
 -1      2005 2.51656E+01-5.07402E-01-1.02559E-02 1.16553E+00 5.55805E-15 2.03483E-15
 -1      2006 2.51929E+01-6.93867E-01 1.56102E-02 1.23531E+00-6.46358E-15 1.44306E-13
 -1      2007 2.38447E+01 4.95843E-03 4.49912E-03 2.00696E+00-3.17689E-13 4.38885E-14
 -1      2008 2.44509E+01-2.25281E-01-1.19148E-02 1.79671E+00-1.99305E-13-5.58095E-14
 -1      2009 2.48510E+01-3.48299E-01 1.50817E-02 2.05688E+00-2.06443E-13 4.75939E-14
 -1      2010 2.28233E+01 6.02716E-01-1.16127E-02 1.52723E+00-1.68521E-13 6.25281E-14
 -1      2011 2.34149E+01 3.48985E-01-1.18080E-02 1.75720E+00-2.33778E-13 2.90427E-14
 -1      2012 2.41313E+01 3.84325E-01-8.54707E-03 2.14647E+00-2.60836E-13 9.93129E-14
 -1      2013 2.23190E+01 9.62463E-01-3.42583E-02 1.41048E-01 2.70801E-13-1.44332E-13
 -1      2014 2.25958E+01 8.83054E-01-3.17828E-03 7.91397E-01 8.06299E-14-9.95679E-14
 -1      2015 2.34625E+01 1.12487E+00-3.64175E-02 1.10723E+00 1.05201E-13-1.16468E-13
 -1      2016 2.27868E+01 7.48982E-01-4.16272E-02-1.41984E+00 3.03979E-13-4.00804E-13
 -1      2017 2.25383E+01 9.32768E-01 3.34466E-03-7.12489E-01 3.90542E-13-2.72456E-13
 -1      2018 2.34039E+01 1.33815E+00-3.01231E-02-6.75995E-01 4.41452E-13-3.37605E-13
 -1      2019 2.40035E+01 1.74960E-01-2.06094E-02-2.23763E+00 4.67230E-14-7.22672E-13
 -1      2020 2.33250E+01 4.51390E-01-1.72539E-03-1.87264E+00 1.97131E-13-5.46070E-13
 -1      2021 2.40732E+01 7.75735E-01-1.89541E-02-2.15529E+00 3.40169E-13-6.11875E-13
 -1      2022 2.52375E+01-2.11009E-01 2.15464E-02-2.10978E+00 4.65062E-14-6.41813E-13
 -1      2023 2.44570E+01-1.04042E-01-1.67084E-02-2.13068E+00 8.77727E-15-6.58543E-13
 -1      2024 2.49843E+01-2.06874E-04-7.66736E-04-2.55435E+00 5.31424E-14-5.96127E-13
 -1      2025 2.57967E+01-1.24710E-01 1.01871E-01-1.28142E+00 6.70609E-14-5.08694E-13
 -1      2026 2.53340E+01-2.62001E-01 3.00484E-03-1.62664E+00 6.82961E-14-5.05002E-13
 -1      2027 2.55222E+01-3.91463E-01 2.12982E-02-1.93889E+00 5.02307E-14-3.35955E-13
 -1      2028 2.57433E+01-1.79180E-01 1.80302E-01-3.08980E-01-2.77424E-13-3.85740E-13
 -1      2029 2.56099E+01-1.50443E-01 9.01369E-02-6.87595E-01-1.19023E-13-4.71845E-13
 -1      2030 2.54966E+01-4.41301E-01 5.90969E-02-8.14943E-01-1.30665E-13-2.19057E-13
 -1      2031 2.48940E+01-2.63863E-01 8.88829E-03 4.29237E-01-1.73798E-13-4.45956E-13
 -1      2032 2.51510E+01-2.77490E-01 6.05034E-02 9.96350E-02-2.72508E-13-5.02747E-13
 -1      2033 2.50256E+01-3.85331E-01 8.83505E-02 1.46756E-01-2.06822E-13-4.29233E-13
 -1      2034 2.43149E+01-1.13789E-01 1.26933E-03 7.55821E-01-1.56233E-13-2.47086E-13
 -1      2035 2.45754E+01-1.82910E-01-9.84282E-03 6.15872E-01-1.11159E-13-3.31153E-13
 -1      2036 2.41955E+01-3.14410E-01-7.61749E-03 7.42701E-01-1.76824E-13-4.27532E-13
 -1      2037 2.36441E+01-1.32551E-02-2.65034E-03 8.61165E-01-7.90416E-14-5.43159E-14
 -1      2038 2.39923E+01-5.47239E-02-4.73314E-03 8.12032E-01-9.79486E-14-6.24084E-14
 -1      2039 2.36029E+01-1.13046E-01-4.67208E-03 1.00052E+00-1.92699E-13-9.57750E-14
 -1      2040 2.29780E+01 4.09994E-02-3.73317E-03 8.31297E-01 2.45867E-13-1.37866E-13
 -1      2041 2.33442E+01 2.15563E-02-7.07427E-04 8.38703E-01 1.30987E-13-4.29960E-14
 -1      2042 2.30004E+01 1.31708E-02-2.19982E-03 1.04699E+00 1.21489E-13 2.43707E-14
 -1      2043 2.23701E+01 6.34291E-02-3.40787E-03 7.34651E-01-4.09468E-14-5.28371E-14
 -1      2044 2.27126E+01 5.79093E-02 1.93823E-03 7.70714E-01 1.33992E-13-1.44072E-13
 -1      2045 2.24357E+01 7.66118E-02-7.55199E-04 9.72104E-01 1.65361E-13 6.26339E-14
 -1      2046 2.18442E+01 6.74693E-02-2.61688E-03 6.15066E-01-2.94816E-13-1.09195E-13
 -1      2047 2.21430E+01 6.94009E-02 3.32202E-03 6.61674E-01-1.94980E-13-6.25249E-14
 -1      2048 2.19339E+01 9.92459E-02-1.61371E-04 8.41921E-01-1.12080E-13 1.06634E-13
 -1      2049 2.14058E+01 6.23828E-02-1.81447E-03 4.96652E-01-1.32031E-13 2.08958E-13
 -1      2050 2.16549E+01 6.76109E-02 3.79105E-03 5.43676E-01-2.89645E-13 5.26633E-14
 -1      2051 2.15049E+01 9.93815E-02-5.42843E-05 6.97106E-01-3.75634E-13 9.61666E-14
 -1      2052 2.10504E+01 5.36591E-02-1.16138E-03 3.90690E-01-1.04731E-13 1.06269E-13
 -1      2053 2.12515E+01 5.98479E-02 3.70107E-03 4.33262E-01-1.13865E-13 1.11599E-13
 -1      2054 2.11487E+01 8.90288E-02-1.47321E-04 5.59354E-01-1.73119E-13 1.27999E-13
 -1      2055 2.07686E+01 4.42177E-02-6.81351E-04 3.01098E-01 2.75040E-15 2.87896E-13
 -1      2056 2.09270E+01 5.01951E-02 3.32434E-03 3.37408E-01-1.05030E-13 2.06504E-13
 -1      2057 2.08600E+01 7.50506E-02-2.78694E-04 4.38346E-01-1.28760E-13 2.03554E-13
 -1      2058 2.05492E+01 3.54544E-02-3.47652E-04 2.27968E-01 7.96993E-14 2.41552E-13
 -1      2059 2.06715E+01 4.07111E-02 2.83802E-03 2.57826E-01 1.51641E-13 3.05893E-13
 -1      2060 2.06306E+01 6.09619E-02-3.79545E-04 3.36947E-01 1.61852E-13 2.82605E-13
 -1      2061 2.03814E+01 2.79430E-02-1.21922E-04 1.69626E-01-1.56363E-13 3.40057E-13
 -1      2062 2.04741E+01 3.23143E-02 2.34429E-03 1.93612E-01-4.24175E-14 2.26263E-13
 -1      2063 2.04516E+01 4.83551E-02-4.32708E-04 2.54515E-01-7.00221E-15 4.70501E-13
 -1      2064 2.02553E+01 2.18567E-02 2.97493E-05 1.23712E-01 2.32620E-13 3.71265E-13
 -1      2065 2.03243E+01 2.53375E-02 1.89411E-03 1.42730E-01 1.55105E-14 3.01073E-13
 -1      2066 2.03143E+01 3.78236E-02-4.43507E-04 1.88803E-01 7.89865E-14 4.37326E-13
 -1      2067 2.01626E+01 1.71925E-02 1.30375E-04 8.77100E-02 4.15767E-13 2.64285E-13
 -1      2068 2.02128E+01 1.98447E-02 1.50659E-03 1.02767E-01 4.23286E-13 4.86287E-13
 -1      2069 2.02109E+01 2.94874E-02-4.27171E-04 1.36974E-01 4.02606E-13 4.21697E-13
 -1      2070 2.00963E+01 1.38401E-02 1.84321E-04 5.91896E-02 3.49020E-13 7.33565E-14
 -1      2071 2.01316E+01 1.57732E-02 1.18002E-03 7.12956E-02 2.59906E-13 1.81574E-13
 -1      2072 2.01346E+01 2.32588E-02-3.97711E-04 9.61010E-02 3.09325E-13 2.46287E-13
 -1      2073 2.00512E+01 1.15538E-02 1.80085E-04 3.61012E-02 7.52835E-14 2.12919E-13
 -1      2074 2.00746E+01 1.29167E-02 8.91524E-04 4.61258E-02 2.10633E-13 2.35075E-13
 -1      2075 2.00799E+01 1.88234E-02-3.81047E-04 6.34982E-02 2.56644E-13 2.42693E-13
 -1      2076 2.00228E+01 9.88025E-03 2.97524E-04 1.72343E-02 1.28473E-13 1.25956E-13
 -1      2077 2.00365E+01 1.08297E-02 6.05069E-04 2.55670E-02 1.71986E-13 2.73985E-13
 -1      2078 2.00422E+01 1.57553E-02-3.28759E-04 3.70565E-02 1.52167E-13 6.34146E-13
 -1      2079 2.00094E+01 7.69969E-03 4.14966E-04 6.08658E-03-5.33452E-14-4.68036E-14
 -1      2080 2.00164E+01 9.65551E-03 3.89550E-04 1.22787E-02 1.00593E-13-2.26805E-14
 -1      2081 2.00210E+01 1.39647E-02-2.10392E-04 1.96125E-02 1.77605E-13 5.37021E-13
 -1      2082 2.00103E+01 1.08440E-02 6.72761E-05 9.15699E-03-9.81722E-14 3.74434E-13
 -1      2083 2.00032E+01 8.59543E-02-2.55858E-04 4.80114E-02 7.96439E-14 1.69169E-13
 -1      2084 2.00068E+01 7.05864E-02 4.24113E-04 4.51009E-02-9.31415E-14 3.83430E-13
 -1      2085 2.00097E+01 5.41697E-02-5.43026E-05 3.95813E-02 6.34999E-14 2.64292E-13
 -1      2086 2.00122E+01 4.11615E-02 4.48954E-04 3.31513E-02 1.35187E-13 3.65742E-13
 -1      2087 2.00123E+01 7.01278E-02-6.56178E-05 5.59199E-02-5.31313E-15 1.74500E-13
 -1      2088 2.00122E+01 2.92603E-02 1.05529E-04 2.50252E-02 1.06121E-13 4.71658E-13
 -1      2089 2.00124E+01 1.98405E-02 3.42751E-04 1.75728E-02 6.54730E-15 4.70251E-13
 -1      2090 2.00176E+01 2.18905E-02 2.00943E-04 2.27506E-02 7.32132E-14 5.01941E-13
 -1      2091 2.00172E+01 4.22991E-02-2.73273E-04 4.03224E-02-1.73176E-14 4.30419E-13
 -1      2092 1.99965E+01 1.17688E-01-4.50229E-04 4.79196E-02 9.69856E-14-1.17789E-13
 -1      2093 2.00000E+01 1.02304E-01 2.05685E-04 4.88543E-02 1.00357E-13 1.74246E-14
 -1      2094 2.00027E+01 1.02660E-01 1.49436E-04 6.27350E-02 4.50119E-14 9.27590E-15
 -1      2095 1.99905E+01 1.45851E-01-6.01002E-04 3.94657E-02 2.88035E-13 4.37060E-13
 -1      2096 1.99935E+01 1.32448E-01-7.25248E-05 4.39705E-02 1.46959E-13 2.86990E-13
 -1      2097 1.99929E+01 1.33664E-01 3.66393E-04 5.89905E-02 7.69332E-14 9.61751E-14
 -1      2098 1.99864E+01 1.65700E-01-6.68525E-04 2.43262E-02 2.41710E-13 1.02863E-13
 -1      2099 1.99883E+01 1.56756E-01-3.43775E-04 3.14756E-02 2.16978E-13 3.09459E-13
 -1      2100 1.99847E+01 1.59287E-01 5.60268E-04 4.53066E-02 1.44577E-13 2.57294E-13
 -1      2101 1.99847E+01 1.74349E-01-6.40481E-04 5.24254E-03 1.54976E-13-2.29611E-13
 -1      2102 1.99853E+01 1.71309E-01-5.51775E-04 1.37488E-02 1.63083E-13-9.88990E-15
 -1      2103 1.99795E+01 1.75793E-01 6.83898E-04 2.42048E-02 9.24117E-14-5.23604E-14
 -1      2104 1.99855E+01 1.70613E-01-5.17251E-04-1.45603E-02-4.45612E-14-1.39499E-13
 -1      2105 1.99848E+01 1.73945E-01-6.65596E-04-6.14206E-03 8.10176E-14-1.59196E-13
 -1      2106 1.99778E+01 1.80994E-01 7.15613E-04-6.94907E-04-9.44286E-14-2.19957E-13
 -1      2107 1.99887E+01 1.55168E-01-3.17711E-04-3.18305E-02-1.96722E-14-2.39866E-13
 -1      2108 1.99868E+01 1.64311E-01-6.70937E-04-2.49050E-02-1.11044E-13 6.78917E-14
 -1      2109 1.99799E+01 1.74279E-01 6.53442E-04-2.53154E-02-2.89775E-13-1.26082E-13
 -1      2110 1.99937E+01 1.30925E-01-5.97660E-05-4.35814E-02-2.74998E-14-4.38519E-13
 -1      2111 1.99909E+01 1.44084E-01-5.86483E-04-3.93578E-02 3.62963E-14-4.69004E-13
 -1      2112 1.99853E+01 1.56863E-01 5.23870E-04-4.55859E-02-1.07576E-13-2.62829E-13
 -1      2113 2.00001E+01 1.00667E-01 2.04928E-04-4.81661E-02 2.64925E-14 5.74457E-14
 -1      2114 1.99967E+01 1.16181E-01-4.29947E-04-4.73084E-02 8.42073E-14 5.85005E-15
 -1      2115 1.99931E+01 1.31078E-01 3.14700E-04-5.84472E-02 4.76214E-14-2.35192E-13
 -1      2116 2.00065E+01 6.91229E-02 4.04450E-04-4.43945E-02-2.32972E-15-3.01025E-13
 -1      2117 2.00032E+01 8.43427E-02-2.36509E-04-4.72392E-02 1.03130E-13-1.89288E-13
 -1      2118 2.00026E+01 1.00077E-01 7.90521E-05-6.17926E-02 1.40014E-13-1.61752E-15
 -1      2119 2.00114E+01 3.94094E-02 7.07915E-05-3.27756E-02-2.61078E-13 1.21997E-13
 -1      2120 2.00094E+01 5.31360E-02-2.28294E-05-3.89754E-02-7.48564E-14-2.29680E-13
 -1      2121 2.00118E+01 6.81628E-02-4.69893E-05-5.49031E-02-5.29112E-14-3.43509E-13
 -1      2122 1.05974E+01-5.51044E+00-1.95378E-01 6.27799E+00 6.85563E-14 2.57849E-13
 -1      2123 6.27316E+00-7.02098E+00-4.87104E-01 4.79743E+00 4.18554E-14 1.53516E-13
 -1      2124 5.19632E-01-6.36689E+00-2.81925E-01 5.04582E-01-9.76302E-14 6.42375E-13
 -1      2125-1.81916E+00-9.12478E+00-1.72671E+00-2.46311E+00 1.16587E-11 6.21292E-12
 -1      2126 3.58107E+00-6.64511E+00-3.40919E-01 4.00397E+00 2.58682E-14 1.07692E-13
 -1      2127 1.61937E+00-6.97124E+00-3.76093E-01 2.61469E+00-1.98980E-13 2.73559E-13
 -1      2128 6.89095E+00-5.37437E+00-1.28869E-01 5.46693E+00-1.31117E-13 1.43163E-13
 -1      2129 2.10344E+01-4.13146E+00 1.95955E-02 6.49605E+00-1.17650E-12-6.78013E-13
 -1      2130 1.61056E+01-5.69769E+00-2.15184E-01 6.20066E+00-1.56891E-12-7.60059E-13
 -1      2131 3.01758E+01-7.74959E-01 1.79500E-01 5.04326E+00-8.80462E-13-9.47797E-13
 -1      2132 2.52401E+01-3.01679E+00-1.55722E-01 4.89625E+00-1.09235E-12-9.01446E-13
 -1      2133 1.87199E+01 3.88897E+00-2.55989E-02-1.80347E+00-2.51671E-13-4.51035E-13
 -1      2134 1.88358E+01 3.82258E+00-2.34560E-02-2.03875E+00-2.98405E-13-3.81698E-13
 -1      2135 1.91402E+01 3.15540E+00-1.35225E-02-2.00045E+00-3.28462E-13-3.13633E-13
 -1      2136 1.88910E+01 3.48226E+00-6.80264E-03-1.63133E+00-2.55990E-13-4.39301E-13
 -1      2137 4.09343E+01 5.84984E+00 2.51006E-01 8.01926E-01 1.53044E-13-1.68821E-12
 -1      2138 3.89266E+01 4.75766E+00 2.65956E-01 2.29613E+00-2.89352E-13-1.46549E-12
 -1      2139 3.97213E+01 7.52261E+00 1.56169E-01-5.89040E-01 1.02285E-12-2.03458E-12
 -1      2140 3.97628E+01 7.22954E+00 2.31297E-01-3.77517E-02 6.87006E-13-1.81710E-12
 -1      2141 4.05722E+01 6.02262E+00 3.83267E-01-2.38067E+00 1.60755E-12-2.22217E-12
 -1      2142 4.12636E+01 6.89048E+00 2.40407E-01-8.19469E-01 1.35603E-12-1.95910E-12
 -1      2143 3.47043E+01 2.74701E+00 1.57665E-01-3.85159E+00 1.91655E-12-2.12064E-12
 -1      2144 3.92755E+01 4.50421E+00 4.72059E-01-3.56724E+00 1.70916E-12-2.20823E-12
 -1      2145 2.56564E+01-1.40483E+00-1.51381E-01-5.79417E+00 2.23094E-12-2.26019E-12
 -1      2146 3.10002E+01 8.26211E-02 3.21125E-02-5.22161E+00 1.93598E-12-2.19713E-12
 -1      2147 1.67173E+01-4.39306E+00-2.83818E-01-6.48713E+00 2.27157E-12-1.92282E-12
 -1      2148 2.19815E+01-2.29346E+00 2.59108E-02-7.20687E+00 2.38354E-12-2.07573E-12
 -1      2149 2.60665E+01-3.54618E+00 8.73963E-02-5.23281E+00 1.53222E-12-1.47815E-12
 -1      2150 7.56363E+00-6.25568E+00-3.63061E-01-5.58250E+00 2.10315E-12-1.71708E-12
 -1      2151 1.18877E+01-4.71677E+00-1.17851E-01-7.03026E+00 2.18492E-12-1.90224E-12
 -1      2152 1.28236E+00-7.55572E+00-5.15728E-01-2.68394E+00 2.32164E-12-1.09995E-12
 -1      2153 3.44188E+00-6.21586E+00-3.32731E-01-4.32505E+00 2.41995E-12-1.33549E-12
 -1      2154 3.92400E-02-7.51305E+00-4.29834E-01 4.48050E-01 2.35431E-12-1.42553E-13
 -1      2155 1.05106E-01-7.38799E+00-4.39081E-01-1.03348E+00 2.41671E-12-6.59861E-13
 -1      2156 2.98238E+00-6.20607E+00-2.41030E-01 3.59481E+00 2.03632E-12 2.04281E-13
 -1      2157 9.63795E-01-7.65653E+00-4.69644E-01 1.91835E+00 2.35620E-12 2.44804E-14
 -1      2158 1.63106E+00-4.99834E+00-1.81047E-01 1.55144E+00 1.88613E-12-1.78524E-13
 -1      2159 9.73580E+00-5.51362E+00-1.16744E-01 5.62622E+00 1.86040E-12 5.88057E-13
 -1      2160 6.77170E+00-6.34748E+00-1.88510E-01 4.98159E+00 1.92002E-12 3.96849E-13
 -1      2161 1.72654E+01-3.47776E+00 1.90805E-02 5.87764E+00 1.49952E-12 1.44490E-12
 -1      2162 1.29377E+01-5.31435E+00-2.60794E-01 5.26538E+00 1.76059E-12 1.02782E-12
 -1      2163 2.52846E+01-7.00776E-01 1.04897E-01 4.70207E+00 1.14847E-12 1.92540E-12
 -1      2164 2.07247E+01-2.48331E+00-1.47226E-01 4.68931E+00 1.32749E-12 1.81088E-12
 -1      2165 3.13525E+01 2.28511E+00 1.67216E-01 2.14282E+00 5.47919E-13 2.13757E-12
 -1      2166 2.77593E+01 6.77186E-01-3.46497E-02 2.71118E+00 8.57162E-13 1.94222E-12
 -1      2167 3.53840E+01 5.51781E+00 1.17195E-01 2.87851E-01-5.77871E-14 2.84645E-12
 -1      2168 3.30622E+01 4.45712E+00 7.88362E-02 1.58529E+00 2.49550E-13 2.56611E-12
 -1      2169 3.46465E+01 7.55631E+00-1.48139E-01-1.86847E+00-6.55032E-13 3.40608E-12
 -1      2170 3.50721E+01 6.95125E+00 6.46060E-02-6.88667E-01-4.76730E-13 3.23258E-12
 -1      2171 3.28435E+01 7.44067E+00-4.95548E-01-3.42046E+00 1.50546E-13 4.00032E-12
 -1      2172 3.44916E+01 7.74923E+00-2.12139E-01-2.43732E+00-4.62741E-13 4.01534E-12
 -1      2173 2.95345E+01 5.80778E+00-1.01747E+00-6.25382E+00 3.93820E-12 3.32731E-12
 -1      2174 3.18659E+01 6.17275E+00-8.14067E-01-4.61581E+00 1.78380E-12 4.08457E-12
 -1      2175 2.24780E+01 2.64631E+00-1.98545E+00-7.59298E+00 1.14412E-11 2.64644E-12
 -1      2176 2.67677E+01 4.80431E+00-1.36993E+00-7.46664E+00 6.64874E-12 3.81861E-12
 -1      2177 1.66024E+01-5.26718E+00-2.90198E+00-1.07405E+01 2.51583E-11 4.46088E-12
 -1      2178 1.98365E+01 2.71449E-01-2.17788E+00-9.79101E+00 1.70757E-11 4.55791E-12
 -1      2179 1.00166E+01-1.42002E+01-3.23271E+00-1.53557E+01 4.15084E-11 1.88916E-12
 -1      2180 1.34571E+01-9.35605E+00-3.02001E+00-1.44728E+01 3.52816E-11 2.84461E-12
 -1      2181-2.59067E+00-1.24748E+01-3.40920E+00-9.06842E+00 3.68721E-11 7.53875E-12
 -1      2182 2.16585E+00-1.33774E+01-3.51019E+00-1.47072E+01 4.19216E-11 3.12683E-12
 -1      2183 1.92608E+00-7.86866E+00-1.61791E+00-6.40197E+00 2.49433E-11-4.95715E-13
 -1      2184 3.70811E+01 2.74252E+00 3.37367E-01 2.95677E+00-5.21673E-13-1.26543E-12
 -1      2185 3.26226E+01 8.58128E-01-2.40126E-02 3.31575E+00-5.41747E-13-1.16962E-12
 -1      2186 3.19424E+01-1.27724E+00 1.20089E-01 1.86923E+00-7.36577E-13-1.08930E-12
 -1      2187 1.98713E+01 1.08441E+00-2.01377E-02-1.65660E+00-3.49734E-13 2.28526E-13
 -1      2188 3.59456E+01 3.28140E+00 2.77517E-01-1.93400E-01-3.18551E-13-1.27687E-12
 -1      2189 1.97551E+01 1.30214E+00-1.77661E-02-1.73230E+00-3.72641E-13 3.26458E-14
 -1      2190 2.45239E+00-4.56442E+00-1.42799E-01 1.90851E+00-1.39680E-13 4.09672E-13
 -1      2191 1.85070E+01-5.89678E+00-8.33301E-02 6.32666E+00-8.34111E-13-3.99524E-13
 -1      2192 1.46188E+01-5.68733E+00-1.09322E-01 6.50028E+00-6.69353E-13 9.67282E-15
 -1      2193 1.36477E+01-5.25670E+00 1.18218E-01 6.70243E+00-1.11078E-13 2.72268E-13
 -1      2194 2.00141E+01 3.31258E-02 2.06389E-04-3.02803E-02-2.84811E-13-5.68321E-14
 -1      2195 2.49865E+01-4.85792E+00-8.01874E-03 4.83390E+00-1.08341E-12-7.84678E-13
 -1      2196 7.65264E+00-1.24411E+01-3.37588E+00-1.58233E+01 4.06586E-11 2.98206E-12
 -1      2197 1.58842E+01-8.28935E+00-3.42749E+00-1.39304E+01 3.03819E-11 7.78000E-12
 -1      2198 2.08871E+01-1.30343E+00-2.81149E+00-7.42354E+00 1.50805E-11 8.51186E-12
 -1      2199 2.71866E+01 3.67670E+00-1.34441E+00-4.07004E+00 5.98124E-12 5.77383E-12
 -1      2200 3.07738E+01 6.56636E+00-6.65477E-01-2.77894E+00 7.44432E-13 4.59396E-12
 -1      2201 2.81869E+01 6.90710E+00-7.26155E-01-7.94750E-01 6.58640E-14 4.62635E-12
 -1      2202 2.75308E+01 5.33329E+00-1.11409E+00-1.62981E+00 1.54597E-12 5.37470E-12
 -1      2203 3.09822E+01 8.37441E+00-1.21474E-01-1.45902E+00-6.28553E-13 3.68383E-12
 -1      2204 3.18182E+01 7.02704E+00 1.58339E-01-1.20417E+00-4.34930E-13 2.77309E-12
 -1      2205 3.04162E+01 3.01891E+00 1.21589E-01-4.49919E-01 2.05808E-13 2.14578E-12
 -1      2206 2.70781E+01-1.14032E+00 1.48601E-01 1.88357E+00 8.35457E-13 1.64985E-12
 -1      2207 2.09465E+01-4.26752E+00 4.50008E-02 4.68587E+00 1.33299E-12 1.56294E-12
 -1      2208 5.91683E+00-5.64423E+00-1.08590E-01 4.76066E+00 1.78652E-12 1.36668E-13
 -1      2209 5.56798E+00-4.14680E+00 9.89469E-02 4.55489E+00 1.50185E-12-6.61693E-14
 -1      2210 8.94719E+00-4.96167E+00-5.88423E-02 5.76685E+00 1.49888E-12 2.68008E-13
 -1      2211 1.86131E+00-5.13562E+00-2.37969E-01-2.40371E+00 1.77194E-12-8.41327E-13
 -1      2212 1.68342E+01-5.34497E+00-9.04926E-02-6.98399E+00 1.41587E-12-1.38129E-12
 -1      2213 3.28028E+01 5.52805E-01 1.35757E-01-3.07603E+00 1.79021E-12-1.68177E-12
 -1      2214 3.29801E+01 4.69294E-01-2.18106E-01-4.99898E-01 1.37862E-12-1.01985E-12
 -1      2215 3.09777E+01-1.60111E+00 1.55103E-01-2.07361E+00 1.32945E-12-1.05133E-12
 -1      2216 3.69053E+01 5.14442E+00 3.25045E-01-4.22750E-01 1.47182E-12-1.57035E-12
 -1      2217 3.64234E+01 7.04103E+00 2.55614E-01-8.09961E-01 4.60965E-13-1.61343E-12
 -1      2218 3.63510E+01 7.75677E+00 1.86768E-01-2.64984E-01 1.12138E-12-1.68296E-12
 -1      2219 7.52078E+00-5.11545E+00-1.02024E-01-6.04691E+00 1.57324E-12-1.31414E-12
 -1      2220 1.36439E+01-5.76254E+00-8.89425E-02 5.97646E+00 1.66778E-12 7.70439E-13
 -1      2221 1.95961E+01 4.83297E-01 4.12804E-03 5.23279E-01 2.82928E-13 1.58101E-13
 -1      2222 1.98220E+01 6.66063E-01 1.98946E-02 8.02555E-01 3.11169E-13 1.93368E-13
 -1      2223 1.88119E+01 3.42635E+00-1.04978E-02-7.61417E-01-7.41666E-14-4.69366E-13
 -1      2224 1.88307E+01 3.38195E+00-9.92647E-03-9.33858E-01-1.21216E-13-4.89156E-13
 -1      2225 1.88613E+01 3.29654E+00-1.19804E-02-1.08612E+00-1.58026E-13-4.85243E-13
 -1      2226 1.89071E+01 3.21790E+00-1.19948E-02-1.26288E+00-2.05168E-13-4.64195E-13
 -1      2227 1.90033E+01 2.96829E+00 5.57468E-04-9.46281E-01-1.28792E-13-4.47029E-13
 -1      2228 1.88348E+01 3.50122E+00-9.15498E-03-1.13044E-01 7.20313E-14-4.84651E-13
 -1      2229 1.88163E+01 3.50332E+00-9.42903E-03-2.82886E-01 2.79986E-14-4.75476E-13
 -1      2230 1.88954E+01 3.45691E+00-9.28843E-03 2.16076E-01 1.35492E-13-4.75533E-13
 -1      2231 1.88609E+01 3.48104E+00-1.00606E-02 4.32786E-02 9.65238E-14-4.80838E-13
 -1      2232 1.90019E+01 3.14258E+00-5.99816E-04-4.94899E-02 7.50691E-14-4.54835E-13
 -1      2233 1.89875E+01 3.35510E+00-1.01826E-02 5.47314E-01 2.06140E-13-4.63135E-13
 -1      2234 1.89366E+01 3.40377E+00-1.12116E-02 3.71947E-01 1.67989E-13-4.78568E-13
 -1      2235 1.90737E+01 3.07305E+00-2.54661E-04 2.52922E-01 1.50527E-13-4.45214E-13
 -1      2236 1.91214E+01 3.17677E+00-1.24509E-02 8.92436E-01 2.90468E-13-3.85728E-13
 -1      2237 1.90482E+01 3.26140E+00-1.29131E-02 7.07231E-01 2.39991E-13-4.31409E-13
 -1      2238 1.91813E+01 2.93340E+00 3.94522E-04 5.57249E-01 2.16792E-13-4.08152E-13
 -1      2239 1.93110E+01 2.88990E+00-1.74429E-02 1.23730E+00 3.56702E-13-3.08739E-13
 -1      2240 1.92081E+01 3.03075E+00-1.51698E-02 1.04839E+00 3.11663E-13-3.52249E-13
 -1      2241 1.93329E+01 2.70405E+00 1.88942E-03 8.58105E-01 2.91711E-13-3.40451E-13
 -1      2242 1.95806E+01 2.43674E+00-2.72170E-02 1.54721E+00 3.96842E-13-1.87668E-13
 -1      2243 1.94362E+01 2.67185E+00-1.69622E-02 1.37129E+00 3.59918E-13-2.58606E-13
 -1      2244 1.95363E+01 2.35448E+00 5.55817E-03 1.12710E+00 3.40724E-13-2.62517E-13
 -1      2245 1.93881E+01 2.60931E-01 5.18005E-03 1.43757E-01 2.26601E-13 9.78718E-14
 -1      2246 1.95084E+01 3.53366E-01 1.92355E-02 2.96102E-01 2.61742E-13 1.35646E-13
 -1      2247 1.96701E+01 6.07552E-01-2.77042E-03 5.23814E-01 2.96947E-13 1.26353E-14
 -1      2248 1.95120E+01 8.46124E-01 1.25419E-02-1.07677E+00-2.95190E-13-5.28416E-14
 -1      2249 1.92911E+01 6.27480E-01-3.77022E-03-7.70305E-01-2.62291E-13-7.42848E-14
 -1      2250 3.41144E+01 3.56514E+00-1.47202E-01-1.44883E+00-9.76441E-14-1.50957E-12
 -1      2251 3.28308E+01 1.61492E+00-7.96710E-02-1.26955E+00-3.06588E-13-1.28864E-12
 -1      2252 1.92152E+01 4.74519E-01 1.57824E-02-5.54799E-01-2.39676E-13-7.10669E-14
 -1      2253 1.90628E+01 3.55392E-01 3.09972E-04-3.81064E-01-2.07009E-13-9.84993E-14
 -1      2254 1.93463E+01 7.47098E-01-1.68981E-03-7.82759E-01-2.69447E-13-1.37128E-13
 -1      2255 1.89894E+01 2.75388E-01 1.07169E-02-2.38513E-01-1.69584E-13-9.77087E-14
 -1      2256 1.89002E+01 2.08861E-01 1.16061E-03-1.34748E-01-1.45527E-13-1.32227E-13
 -1      2257 1.91620E+01 4.33493E-01-3.85574E-03-3.94438E-01-2.09676E-13-1.33375E-13
 -1      2258 1.88466E+01 1.63889E-01 6.39034E-03-4.33281E-02-1.32105E-13-1.23274E-13
 -1      2259 1.88040E+01 1.26708E-01 1.43185E-03 2.04137E-02-1.10218E-13-1.32277E-13
 -1      2260 1.90229E+01 2.57764E-01-3.80228E-03-1.40564E-01-1.42477E-13-1.41685E-13
 -1      2261 1.87706E+01 1.01762E-01 3.67326E-03 7.99338E-02-9.64723E-14-1.39629E-13
 -1      2262 1.87603E+01 8.20863E-02 1.61344E-03 1.21036E-01-9.76014E-14-1.30144E-13
 -1      2263 1.89311E+01 1.58620E-01-3.23062E-03 2.44801E-02-1.24753E-13-1.57339E-13
 -1      2264 1.87440E+01 6.94797E-02 2.00984E-03 1.62038E-01-1.05174E-13-1.28804E-13
 -1      2265 1.87566E+01 6.09668E-02 1.79685E-03 1.91283E-01-6.47895E-14-1.37968E-13
 -1      2266 1.88802E+01 1.05376E-01-2.56577E-03 1.35123E-01-1.07609E-13-1.46026E-13
 -1      2267 1.87540E+01 5.64385E-02 9.89907E-04 2.22940E-01-6.70489E-14-1.56107E-13
 -1      2268 1.87839E+01 5.53363E-02 2.00620E-03 2.47347E-01-1.00942E-13-1.32786E-13
 -1      2269 1.88620E+01 8.12125E-02-2.02407E-03 2.15287E-01-9.23778E-14-1.89763E-13
 -1      2270 1.87926E+01 5.61792E-02 3.78798E-04 2.76002E-01-1.47320E-13-1.23807E-13
 -1      2271 1.88369E+01 5.99164E-02 2.23600E-03 3.00199E-01-1.69960E-13-1.35450E-13
 -1      2272 1.88700E+01 7.62151E-02-1.65006E-03 2.81553E-01-1.29433E-13-1.99016E-13
 -1      2273 1.88557E+01 6.40776E-02 4.30317E-05 3.30107E-01-1.71108E-13-1.30349E-13
 -1      2274 1.89131E+01 7.05193E-02 2.45445E-03 3.56949E-01-1.65813E-13-1.15617E-13
 -1      2275 1.89001E+01 8.36171E-02-1.42741E-03 3.45295E-01-1.71648E-13-1.45071E-13
 -1      2276 1.89417E+01 7.60835E-02-9.31671E-05 3.90611E-01-1.40674E-13-9.53178E-14
 -1      2277 1.90121E+01 8.30443E-02 2.60080E-03 4.21352E-01-8.65194E-14-9.20144E-14
 -1      2278 1.89504E+01 9.78261E-02-1.32829E-03 4.13803E-01-1.51673E-13-1.03184E-13
 -1      2279 1.90511E+01 8.78551E-02-6.71934E-05 4.59536E-01-8.34102E-14-9.29286E-14
 -1      2280 1.91350E+01 9.27032E-02 2.58183E-03 4.93696E-01-5.21295E-14-7.23261E-14
 -1      2281 1.90209E+01 1.13163E-01-1.33200E-03 4.90684E-01-8.76284E-14-1.01124E-13
 -1      2282 1.91857E+01 9.40336E-02 1.14496E-04 5.35188E-01-6.16149E-14-1.71279E-13
 -1      2283 1.92833E+01 9.33429E-02 2.26826E-03 5.70184E-01-4.12730E-14-2.48735E-13
 -1      2284 1.91130E+01 1.22866E-01-1.43301E-03 5.75661E-01-1.04700E-13-1.21710E-13
 -1      2285 1.93481E+01 8.76240E-02 4.71967E-04 6.11307E-01-3.59504E-14-2.87886E-13
 -1      2286 1.94586E+01 7.69376E-02 1.49600E-03 6.41892E-01-3.05137E-14-2.85590E-13
 -1      2287 1.92299E+01 1.18247E-01-1.64455E-03 6.63874E-01-7.60199E-14-1.92735E-13
 -1      2288 1.95409E+01 5.96676E-02 1.04203E-03 6.75826E-01-1.15441E-14-2.58301E-13
 -1      2289 1.96620E+01 3.35887E-02 8.18789E-05 6.93507E-01-4.92199E-14-2.29394E-13
 -1      2290 1.93760E+01 8.81761E-02-1.99559E-03 7.44739E-01-3.52465E-14-1.93145E-13
 -1      2291 1.97658E+01-2.84277E-04 1.85063E-03 7.09587E-01-6.21914E-14-2.25388E-13
 -1      2292 1.98929E+01-4.72306E-02-2.13143E-03 7.02340E-01-5.49298E-14-2.02708E-13
 -1      2293 1.95574E+01 1.94302E-02-2.51045E-03 8.00578E-01-6.79297E-14-1.82485E-13
 -1      2294 2.00226E+01-1.01921E-01 2.84411E-03 6.85691E-01-8.15348E-14-2.20440E-13
 -1      2295 2.01479E+01-1.72919E-01-5.16682E-03 6.38677E-01-1.49830E-13-2.14709E-13
 -1      2296 1.97811E+01-1.00966E-01-3.15352E-03 8.05505E-01-8.83813E-14-1.47175E-13
 -1      2297 2.03057E+01-2.48635E-01 3.78227E-03 5.71048E-01-2.11052E-13-1.50929E-13
 -1      2298 2.04170E+01-3.39857E-01-8.70340E-03 4.69475E-01-2.08625E-13-1.62281E-13
 -1      2299 2.00532E+01-2.79646E-01-3.70789E-03 7.25685E-01-1.63559E-13-1.88569E-13
 -1      2300 2.05984E+01-4.27294E-01 4.05460E-03 3.32944E-01-1.90204E-13-1.54189E-13
 -1      2301 2.06792E+01-5.20598E-01-1.16745E-02 1.68587E-01-1.92946E-13-2.07825E-13
 -1      2302 2.03727E+01-5.04992E-01-3.58938E-03 5.23345E-01-2.14216E-13-1.10183E-13
 -1      2303 2.08649E+01-5.93710E-01 2.74893E-03-4.51648E-02-2.01121E-13-1.38412E-13
 -1      2304 2.08955E+01-6.49819E-01-1.20727E-02-2.62450E-01-1.37948E-13-2.17867E-13
 -1      2305 2.07214E+01-7.29491E-01-1.70875E-03 1.68747E-01-1.73073E-13-7.30456E-14
 -1      2306 2.10437E+01-6.62584E-01-1.62361E-03-5.34860E-01-1.60512E-13-1.99525E-13
 -1      2307 2.10082E+01-6.23119E-01-7.39440E-03-7.63166E-01-2.59263E-13-1.72034E-13
 -1      2308 2.10476E+01-8.53438E-01 2.89074E-03-3.33584E-01-1.94924E-13-4.91564E-14
 -1      2309 2.10590E+01-5.19122E-01-8.81952E-03-1.02812E+00-3.04708E-13-1.02036E-13
 -1      2310 2.09570E+01-3.30817E-01 4.12279E-03-1.18517E+00-3.56142E-13-7.23206E-14
 -1      2311 2.12611E+01-7.36118E-01 8.94636E-03-9.04079E-01-2.65634E-13 6.61667E-14
 -1      2312 2.08608E+01-7.98311E-02-1.65137E-02-1.31955E+00-4.85824E-13-8.09530E-14
 -1      2313 2.07238E+01 2.52714E-01 1.95724E-02-1.29910E+00-5.88315E-13-1.95677E-13
 -1      2314 2.12577E+01-2.51439E-01 1.35232E-02-1.35183E+00-4.94149E-13 1.36269E-13
 -1      2315 2.05073E+01 5.97548E-01-1.68432E-02-1.15992E+00-7.45678E-13-3.10077E-13
 -1      2316 2.04074E+01 9.58623E-01 3.12903E-02-8.88878E-01-7.95411E-13-3.85553E-13
 -1      2317 2.09982E+01 5.69519E-01 9.55146E-03-1.38282E+00-7.55385E-13 1.87214E-14
 -1      2318 2.02004E+01 1.25140E+00-7.04440E-03-4.32844E-01-9.24866E-13-4.22413E-13
 -1      2319 2.02159E+01 1.46732E+00 2.59542E-02 5.88214E-02-1.03972E-12-6.42609E-13
 -1      2320 2.06307E+01 1.44776E+00-1.81493E-03-7.81662E-01-1.00429E-12-2.55234E-14
 -1      2321 2.01940E+01 1.53799E+00-2.57450E-03 7.28987E-01-1.13932E-12-8.21301E-13
 -1      2322 2.03845E+01 1.46674E+00-1.42032E-02 1.28756E+00-1.11483E-12-1.03372E-12
 -1      2323 2.04226E+01 1.96135E+00-2.80669E-02 4.27200E-01-1.30032E-12-4.57613E-13
 -1      2324 2.06296E+01 1.27067E+00-3.81784E-02 1.90922E+00-1.16479E-12-1.49657E-12
 -1      2325 2.09947E+01 9.87985E-01-9.11869E-02 2.34364E+00-1.05216E-12-1.86287E-12
 -1      2326 2.06204E+01 1.79231E+00-9.03072E-02 1.83521E+00-1.47237E-12-9.87571E-13
 -1      2327 2.14149E+01 6.93525E-01-1.18539E-01 2.70942E+00-7.22228E-13-2.31636E-12
 -1      2328 2.19228E+01 4.72787E-01-1.54394E-01 2.92224E+00-3.23061E-13-2.36541E-12
 -1      2329 2.12242E+01 1.10998E+00-1.98680E-01 2.91777E+00-1.15315E-12-1.85771E-12
 -1      2330 2.23576E+01 3.94429E-01-1.35580E-01 3.05377E+00 8.25451E-14-2.99419E-12
 -1      2331 2.26030E+01 2.83763E-01-2.55181E-01 3.19145E+00 1.00736E-12-2.93683E-12
 -1      2332 2.20053E+01 4.86894E-01-2.85922E-01 3.42859E+00-3.45696E-13-2.84667E-12
 -1      2333 2.34296E+01 5.16944E-01-1.00226E-01 2.46102E+00 2.22772E-12-3.65792E-12
 -1      2334 2.32265E+01 1.67262E+00-2.16962E-03 2.49740E+00 4.11639E-12-2.79538E-12
 -1      2335 2.34823E+01-1.70204E-01-2.38568E-01 3.25659E+00 1.59971E-12-4.39368E-12
 -1      2336 2.06559E+01 3.27162E+00-1.53052E-01 3.22085E+00 7.22718E-12-1.21481E-12
 -1      2337 2.02764E+01 1.86571E+00-6.41411E-01 4.91128E+00 1.03444E-11-1.94067E-12
 -1      2338 2.33192E+01 3.69276E+00 5.56135E-01 3.38122E-01 9.63013E-12-4.29573E-12
 -1      2339 2.06014E+01-2.25435E+00-7.71258E-01 9.14969E+00 6.55676E-12 1.60808E-11
 -1      2340 2.33774E+01-8.46566E+00-1.37330E+00 8.20953E+00-6.12910E-12 1.25299E-11
 -1      2341 1.42665E+01 9.22313E-01-1.28671E+00 1.12073E+01-8.26894E-13 8.43248E-12
 -1      2342 3.20449E+01-9.81229E+00 6.11928E-01 5.25431E+00-2.84287E-11 4.18954E-12
 -1      2343 3.58069E+01-3.22036E+00 2.08990E+00 2.36956E+00-4.64023E-11-5.80935E-12
 -1      2344 1.62717E+01-1.60972E+01-3.47874E+00 1.37791E+01-3.20913E-11 2.20429E-11
 -1      2345 4.02336E+01 4.91109E+00 1.85970E+00 3.55157E+00-5.04708E-11-5.81329E-11
 -1      2346 4.61919E+01 1.37641E+01 6.59954E+00 8.77978E+00-4.97593E-11-8.15876E-11
 -1      2347 4.03296E+01 5.10511E+00 3.54927E+00 1.18425E+00-4.33849E-11-3.72036E-11
 -1      2348 3.76773E+01 1.09657E+01 7.58160E+00 4.30325E+00-2.46156E-11-4.22617E-11
 -1      2349 2.12584E+01-2.79037E-02 2.42821E-03-6.80678E-01 2.80415E-13 1.03341E-13
 -1      2350 6.11069E+01 2.14617E+01 1.22689E+01 1.59348E+01-6.85771E-11-9.28178E-11
 -1      2351 2.11412E+01 1.33663E-02-8.45226E-04-6.73420E-01 3.31350E-13-2.37714E-15
 -1      2352 2.10198E+01 4.73067E-02 1.61619E-03-6.61606E-01 3.56871E-13-2.47231E-15
 -1      2353 2.09995E+01-1.22608E-02-2.64337E-03-7.81579E-01 3.09199E-13 8.52176E-14
 -1      2354 2.09250E+01 7.09488E-02 8.11306E-04-6.30900E-01 3.26883E-13-1.03779E-13
 -1      2355 2.08133E+01 8.81528E-02 1.03286E-03-6.01411E-01 2.07321E-13-2.84490E-13
 -1      2356 2.07943E+01 7.58152E-02-2.09931E-03-7.37957E-01 2.66418E-13-1.98911E-13
 -1      2357 2.07368E+01 9.89540E-02 1.77605E-03-5.59005E-01 2.91353E-13-2.74919E-13
 -1      2358 2.06380E+01 1.04679E-01 6.50934E-04-5.21317E-01 1.72685E-13-6.60031E-14
 -1      2359 2.06259E+01 1.21945E-01-1.69841E-03-6.58965E-01 2.77453E-13-2.35980E-13
 -1      2360 2.05763E+01 1.07047E-01 2.22524E-03-4.75223E-01 2.84816E-14 1.49501E-14
 -1      2361 2.04917E+01 1.05676E-01 4.17454E-04-4.35681E-01-1.86386E-14 1.41550E-13
 -1      2362 2.04881E+01 1.38887E-01-1.41483E-03-5.64660E-01 1.43693E-13 5.99728E-14
 -1      2363 2.04422E+01 1.03065E-01 2.32341E-03-3.90893E-01-1.73159E-13 2.34865E-13
 -1      2364 2.03716E+01 9.78466E-02 2.83702E-04-3.53323E-01-7.66777E-14 2.66918E-13
 -1      2365 2.03758E+01 1.37493E-01-1.20669E-03-4.68269E-01-3.41356E-14 2.70278E-13
 -1      2366 2.03321E+01 9.27284E-02 2.20322E-03-3.12605E-01-2.94384E-14 3.13926E-13
 -1      2367 2.02747E+01 8.58939E-02 2.14113E-04-2.78990E-01 9.26787E-14 3.34298E-13
 -1      2368 2.02850E+01 1.25921E-01-1.04065E-03-3.77713E-01-4.24627E-14 4.53455E-13
 -1      2369 2.02433E+01 7.99234E-02 1.96236E-03-2.43555E-01 3.38132E-13 3.02624E-13
 -1      2370 2.01978E+01 7.29170E-02 1.85349E-04-2.14622E-01 5.00133E-13 2.68830E-13
 -1      2371 2.02120E+01 1.09843E-01-8.94608E-04-2.97070E-01 1.62346E-13 3.60556E-13
 -1      2372 2.01731E+01 6.71423E-02 1.66776E-03-1.84669E-01 4.03077E-13 1.21767E-13
 -1      2373 2.01377E+01 6.08305E-02 1.78799E-04-1.60344E-01 4.38271E-13 1.28579E-13
 -1      2374 2.01541E+01 9.29664E-02-7.55650E-04-2.27801E-01 4.04041E-13 3.44017E-13
 -1      2375 2.01183E+01 5.58413E-02 1.35705E-03-1.35466E-01 4.47774E-13 4.63149E-15
 -1      2376 2.00916E+01 5.06957E-02 1.95331E-04-1.15256E-01 2.26211E-13 8.19622E-14
 -1      2377 2.01085E+01 7.75186E-02-6.19588E-04-1.69695E-01 3.19671E-13 1.22395E-13
 -1      2378 2.00762E+01 4.65965E-02 1.01488E-03-9.46965E-02 7.60166E-14 1.36419E-13
 -1      2379 2.00568E+01 4.28965E-02 3.38764E-04-7.80087E-02-8.92222E-15 2.14168E-13
 -1      2380 2.00727E+01 6.47276E-02-4.66922E-04-1.21630E-01 2.06068E-13 1.45557E-14
 -1      2381 9.95795E+00-4.28172E+00 5.92105E-02 6.29716E+00-1.40915E-13 1.22652E-13
 -1      2382 7.17551E+00-3.81564E+00 7.10048E-02 5.04312E+00-1.42580E-13 1.05554E-13
 -1      2383 1.92860E+01 8.73901E-02 2.99988E-03-2.16841E-01 1.22717E-13-1.28471E-14
 -1      2384 1.92712E+01 1.13766E-01 6.63013E-03-1.64983E-01 1.51039E-13 2.87006E-14
 -1      2385 1.93446E+01 5.59613E-02 2.58674E-03-3.02625E-01 8.62695E-14-5.21264E-14
 -1      2386 1.92948E+01 6.92879E-02 3.63889E-03-2.69697E-01 1.05102E-13-2.47417E-14
 -1      2387 1.94208E+01 1.13936E-01-3.57619E-03-2.61548E-01 1.44443E-13-8.88993E-14
 -1      2388 1.94501E+01 4.24785E-02 2.51216E-03-3.62120E-01 9.15797E-14-6.31171E-14
 -1      2389 1.93761E+01 4.74524E-02 1.95391E-03-3.38322E-01 7.98666E-14-5.43354E-14
 -1      2390 1.94622E+01 7.48952E-02-2.85190E-03-3.61236E-01 9.55428E-14-8.69827E-14
 -1      2391 1.95914E+01 4.12434E-02 2.66972E-03-4.11164E-01 7.92980E-14-3.85226E-14
 -1      2392 1.94990E+01 4.03404E-02 1.00612E-03-3.90046E-01 9.39953E-14-3.27797E-14
 -1      2393 1.95440E+01 5.95041E-02-2.25466E-03-4.33449E-01 7.73076E-14-1.18045E-13
 -1      2394 1.97629E+01 4.90875E-02 3.01246E-03-4.61027E-01 6.41307E-14-4.16137E-14
 -1      2395 1.96542E+01 4.37421E-02 4.89770E-04-4.37953E-01 9.54617E-14-3.09660E-14
 -1      2396 1.96573E+01 6.03999E-02-1.86106E-03-4.95415E-01 8.33491E-14-4.85429E-14
 -1      2397 1.99635E+01 6.39949E-02 3.51021E-03-5.20139E-01 7.09044E-14-8.40342E-14
 -1      2398 1.98382E+01 5.51547E-02 2.38966E-04-4.91592E-01 5.87021E-14-4.95120E-14
 -1      2399 1.97973E+01 7.34050E-02-1.64726E-03-5.59582E-01 1.01768E-13-5.73437E-14
 -1      2400 2.01948E+01 8.43295E-02 4.11937E-03-5.94894E-01 1.09705E-13-8.12958E-14
 -1      2401 2.00509E+01 7.28237E-02 1.55445E-04-5.58201E-01 1.14819E-13-6.72647E-14
 -1      2402 1.99619E+01 9.57465E-02-1.56651E-03-6.35283E-01 1.10662E-13-1.16506E-13
 -1      2403 2.04609E+01 1.08158E-01 4.76165E-03-6.89761E-01 6.50007E-14-8.77360E-14
 -1      2404 2.02950E+01 9.50605E-02 1.73308E-04-6.43142E-01 8.39406E-14-1.05319E-13
 -1      2405 2.01517E+01 1.24986E-01-1.57698E-03-7.29443E-01 9.46724E-14-1.08021E-13
 -1      2406 2.07668E+01 1.32377E-01 5.29621E-03-8.06711E-01 3.15466E-14-9.08881E-14
 -1      2407 2.05753E+01 1.19503E-01 2.49399E-04-7.49690E-01 5.53872E-14-5.33439E-14
 -1      2408 2.03687E+01 1.58000E-01-1.65410E-03-8.46596E-01 4.82228E-14-9.12278E-14
 -1      2409 2.11178E+01 1.51408E-01 5.48346E-03-9.43722E-01 5.72782E-14-1.24071E-13
 -1      2410 2.08975E+01 1.42064E-01 3.65401E-04-8.78039E-01 5.80250E-14-1.00207E-13
 -1      2411 2.06162E+01 1.89626E-01-1.80481E-03-9.88134E-01 4.39743E-14-1.08031E-13
 -1      2412 2.15187E+01 1.55300E-01 4.94488E-03-1.09200E+00 9.68947E-14-1.66612E-13
 -1      2413 2.12680E+01 1.55360E-01 5.42494E-04-1.02324E+00 4.41340E-14-1.36855E-13
 -1      2414 2.08990E+01 2.10690E-01-2.09480E-03-1.15056E+00 5.32724E-14-8.91417E-14
 -1      2415 2.19728E+01 1.27259E-01 3.14012E-03-1.23155E+00 1.56513E-13-1.90033E-13
 -1      2416 2.16931E+01 1.46501E-01 8.73524E-04-1.17167E+00 1.47370E-13-1.20821E-13
 -1      2417 2.12236E+01 2.05208E-01-2.69215E-03-1.32240E+00 9.41183E-14-8.44835E-14
 -1      2418 2.24814E+01 4.15387E-02-5.89189E-04-1.32497E+00 5.68115E-14-1.31530E-13
 -1      2419 2.21795E+01 9.45794E-02 1.56913E-03-1.29557E+00 1.33594E-13-1.62256E-13
 -1      2420 2.16007E+01 1.47121E-01-3.90522E-03-1.47948E+00 1.31834E-13-3.95455E-14
 -1      2421 2.30437E+01-1.35095E-01-6.84841E-03-1.31079E+00-1.80653E-13-3.24736E-14
 -1      2422 2.27341E+01-3.03842E-02 2.97561E-03-1.34600E+00-8.03439E-14-7.42585E-14
 -1      2423 2.20488E+01-1.61256E-03-6.14783E-03-1.57840E+00-5.21393E-14 4.93564E-14
 -1      2424 2.36539E+01-4.29642E-01-1.56315E-02-1.10069E+00-1.21365E-13-2.38360E-14
 -1      2425 2.33626E+01-2.61759E-01 5.33605E-03-1.24594E+00-1.87234E-13-5.81969E-14
 -1      2426 2.25978E+01-2.85867E-01-9.69470E-03-1.54890E+00-1.54651E-13 4.87241E-14
 -1      2427 2.42906E+01-8.24335E-01-2.49728E-02-5.94458E-01-6.20736E-14 5.33159E-14
 -1      2428 2.40579E+01-6.12185E-01 7.82534E-03-8.93041E-01-6.54502E-14 5.79137E-15
 -1      2429 2.32863E+01-7.29647E-01-1.37462E-02-1.28982E+00-1.40535E-13 5.01217E-14
 -1      2430 2.48920E+01-1.18649E+00-2.94468E-02 2.65243E-01-6.89639E-14 1.12386E-13
 -1      2431 2.47740E+01-1.01880E+00 8.51269E-03-1.90424E-01-7.46538E-14 7.03352E-14
 -1      2432 2.41373E+01-1.27546E+00-1.53995E-02-6.85341E-01-1.07727E-13 7.41344E-14
 -1      2433 2.53206E+01-1.20730E+00-2.32749E-02 1.37160E+00 6.25801E-15 2.48129E-13
 -1      2434 2.53740E+01-1.26620E+00-8.17309E-04 8.58423E-01 3.93869E-15 2.01261E-13
 -1      2435 2.50934E+01-1.67429E+00-8.41710E-03 3.33003E-01-8.56303E-14 1.01110E-13
 -1      2436 2.53899E+01-4.88391E-01-1.92529E-03 2.30502E+00-2.65887E-13 2.04252E-13
 -1      2437 2.56291E+01-9.72455E-01-2.53692E-02 1.98430E+00-7.11462E-14 2.33109E-13
 -1      2438 2.59299E+01-1.48362E+00-6.20022E-03 1.61085E+00-2.20861E-14 2.83878E-13
 -1      2439 2.50028E+01 9.57642E-01 5.52297E-03 2.26842E+00-1.30111E-13-7.44196E-15
 -1      2440 2.53149E+01 1.79925E-01-6.02420E-02 2.49286E+00-2.61530E-13 6.38092E-14
 -1      2441 2.62726E+01-1.66334E-01-3.04992E-03 2.57866E+00-1.62318E-13 1.40755E-13
 -1      2442 2.45135E+01 2.23532E+00-2.83283E-02 8.66121E-01 3.53308E-13-3.00210E-13
 -1      2443 2.47284E+01 1.70387E+00-6.67010E-02 1.67755E+00 1.39534E-13-1.90590E-13
 -1      2444 2.60222E+01 1.72951E+00-5.52794E-02 2.21229E+00 1.51365E-13-2.04290E-13
 -1      2445 2.46645E+01 2.17405E+00-4.67266E-02-1.28448E+00 5.30395E-13-5.60194E-13
 -1      2446 2.45234E+01 2.40234E+00-2.32626E-02-3.69392E-01 4.88991E-13-4.12578E-13
 -1      2447 2.57035E+01 3.14623E+00-7.33055E-02 2.33280E-01 5.03868E-13-5.83492E-13
 -1      2448 2.53221E+01 8.18687E-01-7.52935E-02-2.73224E+00 3.34212E-13-7.52436E-13
 -1      2449 2.48938E+01 1.58214E+00-2.26130E-02-2.26583E+00 4.50473E-13-6.16665E-13
 -1      2450 2.59428E+01 2.54743E+00-5.40291E-02-1.98383E+00 5.34080E-13-7.16962E-13
 -1      2451 2.59030E+01-5.38370E-01-4.62737E-02-2.67888E+00-1.52756E-13-5.56728E-13
 -1      2452 2.55523E+01 5.96713E-02-8.40911E-03-2.81178E+00 3.19432E-14-6.39948E-13
 -1      2453 2.64685E+01 5.97635E-01-2.24283E-02-3.05706E+00 1.35530E-13-8.67098E-13
 -1      2454 2.58537E+01-1.05016E+00 1.31685E-03-1.58596E+00-1.91470E-13-1.58785E-13
 -1      2455 2.57418E+01-9.07714E-01-1.95176E-02-2.11372E+00-1.16936E-13-3.35790E-13
 -1      2456 2.64303E+01-1.01992E+00 1.87977E-03-2.43824E+00-2.69399E-13-5.66516E-13
 -1      2457 2.53055E+01-9.40353E-01 6.96535E-02-2.62827E-01-1.47680E-13-1.63019E-13
 -1      2458 2.53915E+01-1.04025E+00 7.66947E-04-8.41582E-01-1.15321E-13-1.08675E-13
 -1      2459 2.57407E+01-1.58591E+00 1.23187E-02-1.00439E+00-2.25122E-13-2.42974E-13
 -1      2460 2.43460E+01-7.13929E-01 7.72405E-02 6.62208E-01-7.14914E-14-3.06640E-13
 -1      2461 2.48136E+01-7.99408E-01 9.41192E-02 2.89752E-01-1.33678E-13-1.01245E-13
 -1      2462 2.47788E+01-1.34616E+00 7.97869E-02 3.13251E-01-1.24518E-13-1.55612E-13
 -1      2463 2.34918E+01-3.70885E-01 7.15927E-03 1.11780E+00-2.95765E-13-2.11606E-13
 -1      2464 2.37535E+01-5.63569E-01-1.76598E-02 9.27938E-01-1.88597E-13-2.89674E-13
 -1      2465 2.34359E+01-9.36319E-01-1.57790E-02 1.07184E+00-1.67057E-13-4.57312E-14
 -1      2466 2.28726E+01-8.49085E-02 3.69658E-03 1.28661E+00-1.44898E-13-3.26293E-14
 -1      2467 2.31637E+01-2.13192E-01-8.55433E-03 1.22454E+00-2.85811E-13-1.82890E-13
 -1      2468 2.27262E+01-4.17038E-01-1.15239E-02 1.43662E+00-2.79713E-13-7.30749E-14
 -1      2469 2.23349E+01 8.07280E-02 1.75460E-03 1.26210E+00 1.53480E-13-4.02404E-14
 -1      2470 2.26224E+01 1.09126E-02-1.86787E-03 1.28038E+00 4.66313E-14-6.55346E-14
 -1      2471 2.21756E+01-6.07226E-02-7.36348E-03 1.51871E+00 1.56158E-14-8.14031E-14
 -1      2472 2.18754E+01 1.57429E-01 9.06178E-04 1.13571E+00 9.64377E-14 1.93680E-13
 -1      2473 2.21401E+01 1.28136E-01 2.41069E-03 1.19534E+00 1.67920E-13 1.80744E-13
 -1      2474 2.17448E+01 1.39252E-01-4.37554E-03 1.43319E+00 2.87044E-14 5.16511E-14
 -1      2475 2.14865E+01 1.79450E-01 6.27522E-04 9.68596E-01-1.73747E-13 1.83782E-13
 -1      2476 2.17191E+01 1.73998E-01 4.62711E-03 1.04369E+00 7.40684E-15 2.21501E-13
 -1      2477 2.13987E+01 2.27556E-01-2.69446E-03 1.26510E+00 2.43850E-14 2.29747E-13
 -1      2478 2.11613E+01 1.72306E-01 5.80161E-04 7.96485E-01-3.53817E-13 5.61444E-14
 -1      2479 2.13585E+01 1.79011E-01 5.41939E-03 8.72141E-01-2.99272E-13 9.03932E-14
 -1      2480 2.11143E+01 2.48562E-01-1.90367E-03 1.06870E+00-1.44740E-13 3.70082E-14
 -1      2481 2.08929E+01 1.52047E-01 5.95540E-04 6.37705E-01-1.24233E-13-1.10677E-14
 -1      2482 2.10555E+01 1.63819E-01 5.35854E-03 7.06502E-01-2.05328E-13-2.07751E-14
 -1      2483 2.08783E+01 2.34354E-01-1.57166E-03 8.74947E-01-2.33396E-13-1.21981E-14
 -1      2484 2.06747E+01 1.27722E-01 6.06389E-04 4.99958E-01-1.97614E-13-4.57393E-14
 -1      2485 2.08058E+01 1.40672E-01 4.85604E-03 5.58991E-01-2.53008E-13-7.13548E-14
 -1      2486 2.06828E+01 2.04823E-01-1.42177E-03 6.99382E-01-2.14405E-13-2.62220E-13
 -1      2487 2.05001E+01 1.03970E-01 5.95830E-04 3.84993E-01 1.03595E-13 1.87189E-13
 -1      2488 2.06038E+01 1.16163E-01 4.17337E-03 4.33830E-01 6.77788E-14 1.12608E-13
 -1      2489 2.05222E+01 1.71088E-01-1.31667E-03 5.48207E-01-1.36010E-13-3.86028E-13
 -1      2490 2.03625E+01 8.29080E-02 5.67044E-04 2.91492E-01 4.30377E-14 2.33587E-13
 -1      2491 2.04430E+01 9.35031E-02 3.46098E-03 3.30932E-01 4.33447E-14 2.31954E-13
 -1      2492 2.03920E+01 1.38794E-01-1.20453E-03 4.22335E-01-1.82628E-14-3.09730E-14
 -1      2493 2.02558E+01 6.53203E-02 5.30114E-04 2.16751E-01 2.04886E-13 5.51537E-14
 -1      2494 2.03173E+01 7.40373E-02 2.79608E-03 2.48120E-01 1.21742E-13 1.52135E-13
 -1      2495 2.02881E+01 1.10468E-01-1.07518E-03 3.19936E-01 1.19777E-13-2.29041E-13
 -1      2496 2.01746E+01 5.13570E-02 4.89814E-04 1.57567E-01 3.97715E-13 1.41090E-13
 -1      2497 2.02205E+01 5.81830E-02 2.20879E-03 1.82366E-01 3.45730E-13 2.29089E-13
 -1      2498 2.02063E+01 8.70265E-02-9.29202E-04 2.37949E-01 2.41510E-13-1.07534E-13
 -1      2499 2.01138E+01 4.08540E-02 4.69653E-04 1.10734E-01 2.15887E-13 2.89500E-13
 -1      2500 2.01474E+01 4.59096E-02 1.71034E-03 1.30425E-01 2.40635E-13 3.23679E-13
 -1      2501 2.01430E+01 6.85432E-02-7.79719E-04 1.72874E-01 2.90692E-13 2.06395E-13
 -1      2502 2.00692E+01 3.31910E-02 3.95546E-04 7.32411E-02 2.25635E-13 4.28565E-13
 -1      2503 2.00929E+01 3.68916E-02 1.28296E-03 8.91351E-02 1.92261E-13 3.25001E-13
 -1      2504 2.00944E+01 5.46999E-02-6.53787E-04 1.21418E-01 1.84737E-13 4.44542E-13
 -1      2505 2.00371E+01 2.74740E-02 3.29077E-04 4.32656E-02 9.63641E-14 5.16909E-13
 -1      2506 2.00535E+01 3.02775E-02 9.60810E-04 5.61345E-02 2.08477E-13 5.49068E-13
 -1      2507 2.00578E+01 4.39374E-02-7.02155E-04 8.01761E-02 2.06424E-13 2.63481E-13
 -1      2508 2.00249E+01 2.37291E-02 5.71479E-04 2.88383E-02 1.57215E-13 5.25235E-13
 -1      2509 1.99830E+01 1.49964E-01-7.52818E-04 6.93795E-02 1.65211E-13 1.27456E-13
 -1      2510 1.99908E+01 1.36713E-01 2.50662E-04 7.45262E-02 1.59227E-13 4.68075E-14
 -1      2511 1.99708E+01 1.73921E-01-7.56215E-04 4.97667E-02 1.40766E-13 2.53527E-13
 -1      2512 1.99765E+01 1.64177E-01-1.50163E-05 5.96635E-02 1.53340E-13 2.53723E-13
 -1      2513 1.99734E+01 1.70326E-01 5.41864E-04 7.59502E-02 1.74514E-13 1.79699E-13
 -1      2514 2.00144E+01 8.50227E-02-4.75716E-04 7.37456E-02 5.53248E-14 2.66322E-13
 -1      2515 2.00219E+01 7.02559E-02 5.80924E-04 6.82090E-02 4.82557E-14 1.89633E-14
 -1      2516 1.99985E+01 1.19020E-01-6.46112E-04 7.78695E-02-4.35214E-15-1.04881E-13
 -1      2517 2.00069E+01 1.04273E-01 4.76914E-04 7.74822E-02-5.00407E-14 6.31154E-14
 -1      2518 2.00147E+01 1.03832E-01 4.29918E-04 9.09954E-02 2.51560E-14 9.20184E-14
 -1      2519 1.99931E+01 1.39594E-01 4.59013E-04 9.04733E-02 1.86601E-13 2.16249E-13
 -1      2520 1.99637E+01 1.87830E-01-6.58197E-04 2.24660E-02 1.15691E-13-1.42629E-13
 -1      2521 1.99666E+01 1.82804E-01-2.94092E-04 3.54276E-02 1.31721E-13-6.95300E-15
 -1      2522 1.99590E+01 1.92573E-01 7.12060E-04 4.98389E-02 1.47559E-13 1.13552E-13
 -1      2523 1.99627E+01 1.90042E-01-4.77092E-04-8.11519E-03-3.14728E-14-3.29503E-13
 -1      2524 1.99624E+01 1.90371E-01-5.33118E-04 5.78519E-03-2.11767E-14-1.22974E-13
 -1      2525 1.99517E+01 2.03540E-01 7.75715E-04 1.63011E-02 2.06541E-13-2.07994E-13
 -1      2526 1.99676E+01 1.80436E-01-2.42756E-04-3.71926E-02-1.28681E-13-5.83171E-15
 -1      2527 1.99643E+01 1.86057E-01-6.86904E-04-2.45577E-02-9.37280E-14-2.74898E-13
 -1      2528 1.99522E+01 2.02106E-01 7.49022E-04-1.94322E-02 9.88381E-14-3.03234E-13
 -1      2529 1.99776E+01 1.60821E-01 2.88937E-05-5.99994E-02-1.56389E-13-4.19328E-13
 -1      2530 1.99718E+01 1.70685E-01-7.51309E-04-5.07114E-02-1.61775E-13-2.20425E-13
 -1      2531 1.99603E+01 1.88812E-01 6.60124E-04-5.17551E-02-4.44590E-14-2.15330E-13
 -1      2532 1.99914E+01 1.32974E-01 2.75859E-04-7.38042E-02 3.10310E-14 7.31511E-14
 -1      2533 1.99839E+01 1.46182E-01-7.20483E-04-6.90458E-02-1.06812E-13-2.17584E-13
 -1      2534 1.99747E+01 1.65295E-01 4.81935E-04-7.62124E-02-6.64131E-14-3.16313E-13
 -1      2535 2.00070E+01 1.00367E-01 4.17926E-04-7.59836E-02 7.04513E-14-1.90089E-13
 -1      2536 1.99990E+01 1.15301E-01-5.61320E-04-7.67911E-02 3.17698E-14 1.28904E-13
 -1      2537 1.99934E+01 1.34084E-01 2.57565E-04-8.93386E-02-7.96538E-14-7.19498E-14
 -1      2538 2.00212E+01 6.70191E-02 4.87038E-04-6.64094E-02-1.38654E-13-4.35288E-13
 -1      2539 2.00143E+01 8.19264E-02-3.23648E-04-7.25124E-02-8.48639E-14-4.54894E-13
 -1      2540 2.00131E+01 9.85902E-02-1.07275E-04-8.90125E-02-6.36922E-14-3.78242E-13
 -1      2541 2.00232E+01 3.76442E-02 4.96054E-04-4.08766E-02-7.01314E-14 8.07521E-14
 -1      2542 2.76003E+01-4.62585E+00-2.14627E-02 3.40686E+00-1.11752E-12-9.70307E-13
 -1      2543 2.37254E+01-5.62967E+00 3.55825E-02 4.69165E+00-1.00489E-12-7.59087E-13
 -1      2544 1.92923E+01 1.47806E-01 3.93235E-03-8.08662E-02 1.73014E-13 5.06817E-14
 -1      2545 1.93308E+01 1.96820E-01 1.17925E-02 6.20021E-03 1.93709E-13 8.96353E-14
 -1      2546 1.94331E+01 1.90622E-01-4.13596E-03-1.09326E-01 1.96287E-13-1.88909E-14
 -1      2547 4.72047E+00-3.08130E+00 7.08971E-02 3.46272E+00-1.83964E-13 1.60594E-13
 -1      2548 3.45043E+00-2.49870E+00 8.73215E-02 9.34530E-01-1.08715E-13 4.11726E-13
 -1      2549 8.61336E+00-9.81732E+00-2.56965E+00-1.37775E+01 4.15539E-11-3.66152E-13
 -1      2550 1.24942E+01-1.32760E+01-4.05726E+00-1.72277E+01 4.51399E-11 4.12737E-12
 -1      2551 5.38230E+00-3.30389E+00 3.44259E-01-2.10704E+00 1.09416E-11-7.73870E-12
 -1      2552 7.23666E+00-6.27529E+00-5.80563E-01-9.59013E+00 3.82838E-11-1.08605E-11
 -1      2553 2.87697E+00-3.06628E+00 4.68155E-02-1.53942E+00 1.35349E-12-5.51281E-13
 -1      2554 4.13823E+00-3.25904E+00 2.58555E-02-3.75112E+00 1.28234E-12-8.98170E-13
 -1      2555 1.88059E+01 3.49147E+00-9.57613E-03-4.37656E-01 1.49650E-15-4.76619E-13
 -1      2556 1.88043E+01 3.47194E+00-9.31390E-03-6.07469E-01-4.63396E-14-4.71480E-13
 -1      2557 1.89621E+01 3.09433E+00-2.70943E-04-6.50691E-01-5.62242E-14-4.35887E-13
 -1      2558 1.89638E+01 3.14990E+00-6.02935E-04-3.51382E-01 8.61519E-15-4.54747E-13
 -1      2559 3.40419E+01 6.53036E+00-5.03680E-02 7.00239E-01 1.08669E-12-1.43169E-12
 -1      2560 3.23947E+01 7.17840E+00-1.86420E-01 1.70476E-01 9.99867E-13-1.33773E-12
 -1      2561 6.72486E+00-3.84925E+00 4.99091E-02-5.26519E+00 1.17645E-12-1.07289E-12
 -1      2562 1.05296E+01-4.07856E+00 2.38743E-02-6.65231E+00 9.16045E-13-1.03645E-12
 -1      2563 3.17632E+01 6.54931E+00-2.61163E-01-1.45352E+00 7.04659E-13-1.70018E-12
 -1      2564 3.35558E+01 5.53552E+00-4.60468E-02-1.63913E+00 2.66287E-13-1.62231E-12
 -1      2565 3.13249E+01 4.13168E+00-6.53854E-02-2.40474E+00 1.27759E-13-1.65259E-12
 -1      2566 3.37042E+01 3.20348E+00-4.65299E-02 7.56034E-01 1.24742E-12-1.11494E-12
 -1      2567 3.41758E+01 4.90487E+00-1.63616E-01 8.86213E-01 1.18727E-12-1.24242E-12
 -1      2568 2.45807E+01-4.83649E+00-5.68500E-03-4.89290E+00 9.72444E-13-1.01510E-12
 -1      2569 2.76704E+01-3.90816E+00-1.22945E-01-3.76805E+00 1.02518E-12-9.97313E-13
 -1      2570 1.66809E+01-5.39705E+00 1.48921E-02 5.89464E+00 1.35975E-12 9.24875E-13
 -1      2571 1.34184E+01-5.30261E+00 6.32043E-02 6.00378E+00 1.44973E-12 5.65520E-13
 -1      2572 1.56385E+01-5.07857E+00 5.57605E-02-6.92564E+00 8.65197E-13-1.02493E-12
 -1      2573 2.03638E+01-5.17772E+00-2.69774E-02-6.64966E+00 1.00520E-12-1.01638E-12
 -1      2574 2.31306E+01-5.26004E+00 5.45249E-02-5.25426E+00 6.01241E-13-7.16746E-13
 -1      2575 3.41516E+00-3.30092E+00 5.51639E-02 2.50739E+00 1.40769E-12-1.01086E-13
 -1      2576 2.50490E+00-3.22506E+00 4.54737E-02 5.34935E-01 1.45792E-12-1.83964E-13
 -1      2577 2.30918E+01-4.25351E+00-5.07353E-02 3.67884E+00 9.67892E-13 1.48487E-12
 -1      2578 1.98958E+01-5.17330E+00 1.87071E-02 4.63596E+00 1.12962E-12 1.27433E-12
 -1      2579 2.69430E+01-1.29017E+00-1.26361E-01 3.26964E-01 6.48769E-13 1.38689E-12
 -1      2580 2.53636E+01-2.92898E+00 1.03624E-02 1.89733E+00 8.53276E-13 1.39719E-12
 -1      2581 2.43919E+01-3.97001E+00 5.52761E-02 2.12486E+00 8.19469E-13 1.18670E-12
 -1      2582 2.92999E+01 3.85988E+00-1.11793E-01-1.35485E+00-2.26680E-13 2.18600E-12
 -1      2583 2.78874E+01 1.72519E+00-9.96874E-02-1.03656E+00 9.17877E-14 1.83387E-12
 -1      2584 2.81958E+01 7.09678E+00-2.87822E-01-1.66406E+00-9.10771E-13 2.76636E-12
 -1      2585 2.90212E+01 5.77413E+00-1.16060E-01-1.64802E+00-5.74152E-13 2.47072E-12
 -1      2586 2.71154E+01 4.65956E+00-8.46615E-02-2.11627E+00-6.22141E-13 2.18996E-12
 -1      2587 2.76899E+01 7.80568E+00-5.07259E-01-7.66114E-01-9.79994E-13 3.76180E-12
 -1      2588 2.79298E+01 8.05574E+00-3.10806E-01-1.08044E+00-1.14508E-12 3.23107E-12
 -1      2589 2.45275E+01 3.69976E-01-2.32140E+00-2.67440E+00 6.71946E-12 7.60103E-12
 -1      2590 2.64268E+01 2.26167E+00-1.78775E+00-2.08787E+00 3.78011E-12 7.09588E-12
 -1      2591 1.76163E+01-3.57057E+00-4.13636E+00-5.60026E+00 1.43024E-11 1.29723E-11
 -1      2592 2.19498E+01-1.00052E+00-3.06882E+00-3.54290E+00 8.76033E-12 1.03637E-11
 -1      2593 2.35506E+01-1.97274E+00-2.91201E+00-1.55008E+00 7.20172E-12 1.05906E-11
 -1      2594 1.27954E+01-1.10213E+01-5.03188E+00-1.83755E+01 4.20992E-11 1.55245E-11
 -1      2595 1.21823E+01-5.89751E+00-5.40906E+00-1.41296E+01 2.88096E-11 2.00857E-11
 -1      2596 1.96831E+01 1.91018E+00-1.34858E-02-1.95978E+00-3.86432E-13-9.75799E-14
 -1      2597 1.95329E+01 1.19417E+00-6.92879E-03-1.36118E+00-3.46902E-13-7.71600E-14
 -1      2598 1.95033E+01 1.35980E+00 7.51839E-03-1.32182E+00-3.22350E-13-1.36403E-13
 -1      2599 1.94349E+01 2.32742E+00-3.99086E-03-1.91664E+00-3.70398E-13-1.89800E-13
 -1      2600 1.98761E+01 8.31563E-01-6.30727E-03 1.05206E+00 3.60165E-13 2.17310E-13
 -1      2601 2.01842E+01 1.19546E+00-5.59679E-03 1.53086E+00 3.88432E-13 2.67123E-13
 -1      2602 2.00108E+01 1.63387E+00-1.55391E-02 1.70335E+00 4.11879E-13 1.28394E-13
 -1      2603 1.98575E+01 1.00684E+00-9.47597E-03 1.04415E+00 3.61917E-13 5.39135E-14
 -1      2604 3.19776E+01-1.17110E+00-1.33687E-01 1.94063E-01-6.41424E-13-1.11616E-12
 -1      2605 2.99943E+01-2.91866E+00-9.47957E-03 1.43488E+00-8.64649E-13-1.08130E-12
 -1      2606 1.90987E+01 2.75596E+00 2.71947E-03-1.22874E+00-2.19265E-13-4.12057E-13
 -1      2607 1.89723E+01 3.08024E+00-1.37183E-02-1.40526E+00-2.34805E-13-4.37173E-13
 -1      2608 1.90527E+01 2.96083E+00-1.66755E-02-1.59117E+00-2.81455E-13-3.97542E-13
 -1      2609 1.95147E+01 3.33876E-01-3.84789E-03 1.33201E-01 2.42575E-13-8.32732E-15
 -1      2610 1.98125E+01 2.02120E+00-1.22451E-02 1.64418E+00 4.00824E-13-3.29146E-14
 -1      2611 3.16454E+01-1.40641E-01-3.75335E-02-1.40588E+00-4.69666E-13-1.20845E-12
 -1      2612 1.92682E+01 2.55648E+00-1.10297E-02-1.76607E+00-3.29299E-13-2.85342E-13
 -1      2613 9.67137E+00-5.87923E+00-7.22370E+00-9.37462E+00 2.25602E-11 2.91172E-11
 -1      2614 2.47641E+01-5.52479E+00 9.40856E-02 3.89041E+00-1.20123E-12-1.31323E-12
 -1      2615 2.22792E+01-5.77232E+00 1.39193E-01 5.29025E+00-8.12794E-13-1.16995E-12
 -1      2616 2.01294E+01-5.19092E+00 1.99787E-01 5.67134E+00-3.18745E-13-3.07240E-13
 -1      2617 1.33912E+01-4.45200E+00 9.87237E-02 6.25531E+00-9.81437E-14 2.59293E-13
 -1      2618 5.30847E+00-1.41291E+00 1.70677E-01-1.79036E-01-8.75480E-14 3.14415E-13
 -1      2619 2.00304E+01 3.62526E-02 5.02254E-05 4.67299E-02 7.63092E-14 4.06163E-13
 -1      2620 1.13693E+01-6.49518E+00-9.80726E-01-1.10733E+01 4.53189E-11-8.07454E-12
 -1      2621 2.00298E+01 4.79293E-02 4.03502E-05 5.61676E-02-6.04338E-15 2.29025E-13
 -1      2622 2.00358E+01 3.71261E-02 5.19033E-04-5.29864E-02 5.37553E-14 2.67492E-13
 -1      2623 2.00274E+01 5.22315E-02-3.73408E-04-6.13452E-02-1.04097E-13-2.50479E-13
 -1      2624 2.00329E+01 6.70043E-02 3.35122E-04-8.02029E-02-2.08249E-13-2.93007E-13
 -1      2625 2.00488E+01 4.04940E-02 9.00983E-04-6.58972E-02-1.49032E-14 1.79639E-13
 -1      2626 2.62708E+01 7.32334E+00-2.00461E-01-1.26846E+00-1.19491E-12 2.72689E-12
 -1      2627 2.72509E+01-3.62559E-02-4.48028E-02-8.53971E-01 2.96325E-13 1.56053E-12
 -1      2628 2.60318E+01-1.51478E+00-2.36119E-02-4.72807E-01 4.26069E-13 1.22929E-12
 -1      2629 2.65257E+01 1.13563E+00-1.14158E-01-1.90460E+00-7.40380E-14 1.75514E-12
 -1      2630 2.87458E+01-4.23170E+00 2.12070E-02 1.56854E+00-9.54903E-13-9.46493E-13
 -1      2631 1.98393E+01 1.72861E+00 1.19163E-02 1.33387E+00 3.72074E-13-6.40842E-14
 -1      2632 7.78438E+00-2.37683E+00 1.70969E-01 4.19885E+00-1.29882E-13 1.44745E-13
 -1      2633 1.06169E+01-1.41620E+01-6.91463E+00-1.91786E+01 5.27902E-11 1.64295E-11
 -1      2634 2.00355E+01 6.30706E-02 4.25640E-04 7.56980E-02 7.74719E-14 1.99060E-13
 -1      2635 7.24683E+00-2.40638E+00 1.55232E-01-4.53439E+00 7.90507E-13-8.65724E-13
 -1      2636 1.40006E+01-4.34880E+00 1.01583E-01-6.85458E+00 6.75016E-13-9.20583E-13
 -1      2637 1.71406E+01-4.51508E+00 2.56630E-02-6.42834E+00 3.23755E-13-7.90257E-13
 -1      2638 1.26891E+01-3.22962E+00 1.49725E-01-6.35713E+00 4.34236E-13-7.36078E-13
 -1      2639 1.94378E+01-5.33206E+00 5.74620E-02 4.86386E+00 1.04391E-12 9.90416E-13
 -1      2640 4.33592E+00-1.90107E+00 1.34992E-01-6.54761E-01 1.06420E-12-4.28102E-13
 -1      2641 2.58299E+01 2.66747E+00-1.62283E+00-7.06806E-01 2.59079E-12 6.95499E-12
 -1      2642 1.20242E+01-4.77807E+00 8.70768E-02 6.02555E+00 1.39413E-12 3.79502E-13
 -1      2643 1.07584E+01-3.74403E+00 1.63734E-01 5.73235E+00 1.19035E-12 2.25459E-13
 -1      2644 1.46903E+01-4.69425E+00 4.30258E-02 5.79698E+00 1.14467E-12 4.99087E-13
 -1      2645 2.93373E+01-3.16891E+00 1.41625E-02-2.21956E+00 8.69652E-13-8.27421E-13
 -1      2646 2.97122E+01-2.67036E+00-2.60526E-01-3.96275E-01 7.63653E-13-3.99236E-13
 -1      2647 2.79870E+01-4.19598E+00 3.36821E-02-2.26353E+00 4.77396E-13-4.20039E-13
 -1      2648 3.22420E+01 1.29221E+00-1.76789E-02 8.62768E-01 1.13533E-12-8.12878E-13
 -1      2649 3.16858E+01 5.03019E+00-9.14506E-02 1.49482E+00 1.03204E-12-1.25894E-12
 -1      2650 5.38458E+00-3.14395E+00 1.13304E-01 3.63746E+00 1.27465E-12-1.24289E-13
 -1      2651 5.79265E+00-1.85787E+00 1.56744E-01 2.79269E+00 9.28951E-13-1.97897E-13
 -1      2652 7.57731E+00-2.89027E+00 8.25186E-02 4.55356E+00 1.12885E-12 3.83027E-15
 -1      2653 2.67196E+01 7.14561E+00-6.01595E-01-3.06157E-01-9.20097E-13 4.04707E-12
 -1      2654 2.46550E+01 7.32130E+00-4.75176E-01 2.01943E-01-1.56669E-12 3.35587E-12
 -1      2655 2.50838E+01 6.31411E+00-8.02683E-01 2.37108E-01-8.26061E-13 4.47797E-12
 -1      2656 2.00486E+01 5.48754E-02-6.11107E-04-8.71653E-02-7.16593E-14 5.39345E-14
 -1      2657 3.00008E+01 6.31862E+00-1.43162E-01 8.24694E-02 8.38163E-13-1.34550E-12
 -1      2658 3.14851E+01 6.53818E+00-2.11705E-01-8.30176E-01 8.20399E-13-1.57822E-12
 -1      2659 1.92062E+01 2.69905E+00-5.95789E-03 2.74447E-01 1.62696E-13-4.11629E-13
 -1      2660 1.91633E+01 2.75131E+00-5.85113E-03 1.30664E-01 1.23196E-13-4.22632E-13
 -1      2661 1.91277E+01 2.79301E+00-5.35942E-03 3.41217E-03 8.33897E-14-4.32597E-13
 -1      2662 1.90999E+01 2.81242E+00-5.50585E-03-1.41958E-01 5.13580E-14-4.25508E-13
 -1      2663 1.92762E+01 2.46091E+00 3.80508E-03 3.16867E-02 9.37118E-14-3.99173E-13
 -1      2664 1.94617E+01 2.24814E+00-1.00933E-02 7.92502E-01 2.88115E-13-3.01556E-13
 -1      2665 1.93862E+01 2.39721E+00-6.57895E-03 6.57535E-01 2.58601E-13-3.28434E-13
 -1      2666 1.96448E+01 1.83632E+00-1.11543E-02 9.83511E-01 3.33532E-13-2.43300E-13
 -1      2667 1.95493E+01 2.06977E+00-5.08879E-03 8.85132E-01 3.11812E-13-2.73883E-13
 -1      2668 1.96127E+01 1.82916E+00 6.24472E-03 6.75919E-01 2.76133E-13-2.55450E-13
 -1      2669 1.96848E+01 7.02719E-01-2.67765E-03 4.45575E-01 2.79147E-13-8.99301E-14
 -1      2670 1.97968E+01 9.13419E-01 8.89842E-03 7.01482E-01 3.02893E-13-6.81096E-14
 -1      2671 1.00358E+01-2.03881E+00 1.02639E-01 4.88520E+00-1.34476E-13 8.56537E-14
 -1      2672 7.92097E+00-1.12400E+00 1.58093E-01 3.14363E+00-1.82521E-13 1.65340E-13
 -1      2673 1.95941E+01 4.15355E-01-6.04760E-04 9.41595E-02 2.24910E-13-8.65078E-14
 -1      2674 1.96626E+01 5.41506E-01 9.74148E-03 2.55580E-01 2.52533E-13-7.98318E-14
 -1      2675 1.97258E+01 8.00546E-01 4.17186E-04 3.99503E-01 2.65052E-13-1.72424E-13
 -1      2676 1.97621E+01 1.43598E+00-1.64918E-03 1.04660E+00 3.43917E-13-1.00673E-13
 -1      2677 1.93306E+01 2.22568E+00 4.19717E-04-1.52249E+00-3.07085E-13-2.75046E-13
 -1      2678 2.97876E+01 5.87369E+00-6.40329E-02-1.46671E+00 6.15230E-13-1.66014E-12
 -1      2679 1.93113E+01 6.44602E-01 8.19289E-03-5.32338E-01-2.28432E-13-1.46551E-13
 -1      2680 1.92176E+01 5.02675E-01-2.95013E-03-3.67870E-01-1.73759E-13-1.56425E-13
 -1      2681 1.91820E+01 3.97772E-01 6.32486E-03-2.40274E-01-1.45614E-13-1.47485E-13
 -1      2682 1.91150E+01 3.12009E-01-1.23681E-03-1.32644E-01-1.44441E-13-1.73572E-13
 -1      2683 1.92838E+01 5.67269E-01-1.42785E-03-3.54846E-01-1.74102E-13-1.70821E-13
 -1      2684 1.90786E+01 2.50518E-01 4.20597E-03-4.45384E-02-1.44481E-13-1.78111E-13
 -1      2685 1.90372E+01 2.00848E-01-1.04775E-04 2.71311E-02-1.20787E-13-1.83110E-13
 -1      2686 1.91961E+01 3.58263E-01-2.11760E-03-1.28203E-01-1.47067E-13-2.01615E-13
 -1      2687 1.90063E+01 1.66433E-01 2.58512E-03 8.89117E-02-8.90440E-14-1.76026E-13
 -1      2688 1.89857E+01 1.40300E-01 6.46502E-04 1.38969E-01-1.03454E-13-1.77950E-13
 -1      2689 1.91210E+01 2.35804E-01-2.02493E-03 3.10944E-02-1.16197E-13-2.01222E-13
 -1      2690 1.89616E+01 1.23801E-01 1.38210E-03 1.84999E-01-1.21353E-13-1.57022E-13
 -1      2691 1.89575E+01 1.13602E-01 1.17831E-03 2.23589E-01-9.85727E-14-1.81539E-13
 -1      2692 1.90629E+01 1.69981E-01-1.72129E-03 1.46173E-01-1.16890E-13-1.87878E-13
 -1      2693 1.89400E+01 1.09270E-01 5.24774E-04 2.62018E-01-1.04131E-13-1.67791E-13
 -1      2694 1.89493E+01 1.09898E-01 1.58042E-03 2.96255E-01-1.31930E-13-1.52120E-13
 -1      2695 1.90210E+01 1.42623E-01-1.41315E-03 2.36321E-01-9.73641E-14-1.73966E-13
 -1      2696 1.89378E+01 1.13631E-01-6.12945E-05 3.33070E-01-1.39884E-13-1.25475E-13
 -1      2697 1.89586E+01 1.21151E-01 1.89483E-03 3.67777E-01-1.38129E-13-1.06793E-13
 -1      2698 1.89937E+01 1.41390E-01-1.16749E-03 3.16163E-01-1.12040E-13-1.28439E-13
 -1      2699 1.89529E+01 1.29503E-01-4.22903E-04 4.07099E-01-1.68056E-13-5.89388E-14
 -1      2700 1.89843E+01 1.40300E-01 2.12820E-03 4.45168E-01-1.42193E-13-6.91898E-14
 -1      2701 1.89795E+01 1.56731E-01-1.00880E-03 3.96229E-01-1.33359E-13-2.99523E-14
 -1      2702 1.89851E+01 1.49787E-01-5.75204E-04 4.89388E-01-1.18956E-13-6.30290E-14
 -1      2703 1.90271E+01 1.59913E-01 2.25960E-03 5.31842E-01-8.86746E-14-1.00105E-13
 -1      2704 1.89781E+01 1.79901E-01-9.55035E-04 4.83379E-01-1.31496E-13-3.68883E-14
 -1      2705 1.90357E+01 1.66444E-01-4.98334E-04 5.81556E-01-9.83181E-14-7.77611E-14
 -1      2706 1.90890E+01 1.71033E-01 2.24330E-03 6.27344E-01-1.04452E-13-7.27498E-14
 -1      2707 1.89906E+01 2.01424E-01-1.03727E-03 5.80920E-01-1.21229E-13-5.05323E-14
 -1      2708 1.91086E+01 1.69407E-01-1.33724E-04 6.81067E-01-9.36026E-14-8.72051E-14
 -1      2709 1.91747E+01 1.62182E-01 2.00734E-03 7.26643E-01-5.77541E-14-1.18513E-13
 -1      2710 1.90208E+01 2.09756E-01-1.31380E-03 6.88308E-01-8.23735E-14-1.26390E-14
 -1      2711 1.92102E+01 1.45715E-01 6.15794E-04 7.80283E-01-3.90477E-14-9.23344E-14
 -1      2712 1.92911E+01 1.18741E-01 1.44744E-03 8.19000E-01-4.62333E-14-8.74560E-14
 -1      2713 1.90755E+01 1.90160E-01-1.87736E-03 8.00440E-01-6.34348E-14-5.50550E-14
 -1      2714 1.93507E+01 7.93217E-02 1.87212E-03 8.65053E-01-7.43359E-14-4.20556E-14
 -1      2715 1.94490E+01 2.34272E-02 4.17028E-04 8.86520E-01-5.45939E-14-4.70943E-14
 -1      2716 1.91660E+01 1.24178E-01-2.85069E-03 9.06421E-01-4.95142E-14 1.10532E-15
 -1      2717 1.95440E+01-4.74521E-02 3.73444E-03 9.12996E-01-6.67716E-14-4.55124E-14
 -1      2718 1.96622E+01-1.40765E-01-1.28681E-03 9.02695E-01-1.17014E-13-7.96506E-14
 -1      2719 1.93097E+01-9.33136E-03-4.34809E-03 9.87771E-01-6.89650E-14 2.77502E-14
 -1      2720 1.98067E+01-2.48994E-01 6.14501E-03 8.91948E-01-1.16509E-13-9.79192E-14
 -1      2721 1.99456E+01-3.82811E-01-3.87326E-03 8.31776E-01-1.48185E-13-7.36119E-14
 -1      2722 1.95301E+01-2.29716E-01-6.37251E-03 1.01610E+00-1.49359E-13 3.80553E-14
 -1      2723 2.01527E+01-5.25211E-01 8.71472E-03 7.59972E-01-1.67124E-13-2.28851E-14
 -1      2724 2.03074E+01-6.88076E-01-7.35240E-03 6.31181E-01-1.60375E-13-1.06979E-14
 -1      2725 1.98539E+01-5.43586E-01-8.55584E-03 9.50798E-01-1.15701E-13 6.79444E-14
 -1      2726 2.05799E+01-8.41673E-01 1.02201E-02 4.70808E-01-1.50033E-13 8.95149E-14
 -1      2727 2.07348E+01-9.93327E-01-1.07177E-02 2.61621E-01-1.31359E-13 6.02622E-14
 -1      2728 2.03005E+01-9.23154E-01-9.70557E-03 7.39440E-01-1.12686E-13 1.65851E-13
 -1      2729 2.10477E+01-1.10120E+00 8.89456E-03-6.96016E-03-1.21054E-13 8.08137E-14
 -1      2730 2.11720E+01-1.16046E+00-1.14236E-02-2.84488E-01-1.35880E-13 1.00399E-13
 -1      2731 2.08587E+01-1.27325E+00-7.21308E-03 3.28387E-01-1.20735E-13 1.94942E-13
 -1      2732 2.14494E+01-1.12747E+00 1.01649E-04-6.43411E-01-1.67953E-13 1.63038E-13
 -1      2733 2.15038E+01-9.80888E-01-6.87217E-03-9.29223E-01-2.26787E-13 1.77512E-13
 -1      2734 2.14478E+01-1.39681E+00 1.84409E-03-3.01450E-01-1.44884E-13 2.35872E-13
 -1      2735 2.16364E+01-7.06071E-01-1.52042E-02-1.28116E+00-3.44385E-13 2.73547E-13
 -1      2736 2.15867E+01-2.70048E-01 4.33834E-03-1.45364E+00-5.22213E-13 3.21117E-13
 -1      2737 2.18937E+01-1.05134E+00 7.43731E-03-1.04614E+00-2.48978E-13 3.19061E-13
 -1      2738 2.14701E+01 2.96228E-01-3.05616E-02-1.60723E+00-7.19314E-13 3.54900E-13
 -1      2739 2.13569E+01 9.68448E-01 2.90357E-02-1.49484E+00-8.25889E-13 2.94039E-13
 -1      2740 2.20000E+01-1.96066E-02 1.41601E-02-1.63163E+00-6.13680E-13 5.53061E-13
 -1      2741 2.10002E+01 1.57702E+00-5.21779E-02-1.18332E+00-9.41830E-13 3.25593E-13
 -1      2742 2.09429E+01 2.20213E+00 3.08235E-02-7.35851E-01-1.11105E-12 2.40007E-13
 -1      2743 2.16160E+01 1.62485E+00 1.54176E-02-1.58798E+00-9.58103E-13 5.56831E-13
 -1      2744 2.06348E+01 2.60560E+00-3.63320E-02-5.91855E-04-1.33060E-12 1.32892E-13
 -1      2745 2.06591E+01 2.79329E+00-1.67748E-02 7.01538E-01-1.46510E-12-7.06935E-14
 -1      2746 2.11775E+01 2.99356E+00 1.20981E-02-5.51253E-01-1.37442E-12 5.48683E-13
 -1      2747 2.05880E+01 2.68212E+00-8.82113E-02 1.63807E+00-1.72204E-12-3.35634E-13
 -1      2748 2.07668E+01 2.30248E+00-1.69656E-01 2.31881E+00-1.84361E-12-7.37379E-13
 -1      2749 2.07699E+01 3.40262E+00-7.76762E-02 1.22918E+00-1.94151E-12 2.38197E-13
 -1      2750 2.09937E+01 1.77654E+00-2.66360E-01 2.99706E+00-1.87325E-12-1.30976E-12
 -1      2751 2.13196E+01 1.14177E+00-4.08573E-01 3.42528E+00-1.65601E-12-1.86631E-12
 -1      2752 2.08210E+01 2.53552E+00-3.27859E-01 2.97682E+00-2.42328E-12-7.00634E-13
 -1      2753 2.15362E+01 6.50715E-01-5.20929E-01 3.59526E+00-1.37435E-12-2.76890E-12
 -1      2754 2.21415E+01 6.77152E-01-3.92081E-01 3.64748E+00-8.88067E-13-3.26959E-12
 -1      2755 2.11544E+01 1.09238E+00-7.16278E-01 3.83961E+00-2.14517E-12-2.06624E-12
 -1      2756 2.21352E+01 7.30430E-01-1.89182E-01 4.75452E+00-4.26659E-13-4.77997E-12
 -1      2757 2.37347E+01 7.93597E-02-7.53729E-03 4.59194E+00 6.75723E-13-5.87158E-12
 -1      2758 2.07488E+01 1.15937E+00-6.05567E-01 4.85574E+00-2.14745E-12-4.50617E-12
 -1      2759 2.82362E+01-2.66764E+00 3.39381E-01 4.33872E+00-6.14953E-13-1.10983E-11
 -1      2760 1.90239E+01-3.04373E+00-2.81101E+00 3.04176E+00-5.16420E-13 1.61671E-12
 -1      2761 2.28780E+01-1.94170E+00-4.93305E-01 8.34995E+00-1.85413E-12-8.85431E-12
 -1      2762 3.36652E+01 1.84088E+01 8.55319E+00-1.44627E+01 5.89365E-11-2.48952E-11
 -1      2763-1.03553E+01-2.20273E+00-7.80436E+00-5.22054E+00 6.11504E-11 6.35181E-11
 -1      2764 7.23217E+01 3.21255E-01 1.44736E+01 9.66880E+00-1.26730E-11-6.72398E-11
 -1      2765-5.83169E+00 7.53132E+00 9.65599E-01 1.36399E+01-1.02318E-11 4.45128E-11
 -1      2766 4.19132E+00 1.33514E+00 2.69415E+00 2.18424E+01-4.60517E-11 3.94573E-11
 -1      2767-6.33018E+01 9.46195E+00-1.38632E+01 9.99425E+00-1.27764E-12 1.20187E-10
 -1      2768 1.62983E+01-2.36981E+01-4.56351E-01 4.43555E+01-1.97512E-10 2.08100E-12
 -1      2769 8.84295E+01 1.97263E+01 2.48103E+01 4.04397E+01-1.89079E-10-1.88193E-10
 -1      2770-7.26784E+01 1.05167E+01-9.64568E+00 2.85044E+00 2.04814E-11 1.27095E-10
 -1      2771 5.75453E+01 6.86203E+00 4.34052E-01 1.28245E+01-2.91411E-11-8.73794E-11
 -1      2772 7.81429E+01 1.40654E+01 1.37759E+01 8.73538E+00-2.31273E-11-1.17076E-10
 -1      2773 1.77519E+02 1.03855E+01 4.44077E+01-4.91523E+00 8.59912E-12-3.11569E-10
 -1      2774 4.16487E+01 1.02509E+01 8.85751E+00 3.38182E+00-1.81752E-11-3.10338E-11
 -1      2775 2.07435E+01 4.74617E-02 2.70976E-03-8.66115E-01 1.49780E-13-1.36032E-13
 -1      2776 6.55666E+01 1.08549E+01 9.87471E+00-1.21625E+00-1.39888E-14-8.02678E-11
 -1      2777 2.06605E+01 9.85757E-02 8.17301E-04-8.24805E-01 2.06151E-13-2.04450E-13
 -1      2778 2.05690E+01 1.37074E-01 1.29788E-03-7.89212E-01 2.14832E-13-2.19996E-13
 -1      2779 2.04968E+01 9.26938E-02-3.21989E-03-9.24725E-01 7.83150E-14-2.18840E-13
 -1      2780 2.05126E+01 1.63105E-01 1.49732E-03-7.35407E-01 3.70344E-13-1.78227E-13
 -1      2781 2.04364E+01 1.79399E-01 4.00623E-04-6.88495E-01 3.76641E-13-6.13602E-14
 -1      2782 2.03647E+01 1.85369E-01-2.07977E-03-8.22786E-01 3.11343E-13-5.78769E-14
 -1      2783 2.03977E+01 1.88213E-01 1.82380E-03-6.31000E-01 1.94971E-13-2.53497E-15
 -1      2784 2.03346E+01 1.90057E-01-1.15607E-04-5.80685E-01 1.26518E-13 1.07110E-13
 -1      2785 2.02722E+01 2.25870E-01-1.35671E-03-7.06460E-01 2.99061E-13-6.44798E-14
 -1      2786 2.03074E+01 1.88135E-01 1.90947E-03-5.24986E-01 5.45038E-14-1.99488E-14
 -1      2787 2.02554E+01 1.81526E-01-3.73508E-04-4.76263E-01-2.67255E-14 7.76465E-14
 -1      2788 2.02060E+01 2.32125E-01-9.19285E-04-5.89358E-01 4.74002E-14-1.79759E-13
 -1      2789 2.02358E+01 1.73686E-01 1.83699E-03-4.25467E-01-9.72876E-14 1.96364E-13
 -1      2790 2.01934E+01 1.62895E-01-4.68614E-04-3.81141E-01-1.80242E-14 1.22123E-13
 -1      2791 2.01573E+01 2.18100E-01-6.60597E-04-4.79672E-01-2.59762E-14-1.87305E-13
 -1      2792 2.01788E+01 1.52470E-01 1.66791E-03-3.36705E-01 5.69859E-14 2.10250E-13
 -1      2793 2.01445E+01 1.40362E-01-4.66690E-04-2.98041E-01 2.03170E-13 2.60746E-13
 -1      2794 2.01204E+01 1.93815E-01-5.05539E-04-3.81749E-01 7.07720E-14-1.61097E-14
 -1      2795 2.01333E+01 1.29530E-01 1.44794E-03-2.60320E-01 3.45547E-13 2.24725E-13
 -1      2796 2.01060E+01 1.17907E-01-4.11755E-04-2.27557E-01 3.93432E-13 1.90334E-13
 -1      2797 2.00918E+01 1.66051E-01-3.98221E-04-2.97306E-01 2.35161E-13 1.33199E-13
 -1      2798 2.00970E+01 1.08023E-01 1.22352E-03-1.96214E-01 3.01607E-13-5.99274E-14
 -1      2799 2.00754E+01 9.78587E-02-3.12293E-04-1.68932E-01 1.48892E-13-1.56582E-13
 -1      2800 2.00690E+01 1.39098E-01-3.00992E-04-2.26310E-01 2.01032E-13-3.95883E-13
 -1      2801 2.00678E+01 8.94221E-02 9.28991E-04-1.43372E-01 1.00974E-13-7.44711E-15
 -1      2802 2.00512E+01 8.16275E-02-5.46665E-05-1.20976E-01 3.78503E-14-2.30281E-13
 -1      2803 2.00503E+01 1.15003E-01-3.68759E-04-1.67610E-01 1.28522E-13-3.67743E-13
 -1      2804 2.42417E+01 7.09703E+00-3.34237E-01-5.68254E-01-1.54257E-12 2.61380E-12
 -1      2805 2.48054E+01 6.50159E+00-1.69138E-01-1.47430E+00-1.27773E-12 2.30205E-12
 -1      2806 1.95340E+01 1.59113E-01 8.74830E-04-2.93876E-01 1.48614E-13-8.92505E-14
 -1      2807 1.95315E+01 2.00090E-01 4.49728E-03-2.27368E-01 1.81829E-13-6.16534E-14
 -1      2808 1.97159E+01 9.63962E-02 2.31041E-03-5.51990E-01 7.28282E-14-6.82659E-14
 -1      2809 1.96522E+01 9.20224E-02 3.51561E-04-5.18418E-01 5.13601E-14-8.38989E-14
 -1      2810 1.98258E+01 1.15962E-01 2.76486E-03-6.26866E-01 8.46821E-14-7.33619E-14
 -1      2811 1.97482E+01 1.03596E-01-3.32167E-04-5.90053E-01 9.65802E-14-4.56831E-14
 -1      2812 1.97270E+01 1.30229E-01-1.32679E-03-6.15639E-01 8.57068E-14-1.22619E-13
 -1      2813 1.99554E+01 1.48027E-01 3.24431E-03-7.14562E-01 1.27354E-13-4.95058E-14
 -1      2814 1.98645E+01 1.29521E-01-8.34187E-04-6.70279E-01 1.04232E-13-3.95177E-14
 -1      2815 1.98025E+01 1.57835E-01-1.04200E-03-7.01791E-01 9.48586E-14-4.92243E-14
 -1      2816 2.01040E+01 1.89041E-01 3.73306E-03-8.22025E-01 8.34586E-14-4.88821E-14
 -1      2817 1.99994E+01 1.66270E-01-1.21294E-03-7.67268E-01 1.20103E-13-4.19772E-14
 -1      2818 1.98910E+01 2.00268E-01-8.12322E-04-8.02246E-01 1.20569E-13-2.81126E-14
 -1      2819 2.02721E+01 2.34363E-01 4.18590E-03-9.53658E-01 4.14907E-14-8.87226E-14
 -1      2820 2.01528E+01 2.09940E-01-1.48973E-03-8.86791E-01 6.63791E-14-4.47482E-14
 -1      2821 1.99907E+01 2.52694E-01-6.23271E-04-9.23937E-01 7.92429E-14-6.45435E-14
 -1      2822 2.04618E+01 2.76473E-01 4.52346E-03-1.11058E+00 1.18325E-14-1.10687E-13
 -1      2823 2.03261E+01 2.54749E-01-1.63451E-03-1.03190E+00 3.23859E-14-7.89043E-14
 -1      2824 2.01008E+01 3.08472E-01-5.01019E-04-1.07118E+00 4.01168E-14-3.84360E-14
 -1      2825 2.06770E+01 3.02424E-01 4.62829E-03-1.28905E+00 6.34281E-14-1.13016E-13
 -1      2826 2.05227E+01 2.90915E-01-1.54026E-03-1.20184E+00 3.30328E-14-1.06911E-13
 -1      2827 2.02227E+01 3.56803E-01-5.40813E-04-1.24505E+00 4.00641E-14-1.28009E-13
 -1      2828 2.09263E+01 2.90340E-01 4.33647E-03-1.47776E+00 9.40054E-14-9.19685E-14
 -1      2829 2.07498E+01 3.01649E-01-9.80098E-04-1.39003E+00 7.25612E-14-7.13050E-14
 -1      2830 2.03612E+01 3.79397E-01-9.73040E-04-1.44216E+00 6.06149E-14-6.52458E-14
 -1      2831 2.12270E+01 2.05368E-01 3.42566E-03-1.65381E+00 6.94896E-14 2.33050E-14
 -1      2832 2.10221E+01 2.59278E-01 4.57671E-04-1.58077E+00 8.95497E-14-5.64006E-14
 -1      2833 2.05290E+01 3.46090E-01-2.24915E-03-1.65254E+00 6.72881E-14-1.10345E-14
 -1      2834 2.16122E+01-2.61370E-03 1.61472E-03-1.77697E+00-1.35087E-13 1.55085E-13
 -1      2835 2.13681E+01 1.21605E-01 3.44801E-03-1.74416E+00-2.16169E-14 1.37347E-13
 -1      2836 2.07540E+01 2.10234E-01-5.10678E-03-1.85625E+00-6.65647E-14 1.40871E-13
 -1      2837 2.21373E+01-3.93590E-01-1.87489E-03-1.78241E+00-1.15965E-13 1.71169E-13
 -1      2838 2.18381E+01-1.67527E-01 8.98660E-03-1.82869E+00-1.22901E-13 1.76664E-13
 -1      2839 2.10893E+01-9.26691E-02-1.04748E-02-2.01768E+00-1.27466E-13 2.24432E-13
 -1      2840 2.28802E+01-1.00371E+00-8.06848E-03-1.56997E+00-9.64654E-14 1.25797E-13
 -1      2841 2.25116E+01-6.63540E-01 1.78040E-02-1.74816E+00-1.21160E-13 1.01100E-13
 -1      2842 2.16285E+01-6.36336E-01-1.92715E-02-2.07434E+00-7.46475E-14 2.26305E-13
 -1      2843 2.39076E+01-1.75738E+00-1.62837E-02-1.00698E+00-1.23219E-13 1.37070E-13
 -1      2844 2.34729E+01-1.36374E+00 2.67822E-02-1.37253E+00-8.60891E-14 1.48018E-13
 -1      2845 2.25073E+01-1.44410E+00-2.99415E-02-1.90694E+00-1.02387E-13 1.39983E-13
 -1      2846 2.52000E+01-2.33294E+00-2.14215E-02 1.25731E-02-3.50293E-14 1.08842E-13
 -1      2847 2.47478E+01-2.09928E+00 2.93700E-02-5.55972E-01-1.19682E-13 7.88978E-14
 -1      2848 2.38400E+01-2.37030E+00-3.82851E-02-1.35311E+00-6.88954E-14 8.86652E-14
 -1      2849 2.64336E+01-2.02795E+00-4.76759E-02 1.38242E+00-4.66988E-14 2.10036E-13
 -1      2850 2.61488E+01-2.32192E+00 6.45125E-03 7.71271E-01-1.53853E-14 1.73504E-13
 -1      2851 2.56722E+01-2.86191E+00-3.64821E-03-1.37574E-01-7.04801E-14 8.42893E-14
 -1      2852 2.72557E+01 2.28550E-02-1.98626E-02 2.54648E+00 1.73889E-14-8.70554E-14
 -1      2853 2.72612E+01-1.27499E+00-5.39707E-02 2.23641E+00 2.57329E-14 1.09770E-13
 -1      2854 2.74622E+01-2.18665E+00-8.02237E-02 1.36702E+00 3.98188E-14 4.68896E-14
 -1      2855 2.72493E+01 4.54876E+00-1.05020E-01-9.26944E-01 6.30621E-13-1.02701E-12
 -1      2856 2.72331E+01 4.50439E+00-1.22783E-01 4.45727E-01 5.73652E-13-8.96823E-13
 -1      2857 2.74139E+01 3.77029E+00-1.19479E-01-2.03509E+00 6.07125E-13-1.08465E-12
 -1      2858 2.75735E+01-2.73576E-01-1.04716E-01-3.04186E+00-1.41463E-13-8.79054E-13
 -1      2859 2.74727E+01 1.17115E+00-6.28753E-02-2.99518E+00 2.55004E-13-9.16385E-13
 -1      2860 2.69249E+01-2.10564E+00-1.54326E-02-1.71406E+00-3.58855E-13-7.15722E-13
 -1      2861 2.71140E+01-1.43465E+00-3.45198E-02-2.34429E+00-3.30475E-13-7.63675E-13
 -1      2862 2.82617E+01-1.23582E+00-3.32966E-02-2.42711E+00-2.54911E-13-7.95600E-13
 -1      2863 2.56280E+01-2.22509E+00 7.89541E-02-7.65647E-02-2.55016E-13-5.50832E-13
 -1      2864 2.59703E+01-2.35065E+00-2.65030E-02-7.98978E-01-3.11064E-13-6.05087E-13
 -1      2865 2.66030E+01-2.84495E+00-3.22699E-02-7.09360E-01-4.30742E-13-7.85543E-13
 -1      2866 2.39842E+01-1.59808E+00 1.21482E-01 1.08408E+00-2.71567E-13-2.38733E-13
 -1      2867 2.46758E+01-1.92997E+00 8.11093E-02 6.25374E-01-2.73420E-13-3.86455E-13
 -1      2868 2.48739E+01-2.72786E+00 3.08525E-02 8.29188E-01-4.26803E-13-6.10626E-13
 -1      2869 2.27005E+01-8.92503E-01 2.28881E-02 1.58440E+00-1.79279E-13-1.19096E-13
 -1      2870 2.30820E+01-1.28615E+00-9.87361E-03 1.34446E+00-1.71889E-13-1.27749E-13
 -1      2871 2.27464E+01-1.81372E+00-4.96213E-02 1.64629E+00-2.55849E-13-3.76586E-13
 -1      2872 2.19775E+01-2.95886E-01 1.21540E-02 1.74512E+00-1.98887E-13-2.07538E-13
 -1      2873 2.22787E+01-5.75842E-01-3.99478E-03 1.66430E+00-1.75279E-13-1.52820E-13
 -1      2874 2.18057E+01-8.89324E-01-2.27390E-02 1.94937E+00-1.76363E-13-3.66084E-13
 -1      2875 2.14938E+01 7.61816E-02 5.20512E-03 1.68849E+00 1.00920E-13-1.83723E-13
 -1      2876 2.17319E+01-8.79422E-02 3.56103E-04 1.70871E+00-6.13014E-14-1.85993E-13
 -1      2877 2.12110E+01-2.22913E-01-1.31814E-02 1.94627E+00-1.22174E-13-3.25405E-13
 -1      2878 2.11634E+01 2.67155E-01 1.39412E-03 1.52142E+00-4.05066E-14-1.13409E-13
 -1      2879 2.13550E+01 1.88830E-01 2.87916E-03 1.59619E+00 1.64964E-14-8.11684E-14
 -1      2880 2.08681E+01 1.72711E-01-6.58699E-03 1.79201E+00-4.81799E-14-1.94521E-13
 -1      2881 2.09239E+01 3.39471E-01-4.40186E-04 1.31001E+00 7.24053E-14-6.04037E-14
 -1      2882 2.10820E+01 3.14888E-01 4.15249E-03 1.40788E+00 4.32631E-14-5.76581E-14
 -1      2883 2.06658E+01 3.65877E-01-2.81470E-03 1.57298E+00-5.32884E-14-2.87672E-13
 -1      2884 2.07388E+01 3.43788E-01-1.16439E-03 1.09232E+00-1.11507E-13-1.94464E-13
 -1      2885 2.08711E+01 3.48826E-01 4.61549E-03 1.19420E+00 5.88659E-14-4.91462E-14
 -1      2886 2.05351E+01 4.30780E-01-1.04546E-03 1.33596E+00 7.47094E-14-2.23325E-13
 -1      2887 2.05889E+01 3.14070E-01-1.31604E-03 8.88719E-01-1.02449E-13-3.28446E-13
 -1      2888 2.06998E+01 3.33184E-01 4.57237E-03 9.84172E-01-1.45583E-13-2.72587E-13
 -1      2889 2.04395E+01 4.23856E-01-3.92893E-04 1.10644E+00-1.19208E-14-3.81362E-13
 -1      2890 2.04647E+01 2.70685E-01-1.20600E-03 7.08726E-01-1.97801E-13-3.43752E-13
 -1      2891 2.05570E+01 2.94801E-01 4.23393E-03 7.92891E-01-1.63686E-13-3.06969E-13
 -1      2892 2.03619E+01 3.81927E-01-2.57762E-04 8.97602E-01-5.92689E-14-5.45005E-13
 -1      2893 2.03613E+01 2.24848E-01-9.99211E-04 5.55441E-01-1.79955E-13-3.11569E-13
 -1      2894 2.04372E+01 2.49092E-01 3.74417E-03 6.26788E-01-2.69301E-13-4.68801E-13
 -1      2895 2.02952E+01 3.26804E-01-3.10283E-04 7.15256E-01-2.16810E-13-3.09331E-13
 -1      2896 2.02760E+01 1.82207E-01-7.76156E-04 4.28323E-01 1.11117E-13-4.89512E-13
 -1      2897 2.03374E+01 2.04204E-01 3.19893E-03 4.87180E-01 4.33875E-14-3.54611E-13
 -1      2898 2.02370E+01 2.70419E-01-3.93738E-04 5.60736E-01-5.05549E-14-4.20663E-13
 -1      2899 2.02065E+01 1.45227E-01-5.76714E-04 3.24930E-01 7.74353E-14-4.85362E-13
 -1      2900 2.02553E+01 1.64013E-01 2.65817E-03 3.72560E-01 9.86774E-14-4.53202E-13
 -1      2901 2.01866E+01 2.18724E-01-4.50795E-04 4.32739E-01 1.82732E-13-5.33162E-13
 -1      2902 2.01506E+01 1.14723E-01-4.09657E-04 2.42035E-01 2.22078E-13-1.62989E-13
 -1      2903 2.01889E+01 1.30018E-01 2.15337E-03 2.80072E-01 1.07796E-13-3.41222E-13
 -1      2904 2.01437E+01 1.74233E-01-4.71474E-04 3.28559E-01 3.80124E-15-3.48780E-13
 -1      2905 2.01063E+01 9.07656E-02-2.28452E-04 1.76115E-01 2.14183E-13 7.82888E-14
 -1      2906 2.01358E+01 1.02642E-01 1.70042E-03 2.06305E-01 3.07914E-13-4.80818E-14
 -1      2907 2.01077E+01 1.37785E-01-4.48794E-04 2.44933E-01 1.49858E-13-2.62506E-13
 -1      2908 2.00721E+01 7.29531E-02 2.25215E-04 1.23937E-01 2.32950E-13 4.76875E-14
 -1      2909 2.00938E+01 8.13603E-02 1.30437E-03 1.47574E-01 1.88063E-13 1.87488E-13
 -1      2910 2.00775E+01 1.09254E-01-4.46727E-04 1.78356E-01 1.63350E-13-2.31362E-13
 -1      2911 2.00450E+01 6.51283E-02 3.58786E-04 8.89986E-02 1.54131E-13 1.14119E-13
 -1      2912 2.00610E+01 7.16289E-02 1.01775E-03 1.08453E-01 1.91545E-13 1.13512E-13
 -1      2913 2.00514E+01 9.26946E-02-9.89800E-04 1.32317E-01 1.15495E-13-1.54748E-13
 -1      2914 2.00316E+01 8.59966E-02-9.04235E-04 1.01234E-01 6.59362E-14 9.20601E-14
 -1      2915 1.07732E+01-2.68125E+00 1.58736E-01-9.77316E+00 4.52506E-11-7.79492E-12
 -1      2916 1.36114E+01-5.84335E+00-1.39407E+00-1.23827E+01 4.56937E-11-6.52634E-12
 -1      2917 1.99304E+01 2.20751E-01-5.13038E-04 8.93952E-03 1.32636E-13-2.62801E-13
 -1      2918 1.99327E+01 2.18576E-01-3.26092E-04 2.78614E-02 1.77163E-13-2.91491E-13
 -1      2919 7.13544E+00-1.34786E+00 1.65597E-01-3.50769E+00 6.07472E-13-7.41379E-13
 -1      2920 9.29816E+00-2.04650E+00 9.70722E-02-5.12235E+00 4.94216E-13-8.26256E-13
 -1      2921 1.99551E+01 1.90970E-01-8.50434E-04 8.29803E-02 2.06730E-13 2.41736E-13
 -1      2922 1.99671E+01 1.78573E-01 1.74978E-04 9.41770E-02 2.73935E-13 1.74310E-13
 -1      2923 1.99341E+01 2.16092E-01-2.33185E-04-3.24348E-02 3.78873E-14-4.18314E-13
 -1      2924 1.99309E+01 2.19478E-01-5.87381E-04-1.38257E-02 1.04202E-13-3.37285E-13
 -1      2925 1.99145E+01 2.40855E-01 8.84213E-04-3.27869E-03 5.61812E-14-3.51030E-13
 -1      2926 1.99376E+01 2.12128E-01-7.48295E-04 4.94172E-02 1.49174E-13-7.11440E-14
 -1      2927 1.99453E+01 2.04569E-01-2.26071E-05 6.58058E-02 1.90667E-13 2.13330E-13
 -1      2928 1.99383E+01 2.17122E-01 7.44800E-04 8.48641E-02 2.39129E-13 2.08253E-13
 -1      2929 1.99201E+01 2.36057E-01 8.76895E-04 4.36762E-02 2.31900E-14-8.98083E-14
 -1      2930 1.63123E+01-4.59447E+00 4.87272E-02 6.33243E+00-1.24456E-13 4.38316E-13
 -1      2931 1.30835E+01-3.39877E+00 1.15800E-01 5.88330E+00-9.86156E-14 1.69309E-13
 -1      2932 1.99477E+01 1.99360E-01 7.09697E-05-6.82220E-02-1.12619E-13-2.99199E-13
 -1      2933 1.99396E+01 2.07602E-01-7.76117E-04-5.28465E-02-5.62652E-15-1.79284E-13
 -1      2934 1.99221E+01 2.31501E-01 8.17017E-04-4.89560E-02 1.85552E-15-4.17995E-13
 -1      2935 1.99694E+01 1.71897E-01 3.11875E-04-9.45690E-02 8.04229E-15-1.85754E-13
 -1      2936 1.99574E+01 1.84453E-01-8.69767E-04-8.41464E-02-2.41790E-14-3.39117E-13
 -1      2937 1.99414E+01 2.09305E-01 6.54509E-04-8.74727E-02-7.48914E-14-3.47264E-13
 -1      2938 1.99956E+01 1.36453E-01 1.70791E-04-1.06912E-01-2.43955E-13-7.26130E-14
 -1      2939 1.99824E+01 1.52400E-01-7.86189E-04-1.03618E-01-9.86809E-14-1.14502E-13
 -1      2940 1.99695E+01 1.76714E-01 4.22949E-04-1.13956E-01-3.36062E-14-2.37898E-13
 -1      2941 1.95418E+01 2.51654E-01 2.96877E-04-1.39431E-01 1.77485E-13-6.70271E-14
 -1      2942 1.95720E+01 3.24451E-01 7.00322E-03-3.69706E-02 1.88437E-13-6.27856E-14
 -1      2943 1.96628E+01 4.85127E-01-1.66272E-03 6.10303E-02 2.04218E-13-1.50857E-13
 -1      2944 1.96215E+01 2.99349E-01-2.43806E-03-1.71779E-01 1.85673E-13-9.54898E-14
 -1      2945 6.67648E+00-6.04568E-01 1.50256E-01 1.20063E+00-1.94102E-13 1.22680E-13
 -1      2946 6.76494E+00-5.46689E-01 1.39851E-01-1.33247E+00-5.36099E-14 2.93349E-13
 -1      2947 2.92349E+01-3.56574E+00-1.09126E-01 6.87551E-02-8.21648E-13-7.77226E-13
 -1      2948 2.73493E+01-4.68679E+00 1.31819E-02 1.61733E+00-9.70647E-13-7.37119E-13
 -1      2949 2.33904E+01 1.33354E+00-2.24494E+00-5.98770E-01 2.78279E-12 8.60156E-12
 -1      2950 2.44626E+01 4.22110E+00-1.39595E+00-1.10912E-01 2.39864E-13 6.27365E-12
 -1      2951 2.00379E+01 7.19037E-02 1.11200E-04-9.33052E-02-1.37089E-13-2.81097E-13
 -1      2952 2.00279E+01 8.62936E-02 8.80278E-06-9.81247E-02-1.20918E-13-6.03364E-13
 -1      2953 2.00473E+01 7.67430E-02 7.45716E-04-1.06437E-01 2.58527E-14-3.31949E-13
 -1      2954 1.96276E+01 9.30962E-02 1.87120E-03-4.80496E-01 5.19166E-14-9.00919E-14
 -1      2955 1.95800E+01 9.91574E-02 1.31473E-03-4.44520E-01 7.02822E-14-1.03110E-13
 -1      2956 1.96670E+01 1.22234E-01-1.69172E-03-5.34267E-01 5.37393E-14-8.43141E-14
 -1      2957 1.95650E+01 1.11245E-01 1.40789E-03-3.99932E-01 9.12691E-14-1.04108E-13
 -1      2958 1.95372E+01 1.31528E-01 2.67874E-03-3.53932E-01 1.11544E-13-7.78454E-14
 -1      2959 1.96263E+01 1.40093E-01-2.15137E-03-4.45106E-01 8.93145E-14-9.98937E-14
 -1      2960 1.94262E+01 1.05722E+00 3.06354E-03-9.53727E-01-2.60225E-13-1.82512E-13
 -1      2961 1.93301E+01 8.24259E-01-5.26713E-03-7.09004E-01-2.46208E-13-1.80058E-13
 -1      2962 1.93668E+01 8.98928E-01-2.60457E-03-6.72941E-01-2.22578E-13-2.02056E-13
 -1      2963 4.85889E-01-5.92152E+00-9.64131E+00-1.02510E+01 1.15943E-11 5.96714E-11
 -1      2964 1.93775E+01-3.37875E+00-3.67447E+00-1.75621E+00 5.84199E-13 2.07852E-11
 -1      2965 1.93170E+01 2.52373E+00-7.46547E-03 5.43051E-01 2.36737E-13-3.66491E-13
 -1      2966 1.92577E+01 2.61774E+00-6.33712E-03 3.98516E-01 1.94981E-13-3.93090E-13
 -1      2967 1.93631E+01 2.34076E+00 4.41682E-03 2.69336E-01 1.69062E-13-3.72912E-13
 -1      2968 1.94780E+01 2.13636E+00 5.60680E-03 4.91608E-01 2.19007E-13-3.18358E-13
 -1      2969 1.90891E+01 2.65142E+00-5.93130E-03-7.96624E-01-9.39930E-14-4.08829E-13
 -1      2970 1.91159E+01 2.56414E+00-7.40763E-03-9.34351E-01-1.47170E-13-4.05465E-13
 -1      2971 2.10664E+01-5.09163E+00-2.69586E-02 3.97156E+00 7.75033E-13 9.33337E-13
 -1      2972 1.84259E+01-4.98744E+00 7.81802E-02 4.94012E+00 9.21471E-13 7.51243E-13
 -1      2973 2.93803E+01 3.92609E+00-2.38447E-01-2.56773E+00 3.49026E-13-1.55646E-12
 -1      2974 3.04792E+01 2.52676E+00-8.61907E-02-2.96772E+00-1.12826E-14-1.43663E-12
 -1      2975 3.04904E+01 3.71458E+00-1.06661E-01 2.25145E+00 8.06577E-13-1.02397E-12
 -1      2976 2.97716E+01 4.89455E+00-2.54226E-01 1.54533E+00 8.83044E-13-1.10044E-12
 -1      2977 3.08978E+01-6.65321E-01-3.19023E-02 1.10640E+00 8.65058E-13-5.37792E-13
 -1      2978 3.06310E+01 1.43462E+00-2.17667E-01 1.93918E+00 8.15903E-13-7.26558E-13
 -1      2979 2.16274E+01-5.08475E+00 6.58733E-02-5.37439E+00 3.64569E-13-4.86937E-13
 -1      2980 2.50144E+01-5.10284E+00-4.25732E-02-3.98558E+00 3.59657E-13-2.85751E-13
 -1      2981 5.66161E+00-9.43094E-01 1.56671E-01 5.57617E-01 7.91783E-13-2.80831E-13
 -1      2982 5.95198E+00-8.53786E-01 1.41374E-01-1.62428E+00 7.37022E-13-5.15532E-13
 -1      2983 1.81359E+01-1.07624E+01-3.16752E+00-1.46770E+01 6.32960E-11-2.52420E-12
 -1      2984 1.00306E+01-1.62891E+01-9.08499E+00-2.27070E+01 8.68758E-11 2.54410E-11
 -1      2985 2.46032E+01-3.59106E+00-9.03040E-02 1.05934E+00 5.92894E-13 8.74939E-13
 -1      2986 2.31918E+01-4.53313E+00 5.21477E-02 2.48826E+00 7.11119E-13 9.94045E-13
 -1      2987 2.52841E+01 4.90637E+00-2.05476E-01-2.16724E+00-8.73052E-13 2.20717E-12
 -1      2988 2.58437E+01 3.29163E+00-1.06055E-01-2.29283E+00-5.00239E-13 2.09383E-12
 -1      2989 2.31348E+01-3.39816E+00-2.75911E+00-2.13757E+00 9.27702E-12 1.06306E-11
 -1      2990 2.42008E+01-1.86034E+00-2.30381E+00-2.00762E+00 8.06888E-12 1.01199E-11
 -1      2991 1.92542E+01 2.18057E+00 5.50556E-03-8.84163E-01-1.54563E-13-3.50407E-13
 -1      2992 1.91543E+01 2.44415E+00-6.58794E-03-1.04012E+00-1.86924E-13-3.89164E-13
 -1      2993 1.91945E+01 2.30292E+00-1.37435E-02-1.16680E+00-2.37135E-13-3.67609E-13
 -1      2994 1.92200E+01 2.50511E+00 3.61325E-03-2.09915E-01 3.31707E-14-3.95907E-13
 -1      2995 1.90803E+01 2.81660E+00-5.28061E-03-2.68761E-01 2.55664E-14-4.23072E-13
 -1      2996 1.90689E+01 2.80420E+00-5.49320E-03-4.12818E-01-1.63380E-14-4.24016E-13
 -1      2997 1.97228E+01 1.52461E+00-1.77041E-03 9.32574E-01 3.29162E-13-1.84544E-13
 -1      2998 9.03784E+00-2.96497E-01 1.72471E-01 1.97142E+00-1.76349E-13 2.04572E-13
 -1      2999 2.36689E+01-9.77410E-01-4.66147E-01-3.43970E+00 2.31654E-12 9.17666E-12
 -1      3000 2.40149E+01 5.13251E+00-1.27520E-01-1.70138E+00-1.18977E-12 2.08100E-12
 -1      3001 2.52821E+01-2.61756E+00-3.23659E-03-5.55314E-02 4.76936E-13 1.03295E-12
 -1      3002 2.42259E+01-3.30300E+00-4.57599E-03 5.30093E-01 3.66381E-13 7.86329E-13
 -1      3003 2.50599E+01-1.56385E+00-1.31854E-01-1.07664E+00 1.77015E-13 1.24659E-12
 -1      3004 1.96098E+01 1.93276E-01-2.58281E-03-3.31567E-01 1.37365E-13-9.58515E-14
 -1      3005 2.63549E+01-5.15700E+00 4.41539E-02 2.45034E+00-8.51028E-13-6.05599E-13
 -1      3006 2.45322E+01-5.17907E+00 2.82952E-02 3.26234E+00-1.18422E-12-5.13645E-13
 -1      3007 2.71920E+01-4.44011E+00-1.38244E-03 9.52461E-01-7.23227E-13-3.46709E-13
 -1      3008 1.93682E+01-4.67989E+00 7.94603E-02 5.33627E+00-2.68535E-13 1.44190E-13
 -1      3009 1.90386E+01-3.90531E+00 1.29668E-01-1.32548E+01 5.56901E-11-1.49498E-11
 -1      3010 2.00371E+01 9.74157E-02-4.50179E-04-1.26298E-01-8.20619E-14-6.20545E-13
 -1      3011 2.37246E+01 6.86707E+00-3.87436E-01 1.78047E-02-1.73914E-12 2.56492E-12
 -1      3012 2.27605E+01 6.46530E+00-1.87669E-01-1.43240E-01-1.82547E-12 2.11564E-12
 -1      3013 2.28375E+01 6.57002E+00-4.62534E-01 6.83861E-01-1.92171E-12 2.85344E-12
 -1      3014 6.62645E+00-8.73170E-01 1.76981E-01 1.59143E+00 7.66786E-13-1.88405E-13
 -1      3015 7.95083E+00-1.03651E-01 1.23045E-01 7.02733E-01 5.27415E-13-2.00728E-13
 -1      3016 7.97279E+00-8.89569E-01 1.18356E-01 2.68282E+00 7.00121E-13-4.95437E-14
 -1      3017 9.27101E+00 2.39265E-01 1.08479E-01-1.23461E+00 4.97380E-14 1.83797E-13
 -1      3018 9.49908E+00-5.01902E-02 6.09887E-01-5.35311E+00 2.06856E-11-1.99457E-12
 -1      3019 1.35288E+01 1.87212E+00 1.35013E+00-9.27097E+00 3.91752E-11-6.44457E-12
 -1      3020 1.98366E+01-4.63610E+00 7.41444E-02-5.82354E+00 2.72005E-13-6.21322E-13
 -1      3021 2.19593E+01-4.55692E+00 3.57573E-02-4.59669E+00 1.10995E-13-2.53998E-13
 -1      3022 1.79359E+01-3.76499E+00 8.66503E-02-5.80967E+00 1.09440E-13-6.24174E-13
 -1      3023 2.71918E+01 3.44169E+00-9.33748E-02 1.93952E+00 5.28355E-13-5.67463E-13
 -1      3024 2.73890E+01 1.93896E+00-1.45109E-01 2.49678E+00 3.09724E-13-3.70447E-13
 -1      3025 2.00184E+01 1.09303E-01 3.32490E-04 1.06036E-01 6.89055E-14 7.92956E-14
 -1      3026 2.00271E+01 1.14054E-01 8.58748E-04 1.21526E-01 4.41561E-14 1.99567E-13
 -1      3027 2.00044E+01 1.26441E-01-9.04372E-04 1.09033E-01 1.30182E-14 1.22185E-13
 -1      3028 2.97662E+01-1.85565E+00 2.67255E-02 8.11148E-01 4.94334E-13-3.24574E-13
 -1      3029 1.30391E+01-2.29281E+00 1.39227E-01 5.03686E+00-1.69378E-13 1.73417E-13
 -1      3030 1.14368E+01-1.42354E+00 1.29176E-01-4.84435E+00 2.62637E-13-6.73461E-13
 -1      3031 1.18427E+01-2.31342E+00 1.72880E-01-5.65498E+00 3.71009E-13-7.53730E-13
 -1      3032 1.43155E+01-2.77130E+00 4.14062E-02-5.77713E+00 1.57797E-13-6.16965E-13
 -1      3033 2.94800E+01 1.87066E+00-7.48511E-02 2.26545E+00 6.02615E-13-6.84244E-13
 -1      3034 2.00175E+01 1.04725E-01 1.79271E-04-1.02195E-01-5.64479E-14-3.76612E-13
 -1      3035 2.56613E+01 1.72510E+00-1.24330E-01-2.16457E+00-3.59476E-13 1.84965E-12
 -1      3036 2.52188E+01 4.55328E-01-1.44851E-02-1.97069E+00-2.17090E-13 1.58999E-12
 -1      3037 2.42959E+01 2.38296E+00-1.06926E-01-2.37116E+00-6.59202E-13 1.81174E-12
 -1      3038 2.23495E+01-1.49935E-01-2.28987E+00-2.00442E+00 6.11766E-12 1.01532E-11
 -1      3039 8.07429E+00-5.25321E-01 1.68798E-01-2.35635E+00 4.94507E-13-5.42205E-13
 -1      3040 2.31885E+01 4.91667E+00-1.14549E+00 6.88813E-01-8.53040E-13 5.06462E-12
 -1      3041 1.71044E+01-4.64303E+00 8.24843E-02 5.32575E+00 9.31907E-13 6.24042E-13
 -1      3042 1.55515E+01-3.90172E+00 1.03670E-01 5.33859E+00 8.15029E-13 3.97481E-13
 -1      3043 1.89216E+01-4.44041E+00 4.78705E-02 4.39322E+00 6.56968E-13 6.36723E-13
 -1      3044 1.97219E+01 1.31992E+00 2.14711E-03 6.85639E-01 3.02788E-13-2.06872E-13
 -1      3045 1.99783E+01 1.61553E-01-8.99651E-04 1.02535E-01 1.80354E-13 1.78579E-13
 -1      3046 1.99922E+01 1.45955E-01 2.12108E-04 1.06983E-01 2.13720E-13 2.31387E-13
 -1      3047 1.99948E+01 1.53951E-01 6.98740E-04 1.23357E-01 3.47575E-14 2.88946E-13
 -1      3048 1.99652E+01 1.88087E-01 6.87162E-04 1.11974E-01 2.01099E-13 2.99132E-13
 -1      3049 2.66389E+01-4.74411E+00 4.35471E-02-2.68347E+00 1.95982E-13-3.14929E-13
 -1      3050 2.73558E+01-4.39541E+00-1.80145E-01-1.35074E+00 1.21552E-13-2.13121E-13
 -1      3051 2.50371E+01-4.68200E+00 4.36357E-02-3.14487E+00 8.47447E-14-6.76716E-14
 -1      3052 1.90662E+01 2.77103E+00-5.50824E-03-5.36542E-01-3.17505E-14-4.17065E-13
 -1      3053 1.90726E+01 2.72479E+00-6.01702E-03-6.78738E-01-6.58297E-14-4.09782E-13
 -1      3054 1.92067E+01 2.37112E+00 4.32582E-03-6.76554E-01-7.28893E-14-3.76621E-13
 -1      3055 1.91962E+01 2.47611E+00 3.78578E-03-4.48090E-01-2.14018E-14-3.95271E-13
 -1      3056 2.28495E+01-4.57270E+00-1.92501E+00-9.36036E+00 3.42064E-11 2.97184E-12
 -1      3057 9.96270E+00-2.96600E+00 1.60076E-01 5.15099E+00 1.06866E-12 1.47715E-13
 -1      3058 9.49120E+00-1.98327E+00 1.46238E-01 4.43535E+00 8.50972E-13 1.20071E-13
 -1      3059 1.22497E+01-3.14327E+00 6.19565E-02 5.28345E+00 9.00335E-13 2.97928E-13
 -1      3060 3.05071E+01 4.62431E-01-1.88395E-01-2.45790E+00-2.74974E-13-1.24671E-12
 -1      3061 3.02112E+01-1.61450E+00-1.77723E-02-1.49765E+00-5.01280E-13-1.09268E-12
 -1      3062 2.21734E+01-4.59856E+00 4.00059E-02 2.83772E+00 5.75810E-13 7.17221E-13
 -1      3063 2.00220E+01 1.11866E-01-2.14314E-04-1.23810E-01-2.24165E-13-5.26234E-13
 -1      3064 2.00063E+01 1.24336E-01-2.64417E-04-1.13663E-01-1.83759E-13-1.79692E-13
 -1      3065 1.99994E+01 1.45817E-01 5.74374E-04-1.29679E-01-1.82634E-13 6.70002E-14
 -1      3066 2.00284E+01 1.20174E-01 8.00620E-04-1.39470E-01-1.23972E-13-4.61433E-13
 -1      3067 1.92929E+01 2.09455E+00 1.48539E-03-1.25536E+00-2.56461E-13-3.22439E-13
 -1      3068 1.94231E+01 1.65668E+00-1.07300E-02-1.34418E+00-3.19341E-13-2.26411E-13
 -1      3069 1.94091E+01 1.29204E+00-1.22492E-03-1.07407E+00-2.81246E-13-1.96414E-13
 -1      3070 1.93521E+01 1.83859E+00 8.69234E-03-1.05130E+00-2.43161E-13-3.08818E-13
 -1      3071 2.90559E+01-2.60397E+00-2.69564E-02-1.23769E+00-5.24194E-13-7.31415E-13
 -1      3072 1.94011E+01 1.36108E+00 2.43535E-03-9.87858E-01-2.57614E-13-2.39069E-13
 -1      3073 1.06781E+01-1.66455E-01 8.40484E-02 2.75193E+00-4.56961E-14 2.38767E-13
 -1      3074 9.64608E+00 3.44992E-01 1.05030E-01 9.30652E-01-3.28661E-14 1.31950E-13
 -1      3075 1.96756E+01 1.44298E+00-5.70544E-03 5.55190E-01 2.73432E-13-2.39368E-13
 -1      3076 1.96250E+01 1.63033E+00-4.80255E-04 4.93281E-01 2.37901E-13-2.42454E-13
 -1      3077 1.97757E+01 2.11073E-01 2.22204E-03-7.43945E-01 6.34054E-14-3.95844E-14
 -1      3078 1.97331E+01 1.89365E-01-1.00973E-03-6.96671E-01 7.89913E-14-6.09760E-14
 -1      3079 1.93759E+01 7.51811E-01 6.42147E-03-4.50408E-01-1.85218E-13-2.09287E-13
 -1      3080 1.93190E+01 5.99637E-01-3.78146E-03-3.14392E-01-1.47302E-13-2.12760E-13
 -1      3081 2.26419E+01 5.06795E+00-2.02733E-01-1.07747E+00-1.43278E-12 1.81444E-12
 -1      3082 2.34408E+01 4.00577E+00-4.66211E-02-1.99725E+00-1.08616E-12 1.68129E-12
 -1      3083 1.93015E+01 4.87058E-01 3.82133E-03-2.08482E-01-1.40450E-13-2.04518E-13
 -1      3084 1.92536E+01 3.92900E-01-1.77129E-03-1.10751E-01-1.46440E-13-2.12996E-13
 -1      3085 1.93657E+01 6.46484E-01-1.99273E-04-2.91664E-01-1.52888E-13-2.22007E-13
 -1      3086 1.92256E+01 3.23268E-01 2.60061E-03-3.38767E-02-1.22096E-13-1.86649E-13
 -1      3087 1.91877E+01 2.68303E-01-6.37191E-04 3.59578E-02-1.17784E-13-1.94215E-13
 -1      3088 1.93077E+01 4.30466E-01-7.07184E-04-1.03414E-01-1.35510E-13-2.16448E-13
 -1      3089 1.91557E+01 2.29886E-01 1.58580E-03 9.34488E-02-1.22562E-13-1.97954E-13
 -1      3090 1.91280E+01 2.02195E-01 1.94782E-04 1.45883E-01-1.11004E-13-1.99470E-13
 -1      3091 1.92403E+01 3.01921E-01-8.60556E-04 3.63723E-02-1.31004E-13-1.82958E-13
 -1      3092 1.90948E+01 1.85616E-01 7.00687E-04 1.91971E-01-1.11530E-13-2.05485E-13
 -1      3093 1.90764E+01 1.77210E-01 8.03710E-04 2.35449E-01-1.07076E-13-1.96491E-13
 -1      3094 1.91719E+01 2.35360E-01-8.04916E-04 1.44422E-01-1.08899E-13-2.07010E-13
 -1      3095 1.90433E+01 1.75826E-01-6.88525E-06 2.76854E-01-8.12380E-14-1.93869E-13
 -1      3096 1.90330E+01 1.80648E-01 1.25791E-03 3.17683E-01-1.00536E-13-1.64318E-13
 -1      3097 1.91054E+01 2.13038E-01-6.62924E-04 2.35476E-01-7.73593E-14-1.94677E-13
 -1      3098 1.90006E+01 1.89180E-01-5.37308E-04 3.59615E-01-1.07637E-13-1.00730E-13
 -1      3099 1.89975E+01 2.02052E-01 1.60641E-03 4.02217E-01-7.55615E-14-9.91303E-14
 -1      3100 1.90419E+01 2.21187E-01-5.12730E-04 3.21597E-01-6.38102E-14-1.72291E-13
 -1      3101 1.89665E+01 2.15635E-01-8.88088E-04 4.48434E-01-1.05739E-13-5.89590E-14
 -1      3102 1.89706E+01 2.31407E-01 1.88014E-03 4.95486E-01-1.26775E-13-4.58200E-14
 -1      3103 1.89817E+01 2.47963E-01-4.09905E-04 4.11941E-01-7.82732E-14-5.77972E-14
 -1      3104 1.89421E+01 2.44806E-01-1.03569E-03 5.48333E-01-1.33677E-13 3.04711E-15
 -1      3105 1.89542E+01 2.57586E-01 2.09787E-03 6.00749E-01-9.42241E-14 4.79116E-15
 -1      3106 1.89260E+01 2.81622E-01-4.11976E-04 5.12869E-01-9.00886E-14-3.74931E-16
 -1      3107 1.89308E+01 2.64489E-01-9.23277E-04 6.61107E-01-9.15419E-14 2.09594E-15
 -1      3108 1.89534E+01 2.66925E-01 2.26752E-03 7.17845E-01-5.41506E-14-8.13368E-15
 -1      3109 1.88775E+01 3.08851E-01-5.99885E-04 6.27985E-01-7.62998E-14 8.44643E-14
 -1      3110 1.89399E+01 2.59290E-01-4.47071E-04 7.84903E-01-7.12486E-14-1.29509E-14
 -1      3111 1.89769E+01 2.41956E-01 2.37927E-03 8.42559E-01-5.20001E-14 4.35325E-15
 -1      3112 1.88425E+01 3.13182E-01-1.09680E-03 7.57963E-01-7.37037E-14 4.73358E-15
 -1      3113 1.89815E+01 2.09591E-01 5.54978E-04 9.13305E-01-2.92545E-14-9.08723E-15
 -1      3114 1.90398E+01 1.60740E-01 2.37745E-03 9.65460E-01-3.80577E-14-1.36591E-14
 -1      3115 1.88323E+01 2.73623E-01-2.08133E-03 8.99987E-01-6.96453E-14-3.62357E-15
 -1      3116 1.90758E+01 9.15172E-02 2.30627E-03 1.03367E+00-7.36635E-14 3.36098E-14
 -1      3117 1.91649E+01-2.19811E-03 2.09887E-03 1.06991E+00-9.73169E-14 9.10448E-15
 -1      3118 1.88662E+01 1.64001E-01-3.79601E-03 1.04644E+00-4.86951E-14-3.30871E-14
 -1      3119 1.92521E+01-1.20615E-01 5.06344E-03 1.12424E+00-1.09087E-13 7.89425E-14
 -1      3120 1.93837E+01-2.71248E-01 1.14246E-03 1.12892E+00-1.34162E-13 1.17418E-13
 -1      3121 1.89743E+01-4.56921E-02-6.50619E-03 1.18222E+00-7.81086E-14 7.28482E-14
 -1      3122 1.95485E+01-4.46678E-01 8.92473E-03 1.14969E+00-1.44760E-13 1.56287E-13
 -1      3123 1.97332E+01-6.57689E-01-1.16168E-03 1.10062E+00-8.99365E-14 1.42309E-13
 -1      3124 1.91996E+01-3.83302E-01-1.03887E-02 1.27962E+00-1.12841E-13 2.16555E-13
 -1      3125 2.00052E+01-8.82916E-01 1.37698E-02 1.05530E+00-2.25890E-14 1.89045E-13
 -1      3126 2.02435E+01-1.13449E+00-5.67551E-03 9.24478E-01-2.50128E-14 2.39454E-13
 -1      3127 1.95961E+01-8.59276E-01-1.50719E-02 1.28985E+00-4.86995E-14 2.10777E-13
 -1      3128 2.06408E+01-1.36870E+00 1.76932E-02 7.64368E-01-1.08265E-13 3.01466E-13
 -1      3129 2.09125E+01-1.58854E+00-1.03273E-02 5.24162E-01-1.25687E-13 2.60155E-13
 -1      3130 2.02156E+01-1.43180E+00-1.85400E-02 1.13269E+00-3.34303E-14 1.88961E-13
 -1      3131 2.14063E+01-1.73845E+00 1.60501E-02 2.02334E-01-1.10134E-13 3.16452E-13
 -1      3132 2.16588E+01-1.78035E+00-1.30779E-02-1.51086E-01-9.67351E-14 3.34789E-13
 -1      3133 2.10623E+01-1.94576E+00-1.78932E-02 6.95958E-01-1.05392E-13 3.11353E-13
 -1      3134 2.21148E+01-1.63693E+00 3.08936E-03-6.40569E-01-1.07893E-13 4.66161E-13
 -1      3135 2.22483E+01-1.32357E+00-1.71569E-02-1.00240E+00-1.81345E-13 4.93155E-13
 -1      3136 2.20537E+01-2.02535E+00 1.16586E-02-1.35582E-01-7.21020E-14 5.12078E-13
 -1      3137 2.25147E+01-7.28864E-01-1.50619E-02-1.52473E+00-4.15542E-13 6.78526E-13
 -1      3138 2.24454E+01 4.77541E-02-2.17902E-03-1.68723E+00-5.94091E-13 7.37344E-13
 -1      3139 2.27770E+01-1.35646E+00-2.76994E-02-1.16023E+00-2.60824E-13 7.87200E-13
 -1      3140 2.28879E+01 8.91456E-01-5.38940E-02-2.02857E+00-6.36912E-13 1.13114E-12
 -1      3141 2.26746E+01 2.08945E+00-2.51202E-02-1.86090E+00-8.40272E-13 1.20511E-12
 -1      3142 2.13079E+01 4.80095E+00-1.75430E-01 4.23038E-01-1.84420E-12 1.30550E-12
 -1      3143 2.11372E+01 4.70596E+00-2.56261E-01 1.40138E+00-2.13892E-12 1.02819E-12
 -1      3144 2.04673E+01 1.47221E+00-1.11358E+00 3.91141E+00-3.06088E-12-5.12479E-13
 -1      3145 2.00050E+01 1.94607E-01-1.79451E+00 4.24178E+00-3.41216E-12-6.77458E-13
 -1      3146 2.01149E+01 1.35461E+00-1.07489E+00 3.07497E+00-4.07452E-12-3.15037E-12
 -1      3147 2.04348E+01 2.88409E+00 6.20468E-02 4.60049E+00-3.53859E-12-5.35527E-12
 -1      3148 1.93824E+01-3.21865E-01-2.19057E+00 3.72532E+00-5.86881E-12-2.97984E-13
 -1      3149 1.60722E+01 3.23297E+00-5.04914E-01 6.38107E+00-3.75822E-12-5.73452E-12
 -1      3150 1.80690E+01-6.75673E-01-1.08635E+00 1.04877E+01-2.45859E-12-1.09890E-11
 -1      3151 1.67443E+01 3.54044E+00-2.75799E-01 2.98005E+00-5.82656E-12-5.07105E-12
 -1      3152 3.75450E+00-7.17108E-01-4.66999E+00 1.24771E+01-5.60008E-12 7.17482E-13
 -1      3153 4.32063E+01 1.47599E+01 1.24578E+01 2.48823E+01-8.19551E-11-4.30740E-11
 -1      3154 2.26623E+00 5.80732E+00-3.17201E+00 6.81383E-01-4.25227E-12-1.46327E-12
 -1      3155 1.08193E+01-1.04549E+01-4.35740E+00 1.98653E+01-7.15326E-11 5.50098E-11
 -1      3156 1.22388E+01 1.39615E+01 8.28501E+00-7.90356E+00 2.77343E-11 4.24221E-11
 -1      3157 4.89475E+01 7.42346E+00 1.10304E+01-1.55715E+01 1.74463E-11-1.65261E-11
 -1      3158 1.22582E+01 1.64505E+01 9.26428E+00-1.38833E+01 7.35501E-11 4.15179E-11
 -1      3159 2.41073E+01 5.53690E+00 9.48261E+00-4.80232E+01 2.43567E-10-1.41220E-13
 -1      3160 2.95203E+01-6.24195E+00 2.30268E+00-1.18057E+01 5.62044E-11 1.82987E-11
 -1      3161 9.46907E+01 3.61499E+01 3.03845E+01-5.33767E+01 2.21650E-10-1.99449E-10
 -1      3162 6.18303E+01 8.21496E+00 1.17369E+00-1.87792E+01 3.64766E-11-9.62543E-11
 -1      3163 4.44827E+01 1.65421E+01 6.20482E+00-8.51997E+00 7.28078E-11-4.72213E-11
 -1      3164 8.15004E+01 1.60176E+01 1.51489E+01-1.27178E+01 2.57823E-11-1.20688E-10
 -1      3165 4.26475E+01 1.09018E+01 9.41121E+00-5.57314E+00 1.89764E-11-3.24878E-11
 -1      3166 6.62346E+01 2.60325E+01 1.43002E+01-2.28448E+01 7.85469E-11-1.00919E-10
 -1      3167 2.03306E+01 1.19140E-01 2.04539E-03-1.00501E+00-2.31505E-14 4.58621E-14
 -1      3168 2.02508E+01 1.84987E-01 1.32772E-03-9.56667E-01 3.03832E-15-2.13696E-14
 -1      3169 2.01249E+01 1.07792E-01-4.29532E-03-1.10876E+00-3.55508E-14 3.08027E-13
 -1      3170 2.02167E+01 2.32114E-01 2.06650E-03-8.85607E-01 2.46237E-13 7.05999E-14
 -1      3171 2.01603E+01 2.63078E-01 9.00222E-05-8.27364E-01 3.47298E-13 1.72589E-14
 -1      3172 2.00301E+01 2.55163E-01-2.32786E-03-9.64719E-01 7.24122E-14 1.97546E-13
 -1      3173 2.01476E+01 2.82105E-01 1.96607E-03-7.56738E-01 3.28884E-13 4.21903E-15
 -1      3174 2.01069E+01 2.89642E-01-5.97608E-04-6.96268E-01 2.36082E-13-1.46158E-13
 -1      3175 1.99869E+01 3.24798E-01-1.13146E-03-8.18071E-01 3.09353E-13 1.07104E-13
 -1      3176 2.01056E+01 2.90472E-01 1.81698E-03-6.30343E-01 8.29315E-14 4.05863E-14
 -1      3177 2.00754E+01 2.83646E-01-9.24094E-04-5.72458E-01-4.25019E-14 5.23144E-14
 -1      3178 1.99727E+01 3.42186E-01-4.49454E-04-6.78831E-01 2.63935E-13 9.08181E-14
 -1      3179 2.00795E+01 2.73846E-01 1.64181E-03-5.13477E-01-8.16967E-14 2.02905E-13
 -1      3180 2.00565E+01 2.59292E-01-1.02493E-03-4.60913E-01-4.06253E-14 1.73667E-13
 -1      3181 1.99733E+01 3.27398E-01-9.31753E-05-5.52452E-01-1.46596E-14 4.47313E-13
 -1      3182 2.00625E+01 2.44243E-01 1.44950E-03-4.09786E-01 7.65251E-15 1.31447E-13
 -1      3183 2.00444E+01 2.26517E-01-9.98044E-04-3.63824E-01 1.67394E-13 1.50033E-13
 -1      3184 1.99802E+01 2.95148E-01 6.82543E-05-4.41478E-01 1.35792E-14 4.15664E-13
 -1      3185 2.00504E+01 2.09815E-01 1.24649E-03-3.20613E-01 1.43818E-13 1.42172E-13
 -1      3186 2.00360E+01 1.91913E-01-8.92624E-04-2.81565E-01 1.21895E-13 1.02779E-14
 -1      3187 1.99887E+01 2.55577E-01 1.22915E-04-3.46531E-01 1.35661E-13 1.06330E-13
 -1      3188 2.00409E+01 1.75846E-01 1.03279E-03-2.45783E-01 6.23580E-14-2.20667E-14
 -1      3189 2.00296E+01 1.59583E-01-6.46677E-04-2.13289E-01 3.72630E-14-2.54902E-13
 -1      3190 1.99963E+01 2.15469E-01 1.90890E-04-2.67128E-01 6.19432E-14 1.17255E-13
 -1      3191 2.00351E+01 1.45394E-01 8.88171E-04-1.87598E-01 2.13994E-13-3.58315E-13
 -1      3192 2.00257E+01 1.31796E-01-3.79680E-04-1.60617E-01 1.94779E-13-2.85360E-13
 -1      3193 2.00093E+01 1.45908E-01-4.42191E-04-1.57684E-01-3.56104E-14-3.04896E-13
 -1      3194 2.00040E+01 1.77799E-01-1.09653E-04-2.05388E-01 9.38726E-14 7.05761E-14
 -1      3195 2.90621E+01 5.11439E+00-1.47543E-01 8.23363E-01 7.81653E-13-1.17596E-12
 -1      3196 1.97322E+01 1.74384E-01 1.81602E-03-6.52082E-01 8.06698E-14-6.01511E-14
 -1      3197 1.96978E+01 1.63730E-01-2.73721E-04-6.09254E-01 6.32784E-14-9.22791E-14
 -1      3198 1.96949E+01 2.21083E-01-4.77476E-04-6.91434E-01 7.49163E-14-4.91028E-14
 -1      3199 1.98776E+01 3.29902E-01 2.92321E-03-9.79218E-01 4.88905E-14-2.35921E-14
 -1      3200 1.98223E+01 2.94954E-01-2.18892E-03-9.11953E-01 7.75077E-14-2.71760E-14
 -1      3201 1.99317E+01 3.97832E-01 3.26064E-03-1.13323E+00 2.68547E-14-1.48883E-14
 -1      3202 1.98706E+01 3.62444E-01-2.65289E-03-1.05311E+00 5.29056E-14 2.51982E-16
 -1      3203 1.97044E+01 4.11357E-01 6.99894E-04-1.03819E+00 3.90564E-14-2.20313E-14
 -1      3204 1.99880E+01 4.55573E-01 3.64833E-03-1.31428E+00 2.20647E-14-5.24147E-14
 -1      3205 1.99197E+01 4.27173E-01-2.97134E-03-1.22162E+00 4.32052E-14-3.15002E-14
 -1      3206 1.96944E+01 4.89292E-01 1.02147E-03-1.19991E+00 5.70385E-14-7.54317E-15
 -1      3207 2.00518E+01 4.81525E-01 4.19863E-03-1.52045E+00 6.59526E-14-7.06587E-15
 -1      3208 1.99724E+01 4.72324E-01-3.00404E-03-1.41793E+00 1.98042E-14 2.69893E-15
 -1      3209 1.96754E+01 5.51204E-01 1.10035E-03-1.39069E+00 2.34876E-14-2.09290E-14
 -1      3210 2.01393E+01 4.40838E-01 5.10396E-03-1.74554E+00-1.85337E-14 1.12682E-13
 -1      3211 2.00390E+01 4.70390E-01-2.47068E-03-1.63915E+00 5.35677E-14 7.55918E-14
 -1      3212 1.96528E+01 5.70062E-01 5.69736E-04-1.61197E+00 2.42110E-15 5.33235E-14
 -1      3213 2.02860E+01 2.80191E-01 6.61088E-03-1.97730E+00-1.31567E-13 1.24518E-13
 -1      3214 2.01446E+01 3.78028E-01-8.34226E-04-1.87783E+00-5.39875E-14 1.03290E-13
 -1      3215 1.96443E+01 5.03184E-01-1.21354E-03-1.86439E+00-2.06730E-14 1.94661E-13
 -1      3216 2.05606E+01-7.41938E-02 9.24256E-03-2.19286E+00-1.50892E-13 1.23200E-13
 -1      3217 2.03417E+01 1.31748E-01 2.96977E-03-2.11883E+00-1.64237E-13 1.05392E-13
 -1      3218 1.96912E+01 2.86257E-01-5.25719E-03-2.14745E+00-1.31875E-13 6.33976E-14
 -1      3219 2.10847E+01-7.08125E-01 1.42568E-02-2.34787E+00-6.08524E-14 1.29858E-13
 -1      3220 2.07258E+01-3.49594E-01 1.11310E-02-2.33284E+00-1.12057E-13 1.69152E-13
 -1      3221 1.98744E+01-1.67397E-01-1.24365E-02-2.45474E+00-1.42382E-13 4.41496E-14
 -1      3222 2.20375E+01-1.68444E+00 1.60315E-02-2.34876E+00-9.88333E-14 7.10100E-14
 -1      3223 2.14653E+01-1.16015E+00 2.42332E-02-2.45892E+00-3.64890E-14 1.21938E-13
 -1      3224 2.03293E+01-9.55842E-01-2.43750E-02-2.77162E+00-3.64979E-14 7.12382E-14
 -1      3225 2.36223E+01-2.85144E+00 1.22915E-02-1.95925E+00-6.62768E-14 4.89231E-14
 -1      3226 2.27899E+01-2.27400E+00 4.33740E-02-2.28943E+00-8.19147E-14 1.08270E-13
 -1      3227 2.13934E+01-2.21376E+00-4.52139E-02-3.00989E+00-7.99690E-14 7.41837E-14
 -1      3228 2.66569E+01-3.66860E+00 1.12237E-02-6.09031E-01-2.15002E-14-3.92568E-14
 -1      3229 2.54811E+01-3.72377E+00-5.98839E-03-1.42674E+00-9.61592E-14-1.44126E-13
 -1      3230 2.77993E+01-2.96188E+00-9.89901E-03 2.33749E-01 7.11358E-14-5.30131E-14
 -1      3231 2.86793E+01 1.21563E+00-1.05111E-01 2.47462E+00 4.10255E-13-4.82475E-13
 -1      3232 2.87837E+01 1.40421E+00-1.43876E-01-3.11377E+00 9.12742E-14-1.01226E-12
 -1      3233 2.73543E+01 2.07653E+00-1.50605E-01-3.08495E+00 4.36429E-13-9.91325E-13
 -1      3234 2.90471E+01 4.37395E+00-1.32259E-01-2.07077E+00 5.11785E-13-1.39831E-12
 -1      3235 2.17773E+01-1.54814E+00 4.27181E-02 2.32300E+00-2.51616E-13-3.67437E-13
 -1      3236 2.25263E+01-2.11764E+00 4.04415E-02 2.06591E+00-2.98028E-13-4.29204E-13
 -1      3237 2.08683E+01-5.77457E-01 1.65807E-02 2.27598E+00-1.75088E-13-2.94610E-13
 -1      3238 2.12610E+01-1.02020E+00 1.23537E-02 2.25555E+00-2.21451E-13-3.14918E-13
 -1      3239 2.05565E+01-1.36453E+00-1.85402E-02 2.75309E+00-2.95701E-13-2.92493E-13
 -1      3240 2.04303E+01 3.96222E-02 5.25774E-03 2.06523E+00-6.09419E-14-2.78499E-13
 -1      3241 2.06655E+01-2.28103E-01 1.05267E-02 2.13187E+00-1.24314E-13-2.30759E-13
 -1      3242 1.99429E+01-3.73652E-01-1.66364E-02 2.42643E+00-1.69665E-13-2.00515E-13
 -1      3243 2.02381E+01 3.72500E-01-5.71252E-06 1.80484E+00-1.28475E-13-1.41791E-13
 -1      3244 2.03751E+01 2.36238E-01 7.33372E-03 1.90952E+00-8.83752E-14-2.95346E-13
 -1      3245 1.97421E+01 2.18721E-01-7.26736E-03 2.08859E+00-5.07638E-14-1.33638E-13
 -1      3246 2.01650E+01 5.15192E-01-2.20096E-03 1.53836E+00-4.09232E-14-2.80233E-13
 -1      3247 2.02498E+01 4.63963E-01 5.42812E-03 1.65616E+00-7.31957E-14-2.77372E-13
 -1      3248 1.97218E+01 5.20474E-01-1.76790E-03 1.77104E+00-7.51123E-14-3.21549E-13
 -1      3249 2.01416E+01 5.43985E-01-2.93725E-03 1.28559E+00 5.04221E-14-2.60237E-13
 -1      3250 2.02004E+01 5.41892E-01 4.24370E-03 1.40285E+00 3.06862E-14-3.13932E-13
 -1      3251 1.97741E+01 6.35049E-01 7.44465E-04 1.48488E+00 1.65057E-14-4.65501E-13
 -1      3252 2.01337E+01 5.11692E-01-2.97037E-03 1.05581E+00 4.01820E-14-3.24507E-13
 -1      3253 2.01798E+01 5.34885E-01 3.52846E-03 1.16496E+00 4.12572E-14-2.02231E-13
 -1      3254 1.98440E+01 6.41080E-01 1.57168E-03 1.23059E+00 6.88095E-14-3.10821E-13
 -1      3255 2.01273E+01 4.51388E-01-2.68752E-03 8.53218E-01-1.29931E-13-3.12746E-13
 -1      3256 2.01663E+01 4.85316E-01 3.05904E-03 9.50417E-01-4.00973E-15-3.94798E-13
 -1      3257 1.99073E+01 5.90541E-01 1.59276E-03 1.00698E+00 8.62321E-15-8.57196E-14
 -1      3258 2.01178E+01 3.82320E-01-2.28799E-03 6.79014E-01-2.45739E-13-2.48288E-13
 -1      3259 2.01520E+01 4.18691E-01 2.69178E-03 7.62788E-01-2.79133E-13-2.78357E-13
 -1      3260 1.99561E+01 5.15376E-01 1.30197E-03 8.12967E-01-2.07197E-13-1.52541E-13
 -1      3261 2.01051E+01 3.14941E-01-1.86998E-03 5.32390E-01 5.73501E-14-2.57181E-13
 -1      3262 2.01350E+01 3.49353E-01 2.35774E-03 6.02792E-01-9.95354E-14-2.63831E-13
 -1      3263 1.99897E+01 4.34030E-01 9.44538E-04 6.47259E-01-1.25771E-13-2.69628E-14
 -1      3264 2.00903E+01 2.54425E-01-1.48173E-03 4.11193E-01 6.64670E-14-6.41221E-14
 -1      3265 2.01161E+01 2.84786E-01 2.03278E-03 4.69199E-01 1.02718E-13-2.08086E-13
 -1      3266 2.00105E+01 3.56500E-01 6.27954E-04 5.08059E-01 1.10408E-13 6.81131E-14
 -1      3267 2.00748E+01 2.02740E-01-1.17142E-03 3.12476E-01 5.31764E-14-4.55097E-14
 -1      3268 2.00967E+01 2.28391E-01 1.71401E-03 3.59531E-01 7.65529E-14-6.59722E-14
 -1      3269 2.00218E+01 2.87668E-01 3.87857E-04 3.92906E-01 7.26384E-15 9.41948E-14
 -1      3270 2.00597E+01 1.60730E-01-8.66840E-04 2.33244E-01 1.32043E-13-9.49738E-14
 -1      3271 2.00780E+01 1.81290E-01 1.40446E-03 2.70955E-01 1.37772E-13-1.20403E-13
 -1      3272 2.00264E+01 2.29323E-01 2.30596E-04 2.99024E-01 1.19888E-13 1.86991E-13
 -1      3273 2.00462E+01 1.28354E-01-1.90404E-04 1.70362E-01 1.78378E-13-9.25520E-14
 -1      3274 2.00606E+01 1.43500E-01 1.11505E-03 1.99846E-01 1.69784E-13-7.07126E-15
 -1      3275 2.00261E+01 1.81956E-01 5.89319E-05 2.23524E-01 1.67798E-13 9.99836E-14
 -1      3276 2.00306E+01 1.18571E-01 2.83728E-04 1.35965E-01 5.41865E-14 1.49188E-13
 -1      3277 2.00422E+01 1.23736E-01 8.68124E-04 1.53564E-01 1.02838E-13-8.11459E-14
 -1      3278 2.00193E+01 1.53980E-01-2.69651E-04 1.72694E-01 1.44366E-13 2.35986E-13
 -1      3279 2.00105E+01 1.39195E-01-9.35110E-04 1.39894E-01 5.05414E-16 3.68780E-13
 -1      3280 1.98888E+01 2.62242E-01-3.43048E-04-1.71541E-02-1.03787E-13-5.00778E-13
 -1      3281 1.98878E+01 2.63315E-01-4.84681E-04 7.85459E-03-3.90407E-14-3.52057E-13
 -1      3282 1.99685E+01 1.82777E-01 1.47836E-04-1.36312E-01-1.31183E-13-2.53652E-13
 -1      3283 1.99490E+01 1.99931E-01-1.00165E-03-1.26679E-01-2.77610E-14-3.35763E-13
 -1      3284 1.99026E+01 2.48743E-01 2.10933E-05-6.78689E-02-1.11668E-13-3.76898E-13
 -1      3285 1.98936E+01 2.55751E-01-7.74482E-04-4.54469E-02-7.24742E-14-4.25678E-13
 -1      3286 1.98706E+01 2.85098E-01 9.91186E-04-3.58487E-02-1.25192E-13-4.93866E-13
 -1      3287 1.93794E+01 1.42851E+00-6.75799E-03-9.37970E-01-2.48644E-13-2.66026E-13
 -1      3288 1.94128E+01 1.22489E+00 8.31792E-03-8.30515E-01-2.20534E-13-2.55367E-13
 -1      3289 1.93678E+01 9.75976E-01-4.91184E-03-6.40496E-01-2.03291E-13-2.39367E-13
 -1      3290 1.93481E+01 1.66426E+00-5.61573E-04-8.95539E-01-2.04462E-13-3.06605E-13
 -1      3291 1.99308E+01 2.21514E-01 3.72048E-04-1.09814E-01-1.28559E-13-4.50084E-13
 -1      3292 1.99149E+01 2.33934E-01-9.61309E-04-9.22379E-02-6.78037E-14-3.67440E-13
 -1      3293 1.98913E+01 2.65015E-01 8.48005E-04-9.09660E-02-8.35144E-14-3.70007E-13
 -1      3294 1.99276E+01 2.30758E-01 5.66042E-04-1.34286E-01-5.93015E-14-3.06201E-13
 -1      3295 1.88606E+01 4.14141E-01 2.12293E+00-1.19930E+01 3.92391E-11-1.35629E-11
 -1      3296 2.52306E+01-2.03947E+00 2.65783E+00-1.44797E+01 4.75893E-11-2.71871E-11
 -1      3297 2.15694E+01-4.92635E+00-2.52359E-02 4.72193E+00-6.71171E-13 8.06369E-14
 -1      3298 1.84325E+01-3.84343E+00 6.05751E-02 5.11065E+00-2.46830E-13 1.57728E-13
 -1      3299 2.27658E+01-3.11035E+00 9.98333E-02 2.68563E+00-2.34647E-13-2.34535E-13
 -1      3300 2.39827E+01-3.72018E+00 8.40200E-02 2.30569E+00-3.92228E-13-3.17281E-13
 -1      3301 1.98250E+01 2.64909E-01 2.58404E-03-8.50828E-01 9.63085E-14-2.94014E-14
 -1      3302 1.97756E+01 2.34988E-01-1.64009E-03-7.94975E-01 9.85748E-14-2.02365E-14
 -1      3303 1.97013E+01 2.68174E-01-1.01840E-04-7.89329E-01 7.93110E-14-3.22038E-14
 -1      3304 1.97057E+01 3.34115E-01 2.98282E-04-9.02813E-01 7.39246E-14 9.97557E-15
 -1      3305 2.63024E+01 4.17988E+00 3.57661E+00-5.45920E+00-2.47979E-12-5.00933E-12
 -1      3306 2.70921E+01 1.73902E+00 2.34798E+00-6.62608E+00 1.81020E-11-3.95239E-12
 -1      3307 1.96975E+01 1.60518E-01 1.33487E-03-5.66313E-01 3.63045E-14-1.18400E-13
 -1      3308 1.96732E+01 1.64226E-01 6.10282E-04-5.22389E-01 4.69827E-14-1.11221E-13
 -1      3309 1.96901E+01 1.99646E-01-8.35963E-04-6.00621E-01 2.48850E-14-9.94222E-14
 -1      3310 1.96747E+01 1.76427E-01 7.27208E-04-4.74964E-01 5.29807E-14-1.14091E-13
 -1      3311 1.96628E+01 1.99053E-01 1.67624E-03-4.22634E-01 8.09913E-14-1.16530E-13
 -1      3312 1.96902E+01 2.11782E-01-1.16510E-03-5.05827E-01 4.37374E-14-1.45754E-13
 -1      3313 1.93743E+01 2.14069E+00-4.03228E-03 5.13685E-02 1.10620E-13-3.58591E-13
 -1      3314 1.93399E+01 2.18253E+00-3.57877E-03-6.17586E-02 5.75375E-14-3.71519E-13
 -1      3315 2.92946E+01 8.93758E-01-7.93157E-02-2.91624E+00-4.08007E-14-1.08101E-12
 -1      3316 2.26273E+01-4.09288E+00-3.81172E-02 1.87992E+00 3.49831E-13 5.80544E-13
 -1      3317 2.11202E+01-4.29736E+00 4.09821E-02 3.06903E+00 4.33268E-13 5.65215E-13
 -1      3318 1.97492E+01 9.63780E-01-6.41626E-04 4.60449E-01 2.62994E-13-1.97519E-13
 -1      3319 1.97128E+01 1.27191E+00 2.41570E-03 5.28988E-01 2.66614E-13-2.17874E-13
 -1      3320 1.97197E+01 1.11121E+00 5.20949E-04 3.46025E-01 2.42350E-13-2.17091E-13
 -1      3321 1.97116E+01 7.66562E-01-3.00525E-03 2.55989E-01 2.35028E-13-2.01301E-13
 -1      3322 1.54390E+01-2.62257E+00 5.28108E-02 5.29724E+00-1.41345E-13 2.87756E-13
 -1      3323 1.27799E+01-1.21565E+00 1.04557E-01 4.27565E+00-1.51532E-13 2.42223E-13
 -1      3324 2.15435E+01 3.93993E+00-1.34968E+00 1.50828E+00-1.95105E-12 4.86966E-12
 -1      3325 2.20841E+01 5.36571E+00-9.10805E-01 1.47874E+00-2.15500E-12 3.42004E-12
 -1      3326 1.61991E+01-6.88805E-01-3.53176E+00-1.36061E+00 9.86355E-12 1.63896E-11
 -1      3327 1.84935E+01 1.69662E+00-2.84079E+00 1.29274E+00-1.24645E-12 9.12270E-12
 -1      3328 1.96662E+01 2.32266E-01-6.82089E-05-3.63053E-01 1.39260E-13-1.23392E-13
 -1      3329 1.96687E+01 2.80629E-01 2.53197E-03-2.92482E-01 1.60555E-13-1.20733E-13
 -1      3330 1.96973E+01 2.68301E-01-1.43430E-03-3.93075E-01 1.10258E-13-1.43428E-13
 -1      3331 8.85435E+00 1.46770E-01 1.16707E-01-1.42011E+00 4.05315E-13-3.35496E-13
 -1      3332 9.83322E+00-3.18217E-01 1.06148E-01-3.19180E+00 3.41886E-13-5.35266E-13
 -1      3333 4.47697E+01-3.60768E+00 7.10953E+00-1.01614E+01 4.63904E-11-5.33218E-11
 -1      3334 3.63782E+01 7.25753E+00 7.31985E+00 2.80772E+00-2.44309E-11-2.39853E-11
 -1      3335 1.93120E+01 2.20533E+00-3.54539E-03-1.56324E-01 3.57142E-14-3.74226E-13
 -1      3336 1.92912E+01 2.20901E+00-3.70829E-03-2.69776E-01 7.75859E-15-3.76852E-13
 -1      3337 1.94280E+01 1.93030E+00 5.13606E-03-1.29030E-01 4.43838E-14-3.40026E-13
 -1      3338 1.96731E+01 1.44255E+00 7.20737E-03 3.30815E-01 2.04695E-13-2.35116E-13
 -1      3339 1.95648E+01 1.76453E+00-7.22370E-03 4.26315E-01 2.10198E-13-2.82495E-13
 -1      3340 1.95116E+01 1.89728E+00-3.27060E-03 3.33682E-01 1.85124E-13-3.21864E-13
 -1      3341 3.17580E+01 3.63273E+00 4.31063E+00-2.69635E+00 1.03695E-12-1.67506E-11
 -1      3342 2.36388E+01 1.07730E+00 1.49406E-01-1.15583E+00 9.14935E-12 1.61293E-12
 -1      3343 1.46797E+01-7.69576E-01 2.72415E-02 3.72462E+00-9.60586E-14 1.46001E-13
 -1      3344 1.26257E+01-4.30371E-01 1.11423E-01 3.41947E+00-7.00533E-14 1.65049E-13
 -1      3345 1.28396E+01 2.03062E-01 4.93553E-02 2.50117E+00 5.62467E-14 1.23429E-13
 -1      3346 1.92963E+01 1.93611E+00-3.00203E-03-7.34274E-01-1.28493E-13-3.22352E-13
 -1      3347 1.93165E+01 1.81487E+00-6.46019E-03-8.23228E-01-1.72424E-13-3.33429E-13
 -1      3348 2.46815E+01-7.29700E-01-1.67727E-02-1.53583E+00-1.04795E-13 1.36174E-12
 -1      3349 2.35470E+01 1.65181E-01-5.66028E-02-1.96525E+00-4.37934E-13 1.25407E-12
 -1      3350 2.35840E+01-4.68509E+00 4.38234E-02-3.95140E+00 2.00971E-13 1.21059E-13
 -1      3351 2.46657E+01-4.49578E+00-2.01404E-02-2.87859E+00 1.56125E-14 1.14839E-14
 -1      3352 2.19602E+01-4.16658E+00 8.58947E-02-4.32448E+00 7.13249E-14-1.07897E-13
 -1      3353 2.16955E+01 5.46364E+00-5.53492E-01 1.57963E+00-2.59044E-12 2.52909E-12
 -1      3354 2.06563E+01 4.00661E+00-5.19431E-01 2.45974E+00-2.60375E-12 1.27465E-12
 -1      3355 2.15862E+01 3.12993E+00-1.21174E-01-1.30555E+00-1.22604E-12 1.02133E-12
 -1      3356 2.13659E+01 3.89452E+00-5.70712E-02-5.42386E-01-1.43830E-12 9.45754E-13
 -1      3357 2.05860E+01 2.96175E+00-8.48791E-01 3.22322E+00-3.00446E-12 7.08433E-13
 -1      3358 9.47788E+00-1.06047E+00 1.59273E-01 3.43197E+00 7.09738E-13 1.11078E-13
 -1      3359 9.87264E+00-3.06029E-01 8.19592E-02 2.48344E+00 4.80269E-13 7.02771E-14
 -1      3360 1.11845E+01-1.36416E+00 6.35479E-02 3.94425E+00 6.36147E-13 1.95191E-13
 -1      3361 1.02158E+01 5.95241E-01 1.29674E-01-7.78433E-02 8.50908E-14 8.56260E-15
 -1      3362 1.11108E+01 5.91206E-01 4.47976E-02-1.11109E+00 2.19040E-13 6.73558E-14
 -1      3363 1.15160E+01 6.94215E-01 4.48694E-02 7.15493E-01 4.42840E-14 3.03924E-15
 -1      3364 1.67566E+01-3.02523E+00 1.14722E-01-5.68347E+00 1.48201E-13-5.51552E-13
 -1      3365 1.87988E+01-3.39048E+00-2.66871E-02-5.02951E+00-2.28706E-14-4.86493E-13
 -1      3366 1.56149E+01-2.21276E+00 6.09677E-02-5.24748E+00 1.25198E-13-5.10002E-13
 -1      3367 2.37319E+01-4.55376E+00 8.31109E-02 3.21394E+00-4.60881E-13-1.11078E-13
 -1      3368 1.17887E+01 4.01577E-02 6.64163E-02-2.98418E+00 2.81188E-13-4.18415E-13
 -1      3369 1.13641E+01-5.50785E-01 1.36177E-01-3.83825E+00 2.56087E-13-5.90306E-13
 -1      3370 1.31358E+01-1.01555E+00 3.71161E-02-4.37520E+00 1.40103E-13-5.34142E-13
 -1      3371 1.98685E+01 2.88931E-01 1.03538E-03 2.47337E-02-7.12038E-14-4.37346E-13
 -1      3372 1.98911E+01 2.60685E-01-6.82377E-04 3.73582E-02-1.35486E-14-3.24727E-13
 -1      3373 1.98988E+01 2.55300E-01-1.52272E-04 6.11424E-02 2.34639E-14-1.47494E-13
 -1      3374 2.62458E+01-3.84918E+00 9.45280E-02 9.44159E-01-5.69447E-13-5.11972E-13
 -1      3375 2.71187E+01-3.68232E+00-2.35836E-04 6.61193E-02-5.41435E-13-4.76175E-13
 -1      3376 1.93947E+01 1.02033E+00-1.62711E-03-5.86266E-01-1.87798E-13-2.53410E-13
 -1      3377 1.99103E+01 2.43462E-01-8.96221E-04 8.74130E-02 2.05757E-13 2.15407E-13
 -1      3378 1.99257E+01 2.31887E-01 1.59879E-04 1.06534E-01 2.14882E-13 3.42675E-13
 -1      3379 1.98859E+01 2.75420E-01 9.33948E-04 8.33061E-02 1.44153E-13-8.86523E-14
 -1      3380 3.59180E+01-4.98639E-01 6.00385E+00-9.71022E+00 2.54688E-11-2.61151E-11
 -1      3381 1.97147E+01 6.05946E-01 2.53734E-03 1.09028E-01 1.88321E-13-1.98973E-13
 -1      3382 1.97324E+01 7.61479E-01 1.25049E-03 1.59886E-01 2.05028E-13-2.09256E-13
 -1      3383 1.96828E+01 4.80007E-01-1.79140E-03-3.36183E-02 1.68037E-13-1.73975E-13
 -1      3384 1.96680E+01 3.25003E-01-7.90824E-04-2.24514E-01 1.48549E-13-1.17469E-13
 -1      3385 1.96851E+01 4.05687E-01 2.94333E-03-1.24940E-01 1.62414E-13-1.40012E-13
 -1      3386 1.97166E+01 5.08484E-01-7.87044E-04-8.69955E-02 1.43667E-13-1.77641E-13
 -1      3387 1.97075E+01 3.65490E-01-1.63169E-03-2.56957E-01 1.42788E-13-1.67716E-13
 -1      3388 2.09770E+01-3.01144E+00-1.20966E-02 3.56939E+00-6.41570E-14-1.46187E-13
 -1      3389 1.80457E+01-2.80223E+00 1.08218E-01 4.58556E+00-1.52892E-13 1.69201E-13
 -1      3390 2.01882E+01-4.18393E+00 2.40945E-02 3.57626E+00 4.76959E-13 4.77585E-13
 -1      3391 1.89379E+01-3.76052E+00 3.60368E-02 3.91440E+00 4.60396E-13 4.15362E-13
 -1      3392 2.10147E+01-3.72638E+00 2.77010E-02 2.56184E+00 2.99972E-13 4.67243E-13
 -1      3393 2.36230E+01-2.96708E+00-7.72472E-02 8.43926E-03 1.96838E-13 8.64329E-13
 -1      3394 2.33851E+01-3.59950E+00 2.77458E-02 9.43881E-01 2.71047E-13 6.75959E-13
 -1      3395 2.23856E+01-3.54582E+00 6.07497E-03 1.41513E+00 2.00666E-13 6.06700E-13
 -1      3396 1.99416E+01 2.13902E-01-9.76159E-04 1.22087E-01 2.00271E-13 3.02978E-13
 -1      3397 1.99588E+01 1.99706E-01 2.20075E-04 1.31591E-01 7.68956E-14 3.40013E-13
 -1      3398 1.99194E+01 2.47135E-01 9.39783E-04 1.27651E-01 1.68871E-13 2.76982E-13
 -1      3399 1.95929E+01 2.57865E+00-1.63957E+00 3.35752E+00-3.15858E-12 2.32825E-12
 -1      3400 1.94153E+01 2.08006E+00-3.38654E-03 1.42803E-01 1.40704E-13-3.57861E-13
 -1      3401 1.94947E+01 1.84732E+00 5.43987E-03 4.25658E-02 1.13414E-13-3.23975E-13
 -1      3402 1.94612E+01 1.99681E+00-4.95041E-03 2.50655E-01 1.77786E-13-3.49843E-13
 -1      3403 1.45536E+01-3.26841E+00 1.19303E-01 5.22266E+00 7.73132E-13 3.11196E-13
 -1      3404 1.35325E+01-2.47153E+00 8.29538E-02 4.84779E+00 6.05398E-13 2.46345E-13
 -1      3405 1.65196E+01-3.39213E+00 4.46897E-02 4.64971E+00 5.88279E-13 4.24230E-13
 -1      3406 1.91949E+01 2.91612E+00-1.83425E+00 2.44209E+00-2.54224E-12 5.16653E-12
 -1      3407 1.64547E+01 1.87905E+00 1.44701E+00-1.03301E+01 3.53896E-11-9.05753E-12
 -1      3408 2.03860E+01 2.12604E+00 2.24988E+00-1.13374E+01 3.03020E-11-1.20579E-11
 -1      3409 1.59452E+01 4.14687E+00 2.00546E+00-8.68985E+00 3.19202E-11-5.67385E-12
 -1      3410 1.92727E+01 2.10565E+00-3.19432E-03-5.58968E-01-5.19306E-14-3.52125E-13
 -1      3411 1.92803E+01 2.03064E+00-4.85384E-03-6.62111E-01-9.03588E-14-3.25169E-13
 -1      3412 1.93708E+01 1.71827E+00 3.91206E-03-6.12348E-01-1.11248E-13-2.88505E-13
 -1      3413 1.99944E+01 1.58701E-01-3.30296E-04-1.52287E-01-1.33230E-13-1.10630E-13
 -1      3414 1.99803E+01 1.70721E-01-5.21563E-04-1.44841E-01-1.01404E-13-3.09424E-14
 -1      3415 1.99634E+01 1.99037E-01 5.12289E-04-1.59734E-01-2.12165E-13-1.24606E-13
 -1      3416 1.99935E+01 1.75134E-01 6.89318E-04-1.74328E-01-3.40285E-14 3.82255E-14
 -1      3417 9.51396E+00 3.33272E-01 8.14564E-02 5.09613E-01 4.10049E-13-1.53585E-13
 -1      3418 9.04409E+00 3.56807E-01 1.50697E-01-5.20132E-01 4.40811E-13-2.09124E-13
 -1      3419 1.04924E+01 5.03256E-01 7.47126E-02-1.32737E+00 3.37378E-13-2.87291E-13
 -1      3420 3.30637E+01 4.95991E+00 6.16429E+00-2.93709E+00 4.07963E-12-1.57967E-11
 -1      3421 2.59776E+01 4.65842E+00 3.34814E+00-4.63032E+00 2.36322E-12-7.87592E-12
 -1      3422 2.39036E+01-1.37183E+00 2.52489E-02-1.27509E+00-8.74856E-14 1.08038E-12
 -1      3423 2.33799E+01 2.84840E+00-2.12700E-02-2.01686E+00-9.30339E-13 1.53902E-12
 -1      3424 2.81038E+01-3.16196E+00 4.81485E-02-8.23888E-01-5.61468E-13-6.32723E-13
 -1      3425 1.93810E+01 5.40292E-01 1.97268E-03-1.69642E-01-1.01090E-13-2.26289E-13
 -1      3426 1.93443E+01 4.47610E-01-1.67666E-03-8.76022E-02-1.11211E-13-2.11746E-13
 -1      3427 1.93171E+01 3.77955E-01 1.40531E-03-2.54220E-02-1.25953E-13-1.93179E-13
 -1      3428 1.92797E+01 3.24517E-01-7.51456E-04 3.66613E-02-1.19064E-13-1.99392E-13
 -1      3429 1.93793E+01 4.75654E-01 3.45888E-04-8.47782E-02-1.02506E-13-2.08816E-13
 -1      3430 1.92421E+01 2.87963E-01 6.93302E-04 8.58131E-02-1.07262E-13-1.88809E-13
 -1      3431 1.92065E+01 2.63794E-01-7.52286E-06 1.35709E-01-7.20285E-14-1.63667E-13
 -1      3432 1.93089E+01 3.54963E-01 6.28817E-05 2.88385E-02-1.06759E-13-1.56839E-13
 -1      3433 1.91617E+01 2.51321E-01 3.08044E-05 1.78108E-01-8.28198E-14-1.50836E-13
 -1      3434 1.91286E+01 2.48320E-01 5.58472E-04 2.22433E-01-7.47643E-14-1.70646E-13
 -1      3435 1.92243E+01 2.98608E-01 1.61759E-05 1.22415E-01-7.80594E-14-1.15804E-13
 -1      3436 1.90784E+01 2.52795E-01-5.55491E-04 2.63415E-01-4.79511E-14-1.80467E-13
 -1      3437 1.90479E+01 2.64263E-01 9.98915E-04 3.07427E-01-6.20154E-14-1.46937E-13
 -1      3438 1.91300E+01 2.89165E-01 8.99814E-05 2.07231E-01-5.78877E-14-1.31928E-13
 -1      3439 1.89934E+01 2.79482E-01-1.04075E-03 3.51401E-01-7.43980E-14-1.47461E-13
 -1      3440 1.89654E+01 2.99215E-01 1.36656E-03 3.99003E-01-4.43335E-14-1.11814E-13
 -1      3441 1.90281E+01 3.12070E-01 2.10625E-04 2.92949E-01-6.48253E-14-1.75350E-13
 -1      3442 1.89075E+01 3.19030E-01-1.40326E-03 4.49464E-01-5.02812E-14-1.04146E-13
 -1      3443 1.88830E+01 3.40488E-01 1.71585E-03 5.03255E-01-7.15545E-14-5.62222E-14
 -1      3444 1.89196E+01 3.53765E-01 3.06089E-04 3.87533E-01-3.73422E-14-1.79926E-13
 -1      3445 1.88230E+01 3.58002E-01-1.60723E-03 5.62855E-01-1.06553E-13-4.16022E-14
 -1      3446 1.88040E+01 3.73501E-01 2.10841E-03 6.24150E-01-6.71952E-14-1.79738E-14
 -1      3447 1.88063E+01 4.00059E-01 2.98315E-04 4.97328E-01-6.39148E-14-1.52924E-13
 -1      3448 1.87451E+01 3.80264E-01-1.58419E-03 6.94785E-01-5.73400E-14-3.32702E-14
 -1      3449 1.87358E+01 3.80136E-01 2.61185E-03 7.63528E-01-5.61608E-14-4.31105E-14
 -1      3450 1.86919E+01 4.34402E-01 6.74529E-05 6.27314E-01-6.89026E-14-1.11037E-13
 -1      3451 1.86837E+01 3.65358E-01-1.20838E-03 8.46283E-01-6.19889E-14-1.04126E-14
 -1      3452 1.86916E+01 3.37212E-01 3.29229E-03 9.20727E-01-7.25012E-14-1.76467E-14
 -1      3453 1.85839E+01 4.36155E-01-5.49664E-04 7.81301E-01-2.83217E-14-1.00080E-13
 -1      3454 1.86566E+01 2.87240E-01-2.59515E-04 1.01552E+00-4.33031E-14-2.90779E-14
 -1      3455 1.86938E+01 2.15538E-01 4.15676E-03 1.09149E+00-1.97850E-14 3.09336E-14
 -1      3456 1.84968E+01 3.78817E-01-1.81720E-03 9.61753E-01-6.12244E-14-3.92152E-14
 -1      3457 1.86935E+01 1.13957E-01 1.63954E-03 1.19589E+00-5.74270E-14 6.12999E-14
 -1      3458 1.87778E+01-1.94209E-02 5.04169E-03 1.26511E+00-5.02352E-14 9.25613E-14
 -1      3459 1.84556E+01 2.28741E-01-4.13561E-03 1.16870E+00 1.03812E-17-4.76089E-15
 -1      3460 1.88405E+01-1.89847E-01 5.10170E-03 1.37125E+00-7.62233E-14 1.27428E-13
 -1      3461 1.89952E+01-4.02539E-01 5.30451E-03 1.41823E+00-1.03783E-13 1.49927E-13
 -1      3462 1.85020E+01-5.45505E-02-8.02524E-03 1.39603E+00-3.75261E-14 1.89551E-15
 -1      3463 1.91630E+01-6.54269E-01 1.06923E-02 1.50652E+00-7.61077E-14 1.72834E-13
 -1      3464 1.94128E+01-9.54316E-01 3.74284E-03 1.50307E+00 4.31831E-14 1.47769E-13
 -1      3465 1.87000E+01-5.13002E-01-1.41730E-02 1.62251E+00-7.17115E-14 1.22340E-13
 -1      3466 1.97436E+01-1.28073E+00 2.00429E-02 1.53035E+00 4.44677E-14 1.87398E-13
 -1      3467 2.01048E+01-1.64500E+00 9.89153E-05 1.42921E+00-3.25629E-15 2.22758E-13
 -1      3468 1.91419E+01-1.17564E+00-2.27956E-02 1.79513E+00 3.11395E-14 2.40892E-13
 -1      3469 2.06494E+01-1.98983E+00 3.05163E-02 1.31410E+00-3.74978E-14 2.70410E-13
 -1      3470 2.10906E+01-2.32459E+00-6.59834E-05 1.07204E+00 9.97813E-15 3.22636E-13
 -1      3471 1.99326E+01-1.98939E+00-2.83530E-02 1.79111E+00 3.35925E-14 1.98693E-13
 -1      3472 2.22031E+01-2.65921E+00 5.00707E-03 5.01604E-01 1.23354E-13 5.14236E-13
 -1      3473 2.27906E+01-2.51595E+00 5.03507E-03-6.79610E-02 2.58127E-14 6.63973E-13
 -1      3474 2.32194E+01-1.95930E+00 2.28041E-04-6.95531E-01-4.75336E-14 8.74075E-13
 -1      3475 2.83830E+01-2.05013E+00-1.49971E-01-1.95570E+00-3.84897E-13-8.13564E-13
 -1      3476 1.98419E+01 3.09163E-01-1.20649E-04-5.73323E-02-1.25499E-13-5.05165E-13
 -1      3477 1.98344E+01 3.14550E-01-7.43856E-04-2.67856E-02-5.94298E-14-6.69938E-13
 -1      3478 3.59274E+01 7.88332E+00 5.77869E+00-1.30157E+01 1.41285E-11-1.92362E-11
 -1      3479 3.35574E+01 1.34123E+00 2.28397E+00-1.26614E+01 1.00916E-11 8.39701E-12
 -1      3480 3.71173E+01-4.02552E+00 1.96683E+00-1.08713E+01 2.56126E-11 4.33453E-12
 -1      3481 3.83889E+01-7.14444E-01 2.98424E+00-7.85583E+00 5.47105E-11-2.09166E-12
 -1      3482 3.42970E+01 6.72853E-01 9.61839E-01-1.04946E+01 2.52293E-11-2.16999E-12
 -1      3483 4.09794E+01 8.76034E+00 5.05856E+00-7.89786E+00 7.56697E-11-1.49845E-11
 -1      3484 4.62948E+01 1.52237E+01 4.67140E+00-1.34560E+01 7.61023E-11-7.21583E-11
 -1      3485 3.88412E+01 3.77374E+00 1.66918E+00-5.74623E+00 4.26212E-11-1.82145E-11
 -1      3486 5.07801E+01 2.09387E+01 9.20518E+00-1.67451E+01 6.41625E-11-8.99181E-11
 -1      3487 3.96067E+01 1.44443E+01 9.51577E+00-7.83756E+00 2.68450E-11-4.57696E-11
 -1      3488 4.36638E+01 1.51523E+01 7.04925E+00-8.90689E+00 4.53766E-11-6.64369E-11
 -1      3489 1.99193E+01 1.49124E-01 4.85629E-03-1.18378E+00-7.09479E-14 1.99774E-13
 -1      3490 1.98458E+01 2.41548E-01-2.60867E-04-1.11157E+00-1.09123E-13 1.00581E-13
 -1      3491 1.96483E+01 1.48077E-01-3.64001E-03-1.29913E+00-5.22103E-14-4.79639E-14
 -1      3492 1.98471E+01 3.12824E-01 3.71662E-03-1.01253E+00-2.29591E-14 2.25546E-13
 -1      3493 1.98085E+01 3.57909E-01-1.32859E-03-9.38011E-01 1.79649E-13 1.83763E-13
 -1      3494 1.96121E+01 3.46342E-01-8.74704E-04-1.08634E+00-4.36679E-15 5.71721E-14
 -1      3495 1.98311E+01 3.89481E-01 2.82291E-03-8.49222E-01 2.32401E-13 6.66932E-14
 -1      3496 1.98131E+01 4.02373E-01-1.79442E-03-7.77664E-01 3.11023E-13 2.31441E-14
 -1      3497 1.96335E+01 4.42249E-01 5.86122E-04-8.96401E-01 2.03522E-13 9.55195E-14
 -1      3498 1.98446E+01 4.07599E-01 2.18106E-03-7.00042E-01 3.68646E-13-1.16932E-14
 -1      3499 1.98379E+01 4.00215E-01-1.91327E-03-6.34384E-01 2.61375E-13 2.47466E-14
 -1      3500 1.96826E+01 4.69124E-01 1.29090E-03-7.30730E-01 2.83788E-13-1.56088E-13
 -1      3501 1.98711E+01 3.89428E-01 1.72231E-03-5.67825E-01 1.31038E-13 1.50563E-13
 -1      3502 1.98701E+01 3.70627E-01-1.83819E-03-5.09545E-01 1.53157E-15 2.84071E-13
 -1      3503 1.97413E+01 4.52492E-01 1.52718E-03-5.88532E-01 2.24239E-13-1.94866E-13
 -1      3504 1.99011E+01 3.51326E-01 1.38447E-03-4.53399E-01-2.64216E-15 2.73911E-13
 -1      3505 1.99024E+01 3.27323E-01-1.67129E-03-4.03016E-01 7.15084E-14 3.20533E-13
 -1      3506 1.97992E+01 4.11377E-01 1.51891E-03-4.68153E-01 6.76240E-14 6.45804E-14
 -1      3507 1.99292E+01 3.04676E-01 1.12278E-03-3.56372E-01 4.38124E-14 3.31384E-13
 -1      3508 1.99311E+01 2.79624E-01-1.43087E-03-3.13778E-01 2.65241E-13 2.80862E-13
 -1      3509 1.98511E+01 3.58887E-01 1.33393E-03-3.67537E-01 9.24563E-14 3.96134E-13
 -1      3510 1.99530E+01 2.56618E-01 7.84934E-04-2.75465E-01 2.52418E-13 8.35221E-14
 -1      3511 1.99560E+01 2.33639E-01-7.54032E-04-2.40319E-01 1.11631E-13 1.57706E-13
 -1      3512 1.98945E+01 3.04202E-01 1.08015E-03-2.84658E-01 1.40484E-13 1.05416E-13
 -1      3513 1.57949E+01-8.81180E-01-3.34690E+00 3.89195E+00-8.87551E-12 6.28120E-12
 -1      3514 1.96541E+01 2.69803E-01 1.25340E-03-7.03790E-01 7.10467E-14-9.11978E-14
 -1      3515 1.96507E+01 2.50271E-01-8.71852E-04-6.56914E-01 5.56325E-14-9.47063E-14
 -1      3516 1.94659E+01 5.83606E-01 2.27840E-03-1.20778E+00 1.67600E-14-4.90963E-14
 -1      3517 1.94703E+01 5.38294E-01-3.61618E-03-1.12277E+00 3.92802E-14-6.01384E-14
 -1      3518 1.95365E+01 4.94551E-01 1.97125E-03-1.04829E+00 4.06056E-14-5.26045E-14
 -1      3519 1.95368E+01 4.47612E-01-2.95304E-03-9.76292E-01 3.57102E-14-4.84173E-14
 -1      3520 1.93186E+01 5.86554E-01 2.29641E-03-1.05563E+00 4.98809E-14-4.42679E-14
 -1      3521 1.92702E+01 6.78274E-01 4.10084E-03-1.61899E+00-9.02908E-14 1.22850E-13
 -1      3522 1.92745E+01 6.71811E-01-4.88321E-03-1.50479E+00-7.50163E-14 6.02028E-15
 -1      3523 1.91683E+01 6.11620E-01 6.51939E-03-1.88272E+00-1.20544E-14 1.87067E-13
 -1      3524 1.91542E+01 6.56448E-01-5.33189E-03-1.75196E+00-1.67450E-15 1.84103E-13
 -1      3525 1.88009E+01 7.79524E-01 3.38945E-03-1.63564E+00-8.61682E-14 6.92036E-14
 -1      3526 1.91129E+01 3.88880E-01 1.10913E-02-2.20015E+00-9.94017E-14 6.64667E-14
 -1      3527 1.90482E+01 5.20568E-01-5.22415E-03-2.05072E+00-2.80765E-14 1.46536E-13
 -1      3528 1.85722E+01 6.96492E-01 2.22416E-03-1.92877E+00 4.17224E-15 7.37148E-14
 -1      3529 1.91819E+01-8.51974E-02 1.56476E-02-2.58793E+00-1.05972E-13-3.23209E-14
 -1      3530 1.90176E+01 1.84109E-01-3.46026E-03-2.41934E+00-1.51007E-13 1.98740E-15
 -1      3531 1.83544E+01 4.39543E-01-9.55141E-04-2.31591E+00-6.71601E-14 2.09251E-14
 -1      3532 1.95631E+01-9.26733E-01 1.77898E-02-3.03524E+00-4.83832E-14-2.49423E-14
 -1      3533 1.91861E+01-4.54227E-01 4.98495E-03-2.85783E+00-7.32301E-14-3.37262E-14
 -1      3534 1.82636E+01-9.77724E-02 3.07246E-03-2.85165E+00-6.60975E-14-1.33796E-13
 -1      3535 2.43501E+01-4.10007E+00-2.99844E-03-2.64934E+00 3.35496E-15-7.23891E-14
 -1      3536 2.39330E+01-3.19591E+00 2.80729E-02-2.02960E+00-8.88959E-15 4.21191E-15
 -1      3537 2.24753E+01-3.38071E+00-7.03404E-02-3.14064E+00 7.91034E-16 1.23821E-13
 -1      3538 2.88416E+01-1.02259E+00-2.44493E-01 2.15161E+00 3.38930E-13-2.62040E-13
 -1      3539 2.89783E+01-2.06059E+00 5.40238E-02 9.47124E-01 2.53797E-13-1.46175E-13
 -1      3540 1.90623E+01 5.04621E-01-5.64133E-03 1.96913E+00-1.12287E-13-4.62594E-14
 -1      3541 1.91250E+01 3.23424E-01 1.31183E-02 2.13679E+00-3.86783E-14-9.03671E-14
 -1      3542 1.90074E+01 5.37246E-02-2.44554E-03 2.39157E+00-9.50464E-14-1.80734E-13
 -1      3543 1.92012E+01-2.98880E-01 1.86020E-02 2.57860E+00-2.27209E-13-2.12204E-13
 -1      3544 1.82936E+01 3.59543E-01-2.21436E-03 2.26459E+00-1.38957E-13-8.07602E-14
 -1      3545 1.94077E+01 1.29777E+00 1.83468E-03-6.84115E-01-1.84083E-13-2.67270E-13
 -1      3546 1.94035E+01 1.01468E+00-5.11137E-03-4.91062E-01-1.66953E-13-2.53404E-13
 -1      3547 2.92130E+01-2.12368E-01-2.76057E-02-2.79774E+00-1.44842E-13-9.00544E-13
 -1      3548 1.91960E+01-7.66834E-01 4.50348E-03 2.88894E+00-2.82646E-13-9.10775E-14
 -1      3549 1.96930E+01-1.35460E+00 1.96739E-02 3.09408E+00-1.83964E-13-2.02850E-14
 -1      3550 1.81717E+01-3.40741E-01 1.85996E-03 2.88715E+00-1.71275E-13 8.72072E-14
 -1      3551 1.92188E+01 7.07049E-01-5.95438E-03 1.62804E+00-3.17874E-14-2.11432E-13
 -1      3552 1.92156E+01 6.34133E-01 7.50295E-03 1.77541E+00-3.97220E-14-1.34949E-13
 -1      3553 1.85734E+01 7.17519E-01 2.48513E-03 1.81442E+00-1.93042E-14-1.18677E-13
 -1      3554 1.93947E+01 7.59267E-01-5.40524E-03 1.34667E+00 1.03606E-13-2.96804E-13
 -1      3555 1.93676E+01 7.50398E-01 4.34449E-03 1.47630E+00-2.83610E-14-2.25498E-13
 -1      3556 1.88697E+01 8.56457E-01 4.23482E-03 1.47883E+00-1.75188E-14-1.67810E-13
 -1      3557 1.95542E+01 7.27214E-01-4.67510E-03 1.10866E+00-2.89092E-14-1.77130E-13
 -1      3558 1.95238E+01 7.53137E-01 2.70272E-03 1.22289E+00 4.75817E-14-2.01253E-13
 -1      3559 1.91373E+01 8.67307E-01 4.45877E-03 1.21520E+00 5.26164E-14-1.36417E-13
 -1      3560 1.96851E+01 6.53140E-01-3.95291E-03 9.04720E-01-1.45164E-13-7.09452E-14
 -1      3561 1.96597E+01 6.95481E-01 1.91819E-03 1.00481E+00-2.00058E-14-1.67922E-13
 -1      3562 1.93605E+01 8.08098E-01 3.95030E-03 9.98368E-01-1.27740E-13-2.88030E-13
 -1      3563 1.97861E+01 5.62724E-01-3.28647E-03 7.29955E-01-3.48535E-13 5.16805E-14
 -1      3564 1.97681E+01 6.10465E-01 1.55837E-03 8.16561E-01-2.63548E-13-2.65644E-14
 -1      3565 1.95381E+01 7.15523E-01 3.22923E-03 8.15051E-01-2.55754E-13-1.29180E-13
 -1      3566 1.98607E+01 4.70844E-01-2.68811E-03 5.81438E-01-9.38161E-14 7.01252E-15
 -1      3567 1.98496E+01 5.17709E-01 1.37861E-03 6.55210E-01-2.22591E-13-1.28991E-14
 -1      3568 1.96746E+01 6.11794E-01 2.52292E-03 6.58681E-01-2.67360E-13 2.50871E-14
 -1      3569 1.99140E+01 3.85596E-01-2.16748E-03 4.56839E-01 5.12261E-14 2.59677E-13
 -1      3570 1.99083E+01 4.28221E-01 1.25237E-03 5.18646E-01 3.64678E-15 1.27157E-13
 -1      3571 1.97770E+01 5.09793E-01 1.89569E-03 5.25792E-01-1.39634E-13 5.21301E-14
 -1      3572 1.99507E+01 3.10973E-01-1.69993E-03 3.53703E-01 3.22115E-14 3.08810E-13
 -1      3573 1.99489E+01 3.47776E-01 1.13779E-03 4.04705E-01 3.04410E-14 4.03403E-13
 -1      3574 1.98520E+01 4.16613E-01 1.37878E-03 4.14044E-01-4.28583E-14 4.91163E-13
 -1      3575 1.99747E+01 2.47414E-01-1.63983E-03 2.69923E-01 8.57366E-14 3.94649E-13
 -1      3576 1.99758E+01 2.78252E-01 8.79513E-04 3.10800E-01 8.97188E-14 4.21319E-13
 -1      3577 1.99062E+01 3.35731E-01 1.16132E-03 3.21044E-01 5.27645E-14 6.00562E-13
 -1      3578 1.99911E+01 1.97278E-01-7.19590E-04 2.01416E-01 1.44103E-13 4.13646E-13
 -1      3579 1.99927E+01 2.21758E-01 8.82494E-04 2.34512E-01 1.22598E-13 2.69531E-13
 -1      3580 1.99430E+01 2.69420E-01 1.20725E-03 2.45238E-01 3.86502E-14 4.72176E-13
 -1      3581 2.22220E+01 5.26183E+00-1.58317E-01-5.15462E-01-1.65205E-12 1.71582E-12
 -1      3582 2.84682E+01 9.38429E-01 3.57050E+00-1.13867E+01 2.67560E-11-1.70695E-11
 -1      3583 3.33743E+01-2.02026E+00 3.48092E+00-7.06294E+00 1.71698E-11-1.81215E-11
 -1      3584 1.97138E+01 2.98037E-01-3.97880E-04-4.16874E-01 9.27511E-14-1.36135E-13
 -1      3585 1.97228E+01 3.46932E-01 1.60119E-03-3.51086E-01 1.23203E-13-1.39960E-13
 -1      3586 1.75491E+01 9.14757E-01-2.70707E+00 3.82961E+00-2.78322E-12 5.88418E-12
 -1      3587 1.96761E+01 2.39673E-01 8.69066E-04-6.14129E-01 1.57984E-14-1.03802E-13
 -1      3588 1.96754E+01 2.37353E-01-8.90620E-05-5.67595E-01-7.10873E-15-1.28257E-13
 -1      3589 1.96305E+01 2.85701E-01 9.22372E-05-6.25363E-01 2.67486E-14-1.67448E-13
 -1      3590 1.96955E+01 2.45449E-01 3.28329E-04-5.22568E-01 1.93082E-14-1.14931E-13
 -1      3591 1.96991E+01 2.65408E-01 7.49240E-04-4.70243E-01 5.78539E-14-1.10544E-13
 -1      3592 1.97102E+01 3.32727E-01-3.98586E-04-4.34270E-01 7.41579E-14-1.18411E-13
 -1      3593 1.92777E+01 2.19343E+00-3.43778E-03-3.62960E-01-8.03894E-15-3.93810E-13
 -1      3594 1.92713E+01 2.16008E+00-3.91523E-03-4.73195E-01-2.76812E-14-3.94702E-13
 -1      3595 1.93636E+01 1.86696E+00 3.40001E-03-4.66268E-01-5.21917E-14-3.45391E-13
 -1      3596 1.99762E+01 1.78242E-01-9.12139E-04 1.37881E-01 5.40010E-14 3.61550E-13
 -1      3597 1.99944E+01 1.61021E-01 1.01169E-04 1.40617E-01-6.24827E-14 5.02812E-13
 -1      3598 1.99966E+01 1.68271E-01 1.42349E-04 1.56096E-01 7.54965E-14 4.57863E-13
 -1      3599 1.99557E+01 2.09994E-01 1.64244E-05 1.50335E-01 9.58400E-14 4.96437E-13
 -1      3600 1.84355E+01-1.92982E+00 6.84516E-03 3.79798E+00-1.38223E-13 5.77420E-14
 -1      3601 1.97433E+01 8.87560E-01-1.78456E-04 1.95161E-01 1.97689E-13-2.07037E-13
 -1      3602 1.97199E+01 1.05788E+00-2.18659E-03 2.27447E-01 2.09785E-13-2.15679E-13
 -1      3603 1.97346E+01 7.19297E-01-1.28654E-03 4.52174E-02 1.64055E-13-1.99424E-13
 -1      3604 1.93755E+01 6.54278E-01 2.87677E-03-1.39649E+00-6.96540E-15 8.37342E-15
 -1      3605 1.93829E+01 6.20581E-01-4.26936E-03-1.29739E+00 1.19919E-14 1.16069E-15
 -1      3606 1.91801E+01 6.84878E-01 2.96586E-03-1.21360E+00-2.61518E-15-3.48827E-14
 -1      3607 1.90074E+01 7.59698E-01 3.44086E-03-1.40345E+00-5.26118E-14 2.16063E-14
 -1      3608 3.14990E+01 1.18230E+00 3.59799E+00-2.94645E+00 9.13836E-12-1.21219E-11
 -1      3609 2.83575E+01 1.15064E+00 2.71839E+00-5.30921E+00 7.34335E-12-8.56781E-12
 -1      3610 1.94274E+01 8.03553E-01 4.86754E-03-3.60831E-01-1.57756E-13-2.37122E-13
 -1      3611 1.93932E+01 6.55360E-01-2.49952E-03-2.50072E-01-1.33239E-13-2.50960E-13
 -1      3612 1.94274E+01 6.80523E-01 5.94813E-04-2.30084E-01-1.14663E-13-2.08333E-13
 -1      3613 2.76152E+01 5.28989E+00 3.39834E+00-3.06457E+00 4.85384E-12-4.57057E-12
 -1      3614 1.69616E+01-1.24318E+00 4.30361E-02 3.84412E+00-1.67365E-13 1.61751E-13
 -1      3615 1.96944E+01 1.19853E+00 3.74390E-04 1.89708E-01 1.77362E-13-2.18242E-13
 -1      3616 1.38760E+01 3.56017E-01 8.67743E-03 2.30064E+00 1.52890E-14 1.44860E-13
 -1      3617 1.25829E+01 7.22752E-01 1.10111E-01 1.70084E+00-2.89890E-14 1.56805E-13
 -1      3618 1.26701E+01 8.36569E-01 2.51630E-02 7.88889E-01 1.42759E-14 7.50650E-14
 -1      3619 2.15863E+01-2.88953E+00-8.09499E-03 1.25170E+00 1.35719E-13 5.71116E-13
 -1      3620 2.58964E+01 2.76828E+00 2.35165E+00-1.02479E+01 1.47939E-11-6.99396E-12
 -1      3621 2.72420E+01 1.55166E+00 5.94119E-01-5.78131E+00 1.11391E-11-4.08873E-12
 -1      3622 1.98547E+01 2.95291E-01-1.05315E-03-9.17495E-02-1.03194E-13-2.91650E-13
 -1      3623 1.98236E+01 3.32404E-01 1.06869E-03-8.48491E-02-1.03708E-13-3.36922E-13
 -1      3624 1.98731E+01 2.83010E-01 2.80843E-04-1.17933E-01-6.47627E-14-3.30828E-13
 -1      3625 1.95610E+01 1.56790E+00-3.82643E-03 2.83807E-02 1.12324E-13-3.13891E-13
 -1      3626 1.95259E+01 1.63051E+00-2.44805E-03-4.75787E-02 7.37679E-14-2.98123E-13
 -1      3627 1.15539E+01 7.12964E-01 2.95894E-02-1.19055E+00 3.26095E-13-2.55282E-13
 -1      3628 1.17656E+01 6.21179E-01 1.11547E-01-2.01905E+00 3.40854E-13-3.07587E-13
 -1      3629 1.30030E+01-1.63417E+00 1.18777E-01 4.25323E+00 5.58265E-13 1.85574E-13
 -1      3630 1.25936E+01-8.27511E-01 4.67930E-02 3.49707E+00 3.90139E-13 1.26427E-13
 -1      3631 1.46560E+01-2.05682E+00-1.74871E-02 4.21747E+00 4.52097E-13 2.54408E-13
 -1      3632 1.99755E+01 2.12403E-01 4.54800E-04-2.18746E-01 6.54483E-14 2.03176E-13
 -1      3633 1.99798E+01 1.93041E-01-3.93619E-04-1.93015E-01 6.18117E-14 1.28758E-13
 -1      3634 1.99641E+01 2.06337E-01-5.75559E-05-1.86463E-01-7.65601E-14-3.54677E-14
 -1      3635 1.99337E+01 2.52023E-01 7.74995E-04-2.26732E-01 1.26727E-13-1.05059E-13
 -1      3636 1.96221E+01 2.94821E-01-1.60158E-03-7.49306E-01 8.62862E-14-6.00386E-14
 -1      3637 1.95774E+01 3.25761E-01 5.18205E-04-7.14333E-01 6.13963E-14-1.48510E-13
 -1      3638 1.96263E+01 3.27541E-01 1.53452E-03-8.01330E-01 6.82419E-14-5.54895E-14
 -1      3639 1.50071E+01-1.32519E+00 1.14393E-01-4.60713E+00 8.01945E-14-6.16410E-13
 -1      3640 1.67159E+01-1.91672E+00-4.97284E-02-4.63157E+00 2.83263E-14-4.54942E-13
 -1      3641 1.45325E+01-5.78282E-01 3.65707E-02-3.88044E+00 7.73288E-14-4.72095E-13
 -1      3642 1.27705E+01 2.78258E-01 2.90723E-02-2.63659E+00 2.60235E-13-3.04826E-13
 -1      3643 1.94269E+01 4.85392E-01 1.62151E-03-9.23304E-01 5.59634E-14-7.25674E-14
 -1      3644 1.95887E+01 4.05270E-01 1.75387E-03-9.14284E-01 4.71481E-14-3.40440E-14
 -1      3645 1.95858E+01 3.63201E-01-2.28573E-03-8.53551E-01 6.61286E-14-4.34828E-14
 -1      3646 1.97365E+01 4.46894E-01-3.41244E-04-3.08412E-01 1.11514E-13-1.01092E-13
 -1      3647 1.97304E+01 4.14059E-01-8.97494E-04-2.81124E-01 1.18685E-13-1.57141E-13
 -1      3648 1.87095E+01-1.28474E+00 3.64258E-02-3.61450E+00-6.17952E-14-1.23608E-13
 -1      3649 1.73424E+01-7.45860E-01 2.31520E-02-3.64665E+00-3.84623E-14-2.59954E-13
 -1      3650 1.93309E+01-1.98858E+00 5.45606E-02-3.83036E+00-7.78752E-14-1.79285E-13
 -1      3651 2.05942E+01-3.15512E+00 9.48985E-02-4.18900E+00-1.38500E-14-2.11105E-13
 -1      3652 2.03005E+01-2.70416E+00 9.38100E-02-4.06108E+00-7.40224E-14-1.78505E-13
 -1      3653 1.98328E+01 3.17723E-01-5.62491E-04 1.10551E-02-8.91124E-14-6.15267E-13
 -1      3654 1.98372E+01 3.15510E-01-3.95897E-04 4.30132E-02-6.91211E-15-5.03515E-13
 -1      3655 1.98063E+01 3.48503E-01 1.14708E-03-9.69010E-03-6.21173E-14-6.87586E-13
 -1      3656 2.00007E+01 1.76091E-01 3.47851E-04 1.73844E-01 1.00280E-13 4.32176E-13
 -1      3657 1.98479E+01 3.07422E-01-8.53097E-04 7.97810E-02-1.31433E-15-2.37730E-13
 -1      3658 1.98642E+01 2.97183E-01-4.45051E-05 1.08396E-01 1.33933E-13-5.09884E-15
 -1      3659 1.98160E+01 3.44184E-01 1.12685E-03 6.79475E-02-3.90713E-14-4.11808E-13
 -1      3660 1.02097E+01 3.57926E-01 1.35468E-01 1.35597E+00 3.88533E-13-1.22818E-14
 -1      3661 1.08752E+01 6.41142E-01 3.99369E-02 3.44340E-01 2.96985E-13-1.62079E-13
 -1      3662 1.11562E+01 7.36633E-02 4.51303E-02 2.06367E+00 3.66525E-13 1.09857E-13
 -1      3663 2.51689E+01 2.13464E+00 2.60891E+00-9.87864E+00 2.40737E-11-1.13767E-11
 -1      3664 1.94317E+01 1.02819E+00-2.85244E-03-4.44948E-01-1.53614E-13-2.39029E-13
 -1      3665 1.97381E+01 4.80872E-01 2.11102E-03-2.05706E-01 1.24952E-13-1.69628E-13
 -1      3666 1.63090E+01-4.78307E-01 4.81448E-03 3.25104E+00-8.07653E-14 1.38646E-13
 -1      3667 1.93926E+01 1.47035E+00 4.07169E-03-7.37675E-01-1.76996E-13-2.88019E-13
 -1      3668 1.95807E+01 1.43641E+00 5.30186E-03-1.14166E-01 6.94035E-14-2.92922E-13
 -1      3669 1.94936E+01 1.66887E+00-3.14309E-03-1.08761E-01 6.59960E-14-3.05756E-13
 -1      3670 1.94665E+01 1.69220E+00-2.75683E-03-1.88492E-01 3.97476E-14-3.40269E-13
 -1      3671 2.18740E+01-3.77975E+00 1.07893E-01-4.11306E+00 1.48354E-14-1.07213E-13
 -1      3672 1.93972E+01 1.45610E+00 1.63772E-03-6.38758E-01-1.43786E-13-2.71449E-13
 -1      3673 3.27842E+01 1.15936E-01 3.11345E+00-4.71257E+00 1.34464E-11-1.27534E-11
 -1      3674 3.05881E+01 1.20290E+00 2.05357E+00-5.00594E+00 1.23704E-11-6.92046E-12
 -1      3675 2.97225E+01 6.20811E-01 1.88317E+00-6.74729E+00 1.56946E-11-9.54214E-12
 -1      3676 1.96742E+01 2.84195E-01-2.45493E-04-5.35615E-01 3.31428E-14-1.10430E-13
 -1      3677 1.95800E+01 1.68776E+00 6.56517E-03 2.01772E-01 1.65616E-13-3.12871E-13
 -1      3678 1.98830E+01 2.79609E-01-1.23578E-03 1.33760E-01 1.07778E-13 1.39214E-13
 -1      3679 1.99060E+01 2.66255E-01 7.94300E-04 1.51313E-01 1.22812E-13 3.03729E-13
 -1      3680 1.98517E+01 3.19378E-01 1.14293E-03 1.32796E-01 2.53016E-14 1.32022E-14
 -1      3681 1.93850E+01 1.93603E+00 4.63087E-03-3.01726E-01-1.63717E-15-3.65917E-13
 -1      3682 1.81924E+01-3.42540E+00 5.68205E-02 4.13698E+00 4.86593E-13 3.96162E-13
 -1      3683 1.71644E+01-2.74356E+00 8.73913E-02 4.12251E+00 4.46195E-13 3.66870E-13
 -1      3684 1.92562E+01-3.27986E+00-2.16896E-02 3.29215E+00 3.40993E-13 3.79742E-13
 -1      3685 1.93867E+01 1.54629E+00-4.79895E-03-5.84282E-01-1.22588E-13-2.79188E-13
 -1      3686 1.94303E+01 1.39634E+00 5.36511E-03-5.48426E-01-1.26460E-13-2.64478E-13
 -1      3687 1.93856E+01 1.64816E+00-4.81253E-04-5.26967E-01-8.38718E-14-2.61751E-13
 -1      3688 1.99686E+01 2.12757E-01 5.25305E-04 1.83314E-01 7.87723E-14 6.55621E-13
 -1      3689 1.36018E+01 2.97492E+00 1.24876E+00-4.38391E+00 1.42745E-11-8.91310E-13
 -1      3690 1.76754E+01 4.49005E+00 2.01962E+00-7.43567E+00 2.36365E-11-5.35449E-12
 -1      3691 1.24931E+01 8.41723E-01 6.38344E-03-8.89905E-01 9.88697E-14-1.06401E-13
 -1      3692 1.99479E+01 2.17235E-01-7.35082E-04-1.77312E-01-1.04050E-13-1.93655E-13
 -1      3693 1.94351E+01 5.63382E-01 8.50266E-04-1.41225E-01-8.14364E-14-1.76696E-13
 -1      3694 1.94021E+01 4.77874E-01-1.47982E-03-7.74310E-02-9.94934E-14-1.88728E-13
 -1      3695 1.93695E+01 4.14880E-01 3.83150E-04-3.21334E-02-1.06578E-13-1.67239E-13
 -1      3696 1.93286E+01 3.68955E-01-7.15124E-04 1.89637E-02-9.68158E-14-1.43419E-13
 -1      3697 1.94233E+01 4.96611E-01 9.90876E-04-8.53601E-02-9.49969E-14-1.58362E-13
 -1      3698 1.92817E+01 3.39438E-01-5.81935E-05 5.74481E-02-5.77619E-14-1.09496E-13
 -1      3699 1.92359E+01 3.23193E-01-1.18400E-04 1.01336E-01-4.52108E-14-1.10147E-13
 -1      3700 1.93404E+01 3.95811E-01 7.56501E-04-1.23247E-03-6.26000E-14-1.47741E-13
 -1      3701 1.91775E+01 3.18574E-01-5.72456E-04 1.37268E-01-5.25651E-14-1.04581E-13
 -1      3702 1.91282E+01 3.24107E-01 3.48752E-04 1.79029E-01-4.98087E-14-1.03693E-13
 -1      3703 1.92344E+01 3.58493E-01 7.14428E-04 7.31596E-02-4.33561E-14-1.31120E-13
 -1      3704 1.90598E+01 3.37038E-01-1.08552E-03 2.16561E-01-6.70308E-14-1.06979E-13
 -1      3705 1.90079E+01 3.57296E-01 7.37507E-04 2.60497E-01-7.01261E-14-9.78323E-14
 -1      3706 1.91094E+01 3.68340E-01 8.06094E-04 1.46031E-01-6.06656E-14-1.22373E-13
 -1      3707 1.89302E+01 3.80943E-01-1.57441E-03 3.03404E-01-6.72711E-14-1.27054E-13
 -1      3708 1.88760E+01 4.08989E-01 1.10399E-03 3.53065E-01-5.22032E-14-1.59424E-13
 -1      3709 1.89670E+01 4.10551E-01 9.78727E-04 2.25083E-01-9.13855E-14-1.16548E-13
 -1      3710 1.87896E+01 4.36202E-01-2.02730E-03 4.04798E-01-3.69025E-14-1.91500E-13
 -1      3711 1.87345E+01 4.64491E-01 1.52918E-03 4.63042E-01-5.00902E-14-1.69257E-13
 -1      3712 1.88080E+01 4.70518E-01 1.14497E-03 3.17525E-01-6.75211E-14-1.71943E-13
 -1      3713 1.86400E+01 4.87143E-01-2.42361E-03 5.26969E-01-7.49147E-14-1.18197E-13
 -1      3714 1.85869E+01 5.06693E-01 2.11483E-03 5.96215E-01-4.28185E-14-8.65288E-14
 -1      3715 1.86332E+01 5.32609E-01 1.23656E-03 4.30219E-01-3.84668E-14-1.61054E-13
 -1      3716 1.84866E+01 5.14633E-01-2.70973E-03 6.75953E-01-1.08423E-14-7.56203E-14
 -1      3717 1.84409E+01 5.14083E-01 3.00002E-03 7.58213E-01-3.22172E-15-4.47219E-14
 -1      3718 1.84451E+01 5.78316E-01 1.13388E-03 5.70591E-01-1.11737E-14-1.05439E-13
 -1      3719 1.83395E+01 4.94391E-01-2.78585E-03 8.57887E-01-2.11419E-14-5.52200E-14
 -1      3720 1.83114E+01 4.59132E-01 4.35942E-03 9.54754E-01-5.39213E-14-2.12419E-14
 -1      3721 1.82499E+01 5.84471E-01 6.78224E-04 7.47166E-01 7.29624E-16-8.36397E-14
 -1      3722 1.82183E+01 3.95228E-01-2.40605E-03 1.07919E+00-3.14536E-14 3.28630E-14
 -1      3723 1.82244E+01 3.06381E-01 6.33811E-03 1.19114E+00 1.05766E-14 3.30666E-14
 -1      3724 1.80601E+01 5.21068E-01-4.60335E-04 9.70474E-01-3.38718E-15-2.82322E-14
 -1      3725 1.81579E+01 1.77351E-01-9.93206E-04 1.34499E+00-4.75873E-15 3.60085E-14
 -1      3726 1.82250E+01 1.13056E-02 8.99925E-03 1.46890E+00-2.74338E-14 2.73629E-14
 -1      3727 1.79004E+01 3.48427E-01-2.83192E-03 1.25314E+00-3.22884E-14 8.86059E-14
 -1      3728 1.82188E+01-2.07005E-01 2.81561E-03 1.65291E+00-1.02746E-14 1.14239E-13
 -1      3729 1.83838E+01-4.78518E-01 1.10228E-02 1.77714E+00 2.91404E-14 1.87376E-13
 -1      3730 1.78164E+01 1.41457E-02-7.25065E-03 1.60642E+00 4.49329E-14 3.07623E-14
 -1      3731 1.84978E+01-8.03121E-01 1.16527E-02 1.97556E+00 4.20952E-14 2.46818E-13
 -1      3732 1.88035E+01-1.20271E+00 1.14296E-02 2.07083E+00 6.59490E-14 2.24277E-13
 -1      3733 1.78905E+01-5.47963E-01-1.55545E-02 2.02603E+00 7.27258E-14 1.62221E-13
 -1      3734 1.91512E+01-1.67042E+00 2.53715E-02 2.23421E+00 4.56965E-14 2.53914E-13
 -1      3735 1.96836E+01-2.15534E+00 1.67613E-02 2.19087E+00 1.45712E-13 3.43029E-13
 -1      3736 1.82646E+01-1.40882E+00-3.02779E-02 2.48010E+00 8.16632E-14 2.14697E-13
 -1      3737 2.96223E+01 2.08285E+00 1.01403E+00-6.62929E+00 1.43192E-11-5.28011E-12
 -1      3738 1.76315E+01 5.77069E-01 9.23407E-03-2.24384E+00-2.87306E-14-2.37267E-14
 -1      3739 1.77136E+01 7.13560E-01-1.42534E-02-2.03151E+00-3.18867E-14 1.09013E-14
 -1      3740 1.95998E+01 1.49547E+00-1.87740E-03 8.30729E-02 1.30792E-13-3.18350E-13
 -1      3741 1.96451E+01 1.32417E+00 5.40961E-03-1.27090E-02 1.00082E-13-2.91078E-13
 -1      3742 1.96397E+01 1.38881E+00-5.40365E-03 1.49466E-01 1.54288E-13-2.75783E-13
 -1      3743 1.91112E+01 6.66801E-01 7.67722E-04-1.01450E+00 4.42283E-14-2.32567E-14
 -1      3744 1.91711E+01 6.09288E-01-3.55030E-03-9.46758E-01 7.50604E-14 6.78296E-15
 -1      3745 3.07099E+01 2.37841E+00 6.22415E-01-7.34326E+00 1.77428E-11-5.97933E-12
 -1      3746 3.45547E+01 1.18102E+00 7.17452E-01-6.27879E+00 2.46166E-11-8.18265E-12
 -1      3747 2.98426E+01 8.84330E-01 3.46842E-01-5.17298E+00 1.71196E-11-6.95127E-12
 -1      3748 3.51934E+01 2.29154E+00 8.23351E-01-5.20217E+00 2.81425E-11-1.42493E-11
 -1      3749 3.56209E+01 5.90913E+00 1.18031E+00-4.29220E+00 3.26584E-11-3.10489E-11
 -1      3750 3.08343E+01 3.72763E+00 3.31849E-01-3.96298E+00 1.89541E-11-1.24838E-11
 -1      3751 3.78039E+01 1.09014E+01 4.71879E+00-7.49113E+00 3.13789E-11-4.42402E-11
 -1      3752 2.92273E+01 7.55926E+00 4.78309E+00-5.89209E+00 1.07234E-11-3.40816E-11
 -1      3753 3.40179E+01 5.97443E+00 3.13438E+00-4.19678E+00 8.40050E-12-3.30953E-11
 -1      3754 1.93030E+01 2.67445E-01 7.10951E-03-1.33510E+00-9.87841E-14 1.10692E-13
 -1      3755 1.92567E+01 3.73484E-01-3.82345E-03-1.22008E+00-9.25591E-14 7.26175E-14
 -1      3756 1.88512E+01 3.67957E-01-8.77491E-04-1.40557E+00-1.01399E-13 8.90901E-14
 -1      3757 1.93278E+01 4.54470E-01 4.11023E-03-1.08555E+00 2.14076E-16-4.90673E-14
 -1      3758 1.93234E+01 5.05617E-01-4.10564E-03-9.84067E-01 1.68816E-13 7.93877E-14
 -1      3759 1.89776E+01 5.58411E-01 1.36705E-03-1.09965E+00-6.05463E-14-1.36622E-13
 -1      3760 1.94028E+01 5.38973E-01 2.24594E-03-8.77222E-01 5.73578E-14-1.00578E-13
 -1      3761 1.94204E+01 5.52852E-01-3.84970E-03-7.89387E-01 8.77020E-14-7.79126E-14
 -1      3762 1.91315E+01 6.39322E-01 2.42021E-03-8.61478E-01 2.84100E-14-2.27239E-13
 -1      3763 1.94980E+01 5.54573E-01 1.14691E-03-7.04114E-01 1.60957E-13-2.05216E-13
 -1      3764 1.95251E+01 5.44547E-01-3.41075E-03-6.29065E-01 2.11365E-13-3.47452E-13
 -1      3765 1.92879E+01 6.48168E-01 2.80457E-03-6.74588E-01-2.30254E-14-3.47248E-13
 -1      3766 1.95956E+01 5.27058E-01 5.02146E-04-5.60900E-01 3.36742E-13-3.79308E-13
 -1      3767 1.96250E+01 5.03284E-01-2.93228E-03-4.97370E-01 2.38177E-13-3.13972E-13
 -1      3768 1.94334E+01 6.11818E-01 2.75076E-03-5.27163E-01 1.54583E-13-4.52741E-13
 -1      3769 1.96863E+01 4.75366E-01 1.59087E-04-4.42774E-01 2.20197E-13-8.47926E-14
 -1      3770 1.97139E+01 4.44990E-01-2.49183E-03-3.89604E-01 3.40428E-13 1.43333E-13
 -1      3771 1.95617E+01 5.50366E-01 2.46451E-03-4.10043E-01 3.91972E-13-4.21650E-13
 -1      3772 1.97653E+01 4.13285E-01 6.05404E-05-3.46108E-01 1.28342E-13 1.69643E-13
 -1      3773 1.97891E+01 3.81149E-01-2.08080E-03-3.01901E-01 4.84032E-14 2.31302E-13
 -1      3774 1.96708E+01 4.77650E-01 2.05769E-03-3.17016E-01 2.64532E-13-5.19957E-14
 -1      3775 1.98314E+01 3.49034E-01 5.02777E-06-2.67284E-01-8.11959E-14 2.13711E-14
 -1      3776 1.98528E+01 3.19406E-01-8.55147E-04-2.31195E-01-1.21268E-13-2.33347E-13
 -1      3777 1.97599E+01 4.03621E-01 1.48862E-03-2.43468E-01-2.12366E-13-3.78526E-13
 -1      3778 1.39647E+01 1.24958E-01 9.48418E-02-3.22512E+00 1.90245E-13-3.79464E-13
 -1      3779 1.52245E+01-3.32538E-01-5.44968E-03-3.47753E+00 7.58644E-14-4.04118E-13
 -1      3780 1.36526E+01 5.09821E-01 1.91025E-02-2.37655E+00 2.61308E-13-2.60236E-13
 -1      3781 1.97314E+01 4.59057E-01-7.95220E-04-3.35190E-01 9.95949E-14-1.47660E-13
 -1      3782 1.97434E+01 5.42747E-01 1.36390E-03-2.63251E-01 8.49696E-14-1.51905E-13
 -1      3783 1.80122E+01 8.14776E-01 5.86417E-03-1.84238E+00-4.77738E-14-1.87692E-15
 -1      3784 1.81176E+01 8.60521E-01-1.01723E-02-1.68741E+00-1.68550E-15 3.07680E-15
 -1      3785 1.73328E+01 9.34296E-01 9.09894E-03-1.75867E+00 1.78138E-14-5.47440E-14
 -1      3786 1.83606E+01 8.85003E-01 2.92947E-03-1.55435E+00-4.16774E-14-2.89310E-14
 -1      3787 1.84654E+01 8.76869E-01-7.46991E-03-1.43488E+00-9.94287E-14-7.43180E-15
 -1      3788 1.78457E+01 9.98560E-01 7.65517E-03-1.46768E+00-3.53271E-14-3.31467E-14
 -1      3789 1.72464E+01 4.31064E-02-4.04264E-04-2.86162E+00-3.90395E-14-1.70859E-13
 -1      3790 1.72594E+01 3.62073E-01-2.13116E-02-2.52459E+00-5.65898E-14-1.04089E-13
 -1      3791 1.67163E+01 7.18031E-01 1.51541E-02-2.19043E+00 5.62683E-14-1.38914E-13
 -1      3792 1.64727E+01-1.35360E-01-5.73285E-03-3.12367E+00 6.53193E-14-2.09726E-13
 -1      3793 1.85444E+01 9.74384E-01-8.75173E-03 1.23747E+00 9.61826E-14-1.99438E-13
 -1      3794 1.84079E+01 9.65743E-01 3.16007E-03 1.37191E+00 5.27658E-14-8.04989E-14
 -1      3795 1.88980E+01 9.38473E-01-6.53146E-03 1.01838E+00-2.81541E-14-9.43650E-14
 -1      3796 1.87779E+01 9.67826E-01 1.14815E-03 1.12669E+00 8.08229E-15-1.35244E-13
 -1      3797 1.83713E+01 1.08302E+00 8.56711E-03 1.02412E+00 2.78849E-14-1.64988E-13
 -1      3798 1.91795E+01 8.53247E-01-5.03842E-03 8.39316E-01-1.66195E-13-1.51800E-13
 -1      3799 1.90812E+01 9.02069E-01 3.31787E-04 9.30550E-01-7.50813E-14-1.27319E-13
 -1      3800 1.87698E+01 1.01154E+00 6.87022E-03 8.47261E-01-6.69557E-14-1.12063E-13
 -1      3801 1.93994E+01 7.45847E-01-3.99640E-03 6.87568E-01-3.27121E-13-6.15295E-14
 -1      3802 1.93225E+01 8.02544E-01 1.11259E-04 7.65952E-01-1.97655E-13-1.48719E-13
 -1      3803 1.90819E+01 9.04823E-01 5.32707E-03 7.02588E-01-1.94191E-13-7.37899E-14
 -1      3804 1.95681E+01 6.33385E-01-3.17999E-03 5.57453E-01-1.99508E-13-6.32067E-14
 -1      3805 1.95100E+01 6.90672E-01 1.53673E-04 6.24943E-01-2.98642E-13-1.09800E-13
 -1      3806 1.93243E+01 7.84095E-01 4.16404E-03 5.79074E-01-2.60311E-13-1.27443E-14
 -1      3807 1.96956E+01 5.25843E-01-2.58772E-03 4.46188E-01-1.94105E-13 1.46443E-13
 -1      3808 1.96529E+01 5.79577E-01 2.56899E-04 5.03809E-01-2.15436E-13 2.48975E-14
 -1      3809 1.95105E+01 6.62646E-01 3.20463E-03 4.72120E-01-2.43021E-13 4.54929E-14
 -1      3810 1.97907E+01 4.29265E-01-2.02766E-03 3.52016E-01-1.07758E-13 3.62371E-13
 -1      3811 1.97600E+01 4.77000E-01 3.90940E-04 4.00782E-01-1.64966E-13 1.99036E-13
 -1      3812 1.96519E+01 5.48811E-01 2.39238E-03 3.79764E-01-2.59985E-13 3.66462E-13
 -1      3813 1.98590E+01 3.46050E-01-1.69345E-03 2.72298E-01-2.16369E-14 3.07734E-13
 -1      3814 1.98390E+01 3.86862E-01 5.68874E-04 3.13901E-01-2.70214E-14 3.17555E-13
 -1      3815 1.97573E+01 4.46944E-01 1.37954E-03 3.01311E-01-1.19138E-13 3.09272E-13
 -1      3816 1.70788E+01-1.87894E-01 9.30672E-03 2.89143E+00-8.41506E-14 1.63363E-13
 -1      3817 1.53247E+01 2.26462E-01 5.82530E-02 2.75876E+00 3.55098E-15 5.90500E-14
 -1      3818 1.47912E+01 5.66284E-01-5.61727E-03 2.09474E+00 3.57440E-15 1.22598E-13
 -1      3819 1.70865E+01 2.23740E-01-1.96575E-02 2.50231E+00-1.62479E-13 7.30547E-14
 -1      3820 1.97351E+01 5.40513E-01-7.28491E-04-1.38076E-01 1.34916E-13-1.84190E-13
 -1      3821 1.97444E+01 6.35590E-01 2.44702E-03-3.85258E-02 1.44438E-13-1.96151E-13
 -1      3822 1.97464E+01 7.49316E-01-2.75840E-03-9.53539E-03 1.60684E-13-1.88739E-13
 -1      3823 1.97452E+01 5.90763E-01-2.16221E-03-1.69378E-01 1.30684E-13-1.58740E-13
 -1      3824 1.97211E+01 1.05957E+00 4.98340E-03 6.94647E-02 1.45840E-13-2.16071E-13
 -1      3825 1.96967E+01 3.54111E-01-1.73455E-04-4.44795E-01 4.82664E-14-1.20863E-13
 -1      3826 1.97133E+01 3.97281E-01 3.33479E-04-3.87742E-01 8.31121E-14-1.27703E-13
 -1      3827 1.97139E+01 4.82830E-01 1.59786E-04-3.46977E-01 7.05672E-14-1.62944E-13
 -1      3828 2.30696E+01-4.02248E+00 8.57771E-03-3.45626E+00 9.75747E-14 1.39413E-13
 -1      3829 1.76290E+01 7.00277E-01-1.63834E-02 1.92274E+00-8.57202E-14-6.83433E-14
 -1      3830 1.75280E+01 5.09054E-01 1.27958E-02 2.17478E+00-1.37777E-13 3.08935E-14
 -1      3831 1.65283E+01 6.44596E-01 1.68951E-02 2.12704E+00-1.00378E-13 1.26982E-15
 -1      3832 1.95810E+01 3.24603E-01 4.43176E-04-6.16592E-01 4.30415E-14-1.51923E-13
 -1      3833 1.96052E+01 3.13246E-01-7.15997E-04-5.72658E-01 4.74190E-14-1.43784E-13
 -1      3834 1.93928E+01 1.75634E+00-3.15841E-03-3.89675E-01-3.45541E-14-3.85046E-13
 -1      3835 1.93885E+01 1.70842E+00-2.30634E-03-4.65030E-01-7.14952E-14-3.11344E-13
 -1      3836 1.94279E+01 1.56781E+00 4.59185E-03-4.49099E-01-7.90549E-14-2.89171E-13
 -1      3837 1.81211E+01 9.16245E-01-1.21094E-02 1.52343E+00-2.28422E-14-1.08774E-14
 -1      3838 1.79852E+01 8.41230E-01 7.29919E-03 1.70109E+00-3.24993E-14-6.82423E-14
 -1      3839 1.72661E+01 9.68522E-01 1.21708E-02 1.59874E+00-5.62369E-14-1.16038E-14
 -1      3840 1.78754E+01 1.08548E+00 1.05026E-02 1.25955E+00-1.54316E-14 2.85904E-14
 -1      3841 1.98975E+01 2.76285E-01-9.59133E-04-2.15215E-01 5.52335E-14-3.37063E-13
 -1      3842 1.99185E+01 2.54015E-01 4.47621E-05-1.95026E-01 4.23140E-14-3.52789E-13
 -1      3843 1.99208E+01 2.44175E-01 4.79954E-04-1.66205E-01-4.30853E-14-3.13477E-13
 -1      3844 1.98458E+01 3.22524E-01 7.83613E-04-1.96526E-01-1.48240E-13-3.34446E-13
 -1      3845 1.99436E+01 2.31943E-01-8.58841E-04 1.77030E-01 1.34036E-13 5.81359E-13
 -1      3846 1.96459E+01 3.14157E-01 2.23276E-04-5.34969E-01 5.10457E-14-1.58134E-13
 -1      3847 1.96663E+01 3.26545E-01-1.97236E-04-4.87230E-01 5.30780E-14-1.27433E-13
 -1      3848 1.96654E+01 3.83927E-01-5.57874E-05-4.44558E-01 6.64484E-14-1.33670E-13
 -1      3849 1.95962E+01 3.52779E-01 4.44290E-04-5.26472E-01 6.22203E-14-1.14565E-13
 -1      3850 1.17038E+01 9.06497E-01 9.23320E-02-5.01790E-01 3.08532E-13-2.72019E-13
 -1      3851 1.26117E+01 8.76231E-01 1.01216E-02-1.11179E+00 2.53817E-13-2.79068E-13
 -1      3852 1.19535E+01 7.96761E-01 1.22734E-02 2.92825E-01 2.67966E-13-1.59490E-13
 -1      3853 1.94441E+01 1.69640E+00-2.36498E-03-2.50919E-01 2.51194E-14-3.34668E-13
 -1      3854 1.94290E+01 1.68474E+00-1.01585E-03-3.27066E-01-1.06433E-14-3.60720E-13
 -1      3855 1.95273E+01 1.47749E+00 5.12855E-03-2.22913E-01 3.23428E-14-3.26546E-13
 -1      3856 2.20716E+01 4.10113E+00 1.99222E+00-9.14207E+00 2.43832E-11-9.41447E-12
 -1      3857 2.57154E+01 1.72159E+00 1.58844E+00-8.67519E+00 1.99691E-11-1.06639E-11
 -1      3858 1.94416E+01 1.13044E+00-1.60939E-03-4.18190E-01-1.24672E-13-2.32168E-13
 -1      3859 1.94670E+01 7.99985E-01-1.57295E-03-2.81921E-01-1.10127E-13-1.90143E-13
 -1      3860 1.94476E+01 6.70364E-01-2.39783E-03-1.98819E-01-8.04404E-14-1.81803E-13
 -1      3861 1.94755E+01 6.81856E-01 1.88615E-03-1.87078E-01-8.41498E-14-1.61821E-13
 -1      3862 1.98941E+01 2.62665E-01-1.09494E-03-1.48108E-01-2.08576E-14-4.45840E-13
 -1      3863 1.98633E+01 2.99953E-01 7.27367E-04-1.52165E-01-9.06058E-14-2.98019E-13
 -1      3864 1.99101E+01 2.70410E-01-5.94025E-04 1.86812E-01 8.43020E-14 3.97061E-13
 -1      3865 1.97473E+01 6.52104E-01-9.08375E-04-1.83651E-01 8.52728E-14-1.63391E-13
 -1      3866 1.97521E+01 7.32414E-01 2.23564E-03-1.11218E-01 1.08795E-13-1.77242E-13
 -1      3867 1.98936E+01 3.01753E-01 4.42897E-05 2.17931E-01-2.71630E-14 3.00157E-13
 -1      3868 1.86092E+01-2.34192E+00 2.20880E-02 3.07327E+00 2.59062E-13 3.28633E-13
 -1      3869 1.96981E+01-2.63029E+00 2.17805E-02 2.58079E+00 2.49061E-13 3.98878E-13
 -1      3870 1.55856E+01 4.48863E-01 3.72168E-02-2.67412E+00 8.15407E-14-2.12049E-13
 -1      3871 1.97943E+01 3.56183E-01-1.38976E-04-1.15746E-01-1.63977E-14-2.33250E-13
 -1      3872 1.97763E+01 3.68626E-01-9.52741E-04-7.97619E-02-8.61864E-14-5.89472E-13
 -1      3873 1.96819E+01 1.09412E+00-2.88309E-03-5.36059E-02 9.09495E-14-2.83735E-13
 -1      3874 1.96517E+01 1.17088E+00-1.30207E-03-9.29552E-02 7.75034E-14-2.74864E-13
 -1      3875 1.89858E+01 7.20218E-01-4.46200E-03-1.07935E+00 1.65438E-14-1.28838E-14
 -1      3876 1.88693E+01 7.60353E-01 4.10979E-03-9.63117E-01 5.48767E-14 3.07832E-14
 -1      3877 1.89101E+01 7.73850E-01 9.50268E-04-1.15955E+00-1.25073E-14-5.99236E-15
 -1      3878 1.95112E+01 3.95203E-01 1.02591E-03-8.11379E-01 4.45484E-14-7.57424E-14
 -1      3879 1.34944E+01-5.48388E-01-2.18119E-02 3.06458E+00 2.77540E-13 1.20390E-13
 -1      3880 1.23352E+01-1.04216E-01 1.06014E-01 2.71637E+00 3.65603E-13 1.01169E-13
 -1      3881 1.22655E+01 3.53253E-01 1.74316E-02 1.75703E+00 2.87164E-13 6.96110E-14
 -1      3882 1.97374E+01 6.69060E-01 4.28289E-04-2.16348E-01 8.29549E-14-2.11684E-13
 -1      3883 1.94999E+01 3.74671E-01 5.81744E-04-6.98699E-01 5.85957E-14-1.59883E-13
 -1      3884 1.95292E+01 3.44632E-01-1.37497E-03-6.53749E-01 5.36698E-14-1.98694E-13
 -1      3885 1.95069E+01 3.73367E-01 9.48576E-04-6.01042E-01 6.91480E-14-1.81686E-13
 -1      3886 1.39292E+01 8.81984E-01 6.45783E-02-1.84379E+00 1.89528E-13-2.43082E-13
 -1      3887 1.46874E+01 5.85448E-01-1.06164E-02-2.34542E+00 1.32117E-13-2.50407E-13
 -1      3888 1.55658E+01 6.91435E-01-1.12923E-02-2.20482E+00 8.64638E-14-1.89509E-13
 -1      3889 1.97654E+01 3.79626E-01-4.20922E-04-3.31860E-02-1.21315E-13-7.12071E-13
 -1      3890 1.97628E+01 3.83055E-01-4.88592E-04 6.99533E-03-9.00699E-14-6.16989E-13
 -1      3891 1.97369E+01 4.10697E-01 1.15218E-03-6.50461E-02-9.65438E-14-5.57441E-13
 -1      3892 1.92715E+01 5.55598E-01 7.14656E-04-8.92716E-01 2.46985E-14-4.33974E-14
 -1      3893 1.93180E+01 5.02155E-01-2.78489E-03-8.35046E-01-1.52333E-14-6.90412E-14
 -1      3894 1.90844E+01 6.38864E-01 3.06677E-03-8.52968E-01 1.94104E-14-5.75817E-14
 -1      3895 1.94717E+01 1.54828E+00 4.51345E-03-3.30791E-01-1.63674E-14-3.52049E-13
 -1      3896 1.63635E+01-2.09467E+00 4.05785E-02 3.80755E+00 3.79925E-13 2.92258E-13
 -1      3897 1.98364E+01 3.49696E-01 3.87579E-04 2.09352E-01-8.03258E-14 1.89608E-13
 -1      3898 1.36974E+01 9.33830E-01-5.35293E-03-1.23290E+00 1.58806E-13-1.92520E-13
 -1      3899 2.77438E+01 1.34785E+00 1.30699E+00-7.25786E+00 1.84082E-11-9.77307E-12
 -1      3900 2.87736E+01 1.80318E+00 9.19011E-01-5.82102E+00 1.64835E-11-7.89674E-12
 -1      3901 2.88318E+01 2.78634E+00 5.18312E-01-5.30108E+00 1.74770E-11-8.28115E-12
 -1      3902 2.49390E+01 3.50399E+00 9.38118E-01-6.96570E+00 1.84790E-11-8.07032E-12
 -1      3903 2.11034E+01 4.92421E+00 2.15559E+00-7.35664E+00 2.07389E-11-7.33938E-12
 -1      3904 1.97686E+01 3.80004E-01-8.75170E-04 5.56807E-02-1.55017E-13-5.68592E-13
 -1      3905 1.97814E+01 3.72341E-01-8.15661E-04 9.38207E-02-6.98598E-14-5.23544E-13
 -1      3906 1.97290E+01 4.19632E-01 8.09836E-04 3.33207E-02-1.83861E-13-6.76392E-13
 -1      3907 1.96194E+01 1.21797E+00-3.26387E-03-1.23019E-01 6.10182E-14-2.68173E-13
 -1      3908 1.95907E+01 1.25748E+00-2.45678E-03-1.69083E-01 4.60718E-14-3.05210E-13
 -1      3909 1.96749E+01 1.03261E+00 4.69331E-03-1.53720E-01 5.20502E-14-2.65573E-13
 -1      3910 1.98148E+01 3.40769E-01-8.38060E-04-1.63743E-01-1.87895E-13-2.56144E-13
 -1      3911 2.15205E+01-3.50444E+00 4.34405E-04 1.96365E+00 2.98404E-13 6.02547E-13
 -1      3912 2.08214E+01-3.26041E+00 5.82314E-02 2.37298E+00 3.06900E-13 5.19298E-13
 -1      3913 2.19439E+01-3.23595E+00-4.04193E-02 1.23787E+00 2.54619E-13 7.27357E-13
 -1      3914 1.97888E+01 3.73331E-01-6.99151E-04 1.39242E-01-3.69145E-14-9.98860E-14
 -1      3915 1.98126E+01 3.56616E-01-6.42203E-04 1.65754E-01-4.95574E-14 2.40689E-13
 -1      3916 1.97762E+01 4.08641E-01 7.53848E-04 2.19118E-01-1.64201E-13 1.56702E-13
 -1      3917 1.97409E+01 4.17656E-01 4.49198E-05 1.28747E-01-1.65825E-13-2.71726E-13
 -1      3918 1.29515E+01 1.09553E+00 9.01803E-02 1.88306E-02 8.84919E-14-2.04187E-13
 -1      3919 1.33615E+01 9.41251E-01-1.99901E-02-6.58231E-01 8.98906E-14-1.29794E-13
 -1      3920 1.35971E+01 9.51295E-01 5.14964E-03 8.93568E-01 6.66949E-14 7.73097E-14
 -1      3921 1.86611E+01 8.56655E-01 1.52149E-03-1.33499E+00-9.60283E-14 2.34628E-14
 -1      3922 1.87533E+01 8.17616E-01-5.72500E-03-1.23860E+00-4.36055E-14 1.39146E-14
 -1      3923 1.86000E+01 8.75983E-01 5.29352E-03-1.09436E+00-2.05541E-14 3.89302E-14
 -1      3924 1.82639E+01 9.65536E-01 6.69621E-03-1.25663E+00-8.13538E-14 5.45133E-14
 -1      3925 1.94560E+01 1.30815E+00-3.93584E-03-4.23374E-01-9.16142E-14-2.37921E-13
 -1      3926 1.94781E+01 9.92853E-01 3.34834E-03-3.36210E-01-1.08953E-13-2.07361E-13
 -1      3927 1.94938E+01 9.71212E-01-6.58427E-04-2.98604E-01-8.48148E-14-1.93986E-13
 -1      3928 1.94614E+01 1.36880E+00-4.55081E-03-3.69838E-01-6.22462E-14-3.04222E-13
 -1      3929 1.36435E+01 1.15171E+00 5.17222E-02-4.49873E-01 1.98556E-13-1.65885E-13
 -1      3930 1.45755E+01 1.05624E+00 8.25994E-04-1.13059E+00 1.20698E-13-1.62031E-13
 -1      3931 1.76491E+01-1.51755E+00-3.51054E-03 2.88075E+00 1.64379E-13 2.50639E-13
 -1      3932 1.74251E+01-1.99903E+00-1.98729E-02 3.32027E+00 2.46097E-13 2.66715E-13
 -1      3933 1.56275E+01-1.06934E+00 9.00945E-02 3.38499E+00 2.49478E-13 2.21928E-13
 -1      3934 1.74047E+01-9.45897E-01 1.29882E-02 2.58169E+00 9.77794E-14 2.03918E-13
 -1      3935 1.97062E+01 1.00411E+00-1.56347E-03-4.98071E-02 9.66569E-14-2.36695E-13
 -1      3936 1.97170E+01 8.87242E-01 9.30452E-04-1.36161E-01 7.90867E-14-2.51059E-13
 -1      3937 1.93942E+01 4.36976E-01-3.07992E-04-6.32615E-02-7.68747E-14-1.98544E-13
 -1      3938 1.93458E+01 4.02875E-01-6.54887E-04-2.49142E-02-5.67957E-14-1.88885E-13
 -1      3939 1.92877E+01 3.84380E-01-6.44018E-04 1.56546E-03-4.67434E-14-1.88418E-13
 -1      3940 1.92294E+01 3.79371E-01-2.29275E-04 3.69727E-02-4.88331E-14-1.91883E-13
 -1      3941 1.93454E+01 4.26124E-01 1.23271E-03-6.02787E-02-4.83771E-14-2.24999E-13
 -1      3942 1.91566E+01 3.85483E-01-1.06551E-03 6.42167E-02-4.41519E-14-1.81938E-13
 -1      3943 1.90899E+01 4.01857E-01 9.25907E-05 1.00458E-01-6.85511E-14-1.53329E-13
 -1      3944 1.92156E+01 4.14162E-01 1.30565E-03-8.23773E-03-4.99614E-14-1.78588E-13
 -1      3945 1.90032E+01 4.25230E-01-1.55946E-03 1.31603E-01-8.75129E-14-1.37558E-13
 -1      3946 1.89286E+01 4.55912E-01 3.91420E-04 1.72198E-01-7.31626E-14-1.36137E-13
 -1      3947 1.90590E+01 4.47704E-01 1.47776E-03 4.76548E-02-6.53073E-14-1.48554E-13
 -1      3948 1.88276E+01 4.89478E-01-2.11118E-03 2.10536E-01-7.19094E-14-1.22433E-13
 -1      3949 1.87456E+01 5.27079E-01 6.88612E-04 2.58941E-01-7.05709E-14-1.27355E-13
 -1      3950 1.88762E+01 5.12485E-01 1.82195E-03 1.13412E-01-7.28542E-14-1.11616E-13
 -1      3951 1.86295E+01 5.63097E-01-2.78785E-03 3.07904E-01-1.62327E-14-1.10984E-13
 -1      3952 1.85409E+01 5.99890E-01 1.12282E-03 3.67526E-01 3.57496E-14-6.23325E-14
 -1      3953 1.86658E+01 5.93873E-01 2.27342E-03 1.96020E-01 2.92861E-15-5.34942E-14
 -1      3954 1.84085E+01 6.29648E-01-3.56670E-03 4.31616E-01-2.63593E-15-7.50257E-14
 -1      3955 1.83158E+01 6.55921E-01 1.80012E-03 5.06507E-01-7.39358E-15-8.01449E-14
 -1      3956 1.84256E+01 6.75464E-01 2.52057E-03 3.02382E-01 3.44126E-14-3.61789E-14
 -1      3957 1.81665E+01 6.68387E-01-4.44515E-03 5.91008E-01-4.27868E-15-7.32931E-14
 -1      3958 1.80747E+01 6.72275E-01 2.93716E-03 6.86063E-01 2.08220E-14-5.50303E-14
 -1      3959 1.81547E+01 7.39138E-01 2.92641E-03 4.43392E-01 5.38404E-15-7.72960E-14
 -1      3960 1.79086E+01 6.53654E-01-5.47628E-03 7.98677E-01 4.88818E-14-5.69718E-14
 -1      3961 1.78275E+01 6.19848E-01 4.82531E-03 9.20322E-01 6.52278E-15 5.22951E-15
 -1      3962 1.78522E+01 7.61525E-01 3.14904E-03 6.31773E-01 3.53339E-14-5.58246E-14
 -1      3963 1.76476E+01 5.51815E-01-6.52762E-03 1.07228E+00-1.86863E-14 1.19081E-14
 -1      3964 1.75955E+01 4.59417E-01 7.90108E-03 1.22833E+00-1.14806E-14 6.19724E-14
 -1      3965 1.75209E+01 7.13127E-01 2.98708E-03 8.87620E-01 1.40270E-14 3.11803E-14
 -1      3966 1.74116E+01 3.17226E-01-6.88166E-03 1.43459E+00 5.67731E-14 8.55621E-14
 -1      3967 1.74222E+01 1.38685E-01 1.36264E-02 1.63151E+00 1.28943E-13 1.32231E-13
 -1      3968 1.71715E+01 5.52304E-01 1.95533E-03 1.23963E+00 7.21589E-14 1.36810E-13
 -1      3969 1.72623E+01-1.13132E-01-3.49863E-03 1.91342E+00 7.49724E-14 1.54093E-13
 -1      3970 1.73908E+01-4.26948E-01 1.80821E-02 2.14568E+00 9.30530E-14 1.66444E-13
 -1      3971 1.68334E+01 2.19207E-01 5.54080E-04 1.72917E+00 1.09774E-13 1.48436E-13
 -1      3972 1.97253E+01 7.33597E-01-1.50134E-04-2.00060E-01 5.87339E-14-2.18999E-13
 -1      3973 1.97004E+01 8.17617E-01-1.29922E-03-1.97185E-01 5.01353E-14-2.31276E-13
 -1      3974 1.97188E+01 6.19216E-01 6.94615E-04-2.77054E-01 4.35849E-14-2.12807E-13
 -1      3975 1.96844E+01 4.65820E-01 1.15844E-03-3.72956E-01 6.44738E-14-1.60244E-13
 -1      3976 1.97006E+01 5.27526E-01-1.47578E-03-3.18340E-01 5.13151E-14-2.02498E-13
 -1      3977 1.96866E+01 5.92251E-01-1.08401E-04-3.00303E-01 3.00031E-14-1.99575E-13
 -1      3978 1.97723E+01 3.83640E-01 7.47676E-04-1.62243E-01-1.13290E-13-4.29570E-13
 -1      3979 2.80753E+01 3.82563E+00 2.58060E-01-4.31366E+00 1.71121E-11-8.48094E-12
 -1      3980 2.84021E+01 4.70270E+00 3.97699E-01-3.52791E+00 1.53444E-11-1.47320E-11
 -1      3981 2.61487E+01 4.12491E+00 3.91792E-01-4.81493E+00 1.59240E-11-7.62784E-12
 -1      3982 2.78190E+01 5.96525E+00 8.31326E-01-3.07257E+00 1.04833E-11-1.41810E-11
 -1      3983 2.81653E+01 2.09135E+00 1.68534E+00-3.74869E+00-5.18330E-12-2.24880E-11
 -1      3984 2.52444E+01 5.52066E+00 6.10252E-01-3.51688E+00 7.73598E-12-9.77389E-12
 -1      3985 2.30376E+01-8.07598E-01 8.91992E-01-1.09473E+00-5.84088E-12-6.18128E-12
 -1      3986 1.85939E+01 5.69773E-01-9.62197E-03-1.21739E+00-2.03351E-13-7.34726E-14
 -1      3987 2.53323E+01 2.63781E+00 1.45806E+00-2.45477E+00-2.68174E-13-7.41052E-12
 -1      3988 1.87518E+01 6.47605E-01 4.52976E-03-1.06012E+00-1.98204E-13-1.27231E-13
 -1      3989 1.88122E+01 6.84806E-01-7.78367E-03-9.32762E-01-1.28336E-13-1.51282E-13
 -1      3990 1.84726E+01 7.37420E-01 4.41433E-03-1.03467E+00-2.27994E-13-7.78083E-14
 -1      3991 1.89558E+01 7.12911E-01 2.72534E-03-8.16543E-01-5.59552E-14-7.41369E-14
 -1      3992 1.90261E+01 7.14802E-01-5.72459E-03-7.18052E-01 7.42299E-14-1.80535E-13
 -1      3993 1.87473E+01 7.94757E-01 4.43815E-03-7.77026E-01-8.21352E-14 9.40912E-14
 -1      3994 1.91505E+01 7.10355E-01 1.60763E-03-6.30302E-01-4.16582E-14-1.97660E-13
 -1      3995 1.92211E+01 6.88809E-01-4.31891E-03-5.53299E-01-1.03947E-13-2.38263E-13
 -1      3996 1.89935E+01 7.82076E-01 3.63193E-03-5.85974E-01-7.56605E-14 6.62643E-14
 -1      3997 1.93264E+01 6.64409E-01 8.24620E-04-4.86982E-01 5.01275E-14-2.72412E-13
 -1      3998 1.93913E+01 6.30212E-01-3.26642E-03-4.26319E-01 2.54286E-13-3.06455E-13
 -1      3999 1.92073E+01 7.27643E-01 3.00237E-03-4.44018E-01 4.38953E-15-1.88886E-14
 -1      4000 1.94787E+01 5.95254E-01 3.77098E-04-3.75170E-01 3.55479E-13-4.24951E-13
 -1      4001 1.95354E+01 5.54597E-01-2.66182E-03-3.26854E-01 4.08039E-13-3.46435E-13
 -1      4002 1.93880E+01 6.50431E-01 2.34301E-03-3.36241E-01 3.08335E-13-3.04239E-13
 -1      4003 1.96075E+01 5.15794E-01 2.78011E-04-2.88081E-01 2.19025E-13-3.78283E-13
 -1      4004 1.96539E+01 4.74186E-01-2.27197E-03-2.49579E-01-6.99627E-14-5.08137E-13
 -1      4005 1.95386E+01 5.63229E-01 1.92173E-03-2.54591E-01 2.35959E-13-4.90683E-13
 -1      4006 1.96967E+01 4.48949E-01 5.44440E-04-2.17469E-01-2.30918E-13-5.39756E-13
 -1      4007 1.97355E+01 4.09457E-01-1.33922E-03-1.87283E-01-2.46153E-13-4.74632E-13
 -1      4008 1.97151E+01 4.26364E-01 6.74940E-05-1.35758E-01-1.40891E-13-4.41216E-13
 -1      4009 1.96425E+01 4.88500E-01 1.13106E-03-1.89393E-01-1.65045E-13-5.28875E-13
 -1      4010 1.95176E+01 1.25983E+00-3.42566E-03-2.77149E-01-9.94421E-15-2.98639E-13
 -1      4011 1.94907E+01 1.33557E+00 3.45931E-04-3.28255E-01-4.56465E-14-3.24161E-13
 -1      4012 1.95278E+01 1.12047E+00 4.69864E-03-3.03498E-01-6.33156E-14-2.60700E-13
 -1      4013 1.86644E+01 1.02524E+00-5.74901E-03 6.38935E-01-4.49216E-14-1.65755E-13
 -1      4014 1.84871E+01 1.07709E+00-2.19201E-03 7.05567E-01 5.74611E-14-9.77227E-14
 -1      4015 1.61347E+01 8.31317E-01 1.19281E-03-1.94121E+00 5.08480E-14-1.12646E-13
 -1      4016 1.64524E+01 9.47268E-01-2.32273E-02-1.70570E+00 8.48904E-14-6.91817E-14
 -1      4017 1.55098E+01 1.05219E+00 3.86445E-02-1.65600E+00 1.22383E-13-1.09089E-13
 -1      4018 1.73788E+01 1.07926E+00 1.30628E-04-1.27678E+00-1.38858E-14-6.08327E-14
 -1      4019 1.76089E+01 1.06552E+00-9.47332E-03-1.17191E+00-7.05485E-14-4.24124E-14
 -1      4020 1.90003E+01 9.08653E-01-4.38163E-03 5.38058E-01-2.80888E-13 2.44898E-14
 -1      4021 1.88618E+01 9.70083E-01-1.91345E-03 5.95413E-01-1.84054E-13-4.68556E-14
 -1      4022 1.86421E+01 1.05465E+00 7.18185E-03 4.63490E-01-1.56763E-13-5.93252E-14
 -1      4023 1.82298E+01 1.11743E+00-8.03767E-03 7.56534E-01 1.74331E-14-1.85870E-13
 -1      4024 1.80053E+01 1.15042E+00-2.14065E-03 8.39586E-01 1.31090E-14-1.31610E-13
 -1      4025 1.82047E+01 1.16681E+00 1.00287E-02 5.32180E-01 3.82057E-14-2.28346E-13
 -1      4026 1.97250E+01 9.42546E-01 5.99863E-04-1.97054E-02 1.23770E-13-2.01608E-13
 -1      4027 1.92603E+01 7.83169E-01-3.31592E-03 4.48866E-01-1.86506E-13 7.49291E-14
 -1      4028 1.91534E+01 8.46925E-01-1.40683E-03 4.99359E-01-2.44915E-13 1.09477E-13
 -1      4029 1.89812E+01 9.27345E-01 5.62793E-03 3.99272E-01-2.94304E-13 2.23943E-13
 -1      4030 1.94599E+01 6.60014E-01-2.68241E-03 3.69203E-01-3.88741E-13 2.38385E-13
 -1      4031 1.93786E+01 7.21445E-01-9.50618E-04 4.13841E-01-2.55416E-13 1.12360E-13
 -1      4032 1.92437E+01 7.95699E-01 4.38603E-03 3.39447E-01-2.25017E-13 2.46826E-13
 -1      4033 1.96118E+01 5.45259E-01-2.58056E-03 2.99713E-01-1.97695E-13 3.45859E-13
 -1      4034 1.95516E+01 6.01738E-01-6.29214E-04 3.37915E-01-3.65075E-13 3.29737E-13
 -1      4035 1.94472E+01 6.69025E-01 3.69835E-03 2.82649E-01-4.10908E-13 2.43291E-13
 -1      4036 1.97238E+01 4.49399E-01-1.65982E-03 2.40999E-01-9.40376E-14 1.59147E-13
 -1      4037 1.96776E+01 5.00057E-01-1.62743E-05 2.74206E-01 1.62859E-14 2.71302E-13
 -1      4038 1.95942E+01 5.59673E-01 2.75886E-03 2.34091E-01-1.33844E-13 3.25344E-14
 -1      4039 1.97062E+01 4.62835E-01 1.78275E-03 1.94028E-01-1.11564E-13 1.02126E-13
 -1      4040 1.56527E+01 7.45233E-01 7.94873E-03 1.87705E+00-5.45315E-14 5.83422E-14
 -1      4041 1.45615E+01 9.66402E-01 5.12660E-02 1.46061E+00-3.08217E-15 1.84170E-13
 -1      4042 1.44517E+01 1.06295E+00-2.15314E-02 8.07129E-01 4.08167E-14-2.18766E-14
 -1      4043 1.60464E+01 9.19865E-01-2.51016E-02 1.57277E+00-1.29778E-13 5.34241E-14
 -1      4044 1.25094E+01 8.17161E-01 7.51597E-02 9.85231E-01 2.65044E-13 3.76088E-15
 -1      4045 1.29550E+01 9.37152E-01 6.83675E-03 2.68416E-01 2.42723E-13-1.54645E-13
 -1      4046 1.32118E+01 5.14931E-01 2.85111E-04 1.55812E+00 2.45824E-13 9.34582E-14
 -1      4047 1.93986E+01 4.54792E-01 6.84659E-04-7.88944E-01-1.58643E-14-1.03658E-13
 -1      4048 1.94351E+01 4.10801E-01-2.04933E-03-7.39050E-01 2.10420E-14-1.23395E-13
 -1      4049 1.92564E+01 5.26541E-01 2.12799E-03-7.59134E-01-3.30007E-14-9.59524E-14
 -1      4050 2.00415E+01-3.00103E+00 3.51539E-02 2.63319E+00 3.41558E-13 4.90909E-13
 -1      4051 1.68167E+01 1.02291E+00 5.74473E-04-1.54193E+00 6.60497E-14-1.07495E-13
 -1      4052 1.70910E+01 1.05662E+00-1.50395E-02-1.38840E+00 3.86663E-14-6.28653E-14
 -1      4053 1.69677E+01 1.18782E+00 1.62733E-02-1.06859E+00 5.19837E-15-1.41056E-13
 -1      4054 1.63841E+01 1.17083E+00 2.69020E-02-1.30397E+00 5.04879E-14-1.14760E-13
 -1      4055 1.95638E+01 1.27554E+00-2.65588E-03-2.01534E-01 3.56501E-14-3.10532E-13
 -1      4056 1.95408E+01 1.27818E+00-2.64054E-03-2.48317E-01 5.52649E-15-3.01136E-13
 -1      4057 1.96223E+01 1.10005E+00 5.42693E-03-2.00209E-01 1.53970E-14-2.86904E-13
 -1      4058 1.94714E+01 5.60067E-01-5.53342E-05-1.37432E-01-8.54249E-14-1.97896E-13
 -1      4059 1.94353E+01 4.88306E-01-1.18813E-03-9.22245E-02-1.01518E-13-1.91687E-13
 -1      4060 1.94459E+01 4.99424E-01 1.34489E-03-1.14187E-01-9.17294E-14-2.46572E-13
 -1      4061 1.95156E+01 7.75147E-01 2.57366E-03-2.26251E-01-8.25755E-14-2.11827E-13
 -1      4062 1.94922E+01 6.51657E-01-2.23703E-03-1.71519E-01-6.93260E-14-2.05844E-13
 -1      4063 1.95106E+01 6.50622E-01 1.34180E-03-1.75905E-01-7.31767E-14-2.39106E-13
 -1      4064 1.78994E+01 1.03913E+00-1.11797E-03-1.10281E+00-6.22986E-14 2.93656E-16
 -1      4065 1.80861E+01 9.95265E-01-6.97933E-03-1.02456E+00-6.49248E-14 4.26080E-14
 -1      4066 1.75167E+01 1.13752E+00 1.06857E-02-9.20598E-01-5.64675E-14-6.19418E-14
 -1      4067 1.84802E+01 3.93616E+00 2.11174E+00-3.87382E+00 1.05288E-11-4.85839E-12
 -1      4068 2.22918E+01 6.19910E+00 2.37636E+00-7.76523E+00 2.30036E-11-7.75888E-12
 -1      4069 1.49520E+01-5.38897E-01 1.13645E-03 2.81922E+00 2.03906E-13 1.36299E-13
 -1      4070 1.96740E+01 8.62586E-01-1.96464E-03-2.10183E-01 3.11130E-14-2.36459E-13
 -1      4071 1.38269E+01 1.02071E+00-1.45494E-02 2.08619E-01 1.76783E-13-1.23565E-13
 -1      4072 1.66543E+01-5.07003E-01 9.73955E-03 2.50959E+00 1.24400E-13 1.82795E-13
 -1      4073 1.95688E+01 1.10521E+00 4.53872E-03-2.48704E-01-2.42608E-14-2.76682E-13
 -1      4074 1.96480E+01 4.16512E-01-1.32603E-03-4.06076E-01 4.30134E-14-1.43440E-13
 -1      4075 1.96354E+01 4.62934E-01-1.19662E-04-3.76571E-01 3.53020E-14-1.42758E-13
 -1      4076 1.96183E+01 3.90982E-01 6.53202E-04-4.50089E-01 5.08954E-14-1.34329E-13
 -1      4077 1.86432E+01 8.25996E-01-8.84677E-04-8.67073E-01 2.68600E-15 1.49800E-14
 -1      4078 1.87634E+01 7.61582E-01-3.89072E-03-8.14320E-01 3.57596E-14-1.70849E-14
 -1      4079 1.93951E+01 4.34859E-01 1.49963E-03-6.76621E-01 1.80323E-15-1.81930E-13
 -1      4080 1.96581E+01 4.74587E-01 7.35594E-04-1.04377E-01-1.16792E-13-4.98085E-13
 -1      4081 1.96914E+01 4.42177E-01-8.22267E-04-8.15846E-02-1.25076E-13-5.63462E-13
 -1      4082 1.96809E+01 4.54128E-01 1.66971E-04-3.19985E-02-4.78859E-14-9.16665E-13
 -1      4083 1.51487E+01 1.12600E+00-1.95123E-02-9.79812E-01 1.17503E-13-1.42438E-13
 -1      4084 1.89083E+01 6.98756E-01-4.95093E-04-7.78153E-01 2.91873E-14-8.55208E-14
 -1      4085 1.90021E+01 6.35719E-01-3.83130E-03-7.33459E-01-1.81810E-14-9.80923E-14
 -1      4086 1.87195E+01 7.75486E-01 5.23488E-03-6.85778E-01-1.90251E-14-1.04615E-13
 -1      4087 1.76405E+01 1.24699E+00 1.38559E-02 6.20555E-01 5.01878E-14-2.58693E-13
 -1      4088 1.76718E+01 1.16073E+00-1.19697E-02 9.10236E-01 6.22598E-14-7.53859E-14
 -1      4089 1.74017E+01 1.15886E+00-8.22344E-04 1.02683E+00-2.57947E-14-2.15669E-14
 -1      4090 2.27220E+01 5.12637E+00 1.05668E+00-6.35414E+00 1.84726E-11-6.00558E-12
 -1      4091 2.43717E+01 4.71898E+00 7.04320E-01-5.45997E+00 1.72038E-11-5.81457E-12
 -1      4092 2.37441E+01 5.30391E+00 4.58532E-01-4.49816E+00 1.43774E-11-6.25815E-12
 -1      4093 2.00959E+01 6.74958E+00 1.66544E+00-6.19238E+00 2.10527E-11-2.21399E-12
 -1      4094 1.96802E+01 4.54716E-01-1.01439E-03 2.75669E-02-8.89455E-14-7.19645E-13
 -1      4095 1.96923E+01 4.55249E-01 1.19410E-03 7.94230E-02-9.41134E-14-5.92994E-13
 -1      4096 1.96378E+01 4.92935E-01 3.68344E-04 1.50496E-02 4.49605E-14-7.34671E-13
 -1      4097 1.96924E+01 4.55592E-01-8.93476E-04 1.27460E-01-1.16247E-13-2.72975E-13
 -1      4098 1.94311E+01 4.07566E-01-2.74576E-04-5.67375E-01 8.55505E-14-1.29963E-13
 -1      4099 1.94820E+01 3.86357E-01-1.08559E-03-5.31859E-01 6.98792E-14-1.25370E-13
 -1      4100 1.95355E+01 3.77351E-01 5.88633E-05-5.10285E-01 6.22375E-14-1.21918E-13
 -1      4101 1.95767E+01 3.77657E-01-7.63689E-04-4.72995E-01 7.65802E-14-1.09428E-13
 -1      4102 1.95586E+01 4.11613E-01 2.83717E-04-4.33486E-01 4.68121E-14-8.94010E-14
 -1      4103 1.94652E+01 4.15002E-01 1.44281E-03-4.77327E-01 8.30115E-14-1.25616E-13
 -1      4104 1.69529E+01 1.11993E+00-1.79945E-02 1.13568E+00-1.38957E-13 2.63548E-15
 -1      4105 1.66357E+01 1.06725E+00 6.22210E-03 1.30825E+00-1.10902E-13-3.84798E-14
 -1      4106 1.68974E+01 1.27301E+00 1.84286E-02 7.48487E-01-7.09901E-14-8.39979E-14
 -1      4107 1.95151E+01 9.42933E-01 2.13386E-04-2.70701E-01-7.68915E-14-2.27517E-13
 -1      4108 1.44501E+01 9.77167E-01 1.00509E-03-8.15732E-01 6.99397E-14-9.02178E-14
 -1      4109 1.83127E+01 9.45823E-01-1.21654E-03-9.72547E-01-4.37712E-14 2.65257E-14
 -1      4110 1.84635E+01 8.86629E-01-5.08374E-03-9.09756E-01 1.06590E-14 5.10113E-14
 -1      4111 1.84043E+01 9.09514E-01 5.84848E-03-7.51772E-01-1.06944E-14-3.93045E-14
 -1      4112 1.80132E+01 1.03594E+00 7.89785E-03-8.27209E-01-3.96101E-14-4.55053E-14
 -1      4113 1.59193E+01 1.18423E+00 2.43587E-02 1.05660E+00-8.52113E-14 1.10469E-14
 -1      4114 1.95453E+01 7.14504E-01-1.05379E-03-2.09632E-01-5.69734E-14-2.57950E-13
 -1      4115 1.95236E+01 6.14528E-01-1.13804E-03-1.77695E-01-8.20213E-14-2.53532E-13
 -1      4116 1.94930E+01 5.38364E-01-6.84764E-04-1.64409E-01-6.86361E-14-2.37568E-13
 -1      4117 1.94509E+01 4.83514E-01-8.12980E-04-1.36699E-01-5.85300E-14-2.22702E-13
 -1      4118 1.95371E+01 6.03969E-01 2.06095E-03-1.98606E-01-5.61249E-14-2.21863E-13
 -1      4119 1.92723E+01 4.22833E-01-1.05048E-03-8.57992E-02-3.21695E-14-1.56881E-13
 -1      4120 1.92005E+01 4.31166E-01-4.09200E-04-6.08167E-02-4.79562E-14-1.51029E-13
 -1      4121 1.91144E+01 4.49824E-01-1.40316E-03-4.41045E-02-6.38727E-14-1.47215E-13
 -1      4122 1.90299E+01 4.78232E-01-2.73420E-04-1.62410E-02-7.40438E-14-1.45122E-13
 -1      4123 1.91819E+01 4.64371E-01 1.81810E-03-1.23884E-01-6.74771E-14-1.69467E-13
 -1      4124 1.89265E+01 5.13028E-01-1.93282E-03 5.47641E-03-9.47521E-14-9.81209E-14
 -1      4125 1.88287E+01 5.55078E-01-1.95150E-04 3.89913E-02-5.83601E-14-7.90764E-14
 -1      4126 1.89965E+01 5.23606E-01 2.16090E-03-8.95938E-02-5.52884E-14-1.26551E-13
 -1      4127 1.87071E+01 5.98849E-01-2.46011E-03 6.80530E-02-1.82272E-15-8.40990E-14
 -1      4128 1.85945E+01 6.46659E-01-3.31767E-04 1.09584E-01 2.53285E-14-7.95914E-14
 -1      4129 1.87797E+01 6.12494E-01 3.90290E-03-4.31558E-02-3.11376E-14-4.20739E-14
 -1      4130 1.84487E+01 6.93435E-01-3.94661E-03 1.52075E-01 3.26351E-14-9.84869E-14
 -1      4131 1.83250E+01 7.40887E-01 6.30121E-04 2.07360E-01 1.50521E-14-1.09710E-13
 -1      4132 1.85169E+01 7.22017E-01 6.05948E-03 2.16781E-02 1.68386E-14-1.25830E-13
 -1      4133 1.81509E+01 7.78109E-01-5.63594E-03 2.64625E-01-2.84115E-15-7.00569E-14
 -1      4134 1.80139E+01 8.15587E-01 1.25184E-03 3.37877E-01 3.54564E-14-2.06740E-14
 -1      4135 1.82155E+01 8.27264E-01 9.00221E-03 1.09566E-01 3.85906E-14-8.44950E-14
 -1      4136 1.78060E+01 8.35198E-01-7.60116E-03 4.18505E-01 6.14823E-14-5.47298E-14
 -1      4137 1.76566E+01 8.51396E-01 2.29418E-03 5.17631E-01 3.57892E-14-1.91221E-14
 -1      4138 1.78560E+01 9.17359E-01 1.19906E-02 2.33772E-01 1.50595E-14-3.75245E-14
 -1      4139 1.74067E+01 8.40001E-01-1.03933E-02 6.30999E-01 2.88344E-14 2.44487E-14
 -1      4140 1.72494E+01 8.21390E-01 4.23272E-03 7.67664E-01 6.75900E-14 7.41935E-14
 -1      4141 1.74300E+01 9.70902E-01 1.57805E-02 4.11137E-01 3.73684E-14-5.89240E-14
 -1      4142 1.69439E+01 7.60101E-01-1.50340E-02 9.30603E-01 6.83623E-14 9.63607E-14
 -1      4143 1.67908E+01 6.86943E-01 7.26416E-03 1.12151E+00 9.80353E-14 1.26722E-13
 -1      4144 1.69173E+01 9.64602E-01 2.03636E-02 6.63352E-01 7.17217E-14-2.31028E-14
 -1      4145 1.64133E+01 5.54286E-01-2.05327E-02 1.35792E+00 5.32509E-14 1.55315E-13
 -1      4146 1.62789E+01 3.88211E-01 8.55322E-03 1.63896E+00 9.21268E-14 1.07846E-13
 -1      4147 1.62856E+01 8.50409E-01 1.89095E-02 1.02271E+00 8.69283E-14-3.55315E-14
 -1      4148 1.92392E+01 7.69976E-01-2.29399E-03 2.22557E-01-2.57018E-13 9.97974E-14
 -1      4149 1.91221E+01 8.33547E-01-2.34037E-03 2.45191E-01-2.01887E-13 8.78098E-14
 -1      4150 1.95365E+01 8.99649E-01-2.61332E-03-2.43237E-01-4.17205E-14-2.55252E-13
 -1      4151 1.92922E+01 4.78802E-01-3.00827E-04-6.30415E-01-1.12103E-14-1.26147E-13
 -1      4152 1.93556E+01 4.38707E-01-1.38057E-03-5.93424E-01 4.54869E-14-1.36582E-13
 -1      4153 1.93414E+01 4.54789E-01 2.09782E-03-5.24140E-01 5.24663E-14-1.00284E-13
 -1      4154 1.96804E+01 7.29840E-01 3.52484E-03-2.48545E-01 9.73986E-15-2.33297E-13
 -1      4155 1.96447E+01 9.03075E-01-2.10397E-03-2.11397E-01 1.88588E-14-2.64168E-13
 -1      4156 2.34594E+01 5.89702E+00 5.70118E-01-3.81582E+00 9.99495E-12-5.76486E-12
 -1      4157 2.28286E+01 5.30082E+00 6.26593E-01-3.82961E+00 5.07766E-12-6.39108E-12
 -1      4158 2.17488E+01 6.28083E+00 8.63981E-01-4.48514E+00 1.13760E-11-3.25605E-12
 -1      4159 2.30967E+01 3.49385E+00 7.34376E-01-3.02151E+00 3.23418E-13-5.56966E-12
 -1      4160 2.27659E+01 1.53998E+00 1.06938E+00-1.38705E+00-1.79384E-12-1.28081E-12
 -1      4161 2.13998E+01 4.40781E+00 7.03672E-01-3.15967E+00 3.00296E-12-2.30738E-12
 -1      4162 2.00966E+01 5.63599E-01 4.59943E-01-5.82146E-01-1.04827E-12-3.30985E-13
 -1      4163 1.83817E+01 8.48228E-01-9.77538E-03-8.17587E-01-2.52399E-13 2.91084E-13
 -1      4164 2.09625E+01 1.90949E+00 7.17812E-01-1.41252E+00 5.61218E-14 1.14908E-13
 -1      4165 1.85825E+01 8.57919E-01 4.07760E-04-6.97886E-01-1.89579E-13 2.36018E-13
 -1      4166 1.87109E+01 8.48787E-01-6.10134E-03-5.98919E-01-4.19342E-14 2.28204E-13
 -1      4167 1.83938E+01 9.51695E-01 7.76726E-03-6.27704E-01-2.44002E-13 3.85326E-13
 -1      4168 1.88700E+01 8.34970E-01 3.63748E-04-5.19909E-01-6.37633E-14 1.59894E-13
 -1      4169 1.89828E+01 8.05051E-01-4.13514E-03-4.44883E-01-1.65344E-13 1.21756E-13
 -1      4170 1.87461E+01 9.04524E-01 6.96109E-03-4.45627E-01-1.10210E-13 1.83469E-13
 -1      4171 1.91145E+01 7.71029E-01 7.46479E-05-3.86381E-01-1.40759E-13 7.57323E-14
 -1      4172 1.92105E+01 7.29550E-01-3.16441E-03-3.30312E-01 4.07730E-14-7.11568E-14
 -1      4173 1.90180E+01 8.29014E-01 3.85838E-03-3.20342E-01-1.05749E-13 4.10026E-14
 -1      4174 1.93192E+01 6.87086E-01 2.95043E-04-2.89316E-01 1.19120E-13-3.24796E-13
 -1      4175 1.93976E+01 6.40454E-01-2.61826E-03-2.46776E-01 2.44625E-13-5.54282E-13
 -1      4176 1.92492E+01 7.34258E-01 3.50083E-03-2.30825E-01-7.16402E-14-4.38935E-13
 -1      4177 1.94846E+01 5.92791E-01-6.75149E-04-2.13230E-01 2.80938E-13-5.79104E-13
 -1      4178 1.95508E+01 5.44587E-01-2.43762E-03-1.82634E-01 9.57674E-14-5.95904E-13
 -1      4179 1.94296E+01 6.37726E-01 3.19220E-03-1.69216E-01 2.03331E-13-6.54789E-13
 -1      4180 1.95874E+01 5.28218E-01 8.08390E-04-1.54589E-01-1.92132E-14-6.28586E-13
 -1      4181 1.96255E+01 4.94509E-01-8.74234E-04-1.25986E-01-1.32413E-13-4.62048E-13
 -1      4182 1.96069E+01 5.12373E-01 4.63648E-04-6.94241E-02 5.63936E-14-9.07287E-13
 -1      4183 1.95470E+01 5.63559E-01 3.44028E-03-1.16326E-01 1.17050E-13-9.18746E-13
 -1      4184 1.51610E+01 1.25662E+00 3.44047E-02-4.16905E-01 1.29986E-13-1.98077E-13
 -1      4185 1.58111E+01 1.16922E+00-6.43314E-03-9.10703E-01 8.97041E-14-1.58135E-13
 -1      4186 1.96157E+01 9.23323E-01-2.31182E-03-2.28511E-01 1.44666E-15-2.68349E-13
 -1      4187 1.86449E+01 1.02474E+00-3.86733E-03 2.76267E-01-3.25240E-13 1.44499E-13
 -1      4188 1.84489E+01 1.08256E+00-4.16837E-03 2.98769E-01-1.70428E-13 8.13150E-14
 -1      4189 1.82113E+01 1.13289E+00-6.46031E-03 2.95642E-01-7.01351E-14-1.81918E-13
 -1      4190 1.79598E+01 1.18237E+00-5.33969E-03 3.16518E-01-1.75149E-14-2.21009E-13
 -1      4191 1.82806E+01 1.12077E+00 1.75228E-03 8.83194E-02-2.44270E-13 3.29977E-15
 -1      4192 1.94363E+01 6.46260E-01-3.34084E-03 1.89364E-01-3.85194E-13-4.18701E-15
 -1      4193 1.93503E+01 7.07728E-01-1.70304E-03 2.12449E-01-3.41061E-13 8.84291E-14
 -1      4194 1.92658E+01 7.60312E-01 4.38265E-03 1.24694E-01-3.50341E-13-4.86861E-14
 -1      4195 1.41483E+01 9.77688E-01 3.21781E-02 8.34035E-01 1.93077E-13 5.56976E-15
 -1      4196 1.45717E+01 1.08347E+00-3.77342E-03 2.18343E-01 1.62637E-13-1.22351E-13
 -1      4197 1.96420E+01 5.46724E-01 1.61749E-03-3.13431E-01 2.32103E-14-1.92392E-13
 -1      4198 1.96580E+01 6.22946E-01-1.46236E-03-2.74671E-01 1.05119E-14-2.20060E-13
 -1      4199 1.96296E+01 6.66129E-01 6.54661E-04-2.59620E-01-1.33248E-14-2.24499E-13
 -1      4200 1.96405E+01 4.98296E-01-1.63222E-03 1.44185E-01-2.94220E-14-2.56110E-13
 -1      4201 1.58848E+01 1.22472E+00-2.16007E-02 4.28834E-01-7.17447E-14-6.02996E-14
 -1      4202 1.53484E+01 1.17748E+00 4.30296E-03 6.17966E-01-1.79305E-14 1.41033E-15
 -1      4203 1.46996E+01 1.27548E+00 5.13492E-02 8.19782E-02 1.59154E-14-1.63574E-13
 -1      4204 1.93994E+01 4.46990E-01-9.10022E-04-1.24260E-01-2.08850E-14-1.89443E-13
 -1      4205 1.93417E+01 4.28066E-01-4.76567E-04-9.92042E-02-7.43811E-15-1.63368E-13
 -1      4206 1.93354E+01 4.47381E-01 1.74969E-03-1.51172E-01-9.03408E-15-1.39451E-13
 -1      4207 1.52771E+01 1.03978E+00-1.36498E-02-7.94597E-01-1.09791E-14-5.37946E-14
 -1      4208 1.91203E+01 5.80155E-01-2.39686E-04-6.99481E-01-4.98925E-14-8.29406E-14
 -1      4209 1.91972E+01 5.25538E-01-2.46251E-03-6.59262E-01-6.33010E-14-1.20804E-13
 -1      4210 1.91734E+01 5.38675E-01 3.17295E-03-5.74767E-01-1.11934E-14-9.62764E-14
 -1      4211 1.89672E+01 6.51896E-01 4.49408E-03-6.26738E-01-4.96443E-14-1.55181E-13
 -1      4212 1.57004E+01 2.27574E-01-1.78115E-02 1.89023E+00 1.39863E-13 7.61786E-14
 -1      4213 1.56263E+01-2.66490E-01 1.54025E-03 2.41794E+00 1.76079E-13 1.19537E-13
 -1      4214 1.41147E+01 4.15446E-01 5.76354E-02 2.02378E+00 2.17142E-13 8.43579E-14
 -1      4215 1.54668E+01 6.26505E-01 2.25373E-02 1.46275E+00 9.13250E-14-2.97852E-15
 -1      4216 1.89798E+01 8.97738E-01-2.95229E-03 2.52230E-01-2.69250E-13 1.04423E-13
 -1      4217 1.88274E+01 9.61374E-01-3.44523E-03 2.74464E-01-3.23883E-13 1.46977E-13
 -1      4218 1.90165E+01 8.86777E-01 5.11117E-03 1.28965E-01-3.31835E-13-7.52854E-14
 -1      4219 1.71762E+01 1.15838E+00-6.85579E-03-6.73747E-01-1.12434E-14-1.51920E-13
 -1      4220 1.74659E+01 1.11658E+00-7.20943E-03-6.41422E-01-3.27868E-14-8.25394E-14
 -1      4221 1.40624E+01 6.76842E-01-9.80953E-03 1.34117E+00 1.53194E-13 4.66263E-14
 -1      4222 1.95651E+01 9.63168E-01-2.68872E-03-2.49731E-01-4.88311E-14-2.52548E-13
 -1      4223 1.95631E+01 8.14109E-01 1.61472E-03-2.20536E-01-4.42522E-14-2.46423E-13
 -1      4224 1.95793E+01 7.78157E-01 1.80975E-03-2.23183E-01-5.75653E-14-2.52344E-13
 -1      4225 1.95894E+01 9.77121E-01-2.13152E-03-2.28358E-01-1.73058E-14-2.67861E-13
 -1      4226 1.94545E+01 4.89427E-01 1.73247E-03-1.75170E-01-2.06905E-14-1.57095E-13
 -1      4227 1.58275E+01 1.14969E+00-2.00106E-02-4.89115E-01 1.88450E-14-1.48225E-13
 -1      4228 1.64810E+01 4.33276E+00 1.16927E+00-3.26097E+00 7.84606E-12 1.09712E-12
 -1      4229 1.86995E+01 1.01322E+00 6.54548E-03 1.20003E-01-3.22076E-13 3.02714E-14
 -1      4230 1.51796E+01 1.14459E+00-7.35190E-03 1.85712E-01 9.18380E-14-9.25922E-14
 -1      4231 1.69134E+01 1.25476E+00-1.23839E-02 3.22890E-01 1.21379E-14-1.55261E-13
 -1      4232 1.64872E+01 1.26032E+00-5.57095E-03 3.65105E-01-5.00892E-14-4.37308E-14
 -1      4233 1.95953E+01 5.19638E-01-1.37446E-03 1.08892E-03 3.84661E-14-7.67288E-13
 -1      4234 1.96080E+01 5.25807E-01 2.70620E-03 6.39816E-02-9.84282E-14-4.75290E-13
 -1      4235 1.95610E+01 5.42740E-01-1.91704E-03-1.95719E-02 1.79316E-14-8.18892E-13
 -1      4236 1.61237E+01 1.29643E+00 2.72470E-02-2.76582E-02-3.23882E-14-1.11498E-13
 -1      4237 1.85374E+01 8.15816E-01-2.69154E-03-5.66978E-01-2.55983E-14-7.69204E-14
 -1      4238 1.86750E+01 7.48842E-01-4.44646E-03-5.40086E-01-1.66040E-14-9.37858E-14
 -1      4239 1.96201E+01 8.18622E-01 1.41436E-03-2.34142E-01-2.09610E-14-2.39194E-13
 -1      4240 1.76498E+01 1.21921E+00-7.80866E-03 3.06177E-01 5.39718E-14-1.90311E-13
 -1      4241 1.73234E+01 1.24584E+00-7.21605E-03 3.35551E-01 2.93386E-14-2.02518E-13
 -1      4242 1.70704E+01 1.28309E+00 1.69789E-02-1.32242E-02 5.72497E-14-1.33280E-13
 -1      4243 2.02620E+01 6.97085E+00 1.70314E+00-4.40542E+00 1.21885E-11-1.05137E-12
 -1      4244 1.95643E+01 4.51521E-01 9.18903E-04-3.58419E-01 3.09527E-14-1.58479E-13
 -1      4245 1.96007E+01 4.87638E-01-1.29484E-03-3.29747E-01 2.46626E-14-1.64950E-13
 -1      4246 1.95707E+01 5.22038E-01 8.15431E-04-2.91570E-01 7.66629E-15-2.00611E-13
 -1      4247 1.77663E+01 1.22199E+00 1.22302E-02 5.86292E-02-2.71150E-14-9.65395E-14
 -1      4248 1.95397E+01 5.78990E-01-4.95246E-04 1.47849E-01-2.35276E-13-2.60884E-13
 -1      4249 1.94729E+01 6.26494E-01 3.59397E-03 8.17738E-02-2.25327E-13-3.63625E-13
 -1      4250 1.47890E+01 7.50292E-01-4.11602E-03 1.21659E+00 1.07419E-13 6.49783E-14
 -1      4251 1.96005E+01 5.28401E-01-1.42714E-03 1.31793E-01-9.48694E-14-2.24181E-13
 -1      4252 1.75076E+01 1.13179E+00 1.54413E-02-4.03002E-01-5.12871E-15-7.52302E-14
 -1      4253 1.77411E+01 1.06637E+00-5.36540E-03-6.36536E-01-3.20341E-14-9.10215E-14
 -1      4254 1.79665E+01 1.00906E+00-5.20117E-03-6.09571E-01 2.29041E-14-8.71066E-14
 -1      4255 1.93992E+01 4.30796E-01-7.48268E-04-4.29311E-01 6.02290E-14-1.43259E-13
 -1      4256 1.94518E+01 4.21715E-01-7.52640E-04-4.08603E-01 6.09551E-14-1.63530E-13
 -1      4257 1.61306E+01 1.18470E+00-1.96221E-02-8.02770E-01 3.15378E-14-1.74750E-13
 -1      4258 1.65711E+01 1.19601E+00-7.40788E-03-7.64673E-01 2.44798E-14-1.43277E-13
 -1      4259 1.68439E+01 1.18323E+00-1.23258E-02-6.90088E-01 1.65610E-14-1.17351E-13
 -1      4260 1.69257E+01 1.22594E+00 2.28188E-02-3.81278E-01 5.39432E-14-1.26472E-13
 -1      4261 1.61856E+01 1.28434E+00 2.91874E-02-3.69326E-01 6.82189E-14-6.07997E-14
 -1      4262 1.92404E+01 4.83302E-01-1.75796E-03-4.66641E-01 1.56265E-14-1.06652E-13
 -1      4263 1.93184E+01 4.52317E-01-1.51679E-03-4.42287E-01 6.51730E-15-1.31861E-13
 -1      4264 1.93158E+01 4.62738E-01 1.29901E-03-3.72486E-01 2.62525E-14-1.39313E-13
 -1      4265 1.81843E+01 9.47007E-01-3.76263E-03-6.01807E-01-1.53924E-15-8.03492E-14
 -1      4266 1.83629E+01 8.81462E-01-3.80729E-03-5.76948E-01-4.93509E-14-1.11888E-13
 -1      4267 1.79880E+01 1.01161E+00 1.11839E-02-4.20629E-01 1.90154E-14-8.33833E-14
 -1      4268 1.83709E+01 8.77430E-01 7.59400E-03-4.25555E-01-1.51199E-14-6.93922E-14
 -1      4269 1.64365E+01 1.16813E+00-1.22377E-02-4.83848E-01 5.74823E-14-1.54564E-13
 -1      4270 1.87747E+01 9.52319E-01-2.16014E-03-2.04119E-02-3.24542E-13-4.12994E-15
 -1      4271 1.86086E+01 1.00983E+00-3.15666E-04-4.04577E-02-2.32006E-13 7.48133E-14
 -1      4272 1.90683E+01 5.07862E-01-1.71168E-03-1.88070E-01-2.74800E-14-9.06742E-14
 -1      4273 1.89665E+01 5.48144E-01-1.16556E-03-1.71762E-01-3.21970E-14-4.08143E-14
 -1      4274 1.88485E+01 5.95381E-01-2.69554E-03-1.62780E-01-3.48758E-14-5.41071E-16
 -1      4275 1.87236E+01 6.47269E-01-2.76344E-03-1.36676E-01-5.67196E-15 4.20892E-14
 -1      4276 1.89426E+01 5.94334E-01 4.22404E-03-2.65975E-01-6.36115E-15 4.03016E-14
 -1      4277 1.85725E+01 7.28610E-01-2.60141E-03-2.12362E-01-4.01007E-14-1.59967E-14
 -1      4278 1.84213E+01 7.85801E-01-3.41035E-03-1.84172E-01-6.77447E-15-2.12705E-14
 -1      4279 1.82402E+01 8.45283E-01-7.02141E-03-1.74763E-01 4.45391E-14-9.26932E-14
 -1      4280 1.80668E+01 9.03422E-01-4.96838E-03-1.33103E-01 5.17629E-14-8.44448E-14
 -1      4281 1.78428E+01 9.55319E-01-1.02181E-02-1.15283E-01-9.15788E-15-4.56315E-14
 -1      4282 1.76370E+01 1.00414E+00-6.77017E-03-5.43796E-02-2.72938E-14-4.05828E-14
 -1      4283 1.73541E+01 1.04106E+00-1.41768E-02-2.42354E-02 1.33945E-14-5.47631E-14
 -1      4284 1.71039E+01 1.06883E+00-1.00820E-02 6.49797E-02 4.19460E-14-3.41088E-14
 -1      4285 1.67701E+01 1.08324E+00-1.93711E-02 9.61920E-02 6.12041E-14-3.51980E-14
 -1      4286 1.64658E+01 1.08125E+00-1.28510E-02 2.25787E-01 8.94806E-14-1.90886E-14
 -1      4287 1.97165E+01 6.52439E+00 1.40210E+00-3.95722E+00 7.56573E-12-7.58362E-13
 -1      4288 1.95864E+01 6.26696E-01-7.66889E-04-2.42083E-01-4.28941E-14-2.23693E-13
 -1      4289 1.95534E+01 5.50862E-01-1.12746E-03-2.31366E-01-2.04041E-14-1.90873E-13
 -1      4290 1.53149E+01 8.40846E-01-1.43555E-02 1.01963E+00 7.74799E-14 5.03423E-14
 -1      4291 1.95147E+01 4.98072E-01-9.45204E-04-2.44286E-01 7.46977E-15-2.02787E-13
 -1      4292 2.01567E+01 3.08915E+00 8.43934E-01-1.79307E+00 1.72334E-13-3.19397E-13
 -1      4293 1.93333E+01 1.89917E+00 5.85754E-01-9.74013E-01-2.02685E-13 4.92439E-13
 -1      4294 1.88658E+01 1.31191E+00 2.89968E-01-4.97938E-01-2.50796E-13 1.04944E-13
 -1      4295 1.82686E+01 1.05432E+00-3.25437E-03-2.55946E-01-3.05842E-13 8.20223E-14
 -1      4296 1.86222E+01 9.46369E-01-3.63973E-03-3.56732E-01-2.69162E-13 1.86175E-13
 -1      4297 1.87817E+01 9.09477E-01-4.39958E-03-2.83193E-01-1.68519E-13-2.29210E-14
 -1      4298 1.89402E+01 8.62698E-01-8.94070E-04-2.39368E-01-2.14366E-13-8.41748E-14
 -1      4299 1.90653E+01 8.14151E-01-2.90200E-03-1.93379E-01-1.88665E-13-1.67839E-13
 -1      4300 1.88681E+01 9.17171E-01 4.72854E-03-1.43053E-01-2.20737E-13-2.49949E-14
 -1      4301 1.91878E+01 7.61476E-01-1.37516E-03-1.63891E-01-1.66812E-13-3.74958E-13
 -1      4302 1.92888E+01 7.08695E-01-2.43714E-03-1.32400E-01-5.23366E-14-4.41446E-13
 -1      4303 1.91388E+01 8.05010E-01 3.66105E-03-8.65044E-02-2.93436E-13-1.89614E-13
 -1      4304 1.93339E+01 6.92966E-01-1.57647E-03-3.87646E-02-1.29905E-13-3.63858E-13
 -1      4305 1.94239E+01 6.39847E-01-1.13304E-03-2.11906E-02-5.37578E-14-4.87542E-13
 -1      4306 1.96040E+01 7.25080E-01-5.32774E-04-2.26491E-01-4.27333E-14-2.24726E-13
 -1      4307 2.08735E+01-2.73243E+00 1.23144E-02 1.72788E+00 2.07823E-13 4.68841E-13
 -1      4308 1.68278E+01 1.18188E+00-1.30416E-02-3.76973E-01 2.18385E-14-2.47604E-13
 -1      4309 1.81008E+01 3.85576E+00 1.20361E+00-2.10947E+00 2.83784E-12-1.77417E-13
 -1      4310 1.99977E+01 5.85685E+00 1.22289E+00-3.48744E+00 4.60298E-12-1.05813E-12
 -1      4311 1.72452E+01 1.18205E+00-4.49832E-03-3.08600E-01 8.87940E-15-1.47364E-13
 -1      4312 1.95206E+01 4.33986E-01-6.14109E-04-3.76837E-01 3.50158E-14-1.58035E-13
 -1      4313 1.86857E+01 7.23966E-01 4.99600E-03-3.39350E-01-4.15918E-14 2.00304E-14
 -1      4314 1.88192E+01 6.72528E-01-1.45227E-03-4.53014E-01-3.85338E-14-7.01607E-14
 -1      4315 1.93939E+01 4.47360E-01-1.64971E-03-2.16586E-01-7.47017E-15-1.44251E-13
 -1      4316 1.93257E+01 4.44861E-01-8.69271E-04-2.05085E-01-1.80381E-14-1.56383E-13
 -1      4317 1.94627E+01 4.51728E-01 6.39528E-04-3.32355E-01 3.78157E-14-1.89989E-13
 -1      4318 1.94628E+01 4.64867E-01-3.47778E-04-2.34811E-01 1.27005E-14-1.76079E-13
 -1      4319 1.92494E+01 4.54658E-01-1.06748E-03-2.04703E-01-5.26915E-14-1.33613E-13
 -1      4320 1.91642E+01 4.76595E-01-7.93087E-04-1.91828E-01-5.86502E-14-1.19022E-13
 -1      4321 1.91507E+01 5.04807E-01 1.76726E-03-2.72522E-01-2.57612E-14-3.68714E-14
 -1      4322 1.93201E+01 4.59886E-01 1.52412E-03-2.71322E-01-1.37868E-14-1.40538E-13
 -1      4323 1.90694E+01 8.36858E-01-1.53625E-03 1.15558E-02-3.29175E-13-2.42894E-14
 -1      4324 1.89265E+01 8.96156E-01-3.06103E-03 3.86887E-03-2.61375E-13-5.66882E-14
 -1      4325 1.60301E+01 1.07861E+00-2.06691E-02 2.79401E-01 7.87415E-14-6.34718E-14
 -1      4326 1.56673E+01 1.03810E+00-4.89478E-03 4.49720E-01 7.05166E-14-4.73480E-14
 -1      4327 1.75735E+01 1.33568E+00-4.63896E-02-1.90446E-01-7.86177E-14-1.50727E-13
 -1      4328 2.00315E+01 4.28919E+00 1.11399E+00-2.63355E+00 1.68676E-12-1.43219E-14
 -1      4329 1.78595E+01 2.73205E+00 5.88343E-01-1.34045E+00 7.60225E-13-7.82742E-14
 -1      4330 1.91902E+01 7.75999E-01-2.72901E-03 2.71489E-02-3.35930E-13-1.28489E-13
 -1      4331 1.83894E+01 1.07478E+00 4.68837E-03-6.85165E-02-3.10285E-13-5.22336E-15
 -1      4332 1.95251E+01 5.67708E-01-1.82559E-03-4.50586E-02 6.25028E-14-7.89529E-13
 -1      4333 1.89319E+01 6.11879E-01-2.85305E-03-4.33766E-01-3.66331E-14-7.54506E-14
 -1      4334 1.75197E+01 1.17895E+00-9.10967E-03-2.03439E-01-7.81428E-15-1.17055E-13
 -1      4335 1.90478E+01 5.61317E-01-2.19421E-03-4.31693E-01-3.18490E-14-6.17898E-14
 -1      4336 1.91441E+01 5.15834E-01-1.64677E-03-4.12557E-01-2.70563E-15-5.03016E-14
 -1      4337 1.92376E+01 4.75191E-01-1.23243E-04-3.26897E-01-7.78511E-15-7.40671E-14
 -1      4338 1.93161E+01 4.53035E-01-8.55959E-04-3.18065E-01 1.71085E-14-1.18930E-13
 -1      4339 1.93939E+01 4.43912E-01 5.51568E-04-3.14739E-01 2.74840E-14-1.76947E-13
 -1      4340 1.94623E+01 4.57913E-01 2.10273E-04-2.88991E-01 1.64678E-14-1.88619E-13
 -1      4341 1.93002E+01 7.22020E-01 4.63246E-06 3.01834E-02-3.25225E-13-1.08924E-13
 -1      4342 1.91444E+01 5.14370E-01 1.75711E-03-3.29107E-01-4.00097E-14-5.78727E-14
 -3
    1PSTEP                         3           1           1          
  100CL  101 1.000000000        4342                     0    1           1
 -4  TOSTRAIN    6    1
 -5  EXX         1    4    1    1
 -5  EYY         1    4    2    2
 -5  EZZ         1    4    3    3
 -5  EXY         1    4    1    2
 -5  EYZ         1    4    2    3
 -5  EZX         1    4    3    1
 -1         1 1.80154E-04-1.16476E-05-6.88915E-05-1.22278E-04-2.81543E-18 5.13111E-18
 -1         2 3.63304E-05-1.10819E-04 1.99819E-05-1.01331E-06 7.05949E-19 1.00641E-18
 -1         3 9.52294E-05-2.85791E-05-2.85472E-05-2.09181E-09-1.83780E-18-2.20616E-18
 -1         4 9.52292E-05-2.85793E-05-2.85478E-05 2.96656E-09 2.06303E-19 8.93955E-19
 -1         5 1.36594E-04-2.04025E-05-4.06705E-05 3.66671E-05-2.36905E-19 1.71078E-17
 -1         6 1.41180E-04 2.48892E-10-4.27537E-05-5.21167E-05-1.02046E-18 1.64828E-17
 -1         7 8.72152E-05-4.55986E-07-3.76679E-05-2.87186E-05-1.47278E-19 3.14821E-18
 -1         8 8.17561E-05 1.00823E-07-3.49310E-05-2.02394E-05-1.96432E-19-9.33627E-19
 -1         9 7.94729E-05 8.36189E-08-3.39438E-05-1.59314E-05-1.73668E-19-3.17614E-18
 -1        10 7.84891E-05 4.43440E-08-3.34946E-05-1.26255E-05-1.07719E-19-4.25228E-18
 -1        11 7.80576E-05 2.22293E-08-3.32996E-05-9.77564E-06-9.27236E-20-4.70221E-18
 -1        12 7.78918E-05 1.09022E-08-3.32266E-05-7.22692E-06-3.22923E-20-4.89047E-18
 -1        13 7.78670E-05 5.30053E-09-3.32165E-05-4.78730E-06-2.32587E-20-4.92564E-18
 -1        14 7.79301E-05 2.40223E-09-3.32428E-05-2.42090E-06 2.13231E-20-4.89198E-18
 -1        15 7.80528E-05 1.19317E-09-3.32924E-05-5.93953E-08 2.54391E-20-4.91509E-18
 -1        16 7.82260E-05 1.52503E-09-3.33613E-05 2.36251E-06 5.52342E-20-4.83198E-18
 -1        17 7.84599E-05 3.51853E-09-3.34540E-05 4.91538E-06 8.48621E-20-4.58660E-18
 -1        18 7.87832E-05 1.08458E-08-3.35862E-05 7.63340E-06 1.06634E-19-4.19248E-18
 -1        19 7.92994E-05 2.71532E-08-3.38076E-05 1.07278E-05 1.56833E-19-3.51041E-18
 -1        20 8.02330E-05 6.42081E-08-3.42270E-05 1.43494E-05 1.92554E-19-2.18918E-18
 -1        21 8.22205E-05 1.40290E-07-3.51136E-05 1.89667E-05 2.42754E-19 3.41533E-19
 -1        22 8.81244E-05-1.26535E-07-3.72166E-05 2.63921E-05 1.99582E-20 5.53460E-18
 -1        23 1.09105E-04-3.68168E-05-3.41737E-05-4.38672E-06-7.02058E-19 1.29050E-17
 -1        24 8.90392E-05-2.65704E-05-2.78410E-05 3.55261E-07-1.89242E-19 9.68711E-18
 -1        25 8.50571E-05-2.56297E-05-2.57110E-05 3.52313E-07-3.63099E-20 6.57728E-18
 -1        26 8.36510E-05-2.51774E-05-2.50865E-05 1.88873E-07 8.30820E-21 4.61362E-18
 -1        27 8.33993E-05-2.50740E-05-2.49945E-05 1.28113E-07 2.34320E-20 3.14486E-18
 -1        28 8.36983E-05-2.51413E-05-2.50933E-05 9.12485E-08-2.81126E-20 2.11899E-18
 -1        29 8.42795E-05-2.53030E-05-2.52742E-05 6.73330E-08-9.16235E-20 1.31719E-18
 -1        30 8.50128E-05-2.55163E-05-2.54978E-05 5.09439E-08 1.92125E-20 5.35573E-19
 -1        31 8.58390E-05-2.57606E-05-2.57483E-05 3.96777E-08-1.58737E-20-6.19543E-19
 -1        32 8.67422E-05-2.60299E-05-2.60221E-05 3.25213E-08-1.00770E-19-1.62530E-18
 -1        33 8.77355E-05-2.63271E-05-2.63232E-05 2.91115E-08 1.45155E-19-1.97982E-18
 -1        34 8.88502E-05-2.66613E-05-2.66611E-05 2.94046E-08-1.68341E-19-2.61730E-18
 -1        35 9.01280E-05-2.70444E-05-2.70479E-05 3.34810E-08 3.58894E-20-3.61444E-18
 -1        36 9.16104E-05-2.74884E-05-2.74956E-05 4.13493E-08 3.49122E-20-3.81582E-18
 -1        37 9.33260E-05-2.80016E-05-2.80118E-05 5.26503E-08-2.77451E-19-3.53895E-18
 -1        38 9.52719E-05-2.85826E-05-2.85941E-05 6.61673E-08-9.65882E-20-4.26694E-18
 -1        39 9.73887E-05-2.92134E-05-2.92225E-05 7.90724E-08-1.97735E-19-5.36646E-18
 -1        40 9.95289E-05-2.98500E-05-2.98501E-05 8.59381E-08-1.39271E-19-5.49291E-18
 -1        41 1.01426E-04-3.04132E-05-3.03945E-05 7.78671E-08 1.22836E-20-6.55830E-18
 -1        42 1.02678E-04-3.07843E-05-3.07356E-05 4.27575E-08 6.03627E-20-7.78964E-18
 -1        43 1.02778E-04-3.08136E-05-3.07283E-05-3.13136E-08-3.68540E-19-8.99080E-18
 -1        44 1.01236E-04-3.03560E-05-3.02416E-05-1.47571E-07 8.68598E-20-9.76742E-18
 -1        45 9.78124E-05-2.93397E-05-2.92277E-05-2.87165E-07-4.51393E-19-1.19133E-17
 -1        46 9.28335E-05-2.78605E-05-2.78032E-05-3.99484E-07 1.14861E-19-1.54429E-17
 -1        47 8.74110E-05-2.62488E-05-2.62933E-05-4.13481E-07 2.90337E-19-1.69630E-17
 -1        48 8.33045E-05-2.50307E-05-2.51784E-05-2.81738E-07-4.53302E-19-2.06981E-17
 -1        49 8.22857E-05-2.47383E-05-2.49225E-05-3.18317E-08 2.01440E-19-2.58607E-17
 -1        50 8.52459E-05-2.56412E-05-2.57587E-05 2.15710E-07-7.91513E-20-3.06902E-17
 -1        51 9.16844E-05-2.75797E-05-2.75998E-05 3.14540E-07 2.00834E-19-3.28044E-17
 -1        52 1.00329E-04-3.01293E-05-3.02766E-05 2.54946E-07-2.29408E-19-3.30562E-17
 -1        53 1.11168E-04-3.31816E-05-3.39926E-05 4.41700E-07-3.12128E-20-3.09451E-17
 -1        54 1.27264E-04-3.77903E-05-3.91971E-05 1.54513E-06 5.60590E-19-2.29660E-17
 -1        55 1.46656E-04-4.39878E-05-4.35420E-05 1.55730E-06 1.37262E-18-8.08914E-18
 -1        56 1.50000E-04-4.49349E-05-4.46764E-05-2.57625E-06 2.76918E-18 5.75919E-18
 -1        57 1.28324E-04-3.66572E-05-4.24949E-05-4.21104E-06 1.55116E-18 1.14289E-17
 -1        58 1.19756E-04-3.46484E-05-3.77238E-05 3.15184E-06 9.68873E-19 1.31333E-17
 -1        59 1.14555E-04-3.58707E-05-3.16585E-05 9.73179E-07-3.91734E-18 6.52374E-19
 -1        60 1.03644E-04-3.10934E-05-3.11050E-05-6.46883E-08 1.58777E-19-4.44619E-18
 -1        61 1.01784E-04-3.05388E-05-3.05505E-05-5.04309E-08 8.09741E-19-3.91567E-18
 -1        62 1.00166E-04-3.00553E-05-3.00651E-05-3.69224E-08-7.47792E-21-2.08432E-18
 -1        63 9.88208E-05-2.96526E-05-2.96601E-05-2.55562E-08-6.27410E-19-1.91242E-18
 -1        64 9.77423E-05-2.93291E-05-2.93343E-05-1.66883E-08 1.53785E-19-3.50205E-18
 -1        65 9.69038E-05-2.90772E-05-2.90805E-05-1.01445E-08 1.95197E-19-4.80514E-18
 -1        66 9.62709E-05-2.88867E-05-2.88887E-05-5.50606E-09 2.88347E-19-3.42180E-18
 -1        67 9.58096E-05-2.87475E-05-2.87489E-05-2.23318E-09 9.55533E-20 2.42613E-18
 -1        68 9.54907E-05-2.86510E-05-2.86525E-05 3.51751E-10 6.41079E-19 4.12415E-18
 -1        69 9.52927E-05-2.85906E-05-2.85930E-05 3.17571E-09-7.51838E-19 3.85734E-18
 -1        70 9.52014E-05-2.85621E-05-2.85649E-05 7.89970E-09 7.80396E-19 3.90689E-18
 -1        71 9.52037E-05-2.85617E-05-2.85583E-05 1.29851E-08 1.02996E-19 4.19160E-18
 -1        72 9.78539E-05-2.92805E-05-3.27234E-05-1.87880E-06 2.28778E-19 1.55812E-17
 -1        73 8.92123E-05-2.65216E-05-2.78464E-05-3.34425E-07 1.67365E-19 1.17908E-17
 -1        74 8.63710E-05-2.58847E-05-2.61347E-05-1.28286E-07 4.52120E-20 8.99249E-18
 -1        75 8.57723E-05-2.57580E-05-2.57495E-05-9.47652E-08 1.21624E-19 6.92410E-18
 -1        76 8.62038E-05-2.58854E-05-2.58483E-05-7.36048E-08-1.44091E-20 5.34629E-18
 -1        77 8.71279E-05-2.61540E-05-2.61274E-05-5.79345E-08 8.05064E-20 4.44787E-18
 -1        78 8.83007E-05-2.65004E-05-2.64829E-05-4.57688E-08-6.57984E-20 3.71305E-18
 -1        79 8.96073E-05-2.68896E-05-2.68774E-05-3.56413E-08 1.62411E-19 3.02472E-18
 -1        80 9.10008E-05-2.73064E-05-2.72980E-05-2.69506E-08-1.78254E-19 2.31952E-18
 -1        81 9.24777E-05-2.77490E-05-2.77442E-05-1.95977E-08 1.69742E-19 1.93052E-18
 -1        82 9.40664E-05-2.82255E-05-2.82251E-05-1.37954E-08-6.01857E-20 1.22019E-18
 -1        83 9.58212E-05-2.87520E-05-2.87570E-05-1.00357E-08 1.27769E-19 7.65915E-19
 -1        84 9.78178E-05-2.93507E-05-2.93626E-05-9.17840E-09 1.32037E-19-3.42777E-19
 -1        85 1.00149E-04-3.00493E-05-3.00698E-05-1.26219E-08 2.14533E-20-1.24326E-18
 -1        86 1.02919E-04-3.08781E-05-3.09092E-05-2.25204E-08-6.68943E-20-1.22996E-18
 -1        87 1.06224E-04-3.18658E-05-3.19087E-05-4.19440E-08-1.09508E-19-1.26824E-18
 -1        88 1.10129E-04-3.30308E-05-3.30839E-05-7.46755E-08-2.60860E-19-9.89811E-19
 -1        89 1.14605E-04-3.43643E-05-3.44188E-05-1.23855E-07 4.27514E-19-2.36500E-18
 -1        90 1.19434E-04-3.58032E-05-3.58349E-05-1.87839E-07 6.66397E-20-4.84569E-18
 -1        91 1.24061E-04-3.71880E-05-3.71490E-05-2.51049E-07-3.88467E-19-3.31530E-18
 -1        92 1.27445E-04-3.82170E-05-3.80364E-05-2.69992E-07-5.48470E-20-2.26208E-18
 -1        93 1.28011E-04-3.84303E-05-3.80459E-05-1.64689E-07-6.46243E-20-2.40100E-18
 -1        94 1.24012E-04-3.72996E-05-3.67448E-05 1.54944E-07 1.25063E-19-3.62242E-18
 -1        95 1.14604E-04-3.45248E-05-3.40375E-05 6.78598E-07 1.20117E-19-4.30150E-18
 -1        96 1.01494E-04-3.05402E-05-3.05329E-05 1.14587E-06-2.05403E-19-4.07052E-19
 -1        97 8.97201E-05-2.68495E-05-2.75587E-05 1.12619E-06-2.14498E-19 2.76908E-18
 -1        98 8.54637E-05-2.54229E-05-2.65559E-05 4.39586E-07 5.26616E-20 8.39674E-19
 -1        99 9.15772E-05-2.72521E-05-2.81531E-05-4.96028E-07-1.52168E-19-3.05819E-18
 -1       100 1.05043E-04-3.14423E-05-3.16898E-05-9.73234E-07-2.52905E-19-3.11623E-18
 -1       101 1.20444E-04-3.67447E-05-3.56685E-05-9.34547E-07-7.38441E-20-3.71620E-18
 -1       102 1.28705E-04-3.75238E-05-3.69604E-05-3.28047E-06 5.81435E-19-5.84095E-18
 -1       103 1.27580E-04-3.83485E-05-3.79081E-05-2.36011E-07-6.97710E-20-5.70908E-18
 -1       104 1.26655E-04-3.80395E-05-3.77890E-05 2.08014E-08 5.83543E-20-2.88427E-18
 -1       105 1.23068E-04-3.69369E-05-3.68456E-05 1.42823E-07 1.32003E-19-1.70682E-18
 -1       106 1.18410E-04-3.55252E-05-3.55284E-05 1.74859E-07-2.48751E-19-6.28168E-19
 -1       107 1.13709E-04-3.41096E-05-3.41544E-05 1.62429E-07 1.71360E-19-1.79187E-18
 -1       108 1.09490E-04-3.28433E-05-3.28985E-05 1.33892E-07-1.53464E-19-5.49812E-18
 -1       109 1.05948E-04-3.17820E-05-3.18331E-05 1.03421E-07 1.38123E-19-1.40908E-18
 -1       110 1.03098E-04-3.09285E-05-3.09707E-05 7.67483E-08 8.03912E-20 1.41663E-19
 -1       111 1.00871E-04-3.02616E-05-3.02944E-05 5.54079E-08-3.38977E-20 2.15147E-18
 -1       112 9.91694E-05-2.97516E-05-2.97762E-05 3.91632E-08-5.53423E-20 2.95485E-18
 -1       113 9.78918E-05-2.93687E-05-2.93867E-05 2.71914E-08 3.21789E-19 1.15246E-18
 -1       114 9.69494E-05-2.90861E-05-2.90992E-05 1.85922E-08-6.34185E-19 1.70312E-18
 -1       115 9.62676E-05-2.88816E-05-2.88910E-05 1.25561E-08 9.74760E-19 1.66071E-19
 -1       116 9.57877E-05-2.87375E-05-2.87446E-05 8.35203E-09 5.20436E-20-5.74438E-19
 -1       117 9.54662E-05-2.86407E-05-2.86468E-05 5.24375E-09 8.62016E-19-6.69581E-18
 -1       118 9.52735E-05-2.85823E-05-2.85886E-05 2.29537E-09 6.40982E-21-6.93658E-18
 -1       119 9.51916E-05-2.85570E-05-2.85627E-05-2.88460E-09-7.20031E-20-6.80984E-18
 -1       120 9.52019E-05-2.85592E-05-2.85579E-05-1.20395E-08 1.02388E-18-5.24253E-18
 -1       121 9.52467E-05-2.86042E-05-2.85591E-05-1.57027E-08-5.35811E-18-6.79833E-19
 -1       122 9.52478E-05-2.86074E-05-2.85661E-05-5.18377E-09-4.69104E-18-9.33330E-20
 -1       123 9.52202E-05-2.85153E-05-2.85937E-05 2.85655E-09 1.13343E-18 1.87424E-18
 -1       124 9.51700E-05-2.83472E-05-2.86415E-05 7.50161E-09 2.97732E-18 1.09063E-18
 -1       125 9.51088E-05-2.81415E-05-2.87002E-05 9.01099E-09 1.97561E-18-5.41526E-19
 -1       126 9.50502E-05-2.79440E-05-2.87571E-05 8.22175E-09 1.64503E-18 5.03048E-19
 -1       127 9.50035E-05-2.77866E-05-2.88026E-05 5.64130E-09 8.55397E-18 4.27799E-19
 -1       128 9.49781E-05-2.77010E-05-2.88274E-05 2.01466E-09 6.46567E-18 1.88884E-19
 -1       129 9.49783E-05-2.77018E-05-2.88272E-05-1.92234E-09 5.75930E-18 3.61026E-19
 -1       130 9.50040E-05-2.77883E-05-2.88022E-05-5.44944E-09 7.43339E-18-8.12162E-19
 -1       131 9.50503E-05-2.79446E-05-2.87570E-05-7.96403E-09 1.57583E-18 4.15609E-20
 -1       132 9.51080E-05-2.81391E-05-2.87009E-05-8.65998E-09-2.10677E-18 2.75890E-18
 -1       133 9.51682E-05-2.83413E-05-2.86430E-05-7.21479E-09-1.83802E-18-1.80778E-20
 -1       134 9.52177E-05-2.85078E-05-2.85958E-05-3.58439E-09-4.93449E-18 5.41943E-19
 -1       135 9.52461E-05-2.86000E-05-2.85678E-05 6.28257E-09-4.11538E-18 3.02679E-19
 -1       136 9.52427E-05-2.86004E-05-2.85591E-05 2.26061E-08-5.13156E-18 4.22216E-20
 -1       137 2.57177E-05-8.76177E-05 1.54696E-05-2.46075E-05 9.06473E-18 5.34398E-19
 -1       138 7.48953E-06-3.61404E-05 3.58570E-06-2.04035E-05 5.56839E-18 4.58457E-19
 -1       139 1.55460E-05 1.17813E-05-1.60797E-05 2.48311E-05-8.07815E-18-6.13675E-18
 -1       140 6.93593E-05 2.24987E-05-3.81021E-05 8.25681E-05-5.31979E-18-5.95634E-18
 -1       141 1.64379E-04-1.11481E-05-5.88184E-05 1.15263E-04-2.98939E-18-7.17522E-18
 -1       142 2.65995E-04-6.55639E-05-7.45208E-05 9.22244E-05-3.16859E-18-9.74384E-18
 -1       143 3.23672E-04-9.92123E-05-8.24279E-05 1.52794E-05-2.37646E-19-1.62583E-17
 -1       144 2.93857E-04-8.03434E-05-7.88695E-05-7.65586E-05 6.15253E-18-2.97732E-17
 -1       145 1.96707E-04-2.39219E-05-6.54999E-05-1.20686E-04 1.79101E-17-3.78298E-17
 -1       146 8.13044E-05 2.51458E-05-4.30740E-05-9.58097E-05 2.96724E-17-3.77501E-17
 -1       147 1.78380E-05 2.30723E-05-2.06510E-05-3.70076E-05 3.96390E-17-3.20420E-17
 -1       148 6.54680E-06-2.74836E-05 9.96133E-07 1.46949E-05 3.95137E-17-1.93822E-17
 -1       149 2.51475E-05-8.48595E-05 1.48208E-05 2.32295E-05 3.43095E-17-7.58052E-18
 -1       150 3.61831E-05-1.09482E-04 1.98936E-05-6.42402E-07 2.68472E-17-2.18852E-19
 -1       151 2.47344E-05-8.62751E-05 1.61955E-05-2.51714E-05 2.08688E-17 5.06160E-18
 -1       152 7.96971E-06-3.70609E-05 5.10775E-06-1.90678E-05 1.63998E-17 7.07188E-18
 -1       153 1.06613E-05 1.05459E-05-1.22887E-05 1.89283E-05 1.04736E-17 8.92984E-18
 -1       154 5.65385E-05 2.07248E-05-3.17312E-05 6.98844E-05 9.74893E-18 1.19292E-17
 -1       155 1.41364E-04-1.02330E-05-5.06124E-05 9.74714E-05 8.51798E-18 1.69275E-17
 -1       156 2.28215E-04-5.69723E-05-6.49994E-05 7.56961E-05 5.28580E-18 2.10835E-17
 -1       157 2.78581E-04-8.45876E-05-7.39618E-05 1.95194E-06-1.96618E-19 2.56298E-17
 -1       158 2.55222E-04-6.40369E-05-7.48067E-05-7.73434E-05-6.09035E-18 2.39860E-17
 -1       159 9.37750E-05 4.06005E-05-5.74644E-05-1.19588E-04 2.75497E-17-3.47207E-17
 -1       160 2.95063E-05 5.74994E-05-3.88671E-05-7.43887E-05 1.04484E-16-8.47706E-17
 -1       161 1.62974E-05-9.02313E-06-1.04286E-05 5.97247E-06 2.38484E-16-1.26558E-16
 -1       162 1.98888E-05-1.52117E-04 1.54299E-05-1.62307E-05 3.45220E-16 6.82397E-17
 -1       163 9.10545E-05-1.16780E-05-3.42178E-05-2.22615E-05-2.36572E-18 1.00519E-18
 -1       164 8.55397E-05-7.94230E-06-3.34138E-05-1.75890E-05-2.13385E-18-1.55559E-18
 -1       165 8.29451E-05-6.08519E-06-3.30474E-05-1.40252E-05-1.73185E-18-2.96832E-18
 -1       166 8.17028E-05-5.15524E-06-3.28860E-05-1.10244E-05-1.31387E-18-3.72219E-18
 -1       167 8.10870E-05-4.63188E-06-3.28318E-05-8.38155E-06-8.98082E-19-4.02440E-18
 -1       168 8.07976E-05-4.32478E-06-3.28324E-05-5.90264E-06-5.57621E-19-4.12736E-18
 -1       169 8.07252E-05-4.17728E-06-3.28614E-05-3.53959E-06-1.31780E-19-4.07817E-18
 -1       170 8.08096E-05-4.15942E-06-3.29045E-05-1.21834E-06 2.82894E-19-4.11500E-18
 -1       171 8.10281E-05-4.26322E-06-3.29551E-05 1.12660E-06 5.99957E-19-4.07953E-18
 -1       172 8.13868E-05-4.49852E-06-3.30118E-05 3.56105E-06 8.89878E-19-3.94569E-18
 -1       173 8.19156E-05-4.88838E-06-3.30790E-05 6.11357E-06 1.26173E-18-3.65458E-18
 -1       174 8.27360E-05-5.51906E-06-3.31749E-05 8.96544E-06 1.75146E-18-3.14233E-18
 -1       175 8.40886E-05-6.56005E-06-3.33378E-05 1.22129E-05 2.13560E-18-2.27052E-18
 -1       176 8.66381E-05-8.50676E-06-3.36427E-05 1.60318E-05 2.48016E-18-5.67711E-19
 -1       177 9.25117E-05-1.33066E-05-3.41442E-05 2.02867E-05 2.37188E-18 2.56360E-18
 -1       178 1.01588E-04-2.51761E-05-3.38824E-05 1.73794E-05 1.76938E-18 6.69198E-18
 -1       179 9.93456E-05-2.61690E-05-3.13585E-05-1.22006E-05-2.05249E-18 3.99646E-18
 -1       180 9.29911E-05-2.70591E-05-2.82913E-05-4.98499E-06-1.75865E-18 2.98780E-18
 -1       181 8.92435E-05-2.63539E-05-2.69060E-05-2.05379E-06-1.19604E-18 2.10249E-18
 -1       182 8.75287E-05-2.60635E-05-2.63073E-05-6.91036E-07-1.00054E-18 1.28254E-18
 -1       183 8.67816E-05-2.59326E-05-2.60596E-05 1.23167E-08-6.55965E-19 8.12728E-19
 -1       184 8.66011E-05-2.59247E-05-2.59947E-05 3.99023E-07-4.85679E-19 5.10229E-19
 -1       185 8.67592E-05-2.59955E-05-2.60364E-05 6.22022E-07-5.26598E-19 2.72908E-19
 -1       186 8.71316E-05-2.61167E-05-2.61458E-05 7.64309E-07-6.02315E-19 7.49219E-22
 -1       187 8.76542E-05-2.62738E-05-2.63033E-05 8.76556E-07-6.40168E-19-2.08173E-19
 -1       188 8.83009E-05-2.64618E-05-2.65002E-05 9.91748E-07-3.17811E-19-3.49418E-19
 -1       189 8.90697E-05-2.66824E-05-2.67351E-05 1.13110E-06-8.25833E-19-1.35978E-18
 -1       190 8.99728E-05-2.69419E-05-2.70110E-05 1.30591E-06-6.26102E-19-1.94437E-18
 -1       191 9.10286E-05-2.72484E-05-2.73322E-05 1.51684E-06-1.78486E-19-2.01624E-18
 -1       192 9.22523E-05-2.76108E-05-2.77018E-05 1.75118E-06 9.35206E-20-2.04776E-18
 -1       193 9.36448E-05-2.80349E-05-2.81178E-05 1.97821E-06-3.78354E-19-1.64395E-18
 -1       194 9.51793E-05-2.85202E-05-2.85691E-05 2.14332E-06-4.58451E-19-1.52400E-18
 -1       195 9.67848E-05-2.90544E-05-2.90305E-05 2.16312E-06-4.15575E-19-1.51162E-18
 -1       196 9.83293E-05-2.96057E-05-2.94590E-05 1.92611E-06-5.09740E-19-1.84724E-18
 -1       197 9.96080E-05-3.01134E-05-2.97921E-05 1.30823E-06-1.18434E-18-2.35327E-18
 -1       198 1.00348E-04-3.04790E-05-2.99537E-05 2.16020E-07-7.69137E-19-3.94440E-18
 -1       199 1.00247E-04-3.05662E-05-2.98720E-05-1.33246E-06-1.69278E-19-3.99505E-18
 -1       200 9.90712E-05-3.02260E-05-2.95095E-05-3.10131E-06-1.52089E-18-4.01407E-18
 -1       201 9.68115E-05-2.93677E-05-2.89021E-05-4.56426E-06-1.91661E-18-4.55478E-18
 -1       202 9.38673E-05-2.80793E-05-2.81844E-05-4.98353E-06-1.78410E-18-5.90268E-18
 -1       203 9.11263E-05-2.67291E-05-2.75803E-05-3.73735E-06-2.61057E-18-8.54387E-18
 -1       204 8.97691E-05-2.59037E-05-2.73467E-05-7.90332E-07-3.57135E-18-1.06961E-17
 -1       205 9.07981E-05-2.61461E-05-2.76868E-05 3.06058E-06-3.09173E-18-1.38237E-17
 -1       206 9.45068E-05-2.75755E-05-2.86825E-05 6.50969E-06-1.66516E-18-1.67641E-17
 -1       207 1.00309E-04-2.96720E-05-3.03012E-05 8.73391E-06-5.91097E-19-1.86071E-17
 -1       208 1.07069E-04-3.14091E-05-3.25300E-05 1.04611E-05 1.76678E-18-1.76857E-17
 -1       209 1.13702E-04-3.19904E-05-3.52993E-05 1.44119E-05 8.55413E-18-1.04135E-17
 -1       210 1.24288E-04-3.70454E-05-3.82401E-05 1.91153E-05 1.30245E-17 4.45301E-18
 -1       211 1.42244E-04-5.05364E-05-4.01183E-05 8.36611E-06 2.05887E-18 9.73210E-18
 -1       212 1.48174E-04-4.95653E-05-4.28802E-05-1.55735E-05-2.30735E-17-3.17092E-17
 -1       213 1.33727E-04-2.90726E-05-4.37426E-05-7.49406E-06-1.41296E-17-9.03008E-17
 -1       214 1.21176E-04-3.94337E-05-3.17779E-05 1.93464E-06 1.48469E-17-3.19607E-17
 -1       215 1.02961E-04-3.08666E-05-3.08993E-05-2.03882E-06 3.39368E-19-3.08222E-18
 -1       216 1.01479E-04-3.03863E-05-3.04676E-05-1.89885E-06 1.78097E-18-8.54672E-19
 -1       217 1.00131E-04-2.99672E-05-3.00684E-05-1.66263E-06 4.38816E-19-6.88571E-19
 -1       218 9.89647E-05-2.96155E-05-2.97187E-05-1.39199E-06-1.67689E-19-1.51595E-18
 -1       219 9.79930E-05-2.93294E-05-2.94247E-05-1.12500E-06-1.16325E-18-2.46006E-18
 -1       220 9.72082E-05-2.91027E-05-2.91855E-05-8.82181E-07-9.86642E-20-2.22386E-18
 -1       221 9.65919E-05-2.89273E-05-2.89968E-05-6.72029E-07 1.48579E-18-1.10692E-18
 -1       222 9.61214E-05-2.87948E-05-2.88522E-05-4.95348E-07 3.18952E-18-1.31757E-19
 -1       223 9.57739E-05-2.86975E-05-2.87454E-05-3.48222E-07 2.12865E-18 1.81403E-18
 -1       224 9.55289E-05-2.86286E-05-2.86702E-05-2.24158E-07-6.93556E-20 2.41699E-18
 -1       225 9.53686E-05-2.85835E-05-2.86212E-05-1.16955E-07-5.06460E-20 1.68183E-18
 -1       226 9.52741E-05-2.85594E-05-2.85912E-05-2.60294E-08 7.23221E-19 2.58366E-18
 -1       227 9.60444E-05-2.75908E-05-2.95082E-05 6.47009E-06 1.89512E-18 5.67794E-18
 -1       228 9.15302E-05-2.69576E-05-2.76444E-05 2.23915E-06 1.41711E-18 4.37220E-18
 -1       229 8.96633E-05-2.66844E-05-2.69472E-05 5.23286E-07 1.14729E-18 3.16238E-18
 -1       230 8.91165E-05-2.66319E-05-2.67529E-05-3.03476E-07 7.15372E-19 2.52570E-18
 -1       231 8.92971E-05-2.67351E-05-2.67989E-05-7.36214E-07 5.81097E-19 1.95719E-18
 -1       232 8.98960E-05-2.69390E-05-2.69745E-05-9.74355E-07 3.65726E-19 1.38416E-18
 -1       233 9.07481E-05-2.72056E-05-2.72282E-05-1.11627E-06 4.52658E-19 1.24100E-18
 -1       234 9.17700E-05-2.75144E-05-2.75351E-05-1.21883E-06 2.95619E-19 9.39157E-19
 -1       235 9.29283E-05-2.78578E-05-2.78849E-05-1.31979E-06 4.60249E-19 3.02924E-19
 -1       236 9.42240E-05-2.82371E-05-2.82779E-05-1.44699E-06 3.17990E-19 1.85409E-19
 -1       237 9.56828E-05-2.86610E-05-2.87215E-05-1.62250E-06 4.25285E-19-4.72543E-20
 -1       238 9.73494E-05-2.91435E-05-2.92290E-05-1.86401E-06 5.37997E-19-2.24628E-19
 -1       239 9.92811E-05-2.97029E-05-2.98173E-05-2.18416E-06 3.87129E-19-5.41590E-19
 -1       240 1.01541E-04-3.03604E-05-3.05047E-05-2.58708E-06-1.30700E-19-4.05098E-19
 -1       241 1.04186E-04-3.11378E-05-3.13063E-05-3.06051E-06 1.88394E-19-1.08049E-19
 -1       242 1.07245E-04-3.20531E-05-3.22272E-05-3.56128E-06 1.13685E-19-1.11115E-18
 -1       243 1.10687E-04-3.31135E-05-3.32505E-05-3.99136E-06 1.00600E-18-1.83848E-18
 -1       244 1.14364E-04-3.43022E-05-3.43194E-05-4.16488E-06 3.51025E-19-1.46594E-18
 -1       245 1.17948E-04-3.55549E-05-3.53173E-05-3.77788E-06-1.14166E-18-1.25083E-18
 -1       246 1.20850E-04-3.67195E-05-3.60544E-05-2.42275E-06-3.92143E-19-7.24602E-19
 -1       247 1.22219E-04-3.75024E-05-3.62888E-05 2.64883E-07-6.01691E-20-7.90032E-19
 -1       248 1.21089E-04-3.74370E-05-3.58157E-05 4.22079E-06 2.18045E-19-6.79307E-19
 -1       249 1.16872E-04-3.59971E-05-3.46307E-05 8.36219E-06-1.00645E-19-5.64230E-19
 -1       250 1.10210E-04-3.30799E-05-3.30762E-05 1.03084E-05-1.94763E-18 2.38427E-19
 -1       251 1.03705E-04-2.97790E-05-3.17747E-05 7.64814E-06-1.06927E-18 7.45329E-19
 -1       252 1.00997E-04-2.81398E-05-3.13474E-05 5.38407E-07 1.58594E-18-2.32322E-20
 -1       253 1.04166E-04-2.95553E-05-3.20653E-05-7.27152E-06 1.47582E-18-1.94068E-18
 -1       254 1.11640E-04-3.30933E-05-3.36979E-05-1.13667E-05-1.24909E-19-4.12276E-18
 -1       255 1.19508E-04-3.61806E-05-3.56128E-05-1.10892E-05 5.79440E-19-4.16198E-18
 -1       256 1.22890E-04-3.61088E-05-3.66872E-05-7.31924E-06 8.32759E-19-4.27294E-18
 -1       257 1.22762E-04-3.75439E-05-3.61140E-05-1.75731E-06-1.48595E-18-2.71933E-18
 -1       258 1.20515E-04-3.67160E-05-3.59182E-05 1.89616E-06-7.51192E-19-1.87592E-18
 -1       259 1.17744E-04-3.55586E-05-3.52345E-05 3.52400E-06-1.44810E-19-1.69096E-18
 -1       260 1.14281E-04-3.43073E-05-3.42857E-05 4.04812E-06-5.57437E-19-8.46365E-19
 -1       261 1.10749E-04-3.31377E-05-3.32690E-05 3.90385E-06 1.20961E-18-2.02425E-18
 -1       262 1.07503E-04-3.21210E-05-3.23090E-05 3.43568E-06 2.85104E-20-1.62866E-18
 -1       263 1.04699E-04-3.12748E-05-3.14673E-05 2.86093E-06-1.72199E-18-1.13159E-18
 -1       264 1.02379E-04-3.05909E-05-3.07641E-05 2.29666E-06-6.82988E-19 8.48955E-19
 -1       265 1.00514E-04-3.00502E-05-3.01960E-05 1.79595E-06-6.87233E-19 1.36318E-18
 -1       266 9.90496E-05-2.96303E-05-2.97483E-05 1.37592E-06 1.58895E-19 1.57599E-18
 -1       267 9.79215E-05-2.93094E-05-2.94025E-05 1.03561E-06 5.72692E-19 8.42766E-20
 -1       268 9.70675E-05-2.90680E-05-2.91403E-05 7.65965E-07-8.60214E-19 1.31174E-18
 -1       269 9.64329E-05-2.88894E-05-2.89452E-05 5.55019E-07 1.87584E-18 2.45925E-18
 -1       270 9.59719E-05-2.87599E-05-2.88036E-05 3.90269E-07 1.49407E-18 8.16485E-19
 -1       271 9.56485E-05-2.86690E-05-2.87043E-05 2.59724E-07 2.41379E-18-1.36096E-19
 -1       272 9.54346E-05-2.86084E-05-2.86392E-05 1.52940E-07 2.51036E-19-9.63963E-19
 -1       273 9.53083E-05-2.85724E-05-2.86004E-05 6.21294E-08 5.17203E-19-2.22125E-18
 -1       274 9.52506E-05-2.85649E-05-2.85780E-05-7.39772E-09-1.08881E-18-2.92125E-18
 -1       275 9.52506E-05-2.85364E-05-2.85911E-05 2.87725E-08-5.26565E-19 1.99558E-18
 -1       276 9.52268E-05-2.84522E-05-2.86175E-05 1.12000E-07 7.77782E-19 2.38461E-18
 -1       277 9.51783E-05-2.83213E-05-2.86530E-05 1.82233E-07-8.12560E-20 2.10312E-18
 -1       278 9.51187E-05-2.81625E-05-2.86955E-05 2.15620E-07 3.53401E-19 5.48787E-19
 -1       279 9.50595E-05-2.80036E-05-2.87385E-05 2.07624E-07 1.49427E-18 3.32714E-19
 -1       280 9.50084E-05-2.78654E-05-2.87761E-05 1.61610E-07 2.25935E-18 2.79352E-18
 -1       281 9.49748E-05-2.77735E-05-2.88013E-05 8.73417E-08 2.20866E-18 1.27232E-19
 -1       282 9.49636E-05-2.77425E-05-2.88098E-05-1.38989E-09 2.26658E-18-3.17784E-19
 -1       283 9.49763E-05-2.77770E-05-2.88004E-05-8.92517E-08 1.28867E-18 5.91018E-19
 -1       284 9.50108E-05-2.78711E-05-2.87747E-05-1.61394E-07 9.56473E-19-2.36101E-18
 -1       285 9.50607E-05-2.80067E-05-2.87377E-05-2.04756E-07 4.92905E-19-1.40918E-18
 -1       286 9.51199E-05-2.81666E-05-2.86943E-05-2.12186E-07-1.76120E-19-1.95643E-19
 -1       287 9.51781E-05-2.83229E-05-2.86522E-05-1.79429E-07-8.28517E-19-1.52898E-18
 -1       288 9.52245E-05-2.84492E-05-2.86174E-05-1.13194E-07-2.87142E-18 1.16584E-18
 -1       289 9.52603E-05-2.85104E-05-2.86065E-05-7.41791E-08-2.13430E-18 1.26841E-20
 -1       290 1.17812E-05-4.47703E-05 1.11565E-05 7.04864E-06-1.00093E-18 3.41619E-18
 -1       291 2.60580E-05-4.36318E-05 4.59413E-06 1.97186E-05 1.56955E-18 5.05096E-19
 -1       292 6.36286E-05-4.30605E-05-1.01962E-05 3.82370E-05-5.03709E-18-4.40134E-18
 -1       293 1.07018E-04-4.35533E-05-2.76212E-05 4.05063E-05-7.60657E-18-5.08982E-18
 -1       294 1.46035E-04-3.62641E-05-4.59928E-05 4.19605E-05-4.46789E-18-6.65387E-18
 -1       295 1.87834E-04-3.66483E-05-6.20367E-05 3.54552E-05-2.80626E-18-8.71216E-18
 -1       296 2.09481E-04-3.51870E-05-7.15185E-05 1.16185E-05 1.90349E-18-1.22111E-17
 -1       297 2.10467E-04-3.25916E-05-7.31074E-05-8.65312E-06 7.66162E-18-1.51304E-17
 -1       298 1.99916E-04-3.60607E-05-6.69538E-05-3.55414E-05 1.15453E-17-1.86548E-17
 -1       299 1.56827E-04-3.49906E-05-5.08423E-05-4.27409E-05 1.48204E-17-1.83158E-17
 -1       300 1.03019E-04-2.96485E-05-3.16003E-05-4.91155E-05 2.00724E-17-1.85903E-17
 -1       301 6.16690E-05-3.60981E-05-1.24851E-05-3.98316E-05 1.94790E-17-1.58480E-17
 -1       302 2.71739E-05-4.06224E-05 3.08551E-06-2.38544E-05 1.95637E-17-1.11998E-17
 -1       303 1.27034E-05-4.83153E-05 1.17519E-05-7.72586E-06 1.88648E-17-6.23999E-18
 -1       304 1.22324E-05-4.89978E-05 1.24255E-05 4.84781E-06 1.76091E-17 9.87852E-20
 -1       305 2.71617E-05-4.07679E-05 4.18631E-06 2.36768E-05 1.41334E-17 2.28439E-18
 -1       306 4.96361E-05-3.73434E-05-6.74431E-06 2.95382E-05 1.25863E-17 5.18437E-18
 -1       307 8.44924E-05-3.21277E-05-2.27076E-05 3.70047E-05 9.26358E-18 1.05174E-17
 -1       308 1.24283E-04-3.02272E-05-3.93362E-05 3.71087E-05 7.36358E-18 1.39197E-17
 -1       309 1.59968E-04-3.06268E-05-5.35992E-05 2.74726E-05 4.07582E-18 1.63325E-17
 -1       310 1.82199E-04-2.96013E-05-6.34236E-05 6.15220E-06-1.43784E-19 2.04425E-17
 -1       311 1.77907E-04-2.16527E-05-6.61428E-05-1.79460E-05-2.65058E-18 2.36551E-17
 -1       312 1.61018E-04-1.55873E-05-6.31850E-05-3.73600E-05 4.36195E-18 2.25066E-17
 -1       313 1.32267E-04-5.23994E-06-5.69400E-05-6.18144E-05 2.79729E-17 1.06950E-17
 -1       314 9.56811E-05-5.82532E-06-4.35102E-05-6.19863E-05 8.44568E-17-5.70403E-18
 -1       315 8.30840E-05-4.76561E-05-2.34470E-05-6.86795E-05 1.86055E-16-1.15974E-17
 -1       316 5.21993E-05-8.29175E-05-1.98124E-07-9.41063E-05 2.81583E-16 7.39460E-19
 -1       317 7.50952E-07-5.45036E-05 1.22065E-05-2.26785E-05 1.17538E-16 5.79992E-17
 -1       318 8.77590E-05-1.35898E-05-3.18467E-05-1.34834E-05-2.29351E-18-1.42301E-18
 -1       319 9.16971E-05-1.81491E-05-3.15816E-05-1.48810E-05-2.56955E-18 7.02773E-21
 -1       320 8.43833E-05-9.74850E-06-3.20366E-05-8.91947E-06-1.39078E-18-2.95043E-18
 -1       321 8.37167E-05-8.89022E-06-3.21137E-05-6.64583E-06-9.21593E-19-3.21328E-18
 -1       322 8.34172E-05-8.42150E-06-3.21834E-05-4.44506E-06-4.00143E-19-3.04217E-18
 -1       323 8.33788E-05-8.24294E-06-3.22425E-05-2.28621E-06 1.22859E-19-3.08817E-18
 -1       324 8.35552E-05-8.31619E-06-3.22870E-05-1.28625E-07 5.63990E-19-3.13654E-18
 -1       325 8.39382E-05-8.64186E-06-3.23135E-05 2.07031E-06 9.49056E-19-3.10101E-18
 -1       326 8.45440E-05-9.24507E-06-3.23184E-05 4.31241E-06 1.37550E-18-2.92664E-18
 -1       327 8.54750E-05-1.02416E-05-3.22971E-05 6.70361E-06 1.88168E-18-2.43974E-18
 -1       328 8.69055E-05-1.18347E-05-3.22383E-05 9.19407E-06 2.30610E-18-1.88018E-18
 -1       329 8.92191E-05-1.44647E-05-3.21157E-05 1.16181E-05 2.62005E-18-9.28904E-19
 -1       330 9.28205E-05-1.89963E-05-3.17417E-05 1.29430E-05 2.67685E-18 1.06772E-18
 -1       331 9.55422E-05-2.37318E-05-3.08587E-05 1.07266E-05 2.48118E-18 2.92084E-18
 -1       332 9.34956E-05-2.60576E-05-2.88733E-05 4.85465E-06 1.99033E-18 2.23526E-18
 -1       333 9.22231E-05-2.47974E-05-2.88541E-05-6.75702E-06-1.92453E-18 2.25847E-19
 -1       334 9.05871E-05-2.57167E-05-2.77764E-05-3.27444E-06-1.51009E-18-1.87389E-20
 -1       335 8.94862E-05-2.60485E-05-2.71728E-05-1.33273E-06-1.08953E-18-3.17617E-19
 -1       336 8.88515E-05-2.62017E-05-2.68427E-05-1.94796E-07-8.08652E-19-6.00948E-19
 -1       337 8.85702E-05-2.63019E-05-2.66827E-05 4.91698E-07-6.32395E-19-7.43211E-19
 -1       338 8.85396E-05-2.63871E-05-2.66346E-05 9.27812E-07-6.35917E-19-7.13055E-19
 -1       339 8.86896E-05-2.64701E-05-2.66639E-05 1.23654E-06-4.12516E-19-5.33677E-19
 -1       340 8.89787E-05-2.65578E-05-2.67504E-05 1.49714E-06-8.71731E-19-3.41000E-19
 -1       341 8.93871E-05-2.66573E-05-2.68827E-05 1.76167E-06-1.05936E-18-8.81737E-19
 -1       342 8.99109E-05-2.67785E-05-2.70550E-05 2.06201E-06-1.10294E-18-7.98204E-19
 -1       343 9.05564E-05-2.69346E-05-2.72645E-05 2.41172E-06-6.57429E-19-9.30192E-19
 -1       344 9.13351E-05-2.71434E-05-2.75088E-05 2.80423E-06-1.15871E-19-1.08754E-18
 -1       345 9.22595E-05-2.74277E-05-2.77835E-05 3.20793E-06 4.23482E-20-1.79990E-18
 -1       346 9.33371E-05-2.78145E-05-2.80804E-05 3.55916E-06-1.78365E-19-1.93508E-18
 -1       347 9.45634E-05-2.83329E-05-2.83856E-05 3.75455E-06-4.38807E-19-1.58100E-18
 -1       348 9.59123E-05-2.90052E-05-2.86782E-05 3.64729E-06-5.31348E-19-1.39453E-18
 -1       349 9.73206E-05-2.98279E-05-2.89325E-05 3.05605E-06-1.03885E-18-1.15924E-18
 -1       350 9.86657E-05-3.07373E-05-2.91227E-05 1.80165E-06-1.53504E-18-1.05413E-18
 -1       351 9.97396E-05-3.15606E-05-2.92322E-05-2.08783E-07-1.13214E-18-1.50201E-18
 -1       352 1.00240E-04-3.19805E-05-2.92661E-05-2.83843E-06-8.04849E-19-2.59777E-18
 -1       353 9.98300E-05-3.15770E-05-2.92577E-05-5.55311E-06-2.20995E-18-2.11219E-18
 -1       354 9.83227E-05-3.00337E-05-2.92636E-05-7.34427E-06-2.55013E-18-1.80624E-18
 -1       355 9.60100E-05-2.75197E-05-2.93363E-05-6.96817E-06-3.69378E-18-3.02976E-18
 -1       356 9.38823E-05-2.49707E-05-2.95035E-05-3.65808E-06-4.67187E-18-4.39302E-18
 -1       357 9.33003E-05-2.37210E-05-2.97964E-05 2.13991E-06-5.74790E-18-6.20317E-18
 -1       358 9.53138E-05-2.47415E-05-3.02879E-05 8.60255E-06-5.44374E-18-9.33013E-18
 -1       359 9.97124E-05-2.75141E-05-3.11156E-05 1.35460E-05-3.64828E-18-1.38847E-17
 -1       360 1.05037E-04-3.01060E-05-3.23740E-05 1.60222E-05 6.09149E-19-1.56865E-17
 -1       361 1.08560E-04-2.97055E-05-3.41233E-05 1.64026E-05 9.81380E-18-1.50209E-17
 -1       362 1.04149E-04-2.30090E-05-3.54815E-05 2.28666E-05 2.53908E-17-5.90357E-18
 -1       363 1.16487E-04-4.00875E-05-3.55558E-05 3.91325E-05 3.02185E-17 2.75051E-17
 -1       364 1.61192E-04-8.15349E-05-3.57049E-05 1.59841E-05-5.94076E-17 2.23447E-17
 -1       365 1.67763E-04-4.94382E-05-4.84272E-05-1.86108E-05-1.63268E-16-1.46455E-16
 -1       366 1.48794E-04-2.79647E-05-3.48087E-05 1.24305E-05-4.12264E-17-3.04019E-16
 -1       367 1.01873E-04-3.05951E-05-3.05493E-05-3.57464E-06 1.42132E-18-8.32019E-19
 -1       368 1.00618E-04-3.00251E-05-3.02538E-05-3.44993E-06 2.76521E-18 1.99641E-19
 -1       369 9.95070E-05-2.95922E-05-2.99619E-05-3.11163E-06 1.36851E-18-1.30236E-18
 -1       370 9.85537E-05-2.92712E-05-2.96903E-05-2.67471E-06-2.18041E-19 7.42475E-19
 -1       371 9.77568E-05-2.90369E-05-2.94490E-05-2.21556E-06-8.46721E-19 9.06619E-19
 -1       372 9.71058E-05-2.88678E-05-2.92425E-05-1.77981E-06-8.40264E-19 7.33730E-19
 -1       373 9.65849E-05-2.87469E-05-2.90713E-05-1.39079E-06 1.92394E-18 1.53828E-18
 -1       374 9.61765E-05-2.86606E-05-2.89336E-05-1.05675E-06 3.39792E-18 1.71377E-18
 -1       375 9.58626E-05-2.85988E-05-2.88258E-05-7.76397E-07 3.39784E-18 1.08888E-18
 -1       376 9.56263E-05-2.85537E-05-2.87441E-05-5.43254E-07 5.30178E-19 6.52682E-19
 -1       377 9.54526E-05-2.85207E-05-2.86839E-05-3.48490E-07-2.82683E-19 1.49147E-18
 -1       378 9.53405E-05-2.85086E-05-2.86416E-05-1.96360E-07 2.08092E-19 3.05474E-18
 -1       379 9.18473E-05-2.66330E-05-2.79123E-05 1.73279E-06 1.60839E-18 1.79084E-18
 -1       380 9.10024E-05-2.68242E-05-2.74838E-05 6.75328E-08 1.15339E-18 1.27224E-18
 -1       381 9.08100E-05-2.69831E-05-2.73444E-05-8.59477E-07 8.30534E-19 6.63324E-19
 -1       382 9.10506E-05-2.71662E-05-2.73742E-05-1.39603E-06 5.95874E-19 3.15184E-19
 -1       383 9.15782E-05-2.73780E-05-2.75117E-05-1.72790E-06 4.80610E-19 1.12005E-19
 -1       384 9.23052E-05-2.76135E-05-2.77230E-05-1.96424E-06 6.03690E-19 8.85985E-20
 -1       385 9.31864E-05-2.78698E-05-2.79909E-05-2.17644E-06 5.51213E-19-1.44086E-19
 -1       386 9.42067E-05-2.81484E-05-2.83085E-05-2.41570E-06 1.65853E-19-5.79807E-20
 -1       387 9.53734E-05-2.84553E-05-2.86764E-05-2.72104E-06 4.68535E-19-1.24193E-19
 -1       388 9.67098E-05-2.88008E-05-2.91003E-05-3.12242E-06 6.48411E-19-1.54016E-19
 -1       389 9.82506E-05-2.92001E-05-2.95888E-05-3.64014E-06 5.84251E-19-3.63687E-19
 -1       390 1.00037E-04-2.96738E-05-3.01509E-05-4.28007E-06 2.03900E-20-6.23474E-19
 -1       391 1.02110E-04-3.02503E-05-3.07923E-05-5.02285E-06 2.13403E-19-1.14803E-18
 -1       392 1.04501E-04-3.09688E-05-3.15107E-05-5.80420E-06 7.19794E-19-1.08849E-18
 -1       393 1.07223E-04-3.18834E-05-3.22885E-05-6.48395E-06 1.02129E-18-2.16219E-18
 -1       394 1.10247E-04-3.30632E-05-3.30849E-05-6.80422E-06 1.08976E-19-1.65617E-18
 -1       395 1.13480E-04-3.45747E-05-3.38304E-05-6.35082E-06-1.26754E-18-6.28151E-19
 -1       396 1.16703E-04-3.64120E-05-3.44326E-05-4.56665E-06-4.75015E-19-4.49727E-19
 -1       397 1.19484E-04-3.83365E-05-3.48030E-05-9.21078E-07-2.94672E-19 1.10989E-19
 -1       398 1.21063E-04-3.96366E-05-3.49218E-05 4.61426E-06 6.46723E-20 8.91228E-19
 -1       399 1.20419E-04-3.90451E-05-3.48949E-05 1.07709E-05-2.26740E-19 8.91218E-19
 -1       400 1.16868E-04-3.54180E-05-3.49414E-05 1.43585E-05-2.34034E-18 4.84099E-19
 -1       401 1.11737E-04-2.98369E-05-3.51676E-05 1.14908E-05-9.12903E-19 1.50567E-19
 -1       402 1.08692E-04-2.61618E-05-3.54289E-05 1.67758E-06 2.10095E-18-1.38717E-18
 -1       403 1.10703E-04-2.78274E-05-3.55686E-05-9.87320E-06 2.90438E-18-2.97976E-18
 -1       404 1.16456E-04-3.34317E-05-3.56272E-05-1.61202E-05 1.20602E-18-4.23051E-18
 -1       405 1.21421E-04-3.79874E-05-3.57792E-05-1.50047E-05 9.01097E-20-3.16915E-18
 -1       406 1.22617E-04-3.89081E-05-3.57973E-05-8.79101E-06-2.78131E-20-1.25874E-18
 -1       407 1.21243E-04-3.83841E-05-3.52272E-05-1.55473E-06-1.55162E-18-1.23945E-18
 -1       408 1.17403E-04-3.70054E-05-3.43771E-05 3.25133E-06-1.08198E-18-3.57154E-18
 -1       409 1.14114E-04-3.50531E-05-3.39034E-05 5.74587E-06-1.45813E-18-1.83331E-18
 -1       410 1.10965E-04-3.34091E-05-3.32482E-05 6.56210E-06-4.55817E-19 2.61133E-19
 -1       411 1.08028E-04-3.21474E-05-3.25220E-05 6.36829E-06 1.75273E-18 3.06767E-19
 -1       412 1.05427E-04-3.12075E-05-3.18053E-05 5.66223E-06 2.71164E-19 6.55871E-19
 -1       413 1.03205E-04-3.05090E-05-3.11496E-05 4.76960E-06-1.83113E-18 4.94505E-19
 -1       414 1.01355E-04-2.99864E-05-3.05802E-05 3.87405E-06-1.82015E-18 1.02365E-18
 -1       415 9.98491E-05-2.95928E-05-3.01040E-05 3.06459E-06-9.35649E-19 6.69278E-19
 -1       416 9.86466E-05-2.92955E-05-2.97168E-05 2.37446E-06-1.43408E-19 2.02794E-18
 -1       417 9.77027E-05-2.90715E-05-2.94091E-05 1.80714E-06 9.33697E-19 2.53286E-18
 -1       418 9.69739E-05-2.89037E-05-2.91695E-05 1.35177E-06-3.48495E-19 2.93688E-18
 -1       419 9.64205E-05-2.87791E-05-2.89864E-05 9.91630E-07 1.60547E-18 2.46503E-18
 -1       420 9.60080E-05-2.86871E-05-2.88496E-05 7.08347E-07 2.92098E-18 2.15947E-18
 -1       421 9.57076E-05-2.86201E-05-2.87501E-05 4.84036E-07 1.63471E-18 1.03769E-18
 -1       422 9.54957E-05-2.85723E-05-2.86802E-05 3.03488E-07 1.16927E-18 3.14730E-18
 -1       423 9.53534E-05-2.85420E-05-2.86326E-05 1.56691E-07 1.24050E-18 4.11948E-18
 -1       424 9.52923E-05-2.85307E-05-2.86116E-05 8.68486E-08 3.48721E-19 2.62879E-18
 -1       425 9.51518E-05-2.81712E-05-2.87057E-05 3.80064E-07 2.42839E-20 1.81992E-18
 -1       426 9.52419E-05-2.83363E-05-2.86732E-05 3.05624E-07 6.42390E-20 6.92216E-19
 -1       427 9.52832E-05-2.84499E-05-2.86422E-05 1.96355E-07 5.75988E-19 3.39911E-18
 -1       428 9.50563E-05-2.80047E-05-2.87365E-05 3.90197E-07 3.34581E-19-9.36921E-19
 -1       429 9.49689E-05-2.78540E-05-2.87639E-05 3.34136E-07 7.41625E-19 1.95071E-18
 -1       430 9.49044E-05-2.77426E-05-2.87843E-05 2.22416E-07 6.92138E-19 8.97657E-19
 -1       431 9.48714E-05-2.76853E-05-2.87948E-05 7.50245E-08-1.11677E-19-9.78757E-19
 -1       432 9.48737E-05-2.76893E-05-2.87940E-05-8.34474E-08-1.27517E-18-2.09331E-18
 -1       433 9.49104E-05-2.77536E-05-2.87821E-05-2.27463E-07-1.55004E-18 1.93814E-19
 -1       434 9.49749E-05-2.78665E-05-2.87611E-05-3.32613E-07-7.64308E-19-3.14822E-18
 -1       435 9.50606E-05-2.80167E-05-2.87332E-05-3.85249E-07 7.60080E-19 8.24869E-19
 -1       436 9.51542E-05-2.81825E-05-2.87019E-05-3.73789E-07 5.81383E-19-2.12695E-18
 -1       437 9.52423E-05-2.83449E-05-2.86698E-05-3.00799E-07-7.02213E-19-1.54916E-18
 -1       438 5.47047E-05-3.98224E-05-6.57340E-06 4.02899E-05-9.01878E-19 1.01385E-18
 -1       439 1.27222E-05-2.22377E-05 3.11988E-06-3.23685E-06 2.09291E-17 1.75706E-18
 -1       440 2.59329E-05-2.83293E-05 8.68336E-07 2.69002E-05-1.18818E-18 6.63756E-19
 -1       441 1.06793E-04-5.77725E-05-2.10724E-05 3.79802E-05-6.53317E-18-3.72120E-18
 -1       442 1.43748E-04-5.77452E-05-3.67988E-05 2.07853E-05-6.45815E-18-6.15147E-18
 -1       443 8.55710E-05-1.11482E-05-3.19661E-05-1.12858E-05-1.85262E-18-2.47842E-18
 -1       444 1.68802E-04-2.78384E-05-6.01618E-05-3.71817E-06-1.39549E-19-9.32266E-18
 -1       445 1.51645E-04-1.11823E-05-6.07287E-05-4.69115E-06 5.84717E-18-1.01897E-17
 -1       446 1.67735E-04-2.13820E-05-6.24917E-05 4.94475E-07 8.33597E-18-9.94671E-18
 -1       447 1.63027E-04-3.61487E-05-5.42595E-05-6.18016E-06 9.31858E-18-8.81147E-18
 -1       448 1.43592E-04-5.40828E-05-3.84215E-05-2.39248E-05 8.90433E-18-9.16013E-18
 -1       449 1.11887E-04-5.42016E-05-2.47903E-05-4.02319E-05 9.16585E-18-8.37615E-18
 -1       450 6.42171E-05-4.17332E-05-9.62326E-06-4.53145E-05 7.58550E-18-8.34439E-18
 -1       451 2.36592E-05-2.82545E-05 1.57590E-06-2.78365E-05 1.05912E-17-7.14356E-18
 -1       452 1.07305E-05-2.32069E-05 4.99241E-06-2.08866E-06 1.13976E-17-2.20514E-18
 -1       453 2.03172E-05-2.63782E-05 2.49260E-06 2.08300E-05 1.10129E-17-3.23884E-19
 -1       454 5.73714E-05-4.16127E-05-6.76336E-06 3.82512E-05 1.05169E-17 2.67649E-18
 -1       455 8.96636E-05-5.02617E-05-1.69580E-05 3.54804E-05 9.36247E-18 7.56864E-18
 -1       456 1.20455E-04-4.94585E-05-3.03813E-05 2.19699E-05 6.77822E-18 1.07025E-17
 -1       457 1.35744E-04-3.88161E-05-4.16911E-05-7.26203E-08 3.21651E-18 1.05357E-17
 -1       458 1.43378E-04-2.05195E-05-5.27219E-05-5.14874E-06-6.73815E-19 1.54684E-17
 -1       459 1.34317E-04-4.70713E-06-5.61844E-05-9.26537E-06-5.21370E-18 1.95617E-17
 -1       460 1.32230E-04-4.34591E-06-5.66899E-05-8.77934E-06-2.43607E-18 2.59042E-17
 -1       461 1.31226E-04-1.60544E-05-5.36069E-05-1.90448E-05 1.84204E-17 3.14518E-17
 -1       462 1.16059E-04-2.42710E-05-4.69366E-05-3.09629E-05 5.53875E-17 3.93870E-17
 -1       463 9.52254E-05-3.99292E-05-3.58263E-05-6.21918E-05 1.28621E-16 6.37121E-17
 -1       464 8.67522E-05-7.49077E-05-1.77317E-05-1.08364E-04 2.48909E-16 3.56474E-17
 -1       465 3.12625E-05-4.66705E-05-1.83010E-06-7.88799E-05 2.34221E-16 1.79402E-18
 -1       466 1.60302E-04-4.52069E-05-4.93316E-05 1.67984E-06-3.13558E-18-6.98548E-18
 -1       467 8.82047E-05-5.01630E-05-1.59714E-05 4.14782E-05-1.58416E-18 1.78711E-18
 -1       468 1.19294E-04-9.16167E-06-5.07748E-05-1.46768E-06 1.81757E-18 3.34117E-17
 -1       469 4.37763E-05-3.00060E-05-5.46932E-06 3.39280E-05 8.20595E-18 2.01859E-19
 -1       470 1.52488E-04-5.09438E-05-4.38101E-05-7.27019E-07 7.45574E-18-3.91933E-18
 -1       471 9.31655E-05-2.45193E-05-2.94065E-05 4.84145E-06 1.96006E-18 1.38279E-19
 -1       472 8.59821E-05-1.26251E-05-3.14565E-05-4.95061E-06-5.38138E-19-2.73329E-18
 -1       473 8.65248E-05-1.35172E-05-3.13081E-05-6.76454E-06-1.10570E-18-2.72385E-18
 -1       474 8.58394E-05-1.20906E-05-3.16236E-05-1.24441E-06 2.77752E-19-2.81065E-18
 -1       475 8.61573E-05-1.23541E-05-3.16473E-05 6.33670E-07 6.79504E-19-2.79233E-18
 -1       476 8.67199E-05-1.29689E-05-3.16262E-05 2.50025E-06 1.14184E-18-2.71198E-18
 -1       477 8.75838E-05-1.40213E-05-3.15475E-05 4.39886E-06 1.65232E-18-2.32004E-18
 -1       478 8.88173E-05-1.56356E-05-3.13863E-05 6.21583E-06 2.00907E-18-1.90752E-18
 -1       479 9.05977E-05-1.80802E-05-3.10988E-05 7.77397E-06 2.23294E-18-1.35997E-18
 -1       480 9.27039E-05-2.59201E-05-2.86045E-05 1.79964E-06 1.66710E-18-6.07515E-20
 -1       481 9.12492E-05-2.31826E-05-2.91610E-05-6.38406E-06-1.74854E-18-8.39568E-19
 -1       482 1.49164E-04-3.46275E-05-4.95647E-05-1.55758E-05-1.20162E-18-9.26633E-18
 -1       483 9.09356E-05-2.48845E-05-2.83011E-05-3.44453E-06-1.54139E-18-8.33397E-19
 -1       484 9.04675E-05-2.57209E-05-2.77448E-05-1.51569E-06-9.62203E-19-8.48864E-19
 -1       485 9.00908E-05-2.61659E-05-2.73945E-05-2.70735E-07-8.46994E-19-9.06289E-19
 -1       486 8.98494E-05-2.64054E-05-2.71893E-05 5.46177E-07-6.03052E-19-9.68726E-19
 -1       487 8.97349E-05-2.65293E-05-2.70875E-05 1.11151E-06-6.72723E-19-9.50272E-19
 -1       488 8.97282E-05-2.65846E-05-2.70610E-05 1.54719E-06-5.60618E-19-1.31121E-18
 -1       489 8.98144E-05-2.66004E-05-2.70911E-05 1.93779E-06-1.01587E-18-1.01971E-18
 -1       490 8.99873E-05-2.66003E-05-2.71651E-05 2.34014E-06-1.05438E-18-7.79565E-19
 -1       491 9.02496E-05-2.66088E-05-2.72738E-05 2.78786E-06-7.14228E-19-4.90933E-19
 -1       492 9.06134E-05-2.66553E-05-2.74097E-05 3.29186E-06-4.79498E-19-5.94627E-19
 -1       493 9.10999E-05-2.67792E-05-2.75652E-05 3.83741E-06-6.47221E-19-1.02158E-18
 -1       494 9.17413E-05-2.70327E-05-2.77317E-05 4.37840E-06-2.80084E-19-1.24789E-18
 -1       495 9.25806E-05-2.74823E-05-2.78992E-05 4.82909E-06-2.85163E-19-1.12015E-18
 -1       496 9.36704E-05-2.82045E-05-2.80578E-05 5.05558E-06-3.15585E-19-9.04544E-19
 -1       497 9.50620E-05-2.92664E-05-2.82006E-05 4.87105E-06-6.95166E-19-1.27399E-18
 -1       498 9.67762E-05-3.06807E-05-2.83310E-05 4.04487E-06-1.30551E-18-8.26340E-19
 -1       499 9.87425E-05-3.23227E-05-2.84718E-05 2.34530E-06-1.10499E-18-5.80759E-19
 -1       500 1.00703E-04-3.38144E-05-2.86727E-05-3.50069E-07-1.08169E-18-3.32262E-19
 -1       501 1.02131E-04-3.44499E-05-2.90116E-05-3.83718E-06-1.24999E-18 2.79859E-20
 -1       502 1.02301E-04-3.33265E-05-2.95619E-05-7.30574E-06-1.94178E-18 7.40346E-19
 -1       503 1.00638E-04-2.98563E-05-3.03347E-05-9.18923E-06-3.86957E-18 6.47177E-19
 -1       504 9.76084E-05-2.48156E-05-3.11853E-05-7.52815E-06-5.35415E-18-2.29344E-20
 -1       505 9.47702E-05-2.03357E-05-3.18871E-05-1.68074E-06-7.08210E-18-1.12517E-18
 -1       506 9.44099E-05-1.92560E-05-3.22961E-05 7.11428E-06-8.57044E-18-3.83686E-18
 -1       507 9.74004E-05-2.23292E-05-3.25888E-05 1.53879E-05-9.21383E-18-8.73611E-18
 -1       508 1.02483E-04-2.73019E-05-3.31395E-05 2.02648E-05-5.10443E-18-1.45313E-17
 -1       509 1.07422E-04-3.05065E-05-3.38530E-05 2.24427E-05 1.47648E-18-2.16616E-17
 -1       510 1.18859E-04-3.53086E-05-3.55837E-05 1.29590E-05 1.99988E-17-3.35098E-17
 -1       511 5.77557E-05 2.23609E-05-3.54021E-05 1.31428E-05 5.08205E-17-1.07832E-17
 -1       512 9.23385E-05-6.35669E-05-2.07138E-05 7.80389E-05 1.08657E-17 1.53397E-16
 -1       513 2.06684E-04-1.47075E-04-2.04549E-05 5.97609E-05-3.31380E-16 2.81893E-17
 -1       514 1.59397E-04 4.22421E-05-7.44088E-05 7.11657E-05-4.05944E-16-4.85738E-16
 -1       515 1.83237E-04-1.89661E-05-3.55265E-05 3.71765E-05-1.68560E-16-2.90182E-16
 -1       516 9.94202E-05-2.96261E-05-2.99119E-05-4.76394E-06 1.98933E-18-5.38540E-19
 -1       517 9.84453E-05-2.90585E-05-2.97367E-05-4.35399E-06 1.44728E-18-1.57816E-18
 -1       518 9.76807E-05-2.87064E-05-2.95595E-05-3.79675E-06 1.75418E-18-7.26028E-19
 -1       519 9.70816E-05-2.85040E-05-2.93893E-05-3.19342E-06 5.82175E-19 1.10382E-18
 -1       520 9.66127E-05-2.83995E-05-2.92332E-05-2.60748E-06-8.51072E-19 2.58997E-18
 -1       521 9.62464E-05-2.83551E-05-2.90953E-05-2.07434E-06-1.20946E-20 2.48170E-18
 -1       522 9.59611E-05-2.83447E-05-2.89776E-05-1.60975E-06 2.31748E-18 2.27899E-18
 -1       523 9.57394E-05-2.83507E-05-2.88801E-05-1.21655E-06 2.48073E-18 1.61721E-18
 -1       524 9.55672E-05-2.83620E-05-2.88016E-05-8.89910E-07 1.55034E-18 3.70119E-19
 -1       525 9.54332E-05-2.83722E-05-2.87398E-05-6.20949E-07 4.51233E-19 1.32445E-19
 -1       526 5.22418E-05-2.96159E-05-9.17695E-06 3.61332E-05-6.76779E-19 5.35219E-19
 -1       527 9.23006E-05-2.70578E-05-2.79574E-05-1.23557E-06 1.05007E-18-2.85543E-19
 -1       528 9.24473E-05-2.73387E-05-2.79019E-05-1.97630E-06 7.16444E-19-5.76596E-19
 -1       529 9.27774E-05-2.75495E-05-2.79537E-05-2.48228E-06 5.00017E-19-7.30645E-19
 -1       530 9.32513E-05-2.77199E-05-2.80839E-05-2.87906E-06 4.07368E-19-5.09041E-19
 -1       531 9.38434E-05-2.78653E-05-2.82752E-05-3.25572E-06 6.26835E-19-2.00201E-19
 -1       532 9.45419E-05-2.79960E-05-2.85183E-05-3.67825E-06 5.29470E-19-6.48892E-19
 -1       533 9.53467E-05-2.81226E-05-2.88085E-05-4.19653E-06 8.19335E-19-6.25950E-19
 -1       534 9.62673E-05-2.82592E-05-2.91440E-05-4.84643E-06 3.90675E-19-5.92868E-19
 -1       535 9.73216E-05-2.84275E-05-2.95232E-05-5.64782E-06 2.62944E-19-6.12802E-19
 -1       536 9.85374E-05-2.86645E-05-2.99425E-05-6.59714E-06 2.14960E-19-6.07455E-19
 -1       537 9.99573E-05-2.90339E-05-3.03929E-05-7.65295E-06 4.10781E-19-5.78304E-19
 -1       538 1.01650E-04-2.96432E-05-3.08583E-05-8.71217E-06 8.64555E-19-6.18692E-19
 -1       539 1.03727E-04-3.06635E-05-3.13142E-05-9.57488E-06 5.58932E-19 1.45043E-19
 -1       540 1.06370E-04-3.23374E-05-3.17338E-05-9.89886E-06-1.00586E-18 4.33558E-19
 -1       541 1.09820E-04-3.49304E-05-3.21070E-05-9.15100E-06-9.96268E-19 1.78880E-19
 -1       542 1.14263E-04-3.85170E-05-3.24818E-05-6.61745E-06-5.64714E-19 5.19926E-19
 -1       543 1.19517E-04-4.25304E-05-3.30146E-05-1.59984E-06-8.93436E-19 4.61000E-19
 -1       544 1.24404E-04-4.50594E-05-3.40377E-05 5.93094E-06 1.03829E-19 1.38201E-18
 -1       545 1.26650E-04-4.29823E-05-3.59329E-05 1.39789E-05-6.46235E-19 1.92610E-18
 -1       546 1.23737E-04-3.39240E-05-3.86477E-05 1.68976E-05-7.37276E-19-1.92434E-19
 -1       547 1.18353E-04-2.28930E-05-4.11790E-05 9.47759E-06 2.39869E-18-2.49825E-18
 -1       548 1.18110E-04-2.13304E-05-4.16965E-05-6.12235E-06 3.70243E-18-4.17418E-18
 -1       549 1.21994E-04-2.90617E-05-4.00953E-05-1.82523E-05 3.00263E-18-5.08030E-18
 -1       550 1.27258E-04-4.02645E-05-3.74176E-05-1.86635E-05-1.37610E-18-4.62828E-18
 -1       551 1.27059E-04-4.50105E-05-3.52174E-05-1.10350E-05-1.78140E-18-2.30478E-18
 -1       552 1.22589E-04-4.35990E-05-3.37460E-05-1.61201E-06-9.06120E-19-1.23278E-18
 -1       553 1.16334E-04-4.00412E-05-3.24236E-05 4.98314E-06-6.23297E-19-2.59748E-19
 -1       554 1.10725E-04-3.59383E-05-3.20648E-05 8.20810E-06-1.52941E-18-1.45497E-19
 -1       555 1.07095E-04-3.29424E-05-3.17872E-05 9.42875E-06-1.37264E-18-5.17943E-19
 -1       556 1.04398E-04-3.09818E-05-3.14659E-05 9.28788E-06 7.02051E-19-4.50275E-19
 -1       557 1.02381E-04-2.98113E-05-3.10996E-05 8.41504E-06 3.32621E-19 1.20799E-18
 -1       558 1.00831E-04-2.91537E-05-3.07153E-05 7.23439E-06-8.93450E-20 1.35061E-18
 -1       559 9.96062E-05-2.87996E-05-3.03415E-05 5.99881E-06-1.75288E-18-1.67019E-19
 -1       560 9.86214E-05-2.86153E-05-2.99986E-05 4.84308E-06-9.90529E-19-8.58676E-19
 -1       561 9.78255E-05-2.85227E-05-2.96976E-05 3.82811E-06-1.74264E-18-2.80250E-18
 -1       562 9.71846E-05-2.84784E-05-2.94425E-05 2.97178E-06-6.27432E-20-5.87663E-19
 -1       563 9.66731E-05-2.84590E-05-2.92322E-05 2.26875E-06 2.65736E-19-8.69021E-19
 -1       564 9.62698E-05-2.84518E-05-2.90630E-05 1.70246E-06 1.06275E-18-1.86579E-18
 -1       565 9.59556E-05-2.84492E-05-2.89298E-05 1.25189E-06 2.30093E-18 4.02418E-19
 -1       566 9.57139E-05-2.84473E-05-2.88273E-05 8.95260E-07 1.04791E-18 2.70520E-18
 -1       567 9.55296E-05-2.84436E-05-2.87500E-05 6.12977E-07 1.24338E-18 1.95351E-18
 -1       568 9.53901E-05-2.84408E-05-2.86916E-05 3.86634E-07 7.94017E-19 2.17404E-18
 -1       569 9.49295E-05-2.78061E-05-2.87674E-05 5.32110E-07 1.42562E-18 1.02268E-18
 -1       570 9.48059E-05-2.76520E-05-2.87805E-05 4.01792E-07 9.31356E-19 2.17026E-18
 -1       571 9.52341E-05-2.82039E-05-2.87272E-05 5.38865E-07 6.13273E-19 6.79193E-19
 -1       572 9.50802E-05-2.79976E-05-2.87497E-05 5.80609E-07 1.97611E-19 5.56375E-19
 -1       573 9.47276E-05-2.75558E-05-2.87882E-05 2.10956E-07 1.31706E-18-1.19845E-18
 -1       574 9.47041E-05-2.75280E-05-2.87901E-05-1.03668E-08 7.80868E-19-1.40040E-18
 -1       575 9.47371E-05-2.75706E-05-2.87859E-05-2.28356E-07 1.66754E-19-1.02658E-18
 -1       576 9.48193E-05-2.76752E-05-2.87763E-05-4.07962E-07-7.44882E-19-2.37172E-18
 -1       577 9.49426E-05-2.78325E-05-2.87616E-05-5.28776E-07-3.50818E-19-4.91360E-19
 -1       578 9.50876E-05-2.80218E-05-2.87426E-05-5.69888E-07-4.13336E-19-6.48615E-19
 -1       579 9.52344E-05-2.82205E-05-2.87200E-05-5.25614E-07-1.18169E-18-3.41325E-18
 -1       580 1.33586E-04-6.40472E-05-2.97140E-05 2.00306E-05-6.82844E-18-5.89651E-18
 -1       581 9.23835E-05-2.66414E-05-2.81667E-05-7.32282E-08 1.28878E-18-9.98876E-20
 -1       582 2.76794E-05-1.49518E-05-4.82745E-06 1.51439E-05-1.17656E-18 1.05731E-18
 -1       583 8.45170E-05-6.71919E-05-1.95529E-05-9.21604E-05 3.03560E-16-2.48774E-18
 -1       584 4.05096E-05-2.41324E-05-5.41471E-06-3.44404E-05 1.52552E-16-5.09962E-17
 -1       585 2.54390E-05-1.53079E-05-3.77360E-06-1.76687E-05 5.63798E-18-4.44121E-18
 -1       586 8.57731E-05-1.21736E-05-3.15597E-05-3.10500E-06-1.60975E-19-2.77173E-18
 -1       587 1.38072E-04-1.33153E-05-5.41024E-05 6.23458E-06 6.23279E-18-7.76205E-18
 -1       588 5.00386E-05-2.80314E-05-8.90860E-06-3.75436E-05 3.97454E-18-5.66406E-18
 -1       589 1.35346E-04-1.58727E-05-5.18235E-05-1.33270E-05 3.03471E-18-1.09149E-17
 -1       590 1.47550E-04-2.87099E-05-5.14396E-05 1.21743E-05 6.40008E-18-6.17328E-18
 -1       591 1.34368E-04-6.19062E-05-3.11033E-05-2.26122E-05 3.50883E-18-3.45775E-18
 -1       592 8.54345E-05-4.87028E-05-1.54859E-05 3.62932E-05 7.51133E-18 4.43240E-18
 -1       593 9.87125E-05-5.25929E-05-1.95772E-05-4.08654E-05 3.25208E-18-4.97645E-18
 -1       594 2.20612E-05-1.51347E-05-2.39863E-06 9.51221E-06 6.53606E-18-1.16012E-18
 -1       595 1.13598E-04-5.63510E-05-2.44473E-05 2.28791E-05 5.41238E-18 7.66769E-18
 -1       596 1.27496E-04-5.03496E-05-3.32077E-05 3.31086E-06 4.40482E-18 6.82132E-18
 -1       597 1.25966E-04-2.55519E-05-4.34932E-05-1.28076E-05-1.61392E-18 1.22996E-17
 -1       598 1.16893E-04-7.12054E-06-4.77382E-05-1.27361E-05-5.99006E-18 1.48654E-17
 -1       599 1.10738E-04 1.60178E-06-4.95799E-05-2.68777E-06-9.11572E-18 1.92981E-17
 -1       600 1.21896E-04-3.36941E-05-4.62268E-05-6.44287E-06 3.13443E-17 5.52321E-17
 -1       601 1.07503E-04-4.01887E-05-4.37074E-05-1.00567E-05 4.59095E-17 9.28975E-17
 -1       602 5.19873E-05-4.10624E-05-3.55160E-05-1.26117E-04 2.87646E-16 2.25848E-16
 -1       603 9.04901E-05-1.96065E-05-3.03971E-05-1.00732E-05-2.27742E-18-1.05742E-18
 -1       604 9.33258E-05-2.26157E-05-3.03082E-05 8.30428E-06 2.42727E-18 5.22896E-19
 -1       605 1.50103E-04-5.65481E-05-4.03415E-05-1.11540E-06-4.76306E-18-6.58992E-18
 -1       606 8.74782E-05-1.49381E-05-3.11102E-05-8.49704E-06-1.57978E-18-2.36850E-18
 -1       607 1.17315E-04-5.93468E-05-2.44097E-05 2.91031E-05-5.70778E-18-5.06902E-18
 -1       608 9.53603E-05-2.83811E-05-2.87048E-05-4.62435E-07-7.73890E-19-2.97376E-20
 -1       609 1.24005E-04-3.86561E-05-3.68297E-05-9.92491E-06 5.54886E-19 9.03324E-18
 -1       610 7.89860E-05-3.95255E-05-1.65202E-05-3.96552E-05 1.26121E-18-4.21928E-18
 -1       611 6.89216E-05-3.78085E-05-1.29025E-05 3.60904E-05 6.50423E-18 1.99296E-18
 -1       612 1.42918E-04-5.83659E-05-3.64200E-05-4.12177E-06 2.18871E-18-1.52278E-18
 -1       613 3.78181E-05-1.93110E-05-7.35280E-06 2.35895E-05 5.44936E-18-3.26531E-19
 -1       614 1.04071E-04-1.11720E-06-4.64190E-05 4.73229E-06-1.01711E-17 2.22675E-17
 -1       615 1.30037E-04-1.26934E-05-5.07708E-05-5.23325E-06 4.38927E-18-9.12462E-18
 -1       616 8.85014E-05-1.61250E-05-3.10239E-05 9.43046E-07 8.48430E-19-2.40401E-18
 -1       617 8.80431E-05-1.56311E-05-3.10389E-05-5.51649E-07 3.30808E-19-2.49245E-18
 -1       618 9.01793E-05-1.84323E-05-3.07542E-05 3.68306E-06 1.53332E-18-1.73194E-18
 -1       619 9.13644E-05-2.03889E-05-3.04259E-05 4.62495E-06 1.89045E-18-1.51556E-18
 -1       620 9.27152E-05-2.34847E-05-2.96605E-05 3.78102E-06 1.80907E-18-1.03839E-18
 -1       621 5.00537E-05-1.90444E-05-1.27747E-05 2.41137E-05-1.15943E-18 1.26864E-18
 -1       622 9.29369E-05-2.52507E-05-2.90047E-05 1.26095E-06 1.42896E-18-1.04726E-18
 -1       623 9.10930E-05-2.43124E-05-2.86213E-05-3.05732E-06-1.26257E-18-1.10053E-18
 -1       624 9.10226E-05-2.54007E-05-2.81228E-05-1.39353E-06-8.67156E-19-1.14806E-18
 -1       625 9.08445E-05-2.60262E-05-2.77790E-05-2.29775E-07-8.52141E-19-1.23674E-18
 -1       626 9.06481E-05-2.63538E-05-2.75545E-05 5.91728E-07-6.23979E-19-1.27176E-18
 -1       627 9.04681E-05-2.64885E-05-2.74197E-05 1.20535E-06-6.76242E-19-1.10949E-18
 -1       628 9.03179E-05-2.64958E-05-2.73522E-05 1.71550E-06-5.98102E-19-9.86546E-19
 -1       629 9.02037E-05-2.64228E-05-2.73345E-05 2.19934E-06-7.93691E-19-4.85084E-19
 -1       630 9.01331E-05-2.63095E-05-2.73528E-05 2.71034E-06-7.93465E-19-2.38957E-19
 -1       631 9.01205E-05-2.61981E-05-2.73950E-05 3.28007E-06-8.54139E-19-2.42056E-19
 -1       632 9.01913E-05-2.61404E-05-2.74501E-05 3.91770E-06-6.38221E-19-2.07313E-19
 -1       633 9.03882E-05-2.62048E-05-2.75069E-05 4.60699E-06-4.47757E-19-2.37530E-19
 -1       634 9.07776E-05-2.64824E-05-2.75549E-05 5.30034E-06-2.13762E-19-1.41285E-19
 -1       635 9.14574E-05-2.70902E-05-2.75860E-05 5.90952E-06-3.80931E-19 3.20287E-19
 -1       636 9.25578E-05-2.81613E-05-2.75990E-05 6.29263E-06-6.76838E-19 1.41402E-19
 -1       637 9.42282E-05-2.98129E-05-2.76079E-05 6.23836E-06-8.78073E-19 2.44785E-19
 -1       638 9.65855E-05-3.20657E-05-2.76538E-05 5.45416E-06-6.26030E-19 5.71060E-19
 -1       639 9.95955E-05-3.46910E-05-2.78200E-05 3.58522E-06-6.91110E-19 1.51153E-18
 -1       640 1.02868E-04-3.69843E-05-2.82361E-05 3.40409E-07-7.08577E-19 1.34343E-18
 -1       641 1.05414E-04-3.75835E-05-2.90755E-05-4.16490E-06-9.62970E-19 1.71579E-18
 -1       642 1.05936E-04-3.49495E-05-3.04378E-05-8.76430E-06-2.27402E-18 2.78601E-18
 -1       643 1.03272E-04-2.80509E-05-3.22126E-05-1.10730E-05-4.91872E-18 3.60396E-18
 -1       644 9.79123E-05-1.88251E-05-3.39721E-05-7.80225E-06-6.92902E-18 3.85328E-18
 -1       645 9.41516E-05-1.30932E-05-3.48503E-05 1.71179E-06-9.86282E-18 3.14753E-18
 -1       646 9.36352E-05-1.36747E-05-3.48885E-05 1.36109E-05-1.35000E-17-8.10121E-19
 -1       647 9.83185E-05-2.10195E-05-3.49575E-05 2.26335E-05-1.54811E-17-8.57113E-18
 -1       648 1.00738E-04-2.57164E-05-3.55630E-05 2.39261E-05-1.40682E-17-1.86819E-17
 -1       649 9.79761E-05-2.44039E-05-3.26498E-05 3.92326E-05-1.00481E-17-3.70946E-17
 -1       650 1.55573E-04-8.08297E-05-3.39499E-05 6.61185E-05-5.72954E-18-5.96267E-17
 -1       651 5.53927E-05 9.40593E-06-2.25366E-05 7.34048E-05-1.33280E-16 1.46377E-16
 -1       652-2.28712E-04 1.75260E-04 2.93309E-05 3.52138E-05 6.33886E-17 5.12597E-16
 -1       653 2.98446E-04-9.94151E-05 2.50843E-05-3.45778E-05 1.56949E-16-1.03742E-15
 -1       654 4.21478E-04-1.40599E-04-9.83418E-05-7.65584E-06-3.72747E-18-7.77067E-16
 -1       655 1.33303E-04-2.92422E-05-3.01612E-05-5.07094E-06-1.06842E-18-6.48298E-17
 -1       656 9.70367E-05-2.84317E-05-2.94020E-05-5.43841E-06 9.71376E-19-9.55053E-19
 -1       657 9.64243E-05-2.79841E-05-2.93312E-05-4.74124E-06 2.69389E-18-1.78735E-19
 -1       658 9.60266E-05-2.77828E-05-2.92470E-05-4.00524E-06 9.98195E-19-5.90442E-19
 -1       659 9.57681E-05-2.77360E-05-2.91563E-05-3.29563E-06-1.68399E-19-1.23876E-18
 -1       660 9.55982E-05-2.77775E-05-2.90657E-05-2.64944E-06-4.68457E-19-6.92441E-19
 -1       661 9.54837E-05-2.78621E-05-2.89804E-05-2.08411E-06 1.13965E-18 8.53326E-19
 -1       662 9.54031E-05-2.79604E-05-2.89038E-05-1.60386E-06 1.61131E-18-2.24555E-19
 -1       663 9.53430E-05-2.80547E-05-2.88376E-05-1.20446E-06 8.96773E-19-3.40003E-18
 -1       664 9.52936E-05-2.81349E-05-2.87821E-05-8.77673E-07 7.34913E-20-2.23881E-18
 -1       665 1.01616E-04-2.16545E-06-4.33163E-05-4.93522E-06-9.92180E-18 1.35015E-17
 -1       666 9.30799E-05-2.69045E-05-2.83599E-05-1.63427E-06 1.07147E-18-5.31031E-19
 -1       667 9.36239E-05-2.75561E-05-2.83144E-05-3.56016E-06 3.57755E-19-7.11577E-19
 -1       668 9.39187E-05-2.75634E-05-2.84375E-05-4.06467E-06 5.83315E-19-4.92011E-19
 -1       669 9.42570E-05-2.75095E-05-2.86055E-05-4.63173E-06 6.89156E-19-9.22897E-20
 -1       670 9.46343E-05-2.74124E-05-2.88086E-05-5.31199E-06 6.37505E-19-2.67586E-19
 -1       671 9.50515E-05-2.72954E-05-2.90374E-05-6.14064E-06 3.67161E-19-2.42001E-19
 -1       672 9.55202E-05-2.71965E-05-2.92804E-05-7.13556E-06 1.49051E-19-4.96624E-19
 -1       673 9.60726E-05-2.71840E-05-2.95224E-05-8.29165E-06 2.32828E-19-5.78441E-19
 -1       674 9.67808E-05-2.73780E-05-2.97429E-05-9.57084E-06 6.13941E-19-2.62028E-19
 -1       675 9.77903E-05-2.79818E-05-2.99172E-05-1.08861E-05 7.18339E-20 2.63513E-19
 -1       676 9.93701E-05-2.93143E-05-3.00241E-05-1.20749E-05-8.74975E-19 1.34333E-18
 -1       677 1.01971E-04-3.18227E-05-3.00644E-05-1.28558E-05-6.61621E-19 1.57573E-18
 -1       678 1.06285E-04-3.60240E-05-3.01110E-05-1.27070E-05-4.44830E-19 1.06194E-18
 -1       679 1.12899E-04-4.19709E-05-3.04029E-05-1.07037E-05-6.58388E-19 8.77902E-19
 -1       680 1.22204E-04-4.88739E-05-3.13915E-05-5.61887E-06-5.63747E-19 2.67303E-20
 -1       681 1.30798E-04-5.15511E-05-3.40540E-05 3.61336E-06-1.75759E-19 7.91667E-19
 -1       682 1.37124E-04-4.61142E-05-3.92672E-05 1.43545E-05 9.04750E-19-3.96226E-19
 -1       683 1.36702E-04-3.95502E-05-4.18983E-05-1.91224E-05-2.43813E-19-5.51310E-18
 -1       684 1.35446E-04-5.18113E-05-3.59848E-05-1.01212E-05-2.75625E-18-4.89752E-18
 -1       685 1.27492E-04-5.15528E-05-3.24902E-05 1.12996E-06-2.76296E-18-4.52696E-18
 -1       686 1.16517E-04-4.47885E-05-3.04927E-05 8.45550E-06-2.42223E-18-2.85254E-18
 -1       687 1.07787E-04-3.78019E-05-2.99887E-05 1.16699E-05-1.16261E-18-1.94754E-18
 -1       688 1.02924E-04-3.29005E-05-3.00099E-05 1.23283E-05-1.01102E-18-2.14949E-18
 -1       689 1.00012E-04-2.98207E-05-3.00826E-05 1.16951E-05-1.62983E-19-2.20967E-18
 -1       690 9.83736E-05-2.81592E-05-3.00914E-05 1.04607E-05-5.84917E-19-1.17146E-18
 -1       691 9.74539E-05-2.74040E-05-3.00202E-05 9.00584E-06 2.67399E-19-1.44738E-18
 -1       692 9.69098E-05-2.71666E-05-2.98884E-05 7.53872E-06 1.95743E-19-1.34247E-18
 -1       693 9.65530E-05-2.71955E-05-2.97231E-05 6.17077E-06 5.29786E-20-3.55154E-18
 -1       694 9.62897E-05-2.73431E-05-2.95472E-05 4.95608E-06-1.09494E-18-2.25102E-18
 -1       695 9.60776E-05-2.75293E-05-2.93767E-05 3.91384E-06-1.49380E-18-2.49613E-18
 -1       696 9.58988E-05-2.77137E-05-2.92213E-05 3.04228E-06 1.00249E-18-3.47068E-18
 -1       697 9.57463E-05-2.78777E-05-2.90858E-05 2.32765E-06 5.68394E-19-2.66314E-18
 -1       698 9.56167E-05-2.80147E-05-2.89717E-05 1.75087E-06 3.64542E-19-2.25306E-18
 -1       699 9.55062E-05-2.81220E-05-2.88785E-05 1.29050E-06 1.04222E-18-1.26688E-18
 -1       700 9.54122E-05-2.82015E-05-2.88040E-05 9.26140E-07 9.75991E-19-1.87212E-18
 -1       701 9.53109E-05-2.82008E-05-2.87611E-05 7.19102E-07 5.57349E-19 3.28270E-19
 -1       702 6.72694E-05-2.53745E-05-1.58492E-05-6.79875E-05 2.65075E-16-6.00357E-17
 -1       703 9.44809E-05-2.73047E-05-2.87899E-05 1.28152E-07 5.25563E-19-1.70928E-18
 -1       704 4.52949E-05-1.82630E-05-1.10523E-05-2.59541E-05 2.28699E-18-4.48260E-18
 -1       705 9.47108E-05-2.75361E-05-2.87892E-05 6.33940E-07 1.81451E-18 1.70612E-18
 -1       706 9.44905E-05-2.73182E-05-2.87883E-05-1.68178E-07 8.56846E-20-3.12183E-18
 -1       707 9.45567E-05-2.73794E-05-2.87904E-05 4.09298E-07 8.63538E-19 5.43910E-19
 -1       708 8.13781E-05-4.06268E-05-1.71518E-05 3.68626E-05-1.03963E-18 1.57156E-18
 -1       709 9.45796E-05-2.74135E-05-2.87855E-05-4.33960E-07-3.87043E-19-1.80608E-18
 -1       710 9.47382E-05-2.75820E-05-2.87813E-05-6.41698E-07-7.34284E-20-2.27599E-18
 -1       711 9.49455E-05-2.78038E-05-2.87751E-05-7.57863E-07-1.03658E-18-4.80402E-19
 -1       712 9.30120E-05-2.62868E-05-2.85941E-05-4.61210E-07 1.12200E-18-7.63104E-19
 -1       713 3.78498E-05-1.07670E-05-1.10755E-05-1.36506E-08-7.30745E-19 7.39407E-19
 -1       714 1.40063E-04-5.95469E-05-3.45653E-05 6.07560E-07-4.82587E-18-3.04188E-18
 -1       715 1.03865E-04-1.52205E-05-4.51119E-05 1.97268E-06-1.38680E-18 4.70307E-17
 -1       716 9.52643E-05-2.81819E-05-2.87495E-05-6.90735E-07-4.51971E-19-4.07012E-18
 -1       717 9.33806E-05-2.74676E-05-2.82481E-05-3.05072E-06 3.65947E-19-5.09435E-19
 -1       718 9.31987E-05-2.72688E-05-2.82553E-05-2.44768E-06 6.75375E-19-6.24279E-19
 -1       719 9.08137E-05-2.23726E-05-2.93260E-05-5.36654E-06-1.46072E-18-1.41114E-18
 -1       720 8.46827E-05-1.14842E-05-3.46161E-05-4.28774E-07-1.76919E-16 1.45354E-16
 -1       721 8.92122E-05-1.70408E-05-3.09364E-05 2.38681E-06 1.24763E-18-2.20570E-18
 -1       722 8.82387E-05-1.65818E-05-3.07158E-05-4.86695E-06-6.78787E-19-2.22031E-18
 -1       723 1.03278E-04-5.20270E-05-2.18360E-05 2.52582E-05 4.00367E-18 4.19822E-18
 -1       724 1.34040E-04-2.89305E-05-4.56477E-05-1.99824E-05 1.53392E-18-7.56390E-18
 -1       725 1.32555E-04-2.33139E-05-4.73481E-05 1.47184E-05 4.31320E-18-5.24356E-18
 -1       726 1.42820E-04-4.44663E-05-4.26535E-05 1.28942E-05 3.54032E-18-2.67419E-18
 -1       727 1.19765E-04-5.75065E-05-2.65924E-05-2.61971E-05 1.28402E-18-3.96511E-19
 -1       728 3.41604E-05-1.07898E-05-9.44428E-06-2.79009E-06 3.37685E-18-1.89947E-18
 -1       729 1.48805E-04-8.88811E-05-2.84268E-05-1.13329E-04 5.58249E-16-1.68214E-16
 -1       730 1.19094E-04-5.37371E-05-2.80367E-05 9.26653E-06 2.96688E-18 4.19223E-18
 -1       731 1.11197E-04-1.68937E-05-4.07837E-05-1.51673E-05-4.98834E-18 1.24853E-17
 -1       732 1.14950E-04-3.94800E-05-3.75406E-05-2.56541E-05 1.14174E-16 6.59491E-17
 -1       733 8.88845E-05-1.78067E-05-3.04677E-05-6.07869E-06-1.24947E-18-2.16033E-18
 -1       734 8.78390E-05-1.55362E-05-3.09920E-05-2.04545E-06 1.11392E-20-2.45997E-18
 -1       735 1.20566E-04-4.69027E-05-3.17160E-05-3.72706E-06 1.49816E-18 6.40772E-18
 -1       736 1.32218E-04-6.05796E-05-3.04808E-05 1.07287E-05-3.88740E-18-1.57352E-18
 -1       737 9.67857E-05-1.35392E-06-4.18818E-05 3.33241E-06-1.28987E-17 1.28319E-17
 -1       738 4.13557E-05-1.27539E-05-1.18034E-05 1.03370E-05 3.12674E-18-5.13487E-19
 -1       739 5.22415E-05-7.70371E-06-1.51049E-05-3.14084E-05 1.11662E-16-9.18349E-18
 -1       740 1.02466E-04-4.82366E-05-2.29864E-05-3.11965E-05-8.89385E-20-2.72134E-18
 -1       741 9.50894E-05-2.79449E-05-2.87763E-05 7.75554E-07-3.97119E-19 1.80921E-18
 -1       742 6.68079E-05-2.80444E-05-1.62749E-05-3.26378E-05 8.19306E-19-3.84934E-18
 -1       743 1.14048E-04-2.90909E-05-3.65910E-05-1.45163E-05-3.16163E-18 1.01856E-17
 -1       744 8.98821E-05-4.44345E-05-1.92234E-05 2.94847E-05 3.92088E-18 3.19223E-18
 -1       745 9.48927E-05-2.77284E-05-2.87848E-05 7.44694E-07 7.78051E-19 1.63900E-18
 -1       746 1.31950E-04-5.96213E-05-3.10689E-05-1.20624E-05-3.87147E-19-1.07842E-18
 -1       747 8.78986E-05-1.58430E-05-3.08862E-05-3.49878E-06-2.35850E-19-2.43794E-18
 -1       748 5.78423E-05-2.71440E-05-1.27408E-05 3.01514E-05 4.68903E-18 1.32659E-18
 -1       749 1.42046E-04-4.65942E-05-4.11764E-05-1.55874E-05-1.71322E-18-6.08225E-18
 -1       750 9.51033E-05-2.79557E-05-2.87776E-05-8.44599E-07-1.29345E-18-1.84658E-18
 -1       751 9.00610E-05-2.01390E-05-2.99693E-05-6.82779E-06-1.70257E-18-1.63664E-18
 -1       752 5.26899E-05-1.37362E-05-1.64314E-05 1.08768E-05 2.00310E-19 8.67891E-19
 -1       753 9.19726E-05-2.20129E-05-2.99801E-05 2.34764E-06 1.50443E-18-1.39394E-18
 -1       754 9.34654E-05-2.70013E-05-2.84845E-05-4.56798E-06 4.68612E-19-2.28430E-19
 -1       755 9.12520E-05-2.40126E-05-2.88166E-05-2.48572E-06-1.05306E-18-1.45339E-18
 -1       756 9.98451E-05-1.21782E-05-3.79415E-05-8.80322E-06-8.08529E-18 8.73597E-18
 -1       757 9.13819E-05-2.51847E-05-2.83700E-05-1.14758E-06-8.44999E-19-1.43349E-18
 -1       758 9.13048E-05-2.58759E-05-2.80410E-05-1.56724E-07-8.09478E-19-1.14531E-18
 -1       759 9.11065E-05-2.62179E-05-2.78094E-05 5.90203E-07-7.75067E-19-1.28871E-18
 -1       760 9.08388E-05-2.63149E-05-2.76531E-05 1.18913E-06-5.78582E-19-1.20344E-18
 -1       761 9.05316E-05-2.62414E-05-2.75529E-05 1.72392E-06-3.80087E-19-1.32952E-18
 -1       762 9.02048E-05-2.60564E-05-2.74921E-05 2.26016E-06-4.22807E-19-7.00668E-19
 -1       763 8.98774E-05-2.58149E-05-2.74553E-05 2.84575E-06-4.67061E-19-2.34046E-19
 -1       764 8.95753E-05-2.55769E-05-2.74278E-05 3.51159E-06-6.07609E-19 3.97208E-19
 -1       765 8.93398E-05-2.54173E-05-2.73953E-05 4.27134E-06-3.85170E-19 2.76661E-19
 -1       766 8.92378E-05-2.54353E-05-2.73438E-05 5.11947E-06-4.95871E-19 8.45657E-20
 -1       767 8.93751E-05-2.57638E-05-2.72618E-05 6.02603E-06-3.25167E-19-2.35129E-19
 -1       768 8.99100E-05-2.65735E-05-2.71441E-05 6.92546E-06-4.92384E-19 2.58410E-19
 -1       769 9.10634E-05-2.80643E-05-2.69997E-05 7.69369E-06-4.96012E-19 9.87304E-19
 -1       770 9.31084E-05-3.04232E-05-2.68661E-05 8.10693E-06-7.74979E-19 1.35605E-18
 -1       771 9.63086E-05-3.37114E-05-2.68288E-05 7.77754E-06 2.53658E-19 1.11050E-18
 -1       772 1.00748E-04-3.76253E-05-2.70540E-05 6.07351E-06-6.26157E-19 1.62321E-18
 -1       773 1.05883E-04-4.10908E-05-2.77645E-05 2.31603E-06-1.67170E-19 2.23422E-18
 -1       774 1.09815E-04-4.11503E-05-2.94367E-05-3.84001E-06-6.78976E-19 3.97446E-18
 -1       775 1.10763E-04-3.59533E-05-3.21063E-05-1.05955E-05-2.47135E-18 5.90121E-18
 -1       776 9.34564E-05-2.11905E-05-3.87786E-05 2.73917E-05-2.29760E-17 1.18076E-17
 -1       777 1.01970E-04-2.21229E-05-3.41246E-05 2.05978E-05-5.71024E-17-4.31275E-17
 -1       778 5.05588E-05 1.04302E-05-2.84582E-05 1.86226E-05-2.02911E-17-1.83239E-17
 -1       779 6.00263E-05 3.57830E-05-2.28710E-05-4.02086E-05 3.46678E-17-1.16283E-16
 -1       780 1.93544E-04-1.02092E-04-2.76324E-05-7.45472E-05 8.03500E-17 1.11248E-16
 -1       781 2.02115E-04-8.34638E-05-2.87809E-05-6.14699E-05 5.43795E-16 1.11029E-17
 -1       782 1.76666E-04 6.19513E-05-8.34058E-05-1.37807E-04 5.26992E-16-5.72839E-16
 -1       783 1.88029E-04-1.41091E-05-3.49438E-05-5.57721E-05 1.78343E-16-3.07033E-16
 -1       784 9.52685E-05-2.76842E-05-2.89643E-05-6.43060E-06-7.80438E-19 1.18910E-18
 -1       785 9.48114E-05-2.71132E-05-2.90132E-05-5.51394E-06 1.80541E-18 1.10279E-18
 -1       786 9.46329E-05-2.68990E-05-2.90286E-05-4.61956E-06 2.21387E-18 2.82048E-19
 -1       787 9.46131E-05-2.69076E-05-2.90164E-05-3.79251E-06 6.21100E-19 1.65088E-18
 -1       788 9.46743E-05-2.70417E-05-2.89852E-05-3.05596E-06-5.12189E-19 3.00630E-18
 -1       789 9.47683E-05-2.72344E-05-2.89430E-05-2.41869E-06 4.31247E-19 1.68290E-18
 -1       790 9.48677E-05-2.74428E-05-2.88963E-05-1.88022E-06 1.22079E-18 6.53429E-19
 -1       791 9.49582E-05-2.76407E-05-2.88502E-05-1.43457E-06-4.55043E-20 1.27869E-18
 -1       792 9.50486E-05-2.78172E-05-2.88134E-05-1.11322E-06 1.11764E-18-2.86383E-19
 -1       793 9.34911E-05-2.71630E-05-2.84262E-05-3.99639E-06 3.73534E-19-3.30542E-19
 -1       794 9.33081E-05-2.63869E-05-2.86803E-05-5.97620E-06 2.57960E-19-1.48677E-21
 -1       795 9.31630E-05-2.59956E-05-2.87857E-05-6.89113E-06 3.08013E-19-8.17817E-20
 -1       796 9.29805E-05-2.56177E-05-2.88694E-05-7.97957E-06 2.63032E-19-5.53415E-20
 -1       797 9.27997E-05-2.53536E-05-2.89049E-05-9.25369E-06 1.08292E-19-5.78999E-20
 -1       798 9.27193E-05-2.53757E-05-2.88609E-05-1.07195E-05-4.56609E-20 1.17435E-18
 -1       799 9.29477E-05-2.59688E-05-2.87045E-05-1.23795E-05-4.23363E-19 9.42727E-19
 -1       800 9.38816E-05-2.75774E-05-2.84141E-05-1.42222E-05-1.07622E-18 2.48638E-19
 -1       801 9.61547E-05-3.07918E-05-2.80053E-05-1.61888E-05-6.34419E-19 4.01826E-19
 -1       802 1.01068E-04-3.66178E-05-2.76408E-05-1.81133E-05-3.07854E-19 5.62559E-19
 -1       803 1.10375E-04-4.55378E-05-2.77256E-05-1.89059E-05-4.86968E-19 6.43054E-19
 -1       804 1.03669E-04-3.95982E-05-2.74304E-05 1.78159E-05-1.27680E-18-1.87673E-18
 -1       805 9.71124E-05-3.23421E-05-2.77532E-05 1.60921E-05-1.73839E-18-1.72399E-18
 -1       806 9.43010E-05-2.82197E-05-2.83185E-05 1.39646E-05-2.32349E-19-9.79003E-19
 -1       807 9.32525E-05-2.61182E-05-2.87713E-05 1.19089E-05-7.73724E-19-1.01818E-18
 -1       808 9.31136E-05-2.52864E-05-2.90682E-05 1.00359E-05-2.72097E-19-2.19389E-18
 -1       809 9.33691E-05-2.51734E-05-2.92261E-05 8.36433E-06 5.88466E-19-2.60548E-18
 -1       810 9.37474E-05-2.54258E-05-2.92802E-05 6.88669E-06 4.39538E-19-1.03721E-18
 -1       811 9.41198E-05-2.58333E-05-2.92652E-05 5.59556E-06-5.70416E-19-7.32581E-19
 -1       812 9.44353E-05-2.62790E-05-2.92095E-05 4.48414E-06-1.79445E-18-5.02846E-19
 -1       813 9.46818E-05-2.67026E-05-2.91337E-05 3.54318E-06 9.41495E-20-1.42848E-19
 -1       814 9.48638E-05-2.70761E-05-2.90516E-05 2.75950E-06 3.91740E-19 9.85376E-19
 -1       815 9.49917E-05-2.73898E-05-2.89720E-05 2.11556E-06 3.41872E-19 9.86872E-19
 -1       816 9.50777E-05-2.76441E-05-2.89000E-05 1.59673E-06 8.92947E-19 3.30515E-19
 -1       817 9.51286E-05-2.78406E-05-2.88376E-05 1.18054E-06 1.12317E-18 1.24972E-18
 -1       818 9.51023E-05-2.78941E-05-2.88038E-05 9.61996E-07 5.33106E-19 1.57731E-18
 -1       819 9.41756E-05-2.70006E-05-2.87893E-05-3.80638E-08-8.47847E-19-3.31918E-18
 -1       820 9.46972E-05-2.75030E-05-2.87977E-05-9.32027E-07-8.44118E-19-1.36018E-18
 -1       821 9.42498E-05-2.70754E-05-2.87891E-05-4.02682E-07-9.56987E-19-2.27397E-18
 -1       822 9.05403E-05-2.15643E-05-2.95596E-05-4.87464E-06-1.30006E-18-1.68485E-18
 -1       823 9.44310E-05-2.72488E-05-2.87923E-05-7.16333E-07-4.66829E-19-2.75254E-18
 -1       824 1.08597E-04-3.46545E-05-1.89823E-05-8.20588E-05 2.16656E-16-1.16160E-16
 -1       825 1.06176E-04-4.97873E-05-2.38918E-05 2.72412E-05-1.11900E-18 3.68500E-19
 -1       826 9.34073E-05-2.67337E-05-2.85742E-05-5.21280E-06 5.49262E-19-8.50174E-20
 -1       827 1.30235E-04-3.25625E-05-2.57241E-05-4.59299E-05 4.45997E-17-6.57975E-17
 -1       828 9.34913E-05-2.71909E-05-2.84144E-05-3.43789E-06 6.05488E-20-8.76652E-19
 -1       829 9.34671E-05-2.70466E-05-2.84659E-05-2.81524E-06 3.96000E-19-8.28435E-19
 -1       830 8.99153E-05-1.87726E-05-3.04908E-05-2.58176E-07 4.58990E-19-1.96868E-18
 -1       831 1.09340E-04-4.96754E-05-2.55545E-05 1.34459E-05 1.62516E-18 3.13938E-18
 -1       832 9.26769E-05-2.37814E-05-2.95269E-05 1.93286E-06 1.46664E-18-1.28390E-18
 -1       833 7.48319E-05-2.95825E-05-1.91862E-05 2.83103E-05-9.31670E-19 1.68124E-18
 -1       834 9.37661E-05-7.08202E-06-4.07974E-05 1.54427E-05-1.89345E-17 1.78427E-17
 -1       835 7.75436E-05-1.23421E-05-3.97551E-05 1.70189E-05-1.13651E-17 6.27101E-17
 -1       836 9.34079E-05-2.66715E-05-2.86016E-05-2.02937E-06 9.24511E-19-9.77181E-19
 -1       837 4.95689E-05-1.35477E-05-1.51159E-05-1.40299E-05 2.03727E-18-2.31716E-18
 -1       838 1.79792E-04-6.88807E-05-2.49908E-05-1.48053E-05 6.12045E-17-1.62056E-16
 -1       839 8.95859E-05-1.84763E-05-3.04765E-05-1.33920E-06 1.33245E-19-2.17575E-18
 -1       840 9.11968E-05-2.05745E-05-3.02667E-05 1.70028E-06 1.10528E-18-1.67602E-18
 -1       841 6.85805E-05-2.08340E-05-2.03368E-05 1.89686E-05 7.54333E-20 5.90931E-19
 -1       842 8.99475E-05-1.99926E-05-2.99825E-05-4.19262E-06-8.92082E-19-1.84197E-18
 -1       843 1.17569E-04-5.42906E-05-2.69888E-05-2.26144E-05 7.35436E-19 1.16465E-18
 -1       844 5.35585E-05-1.82648E-05-1.48378E-05 1.93706E-05 2.89425E-18 9.79726E-19
 -1       845 5.52178E-05-1.26088E-05-1.80802E-05-9.81699E-07 7.31114E-19-9.79302E-19
 -1       846 8.81887E-05-3.78744E-05-2.14293E-05-3.12813E-05 8.90046E-20-2.82622E-18
 -1       847 6.22763E-05-1.95837E-05-1.80764E-05-2.21498E-05 1.02866E-18-2.67043E-18
 -1       848 9.42194E-05-2.70346E-05-2.87936E-05 3.42700E-07-3.48683E-20-2.12605E-18
 -1       849 9.43825E-05-2.71792E-05-2.88014E-05 6.82755E-07 1.32721E-18 1.31530E-18
 -1       850 9.30865E-05-2.53522E-05-2.90289E-05 6.98038E-08 9.66606E-19-1.26138E-18
 -1       851 9.32867E-05-2.61517E-05-2.87717E-05-1.12587E-06 8.42464E-19-1.02774E-18
 -1       852 1.00999E-04-4.57075E-05-2.36138E-05 1.88433E-05 1.93142E-18 2.40748E-18
 -1       853 1.13738E-04-4.81797E-05-2.81650E-05 3.59172E-06 1.21284E-18 4.48574E-18
 -1       854 9.46079E-05-2.73894E-05-2.88077E-05 8.86206E-07 1.01671E-18 2.41210E-18
 -1       855 9.04566E-05-1.94640E-05-3.04263E-05 7.78188E-07 9.09879E-19-2.08762E-18
 -1       856 7.75709E-05-3.51558E-05-1.79912E-05 2.88307E-05 3.24817E-18 1.96738E-18
 -1       857 8.28569E-05-1.24998E-05-2.30240E-05-5.94115E-05 1.70989E-16-5.24460E-17
 -1       858 8.96040E-05-1.90737E-05-3.02289E-05-3.38177E-06-4.68234E-19-1.77508E-18
 -1       859 9.48615E-05-2.76485E-05-2.88048E-05-1.04239E-06-8.31696E-19-4.77688E-20
 -1       860 4.88770E-05-1.16987E-05-1.56562E-05-3.20388E-06 2.16064E-18-1.38740E-18
 -1       861 9.16405E-05-2.50890E-05-2.85222E-05-9.29023E-07-5.04056E-19-1.25746E-18
 -1       862 9.15740E-05-2.57504E-05-2.82102E-05-1.39691E-07-7.14867E-19-1.19728E-18
 -1       863 9.13174E-05-2.60363E-05-2.79776E-05 4.86187E-07-5.35575E-19-8.05860E-19
 -1       864 9.09278E-05-2.60460E-05-2.78065E-05 1.02487E-06-4.73554E-19-7.49816E-19
 -1       865 9.04418E-05-2.58574E-05-2.76790E-05 1.54138E-06-3.10434E-19-9.29556E-19
 -1       866 8.98856E-05-2.55371E-05-2.75779E-05 2.09028E-06-3.24385E-19-1.06359E-18
 -1       867 8.92845E-05-2.51509E-05-2.74858E-05 2.71566E-06-2.04550E-19-1.07671E-18
 -1       868 8.86717E-05-2.47731E-05-2.73851E-05 3.45217E-06-5.54135E-19-8.01443E-19
 -1       869 8.80986E-05-2.44972E-05-2.72577E-05 4.32700E-06-2.41632E-19-5.95014E-19
 -1       870 8.76493E-05-2.44478E-05-2.70863E-05 5.36011E-06-2.40551E-19-3.00255E-19
 -1       871 8.74586E-05-2.47934E-05-2.68564E-05 6.56181E-06-2.42686E-19-5.26216E-20
 -1       872 8.77372E-05-2.57572E-05-2.65627E-05 7.92068E-06-3.49354E-20 8.15249E-21
 -1       873 8.87994E-05-2.76182E-05-2.62201E-05 9.36820E-06-5.02300E-19 3.85751E-19
 -1       874 9.10774E-05-3.06783E-05-2.58864E-05 1.07006E-05-4.29629E-20 1.25676E-18
 -1       875 9.51045E-05-3.51517E-05-2.56892E-05 1.14433E-05 1.66153E-19 1.33855E-18
 -1       876 1.01298E-04-4.08432E-05-2.58798E-05 1.06178E-05 4.81027E-19 2.01167E-18
 -1       877 9.38297E-05-2.66627E-05-2.87860E-05-3.02218E-07-6.91815E-19-4.37930E-18
 -1       878 1.29721E-04-2.08873E-05-4.33650E-05-6.36266E-05 9.17895E-17-1.74487E-17
 -1       879 1.85783E-04-6.50923E-05-4.85890E-05-4.74669E-05 2.07060E-16-3.40991E-17
 -1       880 1.75943E-04-1.53662E-05-5.99769E-05-3.73589E-05 3.29551E-16-2.42931E-16
 -1       881 1.31800E-04-4.64634E-06-3.20575E-05-4.15610E-05 1.24254E-16-2.74611E-16
 -1       882 9.30139E-05-2.67047E-05-2.84178E-05-7.36410E-06-8.26256E-19-3.27417E-19
 -1       883 9.28027E-05-2.60504E-05-2.86080E-05-6.11146E-06 7.96148E-19 8.91086E-19
 -1       884 9.29088E-05-2.58500E-05-2.87394E-05-5.00957E-06 1.44110E-18-8.94527E-20
 -1       885 9.31772E-05-2.59323E-05-2.88192E-05-4.05734E-06 1.97366E-18-1.44010E-18
 -1       886 9.35097E-05-2.61732E-05-2.88584E-05-3.24619E-06 4.16564E-19-1.87803E-19
 -1       887 9.38473E-05-2.64873E-05-2.88685E-05-2.56435E-06 8.80153E-19 1.44639E-18
 -1       888 9.41581E-05-2.68190E-05-2.88596E-05-1.99880E-06 7.31280E-19 2.64466E-18
 -1       889 9.44301E-05-2.71369E-05-2.88399E-05-1.53516E-06 7.68303E-19-7.44231E-19
 -1       890 9.29402E-05-2.65938E-05-2.84342E-05-4.14142E-06 2.67642E-19-1.03323E-18
 -1       891 9.07583E-05-2.44738E-05-2.84075E-05-6.98711E-06 1.27010E-19-4.24892E-19
 -1       892 9.14973E-05-2.51416E-05-2.84381E-05-6.09547E-06 4.00765E-19-2.16431E-19
 -1       893 8.88827E-05-2.32703E-05-2.81195E-05-9.34258E-06-8.46201E-19 1.83195E-19
 -1       894 8.78501E-05-2.30369E-05-2.77772E-05-1.09375E-05 4.12162E-20 6.06072E-19
 -1       895 8.69610E-05-2.34113E-05-2.72362E-05-1.29907E-05-2.10838E-19 4.30845E-19
 -1       896 8.65908E-05-2.48854E-05-2.64499E-05-1.57741E-05-6.40001E-19-3.71035E-19
 -1       897 8.78287E-05-2.83564E-05-2.54469E-05-1.96983E-05-2.63697E-19-9.26340E-19
 -1       898 1.14453E-04-5.02588E-05-2.74285E-05-2.01302E-05 4.75280E-19 7.54283E-19
 -1       899 8.68219E-05-2.34395E-05-2.71655E-05 1.24454E-05-5.58946E-19-4.99192E-19
 -1       900 8.63987E-05-2.54449E-05-2.61267E-05 1.56997E-05-1.12441E-18-2.49299E-19
 -1       901 9.06419E-05-2.16283E-05-2.95749E-05-3.62981E-06-9.71222E-19-1.62633E-18
 -1       902 8.79937E-05-2.98836E-05-2.48499E-05 2.01823E-05-1.02281E-18 1.05369E-18
 -1       903 8.79285E-05-2.28190E-05-2.79045E-05 1.00786E-05 4.14934E-21-5.41457E-19
 -1       904 8.92160E-05-2.29563E-05-2.83969E-05 8.26581E-06 3.17133E-19-1.11777E-18
 -1       905 9.04490E-05-2.34762E-05-2.87025E-05 6.80179E-06-2.85168E-19-9.26470E-19
 -1       906 9.15284E-05-2.41543E-05-2.88745E-05 5.57491E-06-1.01041E-18-1.41502E-18
 -1       907 9.24251E-05-2.48623E-05-2.89554E-05 4.52938E-06-2.31233E-18-1.54670E-19
 -1       908 9.31447E-05-2.55303E-05-2.89775E-05 3.63746E-06-1.12131E-18-1.79274E-19
 -1       909 9.37075E-05-2.61244E-05-2.89642E-05 2.88329E-06-4.82589E-19 1.36863E-18
 -1       910 9.41387E-05-2.66310E-05-2.89317E-05 2.25349E-06 5.56814E-21 3.53622E-18
 -1       911 9.44558E-05-2.70465E-05-2.88900E-05 1.73072E-06 2.44206E-19 3.37534E-18
 -1       912 9.46962E-05-2.73827E-05-2.88480E-05 1.30983E-06 6.44779E-19 3.58692E-18
 -1       913 1.37007E-04-4.50858E-05-3.04388E-05-5.50429E-05 1.18982E-16-8.41595E-17
 -1       914 9.34167E-05-2.64117E-05-2.87165E-05-2.33924E-06 6.95827E-19-7.37596E-19
 -1       915 9.32058E-05-2.67718E-05-2.84717E-05-3.60102E-06 9.79123E-20-9.51266E-19
 -1       916 9.33705E-05-2.67316E-05-2.85596E-05-3.02497E-06 2.45119E-19-5.71639E-19
 -1       917 8.94770E-05-1.85729E-05-3.03897E-05-2.39264E-06-1.45632E-19-2.43135E-18
 -1       918 9.48594E-05-2.76395E-05-2.88085E-05 9.68311E-07 1.94711E-19 3.68122E-18
 -1       919 9.28338E-05-2.41873E-05-2.94214E-05 5.21932E-07 1.06418E-18-1.19950E-18
 -1       920 8.98790E-05-2.38123E-05-2.83141E-05-8.05378E-06-7.79588E-20 6.43293E-20
 -1       921 1.47758E-04-4.74278E-05-3.32230E-05-2.39137E-05 5.55060E-17-4.07304E-17
 -1       922 9.14658E-05-2.39579E-05-2.89324E-05-1.96135E-06-8.83861E-19-1.37442E-18
 -1       923 6.35233E-05-1.56209E-05-2.04129E-05 1.00790E-05-7.53475E-20 1.56801E-18
 -1       924 9.40123E-05-2.68290E-05-2.87929E-05-7.41375E-07-5.51462E-19-9.84126E-19
 -1       925 9.13835E-05-2.14225E-05-2.99833E-05-3.76154E-07 4.96147E-19-1.75101E-18
 -1       926 5.93864E-05-1.44820E-05-1.91017E-05-1.10917E-05 1.89431E-18-1.57062E-18
 -1       927 6.90336E-05-2.59840E-05-1.83304E-05 2.32944E-05 2.17613E-18 1.08547E-18
 -1       928 9.46781E-05-2.74186E-05-2.88254E-05-1.27278E-06 3.21512E-19-1.00492E-19
 -1       929 9.25737E-05-2.62398E-05-2.84288E-05-4.70701E-06 4.42432E-19-5.96873E-19
 -1       930 7.84909E-05-2.80570E-05-2.15145E-05-2.57892E-05-1.20282E-19-2.88748E-18
 -1       931 9.20977E-05-2.57448E-05-2.84369E-05-5.34615E-06 1.91522E-19-4.97981E-19
 -1       932 9.32997E-05-2.57204E-05-2.89634E-05-1.45553E-06 6.40007E-19-7.86538E-19
 -1       933 9.38018E-05-2.66283E-05-2.87888E-05 1.83166E-07-3.33397E-19-3.80032E-18
 -1       934 9.39414E-05-2.67373E-05-2.88019E-05 6.53403E-07 2.21802E-19-1.54213E-18
 -1       935 5.33240E-05-1.33136E-05-1.69614E-05 6.80872E-06 1.78189E-18 4.53560E-20
 -1       936 9.09823E-05-2.09656E-05-3.00071E-05-1.04027E-06 3.63927E-19-2.01317E-18
 -1       937 1.41144E-04-4.16752E-05-3.84708E-05-3.32069E-05 8.92161E-17-4.04810E-17
 -1       938 9.41891E-05-2.69487E-05-2.88177E-05 9.78953E-07 1.15951E-19 1.42372E-18
 -1       939 9.25707E-05-4.02791E-05-2.23032E-05 2.21091E-05 2.21858E-18 2.25251E-18
 -1       940 9.03622E-05-2.06642E-05-2.98701E-05-3.12848E-06-6.26817E-19-1.56513E-18
 -1       941 6.79510E-05-8.85078E-06-2.02773E-05-2.22817E-05 6.12123E-17-1.39162E-17
 -1       942 9.18476E-05-2.51076E-05-2.86027E-05-8.14372E-07-4.85692E-19-9.99775E-19
 -1       943 9.17108E-05-2.56592E-05-2.83079E-05-2.50366E-07-5.88054E-19-9.65763E-19
 -1       944 9.13473E-05-2.58306E-05-2.80786E-05 2.29714E-07-2.18180E-19-7.90522E-19
 -1       945 9.08064E-05-2.57120E-05-2.78976E-05 6.75216E-07-2.73051E-19-8.05734E-19
 -1       946 9.01232E-05-2.53801E-05-2.77471E-05 1.13592E-06-5.41148E-19-6.38633E-19
 -1       947 8.93229E-05-2.49040E-05-2.76081E-05 1.65775E-06-4.72904E-19-8.60673E-19
 -1       948 8.84301E-05-2.43554E-05-2.74607E-05 2.28372E-06-3.49961E-19-1.25556E-18
 -1       949 8.74749E-05-2.38142E-05-2.72833E-05 3.05696E-06-1.65304E-19-6.06709E-19
 -1       950 8.65061E-05-2.33833E-05-2.70529E-05 4.02601E-06 2.95088E-21-5.04482E-19
 -1       951 8.56037E-05-2.31983E-05-2.67455E-05 5.24876E-06 7.54800E-20-4.61698E-19
 -1       952 8.49019E-05-2.34453E-05-2.63389E-05 6.79836E-06-1.47431E-19 2.56452E-19
 -1       953 8.46284E-05-2.43864E-05-2.58183E-05 8.75665E-06-1.02871E-19 2.95572E-19
 -1       954 8.51667E-05-2.63883E-05-2.51895E-05 1.11824E-05 5.11043E-19 8.46530E-19
 -1       955 8.71175E-05-2.98986E-05-2.45249E-05 1.39218E-05 4.70002E-19 1.09821E-18
 -1       956 9.16139E-05-3.56691E-05-2.39509E-05 1.66057E-05 8.86496E-19 1.90574E-18
 -1       957 7.97840E-05-2.02219E-05-2.55344E-05-1.20100E-05 3.34790E-19-4.11354E-19
 -1       958 9.19353E-05-2.22384E-05-2.98710E-05 2.25238E-07 7.16896E-19-1.71775E-18
 -1       959 8.93810E-05-2.38015E-05-2.81055E-05-5.59700E-06 4.60996E-19 9.89316E-21
 -1       960 1.41700E-04-3.29355E-05-4.60894E-05-2.97430E-05 1.15793E-16-5.04500E-17
 -1       961 1.43228E-04-2.27736E-05-4.97250E-05-1.69287E-05 1.10601E-16-1.22914E-16
 -1       962 1.26954E-04-2.92294E-05-2.99652E-05-2.69758E-05-7.90946E-18-1.68061E-16
 -1       963 8.92914E-05-2.46522E-05-2.77036E-05-7.66808E-06-8.18195E-19 3.30627E-19
 -1       964 8.98052E-05-2.42702E-05-2.80876E-05-6.00371E-06 1.38552E-19-9.78969E-19
 -1       965 9.05064E-05-2.43193E-05-2.83665E-05-4.70444E-06 6.29411E-21-1.89634E-18
 -1       966 9.12654E-05-2.46310E-05-2.85580E-05-3.68090E-06 1.45761E-19-2.67114E-18
 -1       967 9.20007E-05-2.50785E-05-2.86811E-05-2.87065E-06 2.11054E-18-3.14864E-18
 -1       968 9.26716E-05-2.55808E-05-2.87535E-05-2.22574E-06 2.85777E-18-8.39848E-19
 -1       969 9.32538E-05-2.60779E-05-2.87901E-05-1.71491E-06-2.84081E-19-1.30802E-18
 -1       970 9.37448E-05-2.65374E-05-2.88032E-05-1.30916E-06-1.69044E-18-2.23692E-18
 -1       971 6.93340E-05-1.95563E-05-2.12528E-05-1.79516E-05 1.15288E-18-1.82684E-18
 -1       972 9.31790E-05-2.55606E-05-2.89786E-05-1.81770E-06 4.38152E-19-1.25315E-18
 -1       973 8.23333E-05-2.04298E-05-2.65332E-05-9.85235E-06 4.30506E-21-1.21324E-19
 -1       974 8.45548E-05-2.10683E-05-2.72089E-05-8.35289E-06-4.79146E-19-2.17959E-19
 -1       975 7.70085E-05-2.07726E-05-2.40865E-05-1.53405E-05 8.35141E-20-1.10212E-18
 -1       976 8.47124E-05-2.06659E-05-2.74490E-05 6.96675E-06 4.69963E-19-4.82098E-19
 -1       977 8.69337E-05-2.15285E-05-2.80309E-05 5.73921E-06-8.28816E-20-4.23151E-19
 -1       978 8.87630E-05-2.24820E-05-2.84062E-05 4.76498E-06-7.79243E-19-6.46680E-19
 -1       979 9.02518E-05-2.34325E-05-2.86370E-05 3.94349E-06-1.66947E-18-6.82816E-20
 -1       980 9.14482E-05-2.43221E-05-2.87683E-05 3.23396E-06-1.29755E-18-4.09394E-19
 -1       981 9.23964E-05-2.51181E-05-2.88336E-05 2.61791E-06-1.91857E-18 1.38877E-18
 -1       982 9.31401E-05-2.58078E-05-2.88568E-05 2.09155E-06-8.80437E-19 2.24751E-18
 -1       983 9.37131E-05-2.63883E-05-2.88543E-05 1.64148E-06-8.21194E-19 1.01737E-18
 -1       984 7.59465E-05-2.10238E-05-2.35008E-05 1.53091E-05-3.09045E-19 2.33871E-19
 -1       985 9.31303E-05-2.50814E-05-2.91655E-05-5.84051E-07 8.84491E-19-1.11415E-18
 -1       986 9.31967E-05-2.61549E-05-2.87321E-05-2.48160E-06 3.97984E-19-8.14979E-19
 -1       987 7.92065E-05-2.00578E-05-2.53510E-05 1.12221E-05-5.82515E-19-6.73201E-20
 -1       988 9.26195E-05-2.62620E-05-2.84388E-05-3.49367E-06 3.03573E-19-8.23378E-19
 -1       989 9.02250E-05-2.00772E-05-3.00645E-05-2.41782E-06-3.17709E-19-2.23165E-18
 -1       990 8.21508E-05-2.00959E-05-2.65956E-05 8.67638E-06-4.17448E-19 2.08286E-19
 -1       991 9.43057E-05-2.70820E-05-2.88103E-05-1.12983E-06-2.23039E-20-2.77220E-18
 -1       992 9.29965E-05-2.63596E-05-2.85584E-05-3.02188E-06 4.52344E-19-8.58581E-19
 -1       993 5.87088E-05-1.32500E-05-1.93953E-05-2.88552E-06 1.55430E-18-1.50898E-18
 -1       994 9.07589E-05-2.08740E-05-2.99489E-05-1.70951E-06 7.30705E-20-2.00794E-18
 -1       995 1.03041E-04-1.51834E-05-3.30133E-05-5.15828E-05 1.28425E-16-5.31676E-17
 -1       996 9.16805E-05-2.40638E-05-2.89787E-05-1.53183E-06-5.22666E-19-1.07164E-18
 -1       997 9.28769E-05-2.44312E-05-2.93311E-05-8.34475E-07 5.32640E-19-1.33535E-18
 -1       998 9.34745E-05-2.63205E-05-2.87800E-05-6.95874E-07-3.15280E-19-2.59005E-18
 -1       999 9.24030E-05-2.35062E-05-2.95258E-05-8.28871E-07 4.43281E-19-1.68106E-18
 -1      1000 8.80532E-05-2.28782E-05-2.79322E-05-6.33590E-06 1.19905E-19 2.69879E-19
 -1      1001 6.27120E-05-1.82562E-05-1.89765E-05 1.45952E-05 1.66746E-18 6.11505E-19
 -1      1002 9.20758E-05-2.59140E-05-2.83552E-05-3.94822E-06 4.26103E-19-1.24262E-18
 -1      1003 6.94657E-05-1.69185E-05-2.24833E-05-1.16558E-05 6.77048E-19-1.26750E-18
 -1      1004 9.33196E-05-2.61789E-05-2.87744E-05-1.06380E-07-7.99242E-19-4.76205E-18
 -1      1005 9.04767E-05-2.46471E-05-2.82129E-05-4.97356E-06-1.74395E-19-3.93850E-19
 -1      1006 1.22360E-04-2.44545E-05-3.99400E-05-3.66139E-05 1.08234E-16-4.67942E-17
 -1      1007 9.33892E-05-2.62182E-05-2.87870E-05 5.10727E-07-1.12914E-18-3.90142E-18
 -1      1008 9.20150E-05-2.29818E-05-2.95852E-05-1.09033E-06 2.05271E-19-1.71168E-18
 -1      1009 1.05781E-04-4.50559E-05-2.59324E-05 1.07976E-05 1.91378E-18 3.83050E-18
 -1      1010 9.34535E-05-2.62276E-05-2.88106E-05 1.08154E-06-1.02196E-18 7.97262E-19
 -1      1011 6.36917E-05-1.41651E-05-2.11654E-05 1.13836E-06 6.04009E-19-1.23068E-18
 -1      1012 8.64535E-05-2.19345E-05-2.76512E-05-7.22791E-06-4.75485E-19 4.23031E-19
 -1      1013 9.11973E-05-2.23702E-05-2.94993E-05-2.11764E-06-4.97414E-19-1.40194E-18
 -1      1014 6.69710E-05-1.49171E-05-2.22824E-05-2.64011E-06 8.88963E-19-1.16388E-18
 -1      1015 8.09859E-05-2.90045E-05-2.22292E-05 1.88024E-05 9.32345E-19 1.37987E-18
 -1      1016 9.17539E-05-2.55998E-05-2.83518E-05-5.33428E-07-4.00732E-19-1.52626E-18
 -1      1017 9.12538E-05-2.56167E-05-2.81302E-05-2.13142E-07-2.77024E-19-1.24695E-18
 -1      1018 9.05465E-05-2.53430E-05-2.79444E-05 1.13056E-07-3.03294E-19-1.03685E-18
 -1      1019 8.96598E-05-2.48508E-05-2.77753E-05 4.81723E-07-5.35898E-19-8.34786E-19
 -1      1020 8.86083E-05-2.42039E-05-2.76019E-05 9.32268E-07-2.83418E-19-5.47421E-19
 -1      1021 8.74114E-05-2.34783E-05-2.74003E-05 1.50487E-06 3.02054E-19-1.51856E-19
 -1      1022 8.60761E-05-2.27421E-05-2.71439E-05 2.25820E-06-5.48408E-20-4.75494E-19
 -1      1023 8.46333E-05-2.20984E-05-2.68015E-05 3.25700E-06 2.09979E-19-3.48717E-19
 -1      1024 8.31195E-05-2.16663E-05-2.63384E-05 4.60160E-06 1.28289E-19 1.01339E-20
 -1      1025 8.16129E-05-2.16168E-05-2.57147E-05 6.44133E-06 1.73795E-19 4.68861E-19
 -1      1026 8.02703E-05-2.22055E-05-2.48867E-05 8.97951E-06 7.11114E-19 1.20117E-18
 -1      1027 7.93790E-05-2.38306E-05-2.38072E-05 1.25781E-05 6.88383E-19 9.28248E-19
 -1      1028 9.28763E-05-2.49341E-05-2.91194E-05-1.59678E-06 1.53859E-19-1.28110E-18
 -1      1029 9.29425E-05-2.56782E-05-2.88276E-05-2.13014E-06 2.78046E-19-1.04003E-18
 -1      1030 1.14551E-04-1.25265E-05-4.27598E-05-2.35703E-05 8.46326E-17-5.41722E-17
 -1      1031 1.08987E-04-1.21730E-05-3.88635E-05-2.38959E-05 1.57603E-17-6.38024E-17
 -1      1032 1.00115E-04-2.99209E-05-2.72908E-05-5.07925E-06-1.09269E-17-8.77516E-18
 -1      1033 8.74689E-05-2.28618E-05-2.76906E-05-5.50666E-06-1.19759E-18 7.68367E-20
 -1      1034 8.87041E-05-2.31622E-05-2.80898E-05-4.15229E-06 4.62298E-20 6.22348E-19
 -1      1035 8.98672E-05-2.36754E-05-2.83680E-05-3.13843E-06-1.02254E-18 1.81345E-19
 -1      1036 9.09108E-05-2.42855E-05-2.85539E-05-2.38070E-06 1.22065E-18-6.21663E-19
 -1      1037 9.18230E-05-2.49237E-05-2.86716E-05-1.79957E-06 2.53922E-18-2.74708E-18
 -1      1038 9.25960E-05-2.55391E-05-2.87398E-05-1.36530E-06 2.19003E-20-3.41073E-18
 -1      1039 9.30563E-05-2.59367E-05-2.87654E-05-9.90502E-07-1.44770E-18-2.56225E-18
 -1      1040 9.15322E-05-2.28092E-05-2.94516E-05-1.68392E-06-2.60807E-19-1.69336E-18
 -1      1041 8.61669E-05-2.10564E-05-2.79049E-05 3.07332E-06 5.78802E-20-9.16417E-19
 -1      1042 7.45621E-05-1.75611E-05-2.44174E-05-9.00876E-06 5.26079E-19-3.88884E-19
 -1      1043 8.02273E-05-1.90144E-05-2.62335E-05-6.03550E-06-2.47768E-19-7.27218E-19
 -1      1044 8.81819E-05-2.21793E-05-2.82876E-05 2.66335E-06-1.92882E-18 7.65291E-19
 -1      1045 8.36229E-05-1.98625E-05-2.73256E-05 3.52760E-06 1.78063E-19-1.52248E-18
 -1      1046 8.98027E-05-2.32332E-05-2.85298E-05 2.28219E-06-1.28689E-18 1.48473E-18
 -1      1047 9.10930E-05-2.41808E-05-2.86765E-05 1.92112E-06-2.17727E-18 1.62622E-18
 -1      1048 9.21111E-05-2.50104E-05-2.87578E-05 1.58347E-06-2.28631E-18 9.33571E-19
 -1      1049 9.28543E-05-2.56647E-05-2.87956E-05 1.31891E-06 6.57660E-20 3.33719E-19
 -1      1050 7.13419E-05-1.68001E-05-2.33535E-05 8.09432E-06-3.51287E-19 6.23482E-19
 -1      1051 6.23290E-05-1.48353E-05-2.02959E-05 5.51744E-06 1.37152E-18-6.26407E-20
 -1      1052 9.13663E-05-2.53628E-05-2.82874E-05-4.43150E-06-2.59309E-19-8.97143E-19
 -1      1053 7.76289E-05-1.82022E-05-2.54614E-05-7.23942E-06 1.63090E-19-9.78398E-19
 -1      1054 9.16997E-05-2.27216E-05-2.95621E-05-1.39082E-06 1.97033E-20-1.78695E-18
 -1      1055 9.20009E-05-2.52058E-05-2.86267E-05-8.84340E-07-6.10050E-19-1.52091E-18
 -1      1056 9.19457E-05-2.43521E-05-2.89687E-05-1.29144E-06-3.43421E-19-1.50425E-18
 -1      1057 8.30566E-05-2.02142E-05-2.69332E-05-5.37799E-06-3.74333E-19-2.30679E-19
 -1      1058 7.58214E-05-7.00085E-06-2.37256E-05-2.73299E-05 7.63803E-17-1.23999E-17
 -1      1059 9.27279E-05-2.59851E-05-2.86030E-05-2.54081E-06 1.69533E-19-7.76533E-19
 -1      1060 8.72015E-05-2.25349E-05-2.77145E-05-4.44167E-06-2.35813E-19-4.69702E-19
 -1      1061 9.28011E-05-2.57175E-05-2.87509E-05-2.95439E-07 2.53922E-19-5.51774E-18
 -1      1062 8.87206E-05-2.35592E-05-2.79265E-05-4.05244E-06-1.29801E-19-9.16628E-19
 -1      1063 8.04638E-05-1.86855E-05-2.64764E-05 4.16505E-06 2.35374E-19-1.21017E-18
 -1      1064 9.57574E-05-4.45211E-06-3.62262E-05-3.11695E-05 1.00966E-16-2.23791E-17
 -1      1065 9.28267E-05-2.57089E-05-2.87638E-05 4.70788E-07-2.03094E-19-3.23159E-18
 -1      1066 9.18286E-05-2.57186E-05-2.83331E-05-3.08622E-06 4.47035E-19-6.73396E-19
 -1      1067 9.23598E-05-2.59671E-05-2.84546E-05-2.82147E-06 4.13243E-19-6.99401E-19
 -1      1068 7.63584E-05-1.75082E-05-2.52223E-05 5.13456E-06-7.85257E-19-2.89232E-19
 -1      1069 8.53336E-05-2.14001E-05-2.74007E-05-4.87099E-06-1.11130E-20-1.65683E-19
 -1      1070 9.21908E-05-2.47051E-05-2.89224E-05-1.30674E-06-4.69142E-19-1.54392E-18
 -1      1071 9.21212E-05-2.53609E-05-2.86113E-05-1.15366E-06-2.31151E-19-1.18051E-18
 -1      1072 9.10970E-05-2.54137E-05-2.81500E-05-8.58221E-07-2.47801E-19-9.65004E-19
 -1      1073 9.02274E-05-2.49741E-05-2.79658E-05-6.72107E-07-3.92279E-19-1.00513E-18
 -1      1074 8.91512E-05-2.43217E-05-2.77843E-05-4.32473E-07-4.73366E-19-4.52809E-19
 -1      1075 8.78540E-05-2.34973E-05-2.75791E-05-9.05906E-08 2.33699E-20-3.86286E-19
 -1      1076 8.63268E-05-2.25685E-05-2.73233E-05 3.68593E-07 2.28245E-19-7.46635E-19
 -1      1077 8.45815E-05-2.16161E-05-2.69839E-05 1.00215E-06 1.74053E-19-2.07825E-19
 -1      1078 8.25757E-05-2.06953E-05-2.65188E-05 1.91060E-06 1.50439E-19-3.56819E-19
 -1      1079 8.02659E-05-1.98945E-05-2.58741E-05 3.20612E-06 3.72326E-19-5.69127E-20
 -1      1080 7.75901E-05-1.93163E-05-2.49800E-05 5.06627E-06 5.94120E-19-1.18116E-19
 -1      1081 7.47041E-05-1.92221E-05-2.37654E-05 7.73130E-06 3.23059E-19 2.01854E-19
 -1      1082 8.99922E-05-2.34552E-05-2.85156E-05 7.97208E-07-2.01699E-18-3.85799E-19
 -1      1083 9.10191E-05-2.51995E-05-2.82078E-05-3.40177E-06 2.46114E-19-5.74201E-19
 -1      1084 9.24689E-05-2.44416E-05-2.91532E-05-1.48770E-06-4.92674E-20-1.47102E-18
 -1      1085 9.11810E-05-2.25764E-06-3.57657E-05-2.44361E-05 4.09705E-17-1.73684E-17
 -1      1086 9.69807E-05-1.77977E-05-3.14134E-05-1.43416E-05-2.92245E-19-3.69333E-18
 -1      1087 9.04657E-05-2.33266E-05-2.74150E-05-4.69278E-06-1.50690E-18 3.97502E-18
 -1      1088 8.70965E-05-2.20997E-05-2.78515E-05-3.25912E-06-1.19087E-18 2.13969E-18
 -1      1089 8.86692E-05-2.28426E-05-2.82113E-05-2.31791E-06-7.50306E-19 3.49043E-19
 -1      1090 9.00023E-05-2.36184E-05-2.84504E-05-1.66973E-06-6.39898E-19-9.76788E-19
 -1      1091 9.11238E-05-2.43762E-05-2.86036E-05-1.22005E-06 5.19723E-19-3.67276E-18
 -1      1092 9.20498E-05-2.50883E-05-2.86969E-05-8.89136E-07 1.39672E-18-4.89437E-18
 -1      1093 9.24527E-05-2.54120E-05-2.87277E-05-5.59167E-07 1.36368E-19-5.36563E-18
 -1      1094 7.27391E-05-1.63005E-05-2.41880E-05-2.30507E-06 4.54827E-19-9.11207E-19
 -1      1095 8.65893E-05-2.13568E-05-2.79546E-05 6.71143E-07-1.68352E-18 8.44194E-19
 -1      1096 8.41217E-05-2.01193E-05-2.74156E-05 4.35816E-07-1.24479E-18-1.28934E-18
 -1      1097 9.11843E-05-2.43341E-05-2.86496E-05 7.33490E-07-2.45816E-18-7.04372E-19
 -1      1098 6.88722E-05-1.63413E-05-2.25358E-05 4.86104E-06 7.94937E-19 1.46429E-19
 -1      1099 9.25625E-05-2.52861E-05-2.88329E-05-1.72620E-06-3.08737E-20-1.29428E-18
 -1      1100 7.17472E-05-1.60032E-05-2.38700E-05-4.80189E-09-2.77512E-19-7.97788E-19
 -1      1101 9.17376E-05-2.55657E-05-2.83594E-05-1.01235E-06-1.09302E-20-8.23370E-19
 -1      1102 8.99764E-05-2.44566E-05-2.80797E-05-3.71119E-06-4.12439E-19-8.46030E-19
 -1      1103 6.98427E-05-1.86736E-05-2.18928E-05 1.05903E-05 8.44461E-19 1.94328E-19
 -1      1104 8.84648E-05-2.24463E-05-2.82934E-05 7.93887E-07-2.15378E-18-2.14864E-19
 -1      1105 8.01576E-05-1.89832E-05-2.62176E-05-2.41037E-06 1.62022E-19-6.21035E-19
 -1      1106 9.20630E-05-2.38734E-05-2.92251E-05-1.43097E-06-2.75142E-19-1.52966E-18
 -1      1107 7.50015E-05-6.21542E-06-2.51400E-05-1.43659E-05 2.49466E-17 2.31808E-18
 -1      1108 7.73020E-05-1.76497E-05-2.55697E-05-3.55230E-07 1.68285E-19-1.02562E-18
 -1      1109 9.23565E-05-2.53141E-05-2.87337E-05 3.09944E-07-7.04164E-19-3.52783E-18
 -1      1110 8.70595E-05-2.26450E-05-2.76080E-05-2.62058E-06-2.20187E-19-1.05132E-19
 -1      1111 8.11890E-05-1.89549E-05-2.66725E-05 1.60311E-07 2.15058E-19-4.22325E-19
 -1      1112 9.23240E-05-2.56588E-05-2.85716E-05-1.89132E-06 1.59532E-19-1.25384E-18
 -1      1113 8.29358E-05-2.02749E-05-2.68564E-05-2.57216E-06-8.24388E-20-4.16364E-19
 -1      1114 9.17162E-05-2.56080E-05-2.83317E-05-2.23622E-06 3.63123E-19-1.03991E-18
 -1      1115 7.69406E-05-1.77155E-05-2.53814E-05-2.30545E-06 4.22880E-19-4.43656E-19
 -1      1116 9.08909E-05-2.51734E-05-2.81662E-05-2.37132E-06-1.16322E-19-7.00601E-19
 -1      1117 8.51947E-05-2.15012E-05-2.72985E-05-2.63358E-06 4.28429E-20-7.02181E-19
 -1      1118 8.76858E-05-2.21313E-05-2.80997E-05-1.11873E-06-1.62959E-18 2.00935E-19
 -1      1119 8.99317E-05-2.46379E-05-2.79816E-05-1.67672E-06-1.50569E-19 2.49376E-20
 -1      1120 8.86838E-05-2.38356E-05-2.77934E-05-1.61123E-06-1.40793E-19 3.63514E-19
 -1      1121 8.15863E-05-1.58912E-05-2.70230E-05-4.95239E-06-1.14879E-20-5.68286E-19
 -1      1122 8.92884E-05-2.30694E-05-2.83789E-05-6.83456E-07-1.59716E-18-5.00237E-19
 -1      1123 9.05867E-05-2.39608E-05-2.85603E-05-4.06036E-07-1.42300E-18-1.69110E-18
 -1      1124 7.93928E-05-1.07395E-05-2.63393E-05-1.11934E-05 8.87955E-18 4.55175E-19
 -1      1125 9.17083E-05-2.55737E-05-2.83439E-05-1.67199E-06 2.23238E-20-1.07332E-18
 -1      1126 9.09541E-05-2.52527E-05-2.81575E-05-1.69068E-06-2.08082E-19-4.56519E-19
 -1      1127 1.13056E-04 2.48892E-10-4.04365E-05-4.04622E-05-2.78674E-19 9.63818E-18
 -1      1128 8.52679E-05 6.81152E-11-3.58546E-05-2.39112E-05-1.57760E-19 1.53874E-18
 -1      1129 8.07190E-05 3.87819E-11-3.43603E-05-1.80138E-05-1.13185E-19-1.96232E-18
 -1      1130 7.90202E-05 2.98710E-11-3.36766E-05-1.42585E-05-7.55712E-20-3.61154E-18
 -1      1131 7.82913E-05 2.55042E-11-3.33691E-05-1.11901E-05-5.14573E-20-4.39642E-18
 -1      1132 7.79852E-05 2.30233E-11-3.32414E-05-8.49429E-06-3.12013E-20-4.69040E-18
 -1      1133 7.78867E-05 2.15688E-11-3.32027E-05-6.00330E-06-1.53698E-20-4.82252E-18
 -1      1134 7.79045E-05 2.08671E-11-3.32122E-05-3.60302E-06-2.87032E-21-4.81348E-18
 -1      1135 7.79970E-05 2.07952E-11-3.32505E-05-1.24173E-06 3.76533E-21-4.81882E-18
 -1      1136 7.81454E-05 2.13184E-11-3.33093E-05 1.14723E-06 1.90384E-20-4.78646E-18
 -1      1137 7.83500E-05 2.24824E-11-3.33888E-05 3.63143E-06 2.96991E-20-4.62191E-18
 -1      1138 7.86330E-05 2.44005E-11-3.34984E-05 6.26383E-06 5.10404E-20-4.29131E-18
 -1      1139 7.90599E-05 2.74401E-11-3.36691E-05 9.16513E-06 6.72332E-20-3.77125E-18
 -1      1140 7.98052E-05 3.23780E-11-3.39758E-05 1.25151E-05 8.82502E-20-2.74040E-18
 -1      1141 8.13309E-05 4.16590E-11-3.45921E-05 1.66091E-05 1.21285E-19-8.16249E-19
 -1      1142 8.51559E-05 6.55518E-11-3.59436E-05 2.24571E-05 1.32349E-19 2.95120E-18
 -1      1143 1.02051E-04 1.57934E-10-3.89404E-05 3.43018E-05 3.05355E-19 1.08561E-17
 -1      1144 1.26164E-04-2.48891E-05-3.89370E-05-2.54905E-05-1.18203E-18 1.48171E-17
 -1      1145 9.38138E-05-2.77806E-05-3.04039E-05-7.17013E-07-4.10176E-19 1.19954E-17
 -1      1146 8.62537E-05-2.58548E-05-2.67044E-05 3.57562E-07-1.29490E-19 8.09501E-18
 -1      1147 8.40283E-05-2.53043E-05-2.53794E-05 2.32243E-07-4.02638E-20 5.59481E-18
 -1      1148 8.33720E-05-2.50899E-05-2.50365E-05 1.52379E-07-4.77482E-20 3.82356E-18
 -1      1149 8.34690E-05-2.50898E-05-2.50432E-05 1.07315E-07-2.81093E-20 2.77074E-18
 -1      1150 8.39452E-05-2.52128E-05-2.51838E-05 7.87117E-08-5.37940E-20 1.70481E-18
 -1      1151 8.46205E-05-2.54043E-05-2.53861E-05 5.94162E-08-4.78367E-20 9.94450E-19
 -1      1152 8.54080E-05-2.56348E-05-2.56231E-05 4.60365E-08-2.50898E-20-6.03842E-20
 -1      1153 8.62742E-05-2.58921E-05-2.58850E-05 3.70866E-08-5.50468E-21-1.00858E-18
 -1      1154 8.72197E-05-2.61749E-05-2.61720E-05 3.19777E-08-3.62020E-20-2.16467E-18
 -1      1155 8.82684E-05-2.64898E-05-2.64909E-05 3.05469E-08 6.76096E-21-2.05588E-18
 -1      1156 8.94585E-05-2.68474E-05-2.68526E-05 3.28176E-08-9.74200E-20-3.19846E-18
 -1      1157 9.08334E-05-2.72603E-05-2.72693E-05 3.88118E-08-1.40257E-20-3.86226E-18
 -1      1158 9.24308E-05-2.77391E-05-2.77509E-05 4.83063E-08-3.66780E-20-3.91812E-18
 -1      1159 9.42669E-05-2.82877E-05-2.83003E-05 6.04444E-08-1.72476E-19-3.71859E-18
 -1      1160 9.63149E-05-2.88974E-05-2.89068E-05 7.31284E-08-1.29277E-19-4.72652E-18
 -1      1161 9.84763E-05-2.95379E-05-2.95371E-05 8.21832E-08-1.46658E-19-5.60634E-18
 -1      1162 1.00547E-04-3.01477E-05-3.01272E-05 8.04890E-08-8.19976E-20-6.04109E-18
 -1      1163 1.02193E-04-3.06270E-05-3.05759E-05 5.77454E-08 2.51132E-21-7.35716E-18
 -1      1164 1.02946E-04-3.08384E-05-3.07497E-05 2.33153E-09-1.46838E-19-8.14545E-18
 -1      1165 1.02282E-04-3.06290E-05-3.05083E-05-9.28830E-08-1.14962E-19-9.62358E-18
 -1      1166 9.97929E-05-2.98842E-05-2.97585E-05-2.19866E-07-1.95691E-19-1.08783E-17
 -1      1167 9.54796E-05-2.86128E-05-2.85305E-05-3.44209E-07-2.85295E-19-1.40520E-17
 -1      1168 9.00539E-05-2.70322E-05-2.70441E-05-4.05744E-07 1.27205E-19-1.65630E-17
 -1      1169 8.50110E-05-2.55818E-05-2.57075E-05-3.45780E-07-7.52040E-20-1.87003E-17
 -1      1170 8.22354E-05-2.48043E-05-2.50041E-05-1.54465E-07-2.25304E-19-2.35216E-17
 -1      1171 8.31699E-05-2.51055E-05-2.52935E-05 9.56428E-08 3.91091E-20-2.90723E-17
 -1      1172 8.80099E-05-2.65320E-05-2.66469E-05 2.71767E-07 1.47258E-19-3.26152E-17
 -1      1173 9.56848E-05-2.87559E-05-2.89151E-05 2.95534E-07 2.33592E-19-3.38963E-17
 -1      1174 1.05224E-04-3.14926E-05-3.20737E-05 3.27950E-07-3.39789E-20-3.27470E-17
 -1      1175 1.18444E-04-3.54475E-05-3.65359E-05 9.66281E-07-3.10835E-19-2.82596E-17
 -1      1176 1.37756E-04-4.15315E-05-4.15175E-05 1.65965E-06-3.75540E-19-1.65284E-17
 -1      1177 1.51422E-04-4.45093E-05-4.44294E-05-3.74999E-07 2.42029E-18-5.13990E-19
 -1      1178 1.40361E-04-4.02992E-05-4.37461E-05-3.90797E-06 7.40026E-18 9.79107E-18
 -1      1179 1.21526E-04-3.67321E-05-3.97741E-05-7.04601E-07 3.21761E-18 1.15504E-17
 -1      1180 1.26407E-04-3.82703E-05-3.48958E-05 3.84626E-06-9.18417E-18 1.12977E-17
 -1      1181 1.04640E-04-3.13929E-05-3.14003E-05-7.05476E-08-2.65167E-20-4.99667E-18
 -1      1182 1.02683E-04-3.08121E-05-3.08251E-05-5.81176E-08 2.86315E-19-4.19900E-18
 -1      1183 1.00934E-04-3.02905E-05-3.03046E-05-4.45469E-08 3.44000E-19-3.18345E-18
 -1      1184 9.94498E-05-2.98465E-05-2.98594E-05-3.22106E-08-2.14102E-19-1.67329E-18
 -1      1185 9.82404E-05-2.94836E-05-2.94943E-05-2.20591E-08-1.07765E-20-1.95449E-18
 -1      1186 9.72867E-05-2.91966E-05-2.92049E-05-1.42431E-08-9.72558E-20-4.93206E-18
 -1      1187 9.65564E-05-2.89762E-05-2.89826E-05-8.50699E-09 2.49729E-19-4.17007E-18
 -1      1188 9.60145E-05-2.88123E-05-2.88171E-05-4.39733E-09 4.54980E-19-1.57000E-19
 -1      1189 9.56286E-05-2.86952E-05-2.86993E-05-1.32563E-09-5.89596E-20 3.55380E-18
 -1      1190 9.53732E-05-2.86173E-05-2.86215E-05 1.48145E-09-1.09405E-19 3.48981E-18
 -1      1191 9.52309E-05-2.85735E-05-2.85778E-05 5.06957E-09-6.80865E-20 4.53977E-18
 -1      1192 9.51929E-05-2.85635E-05-2.85605E-05 1.13429E-08 1.93336E-19 3.30973E-18
 -1      1193 9.52156E-05-2.85647E-05-2.85544E-05 6.96281E-09 6.05135E-19 3.39908E-18
 -1      1194 1.25039E-04-3.59617E-05-3.70014E-05 1.15814E-05-2.05326E-19 1.73286E-17
 -1      1195 9.27534E-05-2.70803E-05-3.00932E-05 7.43347E-07 1.04344E-19 1.39321E-17
 -1      1196 8.73466E-05-2.60327E-05-2.69263E-05 1.03507E-07 1.26393E-19 1.03884E-17
 -1      1197 8.58331E-05-2.57522E-05-2.59171E-05 3.24946E-09 3.18101E-20 8.18970E-18
 -1      1198 8.58512E-05-2.57859E-05-2.57877E-05-2.55528E-08 9.67719E-20 6.17736E-18
 -1      1199 8.65804E-05-2.59997E-05-2.59817E-05-3.11379E-08 7.60841E-21 4.91464E-18
 -1      1200 8.76570E-05-2.63154E-05-2.63012E-05-2.96068E-08 2.02808E-20 4.09890E-18
 -1      1201 8.89123E-05-2.66878E-05-2.66773E-05-2.53805E-08-5.70382E-21 3.55166E-18
 -1      1202 9.02700E-05-2.70932E-05-2.70853E-05-1.98203E-08 2.26434E-20 2.61471E-18
 -1      1203 9.17071E-05-2.75241E-05-2.75189E-05-1.35916E-08 9.61990E-21 2.28920E-18
 -1      1204 9.32368E-05-2.79838E-05-2.79822E-05-7.20938E-09 4.34415E-20 1.53391E-18
 -1      1205 9.49011E-05-2.84848E-05-2.84879E-05-1.22336E-09 6.94571E-20 1.07222E-18
 -1      1206 9.67651E-05-2.90461E-05-2.90556E-05 3.62703E-09 1.21593E-19 2.54454E-19
 -1      1207 9.89134E-05-2.96929E-05-2.97105E-05 6.20411E-09 1.01201E-19-7.31552E-19
 -1      1208 1.01445E-04-3.04540E-05-3.04818E-05 4.67866E-09-7.89991E-20-1.39455E-18
 -1      1209 1.04463E-04-3.13590E-05-3.13988E-05-3.83660E-09 1.03307E-20-1.30792E-18
 -1      1210 1.08053E-04-3.24317E-05-3.24838E-05-2.36026E-08-1.67665E-19-1.17584E-18
 -1      1211 1.12244E-04-3.36774E-05-3.37374E-05-6.00747E-08-1.01272E-20-1.34001E-18
 -1      1212 1.16929E-04-3.50617E-05-3.51144E-05-1.18067E-07 3.53458E-19-3.79034E-18
 -1      1213 1.21751E-04-3.64760E-05-3.64875E-05-1.96063E-07-1.59024E-19-4.38313E-18
 -1      1214 1.25940E-04-3.76955E-05-3.76068E-05-2.74326E-07-8.64007E-20-2.57260E-18
 -1      1215 1.28190E-04-3.83475E-05-3.80861E-05-2.99150E-07 8.84752E-21-2.25170E-18
 -1      1216 1.26770E-04-3.79443E-05-3.74762E-05-1.79939E-07-5.96761E-20-2.94651E-18
 -1      1217 1.20198E-04-3.60651E-05-3.54893E-05 1.61695E-07 7.58028E-20-4.16274E-18
 -1      1218 1.08665E-04-3.27319E-05-3.23537E-05 6.60703E-07 1.41560E-19-3.32132E-18
 -1      1219 9.54992E-05-2.88260E-05-2.90359E-05 1.02709E-06-2.04611E-19 1.69417E-18
 -1      1220 8.66724E-05-2.60699E-05-2.69612E-05 9.14697E-07-1.61572E-19 2.33924E-18
 -1      1221 8.72648E-05-2.60730E-05-2.72230E-05 2.92642E-07 1.11914E-19-1.50804E-18
 -1      1222 9.73730E-05-2.90549E-05-2.98175E-05-4.06433E-07-1.01492E-19-2.98304E-18
 -1      1223 1.12013E-04-3.36571E-05-3.36000E-05-6.74138E-07-6.51984E-20-3.50121E-18
 -1      1224 1.27452E-04-3.78905E-05-3.65823E-05-3.21348E-06 3.29655E-19-4.71776E-18
 -1      1225 1.26226E-04-3.79216E-05-3.73737E-05-5.14326E-07 2.56803E-19-5.87761E-18
 -1      1226 1.27494E-04-3.83008E-05-3.78879E-05-2.21400E-07-1.34328E-19-4.62532E-18
 -1      1227 1.25115E-04-3.75661E-05-3.73446E-05-1.30810E-08-7.26066E-20-2.17550E-18
 -1      1228 1.20875E-04-3.62748E-05-3.62022E-05 9.69044E-08-6.47103E-21-1.56974E-18
 -1      1229 1.16112E-04-3.48353E-05-3.48480E-05 1.36092E-07-1.50429E-19-7.81600E-19
 -1      1230 1.11602E-04-3.34786E-05-3.35278E-05 1.35947E-07 2.88409E-19-3.93362E-18
 -1      1231 1.07696E-04-3.23067E-05-3.23646E-05 1.18484E-07-4.71410E-21-3.69643E-18
 -1      1232 1.04489E-04-3.13460E-05-3.13996E-05 9.60687E-08 4.86324E-20-3.28450E-19
 -1      1233 1.01949E-04-3.05852E-05-3.06299E-05 7.45777E-08 1.25798E-20 6.53023E-19
 -1      1234 9.99870E-05-2.99975E-05-3.00328E-05 5.62604E-08-1.10026E-19 2.59741E-18
 -1      1235 9.85012E-05-2.95523E-05-2.95793E-05 4.15952E-08 1.75827E-19 2.01152E-18
 -1      1236 9.73957E-05-2.92208E-05-2.92411E-05 3.03136E-08-1.49867E-19 8.55131E-19
 -1      1237 9.65878E-05-2.89785E-05-2.89935E-05 2.18987E-08 4.40149E-19 1.07574E-18
 -1      1238 9.60103E-05-2.88053E-05-2.88165E-05 1.57802E-08-1.68368E-20 4.02397E-19
 -1      1239 9.56119E-05-2.86857E-05-2.86945E-05 1.13571E-08 5.45140E-19-3.14517E-18
 -1      1240 9.53559E-05-2.86087E-05-2.86165E-05 7.89711E-09 4.49326E-19-7.65389E-18
 -1      1241 9.52186E-05-2.85672E-05-2.85743E-05 3.91721E-09 2.34139E-19-6.54727E-18
 -1      1242 9.51850E-05-2.85558E-05-2.85590E-05-3.38144E-09 4.76086E-19-6.17786E-18
 -1      1243 9.52170E-05-2.85662E-05-2.85536E-05-6.72752E-09 3.64974E-20-4.02902E-18
 -1      1244 9.52423E-05-2.85921E-05-2.85544E-05-7.13864E-09-3.89428E-18-5.33717E-19
 -1      1245 9.52487E-05-2.86190E-05-2.85611E-05-1.02166E-08-6.33825E-18-3.67806E-19
 -1      1246 9.52358E-05-2.85744E-05-2.85787E-05-1.05138E-09-1.61153E-18 2.24784E-19
 -1      1247 9.51965E-05-2.84401E-05-2.86168E-05 5.10470E-09 2.89108E-18 4.70114E-19
 -1      1248 9.51399E-05-2.82466E-05-2.86706E-05 8.11218E-09 3.18569E-18 2.87425E-19
 -1      1249 9.50789E-05-2.80384E-05-2.87289E-05 8.42947E-09-4.37592E-19-2.29517E-19
 -1      1250 9.50254E-05-2.78556E-05-2.87805E-05 6.84823E-09 6.09688E-18 4.56351E-19
 -1      1251 9.49888E-05-2.77305E-05-2.88159E-05 3.78598E-09 8.22313E-18-1.93798E-19
 -1      1252 9.49760E-05-2.76871E-05-2.88283E-05 5.66660E-11 5.65251E-18-4.38976E-20
 -1      1253 9.49891E-05-2.77320E-05-2.88156E-05-3.63075E-09 6.43411E-18-9.00578E-20
 -1      1254 9.50257E-05-2.78570E-05-2.87802E-05-6.58014E-09 6.21116E-18-9.22712E-19
 -1      1255 9.50787E-05-2.80379E-05-2.87292E-05-8.18471E-09-1.05418E-18 1.08377E-18
 -1      1256 9.51386E-05-2.82424E-05-2.86717E-05-7.81798E-09-1.82707E-18 5.44880E-19
 -1      1257 9.51943E-05-2.84328E-05-2.86187E-05-5.12072E-09-3.25199E-18 2.24477E-19
 -1      1258 9.52350E-05-2.85688E-05-2.85807E-05 6.46718E-10-4.13773E-18 4.65873E-19
 -1      1259 9.52440E-05-2.86091E-05-2.85620E-05 1.55195E-08-5.08784E-18-4.24451E-19
 -1      1260 9.52433E-05-2.85936E-05-2.85549E-05 8.30699E-09-3.23814E-18 1.05416E-19
 -1      1261 3.37017E-05-1.06496E-04 1.80570E-05-1.47276E-05 6.80464E-18 1.64616E-18
 -1      1262 1.76084E-05-6.63654E-05 9.71277E-06-2.69286E-05 7.78423E-18 1.74595E-18
 -1      1263 8.82584E-06-1.26253E-05-5.99497E-06-2.44369E-06-3.11878E-18-4.97208E-18
 -1      1264 3.87861E-05 2.07091E-05-2.70964E-05 5.33370E-05-6.49505E-18-6.36969E-18
 -1      1265 1.16070E-04 8.93601E-06-4.85915E-05 1.02767E-04-3.88703E-18-6.03596E-18
 -1      1266 2.20529E-04-3.85718E-05-6.68519E-05 1.09917E-04-3.26446E-18-8.32803E-18
 -1      1267 3.05945E-04-8.60327E-05-7.87899E-05 5.75296E-05-1.58729E-18-1.24243E-17
 -1      1268 3.21260E-04-9.43792E-05-8.11113E-05-3.25435E-05 2.87044E-18-2.26185E-17
 -1      1269 2.53463E-04-5.41470E-05-7.24167E-05-1.05157E-04 1.19156E-17-3.51934E-17
 -1      1270 1.39521E-04 3.46672E-06-5.44853E-05-1.13264E-04 2.42506E-17-3.88754E-17
 -1      1271 4.63305E-05 2.79649E-05-3.18380E-05-6.69659E-05 3.53670E-17-3.58430E-17
 -1      1272 9.41721E-06-1.39024E-06-9.65620E-06-7.48016E-06 4.09591E-17-2.66392E-17
 -1      1273 1.67570E-05-6.06745E-05 8.18255E-06 2.34838E-05 3.70069E-17-1.37046E-17
 -1      1274 3.37989E-05-1.04493E-04 1.76118E-05 1.30813E-05 3.12458E-17-3.84542E-18
 -1      1275 3.39874E-05-1.05812E-04 1.83357E-05-1.50705E-05 2.36644E-17 2.26616E-18
 -1      1276 1.62591E-05-6.51240E-05 1.08532E-05-2.55744E-05 1.89744E-17 5.83754E-18
 -1      1277 7.15421E-06-1.35009E-05-3.46154E-06-4.06329E-06 1.32967E-17 7.90451E-18
 -1      1278 3.07962E-05 1.87305E-05-2.19936E-05 4.44333E-05 9.98144E-18 9.90182E-18
 -1      1279 9.87635E-05 8.01548E-06-4.12661E-05 8.72757E-05 9.53929E-18 1.49095E-17
 -1      1280 1.89049E-04-3.34495E-05-5.79345E-05 9.14906E-05 7.22900E-18 1.93767E-17
 -1      1281 2.63572E-04-7.48798E-05-6.97554E-05 4.20495E-05 2.98791E-18 2.33578E-17
 -1      1282 2.77014E-04-7.77036E-05-7.46266E-05-3.97863E-05-2.08031E-18 2.56668E-17
 -1      1283 2.23737E-04-3.83798E-05-7.20503E-05-1.04294E-04-3.93950E-18 1.64424E-17
 -1      1284 1.39213E-04 1.60459E-05-6.34317E-05-1.26358E-04 1.11948E-17-1.15866E-17
 -1      1285 6.11128E-05 5.32539E-05-4.86708E-05-1.02600E-04 6.36715E-17-5.84072E-17
 -1      1286 1.78688E-05 3.23673E-05-2.53456E-05-4.12198E-05 1.74231E-16-1.02113E-16
 -1      1287 4.62305E-05-1.26401E-04 3.47787E-06 5.24699E-06 4.21694E-16-7.44779E-17
 -1      1288 3.44083E-05-1.06480E-04 1.78177E-05 1.34430E-05-5.69503E-18 1.52455E-18
 -1      1289 1.00745E-04-2.12392E-05-3.65684E-05-1.69889E-05-4.39187E-19 7.89392E-18
 -1      1290 8.67240E-05-6.31626E-06-3.46357E-05-2.04165E-05-1.20956E-18-9.14266E-20
 -1      1291 8.90546E-05-6.35073E-06-3.58468E-05-2.54672E-05-1.56235E-18 1.71921E-18
 -1      1292 8.23825E-05-3.83259E-06-3.37371E-05-1.66747E-05-1.18661E-18-2.70180E-18
 -1      1293 8.36134E-05-3.81929E-06-3.42066E-05-1.89412E-05-1.34345E-18-1.58456E-18
 -1      1294 8.83711E-05-9.88376E-06-3.37307E-05-1.91068E-05-2.09175E-18-4.99220E-20
 -1      1295 8.06552E-05-2.97594E-06-3.33069E-05-1.33088E-05-9.51575E-19-3.97710E-18
 -1      1296 8.12306E-05-2.94377E-06-3.35215E-05-1.50006E-05-1.08891E-18-3.40843E-18
 -1      1297 8.42099E-05-6.93820E-06-3.32019E-05-1.57344E-05-1.84786E-18-2.20835E-18
 -1      1298 7.98451E-05-2.54554E-06-3.31193E-05-1.03929E-05-7.19912E-19-4.55526E-18
 -1      1299 8.01103E-05-2.52554E-06-3.32118E-05-1.18363E-05-8.10743E-19-4.30481E-18
 -1      1300 8.23203E-05-5.59842E-06-3.29482E-05-1.25042E-05-1.46763E-18-3.31267E-18
 -1      1301 7.94681E-05-2.29913E-06-3.30512E-05-7.80349E-06-4.61707E-19-4.82747E-18
 -1      1302 7.95822E-05-2.28964E-06-3.30850E-05-9.08593E-06-5.66883E-19-4.69745E-18
 -1      1303 8.13960E-05-4.88423E-06-3.28454E-05-9.69004E-06-1.05974E-18-3.81091E-18
 -1      1304 7.93199E-05-2.15378E-06-3.30438E-05-5.34565E-06-2.74670E-19-4.87600E-18
 -1      1305 7.93494E-05-2.14889E-06-3.30473E-05-6.56833E-06-3.41851E-19-4.86337E-18
 -1      1306 8.09423E-05-4.46948E-06-3.28211E-05-7.13504E-06-7.03530E-19-4.06866E-18
 -1      1307 7.93215E-05-2.08379E-06-3.30700E-05-2.98122E-06-2.08979E-20-4.84783E-18
 -1      1308 7.92960E-05-2.08123E-06-3.30563E-05-4.16478E-06-1.29145E-19-4.83647E-18
 -1      1309 8.07616E-05-4.24229E-06-3.28373E-05-4.71782E-06-3.51271E-19-4.03533E-18
 -1      1310 7.94302E-05-2.07635E-06-3.31158E-05-6.39511E-07 1.88471E-19-4.86859E-18
 -1      1311 7.93650E-05-2.07527E-06-3.30911E-05-1.81927E-06 1.36531E-19-4.86488E-18
 -1      1312 8.07676E-05-4.15905E-06-3.28739E-05-2.37861E-06 9.77967E-20-4.09044E-18
 -1      1313 7.96308E-05-2.12780E-06-3.31755E-05 1.74473E-06 3.77615E-19-4.80028E-18
 -1      1314 7.95304E-05-2.12807E-06-3.31419E-05 5.35238E-07 3.08638E-19-4.85566E-18
 -1      1315 8.09190E-05-4.20100E-06-3.29208E-05-4.83147E-08 4.15059E-19-4.06982E-18
 -1      1316 7.99319E-05-2.24273E-06-3.32510E-05 4.23957E-06 5.38111E-19-4.62700E-18
 -1      1317 7.97900E-05-2.24435E-06-3.32063E-05 2.96421E-06 4.88003E-19-4.75620E-18
 -1      1318 8.12072E-05-4.36875E-06-3.29741E-05 2.33836E-06 7.38030E-19-3.97600E-18
 -1      1319 8.03636E-05-2.42930E-06-3.33521E-05 6.87702E-06 7.73923E-19-4.26730E-18
 -1      1320 8.01631E-05-2.43572E-06-3.32889E-05 5.51713E-06 6.98140E-19-4.48084E-18
 -1      1321 8.16518E-05-4.67913E-06-3.30349E-05 4.82848E-06 1.01678E-18-3.76126E-18
 -1      1322 8.10386E-05-2.72453E-06-3.35135E-05 9.85398E-06 1.08616E-18-3.64578E-18
 -1      1323 8.07198E-05-2.73826E-06-3.34077E-05 8.29946E-06 9.55036E-19-4.00698E-18
 -1      1324 8.23248E-05-5.18354E-06-3.31142E-05 7.52491E-06 1.41505E-18-3.34941E-18
 -1      1325 8.21854E-05-3.19694E-06-3.38092E-05 1.32942E-05 1.34144E-18-2.53469E-18
 -1      1326 8.16246E-05-3.22810E-06-3.36090E-05 1.14595E-05 1.19647E-18-3.22618E-18
 -1      1327 8.34084E-05-6.00485E-06-3.32389E-05 1.05639E-05 1.85036E-18-2.68374E-18
 -1      1328 8.44460E-05-4.07460E-06-3.44128E-05 1.75310E-05 1.56717E-18-4.04935E-19
 -1      1329 8.32980E-05-4.12879E-06-3.39916E-05 1.51475E-05 1.37399E-18-1.66773E-18
 -1      1330 8.53348E-05-7.44031E-06-3.34631E-05 1.40713E-05 2.19154E-18-1.34350E-18
 -1      1331 9.00961E-05-6.67490E-06-3.57152E-05 2.34767E-05 1.34731E-18 3.69280E-18
 -1      1332 8.70831E-05-6.32797E-06-3.47603E-05 1.96013E-05 1.29882E-18 1.20866E-18
 -1      1333 8.93642E-05-1.05048E-05-3.38669E-05 1.80812E-05 2.31375E-18 1.05657E-18
 -1      1334 1.18309E-04-2.38832E-05-3.73878E-05 2.68058E-05 6.76885E-19 1.14034E-17
 -1      1335 9.62398E-05-1.39271E-05-3.58831E-05 2.25844E-05 6.72121E-19 6.03077E-18
 -1      1336 9.79883E-05-1.87366E-05-3.40714E-05 1.98901E-05 2.21732E-18 4.74868E-18
 -1      1337 9.85069E-05-2.67178E-05-3.33507E-05 6.74510E-06 1.18600E-18 1.09653E-17
 -1      1338 1.01245E-04-2.90859E-05-3.22979E-05-7.98480E-06-1.27415E-18 8.26609E-18
 -1      1339 9.43448E-05-2.67001E-05-2.95606E-05-5.06825E-06-1.17473E-18 6.78251E-18
 -1      1340 9.15456E-05-2.66776E-05-2.80546E-05-2.62551E-06-9.29513E-19 6.14787E-18
 -1      1341 8.91837E-05-2.63350E-05-2.69888E-05-2.18229E-06-8.56721E-19 4.76620E-18
 -1      1342 9.54251E-05-2.68636E-05-2.97416E-05-8.07115E-06-2.05120E-18 3.58689E-18
 -1      1343 8.74126E-05-2.59505E-05-2.63315E-05-9.89747E-07-6.43858E-19 4.25827E-18
 -1      1344 8.65526E-05-2.58078E-05-2.59890E-05-8.77052E-07-5.73812E-19 3.36502E-18
 -1      1345 9.05434E-05-2.65204E-05-2.75604E-05-3.39394E-06-1.51148E-18 2.63839E-18
 -1      1346 8.57086E-05-2.55971E-05-2.57167E-05-3.16168E-07-4.96163E-19 2.87087E-18
 -1      1347 8.55019E-05-2.55813E-05-2.56423E-05-2.54610E-07-4.69058E-19 2.17230E-18
 -1      1348 8.81674E-05-2.61878E-05-2.65935E-05-1.33189E-06-1.11796E-18 1.69115E-18
 -1      1349 8.51538E-05-2.54874E-05-2.55407E-05 3.21230E-08-3.00051E-19 1.91378E-18
 -1      1350 8.52546E-05-2.55412E-05-2.55689E-05 6.57847E-08-3.84617E-19 1.43972E-18
 -1      1351 8.70290E-05-2.59862E-05-2.61750E-05-3.21458E-07-7.96155E-19 1.09079E-18
 -1      1352 8.51867E-05-2.55225E-05-2.55537E-05 2.22198E-07-2.92848E-19 1.21396E-18
 -1      1353 8.54451E-05-2.56149E-05-2.56283E-05 2.40759E-07-3.14795E-19 8.70201E-19
 -1      1354 8.66175E-05-2.59227E-05-2.60218E-05 2.15606E-07-6.81974E-19 7.13592E-19
 -1      1355 8.55427E-05-2.56424E-05-2.56624E-05 3.30278E-07-2.47836E-19 7.55937E-19
 -1      1356 8.58870E-05-2.57555E-05-2.57621E-05 3.41065E-07-2.48431E-19 3.83918E-19
 -1      1357 8.66349E-05-2.59569E-05-2.60121E-05 5.16104E-07-4.29098E-19 4.23318E-19
 -1      1358 8.60886E-05-2.58123E-05-2.58273E-05 3.97869E-07-2.98034E-19 2.54712E-19
 -1      1359 8.64857E-05-2.59378E-05-2.59430E-05 4.05576E-07-3.11709E-19-2.52833E-19
 -1      1360 8.69155E-05-2.60542E-05-2.60888E-05 6.96086E-07-6.46690E-19 1.56516E-19
 -1      1361 8.67601E-05-2.60151E-05-2.60303E-05 4.50518E-07-3.23113E-19-4.93377E-19
 -1      1362 8.72001E-05-2.61510E-05-2.61593E-05 4.58372E-07-4.04795E-19-8.86827E-19
 -1      1363 8.73704E-05-2.61941E-05-2.62229E-05 8.21595E-07-6.03023E-19-1.39143E-19
 -1      1364 8.75351E-05-2.62455E-05-2.62650E-05 5.05024E-07-2.36888E-19-1.10326E-18
 -1      1365 8.80226E-05-2.63940E-05-2.64086E-05 5.15267E-07-1.09713E-19-1.22666E-18
 -1      1366 8.79575E-05-2.63670E-05-2.64003E-05 9.34140E-07-5.33137E-19-3.45279E-19
 -1      1367 8.84180E-05-2.65059E-05-2.65328E-05 5.72349E-07-2.44826E-19-1.59278E-18
 -1      1368 8.89672E-05-2.66723E-05-2.66950E-05 5.86423E-07-4.64744E-19-1.98363E-18
 -1      1369 8.86647E-05-2.65717E-05-2.66162E-05 1.06071E-06-5.31938E-19-7.89881E-19
 -1      1370 8.94301E-05-2.68038E-05-2.68398E-05 6.58555E-07-4.13226E-19-2.29687E-18
 -1      1371 9.00602E-05-2.69947E-05-2.70260E-05 6.77076E-07-3.09032E-19-2.66382E-18
 -1      1372 8.94984E-05-2.68120E-05-2.68715E-05 1.21755E-06-7.79392E-19-1.72850E-18
 -1      1373 9.06004E-05-2.71493E-05-2.71943E-05 7.64471E-07-2.44647E-20-2.71831E-18
 -1      1374 9.13304E-05-2.73716E-05-2.74097E-05 7.87019E-07-7.14122E-20-2.79033E-18
 -1      1375 9.04755E-05-2.70954E-05-2.71699E-05 1.41073E-06-3.91342E-19-1.96247E-18
 -1      1376 9.19562E-05-2.75524E-05-2.76036E-05 8.84302E-07 7.52743E-20-2.90139E-18
 -1      1377 9.27986E-05-2.78111E-05-2.78515E-05 9.09012E-07-1.37515E-19-2.89068E-18
 -1      1378 9.16144E-05-2.74304E-05-2.75153E-05 1.63441E-06-8.06154E-20-2.09552E-18
 -1      1379 9.35105E-05-2.80196E-05-2.80706E-05 1.00325E-06-3.04932E-19-2.67249E-18
 -1      1380 9.44620E-05-2.83155E-05-2.83495E-05 1.02619E-06-2.72670E-19-3.06867E-18
 -1      1381 9.29250E-05-2.78243E-05-2.79083E-05 1.86710E-06-1.56833E-19-1.88211E-18
 -1      1382 9.52461E-05-2.85494E-05-2.85883E-05 1.09444E-06-3.11383E-19-3.01484E-18
 -1      1383 9.62759E-05-2.88749E-05-2.88882E-05 1.10886E-06-3.45728E-19-3.44747E-18
 -1      1384 9.43969E-05-2.82798E-05-2.83425E-05 2.06641E-06-5.00726E-19-1.58618E-18
 -1      1385 9.70950E-05-2.91259E-05-2.91337E-05 1.11603E-06-2.77479E-19-3.48570E-18
 -1      1386 9.81295E-05-2.94603E-05-2.94323E-05 1.11171E-06-2.77279E-19-3.64986E-18
 -1      1387 9.59835E-05-2.87905E-05-2.88000E-05 2.16350E-06-4.33102E-19-1.44349E-18
 -1      1388 9.89145E-05-2.97108E-05-2.96613E-05 1.01095E-06-2.97603E-19-3.47145E-18
 -1      1389 9.98235E-05-3.00147E-05-2.99197E-05 9.74419E-07-3.04426E-19-4.03003E-18
 -1      1390 9.75855E-05-2.93337E-05-2.92466E-05 2.06062E-06-4.30629E-19-1.83221E-18
 -1      1391 1.00467E-04-3.02350E-05-3.00978E-05 7.13676E-07-5.11912E-19-4.38658E-18
 -1      1392 1.01058E-04-3.04467E-05-3.02603E-05 6.30468E-07-5.73805E-19-5.31516E-18
 -1      1393 9.90342E-05-2.98627E-05-2.96297E-05 1.63875E-06-8.68516E-19-2.08327E-18
 -1      1394 1.01419E-04-3.05930E-05-3.03445E-05 1.70909E-07-3.45778E-19-5.92573E-18
 -1      1395 1.01452E-04-3.06307E-05-3.03444E-05 3.18830E-08-7.76309E-19-6.48070E-18
 -1      1396 1.00086E-04-3.02970E-05-2.98796E-05 7.86162E-07-1.03455E-18-3.35685E-18
 -1      1397 1.01375E-04-3.06478E-05-3.02923E-05-6.17972E-07-1.79465E-19-6.40213E-18
 -1      1398 1.00626E-04-3.04264E-05-3.00707E-05-8.05326E-07-2.40213E-20-6.63280E-18
 -1      1399 1.00443E-04-3.05183E-05-2.99217E-05-5.39784E-07-4.62295E-19-4.11553E-18
 -1      1400 9.99918E-05-3.02607E-05-2.98576E-05-1.54504E-06-6.84247E-19-6.75891E-18
 -1      1401 9.83615E-05-2.97286E-05-2.93947E-05-1.74263E-06-1.00689E-18-7.85417E-18
 -1      1402 9.98170E-05-3.03846E-05-2.97001E-05-2.21770E-06-9.68053E-19-3.99934E-18
 -1      1403 9.71718E-05-2.93563E-05-2.90366E-05-2.35058E-06-1.23762E-18-8.02529E-18
 -1      1404 9.48278E-05-2.85510E-05-2.83882E-05-2.48399E-06-1.04186E-18-9.51657E-18
 -1      1405 9.80632E-05-2.97789E-05-2.92129E-05-3.86818E-06-1.78763E-18-4.48641E-18
 -1      1406 9.32937E-05-2.80211E-05-2.79592E-05-2.65253E-06-7.28682E-19-1.05218E-17
 -1      1407 9.07670E-05-2.71165E-05-2.72758E-05-2.63089E-06-6.73477E-19-1.12973E-17
 -1      1408 9.53624E-05-2.87063E-05-2.85443E-05-4.84950E-06-1.97083E-18-5.30960E-18
 -1      1409 8.93464E-05-2.65836E-05-2.69049E-05-2.10479E-06-9.45613E-19-1.26381E-17
 -1      1410 8.74588E-05-2.58766E-05-2.64061E-05-1.87490E-06-1.48088E-18-1.42487E-17
 -1      1411 9.23712E-05-2.73999E-05-2.78746E-05-4.45785E-06-2.09199E-18-7.48066E-18
 -1      1412 8.67521E-05-2.55725E-05-2.62446E-05-6.44261E-07-2.06713E-18-1.56759E-17
 -1      1413 8.63221E-05-2.53755E-05-2.61425E-05-2.46185E-07-1.68197E-18-1.78414E-17
 -1      1414 9.01715E-05-2.63311E-05-2.74469E-05-2.34112E-06-3.28386E-18-9.69453E-18
 -1      1415 8.68330E-05-2.55104E-05-2.63087E-05 1.35308E-06-1.50411E-18-1.95534E-17
 -1      1416 8.82747E-05-2.59845E-05-2.67122E-05 1.77625E-06-1.54006E-18-2.16453E-17
 -1      1417 8.99183E-05-2.60526E-05-2.74950E-05 1.12270E-06-3.41606E-18-1.25863E-17
 -1      1418 9.01489E-05-2.66135E-05-2.72452E-05 3.20430E-06-9.41034E-19-2.31784E-17
 -1      1419 9.32543E-05-2.76534E-05-2.81213E-05 3.48833E-06-5.53344E-19-2.40886E-17
 -1      1420 9.22960E-05-2.68790E-05-2.81642E-05 4.84533E-06-2.33884E-18-1.57371E-17
 -1      1421 9.62110E-05-2.86082E-05-2.89878E-05 4.41382E-06-6.51971E-19-2.51009E-17
 -1      1422 1.00433E-04-2.99161E-05-3.02651E-05 4.53431E-06-1.72735E-19-2.51516E-17
 -1      1423 9.71357E-05-2.86237E-05-2.94779E-05 7.69805E-06-1.23659E-18-1.79712E-17
 -1      1424 1.03986E-04-3.08781E-05-3.14428E-05 5.28546E-06 5.75771E-19-2.46788E-17
 -1      1425 1.09337E-04-3.23053E-05-3.32008E-05 5.49174E-06 1.48536E-18-2.33529E-17
 -1      1426 1.03531E-04-3.05466E-05-3.14065E-05 9.58281E-06 8.01240E-19-1.90248E-17
 -1      1427 1.12946E-04-3.28441E-05-3.47082E-05 7.30169E-06 3.81340E-18-2.01241E-17
 -1      1428 1.20573E-04-3.51655E-05-3.70975E-05 8.20662E-06 4.81729E-18-1.61926E-17
 -1      1429 1.10251E-04-3.15882E-05-3.39290E-05 1.21476E-05 4.96737E-18-1.50712E-17
 -1      1430 1.25838E-04-3.69824E-05-3.87553E-05 9.96475E-06 6.52533E-18-8.93768E-18
 -1      1431 1.34826E-04-4.09823E-05-4.07362E-05 1.01470E-05 5.54764E-18-2.50362E-18
 -1      1432 1.18583E-04-3.44270E-05-3.67309E-05 1.69963E-05 1.02861E-17-3.94442E-18
 -1      1433 1.42901E-04-4.55456E-05-4.18617E-05 5.09112E-06 3.25232E-18 1.34120E-18
 -1      1434 1.44599E-04-4.66224E-05-4.24800E-05 1.85456E-06-7.96079E-19 6.42051E-18
 -1      1435 1.33350E-04-4.44695E-05-3.91798E-05 1.54365E-05 6.45206E-18 9.69059E-18
 -1      1436 1.47495E-04-4.71740E-05-4.34055E-05-7.80171E-06-7.79413E-18-1.19111E-17
 -1      1437 1.38104E-04-4.13683E-05-4.27801E-05-9.90735E-06-9.46284E-18-1.13550E-17
 -1      1438 1.45930E-04-4.95987E-05-4.15164E-05-3.94316E-06-9.65469E-18-4.89024E-18
 -1      1439 1.32573E-04-3.61159E-05-4.23117E-05-6.34706E-06-7.78127E-18-4.04943E-17
 -1      1440 1.28454E-04-3.49389E-05-3.99312E-05-1.55959E-06 1.62757E-18-4.36803E-17
 -1      1441 1.42405E-04-3.98463E-05-4.32208E-05-1.56177E-05-9.10264E-18-6.54150E-17
 -1      1442 1.29107E-04-3.96273E-05-3.53018E-05 4.52830E-06 1.20253E-17-2.20965E-17
 -1      1443 1.19386E-04-3.86867E-05-3.17294E-05 1.03325E-06 5.31323E-18-1.23644E-17
 -1      1444 1.37700E-04-3.76922E-05-3.82928E-05 2.75254E-06 2.37275E-19-8.90299E-17
 -1      1445 1.04294E-04-3.12870E-05-3.12913E-05-1.05280E-06 1.87525E-19-4.09384E-18
 -1      1446 1.03320E-04-3.09764E-05-3.10084E-05-1.04256E-06 3.65250E-19-3.81984E-18
 -1      1447 1.03731E-04-3.11307E-05-3.11157E-05-2.02779E-06 2.65636E-19-2.98572E-18
 -1      1448 1.02564E-04-3.07475E-05-3.07802E-05-9.84854E-07 8.53369E-19-2.59641E-18
 -1      1449 1.01656E-04-3.04632E-05-3.05145E-05-9.62240E-07 1.13219E-18-2.52246E-18
 -1      1450 1.02208E-04-3.06290E-05-3.06827E-05-1.97606E-06 1.03700E-18-2.16035E-18
 -1      1451 1.00969E-04-3.02592E-05-3.03046E-05-8.64109E-07 7.22673E-19-2.37329E-18
 -1      1452 1.00175E-04-3.00141E-05-3.00711E-05-8.36622E-07 3.53686E-20-2.02685E-18
 -1      1453 1.00781E-04-3.01784E-05-3.02665E-05-1.78439E-06 1.20163E-18-3.23557E-19
 -1      1454 9.95805E-05-2.98401E-05-2.98884E-05-7.24040E-07 1.76797E-19-1.86306E-18
 -1      1455 9.89179E-05-2.96378E-05-2.96927E-05-6.96312E-07-3.54735E-19-2.03185E-18
 -1      1456 9.95188E-05-2.97923E-05-2.98917E-05-1.52859E-06 2.03021E-19-1.25245E-18
 -1      1457 9.84230E-05-2.94944E-05-2.95399E-05-5.85248E-07-9.66069E-19-2.59210E-18
 -1      1458 9.78897E-05-2.93330E-05-2.93819E-05-5.59806E-07-3.75511E-19-2.87137E-18
 -1      1459 9.84490E-05-2.94729E-05-2.95698E-05-1.25835E-06-8.14340E-19-2.07228E-18
 -1      1460 9.74907E-05-2.92182E-05-2.92583E-05-4.58837E-07-3.21634E-19-3.46193E-18
 -1      1461 9.70745E-05-2.90934E-05-2.91347E-05-4.36790E-07-2.79604E-20-3.68700E-18
 -1      1462 9.75725E-05-2.92161E-05-2.93033E-05-1.00270E-06-7.56687E-19-2.11140E-18
 -1      1463 9.67617E-05-2.90038E-05-2.90377E-05-3.49460E-07 7.14945E-19-2.36501E-18
 -1      1464 9.64465E-05-2.89099E-05-2.89439E-05-3.31019E-07 5.62405E-19-2.03429E-18
 -1      1465 9.68751E-05-2.90149E-05-2.90895E-05-7.75917E-07 1.00781E-18-1.45383E-18
 -1      1466 9.62082E-05-2.88418E-05-2.88700E-05-2.57637E-07 1.92281E-18-2.02370E-18
 -1      1467 9.59777E-05-2.87736E-05-2.88012E-05-2.42458E-07 1.86786E-18 6.44237E-19
 -1      1468 9.63352E-05-2.88608E-05-2.89231E-05-5.82495E-07 2.33316E-18-1.04664E-18
 -1      1469 9.58023E-05-2.87234E-05-2.87470E-05-1.81351E-07 9.30850E-19 1.90855E-18
 -1      1470 9.56422E-05-2.86762E-05-2.86993E-05-1.68747E-07 1.04685E-18 3.20633E-18
 -1      1471 9.59296E-05-2.87459E-05-2.87976E-05-4.20770E-07 2.77150E-18 7.40440E-19
 -1      1472 9.55192E-05-2.86407E-05-2.86615E-05-1.17156E-07 4.32681E-19 3.37242E-18
 -1      1473 9.54188E-05-2.86115E-05-2.86316E-05-1.06238E-07-5.60213E-19 3.32781E-18
 -1      1474 9.56364E-05-2.86628E-05-2.87068E-05-2.85459E-07 8.62729E-19 2.20245E-18
 -1      1475 9.53393E-05-2.85882E-05-2.86075E-05-6.16412E-08-1.86340E-19 2.54815E-18
 -1      1476 9.52910E-05-2.85751E-05-2.85925E-05-5.15666E-08 4.82802E-19 2.73925E-18
 -1      1477 9.54366E-05-2.86060E-05-2.86449E-05-1.70079E-07-2.97542E-19 2.15460E-18
 -1      1478 9.52449E-05-2.85605E-05-2.85788E-05-1.36119E-08 6.07893E-19 3.23636E-18
 -1      1479 9.52417E-05-2.85651E-05-2.85740E-05-4.10688E-09-6.69977E-20 2.92531E-18
 -1      1480 9.53127E-05-2.85718E-05-2.86056E-05-7.17615E-08 6.01768E-19 2.21154E-18
 -1      1481 9.52272E-05-2.85747E-05-2.85610E-05 1.32666E-08-2.38075E-18 2.51798E-18
 -1      1482 9.52503E-05-2.85731E-05-2.85756E-05 3.08436E-09-1.91385E-18 1.61401E-18
 -1      1483 9.31525E-05-2.73711E-05-2.87009E-05 2.64169E-06 1.07028E-18 8.66441E-18
 -1      1484 9.85882E-05-2.82723E-05-3.09145E-05 4.03244E-06 9.15431E-19 1.03055E-17
 -1      1485 9.85765E-05-2.57970E-05-3.14864E-05 1.17793E-05 1.82488E-18 6.65831E-18
 -1      1486 8.92072E-05-2.65948E-05-2.69019E-05 9.03852E-07 7.64130E-19 6.58891E-18
 -1      1487 9.08446E-05-2.66756E-05-2.77096E-05 1.20741E-06 7.66565E-19 7.78705E-18
 -1      1488 9.33305E-05-2.71387E-05-2.85553E-05 4.25289E-06 1.65248E-18 5.12156E-18
 -1      1489 8.78381E-05-2.63006E-05-2.63519E-05 1.30920E-07 6.44989E-19 4.99281E-18
 -1      1490 8.82216E-05-2.62565E-05-2.65504E-05 2.85564E-07 5.67565E-19 5.96618E-18
 -1      1491 9.03878E-05-2.68048E-05-2.72914E-05 1.39767E-06 1.25648E-18 3.90052E-18
 -1      1492 8.77246E-05-2.62995E-05-2.63004E-05-2.39479E-07 3.85347E-19 3.88232E-18
 -1      1493 8.75611E-05-2.61801E-05-2.62670E-05-1.52905E-07 4.27490E-19 4.54739E-18
 -1      1494 8.92580E-05-2.66465E-05-2.68426E-05 1.30075E-07 9.37950E-19 2.88883E-18
 -1      1495 8.82497E-05-2.64672E-05-2.64617E-05-4.30374E-07 3.60828E-19 3.14040E-18
 -1      1496 8.78244E-05-2.63016E-05-2.63370E-05-3.78509E-07 2.48291E-19 3.57747E-18
 -1      1497 8.91195E-05-2.66753E-05-2.67685E-05-5.04091E-07 6.27347E-19 2.33131E-18
 -1      1498 8.91214E-05-2.67327E-05-2.67270E-05-5.33587E-07 1.59054E-19 2.50633E-18
 -1      1499 8.85624E-05-2.65413E-05-2.65613E-05-5.00515E-07 2.26540E-19 2.86265E-18
 -1      1500 8.95366E-05-2.68319E-05-2.68807E-05-8.43183E-07 5.07543E-19 1.68143E-18
 -1      1501 9.01935E-05-2.70555E-05-2.70513E-05-5.94318E-07 2.91901E-19 2.09335E-18
 -1      1502 8.95612E-05-2.68498E-05-2.68637E-05-5.71180E-07 1.66626E-19 2.35439E-18
 -1      1503 9.02783E-05-2.70690E-05-2.70968E-05-1.03555E-06 3.93845E-19 1.36579E-18
 -1      1504 9.13982E-05-2.74159E-05-2.74152E-05-6.39225E-07 3.19639E-20 1.54313E-18
 -1      1505 9.07173E-05-2.71998E-05-2.72127E-05-6.20131E-07 2.18666E-19 1.87807E-18
 -1      1506 9.12241E-05-2.73578E-05-2.73780E-05-1.15898E-06 3.70924E-19 1.19225E-18
 -1      1507 9.27158E-05-2.78081E-05-2.78136E-05-6.86399E-07 3.15636E-19 1.16652E-18
 -1      1508 9.19890E-05-2.75803E-05-2.75967E-05-6.66923E-07 1.18681E-19 1.34277E-18
 -1      1509 9.23180E-05-2.76845E-05-2.77069E-05-1.26097E-06 3.22195E-19 6.30005E-19
 -1      1510 9.41604E-05-2.82368E-05-2.82507E-05-7.49501E-07 1.22782E-19 7.02720E-19
 -1      1511 9.33743E-05-2.79913E-05-2.80156E-05-7.25964E-07 2.67860E-19 9.49990E-19
 -1      1512 9.35447E-05-2.80461E-05-2.80784E-05-1.37447E-06 4.65445E-19 1.90877E-19
 -1      1513 9.57716E-05-2.87139E-05-2.87386E-05-8.39561E-07 2.92505E-19 3.01064E-19
 -1      1514 9.49000E-05-2.84414E-05-2.84774E-05-8.08671E-07 1.50984E-19 5.34706E-19
 -1      1515 9.49184E-05-2.84476E-05-2.84965E-05-1.52452E-06 3.52326E-19 1.56456E-19
 -1      1516 9.76091E-05-2.92576E-05-2.92951E-05-9.65611E-07 3.43818E-19-2.10752E-19
 -1      1517 9.66154E-05-2.89456E-05-2.89971E-05-9.24320E-07 3.12327E-19 7.62429E-20
 -1      1518 9.64744E-05-2.89004E-05-2.89716E-05-1.73105E-06 4.89165E-19-2.65877E-19
 -1      1519 9.97478E-05-2.98910E-05-2.99426E-05-1.13423E-06 1.71786E-19-8.01743E-19
 -1      1520 9.85871E-05-2.95245E-05-2.95946E-05-1.07984E-06 2.90976E-19-5.15400E-19
 -1      1521 9.82643E-05-2.94208E-05-2.95187E-05-2.00941E-06 5.77246E-19-2.48397E-19
 -1      1522 1.02270E-04-3.06397E-05-3.07051E-05-1.34759E-06-1.67473E-19-7.20679E-19
 -1      1523 1.00893E-04-3.02025E-05-3.02931E-05-1.27829E-06-2.55433E-20-8.29867E-19
 -1      1524 1.00349E-04-3.00285E-05-3.01555E-05-2.36829E-06 6.90067E-20-4.48023E-19
 -1      1525 1.05251E-04-3.15286E-05-3.16042E-05-1.59917E-06 3.04932E-20-6.57079E-19
 -1      1526 1.03613E-04-3.10059E-05-3.11155E-05-1.51528E-06 7.54008E-20-6.83648E-19
 -1      1527 1.02790E-04-3.07448E-05-3.08989E-05-2.80433E-06-5.05325E-20-3.04522E-19
 -1      1528 1.08735E-04-3.25749E-05-3.26499E-05-1.86563E-06 3.86293E-21-1.02888E-18
 -1      1529 1.06809E-04-3.19583E-05-3.20785E-05-1.77210E-06 4.07866E-20-1.10179E-18
 -1      1530 1.05634E-04-3.15897E-05-3.17591E-05-3.29116E-06 1.70793E-19-5.80251E-19
 -1      1531 1.12684E-04-3.37756E-05-3.38257E-05-2.09336E-06 7.36792E-19-2.01554E-18
 -1      1532 1.10493E-04-3.30724E-05-3.31813E-05-2.00425E-06 3.00665E-19-1.35697E-18
 -1      1533 1.08886E-04-3.25758E-05-3.27309E-05-3.76060E-06 4.24663E-19-1.57987E-18
 -1      1534 1.16907E-04-3.50852E-05-3.50646E-05-2.17969E-06 2.13890E-19-3.11422E-18
 -1      1535 1.14568E-04-3.43351E-05-3.43872E-05-2.12496E-06 5.60869E-19-2.17231E-18
 -1      1536 1.12466E-04-3.36984E-05-3.37782E-05-4.07432E-06 9.22581E-19-1.60728E-18
 -1      1537 1.20952E-04-3.63826E-05-3.62182E-05-1.95551E-06-7.71541E-19-2.29812E-18
 -1      1538 1.18746E-04-3.56812E-05-3.55976E-05-1.98839E-06-5.82534E-19-2.90242E-18
 -1      1539 1.16149E-04-3.49173E-05-3.48159E-05-3.99159E-06-5.23453E-19-1.44391E-18
 -1      1540 1.23998E-04-3.74281E-05-3.70327E-05-1.19344E-06-3.23004E-19-1.34271E-18
 -1      1541 1.22439E-04-3.69531E-05-3.66231E-05-1.39080E-06-4.02936E-19-1.79767E-18
 -1      1542 1.19490E-04-3.61262E-05-3.56923E-05-3.15839E-06-6.81206E-19-1.03811E-18
 -1      1543 1.24848E-04-3.78362E-05-3.71664E-05 3.07590E-07-2.37235E-20-1.48718E-18
 -1      1544 1.24681E-04-3.78522E-05-3.71757E-05-1.30489E-07-9.89837E-20-1.62924E-18
 -1      1545 1.21771E-04-3.71064E-05-3.61915E-05-1.18063E-06-2.75087E-19-8.58987E-19
 -1      1546 1.22202E-04-3.71258E-05-3.63034E-05 2.50128E-06 1.19538E-19-2.03658E-18
 -1      1547 1.24216E-04-3.79203E-05-3.69211E-05 1.81756E-06 4.56736E-20-1.56010E-18
 -1      1548 1.22049E-04-3.74873E-05-3.60869E-05 2.11695E-06 1.38040E-19-6.75125E-19
 -1      1549 1.15437E-04-3.49537E-05-3.43867E-05 4.75785E-06-6.25415E-20-2.21213E-18
 -1      1550 1.19950E-04-3.66458E-05-3.56361E-05 4.01185E-06 1.59891E-19-2.02409E-18
 -1      1551 1.19467E-04-3.67785E-05-3.52645E-05 6.20419E-06 1.11477E-19-6.75032E-19
 -1      1552 1.05797E-04-3.16061E-05-3.18714E-05 5.73674E-06-1.23783E-18-1.66654E-19
 -1      1553 1.11910E-04-3.38400E-05-3.34534E-05 5.34269E-06-7.87122E-19-1.86940E-18
 -1      1554 1.13937E-04-3.46485E-05-3.38846E-05 9.36784E-06-8.60255E-19-3.53160E-19
 -1      1555 9.70208E-05-2.84083E-05-2.97153E-05 4.13042E-06-5.88066E-19 1.58993E-18
 -1      1556 1.02340E-04-3.02313E-05-3.10218E-05 4.48918E-06-6.56914E-19 5.46548E-19
 -1      1557 1.07040E-04-3.15241E-05-3.24332E-05 9.13182E-06-1.75898E-18 5.93770E-19
 -1      1558 9.37870E-05-2.71909E-05-2.89553E-05 1.05358E-07 7.37395E-19 6.51253E-19
 -1      1559 9.55029E-05-2.75423E-05-2.93504E-05 1.18184E-06 4.81274E-19 1.38458E-18
 -1      1560 1.02039E-04-2.89421E-05-3.15438E-05 4.25950E-06 1.58342E-19 3.71861E-19
 -1      1561 9.83693E-05-2.88756E-05-3.00689E-05-4.19542E-06 5.61477E-19-2.50891E-18
 -1      1562 9.52964E-05-2.74469E-05-2.92964E-05-3.01081E-06 9.81870E-19-9.01402E-19
 -1      1563 1.02041E-04-2.87068E-05-3.16776E-05-3.33040E-06 1.90773E-18-9.93173E-19
 -1      1564 1.08576E-04-3.25144E-05-3.26298E-05-6.33382E-06-2.89560E-19-3.43006E-18
 -1      1565 1.02188E-04-3.00729E-05-3.10040E-05-5.70633E-06-1.31833E-19-3.36674E-18
 -1      1566 1.07411E-04-3.11714E-05-3.28493E-05-9.38641E-06 6.89723E-19-2.92036E-18
 -1      1567 1.19932E-04-3.62475E-05-3.55348E-05-6.10952E-06 2.47278E-19-3.64711E-18
 -1      1568 1.12815E-04-3.38328E-05-3.37725E-05-5.98263E-06 1.51493E-19-3.48311E-18
 -1      1569 1.15311E-04-3.46359E-05-3.46255E-05-1.12171E-05 1.57882E-19-4.12240E-18
 -1      1570 1.26539E-04-3.64339E-05-3.68725E-05-5.79390E-06 9.59106E-19-4.96525E-18
 -1      1571 1.21942E-04-3.65738E-05-3.63401E-05-4.63246E-06 4.22378E-19-4.05115E-18
 -1      1572 1.21338E-04-3.63459E-05-3.61690E-05-9.53515E-06 6.80313E-19-4.23064E-18
 -1      1573 1.24383E-04-3.76925E-05-3.69843E-05-5.65706E-07-6.24978E-19-4.01150E-18
 -1      1574 1.24452E-04-3.75346E-05-3.65269E-05-2.02655E-06-2.28593E-19-4.46243E-18
 -1      1575 1.23569E-04-3.68555E-05-3.64053E-05-4.53542E-06-9.16119E-20-3.77586E-18
 -1      1576 1.23409E-04-3.72295E-05-3.68511E-05 1.05478E-06-4.00918E-19-2.55640E-18
 -1      1577 1.23916E-04-3.75669E-05-3.69393E-05 6.86696E-07-6.83264E-19-3.58687E-18
 -1      1578 1.21238E-04-3.71134E-05-3.60089E-05 3.96773E-07-1.28712E-18-1.75576E-18
 -1      1579 1.20311E-04-3.61628E-05-3.60455E-05 1.89254E-06 2.33722E-19-1.93896E-18
 -1      1580 1.22056E-04-3.68247E-05-3.65077E-05 1.68894E-06 6.58337E-20-2.18824E-18
 -1      1581 1.19254E-04-3.61641E-05-3.55822E-05 2.72312E-06-4.84463E-19-1.83823E-18
 -1      1582 1.16314E-04-3.48814E-05-3.49161E-05 2.13881E-06-3.90661E-19-7.79932E-19
 -1      1583 1.18560E-04-3.56356E-05-3.55469E-05 2.06165E-06-3.21515E-19-1.22908E-18
 -1      1584 1.16101E-04-3.49469E-05-3.47661E-05 3.79014E-06-4.35726E-19-1.56150E-18
 -1      1585 1.12236E-04-3.36202E-05-3.37215E-05 2.03861E-06 5.38903E-19-1.72775E-18
 -1      1586 1.14503E-04-3.43355E-05-3.43760E-05 2.03769E-06 2.29204E-19-9.56591E-19
 -1      1587 1.12567E-04-3.37281E-05-3.37823E-05 3.97524E-06 3.47549E-19-1.14469E-18
 -1      1588 1.08522E-04-3.24950E-05-3.26127E-05 1.77751E-06 1.50057E-19-3.64180E-18
 -1      1589 1.10561E-04-3.31137E-05-3.32107E-05 1.81440E-06 4.99018E-19-2.05038E-18
 -1      1590 1.09148E-04-3.26301E-05-3.27925E-05 3.66763E-06 9.57008E-19-2.10946E-18
 -1      1591 1.05357E-04-3.15478E-05-3.16578E-05 1.46872E-06-7.28251E-19-1.49713E-18
 -1      1592 1.07073E-04-3.20547E-05-3.21657E-05 1.51966E-06-1.10815E-18-3.19024E-18
 -1      1593 1.06104E-04-3.16962E-05-3.18903E-05 3.14657E-06-9.36140E-19-1.08349E-18
 -1      1594 1.02772E-04-3.07802E-05-3.08735E-05 1.17120E-06-3.71570E-19 5.37171E-19
 -1      1595 1.04156E-04-3.11812E-05-3.12856E-05 1.22338E-06-4.52160E-19-2.52019E-19
 -1      1596 1.03530E-04-3.09301E-05-3.11167E-05 2.57805E-06-1.22645E-18-2.35594E-19
 -1      1597 1.00723E-04-3.01748E-05-3.02499E-05 9.10434E-07-3.82412E-19 1.86123E-18
 -1      1598 1.01807E-04-3.04841E-05-3.05739E-05 9.57875E-07-3.00353E-19 9.53448E-19
 -1      1599 1.01432E-04-3.03175E-05-3.04803E-05 2.04649E-06-5.57851E-19 1.18862E-18
 -1      1600 9.91355E-05-2.97073E-05-2.97658E-05 6.93705E-07-1.76408E-19 2.35342E-18
 -1      1601 9.99662E-05-2.99412E-05-3.00147E-05 7.34223E-07-1.37646E-19 2.01181E-18
 -1      1602 9.97653E-05-2.98373E-05-2.99718E-05 1.58679E-06-4.08128E-19 1.11867E-18
 -1      1603 9.79281E-05-2.93525E-05-2.93973E-05 5.19400E-07 4.43945E-19 7.50173E-19
 -1      1604 9.85530E-05-2.95265E-05-2.95848E-05 5.52743E-07 3.77469E-19 1.53853E-18
 -1      1605 9.84692E-05-2.94672E-05-2.95748E-05 1.20703E-06 4.27715E-19 8.94548E-19
 -1      1606 9.70258E-05-2.90879E-05-2.91217E-05 3.82131E-07-7.03140E-19 1.31907E-18
 -1      1607 9.74877E-05-2.92151E-05-2.92605E-05 4.08958E-07-1.00382E-19 1.48374E-18
 -1      1608 9.74795E-05-2.91865E-05-2.92707E-05 9.02237E-07-2.86353E-20 9.27932E-19
 -1      1609 9.63642E-05-2.88941E-05-2.89196E-05 2.75273E-07 1.67453E-18 1.27065E-18
 -1      1610 9.66989E-05-2.89851E-05-2.90203E-05 2.96636E-07 8.39444E-19 2.22923E-18
 -1      1611 9.67369E-05-2.89769E-05-2.90421E-05 6.62013E-07 4.28871E-19 1.38172E-18
 -1      1612 9.58910E-05-2.87555E-05-2.87751E-05 1.92070E-07 6.12096E-19 1.44359E-20
 -1      1613 9.61270E-05-2.88187E-05-2.88461E-05 2.09198E-07 7.98108E-19 4.47827E-19
 -1      1614 9.61908E-05-2.88232E-05-2.88737E-05 4.74205E-07 1.47834E-18 1.78648E-18
 -1      1615 9.55666E-05-2.86604E-05-2.86763E-05 1.26114E-07 1.76648E-18-3.22872E-18
 -1      1616 9.57248E-05-2.87017E-05-2.87238E-05 1.40312E-07 1.48498E-18-1.00224E-18
 -1      1617 9.58000E-05-2.87133E-05-2.87533E-05 3.26629E-07 2.10915E-18 2.78055E-19
 -1      1618 9.53621E-05-2.86003E-05-2.86142E-05 7.17877E-08-2.24161E-19-4.32846E-18
 -1      1619 9.54571E-05-2.86235E-05-2.86427E-05 8.43661E-08 3.92178E-19-4.34162E-18
 -1      1620 9.55323E-05-2.86378E-05-2.86710E-05 2.08072E-07 1.14397E-18-3.36296E-19
 -1      1621 9.52565E-05-2.85697E-05-2.85814E-05 2.47337E-08 1.80687E-19-4.59218E-18
 -1      1622 9.52980E-05-2.85770E-05-2.85946E-05 3.71737E-08 4.33596E-19-4.10398E-18
 -1      1623 9.53629E-05-2.85896E-05-2.86191E-05 1.09659E-07 4.19331E-19-1.20872E-18
 -1      1624 9.52301E-05-2.85665E-05-2.85677E-05-1.03172E-08-3.44988E-19-3.76480E-18
 -1      1625 9.52281E-05-2.85599E-05-2.85712E-05-3.63555E-10-4.72470E-19-4.83001E-18
 -1      1626 9.52715E-05-2.85673E-05-2.85888E-05 2.76583E-08-1.28245E-19-3.06190E-18
 -1      1627 9.52286E-05-2.85765E-05-2.85606E-05-1.25459E-08-2.00465E-18-2.42545E-18
 -1      1628 9.52473E-05-2.85652E-05-2.85792E-05 1.50418E-08-2.34411E-18 1.44106E-18
 -1      1629 9.52459E-05-2.85706E-05-2.85737E-05 6.10743E-09-2.84584E-18 1.89828E-19
 -1      1630 9.52205E-05-2.84776E-05-2.86055E-05 6.01707E-08 6.49874E-19 2.19326E-18
 -1      1631 9.52353E-05-2.85239E-05-2.85915E-05 5.09089E-08-1.72187E-18 1.02732E-18
 -1      1632 9.52394E-05-2.85007E-05-2.86041E-05 6.96377E-08 3.91387E-20 2.21963E-18
 -1      1633 9.51718E-05-2.83316E-05-2.86467E-05 9.57276E-08 1.61518E-18 6.68420E-19
 -1      1634 9.51989E-05-2.84129E-05-2.86236E-05 8.96901E-08 8.34828E-19 2.11194E-18
 -1      1635 9.52018E-05-2.83920E-05-2.86350E-05 1.48598E-07 9.04902E-19 2.62310E-18
 -1      1636 9.51121E-05-2.81529E-05-2.86972E-05 1.11461E-07 1.70192E-18 1.79874E-19
 -1      1637 9.51450E-05-2.82517E-05-2.86691E-05 1.09998E-07 8.76983E-19 1.20290E-18
 -1      1638 9.51484E-05-2.82444E-05-2.86741E-05 2.00995E-07-5.50197E-19 7.83797E-19
 -1      1639 9.50540E-05-2.79778E-05-2.87470E-05 1.05543E-07 1.57090E-18 8.03222E-19
 -1      1640 9.50855E-05-2.80725E-05-2.87200E-05 1.08338E-07 1.33985E-18 2.96494E-19
 -1      1641 9.50891E-05-2.80815E-05-2.87171E-05 2.13613E-07 8.83870E-19 2.46513E-21
 -1      1642 9.50060E-05-2.78320E-05-2.87888E-05 8.01913E-08 4.79780E-18 1.41300E-18
 -1      1643 9.50310E-05-2.79075E-05-2.87672E-05 8.65729E-08 2.55416E-18 2.04893E-18
 -1      1644 9.50342E-05-2.79290E-05-2.87577E-05 1.86352E-07 2.40435E-18 2.26257E-18
 -1      1645 9.49773E-05-2.77442E-05-2.88140E-05 4.08107E-08 4.36286E-18-2.63077E-19
 -1      1646 9.49908E-05-2.77852E-05-2.88023E-05 4.94185E-08 5.17511E-18 5.24788E-19
 -1      1647 9.49920E-05-2.78110E-05-2.87892E-05 1.25576E-07 2.06087E-18 1.08949E-18
 -1      1648 9.49723E-05-2.77287E-05-2.88185E-05-5.30436E-09 4.14337E-18 3.81708E-19
 -1      1649 9.49722E-05-2.77283E-05-2.88186E-05 3.99869E-09 4.30873E-18 3.05761E-19
 -1      1650 9.49696E-05-2.77480E-05-2.88062E-05 4.33267E-08 2.22657E-18-9.20401E-19
 -1      1651 9.49918E-05-2.77877E-05-2.88016E-05-5.01832E-08 3.93608E-18-5.53946E-20
 -1      1652 9.49781E-05-2.77462E-05-2.88135E-05-4.17645E-08 3.91577E-18 8.96631E-19
 -1      1653 9.49704E-05-2.77498E-05-2.88057E-05-4.57483E-08 2.06421E-18 6.39168E-19
 -1      1654 9.50322E-05-2.79105E-05-2.87664E-05-8.61863E-08 1.59349E-18-9.96598E-19
 -1      1655 9.50074E-05-2.78355E-05-2.87879E-05-8.01038E-08 3.99419E-18-1.15673E-18
 -1      1656 9.49939E-05-2.78158E-05-2.87881E-05-1.26458E-07 1.07427E-18-1.06676E-18
 -1      1657 9.50856E-05-2.80727E-05-2.87200E-05-1.06730E-07-4.87940E-19 6.75692E-19
 -1      1658 9.50547E-05-2.79794E-05-2.87466E-05-1.04116E-07 9.11247E-19-8.93648E-19
 -1      1659 9.50361E-05-2.79338E-05-2.87565E-05-1.84703E-07 8.85662E-19-2.30318E-18
 -1      1660 9.51447E-05-2.82509E-05-2.86693E-05-1.08165E-07-1.01551E-18-5.52190E-19
 -1      1661 9.51124E-05-2.81537E-05-2.86969E-05-1.09629E-07-1.24576E-18 1.71150E-18
 -1      1662 9.50903E-05-2.80852E-05-2.87161E-05-2.10459E-07-1.94908E-19 3.47054E-19
 -1      1663 9.51975E-05-2.84100E-05-2.86242E-05-8.85679E-08-2.98165E-18-4.21930E-19
 -1      1664 9.51708E-05-2.83295E-05-2.86471E-05-9.42604E-08-1.64528E-18-3.69667E-19
 -1      1665 9.51489E-05-2.82472E-05-2.86731E-05-1.97878E-07-4.92345E-19-1.22086E-18
 -1      1666 9.52351E-05-2.85201E-05-2.85925E-05-5.23456E-08-3.35262E-18 4.77057E-19
 -1      1667 9.52179E-05-2.84727E-05-2.86065E-05-6.15589E-08-3.95056E-18 7.88792E-19
 -1      1668 9.51999E-05-2.83911E-05-2.86344E-05-1.47226E-07-1.87356E-18-3.06007E-19
 -1      1669 9.52485E-05-2.85561E-05-2.85810E-05-2.13874E-08-3.32334E-18-7.60506E-20
 -1      1670 9.52472E-05-2.85455E-05-2.85877E-05-3.37733E-08-3.47768E-18 5.30516E-20
 -1      1671 9.52436E-05-2.84817E-05-2.86124E-05-9.40570E-08-2.93687E-18 7.25299E-19
 -1      1672 9.52690E-05-2.85337E-05-2.85994E-05-5.13507E-08-2.49463E-19 1.32395E-18
 -1      1673 2.00517E-05-6.49419E-05 1.34208E-05-6.55902E-06 3.71212E-18 1.57972E-18
 -1      1674 2.31734E-05-7.43840E-05 1.55608E-05 1.10997E-06 2.01170E-20 2.83841E-18
 -1      1675 1.86792E-05-3.93665E-05 4.23146E-06 3.56557E-07 4.08100E-18 1.39422E-18
 -1      1676 2.35680E-05-6.14894E-05 9.92990E-06-2.85240E-06 4.73746E-18 3.30541E-19
 -1      1677 4.19614E-05-1.74949E-05-1.27649E-05 2.96318E-05-8.24163E-18-9.17379E-18
 -1      1678 3.36863E-05-3.64240E-05-3.52616E-06 1.15318E-05 1.34085E-18-3.48893E-18
 -1      1679 8.88454E-05-1.13660E-05-3.25346E-05 5.80952E-05-6.65853E-18-5.76999E-18
 -1      1680 6.22238E-05-1.62537E-05-2.21964E-05 3.60700E-05-7.47845E-18-5.67089E-18
 -1      1681 1.51795E-04-2.13443E-05-5.21717E-05 7.64764E-05-3.79344E-18-7.01767E-18
 -1      1682 1.08354E-04-8.74308E-06-4.23110E-05 6.41085E-05-5.03985E-18-6.05290E-18
 -1      1683 2.21372E-04-4.84342E-05-6.81284E-05 6.38852E-05-2.73878E-18-9.29957E-18
 -1      1684 1.76317E-04-2.68525E-05-6.06337E-05 7.46306E-05-2.61352E-18-8.10272E-18
 -1      1685 2.60317E-04-6.54184E-05-7.68982E-05 1.68192E-05 7.74823E-19-1.42047E-17
 -1      1686 2.36394E-04-5.25878E-05-7.31676E-05 4.92820E-05-9.04737E-19-1.11605E-17
 -1      1687 2.49833E-04-5.78517E-05-7.61224E-05-3.90523E-05 6.66700E-18-2.17095E-17
 -1      1688 2.61972E-04-6.51587E-05-7.77935E-05-7.98176E-07 3.79174E-18-1.62952E-17
 -1      1689 1.98104E-04-3.28480E-05-6.63915E-05-7.66979E-05 1.41438E-17-2.79250E-17
 -1      1690 2.40682E-04-5.55084E-05-7.27779E-05-5.71254E-05 9.07511E-18-2.44538E-17
 -1      1691 1.20534E-04-7.66010E-06-4.73273E-05-7.12739E-05 2.13147E-17-2.83604E-17
 -1      1692 1.71824E-04-2.64683E-05-5.79498E-05-7.99635E-05 1.67573E-17-2.77725E-17
 -1      1693 5.93107E-05-2.71727E-06-2.63560E-05-4.55490E-05 2.93243E-17-2.52179E-17
 -1      1694 9.04461E-05-9.48978E-07-3.70670E-05-6.97271E-05 2.52653E-17-2.75023E-17
 -1      1695 3.23697E-05-2.89643E-05-6.00608E-06-1.48963E-05 2.89626E-17-1.80829E-17
 -1      1696 4.20924E-05-7.83349E-06-1.62701E-05-3.65920E-05 2.95598E-17-2.31257E-17
 -1      1697 2.39243E-05-5.88610E-05 8.83930E-06-3.50642E-07 2.67019E-17-9.58181E-18
 -1      1698 1.95040E-05-3.46746E-05 2.25230E-06-5.29905E-06 2.92760E-17-1.46899E-17
 -1      1699 2.36390E-05-7.59710E-05 1.57925E-05-2.38340E-06 2.27242E-17-3.26955E-18
 -1      1700 2.01893E-05-6.54552E-05 1.33638E-05 5.83511E-06 2.65236E-17-6.43957E-18
 -1      1701 1.94091E-05-6.63817E-05 1.43950E-05-8.59257E-06 1.90752E-17 2.50881E-18
 -1      1702 2.33702E-05-7.64232E-05 1.61714E-05 1.76115E-07 2.19023E-17-5.14573E-20
 -1      1703 2.02683E-05-3.97314E-05 4.89423E-06 3.54367E-06 1.53135E-17 4.63454E-18
 -1      1704 2.38570E-05-5.90373E-05 1.00707E-05 1.71326E-07 1.74404E-17 3.65071E-18
 -1      1705 3.17184E-05-1.38307E-05-9.29132E-06 2.30248E-05 1.15180E-17 7.12778E-18
 -1      1706 2.70337E-05-3.40638E-05-9.96001E-07 6.89990E-06 1.42827E-17 6.32183E-18
 -1      1707 7.00952E-05-5.41788E-06-2.69768E-05 5.09361E-05 9.37157E-18 1.09615E-17
 -1      1708 4.73237E-05-1.06601E-05-1.77371E-05 3.04046E-05 9.83575E-18 9.60705E-18
 -1      1709 1.29423E-04-1.80800E-05-4.47490E-05 6.55983E-05 7.91637E-18 1.50552E-17
 -1      1710 9.10388E-05-6.75691E-06-3.57639E-05 5.50589E-05 8.45085E-18 1.32645E-17
 -1      1711 1.89387E-04-4.14024E-05-5.91443E-05 5.15644E-05 4.85350E-18 1.85348E-17
 -1      1712 1.51039E-04-2.33896E-05-5.23084E-05 6.15195E-05 6.26423E-18 1.67103E-17
 -1      1713 2.25741E-04-5.58716E-05-6.86222E-05 6.70127E-06 4.48927E-20 2.27407E-17
 -1      1714 2.04181E-04-4.52422E-05-6.43770E-05 3.86300E-05 2.47461E-18 2.09132E-17
 -1      1715 2.13818E-04-4.39796E-05-7.04667E-05-4.44580E-05-3.48829E-18 2.36397E-17
 -1      1716 2.23882E-04-5.23607E-05-7.01173E-05-1.08504E-05-2.07735E-18 2.48433E-17
 -1      1717 1.70668E-04-1.65265E-05-6.61419E-05-7.79745E-05 2.65841E-18 1.37787E-17
 -1      1718 2.02682E-04-3.76837E-05-6.90010E-05-5.81300E-05-1.87724E-18 2.22828E-17
 -1      1719 1.13019E-04 1.47056E-05-5.72411E-05-9.05694E-05 2.95894E-17-1.10841E-17
 -1      1720 1.52214E-04-6.63830E-06-6.27973E-05-9.06686E-05 1.11059E-17 6.61162E-18
 -1      1721 6.27479E-05 2.23947E-05-4.13528E-05-6.95223E-05 9.48533E-17-4.46136E-17
 -1      1722 9.29258E-05 1.88696E-05-5.02746E-05-8.77186E-05 5.54163E-17-2.21310E-17
 -1      1723 4.94376E-05-3.15369E-05-1.73744E-05-3.77775E-05 2.15475E-16-6.88608E-17
 -1      1724 5.66504E-05 4.11461E-06-3.06810E-05-6.55051E-05 1.44528E-16-4.91292E-17
 -1      1725 3.31870E-05-1.28068E-04 7.74540E-06-6.76706E-05 3.95774E-16 3.71509E-17
 -1      1726 4.08305E-05-5.05146E-05-4.64186E-06-3.97029E-05 2.52091E-16-5.66841E-17
 -1      1727 2.38134E-05-7.65376E-05 1.59021E-05-2.59706E-06-8.18763E-19 2.82485E-18
 -1      1728-1.15675E-06-7.82479E-05 1.38029E-05-1.92718E-05 1.65348E-16 8.70251E-17
 -1      1729 1.26541E-04-3.96962E-05-3.66945E-05 4.06193E-05-6.15200E-18-5.45150E-18
 -1      1730 8.53501E-05-4.47383E-05-1.87872E-05 3.91249E-05-9.31821E-18-7.03842E-18
 -1      1731 9.52451E-05-2.85801E-05-2.85692E-05-1.35848E-08-2.90777E-18-1.83086E-18
 -1      1732 9.52493E-05-2.85497E-05-2.85848E-05 9.32804E-09-1.08022E-18-3.27502E-19
 -1      1733 1.85871E-05-4.74470E-05 8.14267E-06 1.27216E-05 3.09591E-19 1.29405E-18
 -1      1734 4.29083E-05-4.24394E-05-2.77524E-06 2.96703E-05 2.01933E-18 1.02150E-18
 -1      1735 1.16343E-05-4.97905E-05 1.17547E-05-6.18068E-07-8.61485E-19 5.26727E-18
 -1      1736 1.68859E-04-3.54078E-05-5.41115E-05 3.95268E-05-3.19564E-18-8.03411E-18
 -1      1737 2.04506E-04-3.62673E-05-6.70689E-05 2.49269E-05-9.98228E-19-1.02084E-17
 -1      1738 2.14328E-04-3.21756E-05-7.25923E-05 1.15294E-06 4.93227E-18-1.42286E-17
 -1      1739 2.11216E-04-3.44602E-05-7.03952E-05-2.25890E-05 9.77900E-18-1.67823E-17
 -1      1740 1.80175E-04-3.43046E-05-5.90368E-05-4.00878E-05 1.35240E-17-1.89142E-17
 -1      1741 1.31980E-04-3.16762E-05-4.14446E-05-4.85750E-05 1.75565E-17-1.95326E-17
 -1      1742 8.19600E-05-3.34209E-05-2.18628E-05-4.35998E-05 2.05007E-17-1.75344E-17
 -1      1743 4.38322E-05-3.96524E-05-4.56826E-06-3.18648E-05 1.97918E-17-1.43538E-17
 -1      1744 1.92276E-05-4.68084E-05 7.63002E-06-1.52350E-05 1.97884E-17-8.57303E-18
 -1      1745 1.19789E-05-5.17397E-05 1.23423E-05-1.51738E-06 1.82806E-17-3.23101E-18
 -1      1746 1.84818E-05-4.61049E-05 8.46298E-06 1.41269E-05 1.59255E-17 1.22947E-18
 -1      1747 3.79050E-05-4.17178E-05-9.91472E-07 2.53698E-05 1.35483E-17 3.75694E-18
 -1      1748 6.67979E-05-3.51444E-05-1.46663E-05 3.32245E-05 1.09428E-17 7.62668E-18
 -1      1749 1.05242E-04-3.07906E-05-3.10406E-05 3.77355E-05 8.24290E-18 1.27970E-17
 -1      1750 1.44132E-04-2.94834E-05-4.65640E-05 3.29082E-05 5.93558E-18 1.51568E-17
 -1      1751 1.75563E-04-3.00983E-05-5.87511E-05 1.79612E-05 2.10784E-18 1.84450E-17
 -1      1752 1.84600E-04-2.48839E-05-6.50521E-05-6.17410E-06-1.48231E-18 2.19581E-17
 -1      1753 1.74040E-04-1.83926E-05-6.49451E-05-2.86414E-05 7.66353E-19 2.34571E-17
 -1      1754 1.50856E-04-1.01328E-05-6.04245E-05-5.18490E-05 1.51921E-17 1.79191E-17
 -1      1755 1.14852E-04-3.30279E-06-5.05113E-05-6.36930E-05 5.60037E-17 3.55606E-18
 -1      1756 8.87270E-05-2.40318E-05-3.36942E-05-6.38022E-05 1.33841E-16-8.49616E-18
 -1      1757 7.42595E-05-7.20225E-05-1.19643E-05-7.91660E-05 2.39273E-16-4.73153E-18
 -1      1758 1.45308E-05-7.11124E-05 6.67388E-06-6.94085E-05 2.75072E-16 4.87806E-17
 -1      1759 1.02132E-04-2.22428E-05-3.43126E-05-1.67165E-05-1.56158E-18 6.44677E-18
 -1      1760 8.54033E-05-9.96630E-06-3.24501E-05-1.37541E-05-1.95791E-18-1.90535E-18
 -1      1761 8.66795E-05-1.09624E-05-3.25880E-05-1.54513E-05-2.24873E-18-1.25274E-18
 -1      1762 8.86321E-05-1.31316E-05-3.25135E-05-1.62185E-05-2.27055E-18-3.69015E-19
 -1      1763 9.03158E-05-1.50030E-05-3.27702E-05-1.77661E-05-2.43826E-18 8.25645E-19
 -1      1764 8.94716E-05-1.54795E-05-3.17253E-05-1.41075E-05-2.42479E-18-6.69235E-19
 -1      1765 8.27202E-05-7.20165E-06-3.24319E-05-8.66388E-06-1.13673E-18-3.11351E-18
 -1      1766 8.30590E-05-7.47705E-06-3.24488E-05-9.96501E-06-1.37478E-18-2.99602E-18
 -1      1767 8.22477E-05-6.61657E-06-3.24690E-05-6.28365E-06-7.47243E-19-3.31566E-18
 -1      1768 8.24106E-05-6.77544E-06-3.24628E-05-7.50763E-06-9.30923E-19-3.25547E-18
 -1      1769 8.40460E-05-9.27457E-06-3.20745E-05-7.77844E-06-1.14008E-18-3.08341E-18
 -1      1770 8.20663E-05-6.30756E-06-3.25173E-05-3.99980E-06-2.74862E-19-3.19674E-18
 -1      1771 8.21115E-05-6.38336E-06-3.24999E-05-5.16771E-06-4.99512E-19-3.22611E-18
 -1      1772 8.35655E-05-8.62399E-06-3.21480E-05-5.54250E-06-6.57338E-19-3.14019E-18
 -1      1773 8.20935E-05-6.20960E-06-3.25673E-05-1.75863E-06 2.04762E-19-3.25014E-18
 -1      1774 8.20519E-05-6.21888E-06-3.25451E-05-2.90564E-06 1.30157E-20-3.26163E-18
 -1      1775 8.33972E-05-8.30509E-06-3.22125E-05-3.36449E-06-1.08276E-19-3.10453E-18
 -1      1776 8.22950E-05-6.29922E-06-3.26138E-05 4.93245E-07 5.92873E-19-3.25089E-18
 -1      1777 8.21782E-05-6.24631E-06-3.25898E-05-6.64692E-07 4.25719E-19-3.26173E-18
 -1      1778 8.34663E-05-8.25311E-06-3.22644E-05-1.20827E-06 3.19401E-19-3.10722E-18
 -1      1779 8.26700E-05-6.58228E-06-3.26540E-05 2.81013E-06 9.44409E-19-3.15096E-18
 -1      1780 8.24746E-05-6.46148E-06-3.26291E-05 1.60939E-06 7.82906E-19-3.24017E-18
 -1      1781 8.37454E-05-8.44967E-06-3.23001E-05 9.68079E-07 7.35654E-19-3.14065E-18
 -1      1782 8.32417E-05-7.08375E-06-3.26881E-05 5.20641E-06 1.33437E-18-2.93505E-18
 -1      1783 8.29525E-05-6.88335E-06-3.26606E-05 3.95036E-06 1.11614E-18-3.06723E-18
 -1      1784 8.42401E-05-8.90808E-06-3.23159E-05 3.18660E-06 1.13978E-18-3.01280E-18
 -1      1785 8.41231E-05-7.91014E-06-3.27220E-05 7.82502E-06 1.82960E-18-2.48625E-18
 -1      1786 8.36771E-05-7.58013E-06-3.26848E-05 6.42647E-06 1.55671E-18-2.71019E-18
 -1      1787 8.50053E-05-9.69269E-06-3.23080E-05 5.50162E-06 1.60394E-18-2.67600E-18
 -1      1788 8.55210E-05-9.26491E-06-3.27668E-05 1.06825E-05 2.23863E-18-1.76723E-18
 -1      1789 8.48006E-05-8.70582E-06-3.27056E-05 9.10539E-06 2.01855E-18-2.22063E-18
 -1      1790 8.61807E-05-1.09560E-05-3.22688E-05 7.94263E-06 2.05721E-18-2.18630E-18
 -1      1791 8.79152E-05-1.16604E-05-3.28329E-05 1.37327E-05 2.58507E-18-4.96917E-19
 -1      1792 8.66289E-05-1.05883E-05-3.27248E-05 1.19544E-05 2.33761E-18-1.28376E-18
 -1      1793 8.80321E-05-1.29959E-05-3.21764E-05 1.04139E-05 2.40997E-18-1.38069E-18
 -1      1794 9.27468E-05-1.66275E-05-3.28157E-05 1.61900E-05 2.49918E-18 2.00604E-18
 -1      1795 8.99739E-05-1.40559E-05-3.27062E-05 1.46759E-05 2.52118E-18 5.08855E-19
 -1      1796 9.11296E-05-1.65319E-05-3.19594E-05 1.23976E-05 2.61431E-18 6.86891E-20
 -1      1797 9.83029E-05-2.42761E-05-3.21377E-05 1.32420E-05 2.16586E-18 5.06070E-18
 -1      1798 9.47665E-05-1.90775E-05-3.24384E-05 1.55735E-05 2.37077E-18 3.07399E-18
 -1      1799 9.42135E-05-2.12701E-05-3.13365E-05 1.19368E-05 2.56008E-18 2.01946E-18
 -1      1800 9.54220E-05-2.53152E-05-3.02530E-05 8.47574E-06 2.28334E-18 4.30504E-18
 -1      1801 9.62083E-05-1.86693E-05-3.29146E-05-1.88225E-05-2.09387E-18 2.83227E-18
 -1      1802 9.24284E-05-2.64930E-05-2.82850E-05 3.37575E-06 1.76568E-18 3.33366E-18
 -1      1803 9.45784E-05-2.65450E-05-2.91981E-05 5.59642E-06 1.91514E-18 3.90947E-18
 -1      1804 9.44940E-05-2.48797E-05-2.98291E-05 7.73579E-06 2.22778E-18 2.58109E-18
 -1      1805 9.57816E-05-2.15218E-05-3.15511E-05-1.46055E-05-2.26962E-18 1.99206E-18
 -1      1806 9.27867E-05-2.57541E-05-2.86170E-05-6.03045E-06-1.77745E-18 1.59419E-18
 -1      1807 9.09063E-05-2.57693E-05-2.78902E-05-4.24747E-06-1.48795E-18 1.11996E-18
 -1      1808 9.00309E-05-2.59410E-05-2.73718E-05-2.78285E-06-1.33020E-18 1.01396E-18
 -1      1809 8.91710E-05-2.59849E-05-2.70432E-05-1.92410E-06-1.24944E-18 5.87209E-19
 -1      1810 9.12366E-05-2.52738E-05-2.82900E-05-4.90212E-06-1.73783E-18 1.65363E-19
 -1      1811 8.85849E-05-2.60093E-05-2.67593E-05-1.08329E-06-1.06904E-18 5.54079E-19
 -1      1812 8.81987E-05-2.60393E-05-2.66142E-05-6.23488E-07-7.94199E-19 2.87669E-19
 -1      1813 8.99018E-05-2.58770E-05-2.74597E-05-2.25830E-06-1.36144E-18-1.48658E-19
 -1      1814 8.78656E-05-2.60421E-05-2.64641E-05-1.33386E-07-6.89740E-19 1.73764E-19
 -1      1815 8.77651E-05-2.60897E-05-2.64158E-05 1.25894E-07-5.90210E-19 1.90814E-20
 -1      1816 8.90760E-05-2.61202E-05-2.69982E-05-7.39037E-07-9.34815E-19-4.89036E-19
 -1      1817 8.76172E-05-2.60997E-05-2.63481E-05 4.19568E-07-4.99314E-19-9.27567E-20
 -1      1818 8.76891E-05-2.61631E-05-2.63565E-05 5.73063E-07-5.53570E-19-2.58645E-19
 -1      1819 8.86483E-05-2.62482E-05-2.67565E-05 1.62338E-07-7.61503E-19-6.02595E-19
 -1      1820 8.76707E-05-2.61845E-05-2.63425E-05 7.58469E-07-6.36360E-19-2.28217E-19
 -1      1821 8.78520E-05-2.62591E-05-2.63874E-05 8.58134E-07-5.36361E-19-3.60592E-19
 -1      1822 8.85119E-05-2.63421E-05-2.66545E-05 7.17211E-07-6.95807E-19-7.61112E-19
 -1      1823 8.79262E-05-2.62910E-05-2.64105E-05 9.89183E-07-5.43530E-19-2.20286E-19
 -1      1824 8.81842E-05-2.63746E-05-2.64811E-05 1.06675E-06-5.24098E-19-2.17195E-19
 -1      1825 8.85835E-05-2.64270E-05-2.66463E-05 1.08558E-06-4.79817E-19-6.47924E-19
 -1      1826 8.83293E-05-2.64164E-05-2.65316E-05 1.17819E-06-7.27157E-19-1.59924E-19
 -1      1827 8.86504E-05-2.65096E-05-2.66231E-05 1.25428E-06-5.89262E-19-3.36226E-19
 -1      1828 8.88097E-05-2.65129E-05-2.67049E-05 1.36757E-06-6.66939E-19-3.80002E-19
 -1      1829 8.88560E-05-2.65620E-05-2.66958E-05 1.36892E-06-6.65078E-19-5.96903E-19
 -1      1830 8.92387E-05-2.66681E-05-2.68068E-05 1.45674E-06-9.23628E-19-1.07974E-18
 -1      1831 8.91617E-05-2.66069E-05-2.68146E-05 1.62839E-06-1.02669E-18-7.17873E-19
 -1      1832 8.95024E-05-2.67338E-05-2.68995E-05 1.58856E-06-1.05587E-18-1.04690E-18
 -1      1833 8.99526E-05-2.68579E-05-2.70308E-05 1.69519E-06-8.26106E-19-1.38892E-18
 -1      1834 8.96288E-05-2.67176E-05-2.69672E-05 1.90986E-06-1.05610E-18-8.62352E-19
 -1      1835 9.02771E-05-2.69412E-05-2.71426E-05 1.85007E-06-6.47318E-19-1.44621E-18
 -1      1836 9.08037E-05-2.70900E-05-2.72957E-05 1.97616E-06-4.74775E-19-1.61295E-18
 -1      1837 9.02133E-05-2.68565E-05-2.71582E-05 2.23473E-06-8.41248E-19-9.33629E-19
 -1      1838 9.11944E-05-2.71971E-05-2.74260E-05 2.15097E-06-1.71336E-19-1.75504E-18
 -1      1839 9.18047E-05-2.73780E-05-2.76018E-05 2.28928E-06 6.82077E-20-1.71568E-18
 -1      1840 9.09252E-05-2.70393E-05-2.73852E-05 2.60666E-06-4.61025E-19-9.52675E-19
 -1      1841 9.22671E-05-2.75165E-05-2.77488E-05 2.46966E-06 9.51584E-20-1.70602E-18
 -1      1842 9.29615E-05-2.77366E-05-2.79460E-05 2.60255E-06-1.45477E-19-1.50041E-18
 -1      1843 9.17775E-05-2.72862E-05-2.76450E-05 3.00683E-06-5.52763E-21-1.48281E-18
 -1      1844 9.34985E-05-2.79155E-05-2.81058E-05 2.75954E-06-3.25605E-19-1.52031E-18
 -1      1845 9.42637E-05-2.81797E-05-2.83186E-05 2.85587E-06-2.94989E-19-1.56523E-18
 -1      1846 9.27814E-05-2.76221E-05-2.79313E-05 3.38800E-06-1.51295E-19-1.99658E-18
 -1      1847 9.48719E-05-2.84080E-05-2.84841E-05 2.94235E-06-3.88777E-19-1.45966E-18
 -1      1848 9.56728E-05-2.87156E-05-2.87003E-05 2.95492E-06-4.46006E-19-1.33408E-18
 -1      1849 9.39394E-05-2.80750E-05-2.82330E-05 3.66699E-06-2.98835E-19-1.80974E-18
 -1      1850 9.63382E-05-2.89994E-05-2.88602E-05 2.90373E-06-5.47777E-19-1.40147E-18
 -1      1851 9.71093E-05-2.93385E-05-2.90597E-05 2.77000E-06-5.12071E-19-1.68812E-18
 -1      1852 9.52371E-05-2.86704E-05-2.85328E-05 3.71877E-06-5.84107E-19-1.43809E-18
 -1      1853 9.77998E-05-2.96743E-05-2.91991E-05 2.49802E-06-6.74941E-19-1.61754E-18
 -1      1854 9.84394E-05-3.00134E-05-2.93537E-05 2.14895E-06-9.71446E-19-1.54085E-18
 -1      1855 9.66306E-05-2.94178E-05-2.88073E-05 3.37852E-06-7.95671E-19-1.29624E-18
 -1      1856 9.90948E-05-3.03757E-05-2.94559E-05 1.57416E-06-1.50319E-18-1.41539E-18
 -1      1857 9.94667E-05-3.06526E-05-2.95325E-05 9.57958E-07-1.21044E-18-2.12436E-18
 -1      1858 9.80270E-05-3.02833E-05-2.90304E-05 2.46352E-06-1.31228E-18-1.09418E-18
 -1      1859 9.99871E-05-3.09767E-05-2.95841E-05 3.88138E-08-6.65569E-19-2.34638E-18
 -1      1860 9.99398E-05-3.10916E-05-2.95532E-05-8.34575E-07-4.75129E-19-2.91822E-18
 -1      1861 9.92596E-05-3.11485E-05-2.91805E-05 8.32502E-07-1.43812E-18-1.28997E-18
 -1      1862 1.00182E-04-3.12610E-05-2.95507E-05-2.03279E-06-5.93426E-19-3.40813E-18
 -1      1863 9.95970E-05-3.10880E-05-2.94001E-05-3.03314E-06-1.18246E-18-3.35122E-18
 -1      1864 1.00068E-04-3.17673E-05-2.92516E-05-1.50080E-06-8.96254E-19-2.12725E-18
 -1      1865 9.94021E-05-3.09494E-05-2.93558E-05-4.26200E-06-1.96121E-18-2.98179E-18
 -1      1866 9.82735E-05-3.03874E-05-2.91060E-05-5.09649E-06-1.99246E-18-3.63161E-18
 -1      1867 1.00123E-04-3.17717E-05-2.92630E-05-4.20927E-06-1.67207E-18-2.37665E-18
 -1      1868 9.75560E-05-2.98263E-05-2.90491E-05-5.89396E-06-2.10700E-18-3.28667E-18
 -1      1869 9.60846E-05-2.89007E-05-2.87617E-05-6.14538E-06-2.27009E-18-3.84026E-18
 -1      1870 9.91450E-05-3.07926E-05-2.92599E-05-6.52193E-06-2.42190E-18-2.05656E-18
 -1      1871 9.49857E-05-2.79822E-05-2.87293E-05-5.95435E-06-2.64098E-18-4.26011E-18
 -1      1872 9.36176E-05-2.69453E-05-2.84983E-05-5.25815E-06-3.23401E-18-5.63647E-18
 -1      1873 9.71709E-05-2.87646E-05-2.92980E-05-7.29072E-06-2.97489E-18-2.42032E-18
 -1      1874 9.26125E-05-2.60200E-05-2.85258E-05-3.74746E-06-3.77413E-18-6.39046E-18
 -1      1875 9.19413E-05-2.53164E-05-2.84555E-05-2.06928E-06-4.14040E-18-7.38385E-18
 -1      1876 9.48472E-05-2.62428E-05-2.94166E-05-5.46133E-06-4.32635E-18-3.93784E-18
 -1      1877 9.16839E-05-2.48866E-05-2.85793E-05 5.41350E-07-4.52345E-18-8.42941E-18
 -1      1878 9.22123E-05-2.49451E-05-2.87533E-05 2.76881E-06-4.37000E-18-9.96256E-18
 -1      1879 9.33871E-05-2.43573E-05-2.96450E-05-8.52003E-07-5.31331E-18-5.40150E-18
 -1      1880 9.32080E-05-2.53790E-05-2.90182E-05 5.65151E-06-4.32704E-18-1.17362E-17
 -1      1881 9.50765E-05-2.62832E-05-2.94806E-05 7.68217E-06-3.58839E-18-1.34659E-17
 -1      1882 9.40474E-05-2.42472E-05-3.00345E-05 5.39998E-06-5.67631E-18-7.60800E-18
 -1      1883 9.72270E-05-2.73987E-05-2.99397E-05 9.86417E-06-2.76509E-18-1.54665E-17
 -1      1884 1.00123E-04-2.87071E-05-3.06946E-05 1.12052E-05-1.75016E-18-1.61842E-17
 -1      1885 9.72729E-05-2.61342E-05-3.06913E-05 1.11951E-05-4.51334E-18-1.18954E-17
 -1      1886 1.02688E-04-2.97502E-05-3.13753E-05 1.22923E-05-2.16364E-19-1.75112E-17
 -1      1887 1.05931E-04-3.06686E-05-3.24306E-05 1.32841E-05 1.55211E-18-1.66648E-17
 -1      1888 1.02216E-04-2.88303E-05-3.17319E-05 1.49027E-05-1.59999E-18-1.50433E-17
 -1      1889 1.07828E-04-3.07227E-05-3.33412E-05 1.36317E-05 4.98519E-18-1.58382E-17
 -1      1890 1.10972E-04-3.02622E-05-3.46768E-05 1.49841E-05 1.00434E-17-1.25890E-17
 -1      1891 1.07161E-04-3.03289E-05-3.32377E-05 1.64111E-05 5.52445E-18-1.54283E-17
 -1      1892 1.09638E-04-2.82063E-05-3.54395E-05 1.88651E-05 1.63704E-17-7.46030E-18
 -1      1893 1.15160E-04-3.10796E-05-3.67285E-05 2.17893E-05 2.05230E-17-1.92573E-18
 -1      1894 1.07073E-04-2.56286E-05-3.49148E-05 1.83776E-05 1.76742E-17-1.22445E-17
 -1      1895 1.20542E-04-3.70419E-05-3.69412E-05 2.75051E-05 2.05236E-17 1.46221E-17
 -1      1896 1.31098E-04-4.86144E-05-3.74244E-05 2.45659E-05 8.55334E-18 1.62632E-17
 -1      1897 1.08373E-04-3.05928E-05-3.52619E-05 3.14953E-05 2.59986E-17 6.85461E-18
 -1      1898 1.50561E-04-6.29094E-05-3.79876E-05 1.19916E-05-2.32406E-17 1.25979E-17
 -1      1899 1.52417E-04-6.19238E-05-3.96751E-05-1.18923E-06-5.35609E-17-4.86552E-18
 -1      1900 1.36294E-04-6.35766E-05-3.52695E-05 3.30219E-05-1.78385E-17 3.66583E-17
 -1      1901 1.56498E-04-5.22293E-05-4.42745E-05-1.53096E-05-8.94691E-17-9.44501E-17
 -1      1902 1.46381E-04-3.29595E-05-4.68410E-05-1.45362E-05-8.38935E-17-1.08422E-16
 -1      1903 1.61284E-04-6.30352E-05-4.13278E-05-4.85910E-06-1.07588E-16-4.53870E-17
 -1      1904 1.51521E-04-3.58142E-05-4.08697E-05 1.51775E-06 2.82613E-17-2.40363E-16
 -1      1905 1.28266E-04-4.24119E-05-3.17659E-05-1.05509E-07 5.18901E-17-8.58951E-17
 -1      1906 1.76749E-04-3.79442E-05-4.54429E-05-1.25046E-06-1.18314E-16-3.44851E-16
 -1      1907 1.03174E-04-3.10175E-05-3.09326E-05-2.77567E-06 7.12410E-19-2.29189E-18
 -1      1908 1.02415E-04-3.07081E-05-3.07303E-05-2.80108E-06 5.57638E-19-1.77773E-18
 -1      1909 1.02556E-04-3.09578E-05-3.06883E-05-3.47328E-06 1.15575E-18-1.58015E-18
 -1      1910 1.01794E-04-3.04618E-05-3.05706E-05-2.74660E-06 1.58706E-18-1.48135E-18
 -1      1911 1.01054E-04-3.01930E-05-3.03669E-05-2.66501E-06 2.35747E-18-2.20261E-19
 -1      1912 1.01237E-04-3.03115E-05-3.04018E-05-3.52520E-06 1.87667E-18-3.28060E-19
 -1      1913 1.00502E-04-2.99976E-05-3.02105E-05-2.51374E-06 1.81424E-18-7.64580E-19
 -1      1914 9.98300E-05-2.97742E-05-3.00208E-05-2.37607E-06 9.25414E-19-3.49413E-19
 -1      1915 1.00047E-04-2.98098E-05-3.01073E-05-3.28753E-06 2.15755E-18-4.99499E-19
 -1      1916 9.93543E-05-2.96224E-05-2.98765E-05-2.18037E-06 1.79062E-19 3.57196E-19
 -1      1917 9.87725E-05-2.94426E-05-2.97094E-05-2.02203E-06-3.74940E-19 1.12547E-19
 -1      1918 9.90101E-05-2.94326E-05-2.98249E-05-2.89567E-06 7.03671E-19 7.51320E-20
 -1      1919 9.83736E-05-2.93262E-05-2.95822E-05-1.81651E-06-6.25969E-19-1.28517E-19
 -1      1920 9.78885E-05-2.91851E-05-2.94408E-05-1.65957E-06-7.79592E-19-3.96559E-19
 -1      1921 9.81336E-05-2.91546E-05-2.95682E-05-2.44499E-06-6.52823E-19 8.10349E-19
 -1      1922 9.75618E-05-2.90969E-05-2.93328E-05-1.46480E-06-1.22375E-18-5.49913E-19
 -1      1923 9.71698E-05-2.89885E-05-2.92172E-05-1.32137E-06-5.80652E-19-2.80358E-19
 -1      1924 9.74101E-05-2.89527E-05-2.93442E-05-1.99607E-06-7.60917E-19 7.05302E-19
 -1      1925 9.69079E-05-2.89223E-05-2.91282E-05-1.14777E-06 1.23034E-18-5.06531E-19
 -1      1926 9.65998E-05-2.88407E-05-2.90365E-05-1.02304E-06 2.34027E-18 1.08538E-19
 -1      1927 9.68258E-05-2.88075E-05-2.91555E-05-1.58303E-06 3.08863E-19 8.22809E-19
 -1      1928 9.63942E-05-2.87913E-05-2.89654E-05-8.74207E-07 2.59147E-18 2.50529E-19
 -1      1929 9.61588E-05-2.87312E-05-2.88947E-05-7.68925E-07 3.17139E-18 1.66022E-18
 -1      1930 9.63634E-05-2.87038E-05-2.90011E-05-1.22139E-06 3.06541E-18 2.09520E-18
 -1      1931 9.60006E-05-2.86945E-05-2.88394E-05-6.44153E-07 3.08550E-18 1.35630E-18
 -1      1932 9.58265E-05-2.86511E-05-2.87869E-05-5.56328E-07 2.99068E-18 1.53483E-18
 -1      1933 9.60047E-05-2.86297E-05-2.88785E-05-9.14397E-07 3.22243E-18 1.45883E-18
 -1      1934 9.57073E-05-2.86237E-05-2.87453E-05-4.52516E-07 1.38578E-18 7.16046E-19
 -1      1935 9.55841E-05-2.85933E-05-2.87080E-05-3.78817E-07 2.43649E-19 1.03006E-18
 -1      1936 9.57322E-05-2.85762E-05-2.87840E-05-6.57969E-07 2.20921E-18 6.59959E-19
 -1      1937 9.54959E-05-2.85732E-05-2.86777E-05-2.91682E-07-8.06687E-20 1.21441E-18
 -1      1938 9.54152E-05-2.85540E-05-2.86528E-05-2.29050E-07-4.40521E-19 1.94667E-18
 -1      1939 9.55291E-05-2.85367E-05-2.87132E-05-4.44490E-07-3.49587E-20 8.58084E-19
 -1      1940 9.53575E-05-2.85432E-05-2.86321E-05-1.59873E-07-2.11369E-20 2.40460E-18
 -1      1941 9.53100E-05-2.85356E-05-2.86158E-05-1.09601E-07 7.38911E-19 2.55959E-18
 -1      1942 9.52992E-05-2.85136E-05-2.86239E-05-1.33746E-07-9.33877E-19 1.65716E-18
 -1      1943 9.53884E-05-2.85151E-05-2.86624E-05-2.70396E-07 1.24229E-19 2.64110E-18
 -1      1944 9.07364E-05-2.66501E-05-2.74367E-05 1.03644E-06 1.41244E-18 2.48784E-18
 -1      1945 9.17022E-05-2.67017E-05-2.78009E-05 2.05721E-06 1.50045E-18 3.09007E-18
 -1      1946 9.25204E-05-2.63163E-05-2.83800E-05 3.24682E-06 1.81293E-18 2.06307E-18
 -1      1947 9.00640E-05-2.67266E-05-2.71192E-05-1.74432E-07 9.47883E-19 1.87676E-18
 -1      1948 9.03556E-05-2.67069E-05-2.72294E-05 3.56428E-07 1.11579E-18 2.23017E-18
 -1      1949 9.12828E-05-2.66965E-05-2.76879E-05 8.82491E-07 1.36523E-18 1.60445E-18
 -1      1950 9.00645E-05-2.68595E-05-2.70708E-05-8.34403E-07 7.09097E-19 1.26440E-18
 -1      1951 8.99821E-05-2.67801E-05-2.70576E-05-5.36517E-07 7.34331E-19 1.62004E-18
 -1      1952 9.08103E-05-2.68874E-05-2.74066E-05-4.03217E-07 1.03342E-18 1.02670E-18
 -1      1953 9.04863E-05-2.70537E-05-2.71733E-05-1.21034E-06 4.96935E-19 8.39858E-19
 -1      1954 9.01897E-05-2.69348E-05-2.70932E-05-1.03288E-06 5.96271E-19 1.14128E-18
 -1      1955 9.08649E-05-2.70657E-05-2.73537E-05-1.12936E-06 7.13723E-19 4.41602E-19
 -1      1956 9.11770E-05-2.72930E-05-2.73689E-05-1.44083E-06 4.96624E-19 7.46328E-19
 -1      1957 9.07507E-05-2.71494E-05-2.72485E-05-1.32557E-06 4.04288E-19 8.09261E-19
 -1      1958 9.12681E-05-2.72668E-05-2.74388E-05-1.56056E-06 5.27676E-19 2.91168E-19
 -1      1959 9.20520E-05-2.75651E-05-2.76282E-05-1.60709E-06 4.62321E-19 4.92701E-19
 -1      1960 9.15389E-05-2.74046E-05-2.74802E-05-1.51925E-06 4.71319E-19 7.45078E-19
 -1      1961 9.19067E-05-2.74924E-05-2.76142E-05-1.84268E-06 5.22569E-19 1.30704E-19
 -1      1962 9.30728E-05-2.78648E-05-2.79374E-05-1.76280E-06 4.65967E-19-8.33049E-20
 -1      1963 9.24899E-05-2.76898E-05-2.77669E-05-1.67876E-06 4.76830E-19 3.40651E-19
 -1      1964 9.27166E-05-2.77394E-05-2.78543E-05-2.06532E-06 6.25559E-19 5.39901E-20
 -1      1965 9.42325E-05-2.81936E-05-2.82929E-05-1.94699E-06 2.29060E-19 1.82834E-19
 -1      1966 9.35797E-05-2.80023E-05-2.81003E-05-1.84899E-06 3.74796E-19 9.99209E-20
 -1      1967 9.36692E-05-2.80075E-05-2.81471E-05-2.28949E-06 3.44624E-19-2.32948E-19
 -1      1968 9.55478E-05-2.85591E-05-2.86990E-05-2.18991E-06 4.37649E-19-1.12515E-20
 -1      1969 9.48123E-05-2.83463E-05-2.84807E-05-2.06364E-06 3.91445E-19 7.37597E-20
 -1      1970 9.47616E-05-2.83006E-05-2.84897E-05-2.56017E-06 3.21116E-19-2.53161E-20
 -1      1971 9.70528E-05-2.89736E-05-2.91649E-05-2.51513E-06 6.42807E-19-1.74392E-19
 -1      1972 9.62125E-05-2.87313E-05-2.89149E-05-2.34889E-06 5.59924E-19 3.60527E-21
 -1      1973 9.60100E-05-2.86270E-05-2.88852E-05-2.91181E-06 5.36145E-19-1.62622E-20
 -1      1974 9.87934E-05-2.94541E-05-2.97035E-05-2.93882E-06 6.14492E-19-5.54149E-19
 -1      1975 9.78198E-05-2.91719E-05-2.94138E-05-2.72393E-06 6.65748E-19-1.92476E-19
 -1      1976 9.74439E-05-2.89997E-05-2.93410E-05-3.36967E-06 7.08783E-19-3.20713E-19
 -1      1977 1.00821E-04-3.00218E-05-3.03280E-05-3.46539E-06-7.10614E-20-6.22984E-19
 -1      1978 9.96833E-05-2.96874E-05-2.99905E-05-3.19836E-06 4.17544E-20-4.88602E-19
 -1      1979 9.91023E-05-2.94366E-05-2.98658E-05-3.94718E-06 1.66804E-19-4.22005E-19
 -1      1980 1.03183E-04-3.07021E-05-3.10490E-05-4.07795E-06 1.64725E-19-6.72172E-19
 -1      1981 1.01854E-04-3.03021E-05-3.06572E-05-3.76527E-06 1.80871E-20-7.65179E-19
 -1      1982 1.01027E-04-2.99624E-05-3.04671E-05-4.63834E-06 2.52919E-19-9.06819E-19
 -1      1983 1.05908E-04-3.15240E-05-3.18675E-05-4.72076E-06 3.14069E-19-9.21969E-19
 -1      1984 1.04376E-04-3.10453E-05-3.14203E-05-4.38781E-06 3.73158E-19-6.32590E-19
 -1      1985 1.03258E-04-3.06110E-05-3.11469E-05-5.40272E-06 3.77810E-19-1.31741E-18
 -1      1986 1.08982E-04-3.25182E-05-3.27658E-05-5.27127E-06 9.14392E-19-2.11854E-18
 -1      1987 1.07265E-04-3.19515E-05-3.22733E-05-4.97692E-06 5.11275E-19-1.63775E-18
 -1      1988 1.05818E-04-3.14292E-05-3.18957E-05-6.14039E-06 9.04132E-19-1.29914E-18
 -1      1989 1.12311E-04-3.37096E-05-3.36952E-05-5.50231E-06 1.09908E-19-1.41166E-18
 -1      1990 1.10488E-04-3.30572E-05-3.31864E-05-5.35915E-06 6.11309E-19-1.90506E-18
 -1      1991 1.08704E-04-3.24782E-05-3.26846E-05-6.65568E-06 6.59092E-19-2.21650E-18
 -1      1992 1.15676E-04-3.50953E-05-3.45628E-05-5.04797E-06-1.26502E-18-8.23978E-19
 -1      1993 1.13918E-04-3.43869E-05-3.40947E-05-5.24146E-06-5.63628E-19-1.01682E-18
 -1      1994 1.11857E-04-3.38253E-05-3.34588E-05-6.61618E-06-5.82405E-19-1.05598E-18
 -1      1995 1.18677E-04-3.65879E-05-3.52289E-05-3.42062E-06-4.35315E-19-7.73308E-19
 -1      1996 1.17274E-04-3.59117E-05-3.48897E-05-4.20223E-06-9.67285E-19-8.21973E-19
 -1      1997 1.15126E-04-3.54990E-05-3.41375E-05-5.53650E-06-9.78839E-19-4.80820E-19
 -1      1998 1.20684E-04-3.79074E-05-3.55320E-05-1.76845E-07-2.21823E-19-4.92421E-19
 -1      1999 1.20053E-04-3.74552E-05-3.54271E-05-1.77865E-06-2.95575E-19-5.70735E-19
 -1      2000 1.18183E-04-3.73762E-05-3.46292E-05-2.86218E-06-2.90784E-19-2.19064E-19
 -1      2001 1.20880E-04-3.84558E-05-3.53643E-05 4.63815E-06 2.37229E-19 4.92338E-21
 -1      2002 1.21469E-04-3.85487E-05-3.55709E-05 2.23378E-06-6.54730E-20 4.04690E-20
 -1      2003 1.20424E-04-3.89757E-05-3.48776E-05 1.72017E-06-2.65545E-19 5.01262E-19
 -1      2004 1.18506E-04-3.73507E-05-3.47796E-05 9.79184E-06-1.85619E-19-1.24567E-19
 -1      2005 1.20576E-04-3.83524E-05-3.52749E-05 7.21521E-06 3.43975E-20 1.25996E-20
 -1      2006 1.20935E-04-3.93163E-05-3.49243E-05 7.64715E-06-4.00223E-20 8.93315E-19
 -1      2007 1.13533E-04-3.40467E-05-3.40496E-05 1.24240E-05-1.96665E-18 2.71659E-19
 -1      2008 1.16772E-04-3.59856E-05-3.46647E-05 1.11225E-05-1.23380E-18-3.45510E-19
 -1      2009 1.18814E-04-3.71815E-05-3.49320E-05 1.27330E-05-1.27799E-18 2.94622E-19
 -1      2010 1.07838E-04-2.97180E-05-3.35210E-05 9.45430E-06-1.04325E-18 3.87068E-19
 -1      2011 1.11018E-04-3.17711E-05-3.40046E-05 1.08779E-05-1.44721E-18 1.79783E-19
 -1      2012 1.14374E-04-3.26310E-05-3.50630E-05 1.32876E-05-1.61474E-18 6.14787E-19
 -1      2013 1.04955E-04-2.72522E-05-3.34223E-05 8.73151E-07 1.67636E-18-8.93497E-19
 -1      2014 1.06342E-04-2.80701E-05-3.35563E-05 4.89913E-06 4.99088E-19-6.16402E-19
 -1      2015 1.10171E-04-2.81092E-05-3.52982E-05 6.85427E-06 6.51210E-19-7.20984E-19
 -1      2016 1.07498E-04-2.89265E-05-3.38207E-05-8.78948E-06 1.88176E-18-2.48120E-18
 -1      2017 1.05988E-04-2.77606E-05-3.35142E-05-4.41064E-06 2.41756E-18-1.68663E-18
 -1      2018 1.09579E-04-2.70190E-05-3.54893E-05-4.18473E-06 2.73274E-18-2.08994E-18
 -1      2019 1.14082E-04-3.34281E-05-3.46388E-05-1.38520E-05 2.89249E-19-4.47368E-18
 -1      2020 1.10429E-04-3.11695E-05-3.39745E-05-1.15925E-05 1.22031E-18-3.38046E-18
 -1      2021 1.13553E-04-3.06692E-05-3.55887E-05-1.33423E-05 2.10578E-18-3.78777E-18
 -1      2022 1.20449E-04-3.70892E-05-3.56496E-05-1.30606E-05 2.87902E-19-3.97311E-18
 -1      2023 1.16635E-04-3.54102E-05-3.48696E-05-1.31899E-05 5.43383E-20-4.07666E-18
 -1      2024 1.18974E-04-3.56918E-05-3.56953E-05-1.58126E-05 3.28970E-19-3.69032E-18
 -1      2025 1.22874E-04-3.75918E-05-3.61892E-05-7.93260E-06 4.15139E-19-3.14903E-18
 -1      2026 1.21008E-04-3.74434E-05-3.58029E-05-1.00697E-05 4.22775E-19-3.12619E-18
 -1      2027 1.22063E-04-3.83548E-05-3.57997E-05-1.20027E-05 3.10980E-19-2.07973E-18
 -1      2028 1.22585E-04-3.78869E-05-3.56615E-05-1.91273E-06-1.71731E-18-2.38789E-18
 -1      2029 1.22038E-04-3.74307E-05-3.59414E-05-4.25654E-06-7.36806E-19-2.92091E-18
 -1      2030 1.21958E-04-3.86095E-05-3.55118E-05-5.04489E-06-8.08870E-19-1.35606E-18
 -1      2031 1.18907E-04-3.68320E-05-3.51435E-05 2.65718E-06-1.07590E-18-2.76068E-18
 -1      2032 1.20077E-04-3.73378E-05-3.52455E-05 6.16788E-07-1.68692E-18-3.11224E-18
 -1      2033 1.19594E-04-3.77120E-05-3.47797E-05 9.08489E-07-1.28032E-18-2.65714E-18
 -1      2034 1.15946E-04-3.52793E-05-3.45670E-05 4.67889E-06-9.67159E-19-1.52958E-18
 -1      2035 1.17301E-04-3.59647E-05-3.48934E-05 3.81254E-06-6.88135E-19-2.04999E-18
 -1      2036 1.15677E-04-3.60514E-05-3.41522E-05 4.59767E-06-1.09463E-18-2.64662E-18
 -1      2037 1.12614E-04-3.38366E-05-3.37709E-05 5.33102E-06-4.89306E-19-3.36252E-19
 -1      2038 1.14334E-04-3.45286E-05-3.42191E-05 5.02687E-06-6.06347E-19-3.86346E-19
 -1      2039 1.12563E-04-3.42501E-05-3.35792E-05 6.19367E-06-1.19290E-18-5.92890E-19
 -1      2040 1.09366E-04-3.26252E-05-3.29021E-05 5.14612E-06 1.52203E-18-8.53455E-19
 -1      2041 1.11133E-04-3.32453E-05-3.33831E-05 5.19197E-06 8.10872E-19-2.66167E-19
 -1      2042 1.09510E-04-3.27918E-05-3.28869E-05 6.48135E-06 7.52076E-19 1.50868E-19
 -1      2043 1.06439E-04-3.16504E-05-3.20641E-05 4.54784E-06-2.53478E-19-3.27087E-19
 -1      2044 1.08070E-04-3.21736E-05-3.25201E-05 4.77109E-06 8.29472E-19-8.91873E-19
 -1      2045 1.06728E-04-3.16851E-05-3.21640E-05 6.01778E-06 1.02366E-18 3.87739E-19
 -1      2046 1.03927E-04-3.08810E-05-3.13148E-05 3.80755E-06-1.82505E-18-6.75968E-19
 -1      2047 1.05339E-04-3.13072E-05-3.17162E-05 4.09608E-06-1.20702E-18-3.87059E-19
 -1      2048 1.04306E-04-3.08613E-05-3.14767E-05 5.21189E-06-6.93823E-19 6.60117E-19
 -1      2049 1.01846E-04-3.02801E-05-3.06775E-05 3.07451E-06-8.17334E-19 1.29355E-18
 -1      2050 1.03017E-04-3.06191E-05-3.10142E-05 3.36561E-06-1.79304E-18 3.26013E-19
 -1      2051 1.02262E-04-3.02480E-05-3.08635E-05 4.31542E-06-2.32536E-18 5.95317E-19
 -1      2052 1.00165E-04-2.98148E-05-3.01542E-05 2.41856E-06-6.48338E-19 6.57858E-19
 -1      2053 1.01107E-04-3.00796E-05-3.04272E-05 2.68210E-06-7.04879E-19 6.90854E-19
 -1      2054 1.00581E-04-2.97883E-05-3.03404E-05 3.46266E-06-1.07169E-18 7.92374E-19
 -1      2055 9.88357E-05-2.94578E-05-2.97358E-05 1.86394E-06 1.70283E-20 1.78221E-18
 -1      2056 9.95758E-05-2.96614E-05-2.99516E-05 2.08872E-06-6.50185E-19 1.27836E-18
 -1      2057 9.92266E-05-2.94422E-05-2.99086E-05 2.71357E-06-7.97088E-19 1.26010E-18
 -1      2058 9.78031E-05-2.91866E-05-2.94083E-05 1.41123E-06 4.93377E-19 1.49532E-18
 -1      2059 9.83736E-05-2.93409E-05-2.95754E-05 1.59606E-06 9.38726E-19 1.89362E-18
 -1      2060 9.81545E-05-2.91815E-05-2.95612E-05 2.08587E-06 1.00194E-18 1.74946E-18
 -1      2061 9.70143E-05-2.89830E-05-2.91567E-05 1.05006E-06-9.67960E-19 2.10512E-18
 -1      2062 9.74464E-05-2.90983E-05-2.92838E-05 1.19855E-06-2.62584E-19 1.40068E-18
 -1      2063 9.73202E-05-2.89857E-05-2.92877E-05 1.57557E-06-4.33459E-20 2.91262E-18
 -1      2064 9.64224E-05-2.88321E-05-2.89672E-05 7.65839E-07 1.44003E-18 2.29831E-18
 -1      2065 9.67436E-05-2.89168E-05-2.90619E-05 8.83564E-07 9.60175E-20 1.86378E-18
 -1      2066 9.66814E-05-2.88397E-05-2.90766E-05 1.16878E-06 4.88965E-19 2.70725E-18
 -1      2067 9.59874E-05-2.87220E-05-2.88276E-05 5.42967E-07 2.57379E-18 1.63605E-18
 -1      2068 9.62207E-05-2.87830E-05-2.88966E-05 6.36175E-07 2.62035E-18 3.01035E-18
 -1      2069 9.62008E-05-2.87317E-05-2.89169E-05 8.47937E-07 2.49232E-18 2.61051E-18
 -1      2070 9.56768E-05-2.86434E-05-2.87280E-05 3.66412E-07 2.16060E-18 4.54111E-19
 -1      2071 9.58406E-05-2.86860E-05-2.87764E-05 4.41354E-07 1.60894E-18 1.12403E-18
 -1      2072 9.58465E-05-2.86524E-05-2.87989E-05 5.94911E-07 1.91487E-18 1.52464E-18
 -1      2073 9.54650E-05-2.85898E-05-2.86602E-05 2.23484E-07 4.66041E-19 1.31807E-18
 -1      2074 9.55735E-05-2.86177E-05-2.86922E-05 2.85541E-07 1.30392E-18 1.45523E-18
 -1      2075 9.55925E-05-2.85955E-05-2.87143E-05 3.93084E-07 1.58875E-18 1.50238E-18
 -1      2076 9.53323E-05-2.85574E-05-2.86168E-05 1.06688E-07 7.95307E-19 7.79730E-19
 -1      2077 9.53956E-05-2.85729E-05-2.86362E-05 1.58272E-07 1.06468E-18 1.69610E-18
 -1      2078 9.54170E-05-2.85562E-05-2.86558E-05 2.29397E-07 9.41986E-19 3.92567E-18
 -1      2079 9.52714E-05-2.85488E-05-2.85939E-05 3.76788E-08-3.30232E-19-2.89737E-19
 -1      2080 9.53019E-05-2.85495E-05-2.86068E-05 7.60107E-08 6.22721E-19-1.40403E-19
 -1      2081 9.53185E-05-2.85346E-05-2.86224E-05 1.21411E-07 1.09946E-18 3.32441E-18
 -1      2082 9.52718E-05-2.85347E-05-2.86014E-05 5.66862E-08-6.07732E-19 2.31792E-18
 -1      2083 9.51311E-05-2.81664E-05-2.87001E-05 2.97214E-07 4.93034E-19 1.04723E-18
 -1      2084 9.51688E-05-2.82456E-05-2.86799E-05 2.79196E-07-5.76590E-19 2.37362E-18
 -1      2085 9.52071E-05-2.83273E-05-2.86630E-05 2.45027E-07 3.93095E-19 1.63609E-18
 -1      2086 9.52368E-05-2.83935E-05-2.86455E-05 2.05222E-07 8.36870E-19 2.26412E-18
 -1      2087 9.51966E-05-2.82550E-05-2.86895E-05 3.46171E-07-3.28908E-20 1.08024E-18
 -1      2088 9.52540E-05-2.84496E-05-2.86301E-05 1.54918E-07 6.56937E-19 2.91979E-18
 -1      2089 9.52684E-05-2.84952E-05-2.86159E-05 1.08784E-07 4.05308E-20 2.91108E-18
 -1      2090 9.52904E-05-2.84926E-05-2.86269E-05 1.40837E-07 4.53225E-19 3.10725E-18
 -1      2091 9.52598E-05-2.83941E-05-2.86577E-05 2.49615E-07-1.07204E-19 2.66450E-18
 -1      2092 9.50539E-05-2.80053E-05-2.87367E-05 2.96645E-07 6.00387E-19-7.29173E-19
 -1      2093 9.50916E-05-2.80845E-05-2.87166E-05 3.02431E-07 6.21256E-19 1.07867E-19
 -1      2094 9.51039E-05-2.80866E-05-2.87212E-05 3.88360E-07 2.78645E-19 5.74223E-20
 -1      2095 9.49855E-05-2.78625E-05-2.87691E-05 2.44311E-07 1.78307E-18 2.70561E-18
 -1      2096 9.50179E-05-2.79313E-05-2.87517E-05 2.72198E-07 9.09748E-19 1.77661E-18
 -1      2097 9.50127E-05-2.79253E-05-2.87504E-05 3.65179E-07 4.76253E-19 5.95369E-19
 -1      2098 9.49378E-05-2.77621E-05-2.87920E-05 1.50591E-07 1.49630E-18 6.36774E-19
 -1      2099 9.49590E-05-2.78078E-05-2.87803E-05 1.94849E-07 1.34320E-18 1.91570E-18
 -1      2100 9.49369E-05-2.77919E-05-2.87745E-05 2.80470E-07 8.95002E-19 1.59277E-18
 -1      2101 9.49172E-05-2.77185E-05-2.88017E-05 3.24538E-08 9.59378E-19-1.42140E-18
 -1      2102 9.49242E-05-2.77339E-05-2.87978E-05 8.51119E-08 1.00956E-18-6.12232E-20
 -1      2103 9.48883E-05-2.77060E-05-2.87900E-05 1.49839E-07 5.72072E-19-3.24136E-19
 -1      2104 9.49263E-05-2.77376E-05-2.87970E-05-9.01353E-08-2.75855E-19-8.63567E-19
 -1      2105 9.49182E-05-2.77205E-05-2.88014E-05-3.80223E-08 5.01538E-19-9.85502E-19
 -1      2106 9.48729E-05-2.76789E-05-2.87949E-05-4.30181E-09-5.84558E-19-1.36164E-18
 -1      2107 9.49632E-05-2.78160E-05-2.87785E-05-1.97046E-07-1.21780E-19-1.48488E-18
 -1      2108 9.49415E-05-2.77692E-05-2.87905E-05-1.54174E-07-6.87413E-19 4.20282E-19
 -1      2109 9.48923E-05-2.77137E-05-2.87885E-05-1.56715E-07-1.79385E-18-7.80509E-19
 -1      2110 9.50214E-05-2.79390E-05-2.87498E-05-2.69790E-07-1.70236E-19-2.71464E-18
 -1      2111 9.49898E-05-2.78715E-05-2.87671E-05-2.43643E-07 2.24691E-19-2.90336E-18
 -1      2112 9.49430E-05-2.78041E-05-2.87720E-05-2.82198E-07-6.65947E-19-1.62703E-18
 -1      2113 9.50943E-05-2.80925E-05-2.87144E-05-2.98171E-07 1.64001E-19 3.55616E-19
 -1      2114 9.50568E-05-2.80128E-05-2.87347E-05-2.92862E-07 5.21283E-19 3.62146E-20
 -1      2115 9.50178E-05-2.79379E-05-2.87474E-05-3.61816E-07 2.94799E-19-1.45595E-18
 -1      2116 9.51700E-05-2.82522E-05-2.86776E-05-2.74823E-07-1.44221E-20-1.86349E-18
 -1      2117 9.51331E-05-2.81740E-05-2.86976E-05-2.92433E-07 6.38422E-19-1.17178E-18
 -1      2118 9.51072E-05-2.80986E-05-2.87177E-05-3.82525E-07 8.66750E-19-1.00132E-20
 -1      2119 9.52358E-05-2.84001E-05-2.86436E-05-2.02897E-07-1.61619E-18 7.55219E-19
 -1      2120 9.52069E-05-2.83318E-05-2.86609E-05-2.41276E-07-4.63397E-19-1.42183E-18
 -1      2121 9.51971E-05-2.82637E-05-2.86859E-05-3.39876E-07-3.27545E-19-2.12648E-18
 -1      2122 5.86149E-05-4.11002E-05-8.19745E-06 3.88638E-05 4.24787E-19 1.59610E-18
 -1      2123 4.05980E-05-4.16991E-05-1.25123E-06 2.96984E-05 2.59192E-19 9.50371E-19
 -1      2124 1.19727E-05-3.06581E-05 7.01072E-06 3.12360E-06-6.04358E-19 3.97513E-18
 -1      2125 6.83946E-06-3.83858E-05 7.41177E-06-1.52478E-05 7.21728E-17 3.84612E-17
 -1      2126 2.70328E-05-3.62722E-05 2.75377E-06 2.47865E-05 1.60513E-19 6.66615E-19
 -1      2127 1.82075E-05-3.49725E-05 5.85461E-06 1.61861E-05-1.23201E-18 1.69280E-18
 -1      2128 4.06758E-05-3.52524E-05-2.78021E-06 3.38429E-05-8.11034E-19 8.86420E-19
 -1      2129 1.06038E-04-4.97508E-05-2.40538E-05 4.02136E-05-7.28279E-18-4.19726E-18
 -1      2130 8.51404E-05-4.98325E-05-1.58932E-05 3.83851E-05-9.71166E-18-4.70506E-18
 -1      2131 1.44545E-04-4.70550E-05-4.11464E-05 3.12202E-05-5.45002E-18-5.86782E-18
 -1      2132 1.24723E-04-5.02004E-05-3.24891E-05 3.03101E-05-6.76186E-18-5.57983E-18
 -1      2133 8.36232E-05-8.18721E-06-3.24203E-05-1.11644E-05-1.55796E-18-2.79212E-18
 -1      2134 8.42671E-05-8.67203E-06-3.24809E-05-1.26209E-05-1.84727E-18-2.36292E-18
 -1      2135 8.66555E-05-1.22981E-05-3.19153E-05-1.23837E-05-2.03334E-18-1.94153E-18
 -1      2136 8.49920E-05-1.03952E-05-3.19941E-05-1.00987E-05-1.58470E-18-2.71948E-18
 -1      2137 1.86210E-04-3.09797E-05-6.56392E-05 4.96430E-06 9.46983E-19-1.04503E-17
 -1      2138 1.78188E-04-3.33339E-05-6.11397E-05 1.42141E-05-1.79147E-18-9.07257E-18
 -1      2139 1.78179E-04-2.11458E-05-6.67476E-05-3.64644E-06 6.33242E-18-1.25950E-17
 -1      2140 1.78688E-04-2.27080E-05-6.60305E-05-2.33701E-07 4.25211E-18-1.12486E-17
 -1      2141 1.84050E-04-2.98286E-05-6.47389E-05-1.47375E-05 9.95073E-18-1.37554E-17
 -1      2142 1.86306E-04-2.64796E-05-6.76467E-05-5.07291E-06 8.39494E-18-1.21276E-17
 -1      2143 1.61109E-04-3.67217E-05-5.27510E-05-2.38432E-05 1.18645E-17-1.31273E-17
 -1      2144 1.79917E-04-3.53335E-05-6.02945E-05-2.20829E-05 1.05806E-17-1.36694E-17
 -1      2145 1.24397E-04-4.31255E-05-3.53660E-05-3.58687E-05 1.38104E-17-1.39913E-17
 -1      2146 1.47456E-04-4.39385E-05-4.42511E-05-3.23242E-05 1.19849E-17-1.36017E-17
 -1      2147 8.62875E-05-4.43958E-05-1.89576E-05-4.01584E-05 1.40620E-17-1.19034E-17
 -1      2148 1.07913E-04-4.23603E-05-2.80023E-05-4.46140E-05 1.47557E-17-1.28499E-17
 -1      2149 1.29067E-04-5.42493E-05-3.17557E-05-3.23936E-05 9.48529E-18-9.15071E-18
 -1      2150 4.54726E-05-4.00755E-05-3.59736E-06-3.45583E-05 1.30193E-17-1.06296E-17
 -1      2151 6.35146E-05-3.92749E-05-1.08053E-05-4.35207E-05 1.35258E-17-1.17759E-17
 -1      2152 1.76371E-05-3.70748E-05 6.50609E-06-1.66149E-05 1.43725E-17-6.80972E-18
 -1      2153 2.57450E-05-3.40410E-05 2.37840E-06-2.67741E-05 1.49806E-17-8.26725E-18
 -1      2154 1.15338E-05-3.52185E-05 8.63005E-06 2.77364E-06 1.45745E-17-8.82608E-19
 -1      2155 1.16820E-05-3.47038E-05 8.31326E-06-6.39771E-06 1.49606E-17-4.08524E-18
 -1      2156 2.34119E-05-3.34689E-05 3.45752E-06 2.22536E-05 1.26060E-17 1.26420E-18
 -1      2157 1.61983E-05-3.71656E-05 7.32465E-06 1.18755E-05 1.45859E-17 1.51619E-19
 -1      2158 1.51661E-05-2.58731E-05 3.94827E-06 9.60417E-06 1.16759E-17-1.10538E-18
 -1      2159 5.44043E-05-3.99968E-05-6.58760E-06 3.48290E-05 1.15171E-17 3.64042E-18
 -1      2160 4.15833E-05-3.96307E-05-1.50369E-06 3.08384E-05 1.18873E-17 2.45661E-18
 -1      2161 8.71572E-05-4.12529E-05-1.96058E-05 3.63854E-05 9.28263E-18 8.94467E-18
 -1      2162 6.95727E-05-4.34163E-05-1.21324E-05 3.25952E-05 1.08992E-17 6.36291E-18
 -1      2163 1.21254E-04-3.96077E-05-3.46202E-05 2.91081E-05 7.10915E-18 1.19190E-17
 -1      2164 1.02447E-04-4.12218E-05-2.67603E-05 2.90290E-05 8.21749E-18 1.12105E-17
 -1      2165 1.45794E-04-3.41467E-05-4.72574E-05 1.32651E-05 3.39186E-18 1.32323E-17
 -1      2166 1.31269E-04-3.63819E-05-4.07885E-05 1.67835E-05 5.30618E-18 1.20232E-17
 -1      2167 1.60445E-04-2.44407E-05-5.78731E-05 1.78193E-06-3.57448E-19 1.76206E-17
 -1      2168 1.50959E-04-2.61200E-05-5.32237E-05 9.81368E-06 1.54499E-18 1.58857E-17
 -1      2169 1.54400E-04-1.33009E-05-6.09951E-05-1.15667E-05-4.05559E-18 2.10854E-17
 -1      2170 1.56987E-04-1.70941E-05-5.97257E-05-4.26318E-06-2.95064E-18 2.00116E-17
 -1      2171 1.46476E-04-1.07797E-05-5.99086E-05-2.11743E-05 9.31948E-19 2.47639E-17
 -1      2172 1.53479E-04-1.20696E-05-6.13543E-05-1.50882E-05-2.86509E-18 2.48570E-17
 -1      2173 1.33797E-04-1.30826E-05-5.53341E-05-3.87141E-05 2.43794E-17 2.05979E-17
 -1      2174 1.44087E-04-1.49658E-05-5.82175E-05-2.85741E-05 1.10425E-17 2.52854E-17
 -1      2175 1.06094E-04-1.66736E-05-4.53464E-05-4.70041E-05 7.08251E-17 1.63825E-17
 -1      2176 1.22559E-04-1.34049E-05-5.16263E-05-4.62221E-05 4.11590E-17 2.36381E-17
 -1      2177 9.07292E-05-4.46538E-05-3.00121E-05-6.64889E-05 1.55741E-16 2.76167E-17
 -1      2178 9.71831E-05-2.39340E-05-3.90965E-05-6.06110E-05 1.05706E-16 2.82164E-17
 -1      2179 7.26022E-05-7.73112E-05-9.41733E-06-9.50590E-05 2.56954E-16 1.16941E-17
 -1      2180 8.17615E-05-5.94628E-05-2.02397E-05-8.95936E-05 2.18409E-16 1.76115E-17
 -1      2181 1.03550E-05-5.08328E-05 5.28787E-06-5.61378E-05 2.28254E-16 4.66681E-17
 -1      2182 3.44388E-05-6.17816E-05-6.98664E-07-9.10448E-05 2.59514E-16 1.93564E-17
 -1      2183 2.27240E-05-3.79100E-05 7.85062E-07-3.96312E-05 1.54411E-16-3.06880E-18
 -1      2184 1.72177E-04-4.03953E-05-5.52844E-05 1.83038E-05-3.22942E-18-7.83421E-18
 -1      2185 1.54154E-04-4.24830E-05-4.79439E-05 2.05261E-05-3.35340E-18-7.24086E-18
 -1      2186 1.53760E-04-5.18857E-05-4.32356E-05 1.15715E-05-4.55990E-18-6.74323E-18
 -1      2187 9.31050E-05-2.31950E-05-3.00327E-05-1.02551E-05-2.16504E-18 1.41468E-18
 -1      2188 1.66085E-04-3.61215E-05-5.47170E-05-1.19724E-06-1.97210E-18-7.90493E-18
 -1      2189 9.22369E-05-2.19955E-05-3.01663E-05-1.07238E-05-2.30683E-18 2.02070E-19
 -1      2190 1.84027E-05-2.50348E-05 2.33718E-06 1.18146E-05-8.64715E-19 2.53602E-18
 -1      2191 9.66715E-05-5.43994E-05-1.84114E-05 3.91650E-05-5.16330E-18-2.47323E-18
 -1      2192 7.78945E-05-4.78104E-05-1.32799E-05 4.02398E-05-4.14284E-18 6.00335E-20
 -1      2193 7.23298E-05-4.46976E-05-1.14242E-05 4.14912E-05-6.87791E-19 1.68528E-18
 -1      2194 9.52578E-05-2.84342E-05-2.86380E-05-1.87450E-07-1.76312E-18-3.51818E-19
 -1      2195 1.25935E-04-5.88165E-05-2.87933E-05 2.99241E-05-6.70681E-18-4.85731E-18
 -1      2196 5.90369E-05-6.53530E-05-9.23497E-06-9.79536E-05 2.51698E-16 1.84619E-17
 -1      2197 9.23773E-05-5.72684E-05-2.71711E-05-8.62356E-05 1.88077E-16 4.81640E-17
 -1      2198 1.05341E-04-3.20291E-05-4.13647E-05-4.59553E-05 9.33549E-17 5.26939E-17
 -1      2199 1.26128E-04-1.94093E-05-5.04923E-05-2.51955E-05 3.70270E-17 3.57439E-17
 -1      2200 1.38112E-04-1.17435E-05-5.65121E-05-1.72030E-05 4.60871E-18 2.84391E-17
 -1      2201 1.25393E-04-6.33869E-06-5.35922E-05-4.91988E-06 4.07846E-19 2.86395E-17
 -1      2202 1.25071E-04-1.23415E-05-5.22539E-05-1.00893E-05 9.57041E-18 3.32723E-17
 -1      2203 1.35744E-04-4.20859E-06-5.68022E-05-9.03203E-06-3.89106E-18 2.28048E-17
 -1      2204 1.41250E-04-1.22187E-05-5.47392E-05-7.45441E-06-2.69229E-18 1.71672E-17
 -1      2205 1.40353E-04-2.92497E-05-4.71855E-05-2.78521E-06 1.27415E-18 1.32840E-17
 -1      2206 1.30360E-04-4.43254E-05-3.63463E-05 1.16602E-05 5.17198E-18 1.02133E-17
 -1      2207 1.05778E-04-5.03094E-05-2.36129E-05 2.90078E-05 8.25179E-18 9.67566E-18
 -1      2208 3.63937E-05-3.51748E-05-9.06531E-07 2.94707E-05 1.10593E-17 8.46186E-19
 -1      2209 3.22969E-05-2.78423E-05-1.55908E-06 2.81969E-05 9.29703E-18-4.09329E-19
 -1      2210 4.97778E-05-3.63246E-05-5.97379E-06 3.56995E-05 9.27882E-18 1.65891E-18
 -1      2211 1.65399E-05-2.67744E-05 3.54440E-06-1.48801E-05 1.09693E-17-5.20841E-18
 -1      2212 8.79279E-05-4.93719E-05-1.68441E-05-4.32342E-05 8.76510E-18-8.55080E-18
 -1      2213 1.55220E-04-4.44227E-05-4.70045E-05-1.90421E-05 1.10824E-17-1.04109E-17
 -1      2214 1.56689E-04-4.45681E-05-4.88235E-05-3.09461E-06 8.53439E-18-6.31357E-18
 -1      2215 1.49579E-04-5.20998E-05-4.12280E-05-1.28366E-05 8.22998E-18-6.50818E-18
 -1      2216 1.67926E-04-2.86889E-05-5.85232E-05-2.61703E-06 9.11132E-18-9.72097E-18
 -1      2217 1.63021E-04-1.88699E-05-6.08749E-05-5.01405E-06 2.85365E-18-9.98779E-18
 -1      2218 1.61752E-04-1.52598E-05-6.21217E-05-1.64038E-06 6.94228E-18-1.04185E-17
 -1      2219 4.32668E-05-3.49575E-05-3.92202E-06-3.74333E-05 9.73918E-18-8.13554E-18
 -1      2220 7.33304E-05-4.68049E-05-1.16827E-05 3.69971E-05 1.03245E-17 4.76948E-18
 -1      2221 9.26185E-05-2.56989E-05-2.86652E-05 3.23934E-06 1.75147E-18 9.78720E-19
 -1      2222 9.34106E-05-2.51739E-05-2.91739E-05 4.96819E-06 1.92629E-18 1.19704E-18
 -1      2223 8.47005E-05-1.05432E-05-3.18189E-05-4.71353E-06-4.59127E-19-2.90559E-18
 -1      2224 8.48528E-05-1.07823E-05-3.17796E-05-5.78103E-06-7.50387E-19-3.02811E-18
 -1      2225 8.51234E-05-1.12298E-05-3.17111E-05-6.72361E-06-9.78258E-19-3.00388E-18
 -1      2226 8.54538E-05-1.16696E-05-3.16642E-05-7.81783E-06-1.27009E-18-2.87357E-18
 -1      2227 8.62507E-05-1.30137E-05-3.13853E-05-5.85793E-06-7.97280E-19-2.76732E-18
 -1      2228 8.47009E-05-1.02213E-05-3.19522E-05-6.99795E-07 4.45908E-19-3.00022E-18
 -1      2229 8.46100E-05-1.01845E-05-3.19300E-05-1.75120E-06 1.73325E-19-2.94342E-18
 -1      2230 8.50530E-05-1.05187E-05-3.19761E-05 1.33761E-06 8.38759E-19-2.94378E-18
 -1      2231 8.48553E-05-1.03534E-05-3.19650E-05 2.67915E-07 5.97528E-19-2.97662E-18
 -1      2232 8.59968E-05-1.21801E-05-3.16379E-05-3.06366E-07 4.64714E-19-2.81565E-18
 -1      2233 8.56381E-05-1.11338E-05-3.19665E-05 3.38813E-06 1.27610E-18-2.86702E-18
 -1      2234 8.53279E-05-1.08279E-05-3.19682E-05 2.30253E-06 1.03993E-18-2.96256E-18
 -1      2235 8.64376E-05-1.26143E-05-3.16395E-05 1.56571E-06 9.31831E-19-2.75609E-18
 -1      2236 8.65336E-05-1.21710E-05-3.19137E-05 5.52460E-06 1.79814E-18-2.38784E-18
 -1      2237 8.60648E-05-1.16627E-05-3.19323E-05 4.37810E-06 1.48566E-18-2.67062E-18
 -1      2238 8.71483E-05-1.34338E-05-3.15905E-05 3.44964E-06 1.34205E-18-2.52665E-18
 -1      2239 8.78538E-05-1.38009E-05-3.17987E-05 7.65946E-06 2.20816E-18-1.91126E-18
 -1      2240 8.71591E-05-1.29863E-05-3.18420E-05 6.49006E-06 1.92934E-18-2.18061E-18
 -1      2241 8.81957E-05-1.47447E-05-3.14723E-05 5.31208E-06 1.80583E-18-2.10755E-18
 -1      2242 8.97989E-05-1.63299E-05-3.15830E-05 9.57798E-06 2.45664E-18-1.16178E-18
 -1      2243 8.87608E-05-1.50187E-05-3.16638E-05 8.48892E-06 2.22806E-18-1.60090E-18
 -1      2244 8.96587E-05-1.67052E-05-3.12461E-05 6.97730E-06 2.10925E-18-1.62511E-18
 -1      2245 9.19440E-05-2.64621E-05-2.80453E-05 8.89926E-07 1.40277E-18 6.05870E-19
 -1      2246 9.23648E-05-2.62139E-05-2.82823E-05 1.83301E-06 1.62031E-18 8.39717E-19
 -1      2247 9.28031E-05-2.52031E-05-2.89813E-05 3.24266E-06 1.83825E-18 7.82116E-20
 -1      2248 9.16876E-05-2.38630E-05-2.90233E-05-6.66573E-06-1.82736E-18-3.27115E-19
 -1      2249 9.09715E-05-2.45654E-05-2.84731E-05-4.76855E-06-1.62370E-18-4.59859E-19
 -1      2250 1.57567E-04-3.15477E-05-5.45289E-05-8.96895E-06-6.04782E-19-9.34574E-18
 -1      2251 1.54144E-04-3.90972E-05-4.95875E-05-7.85909E-06-1.89757E-18-7.97714E-18
 -1      2252 9.08006E-05-2.52132E-05-2.80530E-05-3.43447E-06-1.48371E-18-4.39934E-19
 -1      2253 9.02672E-05-2.55407E-05-2.77388E-05-2.35896E-06-1.28148E-18-6.09756E-19
 -1      2254 9.10602E-05-2.40775E-05-2.87129E-05-4.84565E-06-1.66800E-18-8.48885E-19
 -1      2255 9.00169E-05-2.58316E-05-2.74701E-05-1.47651E-06-1.04980E-18-6.04865E-19
 -1      2256 8.97008E-05-2.60073E-05-2.72931E-05-8.34151E-07-9.00879E-19-8.18547E-19
 -1      2257 9.06341E-05-2.53046E-05-2.80120E-05-2.44176E-06-1.29799E-18-8.25658E-19
 -1      2258 8.95026E-05-2.61525E-05-2.71275E-05-2.68222E-07-8.17794E-19-7.63125E-19
 -1      2259 8.93597E-05-2.62615E-05-2.70370E-05 1.26370E-07-6.82303E-19-8.18860E-19
 -1      2260 9.02222E-05-2.59426E-05-2.75618E-05-8.70159E-07-8.82002E-19-8.77097E-19
 -1      2261 8.92333E-05-2.63358E-05-2.69430E-05 4.94828E-07-5.97210E-19-8.64368E-19
 -1      2262 8.92152E-05-2.64118E-05-2.69100E-05 7.49273E-07-6.04199E-19-8.05654E-19
 -1      2263 8.99260E-05-2.62845E-05-2.72864E-05 1.51544E-07-7.72278E-19-9.74005E-19
 -1      2264 8.91548E-05-2.64491E-05-2.68668E-05 1.00309E-06-6.51078E-19-7.97357E-19
 -1      2265 8.92274E-05-2.65074E-05-2.68737E-05 1.18414E-06-4.01078E-19-8.54087E-19
 -1      2266 8.97587E-05-2.64662E-05-2.71344E-05 8.36478E-07-6.66151E-19-9.03968E-19
 -1      2267 8.92225E-05-2.65240E-05-2.68673E-05 1.38011E-06-4.15065E-19-9.66376E-19
 -1      2268 8.93652E-05-2.65735E-05-2.69036E-05 1.53119E-06-6.24882E-19-8.22009E-19
 -1      2269 8.97057E-05-2.65560E-05-2.70713E-05 1.33273E-06-5.71863E-19-1.17472E-18
 -1      2270 8.94079E-05-2.65796E-05-2.69251E-05 1.70858E-06-9.11980E-19-7.66422E-19
 -1      2271 8.96106E-05-2.66277E-05-2.69848E-05 1.85837E-06-1.05213E-18-8.38498E-19
 -1      2272 8.97505E-05-2.65918E-05-2.70738E-05 1.74295E-06-8.01249E-19-1.23201E-18
 -1      2273 8.96973E-05-2.66316E-05-2.70280E-05 2.04352E-06-1.05924E-18-8.06920E-19
 -1      2274 8.99581E-05-2.66864E-05-2.71078E-05 2.20968E-06-1.02646E-18-7.15726E-19
 -1      2275 8.98830E-05-2.65999E-05-2.71264E-05 2.13754E-06-1.06258E-18-8.98060E-19
 -1      2276 9.00898E-05-2.66971E-05-2.71686E-05 2.41807E-06-8.70841E-19-5.90063E-19
 -1      2277 9.04117E-05-2.67685E-05-2.72665E-05 2.60837E-06-5.35597E-19-5.69613E-19
 -1      2278 9.01022E-05-2.66043E-05-2.72181E-05 2.56164E-06-9.38929E-19-6.38755E-19
 -1      2279 9.05940E-05-2.67974E-05-2.73417E-05 2.84474E-06-5.16349E-19-5.75272E-19
 -1      2280 9.09829E-05-2.68979E-05-2.74558E-05 3.05622E-06-3.22706E-19-4.47733E-19
 -1      2281 9.04158E-05-2.66319E-05-2.73407E-05 3.03757E-06-5.42461E-19-6.26003E-19
 -1      2282 9.12262E-05-2.69606E-05-2.75420E-05 3.31307E-06-3.81426E-19-1.06030E-18
 -1      2283 9.16884E-05-2.71063E-05-2.76700E-05 3.52971E-06-2.55499E-19-1.53979E-18
 -1      2284 9.08410E-05-2.67172E-05-2.74867E-05 3.56362E-06-6.48145E-19-7.53441E-19
 -1      2285 9.20082E-05-2.72236E-05-2.77631E-05 3.78428E-06-2.22550E-19-1.78215E-18
 -1      2286 9.25478E-05-2.74337E-05-2.79007E-05 3.97362E-06-1.88895E-19-1.76794E-18
 -1      2287 9.14044E-05-2.69059E-05-2.76480E-05 4.10970E-06-4.70599E-19-1.19312E-18
 -1      2288 9.29650E-05-2.76329E-05-2.79958E-05 4.18369E-06-7.14633E-20-1.59900E-18
 -1      2289 9.35803E-05-2.79287E-05-2.81361E-05 4.29314E-06-3.04694E-19-1.42006E-18
 -1      2290 9.21436E-05-2.72573E-05-2.78155E-05 4.61029E-06-2.18193E-19-1.19566E-18
 -1      2291 9.41206E-05-2.82408E-05-2.82276E-05 4.39268E-06-3.84994E-19-1.39526E-18
 -1      2292 9.47987E-05-2.86403E-05-2.83611E-05 4.34782E-06-3.40041E-19-1.25486E-18
 -1      2293 9.31063E-05-2.78430E-05-2.79789E-05 4.95596E-06-4.20517E-19-1.12967E-18
 -1      2294 9.54873E-05-2.90931E-05-2.84446E-05 4.24476E-06-5.04739E-19-1.36463E-18
 -1      2295 9.61967E-05-2.95987E-05-2.85603E-05 3.95371E-06-9.27523E-19-1.32915E-18
 -1      2296 9.43446E-05-2.87351E-05-2.81295E-05 4.98646E-06-5.47122E-19-9.11086E-19
 -1      2297 9.70435E-05-3.01975E-05-2.86349E-05 3.53506E-06-1.30651E-18-9.34324E-19
 -1      2298 9.77217E-05-3.07731E-05-2.87231E-05 2.90627E-06-1.29149E-18-1.00460E-18
 -1      2299 9.58961E-05-2.99737E-05-2.82656E-05 4.49233E-06-1.01251E-18-1.16733E-18
 -1      2300 9.86923E-05-3.14668E-05-2.87966E-05 2.06108E-06-1.17746E-18-9.54503E-19
 -1      2301 9.92327E-05-3.20041E-05-2.88536E-05 1.04364E-06-1.19443E-18-1.28653E-18
 -1      2302 9.77396E-05-3.15035E-05-2.83996E-05 3.23975E-06-1.32610E-18-6.82083E-19
 -1      2303 1.00201E-04-3.26381E-05-2.89458E-05-2.79592E-07-1.24504E-18-8.56835E-19
 -1      2304 1.00448E-04-3.29279E-05-2.89799E-05-1.62469E-06-8.53970E-19-1.34870E-18
 -1      2305 9.97177E-05-3.30733E-05-2.85679E-05 1.04462E-06-1.07140E-18-4.52187E-19
 -1      2306 1.01157E-04-3.32153E-05-2.91236E-05-3.31104E-06-9.93642E-19-1.23515E-18
 -1      2307 1.00940E-04-3.29684E-05-2.91568E-05-4.72436E-06-1.60497E-18-1.06497E-18
 -1      2308 1.01442E-04-3.41361E-05-2.88351E-05-2.06504E-06-1.20667E-18-3.04302E-19
 -1      2309 1.01035E-04-3.25437E-05-2.93847E-05-6.36457E-06-1.88629E-18-6.31654E-19
 -1      2310 1.00262E-04-3.15197E-05-2.94463E-05-7.33679E-06-2.20469E-18-4.47702E-19
 -1      2311 1.02282E-04-3.38911E-05-2.92788E-05-5.59668E-06-1.64440E-18 4.09604E-19
 -1      2312 9.94748E-05-3.01577E-05-2.97658E-05-8.16865E-06-3.00748E-18-5.01141E-19
 -1      2313 9.82960E-05-2.84301E-05-2.98733E-05-8.04204E-06-3.64195E-18-1.21134E-18
 -1      2314 1.01567E-04-3.15847E-05-2.99445E-05-8.36848E-06-3.05901E-18 8.43568E-19
 -1      2315 9.68240E-05-2.64266E-05-3.02299E-05-7.18043E-06-4.61610E-18-1.91952E-18
 -1      2316 9.57639E-05-2.46333E-05-3.03739E-05-5.50258E-06-4.92397E-18-2.38675E-18
 -1      2317 9.91640E-05-2.72990E-05-3.07655E-05-8.56034E-06-4.67620E-18 1.15897E-19
 -1      2318 9.44147E-05-2.28886E-05-3.06790E-05-2.67951E-06-5.72536E-18-2.61493E-18
 -1      2319 9.41330E-05-2.19297E-05-3.08525E-05 3.64132E-07-6.43634E-18-3.97805E-18
 -1      2320 9.61760E-05-2.25758E-05-3.15494E-05-4.83886E-06-6.21705E-18-1.58008E-19
 -1      2321 9.39684E-05-2.15211E-05-3.10579E-05 4.51278E-06-7.05294E-18-5.08425E-18
 -1      2322 9.49939E-05-2.21159E-05-3.12836E-05 7.97063E-06-6.90132E-18-6.39919E-18
 -1      2323 9.44885E-05-1.97952E-05-3.21107E-05 2.64457E-06-8.04960E-18-2.83284E-18
 -1      2324 9.64757E-05-2.33656E-05-3.14680E-05 1.18190E-05-7.21058E-18-9.26456E-18
 -1      2325 9.86935E-05-2.51574E-05-3.18380E-05 1.45082E-05-6.51326E-18-1.15321E-17
 -1      2326 9.57609E-05-2.07939E-05-3.24482E-05 1.13608E-05-9.11471E-18-6.11351E-18
 -1      2327 1.01154E-04-2.71208E-05-3.21479E-05 1.67726E-05-4.47096E-18-1.43393E-17
 -1      2328 1.03939E-04-2.88464E-05-3.27289E-05 1.80901E-05-1.99984E-18-1.46430E-17
 -1      2329 9.97656E-05-2.47508E-05-3.28520E-05 1.80624E-05-7.13837E-18-1.15000E-17
 -1      2330 1.06095E-04-2.98675E-05-3.31485E-05 1.89043E-05 5.10761E-19-1.85354E-17
 -1      2331 1.07592E-04-3.05742E-05-3.39105E-05 1.97566E-05 6.23596E-18-1.81803E-17
 -1      2332 1.04500E-04-2.87092E-05-3.34933E-05 2.12246E-05-2.14035E-18-1.76223E-17
 -1      2333 1.10974E-04-3.08660E-05-3.46866E-05 1.52349E-05 1.37907E-17-2.26443E-17
 -1      2334 1.08216E-04-2.52128E-05-3.55806E-05 1.54601E-05 2.54822E-17-1.73049E-17
 -1      2335 1.12405E-04-3.40159E-05-3.44391E-05 2.01598E-05 9.90293E-18-2.71989E-17
 -1      2336 9.39066E-05-1.37107E-05-3.49110E-05 1.99386E-05 4.47396E-17-7.52042E-18
 -1      2337 9.48054E-05-1.91657E-05-3.46860E-05 3.04032E-05 6.40370E-17-1.20139E-17
 -1      2338 1.04974E-04-1.65231E-05-3.59403E-05 2.09314E-06 5.96148E-17-2.65930E-17
 -1      2339 1.02424E-04-3.90638E-05-2.98828E-05 5.66410E-05 4.05898E-17 9.95475E-17
 -1      2340 1.25376E-04-7.17471E-05-2.78419E-05 5.08209E-05-3.79420E-17 7.75662E-17
 -1      2341 6.84561E-05-1.41505E-05-2.78254E-05 6.93785E-05-5.11947E-18 5.22017E-17
 -1      2342 1.65738E-04-9.33778E-05-2.88469E-05 3.25267E-05-1.75988E-16 2.59353E-17
 -1      2343 1.72124E-04-6.94734E-05-3.66003E-05 1.46687E-05-2.87253E-16-3.59633E-17
 -1      2344 1.05450E-04-9.49291E-05-1.68147E-05 8.52992E-05-1.98661E-16 1.36457E-16
 -1      2345 1.81916E-04-3.67471E-05-5.56366E-05 2.19859E-05-3.12439E-16-3.59870E-16
 -1      2346 1.90871E-04-9.87291E-06-5.42251E-05 5.43510E-05-3.08034E-16-5.05070E-16
 -1      2347 1.79683E-04-3.83741E-05-4.80055E-05 7.33109E-06-2.68577E-16-2.30308E-16
 -1      2348 1.52920E-04-1.24381E-05-3.33871E-05 2.66391E-05-1.52380E-16-2.61618E-16
 -1      2349 1.01267E-04-3.05055E-05-3.03177E-05-4.21372E-06 1.73590E-18 6.39727E-19
 -1      2350 2.42799E-04-2.62409E-06-5.95318E-05 9.86439E-05-4.24523E-16-5.74590E-16
 -1      2351 1.00654E-04-3.01368E-05-3.02248E-05-4.16879E-06 2.05121E-18-1.47160E-20
 -1      2352 1.00024E-04-2.98053E-05-3.00882E-05-4.09566E-06 2.20920E-18-1.53045E-20
 -1      2353 1.00019E-04-3.00539E-05-2.99944E-05-4.83835E-06 1.91409E-18 5.27537E-19
 -1      2354 9.95403E-05-2.95562E-05-2.99903E-05-3.90557E-06 2.02356E-18-6.42441E-19
 -1      2355 9.89834E-05-2.93149E-05-2.98543E-05-3.72302E-06 1.28342E-18-1.76113E-18
 -1      2356 9.89151E-05-2.93421E-05-2.98244E-05-4.56830E-06 1.64926E-18-1.23135E-18
 -1      2357 9.86027E-05-2.91553E-05-2.97569E-05-3.46051E-06 1.80362E-18-1.70188E-18
 -1      2358 9.81255E-05-2.89852E-05-2.96292E-05-3.22720E-06 1.06900E-18-4.08591E-19
 -1      2359 9.80467E-05-2.88824E-05-2.96478E-05-4.07931E-06 1.71756E-18-1.46083E-18
 -1      2360 9.78264E-05-2.88882E-05-2.95371E-05-2.94186E-06 1.76315E-19 9.25478E-20
 -1      2361 9.74279E-05-2.87712E-05-2.94228E-05-2.69707E-06-1.15382E-19 8.76265E-19
 -1      2362 9.73659E-05-2.86053E-05-2.94738E-05-3.49551E-06 8.89529E-19 3.71260E-19
 -1      2363 9.71931E-05-2.87156E-05-2.93393E-05-2.41981E-06-1.07193E-18 1.45393E-18
 -1      2364 9.68676E-05-2.86368E-05-2.92408E-05-2.18724E-06-4.74671E-19 1.65235E-18
 -1      2365 9.68330E-05-2.84519E-05-2.93105E-05-2.89881E-06-2.11316E-19 1.67315E-18
 -1      2366 9.66838E-05-2.86074E-05-2.91678E-05-1.93517E-06-1.82238E-19 1.94335E-18
 -1      2367 9.64234E-05-2.85552E-05-2.90856E-05-1.72708E-06 5.73725E-19 2.06947E-18
 -1      2368 9.64166E-05-2.83774E-05-2.91633E-05-2.33822E-06-2.62864E-19 2.80710E-18
 -1      2369 9.62799E-05-2.85413E-05-2.90239E-05-1.50772E-06 2.09320E-18 1.87339E-18
 -1      2370 9.60757E-05-2.85071E-05-2.89573E-05-1.32861E-06 3.09606E-18 1.66418E-18
 -1      2371 9.60922E-05-2.83500E-05-2.90355E-05-1.83900E-06 1.00500E-18 2.23201E-18
 -1      2372 9.59639E-05-2.85013E-05-2.89066E-05-1.14319E-06 2.49524E-18 7.53797E-19
 -1      2373 9.58068E-05-2.84788E-05-2.88543E-05-9.92607E-07 2.71310E-18 7.95964E-19
 -1      2374 9.58402E-05-2.83478E-05-2.89280E-05-1.41019E-06 2.50120E-18 2.12963E-18
 -1      2375 9.57198E-05-2.84765E-05-2.88138E-05-8.38598E-07 2.77194E-18 2.86712E-20
 -1      2376 9.56015E-05-2.84611E-05-2.87738E-05-7.13491E-07 1.40036E-18 5.07385E-19
 -1      2377 9.56448E-05-2.83564E-05-2.88401E-05-1.05049E-06 1.97892E-18 7.57681E-19
 -1      2378 9.55331E-05-2.84599E-05-2.87421E-05-5.86216E-07 4.70579E-19 8.44496E-19
 -1      2379 9.54470E-05-2.84488E-05-2.87123E-05-4.82911E-07-5.52333E-20 1.32580E-18
 -1      2380 9.54925E-05-2.83664E-05-2.87700E-05-7.52945E-07 1.27566E-18 9.01070E-20
 -1      2381 5.34510E-05-3.46994E-05-7.82696E-06 3.89824E-05-8.72232E-19 7.58942E-19
 -1      2382 3.95186E-05-2.85219E-05-4.46170E-06 3.12193E-05-8.82185E-19 6.53274E-19
 -1      2383 9.17089E-05-2.71395E-05-2.76620E-05-1.34235E-06 7.59677E-19-7.95293E-20
 -1      2384 9.15958E-05-2.69981E-05-2.76613E-05-1.02133E-06 9.35004E-19 1.77672E-19
 -1      2385 9.20335E-05-2.73724E-05-2.77028E-05-1.87339E-06 5.34050E-19-3.22687E-19
 -1      2386 9.17760E-05-2.72393E-05-2.76457E-05-1.66955E-06 6.50627E-19-1.53163E-19
 -1      2387 9.23224E-05-2.71963E-05-2.79238E-05-1.61911E-06 8.94169E-19-5.50328E-19
 -1      2388 9.25552E-05-2.75871E-05-2.78346E-05-2.24169E-06 5.66922E-19-3.90725E-19
 -1      2389 9.21967E-05-2.74570E-05-2.77387E-05-2.09437E-06 4.94412E-19-3.36362E-19
 -1      2390 9.25740E-05-2.74424E-05-2.79237E-05-2.23622E-06 5.91455E-19-5.38464E-19
 -1      2391 9.32294E-05-2.77951E-05-2.80339E-05-2.54530E-06 4.90892E-19-2.38473E-19
 -1      2392 9.27931E-05-2.76650E-05-2.79085E-05-2.41457E-06 5.81876E-19-2.02922E-19
 -1      2393 9.29847E-05-2.76334E-05-2.80157E-05-2.68326E-06 4.78571E-19-7.30758E-19
 -1      2394 9.40347E-05-2.80033E-05-2.82885E-05-2.85397E-06 3.96999E-19-2.57609E-19
 -1      2395 9.35284E-05-2.78699E-05-2.81376E-05-2.71114E-06 5.90954E-19-1.91694E-19
 -1      2396 9.35227E-05-2.77916E-05-2.81771E-05-3.06685E-06 5.15971E-19-3.00503E-19
 -1      2397 9.49678E-05-2.82195E-05-2.85940E-05-3.21991E-06 4.38933E-19-5.20212E-19
 -1      2398 9.43885E-05-2.80780E-05-2.84179E-05-3.04319E-06 3.63393E-19-3.06503E-19
 -1      2399 9.41703E-05-2.79299E-05-2.83946E-05-3.46408E-06 6.29990E-19-3.54985E-19
 -1      2400 9.60396E-05-2.84541E-05-2.89506E-05-3.68268E-06 6.79124E-19-5.03259E-19
 -1      2401 9.53760E-05-2.82975E-05-2.87474E-05-3.45553E-06 7.10781E-19-4.16401E-19
 -1      2402 9.49223E-05-2.80589E-05-2.86613E-05-3.93271E-06 6.85049E-19-7.21227E-19
 -1      2403 9.72716E-05-2.87216E-05-2.93617E-05-4.26995E-06 4.02385E-19-5.43127E-19
 -1      2404 9.65069E-05-2.85404E-05-2.91278E-05-3.98136E-06 5.19632E-19-6.51974E-19
 -1      2405 9.57842E-05-2.81907E-05-2.89742E-05-4.51560E-06 5.86067E-19-6.68702E-19
 -1      2406 9.86927E-05-2.90440E-05-2.98307E-05-4.99393E-06 1.95288E-19-5.62641E-19
 -1      2407 9.78066E-05-2.88246E-05-2.95628E-05-4.64094E-06 3.42875E-19-3.30224E-19
 -1      2408 9.67704E-05-2.83434E-05-2.93317E-05-5.24083E-06 2.98522E-19-5.64743E-19
 -1      2409 1.00337E-04-2.94551E-05-3.03585E-05-5.84209E-06 3.54578E-19-7.68055E-19
 -1      2410 9.93086E-05-2.91776E-05-3.00548E-05-5.43548E-06 3.59204E-19-6.20331E-19
 -1      2411 9.79042E-05-2.85462E-05-2.97312E-05-6.11702E-06 2.72223E-19-6.68762E-19
 -1      2412 1.02241E-04-3.00086E-05-3.09393E-05-6.76002E-06 5.99826E-19-1.03141E-18
 -1      2413 1.01053E-04-2.96438E-05-3.06022E-05-6.33437E-06 2.73211E-19-8.47196E-19
 -1      2414 9.92209E-05-2.88494E-05-3.01666E-05-7.12249E-06 3.29782E-19-5.51829E-19
 -1      2415 1.04446E-04-3.07882E-05-3.15565E-05-7.62387E-06 9.68890E-19-1.17639E-18
 -1      2416 1.03090E-04-3.02937E-05-3.11952E-05-7.25319E-06 9.12289E-19-7.47943E-19
 -1      2417 1.00775E-04-2.93384E-05-3.06254E-05-8.18626E-06 5.82637E-19-5.22993E-19
 -1      2418 1.06996E-04-3.19177E-05-3.21785E-05-8.20217E-06 3.51690E-19-8.14230E-19
 -1      2419 1.05479E-04-3.12368E-05-3.18126E-05-8.02020E-06 8.27009E-19-1.00444E-18
 -1      2420 1.02656E-04-3.01520E-05-3.10870E-05-9.15869E-06 8.16116E-19-2.44806E-19
 -1      2421 1.09935E-04-3.35531E-05-3.27592E-05-8.11441E-06-1.11833E-18-2.01030E-19
 -1      2422 1.08297E-04-3.26262E-05-3.24197E-05-8.33235E-06-4.97367E-19-4.59697E-19
 -1      2423 1.05006E-04-3.14972E-05-3.15253E-05-9.77102E-06-3.22768E-19 3.05540E-19
 -1      2424 1.13274E-04-3.58148E-05-3.32519E-05-6.81381E-06-7.51312E-19-1.47552E-19
 -1      2425 1.11617E-04-3.46292E-05-3.29757E-05-7.71297E-06-1.15907E-18-3.60264E-19
 -1      2426 1.08031E-04-3.36300E-05-3.19204E-05-9.58842E-06-9.57362E-19 3.01624E-19
 -1      2427 1.16883E-04-3.85906E-05-3.36422E-05-3.67998E-06-3.84262E-19 3.30053E-19
 -1      2428 1.15425E-04-3.72947E-05-3.34565E-05-5.52835E-06-4.05166E-19 3.58533E-20
 -1      2429 1.11949E-04-3.67210E-05-3.22893E-05-7.98458E-06-8.69976E-19 3.10278E-19
 -1      2430 1.20271E-04-4.11679E-05-3.40053E-05 1.64198E-06-4.26918E-19 6.95726E-19
 -1      2431 1.19415E-04-4.02551E-05-3.38955E-05-1.17882E-06-4.62156E-19 4.35415E-19
 -1      2432 1.16784E-04-4.05335E-05-3.27331E-05-4.24259E-06-6.66883E-19 4.58927E-19
 -1      2433 1.22332E-04-4.18882E-05-3.45585E-05 8.49088E-06 3.87385E-20 1.53603E-18
 -1      2434 1.22639E-04-4.22769E-05-3.44436E-05 5.31405E-06 2.43820E-20 1.24591E-18
 -1      2435 1.21896E-04-4.38084E-05-3.34959E-05 2.06144E-06-5.30090E-19 6.25918E-19
 -1      2436 1.21605E-04-3.85942E-05-3.55828E-05 1.42692E-05-1.64596E-18 1.26442E-18
 -1      2437 1.23469E-04-4.12075E-05-3.53446E-05 1.22838E-05-4.40429E-19 1.44306E-18
 -1      2438 1.25604E-04-4.40988E-05-3.49528E-05 9.97190E-06-1.36726E-19 1.75734E-18
 -1      2439 1.17685E-04-3.11660E-05-3.70601E-05 1.40426E-05-8.05475E-19-4.60839E-20
 -1      2440 1.20376E-04-3.52213E-05-3.67080E-05 1.54320E-05-1.61901E-18 3.95022E-19
 -1      2441 1.25350E-04-3.83200E-05-3.73092E-05 1.59632E-05-1.00482E-18 8.71332E-19
 -1      2442 1.13578E-04-2.43343E-05-3.83474E-05 5.36170E-06 2.18714E-18-1.85844E-18
 -1      2443 1.15416E-04-2.71173E-05-3.80780E-05 1.03848E-05 8.63762E-19-1.17985E-18
 -1      2444 1.21523E-04-2.88598E-05-3.99085E-05 1.36951E-05 9.37030E-19-1.26466E-18
 -1      2445 1.14411E-04-2.48156E-05-3.85633E-05-7.95153E-06 3.28336E-18-3.46785E-18
 -1      2446 1.13379E-04-2.35605E-05-3.85761E-05-2.28671E-06 3.02703E-18-2.55404E-18
 -1      2447 1.18008E-04-2.16325E-05-4.15630E-05 1.44411E-06 3.11920E-18-3.61211E-18
 -1      2448 1.19519E-04-3.21684E-05-3.77025E-05-1.69138E-05 2.06890E-18-4.65790E-18
 -1      2449 1.16314E-04-2.79962E-05-3.79304E-05-1.40266E-05 2.78864E-18-3.81744E-18
 -1      2450 1.19975E-04-2.48533E-05-4.09576E-05-1.22809E-05 3.30613E-18-4.43832E-18
 -1      2451 1.24183E-04-3.95019E-05-3.64555E-05-1.65835E-05-9.45636E-19-3.44642E-18
 -1      2452 1.21604E-04-3.62071E-05-3.66286E-05-1.74062E-05 1.97729E-19-3.96157E-18
 -1      2453 1.25219E-04-3.49342E-05-3.87727E-05-1.89246E-05 8.39039E-19-5.36775E-18
 -1      2454 1.24611E-04-4.19365E-05-3.54274E-05-9.81785E-06-1.18528E-18-9.82959E-19
 -1      2455 1.23905E-04-4.10685E-05-3.55702E-05-1.30849E-05-7.23876E-19-2.07870E-18
 -1      2456 1.27313E-04-4.26170E-05-3.62915E-05-1.50939E-05-1.66770E-18-3.50700E-18
 -1      2457 1.21746E-04-4.07281E-05-3.44757E-05-1.62703E-06-9.14207E-19-1.00919E-18
 -1      2458 1.22397E-04-4.12282E-05-3.47838E-05-5.20980E-06-7.13863E-19-6.72749E-19
 -1      2459 1.24823E-04-4.43419E-05-3.44481E-05-6.21763E-06-1.39362E-18-1.50413E-18
 -1      2460 1.16843E-04-3.82900E-05-3.33923E-05 4.09938E-06-4.42522E-19-1.89823E-18
 -1      2461 1.19168E-04-3.93892E-05-3.38578E-05 1.79370E-06-8.27551E-19-6.26699E-19
 -1      2462 1.19803E-04-4.19225E-05-3.30952E-05 1.93917E-06-7.70853E-19-9.63341E-19
 -1      2463 1.12386E-04-3.53361E-05-3.29958E-05 6.91969E-06-1.83093E-18-1.30995E-18
 -1      2464 1.13942E-04-3.65920E-05-3.32125E-05 5.74438E-06-1.16751E-18-1.79322E-18
 -1      2465 1.12960E-04-3.79160E-05-3.22174E-05 6.63521E-06-1.03416E-18-2.83097E-19
 -1      2466 1.09033E-04-3.30847E-05-3.25362E-05 7.96472E-06-8.96985E-19-2.01991E-19
 -1      2467 1.10620E-04-3.40940E-05-3.28272E-05 7.58050E-06-1.76931E-18-1.13217E-18
 -1      2468 1.08832E-04-3.44355E-05-3.19252E-05 8.89338E-06-1.73155E-18-4.52368E-19
 -1      2469 1.06239E-04-3.15251E-05-3.20140E-05 7.81303E-06 9.50117E-19-2.49108E-19
 -1      2470 1.07713E-04-3.22630E-05-3.23421E-05 7.92618E-06 2.88669E-19-4.05692E-19
 -1      2471 1.05696E-04-3.19581E-05-3.16278E-05 9.40156E-06 9.66685E-20-5.03924E-19
 -1      2472 1.03942E-04-3.05021E-05-3.14711E-05 7.03059E-06 5.96996E-19 1.19897E-18
 -1      2473 1.05243E-04-3.10220E-05-3.18003E-05 7.39974E-06 1.03951E-18 1.11889E-18
 -1      2474 1.03354E-04-3.03946E-05-3.12838E-05 8.87213E-06 1.77694E-19 3.19745E-19
 -1      2475 1.02060E-04-2.98414E-05-3.09484E-05 5.99607E-06-1.07557E-18 1.13770E-18
 -1      2476 1.03169E-04-3.02053E-05-3.12538E-05 6.46095E-06 4.58523E-20 1.37120E-18
 -1      2477 1.01577E-04-2.94821E-05-3.09075E-05 7.83159E-06 1.50955E-19 1.42224E-18
 -1      2478 1.00521E-04-2.94107E-05-3.04738E-05 4.93062E-06-2.19030E-18 3.47561E-19
 -1      2479 1.01443E-04-2.96674E-05-3.07420E-05 5.39897E-06-1.85264E-18 5.59577E-19
 -1      2480 1.00192E-04-2.89769E-05-3.05274E-05 6.61579E-06-8.96008E-19 2.29098E-19
 -1      2481 9.92719E-05-2.91238E-05-3.00613E-05 3.94770E-06-7.69063E-19-6.85144E-20
 -1      2482 1.00023E-04-2.93069E-05-3.02878E-05 4.37359E-06-1.27108E-18-1.28608E-19
 -1      2483 9.90879E-05-2.87079E-05-3.01684E-05 5.41634E-06-1.44483E-18-7.55121E-20
 -1      2484 9.82677E-05-2.89280E-05-2.97149E-05 3.09498E-06-1.22333E-18-2.83148E-19
 -1      2485 9.88676E-05-2.90597E-05-2.99005E-05 3.46042E-06-1.56624E-18-4.41720E-19
 -1      2486 9.81987E-05-2.85694E-05-2.98462E-05 4.32951E-06-1.32727E-18-1.62327E-18
 -1      2487 9.74701E-05-2.87916E-05-2.94315E-05 2.38329E-06 6.41302E-19 1.15879E-18
 -1      2488 9.79413E-05-2.88868E-05-2.95800E-05 2.68561E-06 4.19583E-19 6.97095E-19
 -1      2489 9.74821E-05-2.85008E-05-2.95681E-05 3.39366E-06-8.41969E-19-2.38970E-18
 -1      2490 9.68450E-05-2.86953E-05-2.92050E-05 1.80448E-06 2.66424E-19 1.44601E-18
 -1      2491 9.72092E-05-2.87640E-05-2.93214E-05 2.04862E-06 2.68324E-19 1.43590E-18
 -1      2492 9.69083E-05-2.84688E-05-2.93355E-05 2.61446E-06-1.13055E-19-1.91737E-19
 -1      2493 9.63623E-05-2.86266E-05-2.90277E-05 1.34179E-06 1.26834E-18 3.41428E-19
 -1      2494 9.66392E-05-2.86761E-05-2.91171E-05 1.53598E-06 7.53641E-19 9.41790E-19
 -1      2495 9.64536E-05-2.84554E-05-2.91459E-05 1.98056E-06 7.41478E-19-1.41787E-18
 -1      2496 9.59953E-05-2.85769E-05-2.88918E-05 9.75416E-07 2.46204E-18 8.73415E-19
 -1      2497 9.62020E-05-2.86126E-05-2.89591E-05 1.12893E-06 2.14024E-18 1.41817E-18
 -1      2498 9.60976E-05-2.84504E-05-2.89949E-05 1.47302E-06 1.49506E-18-6.65684E-19
 -1      2499 9.57209E-05-2.85401E-05-2.87901E-05 6.85498E-07 1.33644E-18 1.79214E-18
 -1      2500 9.58718E-05-2.85658E-05-2.88394E-05 8.07391E-07 1.48964E-18 2.00372E-18
 -1      2501 9.58222E-05-2.84482E-05-2.88773E-05 1.07017E-06 1.79952E-18 1.27768E-18
 -1      2502 9.55195E-05-2.85128E-05-2.87158E-05 4.53397E-07 1.39679E-18 2.65302E-18
 -1      2503 9.56262E-05-2.85304E-05-2.87508E-05 5.51789E-07 1.19019E-18 2.01191E-18
 -1      2504 9.56106E-05-2.84449E-05-2.87876E-05 7.51633E-07 1.14361E-18 2.75193E-18
 -1      2505 9.53749E-05-2.84940E-05-2.86621E-05 2.67835E-07 5.96539E-19 3.19991E-18
 -1      2506 9.54483E-05-2.85051E-05-2.86866E-05 3.47500E-07 1.29057E-18 3.39899E-18
 -1      2507 9.54516E-05-2.84438E-05-2.87201E-05 4.96328E-07 1.27786E-18 1.63107E-18
 -1      2508 9.53220E-05-2.84948E-05-2.86382E-05 1.78523E-07 9.73235E-19 3.25146E-18
 -1      2509 9.49438E-05-2.78319E-05-2.87649E-05 4.29492E-07 1.02274E-18 7.89012E-19
 -1      2510 9.49984E-05-2.79076E-05-2.87523E-05 4.61353E-07 9.85690E-19 2.89761E-19
 -1      2511 9.48515E-05-2.77004E-05-2.87817E-05 3.08080E-07 8.71408E-19 1.56945E-18
 -1      2512 9.48918E-05-2.77561E-05-2.87725E-05 3.69346E-07 9.49247E-19 1.57066E-18
 -1      2513 9.48672E-05-2.77231E-05-2.87741E-05 4.70168E-07 1.08032E-18 1.11242E-18
 -1      2514 9.51860E-05-2.81865E-05-2.87158E-05 4.56520E-07 3.42487E-19 1.64866E-18
 -1      2515 9.52413E-05-2.82690E-05-2.87003E-05 4.22246E-07 2.98726E-19 1.17392E-19
 -1      2516 9.50617E-05-2.80015E-05-2.87423E-05 4.82049E-07-2.69418E-20-6.49263E-19
 -1      2517 9.51215E-05-2.80855E-05-2.87280E-05 4.79652E-07-3.09776E-19 3.90714E-19
 -1      2518 9.51590E-05-2.80986E-05-2.87387E-05 5.63305E-07 1.55727E-19 5.69638E-19
 -1      2519 9.50050E-05-2.78975E-05-2.87588E-05 5.60073E-07 1.15515E-18 1.33869E-18
 -1      2520 9.47979E-05-2.76242E-05-2.87911E-05 1.39075E-07 7.16183E-19-8.82944E-19
 -1      2521 9.48185E-05-2.76529E-05-2.87863E-05 2.19314E-07 8.15418E-19-4.30422E-20
 -1      2522 9.47670E-05-2.75969E-05-2.87846E-05 3.08526E-07 9.13460E-19 7.02939E-19
 -1      2523 9.47895E-05-2.76124E-05-2.87918E-05-5.02369E-08-1.94832E-19-2.03978E-18
 -1      2524 9.47880E-05-2.76105E-05-2.87923E-05 3.58131E-08-1.31094E-19-7.61270E-19
 -1      2525 9.47161E-05-2.75343E-05-2.87895E-05 1.00912E-07 1.27859E-18-1.28758E-18
 -1      2526 9.48264E-05-2.76656E-05-2.87841E-05-2.30240E-07-7.96595E-19-3.61009E-20
 -1      2527 9.48035E-05-2.76335E-05-2.87895E-05-1.52024E-07-5.80221E-19-1.70175E-18
 -1      2528 9.47207E-05-2.75418E-05-2.87883E-05-1.20294E-07 6.11855E-19-1.87716E-18
 -1      2529 9.49015E-05-2.77736E-05-2.87690E-05-3.71425E-07-9.68120E-19-2.59584E-18
 -1      2530 9.48612E-05-2.77173E-05-2.87786E-05-3.13928E-07-1.00147E-18-1.36453E-18
 -1      2531 9.47786E-05-2.76166E-05-2.87814E-05-3.20388E-07-2.75222E-19-1.33300E-18
 -1      2532 9.50069E-05-2.79264E-05-2.87478E-05-4.56883E-07 1.92097E-19 4.52840E-19
 -1      2533 9.49537E-05-2.78513E-05-2.87607E-05-4.27426E-07-6.61215E-19-1.34695E-18
 -1      2534 9.48809E-05-2.77489E-05-2.87692E-05-4.71791E-07-4.11129E-19-1.95813E-18
 -1      2535 9.51273E-05-2.81041E-05-2.87228E-05-4.70375E-07 4.36127E-19-1.17674E-18
 -1      2536 9.50695E-05-2.80202E-05-2.87374E-05-4.75374E-07 1.96670E-19 7.97975E-19
 -1      2537 9.50149E-05-2.79239E-05-2.87524E-05-5.53049E-07-4.93095E-19-4.45404E-19
 -1      2538 9.52424E-05-2.82832E-05-2.86951E-05-4.11106E-07-8.58336E-19-2.69464E-18
 -1      2539 9.51898E-05-2.82013E-05-2.87105E-05-4.48886E-07-5.25348E-19-2.81601E-18
 -1      2540 9.51597E-05-2.81205E-05-2.87315E-05-5.51030E-07-3.94285E-19-2.34150E-18
 -1      2541 9.52942E-05-2.84261E-05-2.86560E-05-2.53045E-07-4.34147E-19 4.99894E-19
 -1      2542 1.38069E-04-6.14262E-05-3.29228E-05 2.10901E-05-6.91793E-18-6.00652E-18
 -1      2543 1.20970E-04-6.07522E-05-2.56816E-05 2.90436E-05-6.22082E-18-4.69892E-18
 -1      2544 9.16514E-05-2.68622E-05-2.77529E-05-5.00600E-07 1.07104E-18 3.13745E-19
 -1      2545 9.17533E-05-2.66950E-05-2.78404E-05 3.83823E-08 1.19915E-18 5.54884E-19
 -1      2546 9.22722E-05-2.68479E-05-2.80536E-05-6.76781E-07 1.21511E-18-1.16945E-19
 -1      2547 2.67790E-05-2.15177E-05-2.00406E-06 2.14359E-05-1.13884E-18 9.94628E-19
 -1      2548 1.98754E-05-1.69525E-05-9.43789E-07 5.78518E-06-6.73047E-19 2.54915E-18
 -1      2549 5.87117E-05-5.53830E-05-1.05165E-05-8.52892E-05 2.57242E-16-2.26497E-18
 -1      2550 8.42580E-05-7.52719E-05-1.82034E-05-1.06648E-04 2.79440E-16 2.55533E-17
 -1      2551 2.98580E-05-2.39136E-05-1.32983E-06-1.30436E-05 6.77338E-17-4.79065E-17
 -1      2552 4.42544E-05-3.93911E-05-4.13797E-06-5.93675E-05 2.36996E-16-6.72328E-17
 -1      2553 1.80134E-05-1.87782E-05 4.93387E-07-9.52973E-06 8.37877E-18-3.41270E-18
 -1      2554 2.43247E-05-2.14679E-05-1.13287E-06-2.32212E-05 7.93829E-18-5.56098E-18
 -1      2555 8.45778E-05-1.02258E-05-3.18990E-05-2.70930E-06 9.26396E-21-2.95049E-18
 -1      2556 8.45978E-05-1.03170E-05-3.18676E-05-3.76052E-06-2.86864E-19-2.91869E-18
 -1      2557 8.58756E-05-1.23534E-05-3.15105E-05-4.02809E-06-3.48054E-19-2.69835E-18
 -1      2558 8.58049E-05-1.20907E-05-3.15939E-05-2.17522E-06 5.33322E-20-2.81510E-18
 -1      2559 1.52847E-04-1.74623E-05-5.82002E-05 4.33481E-06 6.72671E-18-8.86325E-18
 -1      2560 1.44272E-04-1.18290E-05-5.74207E-05 1.05533E-06 6.18969E-18-8.28115E-18
 -1      2561 3.74508E-05-2.80080E-05-3.87035E-06-3.25941E-05 7.28321E-18-6.64243E-18
 -1      2562 5.59333E-05-3.44981E-05-9.10206E-06-4.11810E-05 5.67067E-18-6.41585E-18
 -1      2563 1.42270E-04-1.38157E-05-5.59757E-05-8.99796E-06 4.36201E-18-1.05250E-17
 -1      2564 1.51947E-04-2.15114E-05-5.60640E-05-1.01470E-05 1.64833E-18-1.00428E-17
 -1      2565 1.43357E-04-2.49817E-05-5.09636E-05-1.48865E-05 7.90705E-19-1.02303E-17
 -1      2566 1.55986E-04-3.28278E-05-5.29468E-05 4.68021E-06 7.72219E-18-6.90226E-18
 -1      2567 1.55969E-04-2.52323E-05-5.66087E-05 5.48608E-06 7.34992E-18-7.69106E-18
 -1      2568 1.23968E-04-5.81381E-05-2.82331E-05-3.02894E-05 6.02007E-18-6.28414E-18
 -1      2569 1.37522E-04-5.79637E-05-3.45314E-05-2.33260E-05 6.34639E-18-6.17402E-18
 -1      2570 8.71215E-05-4.95513E-05-1.60488E-05 3.64906E-05 8.41760E-18 5.72544E-18
 -1      2571 7.13818E-05-4.45099E-05-1.12929E-05 3.71662E-05 8.97410E-18 3.50095E-18
 -1      2572 8.16447E-05-4.66041E-05-1.48201E-05-4.28730E-05 5.35579E-18-6.34481E-18
 -1      2573 1.04406E-04-5.37084E-05-2.18228E-05-4.11645E-05 6.22273E-18-6.29184E-18
 -1      2574 1.17582E-04-5.81695E-05-2.52698E-05-3.25264E-05 3.72186E-18-4.43702E-18
 -1      2575 2.08995E-05-2.06763E-05 9.94719E-08 1.55220E-05 8.71449E-18-6.26169E-19
 -1      2576 1.64704E-05-1.90008E-05 1.24534E-06 3.31150E-06 9.02524E-18-1.13884E-18
 -1      2577 1.16110E-04-5.31706E-05-2.71535E-05 2.27738E-05 5.99191E-18 9.19221E-18
 -1      2578 1.02106E-04-5.30841E-05-2.09431E-05 2.86988E-05 6.99268E-18 7.88874E-18
 -1      2579 1.30324E-04-4.44532E-05-3.72486E-05 2.02406E-06 4.01621E-18 8.58553E-18
 -1      2580 1.24949E-04-5.01961E-05-3.20002E-05 1.17454E-05 5.28220E-18 8.64905E-18
 -1      2581 1.21744E-04-5.38293E-05-2.89109E-05 1.31539E-05 5.07277E-18 7.34632E-18
 -1      2582 1.34169E-04-2.33169E-05-4.79035E-05-8.38718E-06-1.40300E-18 1.35328E-17
 -1      2583 1.30475E-04-3.14816E-05-4.27784E-05-6.41681E-06 5.68147E-19 1.13528E-17
 -1      2584 1.24539E-04-6.07431E-06-5.17885E-05-1.03013E-05-5.63849E-18 1.71251E-17
 -1      2585 1.30113E-04-1.37972E-05-5.02603E-05-1.02020E-05-3.55415E-18 1.52953E-17
 -1      2586 1.22585E-04-1.64270E-05-4.57960E-05-1.31007E-05-3.85125E-18 1.35569E-17
 -1      2587 1.21430E-04-1.66235E-06-5.31234E-05-4.74261E-06-6.06645E-18 2.32873E-17
 -1      2588 1.21935E-04-1.09507E-06-5.28880E-05-6.68841E-06-7.08924E-18 2.00019E-17
 -1      2589 1.19585E-04-2.99612E-05-4.66220E-05-1.65558E-05 4.15965E-17 4.70544E-17
 -1      2590 1.25165E-04-2.44287E-05-4.94966E-05-1.29249E-05 2.34007E-17 4.39280E-17
 -1      2591 9.48973E-05-3.62598E-05-3.97623E-05-3.46683E-05 8.85374E-17 8.03055E-17
 -1      2592 1.10336E-04-3.17372E-05-4.45409E-05-2.19323E-05 5.42313E-17 6.41577E-17
 -1      2593 1.19124E-04-3.88778E-05-4.46923E-05-9.59571E-06 4.45824E-17 6.55604E-17
 -1      2594 8.38635E-05-6.35731E-05-2.64958E-05-1.13753E-04 2.60612E-16 9.61077E-17
 -1      2595 7.41632E-05-3.77594E-05-3.47357E-05-8.74690E-05 1.78343E-16 1.24341E-16
 -1      2596 9.10196E-05-1.90034E-05-3.09118E-05-1.21320E-05-2.39219E-18-6.04080E-19
 -1      2597 9.13178E-05-2.22077E-05-2.96431E-05-8.42635E-06-2.14749E-18-4.77660E-19
 -1      2598 9.09194E-05-2.13973E-05-2.97686E-05-8.18270E-06-1.99550E-18-8.44399E-19
 -1      2599 8.92281E-05-1.66755E-05-3.11081E-05-1.18649E-05-2.29294E-18-1.17495E-18
 -1      2600 9.34691E-05-2.44256E-05-2.96124E-05 6.51275E-06 2.22960E-18 1.34525E-18
 -1      2601 9.44156E-05-2.31340E-05-3.05691E-05 9.47677E-06 2.40458E-18 1.65362E-18
 -1      2602 9.29774E-05-2.07842E-05-3.09949E-05 1.05446E-05 2.54972E-18 7.94808E-19
 -1      2603 9.31346E-05-2.35598E-05-2.98513E-05 6.46378E-06 2.24043E-18 3.33748E-19
 -1      2604 1.54138E-04-5.10680E-05-4.46459E-05 1.20134E-06-3.97073E-18-6.90946E-18
 -1      2605 1.47013E-04-5.67338E-05-3.87246E-05 8.88259E-06-5.35256E-18-6.69410E-18
 -1      2606 8.70054E-05-1.41642E-05-3.12080E-05-7.60648E-06-1.35736E-18-2.55082E-18
 -1      2607 8.59634E-05-1.24158E-05-3.15689E-05-8.69922E-06-1.45356E-18-2.70630E-18
 -1      2608 8.65214E-05-1.30952E-05-3.15274E-05-9.85008E-06-1.74234E-18-2.46097E-18
 -1      2609 9.24558E-05-2.62828E-05-2.83735E-05 8.24579E-07 1.50166E-18-5.15499E-20
 -1      2610 9.14754E-05-1.86613E-05-3.12493E-05 1.01783E-05 2.48129E-18-2.03764E-19
 -1      2611 1.50947E-04-4.58238E-05-4.51855E-05-8.70308E-06-2.90744E-18-7.48057E-18
 -1      2612 8.81168E-05-1.53365E-05-3.12306E-05-1.09328E-05-2.03851E-18-1.76641E-18
 -1      2613 6.47726E-05-3.14930E-05-3.98159E-05-5.80333E-05 1.39655E-16 1.80245E-16
 -1      2614 1.25683E-04-6.18203E-05-2.70368E-05 2.40835E-05-7.43642E-18-8.12950E-18
 -1      2615 1.14139E-04-5.95134E-05-2.29184E-05 3.27492E-05-5.03180E-18-7.24250E-18
 -1      2616 1.02984E-04-5.37603E-05-2.03893E-05 3.51083E-05-1.97316E-18-1.90191E-18
 -1      2617 6.99864E-05-4.04713E-05-1.23001E-05 3.87234E-05-6.07746E-19 1.60523E-18
 -1      2618 2.70531E-05-1.45555E-05-4.75234E-06-1.10832E-06-5.41982E-19 1.94627E-18
 -1      2619 9.53308E-05-2.84423E-05-2.86664E-05 2.89280E-07 4.72391E-19 2.51435E-18
 -1      2620 6.48192E-05-4.57702E-05-1.16331E-05-6.85490E-05 2.80549E-16-4.99843E-17
 -1      2621 9.53113E-05-2.83858E-05-2.86822E-05 3.47704E-07-3.74113E-20 1.41777E-18
 -1      2622 9.53548E-05-2.84465E-05-2.86732E-05-3.28011E-07 3.32771E-19 1.65590E-18
 -1      2623 9.52944E-05-2.83613E-05-2.86869E-05-3.79756E-07-6.44409E-19-1.55058E-18
 -1      2624 9.52987E-05-2.82999E-05-2.87126E-05-4.96494E-07-1.28916E-18-1.81385E-18
 -1      2625 9.54115E-05-2.84496E-05-2.86947E-05-4.07935E-07-9.22582E-20 1.11205E-18
 -1      2626 1.14923E-04-2.37027E-06-4.89462E-05-7.85239E-06-7.39693E-18 1.68805E-17
 -1      2627 1.29882E-04-3.90386E-05-3.90915E-05-5.28649E-06 1.83436E-18 9.66041E-18
 -1      2628 1.26159E-04-4.43678E-05-3.51367E-05-2.92690E-06 2.63761E-18 7.60985E-18
 -1      2629 1.24853E-04-3.23230E-05-4.00597E-05-1.17904E-05-4.58457E-19 1.08651E-17
 -1      2630 1.42900E-04-6.12467E-05-3.49191E-05 9.71001E-06-5.91134E-18-5.85935E-18
 -1      2631 9.19862E-05-2.01273E-05-3.07545E-05 8.25727E-06 2.30331E-18-3.96722E-19
 -1      2632 4.02197E-05-2.26830E-05-6.91093E-06 2.59929E-05-8.03940E-19 8.95949E-19
 -1      2633 8.06660E-05-7.27271E-05-2.78623E-05-1.18725E-04 3.26795E-16 1.01715E-16
 -1      2634 9.53164E-05-2.83224E-05-2.87102E-05 4.68607E-07 4.79588E-19 1.23228E-18
 -1      2635 3.77246E-05-2.20333E-05-6.17573E-06-2.80700E-05 4.89352E-18-5.35918E-18
 -1      2636 7.27372E-05-4.08546E-05-1.33046E-05-4.24331E-05 4.17863E-18-5.69894E-18
 -1      2637 8.80354E-05-4.60236E-05-1.79143E-05-3.97945E-05 2.00429E-18-4.89209E-18
 -1      2638 6.48240E-05-3.37203E-05-1.28005E-05-3.93537E-05 2.68806E-18-4.55683E-18
 -1      2639 1.00096E-04-5.32412E-05-1.98775E-05 3.01096E-05 6.46180E-18 6.13114E-18
 -1      2640 2.31702E-05-1.54397E-05-2.83553E-06-4.05329E-06 6.58785E-18-2.65015E-18
 -1      2641 1.21507E-04-2.18792E-05-4.84383E-05-4.37546E-06 1.60384E-17 4.30538E-17
 -1      2642 6.39593E-05-4.00545E-05-9.93690E-06 3.73010E-05 8.63042E-18 2.34925E-18
 -1      2643 5.63451E-05-3.34317E-05-9.24083E-06 3.54860E-05 7.36897E-18 1.39570E-18
 -1      2644 7.65982E-05-4.34011E-05-1.40751E-05 3.58861E-05 7.08607E-18 3.08976E-18
 -1      2645 1.44208E-04-5.70207E-05-3.73160E-05-1.37401E-05 5.38364E-18-5.12222E-18
 -1      2646 1.45674E-04-5.47898E-05-3.98718E-05-2.45313E-06 4.72740E-18-2.47111E-18
 -1      2647 1.39218E-04-6.00104E-05-3.38268E-05-1.40123E-05 2.95530E-18-2.60029E-18
 -1      2648 1.51712E-04-3.98813E-05-4.79901E-05 5.34094E-06 7.02815E-18-5.03180E-18
 -1      2649 1.43829E-04-2.11814E-05-5.28869E-05 9.25366E-06 6.38853E-18-7.79376E-18
 -1      2650 2.99703E-05-2.28253E-05-2.66135E-06 2.25176E-05 7.89054E-18-7.69529E-19
 -1      2651 3.00142E-05-1.73461E-05-4.87471E-06 1.72881E-05 5.75051E-18-1.22502E-18
 -1      2652 4.00935E-05-2.47058E-05-6.30282E-06 2.81887E-05 6.98813E-18 2.37169E-20
 -1      2653 1.17887E-04-3.28469E-06-5.12436E-05-1.89526E-06-5.69608E-18 2.50529E-17
 -1      2654 1.07625E-04 3.20696E-07-4.79432E-05 1.25012E-06-9.69832E-18 2.07742E-17
 -1      2655 1.11573E-04-4.62018E-06-4.86765E-05 1.46781E-06-5.11354E-18 2.77208E-17
 -1      2656 9.53920E-05-2.83787E-05-2.87222E-05-5.39594E-07-4.43605E-19 3.33880E-19
 -1      2657 1.34039E-04-1.25651E-05-5.25666E-05 5.10525E-07 5.18850E-18-8.32929E-18
 -1      2658 1.40891E-04-1.35421E-05-5.53271E-05-5.13919E-06 5.07902E-18-9.76989E-18
 -1      2659 8.76108E-05-1.45763E-05-3.13216E-05 1.69896E-06 1.00716E-18-2.54818E-18
 -1      2660 8.73319E-05-1.42664E-05-3.13345E-05 8.08871E-07 7.62642E-19-2.61629E-18
 -1      2661 8.71019E-05-1.40176E-05-3.13408E-05 2.11229E-08 5.16223E-19-2.67798E-18
 -1      2662 8.69422E-05-1.38853E-05-3.13296E-05-8.78785E-07 3.17930E-19-2.63410E-18
 -1      2663 8.82704E-05-1.58243E-05-3.10349E-05 1.96156E-07 5.80121E-19-2.47107E-18
 -1      2664 8.94776E-05-1.70826E-05-3.10622E-05 4.90596E-06 1.78357E-18-1.86678E-18
 -1      2665 8.89002E-05-1.62699E-05-3.11505E-05 4.07045E-06 1.60087E-18-2.03316E-18
 -1      2666 9.09391E-05-1.93036E-05-3.07404E-05 6.08840E-06 2.06472E-18-1.50614E-18
 -1      2667 9.01423E-05-1.80642E-05-3.09086E-05 5.47939E-06 1.93027E-18-1.69546E-18
 -1      2668 9.07718E-05-1.93168E-05-3.06015E-05 4.18426E-06 1.70939E-18-1.58136E-18
 -1      2669 9.27373E-05-2.47711E-05-2.91378E-05 2.75832E-06 1.72806E-18-5.56712E-19
 -1      2670 9.29529E-05-2.39442E-05-2.95436E-05 4.34251E-06 1.87505E-18-4.21631E-19
 -1      2671 5.05556E-05-2.41921E-05-1.09355E-05 3.02417E-05-8.32210E-19 5.30031E-19
 -1      2672 3.90988E-05-1.68939E-05-8.95714E-06 1.94606E-05-1.12984E-18 1.02364E-18
 -1      2673 9.27125E-05-2.60128E-05-2.85877E-05 5.82892E-07 1.39230E-18-5.35524E-19
 -1      2674 9.28441E-05-2.55248E-05-2.88167E-05 1.58216E-06 1.56330E-18-4.94197E-19
 -1      2675 9.27881E-05-2.43682E-05-2.93213E-05 2.47311E-06 1.64080E-18-1.06739E-18
 -1      2676 9.20561E-05-2.13912E-05-3.02908E-05 6.47895E-06 2.12901E-18-6.23214E-19
 -1      2677 8.88703E-05-1.70172E-05-3.07927E-05-9.42491E-06-1.90100E-18-1.70266E-18
 -1      2678 1.33546E-04-1.44923E-05-5.12496E-05-9.07961E-06 3.80847E-18-1.02771E-17
 -1      2679 9.10261E-05-2.45298E-05-2.84695E-05-3.29543E-06-1.41410E-18-9.07218E-19
 -1      2680 9.07987E-05-2.50559E-05-2.81859E-05-2.27729E-06-1.07565E-18-9.68343E-19
 -1      2681 9.07654E-05-2.55177E-05-2.79409E-05-1.48741E-06-9.01422E-19-9.13005E-19
 -1      2682 9.05799E-05-2.58196E-05-2.77588E-05-8.21126E-07-8.94159E-19-1.07450E-18
 -1      2683 9.10194E-05-2.48450E-05-2.83655E-05-2.19667E-06-1.07778E-18-1.05746E-18
 -1      2684 9.04867E-05-2.60683E-05-2.75930E-05-2.75714E-07-8.94408E-19-1.10259E-18
 -1      2685 9.03663E-05-2.62394E-05-2.74834E-05 1.67955E-07-7.47730E-19-1.13354E-18
 -1      2686 9.09013E-05-2.57140E-05-2.79449E-05-7.93639E-07-9.10412E-19-1.24809E-18
 -1      2687 9.02647E-05-2.63630E-05-2.73773E-05 5.50406E-07-5.51224E-19-1.08968E-18
 -1      2688 9.02065E-05-2.64552E-05-2.73197E-05 8.60285E-07-6.40430E-19-1.10160E-18
 -1      2689 9.07183E-05-2.61899E-05-2.76622E-05 1.92489E-07-7.19313E-19-1.24566E-18
 -1      2690 9.01144E-05-2.65004E-05-2.72583E-05 1.14523E-06-7.51235E-19-9.72043E-19
 -1      2691 9.01098E-05-2.65428E-05-2.72388E-05 1.38412E-06-6.10212E-19-1.12381E-18
 -1      2692 9.05352E-05-2.64208E-05-2.74837E-05 9.04882E-07-7.23608E-19-1.16306E-18
 -1      2693 9.00335E-05-2.65375E-05-2.72107E-05 1.62201E-06-6.44620E-19-1.03870E-18
 -1      2694 9.00753E-05-2.65493E-05-2.72198E-05 1.83396E-06-8.16710E-19-9.41697E-19
 -1      2695 9.03746E-05-2.64917E-05-2.73834E-05 1.46294E-06-6.02730E-19-1.07693E-18
 -1      2696 9.00177E-05-2.65128E-05-2.72166E-05 2.06186E-06-8.65946E-19-7.76748E-19
 -1      2697 9.01030E-05-2.65094E-05-2.72477E-05 2.27671E-06-8.55087E-19-6.61102E-19
 -1      2698 9.02460E-05-2.64589E-05-2.73414E-05 1.95720E-06-6.93584E-19-7.95101E-19
 -1      2699 9.00677E-05-2.64584E-05-2.72627E-05 2.52014E-06-1.04035E-18-3.64859E-19
 -1      2700 9.01981E-05-2.64554E-05-2.73108E-05 2.75580E-06-8.80241E-19-4.28318E-19
 -1      2701 9.01562E-05-2.63658E-05-2.73423E-05 2.45284E-06-8.25556E-19-1.85419E-19
 -1      2702 9.01920E-05-2.64075E-05-2.73383E-05 3.02955E-06-7.36392E-19-3.90179E-19
 -1      2703 9.03734E-05-2.64233E-05-2.73992E-05 3.29236E-06-5.48938E-19-6.19696E-19
 -1      2704 9.01160E-05-2.62535E-05-2.73731E-05 2.99235E-06-8.14023E-19-2.28356E-19
 -1      2705 9.04092E-05-2.64006E-05-2.74340E-05 3.60011E-06-6.08636E-19-4.81378E-19
 -1      2706 9.06527E-05-2.64588E-05-2.75037E-05 3.88356E-06-6.46606E-19-4.50356E-19
 -1      2707 9.01453E-05-2.61688E-05-2.74222E-05 3.59617E-06-7.50464E-19-3.12819E-19
 -1      2708 9.07514E-05-2.64911E-05-2.75406E-05 4.21613E-06-5.79445E-19-5.39841E-19
 -1      2709 9.10733E-05-2.66229E-05-2.76145E-05 4.49827E-06-3.57526E-19-7.33654E-19
 -1      2710 9.02776E-05-2.61719E-05-2.74785E-05 4.26095E-06-5.09931E-19-7.82412E-20
 -1      2711 9.12681E-05-2.67501E-05-2.76484E-05 4.83032E-06-2.41724E-19-5.71594E-19
 -1      2712 9.16907E-05-2.69954E-05-2.77215E-05 5.07000E-06-2.86207E-19-5.41394E-19
 -1      2713 9.05667E-05-2.63425E-05-2.75313E-05 4.95510E-06-3.92692E-19-3.40817E-19
 -1      2714 9.20301E-05-2.72688E-05-2.77482E-05 5.35509E-06-4.60175E-19-2.60344E-19
 -1      2715 9.25802E-05-2.76733E-05-2.78158E-05 5.48798E-06-3.37962E-19-2.91536E-19
 -1      2716 9.10934E-05-2.67846E-05-2.75710E-05 5.61117E-06-3.06516E-19 6.84244E-21
 -1      2717 9.31290E-05-2.81513E-05-2.78344E-05 5.65188E-06-4.13348E-19-2.81743E-19
 -1      2718 9.38326E-05-2.87574E-05-2.78939E-05 5.58811E-06-7.24372E-19-4.93076E-19
 -1      2719 9.19706E-05-2.76235E-05-2.75927E-05 6.11477E-06-4.26926E-19 1.71787E-19
 -1      2720 9.46644E-05-2.94897E-05-2.79103E-05 5.52158E-06-7.21249E-19-6.06167E-19
 -1      2721 9.55314E-05-3.03111E-05-2.79653E-05 5.14909E-06-9.17335E-19-4.55694E-19
 -1      2722 9.33377E-05-2.89849E-05-2.76023E-05 6.29012E-06-9.24602E-19 2.35580E-19
 -1      2723 9.67029E-05-3.13030E-05-2.79977E-05 4.70459E-06-1.03458E-18-1.41670E-19
 -1      2724 9.76954E-05-3.22766E-05-2.80626E-05 3.90731E-06-9.92800E-19-6.62274E-20
 -1      2725 9.53311E-05-3.09390E-05-2.76269E-05 5.88589E-06-7.16246E-19 4.20607E-19
 -1      2726 9.91875E-05-3.34225E-05-2.81488E-05 2.91452E-06-9.28772E-19 5.54138E-19
 -1      2727 1.00172E-04-3.43360E-05-2.82532E-05 1.61956E-06-8.13175E-19 3.73054E-19
 -1      2728 9.80018E-05-3.33828E-05-2.77282E-05 4.57748E-06-6.97581E-19 1.02670E-18
 -1      2729 1.01788E-04-3.53246E-05-2.84526E-05-4.30867E-08-7.49383E-19 5.00278E-19
 -1      2730 1.02493E-04-3.57554E-05-2.86423E-05-1.76112E-06-8.41163E-19 6.21515E-19
 -1      2731 1.01156E-04-3.58510E-05-2.80136E-05 2.03287E-06-7.47405E-19 1.20678E-18
 -1      2732 1.03751E-04-3.60111E-05-2.90309E-05-3.98302E-06-1.03971E-18 1.00929E-18
 -1      2733 1.03810E-04-3.53807E-05-2.93511E-05-5.75233E-06-1.40392E-18 1.09889E-18
 -1      2734 1.04125E-04-3.72938E-05-2.86355E-05-1.86612E-06-8.96900E-19 1.46016E-18
 -1      2735 1.04061E-04-3.42497E-05-2.99729E-05-7.93097E-06-2.13191E-18 1.69339E-18
 -1      2736 1.03173E-04-3.21303E-05-3.04317E-05-8.99872E-06-3.23275E-18 1.98786E-18
 -1      2737 1.05747E-04-3.62937E-05-2.97394E-05-6.47610E-06-1.54129E-18 1.97514E-18
 -1      2738 1.01859E-04-2.92173E-05-3.12403E-05-9.94950E-06-4.45290E-18 2.19700E-18
 -1      2739 1.00274E-04-2.59396E-05-3.17550E-05-9.25376E-06-5.11264E-18 1.82024E-18
 -1      2740 1.04770E-04-3.15422E-05-3.13332E-05-1.01005E-05-3.79897E-18 3.42370E-18
 -1      2741 9.78225E-05-2.24161E-05-3.25016E-05-7.32532E-06-5.83038E-18 2.01557E-18
 -1      2742 9.65382E-05-1.94761E-05-3.29176E-05-4.55527E-06-6.87791E-18 1.48576E-18
 -1      2743 1.00590E-04-2.31646E-05-3.31277E-05-9.83032E-06-5.93113E-18 3.44705E-18
 -1      2744 9.45906E-05-1.70188E-05-3.33736E-05-3.66386E-09-8.23702E-18 8.22654E-19
 -1      2745 9.44102E-05-1.61877E-05-3.35833E-05 4.34285E-06-9.06966E-18-4.37638E-19
 -1      2746 9.65516E-05-1.60158E-05-3.44725E-05-3.41252E-06-8.50830E-18 3.39660E-18
 -1      2747 9.43326E-05-1.65134E-05-3.36631E-05 1.01404E-05-1.06603E-17-2.07777E-18
 -1      2748 9.58425E-05-1.84603E-05-3.37640E-05 1.43546E-05-1.14128E-17-4.56471E-18
 -1      2749 9.41542E-05-1.33573E-05-3.49020E-05 7.60921E-06-1.20189E-17 1.47453E-18
 -1      2750 9.78124E-05-2.11507E-05-3.37972E-05 1.85532E-05-1.15963E-17-8.10801E-18
 -1      2751 1.00474E-04-2.44358E-05-3.40332E-05 2.12041E-05-1.02512E-17-1.15534E-17
 -1      2752 9.59940E-05-1.72021E-05-3.49278E-05 1.84279E-05-1.50012E-17-4.33766E-18
 -1      2753 1.02368E-04-2.69231E-05-3.41761E-05 2.22564E-05-8.50718E-18-1.71406E-17
 -1      2754 1.05029E-04-2.78461E-05-3.44652E-05 2.25796E-05-5.49767E-18-2.02404E-17
 -1      2755 1.00198E-04-2.39955E-05-3.51919E-05 2.37690E-05-1.32798E-17-1.27913E-17
 -1      2756 1.04633E-04-2.78732E-05-3.35661E-05 2.94328E-05-2.64121E-18-2.95904E-17
 -1      2757 1.12920E-04-3.35180E-05-3.40559E-05 2.84263E-05 4.18297E-18-3.63472E-17
 -1      2758 9.80126E-05-2.32552E-05-3.41810E-05 3.00593E-05-1.32942E-17-2.78946E-17
 -1      2759 1.37784E-04-5.35253E-05-3.49104E-05 2.68587E-05-3.80720E-18-6.87037E-17
 -1      2760 9.89539E-05-3.76552E-05-3.62145E-05 1.88300E-05-3.19744E-18 1.00085E-17
 -1      2761 1.12421E-04-4.12243E-05-3.22580E-05 5.16902E-05-1.14781E-17-5.48119E-17
 -1      2762 1.21793E-04 2.73492E-05-3.36619E-05-8.95310E-05 3.64844E-16-1.54113E-16
 -1      2763-3.50151E-05 1.54532E-05-1.92236E-05-3.23177E-05 3.78550E-16 3.93206E-16
 -1      2764 3.23253E-04-1.22463E-04-3.48538E-05 5.98545E-05-7.84530E-17-4.16246E-16
 -1      2765-3.99084E-05 4.28150E-05 2.17005E-06 8.44373E-05-6.33377E-17 2.75550E-16
 -1      2766 1.42025E-05-3.47855E-06 4.93436E-06 1.35215E-04-2.85081E-16 2.44257E-16
 -1      2767-2.95150E-04 1.55293E-04 1.08990E-05 6.18692E-05-7.92145E-18 7.44024E-16
 -1      2768 1.12117E-04-1.35480E-04 8.39810E-06 2.74581E-04-1.22270E-15 1.28885E-17
 -1      2769 3.57469E-04-6.78363E-05-3.63640E-05 2.50341E-04-1.17049E-15-1.16500E-15
 -1      2770-3.47332E-04 1.67685E-04 4.28705E-05 1.76456E-05 1.26787E-16 7.86778E-16
 -1      2771 2.63602E-04-5.01513E-05-8.99436E-05 7.93898E-05-1.80396E-16-5.40920E-16
 -1      2772 3.32336E-04-6.43347E-05-6.61266E-05 5.40762E-05-1.43166E-16-7.24755E-16
 -1      2773 7.67051E-04-2.67583E-04-5.69694E-05-3.04276E-05 5.32352E-17-1.92877E-15
 -1      2774 1.71029E-04-2.33379E-05-3.19636E-05 2.09351E-05-1.12515E-16-1.92117E-16
 -1      2775 9.87070E-05-2.94114E-05-2.96885E-05-5.36166E-06 9.27212E-19-8.42102E-19
 -1      2776 2.82608E-04-5.60833E-05-6.21512E-05-7.52918E-06-8.85149E-20-4.96900E-16
 -1      2777 9.82411E-05-2.90467E-05-2.96519E-05-5.10594E-06 1.27617E-18-1.26564E-18
 -1      2778 9.77499E-05-2.87334E-05-2.95739E-05-4.88560E-06 1.32991E-18-1.36188E-18
 -1      2779 9.74761E-05-2.88352E-05-2.94289E-05-5.72449E-06 4.84807E-19-1.35472E-18
 -1      2780 9.74439E-05-2.85292E-05-2.95296E-05-4.55252E-06 2.29261E-18-1.10331E-18
 -1      2781 9.70595E-05-2.83412E-05-2.94493E-05-4.26211E-06 2.33159E-18-3.79849E-19
 -1      2782 9.67129E-05-2.82067E-05-2.93671E-05-5.09343E-06 1.92736E-18-3.58286E-19
 -1      2783 9.68605E-05-2.82460E-05-2.93998E-05-3.90619E-06 1.20696E-18-1.56926E-20
 -1      2784 9.65600E-05-2.81442E-05-2.93215E-05-3.59472E-06 7.83207E-19 6.63065E-19
 -1      2785 9.62136E-05-2.78828E-05-2.92894E-05-4.37333E-06 1.85133E-18-3.99160E-19
 -1      2786 9.64304E-05-2.81174E-05-2.92702E-05-3.24992E-06 3.37405E-19-1.23492E-19
 -1      2787 9.61956E-05-2.80714E-05-2.91974E-05-2.94829E-06-1.65444E-19 4.80669E-19
 -1      2788 9.58888E-05-2.77590E-05-2.92017E-05-3.64841E-06 2.93430E-19-1.11280E-18
 -1      2789 9.61101E-05-2.80838E-05-2.91476E-05-2.63384E-06-6.02256E-19 1.21559E-18
 -1      2790 9.59270E-05-2.80713E-05-2.90826E-05-2.35944E-06-1.11578E-19 7.56002E-19
 -1      2791 9.56764E-05-2.77566E-05-2.91108E-05-2.96940E-06-1.60805E-19-1.15951E-18
 -1      2792 9.58691E-05-2.81031E-05-2.90367E-05-2.08437E-06 3.52770E-19 1.30155E-18
 -1      2793 9.57265E-05-2.81089E-05-2.89807E-05-1.84501E-06 1.25772E-18 1.61414E-18
 -1      2794 9.55353E-05-2.78198E-05-2.90227E-05-2.36321E-06 4.38112E-19-9.97265E-20
 -1      2795 9.56856E-05-2.81471E-05-2.89400E-05-1.61151E-06 2.13910E-18 1.39116E-18
 -1      2796 9.55749E-05-2.81608E-05-2.88932E-05-1.40869E-06 2.43553E-18 1.17826E-18
 -1      2797 9.54385E-05-2.79113E-05-2.89417E-05-1.84046E-06 1.45576E-18 8.24566E-19
 -1      2798 9.55437E-05-2.81973E-05-2.88584E-05-1.21466E-06 1.86709E-18-3.70979E-19
 -1      2799 9.54579E-05-2.82127E-05-2.88205E-05-1.04577E-06 9.21714E-19-9.69320E-19
 -1      2800 9.53685E-05-2.80072E-05-2.88702E-05-1.40097E-06 1.24448E-18-2.45071E-18
 -1      2801 9.54318E-05-2.82438E-05-2.87916E-05-8.87540E-07 6.25078E-19-4.61012E-20
 -1      2802 9.53656E-05-2.82559E-05-2.87615E-05-7.48898E-07 2.34311E-19-1.42555E-18
 -1      2803 9.53137E-05-2.80951E-05-2.88093E-05-1.03759E-06 7.95613E-19-2.27651E-18
 -1      2804 1.05776E-04-3.58148E-07-4.63612E-05-3.51776E-06-9.54903E-18 1.61807E-17
 -1      2805 1.09074E-04-4.23465E-06-4.55296E-05-9.12662E-06-7.90981E-18 1.42508E-17
 -1      2806 9.27903E-05-2.71492E-05-2.81288E-05-1.81923E-06 9.19991E-19-5.52503E-19
 -1      2807 9.27148E-05-2.69557E-05-2.81665E-05-1.40751E-06 1.12561E-18-3.81663E-19
 -1      2808 9.37442E-05-2.77098E-05-2.82923E-05-3.41708E-06 4.50842E-19-4.22599E-19
 -1      2809 9.34500E-05-2.76369E-05-2.82044E-05-3.20925E-06 3.17944E-19-5.19374E-19
 -1      2810 9.42391E-05-2.77744E-05-2.84751E-05-3.88060E-06 5.24223E-19-4.54145E-19
 -1      2811 9.38917E-05-2.77180E-05-2.83613E-05-3.65271E-06 5.97877E-19-2.82800E-19
 -1      2812 9.37538E-05-2.75593E-05-2.83737E-05-3.81110E-06 5.30566E-19-7.59070E-19
 -1      2813 9.48096E-05-2.78074E-05-2.87037E-05-4.42348E-06 7.88379E-19-3.06464E-19
 -1      2814 9.44091E-05-2.77599E-05-2.85669E-05-4.14935E-06 6.45246E-19-2.44634E-19
 -1      2815 9.40737E-05-2.75362E-05-2.85198E-05-4.34442E-06 5.87220E-19-3.04722E-19
 -1      2816 9.54578E-05-2.78251E-05-2.89722E-05-5.08873E-06 5.16649E-19-3.02604E-19
 -1      2817 9.49995E-05-2.77771E-05-2.88139E-05-4.74975E-06 7.43493E-19-2.59859E-19
 -1      2818 9.44341E-05-2.74609E-05-2.87057E-05-4.96628E-06 7.46381E-19-1.74030E-19
 -1      2819 9.61933E-05-2.78502E-05-2.92751E-05-5.90360E-06 2.56847E-19-5.49235E-19
 -1      2820 9.56680E-05-2.77879E-05-2.90968E-05-5.48966E-06 4.10919E-19-2.77013E-19
 -1      2821 9.48336E-05-2.73539E-05-2.89221E-05-5.71961E-06 4.90551E-19-3.99555E-19
 -1      2822 9.70357E-05-2.79211E-05-2.96046E-05-6.87505E-06 7.32502E-20-6.85202E-19
 -1      2823 9.64293E-05-2.78218E-05-2.94090E-05-6.38794E-06 2.00484E-19-4.88455E-19
 -1      2824 9.52783E-05-2.72459E-05-2.91586E-05-6.63110E-06 2.48342E-19-2.37937E-19
 -1      2825 9.80233E-05-2.81051E-05-2.99486E-05-7.97985E-06 3.92651E-19-6.99625E-19
 -1      2826 9.73135E-05-2.79306E-05-2.97410E-05-7.43994E-06 2.04489E-19-6.61829E-19
 -1      2827 9.57896E-05-2.71897E-05-2.94019E-05-7.70748E-06 2.48015E-19-7.92437E-19
 -1      2828 9.92281E-05-2.85183E-05-3.02888E-05-9.14805E-06 5.81939E-19-5.69329E-19
 -1      2829 9.83788E-05-2.82047E-05-3.00781E-05-8.60494E-06 4.49189E-19-4.41412E-19
 -1      2830 9.64174E-05-2.72793E-05-2.96340E-05-8.92768E-06 3.75235E-19-4.03902E-19
 -1      2831 1.00783E-04-2.93513E-05-3.06014E-05-1.02379E-05 4.30174E-19 1.44269E-19
 -1      2832 9.97342E-05-2.87976E-05-3.03998E-05-9.78573E-06 5.54355E-19-3.49147E-19
 -1      2833 9.72661E-05-2.76759E-05-2.98323E-05-1.02300E-05 4.16545E-19-6.83090E-20
 -1      2834 1.02917E-04-3.08893E-05-3.08631E-05-1.10003E-05-8.36252E-19 9.60052E-19
 -1      2835 1.01574E-04-2.99517E-05-3.06831E-05-1.07972E-05-1.33818E-19 8.50246E-19
 -1      2836 9.85354E-05-2.86401E-05-2.99732E-05-1.14911E-05-4.12066E-19 8.72058E-19
 -1      2837 1.05981E-04-3.34962E-05-3.10713E-05-1.10340E-05-7.17872E-19 1.05961E-18
 -1      2838 1.04217E-04-3.20079E-05-3.09152E-05-1.13205E-05-7.60819E-19 1.09364E-18
 -1      2839 1.00573E-04-3.05539E-05-3.00450E-05-1.24904E-05-7.89077E-19 1.38934E-18
 -1      2840 1.10399E-04-3.74541E-05-3.12906E-05-9.71885E-06-5.97168E-19 7.78741E-19
 -1      2841 1.08121E-04-3.53446E-05-3.11268E-05-1.08219E-05-7.50037E-19 6.25852E-19
 -1      2842 1.03929E-04-3.39005E-05-3.00805E-05-1.28412E-05-4.62099E-19 1.40093E-18
 -1      2843 1.16379E-04-4.24989E-05-3.17207E-05-6.23368E-06-7.62790E-19 8.48524E-19
 -1      2844 1.13685E-04-4.00649E-05-3.14569E-05-8.49659E-06-5.32931E-19 9.16301E-19
 -1      2845 1.09284E-04-3.89872E-05-3.02329E-05-1.18049E-05-6.33827E-19 8.66559E-19
 -1      2846 1.23363E-04-4.70786E-05-3.27692E-05 7.78334E-08-2.16840E-19 6.73788E-19
 -1      2847 1.20804E-04-4.53926E-05-3.22152E-05-3.44173E-06-7.40886E-19 4.88414E-19
 -1      2848 1.16965E-04-4.52896E-05-3.08533E-05-8.37642E-06-4.26481E-19 5.48884E-19
 -1      2849 1.28840E-04-4.73511E-05-3.50923E-05 8.55784E-06-2.89103E-19 1.30023E-18
 -1      2850 1.27826E-04-4.84214E-05-3.40077E-05 4.77453E-06-9.52383E-20 1.07408E-18
 -1      2851 1.26342E-04-5.02975E-05-3.26035E-05-8.51648E-07-4.36315E-19 5.21789E-19
 -1      2852 1.29785E-04-3.87995E-05-3.90639E-05 1.57639E-05 1.07679E-19-5.38951E-19
 -1      2853 1.31714E-04-4.49389E-05-3.73802E-05 1.38444E-05 1.59282E-19 6.79532E-19
 -1      2854 1.34011E-04-4.95297E-05-3.64899E-05 8.46248E-06 2.46540E-19 2.90268E-19
 -1      2855 1.23411E-04-1.71168E-05-4.59259E-05-5.73823E-06 3.90376E-18-6.35767E-18
 -1      2856 1.23422E-04-1.72796E-05-4.59240E-05 2.75926E-06 3.55119E-18-5.55175E-18
 -1      2857 1.25327E-04-2.10383E-05-4.51178E-05-1.25982E-05 3.75818E-18-6.71454E-18
 -1      2858 1.31843E-04-4.05438E-05-3.94985E-05-1.88305E-05-8.75700E-19-5.44179E-18
 -1      2859 1.29239E-04-3.35800E-05-4.12191E-05-1.85416E-05 1.57871E-18-5.67287E-18
 -1      2860 1.31244E-04-4.84690E-05-3.55296E-05-1.06109E-05-2.22147E-18-4.43066E-18
 -1      2861 1.31213E-04-4.55166E-05-3.68491E-05-1.45123E-05-2.04577E-18-4.72752E-18
 -1      2862 1.36393E-04-4.62112E-05-3.87670E-05-1.50249E-05-1.57797E-18-4.92518E-18
 -1      2863 1.25104E-04-4.73198E-05-3.30567E-05-4.73972E-07-1.57866E-18-3.40990E-18
 -1      2864 1.27064E-04-4.82561E-05-3.38685E-05-4.94605E-06-1.92562E-18-3.74579E-18
 -1      2865 1.30791E-04-5.15056E-05-3.40938E-05-4.39128E-06-2.66649E-18-4.86290E-18
 -1      2866 1.16320E-04-4.20466E-05-3.14017E-05 6.71094E-06-1.68118E-18-1.47781E-18
 -1      2867 1.20145E-04-4.45573E-05-3.21078E-05 3.87136E-06-1.69264E-18-2.39234E-18
 -1      2868 1.22300E-04-4.85680E-05-3.14903E-05 5.13307E-06-2.64212E-18-3.78010E-18
 -1      2869 1.09340E-04-3.67119E-05-3.10452E-05 9.80819E-06-1.10982E-18-7.37261E-19
 -1      2870 1.11766E-04-3.90847E-05-3.11840E-05 8.32286E-06-1.06407E-18-7.90841E-19
 -1      2871 1.10978E-04-4.10607E-05-3.01401E-05 1.01913E-05-1.58383E-18-2.33126E-18
 -1      2872 1.05060E-04-3.28228E-05-3.09159E-05 1.08031E-05-1.23120E-18-1.28476E-18
 -1      2873 1.06917E-04-3.45631E-05-3.10231E-05 1.03028E-05-1.08507E-18-9.46028E-19
 -1      2874 1.05140E-04-3.53534E-05-2.99889E-05 1.20675E-05-1.09177E-18-2.26624E-18
 -1      2875 1.02235E-04-3.03500E-05-3.07894E-05 1.04526E-05 6.24741E-19-1.13733E-18
 -1      2876 1.03611E-04-3.14649E-05-3.09183E-05 1.05777E-05-3.79486E-19-1.15138E-18
 -1      2877 1.01342E-04-3.13441E-05-3.00458E-05 1.20483E-05-7.56317E-19-2.01441E-18
 -1      2878 1.00394E-04-2.89632E-05-3.06084E-05 9.41829E-06-2.50755E-19-7.02055E-19
 -1      2879 1.01417E-04-2.96121E-05-3.07633E-05 9.88117E-06 1.02121E-19-5.02471E-19
 -1      2880 9.91346E-05-2.89797E-05-3.00897E-05 1.10934E-05-2.98257E-19-1.20418E-18
 -1      2881 9.91535E-05-2.82742E-05-3.03784E-05 8.10956E-06 4.48223E-19-3.73927E-19
 -1      2882 9.99349E-05-2.86237E-05-3.05473E-05 8.71547E-06 2.67819E-19-3.56932E-19
 -1      2883 9.78897E-05-2.77762E-05-3.00586E-05 9.73751E-06-3.29881E-19-1.78083E-18
 -1      2884 9.82669E-05-2.79882E-05-3.01236E-05 6.76198E-06-6.90283E-19-1.20383E-18
 -1      2885 9.88815E-05-2.81614E-05-3.02923E-05 7.39266E-06 3.64408E-19-3.04238E-19
 -1      2886 9.71722E-05-2.72830E-05-2.99562E-05 8.27023E-06 4.62486E-19-1.38249E-18
 -1      2887 9.75955E-05-2.79152E-05-2.98676E-05 5.50159E-06-6.34207E-19-2.03324E-18
 -1      2888 9.80881E-05-2.79911E-05-3.00254E-05 6.09249E-06-9.01230E-19-1.68744E-18
 -1      2889 9.67260E-05-2.71804E-05-2.98067E-05 6.84938E-06-7.37951E-20-2.36081E-18
 -1      2890 9.70658E-05-2.79445E-05-2.96277E-05 4.38735E-06-1.22448E-18-2.12799E-18
 -1      2891 9.74632E-05-2.79694E-05-2.97681E-05 4.90838E-06-1.01329E-18-1.90028E-18
 -1      2892 9.64160E-05-2.72693E-05-2.96352E-05 5.55658E-06-3.66902E-19-3.37384E-18
 -1      2893 9.66389E-05-2.80155E-05-2.94136E-05 3.43844E-06-1.11401E-18-1.92876E-18
 -1      2894 9.69588E-05-2.80152E-05-2.95340E-05 3.88012E-06-1.66710E-18-2.90210E-18
 -1      2895 9.61773E-05-2.74365E-05-2.94615E-05 4.42778E-06-1.34216E-18-1.91491E-18
 -1      2896 9.62933E-05-2.80970E-05-2.92297E-05 2.65152E-06 6.87864E-19-3.03031E-18
 -1      2897 9.65485E-05-2.80856E-05-2.93299E-05 3.01587E-06 2.68590E-19-2.19521E-18
 -1      2898 9.59810E-05-2.76217E-05-2.92982E-05 3.47122E-06-3.12959E-19-2.60410E-18
 -1      2899 9.60146E-05-2.81740E-05-2.90766E-05 2.01147E-06 4.79361E-19-3.00462E-18
 -1      2900 9.62159E-05-2.81590E-05-2.91579E-05 2.30633E-06 6.10861E-19-2.80554E-18
 -1      2901 9.58150E-05-2.77958E-05-2.91526E-05 2.67886E-06 1.13120E-18-3.30052E-18
 -1      2902 9.57917E-05-2.82396E-05-2.89524E-05 1.49831E-06 1.37477E-18-1.00898E-18
 -1      2903 9.59487E-05-2.82252E-05-2.90168E-05 1.73378E-06 6.67309E-19-2.11233E-18
 -1      2904 9.56741E-05-2.79463E-05-2.90278E-05 2.03394E-06 2.35316E-20-2.15911E-18
 -1      2905 9.56148E-05-2.82907E-05-2.88540E-05 1.09023E-06 1.32590E-18 4.84645E-19
 -1      2906 9.57355E-05-2.82790E-05-2.89039E-05 1.27713E-06 1.90613E-18-2.97649E-19
 -1      2907 9.55547E-05-2.80685E-05-2.89242E-05 1.51625E-06 9.27694E-19-1.62504E-18
 -1      2908 9.54770E-05-2.83274E-05-2.87776E-05 7.67229E-07 1.44207E-18 2.95208E-19
 -1      2909 9.55668E-05-2.83199E-05-2.88155E-05 9.13551E-07 1.16420E-18 1.16064E-18
 -1      2910 9.54517E-05-2.81612E-05-2.88403E-05 1.10411E-06 1.01122E-18-1.43224E-18
 -1      2911 9.53586E-05-2.83260E-05-2.87270E-05 5.50944E-07 9.54146E-19 7.06450E-19
 -1      2912 9.54246E-05-2.83189E-05-2.87560E-05 6.71373E-07 1.18575E-18 7.02693E-19
 -1      2913 9.53517E-05-2.82020E-05-2.87819E-05 8.19105E-07 7.14970E-19-9.57962E-19
 -1      2914 9.52670E-05-2.82058E-05-2.87437E-05 6.26684E-07 4.08176E-19 5.69896E-19
 -1      2915 5.49046E-05-2.83849E-05-1.08041E-05-6.05005E-05 2.80122E-16-4.82541E-17
 -1      2916 7.51555E-05-4.52788E-05-1.77357E-05-7.66549E-05 2.82865E-16-4.04018E-17
 -1      2917 9.45921E-05-2.74201E-05-2.87898E-05 5.53399E-08 8.21080E-19-1.62686E-18
 -1      2918 9.46060E-05-2.74340E-05-2.87891E-05 1.72476E-07 1.09672E-18-1.80447E-18
 -1      2919 3.56672E-05-1.68484E-05-7.47942E-06-2.17143E-05 3.76061E-18-4.58922E-18
 -1      2920 4.70618E-05-2.31670E-05-9.89726E-06-3.17098E-05 3.05948E-18-5.11502E-18
 -1      2921 9.47528E-05-2.75967E-05-2.87842E-05 5.13688E-07 1.27975E-18 1.49646E-18
 -1      2922 9.48260E-05-2.76743E-05-2.87787E-05 5.83000E-07 1.69579E-18 1.07906E-18
 -1      2923 9.46160E-05-2.74480E-05-2.87871E-05-2.00787E-07 2.34540E-19-2.58956E-18
 -1      2924 9.45962E-05-2.74267E-05-2.87890E-05-8.55874E-08 6.45061E-19-2.08796E-18
 -1      2925 9.44858E-05-2.73037E-05-2.87892E-05-2.02966E-08 3.47789E-19-2.17304E-18
 -1      2926 9.46390E-05-2.74711E-05-2.87889E-05 3.05916E-07 9.23457E-19-4.40415E-19
 -1      2927 9.46856E-05-2.75192E-05-2.87857E-05 4.07369E-07 1.18032E-18 1.32062E-18
 -1      2928 9.46330E-05-2.74504E-05-2.87899E-05 5.25349E-07 1.48033E-18 1.28919E-18
 -1      2929 9.45190E-05-2.73344E-05-2.87903E-05 2.70377E-07 1.43557E-19-5.55956E-19
 -1      2930 8.41714E-05-4.52513E-05-1.65077E-05 3.92007E-05-7.70588E-19 2.71347E-18
 -1      2931 6.69923E-05-3.50407E-05-1.32839E-05 3.64204E-05-6.10393E-19 1.04799E-18
 -1      2932 9.47040E-05-2.75475E-05-2.87811E-05-4.22327E-07-6.97163E-19-1.85218E-18
 -1      2933 9.46548E-05-2.74954E-05-2.87854E-05-3.27145E-07-3.48309E-20-1.10985E-18
 -1      2934 9.45354E-05-2.73590E-05-2.87870E-05-3.03061E-07 1.14865E-20-2.58759E-18
 -1      2935 9.48466E-05-2.77097E-05-2.87719E-05-5.85427E-07 4.97856E-20-1.14991E-18
 -1      2936 9.47732E-05-2.76310E-05-2.87783E-05-5.20906E-07-1.49680E-19-2.09930E-18
 -1      2937 9.46590E-05-2.74919E-05-2.87836E-05-5.41497E-07-4.63613E-19-2.14973E-18
 -1      2938 9.50219E-05-2.79156E-05-2.87593E-05-6.61837E-07-1.51020E-18-4.49509E-19
 -1      2939 9.49376E-05-2.78194E-05-2.87677E-05-6.41446E-07-6.10882E-19-7.08819E-19
 -1      2940 9.48400E-05-2.76870E-05-2.87784E-05-7.05440E-07-2.08038E-19-1.47270E-18
 -1      2941 9.26962E-05-2.67189E-05-2.82749E-05-8.63143E-07 1.09872E-18-4.14931E-19
 -1      2942 9.27266E-05-2.64250E-05-2.83902E-05-2.28865E-07 1.16651E-18-3.88673E-19
 -1      2943 9.29416E-05-2.57772E-05-2.87906E-05 3.77806E-07 1.26420E-18-9.33876E-19
 -1      2944 9.30118E-05-2.66018E-05-2.84700E-05-1.06339E-06 1.14940E-18-5.91126E-19
 -1      2945 3.24418E-05-1.26314E-05-7.95866E-06 7.43247E-06-1.20157E-18 7.59365E-19
 -1      2946 3.27952E-05-1.24673E-05-8.21726E-06-8.24863E-06-3.31878E-19 1.81583E-18
 -1      2947 1.44464E-04-5.85879E-05-3.71898E-05 4.25627E-07-5.08641E-18-4.81146E-18
 -1      2948 1.36911E-04-6.14073E-05-3.23122E-05 1.00121E-05-6.00875E-18-4.56297E-18
 -1      2949 1.12685E-04-2.38575E-05-4.60101E-05-3.70667E-06 1.72265E-17 5.32428E-17
 -1      2950 1.12453E-04-1.28519E-05-4.76241E-05-6.86597E-07 1.48527E-18 3.88365E-17
 -1      2951 9.53156E-05-2.82833E-05-2.87277E-05-5.77603E-07-8.48647E-19-1.74013E-18
 -1      2952 9.52478E-05-2.82004E-05-2.87346E-05-6.07439E-07-7.48540E-19-3.73511E-18
 -1      2953 9.53525E-05-2.82746E-05-2.87450E-05-6.58897E-07 1.60041E-19-2.05492E-18
 -1      2954 9.33293E-05-2.75988E-05-2.81636E-05-2.97450E-06 3.21389E-19-5.57712E-19
 -1      2955 9.30944E-05-2.75011E-05-2.81068E-05-2.75179E-06 4.35080E-19-6.38301E-19
 -1      2956 9.34802E-05-2.75112E-05-2.82784E-05-3.30737E-06 3.32672E-19-5.21944E-19
 -1      2957 9.30057E-05-2.74223E-05-2.81022E-05-2.47577E-06 5.64999E-19-6.44480E-19
 -1      2958 9.28425E-05-2.72878E-05-2.80854E-05-2.19101E-06 6.90511E-19-4.81900E-19
 -1      2959 9.32614E-05-2.73674E-05-2.82479E-05-2.75542E-06 5.52899E-19-6.18389E-19
 -1      2960 9.09912E-05-2.27218E-05-2.92475E-05-5.90402E-06-1.61092E-18-1.12984E-18
 -1      2961 9.08781E-05-2.36819E-05-2.88170E-05-4.38907E-06-1.52415E-18-1.11464E-18
 -1      2962 9.09422E-05-2.33825E-05-2.89634E-05-4.16583E-06-1.37787E-18-1.25082E-18
 -1      2963 2.45464E-05-1.51185E-05-3.81458E-05-6.34586E-05 7.17708E-17 3.69394E-16
 -1      2964 1.02350E-04-3.85222E-05-4.03528E-05-1.08718E-05 3.61683E-18 1.28674E-16
 -1      2965 8.83912E-05-1.55673E-05-3.12366E-05 3.36174E-06 1.46551E-18-2.26875E-18
 -1      2966 8.79727E-05-1.50365E-05-3.12808E-05 2.46700E-06 1.20703E-18-2.43342E-18
 -1      2967 8.88548E-05-1.65214E-05-3.09844E-05 1.66732E-06 1.04657E-18-2.30850E-18
 -1      2968 8.96924E-05-1.76606E-05-3.08510E-05 3.04329E-06 1.35576E-18-1.97079E-18
 -1      2969 8.71212E-05-1.46359E-05-3.10861E-05-4.93148E-06-5.81861E-19-2.53084E-18
 -1      2970 8.73754E-05-1.50876E-05-3.10067E-05-5.78408E-06-9.11051E-19-2.51002E-18
 -1      2971 1.07628E-04-5.43022E-05-2.29495E-05 2.45859E-05 4.79781E-18 5.77778E-18
 -1      2972 9.47557E-05-5.01842E-05-1.88255E-05 3.05817E-05 5.70434E-18 4.65053E-18
 -1      2973 1.34638E-04-2.29356E-05-4.87160E-05-1.58955E-05 2.16036E-18-9.63532E-18
 -1      2974 1.41652E-04-3.13863E-05-4.75618E-05-1.83716E-05-6.98802E-20-8.89353E-18
 -1      2975 1.40038E-04-2.57169E-05-4.93722E-05 1.39375E-05 4.99262E-18-6.33898E-18
 -1      2976 1.35141E-04-1.88603E-05-5.07337E-05 9.56631E-06 5.46654E-18-6.81221E-18
 -1      2977 1.48129E-04-4.72624E-05-4.33412E-05 6.84912E-06 5.35521E-18-3.32905E-18
 -1      2978 1.44123E-04-3.66160E-05-4.68445E-05 1.20045E-05 5.05086E-18-4.49785E-18
 -1      2979 1.10158E-04-5.52035E-05-2.33187E-05-3.32701E-05 2.25681E-18-3.01440E-18
 -1      2980 1.26467E-04-5.99733E-05-2.86478E-05-2.46727E-05 2.22643E-18-1.76892E-18
 -1      2981 2.80835E-05-1.28028E-05-5.99469E-06 3.45191E-06 4.90149E-18-1.73832E-18
 -1      2982 2.93605E-05-1.27704E-05-6.60993E-06-1.00551E-05 4.56254E-18-3.19120E-18
 -1      2983 1.06261E-04-7.26330E-05-2.56169E-05-9.08579E-05 3.91831E-16-1.56125E-17
 -1      2984 8.40134E-05-7.89180E-05-3.43211E-05-1.40567E-04 5.37805E-16 1.57487E-16
 -1      2985 1.22417E-04-5.21187E-05-3.04473E-05 6.55785E-06 3.67031E-18 5.41630E-18
 -1      2986 1.16839E-04-5.47920E-05-2.64070E-05 1.54035E-05 4.40214E-18 6.15359E-18
 -1      2987 1.13685E-04-1.24629E-05-4.41076E-05-1.34162E-05-5.40460E-18 1.36634E-17
 -1      2988 1.18514E-04-2.10937E-05-4.21269E-05-1.41937E-05-3.09675E-18 1.29618E-17
 -1      2989 1.18962E-04-4.52898E-05-4.13338E-05-1.32325E-05 5.74297E-17 6.58111E-17
 -1      2990 1.21191E-04-4.01402E-05-4.28854E-05-1.24281E-05 4.99495E-17 6.26466E-17
 -1      2991 8.85637E-05-1.71302E-05-3.05949E-05-5.47339E-06-9.56818E-19-2.16919E-18
 -1      2992 8.77289E-05-1.57151E-05-3.08863E-05-6.43887E-06-1.15715E-18-2.40911E-18
 -1      2993 8.81324E-05-1.64349E-05-3.07761E-05-7.22302E-06-1.46798E-18-2.27567E-18
 -1      2994 8.79399E-05-1.55332E-05-3.10187E-05-1.29948E-06 2.05342E-19-2.45085E-18
 -1      2995 8.68423E-05-1.38376E-05-3.13064E-05-1.66376E-06 1.58268E-19-2.61902E-18
 -1      2996 8.68062E-05-1.38801E-05-3.12735E-05-2.55554E-06-1.01140E-19-2.62486E-18
 -1      2997 9.17428E-05-2.09129E-05-3.03619E-05 5.77307E-06 2.03767E-18-1.14241E-18
 -1      2998 4.32145E-05-1.45695E-05-1.16663E-05 1.22040E-05-1.09167E-18 1.26631E-18
 -1      2999 1.14771E-04-3.78011E-05-3.46361E-05-2.12934E-05 1.43394E-17 5.68122E-17
 -1      3000 1.07207E-04-9.68435E-06-4.22464E-05-1.05324E-05-7.36516E-18 1.28824E-17
 -1      3001 1.24135E-04-4.85772E-05-3.23933E-05-3.43766E-07 2.95246E-18 6.39457E-18
 -1      3002 1.20086E-04-5.03304E-05-2.99116E-05 3.28153E-06 2.26806E-18 4.86779E-18
 -1      3003 1.21755E-04-4.30584E-05-3.41936E-05-6.66493E-06 1.09577E-18 7.71700E-18
 -1      3004 9.31074E-05-2.70899E-05-2.83024E-05-2.05256E-06 8.50354E-19-5.93366E-19
 -1      3005 1.32804E-04-6.22701E-05-3.00725E-05 1.51688E-05-5.26833E-18-3.74891E-18
 -1      3006 1.24178E-04-5.97486E-05-2.75126E-05 2.01955E-05-7.33086E-18-3.17966E-18
 -1      3007 1.35831E-04-5.99872E-05-3.25093E-05 5.89619E-06-4.47710E-18-2.14622E-18
 -1      3008 9.88016E-05-5.00676E-05-2.06049E-05 3.30341E-05-1.66251E-18 8.92614E-19
 -1      3009 9.60540E-05-4.59800E-05-2.10016E-05-8.20537E-05 3.44747E-16-9.25367E-17
 -1      3010 9.52761E-05-2.81599E-05-2.87657E-05-7.81845E-07-5.08002E-19-3.84147E-18
 -1      3011 1.03718E-04-6.38421E-07-4.55473E-05 1.10219E-07-1.07659E-17 1.58781E-17
 -1      3012 9.94151E-05-1.45971E-06-4.26447E-05-8.86723E-07-1.13005E-17 1.30970E-17
 -1      3013 1.00025E-04-6.78454E-07-4.42133E-05 4.23343E-06-1.18962E-17 1.76640E-17
 -1      3014 3.25491E-05-1.38771E-05-7.37621E-06 9.85168E-06 4.74675E-18-1.16615E-18
 -1      3015 3.78334E-05-1.20277E-05-1.06243E-05 4.35025E-06 3.26494E-18-1.24260E-18
 -1      3016 3.90674E-05-1.57948E-05-9.55528E-06 1.66080E-05 4.33414E-18-3.06732E-19
 -1      3017 4.36509E-05-1.22599E-05-1.30695E-05-7.64280E-06 3.07896E-19 1.13778E-18
 -1      3018 4.44342E-05-1.46804E-05-1.05942E-05-3.31383E-05 1.28054E-16-1.23475E-17
 -1      3019 5.98198E-05-1.23408E-05-1.55722E-05-5.73917E-05 2.42514E-16-3.98949E-17
 -1      3020 1.00977E-04-5.05207E-05-2.13620E-05-3.60505E-05 1.68380E-18-3.84632E-18
 -1      3021 1.11027E-04-5.31211E-05-2.46902E-05-2.84557E-05 6.87155E-19-1.57237E-18
 -1      3022 9.06640E-05-4.36751E-05-1.98316E-05-3.59646E-05 6.77468E-19-3.86395E-18
 -1      3023 1.24701E-04-2.23230E-05-4.42067E-05 1.20065E-05 3.27061E-18-3.51286E-18
 -1      3024 1.27861E-04-2.96867E-05-4.25881E-05 1.54562E-05 1.91726E-18-2.29318E-18
 -1      3025 9.51691E-05-2.80777E-05-2.87523E-05 6.56413E-07 4.26558E-19 4.90878E-19
 -1      3026 9.52031E-05-2.80683E-05-2.87690E-05 7.52304E-07 2.73348E-19 1.23542E-18
 -1      3027 9.50795E-05-2.79743E-05-2.87626E-05 6.74966E-07 8.05886E-20 7.56381E-19
 -1      3028 1.44357E-04-5.13978E-05-3.97450E-05 5.02139E-06 3.06014E-18-2.00916E-18
 -1      3029 6.51673E-05-2.97443E-05-1.46888E-05 3.11806E-05-1.04852E-18 1.07351E-18
 -1      3030 5.63101E-05-2.33016E-05-1.36895E-05-2.99888E-05 1.62577E-18-4.16910E-18
 -1      3031 5.94517E-05-2.81814E-05-1.27900E-05-3.50070E-05 2.29673E-18-4.66599E-18
 -1      3032 7.20687E-05-3.37065E-05-1.62945E-05-3.57632E-05 9.76841E-19-3.81927E-18
 -1      3033 1.37815E-04-3.30994E-05-4.51430E-05 1.40242E-05 3.73044E-18-4.23601E-18
 -1      3034 9.51717E-05-2.80980E-05-2.87452E-05-6.32633E-07-3.49440E-19-2.33141E-18
 -1      3035 1.19910E-04-2.82666E-05-3.97154E-05-1.33997E-05-2.22531E-18 1.14501E-17
 -1      3036 1.19460E-04-3.38380E-05-3.67463E-05-1.21995E-05-1.34398E-18 9.84279E-18
 -1      3037 1.12443E-04-2.32083E-05-3.86219E-05-1.46786E-05-4.08074E-18 1.12156E-17
 -1      3038 1.09912E-04-2.93706E-05-4.26179E-05-1.24083E-05 3.78717E-17 6.28566E-17
 -1      3039 3.89583E-05-1.42774E-05-9.98044E-06-1.45869E-05 3.06126E-18-3.35658E-18
 -1      3040 1.05034E-04-8.07726E-06-4.56049E-05 4.26408E-06-5.28083E-18 3.13521E-17
 -1      3041 8.79647E-05-4.66624E-05-1.74092E-05 3.29689E-05 5.76893E-18 3.86308E-18
 -1      3042 7.94803E-05-4.09441E-05-1.61488E-05 3.30484E-05 5.04546E-18 2.46063E-18
 -1      3043 9.63779E-05-4.82440E-05-2.04594E-05 2.71961E-05 4.06692E-18 3.94159E-18
 -1      3044 9.20251E-05-2.18919E-05-3.00495E-05 4.24443E-06 1.87440E-18-1.28064E-18
 -1      3045 9.49055E-05-2.77699E-05-2.87756E-05 6.34741E-07 1.11648E-18 1.10549E-18
 -1      3046 9.49923E-05-2.78656E-05-2.87678E-05 6.62277E-07 1.32303E-18 1.43239E-18
 -1      3047 9.49926E-05-2.78320E-05-2.87807E-05 7.63637E-07 2.15166E-19 1.78872E-18
 -1      3048 9.48027E-05-2.76270E-05-2.87871E-05 6.93173E-07 1.24490E-18 1.85177E-18
 -1      3049 1.33567E-04-6.07089E-05-3.10710E-05-1.66119E-05 1.21327E-18-1.94961E-18
 -1      3050 1.36802E-04-5.97529E-05-3.36584E-05-8.36172E-06 7.52509E-19-1.31936E-18
 -1      3051 1.25850E-04-5.81248E-05-2.88709E-05-1.94683E-05 5.24631E-19-4.18904E-19
 -1      3052 8.68409E-05-1.40342E-05-3.12223E-05-3.32145E-06-1.96551E-19-2.58183E-18
 -1      3053 8.69380E-05-1.42628E-05-3.11678E-05-4.20171E-06-4.07517E-19-2.53674E-18
 -1      3054 8.80668E-05-1.61532E-05-3.08048E-05-4.18819E-06-4.51219E-19-2.33147E-18
 -1      3055 8.78677E-05-1.56375E-05-3.09424E-05-2.77389E-06-1.32487E-19-2.44692E-18
 -1      3056 1.18090E-04-5.16669E-05-3.52765E-05-5.79451E-05 2.11758E-16 1.83976E-17
 -1      3057 5.14499E-05-2.85849E-05-9.23302E-06 3.18871E-05 6.61543E-18 9.14478E-19
 -1      3058 4.78205E-05-2.32119E-05-1.00292E-05 2.74569E-05 5.26791E-18 7.43166E-19
 -1      3059 6.27336E-05-3.25560E-05-1.27141E-05 3.27071E-05 5.57364E-18 1.84431E-18
 -1      3060 1.44880E-04-4.11103E-05-4.51393E-05-1.52156E-05-1.70232E-18-7.71785E-18
 -1      3061 1.46195E-04-5.08216E-05-4.09371E-05-9.27116E-06-3.10316E-18-6.76419E-18
 -1      3062 1.12100E-04-5.36314E-05-2.49165E-05 1.75668E-05 3.56447E-18 4.43993E-18
 -1      3063 9.51833E-05-2.80698E-05-2.87637E-05-7.66445E-07-1.38769E-18-3.25764E-18
 -1      3064 9.50909E-05-2.79880E-05-2.87593E-05-7.03629E-07-1.13756E-18-1.11238E-18
 -1      3065 9.50263E-05-2.78771E-05-2.87762E-05-8.02776E-07-1.13059E-18 4.14763E-19
 -1      3066 9.52005E-05-2.80409E-05-2.87799E-05-8.63387E-07-7.67447E-19-2.85649E-18
 -1      3067 8.88768E-05-1.75894E-05-3.05465E-05-7.77130E-06-1.58762E-18-1.99605E-18
 -1      3068 9.01397E-05-1.98430E-05-3.01651E-05-8.32108E-06-1.97687E-18-1.40159E-18
 -1      3069 9.05803E-05-2.15730E-05-2.95789E-05-6.64902E-06-1.74105E-18-1.21590E-18
 -1      3070 8.95137E-05-1.89030E-05-3.02310E-05-6.50805E-06-1.50529E-18-1.91173E-18
 -1      3071 1.42120E-04-5.38698E-05-3.79169E-05-7.66187E-06-3.24502E-18-4.52792E-18
 -1      3072 9.04384E-05-2.12380E-05-2.96487E-05-6.11531E-06-1.59475E-18-1.47995E-18
 -1      3073 5.09656E-05-1.61671E-05-1.46163E-05 1.70357E-05-2.82869E-19 1.47807E-18
 -1      3074 4.52908E-05-1.22873E-05-1.37728E-05 5.76118E-06-2.03453E-19 8.16752E-19
 -1      3075 9.16399E-05-2.12285E-05-3.01965E-05 3.43689E-06 1.69268E-18-1.48180E-18
 -1      3076 9.11239E-05-2.02715E-05-3.03670E-05 3.05364E-06 1.47272E-18-1.50090E-18
 -1      3077 9.38653E-05-2.72491E-05-2.85420E-05-4.60537E-06 3.92509E-19-2.45046E-19
 -1      3078 9.36981E-05-2.72870E-05-2.84655E-05-4.31273E-06 4.88994E-19-3.77471E-19
 -1      3079 9.11831E-05-2.41090E-05-2.87233E-05-2.78824E-06-1.14659E-18-1.29558E-18
 -1      3080 9.11441E-05-2.47378E-05-2.84732E-05-1.94624E-06-9.11871E-19-1.31709E-18
 -1      3081 1.00868E-04-7.92293E-06-4.05510E-05-6.67005E-06-8.86971E-18 1.12323E-17
 -1      3082 1.05967E-04-1.43452E-05-3.94314E-05-1.23639E-05-6.72369E-18 1.04081E-17
 -1      3083 9.12108E-05-2.52598E-05-2.82512E-05-1.29060E-06-8.69455E-19-1.26606E-18
 -1      3084 9.11249E-05-2.56316E-05-2.80748E-05-6.85599E-07-9.06533E-19-1.31855E-18
 -1      3085 9.12943E-05-2.45865E-05-2.85898E-05-1.80554E-06-9.46448E-19-1.37433E-18
 -1      3086 9.10851E-05-2.59295E-05-2.79146E-05-2.09713E-07-7.55831E-19-1.15545E-18
 -1      3087 9.09877E-05-2.61325E-05-2.77974E-05 2.22596E-07-7.29141E-19-1.20228E-18
 -1      3088 9.13276E-05-2.55316E-05-2.82008E-05-6.40181E-07-8.38873E-19-1.33992E-18
 -1      3089 9.08869E-05-2.62729E-05-2.76861E-05 5.78492E-07-7.58714E-19-1.22543E-18
 -1      3090 9.07967E-05-2.63632E-05-2.76137E-05 9.03088E-07-6.87168E-19-1.23482E-18
 -1      3091 9.11902E-05-2.60471E-05-2.79215E-05 2.25162E-07-8.10977E-19-1.13260E-18
 -1      3092 9.06616E-05-2.63955E-05-2.75402E-05 1.18839E-06-6.90425E-19-1.27205E-18
 -1      3093 9.05858E-05-2.64093E-05-2.75014E-05 1.45754E-06-6.62853E-19-1.21637E-18
 -1      3094 9.09595E-05-2.62665E-05-2.77284E-05 8.94041E-07-6.74139E-19-1.28149E-18
 -1      3095 9.04314E-05-2.63675E-05-2.74560E-05 1.71386E-06-5.02902E-19-1.20014E-18
 -1      3096 9.03733E-05-2.63315E-05-2.74420E-05 1.96661E-06-6.22363E-19-1.01721E-18
 -1      3097 9.06748E-05-2.62781E-05-2.76010E-05 1.45771E-06-4.78891E-19-1.20515E-18
 -1      3098 9.02095E-05-2.62421E-05-2.74165E-05 2.22619E-06-6.66325E-19-6.23567E-19
 -1      3099 9.01734E-05-2.61794E-05-2.74203E-05 2.48992E-06-4.67761E-19-6.13664E-19
 -1      3100 9.03605E-05-2.61487E-05-2.75212E-05 1.99084E-06-3.95016E-19-1.06656E-18
 -1      3101 9.00097E-05-2.60668E-05-2.74072E-05 2.77602E-06-6.54576E-19-3.64984E-19
 -1      3102 9.00027E-05-2.60016E-05-2.74224E-05 3.06729E-06-7.84797E-19-2.83647E-19
 -1      3103 9.00356E-05-2.59354E-05-2.74730E-05 2.55011E-06-4.84549E-19-3.57792E-19
 -1      3104 8.98521E-05-2.58929E-05-2.74147E-05 3.39444E-06-8.27527E-19 1.88633E-20
 -1      3105 8.98873E-05-2.58539E-05-2.74355E-05 3.71892E-06-5.83292E-19 2.96597E-20
 -1      3106 8.97221E-05-2.56955E-05-2.74414E-05 3.17490E-06-5.57691E-19-2.32097E-21
 -1      3107 8.97704E-05-2.57833E-05-2.74263E-05 4.09257E-06-5.66688E-19 1.29749E-20
 -1      3108 8.98696E-05-2.58084E-05-2.74468E-05 4.44380E-06-3.35218E-19-5.03514E-20
 -1      3109 8.94527E-05-2.54963E-05-2.74120E-05 3.88752E-06-4.72332E-19 5.22874E-19
 -1      3110 8.98200E-05-2.58216E-05-2.74295E-05 4.85893E-06-4.41063E-19-8.01720E-20
 -1      3111 9.00171E-05-2.59611E-05-2.74442E-05 5.21584E-06-3.21905E-19 2.69486E-20
 -1      3112 8.92804E-05-2.54250E-05-2.73705E-05 4.69215E-06-4.56261E-19 2.93032E-20
 -1      3113 9.00880E-05-2.61192E-05-2.74132E-05 5.65379E-06-1.81099E-19-5.62544E-20
 -1      3114 9.04326E-05-2.64377E-05-2.74180E-05 5.97665E-06-2.35595E-19-8.45567E-20
 -1      3115 8.92897E-05-2.55973E-05-2.73041E-05 5.57135E-06-4.31138E-19-2.24317E-20
 -1      3116 9.07031E-05-2.68186E-05-2.73709E-05 6.39888E-06-4.56012E-19 2.08060E-19
 -1      3117 9.12615E-05-2.73919E-05-2.73653E-05 6.62328E-06-6.02438E-19 5.63610E-20
 -1      3118 8.96101E-05-2.61653E-05-2.72040E-05 6.47797E-06-3.01446E-19-2.04825E-19
 -1      3119 9.18416E-05-2.80846E-05-2.73065E-05 6.95955E-06-6.75301E-19 4.88692E-19
 -1      3120 9.26892E-05-2.89843E-05-2.72981E-05 6.98856E-06-8.30524E-19 7.26872E-19
 -1      3121 9.04282E-05-2.73144E-05-2.70718E-05 7.31849E-06-4.83530E-19 4.50965E-19
 -1      3122 9.37136E-05-3.00663E-05-2.72459E-05 7.11713E-06-8.96134E-19 9.67491E-19
 -1      3123 9.49089E-05-3.13205E-05-2.72563E-05 6.81334E-06-5.56750E-19 8.80963E-19
 -1      3124 9.19890E-05-2.92384E-05-2.69299E-05 7.92146E-06-6.98536E-19 1.34058E-18
 -1      3125 9.65044E-05-3.28029E-05-2.72519E-05 6.53278E-06-1.39837E-19 1.17028E-18
 -1      3126 9.80265E-05-3.43135E-05-2.73256E-05 5.72296E-06-1.54842E-19 1.48233E-18
 -1      3127 9.45640E-05-3.20647E-05-2.68387E-05 7.98479E-06-3.01473E-19 1.30481E-18
 -1      3128 1.00219E-04-3.60298E-05-2.74473E-05 4.73180E-06-6.70208E-19 1.86622E-18
 -1      3129 1.01868E-04-3.74248E-05-2.76549E-05 3.24481E-06-7.78064E-19 1.61048E-18
 -1      3130 9.83367E-05-3.56710E-05-2.69223E-05 7.01186E-06-2.06954E-19 1.16976E-18
 -1      3131 1.04395E-04-3.88817E-05-2.80206E-05 1.25254E-06-6.81782E-19 1.95899E-18
 -1      3132 1.05699E-04-3.94004E-05-2.84601E-05-9.35295E-07-5.98832E-19 2.07250E-18
 -1      3133 1.03102E-04-3.93290E-05-2.73946E-05 4.30831E-06-6.52422E-19 1.92742E-18
 -1      3134 1.07642E-04-3.93918E-05-2.92393E-05-3.96543E-06-6.67912E-19 2.88576E-18
 -1      3135 1.07860E-04-3.80615E-05-2.99742E-05-6.20531E-06-1.12262E-18 3.05287E-18
 -1      3136 1.07894E-04-4.11664E-05-2.85564E-05-8.39316E-07-4.46347E-19 3.17001E-18
 -1      3137 1.08276E-04-3.56131E-05-3.11943E-05-9.43883E-06-2.57240E-18 4.20041E-18
 -1      3138 1.06818E-04-3.18344E-05-3.21435E-05-1.04448E-05-3.67770E-18 4.56453E-18
 -1      3139 1.10439E-04-3.89584E-05-3.07327E-05-7.18238E-06-1.61462E-18 4.87314E-18
 -1      3140 1.07793E-04-2.83750E-05-3.42271E-05-1.25578E-05-3.94280E-18 7.00233E-18
 -1      3141 1.05025E-04-2.24066E-05-3.54968E-05-1.15198E-05-5.20171E-18 7.46020E-18
 -1      3142 9.48585E-05-7.32764E-06-3.81338E-05 2.61881E-06-1.14164E-17 8.08159E-18
 -1      3143 9.42965E-05-7.42055E-06-3.81391E-05 8.67523E-06-1.32409E-17 6.36492E-18
 -1      3144 9.69508E-05-2.06376E-05-3.66449E-05 2.42135E-05-1.89481E-17-3.17383E-18
 -1      3145 9.75475E-05-2.50883E-05-3.74019E-05 2.62587E-05-2.11233E-17-4.19451E-18
 -1      3146 9.53855E-05-2.07495E-05-3.57892E-05 1.90355E-05-2.52229E-17-1.95038E-17
 -1      3147 9.30996E-05-1.55474E-05-3.30172E-05 2.84792E-05-2.19053E-17-3.31529E-17
 -1      3148 9.58863E-05-2.60924E-05-3.76606E-05 2.30615E-05-3.63301E-17-1.84653E-18
 -1      3149 7.26370E-05-6.84385E-06-2.99832E-05 3.95019E-05-2.32650E-17-3.54975E-17
 -1      3150 8.85599E-05-2.74784E-05-3.00207E-05 6.49238E-05-1.52195E-17-6.80303E-17
 -1      3151 7.50712E-05-6.66726E-06-3.02916E-05 1.84479E-05-3.60692E-17-3.13978E-17
 -1      3152 2.55744E-05-2.10695E-06-2.65772E-05 7.72390E-05-3.46674E-17 4.44205E-18
 -1      3153 1.66862E-04-9.23509E-06-2.34858E-05 1.54034E-04-5.07343E-16-2.66651E-16
 -1      3154 7.02686E-06 2.89479E-05-2.66385E-05 4.21808E-06-2.63224E-17-9.05986E-18
 -1      3155 7.26811E-05-5.90165E-05-2.12702E-05 1.22976E-04-4.42825E-16 3.40545E-16
 -1      3156 2.64992E-05 3.71635E-05 2.02347E-06-4.89268E-05 1.71677E-16 2.62628E-16
 -1      3157 2.06721E-04-5.03330E-05-2.80041E-05-9.63952E-05 1.08000E-16-1.02305E-16
 -1      3158 2.16371E-05 4.75894E-05 3.10311E-06-8.59445E-05 4.55311E-16 2.57024E-16
 -1      3159 9.33403E-05-2.16194E-05 2.80642E-06-2.97286E-04 1.50780E-15-8.67362E-19
 -1      3160 1.46200E-04-7.51850E-05-2.22897E-05-7.30831E-05 3.47937E-16 1.13279E-16
 -1      3161 3.55859E-04-6.53650E-06-4.22270E-05-3.30427E-04 1.37211E-15-1.23470E-15
 -1      3162 2.81018E-04-5.08868E-05-9.44756E-05-1.16252E-04 2.25804E-16-5.95857E-16
 -1      3163 1.79327E-04 6.36114E-06-5.76316E-05-5.27427E-05 4.50717E-16-2.92321E-16
 -1      3164 3.43574E-04-6.17964E-05-6.71737E-05-7.87293E-05 1.59605E-16-7.47117E-16
 -1      3165 1.74065E-04-2.24560E-05-3.16838E-05-3.45004E-05 1.17475E-16-2.01116E-16
 -1      3166 2.57784E-04 8.91475E-06-6.37138E-05-1.41420E-04 4.86244E-16-6.24744E-16
 -1      3167 9.66395E-05-2.84794E-05-2.92042E-05-6.22148E-06-1.43313E-19 2.83908E-19
 -1      3168 9.61661E-05-2.80507E-05-2.91876E-05-5.92222E-06 1.88087E-20-1.32288E-19
 -1      3169 9.56851E-05-2.82304E-05-2.89243E-05-6.86374E-06-2.20077E-19 1.90684E-18
 -1      3170 9.59357E-05-2.77787E-05-2.92028E-05-5.48233E-06 1.52433E-18 4.37047E-19
 -1      3171 9.56256E-05-2.75478E-05-2.91759E-05-5.12178E-06 2.14994E-18 1.06841E-19
 -1      3172 9.50200E-05-2.73960E-05-2.89900E-05-5.97207E-06 4.48266E-19 1.22290E-18
 -1      3173 9.55351E-05-2.74417E-05-2.91759E-05-4.68457E-06 2.03595E-18 2.61176E-20
 -1      3174 9.53341E-05-2.73440E-05-2.91407E-05-4.31023E-06 1.46146E-18-9.04788E-19
 -1      3175 9.47133E-05-2.70044E-05-2.90221E-05-5.06425E-06 1.91504E-18 6.63026E-19
 -1      3176 9.53234E-05-2.73417E-05-2.91286E-05-3.90213E-06 5.13386E-19 2.51248E-19
 -1      3177 9.51933E-05-2.73271E-05-2.90888E-05-3.54379E-06-2.63107E-19 3.23851E-19
 -1      3178 9.46200E-05-2.69024E-05-2.90234E-05-4.20229E-06 1.63389E-18 5.62208E-19
 -1      3179 9.52232E-05-2.73834E-05-2.90684E-05-3.17866E-06-5.05741E-19 1.25608E-18
 -1      3180 9.51380E-05-2.74159E-05-2.90274E-05-2.85327E-06-2.51490E-19 1.07508E-18
 -1      3181 9.46435E-05-2.69741E-05-2.90015E-05-3.41994E-06-9.07501E-20 2.76908E-18
 -1      3182 9.51846E-05-2.74997E-05-2.90027E-05-2.53677E-06 4.73726E-20 8.13721E-19
 -1      3183 9.51274E-05-2.75548E-05-2.89632E-05-2.25224E-06 1.03625E-18 9.28773E-19
 -1      3184 9.47221E-05-2.71378E-05-2.89645E-05-2.73296E-06 8.40619E-20 2.57316E-18
 -1      3185 9.51766E-05-2.76461E-05-2.89372E-05-1.98475E-06 8.90300E-19 8.80112E-19
 -1      3186 9.51365E-05-2.77077E-05-2.89012E-05-1.74302E-06 7.54588E-19 6.36254E-20
 -1      3187 9.48188E-05-2.73384E-05-2.89198E-05-2.14519E-06 8.39804E-19 6.58235E-19
 -1      3188 9.51802E-05-2.77940E-05-2.88761E-05-1.52151E-06 3.86026E-19-1.36604E-19
 -1      3189 9.51519E-05-2.78528E-05-2.88447E-05-1.32036E-06 2.30676E-19-1.57796E-18
 -1      3190 9.49126E-05-2.75404E-05-2.88731E-05-1.65365E-06 3.83458E-19 7.25863E-19
 -1      3191 9.51965E-05-2.79305E-05-2.88251E-05-1.16132E-06 1.32473E-18-2.21814E-18
 -1      3192 9.51728E-05-2.79800E-05-2.87983E-05-9.94294E-07 1.20578E-18-1.76651E-18
 -1      3193 9.50748E-05-2.78893E-05-2.87953E-05-9.76141E-07-2.20445E-19-1.88745E-18
 -1      3194 9.50034E-05-2.77304E-05-2.88317E-05-1.27145E-06 5.81116E-19 4.36900E-19
 -1      3195 1.31295E-04-1.69522E-05-4.95261E-05 5.09701E-06 4.83868E-18-7.27972E-18
 -1      3196 9.37113E-05-2.73611E-05-2.84294E-05-4.03670E-06 4.99384E-19-3.72364E-19
 -1      3197 9.35655E-05-2.73596E-05-2.83749E-05-3.77157E-06 3.91723E-19-5.71252E-19
 -1      3198 9.34701E-05-2.70821E-05-2.84537E-05-4.28031E-06 4.63767E-19-3.03970E-19
 -1      3199 9.41798E-05-2.68298E-05-2.88540E-05-6.06183E-06 3.02655E-19-1.46047E-19
 -1      3200 9.39734E-05-2.69098E-05-2.87493E-05-5.64543E-06 4.79810E-19-1.68233E-19
 -1      3201 9.43401E-05-2.65841E-05-2.90267E-05-7.01524E-06 1.66243E-19-9.21660E-20
 -1      3202 9.41078E-05-2.66568E-05-2.89169E-05-6.51926E-06 3.27511E-19 1.55980E-21
 -1      3203 9.32419E-05-2.61913E-05-2.87335E-05-6.42690E-06 2.41777E-19-1.36384E-19
 -1      3204 9.45247E-05-2.63900E-05-2.91877E-05-8.13603E-06 1.36591E-19-3.24472E-19
 -1      3205 9.42499E-05-2.64184E-05-2.90812E-05-7.56242E-06 2.67461E-19-1.95002E-19
 -1      3206 9.30826E-05-2.58064E-05-2.88290E-05-7.42798E-06 3.53095E-19-4.66958E-20
 -1      3207 9.47910E-05-2.63585E-05-2.93134E-05-9.41229E-06 4.08278E-19-4.37410E-20
 -1      3208 9.44364E-05-2.62786E-05-2.92211E-05-8.77768E-06 1.22597E-19 1.67072E-20
 -1      3209 9.29034E-05-2.54845E-05-2.88899E-05-8.60902E-06 1.45400E-19-1.29560E-19
 -1      3210 9.52646E-05-2.66786E-05-2.93759E-05-1.08057E-05-1.14732E-19 6.97556E-19
 -1      3211 9.47552E-05-2.63836E-05-2.93108E-05-1.01471E-05 3.31610E-19 4.67949E-19
 -1      3212 9.27694E-05-2.53616E-05-2.88870E-05-9.97887E-06 1.49878E-20 3.30098E-19
 -1      3213 9.61902E-05-2.76552E-05-2.93488E-05-1.22405E-05-8.14464E-19 7.70826E-19
 -1      3214 9.53878E-05-2.69767E-05-2.93220E-05-1.16247E-05-3.34208E-19 6.39416E-19
 -1      3215 9.28271E-05-2.56654E-05-2.87879E-05-1.15415E-05-1.27976E-19 1.20505E-18
 -1      3216 9.80004E-05-2.97388E-05-2.92223E-05-1.35748E-05-9.34090E-19 7.62670E-19
 -1      3217 9.66728E-05-2.84365E-05-2.92337E-05-1.31166E-05-1.01670E-18 6.52428E-19
 -1      3218 9.33661E-05-2.67596E-05-2.85642E-05-1.32937E-05-8.16367E-19 3.92462E-19
 -1      3219 1.01395E-04-3.35134E-05-2.90415E-05-1.45344E-05-3.76705E-19 8.03885E-19
 -1      3220 9.91779E-05-3.12889E-05-2.90559E-05-1.44414E-05-6.93684E-19 1.04713E-18
 -1      3221 9.48968E-05-2.91713E-05-2.82120E-05-1.51960E-05-8.81413E-19 2.73307E-19
 -1      3222 1.07324E-04-3.95262E-05-2.89994E-05-1.45399E-05-6.11822E-19 4.39592E-19
 -1      3223 1.03839E-04-3.62239E-05-2.88920E-05-1.52219E-05-2.25883E-19 7.54855E-19
 -1      3224 9.82067E-05-3.35587E-05-2.77925E-05-1.71577E-05-2.25944E-19 4.40987E-19
 -1      3225 1.16543E-04-4.73420E-05-2.96142E-05-1.21287E-05-4.10255E-19 3.02844E-19
 -1      3226 1.11710E-04-4.34475E-05-2.91018E-05-1.41727E-05-5.07090E-19 6.70245E-19
 -1      3227 1.05100E-04-4.10391E-05-2.76148E-05-1.86327E-05-4.95038E-19 4.59237E-19
 -1      3228 1.32162E-04-5.55669E-05-3.27870E-05-3.77019E-06-1.33070E-19-2.43019E-19
 -1      3229 1.26667E-04-5.41252E-05-3.11104E-05-8.83220E-06-5.95279E-19-8.92217E-19
 -1      3230 1.36623E-04-5.38033E-05-3.55291E-05 1.44702E-06 4.40417E-19-3.28225E-19
 -1      3231 1.34982E-04-3.50315E-05-4.32075E-05 1.53191E-05 2.53962E-18-2.98674E-18
 -1      3232 1.35265E-04-3.42273E-05-4.38108E-05-1.92757E-05 5.65077E-19-6.26635E-18
 -1      3233 1.27507E-04-2.89742E-05-4.27612E-05-1.90973E-05 2.70177E-18-6.13665E-18
 -1      3234 1.32260E-04-2.04786E-05-4.83742E-05-1.28191E-05 3.16801E-18-8.65604E-18
 -1      3235 1.05852E-04-3.85436E-05-2.86954E-05 1.43805E-05-1.55762E-18-2.27462E-18
 -1      3236 1.10236E-04-4.23222E-05-2.89626E-05 1.27890E-05-1.84494E-18-2.65697E-18
 -1      3237 1.00174E-04-3.25853E-05-2.89080E-05 1.40894E-05-1.08388E-18-1.82378E-18
 -1      3238 1.02682E-04-3.52485E-05-2.88566E-05 1.39629E-05-1.37089E-18-1.94950E-18
 -1      3239 9.98641E-05-3.58378E-05-2.75054E-05 1.70429E-05-1.83053E-18-1.81069E-18
 -1      3240 9.72229E-05-2.90049E-05-2.92177E-05 1.27848E-05-3.77259E-19-1.72404E-18
 -1      3241 9.87177E-05-3.06233E-05-2.91461E-05 1.31973E-05-7.69563E-19-1.42851E-18
 -1      3242 9.55239E-05-3.02454E-05-2.80353E-05 1.50207E-05-1.05031E-18-1.24128E-18
 -1      3243 9.58397E-05-2.71377E-05-2.94437E-05 1.11728E-05-7.95323E-19-8.77754E-19
 -1      3244 9.66763E-05-2.79928E-05-2.94098E-05 1.18208E-05-5.47085E-19-1.82833E-18
 -1      3245 9.37078E-05-2.71511E-05-2.85500E-05 1.29294E-05-3.14252E-19-8.27281E-19
 -1      3246 9.52910E-05-2.63507E-05-2.95536E-05 9.52316E-06-2.53334E-19-1.73477E-18
 -1      3247 9.57572E-05-2.67267E-05-2.95653E-05 1.02524E-05-4.53117E-19-1.71707E-18
 -1      3248 9.31723E-05-2.56930E-05-2.89259E-05 1.09636E-05-4.64981E-19-1.99054E-18
 -1      3249 9.51392E-05-2.61790E-05-2.95648E-05 7.95842E-06 3.12137E-19-1.61099E-18
 -1      3250 9.54120E-05-2.62833E-05-2.96116E-05 8.68432E-06 1.89962E-19-1.94339E-18
 -1      3251 9.32541E-05-2.52257E-05-2.91524E-05 9.19212E-06 1.02179E-19-2.88167E-18
 -1      3252 9.51481E-05-2.63216E-05-2.95076E-05 6.53596E-06 2.48746E-19-2.00885E-18
 -1      3253 9.53249E-05-2.62862E-05-2.95755E-05 7.21169E-06 2.55402E-19-1.25191E-18
 -1      3254 9.35772E-05-2.52981E-05-2.92569E-05 7.61793E-06 4.25964E-19-1.92413E-18
 -1      3255 9.52033E-05-2.66000E-05-2.94109E-05 5.28183E-06-8.04336E-19-1.93604E-18
 -1      3256 9.53324E-05-2.65024E-05-2.94878E-05 5.88353E-06-2.48220E-20-2.44399E-18
 -1      3257 9.39510E-05-2.56292E-05-2.92751E-05 6.23371E-06 5.33817E-20-5.30645E-19
 -1      3258 9.52562E-05-2.69159E-05-2.92968E-05 4.20342E-06-1.52124E-18-1.53702E-18
 -1      3259 9.53598E-05-2.67986E-05-2.93738E-05 4.72202E-06-1.72797E-18-1.72316E-18
 -1      3260 9.42908E-05-2.60564E-05-2.92387E-05 5.03265E-06-1.28265E-18-9.44303E-19
 -1      3261 9.52911E-05-2.72191E-05-2.91803E-05 3.29575E-06 3.55024E-19-1.59208E-18
 -1      3262 9.53784E-05-2.71040E-05-2.92521E-05 3.73157E-06-6.16172E-19-1.63324E-18
 -1      3263 9.45674E-05-2.64912E-05-2.91722E-05 4.00684E-06-7.78583E-19-1.66912E-19
 -1      3264 9.53066E-05-2.74867E-05-2.90709E-05 2.54548E-06 4.11462E-19-3.96947E-19
 -1      3265 9.53812E-05-2.73841E-05-2.91345E-05 2.90456E-06 6.35875E-19-1.28815E-18
 -1      3266 9.47780E-05-2.68897E-05-2.90928E-05 3.14513E-06 6.83478E-19 4.21653E-19
 -1      3267 9.53064E-05-2.77112E-05-2.89735E-05 1.93438E-06 3.29187E-19-2.81727E-19
 -1      3268 9.53699E-05-2.76244E-05-2.90277E-05 2.22567E-06 4.73899E-19-4.08399E-19
 -1      3269 9.49303E-05-2.72333E-05-2.90117E-05 2.43228E-06 4.49665E-20 5.83111E-19
 -1      3270 9.52939E-05-2.78901E-05-2.88904E-05 1.44389E-06 8.17409E-19-5.87933E-19
 -1      3271 9.53484E-05-2.78215E-05-2.89351E-05 1.67734E-06 8.52875E-19-7.45352E-19
 -1      3272 9.50358E-05-2.75174E-05-2.89356E-05 1.85110E-06 7.42161E-19 1.15756E-18
 -1      3273 9.52751E-05-2.80260E-05-2.88217E-05 1.05462E-06 1.10425E-18-5.72941E-19
 -1      3274 9.53199E-05-2.79762E-05-2.88576E-05 1.23714E-06 1.05105E-18-4.37745E-20
 -1      3275 9.51024E-05-2.77423E-05-2.88684E-05 1.38372E-06 1.03875E-18 6.18946E-19
 -1      3276 9.52139E-05-2.80509E-05-2.87831E-05 8.41686E-07 3.35440E-19 9.23545E-19
 -1      3277 9.52612E-05-2.80438E-05-2.88044E-05 9.50635E-07 6.36614E-19-5.02332E-19
 -1      3278 9.51104E-05-2.78654E-05-2.88202E-05 1.06906E-06 8.93697E-19 1.46086E-18
 -1      3279 9.50905E-05-2.79222E-05-2.87897E-05 8.66012E-07 3.12878E-21 2.28292E-18
 -1      3280 9.43344E-05-2.71633E-05-2.87888E-05-1.06192E-07-6.42494E-19-3.10005E-18
 -1      3281 9.43286E-05-2.71566E-05-2.87897E-05 4.86237E-08-2.41681E-19-2.17940E-18
 -1      3282 9.48270E-05-2.76563E-05-2.87869E-05-8.43839E-07-8.12088E-19-1.57022E-18
 -1      3283 9.47108E-05-2.75450E-05-2.87889E-05-7.84206E-07-1.71854E-19-2.07853E-18
 -1      3284 9.44190E-05-2.72479E-05-2.87876E-05-4.20141E-07-6.91281E-19-2.33318E-18
 -1      3285 9.43673E-05-2.72005E-05-2.87885E-05-2.81338E-07-4.48650E-19-2.63515E-18
 -1      3286 9.42132E-05-2.70304E-05-2.87891E-05-2.21920E-07-7.74995E-19-3.05727E-18
 -1      3287 9.02519E-05-2.08728E-05-2.97578E-05-5.80648E-06-1.53923E-18-1.64683E-18
 -1      3288 9.06802E-05-2.19116E-05-2.94428E-05-5.14128E-06-1.36521E-18-1.58084E-18
 -1      3289 9.08406E-05-2.30138E-05-2.90860E-05-3.96498E-06-1.25847E-18-1.48180E-18
 -1      3290 8.97571E-05-1.97143E-05-3.00203E-05-5.54381E-06-1.26571E-18-1.89803E-18
 -1      3291 9.45917E-05-2.74183E-05-2.87873E-05-6.79803E-07-7.95840E-19-2.78623E-18
 -1      3292 9.44998E-05-2.73344E-05-2.87886E-05-5.70997E-07-4.19737E-19-2.27463E-18
 -1      3293 9.43406E-05-2.71554E-05-2.87907E-05-5.63123E-07-5.16994E-19-2.29052E-18
 -1      3294 9.45630E-05-2.73700E-05-2.87950E-05-8.31294E-07-3.67104E-19-1.89553E-18
 -1      3295 8.61881E-05-2.80044E-05-1.74262E-05-7.42425E-05 2.42908E-16-8.39579E-17
 -1      3296 1.19262E-04-4.95523E-05-2.04738E-05-8.96364E-05 2.94601E-16-1.68295E-16
 -1      3297 1.09785E-04-5.42362E-05-2.38960E-05 2.92310E-05-4.15491E-18 4.99220E-19
 -1      3298 9.31777E-05-4.47207E-05-2.05530E-05 3.16373E-05-1.52799E-18 9.76523E-19
 -1      3299 1.12709E-04-4.74764E-05-2.76038E-05 1.66253E-05-1.45259E-18-1.45184E-18
 -1      3300 1.19398E-04-5.20962E-05-2.85464E-05 1.42733E-05-2.42810E-18-1.96408E-18
 -1      3301 9.40228E-05-2.70637E-05-2.86876E-05-5.26703E-06 5.96195E-19-1.82009E-19
 -1      3302 9.38363E-05-2.71295E-05-2.85944E-05-4.92127E-06 6.10225E-19-1.25273E-19
 -1      3303 9.34329E-05-2.68676E-05-2.85283E-05-4.88632E-06 4.90973E-19-1.99357E-19
 -1      3304 9.33591E-05-2.65604E-05-2.86269E-05-5.58884E-06 4.57629E-19 6.17534E-20
 -1      3305 1.14169E-04-2.27801E-05-2.65146E-05-3.37950E-05-1.53516E-17-3.10217E-17
 -1      3306 1.23171E-04-3.37762E-05-3.00065E-05-4.10186E-05 1.12060E-16-2.44691E-17
 -1      3307 9.35665E-05-2.73769E-05-2.83623E-05-3.50574E-06 2.24742E-19-7.32950E-19
 -1      3308 9.34463E-05-2.73234E-05-2.83362E-05-3.23384E-06 2.90845E-19-6.88512E-19
 -1      3309 9.34785E-05-2.71769E-05-2.84179E-05-3.71813E-06 1.54050E-19-6.15471E-19
 -1      3310 9.34357E-05-2.72676E-05-2.83552E-05-2.94025E-06 3.27976E-19-7.06280E-19
 -1      3311 9.33455E-05-2.71442E-05-2.83661E-05-2.61631E-06 5.01375E-19-7.21374E-19
 -1      3312 9.34620E-05-2.71187E-05-2.84370E-05-3.13131E-06 2.70756E-19-9.02285E-19
 -1      3313 8.92063E-05-1.74781E-05-3.07549E-05 3.17996E-07 6.84794E-19-2.21985E-18
 -1      3314 8.89817E-05-1.72302E-05-3.07633E-05-3.82315E-07 3.56185E-19-2.29988E-18
 -1      3315 1.38335E-04-3.74802E-05-4.35040E-05-1.80529E-05-2.52575E-19-6.69198E-18
 -1      3316 1.13650E-04-5.17602E-05-2.66592E-05 1.16376E-05 2.16560E-18 3.59383E-18
 -1      3317 1.06653E-04-5.06938E-05-2.38374E-05 1.89987E-05 2.68208E-18 3.49894E-18
 -1      3318 9.26678E-05-2.36228E-05-2.95930E-05 2.85040E-06 1.62806E-18-1.22274E-18
 -1      3319 9.20498E-05-2.21078E-05-2.99666E-05 3.27469E-06 1.65047E-18-1.34875E-18
 -1      3320 9.23150E-05-2.28802E-05-2.97559E-05 2.14206E-06 1.50026E-18-1.34389E-18
 -1      3321 9.27740E-05-2.45049E-05-2.92688E-05 1.58469E-06 1.45494E-18-1.24615E-18
 -1      3322 7.71900E-05-3.46195E-05-1.80576E-05 3.27924E-05-8.74826E-19 1.78142E-18
 -1      3323 6.24439E-05-2.41952E-05-1.60225E-05 2.64683E-05-9.38063E-19 1.49962E-18
 -1      3324 9.88877E-05-1.00867E-05-4.28319E-05 9.33698E-06-1.20783E-17 3.01442E-17
 -1      3325 9.87982E-05-4.69655E-06-4.35512E-05 9.15407E-06-1.33406E-17 2.11716E-17
 -1      3326 8.31680E-05-2.13762E-05-3.89755E-05-8.42280E-06 6.10609E-17 1.01458E-16
 -1      3327 8.96989E-05-1.42819E-05-4.23706E-05 8.00268E-06-7.71605E-18 5.64734E-17
 -1      3328 9.33167E-05-2.69884E-05-2.84267E-05-2.24747E-06 8.62085E-19-7.63854E-19
 -1      3329 9.32559E-05-2.67654E-05-2.84870E-05-1.81060E-06 9.93911E-19-7.47398E-19
 -1      3330 9.34154E-05-2.68593E-05-2.85291E-05-2.43332E-06 6.82552E-19-8.87887E-19
 -1      3331 4.17872E-05-1.21169E-05-1.23030E-05-8.79116E-06 2.50909E-18-2.07682E-18
 -1      3332 4.71278E-05-1.57144E-05-1.30874E-05-1.97587E-05 2.11644E-18-3.31359E-18
 -1      3333 2.08187E-04-9.12927E-05-2.49480E-05-6.29039E-05 2.87178E-16-3.30085E-16
 -1      3334 1.52405E-04-2.78661E-05-2.74803E-05 1.73811E-05-1.51238E-16-1.48488E-16
 -1      3335 8.88167E-05-1.70820E-05-3.07560E-05-9.67720E-07 2.21088E-19-2.31664E-18
 -1      3336 8.87123E-05-1.70344E-05-3.07322E-05-1.67004E-06 4.80295E-20-2.33289E-18
 -1      3337 8.97492E-05-1.85696E-05-3.04873E-05-7.98757E-07 2.74757E-19-2.10492E-18
 -1      3338 9.16105E-05-2.12455E-05-3.01310E-05 2.04790E-06 1.26716E-18-1.45548E-18
 -1      3339 9.06553E-05-1.95369E-05-3.05049E-05 2.63910E-06 1.30123E-18-1.74878E-18
 -1      3340 9.02064E-05-1.88343E-05-3.05996E-05 2.06565E-06 1.14600E-18-1.99250E-18
 -1      3341 1.39881E-04-3.42280E-05-3.00314E-05-1.66917E-05 6.42136E-18-1.03690E-16
 -1      3342 1.10813E-04-2.88532E-05-3.45973E-05-7.15514E-06 5.66386E-17 9.98821E-18
 -1      3343 7.09637E-05-2.46745E-05-1.97419E-05 2.30572E-05-5.94657E-19 9.03890E-19
 -1      3344 6.05781E-05-2.02453E-05-1.68913E-05 2.11682E-05-4.33694E-19 1.02163E-18
 -1      3345 6.07805E-05-1.74459E-05-1.83974E-05 1.54834E-05 3.48223E-19 7.64130E-19
 -1      3346 8.91258E-05-1.83423E-05-3.03464E-05-4.54551E-06-7.95430E-19-1.99551E-18
 -1      3347 8.93997E-05-1.89435E-05-3.02184E-05-5.09617E-06-1.06739E-18-2.06408E-18
 -1      3348 1.18598E-04-3.87101E-05-3.42968E-05-9.50753E-06-6.48721E-19 8.42972E-18
 -1      3349 1.11973E-04-3.27711E-05-3.41440E-05-1.21658E-05-2.71105E-18 7.76329E-18
 -1      3350 1.18935E-04-5.60639E-05-2.67897E-05-2.44611E-05 1.24408E-18 7.49402E-19
 -1      3351 1.23907E-04-5.66163E-05-2.89100E-05-1.78199E-05 9.66676E-20 7.10978E-20
 -1      3352 1.10402E-04-5.13352E-05-2.50104E-05-2.67706E-05 4.41463E-19-6.67948E-19
 -1      3353 9.62974E-05-4.18553E-06-4.14345E-05 9.77864E-06-1.60361E-17 1.56557E-17
 -1      3354 9.33818E-05-9.68790E-06-3.77063E-05 1.52270E-05-1.61185E-17 7.89054E-18
 -1      3355 9.84932E-05-1.57599E-05-3.58858E-05-8.08195E-06-7.58979E-18 6.32251E-18
 -1      3356 9.62604E-05-1.18959E-05-3.63581E-05-3.35763E-06-8.90375E-18 5.85467E-18
 -1      3357 9.50099E-05-1.40924E-05-3.76815E-05 1.99533E-05-1.85987E-17 4.38551E-18
 -1      3358 4.64202E-05-1.88172E-05-1.12664E-05 2.12455E-05 4.39356E-18 6.87685E-19
 -1      3359 4.73327E-05-1.56781E-05-1.32763E-05 1.53737E-05 2.97309E-18 4.35057E-19
 -1      3360 5.51176E-05-2.25646E-05-1.37265E-05 2.44168E-05 3.93801E-18 1.20829E-18
 -1      3361 4.76112E-05-1.19448E-05-1.48269E-05-4.81887E-07 5.26749E-19 5.29396E-20
 -1      3362 5.19999E-05-1.31213E-05-1.65038E-05-6.87819E-06 1.35594E-18 4.16952E-19
 -1      3363 5.37825E-05-1.32098E-05-1.72296E-05 4.42924E-06 2.74138E-19 1.88465E-20
 -1      3364 8.39510E-05-3.85077E-05-1.90699E-05-3.51834E-05 9.17443E-19-3.41444E-18
 -1      3365 9.43997E-05-4.29625E-05-2.21389E-05-3.11351E-05-1.41613E-19-3.01163E-18
 -1      3366 7.74306E-05-3.29310E-05-1.88556E-05-3.24844E-05 7.75035E-19-3.15710E-18
 -1      3367 1.19396E-04-5.57061E-05-2.70016E-05 1.98958E-05-2.85302E-18-6.87579E-19
 -1      3368 5.59842E-05-1.67446E-05-1.65820E-05-1.84735E-05 1.74071E-18-2.59023E-18
 -1      3369 5.47069E-05-1.90517E-05-1.47991E-05-2.37606E-05 1.58525E-18-3.65426E-18
 -1      3370 6.39494E-05-2.36545E-05-1.71380E-05-2.70845E-05 8.67322E-19-3.30666E-18
 -1      3371 9.41975E-05-2.70091E-05-2.87914E-05 1.53113E-07-4.40785E-19-2.70738E-18
 -1      3372 9.43481E-05-2.71735E-05-2.87915E-05 2.31265E-07-8.38723E-20-2.01022E-18
 -1      3373 9.43916E-05-2.72109E-05-2.87923E-05 3.78501E-07 1.45253E-19-9.13056E-19
 -1      3374 1.30344E-04-5.59584E-05-3.15450E-05 5.84480E-06-3.52511E-18-3.16931E-18
 -1      3375 1.34397E-04-5.62755E-05-3.34817E-05 4.09310E-07-3.35171E-18-2.94773E-18
 -1      3376 9.09004E-05-2.28457E-05-2.91721E-05-3.62927E-06-1.16256E-18-1.56873E-18
 -1      3377 9.44645E-05-2.72827E-05-2.87954E-05 5.41128E-07 1.27373E-18 1.33347E-18
 -1      3378 9.45527E-05-2.73612E-05-2.87958E-05 6.59499E-07 1.33022E-18 2.12132E-18
 -1      3379 9.42998E-05-2.70982E-05-2.87974E-05 5.15704E-07 8.92375E-19-5.48800E-19
 -1      3380 1.63174E-04-6.22629E-05-2.20093E-05-6.01109E-05 1.57663E-16-1.61665E-16
 -1      3381 9.30104E-05-2.52821E-05-2.90175E-05 6.74936E-07 1.16580E-18-1.23173E-18
 -1      3382 9.28742E-05-2.45648E-05-2.92710E-05 9.89773E-07 1.26922E-18-1.29540E-18
 -1      3383 9.30443E-05-2.58299E-05-2.88125E-05-2.08113E-07 1.04023E-18-1.07699E-18
 -1      3384 9.31938E-05-2.65483E-05-2.85651E-05-1.38985E-06 9.19587E-19-7.27189E-19
 -1      3385 9.31548E-05-2.61939E-05-2.86871E-05-7.73440E-07 1.00542E-18-8.66738E-19
 -1      3386 9.31631E-05-2.57440E-05-2.88967E-05-5.38543E-07 8.89364E-19-1.09968E-18
 -1      3387 9.33252E-05-2.64107E-05-2.86834E-05-1.59069E-06 8.83923E-19-1.03824E-18
 -1      3388 1.04210E-04-4.42901E-05-2.57227E-05 2.20962E-05-3.97153E-19-9.04962E-19
 -1      3389 8.97804E-05-3.92781E-05-2.12610E-05 2.83868E-05-9.46427E-19 1.04744E-18
 -1      3390 1.02077E-04-4.87981E-05-2.27484E-05 2.21387E-05 2.95260E-18 2.95646E-18
 -1      3391 9.55010E-05-4.50128E-05-2.15103E-05 2.42320E-05 2.85011E-18 2.57127E-18
 -1      3392 1.05354E-04-4.78053E-05-2.45657E-05 1.58590E-05 1.85697E-18 2.89246E-18
 -1      3393 1.16840E-04-4.77658E-05-2.98764E-05 5.22430E-08 1.21852E-18 5.35064E-18
 -1      3394 1.16460E-04-5.05874E-05-2.81330E-05 5.84307E-06 1.67791E-18 4.18448E-18
 -1      3395 1.11655E-04-4.88729E-05-2.68850E-05 8.76030E-06 1.24223E-18 3.75575E-18
 -1      3396 9.46556E-05-2.74680E-05-2.87982E-05 7.55777E-07 1.23977E-18 1.87558E-18
 -1      3397 9.47563E-05-2.75619E-05-2.87968E-05 8.14610E-07 4.76020E-19 2.10484E-18
 -1      3398 9.44999E-05-2.72808E-05-2.88049E-05 7.90223E-07 1.04539E-18 1.71465E-18
 -1      3399 9.19580E-05-1.33683E-05-3.94811E-05 2.07846E-05-1.95538E-17 1.44131E-17
 -1      3400 8.94870E-05-1.78262E-05-3.07237E-05 8.84017E-07 8.71024E-19-2.21533E-18
 -1      3401 9.01852E-05-1.90606E-05-3.04627E-05 2.63503E-07 7.02086E-19-2.00556E-18
 -1      3402 8.98267E-05-1.82860E-05-3.06778E-05 1.55167E-06 1.10058E-18-2.16570E-18
 -1      3403 7.38015E-05-3.65251E-05-1.55536E-05 3.23308E-05 4.78616E-18 1.92647E-18
 -1      3404 6.78528E-05-3.12198E-05-1.54064E-05 3.00101E-05 3.74770E-18 1.52492E-18
 -1      3405 8.34468E-05-3.98163E-05-1.85407E-05 2.87839E-05 3.64177E-18 2.62612E-18
 -1      3406 8.98586E-05-1.09146E-05-4.03217E-05 1.51177E-05-1.57379E-17 3.19857E-17
 -1      3407 7.36041E-05-1.66260E-05-1.93005E-05-6.39485E-05 2.19078E-16-5.60710E-17
 -1      3408 9.08249E-05-2.22130E-05-2.14464E-05-7.01840E-05 1.87583E-16-7.46439E-17
 -1      3409 6.71404E-05-5.89680E-06-1.91531E-05-5.37943E-05 1.97601E-16-3.51239E-17
 -1      3410 8.87714E-05-1.75010E-05-3.05557E-05-3.46028E-06-3.21476E-19-2.17982E-18
 -1      3411 8.89172E-05-1.78667E-05-3.04674E-05-4.09878E-06-5.59364E-19-2.01295E-18
 -1      3412 8.97817E-05-1.94959E-05-3.01086E-05-3.79073E-06-6.88676E-19-1.78598E-18
 -1      3413 9.49854E-05-2.78073E-05-2.87918E-05-9.42728E-07-8.24760E-19-6.84853E-19
 -1      3414 9.49013E-05-2.77296E-05-2.87897E-05-8.96635E-07-6.27740E-19-1.91548E-19
 -1      3415 9.47786E-05-2.75720E-05-2.88010E-05-9.88827E-07-1.31340E-18-7.71369E-19
 -1      3416 9.49562E-05-2.77292E-05-2.88091E-05-1.07917E-06-2.10653E-19 2.36634E-19
 -1      3417 4.47121E-05-1.21207E-05-1.36796E-05 3.15475E-06 2.53841E-18-9.50794E-19
 -1      3418 4.23421E-05-1.14363E-05-1.27122E-05-3.21986E-06 2.72884E-18-1.29448E-18
 -1      3419 4.91380E-05-1.26994E-05-1.53523E-05-8.21707E-06 2.08853E-18-1.77845E-18
 -1      3420 1.41554E-04-3.24214E-05-2.49657E-05-1.81820E-05 2.52585E-17-9.77883E-17
 -1      3421 1.12265E-04-1.97109E-05-2.78221E-05-2.86639E-05 1.46300E-17-4.87552E-17
 -1      3422 1.15750E-04-4.07166E-05-3.20681E-05-7.89340E-06-5.41625E-19 6.68804E-18
 -1      3423 1.07294E-04-1.98057E-05-3.75703E-05-1.24854E-05-5.75919E-18 9.52724E-18
 -1      3424 1.38276E-04-5.52741E-05-3.54020E-05-5.10026E-06-3.47575E-18-3.91689E-18
 -1      3425 9.15160E-05-2.51172E-05-2.84497E-05-1.05017E-06-6.25798E-19-1.40083E-18
 -1      3426 9.14786E-05-2.55008E-05-2.82821E-05-5.42299E-07-6.88450E-19-1.31081E-18
 -1      3427 9.14442E-05-2.57981E-05-2.81291E-05-1.57374E-07-7.79711E-19-1.19587E-18
 -1      3428 9.13457E-05-2.59961E-05-2.80096E-05 2.26951E-07-7.37063E-19-1.23433E-18
 -1      3429 9.16023E-05-2.54202E-05-2.83626E-05-5.24817E-07-6.34563E-19-1.29267E-18
 -1      3430 9.12165E-05-2.61184E-05-2.78967E-05 5.31224E-07-6.64001E-19-1.16882E-18
 -1      3431 9.10826E-05-2.61817E-05-2.78147E-05 8.40103E-07-4.45891E-19-1.01318E-18
 -1      3432 9.14400E-05-2.58939E-05-2.80909E-05 1.78524E-07-6.60889E-19-9.70909E-19
 -1      3433 9.08871E-05-2.61771E-05-2.77327E-05 1.10257E-06-5.12694E-19-9.33745E-19
 -1      3434 9.07329E-05-2.61449E-05-2.76786E-05 1.37696E-06-4.62826E-19-1.05638E-18
 -1      3435 9.11179E-05-2.60414E-05-2.78898E-05 7.57810E-07-4.83225E-19-7.16884E-19
 -1      3436 9.04894E-05-2.60503E-05-2.76187E-05 1.63066E-06-2.96840E-19-1.11717E-18
 -1      3437 9.03251E-05-2.59543E-05-2.75840E-05 1.90312E-06-3.83905E-19-9.09608E-19
 -1      3438 9.06822E-05-2.59518E-05-2.77413E-05 1.28286E-06-3.58353E-19-8.16700E-19
 -1      3439 9.00468E-05-2.58010E-05-2.75376E-05 2.17534E-06-4.60559E-19-9.12852E-19
 -1      3440 8.98822E-05-2.56706E-05-2.75144E-05 2.47002E-06-2.74446E-19-6.92182E-19
 -1      3441 9.01637E-05-2.56972E-05-2.76277E-05 1.81350E-06-4.01299E-19-1.08550E-18
 -1      3442 8.95818E-05-2.54895E-05-2.74731E-05 2.78240E-06-3.11265E-19-6.44713E-19
 -1      3443 8.94301E-05-2.53568E-05-2.74539E-05 3.11539E-06-4.42956E-19-3.48042E-19
 -1      3444 8.95874E-05-2.53438E-05-2.75319E-05 2.39901E-06-2.31166E-19-1.11383E-18
 -1      3445 8.91244E-05-2.51830E-05-2.74091E-05 3.48434E-06-6.59614E-19-2.57537E-19
 -1      3446 8.90064E-05-2.50873E-05-2.73864E-05 3.86379E-06-4.15970E-19-1.11267E-19
 -1      3447 8.89818E-05-2.49615E-05-2.74362E-05 3.07870E-06-3.95663E-19-9.46670E-19
 -1      3448 8.87215E-05-2.49657E-05-2.73295E-05 4.30105E-06-3.54962E-19-2.05959E-19
 -1      3449 8.86714E-05-2.49590E-05-2.72961E-05 4.72660E-06-3.47662E-19-2.66875E-19
 -1      3450 8.83882E-05-2.46342E-05-2.73229E-05 3.88337E-06-4.26540E-19-6.87373E-19
 -1      3451 8.84498E-05-2.49495E-05-2.72187E-05 5.23890E-06-3.83741E-19-6.44591E-20
 -1      3452 8.85211E-05-2.51012E-05-2.71683E-05 5.69974E-06-4.48817E-19-1.09241E-19
 -1      3453 8.78725E-05-2.44707E-05-2.71741E-05 4.83662E-06-1.75325E-19-6.19544E-19
 -1      3454 8.84310E-05-2.52841E-05-2.70639E-05 6.28657E-06-2.68067E-19-1.80006E-19
 -1      3455 8.87042E-05-2.56850E-05-2.69935E-05 6.75685E-06-1.22479E-19 1.91494E-19
 -1      3456 8.75414E-05-2.46175E-05-2.69738E-05 5.95371E-06-3.79008E-19-2.42761E-19
 -1      3457 8.88514E-05-2.61647E-05-2.68600E-05 7.40311E-06-3.55500E-19 3.79476E-19
 -1      3458 8.94388E-05-2.69252E-05-2.67737E-05 7.83162E-06-3.10980E-19 5.72998E-19
 -1      3459 8.75631E-05-2.52700E-05-2.67117E-05 7.23484E-06 6.40031E-23-2.94720E-20
 -1      3460 8.99805E-05-2.78263E-05-2.66195E-05 8.48867E-06-4.71858E-19 7.88839E-19
 -1      3461 9.10209E-05-2.90605E-05-2.65357E-05 8.77952E-06-6.42469E-19 9.28122E-19
 -1      3462 8.81942E-05-2.66797E-05-2.63917E-05 8.64209E-06-2.32305E-19 1.17336E-20
 -1      3463 9.21718E-05-3.05066E-05-2.63901E-05 9.32609E-06-4.71142E-19 1.06993E-18
 -1      3464 9.37997E-05-3.22822E-05-2.63514E-05 9.30471E-06 2.67322E-19 9.14760E-19
 -1      3465 8.98008E-05-2.91369E-05-2.60489E-05 1.00441E-05-4.43927E-19 7.57344E-19
 -1      3466 9.58180E-05-3.43325E-05-2.62801E-05 9.47359E-06 2.75272E-19 1.16008E-18
 -1      3467 9.80870E-05-3.65546E-05-2.63707E-05 8.84749E-06-2.01567E-20 1.37898E-18
 -1      3468 9.28638E-05-3.29113E-05-2.57746E-05 1.11127E-05 1.92766E-19 1.49124E-18
 -1      3469 1.01130E-04-3.90181E-05-2.65113E-05 8.13491E-06-2.32120E-19 1.67397E-18
 -1      3470 1.03752E-04-4.11988E-05-2.68089E-05 6.63645E-06 6.17738E-20 1.99727E-18
 -1      3471 9.77994E-05-3.79078E-05-2.57681E-05 1.10879E-05 2.07955E-19 1.23000E-18
 -1      3472 1.09521E-04-4.43887E-05-2.78960E-05 3.10516E-06 7.63617E-19 3.18336E-18
 -1      3473 1.12114E-04-4.45460E-05-2.89399E-05-4.20711E-07 1.59811E-19 4.11031E-18
 -1      3474 1.13367E-04-4.25009E-05-3.03704E-05-4.30567E-06-2.94256E-19 5.41095E-18
 -1      3475 1.38300E-04-5.00954E-05-3.83325E-05-1.21067E-05-2.38269E-18-5.03638E-18
 -1      3476 9.40438E-05-2.68732E-05-2.87878E-05-3.54915E-07-7.76900E-19-3.12721E-18
 -1      3477 9.40010E-05-2.68359E-05-2.87877E-05-1.65816E-07-3.67898E-19-4.14724E-18
 -1      3478 1.51566E-04-2.20405E-05-3.50691E-05-8.05735E-05 8.74612E-17-1.19083E-16
 -1      3479 1.54618E-04-4.48151E-05-3.89791E-05-7.83799E-05 6.24723E-17 5.19816E-17
 -1      3480 1.79690E-04-7.50036E-05-3.79081E-05-6.72985E-05 1.58554E-16 2.68349E-17
 -1      3481 1.79562E-04-6.25067E-05-3.96101E-05-4.86313E-05 3.38688E-16-1.29494E-17
 -1      3482 1.60984E-04-4.71656E-05-4.53767E-05-6.49667E-05 1.56181E-16-1.34333E-17
 -1      3483 1.75399E-04-2.40526E-05-4.69684E-05-4.88915E-05 4.68435E-16-9.27620E-17
 -1      3484 1.92030E-04-3.15209E-07-6.56389E-05-8.32988E-05 4.71109E-16-4.46695E-16
 -1      3485 1.77182E-04-3.99017E-05-5.29300E-05-3.55719E-05 2.63845E-16-1.12757E-16
 -1      3486 1.98747E-04 1.40150E-05-5.86213E-05-1.03660E-04 3.97199E-16-5.56634E-16
 -1      3487 1.54375E-04-1.39278E-06-3.19024E-05-4.85182E-05 1.66186E-16-2.83336E-16
 -1      3488 1.76207E-04-2.93677E-07-5.04551E-05-5.51379E-05 2.80901E-16-4.11273E-16
 -1      3489 9.46339E-05-2.77530E-05-2.86461E-05-7.32815E-06-4.39201E-19 1.23670E-18
 -1      3490 9.41593E-05-2.72006E-05-2.86975E-05-6.88116E-06-6.75522E-19 6.22646E-19
 -1      3491 9.33572E-05-2.73587E-05-2.82979E-05-8.04223E-06-3.23206E-19-2.96919E-19
 -1      3492 9.40580E-05-2.68687E-05-2.87822E-05-6.26806E-06-1.42128E-19 1.39624E-18
 -1      3493 9.38168E-05-2.65916E-05-2.88155E-05-5.80674E-06 1.11211E-18 1.13758E-18
 -1      3494 9.28975E-05-2.63668E-05-2.85163E-05-6.72499E-06-2.70325E-20 3.53923E-19
 -1      3495 9.38732E-05-2.64794E-05-2.88730E-05-5.25709E-06 1.43867E-18 4.12862E-19
 -1      3496 9.37757E-05-2.63858E-05-2.88878E-05-4.81411E-06 1.92538E-18 1.43273E-19
 -1      3497 9.28604E-05-2.59428E-05-2.86769E-05-5.54915E-06 1.25990E-18 5.91311E-19
 -1      3498 9.39125E-05-2.64115E-05-2.89213E-05-4.33359E-06 2.28210E-18-7.23862E-20
 -1      3499 9.38974E-05-2.64314E-05-2.89208E-05-3.92714E-06 1.61803E-18 1.53193E-19
 -1      3500 9.30547E-05-2.58859E-05-2.87820E-05-4.52357E-06 1.75678E-18-9.66261E-19
 -1      3501 9.40656E-05-2.65353E-05-2.89354E-05-3.51511E-06 8.11188E-19 9.32054E-19
 -1      3502 9.40928E-05-2.66184E-05-2.89241E-05-3.15433E-06 9.48125E-21 1.75854E-18
 -1      3503 9.33574E-05-2.60493E-05-2.88410E-05-3.64330E-06 1.38814E-18-1.20632E-18
 -1      3504 9.42631E-05-2.67591E-05-2.89254E-05-2.80675E-06-1.63562E-20 1.69564E-18
 -1      3505 9.43080E-05-2.68709E-05-2.89075E-05-2.49486E-06 4.42671E-19 1.98425E-18
 -1      3506 9.36921E-05-2.63278E-05-2.88650E-05-2.89809E-06 4.18625E-19 3.99783E-19
 -1      3507 9.44642E-05-2.70211E-05-2.89002E-05-2.20611E-06 2.71219E-19 2.05142E-18
 -1      3508 9.45126E-05-2.71394E-05-2.88793E-05-1.94244E-06 1.64197E-18 1.73867E-18
 -1      3509 9.40146E-05-2.66517E-05-2.88651E-05-2.27523E-06 5.72349E-19 2.45226E-18
 -1      3510 9.46466E-05-2.72834E-05-2.88672E-05-1.70526E-06 1.56259E-18 5.17041E-19
 -1      3511 9.46960E-05-2.73950E-05-2.88460E-05-1.48769E-06 6.91049E-19 9.76275E-19
 -1      3512 9.42997E-05-2.69737E-05-2.88502E-05-1.76217E-06 8.69666E-19 6.52577E-19
 -1      3513 8.12541E-05-2.19790E-05-3.72430E-05 2.40930E-05-5.49441E-17 3.88822E-17
 -1      3514 9.32039E-05-2.67944E-05-2.84568E-05-4.35679E-06 4.39813E-19-5.64558E-19
 -1      3515 9.32184E-05-2.68794E-05-2.84341E-05-4.06661E-06 3.44392E-19-5.86277E-19
 -1      3516 9.18578E-05-2.50326E-05-2.86313E-05-7.47673E-06 1.03753E-19-3.03930E-19
 -1      3517 9.19520E-05-2.52463E-05-2.86010E-05-6.95049E-06 2.43163E-19-3.72285E-19
 -1      3518 9.23217E-05-2.55571E-05-2.86064E-05-6.48940E-06 2.51368E-19-3.25647E-19
 -1      3519 9.23971E-05-2.57740E-05-2.85632E-05-6.04371E-06 2.21063E-19-2.99726E-19
 -1      3520 9.11520E-05-2.48081E-05-2.84250E-05-6.53485E-06 3.08787E-19-2.74040E-19
 -1      3521 9.07882E-05-2.43049E-05-2.84784E-05-1.00223E-05-5.58943E-19 7.60497E-19
 -1      3522 9.08306E-05-2.43289E-05-2.85180E-05-9.31540E-06-4.64387E-19 3.72686E-20
 -1      3523 9.03946E-05-2.44801E-05-2.82260E-05-1.16550E-05-7.46227E-20 1.15803E-18
 -1      3524 9.02801E-05-2.42295E-05-2.83263E-05-1.08455E-05-1.03662E-20 1.13968E-18
 -1      3525 8.84095E-05-2.31512E-05-2.79559E-05-1.01254E-05-5.33422E-19 4.28403E-19
 -1      3526 9.04426E-05-2.54682E-05-2.78069E-05-1.36200E-05-6.15345E-19 4.11462E-19
 -1      3527 8.99694E-05-2.47253E-05-2.79802E-05-1.26950E-05-1.73807E-19 9.07127E-19
 -1      3528 8.74409E-05-2.32183E-05-2.75161E-05-1.19400E-05 2.58265E-20 4.56329E-19
 -1      3529 9.14416E-05-2.78307E-05-2.72064E-05-1.60205E-05-6.56018E-19-2.00082E-19
 -1      3530 9.03021E-05-2.62864E-05-2.74475E-05-1.49769E-05-9.34808E-19 1.23037E-20
 -1      3531 8.67755E-05-2.41262E-05-2.68531E-05-1.43366E-05-4.15752E-19 1.29536E-19
 -1      3532 9.44563E-05-3.23858E-05-2.65387E-05-1.87896E-05-2.99512E-19-1.54411E-19
 -1      3533 9.20039E-05-2.95788E-05-2.67360E-05-1.76913E-05-4.53335E-19-2.08794E-19
 -1      3534 8.71047E-05-2.65608E-05-2.59365E-05-1.76531E-05-4.09172E-19-8.28256E-19
 -1      3535 1.21814E-04-5.43057E-05-2.89429E-05-1.64007E-05 2.07523E-20-4.48120E-19
 -1      3536 1.18492E-04-4.94488E-05-2.94908E-05-1.25642E-05-5.50406E-20 2.60661E-20
 -1      3537 1.11955E-04-4.81057E-05-2.76130E-05-1.94420E-05 4.91014E-21 7.66525E-19
 -1      3538 1.39151E-04-4.57225E-05-4.09057E-05 1.33195E-05 2.09807E-18-1.62212E-18
 -1      3539 1.40858E-04-5.12871E-05-3.81966E-05 5.86315E-06 1.57103E-18-9.04631E-19
 -1      3540 9.00602E-05-2.48209E-05-2.79796E-05 1.21898E-05-6.95108E-19-2.86369E-19
 -1      3541 9.05904E-05-2.58000E-05-2.77209E-05 1.32277E-05-2.39436E-19-5.59415E-19
 -1      3542 9.04383E-05-2.68941E-05-2.72419E-05 1.48050E-05-5.88383E-19-1.11883E-18
 -1      3543 9.18345E-05-2.88800E-05-2.69147E-05 1.59628E-05-1.40653E-18-1.31364E-18
 -1      3544 8.66017E-05-2.44184E-05-2.66578E-05 1.40189E-05-8.60211E-19-4.99943E-19
 -1      3545 9.05610E-05-2.15481E-05-2.95705E-05-4.23500E-06-1.13956E-18-1.65453E-18
 -1      3546 9.09552E-05-2.28801E-05-2.91931E-05-3.03991E-06-1.03352E-18-1.56869E-18
 -1      3547 1.39452E-04-4.27046E-05-4.15609E-05-1.73193E-05-8.96531E-19-5.57475E-18
 -1      3548 9.24986E-05-3.10809E-05-2.63059E-05 1.78839E-05-1.74971E-18-5.63804E-19
 -1      3549 9.56831E-05-3.46114E-05-2.61040E-05 1.91538E-05-1.13884E-18-1.25573E-19
 -1      3550 8.70162E-05-2.75848E-05-2.54640E-05 1.78728E-05-1.06028E-18 5.39854E-19
 -1      3551 9.05165E-05-2.40800E-05-2.84938E-05 1.00784E-05-1.96779E-19-1.30886E-18
 -1      3552 9.05864E-05-2.44419E-05-2.83211E-05 1.09906E-05-2.45898E-19-8.35397E-19
 -1      3553 8.74164E-05-2.31203E-05-2.75467E-05 1.12321E-05-1.19501E-19-7.34667E-19
 -1      3554 9.12787E-05-2.40834E-05-2.88171E-05 8.33654E-06 6.41368E-19-1.83736E-18
 -1      3555 9.11487E-05-2.41009E-05-2.87194E-05 9.13900E-06-1.75568E-19-1.39594E-18
 -1      3556 8.86264E-05-2.28845E-05-2.81601E-05 9.15468E-06-1.08450E-19-1.03883E-18
 -1      3557 9.20832E-05-2.44650E-05-2.89958E-05 6.86314E-06-1.78962E-19-1.09652E-18
 -1      3558 9.18908E-05-2.43087E-05-2.89542E-05 7.57029E-06 2.94554E-19-1.24585E-18
 -1      3559 8.98846E-05-2.32153E-05-2.85568E-05 7.52269E-06 3.25721E-19-8.44488E-19
 -1      3560 9.28111E-05-2.50057E-05-2.90734E-05 5.60065E-06-8.98633E-19-4.39184E-19
 -1      3561 9.26215E-05-2.47763E-05-2.90698E-05 6.22023E-06-1.23845E-19-1.03952E-18
 -1      3562 9.10328E-05-2.38154E-05-2.87935E-05 6.18037E-06-7.90769E-19-1.78304E-18
 -1      3563 9.34202E-05-2.55815E-05-2.90853E-05 4.51877E-06-2.15760E-18 3.19927E-19
 -1      3564 9.32594E-05-2.53354E-05-2.91048E-05 5.05490E-06-1.63149E-18-1.64446E-19
 -1      3565 9.20116E-05-2.45089E-05-2.89183E-05 5.04556E-06-1.58324E-18-7.99684E-19
 -1      3566 9.39061E-05-2.61265E-05-2.90579E-05 3.59938E-06-5.80766E-19 4.34107E-20
 -1      3567 9.37802E-05-2.58932E-05-2.90896E-05 4.05606E-06-1.37794E-18-7.98518E-20
 -1      3568 9.28112E-05-2.51969E-05-2.89686E-05 4.07755E-06-1.65509E-18 1.55301E-19
 -1      3569 9.42808E-05-2.66093E-05-2.90097E-05 2.82805E-06 3.17114E-19 1.60753E-18
 -1      3570 9.41877E-05-2.64030E-05-2.90462E-05 3.21067E-06 2.25754E-20 7.87162E-19
 -1      3571 9.34452E-05-2.58280E-05-2.89721E-05 3.25490E-06-8.64402E-19 3.22710E-19
 -1      3572 9.45614E-05-2.70177E-05-2.89533E-05 2.18959E-06 1.99404E-19 1.91168E-18
 -1      3573 9.44962E-05-2.68439E-05-2.89898E-05 2.50532E-06 1.88444E-19 2.49726E-18
 -1      3574 9.39362E-05-2.63781E-05-2.89486E-05 2.56313E-06-2.65313E-19 3.04053E-18
 -1      3575 9.47663E-05-2.73547E-05-2.88965E-05 1.67095E-06 5.30750E-19 2.44306E-18
 -1      3576 9.47240E-05-2.72131E-05-2.89301E-05 1.92400E-06 5.55402E-19 2.60817E-18
 -1      3577 9.43100E-05-2.68403E-05-2.89115E-05 1.98742E-06 3.26637E-19 3.71776E-18
 -1      3578 9.49148E-05-2.76182E-05-2.88439E-05 1.24686E-06 8.92068E-19 2.56067E-18
 -1      3579 9.48855E-05-2.75063E-05-2.88737E-05 1.45174E-06 7.58939E-19 1.66853E-18
 -1      3580 9.45800E-05-2.72088E-05-2.88691E-05 1.51814E-06 2.39263E-19 2.92299E-18
 -1      3581 9.85282E-05-6.46321E-06-4.00165E-05-3.19095E-06-1.02269E-17 1.06218E-17
 -1      3582 1.29122E-04-4.13009E-05-2.50071E-05-7.04889E-05 1.65632E-16-1.05669E-16
 -1      3583 1.56838E-04-6.22705E-05-2.82156E-05-4.37229E-05 1.06289E-16-1.12181E-16
 -1      3584 9.34498E-05-2.67427E-05-2.85902E-05-2.58065E-06 5.74173E-19-8.42742E-19
 -1      3585 9.34200E-05-2.65256E-05-2.86634E-05-2.17339E-06 7.62683E-19-8.66422E-19
 -1      3586 8.61275E-05-1.68469E-05-3.92677E-05 2.37071E-05-1.72295E-17 3.64275E-17
 -1      3587 9.33522E-05-2.69687E-05-2.84470E-05-3.80175E-06 9.77992E-20-6.42587E-19
 -1      3588 9.33534E-05-2.69773E-05-2.84472E-05-3.51369E-06-4.40064E-20-7.93971E-19
 -1      3589 9.30702E-05-2.66832E-05-2.84512E-05-3.87129E-06 1.65586E-19-1.03658E-18
 -1      3590 9.34370E-05-2.69681E-05-2.84855E-05-3.23494E-06 1.19527E-19-7.11477E-19
 -1      3591 9.34251E-05-2.68788E-05-2.85172E-05-2.91103E-06 3.58143E-19-6.84317E-19
 -1      3592 9.33835E-05-2.65725E-05-2.86347E-05-2.68834E-06 4.59073E-19-7.33020E-19
 -1      3593 8.86700E-05-1.70897E-05-3.06894E-05-2.24689E-06-4.97648E-20-2.43787E-18
 -1      3594 8.86878E-05-1.72387E-05-3.06349E-05-2.92930E-06-1.71360E-19-2.44340E-18
 -1      3595 8.95358E-05-1.87769E-05-3.03132E-05-2.88642E-06-3.23092E-19-2.13813E-18
 -1      3596 9.48714E-05-2.76873E-05-2.87964E-05 8.53547E-07 3.34292E-19 2.23817E-18
 -1      3597 9.49812E-05-2.77968E-05-2.87930E-05 8.70487E-07-3.86798E-19 3.11265E-18
 -1      3598 9.49811E-05-2.77654E-05-2.88062E-05 9.66311E-07 4.67359E-19 2.83439E-18
 -1      3599 9.47270E-05-2.75082E-05-2.88080E-05 9.30645E-07 5.93295E-19 3.07318E-18
 -1      3600 9.05354E-05-3.55359E-05-2.35470E-05 2.35113E-05-8.55655E-19 3.57448E-19
 -1      3601 9.27481E-05-2.39780E-05-2.94735E-05 1.20814E-06 1.22379E-18-1.28166E-18
 -1      3602 9.23960E-05-2.31306E-05-2.96929E-05 1.40800E-06 1.29867E-18-1.33516E-18
 -1      3603 9.29487E-05-2.47653E-05-2.92260E-05 2.79917E-07 1.01558E-18-1.23453E-18
 -1      3604 9.13255E-05-2.45678E-05-2.86003E-05-8.64493E-06-4.31193E-20 5.18357E-20
 -1      3605 9.14189E-05-2.47285E-05-2.85967E-05-8.03148E-06 7.42359E-20 7.18479E-21
 -1      3606 9.03514E-05-2.41431E-05-2.83645E-05-7.51277E-06-1.61891E-20-2.15941E-19
 -1      3607 8.94210E-05-2.35407E-05-2.82223E-05-8.68800E-06-3.25692E-19 1.33754E-19
 -1      3608 1.43166E-04-4.45085E-05-2.95543E-05-1.82400E-05 5.65708E-17-7.50403E-17
 -1      3609 1.29508E-04-3.89149E-05-2.92098E-05-3.28665E-05 4.54594E-17-5.30412E-17
 -1      3610 9.13566E-05-2.39340E-05-2.88782E-05-2.23372E-06-9.76585E-19-1.46790E-18
 -1      3611 9.14158E-05-2.45802E-05-2.86527E-05-1.54806E-06-8.24815E-19-1.55356E-18
 -1      3612 9.15382E-05-2.45136E-05-2.87227E-05-1.42433E-06-7.09817E-19-1.28968E-18
 -1      3613 1.19089E-04-1.91151E-05-3.08247E-05-1.89711E-05 3.00468E-17-2.82909E-17
 -1      3614 8.24841E-05-3.02123E-05-2.22500E-05 2.37970E-05-1.03605E-18 1.00133E-18
 -1      3615 9.20701E-05-2.24281E-05-2.98453E-05 1.17438E-06 1.09795E-18-1.35102E-18
 -1      3616 6.55551E-05-1.81399E-05-2.02901E-05 1.42420E-05 9.46460E-20 8.96796E-19
 -1      3617 5.87288E-05-1.46912E-05-1.84837E-05 1.05290E-05-1.79439E-19 9.70673E-19
 -1      3618 5.91027E-05-1.41524E-05-1.91754E-05 4.88360E-06 8.83760E-20 4.64703E-19
 -1      3619 1.06931E-04-4.45857E-05-2.67482E-05 7.74865E-06 8.40147E-19 3.53548E-18
 -1      3620 1.16002E-04-2.71721E-05-2.97513E-05-6.34396E-05 9.15812E-17-4.32986E-17
 -1      3621 1.26659E-04-3.23771E-05-3.83047E-05-3.57891E-05 6.89563E-17-2.53110E-17
 -1      3622 9.41261E-05-2.69563E-05-2.87908E-05-5.67973E-07-6.38819E-19-1.80545E-18
 -1      3623 9.39216E-05-2.67380E-05-2.87892E-05-5.25257E-07-6.42000E-19-2.08571E-18
 -1      3624 9.42290E-05-2.70428E-05-2.87931E-05-7.30062E-07-4.00912E-19-2.04798E-18
 -1      3625 9.09132E-05-2.04726E-05-3.02023E-05 1.75690E-07 6.95341E-19-1.94314E-18
 -1      3626 9.06547E-05-2.01263E-05-3.02351E-05-2.94535E-07 4.56658E-19-1.84553E-18
 -1      3627 5.39578E-05-1.31528E-05-1.73832E-05-7.37008E-06 2.01868E-18-1.58030E-18
 -1      3628 5.49800E-05-1.40094E-05-1.71642E-05-1.24989E-05 2.11006E-18-1.90418E-18
 -1      3629 6.40837E-05-2.65271E-05-1.56755E-05 2.63295E-05 3.45597E-18 1.14874E-18
 -1      3630 6.10846E-05-2.19982E-05-1.65858E-05 2.16485E-05 2.41516E-18 7.82658E-19
 -1      3631 7.27537E-05-3.07065E-05-1.80821E-05 2.61081E-05 2.79869E-18 1.57495E-18
 -1      3632 9.48174E-05-2.75257E-05-2.88377E-05-1.35414E-06 4.05156E-19 1.25776E-18
 -1      3633 9.48667E-05-2.76228E-05-2.88202E-05-1.19486E-06 3.82644E-19 7.97075E-19
 -1      3634 9.47725E-05-2.75375E-05-2.88152E-05-1.15429E-06-4.73944E-19-2.19562E-19
 -1      3635 9.45612E-05-2.72777E-05-2.88330E-05-1.40358E-06 7.84499E-19-6.50364E-19
 -1      3636 9.30199E-05-2.66254E-05-2.84604E-05-4.63856E-06 5.34153E-19-3.71668E-19
 -1      3637 9.27594E-05-2.64172E-05-2.84306E-05-4.42206E-06 3.80073E-19-9.19344E-19
 -1      3638 9.29887E-05-2.64801E-05-2.84982E-05-4.96062E-06 4.22450E-19-3.43506E-19
 -1      3639 7.31923E-05-2.79126E-05-1.90009E-05-2.85203E-05 4.96441E-19-3.81586E-18
 -1      3640 8.24086E-05-3.29360E-05-2.13784E-05-2.86717E-05 1.75336E-19-2.81625E-18
 -1      3641 6.99762E-05-2.35667E-05-1.97604E-05-2.40218E-05 4.78693E-19-2.92250E-18
 -1      3642 6.03727E-05-1.69600E-05-1.85026E-05-1.63218E-05 1.61098E-18-1.88698E-18
 -1      3643 9.18134E-05-2.54437E-05-2.84384E-05-5.71569E-06 3.46441E-19-4.49227E-19
 -1      3644 9.26979E-05-2.60564E-05-2.85544E-05-5.65985E-06 2.91869E-19-2.10749E-19
 -1      3645 9.27500E-05-2.62469E-05-2.85094E-05-5.28389E-06 4.09367E-19-2.69179E-19
 -1      3646 9.33456E-05-2.60665E-05-2.88351E-05-1.90922E-06 6.90322E-19-6.25808E-19
 -1      3647 9.33642E-05-2.62133E-05-2.87821E-05-1.74029E-06 7.34717E-19-9.72780E-19
 -1      3648 9.08764E-05-3.28978E-05-2.47191E-05-2.23755E-05-3.82518E-19-7.65185E-19
 -1      3649 8.36152E-05-2.83596E-05-2.35991E-05-2.25745E-05-2.38109E-19-1.60924E-18
 -1      3650 9.48149E-05-3.71630E-05-2.45150E-05-2.37117E-05-4.82094E-19-1.10988E-18
 -1      3651 1.02440E-04-4.45803E-05-2.44611E-05-2.59319E-05-8.57886E-20-1.30683E-18
 -1      3652 1.00398E-04-4.20117E-05-2.46909E-05-2.51400E-05-4.58245E-19-1.10505E-18
 -1      3653 9.39886E-05-2.68187E-05-2.87891E-05 6.84366E-08-5.51648E-19-3.80880E-18
 -1      3654 9.40129E-05-2.68359E-05-2.87915E-05 2.66272E-07-4.27893E-20-3.11700E-18
 -1      3655 9.38160E-05-2.66368E-05-2.87871E-05-5.99863E-08-3.84536E-19-4.25649E-18
 -1      3656 9.49896E-05-2.77345E-05-2.88224E-05 1.07618E-06 6.20780E-19 2.67537E-18
 -1      3657 9.40757E-05-2.68890E-05-2.87973E-05 4.93882E-07-8.13628E-21-1.47166E-18
 -1      3658 9.41668E-05-2.69622E-05-2.88021E-05 6.71021E-07 8.29109E-19-3.15643E-20
 -1      3659 9.38687E-05-2.66713E-05-2.87949E-05 4.20627E-07-2.41870E-19-2.54929E-18
 -1      3660 4.79128E-05-1.30744E-05-1.44515E-05 8.39408E-06 2.40522E-18-7.61800E-20
 -1      3661 5.08139E-05-1.25401E-05-1.62618E-05 2.13163E-06 1.83848E-18-1.00331E-18
 -1      3662 5.29549E-05-1.56511E-05-1.58277E-05 1.27751E-05 2.26896E-18 6.80062E-19
 -1      3663 1.13075E-04-2.95176E-05-2.65817E-05-6.11535E-05 1.49028E-16-7.04274E-17
 -1      3664 9.10673E-05-2.28594E-05-2.92421E-05-2.75444E-06-9.50946E-19-1.47970E-18
 -1      3665 9.33008E-05-2.59104E-05-2.88742E-05-1.27342E-06 7.73512E-19-1.05008E-18
 -1      3666 7.83383E-05-2.55831E-05-2.25923E-05 2.01255E-05-4.99961E-19 8.58283E-19
 -1      3667 9.02392E-05-2.07078E-05-2.97848E-05-4.56656E-06-1.09569E-18-1.78297E-18
 -1      3668 9.11820E-05-2.11400E-05-2.99992E-05-7.06745E-07 4.29641E-19-1.81333E-18
 -1      3669 9.04472E-05-1.98966E-05-3.02471E-05-6.73282E-07 4.08547E-19-1.89278E-18
 -1      3670 9.02841E-05-1.97473E-05-3.02398E-05-1.16686E-06 2.46056E-19-2.10643E-18
 -1      3671 1.09407E-04-4.94015E-05-2.53352E-05-2.54618E-05 9.17707E-20-6.63690E-19
 -1      3672 9.02852E-05-2.07789E-05-2.97826E-05-3.95422E-06-8.90106E-19-1.68040E-18
 -1      3673 1.51502E-04-5.07303E-05-3.21743E-05-2.91730E-05 8.32396E-17-7.89570E-17
 -1      3674 1.41005E-04-4.09028E-05-3.56368E-05-3.09892E-05 7.65783E-17-4.28421E-17
 -1      3675 1.37959E-04-4.21947E-05-3.43801E-05-4.17690E-05 9.71569E-17-5.90695E-17
 -1      3676 9.32810E-05-2.67523E-05-2.85131E-05-3.31571E-06 2.05170E-19-6.83613E-19
 -1      3677 9.08176E-05-1.99438E-05-3.03512E-05 1.24906E-06 1.02524E-18-1.93682E-18
 -1      3678 9.42835E-05-2.70711E-05-2.88097E-05 8.28037E-07 6.67196E-19 8.61801E-19
 -1      3679 9.44088E-05-2.71704E-05-2.88137E-05 9.36699E-07 7.60262E-19 1.88023E-18
 -1      3680 9.40741E-05-2.68404E-05-2.88104E-05 8.22073E-07 1.56629E-19 8.17278E-20
 -1      3681 8.95371E-05-1.84803E-05-3.04365E-05-1.86782E-06-1.01346E-20-2.26520E-18
 -1      3682 9.14426E-05-4.23817E-05-2.08251E-05 2.56099E-05 3.01226E-18 2.45244E-18
 -1      3683 8.55299E-05-3.77101E-05-2.01851E-05 2.55203E-05 2.76215E-18 2.27111E-18
 -1      3684 9.64127E-05-4.30962E-05-2.29266E-05 2.03800E-05 2.11089E-18 2.35078E-18
 -1      3685 9.01154E-05-2.03251E-05-2.99271E-05-3.61698E-06-7.58879E-19-1.72830E-18
 -1      3686 9.05226E-05-2.11159E-05-2.97268E-05-3.39502E-06-7.82848E-19-1.63724E-18
 -1      3687 8.99586E-05-1.98446E-05-3.00505E-05-3.26218E-06-5.19206E-19-1.62036E-18
 -1      3688 9.47840E-05-2.75142E-05-2.88280E-05 1.13480E-06 4.87638E-19 4.05861E-18
 -1      3689 5.87364E-05-7.04872E-06-1.77345E-05-2.71385E-05 8.83650E-17-5.51753E-18
 -1      3690 7.48692E-05-6.75460E-06-2.20478E-05-4.60303E-05 1.46321E-16-3.31465E-17
 -1      3691 5.82792E-05-1.38481E-05-1.90193E-05-5.50893E-06 6.12054E-19-6.58674E-19
 -1      3692 9.46807E-05-2.74615E-05-2.88108E-05-1.09764E-06-6.44119E-19-1.19881E-18
 -1      3693 9.17422E-05-2.50829E-05-2.85652E-05-8.74248E-07-5.04130E-19-1.09383E-18
 -1      3694 9.17103E-05-2.54396E-05-2.84070E-05-4.79335E-07-6.15912E-19-1.16832E-18
 -1      3695 9.16427E-05-2.56957E-05-2.82616E-05-1.98921E-07-6.59768E-19-1.03529E-18
 -1      3696 9.15150E-05-2.58544E-05-2.81428E-05 1.17394E-07-5.99336E-19-8.87830E-19
 -1      3697 9.17810E-05-2.53842E-05-2.84523E-05-5.28420E-07-5.88076E-19-9.80336E-19
 -1      3698 9.13329E-05-2.59289E-05-2.80305E-05 3.55631E-07-3.57574E-19-6.77835E-19
 -1      3699 9.11380E-05-2.59407E-05-2.79421E-05 6.27319E-07-2.79876E-19-6.81862E-19
 -1      3700 9.15304E-05-2.57453E-05-2.81909E-05-7.62960E-09-3.87524E-19-9.14586E-19
 -1      3701 9.08670E-05-2.58786E-05-2.78542E-05 8.49752E-07-3.25403E-19-6.47405E-19
 -1      3702 9.06233E-05-2.57832E-05-2.77874E-05 1.10827E-06-3.08340E-19-6.41907E-19
 -1      3703 9.10794E-05-2.57717E-05-2.79865E-05 4.52893E-07-2.68395E-19-8.11698E-19
 -1      3704 9.02812E-05-2.56219E-05-2.77150E-05 1.34061E-06-4.14953E-19-6.62250E-19
 -1      3705 9.00021E-05-2.54537E-05-2.76610E-05 1.61260E-06-4.34114E-19-6.05628E-19
 -1      3706 9.04698E-05-2.55463E-05-2.78215E-05 9.04001E-07-3.75549E-19-7.57546E-19
 -1      3707 8.96018E-05-2.52269E-05-2.75948E-05 1.87822E-06-4.16441E-19-7.86526E-19
 -1      3708 8.93000E-05-2.50198E-05-2.75448E-05 2.18564E-06-3.23163E-19-9.86908E-19
 -1      3709 8.97313E-05-2.51422E-05-2.76776E-05 1.39337E-06-5.65720E-19-7.21488E-19
 -1      3710 8.88538E-05-2.47622E-05-2.74750E-05 2.50589E-06-2.28444E-19-1.18547E-18
 -1      3711 8.85462E-05-2.45539E-05-2.74199E-05 2.86645E-06-3.10083E-19-1.04778E-18
 -1      3712 8.88882E-05-2.46297E-05-2.75353E-05 1.96563E-06-4.17988E-19-1.06441E-18
 -1      3713 8.80696E-05-2.43054E-05-2.73361E-05 3.26219E-06-4.63757E-19-7.31699E-19
 -1      3714 8.77822E-05-2.41429E-05-2.72665E-05 3.69086E-06-2.65067E-19-5.35655E-19
 -1      3715 8.79669E-05-2.40844E-05-2.73739E-05 2.66326E-06-2.38128E-19-9.97001E-19
 -1      3716 8.73001E-05-2.39549E-05-2.71575E-05 4.18447E-06-6.71192E-20-4.68126E-19
 -1      3717 8.70753E-05-2.39005E-05-2.70643E-05 4.69370E-06-1.99443E-20-2.76849E-19
 -1      3718 8.70061E-05-2.35979E-05-2.71709E-05 3.53223E-06-6.91709E-20-6.52717E-19
 -1      3719 8.66287E-05-2.38411E-05-2.69188E-05 5.31073E-06-1.30878E-19-3.41838E-19
 -1      3720 8.65348E-05-2.39790E-05-2.67942E-05 5.91038E-06-3.33798E-19-1.31498E-19
 -1      3721 8.60681E-05-2.32890E-05-2.69030E-05 4.62532E-06 4.51695E-21-5.17770E-19
 -1      3722 8.61925E-05-2.41406E-05-2.66022E-05 6.68072E-06-1.94713E-19 2.03437E-19
 -1      3723 8.63363E-05-2.45850E-05-2.64424E-05 7.37375E-06 6.54736E-20 2.04698E-19
 -1      3724 8.52567E-05-2.33182E-05-2.65467E-05 6.00770E-06-2.09681E-20-1.74771E-19
 -1      3725 8.62142E-05-2.50939E-05-2.61979E-05 8.32610E-06-2.94584E-20 2.22909E-19
 -1      3726 8.67565E-05-2.59947E-05-2.60089E-05 9.09317E-06-1.69828E-19 1.69389E-19
 -1      3727 8.47461E-05-2.39087E-05-2.60832E-05 7.75754E-06-1.99880E-19 5.48513E-19
 -1      3728 8.70481E-05-2.70167E-05-2.57178E-05 1.02323E-05-6.36044E-20 7.07193E-19
 -1      3729 8.82096E-05-2.85569E-05-2.55264E-05 1.10014E-05 1.80392E-19 1.15995E-18
 -1      3730 8.48299E-05-2.53742E-05-2.55067E-05 9.94451E-06 2.78156E-19 1.90434E-19
 -1      3731 8.92152E-05-3.02664E-05-2.52226E-05 1.22297E-05 2.60588E-19 1.52792E-18
 -1      3732 9.12422E-05-3.26056E-05-2.50895E-05 1.28195E-05 4.08255E-19 1.38838E-18
 -1      3733 8.59981E-05-2.81450E-05-2.48492E-05 1.25421E-05 4.50208E-19 1.00423E-18
 -1      3734 9.35462E-05-3.53495E-05-2.48517E-05 1.38308E-05 2.82885E-19 1.57184E-18
 -1      3735 9.67867E-05-3.84069E-05-2.49606E-05 1.35625E-05 9.02031E-19 2.12350E-18
 -1      3736 8.90303E-05-3.27578E-05-2.42239E-05 1.53530E-05 5.05533E-19 1.32907E-18
 -1      3737 1.36635E-04-3.38479E-05-4.04644E-05-4.10385E-05 8.86422E-17-3.26845E-17
 -1      3738 8.31217E-05-2.24530E-05-2.59682E-05-1.38905E-05-1.77857E-19-1.46881E-19
 -1      3739 8.33514E-05-2.18869E-05-2.63924E-05-1.25760E-05-1.97393E-19 6.74830E-20
 -1      3740 9.11988E-05-2.08758E-05-3.01451E-05 5.14261E-07 8.09662E-19-1.97074E-18
 -1      3741 9.16486E-05-2.17666E-05-2.99303E-05-7.86749E-08 6.19556E-19-1.80191E-18
 -1      3742 9.15460E-05-2.14356E-05-3.00664E-05 9.25265E-07 9.55119E-19-1.70723E-18
 -1      3743 9.00521E-05-2.41276E-05-2.82506E-05-6.28022E-06 2.73795E-19-1.43970E-19
 -1      3744 9.04256E-05-2.44808E-05-2.82746E-05-5.86088E-06 4.64660E-19 4.19901E-20
 -1      3745 1.41951E-04-3.34346E-05-4.43051E-05-4.54583E-05 1.09837E-16-3.70141E-17
 -1      3746 1.61834E-04-4.47649E-05-4.76346E-05-3.88687E-05 1.52389E-16-5.06546E-17
 -1      3747 1.40349E-04-3.89167E-05-4.22440E-05-3.20232E-05 1.05979E-16-4.30310E-17
 -1      3748 1.63138E-04-4.05404E-05-4.96292E-05-3.22039E-05 1.74216E-16-8.82102E-17
 -1      3749 1.59495E-04-2.44344E-05-5.37080E-05-2.65707E-05 2.02171E-16-1.92207E-16
 -1      3750 1.41031E-04-2.67725E-05-4.77939E-05-2.45327E-05 1.17335E-16-7.72806E-17
 -1      3751 1.57704E-04-8.83545E-06-4.71085E-05-4.63736E-05 1.94251E-16-2.73868E-16
 -1      3752 1.21546E-04-1.25898E-05-2.97756E-05-3.64748E-05 6.63837E-17-2.10981E-16
 -1      3753 1.48977E-04-2.46250E-05-4.22062E-05-2.59801E-05 5.20027E-17-2.04877E-16
 -1      3754 9.15269E-05-2.63124E-05-2.79240E-05-8.26493E-06-6.11521E-19 6.85239E-19
 -1      3755 9.11705E-05-2.57256E-05-2.80613E-05-7.55288E-06-5.72985E-19 4.49537E-19
 -1      3756 8.92433E-05-2.51769E-05-2.74601E-05-8.70114E-06-6.27707E-19 5.51511E-19
 -1      3757 9.13820E-05-2.54528E-05-2.82408E-05-6.72010E-06 1.32530E-21-3.03750E-19
 -1      3758 9.13000E-05-2.51914E-05-2.83468E-05-6.09184E-06 1.04505E-18 4.91447E-19
 -1      3759 8.95699E-05-2.44537E-05-2.79021E-05-6.80733E-06-3.74811E-19-8.45756E-19
 -1      3760 9.16211E-05-2.51550E-05-2.84776E-05-5.43042E-06 3.55072E-19-6.22624E-19
 -1      3761 9.16937E-05-2.51053E-05-2.85515E-05-4.88668E-06 5.42917E-19-4.82317E-19
 -1      3762 9.01856E-05-2.42898E-05-2.82325E-05-5.33296E-06 1.75871E-19-1.40672E-18
 -1      3763 9.20538E-05-2.52151E-05-2.86411E-05-4.35880E-06 9.96401E-19-1.27039E-18
 -1      3764 9.22038E-05-2.52951E-05-2.86872E-05-3.89421E-06 1.30845E-18-2.15089E-18
 -1      3765 9.09170E-05-2.44716E-05-2.84667E-05-4.17602E-06-1.42538E-19-2.14963E-18
 -1      3766 9.25589E-05-2.54847E-05-2.87443E-05-3.47224E-06 2.08459E-18-2.34810E-18
 -1      3767 9.27377E-05-2.56350E-05-2.87687E-05-3.07896E-06 1.47443E-18-1.94363E-18
 -1      3768 9.16621E-05-2.48525E-05-2.86229E-05-3.26339E-06 9.56940E-19-2.80268E-18
 -1      3769 9.30648E-05-2.58598E-05-2.88016E-05-2.74098E-06 1.36312E-18-5.24906E-19
 -1      3770 9.32436E-05-2.60402E-05-2.88103E-05-2.41183E-06 2.10741E-18 8.87296E-19
 -1      3771 9.23613E-05-2.53281E-05-2.87198E-05-2.53836E-06 2.42649E-18-2.61021E-18
 -1      3772 9.35298E-05-2.62682E-05-2.88262E-05-2.14258E-06 7.94497E-19 1.05017E-18
 -1      3773 9.36922E-05-2.64521E-05-2.88245E-05-1.86891E-06 2.99639E-19 1.43187E-18
 -1      3774 9.29852E-05-2.58296E-05-2.87737E-05-1.96248E-06 1.63758E-18-3.21878E-19
 -1      3775 9.39364E-05-2.66684E-05-2.88291E-05-1.65461E-06-5.02642E-19 1.32297E-19
 -1      3776 9.40822E-05-2.68390E-05-2.88215E-05-1.43121E-06-7.50708E-19-1.44453E-18
 -1      3777 9.35158E-05-2.63085E-05-2.87979E-05-1.50718E-06-1.31465E-18-2.34325E-18
 -1      3778 6.61847E-05-1.94901E-05-1.96765E-05-1.99650E-05 1.17770E-18-2.34903E-18
 -1      3779 7.29806E-05-2.33251E-05-2.13002E-05-2.15276E-05 4.69636E-19-2.50170E-18
 -1      3780 6.42567E-05-1.71033E-05-2.01410E-05-1.47120E-05 1.61763E-18-1.61100E-18
 -1      3781 9.33045E-05-2.60006E-05-2.88473E-05-2.07499E-06 6.16540E-19-9.14084E-19
 -1      3782 9.32387E-05-2.56222E-05-2.89737E-05-1.62965E-06 5.26003E-19-9.40365E-19
 -1      3783 8.46000E-05-2.18602E-05-2.68677E-05-1.14052E-05-2.95743E-19-1.16190E-20
 -1      3784 8.50595E-05-2.17700E-05-2.71600E-05-1.04458E-05-1.04353E-20 1.90458E-20
 -1      3785 8.11893E-05-2.03251E-05-2.60525E-05-1.08870E-05 1.10275E-19-3.38893E-19
 -1      3786 8.61629E-05-2.20193E-05-2.74798E-05-9.62215E-06-2.58003E-19-1.79098E-19
 -1      3787 8.66887E-05-2.21930E-05-2.76674E-05-8.88259E-06-6.15511E-19-4.60066E-20
 -1      3788 8.35418E-05-2.07497E-05-2.68839E-05-9.08563E-06-2.18692E-19-2.05195E-19
 -1      3789 8.20647E-05-2.44319E-05-2.47012E-05-1.77148E-05-2.41677E-19-1.05770E-18
 -1      3790 8.17009E-05-2.29017E-05-2.52750E-05-1.56284E-05-3.50319E-19-6.44359E-19
 -1      3791 7.85540E-05-2.04829E-05-2.48340E-05-1.35598E-05 3.48326E-19-8.59945E-19
 -1      3792 7.86431E-05-2.41689E-05-2.33664E-05-1.93370E-05 4.04333E-19-1.29832E-18
 -1      3793 8.69274E-05-2.18396E-05-2.79257E-05 7.66052E-06 5.95415E-19-1.23461E-18
 -1      3794 8.62723E-05-2.17027E-05-2.76615E-05 8.49278E-06 3.26645E-19-4.98326E-19
 -1      3795 8.86590E-05-2.25188E-05-2.83689E-05 6.30426E-06-1.74287E-19-5.84164E-19
 -1      3796 8.80343E-05-2.22185E-05-2.82027E-05 6.97472E-06 5.00337E-20-8.37222E-19
 -1      3797 8.59230E-05-2.10997E-05-2.77511E-05 6.33976E-06 1.72622E-19-1.02135E-18
 -1      3798 9.01194E-05-2.33291E-05-2.86423E-05 5.19576E-06-1.02883E-18-9.39714E-19
 -1      3799 8.95738E-05-2.29638E-05-2.85460E-05 5.76055E-06-4.64789E-19-7.88167E-19
 -1      3800 8.79253E-05-2.20070E-05-2.82264E-05 5.24495E-06-4.14488E-19-6.93725E-19
 -1      3801 9.13181E-05-2.41560E-05-2.87979E-05 4.25637E-06-2.02504E-18-3.80897E-19
 -1      3802 9.08652E-05-2.37821E-05-2.87495E-05 4.74161E-06-1.22358E-18-9.20640E-19
 -1      3803 8.95660E-05-2.29588E-05-2.85271E-05 4.34935E-06-1.20214E-18-4.56795E-19
 -1      3804 9.22811E-05-2.49337E-05-2.88744E-05 3.45090E-06-1.23505E-18-3.91279E-19
 -1      3805 9.19178E-05-2.45827E-05-2.88573E-05 3.86869E-06-1.84873E-18-6.79713E-19
 -1      3806 9.08943E-05-2.38783E-05-2.87064E-05 3.58474E-06-1.61145E-18-7.88932E-20
 -1      3807 9.30411E-05-2.56289E-05-2.89001E-05 2.76211E-06-1.20160E-18 9.06552E-19
 -1      3808 9.27568E-05-2.53160E-05-2.89023E-05 3.11882E-06-1.33365E-18 1.54128E-19
 -1      3809 9.19557E-05-2.47212E-05-2.88035E-05 2.92265E-06-1.50441E-18 2.81623E-19
 -1      3810 9.36310E-05-2.62254E-05-2.88953E-05 2.17914E-06-6.67072E-19 2.24325E-18
 -1      3811 9.34134E-05-2.59577E-05-2.89082E-05 2.48103E-06-1.02122E-18 1.23213E-18
 -1      3812 9.27929E-05-2.54641E-05-2.88467E-05 2.35092E-06-1.60943E-18 2.26857E-18
 -1      3813 9.40748E-05-2.67197E-05-2.88724E-05 1.68565E-06-1.33943E-19 1.90502E-18
 -1      3814 9.39181E-05-2.65001E-05-2.88914E-05 1.94320E-06-1.67275E-19 1.96582E-18
 -1      3815 9.34420E-05-2.60984E-05-2.88567E-05 1.86526E-06-7.37522E-19 1.91454E-18
 -1      3816 8.15825E-05-2.53063E-05-2.40855E-05 1.78993E-05-5.20919E-19 1.01129E-18
 -1      3817 7.25682E-05-2.08973E-05-2.19386E-05 1.70780E-05 2.19832E-20 3.65548E-19
 -1      3818 6.96335E-05-1.84257E-05-2.19661E-05 1.29675E-05 2.21221E-20 7.58942E-19
 -1      3819 8.10729E-05-2.33158E-05-2.48226E-05 1.54905E-05-1.00582E-18 4.52244E-19
 -1      3820 9.32055E-05-2.56181E-05-2.89686E-05-8.54756E-07 8.35196E-19-1.14023E-18
 -1      3821 9.31094E-05-2.51831E-05-2.91026E-05-2.38493E-07 8.94142E-19-1.21427E-18
 -1      3822 9.29641E-05-2.46371E-05-2.92928E-05-5.90286E-08 9.94713E-19-1.16838E-18
 -1      3823 9.31841E-05-2.53912E-05-2.90617E-05-1.04853E-06 8.08995E-19-9.82676E-19
 -1      3824 9.23890E-05-2.31345E-05-2.96629E-05 4.30020E-07 9.02820E-19-1.33758E-18
 -1      3825 9.32882E-05-2.64517E-05-2.86449E-05-2.75349E-06 2.98792E-19-7.48200E-19
 -1      3826 9.33049E-05-2.62705E-05-2.87278E-05-2.40031E-06 5.14504E-19-7.90542E-19
 -1      3827 9.31860E-05-2.58638E-05-2.88518E-05-2.14795E-06 4.36844E-19-1.00870E-18
 -1      3828 1.15590E-04-5.21236E-05-2.71694E-05-2.13959E-05 6.04027E-19 8.63034E-19
 -1      3829 8.29706E-05-2.18262E-05-2.62627E-05 1.19027E-05-5.30650E-19-4.23077E-19
 -1      3830 8.27212E-05-2.26342E-05-2.57063E-05 1.34629E-05-8.52905E-19 1.91247E-19
 -1      3831 7.77614E-05-2.05665E-05-2.44523E-05 1.31674E-05-6.21391E-19 7.86152E-21
 -1      3832 9.27785E-05-2.64277E-05-2.84345E-05-3.81700E-06 2.66447E-19-9.40474E-19
 -1      3833 9.29119E-05-2.65148E-05-2.84584E-05-3.54503E-06 2.93546E-19-8.90094E-19
 -1      3834 8.98420E-05-1.93359E-05-3.02280E-05-2.41228E-06-2.13906E-19-2.38362E-18
 -1      3835 8.98888E-05-1.95592E-05-3.01494E-05-2.87876E-06-4.42589E-19-1.92737E-18
 -1      3836 9.02675E-05-2.02949E-05-2.99720E-05-2.78014E-06-4.89388E-19-1.79010E-18
 -1      3837 8.49992E-05-2.15069E-05-2.72538E-05 9.43074E-06-1.41402E-19-6.73362E-20
 -1      3838 8.44317E-05-2.16978E-05-2.68602E-05 1.05306E-05-2.01186E-19-4.22453E-19
 -1      3839 8.08187E-05-2.00713E-05-2.59916E-05 9.89695E-06-3.48133E-19-7.18357E-20
 -1      3840 8.35554E-05-2.03824E-05-2.70370E-05 7.79719E-06-9.55280E-20 1.76989E-19
 -1      3841 9.43567E-05-2.71080E-05-2.88243E-05-1.33228E-06 3.41921E-19-2.08658E-18
 -1      3842 9.44873E-05-2.72455E-05-2.88177E-05-1.20730E-06 2.61944E-19-2.18393E-18
 -1      3843 9.45113E-05-2.72962E-05-2.88048E-05-1.02889E-06-2.66718E-19-1.94057E-18
 -1      3844 9.40421E-05-2.68165E-05-2.88082E-05-1.21659E-06-9.17674E-19-2.07038E-18
 -1      3845 9.46395E-05-2.73852E-05-2.88263E-05 1.09590E-06 8.29747E-19 3.59889E-18
 -1      3846 9.31030E-05-2.65700E-05-2.85134E-05-3.31172E-06 3.15997E-19-9.78928E-19
 -1      3847 9.31829E-05-2.65395E-05-2.85622E-05-3.01619E-06 3.28578E-19-7.88870E-19
 -1      3848 9.30966E-05-2.62652E-05-2.86422E-05-2.75203E-06 4.11348E-19-8.27482E-19
 -1      3849 9.28106E-05-2.63153E-05-2.84964E-05-3.25911E-06 3.85174E-19-7.09210E-19
 -1      3850 5.43053E-05-1.25349E-05-1.75750E-05-3.10632E-06 1.90996E-18-1.68388E-18
 -1      3851 5.87893E-05-1.38586E-05-1.92202E-05-6.88252E-06 1.57125E-18-1.72755E-18
 -1      3852 5.57657E-05-1.32999E-05-1.81562E-05 1.81273E-06 1.65883E-18-9.87323E-19
 -1      3853 9.01708E-05-1.96958E-05-3.02119E-05-1.55331E-06 1.55501E-19-2.07175E-18
 -1      3854 9.01135E-05-1.97316E-05-3.01673E-05-2.02469E-06-6.58875E-20-2.23303E-18
 -1      3855 9.08690E-05-2.08678E-05-2.99824E-05-1.37994E-06 2.00218E-19-2.02147E-18
 -1      3856 9.63981E-05-1.48477E-05-2.79029E-05-5.65938E-05 1.50943E-16-5.82801E-17
 -1      3857 1.17726E-04-3.08074E-05-3.16317E-05-5.37036E-05 1.23618E-16-6.60152E-17
 -1      3858 9.09666E-05-2.23884E-05-2.93964E-05-2.58879E-06-7.71781E-19-1.43723E-18
 -1      3859 9.15593E-05-2.39983E-05-2.89603E-05-1.74522E-06-6.81739E-19-1.17707E-18
 -1      3860 9.16532E-05-2.45866E-05-2.87513E-05-1.23078E-06-4.97964E-19-1.12545E-18
 -1      3861 9.17637E-05-2.45779E-05-2.87872E-05-1.15810E-06-5.20927E-19-1.00175E-18
 -1      3862 9.43602E-05-2.71678E-05-2.88006E-05-9.16861E-07-1.29118E-19-2.75996E-18
 -1      3863 9.41576E-05-2.69488E-05-2.88012E-05-9.41975E-07-5.60893E-19-1.84488E-18
 -1      3864 9.44246E-05-2.71545E-05-2.88321E-05 1.15646E-06 5.21869E-19 2.45800E-18
 -1      3865 9.31046E-05-2.51039E-05-2.91464E-05-1.13689E-06 5.27879E-19-1.01147E-18
 -1      3866 9.30080E-05-2.47327E-05-2.92529E-05-6.88495E-07 6.73490E-19-1.09721E-18
 -1      3867 9.43005E-05-2.69826E-05-2.88503E-05 1.34909E-06-1.68152E-19 1.85811E-18
 -1      3868 9.19294E-05-3.77682E-05-2.31338E-05 1.90250E-05 1.60371E-18 2.03439E-18
 -1      3869 9.75269E-05-4.06964E-05-2.42789E-05 1.59763E-05 1.54181E-18 2.46925E-18
 -1      3870 7.35229E-05-2.01809E-05-2.27292E-05-1.65541E-05 5.04775E-19-1.31267E-18
 -1      3871 9.37498E-05-2.65812E-05-2.87870E-05-7.16523E-07-1.01509E-19-1.44393E-18
 -1      3872 9.36478E-05-2.64952E-05-2.87831E-05-4.93764E-07-5.33535E-19-3.64912E-18
 -1      3873 9.21646E-05-2.29028E-05-2.96938E-05-3.31846E-07 5.63021E-19-1.75645E-18
 -1      3874 9.19087E-05-2.24964E-05-2.97527E-05-5.75437E-07 4.79783E-19-1.70154E-18
 -1      3875 8.93861E-05-2.36866E-05-2.81727E-05-6.68172E-06 1.02414E-19-7.97571E-20
 -1      3876 8.87618E-05-2.33413E-05-2.80228E-05-5.96216E-06 3.39713E-19 1.90563E-19
 -1      3877 8.89414E-05-2.33308E-05-2.81155E-05-7.17815E-06-7.74268E-20-3.70957E-20
 -1      3878 9.23443E-05-2.59926E-05-2.84328E-05-5.02283E-06 2.75776E-19-4.68881E-19
 -1      3879 6.50735E-05-2.18579E-05-1.85981E-05 1.89712E-05 1.71810E-18 7.45257E-19
 -1      3880 5.87363E-05-1.82694E-05-1.69680E-05 1.68156E-05 2.26327E-18 6.26249E-19
 -1      3881 5.78778E-05-1.58650E-05-1.79438E-05 1.08769E-05 1.77768E-18 4.30902E-19
 -1      3882 9.30310E-05-2.50108E-05-2.91500E-05-1.33930E-06 5.13530E-19-1.31042E-18
 -1      3883 9.23205E-05-2.60737E-05-2.83895E-05-4.32528E-06 3.62735E-19-9.89751E-19
 -1      3884 9.25060E-05-2.62558E-05-2.83978E-05-4.04702E-06 3.32242E-19-1.23001E-18
 -1      3885 9.23551E-05-2.60904E-05-2.83958E-05-3.72073E-06 4.28059E-19-1.12472E-18
 -1      3886 6.49771E-05-1.57911E-05-2.08513E-05-1.14139E-05 1.17327E-18-1.50477E-18
 -1      3887 6.91189E-05-1.81790E-05-2.18689E-05-1.45193E-05 8.17867E-19-1.55012E-18
 -1      3888 7.31513E-05-1.89282E-05-2.32784E-05-1.36489E-05 5.35255E-19-1.17314E-18
 -1      3889 9.35794E-05-2.64280E-05-2.87807E-05-2.05437E-07-7.50999E-19-4.40806E-18
 -1      3890 9.35620E-05-2.64078E-05-2.87821E-05 4.33044E-08-5.57575E-19-3.81946E-18
 -1      3891 9.33967E-05-2.62415E-05-2.87767E-05-4.02666E-07-5.97652E-19-3.45082E-18
 -1      3892 9.09743E-05-2.48860E-05-2.83210E-05-5.52634E-06 1.52895E-19-2.68651E-19
 -1      3893 9.12772E-05-2.52020E-05-2.83278E-05-5.16933E-06-9.43012E-20-4.27398E-19
 -1      3894 8.99610E-05-2.42256E-05-2.81615E-05-5.28028E-06 1.20159E-19-3.56458E-19
 -1      3895 9.05041E-05-2.04504E-05-3.00071E-05-2.04775E-06-1.01322E-19-2.17935E-18
 -1      3896 8.08556E-05-3.34089E-05-2.01908E-05 2.35705E-05 2.35192E-18 1.80921E-18
 -1      3897 9.39588E-05-2.66730E-05-2.88354E-05 1.29599E-06-4.97255E-19 1.17376E-18
 -1      3898 6.38993E-05-1.51133E-05-2.09272E-05-7.63222E-06 9.83094E-19-1.19178E-18
 -1      3899 1.28321E-04-3.50829E-05-3.53358E-05-4.49296E-05 1.13956E-16-6.04985E-17
 -1      3900 1.33128E-04-3.38314E-05-3.93048E-05-3.60349E-05 1.02041E-16-4.88848E-17
 -1      3901 1.32573E-04-2.86605E-05-4.27007E-05-3.28162E-05 1.08191E-16-5.12646E-17
 -1      3902 1.12411E-04-2.02817E-05-3.61657E-05-4.31210E-05 1.14394E-16-4.99589E-17
 -1      3903 9.03786E-05-9.77855E-06-2.69177E-05-4.55411E-05 1.28383E-16-4.54342E-17
 -1      3904 9.35944E-05-2.64300E-05-2.87878E-05 3.44690E-07-9.59629E-19-3.51985E-18
 -1      3905 9.36664E-05-2.64849E-05-2.87950E-05 5.80795E-07-4.32465E-19-3.24099E-18
 -1      3906 9.33471E-05-2.61872E-05-2.87799E-05 2.06271E-07-1.13819E-18-4.18719E-18
 -1      3907 9.16903E-05-2.22231E-05-2.97832E-05-7.61549E-07 3.77732E-19-1.66012E-18
 -1      3908 9.14960E-05-2.19952E-05-2.97948E-05-1.04671E-06 2.85206E-19-1.88940E-18
 -1      3909 9.22080E-05-2.31965E-05-2.95598E-05-9.51598E-07 3.22216E-19-1.64402E-18
 -1      3910 9.38707E-05-2.66830E-05-2.87977E-05-1.01365E-06-1.16316E-18-1.58565E-18
 -1      3911 1.07484E-04-4.74319E-05-2.57351E-05 1.21559E-05 1.84727E-18 3.73005E-18
 -1      3912 1.03724E-04-4.53539E-05-2.48099E-05 1.46899E-05 1.89986E-18 3.21470E-18
 -1      3913 1.09175E-04-4.67000E-05-2.69181E-05 7.66300E-06 1.57621E-18 4.50268E-18
 -1      3914 9.36998E-05-2.64909E-05-2.88063E-05 8.61973E-07-2.28519E-19-6.18342E-19
 -1      3915 9.38373E-05-2.66047E-05-2.88163E-05 1.02610E-06-3.06784E-19 1.48998E-18
 -1      3916 9.35878E-05-2.63069E-05-2.88320E-05 1.35644E-06-1.01648E-18 9.70060E-19
 -1      3917 9.34076E-05-2.62125E-05-2.87977E-05 7.97006E-07-1.02654E-18-1.68211E-18
 -1      3918 5.99799E-05-1.34141E-05-1.96377E-05 1.16571E-07 5.47817E-19-1.26402E-18
 -1      3919 6.23100E-05-1.45771E-05-2.05277E-05-4.07477E-06 5.56472E-19-8.03490E-19
 -1      3920 6.33819E-05-1.49019E-05-2.07589E-05 5.53161E-06 4.12882E-19 4.78574E-19
 -1      3921 8.76365E-05-2.25816E-05-2.78753E-05-8.26423E-06-5.94461E-19 1.45246E-19
 -1      3922 8.81414E-05-2.28888E-05-2.79856E-05-7.66750E-06-2.69938E-19 8.61381E-20
 -1      3923 8.73127E-05-2.24077E-05-2.77977E-05-6.77461E-06-1.27240E-19 2.40997E-19
 -1      3924 8.55820E-05-2.15031E-05-2.74387E-05-7.77913E-06-5.03620E-19 3.37463E-19
 -1      3925 9.07844E-05-2.15594E-05-2.96818E-05-2.62088E-06-5.67135E-19-1.47284E-18
 -1      3926 9.13297E-05-2.31028E-05-2.92283E-05-2.08130E-06-6.74472E-19-1.28366E-18
 -1      3927 9.14411E-05-2.32225E-05-2.92389E-05-1.84850E-06-5.25044E-19-1.20086E-18
 -1      3928 9.07245E-05-2.12774E-05-2.97791E-05-2.28947E-06-3.85334E-19-1.88328E-18
 -1      3929 6.32499E-05-1.40803E-05-2.08897E-05-2.78493E-06 1.22916E-18-1.02691E-18
 -1      3930 6.78973E-05-1.57937E-05-2.23272E-05-6.99888E-06 7.47177E-19-1.00304E-18
 -1      3931 8.62165E-05-3.24345E-05-2.30619E-05 1.78332E-05 1.01757E-18 1.55158E-18
 -1      3932 8.58609E-05-3.43838E-05-2.21319E-05 2.05540E-05 1.52345E-18 1.65108E-18
 -1      3933 7.58154E-05-2.75457E-05-2.03683E-05 2.09547E-05 1.54441E-18 1.37382E-18
 -1      3934 8.42123E-05-2.93867E-05-2.34507E-05 1.59819E-05 6.05304E-19 1.26235E-18
 -1      3935 9.24067E-05-2.33680E-05-2.95936E-05-3.08330E-07 5.98352E-19-1.46525E-18
 -1      3936 9.26215E-05-2.39435E-05-2.94302E-05-8.42899E-07 4.89584E-19-1.55417E-18
 -1      3937 9.17296E-05-2.56247E-05-2.83317E-05-3.91619E-07-4.75891E-19-1.22908E-18
 -1      3938 9.15481E-05-2.57174E-05-2.82155E-05-1.54231E-07-3.51592E-19-1.16929E-18
 -1      3939 9.12979E-05-2.57225E-05-2.81060E-05 9.69097E-09-2.89364E-19-1.16639E-18
 -1      3940 9.10271E-05-2.56638E-05-2.80137E-05 2.28879E-07-3.02300E-19-1.18785E-18
 -1      3941 9.15107E-05-2.56090E-05-2.82392E-05-3.73154E-07-2.99478E-19-1.39285E-18
 -1      3942 9.06728E-05-2.55294E-05-2.79224E-05 3.97532E-07-2.73321E-19-1.12629E-18
 -1      3943 9.03301E-05-2.53578E-05-2.78449E-05 6.21885E-07-4.24364E-19-9.49181E-19
 -1      3944 9.09091E-05-2.54805E-05-2.80362E-05-5.09955E-08-3.09285E-19-1.10555E-18
 -1      3945 8.98861E-05-2.51203E-05-2.77623E-05 8.14685E-07-5.41747E-19-8.51551E-19
 -1      3946 8.94845E-05-2.48705E-05-2.76903E-05 1.06599E-06-4.52911E-19-8.42754E-19
 -1      3947 9.01154E-05-2.50973E-05-2.78597E-05 2.95006E-07-4.04284E-19-9.19622E-19
 -1      3948 8.89590E-05-2.45627E-05-2.76059E-05 1.30332E-06-4.45154E-19-7.57918E-19
 -1      3949 8.85108E-05-2.42705E-05-2.75291E-05 1.60297E-06-4.36868E-19-7.88387E-19
 -1      3950 8.91520E-05-2.45282E-05-2.76895E-05 7.02077E-07-4.51002E-19-6.90957E-19
 -1      3951 8.79113E-05-2.39281E-05-2.74312E-05 1.90607E-06-1.00488E-19-6.87044E-19
 -1      3952 8.74315E-05-2.36320E-05-2.73387E-05 2.27516E-06 2.21307E-19-3.85868E-19
 -1      3953 8.80331E-05-2.38407E-05-2.75030E-05 1.21346E-06 1.81292E-20-3.31154E-19
 -1      3954 8.67650E-05-2.32944E-05-2.72143E-05 2.67191E-06-1.63175E-20-4.64444E-19
 -1      3955 8.62786E-05-2.30446E-05-2.70939E-05 3.13552E-06-4.57700E-20-4.96135E-19
 -1      3956 8.67723E-05-2.31094E-05-2.72752E-05 1.87189E-06 2.13030E-19-2.23964E-19
 -1      3957 8.55587E-05-2.27630E-05-2.69281E-05 3.65862E-06-2.64870E-20-4.53719E-19
 -1      3958 8.51054E-05-2.26239E-05-2.67674E-05 4.24706E-06 1.28898E-19-3.40664E-19
 -1      3959 8.53908E-05-2.24197E-05-2.69772E-05 2.74481E-06 3.33295E-20-4.78500E-19
 -1      3960 8.43531E-05-2.24633E-05-2.65436E-05 4.94419E-06 3.02602E-19-3.52683E-19
 -1      3961 8.40003E-05-2.25230E-05-2.63303E-05 5.69723E-06 4.03792E-20 3.23735E-20
 -1      3962 8.39182E-05-2.18814E-05-2.65761E-05 3.91097E-06 2.18733E-19-3.45582E-19
 -1      3963 8.32571E-05-2.25738E-05-2.60302E-05 6.63791E-06-1.15677E-19 7.37173E-20
 -1      3964 8.31204E-05-2.29600E-05-2.57551E-05 7.60396E-06-7.10701E-20 3.83639E-19
 -1      3965 8.24100E-05-2.16383E-05-2.60344E-05 5.49479E-06 8.68333E-20 1.93021E-19
 -1      3966 8.24691E-05-2.33533E-05-2.53597E-05 8.88080E-06 3.51453E-19 5.29670E-19
 -1      3967 8.27452E-05-2.42479E-05-2.50221E-05 1.00998E-05 7.98218E-19 8.18574E-19
 -1      3968 8.09774E-05-2.19035E-05-2.53105E-05 7.67388E-06 4.46696E-19 8.46916E-19
 -1      3969 8.23681E-05-2.51942E-05-2.45155E-05 1.18450E-05 4.64113E-19 9.53910E-19
 -1      3970 8.33972E-05-2.69029E-05-2.41479E-05 1.32828E-05 5.76045E-19 1.03037E-18
 -1      3971 7.98453E-05-2.30047E-05-2.43583E-05 1.07044E-05 6.79552E-19 9.18892E-19
 -1      3972 9.28822E-05-2.46855E-05-2.92277E-05-1.23847E-06 3.63591E-19-1.35571E-18
 -1      3973 9.26453E-05-2.42482E-05-2.93177E-05-1.22067E-06 3.10361E-19-1.43171E-18
 -1      3974 9.30136E-05-2.52221E-05-2.90510E-05-1.71510E-06 2.69811E-19-1.31737E-18
 -1      3975 9.30680E-05-2.59040E-05-2.87805E-05-2.30877E-06 3.99124E-19-9.91988E-19
 -1      3976 9.30611E-05-2.56296E-05-2.89044E-05-1.97068E-06 3.17665E-19-1.25356E-18
 -1      3977 9.28999E-05-2.53033E-05-2.89703E-05-1.85902E-06 1.85734E-19-1.23546E-18
 -1      3978 9.36044E-05-2.64203E-05-2.87906E-05-1.00436E-06-7.01319E-19-2.65924E-18
 -1      3979 1.27858E-04-2.22590E-05-4.43439E-05-2.67036E-05 1.05932E-16-5.25009E-17
 -1      3980 1.27962E-04-1.87487E-05-4.53987E-05-2.18395E-05 9.49896E-17-9.11981E-17
 -1      3981 1.18065E-04-1.82726E-05-4.13824E-05-2.98067E-05 9.85771E-17-4.72204E-17
 -1      3982 1.22762E-04-1.25231E-05-4.43045E-05-1.90206E-05 6.48963E-17-8.77871E-17
 -1      3983 1.28725E-04-3.26850E-05-3.51984E-05-2.32062E-05-3.20865E-17-1.39212E-16
 -1      3984 1.11453E-04-1.06464E-05-4.10441E-05-2.17711E-05 4.78895E-17-6.05053E-17
 -1      3985 1.09582E-04-3.80308E-05-2.75095E-05-6.77687E-06-3.61569E-17-3.82651E-17
 -1      3986 8.77420E-05-2.38357E-05-2.74224E-05-7.53622E-06-1.25884E-18-4.54830E-19
 -1      3987 1.14779E-04-2.57109E-05-3.30142E-05-1.51962E-05-1.66040E-18-4.58736E-17
 -1      3988 8.83624E-05-2.37109E-05-2.76918E-05-6.56268E-06-1.22698E-18-7.87623E-19
 -1      3989 8.86147E-05-2.36024E-05-2.78899E-05-5.77424E-06-7.94464E-19-9.36511E-19
 -1      3990 8.69049E-05-2.28842E-05-2.74218E-05-6.40512E-06-1.41139E-18-4.81670E-19
 -1      3991 8.92432E-05-2.36887E-05-2.80851E-05-5.05479E-06-3.46389E-19-4.58942E-19
 -1      3992 8.95876E-05-2.37682E-05-2.82286E-05-4.44508E-06 4.59518E-19-1.11760E-18
 -1      3993 8.81310E-05-2.30036E-05-2.78960E-05-4.81016E-06-5.08456E-19 5.82469E-19
 -1      3994 9.01758E-05-2.39775E-05-2.83650E-05-3.90187E-06-2.57884E-19-1.22361E-18
 -1      3995 9.05511E-05-2.41725E-05-2.84633E-05-3.42518E-06-6.43480E-19-1.47496E-18
 -1      3996 8.93226E-05-2.34145E-05-2.82335E-05-3.62746E-06-4.68375E-19 4.10208E-19
 -1      3997 9.10800E-05-2.44464E-05-2.85543E-05-3.01465E-06 3.10313E-19-1.68636E-18
 -1      3998 9.14439E-05-2.46962E-05-2.86177E-05-2.63912E-06 1.57415E-18-1.89710E-18
 -1      3999 9.04197E-05-2.39784E-05-2.84642E-05-2.74868E-06 2.71733E-20-1.16930E-19
 -1      4000 9.19048E-05-2.49927E-05-2.86753E-05-2.32248E-06 2.20058E-18-2.63065E-18
 -1      4001 9.22373E-05-2.52630E-05-2.87127E-05-2.02338E-06 2.52595E-18-2.14459E-18
 -1      4002 9.13913E-05-2.46032E-05-2.86152E-05-2.08149E-06 1.90874E-18-1.88338E-18
 -1      4003 9.26317E-05-2.55549E-05-2.87462E-05-1.78336E-06 1.35587E-18-2.34175E-18
 -1      4004 9.29160E-05-2.58158E-05-2.87653E-05-1.54501E-06-4.33103E-19-3.14561E-18
 -1      4005 9.22335E-05-2.52330E-05-2.87077E-05-1.57604E-06 1.46070E-18-3.03756E-18
 -1      4006 9.31519E-05-2.60011E-05-2.87770E-05-1.34623E-06-1.42949E-18-3.34135E-18
 -1      4007 9.33953E-05-2.62418E-05-2.87848E-05-1.15937E-06-1.52380E-18-2.93820E-18
 -1      4008 9.32722E-05-2.61342E-05-2.87732E-05-8.40409E-07-8.72185E-19-2.73134E-18
 -1      4009 9.28363E-05-2.57362E-05-2.87532E-05-1.17243E-06-1.02171E-18-3.27399E-18
 -1      4010 9.11461E-05-2.18782E-05-2.96984E-05-1.71568E-06-6.15596E-20-1.84872E-18
 -1      4011 9.09045E-05-2.14845E-05-2.97502E-05-2.03205E-06-2.82574E-19-2.00671E-18
 -1      4012 9.13820E-05-2.25680E-05-2.94751E-05-1.87880E-06-3.91954E-19-1.61386E-18
 -1      4013 8.74215E-05-2.17731E-05-2.81554E-05 3.95531E-06-2.78086E-19-1.02610E-18
 -1      4014 8.64982E-05-2.12780E-05-2.79593E-05 4.36779E-06 3.55712E-19-6.04951E-19
 -1      4015 7.56424E-05-1.90926E-05-2.42314E-05-1.20170E-05 3.14774E-19-6.97331E-19
 -1      4016 7.70248E-05-1.89595E-05-2.49673E-05-1.05591E-05 5.25516E-19-4.28269E-19
 -1      4017 7.22978E-05-1.72016E-05-2.34759E-05-1.02514E-05 7.57610E-19-6.75309E-19
 -1      4018 8.12144E-05-1.96878E-05-2.63681E-05-7.90384E-06-8.59598E-20-3.76582E-19
 -1      4019 8.23432E-05-2.00681E-05-2.67229E-05-7.25469E-06-4.36729E-19-2.62553E-19
 -1      4020 8.91860E-05-2.28102E-05-2.84623E-05 3.33084E-06-1.73883E-18 1.51603E-19
 -1      4021 8.84351E-05-2.23233E-05-2.83404E-05 3.68589E-06-1.13938E-18-2.90059E-19
 -1      4022 8.72548E-05-2.16197E-05-2.81040E-05 2.86923E-06-9.70440E-19-3.67251E-19
 -1      4023 8.52237E-05-2.07100E-05-2.76772E-05 4.68331E-06 1.07921E-19-1.15062E-18
 -1      4024 8.40990E-05-2.02406E-05-2.73755E-05 5.19744E-06 8.11497E-20-8.14728E-19
 -1      4025 8.50079E-05-2.04648E-05-2.76259E-05 3.29445E-06 2.36512E-19-1.41357E-18
 -1      4026 9.25813E-05-2.36911E-05-2.95222E-05-1.21986E-07 7.66196E-19-1.24805E-18
 -1      4027 9.06018E-05-2.37807E-05-2.86494E-05 2.77869E-06-1.15456E-18 4.63847E-19
 -1      4028 8.99990E-05-2.33271E-05-2.85787E-05 3.09127E-06-1.51614E-18 6.77716E-19
 -1      4029 8.90539E-05-2.27081E-05-2.84140E-05 2.47168E-06-1.82188E-18 1.38631E-18
 -1      4030 9.17270E-05-2.46531E-05-2.87555E-05 2.28554E-06-2.40649E-18 1.47572E-18
 -1      4031 9.12499E-05-2.42470E-05-2.87189E-05 2.56187E-06-1.58115E-18 6.95559E-19
 -1      4032 9.04937E-05-2.37082E-05-2.86068E-05 2.10134E-06-1.39296E-18 1.52797E-18
 -1      4033 9.26143E-05-2.54167E-05-2.88081E-05 1.85537E-06-1.22383E-18 2.14103E-18
 -1      4034 9.22442E-05-2.50645E-05-2.87935E-05 2.09186E-06-2.25999E-18 2.04123E-18
 -1      4035 9.16448E-05-2.46012E-05-2.87199E-05 1.74973E-06-2.54372E-18 1.50609E-18
 -1      4036 9.32830E-05-2.60344E-05-2.88267E-05 1.49190E-06-5.82137E-19 9.85198E-19
 -1      4037 9.29884E-05-2.57296E-05-2.88253E-05 1.69746E-06 1.00817E-19 1.67949E-18
 -1      4038 9.25023E-05-2.53306E-05-2.87781E-05 1.44913E-06-8.28556E-19 2.01403E-19
 -1      4039 9.31752E-05-2.59502E-05-2.88044E-05 1.20113E-06-6.90634E-19 6.32210E-19
 -1      4040 7.34606E-05-1.88236E-05-2.33877E-05 1.16198E-05-3.37574E-19 3.61167E-19
 -1      4041 6.78866E-05-1.62735E-05-2.19386E-05 9.04186E-06-1.90748E-20 1.14011E-18
 -1      4042 6.73300E-05-1.55529E-05-2.22664E-05 4.99651E-06 2.52677E-19-1.35426E-19
 -1      4043 7.51333E-05-1.85073E-05-2.43571E-05 9.73620E-06-8.03391E-19 3.30718E-19
 -1      4044 5.82937E-05-1.40867E-05-1.86800E-05 6.09905E-06 1.64075E-18 2.32934E-20
 -1      4045 6.03418E-05-1.40543E-05-1.98134E-05 1.66162E-06 1.50256E-18-9.57319E-19
 -1      4046 6.21773E-05-1.64223E-05-1.96083E-05 9.64551E-06 1.52177E-18 5.78550E-19
 -1      4047 9.17238E-05-2.55476E-05-2.83588E-05-4.88394E-06-9.82077E-20-6.41692E-19
 -1      4048 9.19643E-05-2.58053E-05-2.83611E-05-4.57507E-06 1.30260E-19-7.63873E-19
 -1      4049 9.09417E-05-2.50048E-05-2.82512E-05-4.69940E-06-2.04290E-19-5.93991E-19
 -1      4050 9.96728E-05-4.29716E-05-2.41762E-05 1.63007E-05 2.11439E-18 3.03897E-18
 -1      4051 7.86176E-05-1.91537E-05-2.54825E-05-9.54527E-06 4.08880E-19-6.65444E-19
 -1      4052 7.98977E-05-1.93627E-05-2.59968E-05-8.59487E-06 2.39363E-19-3.89166E-19
 -1      4053 7.90784E-05-1.86065E-05-2.58589E-05-6.61508E-06 3.21790E-20-8.73205E-19
 -1      4054 7.63087E-05-1.78690E-05-2.49504E-05-8.07222E-06 3.12544E-19-7.10418E-19
 -1      4055 9.13428E-05-2.18705E-05-2.97832E-05-1.24759E-06 2.20691E-19-1.92234E-18
 -1      4056 9.12292E-05-2.18251E-05-2.97539E-05-1.53720E-06 3.42116E-20-1.86418E-18
 -1      4057 9.18604E-05-2.28013E-05-2.95776E-05-1.23939E-06 9.53148E-20-1.77607E-18
 -1      4058 9.19210E-05-2.51492E-05-2.86167E-05-8.50772E-07-5.28821E-19-1.22507E-18
 -1      4059 9.18533E-05-2.54378E-05-2.84680E-05-5.70913E-07-6.28444E-19-1.18663E-18
 -1      4060 9.18839E-05-2.54035E-05-2.84868E-05-7.06870E-07-5.67848E-19-1.52640E-18
 -1      4061 9.18204E-05-2.41919E-05-2.89745E-05-1.40060E-06-5.11182E-19-1.31131E-18
 -1      4062 9.18925E-05-2.47397E-05-2.87877E-05-1.06179E-06-4.29161E-19-1.27427E-18
 -1      4063 9.19762E-05-2.47760E-05-2.87953E-05-1.08893E-06-4.52998E-19-1.48018E-18
 -1      4064 8.37525E-05-2.06208E-05-2.70604E-05-6.82694E-06-3.85658E-19 1.81845E-21
 -1      4065 8.47127E-05-2.10880E-05-2.72924E-05-6.34252E-06-4.01916E-19 2.63763E-19
 -1      4066 8.17723E-05-1.96223E-05-2.65979E-05-5.69894E-06-3.49560E-19-3.83449E-19
 -1      4067 7.93609E-05-1.06734E-05-2.19674E-05-2.39808E-05 6.51762E-17-3.00758E-17
 -1      4068 9.39007E-05-5.72067E-06-2.93852E-05-4.80705E-05 1.42403E-16-4.80307E-17
 -1      4069 7.19680E-05-2.39277E-05-2.05847E-05 1.74523E-05 1.26228E-18 8.43731E-19
 -1      4070 9.24563E-05-2.39954E-05-2.93473E-05-1.30113E-06 1.92605E-19-1.46379E-18
 -1      4071 6.44049E-05-1.48714E-05-2.12801E-05 1.29145E-06 1.09437E-18-7.64924E-19
 -1      4072 8.00165E-05-2.62201E-05-2.30212E-05 1.55355E-05 7.70095E-19 1.13159E-18
 -1      4073 9.15992E-05-2.26990E-05-2.95126E-05-1.53959E-06-1.50186E-19-1.71279E-18
 -1      4074 9.29688E-05-2.60833E-05-2.86699E-05-2.51381E-06 2.66274E-19-8.87964E-19
 -1      4075 9.28407E-05-2.58459E-05-2.87125E-05-2.33115E-06 2.18536E-19-8.83739E-19
 -1      4076 9.28611E-05-2.61653E-05-2.85816E-05-2.78626E-06 3.15067E-19-8.31564E-19
 -1      4077 8.75984E-05-2.26986E-05-2.78174E-05-5.36759E-06 1.66276E-20 9.27335E-20
 -1      4078 8.82670E-05-2.31727E-05-2.79113E-05-5.04103E-06 2.21369E-19-1.05764E-19
 -1      4079 9.17341E-05-2.56386E-05-2.83213E-05-4.18861E-06 1.11630E-20-1.12623E-18
 -1      4080 9.29309E-05-2.58241E-05-2.87575E-05-6.46143E-07-7.22999E-19-3.08338E-18
 -1      4081 9.31382E-05-2.60238E-05-2.87662E-05-5.05047E-07-7.74282E-19-3.48810E-18
 -1      4082 9.30696E-05-2.59533E-05-2.87635E-05-1.98086E-07-2.96437E-19-5.67460E-18
 -1      4083 7.05560E-05-1.62512E-05-2.33425E-05-6.06550E-06 7.27396E-19-8.81758E-19
 -1      4084 8.90418E-05-2.36837E-05-2.80124E-05-4.81714E-06 1.80683E-19-5.29414E-19
 -1      4085 8.95835E-05-2.41132E-05-2.80723E-05-4.54046E-06-1.12550E-19-6.07238E-19
 -1      4086 8.80250E-05-2.30568E-05-2.78250E-05-4.24529E-06-1.17774E-19-6.47618E-19
 -1      4087 8.22013E-05-1.92825E-05-2.69162E-05 3.84153E-06 3.10687E-19-1.60144E-18
 -1      4088 8.25102E-05-1.97010E-05-2.69606E-05 5.63479E-06 3.85417E-19-4.66675E-19
 -1      4089 8.12109E-05-1.93400E-05-2.65190E-05 6.35656E-06-1.59681E-19-1.33508E-19
 -1      4090 9.93671E-05-9.55826E-06-3.47516E-05-3.93351E-05 1.14354E-16-3.71773E-17
 -1      4091 1.08308E-04-1.33516E-05-3.82043E-05-3.37998E-05 1.06500E-16-3.59951E-17
 -1      4092 1.04835E-04-9.31848E-06-3.93137E-05-2.78458E-05 8.90033E-17-3.87409E-17
 -1      4093 8.36732E-05 1.05325E-06-3.04200E-05-3.83338E-05 1.30327E-16-1.37056E-17
 -1      4094 9.30669E-05-2.59478E-05-2.87689E-05 1.70652E-07-5.50615E-19-4.45494E-18
 -1      4095 9.31210E-05-2.59658E-05-2.87766E-05 4.91666E-07-5.82607E-19-3.67092E-18
 -1      4096 9.28086E-05-2.57072E-05-2.87564E-05 9.31640E-08 2.78327E-19-4.54796E-18
 -1      4097 9.31236E-05-2.59612E-05-2.87870E-05 7.89036E-07-7.19625E-19-1.68985E-18
 -1      4098 9.19473E-05-2.58175E-05-2.83423E-05-3.51232E-06 5.29598E-19-8.04530E-19
 -1      4099 9.22212E-05-2.59901E-05-2.83886E-05-3.29246E-06 4.32586E-19-7.76100E-19
 -1      4100 9.24871E-05-2.61111E-05-2.84467E-05-3.15891E-06 3.85280E-19-7.54733E-19
 -1      4101 9.26842E-05-2.61673E-05-2.85099E-05-2.92807E-06 4.74068E-19-6.77410E-19
 -1      4102 9.25478E-05-2.59812E-05-2.85275E-05-2.68348E-06 2.89789E-19-5.53435E-19
 -1      4103 9.20963E-05-2.58332E-05-2.83934E-05-2.95488E-06 5.13881E-19-7.77624E-19
 -1      4104 7.91538E-05-1.88597E-05-2.59040E-05 7.03041E-06-8.60208E-19 1.63149E-20
 -1      4105 7.76841E-05-1.86920E-05-2.52603E-05 8.09866E-06-6.86538E-19-2.38210E-19
 -1      4106 7.86191E-05-1.81036E-05-2.58700E-05 4.63349E-06-4.39462E-19-5.19988E-19
 -1      4107 9.15818E-05-2.33889E-05-2.92248E-05-1.67577E-06-4.75995E-19-1.40844E-18
 -1      4108 6.74128E-05-1.59913E-05-2.20342E-05-5.04977E-06 4.32960E-19-5.58486E-19
 -1      4109 8.58541E-05-2.16554E-05-2.75180E-05-6.02053E-06-2.70965E-19 1.64208E-19
 -1      4110 8.66619E-05-2.21471E-05-2.76672E-05-5.63182E-06 6.59846E-20 3.15784E-19
 -1      4111 8.63316E-05-2.19691E-05-2.75632E-05-4.65383E-06-6.62038E-20-2.43314E-19
 -1      4112 8.42861E-05-2.08114E-05-2.71755E-05-5.12082E-06-2.45206E-19-2.81698E-19
 -1      4113 7.40795E-05-1.71374E-05-2.43176E-05 6.54085E-06-5.27499E-19 6.83851E-20
 -1      4114 9.20536E-05-2.45179E-05-2.89476E-05-1.29772E-06-3.52692E-19-1.59683E-18
 -1      4115 9.20933E-05-2.49629E-05-2.87742E-05-1.10002E-06-5.07751E-19-1.56948E-18
 -1      4116 9.20557E-05-2.52825E-05-2.86195E-05-1.01777E-06-4.24890E-19-1.47066E-18
 -1      4117 9.19337E-05-2.54834E-05-2.84816E-05-8.46229E-07-3.62328E-19-1.37863E-18
 -1      4118 9.21681E-05-2.50371E-05-2.87632E-05-1.22946E-06-3.47439E-19-1.37344E-18
 -1      4119 9.11703E-05-2.55169E-05-2.81409E-05-5.31138E-07-1.99144E-19-9.71165E-19
 -1      4120 9.08157E-05-2.53756E-05-2.80472E-05-3.76484E-07-2.96872E-19-9.34944E-19
 -1      4121 9.03804E-05-2.51623E-05-2.79556E-05-2.73028E-07-3.95403E-19-9.11330E-19
 -1      4122 8.99357E-05-2.49079E-05-2.78700E-05-1.00539E-07-4.58367E-19-8.98376E-19
 -1      4123 9.06765E-05-2.51941E-05-2.80575E-05-7.66903E-07-4.17715E-19-1.04908E-18
 -1      4124 8.93962E-05-2.45922E-05-2.77800E-05 3.39016E-08-5.86561E-19-6.07415E-19
 -1      4125 8.88677E-05-2.42546E-05-2.76920E-05 2.41375E-07-3.61277E-19-4.89520E-19
 -1      4126 8.97083E-05-2.46475E-05-2.78755E-05-5.54629E-07-3.42262E-19-7.83412E-19
 -1      4127 8.82295E-05-2.38693E-05-2.75917E-05 4.21280E-07-1.12837E-20-5.20613E-19
 -1      4128 8.76220E-05-2.34838E-05-2.74890E-05 6.78378E-07 1.56795E-19-4.92708E-19
 -1      4129 8.85464E-05-2.39170E-05-2.76845E-05-2.67155E-07-1.92756E-19-2.60457E-19
 -1      4130 8.68661E-05-2.30476E-05-2.73647E-05 9.41419E-07 2.02026E-19-6.09681E-19
 -1      4131 8.62026E-05-2.26514E-05-2.72340E-05 1.28365E-06 9.31794E-20-6.79156E-19
 -1      4132 8.71355E-05-2.30232E-05-2.74553E-05 1.34198E-07 1.04238E-19-7.78947E-19
 -1      4133 8.53293E-05-2.22165E-05-2.70683E-05 1.63815E-06-1.75885E-20-4.33686E-19
 -1      4134 8.46134E-05-2.18521E-05-2.68933E-05 2.09162E-06 2.19492E-19-1.27981E-19
 -1      4135 8.55458E-05-2.20956E-05-2.71611E-05 6.78267E-07 2.38892E-19-5.23064E-19
 -1      4136 8.36083E-05-2.14492E-05-2.66665E-05 2.59075E-06 3.80605E-19-3.38803E-19
 -1      4137 8.28594E-05-2.11727E-05-2.64290E-05 3.20438E-06 2.21552E-19-1.18376E-19
 -1      4138 8.37011E-05-2.11574E-05-2.67620E-05 1.44716E-06 9.32262E-20-2.32294E-19
 -1      4139 8.17039E-05-2.08519E-05-2.61162E-05 3.90618E-06 1.78499E-19 1.51349E-19
 -1      4140 8.09603E-05-2.07366E-05-2.57952E-05 4.75220E-06 4.18414E-19 4.59292E-19
 -1      4141 8.15903E-05-2.02992E-05-2.62118E-05 2.54514E-06 2.31328E-19-3.64768E-19
 -1      4142 7.96207E-05-2.05645E-05-2.53630E-05 5.76088E-06 4.23196E-19 5.96518E-19
 -1      4143 7.89647E-05-2.07261E-05-2.49337E-05 6.94265E-06 6.06884E-19 7.84471E-19
 -1      4144 7.91515E-05-1.96033E-05-2.54486E-05 4.10647E-06 4.43994E-19-1.43015E-19
 -1      4145 7.73961E-05-2.07788E-05-2.43372E-05 8.40614E-06 3.29650E-19 9.61470E-19
 -1      4146 7.69519E-05-2.14192E-05-2.37695E-05 1.01460E-05 5.70307E-19 6.67613E-19
 -1      4147 7.63086E-05-1.92426E-05-2.43900E-05 6.33105E-06 5.38127E-19-2.19957E-19
 -1      4148 9.05186E-05-2.38147E-05-2.85955E-05 1.37773E-06-1.59107E-18 6.17793E-19
 -1      4149 8.98704E-05-2.33447E-05-2.85193E-05 1.51785E-06-1.24978E-18 5.43585E-19
 -1      4150 9.17494E-05-2.36215E-05-2.92069E-05-1.50575E-06-2.58270E-19-1.58013E-18
 -1      4151 9.11839E-05-2.52798E-05-2.82457E-05-3.90257E-06-6.93969E-20-7.80913E-19
 -1      4152 9.15449E-05-2.55599E-05-2.82842E-05-3.67357E-06 2.81586E-19-8.45509E-19
 -1      4153 9.14490E-05-2.54679E-05-2.82702E-05-3.24467E-06 3.24791E-19-6.20804E-19
 -1      4154 9.26686E-05-2.46445E-05-2.91407E-05-1.53861E-06 6.02943E-20-1.44422E-18
 -1      4155 9.22589E-05-2.37604E-05-2.93639E-05-1.30865E-06 1.16745E-19-1.63532E-18
 -1      4156 1.02472E-04-6.24677E-06-3.92228E-05-2.36218E-05 6.18736E-17-3.56872E-17
 -1      4157 1.00240E-04-8.26543E-06-3.72011E-05-2.37071E-05 3.14334E-17-3.95639E-17
 -1      4158 9.33586E-05-2.39520E-06-3.59281E-05-2.77652E-05 7.04232E-17-2.01564E-17
 -1      4159 1.03944E-04-1.74071E-05-3.44895E-05-1.87046E-05 2.00215E-18-3.44789E-17
 -1      4160 1.04682E-04-2.67172E-05-2.96305E-05-8.58652E-06-1.11050E-17-7.92823E-18
 -1      4161 9.46019E-05-1.05869E-05-3.35172E-05-1.95599E-05 1.85896E-17-1.42835E-17
 -1      4162 9.42358E-05-2.66827E-05-2.73243E-05-3.60376E-06-6.48975E-18-2.04918E-18
 -1      4163 8.63339E-05-2.22064E-05-2.75178E-05-5.06125E-06-1.56247E-18 1.80195E-18
 -1      4164 9.60681E-05-2.18791E-05-2.92561E-05-8.74415E-06 3.47336E-19 7.11296E-19
 -1      4165 8.72619E-05-2.24617E-05-2.77701E-05-4.32024E-06-1.17359E-18 1.46106E-18
 -1      4166 8.78955E-05-2.26792E-05-2.79714E-05-3.70759E-06-2.59592E-19 1.41269E-18
 -1      4167 8.62189E-05-2.17561E-05-2.75994E-05-3.88579E-06-1.51049E-18 2.38535E-18
 -1      4168 8.86639E-05-2.29816E-05-2.81483E-05-3.21848E-06-3.94725E-19 9.89820E-19
 -1      4169 8.92503E-05-2.32789E-05-2.82881E-05-2.75404E-06-1.02356E-18 7.53724E-19
 -1      4170 8.79650E-05-2.24828E-05-2.80392E-05-2.75864E-06-6.82252E-19 1.13576E-18
 -1      4171 8.99198E-05-2.36349E-05-2.84075E-05-2.39188E-06-8.71364E-19 4.68818E-19
 -1      4172 9.04411E-05-2.39651E-05-2.85009E-05-2.04479E-06 2.52404E-19-4.40494E-19
 -1      4173 8.93720E-05-2.32264E-05-2.83345E-05-1.98307E-06-6.54637E-19 2.53826E-19
 -1      4174 9.10142E-05-2.43274E-05-2.85790E-05-1.79101E-06 7.37410E-19-2.01064E-18
 -1      4175 9.14583E-05-2.46573E-05-2.86382E-05-1.52766E-06 1.51434E-18-3.43127E-18
 -1      4176 9.06090E-05-2.40074E-05-2.85312E-05-1.42892E-06-4.43487E-19-2.71721E-18
 -1      4177 9.19380E-05-2.50114E-05-2.86852E-05-1.32000E-06 1.73914E-18-3.58493E-18
 -1      4178 9.23243E-05-2.53329E-05-2.87192E-05-1.13059E-06 5.92846E-19-3.68893E-18
 -1      4179 9.16064E-05-2.47244E-05-2.86524E-05-1.04753E-06 1.25871E-18-4.05345E-18
 -1      4180 9.25178E-05-2.54679E-05-2.87328E-05-9.56981E-07-1.18939E-19-3.89125E-18
 -1      4181 9.27497E-05-2.56804E-05-2.87471E-05-7.79912E-07-8.19701E-19-2.86029E-18
 -1      4182 9.26335E-05-2.55706E-05-2.87396E-05-4.29768E-07 3.49103E-19-5.61654E-18
 -1      4183 9.22708E-05-2.52455E-05-2.87129E-05-7.20116E-07 7.24597E-19-5.68748E-18
 -1      4184 7.03508E-05-1.57238E-05-2.32899E-05-2.58084E-06 8.04675E-19-1.22619E-18
 -1      4185 7.36299E-05-1.70104E-05-2.42883E-05-5.63768E-06 5.55310E-19-9.78929E-19
 -1      4186 9.20923E-05-2.36223E-05-2.93524E-05-1.41459E-06 8.95537E-21-1.66121E-18
 -1      4187 8.73270E-05-2.17504E-05-2.81180E-05 1.71022E-06-2.01339E-18 8.94521E-19
 -1      4188 8.63116E-05-2.11946E-05-2.79220E-05 1.84952E-06-1.05503E-18 5.03378E-19
 -1      4189 8.51114E-05-2.06122E-05-2.76653E-05 1.83016E-06-4.34170E-19-1.12616E-18
 -1      4190 8.38416E-05-2.00190E-05-2.73714E-05 1.95940E-06-1.08425E-19-1.36815E-18
 -1      4191 8.54468E-05-2.07806E-05-2.77079E-05 5.46739E-07-1.51215E-18 2.04272E-20
 -1      4192 9.16352E-05-2.46839E-05-2.87052E-05 1.17226E-06-2.38454E-18-2.59197E-20
 -1      4193 9.11357E-05-2.42707E-05-2.86624E-05 1.31516E-06-2.11133E-18 5.47418E-19
 -1      4194 9.06496E-05-2.39083E-05-2.85879E-05 7.71916E-07-2.16877E-18-3.01390E-19
 -1      4195 6.59304E-05-1.56022E-05-2.14554E-05 5.16308E-06 1.19524E-18 3.44868E-20
 -1      4196 6.78466E-05-1.56519E-05-2.23825E-05 1.35165E-06 1.00680E-18-7.57410E-19
 -1      4197 9.27498E-05-2.54588E-05-2.88333E-05-1.94029E-06 1.43683E-19-1.19100E-18
 -1      4198 9.27215E-05-2.51143E-05-2.89797E-05-1.70034E-06 6.50734E-20-1.36228E-18
 -1      4199 9.25217E-05-2.48712E-05-2.89908E-05-1.60717E-06-8.24870E-20-1.38976E-18
 -1      4200 9.28167E-05-2.56827E-05-2.87775E-05 8.92575E-07-1.82136E-19-1.58544E-18
 -1      4201 7.39232E-05-1.68297E-05-2.45451E-05 2.65469E-06-4.44135E-19-3.73284E-19
 -1      4202 7.13994E-05-1.63254E-05-2.35879E-05 3.82551E-06-1.10994E-19 8.73916E-21
 -1      4203 6.81025E-05-1.49990E-05-2.25770E-05 5.07484E-07 9.85238E-20-1.01260E-18
 -1      4204 9.17407E-05-2.55836E-05-2.83563E-05-7.69230E-07-1.29288E-19-1.17274E-18
 -1      4205 9.14924E-05-2.55919E-05-2.82448E-05-6.14121E-07-4.60454E-20-1.01132E-18
 -1      4206 9.14319E-05-2.54942E-05-2.82528E-05-9.35824E-07-5.59252E-20-8.63269E-19
 -1      4207 7.12821E-05-1.68536E-05-2.33748E-05-4.91894E-06-6.79612E-20-3.33010E-19
 -1      4208 9.02205E-05-2.45517E-05-2.81446E-05-4.33012E-06-3.08858E-19-5.13442E-19
 -1      4209 9.06679E-05-2.49185E-05-2.81870E-05-4.08114E-06-3.91863E-19-7.47835E-19
 -1      4210 9.05278E-05-2.48300E-05-2.81450E-05-3.55808E-06-6.92927E-20-5.95997E-19
 -1      4211 8.93824E-05-2.39982E-05-2.80059E-05-3.87980E-06-3.07322E-19-9.60646E-19
 -1      4212 7.44644E-05-2.13201E-05-2.28391E-05 1.17014E-05 8.65817E-19 4.71579E-19
 -1      4213 7.47892E-05-2.35944E-05-2.19352E-05 1.49682E-05 1.09001E-18 7.39986E-19
 -1      4214 6.65368E-05-1.82678E-05-2.04828E-05 1.25281E-05 1.34422E-18 5.22212E-19
 -1      4215 7.27241E-05-1.91442E-05-2.28831E-05 9.05514E-06 5.65342E-19-1.84395E-20
 -1      4216 8.91015E-05-2.28348E-05-2.84105E-05 1.56142E-06-1.66678E-18 6.46427E-19
 -1      4217 8.82861E-05-2.23135E-05-2.82862E-05 1.69906E-06-2.00499E-18 9.09857E-19
 -1      4218 8.92806E-05-2.29510E-05-2.84089E-05 7.98352E-07-2.05421E-18-4.66053E-19
 -1      4219 8.01466E-05-1.90116E-05-2.62250E-05-4.17081E-06-6.96015E-20-9.40456E-19
 -1      4220 8.15859E-05-1.96239E-05-2.65807E-05-3.97071E-06-2.02966E-19-5.10959E-19
 -1      4221 6.60110E-05-1.68521E-05-2.11028E-05 8.30247E-06 9.48349E-19 2.88646E-19
 -1      4222 9.17950E-05-2.33598E-05-2.93389E-05-1.54596E-06-3.02288E-19-1.56339E-18
 -1      4223 9.19923E-05-2.40729E-05-2.91026E-05-1.36522E-06-2.73942E-19-1.52548E-18
 -1      4224 9.21204E-05-2.42675E-05-2.90734E-05-1.38161E-06-3.56357E-19-1.56213E-18
 -1      4225 9.18902E-05-2.33289E-05-2.93909E-05-1.41365E-06-1.07131E-19-1.65819E-18
 -1      4226 9.19388E-05-2.54640E-05-2.84831E-05-1.08438E-06-1.28084E-19-9.72493E-19
 -1      4227 7.37554E-05-1.71075E-05-2.43485E-05-3.02786E-06 1.16660E-19-9.17585E-19
 -1      4228 7.06210E-05-4.58252E-06-2.41660E-05-2.01869E-05 4.85697E-17 6.79193E-18
 -1      4229 8.75886E-05-2.18981E-05-2.81299E-05 7.42878E-07-1.99380E-18 1.87394E-19
 -1      4230 7.06591E-05-1.62242E-05-2.33553E-05 1.14964E-06 5.68521E-19-5.73187E-19
 -1      4231 7.87653E-05-1.81693E-05-2.60135E-05 1.99884E-06 7.51394E-20-9.61141E-19
 -1      4232 7.67179E-05-1.75437E-05-2.53801E-05 2.26018E-06-3.10077E-19-2.70715E-19
 -1      4233 9.25706E-05-2.55169E-05-2.87422E-05 6.74095E-09 2.38123E-19-4.74988E-18
 -1      4234 9.26166E-05-2.55115E-05-2.87498E-05 3.96077E-07-6.09318E-19-2.94227E-18
 -1      4235 9.23750E-05-2.53571E-05-2.87288E-05-1.21159E-07 1.11005E-19-5.06933E-18
 -1      4236 7.48884E-05-1.68993E-05-2.47561E-05-1.71217E-07-2.00497E-19-6.90226E-19
 -1      4237 8.71115E-05-2.25933E-05-2.76602E-05-3.50986E-06-1.58465E-19-4.76175E-19
 -1      4238 8.78650E-05-2.31063E-05-2.77695E-05-3.34339E-06-1.02787E-19-5.80579E-19
 -1      4239 9.22576E-05-2.41325E-05-2.91914E-05-1.44945E-06-1.29759E-19-1.48072E-18
 -1      4240 8.23162E-05-1.93971E-05-2.69930E-05 1.89538E-06 3.34112E-19-1.17811E-18
 -1      4241 8.07228E-05-1.88048E-05-2.65618E-05 2.07722E-06 1.81619E-19-1.25368E-18
 -1      4242 7.94306E-05-1.83007E-05-2.61385E-05-8.18643E-08 3.54401E-19-8.25066E-19
 -1      4243 8.40942E-05 1.81577E-06-3.07939E-05-2.72717E-05 7.54528E-17-6.50834E-18
 -1      4244 9.25170E-05-2.58002E-05-2.85897E-05-2.21879E-06 1.91612E-19-9.81060E-19
 -1      4245 9.26418E-05-2.56770E-05-2.87038E-05-2.04129E-06 1.52673E-19-1.02112E-18
 -1      4246 9.24468E-05-2.54734E-05-2.87000E-05-1.80496E-06 4.74581E-20-1.24188E-18
 -1      4247 8.28384E-05-1.95789E-05-2.70679E-05 3.62943E-07-1.67855E-19-5.97625E-19
 -1      4248 9.22199E-05-2.51561E-05-2.87434E-05 9.15253E-07-1.45647E-18-1.61499E-18
 -1      4249 9.18281E-05-2.48403E-05-2.86964E-05 5.06219E-07-1.39488E-18-2.25101E-18
 -1      4250 6.93577E-05-1.75484E-05-2.22186E-05 7.53130E-06 6.64976E-19 4.02244E-19
 -1      4251 9.25831E-05-2.54825E-05-2.87624E-05 8.15862E-07-5.87287E-19-1.38779E-18
 -1      4252 8.17307E-05-1.96435E-05-2.65542E-05-2.49478E-06-3.17505E-20-4.65711E-19
 -1      4253 8.29658E-05-2.02588E-05-2.68934E-05-3.94046E-06-1.98307E-19-5.63467E-19
 -1      4254 8.41209E-05-2.08540E-05-2.71328E-05-3.77353E-06 1.41787E-19-5.39231E-19
 -1      4255 9.17626E-05-2.56606E-05-2.83321E-05-2.65764E-06 3.72846E-19-8.86840E-19
 -1      4256 9.20265E-05-2.57791E-05-2.83944E-05-2.52945E-06 3.77341E-19-1.01233E-18
 -1      4257 7.51482E-05-1.73743E-05-2.48296E-05-4.96953E-06 1.95234E-19-1.08179E-18
 -1      4258 7.72121E-05-1.79672E-05-2.54169E-05-4.73369E-06 1.51541E-19-8.86954E-19
 -1      4259 7.85364E-05-1.84107E-05-2.58118E-05-4.27197E-06 1.02519E-19-7.26459E-19
 -1      4260 7.88148E-05-1.83744E-05-2.58223E-05-2.36029E-06 3.33934E-19-7.82921E-19
 -1      4261 7.51976E-05-1.70480E-05-2.48180E-05-2.28630E-06 4.22312E-19-3.76380E-19
 -1      4262 9.09330E-05-2.51823E-05-2.81851E-05-2.88873E-06 9.67350E-20-6.60226E-19
 -1      4263 9.13481E-05-2.54416E-05-2.82510E-05-2.73797E-06 4.03453E-20-8.16281E-19
 -1      4264 9.13169E-05-2.53923E-05-2.82488E-05-2.30587E-06 1.62515E-19-8.62414E-19
 -1      4265 8.52443E-05-2.14626E-05-2.73483E-05-3.72547E-06-9.52788E-21-4.97399E-19
 -1      4266 8.61884E-05-2.20298E-05-2.75100E-05-3.57158E-06-3.05505E-19-6.92639E-19
 -1      4267 8.41959E-05-2.08959E-05-2.70890E-05-2.60390E-06 1.17714E-19-5.16182E-19
 -1      4268 8.62160E-05-2.20767E-05-2.74614E-05-2.63439E-06-9.35982E-20-4.29571E-19
 -1      4269 7.66178E-05-1.79007E-05-2.52078E-05-2.99525E-06 3.55843E-19-9.56821E-19
 -1      4270 8.80461E-05-2.22831E-05-2.81918E-05-1.26359E-07-2.00907E-18-2.55671E-20
 -1      4271 8.71703E-05-2.17746E-05-2.80279E-05-2.50452E-07-1.43623E-18 4.63129E-19
 -1      4272 9.00786E-05-2.48197E-05-2.79742E-05-1.16424E-06-1.70114E-19-5.61316E-19
 -1      4273 8.95352E-05-2.44831E-05-2.78836E-05-1.06329E-06-1.99314E-19-2.52660E-19
 -1      4274 8.89080E-05-2.40874E-05-2.77898E-05-1.00769E-06-2.15898E-19-3.34967E-21
 -1      4275 8.82393E-05-2.36618E-05-2.76858E-05-8.46090E-07-3.51125E-20 2.60552E-19
 -1      4276 8.93476E-05-2.42367E-05-2.78897E-05-1.64651E-06-3.93788E-20 2.49486E-19
 -1      4277 8.74033E-05-2.30589E-05-2.75854E-05-1.31462E-06-2.48242E-19-9.90274E-20
 -1      4278 8.66028E-05-2.25694E-05-2.74550E-05-1.14011E-06-4.19366E-20-1.31674E-19
 -1      4279 8.56607E-05-2.20223E-05-2.72984E-05-1.08187E-06 2.75718E-19-5.73814E-19
 -1      4280 8.47489E-05-2.15006E-05-2.71240E-05-8.23971E-07 3.20437E-19-5.22754E-19
 -1      4281 8.36157E-05-2.09260E-05-2.69032E-05-7.13658E-07-5.66904E-20-2.82481E-19
 -1      4282 8.25610E-05-2.04045E-05-2.66625E-05-3.36636E-07-1.68961E-19-2.51227E-19
 -1      4283 8.11718E-05-1.98139E-05-2.63464E-05-1.50029E-07 8.29187E-20-3.39008E-19
 -1      4284 7.99348E-05-1.93301E-05-2.60091E-05 4.02255E-07 2.59665E-19-2.11149E-19
 -1      4285 7.83378E-05-1.87713E-05-2.55970E-05 5.95474E-07 3.78883E-19-2.17893E-19
 -1      4286 7.68825E-05-1.83555E-05-2.51285E-05 1.39773E-06 5.53929E-19-1.18169E-19
 -1      4287 8.25644E-05 8.99118E-07-3.08103E-05-2.44971E-05 4.68358E-17-4.69457E-18
 -1      4288 9.23746E-05-2.49953E-05-2.88796E-05-1.49861E-06-2.65535E-19-1.38477E-18
 -1      4289 9.23261E-05-2.53087E-05-2.87257E-05-1.43227E-06-1.26311E-19-1.18160E-18
 -1      4290 7.17476E-05-1.78540E-05-2.31481E-05 6.31199E-06 4.79637E-19 3.11644E-19
 -1      4291 9.22167E-05-2.55049E-05-2.85941E-05-1.51225E-06 4.62417E-20-1.25535E-18
 -1      4292 9.03655E-05-1.52906E-05-2.91896E-05-1.11000E-05 1.06684E-18-1.97729E-18
 -1      4293 8.85136E-05-1.94122E-05-2.75428E-05-6.02960E-06-1.25472E-18 3.04858E-18
 -1      4294 8.75487E-05-2.11182E-05-2.74445E-05-3.08247E-06-1.55257E-18 6.49780E-19
 -1      4295 8.54917E-05-2.10728E-05-2.76196E-05-1.58443E-06-1.89330E-18 5.07758E-19
 -1      4296 8.73304E-05-2.20914E-05-2.79724E-05-2.20834E-06-1.66624E-18 1.15251E-18
 -1      4297 8.81436E-05-2.24938E-05-2.81512E-05-1.75310E-06-1.04321E-18-1.41892E-19
 -1      4298 8.89603E-05-2.29481E-05-2.82941E-05-1.48180E-06-1.32703E-18-5.21083E-19
 -1      4299 8.96280E-05-2.33550E-05-2.84130E-05-1.19711E-06-1.16793E-18-1.03900E-18
 -1      4300 8.85311E-05-2.25937E-05-2.82421E-05-8.85566E-07-1.36647E-18-1.54730E-19
 -1      4301 9.02847E-05-2.37831E-05-2.85055E-05-1.01456E-06-1.03265E-18-2.32117E-18
 -1      4302 9.08426E-05-2.41772E-05-2.85795E-05-8.19619E-07-3.23988E-19-2.73276E-18
 -1      4303 8.99817E-05-2.35129E-05-2.84737E-05-5.35504E-07-1.81651E-18-1.17380E-18
 -1      4304 9.10786E-05-2.43178E-05-2.86173E-05-2.39971E-07-8.04175E-19-2.25245E-18
 -1      4305 9.15822E-05-2.46999E-05-2.86678E-05-1.31180E-07-3.32786E-19-3.01811E-18
 -1      4306 9.23171E-05-2.45521E-05-2.90440E-05-1.40208E-06-2.64539E-19-1.39116E-18
 -1      4307 1.03284E-04-4.28485E-05-2.58572E-05 1.06964E-05 1.28653E-18 2.90235E-18
 -1      4308 7.84628E-05-1.83931E-05-2.57903E-05-2.33364E-06 1.35189E-19-1.53279E-18
 -1      4309 7.89664E-05-9.21691E-06-2.56350E-05-1.30586E-05 1.75675E-17-1.09826E-18
 -1      4310 8.51130E-05-2.42533E-06-3.11117E-05-2.15889E-05 2.84942E-17-6.55037E-18
 -1      4311 8.04376E-05-1.90007E-05-2.63460E-05-1.91038E-06 5.49678E-20-9.12252E-19
 -1      4312 9.23360E-05-2.58191E-05-2.85094E-05-2.33280E-06 2.16764E-19-9.78314E-19
 -1      4313 8.79380E-05-2.32535E-05-2.77042E-05-2.10074E-06-2.57473E-19 1.23998E-19
 -1      4314 8.86566E-05-2.36800E-05-2.78523E-05-2.80437E-06-2.38543E-19-4.34328E-19
 -1      4315 9.17153E-05-2.55730E-05-2.83526E-05-1.34077E-06-4.62438E-20-8.92984E-19
 -1      4316 9.13927E-05-2.54885E-05-2.82478E-05-1.26958E-06-1.11665E-19-9.68085E-19
 -1      4317 9.20333E-05-2.56537E-05-2.84462E-05-2.05743E-06 2.34097E-19-1.17612E-18
 -1      4318 9.20163E-05-2.55898E-05-2.84697E-05-1.45359E-06 7.86223E-20-1.09001E-18
 -1      4319 9.10157E-05-2.53325E-05-2.81537E-05-1.26721E-06-3.26185E-19-8.27128E-19
 -1      4320 9.05782E-05-2.51067E-05-2.80620E-05-1.18751E-06-3.63073E-19-7.36803E-19
 -1      4321 9.04701E-05-2.49568E-05-2.80709E-05-1.68704E-06-1.59474E-19-2.28251E-19
 -1      4322 9.13412E-05-2.54123E-05-2.82498E-05-1.67961E-06-8.53468E-20-8.69995E-19
 -1      4323 8.96135E-05-2.32548E-05-2.84449E-05 7.15357E-08-2.03775E-18-1.50363E-19
 -1      4324 8.88502E-05-2.27660E-05-2.83326E-05 2.39501E-08-1.61804E-18-3.50927E-19
 -1      4325 7.48223E-05-1.77343E-05-2.45394E-05 1.72963E-06 4.87448E-19-3.92921E-19
 -1      4326 7.31300E-05-1.74315E-05-2.38881E-05 2.78398E-06 4.36531E-19-2.93107E-19
 -1      4327 8.18414E-05-1.86783E-05-2.72340E-05-1.17895E-06-4.86673E-19-9.33007E-19
 -1      4328 8.76694E-05-9.78318E-06-2.94392E-05-1.63029E-05 1.04414E-17-8.86208E-20
 -1      4329 8.03016E-05-1.33443E-05-2.66148E-05-8.29803E-06 4.70590E-18-4.84556E-19
 -1      4330 9.02771E-05-2.37154E-05-2.85361E-05 1.68065E-07-2.07957E-18-7.95411E-19
 -1      4331 8.60265E-05-2.11593E-05-2.77837E-05-4.24150E-07-1.92081E-18-3.23353E-20
 -1      4332 9.21684E-05-2.51871E-05-2.87127E-05-2.78934E-07 3.86922E-19-4.88756E-18
 -1      4333 8.92819E-05-2.41278E-05-2.79333E-05-2.68522E-06-2.26776E-19-4.67075E-19
 -1      4334 8.17558E-05-1.94011E-05-2.67557E-05-1.25939E-06-4.83748E-20-7.24627E-19
 -1      4335 8.99053E-05-2.45351E-05-2.80235E-05-2.67239E-06-1.97161E-19-3.82508E-19
 -1      4336 9.04278E-05-2.48900E-05-2.80935E-05-2.55392E-06-1.67496E-20-3.11390E-19
 -1      4337 9.09290E-05-2.52193E-05-2.81617E-05-2.02365E-06-4.81936E-20-4.58510E-19
 -1      4338 9.13353E-05-2.54358E-05-2.82456E-05-1.96897E-06 1.05910E-19-7.36236E-19
 -1      4339 9.17168E-05-2.55924E-05-2.83370E-05-1.94838E-06 1.70139E-19-1.09539E-18
 -1      4340 9.20233E-05-2.56231E-05-2.84565E-05-1.78899E-06 1.01944E-19-1.16764E-18
 -1      4341 9.08743E-05-2.41336E-05-2.86032E-05 1.86850E-07-2.01330E-18-6.74294E-19
 -1      4342 9.04266E-05-2.49023E-05-2.80756E-05-2.03733E-06-2.47680E-19-3.58259E-19
 -3
    1PSTEP                         4           1           1          
  100CL  101 1.000000000        4342                     0    1           1
 -4  ERROR       1    1
 -5  STR(%)      1    1    0    0
 -1         1 1.43247E+01
 -1         2 2.52755E+01
 -1         3 9.21610E-03
 -1         4 1.02645E-02
 -1         5 1.39167E+01
 -1         6 1.32711E+01
 -1         7 1.32711E+01
 -1         8 3.73468E+00
 -1         9 1.84695E+00
 -1        10 1.26687E+00
 -1        11 1.01450E+00
 -1        12 8.65907E-01
 -1        13 7.76917E-01
 -1        14 7.29494E-01
 -1        15 7.61403E-01
 -1        16 8.24253E-01
 -1        17 9.14011E-01
 -1        18 1.06421E+00
 -1        19 1.31083E+00
 -1        20 1.76908E+00
 -1        21 3.38667E+00
 -1        22 8.45715E+00
 -1        23 1.32711E+01
 -1        24 4.36187E+00
 -1        25 3.44510E+00
 -1        26 2.23302E+00
 -1        27 1.49277E+00
 -1        28 1.09448E+00
 -1        29 8.77259E-01
 -1        30 7.19415E-01
 -1        31 6.01181E-01
 -1        32 5.11867E-01
 -1        33 4.43616E-01
 -1        34 3.88898E-01
 -1        35 3.83171E-01
 -1        36 4.32105E-01
 -1        37 4.73290E-01
 -1        38 5.01150E-01
 -1        39 6.63238E-01
 -1        40 8.15324E-01
 -1        41 9.07549E-01
 -1        42 9.07549E-01
 -1        43 9.38986E-01
 -1        44 9.38986E-01
 -1        45 1.17192E+00
 -1        46 1.74368E+00
 -1        47 2.58808E+00
 -1        48 2.87971E+00
 -1        49 3.20004E+00
 -1        50 3.20004E+00
 -1        51 3.11721E+00
 -1        52 2.61260E+00
 -1        53 2.88673E+00
 -1        54 3.95264E+00
 -1        55 3.95264E+00
 -1        56 4.07824E+00
 -1        57 5.57751E+00
 -1        58 5.57751E+00
 -1        59 3.63260E+00
 -1        60 5.75136E-01
 -1        61 4.58675E-01
 -1        62 3.78190E-01
 -1        63 3.25575E-01
 -1        64 2.69122E-01
 -1        65 2.15042E-01
 -1        66 1.66620E-01
 -1        67 1.25001E-01
 -1        68 1.04473E-01
 -1        69 8.79883E-02
 -1        70 6.59807E-02
 -1        71 3.29324E-02
 -1        72 1.39167E+01
 -1        73 3.42507E+00
 -1        74 2.40872E+00
 -1        75 1.64748E+00
 -1        76 1.20372E+00
 -1        77 9.88023E-01
 -1        78 8.22826E-01
 -1        79 6.95907E-01
 -1        80 5.99523E-01
 -1        81 5.29514E-01
 -1        82 4.82861E-01
 -1        83 4.88612E-01
 -1        84 5.59348E-01
 -1        85 6.45834E-01
 -1        86 7.41943E-01
 -1        87 8.34486E-01
 -1        88 8.99940E-01
 -1        89 9.19488E-01
 -1        90 1.21858E+00
 -1        91 1.50377E+00
 -1        92 1.63509E+00
 -1        93 1.97055E+00
 -1        94 1.99271E+00
 -1        95 2.51227E+00
 -1        96 3.67347E+00
 -1        97 4.99194E+00
 -1        98 5.74622E+00
 -1        99 5.74622E+00
 -1       100 5.13034E+00
 -1       101 3.17858E+00
 -1       102 2.97620E+00
 -1       103 1.73646E+00
 -1       104 1.92126E+00
 -1       105 1.92126E+00
 -1       106 1.79170E+00
 -1       107 1.52054E+00
 -1       108 1.27105E+00
 -1       109 1.01757E+00
 -1       110 7.83371E-01
 -1       111 5.83088E-01
 -1       112 4.24551E-01
 -1       113 3.28658E-01
 -1       114 2.49104E-01
 -1       115 1.84948E-01
 -1       116 1.34018E-01
 -1       117 9.35081E-02
 -1       118 6.71800E-02
 -1       119 5.24779E-02
 -1       120 2.84806E-02
 -1       121 1.06880E-02
 -1       122 1.23259E-02
 -1       123 1.23259E-02
 -1       124 8.52728E-03
 -1       125 4.37370E-03
 -1       126 8.71056E-03
 -1       127 1.16634E-02
 -1       128 1.24852E-02
 -1       129 1.24852E-02
 -1       130 1.14405E-02
 -1       131 8.31962E-03
 -1       132 4.18423E-03
 -1       133 8.24933E-03
 -1       134 1.16261E-02
 -1       135 1.38925E-02
 -1       136 1.52462E-02
 -1       137 2.52755E+01
 -1       138 4.73691E+01
 -1       139 4.73691E+01
 -1       140 2.01725E+01
 -1       141 1.20927E+01
 -1       142 1.30411E+01
 -1       143 1.30411E+01
 -1       144 1.30196E+01
 -1       145 1.23692E+01
 -1       146 1.69861E+01
 -1       147 4.52241E+01
 -1       148 4.52241E+01
 -1       149 2.48736E+01
 -1       150 2.38069E+01
 -1       151 2.50597E+01
 -1       152 4.86601E+01
 -1       153 4.86601E+01
 -1       154 2.14625E+01
 -1       155 1.20172E+01
 -1       156 1.27165E+01
 -1       157 1.33093E+01
 -1       158 1.43247E+01
 -1       159 1.36869E+01
 -1       160 2.75633E+01
 -1       161 3.26503E+01
 -1       162 3.26503E+01
 -1       163 6.19199E+00
 -1       164 2.32802E+00
 -1       165 1.47920E+00
 -1       166 1.12154E+00
 -1       167 9.35925E-01
 -1       168 8.28680E-01
 -1       169 7.64935E-01
 -1       170 7.61403E-01
 -1       171 8.11613E-01
 -1       172 8.84509E-01
 -1       173 1.00094E+00
 -1       174 1.19056E+00
 -1       175 1.53653E+00
 -1       176 2.24949E+00
 -1       177 3.82992E+00
 -1       178 1.39167E+01
 -1       179 4.36187E+00
 -1       180 3.44510E+00
 -1       181 2.23302E+00
 -1       182 1.54530E+00
 -1       183 1.13396E+00
 -1       184 8.77259E-01
 -1       185 7.19415E-01
 -1       186 6.01181E-01
 -1       187 5.11867E-01
 -1       188 4.43616E-01
 -1       189 3.88898E-01
 -1       190 3.39511E-01
 -1       191 3.83171E-01
 -1       192 4.32105E-01
 -1       193 4.73290E-01
 -1       194 5.27920E-01
 -1       195 6.63238E-01
 -1       196 8.15324E-01
 -1       197 9.07549E-01
 -1       198 8.75082E-01
 -1       199 9.38986E-01
 -1       200 8.41531E-01
 -1       201 1.17192E+00
 -1       202 1.74368E+00
 -1       203 2.58808E+00
 -1       204 2.87971E+00
 -1       205 3.20004E+00
 -1       206 3.11721E+00
 -1       207 2.61260E+00
 -1       208 2.31363E+00
 -1       209 3.04357E+00
 -1       210 5.63266E+00
 -1       211 8.88704E+00
 -1       212 5.16896E+00
 -1       213 1.24866E+01
 -1       214 5.56086E+00
 -1       215 5.94900E-01
 -1       216 5.04776E-01
 -1       217 4.24973E-01
 -1       218 3.39996E-01
 -1       219 2.69122E-01
 -1       220 2.15042E-01
 -1       221 1.67929E-01
 -1       222 1.30730E-01
 -1       223 1.04473E-01
 -1       224 8.79883E-02
 -1       225 6.59807E-02
 -1       226 3.73433E-02
 -1       227 3.42507E+00
 -1       228 2.40872E+00
 -1       229 1.64748E+00
 -1       230 1.20372E+00
 -1       231 9.88023E-01
 -1       232 8.22826E-01
 -1       233 6.95907E-01
 -1       234 5.99523E-01
 -1       235 5.29514E-01
 -1       236 4.82861E-01
 -1       237 4.56236E-01
 -1       238 4.90553E-01
 -1       239 5.63469E-01
 -1       240 6.45834E-01
 -1       241 7.41943E-01
 -1       242 8.34486E-01
 -1       243 8.99940E-01
 -1       244 1.06835E+00
 -1       245 1.23771E+00
 -1       246 1.50377E+00
 -1       247 1.63509E+00
 -1       248 1.97055E+00
 -1       249 1.99271E+00
 -1       250 2.51227E+00
 -1       251 3.67347E+00
 -1       252 4.99194E+00
 -1       253 5.74622E+00
 -1       254 5.13034E+00
 -1       255 3.17858E+00
 -1       256 2.97620E+00
 -1       257 1.55415E+00
 -1       258 1.73646E+00
 -1       259 1.92126E+00
 -1       260 1.79170E+00
 -1       261 1.52054E+00
 -1       262 1.27105E+00
 -1       263 1.04068E+00
 -1       264 8.23596E-01
 -1       265 6.29504E-01
 -1       266 4.66495E-01
 -1       267 3.37009E-01
 -1       268 2.49104E-01
 -1       269 1.84948E-01
 -1       270 1.34515E-01
 -1       271 9.67242E-02
 -1       272 6.71800E-02
 -1       273 5.24779E-02
 -1       274 2.84806E-02
 -1       275 1.82010E-02
 -1       276 2.11183E-02
 -1       277 2.11183E-02
 -1       278 1.23910E-02
 -1       279 1.70444E-02
 -1       280 2.29825E-02
 -1       281 2.52451E-02
 -1       282 2.52451E-02
 -1       283 2.51023E-02
 -1       284 2.22066E-02
 -1       285 1.62373E-02
 -1       286 1.18251E-02
 -1       287 2.05113E-02
 -1       288 2.05113E-02
 -1       289 2.28637E-02
 -1       290 3.21853E+01
 -1       291 2.80153E+01
 -1       292 4.73691E+01
 -1       293 2.21788E+01
 -1       294 1.12874E+01
 -1       295 1.20927E+01
 -1       296 1.30411E+01
 -1       297 1.30196E+01
 -1       298 1.23692E+01
 -1       299 1.17074E+01
 -1       300 1.70699E+01
 -1       301 4.52241E+01
 -1       302 3.88898E+01
 -1       303 2.88257E+01
 -1       304 2.88257E+01
 -1       305 2.81118E+01
 -1       306 4.86601E+01
 -1       307 2.34804E+01
 -1       308 1.13886E+01
 -1       309 1.20172E+01
 -1       310 1.27165E+01
 -1       311 1.33093E+01
 -1       312 1.43247E+01
 -1       313 1.36869E+01
 -1       314 1.34940E+01
 -1       315 2.75633E+01
 -1       316 3.26503E+01
 -1       317 3.21853E+01
 -1       318 1.05630E+00
 -1       319 2.54350E+00
 -1       320 7.61192E-01
 -1       321 6.63476E-01
 -1       322 6.02482E-01
 -1       323 5.64308E-01
 -1       324 6.01032E-01
 -1       325 6.47668E-01
 -1       326 7.16473E-01
 -1       327 8.11463E-01
 -1       328 9.44159E-01
 -1       329 1.11207E+00
 -1       330 1.26399E+00
 -1       331 2.11188E+00
 -1       332 1.80397E+00
 -1       333 1.80708E+00
 -1       334 1.35836E+00
 -1       335 1.00431E+00
 -1       336 7.55487E-01
 -1       337 6.17008E-01
 -1       338 5.33983E-01
 -1       339 4.59740E-01
 -1       340 3.93662E-01
 -1       341 3.33633E-01
 -1       342 2.76159E-01
 -1       343 2.92778E-01
 -1       344 3.32308E-01
 -1       345 3.66563E-01
 -1       346 4.38758E-01
 -1       347 5.22839E-01
 -1       348 6.13589E-01
 -1       349 6.59125E-01
 -1       350 6.14703E-01
 -1       351 4.71141E-01
 -1       352 4.39225E-01
 -1       353 7.56263E-01
 -1       354 1.14974E+00
 -1       355 1.50294E+00
 -1       356 1.68453E+00
 -1       357 1.77928E+00
 -1       358 2.01067E+00
 -1       359 1.95623E+00
 -1       360 1.78315E+00
 -1       361 3.09520E+00
 -1       362 6.83747E+00
 -1       363 1.50693E+01
 -1       364 2.01236E+01
 -1       365 1.24866E+01
 -1       366 1.34739E+01
 -1       367 5.82355E-01
 -1       368 5.18440E-01
 -1       369 4.58767E-01
 -1       370 3.88225E-01
 -1       371 3.14083E-01
 -1       372 2.44097E-01
 -1       373 1.82510E-01
 -1       374 1.31111E-01
 -1       375 9.85999E-02
 -1       376 7.13159E-02
 -1       377 5.17493E-02
 -1       378 3.48636E-02
 -1       379 1.11582E+00
 -1       380 8.36530E-01
 -1       381 6.35121E-01
 -1       382 5.51623E-01
 -1       383 4.99720E-01
 -1       384 4.50770E-01
 -1       385 4.08611E-01
 -1       386 3.75309E-01
 -1       387 3.78770E-01
 -1       388 4.28554E-01
 -1       389 5.79224E-01
 -1       390 7.50787E-01
 -1       391 9.35840E-01
 -1       392 1.11913E+00
 -1       393 1.27094E+00
 -1       394 1.40515E+00
 -1       395 1.43415E+00
 -1       396 1.43415E+00
 -1       397 1.25692E+00
 -1       398 1.18535E+00
 -1       399 1.53928E+00
 -1       400 2.34372E+00
 -1       401 2.84582E+00
 -1       402 3.05307E+00
 -1       403 3.12616E+00
 -1       404 3.07506E+00
 -1       405 1.97982E+00
 -1       406 1.21074E+00
 -1       407 1.31879E+00
 -1       408 1.39421E+00
 -1       409 1.42850E+00
 -1       410 1.41018E+00
 -1       411 1.28262E+00
 -1       412 1.13732E+00
 -1       413 9.62070E-01
 -1       414 7.77403E-01
 -1       415 6.05976E-01
 -1       416 4.58239E-01
 -1       417 3.37009E-01
 -1       418 2.40952E-01
 -1       419 1.81832E-01
 -1       420 1.34515E-01
 -1       421 9.67242E-02
 -1       422 6.62059E-02
 -1       423 4.28014E-02
 -1       424 2.30695E-02
 -1       425 2.38945E-02
 -1       426 3.58394E-02
 -1       427 3.58394E-02
 -1       428 2.40756E-02
 -1       429 3.32219E-02
 -1       430 3.73849E-02
 -1       431 3.73849E-02
 -1       432 3.65976E-02
 -1       433 3.65976E-02
 -1       434 3.17741E-02
 -1       435 2.22300E-02
 -1       436 2.38034E-02
 -1       437 3.24794E-02
 -1       438 2.80153E+01
 -1       439 3.21853E+01
 -1       440 3.13335E+01
 -1       441 1.59313E+01
 -1       442 9.23996E+00
 -1       443 8.89329E-01
 -1       444 9.35757E+00
 -1       445 1.17680E+01
 -1       446 9.67853E+00
 -1       447 8.24680E+00
 -1       448 8.28977E+00
 -1       449 1.56114E+01
 -1       450 2.75616E+01
 -1       451 2.84535E+01
 -1       452 3.07053E+01
 -1       453 3.07053E+01
 -1       454 2.81118E+01
 -1       455 1.73584E+01
 -1       456 9.84666E+00
 -1       457 7.24554E+00
 -1       458 9.39379E+00
 -1       459 1.09481E+01
 -1       460 1.11345E+01
 -1       461 1.05993E+01
 -1       462 1.77096E+01
 -1       463 1.98727E+01
 -1       464 2.67366E+01
 -1       465 3.94034E+01
 -1       466 7.27525E+00
 -1       467 1.50315E+01
 -1       468 1.03340E+01
 -1       469 2.49938E+01
 -1       470 4.68513E+00
 -1       471 1.00911E+00
 -1       472 4.55822E-01
 -1       473 4.80426E-01
 -1       474 4.41368E-01
 -1       475 4.70297E-01
 -1       476 5.03019E-01
 -1       477 5.29188E-01
 -1       478 5.29188E-01
 -1       479 5.79965E-01
 -1       480 8.36530E-01
 -1       481 8.66621E-01
 -1       482 5.54405E+00
 -1       483 7.70224E-01
 -1       484 6.59579E-01
 -1       485 5.45621E-01
 -1       486 4.39371E-01
 -1       487 3.79434E-01
 -1       488 3.27831E-01
 -1       489 2.72413E-01
 -1       490 2.13863E-01
 -1       491 1.89832E-01
 -1       492 2.21641E-01
 -1       493 2.93782E-01
 -1       494 3.87893E-01
 -1       495 4.68258E-01
 -1       496 5.31676E-01
 -1       497 6.13820E-01
 -1       498 6.65331E-01
 -1       499 6.59462E-01
 -1       500 8.18368E-01
 -1       501 8.23170E-01
 -1       502 1.07579E+00
 -1       503 1.16191E+00
 -1       504 1.46652E+00
 -1       505 1.46201E+00
 -1       506 1.11018E+00
 -1       507 2.04938E+00
 -1       508 1.66960E+00
 -1       509 3.61872E+00
 -1       510 1.12692E+01
 -1       511 3.66106E+01
 -1       512 5.31976E+01
 -1       513 4.27397E+01
 -1       514 3.29564E+01
 -1       515 1.34739E+01
 -1       516 5.45364E-01
 -1       517 4.88916E-01
 -1       518 4.22726E-01
 -1       519 3.50755E-01
 -1       520 2.80873E-01
 -1       521 2.17705E-01
 -1       522 1.63485E-01
 -1       523 1.18860E-01
 -1       524 8.35151E-02
 -1       525 5.64697E-02
 -1       526 2.01034E+01
 -1       527 5.15821E-01
 -1       528 4.46283E-01
 -1       529 3.72838E-01
 -1       530 3.00098E-01
 -1       531 2.73246E-01
 -1       532 3.10230E-01
 -1       533 3.63761E-01
 -1       534 5.03874E-01
 -1       535 6.62292E-01
 -1       536 8.37511E-01
 -1       537 1.02235E+00
 -1       538 1.20070E+00
 -1       539 1.34452E+00
 -1       540 1.46932E+00
 -1       541 1.68807E+00
 -1       542 1.84159E+00
 -1       543 1.87384E+00
 -1       544 2.32496E+00
 -1       545 2.47823E+00
 -1       546 2.84582E+00
 -1       547 4.63387E+00
 -1       548 3.12616E+00
 -1       549 3.71252E+00
 -1       550 2.26432E+00
 -1       551 2.49015E+00
 -1       552 2.36523E+00
 -1       553 1.93977E+00
 -1       554 1.73187E+00
 -1       555 1.50081E+00
 -1       556 1.33767E+00
 -1       557 1.19976E+00
 -1       558 1.02224E+00
 -1       559 8.36020E-01
 -1       560 6.61968E-01
 -1       561 5.10163E-01
 -1       562 3.83735E-01
 -1       563 2.81916E-01
 -1       564 2.02074E-01
 -1       565 1.40944E-01
 -1       566 9.53389E-02
 -1       567 6.29169E-02
 -1       568 4.39813E-02
 -1       569 4.27594E-02
 -1       570 5.03253E-02
 -1       571 3.49858E-02
 -1       572 3.59851E-02
 -1       573 5.03253E-02
 -1       574 5.00440E-02
 -1       575 5.00259E-02
 -1       576 4.84558E-02
 -1       577 4.04703E-02
 -1       578 3.93168E-02
 -1       579 3.93168E-02
 -1       580 8.16272E+00
 -1       581 6.35121E-01
 -1       582 3.13335E+01
 -1       583 5.39081E+01
 -1       584 3.94034E+01
 -1       585 2.84535E+01
 -1       586 4.28189E-01
 -1       587 7.91780E+00
 -1       588 2.07358E+01
 -1       589 8.58951E+00
 -1       590 6.23515E+00
 -1       591 8.71004E+00
 -1       592 1.27235E+01
 -1       593 1.31028E+01
 -1       594 3.07053E+01
 -1       595 8.34372E+00
 -1       596 5.45510E+00
 -1       597 4.86653E+00
 -1       598 7.75658E+00
 -1       599 8.29139E+00
 -1       600 1.80360E+01
 -1       601 3.90566E+01
 -1       602 4.22019E+01
 -1       603 9.46642E-01
 -1       604 1.24208E+00
 -1       605 4.89738E+00
 -1       606 6.79241E-01
 -1       607 9.37983E+00
 -1       608 3.48636E-02
 -1       609 3.03030E+00
 -1       610 1.25106E+01
 -1       611 1.40898E+01
 -1       612 3.99414E+00
 -1       613 1.87382E+01
 -1       614 8.89521E+00
 -1       615 5.76960E+00
 -1       616 3.80887E-01
 -1       617 3.59037E-01
 -1       618 3.89877E-01
 -1       619 3.71863E-01
 -1       620 4.71258E-01
 -1       621 1.51643E+01
 -1       622 4.53825E-01
 -1       623 4.50262E-01
 -1       624 4.36416E-01
 -1       625 3.89845E-01
 -1       626 3.27955E-01
 -1       627 2.65560E-01
 -1       628 2.11917E-01
 -1       629 1.58335E-01
 -1       630 9.81128E-02
 -1       631 1.30148E-01
 -1       632 2.26618E-01
 -1       633 3.30345E-01
 -1       634 4.36653E-01
 -1       635 5.36879E-01
 -1       636 6.32070E-01
 -1       637 7.83052E-01
 -1       638 9.17789E-01
 -1       639 9.85071E-01
 -1       640 1.28762E+00
 -1       641 1.38587E+00
 -1       642 1.58031E+00
 -1       643 2.52701E+00
 -1       644 4.35950E+00
 -1       645 3.09308E+00
 -1       646 4.58537E+00
 -1       647 8.27706E+00
 -1       648 1.80696E+01
 -1       649 1.84976E+01
 -1       650 3.95764E+01
 -1       651 5.31976E+01
 -1       652 5.31976E+01
 -1       653 4.83262E+01
 -1       654 3.29564E+01
 -1       655 1.13505E+01
 -1       656 5.39289E-01
 -1       657 4.58741E-01
 -1       658 3.78324E-01
 -1       659 3.03680E-01
 -1       660 2.37731E-01
 -1       661 1.81580E-01
 -1       662 1.35183E-01
 -1       663 9.79659E-02
 -1       664 6.22594E-02
 -1       665 6.00112E+00
 -1       666 3.11359E-01
 -1       667 1.75196E-01
 -1       668 2.05253E-01
 -1       669 2.86639E-01
 -1       670 4.07674E-01
 -1       671 5.47511E-01
 -1       672 7.08733E-01
 -1       673 8.93053E-01
 -1       674 1.10016E+00
 -1       675 1.32592E+00
 -1       676 1.55962E+00
 -1       677 1.78232E+00
 -1       678 2.27796E+00
 -1       679 2.61419E+00
 -1       680 3.64577E+00
 -1       681 2.47823E+00
 -1       682 3.83283E+00
 -1       683 2.59655E+00
 -1       684 3.00690E+00
 -1       685 5.22006E+00
 -1       686 3.23477E+00
 -1       687 2.42348E+00
 -1       688 1.88860E+00
 -1       689 1.61833E+00
 -1       690 1.36618E+00
 -1       691 1.12222E+00
 -1       692 9.02671E-01
 -1       693 7.13291E-01
 -1       694 5.54427E-01
 -1       695 4.23964E-01
 -1       696 3.18761E-01
 -1       697 2.35345E-01
 -1       698 1.70270E-01
 -1       699 1.20358E-01
 -1       700 8.16442E-02
 -1       701 5.30957E-02
 -1       702 5.39081E+01
 -1       703 6.95685E-02
 -1       704 1.54221E+01
 -1       705 6.55526E-02
 -1       706 6.81965E-02
 -1       707 6.95685E-02
 -1       708 1.16938E+01
 -1       709 6.81965E-02
 -1       710 6.24095E-02
 -1       711 4.64113E-02
 -1       712 3.83824E-01
 -1       713 1.29874E+01
 -1       714 3.89703E+00
 -1       715 2.39575E+01
 -1       716 3.93168E-02
 -1       717 2.24891E-01
 -1       718 2.76222E-01
 -1       719 4.52606E-01
 -1       720 4.22019E+01
 -1       721 3.89877E-01
 -1       722 3.28390E-01
 -1       723 6.95443E+00
 -1       724 4.06175E+00
 -1       725 4.63821E+00
 -1       726 2.92977E+00
 -1       727 6.89791E+00
 -1       728 1.39871E+01
 -1       729 5.39081E+01
 -1       730 5.12476E+00
 -1       731 4.30084E+00
 -1       732 2.84413E+01
 -1       733 3.82844E-01
 -1       734 3.32503E-01
 -1       735 3.04966E+00
 -1       736 5.26505E+00
 -1       737 6.28432E+00
 -1       738 1.39871E+01
 -1       739 1.12870E+01
 -1       740 7.61083E+00
 -1       741 4.97541E-02
 -1       742 1.01717E+01
 -1       743 4.35950E+00
 -1       744 8.08145E+00
 -1       745 5.41952E-02
 -1       746 3.84557E+00
 -1       747 3.25095E-01
 -1       748 1.24285E+01
 -1       749 2.61964E+00
 -1       750 4.53421E-02
 -1       751 4.64703E-01
 -1       752 8.74467E+00
 -1       753 2.82047E-01
 -1       754 2.08301E-01
 -1       755 2.77027E-01
 -1       756 4.35950E+00
 -1       757 2.95325E-01
 -1       758 2.80485E-01
 -1       759 2.43510E-01
 -1       760 2.01181E-01
 -1       761 1.60087E-01
 -1       762 1.32398E-01
 -1       763 1.35132E-01
 -1       764 1.95697E-01
 -1       765 2.88270E-01
 -1       766 3.89189E-01
 -1       767 5.12508E-01
 -1       768 6.69710E-01
 -1       769 8.29530E-01
 -1       770 1.05349E+00
 -1       771 1.35615E+00
 -1       772 1.63368E+00
 -1       773 2.70079E+00
 -1       774 1.58031E+00
 -1       775 2.52701E+00
 -1       776 2.21493E+01
 -1       777 2.79290E+01
 -1       778 3.64529E+01
 -1       779 3.95764E+01
 -1       780 4.82335E+01
 -1       781 4.83262E+01
 -1       782 3.07868E+01
 -1       783 1.13505E+01
 -1       784 6.26678E-01
 -1       785 5.12088E-01
 -1       786 4.09473E-01
 -1       787 3.20217E-01
 -1       788 2.45987E-01
 -1       789 1.90423E-01
 -1       790 1.42705E-01
 -1       791 1.02718E-01
 -1       792 7.18252E-02
 -1       793 1.28019E-01
 -1       794 4.16535E-01
 -1       795 5.51295E-01
 -1       796 7.22617E-01
 -1       797 9.34447E-01
 -1       798 1.19543E+00
 -1       799 1.53357E+00
 -1       800 1.99769E+00
 -1       801 2.65935E+00
 -1       802 5.54283E+00
 -1       803 7.59671E+00
 -1       804 6.68859E+00
 -1       805 3.17417E+00
 -1       806 2.19255E+00
 -1       807 1.62947E+00
 -1       808 1.23851E+00
 -1       809 9.68471E-01
 -1       810 7.66917E-01
 -1       811 5.92956E-01
 -1       812 4.48522E-01
 -1       813 3.32272E-01
 -1       814 2.40776E-01
 -1       815 1.74637E-01
 -1       816 1.27395E-01
 -1       817 8.95238E-02
 -1       818 6.78049E-02
 -1       819 8.88585E-02
 -1       820 7.77665E-02
 -1       821 8.88585E-02
 -1       822 2.35527E-01
 -1       823 8.83913E-02
 -1       824 3.59418E+01
 -1       825 7.48003E+00
 -1       826 3.03685E-01
 -1       827 3.57260E+01
 -1       828 9.71249E-02
 -1       829 1.43467E-01
 -1       830 3.09148E-01
 -1       831 3.46290E+00
 -1       832 2.27226E-01
 -1       833 1.01336E+01
 -1       834 1.28420E+01
 -1       835 2.51194E+01
 -1       836 1.69090E-01
 -1       837 9.77865E+00
 -1       838 3.57260E+01
 -1       839 2.94699E-01
 -1       840 3.07925E-01
 -1       841 6.91754E+00
 -1       842 2.43055E-01
 -1       843 4.71057E+00
 -1       844 8.10701E+00
 -1       845 8.74467E+00
 -1       846 7.59671E+00
 -1       847 6.75349E+00
 -1       848 9.15205E-02
 -1       849 9.15205E-02
 -1       850 1.93068E-01
 -1       851 1.96709E-01
 -1       852 4.14500E+00
 -1       853 2.70079E+00
 -1       854 8.61761E-02
 -1       855 3.09148E-01
 -1       856 8.20500E+00
 -1       857 2.44792E+01
 -1       858 2.51410E-01
 -1       859 6.56026E-02
 -1       860 8.39633E+00
 -1       861 2.10641E-01
 -1       862 2.08601E-01
 -1       863 1.85416E-01
 -1       864 1.62049E-01
 -1       865 1.67841E-01
 -1       866 1.84132E-01
 -1       867 2.12521E-01
 -1       868 2.88270E-01
 -1       869 3.89189E-01
 -1       870 5.15334E-01
 -1       871 6.70914E-01
 -1       872 8.73360E-01
 -1       873 1.18538E+00
 -1       874 1.51470E+00
 -1       875 1.99550E+00
 -1       876 2.70079E+00
 -1       877 1.16588E-01
 -1       878 1.77960E+01
 -1       879 8.20388E+00
 -1       880 1.02067E+01
 -1       881 1.05158E+01
 -1       882 9.42008E-01
 -1       883 7.13480E-01
 -1       884 5.62640E-01
 -1       885 4.50887E-01
 -1       886 3.54122E-01
 -1       887 2.72629E-01
 -1       888 2.05493E-01
 -1       889 1.49802E-01
 -1       890 1.94685E-01
 -1       891 6.91518E-01
 -1       892 5.21569E-01
 -1       893 1.14815E+00
 -1       894 1.46035E+00
 -1       895 1.87306E+00
 -1       896 2.81894E+00
 -1       897 5.44478E+00
 -1       898 6.59332E+00
 -1       899 2.04415E+00
 -1       900 3.08588E+00
 -1       901 1.25976E-01
 -1       902 6.04400E+00
 -1       903 1.58701E+00
 -1       904 1.23851E+00
 -1       905 9.57315E-01
 -1       906 7.34522E-01
 -1       907 5.58838E-01
 -1       908 4.20890E-01
 -1       909 3.12873E-01
 -1       910 2.28840E-01
 -1       911 1.63033E-01
 -1       912 1.20811E-01
 -1       913 2.44792E+01
 -1       914 8.29378E-02
 -1       915 1.33587E-01
 -1       916 9.54568E-02
 -1       917 2.70195E-01
 -1       918 7.55338E-02
 -1       919 2.33879E-01
 -1       920 8.97991E-01
 -1       921 3.64529E+01
 -1       922 1.86785E-01
 -1       923 4.94215E+00
 -1       924 1.16588E-01
 -1       925 2.34116E-01
 -1       926 5.56297E+00
 -1       927 6.78680E+00
 -1       928 9.61022E-02
 -1       929 2.74302E-01
 -1       930 7.59671E+00
 -1       931 3.81334E-01
 -1       932 1.03736E-01
 -1       933 1.16307E-01
 -1       934 1.53064E-01
 -1       935 6.21240E+00
 -1       936 2.34116E-01
 -1       937 1.75771E+01
 -1       938 1.53064E-01
 -1       939 6.78680E+00
 -1       940 1.19611E-01
 -1       941 1.41977E+01
 -1       942 1.61645E-01
 -1       943 1.65930E-01
 -1       944 1.54861E-01
 -1       945 1.80859E-01
 -1       946 2.07949E-01
 -1       947 2.48343E-01
 -1       948 2.95161E-01
 -1       949 3.82096E-01
 -1       950 5.15334E-01
 -1       951 6.70914E-01
 -1       952 8.79129E-01
 -1       953 1.19749E+00
 -1       954 1.69527E+00
 -1       955 2.11087E+00
 -1       956 3.05012E+00
 -1       957 2.50615E+00
 -1       958 2.33879E-01
 -1       959 6.19091E-01
 -1       960 6.99502E+00
 -1       961 8.97305E+00
 -1       962 9.15694E+00
 -1       963 1.09664E+00
 -1       964 8.71144E-01
 -1       965 6.81821E-01
 -1       966 5.28453E-01
 -1       967 4.05693E-01
 -1       968 3.08511E-01
 -1       969 2.31226E-01
 -1       970 1.73004E-01
 -1       971 5.44478E+00
 -1       972 1.00743E-01
 -1       973 1.87306E+00
 -1       974 1.40352E+00
 -1       975 4.30062E+00
 -1       976 1.48594E+00
 -1       977 1.10712E+00
 -1       978 8.26656E-01
 -1       979 6.23729E-01
 -1       980 4.71844E-01
 -1       981 3.55293E-01
 -1       982 2.65779E-01
 -1       983 1.97805E-01
 -1       984 4.63463E+00
 -1       985 1.42641E-01
 -1       986 1.36511E-01
 -1       987 2.79320E+00
 -1       988 1.92093E-01
 -1       989 2.07881E-01
 -1       990 2.04415E+00
 -1       991 1.17707E-01
 -1       992 1.59297E-01
 -1       993 5.12200E+00
 -1       994 2.21230E-01
 -1       995 1.41977E+01
 -1       996 1.33339E-01
 -1       997 1.42641E-01
 -1       998 1.42085E-01
 -1       999 1.65031E-01
 -1      1000 8.10909E-01
 -1      1001 6.35715E+00
 -1      1002 2.53478E-01
 -1      1003 5.12200E+00
 -1      1004 1.42085E-01
 -1      1005 4.68719E-01
 -1      1006 9.23377E+00
 -1      1007 1.18050E-01
 -1      1008 1.65031E-01
 -1      1009 3.87862E+00
 -1      1010 1.67892E-01
 -1      1011 4.41650E+00
 -1      1012 1.06159E+00
 -1      1013 1.81965E-01
 -1      1014 3.79620E+00
 -1      1015 6.35715E+00
 -1      1016 1.52947E-01
 -1      1017 1.80859E-01
 -1      1018 2.08612E-01
 -1      1019 2.51318E-01
 -1      1020 3.02847E-01
 -1      1021 3.80647E-01
 -1      1022 4.75294E-01
 -1      1023 6.37801E-01
 -1      1024 8.79129E-01
 -1      1025 1.19749E+00
 -1      1026 1.66411E+00
 -1      1027 3.32296E+00
 -1      1028 1.34737E-01
 -1      1029 1.87349E-01
 -1      1030 5.67784E+00
 -1      1031 8.97305E+00
 -1      1032 6.15457E+00
 -1      1033 7.47109E-01
 -1      1034 5.63016E-01
 -1      1035 4.19851E-01
 -1      1036 3.14486E-01
 -1      1037 2.35681E-01
 -1      1038 1.77053E-01
 -1      1039 1.51408E-01
 -1      1040 1.81965E-01
 -1      1041 8.17001E-01
 -1      1042 3.18187E+00
 -1      1043 1.33816E+00
 -1      1044 6.09149E-01
 -1      1045 1.10585E+00
 -1      1046 4.64280E-01
 -1      1047 3.52780E-01
 -1      1048 2.74381E-01
 -1      1049 2.09416E-01
 -1      1050 3.73994E+00
 -1      1051 4.17370E+00
 -1      1052 3.48135E-01
 -1      1053 1.88526E+00
 -1      1054 1.63500E-01
 -1      1055 1.41428E-01
 -1      1056 1.16825E-01
 -1      1057 1.13139E+00
 -1      1058 6.21609E+00
 -1      1059 1.81904E-01
 -1      1060 6.54224E-01
 -1      1061 1.42085E-01
 -1      1062 5.02388E-01
 -1      1063 1.61158E+00
 -1      1064 6.21609E+00
 -1      1065 1.56099E-01
 -1      1066 2.42398E-01
 -1      1067 1.78163E-01
 -1      1068 2.43609E+00
 -1      1069 8.50441E-01
 -1      1070 1.34444E-01
 -1      1071 1.59147E-01
 -1      1072 2.08612E-01
 -1      1073 2.51318E-01
 -1      1074 3.02847E-01
 -1      1075 3.80647E-01
 -1      1076 4.75294E-01
 -1      1077 6.06237E-01
 -1      1078 9.22165E-01
 -1      1079 1.35191E+00
 -1      1080 2.01707E+00
 -1      1081 2.53453E+00
 -1      1082 3.73087E-01
 -1      1083 3.20174E-01
 -1      1084 1.34737E-01
 -1      1085 5.67784E+00
 -1      1086 6.15457E+00
 -1      1087 5.60477E+00
 -1      1088 9.24344E-01
 -1      1089 4.10973E-01
 -1      1090 3.38539E-01
 -1      1091 2.77188E-01
 -1      1092 2.45759E-01
 -1      1093 1.35811E-01
 -1      1094 2.40158E+00
 -1      1095 9.32664E-01
 -1      1096 5.60477E+00
 -1      1097 2.86394E-01
 -1      1098 2.79646E+00
 -1      1099 1.87349E-01
 -1      1100 3.20021E+00
 -1      1101 1.82376E-01
 -1      1102 4.07775E-01
 -1      1103 4.56587E+00
 -1      1104 4.90212E-01
 -1      1105 1.01463E+00
 -1      1106 1.17935E-01
 -1      1107 6.21609E+00
 -1      1108 1.89468E+00
 -1      1109 2.74381E-01
 -1      1110 4.83788E-01
 -1      1111 1.20995E+00
 -1      1112 1.87349E-01
 -1      1113 7.95453E-01
 -1      1114 2.09955E-01
 -1      1115 1.37977E+00
 -1      1116 2.42398E-01
 -1      1117 6.06237E-01
 -1      1118 9.32664E-01
 -1      1119 3.20174E-01
 -1      1120 4.07775E-01
 -1      1121 5.60477E+00
 -1      1122 4.10973E-01
 -1      1123 3.13897E-01
 -1      1124 4.19661E+00
 -1      1125 1.86348E-01
 -1      1126 2.26691E-01
 -1      1127 1.32711E+01
 -1      1128 8.50289E+00
 -1      1129 2.79081E+00
 -1      1130 1.55691E+00
 -1      1131 1.14069E+00
 -1      1132 9.40205E-01
 -1      1133 8.21412E-01
 -1      1134 7.53206E-01
 -1      1135 7.45449E-01
 -1      1136 7.92828E-01
 -1      1137 8.69132E-01
 -1      1138 9.89109E-01
 -1      1139 1.18752E+00
 -1      1140 1.53995E+00
 -1      1141 2.57788E+00
 -1      1142 5.92191E+00
 -1      1143 1.11869E+01
 -1      1144 1.32711E+01
 -1      1145 8.81649E+00
 -1      1146 3.90348E+00
 -1      1147 2.83906E+00
 -1      1148 1.86290E+00
 -1      1149 1.29363E+00
 -1      1150 9.85870E-01
 -1      1151 7.98337E-01
 -1      1152 6.60298E-01
 -1      1153 5.56524E-01
 -1      1154 4.77742E-01
 -1      1155 4.16257E-01
 -1      1156 3.86035E-01
 -1      1157 4.07638E-01
 -1      1158 4.52698E-01
 -1      1159 4.87220E-01
 -1      1160 5.82194E-01
 -1      1161 7.39281E-01
 -1      1162 8.61436E-01
 -1      1163 9.07549E-01
 -1      1164 9.23267E-01
 -1      1165 9.38986E-01
 -1      1166 1.05545E+00
 -1      1167 1.45780E+00
 -1      1168 2.16588E+00
 -1      1169 2.73390E+00
 -1      1170 3.03988E+00
 -1      1171 3.20004E+00
 -1      1172 3.15863E+00
 -1      1173 2.86491E+00
 -1      1174 2.74967E+00
 -1      1175 3.41969E+00
 -1      1176 3.95264E+00
 -1      1177 4.01544E+00
 -1      1178 4.82788E+00
 -1      1179 5.57751E+00
 -1      1180 4.60506E+00
 -1      1181 2.10387E+00
 -1      1182 5.16905E-01
 -1      1183 4.18432E-01
 -1      1184 3.51882E-01
 -1      1185 2.97348E-01
 -1      1186 2.42082E-01
 -1      1187 1.90831E-01
 -1      1188 1.45810E-01
 -1      1189 1.14737E-01
 -1      1190 9.62306E-02
 -1      1191 7.69845E-02
 -1      1192 4.94566E-02
 -1      1193 2.15985E-02
 -1      1194 1.39167E+01
 -1      1195 8.67087E+00
 -1      1196 2.91689E+00
 -1      1197 2.02810E+00
 -1      1198 1.42560E+00
 -1      1199 1.09587E+00
 -1      1200 9.05424E-01
 -1      1201 7.59367E-01
 -1      1202 6.47715E-01
 -1      1203 5.64519E-01
 -1      1204 5.06188E-01
 -1      1205 4.85737E-01
 -1      1206 5.23980E-01
 -1      1207 6.02591E-01
 -1      1208 6.93889E-01
 -1      1209 7.88215E-01
 -1      1210 8.67213E-01
 -1      1211 9.09714E-01
 -1      1212 1.06903E+00
 -1      1213 1.36117E+00
 -1      1214 1.56943E+00
 -1      1215 1.80282E+00
 -1      1216 1.98163E+00
 -1      1217 2.25249E+00
 -1      1218 3.09287E+00
 -1      1219 4.33270E+00
 -1      1220 5.36908E+00
 -1      1221 5.74622E+00
 -1      1222 5.43828E+00
 -1      1223 4.15446E+00
 -1      1224 3.07739E+00
 -1      1225 2.35633E+00
 -1      1226 1.82886E+00
 -1      1227 1.92126E+00
 -1      1228 1.85648E+00
 -1      1229 1.65612E+00
 -1      1230 1.39580E+00
 -1      1231 1.14431E+00
 -1      1232 9.00471E-01
 -1      1233 6.83230E-01
 -1      1234 5.03819E-01
 -1      1235 3.76605E-01
 -1      1236 2.88881E-01
 -1      1237 2.17026E-01
 -1      1238 1.59483E-01
 -1      1239 1.13763E-01
 -1      1240 8.03441E-02
 -1      1241 5.98289E-02
 -1      1242 4.04792E-02
 -1      1243 1.88483E-02
 -1      1244 9.95207E-03
 -1      1245 1.15070E-02
 -1      1246 1.23259E-02
 -1      1247 1.04266E-02
 -1      1248 6.45049E-03
 -1      1249 6.54213E-03
 -1      1250 1.01870E-02
 -1      1251 1.20743E-02
 -1      1252 1.24852E-02
 -1      1253 1.19629E-02
 -1      1254 9.88005E-03
 -1      1255 6.25193E-03
 -1      1256 6.21678E-03
 -1      1257 9.93771E-03
 -1      1258 1.27593E-02
 -1      1259 1.45694E-02
 -1      1260 1.27554E-02
 -1      1261 2.52755E+01
 -1      1262 3.63223E+01
 -1      1263 4.73691E+01
 -1      1264 3.37708E+01
 -1      1265 1.61326E+01
 -1      1266 1.25669E+01
 -1      1267 1.30411E+01
 -1      1268 1.30303E+01
 -1      1269 1.26944E+01
 -1      1270 1.46777E+01
 -1      1271 3.11051E+01
 -1      1272 4.52241E+01
 -1      1273 3.50489E+01
 -1      1274 2.43402E+01
 -1      1275 2.44333E+01
 -1      1276 3.68599E+01
 -1      1277 4.86601E+01
 -1      1278 3.50613E+01
 -1      1279 1.67398E+01
 -1      1280 1.23668E+01
 -1      1281 1.30129E+01
 -1      1282 1.38170E+01
 -1      1283 1.43247E+01
 -1      1284 1.40058E+01
 -1      1285 2.06251E+01
 -1      1286 3.01068E+01
 -1      1287 3.26503E+01
 -1      1288 2.89629E+01
 -1      1289 1.32711E+01
 -1      1290 4.96333E+00
 -1      1291 9.73155E+00
 -1      1292 2.08748E+00
 -1      1293 3.03135E+00
 -1      1294 4.26000E+00
 -1      1295 1.37303E+00
 -1      1296 1.66307E+00
 -1      1297 1.90361E+00
 -1      1298 1.06802E+00
 -1      1299 1.19421E+00
 -1      1300 1.30037E+00
 -1      1301 9.00916E-01
 -1      1302 9.75214E-01
 -1      1303 1.02873E+00
 -1      1304 8.02798E-01
 -1      1305 8.47293E-01
 -1      1306 8.82303E-01
 -1      1307 7.47215E-01
 -1      1308 7.70926E-01
 -1      1309 7.96807E-01
 -1      1310 7.61403E-01
 -1      1311 7.45449E-01
 -1      1312 7.63169E-01
 -1      1313 8.17933E-01
 -1      1314 7.86508E-01
 -1      1315 7.86508E-01
 -1      1316 8.99260E-01
 -1      1317 8.54381E-01
 -1      1318 8.48061E-01
 -1      1319 1.03258E+00
 -1      1320 9.57478E-01
 -1      1321 9.42727E-01
 -1      1322 1.25070E+00
 -1      1323 1.12739E+00
 -1      1324 1.09575E+00
 -1      1325 1.65280E+00
 -1      1326 1.42368E+00
 -1      1327 1.36354E+00
 -1      1328 2.81808E+00
 -1      1329 2.00929E+00
 -1      1330 1.89301E+00
 -1      1331 6.14354E+00
 -1      1332 3.60830E+00
 -1      1333 3.03970E+00
 -1      1334 1.39167E+01
 -1      1335 1.11869E+01
 -1      1336 8.87329E+00
 -1      1337 1.39167E+01
 -1      1338 8.81649E+00
 -1      1339 4.36187E+00
 -1      1340 3.90348E+00
 -1      1341 3.44510E+00
 -1      1342 3.90348E+00
 -1      1343 2.83906E+00
 -1      1344 2.23302E+00
 -1      1345 2.83906E+00
 -1      1346 1.88916E+00
 -1      1347 1.51904E+00
 -1      1348 1.88916E+00
 -1      1349 1.31337E+00
 -1      1350 1.11422E+00
 -1      1351 1.33963E+00
 -1      1352 9.85870E-01
 -1      1353 8.77259E-01
 -1      1354 1.00561E+00
 -1      1355 7.98337E-01
 -1      1356 7.19415E-01
 -1      1357 7.98337E-01
 -1      1358 6.60298E-01
 -1      1359 6.01181E-01
 -1      1360 6.60298E-01
 -1      1361 5.56524E-01
 -1      1362 5.11867E-01
 -1      1363 5.56524E-01
 -1      1364 4.77742E-01
 -1      1365 4.43616E-01
 -1      1366 4.77742E-01
 -1      1367 4.16257E-01
 -1      1368 3.88898E-01
 -1      1369 4.16257E-01
 -1      1370 3.64205E-01
 -1      1371 3.61341E-01
 -1      1372 3.64205E-01
 -1      1373 3.83171E-01
 -1      1374 4.07638E-01
 -1      1375 3.61341E-01
 -1      1376 4.32105E-01
 -1      1377 4.52698E-01
 -1      1378 4.07638E-01
 -1      1379 4.73290E-01
 -1      1380 4.87220E-01
 -1      1381 4.52698E-01
 -1      1382 5.14535E-01
 -1      1383 5.95579E-01
 -1      1384 5.00605E-01
 -1      1385 6.63238E-01
 -1      1386 7.39281E-01
 -1      1387 5.95579E-01
 -1      1388 8.15324E-01
 -1      1389 8.61436E-01
 -1      1390 7.39281E-01
 -1      1391 9.07549E-01
 -1      1392 9.07549E-01
 -1      1393 8.61436E-01
 -1      1394 8.91316E-01
 -1      1395 9.07034E-01
 -1      1396 8.91316E-01
 -1      1397 9.38986E-01
 -1      1398 9.38986E-01
 -1      1399 9.07034E-01
 -1      1400 8.90258E-01
 -1      1401 1.00673E+00
 -1      1402 8.90258E-01
 -1      1403 1.17192E+00
 -1      1404 1.45780E+00
 -1      1405 1.00673E+00
 -1      1406 1.74368E+00
 -1      1407 2.16588E+00
 -1      1408 1.45780E+00
 -1      1409 2.58808E+00
 -1      1410 2.73390E+00
 -1      1411 2.16588E+00
 -1      1412 2.87971E+00
 -1      1413 3.03988E+00
 -1      1414 2.73390E+00
 -1      1415 3.20004E+00
 -1      1416 3.20004E+00
 -1      1417 3.03988E+00
 -1      1418 3.15863E+00
 -1      1419 3.11721E+00
 -1      1420 3.15863E+00
 -1      1421 2.86491E+00
 -1      1422 2.61260E+00
 -1      1423 2.86491E+00
 -1      1424 2.46312E+00
 -1      1425 2.60018E+00
 -1      1426 2.46312E+00
 -1      1427 2.96515E+00
 -1      1428 3.49810E+00
 -1      1429 2.67860E+00
 -1      1430 4.79265E+00
 -1      1431 4.79265E+00
 -1      1432 4.33811E+00
 -1      1433 6.41984E+00
 -1      1434 6.48264E+00
 -1      1435 7.25985E+00
 -1      1436 4.62360E+00
 -1      1437 5.37324E+00
 -1      1438 7.02800E+00
 -1      1439 9.03205E+00
 -1      1440 9.03205E+00
 -1      1441 8.82778E+00
 -1      1442 5.56919E+00
 -1      1443 4.59673E+00
 -1      1444 9.02373E+00
 -1      1445 2.11375E+00
 -1      1446 5.85018E-01
 -1      1447 3.07788E+00
 -1      1448 5.39956E-01
 -1      1449 4.81725E-01
 -1      1450 5.49838E-01
 -1      1451 4.41824E-01
 -1      1452 4.01581E-01
 -1      1453 4.64874E-01
 -1      1454 3.59093E-01
 -1      1455 3.32785E-01
 -1      1456 3.82484E-01
 -1      1457 2.97348E-01
 -1      1458 2.69122E-01
 -1      1459 3.04559E-01
 -1      1460 2.42082E-01
 -1      1461 2.15042E-01
 -1      1462 2.42082E-01
 -1      1463 1.91486E-01
 -1      1464 1.67275E-01
 -1      1465 1.91486E-01
 -1      1466 1.48675E-01
 -1      1467 1.27865E-01
 -1      1468 1.49329E-01
 -1      1469 1.14737E-01
 -1      1470 1.04473E-01
 -1      1471 1.17601E-01
 -1      1472 9.62306E-02
 -1      1473 8.79883E-02
 -1      1474 9.62306E-02
 -1      1475 7.69845E-02
 -1      1476 6.59807E-02
 -1      1477 7.69845E-02
 -1      1478 5.16620E-02
 -1      1479 3.51379E-02
 -1      1480 5.16620E-02
 -1      1481 2.40893E-02
 -1      1482 2.62947E-02
 -1      1483 3.42507E+00
 -1      1484 8.67087E+00
 -1      1485 8.67087E+00
 -1      1486 2.40872E+00
 -1      1487 2.91689E+00
 -1      1488 2.91689E+00
 -1      1489 1.64748E+00
 -1      1490 2.02810E+00
 -1      1491 2.02810E+00
 -1      1492 1.20372E+00
 -1      1493 1.42560E+00
 -1      1494 1.42560E+00
 -1      1495 9.88023E-01
 -1      1496 1.09587E+00
 -1      1497 1.09587E+00
 -1      1498 8.22826E-01
 -1      1499 9.05424E-01
 -1      1500 9.05424E-01
 -1      1501 6.95907E-01
 -1      1502 7.59367E-01
 -1      1503 7.59367E-01
 -1      1504 5.99523E-01
 -1      1505 6.47715E-01
 -1      1506 6.47715E-01
 -1      1507 5.29514E-01
 -1      1508 5.64519E-01
 -1      1509 5.64519E-01
 -1      1510 4.82861E-01
 -1      1511 5.06188E-01
 -1      1512 5.06188E-01
 -1      1513 4.72424E-01
 -1      1514 4.69549E-01
 -1      1515 4.69549E-01
 -1      1516 5.24951E-01
 -1      1517 4.89583E-01
 -1      1518 4.73395E-01
 -1      1519 6.04652E-01
 -1      1520 5.61408E-01
 -1      1521 5.27011E-01
 -1      1522 6.93889E-01
 -1      1523 6.45834E-01
 -1      1524 6.04652E-01
 -1      1525 7.88215E-01
 -1      1526 7.41943E-01
 -1      1527 6.93889E-01
 -1      1528 8.67213E-01
 -1      1529 8.34486E-01
 -1      1530 7.88215E-01
 -1      1531 9.09714E-01
 -1      1532 8.99940E-01
 -1      1533 8.67213E-01
 -1      1534 1.14346E+00
 -1      1535 9.93918E-01
 -1      1536 9.84144E-01
 -1      1537 1.37074E+00
 -1      1538 1.22814E+00
 -1      1539 1.15303E+00
 -1      1540 1.56943E+00
 -1      1541 1.50377E+00
 -1      1542 1.37074E+00
 -1      1543 1.80282E+00
 -1      1544 1.63509E+00
 -1      1545 1.56943E+00
 -1      1546 1.98163E+00
 -1      1547 1.97055E+00
 -1      1548 1.80282E+00
 -1      1549 2.25249E+00
 -1      1550 1.99271E+00
 -1      1551 1.98163E+00
 -1      1552 3.09287E+00
 -1      1553 2.51227E+00
 -1      1554 2.25249E+00
 -1      1555 4.33270E+00
 -1      1556 3.67347E+00
 -1      1557 3.09287E+00
 -1      1558 5.36908E+00
 -1      1559 4.99194E+00
 -1      1560 4.33270E+00
 -1      1561 5.74622E+00
 -1      1562 5.74622E+00
 -1      1563 5.36908E+00
 -1      1564 5.13034E+00
 -1      1565 5.43828E+00
 -1      1566 5.43828E+00
 -1      1567 3.17858E+00
 -1      1568 4.15446E+00
 -1      1569 4.15446E+00
 -1      1570 2.97620E+00
 -1      1571 3.07739E+00
 -1      1572 3.07739E+00
 -1      1573 1.64531E+00
 -1      1574 2.26517E+00
 -1      1575 2.26517E+00
 -1      1576 1.82886E+00
 -1      1577 1.73646E+00
 -1      1578 1.64531E+00
 -1      1579 1.92126E+00
 -1      1580 1.92126E+00
 -1      1581 1.82886E+00
 -1      1582 1.79170E+00
 -1      1583 1.85648E+00
 -1      1584 1.85648E+00
 -1      1585 1.52054E+00
 -1      1586 1.65612E+00
 -1      1587 1.65612E+00
 -1      1588 1.27105E+00
 -1      1589 1.39580E+00
 -1      1590 1.39580E+00
 -1      1591 1.02913E+00
 -1      1592 1.15587E+00
 -1      1593 1.15587E+00
 -1      1594 8.03484E-01
 -1      1595 9.20584E-01
 -1      1596 9.32139E-01
 -1      1597 6.06296E-01
 -1      1598 7.06438E-01
 -1      1599 7.26550E-01
 -1      1600 4.45523E-01
 -1      1601 5.24791E-01
 -1      1602 5.47999E-01
 -1      1603 3.32834E-01
 -1      1604 3.80780E-01
 -1      1605 4.01752E-01
 -1      1606 2.49104E-01
 -1      1607 2.88881E-01
 -1      1608 2.93057E-01
 -1      1609 1.84948E-01
 -1      1610 2.17026E-01
 -1      1611 2.17026E-01
 -1      1612 1.34266E-01
 -1      1613 1.59731E-01
 -1      1614 1.59731E-01
 -1      1615 9.51162E-02
 -1      1616 1.15371E-01
 -1      1617 1.15620E-01
 -1      1618 6.71800E-02
 -1      1619 8.03441E-02
 -1      1620 8.19521E-02
 -1      1621 5.24779E-02
 -1      1622 5.98289E-02
 -1      1623 5.98289E-02
 -1      1624 2.84806E-02
 -1      1625 4.04792E-02
 -1      1626 4.04792E-02
 -1      1627 1.95843E-02
 -1      1628 1.52634E-02
 -1      1629 1.44445E-02
 -1      1630 1.67221E-02
 -1      1631 1.67221E-02
 -1      1632 1.96596E-02
 -1      1633 1.48228E-02
 -1      1634 1.67221E-02
 -1      1635 2.11183E-02
 -1      1636 8.38237E-03
 -1      1637 1.04592E-02
 -1      1638 1.67546E-02
 -1      1639 1.28775E-02
 -1      1640 1.07091E-02
 -1      1641 1.47177E-02
 -1      1642 1.73230E-02
 -1      1643 1.58465E-02
 -1      1644 2.00135E-02
 -1      1645 1.88652E-02
 -1      1646 1.84543E-02
 -1      1647 2.41138E-02
 -1      1648 1.88652E-02
 -1      1649 1.88652E-02
 -1      1650 2.52451E-02
 -1      1651 1.82714E-02
 -1      1652 1.87938E-02
 -1      1653 2.51737E-02
 -1      1654 1.52631E-02
 -1      1655 1.68235E-02
 -1      1656 2.36544E-02
 -1      1657 1.02108E-02
 -1      1658 1.22785E-02
 -1      1659 1.92219E-02
 -1      1660 1.00372E-02
 -1      1661 8.00465E-03
 -1      1662 1.40312E-02
 -1      1663 1.60687E-02
 -1      1664 1.43803E-02
 -1      1665 1.61682E-02
 -1      1666 1.72019E-02
 -1      1667 1.60687E-02
 -1      1668 2.05113E-02
 -1      1669 1.90549E-02
 -1      1670 1.83781E-02
 -1      1671 2.16875E-02
 -1      1672 3.01035E-02
 -1      1673 2.87304E+01
 -1      1674 2.87304E+01
 -1      1675 3.76922E+01
 -1      1676 2.66454E+01
 -1      1677 4.73691E+01
 -1      1678 4.73691E+01
 -1      1679 2.11756E+01
 -1      1680 3.47740E+01
 -1      1681 1.16900E+01
 -1      1682 1.57299E+01
 -1      1683 1.25669E+01
 -1      1684 1.20927E+01
 -1      1685 1.30411E+01
 -1      1686 1.30411E+01
 -1      1687 1.30196E+01
 -1      1688 1.30303E+01
 -1      1689 1.23692E+01
 -1      1690 1.26944E+01
 -1      1691 1.43468E+01
 -1      1692 1.20383E+01
 -1      1693 3.11470E+01
 -1      1694 1.70280E+01
 -1      1695 4.52241E+01
 -1      1696 4.52241E+01
 -1      1697 3.18817E+01
 -1      1698 4.20569E+01
 -1      1699 2.63163E+01
 -1      1700 2.68496E+01
 -1      1701 2.69427E+01
 -1      1702 2.63163E+01
 -1      1703 3.83859E+01
 -1      1704 2.65857E+01
 -1      1705 4.86601E+01
 -1      1706 4.86601E+01
 -1      1707 2.24714E+01
 -1      1708 3.60703E+01
 -1      1709 1.17029E+01
 -1      1710 1.64255E+01
 -1      1711 1.23668E+01
 -1      1712 1.20172E+01
 -1      1713 1.30129E+01
 -1      1714 1.27165E+01
 -1      1715 1.38170E+01
 -1      1716 1.33093E+01
 -1      1717 1.43247E+01
 -1      1718 1.43247E+01
 -1      1719 1.36869E+01
 -1      1720 1.40058E+01
 -1      1721 2.05287E+01
 -1      1722 1.35904E+01
 -1      1723 3.01068E+01
 -1      1724 2.75633E+01
 -1      1725 3.26503E+01
 -1      1726 3.26503E+01
 -1      1727 2.87304E+01
 -1      1728 3.24178E+01
 -1      1729 1.67331E+01
 -1      1730 3.47740E+01
 -1      1731 1.95843E-02
 -1      1732 2.33408E-02
 -1      1733 3.01003E+01
 -1      1734 3.76922E+01
 -1      1735 3.21853E+01
 -1      1736 1.16900E+01
 -1      1737 1.25669E+01
 -1      1738 1.30303E+01
 -1      1739 1.26944E+01
 -1      1740 1.20383E+01
 -1      1741 1.43886E+01
 -1      1742 3.11470E+01
 -1      1743 4.20569E+01
 -1      1744 3.38577E+01
 -1      1745 2.88257E+01
 -1      1746 2.84687E+01
 -1      1747 3.83859E+01
 -1      1748 3.60703E+01
 -1      1749 1.74345E+01
 -1      1750 1.17029E+01
 -1      1751 1.23668E+01
 -1      1752 1.30129E+01
 -1      1753 1.38170E+01
 -1      1754 1.40058E+01
 -1      1755 1.35904E+01
 -1      1756 2.05287E+01
 -1      1757 3.01068E+01
 -1      1758 3.24178E+01
 -1      1759 9.73155E+00
 -1      1760 1.26775E+00
 -1      1761 1.69216E+00
 -1      1762 2.43576E+00
 -1      1763 4.36774E+00
 -1      1764 1.79990E+00
 -1      1765 8.48559E-01
 -1      1766 9.41367E-01
 -1      1767 7.46078E-01
 -1      1768 7.99700E-01
 -1      1769 7.12334E-01
 -1      1770 6.83708E-01
 -1      1771 7.15581E-01
 -1      1772 6.32979E-01
 -1      1773 6.62855E-01
 -1      1774 6.64622E-01
 -1      1775 5.83395E-01
 -1      1776 7.06322E-01
 -1      1777 6.81217E-01
 -1      1778 5.82670E-01
 -1      1779 7.66088E-01
 -1      1780 7.29640E-01
 -1      1781 6.24350E-01
 -1      1782 8.58708E-01
 -1      1783 8.00491E-01
 -1      1784 6.82070E-01
 -1      1785 1.00101E+00
 -1      1786 9.06204E-01
 -1      1787 7.63968E-01
 -1      1788 1.24034E+00
 -1      1789 1.06736E+00
 -1      1790 8.77811E-01
 -1      1791 1.68078E+00
 -1      1792 1.32430E+00
 -1      1793 1.02812E+00
 -1      1794 2.54695E+00
 -1      1795 1.75674E+00
 -1      1796 1.18803E+00
 -1      1797 8.01427E+00
 -1      1798 2.97090E+00
 -1      1799 1.68794E+00
 -1      1800 2.76848E+00
 -1      1801 5.27693E+00
 -1      1802 2.10634E+00
 -1      1803 2.61452E+00
 -1      1804 1.95793E+00
 -1      1805 3.45268E+00
 -1      1806 2.62609E+00
 -1      1807 2.02005E+00
 -1      1808 1.79569E+00
 -1      1809 1.45183E+00
 -1      1810 1.58272E+00
 -1      1811 1.27481E+00
 -1      1812 1.06914E+00
 -1      1813 1.18134E+00
 -1      1814 9.44722E-01
 -1      1815 8.16373E-01
 -1      1816 8.79901E-01
 -1      1817 7.47134E-01
 -1      1818 6.68212E-01
 -1      1819 6.86247E-01
 -1      1820 6.26699E-01
 -1      1821 5.67582E-01
 -1      1822 5.75496E-01
 -1      1823 5.30460E-01
 -1      1824 4.85803E-01
 -1      1825 4.96862E-01
 -1      1826 4.52764E-01
 -1      1827 4.18639E-01
 -1      1828 4.26701E-01
 -1      1829 3.88625E-01
 -1      1830 3.61266E-01
 -1      1831 3.63647E-01
 -1      1832 3.32529E-01
 -1      1833 3.07835E-01
 -1      1834 3.04896E-01
 -1      1835 3.16145E-01
 -1      1836 3.37975E-01
 -1      1837 2.84469E-01
 -1      1838 3.57740E-01
 -1      1839 3.82207E-01
 -1      1840 3.12543E-01
 -1      1841 3.99334E-01
 -1      1842 4.19927E-01
 -1      1843 3.49436E-01
 -1      1844 4.56024E-01
 -1      1845 4.83339E-01
 -1      1846 4.02661E-01
 -1      1847 5.25380E-01
 -1      1848 5.93039E-01
 -1      1849 4.80799E-01
 -1      1850 6.38414E-01
 -1      1851 7.14457E-01
 -1      1852 5.68214E-01
 -1      1853 7.37224E-01
 -1      1854 7.83337E-01
 -1      1855 6.36357E-01
 -1      1856 7.61126E-01
 -1      1857 7.44893E-01
 -1      1858 6.36914E-01
 -1      1859 6.73112E-01
 -1      1860 7.05063E-01
 -1      1861 5.42922E-01
 -1      1862 6.89105E-01
 -1      1863 6.40378E-01
 -1      1864 4.55183E-01
 -1      1865 7.98897E-01
 -1      1866 9.64093E-01
 -1      1867 5.97744E-01
 -1      1868 1.16083E+00
 -1      1869 1.44671E+00
 -1      1870 9.53003E-01
 -1      1871 1.62331E+00
 -1      1872 2.04551E+00
 -1      1873 1.32634E+00
 -1      1874 2.13631E+00
 -1      1875 2.28212E+00
 -1      1876 1.59374E+00
 -1      1877 2.32950E+00
 -1      1878 2.48966E+00
 -1      1879 1.73191E+00
 -1      1880 2.60535E+00
 -1      1881 2.56394E+00
 -1      1882 1.89498E+00
 -1      1883 2.53672E+00
 -1      1884 2.28442E+00
 -1      1885 1.98345E+00
 -1      1886 2.19788E+00
 -1      1887 2.04839E+00
 -1      1888 1.86969E+00
 -1      1889 2.70442E+00
 -1      1890 3.06939E+00
 -1      1891 2.43918E+00
 -1      1892 4.94052E+00
 -1      1893 6.23506E+00
 -1      1894 4.96634E+00
 -1      1895 1.03510E+01
 -1      1896 1.19782E+01
 -1      1897 1.09534E+01
 -1      1898 1.45053E+01
 -1      1899 1.26463E+01
 -1      1900 1.75964E+01
 -1      1901 8.82778E+00
 -1      1902 1.24866E+01
 -1      1903 1.63051E+01
 -1      1904 1.29802E+01
 -1      1905 9.51738E+00
 -1      1906 1.29802E+01
 -1      1907 3.07161E+00
 -1      1908 5.88627E-01
 -1      1909 7.02813E+00
 -1      1910 5.56670E-01
 -1      1911 5.11608E-01
 -1      1912 5.50397E-01
 -1      1913 4.81771E-01
 -1      1914 4.41870E-01
 -1      1915 4.88603E-01
 -1      1916 4.06599E-01
 -1      1917 3.64110E-01
 -1      1918 4.23496E-01
 -1      1919 3.27039E-01
 -1      1920 2.91602E-01
 -1      1921 3.51154E-01
 -1      1922 2.56609E-01
 -1      1923 2.29569E-01
 -1      1924 2.79090E-01
 -1      1925 1.98776E-01
 -1      1926 1.75220E-01
 -1      1927 2.13303E-01
 -1      1928 1.49520E-01
 -1      1929 1.30920E-01
 -1      1930 1.56811E-01
 -1      1931 1.14665E-01
 -1      1932 1.01536E-01
 -1      1933 1.14856E-01
 -1      1934 8.78944E-02
 -1      1935 7.96521E-02
 -1      1936 8.49579E-02
 -1      1937 6.98688E-02
 -1      1938 5.88650E-02
 -1      1939 6.15326E-02
 -1      1940 5.04221E-02
 -1      1941 3.61034E-02
 -1      1942 2.88636E-02
 -1      1943 4.33064E-02
 -1      1944 1.38165E+00
 -1      1945 1.76227E+00
 -1      1946 1.45990E+00
 -1      1947 1.02013E+00
 -1      1948 1.24200E+00
 -1      1949 9.76175E-01
 -1      1950 8.11572E-01
 -1      1951 9.19421E-01
 -1      1952 7.35825E-01
 -1      1953 6.87224E-01
 -1      1954 7.69823E-01
 -1      1955 5.93372E-01
 -1      1956 5.97814E-01
 -1      1957 6.61273E-01
 -1      1958 5.25672E-01
 -1      1959 5.25146E-01
 -1      1960 5.73339E-01
 -1      1961 4.75245E-01
 -1      1962 4.69063E-01
 -1      1963 5.04067E-01
 -1      1964 4.29690E-01
 -1      1965 4.29085E-01
 -1      1966 4.52412E-01
 -1      1967 3.91960E-01
 -1      1968 4.17503E-01
 -1      1969 4.30816E-01
 -1      1970 3.77040E-01
 -1      1971 4.59554E-01
 -1      1972 4.42395E-01
 -1      1973 4.03662E-01
 -1      1974 5.71347E-01
 -1      1975 5.34889E-01
 -1      1976 5.03889E-01
 -1      1977 6.98311E-01
 -1      1978 6.57128E-01
 -1      1979 6.65006E-01
 -1      1980 8.38892E-01
 -1      1981 7.90837E-01
 -1      1982 8.43314E-01
 -1      1983 9.76810E-01
 -1      1984 9.30538E-01
 -1      1985 1.02749E+00
 -1      1986 1.08544E+00
 -1      1987 1.05271E+00
 -1      1988 1.19504E+00
 -1      1989 1.23675E+00
 -1      1990 1.15255E+00
 -1      1991 1.33805E+00
 -1      1992 1.33593E+00
 -1      1993 1.25125E+00
 -1      1994 1.41965E+00
 -1      1995 1.46896E+00
 -1      1996 1.33593E+00
 -1      1997 1.43415E+00
 -1      1998 1.44600E+00
 -1      1999 1.38034E+00
 -1      2000 1.34553E+00
 -1      2001 1.57795E+00
 -1      2002 1.41022E+00
 -1      2003 1.22113E+00
 -1      2004 1.76600E+00
 -1      2005 1.75491E+00
 -1      2006 1.36231E+00
 -1      2007 2.42800E+00
 -1      2008 2.16822E+00
 -1      2009 1.94150E+00
 -1      2010 3.25964E+00
 -1      2011 2.67905E+00
 -1      2012 2.59477E+00
 -1      2013 4.02250E+00
 -1      2014 3.36327E+00
 -1      2015 2.94944E+00
 -1      2016 4.43619E+00
 -1      2017 4.05905E+00
 -1      2018 3.08961E+00
 -1      2019 4.10270E+00
 -1      2020 4.41064E+00
 -1      2021 3.10061E+00
 -1      2022 2.57920E+00
 -1      2023 3.55508E+00
 -1      2024 2.52744E+00
 -1      2025 2.09347E+00
 -1      2026 2.19466E+00
 -1      2027 1.59528E+00
 -1      2028 1.43647E+00
 -1      2029 2.14749E+00
 -1      2030 1.26476E+00
 -1      2031 1.56534E+00
 -1      2032 1.47418E+00
 -1      2033 1.35650E+00
 -1      2034 1.67488E+00
 -1      2035 1.58248E+00
 -1      2036 1.41135E+00
 -1      2037 1.60094E+00
 -1      2038 1.66572E+00
 -1      2039 1.41934E+00
 -1      2040 1.40158E+00
 -1      2041 1.53716E+00
 -1      2042 1.34640E+00
 -1      2043 1.20418E+00
 -1      2044 1.32893E+00
 -1      2045 1.20997E+00
 -1      2046 1.00138E+00
 -1      2047 1.11656E+00
 -1      2048 1.04969E+00
 -1      2049 8.00500E-01
 -1      2050 9.09042E-01
 -1      2051 8.69736E-01
 -1      2052 6.17740E-01
 -1      2053 7.14786E-01
 -1      2054 6.91689E-01
 -1      2055 4.62367E-01
 -1      2056 5.43872E-01
 -1      2057 5.32107E-01
 -1      2058 3.37009E-01
 -1      2059 4.01752E-01
 -1      2060 3.97624E-01
 -1      2061 2.45028E-01
 -1      2062 2.88981E-01
 -1      2063 2.88981E-01
 -1      2064 1.83390E-01
 -1      2065 2.15468E-01
 -1      2066 2.11392E-01
 -1      2067 1.34515E-01
 -1      2068 1.59731E-01
 -1      2069 1.58173E-01
 -1      2070 9.67242E-02
 -1      2071 1.15620E-01
 -1      2072 1.15620E-01
 -1      2073 6.66930E-02
 -1      2074 8.14651E-02
 -1      2075 8.14651E-02
 -1      2076 4.76396E-02
 -1      2077 5.49907E-02
 -1      2078 5.45036E-02
 -1      2079 2.57750E-02
 -1      2080 3.77737E-02
 -1      2081 3.29354E-02
 -1      2082 2.06353E-02
 -1      2083 1.81428E-02
 -1      2084 2.25064E-02
 -1      2085 2.84788E-02
 -1      2086 2.84788E-02
 -1      2087 2.98669E-02
 -1      2088 2.84788E-02
 -1      2089 2.70202E-02
 -1      2090 2.94545E-02
 -1      2091 3.58394E-02
 -1      2092 2.05600E-02
 -1      2093 1.82333E-02
 -1      2094 2.39850E-02
 -1      2095 2.81022E-02
 -1      2096 2.51332E-02
 -1      2097 2.86487E-02
 -1      2098 3.13150E-02
 -1      2099 3.01837E-02
 -1      2100 3.53034E-02
 -1      2101 3.13150E-02
 -1      2102 3.13150E-02
 -1      2103 3.73849E-02
 -1      2104 3.08499E-02
 -1      2105 3.09213E-02
 -1      2106 3.69912E-02
 -1      2107 2.94021E-02
 -1      2108 3.08499E-02
 -1      2109 3.65976E-02
 -1      2110 2.40057E-02
 -1      2111 2.69903E-02
 -1      2112 3.41858E-02
 -1      2113 1.70275E-02
 -1      2114 1.92337E-02
 -1      2115 2.70021E-02
 -1      2116 2.21574E-02
 -1      2117 1.78143E-02
 -1      2118 2.30167E-02
 -1      2119 2.64954E-02
 -1      2120 2.64954E-02
 -1      2121 2.81414E-02
 -1      2122 3.76922E+01
 -1      2123 2.80153E+01
 -1      2124 3.21853E+01
 -1      2125 3.21853E+01
 -1      2126 2.96744E+01
 -1      2127 3.17594E+01
 -1      2128 2.96744E+01
 -1      2129 1.90550E+01
 -1      2130 3.16502E+01
 -1      2131 1.02637E+01
 -1      2132 1.57094E+01
 -1      2133 1.00544E+00
 -1      2134 1.18426E+00
 -1      2135 9.72813E-01
 -1      2136 8.25261E-01
 -1      2137 1.11993E+01
 -1      2138 1.07251E+01
 -1      2139 1.23938E+01
 -1      2140 1.24046E+01
 -1      2141 1.10238E+01
 -1      2142 1.13491E+01
 -1      2143 9.97710E+00
 -1      2144 1.03080E+01
 -1      2145 1.26798E+01
 -1      2146 9.99858E+00
 -1      2147 3.04177E+01
 -1      2148 1.63406E+01
 -1      2149 1.19506E+01
 -1      2150 3.32257E+01
 -1      2151 3.63928E+01
 -1      2152 2.86396E+01
 -1      2153 3.36716E+01
 -1      2154 2.97655E+01
 -1      2155 2.97655E+01
 -1      2156 2.94085E+01
 -1      2157 2.97655E+01
 -1      2158 3.07053E+01
 -1      2159 3.83859E+01
 -1      2160 2.81118E+01
 -1      2161 2.04194E+01
 -1      2162 3.30092E+01
 -1      2163 1.06176E+01
 -1      2164 1.66635E+01
 -1      2165 9.63137E+00
 -1      2166 9.31705E+00
 -1      2167 1.10551E+01
 -1      2168 1.07055E+01
 -1      2169 1.21287E+01
 -1      2170 1.18323E+01
 -1      2171 1.27296E+01
 -1      2172 1.22219E+01
 -1      2173 1.21431E+01
 -1      2174 1.24620E+01
 -1      2175 1.56018E+01
 -1      2176 1.56982E+01
 -1      2177 2.37180E+01
 -1      2178 1.66833E+01
 -1      2179 2.96934E+01
 -1      2180 2.71500E+01
 -1      2181 3.57944E+01
 -1      2182 3.60268E+01
 -1      2183 3.57944E+01
 -1      2184 9.68397E+00
 -1      2185 9.28131E+00
 -1      2186 8.25761E+00
 -1      2187 2.99430E+00
 -1      2188 8.31641E+00
 -1      2189 2.17529E+00
 -1      2190 3.17594E+01
 -1      2191 1.54814E+01
 -1      2192 3.12003E+01
 -1      2193 2.15234E+01
 -1      2194 2.76715E-02
 -1      2195 1.25856E+01
 -1      2196 3.30700E+01
 -1      2197 2.33047E+01
 -1      2198 1.87911E+01
 -1      2199 1.41545E+01
 -1      2200 1.23294E+01
 -1      2201 1.07343E+01
 -1      2202 1.04667E+01
 -1      2203 1.10413E+01
 -1      2204 1.01709E+01
 -1      2205 8.31967E+00
 -1      2206 8.54610E+00
 -1      2207 1.36025E+01
 -1      2208 2.65528E+01
 -1      2209 2.78496E+01
 -1      2210 2.65528E+01
 -1      2211 2.95794E+01
 -1      2212 2.15865E+01
 -1      2213 8.19626E+00
 -1      2214 6.46596E+00
 -1      2215 6.48745E+00
 -1      2216 8.96266E+00
 -1      2217 1.05628E+01
 -1      2218 1.07233E+01
 -1      2219 2.80075E+01
 -1      2220 2.27351E+01
 -1      2221 1.06246E+00
 -1      2222 1.40654E+00
 -1      2223 5.29152E-01
 -1      2224 5.59649E-01
 -1      2225 5.71951E-01
 -1      2226 6.20809E-01
 -1      2227 4.68124E-01
 -1      2228 5.21200E-01
 -1      2229 5.02838E-01
 -1      2230 5.58982E-01
 -1      2231 5.35664E-01
 -1      2232 4.55833E-01
 -1      2233 6.09746E-01
 -1      2234 5.75343E-01
 -1      2235 4.86658E-01
 -1      2236 6.70326E-01
 -1      2237 6.22830E-01
 -1      2238 5.16104E-01
 -1      2239 7.36673E-01
 -1      2240 6.70326E-01
 -1      2241 5.29188E-01
 -1      2242 8.46019E-01
 -1      2243 7.62062E-01
 -1      2244 5.54577E-01
 -1      2245 8.36530E-01
 -1      2246 9.76175E-01
 -1      2247 9.22817E-01
 -1      2248 1.33685E+00
 -1      2249 1.11249E+00
 -1      2250 7.45081E+00
 -1      2251 6.40965E+00
 -1      2252 1.06429E+00
 -1      2253 8.87269E-01
 -1      2254 8.18422E-01
 -1      2255 8.31947E-01
 -1      2256 7.07533E-01
 -1      2257 7.14902E-01
 -1      2258 6.50554E-01
 -1      2259 5.81315E-01
 -1      2260 6.02600E-01
 -1      2261 5.28190E-01
 -1      2262 4.86677E-01
 -1      2263 4.92496E-01
 -1      2264 4.56709E-01
 -1      2265 4.19587E-01
 -1      2266 4.09403E-01
 -1      2267 3.93786E-01
 -1      2268 3.60747E-01
 -1      2269 3.53633E-01
 -1      2270 3.33037E-01
 -1      2271 3.03023E-01
 -1      2272 3.00122E-01
 -1      2273 2.73748E-01
 -1      2274 2.45011E-01
 -1      2275 2.43138E-01
 -1      2276 2.32996E-01
 -1      2277 2.41305E-01
 -1      2278 2.01848E-01
 -1      2279 2.57210E-01
 -1      2280 2.76975E-01
 -1      2281 2.05737E-01
 -1      2282 3.13045E-01
 -1      2283 3.30173E-01
 -1      2284 2.57712E-01
 -1      2285 3.77228E-01
 -1      2286 4.13325E-01
 -1      2287 3.40838E-01
 -1      2288 4.53508E-01
 -1      2289 4.95549E-01
 -1      2290 4.28075E-01
 -1      2291 5.27258E-01
 -1      2292 5.72633E-01
 -1      2293 4.99967E-01
 -1      2294 6.13705E-01
 -1      2295 6.36472E-01
 -1      2296 5.72748E-01
 -1      2297 6.62228E-01
 -1      2298 6.40017E-01
 -1      2299 6.39575E-01
 -1      2300 6.37083E-01
 -1      2301 5.65302E-01
 -1      2302 6.62396E-01
 -1      2303 6.44755E-01
 -1      2304 6.28797E-01
 -1      2305 7.38915E-01
 -1      2306 6.31197E-01
 -1      2307 7.89716E-01
 -1      2308 8.20769E-01
 -1      2309 9.16026E-01
 -1      2310 1.11277E+00
 -1      2311 9.49480E-01
 -1      2312 1.15583E+00
 -1      2313 1.33243E+00
 -1      2314 1.11885E+00
 -1      2315 1.48473E+00
 -1      2316 1.57553E+00
 -1      2317 1.31421E+00
 -1      2318 1.57327E+00
 -1      2319 1.62065E+00
 -1      2320 1.46426E+00
 -1      2321 1.44473E+00
 -1      2322 1.56042E+00
 -1      2323 1.28609E+00
 -1      2324 2.03002E+00
 -1      2325 2.00281E+00
 -1      2326 1.57978E+00
 -1      2327 1.81292E+00
 -1      2328 1.72637E+00
 -1      2329 1.85949E+00
 -1      2330 2.70093E+00
 -1      2331 3.35696E+00
 -1      2332 2.64416E+00
 -1      2333 7.18222E+00
 -1      2334 9.05335E+00
 -1      2335 7.44398E+00
 -1      2336 2.17240E+01
 -1      2337 2.58400E+01
 -1      2338 2.39399E+01
 -1      2339 3.41334E+01
 -1      2340 3.66606E+01
 -1      2341 4.49041E+01
 -1      2342 3.14316E+01
 -1      2343 2.76132E+01
 -1      2344 4.79686E+01
 -1      2345 2.27215E+01
 -1      2346 2.32151E+01
 -1      2347 3.78481E+01
 -1      2348 1.34739E+01
 -1      2349 7.02813E+00
 -1      2350 2.32151E+01
 -1      2351 5.63859E-01
 -1      2352 5.31902E-01
 -1      2353 7.00963E+00
 -1      2354 5.03678E-01
 -1      2355 4.73841E-01
 -1      2356 5.17140E-01
 -1      2357 4.40746E-01
 -1      2358 4.05475E-01
 -1      2359 4.55821E-01
 -1      2360 3.69490E-01
 -1      2361 3.32419E-01
 -1      2362 3.86740E-01
 -1      2363 2.97478E-01
 -1      2364 2.62485E-01
 -1      2365 3.15814E-01
 -1      2366 2.30901E-01
 -1      2367 2.00107E-01
 -1      2368 2.49289E-01
 -1      2369 1.72997E-01
 -1      2370 1.47298E-01
 -1      2371 1.90595E-01
 -1      2372 1.24986E-01
 -1      2373 1.08730E-01
 -1      2374 1.41173E-01
 -1      2375 9.10575E-02
 -1      2376 7.74155E-02
 -1      2377 1.01188E-01
 -1      2378 6.38928E-02
 -1      2379 5.41095E-02
 -1      2380 6.99924E-02
 -1      2381 2.40593E+01
 -1      2382 2.57185E+01
 -1      2383 5.33722E-01
 -1      2384 5.75471E-01
 -1      2385 4.73002E-01
 -1      2386 4.98953E-01
 -1      2387 4.81052E-01
 -1      2388 4.11804E-01
 -1      2389 4.36279E-01
 -1      2390 4.09560E-01
 -1      2391 3.54354E-01
 -1      2392 3.75434E-01
 -1      2393 3.36468E-01
 -1      2394 3.24278E-01
 -1      2395 3.40929E-01
 -1      2396 2.86672E-01
 -1      2397 3.44500E-01
 -1      2398 3.42770E-01
 -1      2399 2.91738E-01
 -1      2400 3.96158E-01
 -1      2401 3.71265E-01
 -1      2402 3.36995E-01
 -1      2403 5.41549E-01
 -1      2404 4.66214E-01
 -1      2405 4.33817E-01
 -1      2406 7.06540E-01
 -1      2407 6.20758E-01
 -1      2408 5.83083E-01
 -1      2409 8.86675E-01
 -1      2410 7.94149E-01
 -1      2411 7.49901E-01
 -1      2412 1.07074E+00
 -1      2413 9.79094E-01
 -1      2414 9.29929E-01
 -1      2415 1.23582E+00
 -1      2416 1.15992E+00
 -1      2417 1.11152E+00
 -1      2418 1.37484E+00
 -1      2419 1.30773E+00
 -1      2420 1.27261E+00
 -1      2421 1.45173E+00
 -1      2422 1.43724E+00
 -1      2423 1.40692E+00
 -1      2424 1.56111E+00
 -1      2425 1.56111E+00
 -1      2426 1.57869E+00
 -1      2427 1.54925E+00
 -1      2428 1.63787E+00
 -1      2429 1.76483E+00
 -1      2430 1.52960E+00
 -1      2431 1.56538E+00
 -1      2432 1.85772E+00
 -1      2433 1.93212E+00
 -1      2434 1.75515E+00
 -1      2435 2.09940E+00
 -1      2436 2.41097E+00
 -1      2437 2.00875E+00
 -1      2438 2.40159E+00
 -1      2439 2.84582E+00
 -1      2440 2.59477E+00
 -1      2441 2.66202E+00
 -1      2442 3.84347E+00
 -1      2443 3.73984E+00
 -1      2444 3.73984E+00
 -1      2445 3.12616E+00
 -1      2446 3.08961E+00
 -1      2447 3.88001E+00
 -1      2448 3.39379E+00
 -1      2449 3.41934E+00
 -1      2450 3.41934E+00
 -1      2451 2.12207E+00
 -1      2452 2.66969E+00
 -1      2453 2.98842E+00
 -1      2454 1.85044E+00
 -1      2455 2.23499E+00
 -1      2456 2.37724E+00
 -1      2457 1.84201E+00
 -1      2458 1.78798E+00
 -1      2459 2.42769E+00
 -1      2460 1.66699E+00
 -1      2461 1.62928E+00
 -1      2462 2.15250E+00
 -1      2463 1.58019E+00
 -1      2464 1.56304E+00
 -1      2465 1.83582E+00
 -1      2466 1.45549E+00
 -1      2467 1.46465E+00
 -1      2468 1.61634E+00
 -1      2469 1.31015E+00
 -1      2470 1.37393E+00
 -1      2471 1.41924E+00
 -1      2472 1.16854E+00
 -1      2473 1.24119E+00
 -1      2474 1.26872E+00
 -1      2475 9.92154E-01
 -1      2476 1.07978E+00
 -1      2477 1.11100E+00
 -1      2478 8.06711E-01
 -1      2479 8.99045E-01
 -1      2480 9.29129E-01
 -1      2481 6.33972E-01
 -1      2482 7.19685E-01
 -1      2483 7.48994E-01
 -1      2484 4.84201E-01
 -1      2485 5.58070E-01
 -1      2486 5.86066E-01
 -1      2487 3.60372E-01
 -1      2488 4.20987E-01
 -1      2489 4.46949E-01
 -1      2490 2.61434E-01
 -1      2491 3.09463E-01
 -1      2492 3.32825E-01
 -1      2493 1.91953E-01
 -1      2494 2.21513E-01
 -1      2495 2.41995E-01
 -1      2496 1.37729E-01
 -1      2497 1.61388E-01
 -1      2498 1.71509E-01
 -1      2499 9.60316E-02
 -1      2500 1.14927E-01
 -1      2501 1.18141E-01
 -1      2502 6.45614E-02
 -1      2503 7.98206E-02
 -1      2504 7.91279E-02
 -1      2505 4.33913E-02
 -1      2506 5.50936E-02
 -1      2507 5.34491E-02
 -1      2508 3.93204E-02
 -1      2509 3.79907E-02
 -1      2510 3.34175E-02
 -1      2511 4.38551E-02
 -1      2512 4.17736E-02
 -1      2513 4.65424E-02
 -1      2514 2.94401E-02
 -1      2515 3.54126E-02
 -1      2516 3.00303E-02
 -1      2517 2.99398E-02
 -1      2518 3.54854E-02
 -1      2519 3.93723E-02
 -1      2520 4.38551E-02
 -1      2521 4.38551E-02
 -1      2522 5.03253E-02
 -1      2523 4.33208E-02
 -1      2524 4.37144E-02
 -1      2525 5.01846E-02
 -1      2526 4.33117E-02
 -1      2527 4.33117E-02
 -1      2528 5.00350E-02
 -1      2529 4.01149E-02
 -1      2530 4.25267E-02
 -1      2531 4.92408E-02
 -1      2532 3.13502E-02
 -1      2533 3.61222E-02
 -1      2534 4.44631E-02
 -1      2535 3.15601E-02
 -1      2536 3.07734E-02
 -1      2537 3.98936E-02
 -1      2538 3.58981E-02
 -1      2539 3.15601E-02
 -1      2540 3.93168E-02
 -1      2541 3.36715E-02
 -1      2542 8.70134E+00
 -1      2543 1.20470E+01
 -1      2544 6.35121E-01
 -1      2545 7.35825E-01
 -1      2546 5.75471E-01
 -1      2547 3.13335E+01
 -1      2548 3.17594E+01
 -1      2549 4.66557E+01
 -1      2550 4.03223E+01
 -1      2551 3.57944E+01
 -1      2552 3.94034E+01
 -1      2553 2.95794E+01
 -1      2554 2.84535E+01
 -1      2555 4.96248E-01
 -1      2556 5.15335E-01
 -1      2557 4.42005E-01
 -1      2558 4.34778E-01
 -1      2559 8.79817E+00
 -1      2560 9.84293E+00
 -1      2561 2.45946E+01
 -1      2562 2.41487E+01
 -1      2563 1.01788E+01
 -1      2564 8.97354E+00
 -1      2565 7.06678E+00
 -1      2566 7.24097E+00
 -1      2567 7.95684E+00
 -1      2568 1.21607E+01
 -1      2569 8.49991E+00
 -1      2570 1.50410E+01
 -1      2571 2.04177E+01
 -1      2572 2.03322E+01
 -1      2573 1.43571E+01
 -1      2574 1.09064E+01
 -1      2575 3.07053E+01
 -1      2576 3.07053E+01
 -1      2577 9.09519E+00
 -1      2578 1.28510E+01
 -1      2579 6.35032E+00
 -1      2580 7.65088E+00
 -1      2581 6.89941E+00
 -1      2582 7.13016E+00
 -1      2583 6.05604E+00
 -1      2584 9.35234E+00
 -1      2585 8.57519E+00
 -1      2586 6.31156E+00
 -1      2587 9.71294E+00
 -1      2588 9.61974E+00
 -1      2589 1.78728E+01
 -1      2590 1.43177E+01
 -1      2591 2.94647E+01
 -1      2592 2.83831E+01
 -1      2593 2.85463E+01
 -1      2594 3.44693E+01
 -1      2595 3.10373E+01
 -1      2596 1.74507E+00
 -1      2597 1.37686E+00
 -1      2598 9.06632E-01
 -1      2599 1.00147E+00
 -1      2600 1.52302E+00
 -1      2601 1.67698E+00
 -1      2602 1.25304E+00
 -1      2603 1.12559E+00
 -1      2604 6.08631E+00
 -1      2605 7.06867E+00
 -1      2606 5.79833E-01
 -1      2607 7.20217E-01
 -1      2608 7.84285E-01
 -1      2609 7.35825E-01
 -1      2610 1.17708E+00
 -1      2611 5.22071E+00
 -1      2612 9.17986E-01
 -1      2613 4.06293E+01
 -1      2614 8.77128E+00
 -1      2615 1.26556E+01
 -1      2616 1.22056E+01
 -1      2617 1.75674E+01
 -1      2618 3.53684E+01
 -1      2619 3.99103E-02
 -1      2620 4.66557E+01
 -1      2621 3.99103E-02
 -1      2622 3.48636E-02
 -1      2623 3.36715E-02
 -1      2624 3.70902E-02
 -1      2625 4.33064E-02
 -1      2626 8.02398E+00
 -1      2627 5.13792E+00
 -1      2628 4.24270E+00
 -1      2629 3.94842E+00
 -1      2630 6.53005E+00
 -1      2631 9.11023E-01
 -1      2632 2.57185E+01
 -1      2633 4.80550E+01
 -1      2634 3.94835E-02
 -1      2635 2.45946E+01
 -1      2636 2.00361E+01
 -1      2637 1.28067E+01
 -1      2638 1.66232E+01
 -1      2639 1.05336E+01
 -1      2640 2.95794E+01
 -1      2641 1.41850E+01
 -1      2642 2.11008E+01
 -1      2643 1.95418E+01
 -1      2644 1.34067E+01
 -1      2645 6.14196E+00
 -1      2646 4.33963E+00
 -1      2647 6.35209E+00
 -1      2648 5.46014E+00
 -1      2649 7.07648E+00
 -1      2650 2.47217E+01
 -1      2651 2.47217E+01
 -1      2652 2.18660E+01
 -1      2653 1.00148E+01
 -1      2654 8.59330E+00
 -1      2655 9.61462E+00
 -1      2656 4.56666E-02
 -1      2657 6.84370E+00
 -1      2658 8.76882E+00
 -1      2659 4.41953E-01
 -1      2660 4.25592E-01
 -1      2661 4.14667E-01
 -1      2662 4.00202E-01
 -1      2663 3.69962E-01
 -1      2664 4.59532E-01
 -1      2665 4.59532E-01
 -1      2666 4.75914E-01
 -1      2667 4.50526E-01
 -1      2668 3.80870E-01
 -1      2669 6.53894E-01
 -1      2670 7.40182E-01
 -1      2671 1.76338E+01
 -1      2672 2.32489E+01
 -1      2673 5.44473E-01
 -1      2674 6.45177E-01
 -1      2675 4.62542E-01
 -1      2676 7.94535E-01
 -1      2677 8.12942E-01
 -1      2678 7.17955E+00
 -1      2679 6.10243E-01
 -1      2680 5.54920E-01
 -1      2681 5.47998E-01
 -1      2682 4.91019E-01
 -1      2683 4.43339E-01
 -1      2684 4.67733E-01
 -1      2685 4.14608E-01
 -1      2686 4.13131E-01
 -1      2687 3.83663E-01
 -1      2688 3.53695E-01
 -1      2689 3.58900E-01
 -1      2690 3.22497E-01
 -1      2691 2.96695E-01
 -1      2692 2.96757E-01
 -1      2693 2.69874E-01
 -1      2694 2.42165E-01
 -1      2695 2.38738E-01
 -1      2696 2.15374E-01
 -1      2697 1.86099E-01
 -1      2698 1.85126E-01
 -1      2699 1.55988E-01
 -1      2700 1.43972E-01
 -1      2701 1.28224E-01
 -1      2702 1.59990E-01
 -1      2703 1.75894E-01
 -1      2704 1.14130E-01
 -1      2705 2.24130E-01
 -1      2706 2.60200E-01
 -1      2707 1.78383E-01
 -1      2708 3.12064E-01
 -1      2709 3.59119E-01
 -1      2710 2.78481E-01
 -1      2711 4.12273E-01
 -1      2712 4.52456E-01
 -1      2713 3.83499E-01
 -1      2714 5.02568E-01
 -1      2715 5.34277E-01
 -1      2716 4.86766E-01
 -1      2717 5.81873E-01
 -1      2718 6.22945E-01
 -1      2719 5.84474E-01
 -1      2720 6.98436E-01
 -1      2721 7.24191E-01
 -1      2722 7.07561E-01
 -1      2723 7.91560E-01
 -1      2724 7.88625E-01
 -1      2725 8.50420E-01
 -1      2726 8.22267E-01
 -1      2727 9.01720E-01
 -1      2728 9.51430E-01
 -1      2729 1.05300E+00
 -1      2730 1.05540E+00
 -1      2731 1.13635E+00
 -1      2732 1.10452E+00
 -1      2733 1.23083E+00
 -1      2734 1.33675E+00
 -1      2735 1.32805E+00
 -1      2736 1.37111E+00
 -1      2737 1.48309E+00
 -1      2738 1.84446E+00
 -1      2739 1.99676E+00
 -1      2740 2.05366E+00
 -1      2741 2.91301E+00
 -1      2742 2.91075E+00
 -1      2743 3.44325E+00
 -1      2744 2.27754E+00
 -1      2745 2.10163E+00
 -1      2746 3.72629E+00
 -1      2747 2.84777E+00
 -1      2748 3.31737E+00
 -1      2749 3.83922E+00
 -1      2750 5.16322E+00
 -1      2751 4.97333E+00
 -1      2752 6.43121E+00
 -1      2753 9.86959E+00
 -1      2754 1.08442E+01
 -1      2755 1.31733E+01
 -1      2756 1.10581E+01
 -1      2757 1.48834E+01
 -1      2758 1.82836E+01
 -1      2759 2.54228E+01
 -1      2760 3.80935E+01
 -1      2761 2.90370E+01
 -1      2762 4.49041E+01
 -1      2763 5.31976E+01
 -1      2764 4.63870E+01
 -1      2765 5.31976E+01
 -1      2766 4.79686E+01
 -1      2767 5.31976E+01
 -1      2768 4.55330E+01
 -1      2769 4.06413E+01
 -1      2770 5.07619E+01
 -1      2771 3.29564E+01
 -1      2772 2.32151E+01
 -1      2773 4.06413E+01
 -1      2774 1.24122E+01
 -1      2775 5.94795E+00
 -1      2776 2.21535E+01
 -1      2777 5.42326E-01
 -1      2778 5.14103E-01
 -1      2779 5.94491E+00
 -1      2780 4.73828E-01
 -1      2781 4.40733E-01
 -1      2782 4.99015E-01
 -1      2783 4.00525E-01
 -1      2784 3.64539E-01
 -1      2785 4.18532E-01
 -1      2786 3.27217E-01
 -1      2787 2.92277E-01
 -1      2788 3.41002E-01
 -1      2789 2.59302E-01
 -1      2790 2.27718E-01
 -1      2791 2.70705E-01
 -1      2792 1.99643E-01
 -1      2793 1.72532E-01
 -1      2794 2.09655E-01
 -1      2795 1.49334E-01
 -1      2796 1.27021E-01
 -1      2797 1.58381E-01
 -1      2798 1.08413E-01
 -1      2799 9.07405E-02
 -1      2800 1.16574E-01
 -1      2801 7.28873E-02
 -1      2802 5.93646E-02
 -1      2803 8.01127E-02
 -1      2804 7.14625E+00
 -1      2805 6.87885E+00
 -1      2806 3.78821E-01
 -1      2807 4.13590E-01
 -1      2808 2.24221E-01
 -1      2809 2.37647E-01
 -1      2810 2.57741E-01
 -1      2811 2.39250E-01
 -1      2812 1.90225E-01
 -1      2813 3.25200E-01
 -1      2814 2.98434E-01
 -1      2815 2.45946E-01
 -1      2816 4.55774E-01
 -1      2817 3.85717E-01
 -1      2818 3.47157E-01
 -1      2819 6.04901E-01
 -1      2820 5.25692E-01
 -1      2821 4.77593E-01
 -1      2822 7.73122E-01
 -1      2823 6.85513E-01
 -1      2824 6.28122E-01
 -1      2825 9.57700E-01
 -1      2826 8.65282E-01
 -1      2827 8.00893E-01
 -1      2828 1.15043E+00
 -1      2829 1.06126E+00
 -1      2830 9.96609E-01
 -1      2831 1.33522E+00
 -1      2832 1.26331E+00
 -1      2833 1.21304E+00
 -1      2834 1.51447E+00
 -1      2835 1.45207E+00
 -1      2836 1.44277E+00
 -1      2837 1.73520E+00
 -1      2838 1.62582E+00
 -1      2839 1.67097E+00
 -1      2840 2.05978E+00
 -1      2841 1.98302E+00
 -1      2842 2.03014E+00
 -1      2843 2.24402E+00
 -1      2844 2.22789E+00
 -1      2845 2.44608E+00
 -1      2846 2.98537E+00
 -1      2847 2.75981E+00
 -1      2848 3.12998E+00
 -1      2849 2.47823E+00
 -1      2850 2.40159E+00
 -1      2851 3.06200E+00
 -1      2852 3.33932E+00
 -1      2853 3.15553E+00
 -1      2854 3.15553E+00
 -1      2855 4.44788E+00
 -1      2856 5.20173E+00
 -1      2857 4.74106E+00
 -1      2858 2.43044E+00
 -1      2859 3.15454E+00
 -1      2860 2.74853E+00
 -1      2861 2.63561E+00
 -1      2862 2.80173E+00
 -1      2863 3.79265E+00
 -1      2864 3.85510E+00
 -1      2865 4.11348E+00
 -1      2866 2.58727E+00
 -1      2867 2.80000E+00
 -1      2868 4.22741E+00
 -1      2869 2.07768E+00
 -1      2870 2.18163E+00
 -1      2871 2.82912E+00
 -1      2872 1.69471E+00
 -1      2873 1.81024E+00
 -1      2874 2.15604E+00
 -1      2875 1.47800E+00
 -1      2876 1.55957E+00
 -1      2877 1.75347E+00
 -1      2878 1.28297E+00
 -1      2879 1.35193E+00
 -1      2880 1.49225E+00
 -1      2881 1.07223E+00
 -1      2882 1.16099E+00
 -1      2883 1.24420E+00
 -1      2884 8.69345E-01
 -1      2885 9.62454E-01
 -1      2886 1.01244E+00
 -1      2887 6.87630E-01
 -1      2888 7.74656E-01
 -1      2889 8.07981E-01
 -1      2890 5.32295E-01
 -1      2891 6.08197E-01
 -1      2892 6.33859E-01
 -1      2893 4.03849E-01
 -1      2894 4.67064E-01
 -1      2895 4.89195E-01
 -1      2896 3.00338E-01
 -1      2897 3.51248E-01
 -1      2898 3.71362E-01
 -1      2899 2.18710E-01
 -1      2900 2.58631E-01
 -1      2901 2.77053E-01
 -1      2902 1.55607E-01
 -1      2903 1.86172E-01
 -1      2904 2.02807E-01
 -1      2905 1.07848E-01
 -1      2906 1.30651E-01
 -1      2907 1.45314E-01
 -1      2908 7.22806E-02
 -1      2909 8.84915E-02
 -1      2910 1.01001E-01
 -1      2911 4.85385E-02
 -1      2912 5.80063E-02
 -1      2913 6.73699E-02
 -1      2914 4.40407E-02
 -1      2915 4.66557E+01
 -1      2916 5.39081E+01
 -1      2917 5.98063E-02
 -1      2918 5.99469E-02
 -1      2919 2.19378E+01
 -1      2920 1.80789E+01
 -1      2921 5.79389E-02
 -1      2922 5.41560E-02
 -1      2923 5.91112E-02
 -1      2924 5.91202E-02
 -1      2925 6.88825E-02
 -1      2926 5.99469E-02
 -1      2927 5.99469E-02
 -1      2928 6.75606E-02
 -1      2929 6.95685E-02
 -1      2930 1.33626E+01
 -1      2931 1.58986E+01
 -1      2932 5.83261E-02
 -1      2933 5.91112E-02
 -1      2934 6.81965E-02
 -1      2935 5.14399E-02
 -1      2936 5.54327E-02
 -1      2937 6.53030E-02
 -1      2938 4.28641E-02
 -1      2939 4.34408E-02
 -1      2940 5.44104E-02
 -1      2941 4.49823E-01
 -1      2942 5.09473E-01
 -1      2943 4.18825E-01
 -1      2944 3.47591E-01
 -1      2945 2.21604E+01
 -1      2946 2.61954E+01
 -1      2947 4.39720E+00
 -1      2948 6.02988E+00
 -1      2949 2.09968E+01
 -1      2950 1.71458E+01
 -1      2951 3.70902E-02
 -1      2952 3.93168E-02
 -1      2953 4.78933E-02
 -1      2954 2.62494E-01
 -1      2955 2.98865E-01
 -1      2956 2.00044E-01
 -1      2957 3.24530E-01
 -1      2958 3.61252E-01
 -1      2959 2.50556E-01
 -1      2960 6.59613E-01
 -1      2961 6.11415E-01
 -1      2962 4.51434E-01
 -1      2963 4.22019E+01
 -1      2964 4.06293E+01
 -1      2965 4.59532E-01
 -1      2966 4.46448E-01
 -1      2967 3.85382E-01
 -1      2968 3.89877E-01
 -1      2969 3.92106E-01
 -1      2970 4.04408E-01
 -1      2971 7.64908E+00
 -1      2972 9.83899E+00
 -1      2973 6.32563E+00
 -1      2974 4.80290E+00
 -1      2975 5.43668E+00
 -1      2976 6.27801E+00
 -1      2977 3.80745E+00
 -1      2978 4.58246E+00
 -1      2979 1.00004E+01
 -1      2980 7.80397E+00
 -1      2981 2.23462E+01
 -1      2982 2.12203E+01
 -1      2983 5.39081E+01
 -1      2984 4.80550E+01
 -1      2985 5.28993E+00
 -1      2986 6.73424E+00
 -1      2987 6.02871E+00
 -1      2988 4.58369E+00
 -1      2989 3.37490E+01
 -1      2990 2.32387E+01
 -1      2991 3.55617E-01
 -1      2992 4.31635E-01
 -1      2993 5.31043E-01
 -1      2994 3.45770E-01
 -1      2995 3.86936E-01
 -1      2996 3.80346E-01
 -1      2997 5.25612E-01
 -1      2998 1.40758E+01
 -1      2999 3.53216E+01
 -1      3000 5.15098E+00
 -1      3001 4.25238E+00
 -1      3002 4.08721E+00
 -1      3003 3.03998E+00
 -1      3004 2.93790E-01
 -1      3005 6.71388E+00
 -1      3006 7.32244E+00
 -1      3007 4.58104E+00
 -1      3008 1.05368E+01
 -1      3009 5.39081E+01
 -1      3010 5.07881E-02
 -1      3011 7.28785E+00
 -1      3012 6.14272E+00
 -1      3013 7.58977E+00
 -1      3014 2.23462E+01
 -1      3015 1.39871E+01
 -1      3016 1.63627E+01
 -1      3017 1.21372E+01
 -1      3018 2.53452E+01
 -1      3019 3.25975E+01
 -1      3020 1.03568E+01
 -1      3021 7.25437E+00
 -1      3022 1.00607E+01
 -1      3023 4.63604E+00
 -1      3024 3.74201E+00
 -1      3025 4.23699E-02
 -1      3026 5.14249E-02
 -1      3027 4.28696E-02
 -1      3028 3.46195E+00
 -1      3029 1.34290E+01
 -1      3030 1.27969E+01
 -1      3031 1.54537E+01
 -1      3032 1.13412E+01
 -1      3033 3.78399E+00
 -1      3034 3.93168E-02
 -1      3035 4.61302E+00
 -1      3036 3.69490E+00
 -1      3037 4.33017E+00
 -1      3038 2.61994E+01
 -1      3039 1.47046E+01
 -1      3040 1.64264E+01
 -1      3041 1.04025E+01
 -1      3042 1.10856E+01
 -1      3043 7.51794E+00
 -1      3044 4.21561E-01
 -1      3045 4.84773E-02
 -1      3046 4.50901E-02
 -1      3047 5.19746E-02
 -1      3048 5.98739E-02
 -1      3049 6.27781E+00
 -1      3050 3.91986E+00
 -1      3051 5.37174E+00
 -1      3052 3.76642E-01
 -1      3053 3.90458E-01
 -1      3054 3.26743E-01
 -1      3055 3.28799E-01
 -1      3056 4.80550E+01
 -1      3057 1.87112E+01
 -1      3058 1.55833E+01
 -1      3059 1.32591E+01
 -1      3060 4.08184E+00
 -1      3061 3.75851E+00
 -1      3062 6.03960E+00
 -1      3063 4.23295E-02
 -1      3064 4.23295E-02
 -1      3065 4.58767E-02
 -1      3066 5.38008E-02
 -1      3067 5.71972E-01
 -1      3068 7.05673E-01
 -1      3069 6.65662E-01
 -1      3070 4.23773E-01
 -1      3071 3.25834E+00
 -1      3072 4.58654E-01
 -1      3073 1.19545E+01
 -1      3074 1.08660E+01
 -1      3075 3.26955E-01
 -1      3076 3.35962E-01
 -1      3077 2.47470E-01
 -1      3078 2.06777E-01
 -1      3079 3.63644E-01
 -1      3080 3.56722E-01
 -1      3081 5.18031E+00
 -1      3082 4.33017E+00
 -1      3083 3.65871E-01
 -1      3084 3.42585E-01
 -1      3085 2.86176E-01
 -1      3086 3.35165E-01
 -1      3087 3.04220E-01
 -1      3088 2.87905E-01
 -1      3089 2.85732E-01
 -1      3090 2.54535E-01
 -1      3091 2.61997E-01
 -1      3092 2.33370E-01
 -1      3093 2.06549E-01
 -1      3094 2.22346E-01
 -1      3095 1.86002E-01
 -1      3096 1.59211E-01
 -1      3097 1.80634E-01
 -1      3098 1.45367E-01
 -1      3099 1.15255E-01
 -1      3100 1.46242E-01
 -1      3101 1.16623E-01
 -1      3102 1.32640E-01
 -1      3103 1.33765E-01
 -1      3104 1.62922E-01
 -1      3105 2.11158E-01
 -1      3106 1.65415E-01
 -1      3107 2.57444E-01
 -1      3108 3.09307E-01
 -1      3109 2.41983E-01
 -1      3110 3.59767E-01
 -1      3111 4.12921E-01
 -1      3112 3.38729E-01
 -1      3113 4.74581E-01
 -1      3114 5.24693E-01
 -1      3115 4.50849E-01
 -1      3116 6.03295E-01
 -1      3117 6.50890E-01
 -1      3118 5.91109E-01
 -1      3119 7.30800E-01
 -1      3120 8.06291E-01
 -1      3121 7.49620E-01
 -1      3122 9.18272E-01
 -1      3123 9.85641E-01
 -1      3124 9.41511E-01
 -1      3125 1.13697E+00
 -1      3126 1.17061E+00
 -1      3127 1.20482E+00
 -1      3128 1.30937E+00
 -1      3129 1.46065E+00
 -1      3130 1.49491E+00
 -1      3131 1.99421E+00
 -1      3132 2.04333E+00
 -1      3133 2.16723E+00
 -1      3134 1.48309E+00
 -1      3135 1.58031E+00
 -1      3136 2.14055E+00
 -1      3137 2.05366E+00
 -1      3138 2.52701E+00
 -1      3139 2.05366E+00
 -1      3140 3.44325E+00
 -1      3141 4.35950E+00
 -1      3142 4.68870E+00
 -1      3143 5.43484E+00
 -1      3144 1.52132E+01
 -1      3145 2.01094E+01
 -1      3146 2.29993E+01
 -1      3147 2.32133E+01
 -1      3148 2.50392E+01
 -1      3149 2.74752E+01
 -1      3150 3.80146E+01
 -1      3151 3.21910E+01
 -1      3152 3.95764E+01
 -1      3153 4.63870E+01
 -1      3154 3.80146E+01
 -1      3155 5.07155E+01
 -1      3156 5.07155E+01
 -1      3157 4.39049E+01
 -1      3158 5.07619E+01
 -1      3159 4.83262E+01
 -1      3160 4.82799E+01
 -1      3161 3.95565E+01
 -1      3162 3.18716E+01
 -1      3163 3.95565E+01
 -1      3164 2.21535E+01
 -1      3165 1.13505E+01
 -1      3166 2.10687E+01
 -1      3167 5.98861E+00
 -1      3168 5.82983E-01
 -1      3169 5.98861E+00
 -1      3170 5.25688E-01
 -1      3171 4.85414E-01
 -1      3172 5.69383E-01
 -1      3173 4.34107E-01
 -1      3174 3.93899E-01
 -1      3175 4.60781E-01
 -1      3176 3.49270E-01
 -1      3177 3.11948E-01
 -1      3178 3.64845E-01
 -1      3179 2.74833E-01
 -1      3180 2.41859E-01
 -1      3181 2.83102E-01
 -1      3182 2.14077E-01
 -1      3183 1.86001E-01
 -1      3184 2.18205E-01
 -1      3185 1.62142E-01
 -1      3186 1.38944E-01
 -1      3187 1.66564E-01
 -1      3188 1.18950E-01
 -1      3189 1.00342E-01
 -1      3190 1.22711E-01
 -1      3191 8.48956E-02
 -1      3192 6.70423E-02
 -1      3193 5.85837E-02
 -1      3194 8.72715E-02
 -1      3195 5.20390E+00
 -1      3196 1.66636E-01
 -1      3197 1.51607E-01
 -1      3198 1.68160E-01
 -1      3199 4.82023E-01
 -1      3200 4.12105E-01
 -1      3201 6.30014E-01
 -1      3202 5.49403E-01
 -1      3203 4.83915E-01
 -1      3204 8.07835E-01
 -1      3205 7.15675E-01
 -1      3206 6.36956E-01
 -1      3207 1.01731E+00
 -1      3208 9.13750E-01
 -1      3209 8.28532E-01
 -1      3210 1.26067E+00
 -1      3211 1.14780E+00
 -1      3212 1.06494E+00
 -1      3213 1.54659E+00
 -1      3214 1.42974E+00
 -1      3215 1.36450E+00
 -1      3216 1.89001E+00
 -1      3217 1.77865E+00
 -1      3218 1.76563E+00
 -1      3219 2.46866E+00
 -1      3220 2.22084E+00
 -1      3221 2.32852E+00
 -1      3222 4.07851E+00
 -1      3223 3.91040E+00
 -1      3224 4.10109E+00
 -1      3225 5.62124E+00
 -1      3226 5.10545E+00
 -1      3227 6.56977E+00
 -1      3228 3.16190E+00
 -1      3229 3.74567E+00
 -1      3230 3.83920E+00
 -1      3231 4.23552E+00
 -1      3232 3.32915E+00
 -1      3233 3.88713E+00
 -1      3234 4.91567E+00
 -1      3235 4.55603E+00
 -1      3236 4.96168E+00
 -1      3237 2.53139E+00
 -1      3238 2.79883E+00
 -1      3239 4.93138E+00
 -1      3240 1.90544E+00
 -1      3241 2.04058E+00
 -1      3242 2.68336E+00
 -1      3243 1.49782E+00
 -1      3244 1.62390E+00
 -1      3245 1.91101E+00
 -1      3246 1.18036E+00
 -1      3247 1.30234E+00
 -1      3248 1.43399E+00
 -1      3249 9.35571E-01
 -1      3250 1.04534E+00
 -1      3251 1.10349E+00
 -1      3252 7.40104E-01
 -1      3253 8.34794E-01
 -1      3254 8.67694E-01
 -1      3255 5.73691E-01
 -1      3256 6.53124E-01
 -1      3257 6.79936E-01
 -1      3258 4.36243E-01
 -1      3259 5.01475E-01
 -1      3260 5.20739E-01
 -1      3261 3.25516E-01
 -1      3262 3.78118E-01
 -1      3263 3.90397E-01
 -1      3264 2.38061E-01
 -1      3265 2.79768E-01
 -1      3266 2.86524E-01
 -1      3267 1.72453E-01
 -1      3268 2.04991E-01
 -1      3269 2.07706E-01
 -1      3270 1.23876E-01
 -1      3271 1.48832E-01
 -1      3272 1.51016E-01
 -1      3273 8.55840E-02
 -1      3274 1.04941E-01
 -1      3275 1.08459E-01
 -1      3276 6.04503E-02
 -1      3277 7.47245E-02
 -1      3278 7.86643E-02
 -1      3279 5.87795E-02
 -1      3280 7.85275E-02
 -1      3281 7.92135E-02
 -1      3282 6.20889E-02
 -1      3283 7.00880E-02
 -1      3284 7.85275E-02
 -1      3285 7.85275E-02
 -1      3286 8.88585E-02
 -1      3287 3.50115E-01
 -1      3288 3.44066E-01
 -1      3289 3.42894E-01
 -1      3290 3.09185E-01
 -1      3291 7.54004E-02
 -1      3292 7.82939E-02
 -1      3293 8.86249E-02
 -1      3294 8.30789E-02
 -1      3295 4.49249E+01
 -1      3296 4.49249E+01
 -1      3297 8.42993E+00
 -1      3298 9.58691E+00
 -1      3299 5.35740E+00
 -1      3300 6.35004E+00
 -1      3301 3.55680E-01
 -1      3302 2.95162E-01
 -1      3303 2.55993E-01
 -1      3304 3.60110E-01
 -1      3305 3.89640E+01
 -1      3306 3.20837E+01
 -1      3307 1.36161E-01
 -1      3308 1.61008E-01
 -1      3309 1.12572E-01
 -1      3310 1.84179E-01
 -1      3311 2.09844E-01
 -1      3312 1.20296E-01
 -1      3313 3.45018E-01
 -1      3314 3.34093E-01
 -1      3315 3.34069E+00
 -1      3316 4.29383E+00
 -1      3317 5.20867E+00
 -1      3318 3.49242E-01
 -1      3319 2.99545E-01
 -1      3320 2.54637E-01
 -1      3321 3.40526E-01
 -1      3322 1.09137E+01
 -1      3323 1.26489E+01
 -1      3324 1.83998E+01
 -1      3325 1.08686E+01
 -1      3326 2.67803E+01
 -1      3327 2.45384E+01
 -1      3328 2.22656E-01
 -1      3329 2.40224E-01
 -1      3330 1.56278E-01
 -1      3331 1.18829E+01
 -1      3332 1.26004E+01
 -1      3333 4.48171E+01
 -1      3334 3.89640E+01
 -1      3335 3.26868E-01
 -1      3336 3.13601E-01
 -1      3337 3.01924E-01
 -1      3338 2.94986E-01
 -1      3339 3.48901E-01
 -1      3340 3.48901E-01
 -1      3341 3.18275E+01
 -1      3342 2.81852E+01
 -1      3343 8.52557E+00
 -1      3344 1.10409E+01
 -1      3345 7.83110E+00
 -1      3346 2.85722E-01
 -1      3347 3.12950E-01
 -1      3348 3.70458E+00
 -1      3349 3.44325E+00
 -1      3350 5.80424E+00
 -1      3351 4.27807E+00
 -1      3352 6.16070E+00
 -1      3353 9.56317E+00
 -1      3354 8.71369E+00
 -1      3355 4.35950E+00
 -1      3356 3.72629E+00
 -1      3357 1.05595E+01
 -1      3358 1.34226E+01
 -1      3359 1.10471E+01
 -1      3360 1.02677E+01
 -1      3361 1.08660E+01
 -1      3362 1.00158E+01
 -1      3363 8.74467E+00
 -1      3364 1.00537E+01
 -1      3365 7.60377E+00
 -1      3366 8.88420E+00
 -1      3367 6.37254E+00
 -1      3368 8.26607E+00
 -1      3369 1.10878E+01
 -1      3370 8.46259E+00
 -1      3371 9.01895E-02
 -1      3372 8.05445E-02
 -1      3373 8.05445E-02
 -1      3374 5.24255E+00
 -1      3375 4.13598E+00
 -1      3376 2.56277E-01
 -1      3377 8.05445E-02
 -1      3378 7.85365E-02
 -1      3379 9.15205E-02
 -1      3380 3.58339E+01
 -1      3381 3.23447E-01
 -1      3382 2.10147E-01
 -1      3383 2.88446E-01
 -1      3384 2.54034E-01
 -1      3385 2.90267E-01
 -1      3386 1.94889E-01
 -1      3387 1.82900E-01
 -1      3388 7.08431E+00
 -1      3389 8.80681E+00
 -1      3390 5.54972E+00
 -1      3391 6.11322E+00
 -1      3392 3.80395E+00
 -1      3393 2.87523E+00
 -1      3394 3.91277E+00
 -1      3395 3.08185E+00
 -1      3396 7.58643E-02
 -1      3397 7.01856E-02
 -1      3398 8.88483E-02
 -1      3399 1.74956E+01
 -1      3400 3.45018E-01
 -1      3401 3.09148E-01
 -1      3402 3.49513E-01
 -1      3403 1.11474E+01
 -1      3404 1.03167E+01
 -1      3405 8.14322E+00
 -1      3406 1.89807E+01
 -1      3407 3.91936E+01
 -1      3408 3.02105E+01
 -1      3409 1.78831E+01
 -1      3410 2.88253E-01
 -1      3411 2.89900E-01
 -1      3412 2.47232E-01
 -1      3413 5.54723E-02
 -1      3414 5.60069E-02
 -1      3415 7.16846E-02
 -1      3416 6.87139E-02
 -1      3417 1.11917E+01
 -1      3418 1.11917E+01
 -1      3419 9.08749E+00
 -1      3420 3.57260E+01
 -1      3421 3.60895E+01
 -1      3422 2.78834E+00
 -1      3423 4.35950E+00
 -1      3424 3.45197E+00
 -1      3425 2.52983E-01
 -1      3426 2.45563E-01
 -1      3427 2.44543E-01
 -1      3428 2.26055E-01
 -1      3429 2.09621E-01
 -1      3430 2.14463E-01
 -1      3431 1.93299E-01
 -1      3432 1.97009E-01
 -1      3433 1.81615E-01
 -1      3434 1.61068E-01
 -1      3435 1.73733E-01
 -1      3436 1.63964E-01
 -1      3437 1.50119E-01
 -1      3438 1.64945E-01
 -1      3439 1.58265E-01
 -1      3440 1.59632E-01
 -1      3441 1.75987E-01
 -1      3442 1.73827E-01
 -1      3443 2.04109E-01
 -1      3444 1.98327E-01
 -1      3445 2.41983E-01
 -1      3446 2.88270E-01
 -1      3447 2.50395E-01
 -1      3448 3.38729E-01
 -1      3449 3.89189E-01
 -1      3450 3.38729E-01
 -1      3451 4.52261E-01
 -1      3452 5.13921E-01
 -1      3453 4.52261E-01
 -1      3454 5.91711E-01
 -1      3455 6.70312E-01
 -1      3456 5.93124E-01
 -1      3457 7.71535E-01
 -1      3458 8.51445E-01
 -1      3459 7.72137E-01
 -1      3460 1.00745E+00
 -1      3461 1.11943E+00
 -1      3462 1.02937E+00
 -1      3463 1.28410E+00
 -1      3464 1.43543E+00
 -1      3465 1.35004E+00
 -1      3466 1.67583E+00
 -1      3467 1.81459E+00
 -1      3468 1.75510E+00
 -1      3469 2.16723E+00
 -1      3470 2.70079E+00
 -1      3471 2.34815E+00
 -1      3472 2.70079E+00
 -1      3473 2.14055E+00
 -1      3474 2.61390E+00
 -1      3475 2.81327E+00
 -1      3476 1.02723E-01
 -1      3477 1.02723E-01
 -1      3478 2.86862E+01
 -1      3479 3.30147E+01
 -1      3480 2.82187E+01
 -1      3481 2.82650E+01
 -1      3482 1.29999E+01
 -1      3483 2.92664E+01
 -1      3484 2.04967E+01
 -1      3485 9.20527E+00
 -1      3486 2.06513E+01
 -1      3487 1.09332E+01
 -1      3488 1.03612E+01
 -1      3489 6.14627E+00
 -1      3490 7.84343E-01
 -1      3491 5.72889E+00
 -1      3492 6.70079E-01
 -1      3493 6.12784E-01
 -1      3494 8.27744E-01
 -1      3495 5.37364E-01
 -1      3496 4.86057E-01
 -1      3497 6.38060E-01
 -1      3498 4.30180E-01
 -1      3499 3.85552E-01
 -1      3500 5.06764E-01
 -1      3501 3.37169E-01
 -1      3502 3.00054E-01
 -1      3503 4.02505E-01
 -1      3504 2.59308E-01
 -1      3505 2.31526E-01
 -1      3506 3.13375E-01
 -1      3507 1.97958E-01
 -1      3508 1.74099E-01
 -1      3509 2.39061E-01
 -1      3510 1.46253E-01
 -1      3511 1.26260E-01
 -1      3512 1.77647E-01
 -1      3513 2.65242E+01
 -1      3514 2.01493E-01
 -1      3515 1.61352E-01
 -1      3516 7.07067E-01
 -1      3517 6.21406E-01
 -1      3518 5.36432E-01
 -1      3519 4.69052E-01
 -1      3520 6.06544E-01
 -1      3521 1.17179E+00
 -1      3522 1.04130E+00
 -1      3523 1.49696E+00
 -1      3524 1.32789E+00
 -1      3525 1.30425E+00
 -1      3526 1.93538E+00
 -1      3527 1.70331E+00
 -1      3528 1.66671E+00
 -1      3529 2.73914E+00
 -1      3530 2.40832E+00
 -1      3531 2.34600E+00
 -1      3532 5.49380E+00
 -1      3533 4.05206E+00
 -1      3534 4.13186E+00
 -1      3535 5.21945E+00
 -1      3536 5.11954E+00
 -1      3537 7.09501E+00
 -1      3538 3.38130E+00
 -1      3539 3.91348E+00
 -1      3540 1.83681E+00
 -1      3541 2.11835E+00
 -1      3542 2.63922E+00
 -1      3543 3.13003E+00
 -1      3544 2.56502E+00
 -1      3545 1.80751E-01
 -1      3546 2.01501E-01
 -1      3547 2.60810E+00
 -1      3548 4.60909E+00
 -1      3549 6.36630E+00
 -1      3550 4.56494E+00
 -1      3551 1.41276E+00
 -1      3552 1.60824E+00
 -1      3553 1.81558E+00
 -1      3554 1.10349E+00
 -1      3555 1.23851E+00
 -1      3556 1.41276E+00
 -1      3557 8.62116E-01
 -1      3558 9.62893E-01
 -1      3559 1.09791E+00
 -1      3560 6.63739E-01
 -1      3561 7.50719E-01
 -1      3562 8.45918E-01
 -1      3563 5.03680E-01
 -1      3564 5.75897E-01
 -1      3565 6.46680E-01
 -1      3566 3.76581E-01
 -1      3567 4.34706E-01
 -1      3568 4.89864E-01
 -1      3569 2.76825E-01
 -1      3570 3.22573E-01
 -1      3571 3.66882E-01
 -1      3572 2.01738E-01
 -1      3573 2.34808E-01
 -1      3574 2.70857E-01
 -1      3575 1.45214E-01
 -1      3576 1.68835E-01
 -1      3577 1.95936E-01
 -1      3578 1.05168E-01
 -1      3579 1.24103E-01
 -1      3580 1.41922E-01
 -1      3581 5.32191E+00
 -1      3582 3.02105E+01
 -1      3583 3.01026E+01
 -1      3584 1.13202E-01
 -1      3585 1.26014E-01
 -1      3586 2.36343E+01
 -1      3587 1.30803E-01
 -1      3588 1.15356E-01
 -1      3589 1.64136E-01
 -1      3590 9.62908E-02
 -1      3591 1.19462E-01
 -1      3592 8.91973E-02
 -1      3593 3.01349E-01
 -1      3594 2.97645E-01
 -1      3595 2.60803E-01
 -1      3596 6.48645E-02
 -1      3597 6.26439E-02
 -1      3598 7.16693E-02
 -1      3599 8.08549E-02
 -1      3600 8.41109E+00
 -1      3601 2.30552E-01
 -1      3602 2.57963E-01
 -1      3603 2.13473E-01
 -1      3604 9.16219E-01
 -1      3605 8.10304E-01
 -1      3606 7.94754E-01
 -1      3607 1.02307E+00
 -1      3608 3.60895E+01
 -1      3609 3.60895E+01
 -1      3610 2.31906E-01
 -1      3611 2.41055E-01
 -1      3612 1.98713E-01
 -1      3613 3.64529E+01
 -1      3614 8.08880E+00
 -1      3615 2.70902E-01
 -1      3616 5.92985E+00
 -1      3617 6.84341E+00
 -1      3618 6.84341E+00
 -1      3619 2.70079E+00
 -1      3620 3.80146E+01
 -1      3621 2.71244E+01
 -1      3622 1.02723E-01
 -1      3623 1.16588E-01
 -1      3624 1.02489E-01
 -1      3625 2.71632E-01
 -1      3626 2.71632E-01
 -1      3627 6.97965E+00
 -1      3628 7.67081E+00
 -1      3629 9.60764E+00
 -1      3630 7.44690E+00
 -1      3631 7.49590E+00
 -1      3632 9.94099E-02
 -1      3633 8.39637E-02
 -1      3634 8.08524E-02
 -1      3635 1.22952E-01
 -1      3636 2.41302E-01
 -1      3637 2.34494E-01
 -1      3638 2.88994E-01
 -1      3639 8.88420E+00
 -1      3640 7.59671E+00
 -1      3641 7.17510E+00
 -1      3642 6.15823E+00
 -1      3643 4.51452E-01
 -1      3644 3.98935E-01
 -1      3645 3.42510E-01
 -1      3646 9.33368E-02
 -1      3647 1.36413E-01
 -1      3648 6.56977E+00
 -1      3649 6.52074E+00
 -1      3650 7.59671E+00
 -1      3651 7.09501E+00
 -1      3652 7.59671E+00
 -1      3653 1.02583E-01
 -1      3654 1.03914E-01
 -1      3655 1.16447E-01
 -1      3656 8.25288E-02
 -1      3657 1.22292E-01
 -1      3658 1.22292E-01
 -1      3659 1.34686E-01
 -1      3660 1.00998E+01
 -1      3661 7.30437E+00
 -1      3662 7.15970E+00
 -1      3663 2.44792E+01
 -1      3664 1.56380E-01
 -1      3665 1.50222E-01
 -1      3666 6.48077E+00
 -1      3667 2.39291E-01
 -1      3668 2.34116E-01
 -1      3669 2.71632E-01
 -1      3670 2.64407E-01
 -1      3671 7.10208E+00
 -1      3672 1.84515E-01
 -1      3673 2.66516E+01
 -1      3674 2.70150E+01
 -1      3675 2.10282E+01
 -1      3676 1.14522E-01
 -1      3677 3.08537E-01
 -1      3678 1.22292E-01
 -1      3679 1.19620E-01
 -1      3680 1.53064E-01
 -1      3681 2.82447E-01
 -1      3682 7.43412E+00
 -1      3683 7.49590E+00
 -1      3684 5.46590E+00
 -1      3685 1.81333E-01
 -1      3686 1.22794E-01
 -1      3687 1.85511E-01
 -1      3688 9.81726E-02
 -1      3689 1.27424E+01
 -1      3690 1.93385E+01
 -1      3691 1.14712E+01
 -1      3692 8.69344E-02
 -1      3693 1.86143E-01
 -1      3694 1.85123E-01
 -1      3695 1.87266E-01
 -1      3696 1.75673E-01
 -1      3697 1.63788E-01
 -1      3698 1.70139E-01
 -1      3699 1.58455E-01
 -1      3700 1.60396E-01
 -1      3701 1.71454E-01
 -1      3702 1.74350E-01
 -1      3703 1.67860E-01
 -1      3704 1.87895E-01
 -1      3705 1.96041E-01
 -1      3706 1.94404E-01
 -1      3707 2.16238E-01
 -1      3708 2.30432E-01
 -1      3709 2.28146E-01
 -1      3710 2.53841E-01
 -1      3711 2.91715E-01
 -1      3712 2.71752E-01
 -1      3713 3.35183E-01
 -1      3714 3.85642E-01
 -1      3715 3.38628E-01
 -1      3716 4.52261E-01
 -1      3717 5.15334E-01
 -1      3718 4.48715E-01
 -1      3719 5.93124E-01
 -1      3720 6.70914E-01
 -1      3721 5.93124E-01
 -1      3722 7.75021E-01
 -1      3723 8.76244E-01
 -1      3724 7.75021E-01
 -1      3725 1.03543E+00
 -1      3726 1.19144E+00
 -1      3727 1.03831E+00
 -1      3728 1.44033E+00
 -1      3729 1.60499E+00
 -1      3730 1.44638E+00
 -1      3731 1.81279E+00
 -1      3732 2.05319E+00
 -1      3733 1.90307E+00
 -1      3734 2.52281E+00
 -1      3735 2.87546E+00
 -1      3736 2.58050E+00
 -1      3737 1.76866E+01
 -1      3738 2.66254E+00
 -1      3739 2.18961E+00
 -1      3740 2.71513E-01
 -1      3741 2.33997E-01
 -1      3742 2.70902E-01
 -1      3743 6.55304E-01
 -1      3744 5.70330E-01
 -1      3745 1.23955E+01
 -1      3746 7.59945E+00
 -1      3747 1.22861E+01
 -1      3748 8.58846E+00
 -1      3749 9.58986E+00
 -1      3750 7.98403E+00
 -1      3751 9.68180E+00
 -1      3752 9.83636E+00
 -1      3753 9.06499E+00
 -1      3754 5.80621E+00
 -1      3755 1.01932E+00
 -1      3756 5.12679E+00
 -1      3757 9.06576E-01
 -1      3758 7.92312E-01
 -1      3759 9.83893E-01
 -1      3760 6.97651E-01
 -1      3761 6.22231E-01
 -1      3762 7.76483E-01
 -1      3763 5.45546E-01
 -1      3764 4.89670E-01
 -1      3765 6.05137E-01
 -1      3766 4.28290E-01
 -1      3767 3.79907E-01
 -1      3768 4.67073E-01
 -1      3769 3.31316E-01
 -1      3770 2.90570E-01
 -1      3771 3.57102E-01
 -1      3772 2.51928E-01
 -1      3773 2.18359E-01
 -1      3774 2.69868E-01
 -1      3775 1.89248E-01
 -1      3776 1.61403E-01
 -1      3777 2.02115E-01
 -1      3778 6.09913E+00
 -1      3779 6.52074E+00
 -1      3780 5.50387E+00
 -1      3781 9.18402E-02
 -1      3782 1.02239E-01
 -1      3783 1.87306E+00
 -1      3784 1.66671E+00
 -1      3785 2.18961E+00
 -1      3786 1.43194E+00
 -1      3787 1.27584E+00
 -1      3788 1.63829E+00
 -1      3789 4.87270E+00
 -1      3790 3.55978E+00
 -1      3791 3.40339E+00
 -1      3792 5.44478E+00
 -1      3793 1.36222E+00
 -1      3794 1.53648E+00
 -1      3795 1.03222E+00
 -1      3796 1.17282E+00
 -1      3797 1.29653E+00
 -1      3798 7.80589E-01
 -1      3799 8.91985E-01
 -1      3800 9.66889E-01
 -1      3801 5.91283E-01
 -1      3802 6.79125E-01
 -1      3803 7.25192E-01
 -1      3804 4.46367E-01
 -1      3805 5.15341E-01
 -1      3806 5.47786E-01
 -1      3807 3.34083E-01
 -1      3808 3.88091E-01
 -1      3809 4.13568E-01
 -1      3810 2.47309E-01
 -1      3811 2.89326E-01
 -1      3812 3.10536E-01
 -1      3813 1.80419E-01
 -1      3814 2.13322E-01
 -1      3815 2.31792E-01
 -1      3816 5.33932E+00
 -1      3817 5.77609E+00
 -1      3818 4.78839E+00
 -1      3819 3.86026E+00
 -1      3820 1.69675E-01
 -1      3821 1.67854E-01
 -1      3822 1.88260E-01
 -1      3823 1.23188E-01
 -1      3824 2.33879E-01
 -1      3825 1.15984E-01
 -1      3826 1.09724E-01
 -1      3827 1.18627E-01
 -1      3828 5.65195E+00
 -1      3829 2.41868E+00
 -1      3830 2.93954E+00
 -1      3831 3.71392E+00
 -1      3832 1.93389E-01
 -1      3833 1.62840E-01
 -1      3834 2.39038E-01
 -1      3835 2.29645E-01
 -1      3836 1.63746E-01
 -1      3837 1.81558E+00
 -1      3838 2.04415E+00
 -1      3839 2.41868E+00
 -1      3840 1.76504E+00
 -1      3841 1.33755E-01
 -1      3842 1.06905E-01
 -1      3843 9.77370E-02
 -1      3844 1.45356E-01
 -1      3845 1.03494E-01
 -1      3846 1.46442E-01
 -1      3847 1.27377E-01
 -1      3848 1.47904E-01
 -1      3849 1.75695E-01
 -1      3850 6.75917E+00
 -1      3851 5.34249E+00
 -1      3852 5.66720E+00
 -1      3853 2.57964E-01
 -1      3854 2.45713E-01
 -1      3855 2.27673E-01
 -1      3856 1.93385E+01
 -1      3857 1.93385E+01
 -1      3858 1.53198E-01
 -1      3859 1.60062E-01
 -1      3860 1.71990E-01
 -1      3861 1.47492E-01
 -1      3862 1.03049E-01
 -1      3863 1.17148E-01
 -1      3864 1.36938E-01
 -1      3865 1.23188E-01
 -1      3866 1.42641E-01
 -1      3867 1.58049E-01
 -1      3868 4.91846E+00
 -1      3869 4.74379E+00
 -1      3870 4.87270E+00
 -1      3871 1.29336E-01
 -1      3872 1.29336E-01
 -1      3873 1.99455E-01
 -1      3874 1.99573E-01
 -1      3875 7.51213E-01
 -1      3876 7.15000E-01
 -1      3877 8.54450E-01
 -1      3878 3.27818E-01
 -1      3879 6.57197E+00
 -1      3880 7.23208E+00
 -1      3881 6.28478E+00
 -1      3882 1.21692E-01
 -1      3883 2.63890E-01
 -1      3884 2.24082E-01
 -1      3885 2.22786E-01
 -1      3886 5.34249E+00
 -1      3887 5.28339E+00
 -1      3888 4.71131E+00
 -1      3889 1.29336E-01
 -1      3890 1.29196E-01
 -1      3891 1.42085E-01
 -1      3892 4.95144E-01
 -1      3893 4.25027E-01
 -1      3894 5.43905E-01
 -1      3895 2.14555E-01
 -1      3896 6.78680E+00
 -1      3897 1.75435E-01
 -1      3898 5.12200E+00
 -1      3899 1.68565E+01
 -1      3900 1.34055E+01
 -1      3901 8.11439E+00
 -1      3902 1.17158E+01
 -1      3903 1.41977E+01
 -1      3904 1.17179E-01
 -1      3905 1.35557E-01
 -1      3906 1.30068E-01
 -1      3907 1.99573E-01
 -1      3908 1.99573E-01
 -1      3909 1.65031E-01
 -1      3910 1.44796E-01
 -1      3911 3.67076E+00
 -1      3912 4.01181E+00
 -1      3913 3.28971E+00
 -1      3914 1.60478E-01
 -1      3915 1.60478E-01
 -1      3916 1.82848E-01
 -1      3917 1.42971E-01
 -1      3918 6.58058E+00
 -1      3919 9.30712E+00
 -1      3920 4.67932E+00
 -1      3921 1.10487E+00
 -1      3922 9.79792E-01
 -1      3923 9.36252E-01
 -1      3924 1.23256E+00
 -1      3925 1.50788E-01
 -1      3926 1.84375E-01
 -1      3927 1.57652E-01
 -1      3928 1.94923E-01
 -1      3929 4.45910E+00
 -1      3930 4.45910E+00
 -1      3931 4.70364E+00
 -1      3932 6.57197E+00
 -1      3933 6.57197E+00
 -1      3934 4.23401E+00
 -1      3935 1.88260E-01
 -1      3936 1.53836E-01
 -1      3937 1.59438E-01
 -1      3938 1.53904E-01
 -1      3939 1.67860E-01
 -1      3940 1.80859E-01
 -1      3941 1.66903E-01
 -1      3942 1.94735E-01
 -1      3943 2.08281E-01
 -1      3944 1.94735E-01
 -1      3945 2.29633E-01
 -1      3946 2.49830E-01
 -1      3947 2.29965E-01
 -1      3948 2.75595E-01
 -1      3949 2.99004E-01
 -1      3950 2.77082E-01
 -1      3951 3.37904E-01
 -1      3952 3.81371E-01
 -1      3953 3.41747E-01
 -1      3954 4.28695E-01
 -1      3955 4.95314E-01
 -1      3956 4.27971E-01
 -1      3957 5.76567E-01
 -1      3958 6.54358E-01
 -1      3959 5.56548E-01
 -1      3960 7.75021E-01
 -1      3961 8.79129E-01
 -1      3962 7.58465E-01
 -1      3963 1.03831E+00
 -1      3964 1.19749E+00
 -1      3965 1.03831E+00
 -1      3966 1.43080E+00
 -1      3967 1.67969E+00
 -1      3968 1.43080E+00
 -1      3969 2.50912E+00
 -1      3970 2.71692E+00
 -1      3971 2.49354E+00
 -1      3972 1.38689E-01
 -1      3973 1.49884E-01
 -1      3974 1.17740E-01
 -1      3975 1.61930E-01
 -1      3976 1.44046E-01
 -1      3977 1.61043E-01
 -1      3978 1.57544E-01
 -1      3979 6.33643E+00
 -1      3980 7.32544E+00
 -1      3981 7.45580E+00
 -1      3982 8.97305E+00
 -1      3983 9.06499E+00
 -1      3984 7.32544E+00
 -1      3985 7.65575E+00
 -1      3986 3.62561E+00
 -1      3987 7.56381E+00
 -1      3988 9.21875E-01
 -1      3989 8.09127E-01
 -1      3990 3.45084E+00
 -1      3991 7.17080E-01
 -1      3992 6.22419E-01
 -1      3993 6.55063E-01
 -1      3994 5.50836E-01
 -1      3995 4.74152E-01
 -1      3996 4.91434E-01
 -1      3997 4.21469E-01
 -1      3998 3.60089E-01
 -1      3999 3.67168E-01
 -1      4000 3.20687E-01
 -1      4001 2.72096E-01
 -1      4002 2.75083E-01
 -1      4003 2.42782E-01
 -1      4004 2.04139E-01
 -1      4005 2.06367E-01
 -1      4006 1.91317E-01
 -1      4007 1.62206E-01
 -1      4008 1.46746E-01
 -1      4009 1.64230E-01
 -1      4010 2.01598E-01
 -1      4011 1.94923E-01
 -1      4012 1.81965E-01
 -1      4013 8.21828E-01
 -1      4014 9.62062E-01
 -1      4015 3.74125E+00
 -1      4016 2.84401E+00
 -1      4017 4.15194E+00
 -1      4018 1.60561E+00
 -1      4019 1.37084E+00
 -1      4020 6.16439E-01
 -1      4021 7.17902E-01
 -1      4022 7.13075E-01
 -1      4023 1.10649E+00
 -1      4024 1.29590E+00
 -1      4025 9.61427E-01
 -1      4026 1.88260E-01
 -1      4027 4.68062E-01
 -1      4028 5.44004E-01
 -1      4029 5.36714E-01
 -1      4030 3.54036E-01
 -1      4031 4.12312E-01
 -1      4032 4.08530E-01
 -1      4033 2.70080E-01
 -1      4034 3.14837E-01
 -1      4035 3.13580E-01
 -1      4036 2.03610E-01
 -1      4037 2.37597E-01
 -1      4038 2.41898E-01
 -1      4039 1.88654E-01
 -1      4040 4.18729E+00
 -1      4041 4.34105E+00
 -1      4042 4.07822E+00
 -1      4043 3.26657E+00
 -1      4044 5.19305E+00
 -1      4045 4.64785E+00
 -1      4046 5.26542E+00
 -1      4047 3.64735E-01
 -1      4048 3.11219E-01
 -1      4049 4.08427E-01
 -1      4050 5.33271E+00
 -1      4051 2.19571E+00
 -1      4052 1.87916E+00
 -1      4053 1.61171E+00
 -1      4054 2.53357E+00
 -1      4055 1.98808E-01
 -1      4056 1.92365E-01
 -1      4057 1.64266E-01
 -1      4058 1.51537E-01
 -1      4059 1.53679E-01
 -1      4060 1.47187E-01
 -1      4061 1.25082E-01
 -1      4062 1.39235E-01
 -1      4063 1.29127E-01
 -1      4064 1.26746E+00
 -1      4065 1.09649E+00
 -1      4066 1.23478E+00
 -1      4067 1.02069E+01
 -1      4068 1.02069E+01
 -1      4069 6.35715E+00
 -1      4070 1.49884E-01
 -1      4071 3.98495E+00
 -1      4072 4.84005E+00
 -1      4073 1.72733E-01
 -1      4074 1.59208E-01
 -1      4075 1.84627E-01
 -1      4076 1.70601E-01
 -1      4077 7.32567E-01
 -1      4078 6.36658E-01
 -1      4079 3.00807E-01
 -1      4080 1.46746E-01
 -1      4081 1.42085E-01
 -1      4082 1.42085E-01
 -1      4083 3.48904E+00
 -1      4084 5.60739E-01
 -1      4085 4.85553E-01
 -1      4086 5.78306E-01
 -1      4087 1.35872E+00
 -1      4088 1.54876E+00
 -1      4089 1.82787E+00
 -1      4090 1.02069E+01
 -1      4091 7.72493E+00
 -1      4092 5.94696E+00
 -1      4093 6.21609E+00
 -1      4094 1.49092E-01
 -1      4095 1.37075E-01
 -1      4096 1.49092E-01
 -1      4097 1.61995E-01
 -1      4098 2.47938E-01
 -1      4099 2.17246E-01
 -1      4100 1.85128E-01
 -1      4101 1.68730E-01
 -1      4102 1.80034E-01
 -1      4103 2.10281E-01
 -1      4104 2.24012E+00
 -1      4105 2.61465E+00
 -1      4106 2.02384E+00
 -1      4107 1.49395E-01
 -1      4108 5.31629E+00
 -1      4109 9.56017E-01
 -1      4110 8.30675E-01
 -1      4111 7.52332E-01
 -1      4112 9.90917E-01
 -1      4113 3.08802E+00
 -1      4114 1.25635E-01
 -1      4115 1.37936E-01
 -1      4116 1.50288E-01
 -1      4117 1.56047E-01
 -1      4118 1.46796E-01
 -1      4119 1.94735E-01
 -1      4120 2.08612E-01
 -1      4121 2.29965E-01
 -1      4122 2.51318E-01
 -1      4123 2.29965E-01
 -1      4124 2.77082E-01
 -1      4125 3.02847E-01
 -1      4126 2.77082E-01
 -1      4127 3.41747E-01
 -1      4128 3.80647E-01
 -1      4129 3.41747E-01
 -1      4130 4.27971E-01
 -1      4131 4.75294E-01
 -1      4132 4.27971E-01
 -1      4133 5.40765E-01
 -1      4134 6.22019E-01
 -1      4135 5.40765E-01
 -1      4136 7.79983E-01
 -1      4137 9.00647E-01
 -1      4138 7.64201E-01
 -1      4139 1.11552E+00
 -1      4140 1.27470E+00
 -1      4141 1.13704E+00
 -1      4142 1.60728E+00
 -1      4143 1.84059E+00
 -1      4144 1.68449E+00
 -1      4145 2.09932E+00
 -1      4146 2.92874E+00
 -1      4147 2.27580E+00
 -1      4148 3.62934E-01
 -1      4149 4.18684E-01
 -1      4150 1.49395E-01
 -1      4151 3.34154E-01
 -1      4152 2.86826E-01
 -1      4153 2.81286E-01
 -1      4154 1.34737E-01
 -1      4155 1.49884E-01
 -1      4156 5.67784E+00
 -1      4157 7.32544E+00
 -1      4158 5.94696E+00
 -1      4159 7.56381E+00
 -1      4160 6.15457E+00
 -1      4161 5.91620E+00
 -1      4162 5.87967E+00
 -1      4163 3.17594E+00
 -1      4164 5.87967E+00
 -1      4165 8.35726E-01
 -1      4166 7.43680E-01
 -1      4167 3.26456E+00
 -1      4168 4.86995E-01
 -1      4169 4.15412E-01
 -1      4170 6.67658E-01
 -1      4171 3.79195E-01
 -1      4172 3.26512E-01
 -1      4173 3.74756E-01
 -1      4174 2.95837E-01
 -1      4175 2.56434E-01
 -1      4176 3.07863E-01
 -1      4177 2.40720E-01
 -1      4178 2.11406E-01
 -1      4179 2.61473E-01
 -1      4180 1.56432E-01
 -1      4181 1.43610E-01
 -1      4182 1.38948E-01
 -1      4183 1.90785E-01
 -1      4184 3.09889E+00
 -1      4185 2.79173E+00
 -1      4186 1.49119E-01
 -1      4187 7.70906E-01
 -1      4188 8.74832E-01
 -1      4189 3.21089E+00
 -1      4190 3.35531E+00
 -1      4191 3.26872E+00
 -1      4192 2.80387E-01
 -1      4193 3.19587E-01
 -1      4194 3.29741E-01
 -1      4195 3.48508E+00
 -1      4196 3.29633E+00
 -1      4197 1.87349E-01
 -1      4198 1.61043E-01
 -1      4199 1.61043E-01
 -1      4200 1.82757E-01
 -1      4201 2.81815E+00
 -1      4202 3.47008E+00
 -1      4203 3.80835E+00
 -1      4204 1.67661E-01
 -1      4205 1.81618E-01
 -1      4206 1.95494E-01
 -1      4207 4.70815E+00
 -1      4208 4.38247E-01
 -1      4209 3.77955E-01
 -1      4210 3.63975E-01
 -1      4211 4.55082E-01
 -1      4212 3.94441E+00
 -1      4213 5.46151E+00
 -1      4214 5.46151E+00
 -1      4215 3.55020E+00
 -1      4216 4.77246E-01
 -1      4217 5.49681E-01
 -1      4218 4.31650E-01
 -1      4219 1.17640E+00
 -1      4220 1.07301E+00
 -1      4221 4.36978E+00
 -1      4222 1.49950E-01
 -1      4223 1.17380E-01
 -1      4224 1.26190E-01
 -1      4225 1.40718E-01
 -1      4226 1.70762E-01
 -1      4227 4.70815E+00
 -1      4228 6.21609E+00
 -1      4229 7.11438E-01
 -1      4230 2.59902E+00
 -1      4231 1.75313E+00
 -1      4232 2.16538E+00
 -1      4233 2.08233E-01
 -1      4234 2.15240E-01
 -1      4235 2.05096E-01
 -1      4236 2.54744E+00
 -1      4237 5.69006E-01
 -1      4238 4.93088E-01
 -1      4239 1.26336E-01
 -1      4240 1.15790E+00
 -1      4241 1.41077E+00
 -1      4242 1.55232E+00
 -1      4243 6.21609E+00
 -1      4244 1.84627E-01
 -1      4245 1.87349E-01
 -1      4246 1.87349E-01
 -1      4247 3.40736E+00
 -1      4248 2.74381E-01
 -1      4249 2.80387E-01
 -1      4250 3.68116E+00
 -1      4251 2.41898E-01
 -1      4252 9.05043E-01
 -1      4253 9.63424E-01
 -1      4254 8.22947E-01
 -1      4255 2.26177E-01
 -1      4256 1.94059E-01
 -1      4257 2.14342E+00
 -1      4258 1.63252E+00
 -1      4259 1.35897E+00
 -1      4260 1.19720E+00
 -1      4261 1.89067E+00
 -1      4262 2.81286E-01
 -1      4263 2.42398E-01
 -1      4264 2.26177E-01
 -1      4265 7.28339E-01
 -1      4266 6.30230E-01
 -1      4267 7.00845E-01
 -1      4268 5.45012E-01
 -1      4269 4.05538E+00
 -1      4270 7.11438E-01
 -1      4271 9.32664E-01
 -1      4272 2.85746E-01
 -1      4273 3.11510E-01
 -1      4274 3.55311E-01
 -1      4275 3.94211E-01
 -1      4276 3.63975E-01
 -1      4277 4.32218E-01
 -1      4278 4.79541E-01
 -1      4279 5.40765E-01
 -1      4280 6.06237E-01
 -1      4281 7.00845E-01
 -1      4282 8.58809E-01
 -1      4283 9.68399E-01
 -1      4284 1.18327E+00
 -1      4285 1.36584E+00
 -1      4286 1.69842E+00
 -1      4287 5.94696E+00
 -1      4288 1.60897E-01
 -1      4289 1.73248E-01
 -1      4290 2.66549E+00
 -1      4291 1.73248E-01
 -1      4292 5.87967E+00
 -1      4293 5.60477E+00
 -1      4294 5.60477E+00
 -1      4295 3.26456E+00
 -1      4296 9.28504E-01
 -1      4297 6.71818E-01
 -1      4298 4.10973E-01
 -1      4299 3.74756E-01
 -1      4300 6.71818E-01
 -1      4301 3.26218E-01
 -1      4302 2.95542E-01
 -1      4303 3.62435E-01
 -1      4304 2.81791E-01
 -1      4305 2.66076E-01
 -1      4306 1.34591E-01
 -1      4307 3.28971E+00
 -1      4308 3.04564E+00
 -1      4309 5.20635E+00
 -1      4310 4.93722E+00
 -1      4311 2.70328E+00
 -1      4312 1.82756E-01
 -1      4313 4.45782E-01
 -1      4314 4.55082E-01
 -1      4315 1.84362E-01
 -1      4316 1.97480E-01
 -1      4317 1.98652E-01
 -1      4318 1.84863E-01
 -1      4319 2.17652E-01
 -1      4320 2.39004E-01
 -1      4321 2.73433E-01
 -1      4322 2.06520E-01
 -1      4323 3.92030E-01
 -1      4324 4.50593E-01
 -1      4325 2.20932E+00
 -1      4326 2.46805E+00
 -1      4327 5.60477E+00
 -1      4328 5.17559E+00
 -1      4329 4.90069E+00
 -1      4330 3.43492E-01
 -1      4331 3.26872E+00
 -1      4332 2.60070E-01
 -1      4333 4.07775E-01
 -1      4334 3.40736E+00
 -1      4335 3.63975E-01
 -1      4336 3.20174E-01
 -1      4337 2.34545E-01
 -1      4338 2.18323E-01
 -1      4339 1.98152E-01
 -1      4340 1.86849E-01
 -1      4341 3.00145E-01
 -1      4342 2.81286E-01
 -3
 9999
