    1C
    1UUSER                                                              
    1UDATE              27.october.2022                                 
    1UTIME              00:49:01                                        
    1UHOST                                                              
    1UPGM               CalculiX                                        
    1UVERSION           Version 2.17                             
    1UCOMPILETIME       Thu Jul 23 21:43:50 CEST 2020                    
    1UDIR                                                               
    1UDBN                                                               
    1UMAT    1SOLIDMATERIAL                                             
    2C                          4283                                     1
 -1         1 1.23430E+02 1.72727E+01 0.00000E+00
 -1         2 1.25982E+02 1.18680E+01 0.00000E+00
 -1         3 1.50000E+02 0.00000E+00 0.00000E+00
 -1         4 1.50000E+02 5.00000E+01 0.00000E+00
 -1         5 0.00000E+00 0.00000E+00 0.00000E+00
 -1         6 0.00000E+00 5.00000E+01 0.00000E+00
 -1         7 0.00000E+00 4.70500E+01 0.00000E+00
 -1         8 0.00000E+00 4.41000E+01 0.00000E+00
 -1         9 0.00000E+00 4.11500E+01 0.00000E+00
 -1        10 0.00000E+00 3.82000E+01 0.00000E+00
 -1        11 0.00000E+00 3.52500E+01 0.00000E+00
 -1        12 0.00000E+00 3.23500E+01 0.00000E+00
 -1        13 0.00000E+00 2.94000E+01 0.00000E+00
 -1        14 0.00000E+00 2.64500E+01 0.00000E+00
 -1        15 0.00000E+00 2.35000E+01 0.00000E+00
 -1        16 0.00000E+00 2.05500E+01 0.00000E+00
 -1        17 0.00000E+00 1.76000E+01 0.00000E+00
 -1        18 0.00000E+00 1.47000E+01 0.00000E+00
 -1        19 0.00000E+00 1.17500E+01 0.00000E+00
 -1        20 0.00000E+00 8.80000E+00 0.00000E+00
 -1        21 0.00000E+00 5.85000E+00 0.00000E+00
 -1        22 0.00000E+00 2.90000E+00 0.00000E+00
 -1        23 3.15000E+00 5.00000E+01 0.00000E+00
 -1        24 6.15000E+00 5.00000E+01 0.00000E+00
 -1        25 9.15000E+00 5.00000E+01 0.00000E+00
 -1        26 1.21500E+01 5.00000E+01 0.00000E+00
 -1        27 1.51500E+01 5.00000E+01 0.00000E+00
 -1        28 1.81500E+01 5.00000E+01 0.00000E+00
 -1        29 2.11500E+01 5.00000E+01 0.00000E+00
 -1        30 2.41500E+01 5.00000E+01 0.00000E+00
 -1        31 2.71500E+01 5.00000E+01 0.00000E+00
 -1        32 3.01500E+01 5.00000E+01 0.00000E+00
 -1        33 3.31500E+01 5.00000E+01 0.00000E+00
 -1        34 3.61500E+01 5.00000E+01 0.00000E+00
 -1        35 3.91500E+01 5.00000E+01 0.00000E+00
 -1        36 4.21500E+01 5.00000E+01 0.00000E+00
 -1        37 4.51500E+01 5.00000E+01 0.00000E+00
 -1        38 4.81500E+01 5.00000E+01 0.00000E+00
 -1        39 5.11500E+01 5.00000E+01 0.00000E+00
 -1        40 5.41500E+01 5.00000E+01 0.00000E+00
 -1        41 5.71500E+01 5.00000E+01 0.00000E+00
 -1        42 6.01500E+01 5.00000E+01 0.00000E+00
 -1        43 6.31500E+01 5.00000E+01 0.00000E+00
 -1        44 6.61500E+01 5.00000E+01 0.00000E+00
 -1        45 6.91500E+01 5.00000E+01 0.00000E+00
 -1        46 7.21500E+01 5.00000E+01 0.00000E+00
 -1        47 7.51500E+01 5.00000E+01 0.00000E+00
 -1        48 7.81500E+01 5.00000E+01 0.00000E+00
 -1        49 8.11500E+01 5.00000E+01 0.00000E+00
 -1        50 8.41500E+01 5.00000E+01 0.00000E+00
 -1        51 8.71500E+01 5.00000E+01 0.00000E+00
 -1        52 9.01500E+01 5.00000E+01 0.00000E+00
 -1        53 9.31500E+01 5.00000E+01 0.00000E+00
 -1        54 9.61500E+01 5.00000E+01 0.00000E+00
 -1        55 9.91500E+01 5.00000E+01 0.00000E+00
 -1        56 1.02150E+02 5.00000E+01 0.00000E+00
 -1        57 1.05150E+02 5.00000E+01 0.00000E+00
 -1        58 1.08150E+02 5.00000E+01 0.00000E+00
 -1        59 1.11150E+02 5.00000E+01 0.00000E+00
 -1        60 1.14150E+02 5.00000E+01 0.00000E+00
 -1        61 1.17150E+02 5.00000E+01 0.00000E+00
 -1        62 1.20150E+02 5.00000E+01 0.00000E+00
 -1        63 1.23150E+02 5.00000E+01 0.00000E+00
 -1        64 1.26150E+02 5.00000E+01 0.00000E+00
 -1        65 1.29150E+02 5.00000E+01 0.00000E+00
 -1        66 1.32150E+02 5.00000E+01 0.00000E+00
 -1        67 1.35150E+02 5.00000E+01 0.00000E+00
 -1        68 1.38150E+02 5.00000E+01 0.00000E+00
 -1        69 1.41150E+02 5.00000E+01 0.00000E+00
 -1        70 1.44150E+02 5.00000E+01 0.00000E+00
 -1        71 1.47150E+02 5.00000E+01 0.00000E+00
 -1        72 3.00000E+00 0.00000E+00 0.00000E+00
 -1        73 6.00000E+00 0.00000E+00 0.00000E+00
 -1        74 9.00000E+00 0.00000E+00 0.00000E+00
 -1        75 1.20000E+01 0.00000E+00 0.00000E+00
 -1        76 1.50000E+01 0.00000E+00 0.00000E+00
 -1        77 1.80000E+01 0.00000E+00 0.00000E+00
 -1        78 2.10000E+01 0.00000E+00 0.00000E+00
 -1        79 2.40000E+01 0.00000E+00 0.00000E+00
 -1        80 2.70000E+01 0.00000E+00 0.00000E+00
 -1        81 3.00000E+01 0.00000E+00 0.00000E+00
 -1        82 3.30000E+01 0.00000E+00 0.00000E+00
 -1        83 3.60000E+01 0.00000E+00 0.00000E+00
 -1        84 3.90000E+01 0.00000E+00 0.00000E+00
 -1        85 4.18500E+01 0.00000E+00 0.00000E+00
 -1        86 4.48500E+01 0.00000E+00 0.00000E+00
 -1        87 4.78500E+01 0.00000E+00 0.00000E+00
 -1        88 5.08500E+01 0.00000E+00 0.00000E+00
 -1        89 5.38500E+01 0.00000E+00 0.00000E+00
 -1        90 5.68500E+01 0.00000E+00 0.00000E+00
 -1        91 5.98500E+01 0.00000E+00 0.00000E+00
 -1        92 6.28500E+01 0.00000E+00 0.00000E+00
 -1        93 6.58500E+01 0.00000E+00 0.00000E+00
 -1        94 6.88500E+01 0.00000E+00 0.00000E+00
 -1        95 7.18500E+01 0.00000E+00 0.00000E+00
 -1        96 7.48500E+01 0.00000E+00 0.00000E+00
 -1        97 7.78500E+01 0.00000E+00 0.00000E+00
 -1        98 8.07000E+01 0.00000E+00 0.00000E+00
 -1        99 8.37000E+01 0.00000E+00 0.00000E+00
 -1       100 8.67000E+01 0.00000E+00 0.00000E+00
 -1       101 8.97000E+01 0.00000E+00 0.00000E+00
 -1       102 9.27000E+01 0.00000E+00 0.00000E+00
 -1       103 9.57000E+01 0.00000E+00 0.00000E+00
 -1       104 9.87000E+01 0.00000E+00 0.00000E+00
 -1       105 1.01700E+02 0.00000E+00 0.00000E+00
 -1       106 1.04700E+02 0.00000E+00 0.00000E+00
 -1       107 1.07700E+02 0.00000E+00 0.00000E+00
 -1       108 1.10100E+02 0.00000E+00 0.00000E+00
 -1       109 1.12650E+02 0.00000E+00 0.00000E+00
 -1       110 1.15350E+02 0.00000E+00 0.00000E+00
 -1       111 1.17450E+02 0.00000E+00 0.00000E+00
 -1       112 1.19550E+02 0.00000E+00 0.00000E+00
 -1       113 1.21950E+02 0.00000E+00 0.00000E+00
 -1       114 1.24350E+02 0.00000E+00 0.00000E+00
 -1       115 1.26600E+02 0.00000E+00 0.00000E+00
 -1       116 1.29150E+02 0.00000E+00 0.00000E+00
 -1       117 1.32150E+02 0.00000E+00 0.00000E+00
 -1       118 1.35150E+02 0.00000E+00 0.00000E+00
 -1       119 1.38150E+02 0.00000E+00 0.00000E+00
 -1       120 1.41150E+02 0.00000E+00 0.00000E+00
 -1       121 1.44150E+02 0.00000E+00 0.00000E+00
 -1       122 1.47150E+02 0.00000E+00 0.00000E+00
 -1       123 1.50000E+02 2.95000E+00 0.00000E+00
 -1       124 1.50000E+02 5.90000E+00 0.00000E+00
 -1       125 1.50000E+02 8.85000E+00 0.00000E+00
 -1       126 1.50000E+02 1.18000E+01 0.00000E+00
 -1       127 1.50000E+02 1.47500E+01 0.00000E+00
 -1       128 1.50000E+02 1.76500E+01 0.00000E+00
 -1       129 1.50000E+02 2.06000E+01 0.00000E+00
 -1       130 1.50000E+02 2.35500E+01 0.00000E+00
 -1       131 1.50000E+02 2.65000E+01 0.00000E+00
 -1       132 1.50000E+02 2.94500E+01 0.00000E+00
 -1       133 1.50000E+02 3.24000E+01 0.00000E+00
 -1       134 1.50000E+02 3.53000E+01 0.00000E+00
 -1       135 1.50000E+02 3.82500E+01 0.00000E+00
 -1       136 1.50000E+02 4.12000E+01 0.00000E+00
 -1       137 1.50000E+02 4.41500E+01 0.00000E+00
 -1       138 1.50000E+02 4.71000E+01 0.00000E+00
 -1       139 1.25805E+02 1.03037E+01 0.00000E+00
 -1       140 1.25337E+02 8.93409E+00 0.00000E+00
 -1       141 1.24538E+02 7.61005E+00 0.00000E+00
 -1       142 1.23531E+02 6.54801E+00 0.00000E+00
 -1       143 1.22300E+02 5.70419E+00 0.00000E+00
 -1       144 1.20934E+02 5.14585E+00 0.00000E+00
 -1       145 1.19495E+02 4.88687E+00 0.00000E+00
 -1       146 1.17923E+02 4.94853E+00 0.00000E+00
 -1       147 1.16450E+02 5.34214E+00 0.00000E+00
 -1       148 1.15138E+02 6.01817E+00 0.00000E+00
 -1       149 1.14041E+02 6.90990E+00 0.00000E+00
 -1       150 1.13136E+02 8.01786E+00 0.00000E+00
 -1       151 1.12454E+02 9.34126E+00 0.00000E+00
 -1       152 1.12056E+02 1.08526E+01 0.00000E+00
 -1       153 1.12001E+02 1.23898E+01 0.00000E+00
 -1       154 1.12259E+02 1.38197E+01 0.00000E+00
 -1       155 1.12844E+02 1.52334E+01 0.00000E+00
 -1       156 1.13753E+02 1.65215E+01 0.00000E+00
 -1       157 1.14833E+02 1.75060E+01 0.00000E+00
 -1       158 1.16121E+02 1.82567E+01 0.00000E+00
 -1       159 1.17554E+02 1.87208E+01 0.00000E+00
 -1       160 1.18979E+02 1.88680E+01 0.00000E+00
 -1       161 1.20577E+02 1.86838E+01 0.00000E+00
 -1       162 1.22026E+02 1.81713E+01 0.00000E+00
 -1       163 1.24513E+02 1.61589E+01 0.00000E+00
 -1       164 1.25310E+02 1.48596E+01 0.00000E+00
 -1       165 1.25809E+02 1.34147E+01 0.00000E+00
 -1       166 2.59800E+00 4.55750E+01 0.00000E+00
 -1       167 2.59800E+00 4.26250E+01 0.00000E+00
 -1       168 2.59800E+00 3.96750E+01 0.00000E+00
 -1       169 2.59800E+00 3.67250E+01 0.00000E+00
 -1       170 2.59800E+00 3.38250E+01 0.00000E+00
 -1       171 2.59800E+00 3.08750E+01 0.00000E+00
 -1       172 2.59800E+00 2.79250E+01 0.00000E+00
 -1       173 2.59800E+00 2.49750E+01 0.00000E+00
 -1       174 2.59800E+00 2.20250E+01 0.00000E+00
 -1       175 2.59800E+00 1.90750E+01 0.00000E+00
 -1       176 2.59800E+00 1.61750E+01 0.00000E+00
 -1       177 2.59800E+00 1.32250E+01 0.00000E+00
 -1       178 2.59800E+00 1.02750E+01 0.00000E+00
 -1       179 2.59800E+00 7.32500E+00 0.00000E+00
 -1       180 2.59800E+00 4.37500E+00 0.00000E+00
 -1       181 4.65000E+00 4.74020E+01 0.00000E+00
 -1       182 7.65000E+00 4.74020E+01 0.00000E+00
 -1       183 1.06500E+01 4.74020E+01 0.00000E+00
 -1       184 1.36500E+01 4.74020E+01 0.00000E+00
 -1       185 1.66500E+01 4.74020E+01 0.00000E+00
 -1       186 1.96500E+01 4.74020E+01 0.00000E+00
 -1       187 2.26500E+01 4.74020E+01 0.00000E+00
 -1       188 2.56500E+01 4.74020E+01 0.00000E+00
 -1       189 2.86500E+01 4.74020E+01 0.00000E+00
 -1       190 3.16500E+01 4.74020E+01 0.00000E+00
 -1       191 3.46500E+01 4.74020E+01 0.00000E+00
 -1       192 3.76500E+01 4.74020E+01 0.00000E+00
 -1       193 4.06500E+01 4.74020E+01 0.00000E+00
 -1       194 4.36500E+01 4.74020E+01 0.00000E+00
 -1       195 4.66500E+01 4.74020E+01 0.00000E+00
 -1       196 4.96500E+01 4.74020E+01 0.00000E+00
 -1       197 5.26500E+01 4.74020E+01 0.00000E+00
 -1       198 5.56500E+01 4.74020E+01 0.00000E+00
 -1       199 5.86500E+01 4.74020E+01 0.00000E+00
 -1       200 6.16500E+01 4.74020E+01 0.00000E+00
 -1       201 6.46500E+01 4.74020E+01 0.00000E+00
 -1       202 6.76500E+01 4.74020E+01 0.00000E+00
 -1       203 7.06500E+01 4.74020E+01 0.00000E+00
 -1       204 7.36500E+01 4.74020E+01 0.00000E+00
 -1       205 7.66500E+01 4.74020E+01 0.00000E+00
 -1       206 7.96500E+01 4.74020E+01 0.00000E+00
 -1       207 8.26500E+01 4.74020E+01 0.00000E+00
 -1       208 8.56500E+01 4.74020E+01 0.00000E+00
 -1       209 8.86500E+01 4.74020E+01 0.00000E+00
 -1       210 9.16500E+01 4.74020E+01 0.00000E+00
 -1       211 9.46500E+01 4.74020E+01 0.00000E+00
 -1       212 9.76500E+01 4.74020E+01 0.00000E+00
 -1       213 1.00650E+02 4.74020E+01 0.00000E+00
 -1       214 1.03650E+02 4.74020E+01 0.00000E+00
 -1       215 1.06650E+02 4.74020E+01 0.00000E+00
 -1       216 1.09650E+02 4.74020E+01 0.00000E+00
 -1       217 1.12650E+02 4.74020E+01 0.00000E+00
 -1       218 1.15650E+02 4.74020E+01 0.00000E+00
 -1       219 1.18650E+02 4.74020E+01 0.00000E+00
 -1       220 1.21650E+02 4.74020E+01 0.00000E+00
 -1       221 1.24650E+02 4.74020E+01 0.00000E+00
 -1       222 1.27650E+02 4.74020E+01 0.00000E+00
 -1       223 1.30650E+02 4.74020E+01 0.00000E+00
 -1       224 1.33650E+02 4.74020E+01 0.00000E+00
 -1       225 1.36650E+02 4.74020E+01 0.00000E+00
 -1       226 1.39650E+02 4.74020E+01 0.00000E+00
 -1       227 1.42650E+02 4.74020E+01 0.00000E+00
 -1       228 1.45650E+02 4.74020E+01 0.00000E+00
 -1       229 4.50000E+00 2.59800E+00 0.00000E+00
 -1       230 7.50000E+00 2.59800E+00 0.00000E+00
 -1       231 1.05000E+01 2.59800E+00 0.00000E+00
 -1       232 1.35000E+01 2.59800E+00 0.00000E+00
 -1       233 1.65000E+01 2.59800E+00 0.00000E+00
 -1       234 1.95000E+01 2.59800E+00 0.00000E+00
 -1       235 2.25000E+01 2.59800E+00 0.00000E+00
 -1       236 2.55000E+01 2.59800E+00 0.00000E+00
 -1       237 2.85000E+01 2.59800E+00 0.00000E+00
 -1       238 3.15000E+01 2.59800E+00 0.00000E+00
 -1       239 3.45000E+01 2.59800E+00 0.00000E+00
 -1       240 3.75000E+01 2.59800E+00 0.00000E+00
 -1       241 4.03500E+01 2.59800E+00 0.00000E+00
 -1       242 4.33500E+01 2.59800E+00 0.00000E+00
 -1       243 4.63500E+01 2.59800E+00 0.00000E+00
 -1       244 4.93500E+01 2.59800E+00 0.00000E+00
 -1       245 5.23500E+01 2.59800E+00 0.00000E+00
 -1       246 5.53500E+01 2.59800E+00 0.00000E+00
 -1       247 5.83500E+01 2.59800E+00 0.00000E+00
 -1       248 6.13500E+01 2.59800E+00 0.00000E+00
 -1       249 6.43500E+01 2.59800E+00 0.00000E+00
 -1       250 6.73500E+01 2.59800E+00 0.00000E+00
 -1       251 7.03500E+01 2.59800E+00 0.00000E+00
 -1       252 7.33500E+01 2.59800E+00 0.00000E+00
 -1       253 7.63500E+01 2.59800E+00 0.00000E+00
 -1       254 7.92000E+01 2.59800E+00 0.00000E+00
 -1       255 8.22000E+01 2.59800E+00 0.00000E+00
 -1       256 8.52000E+01 2.59800E+00 0.00000E+00
 -1       257 8.82000E+01 2.59800E+00 0.00000E+00
 -1       258 9.12000E+01 2.59800E+00 0.00000E+00
 -1       259 9.42000E+01 2.59800E+00 0.00000E+00
 -1       260 9.72000E+01 2.59800E+00 0.00000E+00
 -1       261 1.00200E+02 2.59800E+00 0.00000E+00
 -1       262 1.03200E+02 2.59800E+00 0.00000E+00
 -1       263 1.06200E+02 2.59800E+00 0.00000E+00
 -1       264 1.08600E+02 2.59800E+00 0.00000E+00
 -1       265 1.11150E+02 2.59800E+00 0.00000E+00
 -1       266 1.16400E+02 1.63132E+00 0.00000E+00
 -1       267 1.18500E+02 1.63132E+00 0.00000E+00
 -1       268 1.20900E+02 1.63132E+00 0.00000E+00
 -1       269 1.23150E+02 1.88268E+00 0.00000E+00
 -1       270 1.25400E+02 1.88268E+00 0.00000E+00
 -1       271 1.27950E+02 1.88268E+00 0.00000E+00
 -1       272 1.30950E+02 1.88268E+00 0.00000E+00
 -1       273 1.33950E+02 1.88268E+00 0.00000E+00
 -1       274 1.36950E+02 1.88268E+00 0.00000E+00
 -1       275 1.39950E+02 1.88268E+00 0.00000E+00
 -1       276 1.42950E+02 1.88268E+00 0.00000E+00
 -1       277 1.45950E+02 1.88268E+00 0.00000E+00
 -1       278 1.47975E+02 2.41634E+00 0.00000E+00
 -1       279 1.47975E+02 5.36634E+00 0.00000E+00
 -1       280 1.47975E+02 8.31634E+00 0.00000E+00
 -1       281 1.47975E+02 1.12663E+01 0.00000E+00
 -1       282 1.47975E+02 1.42163E+01 0.00000E+00
 -1       283 1.47975E+02 1.71163E+01 0.00000E+00
 -1       284 1.47975E+02 2.00663E+01 0.00000E+00
 -1       285 1.47975E+02 2.30163E+01 0.00000E+00
 -1       286 1.47975E+02 2.59663E+01 0.00000E+00
 -1       287 1.47975E+02 2.89163E+01 0.00000E+00
 -1       288 1.47975E+02 3.18663E+01 0.00000E+00
 -1       289 1.47975E+02 3.47663E+01 0.00000E+00
 -1       290 1.47975E+02 3.77163E+01 0.00000E+00
 -1       291 1.47975E+02 4.06663E+01 0.00000E+00
 -1       292 1.47975E+02 4.36163E+01 0.00000E+00
 -1       293 1.27181E+02 1.09401E+01 0.00000E+00
 -1       294 1.26798E+02 9.20017E+00 0.00000E+00
 -1       295 1.26047E+02 7.60210E+00 0.00000E+00
 -1       296 1.24915E+02 6.24501E+00 0.00000E+00
 -1       297 1.23601E+02 5.12589E+00 0.00000E+00
 -1       298 1.22108E+02 4.22530E+00 0.00000E+00
 -1       299 1.20429E+02 3.82313E+00 0.00000E+00
 -1       300 1.18655E+02 3.53880E+00 0.00000E+00
 -1       301 1.16874E+02 3.97399E+00 0.00000E+00
 -1       302 1.15200E+02 4.52793E+00 0.00000E+00
 -1       303 1.13824E+02 5.52325E+00 0.00000E+00
 -1       304 1.12649E+02 6.69707E+00 0.00000E+00
 -1       305 1.11568E+02 8.04741E+00 0.00000E+00
 -1       306 1.10920E+02 9.74555E+00 0.00000E+00
 -1       307 1.10817E+02 1.15781E+01 0.00000E+00
 -1       308 1.10855E+02 1.33350E+01 0.00000E+00
 -1       309 1.11276E+02 1.50538E+01 0.00000E+00
 -1       310 1.12171E+02 1.66729E+01 0.00000E+00
 -1       311 1.13476E+02 1.79099E+01 0.00000E+00
 -1       312 1.14866E+02 1.89288E+01 0.00000E+00
 -1       313 1.16438E+02 1.97219E+01 0.00000E+00
 -1       314 1.18133E+02 2.00838E+01 0.00000E+00
 -1       315 1.19937E+02 2.01468E+01 0.00000E+00
 -1       316 1.21734E+02 1.96495E+01 0.00000E+00
 -1       317 1.23563E+02 1.90254E+01 0.00000E+00
 -1       318 1.24841E+02 1.75606E+01 0.00000E+00
 -1       319 1.25945E+02 1.61437E+01 0.00000E+00
 -1       320 1.26706E+02 1.45326E+01 0.00000E+00
 -1       321 1.27184E+02 1.27855E+01 0.00000E+00
 -1       322 1.14000E+02 2.59800E+00 0.00000E+00
 -1       323 1.47402E+02 4.56250E+01 0.00000E+00
 -1       324 5.19600E+00 4.11500E+01 0.00000E+00
 -1       325 5.19600E+00 4.41000E+01 0.00000E+00
 -1       326 5.19600E+00 3.52750E+01 0.00000E+00
 -1       327 5.19600E+00 3.23250E+01 0.00000E+00
 -1       328 5.19600E+00 2.93750E+01 0.00000E+00
 -1       329 5.19600E+00 2.64250E+01 0.00000E+00
 -1       330 5.19600E+00 2.34750E+01 0.00000E+00
 -1       331 5.19600E+00 2.05250E+01 0.00000E+00
 -1       332 5.19600E+00 1.76250E+01 0.00000E+00
 -1       333 5.19600E+00 1.46750E+01 0.00000E+00
 -1       334 5.19600E+00 1.17250E+01 0.00000E+00
 -1       335 5.19600E+00 8.77500E+00 0.00000E+00
 -1       336 5.19600E+00 5.82500E+00 0.00000E+00
 -1       337 9.15000E+00 4.48040E+01 0.00000E+00
 -1       338 1.21500E+01 4.48040E+01 0.00000E+00
 -1       339 1.51500E+01 4.48040E+01 0.00000E+00
 -1       340 1.81500E+01 4.48040E+01 0.00000E+00
 -1       341 2.11500E+01 4.48040E+01 0.00000E+00
 -1       342 2.41500E+01 4.48040E+01 0.00000E+00
 -1       343 2.71500E+01 4.48040E+01 0.00000E+00
 -1       344 3.01500E+01 4.48040E+01 0.00000E+00
 -1       345 3.31500E+01 4.48040E+01 0.00000E+00
 -1       346 3.61500E+01 4.48040E+01 0.00000E+00
 -1       347 3.91500E+01 4.48040E+01 0.00000E+00
 -1       348 4.21500E+01 4.48040E+01 0.00000E+00
 -1       349 4.51500E+01 4.48040E+01 0.00000E+00
 -1       350 4.81500E+01 4.48040E+01 0.00000E+00
 -1       351 5.11500E+01 4.48040E+01 0.00000E+00
 -1       352 5.41500E+01 4.48040E+01 0.00000E+00
 -1       353 5.71500E+01 4.48040E+01 0.00000E+00
 -1       354 6.01500E+01 4.48040E+01 0.00000E+00
 -1       355 6.31500E+01 4.48040E+01 0.00000E+00
 -1       356 6.61500E+01 4.48040E+01 0.00000E+00
 -1       357 6.91500E+01 4.48040E+01 0.00000E+00
 -1       358 7.21500E+01 4.48040E+01 0.00000E+00
 -1       359 7.51500E+01 4.48040E+01 0.00000E+00
 -1       360 7.81500E+01 4.48040E+01 0.00000E+00
 -1       361 8.11500E+01 4.48040E+01 0.00000E+00
 -1       362 8.41500E+01 4.48040E+01 0.00000E+00
 -1       363 8.71500E+01 4.48040E+01 0.00000E+00
 -1       364 9.01500E+01 4.48040E+01 0.00000E+00
 -1       365 9.31500E+01 4.48040E+01 0.00000E+00
 -1       366 9.61500E+01 4.48040E+01 0.00000E+00
 -1       367 9.91500E+01 4.48040E+01 0.00000E+00
 -1       368 1.02150E+02 4.48040E+01 0.00000E+00
 -1       369 1.05150E+02 4.48040E+01 0.00000E+00
 -1       370 1.08150E+02 4.48040E+01 0.00000E+00
 -1       371 1.11150E+02 4.48040E+01 0.00000E+00
 -1       372 1.14150E+02 4.48040E+01 0.00000E+00
 -1       373 1.17150E+02 4.48040E+01 0.00000E+00
 -1       374 1.20150E+02 4.48040E+01 0.00000E+00
 -1       375 1.23150E+02 4.48040E+01 0.00000E+00
 -1       376 1.26150E+02 4.48040E+01 0.00000E+00
 -1       377 1.29150E+02 4.48040E+01 0.00000E+00
 -1       378 1.32150E+02 4.48040E+01 0.00000E+00
 -1       379 1.35150E+02 4.48040E+01 0.00000E+00
 -1       380 1.38150E+02 4.48040E+01 0.00000E+00
 -1       381 1.41150E+02 4.48040E+01 0.00000E+00
 -1       382 1.44150E+02 4.48040E+01 0.00000E+00
 -1       383 1.20000E+01 5.19600E+00 0.00000E+00
 -1       384 9.00000E+00 5.19600E+00 0.00000E+00
 -1       385 1.50000E+01 5.19600E+00 0.00000E+00
 -1       386 1.80000E+01 5.19600E+00 0.00000E+00
 -1       387 2.10000E+01 5.19600E+00 0.00000E+00
 -1       388 2.40000E+01 5.19600E+00 0.00000E+00
 -1       389 2.70000E+01 5.19600E+00 0.00000E+00
 -1       390 3.00000E+01 5.19600E+00 0.00000E+00
 -1       391 3.30000E+01 5.19600E+00 0.00000E+00
 -1       392 3.60000E+01 5.19600E+00 0.00000E+00
 -1       393 3.88500E+01 5.19600E+00 0.00000E+00
 -1       394 4.18500E+01 5.19600E+00 0.00000E+00
 -1       395 4.48500E+01 5.19600E+00 0.00000E+00
 -1       396 4.78500E+01 5.19600E+00 0.00000E+00
 -1       397 5.08500E+01 5.19600E+00 0.00000E+00
 -1       398 5.38500E+01 5.19600E+00 0.00000E+00
 -1       399 5.68500E+01 5.19600E+00 0.00000E+00
 -1       400 5.98500E+01 5.19600E+00 0.00000E+00
 -1       401 6.28500E+01 5.19600E+00 0.00000E+00
 -1       402 6.58500E+01 5.19600E+00 0.00000E+00
 -1       403 6.88500E+01 5.19600E+00 0.00000E+00
 -1       404 7.18500E+01 5.19600E+00 0.00000E+00
 -1       405 7.48500E+01 5.19600E+00 0.00000E+00
 -1       406 7.77000E+01 5.19600E+00 0.00000E+00
 -1       407 8.07000E+01 5.19600E+00 0.00000E+00
 -1       408 8.37000E+01 5.19600E+00 0.00000E+00
 -1       409 8.67000E+01 5.19600E+00 0.00000E+00
 -1       410 8.97000E+01 5.19600E+00 0.00000E+00
 -1       411 9.27000E+01 5.19600E+00 0.00000E+00
 -1       412 9.57000E+01 5.19600E+00 0.00000E+00
 -1       413 9.87000E+01 5.19600E+00 0.00000E+00
 -1       414 1.01700E+02 5.19600E+00 0.00000E+00
 -1       415 1.04700E+02 5.19600E+00 0.00000E+00
 -1       416 1.07100E+02 5.19600E+00 0.00000E+00
 -1       417 1.27747E+02 7.77888E+00 0.00000E+00
 -1       418 1.12575E+02 4.81582E+00 0.00000E+00
 -1       419 1.26675E+02 3.76536E+00 0.00000E+00
 -1       420 1.32450E+02 4.48068E+00 0.00000E+00
 -1       421 1.35450E+02 4.48068E+00 0.00000E+00
 -1       422 1.38450E+02 4.48068E+00 0.00000E+00
 -1       423 1.41450E+02 4.48068E+00 0.00000E+00
 -1       424 1.44450E+02 4.48068E+00 0.00000E+00
 -1       425 1.46212E+02 4.92351E+00 0.00000E+00
 -1       426 1.45377E+02 9.79134E+00 0.00000E+00
 -1       427 1.45795E+02 7.35743E+00 0.00000E+00
 -1       428 1.45377E+02 1.27413E+01 0.00000E+00
 -1       429 1.45377E+02 1.56413E+01 0.00000E+00
 -1       430 1.45377E+02 1.85913E+01 0.00000E+00
 -1       431 1.45377E+02 2.15413E+01 0.00000E+00
 -1       432 1.45377E+02 2.44913E+01 0.00000E+00
 -1       433 1.45377E+02 2.74413E+01 0.00000E+00
 -1       434 1.45377E+02 3.03913E+01 0.00000E+00
 -1       435 1.45377E+02 3.32913E+01 0.00000E+00
 -1       436 1.45377E+02 3.62413E+01 0.00000E+00
 -1       437 1.45377E+02 3.91913E+01 0.00000E+00
 -1       438 1.45377E+02 4.21413E+01 0.00000E+00
 -1       439 1.26476E+02 6.09299E+00 0.00000E+00
 -1       440 1.28479E+02 1.18613E+01 0.00000E+00
 -1       441 5.19600E+00 3.82125E+01 0.00000E+00
 -1       442 1.29450E+02 4.48068E+00 0.00000E+00
 -1       443 1.25152E+02 4.63489E+00 0.00000E+00
 -1       444 1.10900E+02 6.40515E+00 0.00000E+00
 -1       445 1.09955E+02 8.40462E+00 0.00000E+00
 -1       446 1.09324E+02 1.05747E+01 0.00000E+00
 -1       447 1.09361E+02 1.23315E+01 0.00000E+00
 -1       448 1.09807E+02 1.45032E+01 0.00000E+00
 -1       449 1.10516E+02 1.65305E+01 0.00000E+00
 -1       450 1.11932E+02 1.82323E+01 0.00000E+00
 -1       451 1.13257E+02 1.96675E+01 0.00000E+00
 -1       452 1.14955E+02 2.07069E+01 0.00000E+00
 -1       453 1.16980E+02 2.13343E+01 0.00000E+00
 -1       454 1.18981E+02 2.16619E+01 0.00000E+00
 -1       455 1.21248E+02 2.13897E+01 0.00000E+00
 -1       456 1.23076E+02 2.07656E+01 0.00000E+00
 -1       457 1.25241E+02 1.92004E+01 0.00000E+00
 -1       458 1.26482E+02 1.77001E+01 0.00000E+00
 -1       459 1.27497E+02 1.58918E+01 0.00000E+00
 -1       460 1.28357E+02 1.40451E+01 0.00000E+00
 -1       461 1.28419E+02 9.75504E+00 0.00000E+00
 -1       462 1.24500E+02 3.50429E+00 0.00000E+00
 -1       463 1.15809E+02 3.62785E+00 0.00000E+00
 -1       464 1.09875E+02 4.48068E+00 0.00000E+00
 -1       465 1.24755E+02 2.09406E+01 0.00000E+00
 -1       466 1.14192E+02 4.22184E+00 0.00000E+00
 -1       467 1.29963E+02 1.30395E+01 0.00000E+00
 -1       468 7.79400E+00 3.08500E+01 0.00000E+00
 -1       469 7.79400E+00 3.38000E+01 0.00000E+00
 -1       470 7.79400E+00 2.49500E+01 0.00000E+00
 -1       471 7.79400E+00 2.20000E+01 0.00000E+00
 -1       472 7.79400E+00 1.91000E+01 0.00000E+00
 -1       473 7.79400E+00 1.61500E+01 0.00000E+00
 -1       474 7.79400E+00 1.32000E+01 0.00000E+00
 -1       475 7.79400E+00 1.02500E+01 0.00000E+00
 -1       476 8.39700E+00 7.72300E+00 0.00000E+00
 -1       477 1.06500E+01 4.22060E+01 0.00000E+00
 -1       478 7.92300E+00 4.16780E+01 0.00000E+00
 -1       479 1.36500E+01 4.22060E+01 0.00000E+00
 -1       480 1.66500E+01 4.22060E+01 0.00000E+00
 -1       481 1.96500E+01 4.22060E+01 0.00000E+00
 -1       482 2.26500E+01 4.22060E+01 0.00000E+00
 -1       483 2.56500E+01 4.22060E+01 0.00000E+00
 -1       484 2.86500E+01 4.22060E+01 0.00000E+00
 -1       485 3.16500E+01 4.22060E+01 0.00000E+00
 -1       486 3.46500E+01 4.22060E+01 0.00000E+00
 -1       487 3.76500E+01 4.22060E+01 0.00000E+00
 -1       488 4.06500E+01 4.22060E+01 0.00000E+00
 -1       489 4.36500E+01 4.22060E+01 0.00000E+00
 -1       490 4.66500E+01 4.22060E+01 0.00000E+00
 -1       491 4.96500E+01 4.22060E+01 0.00000E+00
 -1       492 5.26500E+01 4.22060E+01 0.00000E+00
 -1       493 5.56500E+01 4.22060E+01 0.00000E+00
 -1       494 5.86500E+01 4.22060E+01 0.00000E+00
 -1       495 6.16500E+01 4.22060E+01 0.00000E+00
 -1       496 6.46500E+01 4.22060E+01 0.00000E+00
 -1       497 6.76500E+01 4.22060E+01 0.00000E+00
 -1       498 7.06500E+01 4.22060E+01 0.00000E+00
 -1       499 7.36500E+01 4.22060E+01 0.00000E+00
 -1       500 7.66500E+01 4.22060E+01 0.00000E+00
 -1       501 7.96500E+01 4.22060E+01 0.00000E+00
 -1       502 8.26500E+01 4.22060E+01 0.00000E+00
 -1       503 8.56500E+01 4.22060E+01 0.00000E+00
 -1       504 8.86500E+01 4.22060E+01 0.00000E+00
 -1       505 9.16500E+01 4.22060E+01 0.00000E+00
 -1       506 9.46500E+01 4.22060E+01 0.00000E+00
 -1       507 9.76500E+01 4.22060E+01 0.00000E+00
 -1       508 1.00650E+02 4.22060E+01 0.00000E+00
 -1       509 1.03650E+02 4.22060E+01 0.00000E+00
 -1       510 1.06650E+02 4.22060E+01 0.00000E+00
 -1       511 1.09650E+02 4.22060E+01 0.00000E+00
 -1       512 1.12650E+02 4.22060E+01 0.00000E+00
 -1       513 1.15650E+02 4.22060E+01 0.00000E+00
 -1       514 1.18650E+02 4.22060E+01 0.00000E+00
 -1       515 1.21650E+02 4.22060E+01 0.00000E+00
 -1       516 1.24650E+02 4.22060E+01 0.00000E+00
 -1       517 1.27650E+02 4.22060E+01 0.00000E+00
 -1       518 1.30650E+02 4.22060E+01 0.00000E+00
 -1       519 1.33650E+02 4.22060E+01 0.00000E+00
 -1       520 1.36650E+02 4.22060E+01 0.00000E+00
 -1       521 1.39650E+02 4.22060E+01 0.00000E+00
 -1       522 1.42514E+02 4.21737E+01 0.00000E+00
 -1       523 1.65000E+01 7.79400E+00 0.00000E+00
 -1       524 1.30950E+02 6.86608E+00 0.00000E+00
 -1       525 1.95000E+01 7.79400E+00 0.00000E+00
 -1       526 2.25000E+01 7.79400E+00 0.00000E+00
 -1       527 2.55000E+01 7.79400E+00 0.00000E+00
 -1       528 2.85000E+01 7.79400E+00 0.00000E+00
 -1       529 3.15000E+01 7.79400E+00 0.00000E+00
 -1       530 3.45000E+01 7.79400E+00 0.00000E+00
 -1       531 3.73500E+01 7.79400E+00 0.00000E+00
 -1       532 4.03500E+01 7.79400E+00 0.00000E+00
 -1       533 4.33500E+01 7.79400E+00 0.00000E+00
 -1       534 4.63500E+01 7.79400E+00 0.00000E+00
 -1       535 4.93500E+01 7.79400E+00 0.00000E+00
 -1       536 5.23500E+01 7.79400E+00 0.00000E+00
 -1       537 5.53500E+01 7.79400E+00 0.00000E+00
 -1       538 5.83500E+01 7.79400E+00 0.00000E+00
 -1       539 6.13500E+01 7.79400E+00 0.00000E+00
 -1       540 6.43500E+01 7.79400E+00 0.00000E+00
 -1       541 6.73500E+01 7.79400E+00 0.00000E+00
 -1       542 7.03500E+01 7.79400E+00 0.00000E+00
 -1       543 7.33500E+01 7.79400E+00 0.00000E+00
 -1       544 7.62000E+01 7.79400E+00 0.00000E+00
 -1       545 7.92000E+01 7.79400E+00 0.00000E+00
 -1       546 8.22000E+01 7.79400E+00 0.00000E+00
 -1       547 8.52000E+01 7.79400E+00 0.00000E+00
 -1       548 8.82000E+01 7.79400E+00 0.00000E+00
 -1       549 9.12000E+01 7.79400E+00 0.00000E+00
 -1       550 9.42000E+01 7.79400E+00 0.00000E+00
 -1       551 9.72000E+01 7.79400E+00 0.00000E+00
 -1       552 1.00200E+02 7.79400E+00 0.00000E+00
 -1       553 1.03200E+02 7.79400E+00 0.00000E+00
 -1       554 1.05600E+02 7.79400E+00 0.00000E+00
 -1       555 1.33950E+02 6.86608E+00 0.00000E+00
 -1       556 1.44032E+02 6.91460E+00 0.00000E+00
 -1       557 1.42779E+02 1.41913E+01 0.00000E+00
 -1       558 1.42779E+02 1.71413E+01 0.00000E+00
 -1       559 1.42779E+02 1.12413E+01 0.00000E+00
 -1       560 1.42779E+02 2.00913E+01 0.00000E+00
 -1       561 1.42779E+02 2.30413E+01 0.00000E+00
 -1       562 1.42779E+02 2.59913E+01 0.00000E+00
 -1       563 1.42779E+02 2.89413E+01 0.00000E+00
 -1       564 1.42779E+02 3.18413E+01 0.00000E+00
 -1       565 1.42779E+02 3.47913E+01 0.00000E+00
 -1       566 1.42779E+02 3.77413E+01 0.00000E+00
 -1       567 1.42646E+02 3.99575E+01 0.00000E+00
 -1       568 1.07904E+02 1.37619E+01 0.00000E+00
 -1       569 1.08234E+02 9.08075E+00 0.00000E+00
 -1       570 1.20309E+02 2.31455E+01 0.00000E+00
 -1       571 1.08916E+02 6.49916E+00 0.00000E+00
 -1       572 1.39950E+02 7.07868E+00 0.00000E+00
 -1       573 1.36950E+02 7.07868E+00 0.00000E+00
 -1       574 1.13970E+01 7.72300E+00 0.00000E+00
 -1       575 7.79400E+00 2.79000E+01 0.00000E+00
 -1       576 1.39485E+01 7.75850E+00 0.00000E+00
 -1       577 1.08700E+02 1.60276E+01 0.00000E+00
 -1       578 1.30163E+02 1.07596E+01 0.00000E+00
 -1       579 1.29254E+02 1.55860E+01 0.00000E+00
 -1       580 1.07628E+02 1.14900E+01 0.00000E+00
 -1       581 1.27184E+02 1.95429E+01 0.00000E+00
 -1       582 1.09905E+02 1.84786E+01 0.00000E+00
 -1       583 1.11519E+02 1.99427E+01 0.00000E+00
 -1       584 1.13254E+02 2.15787E+01 0.00000E+00
 -1       585 1.15460E+02 2.26589E+01 0.00000E+00
 -1       586 1.17703E+02 2.31907E+01 0.00000E+00
 -1       587 1.22662E+02 2.25422E+01 0.00000E+00
 -1       588 1.28339E+02 1.75538E+01 0.00000E+00
 -1       589 1.29866E+02 8.16118E+00 0.00000E+00
 -1       590 1.28481E+02 5.90325E+00 0.00000E+00
 -1       591 7.79400E+00 3.67375E+01 0.00000E+00
 -1       592 1.43406E+02 9.07797E+00 0.00000E+00
 -1       593 1.30860E+02 1.45805E+01 0.00000E+00
 -1       594 1.26697E+02 2.12831E+01 0.00000E+00
 -1       595 1.24341E+02 2.27172E+01 0.00000E+00
 -1       596 1.03920E+01 2.05500E+01 0.00000E+00
 -1       597 1.03920E+01 2.35000E+01 0.00000E+00
 -1       598 1.03920E+01 1.46750E+01 0.00000E+00
 -1       599 1.03920E+01 1.17250E+01 0.00000E+00
 -1       600 1.08945E+01 9.72400E+00 0.00000E+00
 -1       601 9.78035E+00 3.93914E+01 0.00000E+00
 -1       602 2.40000E+01 1.03920E+01 0.00000E+00
 -1       603 1.51500E+01 3.96080E+01 0.00000E+00
 -1       604 1.81500E+01 3.96080E+01 0.00000E+00
 -1       605 2.11500E+01 3.96080E+01 0.00000E+00
 -1       606 2.41500E+01 3.96080E+01 0.00000E+00
 -1       607 2.71500E+01 3.96080E+01 0.00000E+00
 -1       608 3.01500E+01 3.96080E+01 0.00000E+00
 -1       609 3.31500E+01 3.96080E+01 0.00000E+00
 -1       610 3.61500E+01 3.96080E+01 0.00000E+00
 -1       611 3.91500E+01 3.96080E+01 0.00000E+00
 -1       612 4.21500E+01 3.96080E+01 0.00000E+00
 -1       613 4.51500E+01 3.96080E+01 0.00000E+00
 -1       614 4.81500E+01 3.96080E+01 0.00000E+00
 -1       615 5.11500E+01 3.96080E+01 0.00000E+00
 -1       616 5.41500E+01 3.96080E+01 0.00000E+00
 -1       617 5.71500E+01 3.96080E+01 0.00000E+00
 -1       618 6.01500E+01 3.96080E+01 0.00000E+00
 -1       619 6.31500E+01 3.96080E+01 0.00000E+00
 -1       620 6.61500E+01 3.96080E+01 0.00000E+00
 -1       621 6.91500E+01 3.96080E+01 0.00000E+00
 -1       622 7.21500E+01 3.96080E+01 0.00000E+00
 -1       623 7.51500E+01 3.96080E+01 0.00000E+00
 -1       624 7.81500E+01 3.96080E+01 0.00000E+00
 -1       625 8.11500E+01 3.96080E+01 0.00000E+00
 -1       626 8.41500E+01 3.96080E+01 0.00000E+00
 -1       627 8.71500E+01 3.96080E+01 0.00000E+00
 -1       628 9.01500E+01 3.96080E+01 0.00000E+00
 -1       629 9.31500E+01 3.96080E+01 0.00000E+00
 -1       630 9.61500E+01 3.96080E+01 0.00000E+00
 -1       631 9.91500E+01 3.96080E+01 0.00000E+00
 -1       632 1.02150E+02 3.96080E+01 0.00000E+00
 -1       633 1.05150E+02 3.96080E+01 0.00000E+00
 -1       634 1.08150E+02 3.96080E+01 0.00000E+00
 -1       635 1.11150E+02 3.96080E+01 0.00000E+00
 -1       636 1.14150E+02 3.96080E+01 0.00000E+00
 -1       637 1.17150E+02 3.96080E+01 0.00000E+00
 -1       638 1.20150E+02 3.96080E+01 0.00000E+00
 -1       639 1.23150E+02 3.96080E+01 0.00000E+00
 -1       640 1.26150E+02 3.96080E+01 0.00000E+00
 -1       641 1.29150E+02 3.96080E+01 0.00000E+00
 -1       642 1.32150E+02 3.96080E+01 0.00000E+00
 -1       643 1.35150E+02 3.96080E+01 0.00000E+00
 -1       644 1.38150E+02 3.96080E+01 0.00000E+00
 -1       645 1.40398E+02 3.97828E+01 0.00000E+00
 -1       646 1.31718E+02 9.26534E+00 0.00000E+00
 -1       647 1.80000E+01 1.03920E+01 0.00000E+00
 -1       648 2.70000E+01 1.03920E+01 0.00000E+00
 -1       649 3.00000E+01 1.03920E+01 0.00000E+00
 -1       650 3.30000E+01 1.03920E+01 0.00000E+00
 -1       651 3.58500E+01 1.03920E+01 0.00000E+00
 -1       652 3.88500E+01 1.03920E+01 0.00000E+00
 -1       653 4.18500E+01 1.03920E+01 0.00000E+00
 -1       654 4.48500E+01 1.03920E+01 0.00000E+00
 -1       655 4.78500E+01 1.03920E+01 0.00000E+00
 -1       656 5.08500E+01 1.03920E+01 0.00000E+00
 -1       657 5.38500E+01 1.03920E+01 0.00000E+00
 -1       658 5.68500E+01 1.03920E+01 0.00000E+00
 -1       659 5.98500E+01 1.03920E+01 0.00000E+00
 -1       660 6.28500E+01 1.03920E+01 0.00000E+00
 -1       661 6.58500E+01 1.03920E+01 0.00000E+00
 -1       662 6.88500E+01 1.03920E+01 0.00000E+00
 -1       663 7.18500E+01 1.03920E+01 0.00000E+00
 -1       664 7.47000E+01 1.03920E+01 0.00000E+00
 -1       665 7.77000E+01 1.03920E+01 0.00000E+00
 -1       666 8.07000E+01 1.03920E+01 0.00000E+00
 -1       667 8.37000E+01 1.03920E+01 0.00000E+00
 -1       668 8.67000E+01 1.03920E+01 0.00000E+00
 -1       669 8.97000E+01 1.03920E+01 0.00000E+00
 -1       670 9.27000E+01 1.03920E+01 0.00000E+00
 -1       671 9.57000E+01 1.03920E+01 0.00000E+00
 -1       672 9.87000E+01 1.03920E+01 0.00000E+00
 -1       673 1.01700E+02 1.03920E+01 0.00000E+00
 -1       674 1.04100E+02 1.03920E+01 0.00000E+00
 -1       675 1.40181E+02 2.15663E+01 0.00000E+00
 -1       676 1.24652E+01 3.94997E+01 0.00000E+00
 -1       677 1.06763E+02 1.54357E+01 0.00000E+00
 -1       678 1.40181E+02 1.56663E+01 0.00000E+00
 -1       679 1.40181E+02 1.27163E+01 0.00000E+00
 -1       680 1.40181E+02 1.86163E+01 0.00000E+00
 -1       681 1.40181E+02 2.45163E+01 0.00000E+00
 -1       682 1.40181E+02 2.74663E+01 0.00000E+00
 -1       683 1.40181E+02 3.03663E+01 0.00000E+00
 -1       684 1.40181E+02 3.33163E+01 0.00000E+00
 -1       685 1.40181E+02 3.62663E+01 0.00000E+00
 -1       686 1.35266E+02 9.56388E+00 0.00000E+00
 -1       687 1.31605E+02 1.20352E+01 0.00000E+00
 -1       688 1.03920E+01 1.76125E+01 0.00000E+00
 -1       689 1.38266E+02 9.56388E+00 0.00000E+00
 -1       690 1.07463E+02 1.81578E+01 0.00000E+00
 -1       691 1.19039E+02 2.50505E+01 0.00000E+00
 -1       692 1.03920E+01 3.23250E+01 0.00000E+00
 -1       693 1.21953E+02 2.46676E+01 0.00000E+00
 -1       694 1.29389E+02 1.94938E+01 0.00000E+00
 -1       695 1.09447E+02 2.06047E+01 0.00000E+00
 -1       696 1.11182E+02 2.22408E+01 0.00000E+00
 -1       697 1.13603E+02 2.36591E+01 0.00000E+00
 -1       698 1.06063E+02 1.28329E+01 0.00000E+00
 -1       699 2.10000E+01 1.03920E+01 0.00000E+00
 -1       700 1.16148E+02 2.47567E+01 0.00000E+00
 -1       701 1.30275E+02 1.72579E+01 0.00000E+00
 -1       702 1.05864E+02 1.09410E+01 0.00000E+00
 -1       703 1.34460E+01 9.75950E+00 0.00000E+00
 -1       704 1.03920E+01 2.64500E+01 0.00000E+00
 -1       705 1.03920E+01 2.93875E+01 0.00000E+00
 -1       706 1.03920E+01 3.52625E+01 0.00000E+00
 -1       707 1.40808E+02 1.05530E+01 0.00000E+00
 -1       708 1.32502E+02 1.35761E+01 0.00000E+00
 -1       709 1.31882E+02 1.62524E+01 0.00000E+00
 -1       710 1.28903E+02 2.12339E+01 0.00000E+00
 -1       711 1.26283E+02 2.30597E+01 0.00000E+00
 -1       712 1.23632E+02 2.48426E+01 0.00000E+00
 -1       713 1.57230E+01 1.00758E+01 0.00000E+00
 -1       714 1.29435E+01 1.17605E+01 0.00000E+00
 -1       715 1.13997E+02 2.62444E+01 0.00000E+00
 -1       716 2.85000E+01 1.29900E+01 0.00000E+00
 -1       717 1.36766E+02 1.19493E+01 0.00000E+00
 -1       718 1.95000E+01 1.29900E+01 0.00000E+00
 -1       719 1.96500E+01 3.70100E+01 0.00000E+00
 -1       720 2.26500E+01 3.70100E+01 0.00000E+00
 -1       721 2.56500E+01 3.70100E+01 0.00000E+00
 -1       722 2.86500E+01 3.70100E+01 0.00000E+00
 -1       723 3.16500E+01 3.70100E+01 0.00000E+00
 -1       724 3.46500E+01 3.70100E+01 0.00000E+00
 -1       725 3.76500E+01 3.70100E+01 0.00000E+00
 -1       726 4.06500E+01 3.70100E+01 0.00000E+00
 -1       727 4.36500E+01 3.70100E+01 0.00000E+00
 -1       728 4.66500E+01 3.70100E+01 0.00000E+00
 -1       729 4.96500E+01 3.70100E+01 0.00000E+00
 -1       730 5.26500E+01 3.70100E+01 0.00000E+00
 -1       731 5.56500E+01 3.70100E+01 0.00000E+00
 -1       732 5.86500E+01 3.70100E+01 0.00000E+00
 -1       733 6.16500E+01 3.70100E+01 0.00000E+00
 -1       734 6.46500E+01 3.70100E+01 0.00000E+00
 -1       735 6.76500E+01 3.70100E+01 0.00000E+00
 -1       736 7.06500E+01 3.70100E+01 0.00000E+00
 -1       737 7.36500E+01 3.70100E+01 0.00000E+00
 -1       738 7.66500E+01 3.70100E+01 0.00000E+00
 -1       739 7.96500E+01 3.70100E+01 0.00000E+00
 -1       740 8.26500E+01 3.70100E+01 0.00000E+00
 -1       741 8.56500E+01 3.70100E+01 0.00000E+00
 -1       742 8.86500E+01 3.70100E+01 0.00000E+00
 -1       743 9.16500E+01 3.70100E+01 0.00000E+00
 -1       744 9.46500E+01 3.70100E+01 0.00000E+00
 -1       745 9.76500E+01 3.70100E+01 0.00000E+00
 -1       746 1.00650E+02 3.70100E+01 0.00000E+00
 -1       747 1.03650E+02 3.70100E+01 0.00000E+00
 -1       748 1.06650E+02 3.70100E+01 0.00000E+00
 -1       749 1.09650E+02 3.70100E+01 0.00000E+00
 -1       750 1.12650E+02 3.70100E+01 0.00000E+00
 -1       751 1.15650E+02 3.70100E+01 0.00000E+00
 -1       752 1.18650E+02 3.70100E+01 0.00000E+00
 -1       753 1.21650E+02 3.70100E+01 0.00000E+00
 -1       754 1.24650E+02 3.70100E+01 0.00000E+00
 -1       755 1.27650E+02 3.70100E+01 0.00000E+00
 -1       756 1.30650E+02 3.70100E+01 0.00000E+00
 -1       757 1.33650E+02 3.70100E+01 0.00000E+00
 -1       758 1.36650E+02 3.70100E+01 0.00000E+00
 -1       759 3.15000E+01 1.29900E+01 0.00000E+00
 -1       760 1.04299E+02 1.22839E+01 0.00000E+00
 -1       761 2.55000E+01 1.29900E+01 0.00000E+00
 -1       762 3.43500E+01 1.29900E+01 0.00000E+00
 -1       763 3.73500E+01 1.29900E+01 0.00000E+00
 -1       764 4.03500E+01 1.29900E+01 0.00000E+00
 -1       765 4.33500E+01 1.29900E+01 0.00000E+00
 -1       766 4.63500E+01 1.29900E+01 0.00000E+00
 -1       767 4.93500E+01 1.29900E+01 0.00000E+00
 -1       768 5.23500E+01 1.29900E+01 0.00000E+00
 -1       769 5.53500E+01 1.29900E+01 0.00000E+00
 -1       770 5.83500E+01 1.29900E+01 0.00000E+00
 -1       771 6.13500E+01 1.29900E+01 0.00000E+00
 -1       772 6.43500E+01 1.29900E+01 0.00000E+00
 -1       773 6.73500E+01 1.29900E+01 0.00000E+00
 -1       774 7.03500E+01 1.29900E+01 0.00000E+00
 -1       775 7.32000E+01 1.29900E+01 0.00000E+00
 -1       776 7.62000E+01 1.29900E+01 0.00000E+00
 -1       777 7.92000E+01 1.29900E+01 0.00000E+00
 -1       778 8.22000E+01 1.29900E+01 0.00000E+00
 -1       779 8.52000E+01 1.29900E+01 0.00000E+00
 -1       780 8.82000E+01 1.29900E+01 0.00000E+00
 -1       781 9.12000E+01 1.29900E+01 0.00000E+00
 -1       782 9.42000E+01 1.29900E+01 0.00000E+00
 -1       783 9.72000E+01 1.29900E+01 0.00000E+00
 -1       784 1.00200E+02 1.29900E+01 0.00000E+00
 -1       785 1.02250E+02 1.26370E+01 0.00000E+00
 -1       786 1.37583E+02 2.30413E+01 0.00000E+00
 -1       787 1.37583E+02 2.59913E+01 0.00000E+00
 -1       788 1.34185E+02 1.19922E+01 0.00000E+00
 -1       789 1.37583E+02 2.00913E+01 0.00000E+00
 -1       790 1.37583E+02 2.88913E+01 0.00000E+00
 -1       791 1.37583E+02 3.18413E+01 0.00000E+00
 -1       792 1.05290E+02 1.72656E+01 0.00000E+00
 -1       793 1.20741E+02 2.67257E+01 0.00000E+00
 -1       794 2.25000E+01 1.29900E+01 0.00000E+00
 -1       795 1.31894E+02 1.91931E+01 0.00000E+00
 -1       796 1.37628E+02 1.41913E+01 0.00000E+00
 -1       797 1.66500E+01 3.70100E+01 0.00000E+00
 -1       798 1.29900E+01 2.20250E+01 0.00000E+00
 -1       799 1.37606E+02 1.71413E+01 0.00000E+00
 -1       800 1.04795E+02 1.47747E+01 0.00000E+00
 -1       801 1.11271E+02 2.48634E+01 0.00000E+00
 -1       802 1.17386E+02 2.69433E+01 0.00000E+00
 -1       803 1.08908E+02 2.29147E+01 0.00000E+00
 -1       804 1.06732E+02 2.07779E+01 0.00000E+00
 -1       805 1.29900E+01 2.49750E+01 0.00000E+00
 -1       806 1.65001E+01 1.29900E+01 0.00000E+00
 -1       807 1.39652E+01 3.69017E+01 0.00000E+00
 -1       808 1.29900E+01 3.37938E+01 0.00000E+00
 -1       809 1.22420E+02 2.69007E+01 0.00000E+00
 -1       810 1.04559E+02 1.98857E+01 0.00000E+00
 -1       811 1.37583E+02 3.47913E+01 0.00000E+00
 -1       812 1.31408E+02 2.09333E+01 0.00000E+00
 -1       813 1.28489E+02 2.30106E+01 0.00000E+00
 -1       814 1.25574E+02 2.51850E+01 0.00000E+00
 -1       815 1.29900E+01 1.90875E+01 0.00000E+00
 -1       816 1.29900E+01 3.08563E+01 0.00000E+00
 -1       817 1.29900E+01 1.61500E+01 0.00000E+00
 -1       818 1.29900E+01 2.79188E+01 0.00000E+00
 -1       819 1.34985E+02 2.74413E+01 0.00000E+00
 -1       820 1.80001E+01 1.55880E+01 0.00000E+00
 -1       821 3.29250E+01 1.55880E+01 0.00000E+00
 -1       822 2.41500E+01 3.44120E+01 0.00000E+00
 -1       823 2.71500E+01 3.44120E+01 0.00000E+00
 -1       824 3.01500E+01 3.44120E+01 0.00000E+00
 -1       825 3.31500E+01 3.44120E+01 0.00000E+00
 -1       826 3.61500E+01 3.44120E+01 0.00000E+00
 -1       827 3.91500E+01 3.44120E+01 0.00000E+00
 -1       828 4.21500E+01 3.44120E+01 0.00000E+00
 -1       829 4.51500E+01 3.44120E+01 0.00000E+00
 -1       830 4.81500E+01 3.44120E+01 0.00000E+00
 -1       831 5.11500E+01 3.44120E+01 0.00000E+00
 -1       832 5.41500E+01 3.44120E+01 0.00000E+00
 -1       833 5.71500E+01 3.44120E+01 0.00000E+00
 -1       834 6.01500E+01 3.44120E+01 0.00000E+00
 -1       835 6.31500E+01 3.44120E+01 0.00000E+00
 -1       836 6.61500E+01 3.44120E+01 0.00000E+00
 -1       837 6.91500E+01 3.44120E+01 0.00000E+00
 -1       838 7.21500E+01 3.44120E+01 0.00000E+00
 -1       839 7.51500E+01 3.44120E+01 0.00000E+00
 -1       840 7.81500E+01 3.44120E+01 0.00000E+00
 -1       841 8.11500E+01 3.44120E+01 0.00000E+00
 -1       842 8.41500E+01 3.44120E+01 0.00000E+00
 -1       843 8.71500E+01 3.44120E+01 0.00000E+00
 -1       844 9.01500E+01 3.44120E+01 0.00000E+00
 -1       845 9.31500E+01 3.44120E+01 0.00000E+00
 -1       846 9.61500E+01 3.44120E+01 0.00000E+00
 -1       847 9.91500E+01 3.44120E+01 0.00000E+00
 -1       848 1.02150E+02 3.44120E+01 0.00000E+00
 -1       849 1.05150E+02 3.44120E+01 0.00000E+00
 -1       850 1.08150E+02 3.44120E+01 0.00000E+00
 -1       851 1.11150E+02 3.44120E+01 0.00000E+00
 -1       852 1.14150E+02 3.44120E+01 0.00000E+00
 -1       853 1.17150E+02 3.44120E+01 0.00000E+00
 -1       854 1.20150E+02 3.44120E+01 0.00000E+00
 -1       855 1.23150E+02 3.44120E+01 0.00000E+00
 -1       856 1.26150E+02 3.44120E+01 0.00000E+00
 -1       857 1.29150E+02 3.44120E+01 0.00000E+00
 -1       858 1.32150E+02 3.44120E+01 0.00000E+00
 -1       859 1.34867E+02 3.46017E+01 0.00000E+00
 -1       860 3.59250E+01 1.55880E+01 0.00000E+00
 -1       861 2.70000E+01 1.55880E+01 0.00000E+00
 -1       862 3.89250E+01 1.55880E+01 0.00000E+00
 -1       863 4.19250E+01 1.55880E+01 0.00000E+00
 -1       864 4.49250E+01 1.55880E+01 0.00000E+00
 -1       865 4.79250E+01 1.55880E+01 0.00000E+00
 -1       866 5.09250E+01 1.55880E+01 0.00000E+00
 -1       867 5.39250E+01 1.55880E+01 0.00000E+00
 -1       868 5.69250E+01 1.55880E+01 0.00000E+00
 -1       869 5.99250E+01 1.55880E+01 0.00000E+00
 -1       870 6.29250E+01 1.55880E+01 0.00000E+00
 -1       871 6.59250E+01 1.55880E+01 0.00000E+00
 -1       872 6.89250E+01 1.55880E+01 0.00000E+00
 -1       873 7.17750E+01 1.55880E+01 0.00000E+00
 -1       874 7.47750E+01 1.55880E+01 0.00000E+00
 -1       875 7.77750E+01 1.55880E+01 0.00000E+00
 -1       876 8.07750E+01 1.55880E+01 0.00000E+00
 -1       877 8.37750E+01 1.55880E+01 0.00000E+00
 -1       878 8.67750E+01 1.55880E+01 0.00000E+00
 -1       879 8.97750E+01 1.55880E+01 0.00000E+00
 -1       880 9.27750E+01 1.55880E+01 0.00000E+00
 -1       881 9.57750E+01 1.55880E+01 0.00000E+00
 -1       882 9.87750E+01 1.55880E+01 0.00000E+00
 -1       883 1.34985E+02 3.03913E+01 0.00000E+00
 -1       884 1.34985E+02 2.44913E+01 0.00000E+00
 -1       885 2.40000E+01 1.55880E+01 0.00000E+00
 -1       886 1.35047E+02 1.42343E+01 0.00000E+00
 -1       887 1.19218E+02 2.92149E+01 0.00000E+00
 -1       888 1.81500E+01 3.44120E+01 0.00000E+00
 -1       889 1.11480E+02 2.78312E+01 0.00000E+00
 -1       890 1.34985E+02 2.15413E+01 0.00000E+00
 -1       891 2.11500E+01 3.44120E+01 0.00000E+00
 -1       892 2.10000E+01 1.55880E+01 0.00000E+00
 -1       893 1.34189E+02 1.53772E+01 0.00000E+00
 -1       894 1.06149E+02 2.35484E+01 0.00000E+00
 -1       895 1.08679E+02 2.56001E+01 0.00000E+00
 -1       896 1.34202E+02 1.83180E+01 0.00000E+00
 -1       897 2.99625E+01 1.55880E+01 0.00000E+00
 -1       898 1.15243E+02 2.87660E+01 0.00000E+00
 -1       899 1.56748E+01 3.39021E+01 0.00000E+00
 -1       900 1.02745E+02 1.51278E+01 0.00000E+00
 -1       901 1.55880E+01 2.35000E+01 0.00000E+00
 -1       902 1.24362E+02 2.72431E+01 0.00000E+00
 -1       903 1.00760E+02 1.53579E+01 0.00000E+00
 -1       904 1.20897E+02 2.93899E+01 0.00000E+00
 -1       905 1.03976E+02 2.26562E+01 0.00000E+00
 -1       906 1.33715E+02 2.00581E+01 0.00000E+00
 -1       907 1.30993E+02 2.27099E+01 0.00000E+00
 -1       908 1.27780E+02 2.51359E+01 0.00000E+00
 -1       909 1.55880E+01 2.05625E+01 0.00000E+00
 -1       910 1.03240E+02 1.76186E+01 0.00000E+00
 -1       911 1.56748E+01 3.09646E+01 0.00000E+00
 -1       912 2.26500E+01 3.18140E+01 0.00000E+00
 -1       913 1.12736E+02 3.08200E+01 0.00000E+00
 -1       914 3.44250E+01 1.81860E+01 0.00000E+00
 -1       915 1.08489E+02 2.87127E+01 0.00000E+00
 -1       916 1.55880E+01 2.64438E+01 0.00000E+00
 -1       917 2.86500E+01 3.18140E+01 0.00000E+00
 -1       918 3.16500E+01 3.18140E+01 0.00000E+00
 -1       919 3.46500E+01 3.18140E+01 0.00000E+00
 -1       920 3.76500E+01 3.18140E+01 0.00000E+00
 -1       921 4.06500E+01 3.18140E+01 0.00000E+00
 -1       922 4.36500E+01 3.18140E+01 0.00000E+00
 -1       923 4.66500E+01 3.18140E+01 0.00000E+00
 -1       924 4.96500E+01 3.18140E+01 0.00000E+00
 -1       925 5.26500E+01 3.18140E+01 0.00000E+00
 -1       926 5.56500E+01 3.18140E+01 0.00000E+00
 -1       927 5.86500E+01 3.18140E+01 0.00000E+00
 -1       928 6.16500E+01 3.18140E+01 0.00000E+00
 -1       929 6.46500E+01 3.18140E+01 0.00000E+00
 -1       930 6.76500E+01 3.18140E+01 0.00000E+00
 -1       931 7.06500E+01 3.18140E+01 0.00000E+00
 -1       932 7.36500E+01 3.18140E+01 0.00000E+00
 -1       933 7.66500E+01 3.18140E+01 0.00000E+00
 -1       934 7.96500E+01 3.18140E+01 0.00000E+00
 -1       935 8.26500E+01 3.18140E+01 0.00000E+00
 -1       936 8.56500E+01 3.18140E+01 0.00000E+00
 -1       937 8.86500E+01 3.18140E+01 0.00000E+00
 -1       938 9.16500E+01 3.18140E+01 0.00000E+00
 -1       939 9.46500E+01 3.18140E+01 0.00000E+00
 -1       940 9.76500E+01 3.18140E+01 0.00000E+00
 -1       941 1.00650E+02 3.18140E+01 0.00000E+00
 -1       942 1.03650E+02 3.18140E+01 0.00000E+00
 -1       943 1.06650E+02 3.18140E+01 0.00000E+00
 -1       944 1.09650E+02 3.18140E+01 0.00000E+00
 -1       945 1.18650E+02 3.18140E+01 0.00000E+00
 -1       946 1.27650E+02 3.18140E+01 0.00000E+00
 -1       947 1.30650E+02 3.18140E+01 0.00000E+00
 -1       948 1.32818E+02 3.11027E+01 0.00000E+00
 -1       949 4.34250E+01 1.81860E+01 0.00000E+00
 -1       950 3.74250E+01 1.81860E+01 0.00000E+00
 -1       951 4.64250E+01 1.81860E+01 0.00000E+00
 -1       952 4.94250E+01 1.81860E+01 0.00000E+00
 -1       953 5.24250E+01 1.81860E+01 0.00000E+00
 -1       954 5.54250E+01 1.81860E+01 0.00000E+00
 -1       955 5.84250E+01 1.81860E+01 0.00000E+00
 -1       956 6.14250E+01 1.81860E+01 0.00000E+00
 -1       957 6.44250E+01 1.81860E+01 0.00000E+00
 -1       958 6.74250E+01 1.81860E+01 0.00000E+00
 -1       959 7.02750E+01 1.81860E+01 0.00000E+00
 -1       960 7.32750E+01 1.81860E+01 0.00000E+00
 -1       961 7.62750E+01 1.81860E+01 0.00000E+00
 -1       962 7.92750E+01 1.81860E+01 0.00000E+00
 -1       963 8.22750E+01 1.81860E+01 0.00000E+00
 -1       964 8.52750E+01 1.81860E+01 0.00000E+00
 -1       965 8.82750E+01 1.81860E+01 0.00000E+00
 -1       966 9.12750E+01 1.81860E+01 0.00000E+00
 -1       967 9.42750E+01 1.81860E+01 0.00000E+00
 -1       968 9.72750E+01 1.81860E+01 0.00000E+00
 -1       969 1.32818E+02 2.81527E+01 0.00000E+00
 -1       970 1.55880E+01 1.76187E+01 0.00000E+00
 -1       971 1.32818E+02 2.52027E+01 0.00000E+00
 -1       972 2.55000E+01 1.81860E+01 0.00000E+00
 -1       973 4.04250E+01 1.81860E+01 0.00000E+00
 -1       974 2.56500E+01 3.18140E+01 0.00000E+00
 -1       975 1.81500E+01 3.14745E+01 0.00000E+00
 -1       976 1.56314E+01 2.87042E+01 0.00000E+00
 -1       977 1.01654E+02 2.00584E+01 0.00000E+00
 -1       978 1.05777E+02 2.65920E+01 0.00000E+00
 -1       979 2.04000E+01 3.16443E+01 0.00000E+00
 -1       980 1.84673E+01 1.85908E+01 0.00000E+00
 -1       981 1.81860E+01 2.20313E+01 0.00000E+00
 -1       982 3.14625E+01 1.81860E+01 0.00000E+00
 -1       983 1.01207E+02 1.77082E+01 0.00000E+00
 -1       984 1.26568E+02 2.71940E+01 0.00000E+00
 -1       985 1.15650E+02 3.18140E+01 0.00000E+00
 -1       986 1.24353E+02 3.08559E+01 0.00000E+00
 -1       987 2.25000E+01 1.81860E+01 0.00000E+00
 -1       988 2.84625E+01 1.81860E+01 0.00000E+00
 -1       989 1.32387E+02 2.30163E+01 0.00000E+00
 -1       990 1.03604E+02 2.56999E+01 0.00000E+00
 -1       991 9.92409E+01 1.79471E+01 0.00000E+00
 -1       992 1.30284E+02 2.48352E+01 0.00000E+00
 -1       993 1.81860E+01 2.49750E+01 0.00000E+00
 -1       994 2.71500E+01 2.92160E+01 0.00000E+00
 -1       995 3.31500E+01 2.92160E+01 0.00000E+00
 -1       996 3.61500E+01 2.92160E+01 0.00000E+00
 -1       997 3.91500E+01 2.92160E+01 0.00000E+00
 -1       998 4.21500E+01 2.92160E+01 0.00000E+00
 -1       999 4.51500E+01 2.92160E+01 0.00000E+00
 -1      1000 4.81500E+01 2.92160E+01 0.00000E+00
 -1      1001 5.11500E+01 2.92160E+01 0.00000E+00
 -1      1002 5.41500E+01 2.92160E+01 0.00000E+00
 -1      1003 5.71500E+01 2.92160E+01 0.00000E+00
 -1      1004 6.01500E+01 2.92160E+01 0.00000E+00
 -1      1005 6.31500E+01 2.92160E+01 0.00000E+00
 -1      1006 6.61500E+01 2.92160E+01 0.00000E+00
 -1      1007 6.91500E+01 2.92160E+01 0.00000E+00
 -1      1008 7.21500E+01 2.92160E+01 0.00000E+00
 -1      1009 7.51500E+01 2.92160E+01 0.00000E+00
 -1      1010 7.81500E+01 2.92160E+01 0.00000E+00
 -1      1011 8.11500E+01 2.92160E+01 0.00000E+00
 -1      1012 8.41500E+01 2.92160E+01 0.00000E+00
 -1      1013 8.71500E+01 2.92160E+01 0.00000E+00
 -1      1014 9.01500E+01 2.92160E+01 0.00000E+00
 -1      1015 9.31500E+01 2.92160E+01 0.00000E+00
 -1      1016 9.61500E+01 2.92160E+01 0.00000E+00
 -1      1017 9.91500E+01 2.92160E+01 0.00000E+00
 -1      1018 1.02150E+02 2.92160E+01 0.00000E+00
 -1      1019 2.09160E+01 2.05227E+01 0.00000E+00
 -1      1020 1.30650E+02 2.88640E+01 0.00000E+00
 -1      1021 3.59250E+01 2.07840E+01 0.00000E+00
 -1      1022 5.09250E+01 2.07840E+01 0.00000E+00
 -1      1023 5.39250E+01 2.07840E+01 0.00000E+00
 -1      1024 5.69250E+01 2.07840E+01 0.00000E+00
 -1      1025 5.99250E+01 2.07840E+01 0.00000E+00
 -1      1026 6.29250E+01 2.07840E+01 0.00000E+00
 -1      1027 6.59250E+01 2.07840E+01 0.00000E+00
 -1      1028 6.87750E+01 2.07840E+01 0.00000E+00
 -1      1029 7.17750E+01 2.07840E+01 0.00000E+00
 -1      1030 7.47750E+01 2.07840E+01 0.00000E+00
 -1      1031 7.77750E+01 2.07840E+01 0.00000E+00
 -1      1032 8.07750E+01 2.07840E+01 0.00000E+00
 -1      1033 8.37750E+01 2.07840E+01 0.00000E+00
 -1      1034 8.67750E+01 2.07840E+01 0.00000E+00
 -1      1035 8.97750E+01 2.07840E+01 0.00000E+00
 -1      1036 9.27750E+01 2.07840E+01 0.00000E+00
 -1      1037 9.57750E+01 2.07840E+01 0.00000E+00
 -1      1038 4.79250E+01 2.07840E+01 0.00000E+00
 -1      1039 2.41500E+01 2.92160E+01 0.00000E+00
 -1      1040 1.81066E+01 2.92141E+01 0.00000E+00
 -1      1041 1.00911E+02 2.30587E+01 0.00000E+00
 -1      1042 3.01500E+01 2.92160E+01 0.00000E+00
 -1      1043 1.04714E+02 2.92030E+01 0.00000E+00
 -1      1044 4.49250E+01 2.07840E+01 0.00000E+00
 -1      1045 9.96878E+01 2.02974E+01 0.00000E+00
 -1      1046 1.29073E+02 2.68933E+01 0.00000E+00
 -1      1047 4.19250E+01 2.07840E+01 0.00000E+00
 -1      1048 2.39160E+01 2.05227E+01 0.00000E+00
 -1      1049 3.89250E+01 2.07840E+01 0.00000E+00
 -1      1050 3.29625E+01 2.07840E+01 0.00000E+00
 -1      1051 1.30219E+02 2.66777E+01 0.00000E+00
 -1      1052 2.09160E+01 2.34665E+01 0.00000E+00
 -1      1053 2.19000E+01 2.90462E+01 0.00000E+00
 -1      1054 2.00033E+01 2.91302E+01 0.00000E+00
 -1      1055 1.81463E+01 2.70945E+01 0.00000E+00
 -1      1056 9.77314E+01 2.05407E+01 0.00000E+00
 -1      1057 2.68785E+01 2.05227E+01 0.00000E+00
 -1      1058 3.76500E+01 2.66180E+01 0.00000E+00
 -1      1059 4.06500E+01 2.66180E+01 0.00000E+00
 -1      1060 4.36500E+01 2.66180E+01 0.00000E+00
 -1      1061 4.66500E+01 2.66180E+01 0.00000E+00
 -1      1062 4.96500E+01 2.66180E+01 0.00000E+00
 -1      1063 5.26500E+01 2.66180E+01 0.00000E+00
 -1      1064 5.56500E+01 2.66180E+01 0.00000E+00
 -1      1065 5.86500E+01 2.66180E+01 0.00000E+00
 -1      1066 6.16500E+01 2.66180E+01 0.00000E+00
 -1      1067 6.46500E+01 2.66180E+01 0.00000E+00
 -1      1068 6.76500E+01 2.66180E+01 0.00000E+00
 -1      1069 7.06500E+01 2.66180E+01 0.00000E+00
 -1      1070 7.36500E+01 2.66180E+01 0.00000E+00
 -1      1071 7.66500E+01 2.66180E+01 0.00000E+00
 -1      1072 7.96500E+01 2.66180E+01 0.00000E+00
 -1      1073 8.26500E+01 2.66180E+01 0.00000E+00
 -1      1074 8.56500E+01 2.66180E+01 0.00000E+00
 -1      1075 8.86500E+01 2.66180E+01 0.00000E+00
 -1      1076 9.16500E+01 2.66180E+01 0.00000E+00
 -1      1077 9.46500E+01 2.66180E+01 0.00000E+00
 -1      1078 9.76500E+01 2.66180E+01 0.00000E+00
 -1      1079 5.84250E+01 2.33820E+01 0.00000E+00
 -1      1080 5.54250E+01 2.33820E+01 0.00000E+00
 -1      1081 9.89548E+01 2.33020E+01 0.00000E+00
 -1      1082 2.56500E+01 2.66180E+01 0.00000E+00
 -1      1083 5.24250E+01 2.33820E+01 0.00000E+00
 -1      1084 2.86500E+01 2.66180E+01 0.00000E+00
 -1      1085 6.14250E+01 2.33820E+01 0.00000E+00
 -1      1086 6.44250E+01 2.33820E+01 0.00000E+00
 -1      1087 6.72750E+01 2.33820E+01 0.00000E+00
 -1      1088 7.02750E+01 2.33820E+01 0.00000E+00
 -1      1089 7.32750E+01 2.33820E+01 0.00000E+00
 -1      1090 7.62750E+01 2.33820E+01 0.00000E+00
 -1      1091 7.92750E+01 2.33820E+01 0.00000E+00
 -1      1092 8.22750E+01 2.33820E+01 0.00000E+00
 -1      1093 8.52750E+01 2.33820E+01 0.00000E+00
 -1      1094 8.82750E+01 2.33820E+01 0.00000E+00
 -1      1095 9.12750E+01 2.33820E+01 0.00000E+00
 -1      1096 9.42750E+01 2.33820E+01 0.00000E+00
 -1      1097 4.94250E+01 2.33820E+01 0.00000E+00
 -1      1098 2.99625E+01 2.07840E+01 0.00000E+00
 -1      1099 3.16500E+01 2.66180E+01 0.00000E+00
 -1      1100 4.64250E+01 2.33820E+01 0.00000E+00
 -1      1101 1.00552E+02 2.62590E+01 0.00000E+00
 -1      1102 3.46500E+01 2.66180E+01 0.00000E+00
 -1      1103 4.34250E+01 2.33820E+01 0.00000E+00
 -1      1104 2.34000E+01 2.64482E+01 0.00000E+00
 -1      1105 3.44437E+01 2.33820E+01 0.00000E+00
 -1      1106 9.62314E+01 2.31387E+01 0.00000E+00
 -1      1107 2.53972E+01 2.31207E+01 0.00000E+00
 -1      1108 2.08763E+01 2.55860E+01 0.00000E+00
 -1      1109 3.74437E+01 2.33820E+01 0.00000E+00
 -1      1110 2.84813E+01 2.33820E+01 0.00000E+00
 -1      1111 3.14625E+01 2.33820E+01 0.00000E+00
 -1      1112 4.04344E+01 2.33820E+01 0.00000E+00
 -1      1113 0.00000E+00 4.85250E+01 0.00000E+00
 -1      1114 0.00000E+00 4.55750E+01 0.00000E+00
 -1      1115 0.00000E+00 4.26250E+01 0.00000E+00
 -1      1116 0.00000E+00 3.96750E+01 0.00000E+00
 -1      1117 0.00000E+00 3.67250E+01 0.00000E+00
 -1      1118 0.00000E+00 3.38000E+01 0.00000E+00
 -1      1119 0.00000E+00 3.08750E+01 0.00000E+00
 -1      1120 0.00000E+00 2.79250E+01 0.00000E+00
 -1      1121 0.00000E+00 2.49750E+01 0.00000E+00
 -1      1122 0.00000E+00 2.20250E+01 0.00000E+00
 -1      1123 0.00000E+00 1.90750E+01 0.00000E+00
 -1      1124 0.00000E+00 1.61500E+01 0.00000E+00
 -1      1125 0.00000E+00 1.32250E+01 0.00000E+00
 -1      1126 0.00000E+00 1.02750E+01 0.00000E+00
 -1      1127 0.00000E+00 7.32500E+00 0.00000E+00
 -1      1128 0.00000E+00 4.37500E+00 0.00000E+00
 -1      1129 0.00000E+00 1.45000E+00 0.00000E+00
 -1      1130 1.57500E+00 5.00000E+01 0.00000E+00
 -1      1131 4.65000E+00 5.00000E+01 0.00000E+00
 -1      1132 7.65000E+00 5.00000E+01 0.00000E+00
 -1      1133 1.06500E+01 5.00000E+01 0.00000E+00
 -1      1134 1.36500E+01 5.00000E+01 0.00000E+00
 -1      1135 1.66500E+01 5.00000E+01 0.00000E+00
 -1      1136 1.96500E+01 5.00000E+01 0.00000E+00
 -1      1137 2.26500E+01 5.00000E+01 0.00000E+00
 -1      1138 2.56500E+01 5.00000E+01 0.00000E+00
 -1      1139 2.86500E+01 5.00000E+01 0.00000E+00
 -1      1140 3.16500E+01 5.00000E+01 0.00000E+00
 -1      1141 3.46500E+01 5.00000E+01 0.00000E+00
 -1      1142 3.76500E+01 5.00000E+01 0.00000E+00
 -1      1143 4.06500E+01 5.00000E+01 0.00000E+00
 -1      1144 4.36500E+01 5.00000E+01 0.00000E+00
 -1      1145 4.66500E+01 5.00000E+01 0.00000E+00
 -1      1146 4.96500E+01 5.00000E+01 0.00000E+00
 -1      1147 5.26500E+01 5.00000E+01 0.00000E+00
 -1      1148 5.56500E+01 5.00000E+01 0.00000E+00
 -1      1149 5.86500E+01 5.00000E+01 0.00000E+00
 -1      1150 6.16500E+01 5.00000E+01 0.00000E+00
 -1      1151 6.46500E+01 5.00000E+01 0.00000E+00
 -1      1152 6.76500E+01 5.00000E+01 0.00000E+00
 -1      1153 7.06500E+01 5.00000E+01 0.00000E+00
 -1      1154 7.36500E+01 5.00000E+01 0.00000E+00
 -1      1155 7.66500E+01 5.00000E+01 0.00000E+00
 -1      1156 7.96500E+01 5.00000E+01 0.00000E+00
 -1      1157 8.26500E+01 5.00000E+01 0.00000E+00
 -1      1158 8.56500E+01 5.00000E+01 0.00000E+00
 -1      1159 8.86500E+01 5.00000E+01 0.00000E+00
 -1      1160 9.16500E+01 5.00000E+01 0.00000E+00
 -1      1161 9.46500E+01 5.00000E+01 0.00000E+00
 -1      1162 9.76500E+01 5.00000E+01 0.00000E+00
 -1      1163 1.00650E+02 5.00000E+01 0.00000E+00
 -1      1164 1.03650E+02 5.00000E+01 0.00000E+00
 -1      1165 1.06650E+02 5.00000E+01 0.00000E+00
 -1      1166 1.09650E+02 5.00000E+01 0.00000E+00
 -1      1167 1.12650E+02 5.00000E+01 0.00000E+00
 -1      1168 1.15650E+02 5.00000E+01 0.00000E+00
 -1      1169 1.18650E+02 5.00000E+01 0.00000E+00
 -1      1170 1.21650E+02 5.00000E+01 0.00000E+00
 -1      1171 1.24650E+02 5.00000E+01 0.00000E+00
 -1      1172 1.27650E+02 5.00000E+01 0.00000E+00
 -1      1173 1.30650E+02 5.00000E+01 0.00000E+00
 -1      1174 1.33650E+02 5.00000E+01 0.00000E+00
 -1      1175 1.36650E+02 5.00000E+01 0.00000E+00
 -1      1176 1.39650E+02 5.00000E+01 0.00000E+00
 -1      1177 1.42650E+02 5.00000E+01 0.00000E+00
 -1      1178 1.45650E+02 5.00000E+01 0.00000E+00
 -1      1179 1.48575E+02 5.00000E+01 0.00000E+00
 -1      1180 1.50000E+00 0.00000E+00 0.00000E+00
 -1      1181 4.50000E+00 0.00000E+00 0.00000E+00
 -1      1182 7.50000E+00 0.00000E+00 0.00000E+00
 -1      1183 1.05000E+01 0.00000E+00 0.00000E+00
 -1      1184 1.35000E+01 0.00000E+00 0.00000E+00
 -1      1185 1.65000E+01 0.00000E+00 0.00000E+00
 -1      1186 1.95000E+01 0.00000E+00 0.00000E+00
 -1      1187 2.25000E+01 0.00000E+00 0.00000E+00
 -1      1188 2.55000E+01 0.00000E+00 0.00000E+00
 -1      1189 2.85000E+01 0.00000E+00 0.00000E+00
 -1      1190 3.15000E+01 0.00000E+00 0.00000E+00
 -1      1191 3.45000E+01 0.00000E+00 0.00000E+00
 -1      1192 3.75000E+01 0.00000E+00 0.00000E+00
 -1      1193 4.04250E+01 0.00000E+00 0.00000E+00
 -1      1194 4.33500E+01 0.00000E+00 0.00000E+00
 -1      1195 4.63500E+01 0.00000E+00 0.00000E+00
 -1      1196 4.93500E+01 0.00000E+00 0.00000E+00
 -1      1197 5.23500E+01 0.00000E+00 0.00000E+00
 -1      1198 5.53500E+01 0.00000E+00 0.00000E+00
 -1      1199 5.83500E+01 0.00000E+00 0.00000E+00
 -1      1200 6.13500E+01 0.00000E+00 0.00000E+00
 -1      1201 6.43500E+01 0.00000E+00 0.00000E+00
 -1      1202 6.73500E+01 0.00000E+00 0.00000E+00
 -1      1203 7.03500E+01 0.00000E+00 0.00000E+00
 -1      1204 7.33500E+01 0.00000E+00 0.00000E+00
 -1      1205 7.63500E+01 0.00000E+00 0.00000E+00
 -1      1206 7.92750E+01 0.00000E+00 0.00000E+00
 -1      1207 8.22000E+01 0.00000E+00 0.00000E+00
 -1      1208 8.52000E+01 0.00000E+00 0.00000E+00
 -1      1209 8.82000E+01 0.00000E+00 0.00000E+00
 -1      1210 9.12000E+01 0.00000E+00 0.00000E+00
 -1      1211 9.42000E+01 0.00000E+00 0.00000E+00
 -1      1212 9.72000E+01 0.00000E+00 0.00000E+00
 -1      1213 1.00200E+02 0.00000E+00 0.00000E+00
 -1      1214 1.03200E+02 0.00000E+00 0.00000E+00
 -1      1215 1.06200E+02 0.00000E+00 0.00000E+00
 -1      1216 1.08900E+02 0.00000E+00 0.00000E+00
 -1      1217 1.11375E+02 0.00000E+00 0.00000E+00
 -1      1218 1.14000E+02 0.00000E+00 0.00000E+00
 -1      1219 1.16400E+02 0.00000E+00 0.00000E+00
 -1      1220 1.18500E+02 0.00000E+00 0.00000E+00
 -1      1221 1.20750E+02 0.00000E+00 0.00000E+00
 -1      1222 1.23150E+02 0.00000E+00 0.00000E+00
 -1      1223 1.25475E+02 0.00000E+00 0.00000E+00
 -1      1224 1.27875E+02 0.00000E+00 0.00000E+00
 -1      1225 1.30650E+02 0.00000E+00 0.00000E+00
 -1      1226 1.33650E+02 0.00000E+00 0.00000E+00
 -1      1227 1.36650E+02 0.00000E+00 0.00000E+00
 -1      1228 1.39650E+02 0.00000E+00 0.00000E+00
 -1      1229 1.42650E+02 0.00000E+00 0.00000E+00
 -1      1230 1.45650E+02 0.00000E+00 0.00000E+00
 -1      1231 1.48575E+02 0.00000E+00 0.00000E+00
 -1      1232 1.50000E+02 1.47500E+00 0.00000E+00
 -1      1233 1.50000E+02 4.42500E+00 0.00000E+00
 -1      1234 1.50000E+02 7.37500E+00 0.00000E+00
 -1      1235 1.50000E+02 1.03250E+01 0.00000E+00
 -1      1236 1.50000E+02 1.32750E+01 0.00000E+00
 -1      1237 1.50000E+02 1.62000E+01 0.00000E+00
 -1      1238 1.50000E+02 1.91250E+01 0.00000E+00
 -1      1239 1.50000E+02 2.20750E+01 0.00000E+00
 -1      1240 1.50000E+02 2.50250E+01 0.00000E+00
 -1      1241 1.50000E+02 2.79750E+01 0.00000E+00
 -1      1242 1.50000E+02 3.09250E+01 0.00000E+00
 -1      1243 1.50000E+02 3.38500E+01 0.00000E+00
 -1      1244 1.50000E+02 3.67750E+01 0.00000E+00
 -1      1245 1.50000E+02 3.97250E+01 0.00000E+00
 -1      1246 1.50000E+02 4.26750E+01 0.00000E+00
 -1      1247 1.50000E+02 4.56250E+01 0.00000E+00
 -1      1248 1.50000E+02 4.85500E+01 0.00000E+00
 -1      1249 1.25937E+02 1.10809E+01 0.00000E+00
 -1      1250 1.25607E+02 9.60677E+00 0.00000E+00
 -1      1251 1.24974E+02 8.24992E+00 0.00000E+00
 -1      1252 1.24062E+02 7.05266E+00 0.00000E+00
 -1      1253 1.22938E+02 6.09316E+00 0.00000E+00
 -1      1254 1.21632E+02 5.38896E+00 0.00000E+00
 -1      1255 1.20221E+02 4.97867E+00 0.00000E+00
 -1      1256 1.18707E+02 4.87342E+00 0.00000E+00
 -1      1257 1.17176E+02 5.10507E+00 0.00000E+00
 -1      1258 1.15776E+02 5.64548E+00 0.00000E+00
 -1      1259 1.14566E+02 6.43627E+00 0.00000E+00
 -1      1260 1.13560E+02 7.44071E+00 0.00000E+00
 -1      1261 1.12760E+02 8.66138E+00 0.00000E+00
 -1      1262 1.12213E+02 1.00858E+01 0.00000E+00
 -1      1263 1.11986E+02 1.16197E+01 0.00000E+00
 -1      1264 1.12093E+02 1.31115E+01 0.00000E+00
 -1      1265 1.12513E+02 1.45426E+01 0.00000E+00
 -1      1266 1.13262E+02 1.59031E+01 0.00000E+00
 -1      1267 1.14267E+02 1.70420E+01 0.00000E+00
 -1      1268 1.15457E+02 1.79157E+01 0.00000E+00
 -1      1269 1.16825E+02 1.85274E+01 0.00000E+00
 -1      1270 1.18263E+02 1.88310E+01 0.00000E+00
 -1      1271 1.19784E+02 1.88220E+01 0.00000E+00
 -1      1272 1.21316E+02 1.84674E+01 0.00000E+00
 -1      1273 1.22755E+02 1.77640E+01 0.00000E+00
 -1      1274 1.24002E+02 1.67459E+01 0.00000E+00
 -1      1275 1.24947E+02 1.55310E+01 0.00000E+00
 -1      1276 1.25599E+02 1.41508E+01 0.00000E+00
 -1      1277 1.25938E+02 1.26462E+01 0.00000E+00
 -1      1278 1.57500E+00 4.85250E+01 0.00000E+00
 -1      1279 1.29900E+00 4.48375E+01 0.00000E+00
 -1      1280 1.29900E+00 4.63125E+01 0.00000E+00
 -1      1281 1.29900E+00 4.18875E+01 0.00000E+00
 -1      1282 1.29900E+00 4.33625E+01 0.00000E+00
 -1      1283 2.59800E+00 4.41000E+01 0.00000E+00
 -1      1284 1.29900E+00 3.89375E+01 0.00000E+00
 -1      1285 1.29900E+00 4.04125E+01 0.00000E+00
 -1      1286 2.59800E+00 4.11500E+01 0.00000E+00
 -1      1287 1.29900E+00 3.59875E+01 0.00000E+00
 -1      1288 1.29900E+00 3.74625E+01 0.00000E+00
 -1      1289 2.59800E+00 3.82000E+01 0.00000E+00
 -1      1290 1.29900E+00 3.30875E+01 0.00000E+00
 -1      1291 1.29900E+00 3.45375E+01 0.00000E+00
 -1      1292 2.59800E+00 3.52750E+01 0.00000E+00
 -1      1293 1.29900E+00 3.01375E+01 0.00000E+00
 -1      1294 1.29900E+00 3.16125E+01 0.00000E+00
 -1      1295 2.59800E+00 3.23500E+01 0.00000E+00
 -1      1296 1.29900E+00 2.71875E+01 0.00000E+00
 -1      1297 1.29900E+00 2.86625E+01 0.00000E+00
 -1      1298 2.59800E+00 2.94000E+01 0.00000E+00
 -1      1299 1.29900E+00 2.42375E+01 0.00000E+00
 -1      1300 1.29900E+00 2.57125E+01 0.00000E+00
 -1      1301 2.59800E+00 2.64500E+01 0.00000E+00
 -1      1302 1.29900E+00 2.12875E+01 0.00000E+00
 -1      1303 1.29900E+00 2.27625E+01 0.00000E+00
 -1      1304 2.59800E+00 2.35000E+01 0.00000E+00
 -1      1305 1.29900E+00 1.83375E+01 0.00000E+00
 -1      1306 1.29900E+00 1.98125E+01 0.00000E+00
 -1      1307 2.59800E+00 2.05500E+01 0.00000E+00
 -1      1308 1.29900E+00 1.54375E+01 0.00000E+00
 -1      1309 1.29900E+00 1.68875E+01 0.00000E+00
 -1      1310 2.59800E+00 1.76250E+01 0.00000E+00
 -1      1311 1.29900E+00 1.24875E+01 0.00000E+00
 -1      1312 1.29900E+00 1.39625E+01 0.00000E+00
 -1      1313 2.59800E+00 1.47000E+01 0.00000E+00
 -1      1314 1.29900E+00 9.53750E+00 0.00000E+00
 -1      1315 1.29900E+00 1.10125E+01 0.00000E+00
 -1      1316 2.59800E+00 1.17500E+01 0.00000E+00
 -1      1317 1.29900E+00 6.58750E+00 0.00000E+00
 -1      1318 1.29900E+00 8.06250E+00 0.00000E+00
 -1      1319 2.59800E+00 8.80000E+00 0.00000E+00
 -1      1320 1.29900E+00 3.63750E+00 0.00000E+00
 -1      1321 1.29900E+00 5.11250E+00 0.00000E+00
 -1      1322 2.59800E+00 5.85000E+00 0.00000E+00
 -1      1323 1.50000E+00 1.45000E+00 0.00000E+00
 -1      1324 3.90000E+00 4.87010E+01 0.00000E+00
 -1      1325 5.40000E+00 4.87010E+01 0.00000E+00
 -1      1326 6.90000E+00 4.87010E+01 0.00000E+00
 -1      1327 8.40000E+00 4.87010E+01 0.00000E+00
 -1      1328 6.15000E+00 4.74020E+01 0.00000E+00
 -1      1329 9.90000E+00 4.87010E+01 0.00000E+00
 -1      1330 1.14000E+01 4.87010E+01 0.00000E+00
 -1      1331 9.15000E+00 4.74020E+01 0.00000E+00
 -1      1332 1.29000E+01 4.87010E+01 0.00000E+00
 -1      1333 1.44000E+01 4.87010E+01 0.00000E+00
 -1      1334 1.21500E+01 4.74020E+01 0.00000E+00
 -1      1335 1.59000E+01 4.87010E+01 0.00000E+00
 -1      1336 1.74000E+01 4.87010E+01 0.00000E+00
 -1      1337 1.51500E+01 4.74020E+01 0.00000E+00
 -1      1338 1.89000E+01 4.87010E+01 0.00000E+00
 -1      1339 2.04000E+01 4.87010E+01 0.00000E+00
 -1      1340 1.81500E+01 4.74020E+01 0.00000E+00
 -1      1341 2.19000E+01 4.87010E+01 0.00000E+00
 -1      1342 2.34000E+01 4.87010E+01 0.00000E+00
 -1      1343 2.11500E+01 4.74020E+01 0.00000E+00
 -1      1344 2.49000E+01 4.87010E+01 0.00000E+00
 -1      1345 2.64000E+01 4.87010E+01 0.00000E+00
 -1      1346 2.41500E+01 4.74020E+01 0.00000E+00
 -1      1347 2.79000E+01 4.87010E+01 0.00000E+00
 -1      1348 2.94000E+01 4.87010E+01 0.00000E+00
 -1      1349 2.71500E+01 4.74020E+01 0.00000E+00
 -1      1350 3.09000E+01 4.87010E+01 0.00000E+00
 -1      1351 3.24000E+01 4.87010E+01 0.00000E+00
 -1      1352 3.01500E+01 4.74020E+01 0.00000E+00
 -1      1353 3.39000E+01 4.87010E+01 0.00000E+00
 -1      1354 3.54000E+01 4.87010E+01 0.00000E+00
 -1      1355 3.31500E+01 4.74020E+01 0.00000E+00
 -1      1356 3.69000E+01 4.87010E+01 0.00000E+00
 -1      1357 3.84000E+01 4.87010E+01 0.00000E+00
 -1      1358 3.61500E+01 4.74020E+01 0.00000E+00
 -1      1359 3.99000E+01 4.87010E+01 0.00000E+00
 -1      1360 4.14000E+01 4.87010E+01 0.00000E+00
 -1      1361 3.91500E+01 4.74020E+01 0.00000E+00
 -1      1362 4.29000E+01 4.87010E+01 0.00000E+00
 -1      1363 4.44000E+01 4.87010E+01 0.00000E+00
 -1      1364 4.21500E+01 4.74020E+01 0.00000E+00
 -1      1365 4.59000E+01 4.87010E+01 0.00000E+00
 -1      1366 4.74000E+01 4.87010E+01 0.00000E+00
 -1      1367 4.51500E+01 4.74020E+01 0.00000E+00
 -1      1368 4.89000E+01 4.87010E+01 0.00000E+00
 -1      1369 5.04000E+01 4.87010E+01 0.00000E+00
 -1      1370 4.81500E+01 4.74020E+01 0.00000E+00
 -1      1371 5.19000E+01 4.87010E+01 0.00000E+00
 -1      1372 5.34000E+01 4.87010E+01 0.00000E+00
 -1      1373 5.11500E+01 4.74020E+01 0.00000E+00
 -1      1374 5.49000E+01 4.87010E+01 0.00000E+00
 -1      1375 5.64000E+01 4.87010E+01 0.00000E+00
 -1      1376 5.41500E+01 4.74020E+01 0.00000E+00
 -1      1377 5.79000E+01 4.87010E+01 0.00000E+00
 -1      1378 5.94000E+01 4.87010E+01 0.00000E+00
 -1      1379 5.71500E+01 4.74020E+01 0.00000E+00
 -1      1380 6.09000E+01 4.87010E+01 0.00000E+00
 -1      1381 6.24000E+01 4.87010E+01 0.00000E+00
 -1      1382 6.01500E+01 4.74020E+01 0.00000E+00
 -1      1383 6.39000E+01 4.87010E+01 0.00000E+00
 -1      1384 6.54000E+01 4.87010E+01 0.00000E+00
 -1      1385 6.31500E+01 4.74020E+01 0.00000E+00
 -1      1386 6.69000E+01 4.87010E+01 0.00000E+00
 -1      1387 6.84000E+01 4.87010E+01 0.00000E+00
 -1      1388 6.61500E+01 4.74020E+01 0.00000E+00
 -1      1389 6.99000E+01 4.87010E+01 0.00000E+00
 -1      1390 7.14000E+01 4.87010E+01 0.00000E+00
 -1      1391 6.91500E+01 4.74020E+01 0.00000E+00
 -1      1392 7.29000E+01 4.87010E+01 0.00000E+00
 -1      1393 7.44000E+01 4.87010E+01 0.00000E+00
 -1      1394 7.21500E+01 4.74020E+01 0.00000E+00
 -1      1395 7.59000E+01 4.87010E+01 0.00000E+00
 -1      1396 7.74000E+01 4.87010E+01 0.00000E+00
 -1      1397 7.51500E+01 4.74020E+01 0.00000E+00
 -1      1398 7.89000E+01 4.87010E+01 0.00000E+00
 -1      1399 8.04000E+01 4.87010E+01 0.00000E+00
 -1      1400 7.81500E+01 4.74020E+01 0.00000E+00
 -1      1401 8.19000E+01 4.87010E+01 0.00000E+00
 -1      1402 8.34000E+01 4.87010E+01 0.00000E+00
 -1      1403 8.11500E+01 4.74020E+01 0.00000E+00
 -1      1404 8.49000E+01 4.87010E+01 0.00000E+00
 -1      1405 8.64000E+01 4.87010E+01 0.00000E+00
 -1      1406 8.41500E+01 4.74020E+01 0.00000E+00
 -1      1407 8.79000E+01 4.87010E+01 0.00000E+00
 -1      1408 8.94000E+01 4.87010E+01 0.00000E+00
 -1      1409 8.71500E+01 4.74020E+01 0.00000E+00
 -1      1410 9.09000E+01 4.87010E+01 0.00000E+00
 -1      1411 9.24000E+01 4.87010E+01 0.00000E+00
 -1      1412 9.01500E+01 4.74020E+01 0.00000E+00
 -1      1413 9.39000E+01 4.87010E+01 0.00000E+00
 -1      1414 9.54000E+01 4.87010E+01 0.00000E+00
 -1      1415 9.31500E+01 4.74020E+01 0.00000E+00
 -1      1416 9.69000E+01 4.87010E+01 0.00000E+00
 -1      1417 9.84000E+01 4.87010E+01 0.00000E+00
 -1      1418 9.61500E+01 4.74020E+01 0.00000E+00
 -1      1419 9.99000E+01 4.87010E+01 0.00000E+00
 -1      1420 1.01400E+02 4.87010E+01 0.00000E+00
 -1      1421 9.91500E+01 4.74020E+01 0.00000E+00
 -1      1422 1.02900E+02 4.87010E+01 0.00000E+00
 -1      1423 1.04400E+02 4.87010E+01 0.00000E+00
 -1      1424 1.02150E+02 4.74020E+01 0.00000E+00
 -1      1425 1.05900E+02 4.87010E+01 0.00000E+00
 -1      1426 1.07400E+02 4.87010E+01 0.00000E+00
 -1      1427 1.05150E+02 4.74020E+01 0.00000E+00
 -1      1428 1.08900E+02 4.87010E+01 0.00000E+00
 -1      1429 1.10400E+02 4.87010E+01 0.00000E+00
 -1      1430 1.08150E+02 4.74020E+01 0.00000E+00
 -1      1431 1.11900E+02 4.87010E+01 0.00000E+00
 -1      1432 1.13400E+02 4.87010E+01 0.00000E+00
 -1      1433 1.11150E+02 4.74020E+01 0.00000E+00
 -1      1434 1.14900E+02 4.87010E+01 0.00000E+00
 -1      1435 1.16400E+02 4.87010E+01 0.00000E+00
 -1      1436 1.14150E+02 4.74020E+01 0.00000E+00
 -1      1437 1.17900E+02 4.87010E+01 0.00000E+00
 -1      1438 1.19400E+02 4.87010E+01 0.00000E+00
 -1      1439 1.17150E+02 4.74020E+01 0.00000E+00
 -1      1440 1.20900E+02 4.87010E+01 0.00000E+00
 -1      1441 1.22400E+02 4.87010E+01 0.00000E+00
 -1      1442 1.20150E+02 4.74020E+01 0.00000E+00
 -1      1443 1.23900E+02 4.87010E+01 0.00000E+00
 -1      1444 1.25400E+02 4.87010E+01 0.00000E+00
 -1      1445 1.23150E+02 4.74020E+01 0.00000E+00
 -1      1446 1.26900E+02 4.87010E+01 0.00000E+00
 -1      1447 1.28400E+02 4.87010E+01 0.00000E+00
 -1      1448 1.26150E+02 4.74020E+01 0.00000E+00
 -1      1449 1.29900E+02 4.87010E+01 0.00000E+00
 -1      1450 1.31400E+02 4.87010E+01 0.00000E+00
 -1      1451 1.29150E+02 4.74020E+01 0.00000E+00
 -1      1452 1.32900E+02 4.87010E+01 0.00000E+00
 -1      1453 1.34400E+02 4.87010E+01 0.00000E+00
 -1      1454 1.32150E+02 4.74020E+01 0.00000E+00
 -1      1455 1.35900E+02 4.87010E+01 0.00000E+00
 -1      1456 1.37400E+02 4.87010E+01 0.00000E+00
 -1      1457 1.35150E+02 4.74020E+01 0.00000E+00
 -1      1458 1.38900E+02 4.87010E+01 0.00000E+00
 -1      1459 1.40400E+02 4.87010E+01 0.00000E+00
 -1      1460 1.38150E+02 4.74020E+01 0.00000E+00
 -1      1461 1.41900E+02 4.87010E+01 0.00000E+00
 -1      1462 1.43400E+02 4.87010E+01 0.00000E+00
 -1      1463 1.41150E+02 4.74020E+01 0.00000E+00
 -1      1464 1.44900E+02 4.87010E+01 0.00000E+00
 -1      1465 1.46400E+02 4.87010E+01 0.00000E+00
 -1      1466 1.44150E+02 4.74020E+01 0.00000E+00
 -1      1467 1.48575E+02 4.85500E+01 0.00000E+00
 -1      1468 1.47825E+02 4.72510E+01 0.00000E+00
 -1      1469 5.25000E+00 1.29900E+00 0.00000E+00
 -1      1470 3.75000E+00 1.29900E+00 0.00000E+00
 -1      1471 8.25000E+00 1.29900E+00 0.00000E+00
 -1      1472 6.75000E+00 1.29900E+00 0.00000E+00
 -1      1473 6.00000E+00 2.59800E+00 0.00000E+00
 -1      1474 1.12500E+01 1.29900E+00 0.00000E+00
 -1      1475 9.75000E+00 1.29900E+00 0.00000E+00
 -1      1476 9.00000E+00 2.59800E+00 0.00000E+00
 -1      1477 1.42500E+01 1.29900E+00 0.00000E+00
 -1      1478 1.27500E+01 1.29900E+00 0.00000E+00
 -1      1479 1.20000E+01 2.59800E+00 0.00000E+00
 -1      1480 1.72500E+01 1.29900E+00 0.00000E+00
 -1      1481 1.57500E+01 1.29900E+00 0.00000E+00
 -1      1482 1.50000E+01 2.59800E+00 0.00000E+00
 -1      1483 2.02500E+01 1.29900E+00 0.00000E+00
 -1      1484 1.87500E+01 1.29900E+00 0.00000E+00
 -1      1485 1.80000E+01 2.59800E+00 0.00000E+00
 -1      1486 2.32500E+01 1.29900E+00 0.00000E+00
 -1      1487 2.17500E+01 1.29900E+00 0.00000E+00
 -1      1488 2.10000E+01 2.59800E+00 0.00000E+00
 -1      1489 2.62500E+01 1.29900E+00 0.00000E+00
 -1      1490 2.47500E+01 1.29900E+00 0.00000E+00
 -1      1491 2.40000E+01 2.59800E+00 0.00000E+00
 -1      1492 2.92500E+01 1.29900E+00 0.00000E+00
 -1      1493 2.77500E+01 1.29900E+00 0.00000E+00
 -1      1494 2.70000E+01 2.59800E+00 0.00000E+00
 -1      1495 3.22500E+01 1.29900E+00 0.00000E+00
 -1      1496 3.07500E+01 1.29900E+00 0.00000E+00
 -1      1497 3.00000E+01 2.59800E+00 0.00000E+00
 -1      1498 3.52500E+01 1.29900E+00 0.00000E+00
 -1      1499 3.37500E+01 1.29900E+00 0.00000E+00
 -1      1500 3.30000E+01 2.59800E+00 0.00000E+00
 -1      1501 3.82500E+01 1.29900E+00 0.00000E+00
 -1      1502 3.67500E+01 1.29900E+00 0.00000E+00
 -1      1503 3.60000E+01 2.59800E+00 0.00000E+00
 -1      1504 4.11000E+01 1.29900E+00 0.00000E+00
 -1      1505 3.96750E+01 1.29900E+00 0.00000E+00
 -1      1506 3.89250E+01 2.59800E+00 0.00000E+00
 -1      1507 4.41000E+01 1.29900E+00 0.00000E+00
 -1      1508 4.26000E+01 1.29900E+00 0.00000E+00
 -1      1509 4.18500E+01 2.59800E+00 0.00000E+00
 -1      1510 4.71000E+01 1.29900E+00 0.00000E+00
 -1      1511 4.56000E+01 1.29900E+00 0.00000E+00
 -1      1512 4.48500E+01 2.59800E+00 0.00000E+00
 -1      1513 5.01000E+01 1.29900E+00 0.00000E+00
 -1      1514 4.86000E+01 1.29900E+00 0.00000E+00
 -1      1515 4.78500E+01 2.59800E+00 0.00000E+00
 -1      1516 5.31000E+01 1.29900E+00 0.00000E+00
 -1      1517 5.16000E+01 1.29900E+00 0.00000E+00
 -1      1518 5.08500E+01 2.59800E+00 0.00000E+00
 -1      1519 5.61000E+01 1.29900E+00 0.00000E+00
 -1      1520 5.46000E+01 1.29900E+00 0.00000E+00
 -1      1521 5.38500E+01 2.59800E+00 0.00000E+00
 -1      1522 5.91000E+01 1.29900E+00 0.00000E+00
 -1      1523 5.76000E+01 1.29900E+00 0.00000E+00
 -1      1524 5.68500E+01 2.59800E+00 0.00000E+00
 -1      1525 6.21000E+01 1.29900E+00 0.00000E+00
 -1      1526 6.06000E+01 1.29900E+00 0.00000E+00
 -1      1527 5.98500E+01 2.59800E+00 0.00000E+00
 -1      1528 6.51000E+01 1.29900E+00 0.00000E+00
 -1      1529 6.36000E+01 1.29900E+00 0.00000E+00
 -1      1530 6.28500E+01 2.59800E+00 0.00000E+00
 -1      1531 6.81000E+01 1.29900E+00 0.00000E+00
 -1      1532 6.66000E+01 1.29900E+00 0.00000E+00
 -1      1533 6.58500E+01 2.59800E+00 0.00000E+00
 -1      1534 7.11000E+01 1.29900E+00 0.00000E+00
 -1      1535 6.96000E+01 1.29900E+00 0.00000E+00
 -1      1536 6.88500E+01 2.59800E+00 0.00000E+00
 -1      1537 7.41000E+01 1.29900E+00 0.00000E+00
 -1      1538 7.26000E+01 1.29900E+00 0.00000E+00
 -1      1539 7.18500E+01 2.59800E+00 0.00000E+00
 -1      1540 7.71000E+01 1.29900E+00 0.00000E+00
 -1      1541 7.56000E+01 1.29900E+00 0.00000E+00
 -1      1542 7.48500E+01 2.59800E+00 0.00000E+00
 -1      1543 7.99500E+01 1.29900E+00 0.00000E+00
 -1      1544 7.85250E+01 1.29900E+00 0.00000E+00
 -1      1545 7.77750E+01 2.59800E+00 0.00000E+00
 -1      1546 8.29500E+01 1.29900E+00 0.00000E+00
 -1      1547 8.14500E+01 1.29900E+00 0.00000E+00
 -1      1548 8.07000E+01 2.59800E+00 0.00000E+00
 -1      1549 8.59500E+01 1.29900E+00 0.00000E+00
 -1      1550 8.44500E+01 1.29900E+00 0.00000E+00
 -1      1551 8.37000E+01 2.59800E+00 0.00000E+00
 -1      1552 8.89500E+01 1.29900E+00 0.00000E+00
 -1      1553 8.74500E+01 1.29900E+00 0.00000E+00
 -1      1554 8.67000E+01 2.59800E+00 0.00000E+00
 -1      1555 9.19500E+01 1.29900E+00 0.00000E+00
 -1      1556 9.04500E+01 1.29900E+00 0.00000E+00
 -1      1557 8.97000E+01 2.59800E+00 0.00000E+00
 -1      1558 9.49500E+01 1.29900E+00 0.00000E+00
 -1      1559 9.34500E+01 1.29900E+00 0.00000E+00
 -1      1560 9.27000E+01 2.59800E+00 0.00000E+00
 -1      1561 9.79500E+01 1.29900E+00 0.00000E+00
 -1      1562 9.64500E+01 1.29900E+00 0.00000E+00
 -1      1563 9.57000E+01 2.59800E+00 0.00000E+00
 -1      1564 1.00950E+02 1.29900E+00 0.00000E+00
 -1      1565 9.94500E+01 1.29900E+00 0.00000E+00
 -1      1566 9.87000E+01 2.59800E+00 0.00000E+00
 -1      1567 1.03950E+02 1.29900E+00 0.00000E+00
 -1      1568 1.02450E+02 1.29900E+00 0.00000E+00
 -1      1569 1.01700E+02 2.59800E+00 0.00000E+00
 -1      1570 1.06950E+02 1.29900E+00 0.00000E+00
 -1      1571 1.05450E+02 1.29900E+00 0.00000E+00
 -1      1572 1.04700E+02 2.59800E+00 0.00000E+00
 -1      1573 1.09350E+02 1.29900E+00 0.00000E+00
 -1      1574 1.08150E+02 1.29900E+00 0.00000E+00
 -1      1575 1.07400E+02 2.59800E+00 0.00000E+00
 -1      1576 1.11900E+02 1.29900E+00 0.00000E+00
 -1      1577 1.10625E+02 1.29900E+00 0.00000E+00
 -1      1578 1.09875E+02 2.59800E+00 0.00000E+00
 -1      1579 1.16925E+02 8.15662E-01 0.00000E+00
 -1      1580 1.15875E+02 8.15662E-01 0.00000E+00
 -1      1581 1.19025E+02 8.15662E-01 0.00000E+00
 -1      1582 1.17975E+02 8.15662E-01 0.00000E+00
 -1      1583 1.17450E+02 1.63132E+00 0.00000E+00
 -1      1584 1.21425E+02 8.15662E-01 0.00000E+00
 -1      1585 1.20225E+02 8.15662E-01 0.00000E+00
 -1      1586 1.19700E+02 1.63132E+00 0.00000E+00
 -1      1587 1.23750E+02 9.41341E-01 0.00000E+00
 -1      1588 1.22550E+02 9.41341E-01 0.00000E+00
 -1      1589 1.26000E+02 9.41341E-01 0.00000E+00
 -1      1590 1.24875E+02 9.41341E-01 0.00000E+00
 -1      1591 1.24275E+02 1.88268E+00 0.00000E+00
 -1      1592 1.28550E+02 9.41341E-01 0.00000E+00
 -1      1593 1.27275E+02 9.41341E-01 0.00000E+00
 -1      1594 1.26675E+02 1.88268E+00 0.00000E+00
 -1      1595 1.31550E+02 9.41341E-01 0.00000E+00
 -1      1596 1.30050E+02 9.41341E-01 0.00000E+00
 -1      1597 1.29450E+02 1.88268E+00 0.00000E+00
 -1      1598 1.34550E+02 9.41341E-01 0.00000E+00
 -1      1599 1.33050E+02 9.41341E-01 0.00000E+00
 -1      1600 1.32450E+02 1.88268E+00 0.00000E+00
 -1      1601 1.37550E+02 9.41341E-01 0.00000E+00
 -1      1602 1.36050E+02 9.41341E-01 0.00000E+00
 -1      1603 1.35450E+02 1.88268E+00 0.00000E+00
 -1      1604 1.40550E+02 9.41341E-01 0.00000E+00
 -1      1605 1.39050E+02 9.41341E-01 0.00000E+00
 -1      1606 1.38450E+02 1.88268E+00 0.00000E+00
 -1      1607 1.43550E+02 9.41341E-01 0.00000E+00
 -1      1608 1.42050E+02 9.41341E-01 0.00000E+00
 -1      1609 1.41450E+02 1.88268E+00 0.00000E+00
 -1      1610 1.46550E+02 9.41341E-01 0.00000E+00
 -1      1611 1.45050E+02 9.41341E-01 0.00000E+00
 -1      1612 1.44450E+02 1.88268E+00 0.00000E+00
 -1      1613 1.48988E+02 1.20817E+00 0.00000E+00
 -1      1614 1.47563E+02 1.20817E+00 0.00000E+00
 -1      1615 1.46962E+02 2.14951E+00 0.00000E+00
 -1      1616 1.48988E+02 2.68317E+00 0.00000E+00
 -1      1617 1.48988E+02 5.63317E+00 0.00000E+00
 -1      1618 1.48988E+02 4.15817E+00 0.00000E+00
 -1      1619 1.47975E+02 3.89134E+00 0.00000E+00
 -1      1620 1.48988E+02 8.58317E+00 0.00000E+00
 -1      1621 1.48988E+02 7.10817E+00 0.00000E+00
 -1      1622 1.47975E+02 6.84134E+00 0.00000E+00
 -1      1623 1.48988E+02 1.15332E+01 0.00000E+00
 -1      1624 1.48988E+02 1.00582E+01 0.00000E+00
 -1      1625 1.47975E+02 9.79134E+00 0.00000E+00
 -1      1626 1.48988E+02 1.44832E+01 0.00000E+00
 -1      1627 1.48988E+02 1.30082E+01 0.00000E+00
 -1      1628 1.47975E+02 1.27413E+01 0.00000E+00
 -1      1629 1.48988E+02 1.73832E+01 0.00000E+00
 -1      1630 1.48988E+02 1.59332E+01 0.00000E+00
 -1      1631 1.47975E+02 1.56663E+01 0.00000E+00
 -1      1632 1.48988E+02 2.03332E+01 0.00000E+00
 -1      1633 1.48988E+02 1.88582E+01 0.00000E+00
 -1      1634 1.47975E+02 1.85913E+01 0.00000E+00
 -1      1635 1.48988E+02 2.32832E+01 0.00000E+00
 -1      1636 1.48988E+02 2.18082E+01 0.00000E+00
 -1      1637 1.47975E+02 2.15413E+01 0.00000E+00
 -1      1638 1.48988E+02 2.62332E+01 0.00000E+00
 -1      1639 1.48988E+02 2.47582E+01 0.00000E+00
 -1      1640 1.47975E+02 2.44913E+01 0.00000E+00
 -1      1641 1.48988E+02 2.91832E+01 0.00000E+00
 -1      1642 1.48988E+02 2.77082E+01 0.00000E+00
 -1      1643 1.47975E+02 2.74413E+01 0.00000E+00
 -1      1644 1.48988E+02 3.21332E+01 0.00000E+00
 -1      1645 1.48988E+02 3.06582E+01 0.00000E+00
 -1      1646 1.47975E+02 3.03913E+01 0.00000E+00
 -1      1647 1.48988E+02 3.50332E+01 0.00000E+00
 -1      1648 1.48988E+02 3.35832E+01 0.00000E+00
 -1      1649 1.47975E+02 3.33163E+01 0.00000E+00
 -1      1650 1.48988E+02 3.79832E+01 0.00000E+00
 -1      1651 1.48988E+02 3.65082E+01 0.00000E+00
 -1      1652 1.47975E+02 3.62413E+01 0.00000E+00
 -1      1653 1.48988E+02 4.09332E+01 0.00000E+00
 -1      1654 1.48988E+02 3.94582E+01 0.00000E+00
 -1      1655 1.47975E+02 3.91913E+01 0.00000E+00
 -1      1656 1.48988E+02 4.38832E+01 0.00000E+00
 -1      1657 1.48988E+02 4.24082E+01 0.00000E+00
 -1      1658 1.47975E+02 4.21413E+01 0.00000E+00
 -1      1659 1.26493E+02 1.06219E+01 0.00000E+00
 -1      1660 1.26582E+02 1.14041E+01 0.00000E+00
 -1      1661 1.26068E+02 9.06713E+00 0.00000E+00
 -1      1662 1.26301E+02 9.75193E+00 0.00000E+00
 -1      1663 1.25293E+02 7.60608E+00 0.00000E+00
 -1      1664 1.25692E+02 8.26810E+00 0.00000E+00
 -1      1665 1.24223E+02 6.39651E+00 0.00000E+00
 -1      1666 1.24726E+02 6.92753E+00 0.00000E+00
 -1      1667 1.22950E+02 5.41504E+00 0.00000E+00
 -1      1668 1.23566E+02 5.83695E+00 0.00000E+00
 -1      1669 1.21521E+02 4.68557E+00 0.00000E+00
 -1      1670 1.22204E+02 4.96474E+00 0.00000E+00
 -1      1671 1.19962E+02 4.35500E+00 0.00000E+00
 -1      1672 1.20682E+02 4.48449E+00 0.00000E+00
 -1      1673 1.18289E+02 4.24366E+00 0.00000E+00
 -1      1674 1.19075E+02 4.21283E+00 0.00000E+00
 -1      1675 1.16662E+02 4.65807E+00 0.00000E+00
 -1      1676 1.17399E+02 4.46126E+00 0.00000E+00
 -1      1677 1.15169E+02 5.27305E+00 0.00000E+00
 -1      1678 1.15825E+02 4.93504E+00 0.00000E+00
 -1      1679 1.13932E+02 6.21658E+00 0.00000E+00
 -1      1680 1.14481E+02 5.77071E+00 0.00000E+00
 -1      1681 1.12892E+02 7.35747E+00 0.00000E+00
 -1      1682 1.13345E+02 6.80349E+00 0.00000E+00
 -1      1683 1.12011E+02 8.69433E+00 0.00000E+00
 -1      1684 1.12352E+02 8.03263E+00 0.00000E+00
 -1      1685 1.11488E+02 1.02991E+01 0.00000E+00
 -1      1686 1.11687E+02 9.54341E+00 0.00000E+00
 -1      1687 1.11409E+02 1.19839E+01 0.00000E+00
 -1      1688 1.11436E+02 1.12153E+01 0.00000E+00
 -1      1689 1.11557E+02 1.35774E+01 0.00000E+00
 -1      1690 1.11428E+02 1.28624E+01 0.00000E+00
 -1      1691 1.12060E+02 1.51436E+01 0.00000E+00
 -1      1692 1.11768E+02 1.44368E+01 0.00000E+00
 -1      1693 1.12962E+02 1.65972E+01 0.00000E+00
 -1      1694 1.12507E+02 1.59532E+01 0.00000E+00
 -1      1695 1.14155E+02 1.77079E+01 0.00000E+00
 -1      1696 1.13614E+02 1.72157E+01 0.00000E+00
 -1      1697 1.15494E+02 1.85928E+01 0.00000E+00
 -1      1698 1.14850E+02 1.82174E+01 0.00000E+00
 -1      1699 1.16996E+02 1.92213E+01 0.00000E+00
 -1      1700 1.16279E+02 1.89893E+01 0.00000E+00
 -1      1701 1.18556E+02 1.94759E+01 0.00000E+00
 -1      1702 1.17844E+02 1.94023E+01 0.00000E+00
 -1      1703 1.20257E+02 1.94153E+01 0.00000E+00
 -1      1704 1.19458E+02 1.95074E+01 0.00000E+00
 -1      1705 1.21880E+02 1.89104E+01 0.00000E+00
 -1      1706 1.21156E+02 1.91667E+01 0.00000E+00
 -1      1707 1.23497E+02 1.81491E+01 0.00000E+00
 -1      1708 1.22795E+02 1.85984E+01 0.00000E+00
 -1      1709 1.24677E+02 1.68598E+01 0.00000E+00
 -1      1710 1.24136E+02 1.74167E+01 0.00000E+00
 -1      1711 1.25628E+02 1.55017E+01 0.00000E+00
 -1      1712 1.25229E+02 1.61513E+01 0.00000E+00
 -1      1713 1.26257E+02 1.39737E+01 0.00000E+00
 -1      1714 1.26008E+02 1.46961E+01 0.00000E+00
 -1      1715 1.26583E+02 1.23268E+01 0.00000E+00
 -1      1716 1.26496E+02 1.31001E+01 0.00000E+00
 -1      1717 2.79900E+00 2.18750E+00 0.00000E+00
 -1      1718 1.22025E+02 1.75700E+00 0.00000E+00
 -1      1719 1.14675E+02 1.29900E+00 0.00000E+00
 -1      1720 1.13325E+02 1.29900E+00 0.00000E+00
 -1      1721 1.12575E+02 2.59800E+00 0.00000E+00
 -1      1722 1.26423E+02 8.40114E+00 0.00000E+00
 -1      1723 1.27182E+02 1.18628E+01 0.00000E+00
 -1      1724 1.26990E+02 1.00701E+01 0.00000E+00
 -1      1725 1.48701E+02 4.63625E+01 0.00000E+00
 -1      1726 1.48701E+02 4.48875E+01 0.00000E+00
 -1      1727 1.47689E+02 4.46207E+01 0.00000E+00
 -1      1728 1.25481E+02 6.92356E+00 0.00000E+00
 -1      1729 1.24258E+02 5.68545E+00 0.00000E+00
 -1      1730 1.22854E+02 4.67559E+00 0.00000E+00
 -1      1731 1.21269E+02 4.02421E+00 0.00000E+00
 -1      1732 1.19542E+02 3.68096E+00 0.00000E+00
 -1      1733 1.17764E+02 3.75639E+00 0.00000E+00
 -1      1734 1.16037E+02 4.25096E+00 0.00000E+00
 -1      1735 1.14512E+02 5.02559E+00 0.00000E+00
 -1      1736 1.13237E+02 6.11016E+00 0.00000E+00
 -1      1737 1.12109E+02 7.37224E+00 0.00000E+00
 -1      1738 1.11244E+02 8.89648E+00 0.00000E+00
 -1      1739 1.10869E+02 1.06618E+01 0.00000E+00
 -1      1740 1.10836E+02 1.24566E+01 0.00000E+00
 -1      1741 1.11066E+02 1.41944E+01 0.00000E+00
 -1      1742 1.11724E+02 1.58634E+01 0.00000E+00
 -1      1743 1.12823E+02 1.72914E+01 0.00000E+00
 -1      1744 1.14171E+02 1.84193E+01 0.00000E+00
 -1      1745 1.15652E+02 1.93253E+01 0.00000E+00
 -1      1746 1.17286E+02 1.99028E+01 0.00000E+00
 -1      1747 1.19035E+02 2.01153E+01 0.00000E+00
 -1      1748 1.20835E+02 1.98982E+01 0.00000E+00
 -1      1749 1.22648E+02 1.93375E+01 0.00000E+00
 -1      1750 1.24202E+02 1.82930E+01 0.00000E+00
 -1      1751 1.25393E+02 1.68522E+01 0.00000E+00
 -1      1752 1.26325E+02 1.53381E+01 0.00000E+00
 -1      1753 1.26945E+02 1.36590E+01 0.00000E+00
 -1      1754 2.87400E+00 4.77875E+01 0.00000E+00
 -1      1755 1.15200E+02 2.11466E+00 0.00000E+00
 -1      1756 3.89700E+00 4.04125E+01 0.00000E+00
 -1      1757 3.89700E+00 4.18875E+01 0.00000E+00
 -1      1758 3.89700E+00 4.33625E+01 0.00000E+00
 -1      1759 3.89700E+00 4.48375E+01 0.00000E+00
 -1      1760 5.19600E+00 4.26250E+01 0.00000E+00
 -1      1761 3.89700E+00 3.45500E+01 0.00000E+00
 -1      1762 3.89700E+00 3.60000E+01 0.00000E+00
 -1      1763 3.89700E+00 3.16000E+01 0.00000E+00
 -1      1764 3.89700E+00 3.30750E+01 0.00000E+00
 -1      1765 5.19600E+00 3.38000E+01 0.00000E+00
 -1      1766 3.89700E+00 2.86500E+01 0.00000E+00
 -1      1767 3.89700E+00 3.01250E+01 0.00000E+00
 -1      1768 5.19600E+00 3.08500E+01 0.00000E+00
 -1      1769 3.89700E+00 2.57000E+01 0.00000E+00
 -1      1770 3.89700E+00 2.71750E+01 0.00000E+00
 -1      1771 5.19600E+00 2.79000E+01 0.00000E+00
 -1      1772 3.89700E+00 2.27500E+01 0.00000E+00
 -1      1773 3.89700E+00 2.42250E+01 0.00000E+00
 -1      1774 5.19600E+00 2.49500E+01 0.00000E+00
 -1      1775 3.89700E+00 1.98000E+01 0.00000E+00
 -1      1776 3.89700E+00 2.12750E+01 0.00000E+00
 -1      1777 5.19600E+00 2.20000E+01 0.00000E+00
 -1      1778 3.89700E+00 1.69000E+01 0.00000E+00
 -1      1779 3.89700E+00 1.83500E+01 0.00000E+00
 -1      1780 5.19600E+00 1.90750E+01 0.00000E+00
 -1      1781 3.89700E+00 1.39500E+01 0.00000E+00
 -1      1782 3.89700E+00 1.54250E+01 0.00000E+00
 -1      1783 5.19600E+00 1.61500E+01 0.00000E+00
 -1      1784 3.89700E+00 1.10000E+01 0.00000E+00
 -1      1785 3.89700E+00 1.24750E+01 0.00000E+00
 -1      1786 5.19600E+00 1.32000E+01 0.00000E+00
 -1      1787 3.89700E+00 8.05000E+00 0.00000E+00
 -1      1788 3.89700E+00 9.52500E+00 0.00000E+00
 -1      1789 5.19600E+00 1.02500E+01 0.00000E+00
 -1      1790 3.89700E+00 5.10000E+00 0.00000E+00
 -1      1791 3.89700E+00 6.57500E+00 0.00000E+00
 -1      1792 5.19600E+00 7.30000E+00 0.00000E+00
 -1      1793 1.22629E+02 3.05399E+00 0.00000E+00
 -1      1794 1.21504E+02 2.92831E+00 0.00000E+00
 -1      1795 3.62400E+00 4.64885E+01 0.00000E+00
 -1      1796 3.54900E+00 3.48650E+00 0.00000E+00
 -1      1797 8.40000E+00 4.61030E+01 0.00000E+00
 -1      1798 9.90000E+00 4.61030E+01 0.00000E+00
 -1      1799 1.14000E+01 4.61030E+01 0.00000E+00
 -1      1800 1.29000E+01 4.61030E+01 0.00000E+00
 -1      1801 1.06500E+01 4.48040E+01 0.00000E+00
 -1      1802 1.44000E+01 4.61030E+01 0.00000E+00
 -1      1803 1.59000E+01 4.61030E+01 0.00000E+00
 -1      1804 1.36500E+01 4.48040E+01 0.00000E+00
 -1      1805 1.74000E+01 4.61030E+01 0.00000E+00
 -1      1806 1.89000E+01 4.61030E+01 0.00000E+00
 -1      1807 1.66500E+01 4.48040E+01 0.00000E+00
 -1      1808 2.04000E+01 4.61030E+01 0.00000E+00
 -1      1809 2.19000E+01 4.61030E+01 0.00000E+00
 -1      1810 1.96500E+01 4.48040E+01 0.00000E+00
 -1      1811 2.34000E+01 4.61030E+01 0.00000E+00
 -1      1812 2.49000E+01 4.61030E+01 0.00000E+00
 -1      1813 2.26500E+01 4.48040E+01 0.00000E+00
 -1      1814 2.64000E+01 4.61030E+01 0.00000E+00
 -1      1815 2.79000E+01 4.61030E+01 0.00000E+00
 -1      1816 2.56500E+01 4.48040E+01 0.00000E+00
 -1      1817 2.94000E+01 4.61030E+01 0.00000E+00
 -1      1818 3.09000E+01 4.61030E+01 0.00000E+00
 -1      1819 2.86500E+01 4.48040E+01 0.00000E+00
 -1      1820 3.24000E+01 4.61030E+01 0.00000E+00
 -1      1821 3.39000E+01 4.61030E+01 0.00000E+00
 -1      1822 3.16500E+01 4.48040E+01 0.00000E+00
 -1      1823 3.54000E+01 4.61030E+01 0.00000E+00
 -1      1824 3.69000E+01 4.61030E+01 0.00000E+00
 -1      1825 3.46500E+01 4.48040E+01 0.00000E+00
 -1      1826 3.84000E+01 4.61030E+01 0.00000E+00
 -1      1827 3.99000E+01 4.61030E+01 0.00000E+00
 -1      1828 3.76500E+01 4.48040E+01 0.00000E+00
 -1      1829 4.14000E+01 4.61030E+01 0.00000E+00
 -1      1830 4.29000E+01 4.61030E+01 0.00000E+00
 -1      1831 4.06500E+01 4.48040E+01 0.00000E+00
 -1      1832 4.44000E+01 4.61030E+01 0.00000E+00
 -1      1833 4.59000E+01 4.61030E+01 0.00000E+00
 -1      1834 4.36500E+01 4.48040E+01 0.00000E+00
 -1      1835 4.74000E+01 4.61030E+01 0.00000E+00
 -1      1836 4.89000E+01 4.61030E+01 0.00000E+00
 -1      1837 4.66500E+01 4.48040E+01 0.00000E+00
 -1      1838 5.04000E+01 4.61030E+01 0.00000E+00
 -1      1839 5.19000E+01 4.61030E+01 0.00000E+00
 -1      1840 4.96500E+01 4.48040E+01 0.00000E+00
 -1      1841 5.34000E+01 4.61030E+01 0.00000E+00
 -1      1842 5.49000E+01 4.61030E+01 0.00000E+00
 -1      1843 5.26500E+01 4.48040E+01 0.00000E+00
 -1      1844 5.64000E+01 4.61030E+01 0.00000E+00
 -1      1845 5.79000E+01 4.61030E+01 0.00000E+00
 -1      1846 5.56500E+01 4.48040E+01 0.00000E+00
 -1      1847 5.94000E+01 4.61030E+01 0.00000E+00
 -1      1848 6.09000E+01 4.61030E+01 0.00000E+00
 -1      1849 5.86500E+01 4.48040E+01 0.00000E+00
 -1      1850 6.24000E+01 4.61030E+01 0.00000E+00
 -1      1851 6.39000E+01 4.61030E+01 0.00000E+00
 -1      1852 6.16500E+01 4.48040E+01 0.00000E+00
 -1      1853 6.54000E+01 4.61030E+01 0.00000E+00
 -1      1854 6.69000E+01 4.61030E+01 0.00000E+00
 -1      1855 6.46500E+01 4.48040E+01 0.00000E+00
 -1      1856 6.84000E+01 4.61030E+01 0.00000E+00
 -1      1857 6.99000E+01 4.61030E+01 0.00000E+00
 -1      1858 6.76500E+01 4.48040E+01 0.00000E+00
 -1      1859 7.14000E+01 4.61030E+01 0.00000E+00
 -1      1860 7.29000E+01 4.61030E+01 0.00000E+00
 -1      1861 7.06500E+01 4.48040E+01 0.00000E+00
 -1      1862 7.44000E+01 4.61030E+01 0.00000E+00
 -1      1863 7.59000E+01 4.61030E+01 0.00000E+00
 -1      1864 7.36500E+01 4.48040E+01 0.00000E+00
 -1      1865 7.74000E+01 4.61030E+01 0.00000E+00
 -1      1866 7.89000E+01 4.61030E+01 0.00000E+00
 -1      1867 7.66500E+01 4.48040E+01 0.00000E+00
 -1      1868 8.04000E+01 4.61030E+01 0.00000E+00
 -1      1869 8.19000E+01 4.61030E+01 0.00000E+00
 -1      1870 7.96500E+01 4.48040E+01 0.00000E+00
 -1      1871 8.34000E+01 4.61030E+01 0.00000E+00
 -1      1872 8.49000E+01 4.61030E+01 0.00000E+00
 -1      1873 8.26500E+01 4.48040E+01 0.00000E+00
 -1      1874 8.64000E+01 4.61030E+01 0.00000E+00
 -1      1875 8.79000E+01 4.61030E+01 0.00000E+00
 -1      1876 8.56500E+01 4.48040E+01 0.00000E+00
 -1      1877 8.94000E+01 4.61030E+01 0.00000E+00
 -1      1878 9.09000E+01 4.61030E+01 0.00000E+00
 -1      1879 8.86500E+01 4.48040E+01 0.00000E+00
 -1      1880 9.24000E+01 4.61030E+01 0.00000E+00
 -1      1881 9.39000E+01 4.61030E+01 0.00000E+00
 -1      1882 9.16500E+01 4.48040E+01 0.00000E+00
 -1      1883 9.54000E+01 4.61030E+01 0.00000E+00
 -1      1884 9.69000E+01 4.61030E+01 0.00000E+00
 -1      1885 9.46500E+01 4.48040E+01 0.00000E+00
 -1      1886 9.84000E+01 4.61030E+01 0.00000E+00
 -1      1887 9.99000E+01 4.61030E+01 0.00000E+00
 -1      1888 9.76500E+01 4.48040E+01 0.00000E+00
 -1      1889 1.01400E+02 4.61030E+01 0.00000E+00
 -1      1890 1.02900E+02 4.61030E+01 0.00000E+00
 -1      1891 1.00650E+02 4.48040E+01 0.00000E+00
 -1      1892 1.04400E+02 4.61030E+01 0.00000E+00
 -1      1893 1.05900E+02 4.61030E+01 0.00000E+00
 -1      1894 1.03650E+02 4.48040E+01 0.00000E+00
 -1      1895 1.07400E+02 4.61030E+01 0.00000E+00
 -1      1896 1.08900E+02 4.61030E+01 0.00000E+00
 -1      1897 1.06650E+02 4.48040E+01 0.00000E+00
 -1      1898 1.10400E+02 4.61030E+01 0.00000E+00
 -1      1899 1.11900E+02 4.61030E+01 0.00000E+00
 -1      1900 1.09650E+02 4.48040E+01 0.00000E+00
 -1      1901 1.13400E+02 4.61030E+01 0.00000E+00
 -1      1902 1.14900E+02 4.61030E+01 0.00000E+00
 -1      1903 1.12650E+02 4.48040E+01 0.00000E+00
 -1      1904 1.16400E+02 4.61030E+01 0.00000E+00
 -1      1905 1.17900E+02 4.61030E+01 0.00000E+00
 -1      1906 1.15650E+02 4.48040E+01 0.00000E+00
 -1      1907 1.19400E+02 4.61030E+01 0.00000E+00
 -1      1908 1.20900E+02 4.61030E+01 0.00000E+00
 -1      1909 1.18650E+02 4.48040E+01 0.00000E+00
 -1      1910 1.22400E+02 4.61030E+01 0.00000E+00
 -1      1911 1.23900E+02 4.61030E+01 0.00000E+00
 -1      1912 1.21650E+02 4.48040E+01 0.00000E+00
 -1      1913 1.25400E+02 4.61030E+01 0.00000E+00
 -1      1914 1.26900E+02 4.61030E+01 0.00000E+00
 -1      1915 1.24650E+02 4.48040E+01 0.00000E+00
 -1      1916 1.28400E+02 4.61030E+01 0.00000E+00
 -1      1917 1.29900E+02 4.61030E+01 0.00000E+00
 -1      1918 1.27650E+02 4.48040E+01 0.00000E+00
 -1      1919 1.31400E+02 4.61030E+01 0.00000E+00
 -1      1920 1.32900E+02 4.61030E+01 0.00000E+00
 -1      1921 1.30650E+02 4.48040E+01 0.00000E+00
 -1      1922 1.34400E+02 4.61030E+01 0.00000E+00
 -1      1923 1.35900E+02 4.61030E+01 0.00000E+00
 -1      1924 1.33650E+02 4.48040E+01 0.00000E+00
 -1      1925 1.37400E+02 4.61030E+01 0.00000E+00
 -1      1926 1.38900E+02 4.61030E+01 0.00000E+00
 -1      1927 1.36650E+02 4.48040E+01 0.00000E+00
 -1      1928 1.40400E+02 4.61030E+01 0.00000E+00
 -1      1929 1.41900E+02 4.61030E+01 0.00000E+00
 -1      1930 1.39650E+02 4.48040E+01 0.00000E+00
 -1      1931 1.43400E+02 4.61030E+01 0.00000E+00
 -1      1932 1.44900E+02 4.61030E+01 0.00000E+00
 -1      1933 1.42650E+02 4.48040E+01 0.00000E+00
 -1      1934 1.27500E+01 3.89700E+00 0.00000E+00
 -1      1935 1.12500E+01 3.89700E+00 0.00000E+00
 -1      1936 9.75000E+00 3.89700E+00 0.00000E+00
 -1      1937 8.25000E+00 3.89700E+00 0.00000E+00
 -1      1938 1.05000E+01 5.19600E+00 0.00000E+00
 -1      1939 1.57500E+01 3.89700E+00 0.00000E+00
 -1      1940 1.42500E+01 3.89700E+00 0.00000E+00
 -1      1941 1.35000E+01 5.19600E+00 0.00000E+00
 -1      1942 1.87500E+01 3.89700E+00 0.00000E+00
 -1      1943 1.72500E+01 3.89700E+00 0.00000E+00
 -1      1944 1.65000E+01 5.19600E+00 0.00000E+00
 -1      1945 2.17500E+01 3.89700E+00 0.00000E+00
 -1      1946 2.02500E+01 3.89700E+00 0.00000E+00
 -1      1947 1.95000E+01 5.19600E+00 0.00000E+00
 -1      1948 2.47500E+01 3.89700E+00 0.00000E+00
 -1      1949 2.32500E+01 3.89700E+00 0.00000E+00
 -1      1950 2.25000E+01 5.19600E+00 0.00000E+00
 -1      1951 2.77500E+01 3.89700E+00 0.00000E+00
 -1      1952 2.62500E+01 3.89700E+00 0.00000E+00
 -1      1953 2.55000E+01 5.19600E+00 0.00000E+00
 -1      1954 3.07500E+01 3.89700E+00 0.00000E+00
 -1      1955 2.92500E+01 3.89700E+00 0.00000E+00
 -1      1956 2.85000E+01 5.19600E+00 0.00000E+00
 -1      1957 3.37500E+01 3.89700E+00 0.00000E+00
 -1      1958 3.22500E+01 3.89700E+00 0.00000E+00
 -1      1959 3.15000E+01 5.19600E+00 0.00000E+00
 -1      1960 3.67500E+01 3.89700E+00 0.00000E+00
 -1      1961 3.52500E+01 3.89700E+00 0.00000E+00
 -1      1962 3.45000E+01 5.19600E+00 0.00000E+00
 -1      1963 3.96000E+01 3.89700E+00 0.00000E+00
 -1      1964 3.81750E+01 3.89700E+00 0.00000E+00
 -1      1965 3.74250E+01 5.19600E+00 0.00000E+00
 -1      1966 4.26000E+01 3.89700E+00 0.00000E+00
 -1      1967 4.11000E+01 3.89700E+00 0.00000E+00
 -1      1968 4.03500E+01 5.19600E+00 0.00000E+00
 -1      1969 4.56000E+01 3.89700E+00 0.00000E+00
 -1      1970 4.41000E+01 3.89700E+00 0.00000E+00
 -1      1971 4.33500E+01 5.19600E+00 0.00000E+00
 -1      1972 4.86000E+01 3.89700E+00 0.00000E+00
 -1      1973 4.71000E+01 3.89700E+00 0.00000E+00
 -1      1974 4.63500E+01 5.19600E+00 0.00000E+00
 -1      1975 5.16000E+01 3.89700E+00 0.00000E+00
 -1      1976 5.01000E+01 3.89700E+00 0.00000E+00
 -1      1977 4.93500E+01 5.19600E+00 0.00000E+00
 -1      1978 5.46000E+01 3.89700E+00 0.00000E+00
 -1      1979 5.31000E+01 3.89700E+00 0.00000E+00
 -1      1980 5.23500E+01 5.19600E+00 0.00000E+00
 -1      1981 5.76000E+01 3.89700E+00 0.00000E+00
 -1      1982 5.61000E+01 3.89700E+00 0.00000E+00
 -1      1983 5.53500E+01 5.19600E+00 0.00000E+00
 -1      1984 6.06000E+01 3.89700E+00 0.00000E+00
 -1      1985 5.91000E+01 3.89700E+00 0.00000E+00
 -1      1986 5.83500E+01 5.19600E+00 0.00000E+00
 -1      1987 6.36000E+01 3.89700E+00 0.00000E+00
 -1      1988 6.21000E+01 3.89700E+00 0.00000E+00
 -1      1989 6.13500E+01 5.19600E+00 0.00000E+00
 -1      1990 6.66000E+01 3.89700E+00 0.00000E+00
 -1      1991 6.51000E+01 3.89700E+00 0.00000E+00
 -1      1992 6.43500E+01 5.19600E+00 0.00000E+00
 -1      1993 6.96000E+01 3.89700E+00 0.00000E+00
 -1      1994 6.81000E+01 3.89700E+00 0.00000E+00
 -1      1995 6.73500E+01 5.19600E+00 0.00000E+00
 -1      1996 7.26000E+01 3.89700E+00 0.00000E+00
 -1      1997 7.11000E+01 3.89700E+00 0.00000E+00
 -1      1998 7.03500E+01 5.19600E+00 0.00000E+00
 -1      1999 7.56000E+01 3.89700E+00 0.00000E+00
 -1      2000 7.41000E+01 3.89700E+00 0.00000E+00
 -1      2001 7.33500E+01 5.19600E+00 0.00000E+00
 -1      2002 7.84500E+01 3.89700E+00 0.00000E+00
 -1      2003 7.70250E+01 3.89700E+00 0.00000E+00
 -1      2004 7.62750E+01 5.19600E+00 0.00000E+00
 -1      2005 8.14500E+01 3.89700E+00 0.00000E+00
 -1      2006 7.99500E+01 3.89700E+00 0.00000E+00
 -1      2007 7.92000E+01 5.19600E+00 0.00000E+00
 -1      2008 8.44500E+01 3.89700E+00 0.00000E+00
 -1      2009 8.29500E+01 3.89700E+00 0.00000E+00
 -1      2010 8.22000E+01 5.19600E+00 0.00000E+00
 -1      2011 8.74500E+01 3.89700E+00 0.00000E+00
 -1      2012 8.59500E+01 3.89700E+00 0.00000E+00
 -1      2013 8.52000E+01 5.19600E+00 0.00000E+00
 -1      2014 9.04500E+01 3.89700E+00 0.00000E+00
 -1      2015 8.89500E+01 3.89700E+00 0.00000E+00
 -1      2016 8.82000E+01 5.19600E+00 0.00000E+00
 -1      2017 9.34500E+01 3.89700E+00 0.00000E+00
 -1      2018 9.19500E+01 3.89700E+00 0.00000E+00
 -1      2019 9.12000E+01 5.19600E+00 0.00000E+00
 -1      2020 9.64500E+01 3.89700E+00 0.00000E+00
 -1      2021 9.49500E+01 3.89700E+00 0.00000E+00
 -1      2022 9.42000E+01 5.19600E+00 0.00000E+00
 -1      2023 9.94500E+01 3.89700E+00 0.00000E+00
 -1      2024 9.79500E+01 3.89700E+00 0.00000E+00
 -1      2025 9.72000E+01 5.19600E+00 0.00000E+00
 -1      2026 1.02450E+02 3.89700E+00 0.00000E+00
 -1      2027 1.00950E+02 3.89700E+00 0.00000E+00
 -1      2028 1.00200E+02 5.19600E+00 0.00000E+00
 -1      2029 1.05450E+02 3.89700E+00 0.00000E+00
 -1      2030 1.03950E+02 3.89700E+00 0.00000E+00
 -1      2031 1.03200E+02 5.19600E+00 0.00000E+00
 -1      2032 1.07850E+02 3.89700E+00 0.00000E+00
 -1      2033 1.06650E+02 3.89700E+00 0.00000E+00
 -1      2034 1.05900E+02 5.19600E+00 0.00000E+00
 -1      2035 1.26897E+02 7.69049E+00 0.00000E+00
 -1      2036 1.27273E+02 8.48953E+00 0.00000E+00
 -1      2037 1.19778E+02 2.58506E+00 0.00000E+00
 -1      2038 1.18578E+02 2.58506E+00 0.00000E+00
 -1      2039 1.13287E+02 3.70691E+00 0.00000E+00
 -1      2040 1.11863E+02 3.70691E+00 0.00000E+00
 -1      2041 1.17687E+02 2.80266E+00 0.00000E+00
 -1      2042 1.16637E+02 2.80266E+00 0.00000E+00
 -1      2043 1.27313E+02 2.82402E+00 0.00000E+00
 -1      2044 1.26037E+02 2.82402E+00 0.00000E+00
 -1      2045 1.33200E+02 3.18168E+00 0.00000E+00
 -1      2046 1.31700E+02 3.18168E+00 0.00000E+00
 -1      2047 1.36200E+02 3.18168E+00 0.00000E+00
 -1      2048 1.34700E+02 3.18168E+00 0.00000E+00
 -1      2049 1.33950E+02 4.48068E+00 0.00000E+00
 -1      2050 1.39200E+02 3.18168E+00 0.00000E+00
 -1      2051 1.37700E+02 3.18168E+00 0.00000E+00
 -1      2052 1.36950E+02 4.48068E+00 0.00000E+00
 -1      2053 1.42200E+02 3.18168E+00 0.00000E+00
 -1      2054 1.40700E+02 3.18168E+00 0.00000E+00
 -1      2055 1.39950E+02 4.48068E+00 0.00000E+00
 -1      2056 1.45200E+02 3.18168E+00 0.00000E+00
 -1      2057 1.43700E+02 3.18168E+00 0.00000E+00
 -1      2058 1.42950E+02 4.48068E+00 0.00000E+00
 -1      2059 1.47094E+02 3.66993E+00 0.00000E+00
 -1      2060 1.46081E+02 3.40310E+00 0.00000E+00
 -1      2061 1.45331E+02 4.70210E+00 0.00000E+00
 -1      2062 1.47094E+02 5.14493E+00 0.00000E+00
 -1      2063 1.46676E+02 1.05288E+01 0.00000E+00
 -1      2064 1.46676E+02 9.05384E+00 0.00000E+00
 -1      2065 1.46885E+02 7.83688E+00 0.00000E+00
 -1      2066 1.46885E+02 6.36188E+00 0.00000E+00
 -1      2067 1.46004E+02 6.14047E+00 0.00000E+00
 -1      2068 1.45586E+02 8.57438E+00 0.00000E+00
 -1      2069 1.46676E+02 1.34788E+01 0.00000E+00
 -1      2070 1.46676E+02 1.20038E+01 0.00000E+00
 -1      2071 1.45377E+02 1.12663E+01 0.00000E+00
 -1      2072 1.46676E+02 1.63788E+01 0.00000E+00
 -1      2073 1.46676E+02 1.49288E+01 0.00000E+00
 -1      2074 1.45377E+02 1.41913E+01 0.00000E+00
 -1      2075 1.46676E+02 1.93288E+01 0.00000E+00
 -1      2076 1.46676E+02 1.78538E+01 0.00000E+00
 -1      2077 1.45377E+02 1.71163E+01 0.00000E+00
 -1      2078 1.46676E+02 2.22788E+01 0.00000E+00
 -1      2079 1.46676E+02 2.08038E+01 0.00000E+00
 -1      2080 1.45377E+02 2.00663E+01 0.00000E+00
 -1      2081 1.46676E+02 2.52288E+01 0.00000E+00
 -1      2082 1.46676E+02 2.37538E+01 0.00000E+00
 -1      2083 1.45377E+02 2.30163E+01 0.00000E+00
 -1      2084 1.46676E+02 2.81788E+01 0.00000E+00
 -1      2085 1.46676E+02 2.67038E+01 0.00000E+00
 -1      2086 1.45377E+02 2.59663E+01 0.00000E+00
 -1      2087 1.46676E+02 3.11288E+01 0.00000E+00
 -1      2088 1.46676E+02 2.96538E+01 0.00000E+00
 -1      2089 1.45377E+02 2.89163E+01 0.00000E+00
 -1      2090 1.46676E+02 3.40288E+01 0.00000E+00
 -1      2091 1.46676E+02 3.25788E+01 0.00000E+00
 -1      2092 1.45377E+02 3.18413E+01 0.00000E+00
 -1      2093 1.46676E+02 3.69788E+01 0.00000E+00
 -1      2094 1.46676E+02 3.55038E+01 0.00000E+00
 -1      2095 1.45377E+02 3.47663E+01 0.00000E+00
 -1      2096 1.46676E+02 3.99288E+01 0.00000E+00
 -1      2097 1.46676E+02 3.84538E+01 0.00000E+00
 -1      2098 1.45377E+02 3.77163E+01 0.00000E+00
 -1      2099 1.46676E+02 4.28788E+01 0.00000E+00
 -1      2100 1.46676E+02 4.14038E+01 0.00000E+00
 -1      2101 1.45377E+02 4.06663E+01 0.00000E+00
 -1      2102 1.25695E+02 6.16900E+00 0.00000E+00
 -1      2103 1.26262E+02 6.84755E+00 0.00000E+00
 -1      2104 1.46526E+02 4.65135E+01 0.00000E+00
 -1      2105 1.27830E+02 1.14007E+01 0.00000E+00
 -1      2106 1.27831E+02 1.23234E+01 0.00000E+00
 -1      2107 3.89700E+00 3.74688E+01 0.00000E+00
 -1      2108 3.89700E+00 3.89437E+01 0.00000E+00
 -1      2109 5.19600E+00 3.96813E+01 0.00000E+00
 -1      2110 5.19600E+00 3.67438E+01 0.00000E+00
 -1      2111 1.30200E+02 3.18168E+00 0.00000E+00
 -1      2112 1.28700E+02 3.18168E+00 0.00000E+00
 -1      2113 1.30950E+02 4.48068E+00 0.00000E+00
 -1      2114 1.24377E+02 4.88039E+00 0.00000E+00
 -1      2115 1.25033E+02 5.43995E+00 0.00000E+00
 -1      2116 1.12612E+02 5.75644E+00 0.00000E+00
 -1      2117 1.13200E+02 5.16954E+00 0.00000E+00
 -1      2118 1.11234E+02 7.22628E+00 0.00000E+00
 -1      2119 1.11775E+02 6.55111E+00 0.00000E+00
 -1      2120 1.10438E+02 9.07509E+00 0.00000E+00
 -1      2121 1.10762E+02 8.22602E+00 0.00000E+00
 -1      2122 1.10070E+02 1.10764E+01 0.00000E+00
 -1      2123 1.10122E+02 1.01601E+01 0.00000E+00
 -1      2124 1.10108E+02 1.28333E+01 0.00000E+00
 -1      2125 1.10089E+02 1.19548E+01 0.00000E+00
 -1      2126 1.09343E+02 1.14531E+01 0.00000E+00
 -1      2127 1.10542E+02 1.47785E+01 0.00000E+00
 -1      2128 1.10331E+02 1.39191E+01 0.00000E+00
 -1      2129 1.11343E+02 1.66017E+01 0.00000E+00
 -1      2130 1.10896E+02 1.57922E+01 0.00000E+00
 -1      2131 1.12704E+02 1.80711E+01 0.00000E+00
 -1      2132 1.12051E+02 1.74526E+01 0.00000E+00
 -1      2133 1.14061E+02 1.92982E+01 0.00000E+00
 -1      2134 1.13366E+02 1.87887E+01 0.00000E+00
 -1      2135 1.15696E+02 2.02144E+01 0.00000E+00
 -1      2136 1.14911E+02 1.98179E+01 0.00000E+00
 -1      2137 1.17557E+02 2.07090E+01 0.00000E+00
 -1      2138 1.16709E+02 2.05281E+01 0.00000E+00
 -1      2139 1.19459E+02 2.09043E+01 0.00000E+00
 -1      2140 1.18557E+02 2.08728E+01 0.00000E+00
 -1      2141 1.21491E+02 2.05196E+01 0.00000E+00
 -1      2142 1.20592E+02 2.07682E+01 0.00000E+00
 -1      2143 1.23319E+02 1.98955E+01 0.00000E+00
 -1      2144 1.22405E+02 2.02076E+01 0.00000E+00
 -1      2145 1.22162E+02 2.10777E+01 0.00000E+00
 -1      2146 1.25041E+02 1.83805E+01 0.00000E+00
 -1      2147 1.24402E+02 1.91129E+01 0.00000E+00
 -1      2148 1.26213E+02 1.69219E+01 0.00000E+00
 -1      2149 1.25661E+02 1.76304E+01 0.00000E+00
 -1      2150 1.27101E+02 1.52122E+01 0.00000E+00
 -1      2151 1.26721E+02 1.60177E+01 0.00000E+00
 -1      2152 1.27770E+02 1.34153E+01 0.00000E+00
 -1      2153 1.27531E+02 1.42889E+01 0.00000E+00
 -1      2154 4.84800E+00 4.21150E+00 0.00000E+00
 -1      2155 1.27608E+02 9.47761E+00 0.00000E+00
 -1      2156 1.27800E+02 1.03476E+01 0.00000E+00
 -1      2157 1.23825E+02 2.69348E+00 0.00000E+00
 -1      2158 1.23304E+02 3.86479E+00 0.00000E+00
 -1      2159 1.24050E+02 4.31509E+00 0.00000E+00
 -1      2160 1.24950E+02 2.69348E+00 0.00000E+00
 -1      2161 4.92300E+00 4.57510E+01 0.00000E+00
 -1      2162 1.45776E+02 4.52145E+01 0.00000E+00
 -1      2163 1.20665E+02 2.72723E+00 0.00000E+00
 -1      2164 1.28449E+02 1.08081E+01 0.00000E+00
 -1      2165 6.42300E+00 4.57510E+01 0.00000E+00
 -1      2166 1.16105E+02 2.62959E+00 0.00000E+00
 -1      2167 1.14905E+02 3.11293E+00 0.00000E+00
 -1      2168 7.17300E+00 4.44520E+01 0.00000E+00
 -1      2169 7.09800E+00 5.51050E+00 0.00000E+00
 -1      2170 6.34800E+00 4.21150E+00 0.00000E+00
 -1      2171 1.28083E+02 8.76696E+00 0.00000E+00
 -1      2172 1.27112E+02 6.93594E+00 0.00000E+00
 -1      2173 1.10512E+02 3.53934E+00 0.00000E+00
 -1      2174 1.09238E+02 3.53934E+00 0.00000E+00
 -1      2175 1.28063E+02 4.12302E+00 0.00000E+00
 -1      2176 1.11225E+02 4.64825E+00 0.00000E+00
 -1      2177 1.25588E+02 3.63482E+00 0.00000E+00
 -1      2178 1.25814E+02 5.36394E+00 0.00000E+00
 -1      2179 1.09584E+02 1.34174E+01 0.00000E+00
 -1      2180 1.08488E+02 4.83834E+00 0.00000E+00
 -1      2181 1.46063E+02 4.42102E+01 0.00000E+00
 -1      2182 1.28418E+02 1.29532E+01 0.00000E+00
 -1      2183 1.09639E+02 9.48965E+00 0.00000E+00
 -1      2184 1.27927E+02 1.49685E+01 0.00000E+00
 -1      2185 1.26989E+02 1.67959E+01 0.00000E+00
 -1      2186 1.24159E+02 1.99830E+01 0.00000E+00
 -1      2187 1.23916E+02 2.08531E+01 0.00000E+00
 -1      2188 1.24998E+02 2.00705E+01 0.00000E+00
 -1      2189 1.20114E+02 2.15258E+01 0.00000E+00
 -1      2190 1.17981E+02 2.14981E+01 0.00000E+00
 -1      2191 1.15968E+02 2.10206E+01 0.00000E+00
 -1      2192 1.14106E+02 2.01872E+01 0.00000E+00
 -1      2193 1.12594E+02 1.89499E+01 0.00000E+00
 -1      2194 1.11224E+02 1.73814E+01 0.00000E+00
 -1      2195 1.10428E+02 7.40489E+00 0.00000E+00
 -1      2196 1.11738E+02 5.61048E+00 0.00000E+00
 -1      2197 1.15505E+02 4.07789E+00 0.00000E+00
 -1      2198 1.16342E+02 3.80092E+00 0.00000E+00
 -1      2199 1.14008E+02 4.87255E+00 0.00000E+00
 -1      2200 1.14696E+02 4.37488E+00 0.00000E+00
 -1      2201 1.15001E+02 3.92484E+00 0.00000E+00
 -1      2202 1.13384E+02 4.51883E+00 0.00000E+00
 -1      2203 1.10161E+02 1.55169E+01 0.00000E+00
 -1      2204 1.25862E+02 1.84503E+01 0.00000E+00
 -1      2205 1.44764E+02 4.34727E+01 0.00000E+00
 -1      2206 1.29221E+02 1.24504E+01 0.00000E+00
 -1      2207 1.29160E+02 1.35423E+01 0.00000E+00
 -1      2208 6.49500E+00 3.01125E+01 0.00000E+00
 -1      2209 6.49500E+00 3.15875E+01 0.00000E+00
 -1      2210 6.49500E+00 3.30625E+01 0.00000E+00
 -1      2211 6.49500E+00 3.45375E+01 0.00000E+00
 -1      2212 7.79400E+00 3.23250E+01 0.00000E+00
 -1      2213 6.49500E+00 2.42125E+01 0.00000E+00
 -1      2214 6.49500E+00 2.56875E+01 0.00000E+00
 -1      2215 6.49500E+00 2.12625E+01 0.00000E+00
 -1      2216 6.49500E+00 2.27375E+01 0.00000E+00
 -1      2217 7.79400E+00 2.34750E+01 0.00000E+00
 -1      2218 6.49500E+00 1.83625E+01 0.00000E+00
 -1      2219 6.49500E+00 1.98125E+01 0.00000E+00
 -1      2220 7.79400E+00 2.05500E+01 0.00000E+00
 -1      2221 6.49500E+00 1.54125E+01 0.00000E+00
 -1      2222 6.49500E+00 1.68875E+01 0.00000E+00
 -1      2223 7.79400E+00 1.76250E+01 0.00000E+00
 -1      2224 6.49500E+00 1.24625E+01 0.00000E+00
 -1      2225 6.49500E+00 1.39375E+01 0.00000E+00
 -1      2226 7.79400E+00 1.46750E+01 0.00000E+00
 -1      2227 6.49500E+00 9.51250E+00 0.00000E+00
 -1      2228 6.49500E+00 1.09875E+01 0.00000E+00
 -1      2229 7.79400E+00 1.17250E+01 0.00000E+00
 -1      2230 6.79650E+00 6.77400E+00 0.00000E+00
 -1      2231 6.79650E+00 8.24900E+00 0.00000E+00
 -1      2232 8.09550E+00 8.98650E+00 0.00000E+00
 -1      2233 8.69850E+00 6.45950E+00 0.00000E+00
 -1      2234 9.90000E+00 4.35050E+01 0.00000E+00
 -1      2235 1.14000E+01 4.35050E+01 0.00000E+00
 -1      2236 6.55950E+00 4.28890E+01 0.00000E+00
 -1      2237 8.53650E+00 4.32410E+01 0.00000E+00
 -1      2238 9.28650E+00 4.19420E+01 0.00000E+00
 -1      2239 6.55950E+00 4.14140E+01 0.00000E+00
 -1      2240 1.29000E+01 4.35050E+01 0.00000E+00
 -1      2241 1.44000E+01 4.35050E+01 0.00000E+00
 -1      2242 1.21500E+01 4.22060E+01 0.00000E+00
 -1      2243 1.59000E+01 4.35050E+01 0.00000E+00
 -1      2244 1.74000E+01 4.35050E+01 0.00000E+00
 -1      2245 1.51500E+01 4.22060E+01 0.00000E+00
 -1      2246 1.89000E+01 4.35050E+01 0.00000E+00
 -1      2247 2.04000E+01 4.35050E+01 0.00000E+00
 -1      2248 1.81500E+01 4.22060E+01 0.00000E+00
 -1      2249 2.19000E+01 4.35050E+01 0.00000E+00
 -1      2250 2.34000E+01 4.35050E+01 0.00000E+00
 -1      2251 2.11500E+01 4.22060E+01 0.00000E+00
 -1      2252 2.49000E+01 4.35050E+01 0.00000E+00
 -1      2253 2.64000E+01 4.35050E+01 0.00000E+00
 -1      2254 2.41500E+01 4.22060E+01 0.00000E+00
 -1      2255 2.79000E+01 4.35050E+01 0.00000E+00
 -1      2256 2.94000E+01 4.35050E+01 0.00000E+00
 -1      2257 2.71500E+01 4.22060E+01 0.00000E+00
 -1      2258 3.09000E+01 4.35050E+01 0.00000E+00
 -1      2259 3.24000E+01 4.35050E+01 0.00000E+00
 -1      2260 3.01500E+01 4.22060E+01 0.00000E+00
 -1      2261 3.39000E+01 4.35050E+01 0.00000E+00
 -1      2262 3.54000E+01 4.35050E+01 0.00000E+00
 -1      2263 3.31500E+01 4.22060E+01 0.00000E+00
 -1      2264 3.69000E+01 4.35050E+01 0.00000E+00
 -1      2265 3.84000E+01 4.35050E+01 0.00000E+00
 -1      2266 3.61500E+01 4.22060E+01 0.00000E+00
 -1      2267 3.99000E+01 4.35050E+01 0.00000E+00
 -1      2268 4.14000E+01 4.35050E+01 0.00000E+00
 -1      2269 3.91500E+01 4.22060E+01 0.00000E+00
 -1      2270 4.29000E+01 4.35050E+01 0.00000E+00
 -1      2271 4.44000E+01 4.35050E+01 0.00000E+00
 -1      2272 4.21500E+01 4.22060E+01 0.00000E+00
 -1      2273 4.59000E+01 4.35050E+01 0.00000E+00
 -1      2274 4.74000E+01 4.35050E+01 0.00000E+00
 -1      2275 4.51500E+01 4.22060E+01 0.00000E+00
 -1      2276 4.89000E+01 4.35050E+01 0.00000E+00
 -1      2277 5.04000E+01 4.35050E+01 0.00000E+00
 -1      2278 4.81500E+01 4.22060E+01 0.00000E+00
 -1      2279 5.19000E+01 4.35050E+01 0.00000E+00
 -1      2280 5.34000E+01 4.35050E+01 0.00000E+00
 -1      2281 5.11500E+01 4.22060E+01 0.00000E+00
 -1      2282 5.49000E+01 4.35050E+01 0.00000E+00
 -1      2283 5.64000E+01 4.35050E+01 0.00000E+00
 -1      2284 5.41500E+01 4.22060E+01 0.00000E+00
 -1      2285 5.79000E+01 4.35050E+01 0.00000E+00
 -1      2286 5.94000E+01 4.35050E+01 0.00000E+00
 -1      2287 5.71500E+01 4.22060E+01 0.00000E+00
 -1      2288 6.09000E+01 4.35050E+01 0.00000E+00
 -1      2289 6.24000E+01 4.35050E+01 0.00000E+00
 -1      2290 6.01500E+01 4.22060E+01 0.00000E+00
 -1      2291 6.39000E+01 4.35050E+01 0.00000E+00
 -1      2292 6.54000E+01 4.35050E+01 0.00000E+00
 -1      2293 6.31500E+01 4.22060E+01 0.00000E+00
 -1      2294 6.69000E+01 4.35050E+01 0.00000E+00
 -1      2295 6.84000E+01 4.35050E+01 0.00000E+00
 -1      2296 6.61500E+01 4.22060E+01 0.00000E+00
 -1      2297 6.99000E+01 4.35050E+01 0.00000E+00
 -1      2298 7.14000E+01 4.35050E+01 0.00000E+00
 -1      2299 6.91500E+01 4.22060E+01 0.00000E+00
 -1      2300 7.29000E+01 4.35050E+01 0.00000E+00
 -1      2301 7.44000E+01 4.35050E+01 0.00000E+00
 -1      2302 7.21500E+01 4.22060E+01 0.00000E+00
 -1      2303 7.59000E+01 4.35050E+01 0.00000E+00
 -1      2304 7.74000E+01 4.35050E+01 0.00000E+00
 -1      2305 7.51500E+01 4.22060E+01 0.00000E+00
 -1      2306 7.89000E+01 4.35050E+01 0.00000E+00
 -1      2307 8.04000E+01 4.35050E+01 0.00000E+00
 -1      2308 7.81500E+01 4.22060E+01 0.00000E+00
 -1      2309 8.19000E+01 4.35050E+01 0.00000E+00
 -1      2310 8.34000E+01 4.35050E+01 0.00000E+00
 -1      2311 8.11500E+01 4.22060E+01 0.00000E+00
 -1      2312 8.49000E+01 4.35050E+01 0.00000E+00
 -1      2313 8.64000E+01 4.35050E+01 0.00000E+00
 -1      2314 8.41500E+01 4.22060E+01 0.00000E+00
 -1      2315 8.79000E+01 4.35050E+01 0.00000E+00
 -1      2316 8.94000E+01 4.35050E+01 0.00000E+00
 -1      2317 8.71500E+01 4.22060E+01 0.00000E+00
 -1      2318 9.09000E+01 4.35050E+01 0.00000E+00
 -1      2319 9.24000E+01 4.35050E+01 0.00000E+00
 -1      2320 9.01500E+01 4.22060E+01 0.00000E+00
 -1      2321 9.39000E+01 4.35050E+01 0.00000E+00
 -1      2322 9.54000E+01 4.35050E+01 0.00000E+00
 -1      2323 9.31500E+01 4.22060E+01 0.00000E+00
 -1      2324 9.69000E+01 4.35050E+01 0.00000E+00
 -1      2325 9.84000E+01 4.35050E+01 0.00000E+00
 -1      2326 9.61500E+01 4.22060E+01 0.00000E+00
 -1      2327 9.99000E+01 4.35050E+01 0.00000E+00
 -1      2328 1.01400E+02 4.35050E+01 0.00000E+00
 -1      2329 9.91500E+01 4.22060E+01 0.00000E+00
 -1      2330 1.02900E+02 4.35050E+01 0.00000E+00
 -1      2331 1.04400E+02 4.35050E+01 0.00000E+00
 -1      2332 1.02150E+02 4.22060E+01 0.00000E+00
 -1      2333 1.05900E+02 4.35050E+01 0.00000E+00
 -1      2334 1.07400E+02 4.35050E+01 0.00000E+00
 -1      2335 1.05150E+02 4.22060E+01 0.00000E+00
 -1      2336 1.08900E+02 4.35050E+01 0.00000E+00
 -1      2337 1.10400E+02 4.35050E+01 0.00000E+00
 -1      2338 1.08150E+02 4.22060E+01 0.00000E+00
 -1      2339 1.11900E+02 4.35050E+01 0.00000E+00
 -1      2340 1.13400E+02 4.35050E+01 0.00000E+00
 -1      2341 1.11150E+02 4.22060E+01 0.00000E+00
 -1      2342 1.14900E+02 4.35050E+01 0.00000E+00
 -1      2343 1.16400E+02 4.35050E+01 0.00000E+00
 -1      2344 1.14150E+02 4.22060E+01 0.00000E+00
 -1      2345 1.17900E+02 4.35050E+01 0.00000E+00
 -1      2346 1.19400E+02 4.35050E+01 0.00000E+00
 -1      2347 1.17150E+02 4.22060E+01 0.00000E+00
 -1      2348 1.20900E+02 4.35050E+01 0.00000E+00
 -1      2349 1.22400E+02 4.35050E+01 0.00000E+00
 -1      2350 1.20150E+02 4.22060E+01 0.00000E+00
 -1      2351 1.23900E+02 4.35050E+01 0.00000E+00
 -1      2352 1.25400E+02 4.35050E+01 0.00000E+00
 -1      2353 1.23150E+02 4.22060E+01 0.00000E+00
 -1      2354 1.26900E+02 4.35050E+01 0.00000E+00
 -1      2355 1.28400E+02 4.35050E+01 0.00000E+00
 -1      2356 1.26150E+02 4.22060E+01 0.00000E+00
 -1      2357 1.29900E+02 4.35050E+01 0.00000E+00
 -1      2358 1.31400E+02 4.35050E+01 0.00000E+00
 -1      2359 1.29150E+02 4.22060E+01 0.00000E+00
 -1      2360 1.32900E+02 4.35050E+01 0.00000E+00
 -1      2361 1.34400E+02 4.35050E+01 0.00000E+00
 -1      2362 1.32150E+02 4.22060E+01 0.00000E+00
 -1      2363 1.35900E+02 4.35050E+01 0.00000E+00
 -1      2364 1.37400E+02 4.35050E+01 0.00000E+00
 -1      2365 1.35150E+02 4.22060E+01 0.00000E+00
 -1      2366 1.38900E+02 4.35050E+01 0.00000E+00
 -1      2367 1.40400E+02 4.35050E+01 0.00000E+00
 -1      2368 1.38150E+02 4.22060E+01 0.00000E+00
 -1      2369 1.41832E+02 4.34888E+01 0.00000E+00
 -1      2370 1.43332E+02 4.34888E+01 0.00000E+00
 -1      2371 1.43945E+02 4.21575E+01 0.00000E+00
 -1      2372 1.41082E+02 4.21898E+01 0.00000E+00
 -1      2373 1.72500E+01 6.49500E+00 0.00000E+00
 -1      2374 1.57500E+01 6.49500E+00 0.00000E+00
 -1      2375 1.31700E+02 5.67338E+00 0.00000E+00
 -1      2376 1.30200E+02 5.67338E+00 0.00000E+00
 -1      2377 2.02500E+01 6.49500E+00 0.00000E+00
 -1      2378 1.87500E+01 6.49500E+00 0.00000E+00
 -1      2379 1.80000E+01 7.79400E+00 0.00000E+00
 -1      2380 2.32500E+01 6.49500E+00 0.00000E+00
 -1      2381 2.17500E+01 6.49500E+00 0.00000E+00
 -1      2382 2.10000E+01 7.79400E+00 0.00000E+00
 -1      2383 2.62500E+01 6.49500E+00 0.00000E+00
 -1      2384 2.47500E+01 6.49500E+00 0.00000E+00
 -1      2385 2.40000E+01 7.79400E+00 0.00000E+00
 -1      2386 2.92500E+01 6.49500E+00 0.00000E+00
 -1      2387 2.77500E+01 6.49500E+00 0.00000E+00
 -1      2388 2.70000E+01 7.79400E+00 0.00000E+00
 -1      2389 3.22500E+01 6.49500E+00 0.00000E+00
 -1      2390 3.07500E+01 6.49500E+00 0.00000E+00
 -1      2391 3.00000E+01 7.79400E+00 0.00000E+00
 -1      2392 3.52500E+01 6.49500E+00 0.00000E+00
 -1      2393 3.37500E+01 6.49500E+00 0.00000E+00
 -1      2394 3.30000E+01 7.79400E+00 0.00000E+00
 -1      2395 3.81000E+01 6.49500E+00 0.00000E+00
 -1      2396 3.66750E+01 6.49500E+00 0.00000E+00
 -1      2397 3.59250E+01 7.79400E+00 0.00000E+00
 -1      2398 4.11000E+01 6.49500E+00 0.00000E+00
 -1      2399 3.96000E+01 6.49500E+00 0.00000E+00
 -1      2400 3.88500E+01 7.79400E+00 0.00000E+00
 -1      2401 4.41000E+01 6.49500E+00 0.00000E+00
 -1      2402 4.26000E+01 6.49500E+00 0.00000E+00
 -1      2403 4.18500E+01 7.79400E+00 0.00000E+00
 -1      2404 4.71000E+01 6.49500E+00 0.00000E+00
 -1      2405 4.56000E+01 6.49500E+00 0.00000E+00
 -1      2406 4.48500E+01 7.79400E+00 0.00000E+00
 -1      2407 5.01000E+01 6.49500E+00 0.00000E+00
 -1      2408 4.86000E+01 6.49500E+00 0.00000E+00
 -1      2409 4.78500E+01 7.79400E+00 0.00000E+00
 -1      2410 5.31000E+01 6.49500E+00 0.00000E+00
 -1      2411 5.16000E+01 6.49500E+00 0.00000E+00
 -1      2412 5.08500E+01 7.79400E+00 0.00000E+00
 -1      2413 5.61000E+01 6.49500E+00 0.00000E+00
 -1      2414 5.46000E+01 6.49500E+00 0.00000E+00
 -1      2415 5.38500E+01 7.79400E+00 0.00000E+00
 -1      2416 5.91000E+01 6.49500E+00 0.00000E+00
 -1      2417 5.76000E+01 6.49500E+00 0.00000E+00
 -1      2418 5.68500E+01 7.79400E+00 0.00000E+00
 -1      2419 6.21000E+01 6.49500E+00 0.00000E+00
 -1      2420 6.06000E+01 6.49500E+00 0.00000E+00
 -1      2421 5.98500E+01 7.79400E+00 0.00000E+00
 -1      2422 6.51000E+01 6.49500E+00 0.00000E+00
 -1      2423 6.36000E+01 6.49500E+00 0.00000E+00
 -1      2424 6.28500E+01 7.79400E+00 0.00000E+00
 -1      2425 6.81000E+01 6.49500E+00 0.00000E+00
 -1      2426 6.66000E+01 6.49500E+00 0.00000E+00
 -1      2427 6.58500E+01 7.79400E+00 0.00000E+00
 -1      2428 7.11000E+01 6.49500E+00 0.00000E+00
 -1      2429 6.96000E+01 6.49500E+00 0.00000E+00
 -1      2430 6.88500E+01 7.79400E+00 0.00000E+00
 -1      2431 7.41000E+01 6.49500E+00 0.00000E+00
 -1      2432 7.26000E+01 6.49500E+00 0.00000E+00
 -1      2433 7.18500E+01 7.79400E+00 0.00000E+00
 -1      2434 7.69500E+01 6.49500E+00 0.00000E+00
 -1      2435 7.55250E+01 6.49500E+00 0.00000E+00
 -1      2436 7.47750E+01 7.79400E+00 0.00000E+00
 -1      2437 7.99500E+01 6.49500E+00 0.00000E+00
 -1      2438 7.84500E+01 6.49500E+00 0.00000E+00
 -1      2439 7.77000E+01 7.79400E+00 0.00000E+00
 -1      2440 8.29500E+01 6.49500E+00 0.00000E+00
 -1      2441 8.14500E+01 6.49500E+00 0.00000E+00
 -1      2442 8.07000E+01 7.79400E+00 0.00000E+00
 -1      2443 8.59500E+01 6.49500E+00 0.00000E+00
 -1      2444 8.44500E+01 6.49500E+00 0.00000E+00
 -1      2445 8.37000E+01 7.79400E+00 0.00000E+00
 -1      2446 8.89500E+01 6.49500E+00 0.00000E+00
 -1      2447 8.74500E+01 6.49500E+00 0.00000E+00
 -1      2448 8.67000E+01 7.79400E+00 0.00000E+00
 -1      2449 9.19500E+01 6.49500E+00 0.00000E+00
 -1      2450 9.04500E+01 6.49500E+00 0.00000E+00
 -1      2451 8.97000E+01 7.79400E+00 0.00000E+00
 -1      2452 9.49500E+01 6.49500E+00 0.00000E+00
 -1      2453 9.34500E+01 6.49500E+00 0.00000E+00
 -1      2454 9.27000E+01 7.79400E+00 0.00000E+00
 -1      2455 9.79500E+01 6.49500E+00 0.00000E+00
 -1      2456 9.64500E+01 6.49500E+00 0.00000E+00
 -1      2457 9.57000E+01 7.79400E+00 0.00000E+00
 -1      2458 1.00950E+02 6.49500E+00 0.00000E+00
 -1      2459 9.94500E+01 6.49500E+00 0.00000E+00
 -1      2460 9.87000E+01 7.79400E+00 0.00000E+00
 -1      2461 1.03950E+02 6.49500E+00 0.00000E+00
 -1      2462 1.02450E+02 6.49500E+00 0.00000E+00
 -1      2463 1.01700E+02 7.79400E+00 0.00000E+00
 -1      2464 1.06350E+02 6.49500E+00 0.00000E+00
 -1      2465 1.05150E+02 6.49500E+00 0.00000E+00
 -1      2466 1.04400E+02 7.79400E+00 0.00000E+00
 -1      2467 1.14096E+02 3.40992E+00 0.00000E+00
 -1      2468 1.34700E+02 5.67338E+00 0.00000E+00
 -1      2469 1.33200E+02 5.67338E+00 0.00000E+00
 -1      2470 1.32450E+02 6.86608E+00 0.00000E+00
 -1      2471 1.45122E+02 5.91905E+00 0.00000E+00
 -1      2472 1.44241E+02 5.69764E+00 0.00000E+00
 -1      2473 1.44913E+02 7.13601E+00 0.00000E+00
 -1      2474 1.44078E+02 1.49163E+01 0.00000E+00
 -1      2475 1.44078E+02 1.34663E+01 0.00000E+00
 -1      2476 1.44078E+02 1.78663E+01 0.00000E+00
 -1      2477 1.44078E+02 1.63913E+01 0.00000E+00
 -1      2478 1.42779E+02 1.56663E+01 0.00000E+00
 -1      2479 1.44078E+02 1.19913E+01 0.00000E+00
 -1      2480 1.44078E+02 1.05163E+01 0.00000E+00
 -1      2481 1.42779E+02 1.27163E+01 0.00000E+00
 -1      2482 1.44078E+02 2.08163E+01 0.00000E+00
 -1      2483 1.44078E+02 1.93413E+01 0.00000E+00
 -1      2484 1.42779E+02 1.86163E+01 0.00000E+00
 -1      2485 1.44078E+02 2.37663E+01 0.00000E+00
 -1      2486 1.44078E+02 2.22913E+01 0.00000E+00
 -1      2487 1.42779E+02 2.15663E+01 0.00000E+00
 -1      2488 1.44078E+02 2.67163E+01 0.00000E+00
 -1      2489 1.44078E+02 2.52413E+01 0.00000E+00
 -1      2490 1.42779E+02 2.45163E+01 0.00000E+00
 -1      2491 1.44078E+02 2.96663E+01 0.00000E+00
 -1      2492 1.44078E+02 2.81913E+01 0.00000E+00
 -1      2493 1.42779E+02 2.74663E+01 0.00000E+00
 -1      2494 1.44078E+02 3.25663E+01 0.00000E+00
 -1      2495 1.44078E+02 3.11163E+01 0.00000E+00
 -1      2496 1.42779E+02 3.03913E+01 0.00000E+00
 -1      2497 1.44078E+02 3.55163E+01 0.00000E+00
 -1      2498 1.44078E+02 3.40413E+01 0.00000E+00
 -1      2499 1.42779E+02 3.33163E+01 0.00000E+00
 -1      2500 1.44078E+02 3.84663E+01 0.00000E+00
 -1      2501 1.44078E+02 3.69913E+01 0.00000E+00
 -1      2502 1.42779E+02 3.62663E+01 0.00000E+00
 -1      2503 1.44012E+02 4.10494E+01 0.00000E+00
 -1      2504 1.44012E+02 3.95744E+01 0.00000E+00
 -1      2505 1.42713E+02 3.88494E+01 0.00000E+00
 -1      2506 1.42580E+02 4.10656E+01 0.00000E+00
 -1      2507 1.08855E+02 1.41325E+01 0.00000E+00
 -1      2508 1.08633E+02 1.30467E+01 0.00000E+00
 -1      2509 1.08779E+02 9.82772E+00 0.00000E+00
 -1      2510 1.09094E+02 8.74269E+00 0.00000E+00
 -1      2511 1.20778E+02 2.22676E+01 0.00000E+00
 -1      2512 1.19645E+02 2.24037E+01 0.00000E+00
 -1      2513 1.09395E+02 5.48992E+00 0.00000E+00
 -1      2514 1.08008E+02 5.84758E+00 0.00000E+00
 -1      2515 1.40700E+02 5.77968E+00 0.00000E+00
 -1      2516 1.39200E+02 5.77968E+00 0.00000E+00
 -1      2517 1.37700E+02 5.77968E+00 0.00000E+00
 -1      2518 1.36200E+02 5.77968E+00 0.00000E+00
 -1      2519 1.38450E+02 7.07868E+00 0.00000E+00
 -1      2520 1.10388E+02 5.44291E+00 0.00000E+00
 -1      2521 1.16985E+01 6.45950E+00 0.00000E+00
 -1      2522 1.01985E+01 6.45950E+00 0.00000E+00
 -1      2523 9.89700E+00 7.72300E+00 0.00000E+00
 -1      2524 6.49500E+00 2.71625E+01 0.00000E+00
 -1      2525 6.49500E+00 2.86375E+01 0.00000E+00
 -1      2526 7.79400E+00 2.93750E+01 0.00000E+00
 -1      2527 7.79400E+00 2.64250E+01 0.00000E+00
 -1      2528 1.44742E+01 6.47725E+00 0.00000E+00
 -1      2529 1.29742E+01 6.47725E+00 0.00000E+00
 -1      2530 1.26728E+01 7.74075E+00 0.00000E+00
 -1      2531 1.52242E+01 7.77625E+00 0.00000E+00
 -1      2532 1.24826E+02 4.06959E+00 0.00000E+00
 -1      2533 1.09608E+02 1.62791E+01 0.00000E+00
 -1      2534 1.09254E+02 1.52654E+01 0.00000E+00
 -1      2535 1.29291E+02 1.02573E+01 0.00000E+00
 -1      2536 1.29321E+02 1.13104E+01 0.00000E+00
 -1      2537 1.28805E+02 1.48156E+01 0.00000E+00
 -1      2538 1.28376E+02 1.57389E+01 0.00000E+00
 -1      2539 1.08495E+02 1.19108E+01 0.00000E+00
 -1      2540 1.08476E+02 1.10324E+01 0.00000E+00
 -1      2541 1.26833E+02 1.86215E+01 0.00000E+00
 -1      2542 1.26213E+02 1.93717E+01 0.00000E+00
 -1      2543 1.09435E+02 7.45189E+00 0.00000E+00
 -1      2544 1.09908E+02 6.45215E+00 0.00000E+00
 -1      2545 1.10919E+02 1.83555E+01 0.00000E+00
 -1      2546 1.10211E+02 1.75046E+01 0.00000E+00
 -1      2547 1.12388E+02 1.98051E+01 0.00000E+00
 -1      2548 1.11725E+02 1.90875E+01 0.00000E+00
 -1      2549 1.14105E+02 2.11428E+01 0.00000E+00
 -1      2550 1.13255E+02 2.06231E+01 0.00000E+00
 -1      2551 1.16220E+02 2.19966E+01 0.00000E+00
 -1      2552 1.15208E+02 2.16829E+01 0.00000E+00
 -1      2553 1.18342E+02 2.24263E+01 0.00000E+00
 -1      2554 1.17342E+02 2.22625E+01 0.00000E+00
 -1      2555 1.22869E+02 2.16539E+01 0.00000E+00
 -1      2556 1.21955E+02 2.19660E+01 0.00000E+00
 -1      2557 1.27918E+02 1.67228E+01 0.00000E+00
 -1      2558 1.27410E+02 1.76269E+01 0.00000E+00
 -1      2559 1.28807E+02 7.97003E+00 0.00000E+00
 -1      2560 1.29142E+02 8.95811E+00 0.00000E+00
 -1      2561 1.27479E+02 5.99812E+00 0.00000E+00
 -1      2562 1.28114E+02 6.84107E+00 0.00000E+00
 -1      2563 1.25914E+02 4.20013E+00 0.00000E+00
 -1      2564 1.26576E+02 4.92918E+00 0.00000E+00
 -1      2565 1.27578E+02 4.83431E+00 0.00000E+00
 -1      2566 7.79400E+00 3.52687E+01 0.00000E+00
 -1      2567 6.49500E+00 3.60062E+01 0.00000E+00
 -1      2568 6.49500E+00 3.74750E+01 0.00000E+00
 -1      2569 6.55950E+00 3.99453E+01 0.00000E+00
 -1      2570 1.42741E+02 5.69764E+00 0.00000E+00
 -1      2571 1.29716E+02 6.38466E+00 0.00000E+00
 -1      2572 1.28966E+02 5.19196E+00 0.00000E+00
 -1      2573 1.30015E+02 9.46040E+00 0.00000E+00
 -1      2574 1.07258E+02 7.14658E+00 0.00000E+00
 -1      2575 1.30063E+02 1.18996E+01 0.00000E+00
 -1      2576 1.35450E+02 6.97238E+00 0.00000E+00
 -1      2577 1.44391E+02 9.43466E+00 0.00000E+00
 -1      2578 1.44600E+02 8.21770E+00 0.00000E+00
 -1      2579 1.43719E+02 7.99628E+00 0.00000E+00
 -1      2580 1.43092E+02 1.01597E+01 0.00000E+00
 -1      2581 1.08302E+02 1.48948E+01 0.00000E+00
 -1      2582 1.07931E+02 1.02854E+01 0.00000E+00
 -1      2583 1.30411E+02 1.38100E+01 0.00000E+00
 -1      2584 1.29608E+02 1.43128E+01 0.00000E+00
 -1      2585 1.30057E+02 1.50833E+01 0.00000E+00
 -1      2586 1.08575E+02 7.78996E+00 0.00000E+00
 -1      2587 1.19006E+02 2.31681E+01 0.00000E+00
 -1      2588 1.25969E+02 2.02418E+01 0.00000E+00
 -1      2589 1.25726E+02 2.11118E+01 0.00000E+00
 -1      2590 1.26940E+02 2.04130E+01 0.00000E+00
 -1      2591 1.29173E+02 7.03221E+00 0.00000E+00
 -1      2592 1.28796E+02 1.65699E+01 0.00000E+00
 -1      2593 1.23709E+02 2.17414E+01 0.00000E+00
 -1      2594 1.23501E+02 2.26297E+01 0.00000E+00
 -1      2595 1.24548E+02 2.18289E+01 0.00000E+00
 -1      2596 1.16582E+02 2.29248E+01 0.00000E+00
 -1      2597 1.14357E+02 2.21188E+01 0.00000E+00
 -1      2598 1.12386E+02 2.07607E+01 0.00000E+00
 -1      2599 1.10712E+02 1.92106E+01 0.00000E+00
 -1      2600 1.27761E+02 1.85484E+01 0.00000E+00
 -1      2601 1.07766E+02 1.26260E+01 0.00000E+00
 -1      2602 1.09303E+02 1.72531E+01 0.00000E+00
 -1      2603 1.21485E+02 2.28439E+01 0.00000E+00
 -1      2604 1.41991E+02 6.99664E+00 0.00000E+00
 -1      2605 9.09300E+00 1.98250E+01 0.00000E+00
 -1      2606 9.09300E+00 2.12750E+01 0.00000E+00
 -1      2607 9.09300E+00 2.27500E+01 0.00000E+00
 -1      2608 9.09300E+00 2.42250E+01 0.00000E+00
 -1      2609 1.03920E+01 2.20250E+01 0.00000E+00
 -1      2610 9.09300E+00 1.39375E+01 0.00000E+00
 -1      2611 9.09300E+00 1.54125E+01 0.00000E+00
 -1      2612 9.09300E+00 1.09875E+01 0.00000E+00
 -1      2613 9.09300E+00 1.24625E+01 0.00000E+00
 -1      2614 1.03920E+01 1.32000E+01 0.00000E+00
 -1      2615 9.64575E+00 8.72350E+00 0.00000E+00
 -1      2616 9.34425E+00 9.98700E+00 0.00000E+00
 -1      2617 1.06433E+01 1.07245E+01 0.00000E+00
 -1      2618 1.11458E+01 8.72350E+00 0.00000E+00
 -1      2619 8.85168E+00 4.05347E+01 0.00000E+00
 -1      2620 1.02152E+01 4.07987E+01 0.00000E+00
 -1      2621 2.47500E+01 9.09300E+00 0.00000E+00
 -1      2622 2.32500E+01 9.09300E+00 0.00000E+00
 -1      2623 1.44000E+01 4.09070E+01 0.00000E+00
 -1      2624 1.59000E+01 4.09070E+01 0.00000E+00
 -1      2625 1.74000E+01 4.09070E+01 0.00000E+00
 -1      2626 1.89000E+01 4.09070E+01 0.00000E+00
 -1      2627 1.66500E+01 3.96080E+01 0.00000E+00
 -1      2628 2.04000E+01 4.09070E+01 0.00000E+00
 -1      2629 2.19000E+01 4.09070E+01 0.00000E+00
 -1      2630 1.96500E+01 3.96080E+01 0.00000E+00
 -1      2631 2.34000E+01 4.09070E+01 0.00000E+00
 -1      2632 2.49000E+01 4.09070E+01 0.00000E+00
 -1      2633 2.26500E+01 3.96080E+01 0.00000E+00
 -1      2634 2.64000E+01 4.09070E+01 0.00000E+00
 -1      2635 2.79000E+01 4.09070E+01 0.00000E+00
 -1      2636 2.56500E+01 3.96080E+01 0.00000E+00
 -1      2637 2.94000E+01 4.09070E+01 0.00000E+00
 -1      2638 3.09000E+01 4.09070E+01 0.00000E+00
 -1      2639 2.86500E+01 3.96080E+01 0.00000E+00
 -1      2640 3.24000E+01 4.09070E+01 0.00000E+00
 -1      2641 3.39000E+01 4.09070E+01 0.00000E+00
 -1      2642 3.16500E+01 3.96080E+01 0.00000E+00
 -1      2643 3.54000E+01 4.09070E+01 0.00000E+00
 -1      2644 3.69000E+01 4.09070E+01 0.00000E+00
 -1      2645 3.46500E+01 3.96080E+01 0.00000E+00
 -1      2646 3.84000E+01 4.09070E+01 0.00000E+00
 -1      2647 3.99000E+01 4.09070E+01 0.00000E+00
 -1      2648 3.76500E+01 3.96080E+01 0.00000E+00
 -1      2649 4.14000E+01 4.09070E+01 0.00000E+00
 -1      2650 4.29000E+01 4.09070E+01 0.00000E+00
 -1      2651 4.06500E+01 3.96080E+01 0.00000E+00
 -1      2652 4.44000E+01 4.09070E+01 0.00000E+00
 -1      2653 4.59000E+01 4.09070E+01 0.00000E+00
 -1      2654 4.36500E+01 3.96080E+01 0.00000E+00
 -1      2655 4.74000E+01 4.09070E+01 0.00000E+00
 -1      2656 4.89000E+01 4.09070E+01 0.00000E+00
 -1      2657 4.66500E+01 3.96080E+01 0.00000E+00
 -1      2658 5.04000E+01 4.09070E+01 0.00000E+00
 -1      2659 5.19000E+01 4.09070E+01 0.00000E+00
 -1      2660 4.96500E+01 3.96080E+01 0.00000E+00
 -1      2661 5.34000E+01 4.09070E+01 0.00000E+00
 -1      2662 5.49000E+01 4.09070E+01 0.00000E+00
 -1      2663 5.26500E+01 3.96080E+01 0.00000E+00
 -1      2664 5.64000E+01 4.09070E+01 0.00000E+00
 -1      2665 5.79000E+01 4.09070E+01 0.00000E+00
 -1      2666 5.56500E+01 3.96080E+01 0.00000E+00
 -1      2667 5.94000E+01 4.09070E+01 0.00000E+00
 -1      2668 6.09000E+01 4.09070E+01 0.00000E+00
 -1      2669 5.86500E+01 3.96080E+01 0.00000E+00
 -1      2670 6.24000E+01 4.09070E+01 0.00000E+00
 -1      2671 6.39000E+01 4.09070E+01 0.00000E+00
 -1      2672 6.16500E+01 3.96080E+01 0.00000E+00
 -1      2673 6.54000E+01 4.09070E+01 0.00000E+00
 -1      2674 6.69000E+01 4.09070E+01 0.00000E+00
 -1      2675 6.46500E+01 3.96080E+01 0.00000E+00
 -1      2676 6.84000E+01 4.09070E+01 0.00000E+00
 -1      2677 6.99000E+01 4.09070E+01 0.00000E+00
 -1      2678 6.76500E+01 3.96080E+01 0.00000E+00
 -1      2679 7.14000E+01 4.09070E+01 0.00000E+00
 -1      2680 7.29000E+01 4.09070E+01 0.00000E+00
 -1      2681 7.06500E+01 3.96080E+01 0.00000E+00
 -1      2682 7.44000E+01 4.09070E+01 0.00000E+00
 -1      2683 7.59000E+01 4.09070E+01 0.00000E+00
 -1      2684 7.36500E+01 3.96080E+01 0.00000E+00
 -1      2685 7.74000E+01 4.09070E+01 0.00000E+00
 -1      2686 7.89000E+01 4.09070E+01 0.00000E+00
 -1      2687 7.66500E+01 3.96080E+01 0.00000E+00
 -1      2688 8.04000E+01 4.09070E+01 0.00000E+00
 -1      2689 8.19000E+01 4.09070E+01 0.00000E+00
 -1      2690 7.96500E+01 3.96080E+01 0.00000E+00
 -1      2691 8.34000E+01 4.09070E+01 0.00000E+00
 -1      2692 8.49000E+01 4.09070E+01 0.00000E+00
 -1      2693 8.26500E+01 3.96080E+01 0.00000E+00
 -1      2694 8.64000E+01 4.09070E+01 0.00000E+00
 -1      2695 8.79000E+01 4.09070E+01 0.00000E+00
 -1      2696 8.56500E+01 3.96080E+01 0.00000E+00
 -1      2697 8.94000E+01 4.09070E+01 0.00000E+00
 -1      2698 9.09000E+01 4.09070E+01 0.00000E+00
 -1      2699 8.86500E+01 3.96080E+01 0.00000E+00
 -1      2700 9.24000E+01 4.09070E+01 0.00000E+00
 -1      2701 9.39000E+01 4.09070E+01 0.00000E+00
 -1      2702 9.16500E+01 3.96080E+01 0.00000E+00
 -1      2703 9.54000E+01 4.09070E+01 0.00000E+00
 -1      2704 9.69000E+01 4.09070E+01 0.00000E+00
 -1      2705 9.46500E+01 3.96080E+01 0.00000E+00
 -1      2706 9.84000E+01 4.09070E+01 0.00000E+00
 -1      2707 9.99000E+01 4.09070E+01 0.00000E+00
 -1      2708 9.76500E+01 3.96080E+01 0.00000E+00
 -1      2709 1.01400E+02 4.09070E+01 0.00000E+00
 -1      2710 1.02900E+02 4.09070E+01 0.00000E+00
 -1      2711 1.00650E+02 3.96080E+01 0.00000E+00
 -1      2712 1.04400E+02 4.09070E+01 0.00000E+00
 -1      2713 1.05900E+02 4.09070E+01 0.00000E+00
 -1      2714 1.03650E+02 3.96080E+01 0.00000E+00
 -1      2715 1.07400E+02 4.09070E+01 0.00000E+00
 -1      2716 1.08900E+02 4.09070E+01 0.00000E+00
 -1      2717 1.06650E+02 3.96080E+01 0.00000E+00
 -1      2718 1.10400E+02 4.09070E+01 0.00000E+00
 -1      2719 1.11900E+02 4.09070E+01 0.00000E+00
 -1      2720 1.09650E+02 3.96080E+01 0.00000E+00
 -1      2721 1.13400E+02 4.09070E+01 0.00000E+00
 -1      2722 1.14900E+02 4.09070E+01 0.00000E+00
 -1      2723 1.12650E+02 3.96080E+01 0.00000E+00
 -1      2724 1.16400E+02 4.09070E+01 0.00000E+00
 -1      2725 1.17900E+02 4.09070E+01 0.00000E+00
 -1      2726 1.15650E+02 3.96080E+01 0.00000E+00
 -1      2727 1.19400E+02 4.09070E+01 0.00000E+00
 -1      2728 1.20900E+02 4.09070E+01 0.00000E+00
 -1      2729 1.18650E+02 3.96080E+01 0.00000E+00
 -1      2730 1.22400E+02 4.09070E+01 0.00000E+00
 -1      2731 1.23900E+02 4.09070E+01 0.00000E+00
 -1      2732 1.21650E+02 3.96080E+01 0.00000E+00
 -1      2733 1.25400E+02 4.09070E+01 0.00000E+00
 -1      2734 1.26900E+02 4.09070E+01 0.00000E+00
 -1      2735 1.24650E+02 3.96080E+01 0.00000E+00
 -1      2736 1.28400E+02 4.09070E+01 0.00000E+00
 -1      2737 1.29900E+02 4.09070E+01 0.00000E+00
 -1      2738 1.27650E+02 3.96080E+01 0.00000E+00
 -1      2739 1.31400E+02 4.09070E+01 0.00000E+00
 -1      2740 1.32900E+02 4.09070E+01 0.00000E+00
 -1      2741 1.30650E+02 3.96080E+01 0.00000E+00
 -1      2742 1.34400E+02 4.09070E+01 0.00000E+00
 -1      2743 1.35900E+02 4.09070E+01 0.00000E+00
 -1      2744 1.33650E+02 3.96080E+01 0.00000E+00
 -1      2745 1.37400E+02 4.09070E+01 0.00000E+00
 -1      2746 1.38900E+02 4.09070E+01 0.00000E+00
 -1      2747 1.36650E+02 3.96080E+01 0.00000E+00
 -1      2748 1.40024E+02 4.09944E+01 0.00000E+00
 -1      2749 1.41456E+02 4.09782E+01 0.00000E+00
 -1      2750 1.41522E+02 3.98701E+01 0.00000E+00
 -1      2751 1.39274E+02 3.96954E+01 0.00000E+00
 -1      2752 1.30408E+02 7.51363E+00 0.00000E+00
 -1      2753 1.30792E+02 8.71326E+00 0.00000E+00
 -1      2754 1.30941E+02 1.00125E+01 0.00000E+00
 -1      2755 1.87500E+01 9.09300E+00 0.00000E+00
 -1      2756 1.72500E+01 9.09300E+00 0.00000E+00
 -1      2757 2.77500E+01 9.09300E+00 0.00000E+00
 -1      2758 2.62500E+01 9.09300E+00 0.00000E+00
 -1      2759 2.55000E+01 1.03920E+01 0.00000E+00
 -1      2760 3.07500E+01 9.09300E+00 0.00000E+00
 -1      2761 2.92500E+01 9.09300E+00 0.00000E+00
 -1      2762 2.85000E+01 1.03920E+01 0.00000E+00
 -1      2763 3.37500E+01 9.09300E+00 0.00000E+00
 -1      2764 3.22500E+01 9.09300E+00 0.00000E+00
 -1      2765 3.15000E+01 1.03920E+01 0.00000E+00
 -1      2766 3.66000E+01 9.09300E+00 0.00000E+00
 -1      2767 3.51750E+01 9.09300E+00 0.00000E+00
 -1      2768 3.44250E+01 1.03920E+01 0.00000E+00
 -1      2769 3.96000E+01 9.09300E+00 0.00000E+00
 -1      2770 3.81000E+01 9.09300E+00 0.00000E+00
 -1      2771 3.73500E+01 1.03920E+01 0.00000E+00
 -1      2772 4.26000E+01 9.09300E+00 0.00000E+00
 -1      2773 4.11000E+01 9.09300E+00 0.00000E+00
 -1      2774 4.03500E+01 1.03920E+01 0.00000E+00
 -1      2775 4.56000E+01 9.09300E+00 0.00000E+00
 -1      2776 4.41000E+01 9.09300E+00 0.00000E+00
 -1      2777 4.33500E+01 1.03920E+01 0.00000E+00
 -1      2778 4.86000E+01 9.09300E+00 0.00000E+00
 -1      2779 4.71000E+01 9.09300E+00 0.00000E+00
 -1      2780 4.63500E+01 1.03920E+01 0.00000E+00
 -1      2781 5.16000E+01 9.09300E+00 0.00000E+00
 -1      2782 5.01000E+01 9.09300E+00 0.00000E+00
 -1      2783 4.93500E+01 1.03920E+01 0.00000E+00
 -1      2784 5.46000E+01 9.09300E+00 0.00000E+00
 -1      2785 5.31000E+01 9.09300E+00 0.00000E+00
 -1      2786 5.23500E+01 1.03920E+01 0.00000E+00
 -1      2787 5.76000E+01 9.09300E+00 0.00000E+00
 -1      2788 5.61000E+01 9.09300E+00 0.00000E+00
 -1      2789 5.53500E+01 1.03920E+01 0.00000E+00
 -1      2790 6.06000E+01 9.09300E+00 0.00000E+00
 -1      2791 5.91000E+01 9.09300E+00 0.00000E+00
 -1      2792 5.83500E+01 1.03920E+01 0.00000E+00
 -1      2793 6.36000E+01 9.09300E+00 0.00000E+00
 -1      2794 6.21000E+01 9.09300E+00 0.00000E+00
 -1      2795 6.13500E+01 1.03920E+01 0.00000E+00
 -1      2796 6.66000E+01 9.09300E+00 0.00000E+00
 -1      2797 6.51000E+01 9.09300E+00 0.00000E+00
 -1      2798 6.43500E+01 1.03920E+01 0.00000E+00
 -1      2799 6.96000E+01 9.09300E+00 0.00000E+00
 -1      2800 6.81000E+01 9.09300E+00 0.00000E+00
 -1      2801 6.73500E+01 1.03920E+01 0.00000E+00
 -1      2802 7.26000E+01 9.09300E+00 0.00000E+00
 -1      2803 7.11000E+01 9.09300E+00 0.00000E+00
 -1      2804 7.03500E+01 1.03920E+01 0.00000E+00
 -1      2805 7.54500E+01 9.09300E+00 0.00000E+00
 -1      2806 7.40250E+01 9.09300E+00 0.00000E+00
 -1      2807 7.32750E+01 1.03920E+01 0.00000E+00
 -1      2808 7.84500E+01 9.09300E+00 0.00000E+00
 -1      2809 7.69500E+01 9.09300E+00 0.00000E+00
 -1      2810 7.62000E+01 1.03920E+01 0.00000E+00
 -1      2811 8.14500E+01 9.09300E+00 0.00000E+00
 -1      2812 7.99500E+01 9.09300E+00 0.00000E+00
 -1      2813 7.92000E+01 1.03920E+01 0.00000E+00
 -1      2814 8.44500E+01 9.09300E+00 0.00000E+00
 -1      2815 8.29500E+01 9.09300E+00 0.00000E+00
 -1      2816 8.22000E+01 1.03920E+01 0.00000E+00
 -1      2817 8.74500E+01 9.09300E+00 0.00000E+00
 -1      2818 8.59500E+01 9.09300E+00 0.00000E+00
 -1      2819 8.52000E+01 1.03920E+01 0.00000E+00
 -1      2820 9.04500E+01 9.09300E+00 0.00000E+00
 -1      2821 8.89500E+01 9.09300E+00 0.00000E+00
 -1      2822 8.82000E+01 1.03920E+01 0.00000E+00
 -1      2823 9.34500E+01 9.09300E+00 0.00000E+00
 -1      2824 9.19500E+01 9.09300E+00 0.00000E+00
 -1      2825 9.12000E+01 1.03920E+01 0.00000E+00
 -1      2826 9.64500E+01 9.09300E+00 0.00000E+00
 -1      2827 9.49500E+01 9.09300E+00 0.00000E+00
 -1      2828 9.42000E+01 1.03920E+01 0.00000E+00
 -1      2829 9.94500E+01 9.09300E+00 0.00000E+00
 -1      2830 9.79500E+01 9.09300E+00 0.00000E+00
 -1      2831 9.72000E+01 1.03920E+01 0.00000E+00
 -1      2832 1.02450E+02 9.09300E+00 0.00000E+00
 -1      2833 1.00950E+02 9.09300E+00 0.00000E+00
 -1      2834 1.00200E+02 1.03920E+01 0.00000E+00
 -1      2835 1.04850E+02 9.09300E+00 0.00000E+00
 -1      2836 1.03650E+02 9.09300E+00 0.00000E+00
 -1      2837 1.02900E+02 1.03920E+01 0.00000E+00
 -1      2838 1.41480E+02 2.23038E+01 0.00000E+00
 -1      2839 1.41480E+02 2.08288E+01 0.00000E+00
 -1      2840 7.48818E+00 3.88019E+01 0.00000E+00
 -1      2841 1.15576E+01 4.08528E+01 0.00000E+00
 -1      2842 1.30576E+01 4.08528E+01 0.00000E+00
 -1      2843 1.38076E+01 3.95538E+01 0.00000E+00
 -1      2844 1.11228E+01 3.94455E+01 0.00000E+00
 -1      2845 1.07732E+02 1.57317E+01 0.00000E+00
 -1      2846 1.07334E+02 1.45988E+01 0.00000E+00
 -1      2847 1.41480E+02 1.64038E+01 0.00000E+00
 -1      2848 1.41480E+02 1.49288E+01 0.00000E+00
 -1      2849 1.41480E+02 1.34538E+01 0.00000E+00
 -1      2850 1.41480E+02 1.19788E+01 0.00000E+00
 -1      2851 1.40181E+02 1.41913E+01 0.00000E+00
 -1      2852 1.41480E+02 1.93538E+01 0.00000E+00
 -1      2853 1.41480E+02 1.78788E+01 0.00000E+00
 -1      2854 1.40181E+02 2.00913E+01 0.00000E+00
 -1      2855 1.41480E+02 2.52538E+01 0.00000E+00
 -1      2856 1.41480E+02 2.37788E+01 0.00000E+00
 -1      2857 1.40181E+02 2.30413E+01 0.00000E+00
 -1      2858 1.41480E+02 2.82038E+01 0.00000E+00
 -1      2859 1.41480E+02 2.67288E+01 0.00000E+00
 -1      2860 1.40181E+02 2.59913E+01 0.00000E+00
 -1      2861 1.41480E+02 3.11038E+01 0.00000E+00
 -1      2862 1.41480E+02 2.96538E+01 0.00000E+00
 -1      2863 1.40181E+02 2.89163E+01 0.00000E+00
 -1      2864 1.41480E+02 3.40538E+01 0.00000E+00
 -1      2865 1.41480E+02 3.25788E+01 0.00000E+00
 -1      2866 1.40181E+02 3.18413E+01 0.00000E+00
 -1      2867 1.41480E+02 3.70038E+01 0.00000E+00
 -1      2868 1.41480E+02 3.55288E+01 0.00000E+00
 -1      2869 1.40181E+02 3.47913E+01 0.00000E+00
 -1      2870 1.36108E+02 8.32128E+00 0.00000E+00
 -1      2871 1.34608E+02 8.21498E+00 0.00000E+00
 -1      2872 1.30884E+02 1.13974E+01 0.00000E+00
 -1      2873 1.30784E+02 1.25374E+01 0.00000E+00
 -1      2874 1.06917E+02 8.43738E+00 0.00000E+00
 -1      2875 9.09300E+00 1.68813E+01 0.00000E+00
 -1      2876 9.09300E+00 1.83563E+01 0.00000E+00
 -1      2877 1.03920E+01 1.90812E+01 0.00000E+00
 -1      2878 1.03920E+01 1.61437E+01 0.00000E+00
 -1      2879 1.39108E+02 8.32128E+00 0.00000E+00
 -1      2880 1.37608E+02 8.32128E+00 0.00000E+00
 -1      2881 1.36766E+02 9.56388E+00 0.00000E+00
 -1      2882 1.08684E+02 1.83182E+01 0.00000E+00
 -1      2883 1.08082E+02 1.70927E+01 0.00000E+00
 -1      2884 1.19674E+02 2.40980E+01 0.00000E+00
 -1      2885 1.18371E+02 2.41206E+01 0.00000E+00
 -1      2886 9.09300E+00 3.15875E+01 0.00000E+00
 -1      2887 9.09300E+00 3.30625E+01 0.00000E+00
 -1      2888 1.22308E+02 2.36049E+01 0.00000E+00
 -1      2889 1.21131E+02 2.39065E+01 0.00000E+00
 -1      2890 1.28864E+02 1.85238E+01 0.00000E+00
 -1      2891 1.28286E+02 1.95184E+01 0.00000E+00
 -1      2892 1.10483E+02 2.02737E+01 0.00000E+00
 -1      2893 1.09676E+02 1.95417E+01 0.00000E+00
 -1      2894 1.12218E+02 2.19097E+01 0.00000E+00
 -1      2895 1.11350E+02 2.10917E+01 0.00000E+00
 -1      2896 1.10315E+02 2.14227E+01 0.00000E+00
 -1      2897 1.14531E+02 2.31590E+01 0.00000E+00
 -1      2898 1.13429E+02 2.26189E+01 0.00000E+00
 -1      2899 1.41678E+02 8.07833E+00 0.00000E+00
 -1      2900 1.06984E+02 1.32974E+01 0.00000E+00
 -1      2901 1.06846E+02 1.21615E+01 0.00000E+00
 -1      2902 2.17500E+01 9.09300E+00 0.00000E+00
 -1      2903 2.02500E+01 9.09300E+00 0.00000E+00
 -1      2904 2.25000E+01 1.03920E+01 0.00000E+00
 -1      2905 1.16925E+02 2.39737E+01 0.00000E+00
 -1      2906 1.15804E+02 2.37078E+01 0.00000E+00
 -1      2907 1.29765E+02 1.64220E+01 0.00000E+00
 -1      2908 1.29307E+02 1.74059E+01 0.00000E+00
 -1      2909 1.31334E+02 8.06571E+00 0.00000E+00
 -1      2910 1.07049E+02 1.00109E+01 0.00000E+00
 -1      2911 1.05732E+02 9.36751E+00 0.00000E+00
 -1      2912 1.04982E+02 1.06665E+01 0.00000E+00
 -1      2913 1.06746E+02 1.12155E+01 0.00000E+00
 -1      2914 1.36973E+01 8.75900E+00 0.00000E+00
 -1      2915 1.24215E+01 8.74125E+00 0.00000E+00
 -1      2916 1.21702E+01 9.74175E+00 0.00000E+00
 -1      2917 1.03920E+01 2.49750E+01 0.00000E+00
 -1      2918 9.09300E+00 2.57000E+01 0.00000E+00
 -1      2919 9.09300E+00 2.71750E+01 0.00000E+00
 -1      2920 9.09300E+00 2.86437E+01 0.00000E+00
 -1      2921 9.09300E+00 3.01187E+01 0.00000E+00
 -1      2922 1.03920E+01 3.08563E+01 0.00000E+00
 -1      2923 1.03920E+01 2.79188E+01 0.00000E+00
 -1      2924 1.14875E+02 2.42079E+01 0.00000E+00
 -1      2925 1.05964E+02 1.18870E+01 0.00000E+00
 -1      2926 8.78718E+00 3.80644E+01 0.00000E+00
 -1      2927 9.09300E+00 3.45313E+01 0.00000E+00
 -1      2928 9.09300E+00 3.60000E+01 0.00000E+00
 -1      2929 1.03920E+01 3.37938E+01 0.00000E+00
 -1      2930 1.40181E+02 1.71413E+01 0.00000E+00
 -1      2931 1.41793E+02 1.08972E+01 0.00000E+00
 -1      2932 1.42107E+02 9.81547E+00 0.00000E+00
 -1      2933 1.40494E+02 1.16347E+01 0.00000E+00
 -1      2934 1.33492E+02 9.41461E+00 0.00000E+00
 -1      2935 1.32834E+02 8.06571E+00 0.00000E+00
 -1      2936 1.07113E+02 1.67967E+01 0.00000E+00
 -1      2937 1.41589E+02 3.87620E+01 0.00000E+00
 -1      2938 1.95000E+01 1.03920E+01 0.00000E+00
 -1      2939 1.31232E+02 1.33078E+01 0.00000E+00
 -1      2940 1.31681E+02 1.40783E+01 0.00000E+00
 -1      2941 1.32053E+02 1.28056E+01 0.00000E+00
 -1      2942 1.30568E+02 1.59192E+01 0.00000E+00
 -1      2943 1.31079E+02 1.67551E+01 0.00000E+00
 -1      2944 1.31371E+02 1.54164E+01 0.00000E+00
 -1      2945 1.28043E+02 2.03884E+01 0.00000E+00
 -1      2946 1.27800E+02 2.12585E+01 0.00000E+00
 -1      2947 1.29146E+02 2.03639E+01 0.00000E+00
 -1      2948 1.12393E+02 2.29499E+01 0.00000E+00
 -1      2949 1.25519E+02 2.20002E+01 0.00000E+00
 -1      2950 1.25312E+02 2.28885E+01 0.00000E+00
 -1      2951 1.26490E+02 2.21714E+01 0.00000E+00
 -1      2952 1.29832E+02 1.83759E+01 0.00000E+00
 -1      2953 1.23147E+02 2.36924E+01 0.00000E+00
 -1      2954 1.22792E+02 2.47551E+01 0.00000E+00
 -1      2955 1.23986E+02 2.37799E+01 0.00000E+00
 -1      2956 1.31662E+02 1.06503E+01 0.00000E+00
 -1      2957 1.06413E+02 1.41343E+01 0.00000E+00
 -1      2958 1.40290E+02 3.80245E+01 0.00000E+00
 -1      2959 1.20496E+02 2.48590E+01 0.00000E+00
 -1      2960 1.40379E+02 8.81583E+00 0.00000E+00
 -1      2961 1.39537E+02 1.00584E+01 0.00000E+00
 -1      2962 1.08455E+02 1.93812E+01 0.00000E+00
 -1      2963 1.17593E+02 2.49036E+01 0.00000E+00
 -1      2964 1.61115E+01 8.93487E+00 0.00000E+00
 -1      2965 1.48357E+01 8.91712E+00 0.00000E+00
 -1      2966 1.45845E+01 9.91763E+00 0.00000E+00
 -1      2967 1.68615E+01 1.02339E+01 0.00000E+00
 -1      2968 1.19190E+01 1.07423E+01 0.00000E+00
 -1      2969 1.16678E+01 1.17428E+01 0.00000E+00
 -1      2970 1.31947E+01 1.07600E+01 0.00000E+00
 -1      2971 1.16678E+01 1.32177E+01 0.00000E+00
 -1      2972 1.15072E+02 2.55006E+01 0.00000E+00
 -1      2973 1.13800E+02 2.49518E+01 0.00000E+00
 -1      2974 2.92500E+01 1.16910E+01 0.00000E+00
 -1      2975 2.77500E+01 1.16910E+01 0.00000E+00
 -1      2976 1.37516E+02 1.07566E+01 0.00000E+00
 -1      2977 1.36016E+02 1.07566E+01 0.00000E+00
 -1      2978 2.02500E+01 1.16910E+01 0.00000E+00
 -1      2979 1.87500E+01 1.16910E+01 0.00000E+00
 -1      2980 1.89000E+01 3.83090E+01 0.00000E+00
 -1      2981 2.04000E+01 3.83090E+01 0.00000E+00
 -1      2982 2.19000E+01 3.83090E+01 0.00000E+00
 -1      2983 2.34000E+01 3.83090E+01 0.00000E+00
 -1      2984 2.11500E+01 3.70100E+01 0.00000E+00
 -1      2985 2.49000E+01 3.83090E+01 0.00000E+00
 -1      2986 2.64000E+01 3.83090E+01 0.00000E+00
 -1      2987 2.41500E+01 3.70100E+01 0.00000E+00
 -1      2988 2.79000E+01 3.83090E+01 0.00000E+00
 -1      2989 2.94000E+01 3.83090E+01 0.00000E+00
 -1      2990 2.71500E+01 3.70100E+01 0.00000E+00
 -1      2991 3.09000E+01 3.83090E+01 0.00000E+00
 -1      2992 3.24000E+01 3.83090E+01 0.00000E+00
 -1      2993 3.01500E+01 3.70100E+01 0.00000E+00
 -1      2994 3.39000E+01 3.83090E+01 0.00000E+00
 -1      2995 3.54000E+01 3.83090E+01 0.00000E+00
 -1      2996 3.31500E+01 3.70100E+01 0.00000E+00
 -1      2997 3.69000E+01 3.83090E+01 0.00000E+00
 -1      2998 3.84000E+01 3.83090E+01 0.00000E+00
 -1      2999 3.61500E+01 3.70100E+01 0.00000E+00
 -1      3000 3.99000E+01 3.83090E+01 0.00000E+00
 -1      3001 4.14000E+01 3.83090E+01 0.00000E+00
 -1      3002 3.91500E+01 3.70100E+01 0.00000E+00
 -1      3003 4.29000E+01 3.83090E+01 0.00000E+00
 -1      3004 4.44000E+01 3.83090E+01 0.00000E+00
 -1      3005 4.21500E+01 3.70100E+01 0.00000E+00
 -1      3006 4.59000E+01 3.83090E+01 0.00000E+00
 -1      3007 4.74000E+01 3.83090E+01 0.00000E+00
 -1      3008 4.51500E+01 3.70100E+01 0.00000E+00
 -1      3009 4.89000E+01 3.83090E+01 0.00000E+00
 -1      3010 5.04000E+01 3.83090E+01 0.00000E+00
 -1      3011 4.81500E+01 3.70100E+01 0.00000E+00
 -1      3012 5.19000E+01 3.83090E+01 0.00000E+00
 -1      3013 5.34000E+01 3.83090E+01 0.00000E+00
 -1      3014 5.11500E+01 3.70100E+01 0.00000E+00
 -1      3015 5.49000E+01 3.83090E+01 0.00000E+00
 -1      3016 5.64000E+01 3.83090E+01 0.00000E+00
 -1      3017 5.41500E+01 3.70100E+01 0.00000E+00
 -1      3018 5.79000E+01 3.83090E+01 0.00000E+00
 -1      3019 5.94000E+01 3.83090E+01 0.00000E+00
 -1      3020 5.71500E+01 3.70100E+01 0.00000E+00
 -1      3021 6.09000E+01 3.83090E+01 0.00000E+00
 -1      3022 6.24000E+01 3.83090E+01 0.00000E+00
 -1      3023 6.01500E+01 3.70100E+01 0.00000E+00
 -1      3024 6.39000E+01 3.83090E+01 0.00000E+00
 -1      3025 6.54000E+01 3.83090E+01 0.00000E+00
 -1      3026 6.31500E+01 3.70100E+01 0.00000E+00
 -1      3027 6.69000E+01 3.83090E+01 0.00000E+00
 -1      3028 6.84000E+01 3.83090E+01 0.00000E+00
 -1      3029 6.61500E+01 3.70100E+01 0.00000E+00
 -1      3030 6.99000E+01 3.83090E+01 0.00000E+00
 -1      3031 7.14000E+01 3.83090E+01 0.00000E+00
 -1      3032 6.91500E+01 3.70100E+01 0.00000E+00
 -1      3033 7.29000E+01 3.83090E+01 0.00000E+00
 -1      3034 7.44000E+01 3.83090E+01 0.00000E+00
 -1      3035 7.21500E+01 3.70100E+01 0.00000E+00
 -1      3036 7.59000E+01 3.83090E+01 0.00000E+00
 -1      3037 7.74000E+01 3.83090E+01 0.00000E+00
 -1      3038 7.51500E+01 3.70100E+01 0.00000E+00
 -1      3039 7.89000E+01 3.83090E+01 0.00000E+00
 -1      3040 8.04000E+01 3.83090E+01 0.00000E+00
 -1      3041 7.81500E+01 3.70100E+01 0.00000E+00
 -1      3042 8.19000E+01 3.83090E+01 0.00000E+00
 -1      3043 8.34000E+01 3.83090E+01 0.00000E+00
 -1      3044 8.11500E+01 3.70100E+01 0.00000E+00
 -1      3045 8.49000E+01 3.83090E+01 0.00000E+00
 -1      3046 8.64000E+01 3.83090E+01 0.00000E+00
 -1      3047 8.41500E+01 3.70100E+01 0.00000E+00
 -1      3048 8.79000E+01 3.83090E+01 0.00000E+00
 -1      3049 8.94000E+01 3.83090E+01 0.00000E+00
 -1      3050 8.71500E+01 3.70100E+01 0.00000E+00
 -1      3051 9.09000E+01 3.83090E+01 0.00000E+00
 -1      3052 9.24000E+01 3.83090E+01 0.00000E+00
 -1      3053 9.01500E+01 3.70100E+01 0.00000E+00
 -1      3054 9.39000E+01 3.83090E+01 0.00000E+00
 -1      3055 9.54000E+01 3.83090E+01 0.00000E+00
 -1      3056 9.31500E+01 3.70100E+01 0.00000E+00
 -1      3057 9.69000E+01 3.83090E+01 0.00000E+00
 -1      3058 9.84000E+01 3.83090E+01 0.00000E+00
 -1      3059 9.61500E+01 3.70100E+01 0.00000E+00
 -1      3060 9.99000E+01 3.83090E+01 0.00000E+00
 -1      3061 1.01400E+02 3.83090E+01 0.00000E+00
 -1      3062 9.91500E+01 3.70100E+01 0.00000E+00
 -1      3063 1.02900E+02 3.83090E+01 0.00000E+00
 -1      3064 1.04400E+02 3.83090E+01 0.00000E+00
 -1      3065 1.02150E+02 3.70100E+01 0.00000E+00
 -1      3066 1.05900E+02 3.83090E+01 0.00000E+00
 -1      3067 1.07400E+02 3.83090E+01 0.00000E+00
 -1      3068 1.05150E+02 3.70100E+01 0.00000E+00
 -1      3069 1.08900E+02 3.83090E+01 0.00000E+00
 -1      3070 1.10400E+02 3.83090E+01 0.00000E+00
 -1      3071 1.08150E+02 3.70100E+01 0.00000E+00
 -1      3072 1.11900E+02 3.83090E+01 0.00000E+00
 -1      3073 1.13400E+02 3.83090E+01 0.00000E+00
 -1      3074 1.11150E+02 3.70100E+01 0.00000E+00
 -1      3075 1.14900E+02 3.83090E+01 0.00000E+00
 -1      3076 1.16400E+02 3.83090E+01 0.00000E+00
 -1      3077 1.14150E+02 3.70100E+01 0.00000E+00
 -1      3078 1.17900E+02 3.83090E+01 0.00000E+00
 -1      3079 1.19400E+02 3.83090E+01 0.00000E+00
 -1      3080 1.17150E+02 3.70100E+01 0.00000E+00
 -1      3081 1.20900E+02 3.83090E+01 0.00000E+00
 -1      3082 1.22400E+02 3.83090E+01 0.00000E+00
 -1      3083 1.20150E+02 3.70100E+01 0.00000E+00
 -1      3084 1.23900E+02 3.83090E+01 0.00000E+00
 -1      3085 1.25400E+02 3.83090E+01 0.00000E+00
 -1      3086 1.23150E+02 3.70100E+01 0.00000E+00
 -1      3087 1.26900E+02 3.83090E+01 0.00000E+00
 -1      3088 1.28400E+02 3.83090E+01 0.00000E+00
 -1      3089 1.26150E+02 3.70100E+01 0.00000E+00
 -1      3090 1.29900E+02 3.83090E+01 0.00000E+00
 -1      3091 1.31400E+02 3.83090E+01 0.00000E+00
 -1      3092 1.29150E+02 3.70100E+01 0.00000E+00
 -1      3093 1.32900E+02 3.83090E+01 0.00000E+00
 -1      3094 1.34400E+02 3.83090E+01 0.00000E+00
 -1      3095 1.32150E+02 3.70100E+01 0.00000E+00
 -1      3096 1.35900E+02 3.83090E+01 0.00000E+00
 -1      3097 1.37400E+02 3.83090E+01 0.00000E+00
 -1      3098 1.35150E+02 3.70100E+01 0.00000E+00
 -1      3099 1.39165E+02 3.79372E+01 0.00000E+00
 -1      3100 3.22500E+01 1.16910E+01 0.00000E+00
 -1      3101 3.07500E+01 1.16910E+01 0.00000E+00
 -1      3102 3.00000E+01 1.29900E+01 0.00000E+00
 -1      3103 1.05082E+02 1.16125E+01 0.00000E+00
 -1      3104 1.04200E+02 1.13380E+01 0.00000E+00
 -1      3105 1.05181E+02 1.25584E+01 0.00000E+00
 -1      3106 2.62500E+01 1.16910E+01 0.00000E+00
 -1      3107 2.47500E+01 1.16910E+01 0.00000E+00
 -1      3108 2.70000E+01 1.29900E+01 0.00000E+00
 -1      3109 3.51000E+01 1.16910E+01 0.00000E+00
 -1      3110 3.36750E+01 1.16910E+01 0.00000E+00
 -1      3111 3.29250E+01 1.29900E+01 0.00000E+00
 -1      3112 3.81000E+01 1.16910E+01 0.00000E+00
 -1      3113 3.66000E+01 1.16910E+01 0.00000E+00
 -1      3114 3.58500E+01 1.29900E+01 0.00000E+00
 -1      3115 4.11000E+01 1.16910E+01 0.00000E+00
 -1      3116 3.96000E+01 1.16910E+01 0.00000E+00
 -1      3117 3.88500E+01 1.29900E+01 0.00000E+00
 -1      3118 4.41000E+01 1.16910E+01 0.00000E+00
 -1      3119 4.26000E+01 1.16910E+01 0.00000E+00
 -1      3120 4.18500E+01 1.29900E+01 0.00000E+00
 -1      3121 4.71000E+01 1.16910E+01 0.00000E+00
 -1      3122 4.56000E+01 1.16910E+01 0.00000E+00
 -1      3123 4.48500E+01 1.29900E+01 0.00000E+00
 -1      3124 5.01000E+01 1.16910E+01 0.00000E+00
 -1      3125 4.86000E+01 1.16910E+01 0.00000E+00
 -1      3126 4.78500E+01 1.29900E+01 0.00000E+00
 -1      3127 5.31000E+01 1.16910E+01 0.00000E+00
 -1      3128 5.16000E+01 1.16910E+01 0.00000E+00
 -1      3129 5.08500E+01 1.29900E+01 0.00000E+00
 -1      3130 5.61000E+01 1.16910E+01 0.00000E+00
 -1      3131 5.46000E+01 1.16910E+01 0.00000E+00
 -1      3132 5.38500E+01 1.29900E+01 0.00000E+00
 -1      3133 5.91000E+01 1.16910E+01 0.00000E+00
 -1      3134 5.76000E+01 1.16910E+01 0.00000E+00
 -1      3135 5.68500E+01 1.29900E+01 0.00000E+00
 -1      3136 6.21000E+01 1.16910E+01 0.00000E+00
 -1      3137 6.06000E+01 1.16910E+01 0.00000E+00
 -1      3138 5.98500E+01 1.29900E+01 0.00000E+00
 -1      3139 6.51000E+01 1.16910E+01 0.00000E+00
 -1      3140 6.36000E+01 1.16910E+01 0.00000E+00
 -1      3141 6.28500E+01 1.29900E+01 0.00000E+00
 -1      3142 6.81000E+01 1.16910E+01 0.00000E+00
 -1      3143 6.66000E+01 1.16910E+01 0.00000E+00
 -1      3144 6.58500E+01 1.29900E+01 0.00000E+00
 -1      3145 7.11000E+01 1.16910E+01 0.00000E+00
 -1      3146 6.96000E+01 1.16910E+01 0.00000E+00
 -1      3147 6.88500E+01 1.29900E+01 0.00000E+00
 -1      3148 7.39500E+01 1.16910E+01 0.00000E+00
 -1      3149 7.25250E+01 1.16910E+01 0.00000E+00
 -1      3150 7.17750E+01 1.29900E+01 0.00000E+00
 -1      3151 7.69500E+01 1.16910E+01 0.00000E+00
 -1      3152 7.54500E+01 1.16910E+01 0.00000E+00
 -1      3153 7.47000E+01 1.29900E+01 0.00000E+00
 -1      3154 7.99500E+01 1.16910E+01 0.00000E+00
 -1      3155 7.84500E+01 1.16910E+01 0.00000E+00
 -1      3156 7.77000E+01 1.29900E+01 0.00000E+00
 -1      3157 8.29500E+01 1.16910E+01 0.00000E+00
 -1      3158 8.14500E+01 1.16910E+01 0.00000E+00
 -1      3159 8.07000E+01 1.29900E+01 0.00000E+00
 -1      3160 8.59500E+01 1.16910E+01 0.00000E+00
 -1      3161 8.44500E+01 1.16910E+01 0.00000E+00
 -1      3162 8.37000E+01 1.29900E+01 0.00000E+00
 -1      3163 8.89500E+01 1.16910E+01 0.00000E+00
 -1      3164 8.74500E+01 1.16910E+01 0.00000E+00
 -1      3165 8.67000E+01 1.29900E+01 0.00000E+00
 -1      3166 9.19500E+01 1.16910E+01 0.00000E+00
 -1      3167 9.04500E+01 1.16910E+01 0.00000E+00
 -1      3168 8.97000E+01 1.29900E+01 0.00000E+00
 -1      3169 9.49500E+01 1.16910E+01 0.00000E+00
 -1      3170 9.34500E+01 1.16910E+01 0.00000E+00
 -1      3171 9.27000E+01 1.29900E+01 0.00000E+00
 -1      3172 9.79500E+01 1.16910E+01 0.00000E+00
 -1      3173 9.64500E+01 1.16910E+01 0.00000E+00
 -1      3174 9.57000E+01 1.29900E+01 0.00000E+00
 -1      3175 1.00950E+02 1.16910E+01 0.00000E+00
 -1      3176 9.94500E+01 1.16910E+01 0.00000E+00
 -1      3177 9.87000E+01 1.29900E+01 0.00000E+00
 -1      3178 1.03175E+02 1.15145E+01 0.00000E+00
 -1      3179 1.01975E+02 1.15145E+01 0.00000E+00
 -1      3180 1.01225E+02 1.28135E+01 0.00000E+00
 -1      3181 1.03275E+02 1.24604E+01 0.00000E+00
 -1      3182 1.38882E+02 2.37788E+01 0.00000E+00
 -1      3183 1.38882E+02 2.23038E+01 0.00000E+00
 -1      3184 1.38882E+02 2.67288E+01 0.00000E+00
 -1      3185 1.38882E+02 2.52538E+01 0.00000E+00
 -1      3186 1.37583E+02 2.45163E+01 0.00000E+00
 -1      3187 1.39224E+02 1.11401E+01 0.00000E+00
 -1      3188 1.34726E+02 1.07780E+01 0.00000E+00
 -1      3189 1.32952E+02 1.06288E+01 0.00000E+00
 -1      3190 1.32895E+02 1.20137E+01 0.00000E+00
 -1      3191 1.35476E+02 1.19707E+01 0.00000E+00
 -1      3192 1.38882E+02 2.08288E+01 0.00000E+00
 -1      3193 1.38882E+02 1.93538E+01 0.00000E+00
 -1      3194 1.37583E+02 2.15663E+01 0.00000E+00
 -1      3195 1.38882E+02 2.96288E+01 0.00000E+00
 -1      3196 1.38882E+02 2.81788E+01 0.00000E+00
 -1      3197 1.37583E+02 2.74413E+01 0.00000E+00
 -1      3198 1.38882E+02 3.25788E+01 0.00000E+00
 -1      3199 1.38882E+02 3.11038E+01 0.00000E+00
 -1      3200 1.37583E+02 3.03663E+01 0.00000E+00
 -1      3201 1.06376E+02 1.77117E+01 0.00000E+00
 -1      3202 1.06026E+02 1.63506E+01 0.00000E+00
 -1      3203 1.21347E+02 2.56966E+01 0.00000E+00
 -1      3204 1.19890E+02 2.58881E+01 0.00000E+00
 -1      3205 2.32500E+01 1.16910E+01 0.00000E+00
 -1      3206 2.17500E+01 1.16910E+01 0.00000E+00
 -1      3207 2.40000E+01 1.29900E+01 0.00000E+00
 -1      3208 1.31085E+02 1.82255E+01 0.00000E+00
 -1      3209 1.30642E+02 1.93435E+01 0.00000E+00
 -1      3210 1.00862E+01 3.73269E+01 0.00000E+00
 -1      3211 1.38905E+02 1.49288E+01 0.00000E+00
 -1      3212 1.38905E+02 1.34538E+01 0.00000E+00
 -1      3213 1.59000E+01 3.83090E+01 0.00000E+00
 -1      3214 1.74000E+01 3.83090E+01 0.00000E+00
 -1      3215 1.81500E+01 3.70100E+01 0.00000E+00
 -1      3216 1.16910E+01 2.12875E+01 0.00000E+00
 -1      3217 1.16910E+01 2.27625E+01 0.00000E+00
 -1      3218 1.38893E+02 1.78788E+01 0.00000E+00
 -1      3219 1.38893E+02 1.64038E+01 0.00000E+00
 -1      3220 1.37617E+02 1.56663E+01 0.00000E+00
 -1      3221 1.37594E+02 1.86163E+01 0.00000E+00
 -1      3222 1.05779E+02 1.51052E+01 0.00000E+00
 -1      3223 1.05429E+02 1.38038E+01 0.00000E+00
 -1      3224 1.04547E+02 1.35293E+01 0.00000E+00
 -1      3225 1.05042E+02 1.60202E+01 0.00000E+00
 -1      3226 1.12437E+02 2.42613E+01 0.00000E+00
 -1      3227 1.11227E+02 2.35521E+01 0.00000E+00
 -1      3228 1.18212E+02 2.59969E+01 0.00000E+00
 -1      3229 1.16767E+02 2.58500E+01 0.00000E+00
 -1      3230 1.10045E+02 2.25777E+01 0.00000E+00
 -1      3231 1.09177E+02 2.17597E+01 0.00000E+00
 -1      3232 1.08089E+02 2.06913E+01 0.00000E+00
 -1      3233 1.07098E+02 1.94678E+01 0.00000E+00
 -1      3234 1.38415E+02 3.66382E+01 0.00000E+00
 -1      3235 1.16910E+01 2.42375E+01 0.00000E+00
 -1      3236 1.16910E+01 2.57125E+01 0.00000E+00
 -1      3237 1.29900E+01 2.35000E+01 0.00000E+00
 -1      3238 1.15691E+02 2.65939E+01 0.00000E+00
 -1      3239 1.80000E+01 1.29900E+01 0.00000E+00
 -1      3240 1.72500E+01 1.16910E+01 0.00000E+00
 -1      3241 1.45576E+01 3.82548E+01 0.00000E+00
 -1      3242 1.53076E+01 3.69558E+01 0.00000E+00
 -1      3243 1.32152E+01 3.82007E+01 0.00000E+00
 -1      3244 1.12634E+02 2.55539E+01 0.00000E+00
 -1      3245 1.38474E+02 1.23328E+01 0.00000E+00
 -1      3246 1.16910E+01 3.30594E+01 0.00000E+00
 -1      3247 1.16910E+01 3.45281E+01 0.00000E+00
 -1      3248 1.14286E+01 3.73811E+01 0.00000E+00
 -1      3249 1.22187E+02 2.57841E+01 0.00000E+00
 -1      3250 1.21581E+02 2.68132E+01 0.00000E+00
 -1      3251 1.23026E+02 2.58716E+01 0.00000E+00
 -1      3252 1.61115E+01 1.15329E+01 0.00000E+00
 -1      3253 1.07820E+02 2.18463E+01 0.00000E+00
 -1      3254 1.10090E+02 2.38891E+01 0.00000E+00
 -1      3255 1.06011E+02 1.90217E+01 0.00000E+00
 -1      3256 1.04924E+02 1.85756E+01 0.00000E+00
 -1      3257 1.05645E+02 2.03318E+01 0.00000E+00
 -1      3258 1.38882E+02 3.55288E+01 0.00000E+00
 -1      3259 1.38882E+02 3.40538E+01 0.00000E+00
 -1      3260 1.19064E+02 2.68345E+01 0.00000E+00
 -1      3261 2.10000E+01 1.29900E+01 0.00000E+00
 -1      3262 1.33344E+02 1.27842E+01 0.00000E+00
 -1      3263 1.32192E+02 1.49142E+01 0.00000E+00
 -1      3264 1.30398E+02 2.02135E+01 0.00000E+00
 -1      3265 1.30155E+02 2.10836E+01 0.00000E+00
 -1      3266 1.31651E+02 2.00632E+01 0.00000E+00
 -1      3267 1.31888E+02 1.77227E+01 0.00000E+00
 -1      3268 1.27593E+02 2.21468E+01 0.00000E+00
 -1      3269 1.27386E+02 2.30351E+01 0.00000E+00
 -1      3270 1.28696E+02 2.21223E+01 0.00000E+00
 -1      3271 1.37197E+02 1.30703E+01 0.00000E+00
 -1      3272 1.25928E+02 2.41224E+01 0.00000E+00
 -1      3273 1.24957E+02 2.39511E+01 0.00000E+00
 -1      3274 1.24603E+02 2.50138E+01 0.00000E+00
 -1      3275 1.16910E+01 1.98188E+01 0.00000E+00
 -1      3276 1.29900E+01 2.05562E+01 0.00000E+00
 -1      3277 1.16910E+01 1.83500E+01 0.00000E+00
 -1      3278 1.16910E+01 3.01219E+01 0.00000E+00
 -1      3279 1.16910E+01 3.15906E+01 0.00000E+00
 -1      3280 1.29900E+01 3.23250E+01 0.00000E+00
 -1      3281 1.16910E+01 1.54125E+01 0.00000E+00
 -1      3282 1.16910E+01 1.68813E+01 0.00000E+00
 -1      3283 1.29900E+01 1.76187E+01 0.00000E+00
 -1      3284 1.37583E+02 3.33163E+01 0.00000E+00
 -1      3285 1.37117E+02 3.59007E+01 0.00000E+00
 -1      3286 1.29668E+01 1.39552E+01 0.00000E+00
 -1      3287 1.16910E+01 2.71844E+01 0.00000E+00
 -1      3288 1.16910E+01 2.86531E+01 0.00000E+00
 -1      3289 1.29900E+01 2.93875E+01 0.00000E+00
 -1      3290 1.36284E+02 2.81663E+01 0.00000E+00
 -1      3291 1.36284E+02 2.67163E+01 0.00000E+00
 -1      3292 1.87500E+01 1.42890E+01 0.00000E+00
 -1      3293 1.72501E+01 1.42890E+01 0.00000E+00
 -1      3294 3.36375E+01 1.42890E+01 0.00000E+00
 -1      3295 3.22125E+01 1.42890E+01 0.00000E+00
 -1      3296 2.34000E+01 3.57110E+01 0.00000E+00
 -1      3297 2.49000E+01 3.57110E+01 0.00000E+00
 -1      3298 2.64000E+01 3.57110E+01 0.00000E+00
 -1      3299 2.79000E+01 3.57110E+01 0.00000E+00
 -1      3300 2.56500E+01 3.44120E+01 0.00000E+00
 -1      3301 2.94000E+01 3.57110E+01 0.00000E+00
 -1      3302 3.09000E+01 3.57110E+01 0.00000E+00
 -1      3303 2.86500E+01 3.44120E+01 0.00000E+00
 -1      3304 3.24000E+01 3.57110E+01 0.00000E+00
 -1      3305 3.39000E+01 3.57110E+01 0.00000E+00
 -1      3306 3.16500E+01 3.44120E+01 0.00000E+00
 -1      3307 3.54000E+01 3.57110E+01 0.00000E+00
 -1      3308 3.69000E+01 3.57110E+01 0.00000E+00
 -1      3309 3.46500E+01 3.44120E+01 0.00000E+00
 -1      3310 3.84000E+01 3.57110E+01 0.00000E+00
 -1      3311 3.99000E+01 3.57110E+01 0.00000E+00
 -1      3312 3.76500E+01 3.44120E+01 0.00000E+00
 -1      3313 4.14000E+01 3.57110E+01 0.00000E+00
 -1      3314 4.29000E+01 3.57110E+01 0.00000E+00
 -1      3315 4.06500E+01 3.44120E+01 0.00000E+00
 -1      3316 4.44000E+01 3.57110E+01 0.00000E+00
 -1      3317 4.59000E+01 3.57110E+01 0.00000E+00
 -1      3318 4.36500E+01 3.44120E+01 0.00000E+00
 -1      3319 4.74000E+01 3.57110E+01 0.00000E+00
 -1      3320 4.89000E+01 3.57110E+01 0.00000E+00
 -1      3321 4.66500E+01 3.44120E+01 0.00000E+00
 -1      3322 5.04000E+01 3.57110E+01 0.00000E+00
 -1      3323 5.19000E+01 3.57110E+01 0.00000E+00
 -1      3324 4.96500E+01 3.44120E+01 0.00000E+00
 -1      3325 5.34000E+01 3.57110E+01 0.00000E+00
 -1      3326 5.49000E+01 3.57110E+01 0.00000E+00
 -1      3327 5.26500E+01 3.44120E+01 0.00000E+00
 -1      3328 5.64000E+01 3.57110E+01 0.00000E+00
 -1      3329 5.79000E+01 3.57110E+01 0.00000E+00
 -1      3330 5.56500E+01 3.44120E+01 0.00000E+00
 -1      3331 5.94000E+01 3.57110E+01 0.00000E+00
 -1      3332 6.09000E+01 3.57110E+01 0.00000E+00
 -1      3333 5.86500E+01 3.44120E+01 0.00000E+00
 -1      3334 6.24000E+01 3.57110E+01 0.00000E+00
 -1      3335 6.39000E+01 3.57110E+01 0.00000E+00
 -1      3336 6.16500E+01 3.44120E+01 0.00000E+00
 -1      3337 6.54000E+01 3.57110E+01 0.00000E+00
 -1      3338 6.69000E+01 3.57110E+01 0.00000E+00
 -1      3339 6.46500E+01 3.44120E+01 0.00000E+00
 -1      3340 6.84000E+01 3.57110E+01 0.00000E+00
 -1      3341 6.99000E+01 3.57110E+01 0.00000E+00
 -1      3342 6.76500E+01 3.44120E+01 0.00000E+00
 -1      3343 7.14000E+01 3.57110E+01 0.00000E+00
 -1      3344 7.29000E+01 3.57110E+01 0.00000E+00
 -1      3345 7.06500E+01 3.44120E+01 0.00000E+00
 -1      3346 7.44000E+01 3.57110E+01 0.00000E+00
 -1      3347 7.59000E+01 3.57110E+01 0.00000E+00
 -1      3348 7.36500E+01 3.44120E+01 0.00000E+00
 -1      3349 7.74000E+01 3.57110E+01 0.00000E+00
 -1      3350 7.89000E+01 3.57110E+01 0.00000E+00
 -1      3351 7.66500E+01 3.44120E+01 0.00000E+00
 -1      3352 8.04000E+01 3.57110E+01 0.00000E+00
 -1      3353 8.19000E+01 3.57110E+01 0.00000E+00
 -1      3354 7.96500E+01 3.44120E+01 0.00000E+00
 -1      3355 8.34000E+01 3.57110E+01 0.00000E+00
 -1      3356 8.49000E+01 3.57110E+01 0.00000E+00
 -1      3357 8.26500E+01 3.44120E+01 0.00000E+00
 -1      3358 8.64000E+01 3.57110E+01 0.00000E+00
 -1      3359 8.79000E+01 3.57110E+01 0.00000E+00
 -1      3360 8.56500E+01 3.44120E+01 0.00000E+00
 -1      3361 8.94000E+01 3.57110E+01 0.00000E+00
 -1      3362 9.09000E+01 3.57110E+01 0.00000E+00
 -1      3363 8.86500E+01 3.44120E+01 0.00000E+00
 -1      3364 9.24000E+01 3.57110E+01 0.00000E+00
 -1      3365 9.39000E+01 3.57110E+01 0.00000E+00
 -1      3366 9.16500E+01 3.44120E+01 0.00000E+00
 -1      3367 9.54000E+01 3.57110E+01 0.00000E+00
 -1      3368 9.69000E+01 3.57110E+01 0.00000E+00
 -1      3369 9.46500E+01 3.44120E+01 0.00000E+00
 -1      3370 9.84000E+01 3.57110E+01 0.00000E+00
 -1      3371 9.99000E+01 3.57110E+01 0.00000E+00
 -1      3372 9.76500E+01 3.44120E+01 0.00000E+00
 -1      3373 1.01400E+02 3.57110E+01 0.00000E+00
 -1      3374 1.02900E+02 3.57110E+01 0.00000E+00
 -1      3375 1.00650E+02 3.44120E+01 0.00000E+00
 -1      3376 1.04400E+02 3.57110E+01 0.00000E+00
 -1      3377 1.05900E+02 3.57110E+01 0.00000E+00
 -1      3378 1.03650E+02 3.44120E+01 0.00000E+00
 -1      3379 1.07400E+02 3.57110E+01 0.00000E+00
 -1      3380 1.08900E+02 3.57110E+01 0.00000E+00
 -1      3381 1.06650E+02 3.44120E+01 0.00000E+00
 -1      3382 1.10400E+02 3.57110E+01 0.00000E+00
 -1      3383 1.11900E+02 3.57110E+01 0.00000E+00
 -1      3384 1.09650E+02 3.44120E+01 0.00000E+00
 -1      3385 1.13400E+02 3.57110E+01 0.00000E+00
 -1      3386 1.14900E+02 3.57110E+01 0.00000E+00
 -1      3387 1.12650E+02 3.44120E+01 0.00000E+00
 -1      3388 1.16400E+02 3.57110E+01 0.00000E+00
 -1      3389 1.17900E+02 3.57110E+01 0.00000E+00
 -1      3390 1.15650E+02 3.44120E+01 0.00000E+00
 -1      3391 1.19400E+02 3.57110E+01 0.00000E+00
 -1      3392 1.20900E+02 3.57110E+01 0.00000E+00
 -1      3393 1.18650E+02 3.44120E+01 0.00000E+00
 -1      3394 1.22400E+02 3.57110E+01 0.00000E+00
 -1      3395 1.23900E+02 3.57110E+01 0.00000E+00
 -1      3396 1.21650E+02 3.44120E+01 0.00000E+00
 -1      3397 1.25400E+02 3.57110E+01 0.00000E+00
 -1      3398 1.26900E+02 3.57110E+01 0.00000E+00
 -1      3399 1.24650E+02 3.44120E+01 0.00000E+00
 -1      3400 1.28400E+02 3.57110E+01 0.00000E+00
 -1      3401 1.29900E+02 3.57110E+01 0.00000E+00
 -1      3402 1.27650E+02 3.44120E+01 0.00000E+00
 -1      3403 1.31400E+02 3.57110E+01 0.00000E+00
 -1      3404 1.32900E+02 3.57110E+01 0.00000E+00
 -1      3405 1.30650E+02 3.44120E+01 0.00000E+00
 -1      3406 1.34258E+02 3.58058E+01 0.00000E+00
 -1      3407 1.35758E+02 3.58058E+01 0.00000E+00
 -1      3408 1.36225E+02 3.46965E+01 0.00000E+00
 -1      3409 1.33508E+02 3.45068E+01 0.00000E+00
 -1      3410 3.66375E+01 1.42890E+01 0.00000E+00
 -1      3411 3.51375E+01 1.42890E+01 0.00000E+00
 -1      3412 3.44250E+01 1.55880E+01 0.00000E+00
 -1      3413 2.77500E+01 1.42890E+01 0.00000E+00
 -1      3414 2.62500E+01 1.42890E+01 0.00000E+00
 -1      3415 3.96375E+01 1.42890E+01 0.00000E+00
 -1      3416 3.81375E+01 1.42890E+01 0.00000E+00
 -1      3417 3.74250E+01 1.55880E+01 0.00000E+00
 -1      3418 4.26375E+01 1.42890E+01 0.00000E+00
 -1      3419 4.11375E+01 1.42890E+01 0.00000E+00
 -1      3420 4.04250E+01 1.55880E+01 0.00000E+00
 -1      3421 4.56375E+01 1.42890E+01 0.00000E+00
 -1      3422 4.41375E+01 1.42890E+01 0.00000E+00
 -1      3423 4.34250E+01 1.55880E+01 0.00000E+00
 -1      3424 4.86375E+01 1.42890E+01 0.00000E+00
 -1      3425 4.71375E+01 1.42890E+01 0.00000E+00
 -1      3426 4.64250E+01 1.55880E+01 0.00000E+00
 -1      3427 5.16375E+01 1.42890E+01 0.00000E+00
 -1      3428 5.01375E+01 1.42890E+01 0.00000E+00
 -1      3429 4.94250E+01 1.55880E+01 0.00000E+00
 -1      3430 5.46375E+01 1.42890E+01 0.00000E+00
 -1      3431 5.31375E+01 1.42890E+01 0.00000E+00
 -1      3432 5.24250E+01 1.55880E+01 0.00000E+00
 -1      3433 5.76375E+01 1.42890E+01 0.00000E+00
 -1      3434 5.61375E+01 1.42890E+01 0.00000E+00
 -1      3435 5.54250E+01 1.55880E+01 0.00000E+00
 -1      3436 6.06375E+01 1.42890E+01 0.00000E+00
 -1      3437 5.91375E+01 1.42890E+01 0.00000E+00
 -1      3438 5.84250E+01 1.55880E+01 0.00000E+00
 -1      3439 6.36375E+01 1.42890E+01 0.00000E+00
 -1      3440 6.21375E+01 1.42890E+01 0.00000E+00
 -1      3441 6.14250E+01 1.55880E+01 0.00000E+00
 -1      3442 6.66375E+01 1.42890E+01 0.00000E+00
 -1      3443 6.51375E+01 1.42890E+01 0.00000E+00
 -1      3444 6.44250E+01 1.55880E+01 0.00000E+00
 -1      3445 6.96375E+01 1.42890E+01 0.00000E+00
 -1      3446 6.81375E+01 1.42890E+01 0.00000E+00
 -1      3447 6.74250E+01 1.55880E+01 0.00000E+00
 -1      3448 7.24875E+01 1.42890E+01 0.00000E+00
 -1      3449 7.10625E+01 1.42890E+01 0.00000E+00
 -1      3450 7.03500E+01 1.55880E+01 0.00000E+00
 -1      3451 7.54875E+01 1.42890E+01 0.00000E+00
 -1      3452 7.39875E+01 1.42890E+01 0.00000E+00
 -1      3453 7.32750E+01 1.55880E+01 0.00000E+00
 -1      3454 7.84875E+01 1.42890E+01 0.00000E+00
 -1      3455 7.69875E+01 1.42890E+01 0.00000E+00
 -1      3456 7.62750E+01 1.55880E+01 0.00000E+00
 -1      3457 8.14875E+01 1.42890E+01 0.00000E+00
 -1      3458 7.99875E+01 1.42890E+01 0.00000E+00
 -1      3459 7.92750E+01 1.55880E+01 0.00000E+00
 -1      3460 8.44875E+01 1.42890E+01 0.00000E+00
 -1      3461 8.29875E+01 1.42890E+01 0.00000E+00
 -1      3462 8.22750E+01 1.55880E+01 0.00000E+00
 -1      3463 8.74875E+01 1.42890E+01 0.00000E+00
 -1      3464 8.59875E+01 1.42890E+01 0.00000E+00
 -1      3465 8.52750E+01 1.55880E+01 0.00000E+00
 -1      3466 9.04875E+01 1.42890E+01 0.00000E+00
 -1      3467 8.89875E+01 1.42890E+01 0.00000E+00
 -1      3468 8.82750E+01 1.55880E+01 0.00000E+00
 -1      3469 9.34875E+01 1.42890E+01 0.00000E+00
 -1      3470 9.19875E+01 1.42890E+01 0.00000E+00
 -1      3471 9.12750E+01 1.55880E+01 0.00000E+00
 -1      3472 9.64875E+01 1.42890E+01 0.00000E+00
 -1      3473 9.49875E+01 1.42890E+01 0.00000E+00
 -1      3474 9.42750E+01 1.55880E+01 0.00000E+00
 -1      3475 9.94875E+01 1.42890E+01 0.00000E+00
 -1      3476 9.79875E+01 1.42890E+01 0.00000E+00
 -1      3477 9.72750E+01 1.55880E+01 0.00000E+00
 -1      3478 1.36284E+02 3.11163E+01 0.00000E+00
 -1      3479 1.36284E+02 2.96413E+01 0.00000E+00
 -1      3480 1.34985E+02 2.89163E+01 0.00000E+00
 -1      3481 1.36284E+02 2.52413E+01 0.00000E+00
 -1      3482 1.36284E+02 2.37663E+01 0.00000E+00
 -1      3483 1.34985E+02 2.59663E+01 0.00000E+00
 -1      3484 1.43333E+01 1.09181E+01 0.00000E+00
 -1      3485 2.47500E+01 1.42890E+01 0.00000E+00
 -1      3486 2.32500E+01 1.42890E+01 0.00000E+00
 -1      3487 2.55000E+01 1.55880E+01 0.00000E+00
 -1      3488 1.21786E+01 3.60821E+01 0.00000E+00
 -1      3489 1.35907E+02 1.30918E+01 0.00000E+00
 -1      3490 1.34616E+02 1.31133E+01 0.00000E+00
 -1      3491 1.36338E+02 1.42128E+01 0.00000E+00
 -1      3492 1.19980E+02 2.79703E+01 0.00000E+00
 -1      3493 1.18302E+02 2.80791E+01 0.00000E+00
 -1      3494 1.36225E+02 3.32215E+01 0.00000E+00
 -1      3495 1.74000E+01 3.57110E+01 0.00000E+00
 -1      3496 1.89000E+01 3.57110E+01 0.00000E+00
 -1      3497 1.47218E+01 1.23753E+01 0.00000E+00
 -1      3498 1.12738E+02 2.70378E+01 0.00000E+00
 -1      3499 1.11376E+02 2.63473E+01 0.00000E+00
 -1      3500 1.36284E+02 2.22913E+01 0.00000E+00
 -1      3501 1.36284E+02 2.08163E+01 0.00000E+00
 -1      3502 1.34985E+02 2.30163E+01 0.00000E+00
 -1      3503 2.04000E+01 3.57110E+01 0.00000E+00
 -1      3504 2.19000E+01 3.57110E+01 0.00000E+00
 -1      3505 2.26500E+01 3.44120E+01 0.00000E+00
 -1      3506 2.17500E+01 1.42890E+01 0.00000E+00
 -1      3507 2.02500E+01 1.42890E+01 0.00000E+00
 -1      3508 1.95000E+01 1.55880E+01 0.00000E+00
 -1      3509 2.25000E+01 1.55880E+01 0.00000E+00
 -1      3510 1.33346E+02 1.44766E+01 0.00000E+00
 -1      3511 1.33035E+02 1.58148E+01 0.00000E+00
 -1      3512 1.07529E+02 2.32315E+01 0.00000E+00
 -1      3513 1.06440E+02 2.21631E+01 0.00000E+00
 -1      3514 1.09975E+02 2.52318E+01 0.00000E+00
 -1      3515 1.08794E+02 2.42574E+01 0.00000E+00
 -1      3516 1.33042E+02 1.72852E+01 0.00000E+00
 -1      3517 1.33048E+02 1.87556E+01 0.00000E+00
 -1      3518 1.34195E+02 1.68476E+01 0.00000E+00
 -1      3519 3.07313E+01 1.42890E+01 0.00000E+00
 -1      3520 2.92313E+01 1.42890E+01 0.00000E+00
 -1      3521 2.84813E+01 1.55880E+01 0.00000E+00
 -1      3522 3.14438E+01 1.55880E+01 0.00000E+00
 -1      3523 1.34776E+01 3.53477E+01 0.00000E+00
 -1      3524 1.16315E+02 2.78547E+01 0.00000E+00
 -1      3525 1.14620E+02 2.75052E+01 0.00000E+00
 -1      3526 1.47450E+01 1.45700E+01 0.00000E+00
 -1      3527 1.54950E+01 1.58690E+01 0.00000E+00
 -1      3528 1.43324E+01 3.38479E+01 0.00000E+00
 -1      3529 1.48200E+01 3.54019E+01 0.00000E+00
 -1      3530 1.61624E+01 3.54560E+01 0.00000E+00
 -1      3531 1.03770E+02 1.49513E+01 0.00000E+00
 -1      3532 1.03522E+02 1.37058E+01 0.00000E+00
 -1      3533 1.02497E+02 1.38824E+01 0.00000E+00
 -1      3534 1.42890E+01 2.27625E+01 0.00000E+00
 -1      3535 1.42890E+01 2.42375E+01 0.00000E+00
 -1      3536 1.29900E+01 2.64469E+01 0.00000E+00
 -1      3537 1.96500E+01 3.44120E+01 0.00000E+00
 -1      3538 1.24968E+02 2.62141E+01 0.00000E+00
 -1      3539 1.23997E+02 2.60429E+01 0.00000E+00
 -1      3540 1.23391E+02 2.70719E+01 0.00000E+00
 -1      3541 1.34926E+02 3.24965E+01 0.00000E+00
 -1      3542 1.01505E+02 1.39974E+01 0.00000E+00
 -1      3543 1.00480E+02 1.41739E+01 0.00000E+00
 -1      3544 9.97675E+01 1.54729E+01 0.00000E+00
 -1      3545 1.01752E+02 1.52428E+01 0.00000E+00
 -1      3546 1.10079E+02 2.67157E+01 0.00000E+00
 -1      3547 1.36326E+02 1.56878E+01 0.00000E+00
 -1      3548 1.20819E+02 2.80578E+01 0.00000E+00
 -1      3549 1.20057E+02 2.93024E+01 0.00000E+00
 -1      3550 1.21658E+02 2.81453E+01 0.00000E+00
 -1      3551 1.05354E+02 2.17170E+01 0.00000E+00
 -1      3552 1.04267E+02 2.12709E+01 0.00000E+00
 -1      3553 1.05062E+02 2.31023E+01 0.00000E+00
 -1      3554 1.32805E+02 1.96256E+01 0.00000E+00
 -1      3555 1.32562E+02 2.04957E+01 0.00000E+00
 -1      3556 1.33958E+02 1.91881E+01 0.00000E+00
 -1      3557 1.29948E+02 2.19719E+01 0.00000E+00
 -1      3558 1.29741E+02 2.28602E+01 0.00000E+00
 -1      3559 1.31201E+02 2.18216E+01 0.00000E+00
 -1      3560 1.28134E+02 2.40732E+01 0.00000E+00
 -1      3561 1.27031E+02 2.40978E+01 0.00000E+00
 -1      3562 1.26677E+02 2.51605E+01 0.00000E+00
 -1      3563 1.69124E+01 3.41570E+01 0.00000E+00
 -1      3564 1.42890E+01 1.98250E+01 0.00000E+00
 -1      3565 1.42890E+01 2.12938E+01 0.00000E+00
 -1      3566 1.55880E+01 2.20313E+01 0.00000E+00
 -1      3567 1.04265E+02 1.74421E+01 0.00000E+00
 -1      3568 1.04017E+02 1.61967E+01 0.00000E+00
 -1      3569 1.02992E+02 1.63732E+01 0.00000E+00
 -1      3570 1.13362E+02 2.82986E+01 0.00000E+00
 -1      3571 1.35892E+02 1.92047E+01 0.00000E+00
 -1      3572 1.35904E+02 1.77297E+01 0.00000E+00
 -1      3573 1.03899E+02 1.87522E+01 0.00000E+00
 -1      3574 1.17231E+02 2.89904E+01 0.00000E+00
 -1      3575 1.07414E+02 2.45742E+01 0.00000E+00
 -1      3576 1.33775E+02 1.39052E+01 0.00000E+00
 -1      3577 1.43324E+01 3.23792E+01 0.00000E+00
 -1      3578 1.56748E+01 3.24333E+01 0.00000E+00
 -1      3579 1.43324E+01 3.09104E+01 0.00000E+00
 -1      3580 1.34618E+02 1.48057E+01 0.00000E+00
 -1      3581 2.19000E+01 3.31130E+01 0.00000E+00
 -1      3582 2.34000E+01 3.31130E+01 0.00000E+00
 -1      3583 1.13989E+02 2.97930E+01 0.00000E+00
 -1      3584 1.12108E+02 2.93256E+01 0.00000E+00
 -1      3585 3.51750E+01 1.68870E+01 0.00000E+00
 -1      3586 3.36750E+01 1.68870E+01 0.00000E+00
 -1      3587 1.09985E+02 2.82719E+01 0.00000E+00
 -1      3588 1.08584E+02 2.71564E+01 0.00000E+00
 -1      3589 1.42890E+01 2.57094E+01 0.00000E+00
 -1      3590 1.42890E+01 2.71812E+01 0.00000E+00
 -1      3591 1.55880E+01 2.49719E+01 0.00000E+00
 -1      3592 2.79000E+01 3.31130E+01 0.00000E+00
 -1      3593 2.94000E+01 3.31130E+01 0.00000E+00
 -1      3594 3.09000E+01 3.31130E+01 0.00000E+00
 -1      3595 3.24000E+01 3.31130E+01 0.00000E+00
 -1      3596 3.01500E+01 3.18140E+01 0.00000E+00
 -1      3597 3.39000E+01 3.31130E+01 0.00000E+00
 -1      3598 3.54000E+01 3.31130E+01 0.00000E+00
 -1      3599 3.31500E+01 3.18140E+01 0.00000E+00
 -1      3600 3.69000E+01 3.31130E+01 0.00000E+00
 -1      3601 3.84000E+01 3.31130E+01 0.00000E+00
 -1      3602 3.61500E+01 3.18140E+01 0.00000E+00
 -1      3603 3.99000E+01 3.31130E+01 0.00000E+00
 -1      3604 4.14000E+01 3.31130E+01 0.00000E+00
 -1      3605 3.91500E+01 3.18140E+01 0.00000E+00
 -1      3606 4.29000E+01 3.31130E+01 0.00000E+00
 -1      3607 4.44000E+01 3.31130E+01 0.00000E+00
 -1      3608 4.21500E+01 3.18140E+01 0.00000E+00
 -1      3609 4.59000E+01 3.31130E+01 0.00000E+00
 -1      3610 4.74000E+01 3.31130E+01 0.00000E+00
 -1      3611 4.51500E+01 3.18140E+01 0.00000E+00
 -1      3612 4.89000E+01 3.31130E+01 0.00000E+00
 -1      3613 5.04000E+01 3.31130E+01 0.00000E+00
 -1      3614 4.81500E+01 3.18140E+01 0.00000E+00
 -1      3615 5.19000E+01 3.31130E+01 0.00000E+00
 -1      3616 5.34000E+01 3.31130E+01 0.00000E+00
 -1      3617 5.11500E+01 3.18140E+01 0.00000E+00
 -1      3618 5.49000E+01 3.31130E+01 0.00000E+00
 -1      3619 5.64000E+01 3.31130E+01 0.00000E+00
 -1      3620 5.41500E+01 3.18140E+01 0.00000E+00
 -1      3621 5.79000E+01 3.31130E+01 0.00000E+00
 -1      3622 5.94000E+01 3.31130E+01 0.00000E+00
 -1      3623 5.71500E+01 3.18140E+01 0.00000E+00
 -1      3624 6.09000E+01 3.31130E+01 0.00000E+00
 -1      3625 6.24000E+01 3.31130E+01 0.00000E+00
 -1      3626 6.01500E+01 3.18140E+01 0.00000E+00
 -1      3627 6.39000E+01 3.31130E+01 0.00000E+00
 -1      3628 6.54000E+01 3.31130E+01 0.00000E+00
 -1      3629 6.31500E+01 3.18140E+01 0.00000E+00
 -1      3630 6.69000E+01 3.31130E+01 0.00000E+00
 -1      3631 6.84000E+01 3.31130E+01 0.00000E+00
 -1      3632 6.61500E+01 3.18140E+01 0.00000E+00
 -1      3633 6.99000E+01 3.31130E+01 0.00000E+00
 -1      3634 7.14000E+01 3.31130E+01 0.00000E+00
 -1      3635 6.91500E+01 3.18140E+01 0.00000E+00
 -1      3636 7.29000E+01 3.31130E+01 0.00000E+00
 -1      3637 7.44000E+01 3.31130E+01 0.00000E+00
 -1      3638 7.21500E+01 3.18140E+01 0.00000E+00
 -1      3639 7.59000E+01 3.31130E+01 0.00000E+00
 -1      3640 7.74000E+01 3.31130E+01 0.00000E+00
 -1      3641 7.51500E+01 3.18140E+01 0.00000E+00
 -1      3642 7.89000E+01 3.31130E+01 0.00000E+00
 -1      3643 8.04000E+01 3.31130E+01 0.00000E+00
 -1      3644 7.81500E+01 3.18140E+01 0.00000E+00
 -1      3645 8.19000E+01 3.31130E+01 0.00000E+00
 -1      3646 8.34000E+01 3.31130E+01 0.00000E+00
 -1      3647 8.11500E+01 3.18140E+01 0.00000E+00
 -1      3648 8.49000E+01 3.31130E+01 0.00000E+00
 -1      3649 8.64000E+01 3.31130E+01 0.00000E+00
 -1      3650 8.41500E+01 3.18140E+01 0.00000E+00
 -1      3651 8.79000E+01 3.31130E+01 0.00000E+00
 -1      3652 8.94000E+01 3.31130E+01 0.00000E+00
 -1      3653 8.71500E+01 3.18140E+01 0.00000E+00
 -1      3654 9.09000E+01 3.31130E+01 0.00000E+00
 -1      3655 9.24000E+01 3.31130E+01 0.00000E+00
 -1      3656 9.01500E+01 3.18140E+01 0.00000E+00
 -1      3657 9.39000E+01 3.31130E+01 0.00000E+00
 -1      3658 9.54000E+01 3.31130E+01 0.00000E+00
 -1      3659 9.31500E+01 3.18140E+01 0.00000E+00
 -1      3660 9.69000E+01 3.31130E+01 0.00000E+00
 -1      3661 9.84000E+01 3.31130E+01 0.00000E+00
 -1      3662 9.61500E+01 3.18140E+01 0.00000E+00
 -1      3663 9.99000E+01 3.31130E+01 0.00000E+00
 -1      3664 1.01400E+02 3.31130E+01 0.00000E+00
 -1      3665 9.91500E+01 3.18140E+01 0.00000E+00
 -1      3666 1.02900E+02 3.31130E+01 0.00000E+00
 -1      3667 1.04400E+02 3.31130E+01 0.00000E+00
 -1      3668 1.02150E+02 3.18140E+01 0.00000E+00
 -1      3669 1.05900E+02 3.31130E+01 0.00000E+00
 -1      3670 1.07400E+02 3.31130E+01 0.00000E+00
 -1      3671 1.05150E+02 3.18140E+01 0.00000E+00
 -1      3672 1.08900E+02 3.31130E+01 0.00000E+00
 -1      3673 1.10400E+02 3.31130E+01 0.00000E+00
 -1      3674 1.08150E+02 3.18140E+01 0.00000E+00
 -1      3675 1.11943E+02 3.26160E+01 0.00000E+00
 -1      3676 1.13443E+02 3.26160E+01 0.00000E+00
 -1      3677 1.17900E+02 3.31130E+01 0.00000E+00
 -1      3678 1.19400E+02 3.31130E+01 0.00000E+00
 -1      3679 1.20523E+02 3.19009E+01 0.00000E+00
 -1      3680 1.22023E+02 3.19009E+01 0.00000E+00
 -1      3681 1.26900E+02 3.31130E+01 0.00000E+00
 -1      3682 1.28400E+02 3.31130E+01 0.00000E+00
 -1      3683 1.29900E+02 3.31130E+01 0.00000E+00
 -1      3684 1.31400E+02 3.31130E+01 0.00000E+00
 -1      3685 1.29150E+02 3.18140E+01 0.00000E+00
 -1      3686 1.32484E+02 3.27573E+01 0.00000E+00
 -1      3687 1.33842E+02 3.28522E+01 0.00000E+00
 -1      3688 1.33901E+02 3.07470E+01 0.00000E+00
 -1      3689 1.31734E+02 3.14583E+01 0.00000E+00
 -1      3690 4.41750E+01 1.68870E+01 0.00000E+00
 -1      3691 4.26750E+01 1.68870E+01 0.00000E+00
 -1      3692 3.81750E+01 1.68870E+01 0.00000E+00
 -1      3693 3.66750E+01 1.68870E+01 0.00000E+00
 -1      3694 3.59250E+01 1.81860E+01 0.00000E+00
 -1      3695 4.71750E+01 1.68870E+01 0.00000E+00
 -1      3696 4.56750E+01 1.68870E+01 0.00000E+00
 -1      3697 4.49250E+01 1.81860E+01 0.00000E+00
 -1      3698 5.01750E+01 1.68870E+01 0.00000E+00
 -1      3699 4.86750E+01 1.68870E+01 0.00000E+00
 -1      3700 4.79250E+01 1.81860E+01 0.00000E+00
 -1      3701 5.31750E+01 1.68870E+01 0.00000E+00
 -1      3702 5.16750E+01 1.68870E+01 0.00000E+00
 -1      3703 5.09250E+01 1.81860E+01 0.00000E+00
 -1      3704 5.61750E+01 1.68870E+01 0.00000E+00
 -1      3705 5.46750E+01 1.68870E+01 0.00000E+00
 -1      3706 5.39250E+01 1.81860E+01 0.00000E+00
 -1      3707 5.91750E+01 1.68870E+01 0.00000E+00
 -1      3708 5.76750E+01 1.68870E+01 0.00000E+00
 -1      3709 5.69250E+01 1.81860E+01 0.00000E+00
 -1      3710 6.21750E+01 1.68870E+01 0.00000E+00
 -1      3711 6.06750E+01 1.68870E+01 0.00000E+00
 -1      3712 5.99250E+01 1.81860E+01 0.00000E+00
 -1      3713 6.51750E+01 1.68870E+01 0.00000E+00
 -1      3714 6.36750E+01 1.68870E+01 0.00000E+00
 -1      3715 6.29250E+01 1.81860E+01 0.00000E+00
 -1      3716 6.81750E+01 1.68870E+01 0.00000E+00
 -1      3717 6.66750E+01 1.68870E+01 0.00000E+00
 -1      3718 6.59250E+01 1.81860E+01 0.00000E+00
 -1      3719 7.10250E+01 1.68870E+01 0.00000E+00
 -1      3720 6.96000E+01 1.68870E+01 0.00000E+00
 -1      3721 6.88500E+01 1.81860E+01 0.00000E+00
 -1      3722 7.40250E+01 1.68870E+01 0.00000E+00
 -1      3723 7.25250E+01 1.68870E+01 0.00000E+00
 -1      3724 7.17750E+01 1.81860E+01 0.00000E+00
 -1      3725 7.70250E+01 1.68870E+01 0.00000E+00
 -1      3726 7.55250E+01 1.68870E+01 0.00000E+00
 -1      3727 7.47750E+01 1.81860E+01 0.00000E+00
 -1      3728 8.00250E+01 1.68870E+01 0.00000E+00
 -1      3729 7.85250E+01 1.68870E+01 0.00000E+00
 -1      3730 7.77750E+01 1.81860E+01 0.00000E+00
 -1      3731 8.30250E+01 1.68870E+01 0.00000E+00
 -1      3732 8.15250E+01 1.68870E+01 0.00000E+00
 -1      3733 8.07750E+01 1.81860E+01 0.00000E+00
 -1      3734 8.60250E+01 1.68870E+01 0.00000E+00
 -1      3735 8.45250E+01 1.68870E+01 0.00000E+00
 -1      3736 8.37750E+01 1.81860E+01 0.00000E+00
 -1      3737 8.90250E+01 1.68870E+01 0.00000E+00
 -1      3738 8.75250E+01 1.68870E+01 0.00000E+00
 -1      3739 8.67750E+01 1.81860E+01 0.00000E+00
 -1      3740 9.20250E+01 1.68870E+01 0.00000E+00
 -1      3741 9.05250E+01 1.68870E+01 0.00000E+00
 -1      3742 8.97750E+01 1.81860E+01 0.00000E+00
 -1      3743 9.50250E+01 1.68870E+01 0.00000E+00
 -1      3744 9.35250E+01 1.68870E+01 0.00000E+00
 -1      3745 9.27750E+01 1.81860E+01 0.00000E+00
 -1      3746 9.80250E+01 1.68870E+01 0.00000E+00
 -1      3747 9.65250E+01 1.68870E+01 0.00000E+00
 -1      3748 9.57750E+01 1.81860E+01 0.00000E+00
 -1      3749 1.33901E+02 2.92720E+01 0.00000E+00
 -1      3750 1.33901E+02 2.77970E+01 0.00000E+00
 -1      3751 1.32818E+02 2.96277E+01 0.00000E+00
 -1      3752 1.42890E+01 1.68844E+01 0.00000E+00
 -1      3753 1.42890E+01 1.83531E+01 0.00000E+00
 -1      3754 1.33901E+02 2.63220E+01 0.00000E+00
 -1      3755 1.33901E+02 2.48470E+01 0.00000E+00
 -1      3756 1.32818E+02 2.66777E+01 0.00000E+00
 -1      3757 2.62500E+01 1.68870E+01 0.00000E+00
 -1      3758 2.47500E+01 1.68870E+01 0.00000E+00
 -1      3759 4.11750E+01 1.68870E+01 0.00000E+00
 -1      3760 3.96750E+01 1.68870E+01 0.00000E+00
 -1      3761 3.89250E+01 1.81860E+01 0.00000E+00
 -1      3762 4.19250E+01 1.81860E+01 0.00000E+00
 -1      3763 1.67940E+01 1.66034E+01 0.00000E+00
 -1      3764 2.49000E+01 3.31130E+01 0.00000E+00
 -1      3765 2.64000E+01 3.31130E+01 0.00000E+00
 -1      3766 2.41500E+01 3.18140E+01 0.00000E+00
 -1      3767 1.69124E+01 3.26883E+01 0.00000E+00
 -1      3768 1.81500E+01 3.29432E+01 0.00000E+00
 -1      3769 1.69124E+01 3.12195E+01 0.00000E+00
 -1      3770 1.34593E+02 1.99297E+01 0.00000E+00
 -1      3771 1.43107E+01 2.83115E+01 0.00000E+00
 -1      3772 1.43107E+01 2.97802E+01 0.00000E+00
 -1      3773 1.56531E+01 2.98344E+01 0.00000E+00
 -1      3774 1.56097E+01 2.75740E+01 0.00000E+00
 -1      3775 1.03106E+02 1.99721E+01 0.00000E+00
 -1      3776 1.02447E+02 1.88385E+01 0.00000E+00
 -1      3777 1.07228E+02 2.60961E+01 0.00000E+00
 -1      3778 1.05963E+02 2.50702E+01 0.00000E+00
 -1      3779 1.92750E+01 3.30281E+01 0.00000E+00
 -1      3780 2.07750E+01 3.30281E+01 0.00000E+00
 -1      3781 2.15250E+01 3.17291E+01 0.00000E+00
 -1      3782 1.92750E+01 3.15594E+01 0.00000E+00
 -1      3783 1.55880E+01 1.90906E+01 0.00000E+00
 -1      3784 1.82337E+01 1.70894E+01 0.00000E+00
 -1      3785 1.70276E+01 1.81048E+01 0.00000E+00
 -1      3786 1.11193E+02 3.13170E+01 0.00000E+00
 -1      3787 1.10565E+02 2.98226E+01 0.00000E+00
 -1      3788 1.68870E+01 2.12969E+01 0.00000E+00
 -1      3789 1.68870E+01 2.27656E+01 0.00000E+00
 -1      3790 3.29437E+01 1.81860E+01 0.00000E+00
 -1      3791 3.21937E+01 1.68870E+01 0.00000E+00
 -1      3792 3.07125E+01 1.68870E+01 0.00000E+00
 -1      3793 1.07133E+02 2.76524E+01 0.00000E+00
 -1      3794 1.02223E+02 1.76634E+01 0.00000E+00
 -1      3795 1.01976E+02 1.64180E+01 0.00000E+00
 -1      3796 1.00983E+02 1.65330E+01 0.00000E+00
 -1      3797 1.01430E+02 1.88833E+01 0.00000E+00
 -1      3798 2.71500E+01 3.18140E+01 0.00000E+00
 -1      3799 1.26071E+02 2.61895E+01 0.00000E+00
 -1      3800 1.25465E+02 2.72186E+01 0.00000E+00
 -1      3801 1.27174E+02 2.61650E+01 0.00000E+00
 -1      3802 1.14900E+02 3.31130E+01 0.00000E+00
 -1      3803 1.16400E+02 3.31130E+01 0.00000E+00
 -1      3804 1.22625E+02 3.01229E+01 0.00000E+00
 -1      3805 1.23751E+02 3.26340E+01 0.00000E+00
 -1      3806 1.97337E+01 1.70894E+01 0.00000E+00
 -1      3807 1.25251E+02 3.26340E+01 0.00000E+00
 -1      3808 1.09069E+02 3.02633E+01 0.00000E+00
 -1      3809 2.40000E+01 1.81860E+01 0.00000E+00
 -1      3810 2.32500E+01 1.68870E+01 0.00000E+00
 -1      3811 2.17500E+01 1.68870E+01 0.00000E+00
 -1      3812 1.26001E+02 3.13350E+01 0.00000E+00
 -1      3813 1.14193E+02 3.13170E+01 0.00000E+00
 -1      3814 2.77313E+01 1.68870E+01 0.00000E+00
 -1      3815 2.69813E+01 1.81860E+01 0.00000E+00
 -1      3816 2.92125E+01 1.68870E+01 0.00000E+00
 -1      3817 1.33686E+02 2.37538E+01 0.00000E+00
 -1      3818 1.33686E+02 2.22788E+01 0.00000E+00
 -1      3819 1.23386E+02 2.88783E+01 0.00000E+00
 -1      3820 1.04876E+02 2.46241E+01 0.00000E+00
 -1      3821 1.03790E+02 2.41780E+01 0.00000E+00
 -1      3822 1.04691E+02 2.61459E+01 0.00000E+00
 -1      3823 1.00000E+02 1.66525E+01 0.00000E+00
 -1      3824 9.90079E+01 1.67675E+01 0.00000E+00
 -1      3825 9.82579E+01 1.80665E+01 0.00000E+00
 -1      3826 1.00224E+02 1.78276E+01 0.00000E+00
 -1      3827 1.31897E+02 2.19748E+01 0.00000E+00
 -1      3828 1.31690E+02 2.28631E+01 0.00000E+00
 -1      3829 1.35897E+02 1.62593E+01 0.00000E+00
 -1      3830 1.29386E+02 2.39229E+01 0.00000E+00
 -1      3831 1.29032E+02 2.49856E+01 0.00000E+00
 -1      3832 1.30639E+02 2.37726E+01 0.00000E+00
 -1      3833 1.17150E+02 3.18140E+01 0.00000E+00
 -1      3834 1.70276E+01 1.95767E+01 0.00000E+00
 -1      3835 1.17434E+02 3.05144E+01 0.00000E+00
 -1      3836 1.15447E+02 3.02900E+01 0.00000E+00
 -1      3837 1.02815E+02 2.13573E+01 0.00000E+00
 -1      3838 1.33196E+02 2.12373E+01 0.00000E+00
 -1      3839 1.68870E+01 2.42375E+01 0.00000E+00
 -1      3840 1.68870E+01 2.57094E+01 0.00000E+00
 -1      3841 1.81860E+01 2.35031E+01 0.00000E+00
 -1      3842 1.32602E+02 2.41095E+01 0.00000E+00
 -1      3843 2.64000E+01 3.05150E+01 0.00000E+00
 -1      3844 2.79000E+01 3.05150E+01 0.00000E+00
 -1      3845 3.24000E+01 3.05150E+01 0.00000E+00
 -1      3846 3.39000E+01 3.05150E+01 0.00000E+00
 -1      3847 3.54000E+01 3.05150E+01 0.00000E+00
 -1      3848 3.69000E+01 3.05150E+01 0.00000E+00
 -1      3849 3.46500E+01 2.92160E+01 0.00000E+00
 -1      3850 3.84000E+01 3.05150E+01 0.00000E+00
 -1      3851 3.99000E+01 3.05150E+01 0.00000E+00
 -1      3852 3.76500E+01 2.92160E+01 0.00000E+00
 -1      3853 4.14000E+01 3.05150E+01 0.00000E+00
 -1      3854 4.29000E+01 3.05150E+01 0.00000E+00
 -1      3855 4.06500E+01 2.92160E+01 0.00000E+00
 -1      3856 4.44000E+01 3.05150E+01 0.00000E+00
 -1      3857 4.59000E+01 3.05150E+01 0.00000E+00
 -1      3858 4.36500E+01 2.92160E+01 0.00000E+00
 -1      3859 4.74000E+01 3.05150E+01 0.00000E+00
 -1      3860 4.89000E+01 3.05150E+01 0.00000E+00
 -1      3861 4.66500E+01 2.92160E+01 0.00000E+00
 -1      3862 5.04000E+01 3.05150E+01 0.00000E+00
 -1      3863 5.19000E+01 3.05150E+01 0.00000E+00
 -1      3864 4.96500E+01 2.92160E+01 0.00000E+00
 -1      3865 5.34000E+01 3.05150E+01 0.00000E+00
 -1      3866 5.49000E+01 3.05150E+01 0.00000E+00
 -1      3867 5.26500E+01 2.92160E+01 0.00000E+00
 -1      3868 5.64000E+01 3.05150E+01 0.00000E+00
 -1      3869 5.79000E+01 3.05150E+01 0.00000E+00
 -1      3870 5.56500E+01 2.92160E+01 0.00000E+00
 -1      3871 5.94000E+01 3.05150E+01 0.00000E+00
 -1      3872 6.09000E+01 3.05150E+01 0.00000E+00
 -1      3873 5.86500E+01 2.92160E+01 0.00000E+00
 -1      3874 6.24000E+01 3.05150E+01 0.00000E+00
 -1      3875 6.39000E+01 3.05150E+01 0.00000E+00
 -1      3876 6.16500E+01 2.92160E+01 0.00000E+00
 -1      3877 6.54000E+01 3.05150E+01 0.00000E+00
 -1      3878 6.69000E+01 3.05150E+01 0.00000E+00
 -1      3879 6.46500E+01 2.92160E+01 0.00000E+00
 -1      3880 6.84000E+01 3.05150E+01 0.00000E+00
 -1      3881 6.99000E+01 3.05150E+01 0.00000E+00
 -1      3882 6.76500E+01 2.92160E+01 0.00000E+00
 -1      3883 7.14000E+01 3.05150E+01 0.00000E+00
 -1      3884 7.29000E+01 3.05150E+01 0.00000E+00
 -1      3885 7.06500E+01 2.92160E+01 0.00000E+00
 -1      3886 7.44000E+01 3.05150E+01 0.00000E+00
 -1      3887 7.59000E+01 3.05150E+01 0.00000E+00
 -1      3888 7.36500E+01 2.92160E+01 0.00000E+00
 -1      3889 7.74000E+01 3.05150E+01 0.00000E+00
 -1      3890 7.89000E+01 3.05150E+01 0.00000E+00
 -1      3891 7.66500E+01 2.92160E+01 0.00000E+00
 -1      3892 8.04000E+01 3.05150E+01 0.00000E+00
 -1      3893 8.19000E+01 3.05150E+01 0.00000E+00
 -1      3894 7.96500E+01 2.92160E+01 0.00000E+00
 -1      3895 8.34000E+01 3.05150E+01 0.00000E+00
 -1      3896 8.49000E+01 3.05150E+01 0.00000E+00
 -1      3897 8.26500E+01 2.92160E+01 0.00000E+00
 -1      3898 8.64000E+01 3.05150E+01 0.00000E+00
 -1      3899 8.79000E+01 3.05150E+01 0.00000E+00
 -1      3900 8.56500E+01 2.92160E+01 0.00000E+00
 -1      3901 8.94000E+01 3.05150E+01 0.00000E+00
 -1      3902 9.09000E+01 3.05150E+01 0.00000E+00
 -1      3903 8.86500E+01 2.92160E+01 0.00000E+00
 -1      3904 9.24000E+01 3.05150E+01 0.00000E+00
 -1      3905 9.39000E+01 3.05150E+01 0.00000E+00
 -1      3906 9.16500E+01 2.92160E+01 0.00000E+00
 -1      3907 9.54000E+01 3.05150E+01 0.00000E+00
 -1      3908 9.69000E+01 3.05150E+01 0.00000E+00
 -1      3909 9.46500E+01 2.92160E+01 0.00000E+00
 -1      3910 9.84000E+01 3.05150E+01 0.00000E+00
 -1      3911 9.99000E+01 3.05150E+01 0.00000E+00
 -1      3912 9.76500E+01 2.92160E+01 0.00000E+00
 -1      3913 1.01400E+02 3.05150E+01 0.00000E+00
 -1      3914 1.02900E+02 3.05150E+01 0.00000E+00
 -1      3915 1.00650E+02 2.92160E+01 0.00000E+00
 -1      3916 1.07569E+02 3.02633E+01 0.00000E+00
 -1      3917 1.83266E+01 2.03110E+01 0.00000E+00
 -1      3918 1.19773E+02 3.06019E+01 0.00000E+00
 -1      3919 1.96916E+01 1.95568E+01 0.00000E+00
 -1      3920 1.95510E+01 2.12770E+01 0.00000E+00
 -1      3921 2.04837E+01 1.83884E+01 0.00000E+00
 -1      3922 1.30650E+02 3.03390E+01 0.00000E+00
 -1      3923 1.31734E+02 2.99833E+01 0.00000E+00
 -1      3924 1.31734E+02 2.85083E+01 0.00000E+00
 -1      3925 3.66750E+01 1.94850E+01 0.00000E+00
 -1      3926 3.51750E+01 1.94850E+01 0.00000E+00
 -1      3927 5.16750E+01 1.94850E+01 0.00000E+00
 -1      3928 5.01750E+01 1.94850E+01 0.00000E+00
 -1      3929 5.46750E+01 1.94850E+01 0.00000E+00
 -1      3930 5.31750E+01 1.94850E+01 0.00000E+00
 -1      3931 5.24250E+01 2.07840E+01 0.00000E+00
 -1      3932 5.76750E+01 1.94850E+01 0.00000E+00
 -1      3933 5.61750E+01 1.94850E+01 0.00000E+00
 -1      3934 5.54250E+01 2.07840E+01 0.00000E+00
 -1      3935 6.06750E+01 1.94850E+01 0.00000E+00
 -1      3936 5.91750E+01 1.94850E+01 0.00000E+00
 -1      3937 5.84250E+01 2.07840E+01 0.00000E+00
 -1      3938 6.36750E+01 1.94850E+01 0.00000E+00
 -1      3939 6.21750E+01 1.94850E+01 0.00000E+00
 -1      3940 6.14250E+01 2.07840E+01 0.00000E+00
 -1      3941 6.66750E+01 1.94850E+01 0.00000E+00
 -1      3942 6.51750E+01 1.94850E+01 0.00000E+00
 -1      3943 6.44250E+01 2.07840E+01 0.00000E+00
 -1      3944 6.95250E+01 1.94850E+01 0.00000E+00
 -1      3945 6.81000E+01 1.94850E+01 0.00000E+00
 -1      3946 6.73500E+01 2.07840E+01 0.00000E+00
 -1      3947 7.25250E+01 1.94850E+01 0.00000E+00
 -1      3948 7.10250E+01 1.94850E+01 0.00000E+00
 -1      3949 7.02750E+01 2.07840E+01 0.00000E+00
 -1      3950 7.55250E+01 1.94850E+01 0.00000E+00
 -1      3951 7.40250E+01 1.94850E+01 0.00000E+00
 -1      3952 7.32750E+01 2.07840E+01 0.00000E+00
 -1      3953 7.85250E+01 1.94850E+01 0.00000E+00
 -1      3954 7.70250E+01 1.94850E+01 0.00000E+00
 -1      3955 7.62750E+01 2.07840E+01 0.00000E+00
 -1      3956 8.15250E+01 1.94850E+01 0.00000E+00
 -1      3957 8.00250E+01 1.94850E+01 0.00000E+00
 -1      3958 7.92750E+01 2.07840E+01 0.00000E+00
 -1      3959 8.45250E+01 1.94850E+01 0.00000E+00
 -1      3960 8.30250E+01 1.94850E+01 0.00000E+00
 -1      3961 8.22750E+01 2.07840E+01 0.00000E+00
 -1      3962 8.75250E+01 1.94850E+01 0.00000E+00
 -1      3963 8.60250E+01 1.94850E+01 0.00000E+00
 -1      3964 8.52750E+01 2.07840E+01 0.00000E+00
 -1      3965 9.05250E+01 1.94850E+01 0.00000E+00
 -1      3966 8.90250E+01 1.94850E+01 0.00000E+00
 -1      3967 8.82750E+01 2.07840E+01 0.00000E+00
 -1      3968 9.35250E+01 1.94850E+01 0.00000E+00
 -1      3969 9.20250E+01 1.94850E+01 0.00000E+00
 -1      3970 9.12750E+01 2.07840E+01 0.00000E+00
 -1      3971 9.65250E+01 1.94850E+01 0.00000E+00
 -1      3972 9.50250E+01 1.94850E+01 0.00000E+00
 -1      3973 9.42750E+01 2.07840E+01 0.00000E+00
 -1      3974 1.29150E+02 3.03390E+01 0.00000E+00
 -1      3975 4.86750E+01 1.94850E+01 0.00000E+00
 -1      3976 4.71750E+01 1.94850E+01 0.00000E+00
 -1      3977 4.94250E+01 2.07840E+01 0.00000E+00
 -1      3978 2.34000E+01 3.05150E+01 0.00000E+00
 -1      3979 2.49000E+01 3.05150E+01 0.00000E+00
 -1      3980 2.56500E+01 2.92160E+01 0.00000E+00
 -1      3981 1.68907E+01 3.00893E+01 0.00000E+00
 -1      3982 1.81283E+01 3.03443E+01 0.00000E+00
 -1      3983 1.68690E+01 2.89591E+01 0.00000E+00
 -1      3984 1.18934E+02 3.05144E+01 0.00000E+00
 -1      3985 1.02443E+02 2.28574E+01 0.00000E+00
 -1      3986 1.01282E+02 2.15585E+01 0.00000E+00
 -1      3987 2.94000E+01 3.05150E+01 0.00000E+00
 -1      3988 3.09000E+01 3.05150E+01 0.00000E+00
 -1      3989 3.16500E+01 2.92160E+01 0.00000E+00
 -1      3990 1.05682E+02 3.05085E+01 0.00000E+00
 -1      3991 1.06601E+02 2.89578E+01 0.00000E+00
 -1      3992 1.05246E+02 2.78975E+01 0.00000E+00
 -1      3993 1.04182E+02 3.05085E+01 0.00000E+00
 -1      3994 1.25460E+02 2.90250E+01 0.00000E+00
 -1      3995 1.27109E+02 2.95040E+01 0.00000E+00
 -1      3996 4.56750E+01 1.94850E+01 0.00000E+00
 -1      3997 4.41750E+01 1.94850E+01 0.00000E+00
 -1      3998 4.64250E+01 2.07840E+01 0.00000E+00
 -1      3999 1.34350E+02 2.07997E+01 0.00000E+00
 -1      4000 2.99625E+01 1.81860E+01 0.00000E+00
 -1      4001 1.00671E+02 2.01779E+01 0.00000E+00
 -1      4002 1.00447E+02 1.90028E+01 0.00000E+00
 -1      4003 9.94643E+01 1.91222E+01 0.00000E+00
 -1      4004 1.28426E+02 2.60146E+01 0.00000E+00
 -1      4005 1.27820E+02 2.70437E+01 0.00000E+00
 -1      4006 1.29678E+02 2.58643E+01 0.00000E+00
 -1      4007 4.26750E+01 1.94850E+01 0.00000E+00
 -1      4008 4.11750E+01 1.94850E+01 0.00000E+00
 -1      4009 4.34250E+01 2.07840E+01 0.00000E+00
 -1      4010 1.02258E+02 2.43793E+01 0.00000E+00
 -1      4011 1.03432E+02 2.92095E+01 0.00000E+00
 -1      4012 2.17080E+01 1.93544E+01 0.00000E+00
 -1      4013 1.00299E+02 2.16780E+01 0.00000E+00
 -1      4014 2.47080E+01 1.93544E+01 0.00000E+00
 -1      4015 2.32080E+01 1.93544E+01 0.00000E+00
 -1      4016 2.24160E+01 2.05227E+01 0.00000E+00
 -1      4017 3.81750E+01 1.94850E+01 0.00000E+00
 -1      4018 3.74250E+01 2.07840E+01 0.00000E+00
 -1      4019 3.96750E+01 1.94850E+01 0.00000E+00
 -1      4020 3.36937E+01 1.94850E+01 0.00000E+00
 -1      4021 3.22125E+01 1.94850E+01 0.00000E+00
 -1      4022 3.44437E+01 2.07840E+01 0.00000E+00
 -1      4023 1.31518E+02 2.74152E+01 0.00000E+00
 -1      4024 1.31518E+02 2.59402E+01 0.00000E+00
 -1      4025 2.86500E+01 2.92160E+01 0.00000E+00
 -1      4026 2.09160E+01 2.19946E+01 0.00000E+00
 -1      4027 1.95510E+01 2.27489E+01 0.00000E+00
 -1      4028 1.95510E+01 2.42207E+01 0.00000E+00
 -1      4029 1.24357E+02 2.90495E+01 0.00000E+00
 -1      4030 1.04159E+02 2.74514E+01 0.00000E+00
 -1      4031 2.22750E+01 3.04301E+01 0.00000E+00
 -1      4032 2.30250E+01 2.91311E+01 0.00000E+00
 -1      4033 2.11500E+01 3.03452E+01 0.00000E+00
 -1      4034 1.90766E+01 3.03023E+01 0.00000E+00
 -1      4035 2.02016E+01 3.03872E+01 0.00000E+00
 -1      4036 2.09516E+01 2.90882E+01 0.00000E+00
 -1      4037 1.90549E+01 2.91721E+01 0.00000E+00
 -1      4038 1.68671E+01 2.67691E+01 0.00000E+00
 -1      4039 1.68889E+01 2.78994E+01 0.00000E+00
 -1      4040 1.81264E+01 2.81543E+01 0.00000E+00
 -1      4041 1.81661E+01 2.60348E+01 0.00000E+00
 -1      4042 1.31336E+02 2.39258E+01 0.00000E+00
 -1      4043 1.30435E+02 2.77708E+01 0.00000E+00
 -1      4044 1.31551E+02 2.50190E+01 0.00000E+00
 -1      4045 9.84861E+01 1.92439E+01 0.00000E+00
 -1      4046 9.75032E+01 1.93633E+01 0.00000E+00
 -1      4047 9.67532E+01 2.06623E+01 0.00000E+00
 -1      4048 9.87096E+01 2.04190E+01 0.00000E+00
 -1      4049 2.61892E+01 1.93544E+01 0.00000E+00
 -1      4050 2.53972E+01 2.05227E+01 0.00000E+00
 -1      4051 2.76705E+01 1.93544E+01 0.00000E+00
 -1      4052 3.69000E+01 2.79170E+01 0.00000E+00
 -1      4053 3.84000E+01 2.79170E+01 0.00000E+00
 -1      4054 3.99000E+01 2.79170E+01 0.00000E+00
 -1      4055 4.14000E+01 2.79170E+01 0.00000E+00
 -1      4056 3.91500E+01 2.66180E+01 0.00000E+00
 -1      4057 4.29000E+01 2.79170E+01 0.00000E+00
 -1      4058 4.44000E+01 2.79170E+01 0.00000E+00
 -1      4059 4.21500E+01 2.66180E+01 0.00000E+00
 -1      4060 4.59000E+01 2.79170E+01 0.00000E+00
 -1      4061 4.74000E+01 2.79170E+01 0.00000E+00
 -1      4062 4.51500E+01 2.66180E+01 0.00000E+00
 -1      4063 4.89000E+01 2.79170E+01 0.00000E+00
 -1      4064 5.04000E+01 2.79170E+01 0.00000E+00
 -1      4065 4.81500E+01 2.66180E+01 0.00000E+00
 -1      4066 5.19000E+01 2.79170E+01 0.00000E+00
 -1      4067 5.34000E+01 2.79170E+01 0.00000E+00
 -1      4068 5.11500E+01 2.66180E+01 0.00000E+00
 -1      4069 5.49000E+01 2.79170E+01 0.00000E+00
 -1      4070 5.64000E+01 2.79170E+01 0.00000E+00
 -1      4071 5.41500E+01 2.66180E+01 0.00000E+00
 -1      4072 5.79000E+01 2.79170E+01 0.00000E+00
 -1      4073 5.94000E+01 2.79170E+01 0.00000E+00
 -1      4074 5.71500E+01 2.66180E+01 0.00000E+00
 -1      4075 6.09000E+01 2.79170E+01 0.00000E+00
 -1      4076 6.24000E+01 2.79170E+01 0.00000E+00
 -1      4077 6.01500E+01 2.66180E+01 0.00000E+00
 -1      4078 6.39000E+01 2.79170E+01 0.00000E+00
 -1      4079 6.54000E+01 2.79170E+01 0.00000E+00
 -1      4080 6.31500E+01 2.66180E+01 0.00000E+00
 -1      4081 6.69000E+01 2.79170E+01 0.00000E+00
 -1      4082 6.84000E+01 2.79170E+01 0.00000E+00
 -1      4083 6.61500E+01 2.66180E+01 0.00000E+00
 -1      4084 6.99000E+01 2.79170E+01 0.00000E+00
 -1      4085 7.14000E+01 2.79170E+01 0.00000E+00
 -1      4086 6.91500E+01 2.66180E+01 0.00000E+00
 -1      4087 7.29000E+01 2.79170E+01 0.00000E+00
 -1      4088 7.44000E+01 2.79170E+01 0.00000E+00
 -1      4089 7.21500E+01 2.66180E+01 0.00000E+00
 -1      4090 7.59000E+01 2.79170E+01 0.00000E+00
 -1      4091 7.74000E+01 2.79170E+01 0.00000E+00
 -1      4092 7.51500E+01 2.66180E+01 0.00000E+00
 -1      4093 7.89000E+01 2.79170E+01 0.00000E+00
 -1      4094 8.04000E+01 2.79170E+01 0.00000E+00
 -1      4095 7.81500E+01 2.66180E+01 0.00000E+00
 -1      4096 8.19000E+01 2.79170E+01 0.00000E+00
 -1      4097 8.34000E+01 2.79170E+01 0.00000E+00
 -1      4098 8.11500E+01 2.66180E+01 0.00000E+00
 -1      4099 8.49000E+01 2.79170E+01 0.00000E+00
 -1      4100 8.64000E+01 2.79170E+01 0.00000E+00
 -1      4101 8.41500E+01 2.66180E+01 0.00000E+00
 -1      4102 8.79000E+01 2.79170E+01 0.00000E+00
 -1      4103 8.94000E+01 2.79170E+01 0.00000E+00
 -1      4104 8.71500E+01 2.66180E+01 0.00000E+00
 -1      4105 9.09000E+01 2.79170E+01 0.00000E+00
 -1      4106 9.24000E+01 2.79170E+01 0.00000E+00
 -1      4107 9.01500E+01 2.66180E+01 0.00000E+00
 -1      4108 9.39000E+01 2.79170E+01 0.00000E+00
 -1      4109 9.54000E+01 2.79170E+01 0.00000E+00
 -1      4110 9.31500E+01 2.66180E+01 0.00000E+00
 -1      4111 9.69000E+01 2.79170E+01 0.00000E+00
 -1      4112 9.84000E+01 2.79170E+01 0.00000E+00
 -1      4113 9.61500E+01 2.66180E+01 0.00000E+00
 -1      4114 5.91750E+01 2.20830E+01 0.00000E+00
 -1      4115 5.76750E+01 2.20830E+01 0.00000E+00
 -1      4116 5.61750E+01 2.20830E+01 0.00000E+00
 -1      4117 5.46750E+01 2.20830E+01 0.00000E+00
 -1      4118 5.69250E+01 2.33820E+01 0.00000E+00
 -1      4119 9.99330E+01 2.31803E+01 0.00000E+00
 -1      4120 9.93213E+01 2.17997E+01 0.00000E+00
 -1      4121 9.83431E+01 2.19213E+01 0.00000E+00
 -1      4122 2.49000E+01 2.79170E+01 0.00000E+00
 -1      4123 2.64000E+01 2.79170E+01 0.00000E+00
 -1      4124 5.31750E+01 2.20830E+01 0.00000E+00
 -1      4125 5.16750E+01 2.20830E+01 0.00000E+00
 -1      4126 5.39250E+01 2.33820E+01 0.00000E+00
 -1      4127 2.79000E+01 2.79170E+01 0.00000E+00
 -1      4128 2.94000E+01 2.79170E+01 0.00000E+00
 -1      4129 2.71500E+01 2.66180E+01 0.00000E+00
 -1      4130 6.21750E+01 2.20830E+01 0.00000E+00
 -1      4131 6.06750E+01 2.20830E+01 0.00000E+00
 -1      4132 5.99250E+01 2.33820E+01 0.00000E+00
 -1      4133 6.51750E+01 2.20830E+01 0.00000E+00
 -1      4134 6.36750E+01 2.20830E+01 0.00000E+00
 -1      4135 6.29250E+01 2.33820E+01 0.00000E+00
 -1      4136 6.80250E+01 2.20830E+01 0.00000E+00
 -1      4137 6.66000E+01 2.20830E+01 0.00000E+00
 -1      4138 6.58500E+01 2.33820E+01 0.00000E+00
 -1      4139 7.10250E+01 2.20830E+01 0.00000E+00
 -1      4140 6.95250E+01 2.20830E+01 0.00000E+00
 -1      4141 6.87750E+01 2.33820E+01 0.00000E+00
 -1      4142 7.40250E+01 2.20830E+01 0.00000E+00
 -1      4143 7.25250E+01 2.20830E+01 0.00000E+00
 -1      4144 7.17750E+01 2.33820E+01 0.00000E+00
 -1      4145 7.70250E+01 2.20830E+01 0.00000E+00
 -1      4146 7.55250E+01 2.20830E+01 0.00000E+00
 -1      4147 7.47750E+01 2.33820E+01 0.00000E+00
 -1      4148 8.00250E+01 2.20830E+01 0.00000E+00
 -1      4149 7.85250E+01 2.20830E+01 0.00000E+00
 -1      4150 7.77750E+01 2.33820E+01 0.00000E+00
 -1      4151 8.30250E+01 2.20830E+01 0.00000E+00
 -1      4152 8.15250E+01 2.20830E+01 0.00000E+00
 -1      4153 8.07750E+01 2.33820E+01 0.00000E+00
 -1      4154 8.60250E+01 2.20830E+01 0.00000E+00
 -1      4155 8.45250E+01 2.20830E+01 0.00000E+00
 -1      4156 8.37750E+01 2.33820E+01 0.00000E+00
 -1      4157 8.90250E+01 2.20830E+01 0.00000E+00
 -1      4158 8.75250E+01 2.20830E+01 0.00000E+00
 -1      4159 8.67750E+01 2.33820E+01 0.00000E+00
 -1      4160 9.20250E+01 2.20830E+01 0.00000E+00
 -1      4161 9.05250E+01 2.20830E+01 0.00000E+00
 -1      4162 8.97750E+01 2.33820E+01 0.00000E+00
 -1      4163 9.50250E+01 2.20830E+01 0.00000E+00
 -1      4164 9.35250E+01 2.20830E+01 0.00000E+00
 -1      4165 9.27750E+01 2.33820E+01 0.00000E+00
 -1      4166 1.28609E+02 2.80290E+01 0.00000E+00
 -1      4167 5.01750E+01 2.20830E+01 0.00000E+00
 -1      4168 4.86750E+01 2.20830E+01 0.00000E+00
 -1      4169 5.09250E+01 2.33820E+01 0.00000E+00
 -1      4170 3.07125E+01 1.94850E+01 0.00000E+00
 -1      4171 2.92125E+01 1.94850E+01 0.00000E+00
 -1      4172 3.14625E+01 2.07840E+01 0.00000E+00
 -1      4173 1.02877E+02 2.74579E+01 0.00000E+00
 -1      4174 3.09000E+01 2.79170E+01 0.00000E+00
 -1      4175 3.24000E+01 2.79170E+01 0.00000E+00
 -1      4176 3.01500E+01 2.66180E+01 0.00000E+00
 -1      4177 4.71750E+01 2.20830E+01 0.00000E+00
 -1      4178 4.56750E+01 2.20830E+01 0.00000E+00
 -1      4179 4.79250E+01 2.33820E+01 0.00000E+00
 -1      4180 1.02078E+02 2.59794E+01 0.00000E+00
 -1      4181 1.00732E+02 2.46588E+01 0.00000E+00
 -1      4182 9.97536E+01 2.47805E+01 0.00000E+00
 -1      4183 1.01351E+02 2.77375E+01 0.00000E+00
 -1      4184 2.24160E+01 2.19946E+01 0.00000E+00
 -1      4185 3.39000E+01 2.79170E+01 0.00000E+00
 -1      4186 3.54000E+01 2.79170E+01 0.00000E+00
 -1      4187 3.31500E+01 2.66180E+01 0.00000E+00
 -1      4188 4.41750E+01 2.20830E+01 0.00000E+00
 -1      4189 4.26750E+01 2.20830E+01 0.00000E+00
 -1      4190 4.49250E+01 2.33820E+01 0.00000E+00
 -1      4191 9.98512E+01 2.77375E+01 0.00000E+00
 -1      4192 9.91012E+01 2.64385E+01 0.00000E+00
 -1      4193 2.37750E+01 2.78321E+01 0.00000E+00
 -1      4194 2.45250E+01 2.65331E+01 0.00000E+00
 -1      4195 2.26500E+01 2.77472E+01 0.00000E+00
 -1      4196 4.04250E+01 2.07840E+01 0.00000E+00
 -1      4197 3.51844E+01 2.20830E+01 0.00000E+00
 -1      4198 3.37031E+01 2.20830E+01 0.00000E+00
 -1      4199 2.84205E+01 2.06534E+01 0.00000E+00
 -1      4200 9.60032E+01 2.19613E+01 0.00000E+00
 -1      4201 9.52532E+01 2.32603E+01 0.00000E+00
 -1      4202 9.69814E+01 2.18397E+01 0.00000E+00
 -1      4203 1.30252E+02 2.57565E+01 0.00000E+00
 -1      4204 3.61500E+01 2.66180E+01 0.00000E+00
 -1      4205 2.61378E+01 2.18217E+01 0.00000E+00
 -1      4206 2.46566E+01 2.18217E+01 0.00000E+00
 -1      4207 2.31566E+01 2.32936E+01 0.00000E+00
 -1      4208 1.95311E+01 2.52805E+01 0.00000E+00
 -1      4209 1.95113E+01 2.63403E+01 0.00000E+00
 -1      4210 2.08961E+01 2.45262E+01 0.00000E+00
 -1      4211 1.90748E+01 2.81124E+01 0.00000E+00
 -1      4212 3.81844E+01 2.20830E+01 0.00000E+00
 -1      4213 3.66844E+01 2.20830E+01 0.00000E+00
 -1      4214 3.59437E+01 2.33820E+01 0.00000E+00
 -1      4215 9.75931E+01 2.32203E+01 0.00000E+00
 -1      4216 4.20375E+01 2.50000E+01 0.00000E+00
 -1      4217 4.35375E+01 2.50000E+01 0.00000E+00
 -1      4218 4.50375E+01 2.50000E+01 0.00000E+00
 -1      4219 4.65375E+01 2.50000E+01 0.00000E+00
 -1      4220 4.80375E+01 2.50000E+01 0.00000E+00
 -1      4221 4.95375E+01 2.50000E+01 0.00000E+00
 -1      4222 5.10375E+01 2.50000E+01 0.00000E+00
 -1      4223 5.25375E+01 2.50000E+01 0.00000E+00
 -1      4224 5.40375E+01 2.50000E+01 0.00000E+00
 -1      4225 5.55375E+01 2.50000E+01 0.00000E+00
 -1      4226 5.70375E+01 2.50000E+01 0.00000E+00
 -1      4227 5.85375E+01 2.50000E+01 0.00000E+00
 -1      4228 6.00375E+01 2.50000E+01 0.00000E+00
 -1      4229 6.15375E+01 2.50000E+01 0.00000E+00
 -1      4230 6.30375E+01 2.50000E+01 0.00000E+00
 -1      4231 6.45375E+01 2.50000E+01 0.00000E+00
 -1      4232 6.59625E+01 2.50000E+01 0.00000E+00
 -1      4233 6.74625E+01 2.50000E+01 0.00000E+00
 -1      4234 6.89625E+01 2.50000E+01 0.00000E+00
 -1      4235 7.04625E+01 2.50000E+01 0.00000E+00
 -1      4236 7.19625E+01 2.50000E+01 0.00000E+00
 -1      4237 7.34625E+01 2.50000E+01 0.00000E+00
 -1      4238 7.49625E+01 2.50000E+01 0.00000E+00
 -1      4239 7.64625E+01 2.50000E+01 0.00000E+00
 -1      4240 7.79625E+01 2.50000E+01 0.00000E+00
 -1      4241 7.94625E+01 2.50000E+01 0.00000E+00
 -1      4242 8.09625E+01 2.50000E+01 0.00000E+00
 -1      4243 8.24625E+01 2.50000E+01 0.00000E+00
 -1      4244 8.39625E+01 2.50000E+01 0.00000E+00
 -1      4245 8.54625E+01 2.50000E+01 0.00000E+00
 -1      4246 8.69625E+01 2.50000E+01 0.00000E+00
 -1      4247 8.84625E+01 2.50000E+01 0.00000E+00
 -1      4248 8.99625E+01 2.50000E+01 0.00000E+00
 -1      4249 9.14625E+01 2.50000E+01 0.00000E+00
 -1      4250 9.29625E+01 2.50000E+01 0.00000E+00
 -1      4251 9.44625E+01 2.50000E+01 0.00000E+00
 -1      4252 9.59625E+01 2.50000E+01 0.00000E+00
 -1      4253 2.92219E+01 2.20830E+01 0.00000E+00
 -1      4254 2.76799E+01 2.19524E+01 0.00000E+00
 -1      4255 2.69392E+01 2.32514E+01 0.00000E+00
 -1      4256 2.70656E+01 2.50000E+01 0.00000E+00
 -1      4257 2.85656E+01 2.50000E+01 0.00000E+00
 -1      4258 1.29861E+02 2.78787E+01 0.00000E+00
 -1      4259 3.22125E+01 2.20830E+01 0.00000E+00
 -1      4260 3.07125E+01 2.20830E+01 0.00000E+00
 -1      4261 2.99719E+01 2.33820E+01 0.00000E+00
 -1      4262 3.29531E+01 2.33820E+01 0.00000E+00
 -1      4263 1.29646E+02 2.67855E+01 0.00000E+00
 -1      4264 2.04398E+01 2.73581E+01 0.00000E+00
 -1      4265 3.00562E+01 2.50000E+01 0.00000E+00
 -1      4266 3.15562E+01 2.50000E+01 0.00000E+00
 -1      4267 4.11797E+01 2.20830E+01 0.00000E+00
 -1      4268 3.96797E+01 2.20830E+01 0.00000E+00
 -1      4269 3.89391E+01 2.33820E+01 0.00000E+00
 -1      4270 4.19297E+01 2.33820E+01 0.00000E+00
 -1      4271 9.83024E+01 2.49600E+01 0.00000E+00
 -1      4272 3.90422E+01 2.50000E+01 0.00000E+00
 -1      4273 4.05422E+01 2.50000E+01 0.00000E+00
 -1      4274 3.60469E+01 2.50000E+01 0.00000E+00
 -1      4275 3.75469E+01 2.50000E+01 0.00000E+00
 -1      4276 3.30469E+01 2.50000E+01 0.00000E+00
 -1      4277 3.45469E+01 2.50000E+01 0.00000E+00
 -1      4278 2.13881E+01 2.73161E+01 0.00000E+00
 -1      4279 2.55236E+01 2.48694E+01 0.00000E+00
 -1      4280 2.21381E+01 2.60171E+01 0.00000E+00
 -1      4281 2.43986E+01 2.47845E+01 0.00000E+00
 -1      4282 2.21580E+01 2.49574E+01 0.00000E+00
 -1      4283 9.69407E+01 2.48783E+01 0.00000E+00
 -3
    3C                          2059                                     1
 -1       166    8    0    1
 -2         6         7        23      1113      1278      1130
 -1       167    8    0    1
 -2         7         8       166      1114      1279      1280
 -1       168    8    0    1
 -2         8         9       167      1115      1281      1282
 -1       169    8    0    1
 -2         8       167       166      1282      1283      1279
 -1       170    8    0    1
 -2         9        10       168      1116      1284      1285
 -1       171    8    0    1
 -2         9       168       167      1285      1286      1281
 -1       172    8    0    1
 -2        10        11       169      1117      1287      1288
 -1       173    8    0    1
 -2        10       169       168      1288      1289      1284
 -1       174    8    0    1
 -2        11        12       170      1118      1290      1291
 -1       175    8    0    1
 -2        11       170       169      1291      1292      1287
 -1       176    8    0    1
 -2        12        13       171      1119      1293      1294
 -1       177    8    0    1
 -2        12       171       170      1294      1295      1290
 -1       178    8    0    1
 -2        13        14       172      1120      1296      1297
 -1       179    8    0    1
 -2        13       172       171      1297      1298      1293
 -1       180    8    0    1
 -2        14        15       173      1121      1299      1300
 -1       181    8    0    1
 -2        14       173       172      1300      1301      1296
 -1       182    8    0    1
 -2        15        16       174      1122      1302      1303
 -1       183    8    0    1
 -2        15       174       173      1303      1304      1299
 -1       184    8    0    1
 -2        16        17       175      1123      1305      1306
 -1       185    8    0    1
 -2        16       175       174      1306      1307      1302
 -1       186    8    0    1
 -2        17        18       176      1124      1308      1309
 -1       187    8    0    1
 -2        17       176       175      1309      1310      1305
 -1       188    8    0    1
 -2        18        19       177      1125      1311      1312
 -1       189    8    0    1
 -2        18       177       176      1312      1313      1308
 -1       190    8    0    1
 -2        19        20       178      1126      1314      1315
 -1       191    8    0    1
 -2        19       178       177      1315      1316      1311
 -1       192    8    0    1
 -2        20        21       179      1127      1317      1318
 -1       193    8    0    1
 -2        20       179       178      1318      1319      1314
 -1       194    8    0    1
 -2        21        22       180      1128      1320      1321
 -1       195    8    0    1
 -2        21       180       179      1321      1322      1317
 -1       196    8    0    1
 -2        22         5        72      1129      1180      1323
 -1       197    8    0    1
 -2        24        23       181      1131      1324      1325
 -1       198    8    0    1
 -2        25        24       182      1132      1326      1327
 -1       199    8    0    1
 -2        24       181       182      1325      1328      1326
 -1       200    8    0    1
 -2        26        25       183      1133      1329      1330
 -1       201    8    0    1
 -2        25       182       183      1327      1331      1329
 -1       202    8    0    1
 -2        27        26       184      1134      1332      1333
 -1       203    8    0    1
 -2        26       183       184      1330      1334      1332
 -1       204    8    0    1
 -2        28        27       185      1135      1335      1336
 -1       205    8    0    1
 -2        27       184       185      1333      1337      1335
 -1       206    8    0    1
 -2        29        28       186      1136      1338      1339
 -1       207    8    0    1
 -2        28       185       186      1336      1340      1338
 -1       208    8    0    1
 -2        30        29       187      1137      1341      1342
 -1       209    8    0    1
 -2        29       186       187      1339      1343      1341
 -1       210    8    0    1
 -2        31        30       188      1138      1344      1345
 -1       211    8    0    1
 -2        30       187       188      1342      1346      1344
 -1       212    8    0    1
 -2        32        31       189      1139      1347      1348
 -1       213    8    0    1
 -2        31       188       189      1345      1349      1347
 -1       214    8    0    1
 -2        33        32       190      1140      1350      1351
 -1       215    8    0    1
 -2        32       189       190      1348      1352      1350
 -1       216    8    0    1
 -2        34        33       191      1141      1353      1354
 -1       217    8    0    1
 -2        33       190       191      1351      1355      1353
 -1       218    8    0    1
 -2        35        34       192      1142      1356      1357
 -1       219    8    0    1
 -2        34       191       192      1354      1358      1356
 -1       220    8    0    1
 -2        36        35       193      1143      1359      1360
 -1       221    8    0    1
 -2        35       192       193      1357      1361      1359
 -1       222    8    0    1
 -2        37        36       194      1144      1362      1363
 -1       223    8    0    1
 -2        36       193       194      1360      1364      1362
 -1       224    8    0    1
 -2        38        37       195      1145      1365      1366
 -1       225    8    0    1
 -2        37       194       195      1363      1367      1365
 -1       226    8    0    1
 -2        39        38       196      1146      1368      1369
 -1       227    8    0    1
 -2        38       195       196      1366      1370      1368
 -1       228    8    0    1
 -2        40        39       197      1147      1371      1372
 -1       229    8    0    1
 -2        39       196       197      1369      1373      1371
 -1       230    8    0    1
 -2        41        40       198      1148      1374      1375
 -1       231    8    0    1
 -2        40       197       198      1372      1376      1374
 -1       232    8    0    1
 -2        42        41       199      1149      1377      1378
 -1       233    8    0    1
 -2        41       198       199      1375      1379      1377
 -1       234    8    0    1
 -2        43        42       200      1150      1380      1381
 -1       235    8    0    1
 -2        42       199       200      1378      1382      1380
 -1       236    8    0    1
 -2        44        43       201      1151      1383      1384
 -1       237    8    0    1
 -2        43       200       201      1381      1385      1383
 -1       238    8    0    1
 -2        45        44       202      1152      1386      1387
 -1       239    8    0    1
 -2        44       201       202      1384      1388      1386
 -1       240    8    0    1
 -2        46        45       203      1153      1389      1390
 -1       241    8    0    1
 -2        45       202       203      1387      1391      1389
 -1       242    8    0    1
 -2        47        46       204      1154      1392      1393
 -1       243    8    0    1
 -2        46       203       204      1390      1394      1392
 -1       244    8    0    1
 -2        48        47       205      1155      1395      1396
 -1       245    8    0    1
 -2        47       204       205      1393      1397      1395
 -1       246    8    0    1
 -2        49        48       206      1156      1398      1399
 -1       247    8    0    1
 -2        48       205       206      1396      1400      1398
 -1       248    8    0    1
 -2        50        49       207      1157      1401      1402
 -1       249    8    0    1
 -2        49       206       207      1399      1403      1401
 -1       250    8    0    1
 -2        51        50       208      1158      1404      1405
 -1       251    8    0    1
 -2        50       207       208      1402      1406      1404
 -1       252    8    0    1
 -2        52        51       209      1159      1407      1408
 -1       253    8    0    1
 -2        51       208       209      1405      1409      1407
 -1       254    8    0    1
 -2        53        52       210      1160      1410      1411
 -1       255    8    0    1
 -2        52       209       210      1408      1412      1410
 -1       256    8    0    1
 -2        54        53       211      1161      1413      1414
 -1       257    8    0    1
 -2        53       210       211      1411      1415      1413
 -1       258    8    0    1
 -2        55        54       212      1162      1416      1417
 -1       259    8    0    1
 -2        54       211       212      1414      1418      1416
 -1       260    8    0    1
 -2        56        55       213      1163      1419      1420
 -1       261    8    0    1
 -2        55       212       213      1417      1421      1419
 -1       262    8    0    1
 -2        57        56       214      1164      1422      1423
 -1       263    8    0    1
 -2        56       213       214      1420      1424      1422
 -1       264    8    0    1
 -2        58        57       215      1165      1425      1426
 -1       265    8    0    1
 -2        57       214       215      1423      1427      1425
 -1       266    8    0    1
 -2        59        58       216      1166      1428      1429
 -1       267    8    0    1
 -2        58       215       216      1426      1430      1428
 -1       268    8    0    1
 -2        60        59       217      1167      1431      1432
 -1       269    8    0    1
 -2        59       216       217      1429      1433      1431
 -1       270    8    0    1
 -2        61        60       218      1168      1434      1435
 -1       271    8    0    1
 -2        60       217       218      1432      1436      1434
 -1       272    8    0    1
 -2        62        61       219      1169      1437      1438
 -1       273    8    0    1
 -2        61       218       219      1435      1439      1437
 -1       274    8    0    1
 -2        63        62       220      1170      1440      1441
 -1       275    8    0    1
 -2        62       219       220      1438      1442      1440
 -1       276    8    0    1
 -2        64        63       221      1171      1443      1444
 -1       277    8    0    1
 -2        63       220       221      1441      1445      1443
 -1       278    8    0    1
 -2        65        64       222      1172      1446      1447
 -1       279    8    0    1
 -2        64       221       222      1444      1448      1446
 -1       280    8    0    1
 -2        66        65       223      1173      1449      1450
 -1       281    8    0    1
 -2        65       222       223      1447      1451      1449
 -1       282    8    0    1
 -2        67        66       224      1174      1452      1453
 -1       283    8    0    1
 -2        66       223       224      1450      1454      1452
 -1       284    8    0    1
 -2        68        67       225      1175      1455      1456
 -1       285    8    0    1
 -2        67       224       225      1453      1457      1455
 -1       286    8    0    1
 -2        69        68       226      1176      1458      1459
 -1       287    8    0    1
 -2        68       225       226      1456      1460      1458
 -1       288    8    0    1
 -2        70        69       227      1177      1461      1462
 -1       289    8    0    1
 -2        69       226       227      1459      1463      1461
 -1       290    8    0    1
 -2        71        70       228      1178      1464      1465
 -1       291    8    0    1
 -2        70       227       228      1462      1466      1464
 -1       292    8    0    1
 -2         4        71       138      1179      1467      1248
 -1       293    8    0    1
 -2       138        71       228      1467      1465      1468
 -1       294    8    0    1
 -2        72        73       229      1181      1469      1470
 -1       295    8    0    1
 -2        73        74       230      1182      1471      1472
 -1       296    8    0    1
 -2        73       230       229      1472      1473      1469
 -1       297    8    0    1
 -2        74        75       231      1183      1474      1475
 -1       298    8    0    1
 -2        74       231       230      1475      1476      1471
 -1       299    8    0    1
 -2        75        76       232      1184      1477      1478
 -1       300    8    0    1
 -2        75       232       231      1478      1479      1474
 -1       301    8    0    1
 -2        76        77       233      1185      1480      1481
 -1       302    8    0    1
 -2        76       233       232      1481      1482      1477
 -1       303    8    0    1
 -2        77        78       234      1186      1483      1484
 -1       304    8    0    1
 -2        77       234       233      1484      1485      1480
 -1       305    8    0    1
 -2        78        79       235      1187      1486      1487
 -1       306    8    0    1
 -2        78       235       234      1487      1488      1483
 -1       307    8    0    1
 -2        79        80       236      1188      1489      1490
 -1       308    8    0    1
 -2        79       236       235      1490      1491      1486
 -1       309    8    0    1
 -2        80        81       237      1189      1492      1493
 -1       310    8    0    1
 -2        80       237       236      1493      1494      1489
 -1       311    8    0    1
 -2        81        82       238      1190      1495      1496
 -1       312    8    0    1
 -2        81       238       237      1496      1497      1492
 -1       313    8    0    1
 -2        82        83       239      1191      1498      1499
 -1       314    8    0    1
 -2        82       239       238      1499      1500      1495
 -1       315    8    0    1
 -2        83        84       240      1192      1501      1502
 -1       316    8    0    1
 -2        83       240       239      1502      1503      1498
 -1       317    8    0    1
 -2        84        85       241      1193      1504      1505
 -1       318    8    0    1
 -2        84       241       240      1505      1506      1501
 -1       319    8    0    1
 -2        85        86       242      1194      1507      1508
 -1       320    8    0    1
 -2        85       242       241      1508      1509      1504
 -1       321    8    0    1
 -2        86        87       243      1195      1510      1511
 -1       322    8    0    1
 -2        86       243       242      1511      1512      1507
 -1       323    8    0    1
 -2        87        88       244      1196      1513      1514
 -1       324    8    0    1
 -2        87       244       243      1514      1515      1510
 -1       325    8    0    1
 -2        88        89       245      1197      1516      1517
 -1       326    8    0    1
 -2        88       245       244      1517      1518      1513
 -1       327    8    0    1
 -2        89        90       246      1198      1519      1520
 -1       328    8    0    1
 -2        89       246       245      1520      1521      1516
 -1       329    8    0    1
 -2        90        91       247      1199      1522      1523
 -1       330    8    0    1
 -2        90       247       246      1523      1524      1519
 -1       331    8    0    1
 -2        91        92       248      1200      1525      1526
 -1       332    8    0    1
 -2        91       248       247      1526      1527      1522
 -1       333    8    0    1
 -2        92        93       249      1201      1528      1529
 -1       334    8    0    1
 -2        92       249       248      1529      1530      1525
 -1       335    8    0    1
 -2        93        94       250      1202      1531      1532
 -1       336    8    0    1
 -2        93       250       249      1532      1533      1528
 -1       337    8    0    1
 -2        94        95       251      1203      1534      1535
 -1       338    8    0    1
 -2        94       251       250      1535      1536      1531
 -1       339    8    0    1
 -2        95        96       252      1204      1537      1538
 -1       340    8    0    1
 -2        95       252       251      1538      1539      1534
 -1       341    8    0    1
 -2        96        97       253      1205      1540      1541
 -1       342    8    0    1
 -2        96       253       252      1541      1542      1537
 -1       343    8    0    1
 -2        97        98       254      1206      1543      1544
 -1       344    8    0    1
 -2        97       254       253      1544      1545      1540
 -1       345    8    0    1
 -2        98        99       255      1207      1546      1547
 -1       346    8    0    1
 -2        98       255       254      1547      1548      1543
 -1       347    8    0    1
 -2        99       100       256      1208      1549      1550
 -1       348    8    0    1
 -2        99       256       255      1550      1551      1546
 -1       349    8    0    1
 -2       100       101       257      1209      1552      1553
 -1       350    8    0    1
 -2       100       257       256      1553      1554      1549
 -1       351    8    0    1
 -2       101       102       258      1210      1555      1556
 -1       352    8    0    1
 -2       101       258       257      1556      1557      1552
 -1       353    8    0    1
 -2       102       103       259      1211      1558      1559
 -1       354    8    0    1
 -2       102       259       258      1559      1560      1555
 -1       355    8    0    1
 -2       103       104       260      1212      1561      1562
 -1       356    8    0    1
 -2       103       260       259      1562      1563      1558
 -1       357    8    0    1
 -2       104       105       261      1213      1564      1565
 -1       358    8    0    1
 -2       104       261       260      1565      1566      1561
 -1       359    8    0    1
 -2       105       106       262      1214      1567      1568
 -1       360    8    0    1
 -2       105       262       261      1568      1569      1564
 -1       361    8    0    1
 -2       106       107       263      1215      1570      1571
 -1       362    8    0    1
 -2       106       263       262      1571      1572      1567
 -1       363    8    0    1
 -2       107       108       264      1216      1573      1574
 -1       364    8    0    1
 -2       107       264       263      1574      1575      1570
 -1       365    8    0    1
 -2       108       109       265      1217      1576      1577
 -1       366    8    0    1
 -2       108       265       264      1577      1578      1573
 -1       367    8    0    1
 -2       110       111       266      1219      1579      1580
 -1       368    8    0    1
 -2       111       112       267      1220      1581      1582
 -1       369    8    0    1
 -2       111       267       266      1582      1583      1579
 -1       370    8    0    1
 -2       112       113       268      1221      1584      1585
 -1       371    8    0    1
 -2       112       268       267      1585      1586      1581
 -1       372    8    0    1
 -2       113       114       269      1222      1587      1588
 -1       373    8    0    1
 -2       114       115       270      1223      1589      1590
 -1       374    8    0    1
 -2       114       270       269      1590      1591      1587
 -1       375    8    0    1
 -2       115       116       271      1224      1592      1593
 -1       376    8    0    1
 -2       115       271       270      1593      1594      1589
 -1       377    8    0    1
 -2       116       117       272      1225      1595      1596
 -1       378    8    0    1
 -2       116       272       271      1596      1597      1592
 -1       379    8    0    1
 -2       117       118       273      1226      1598      1599
 -1       380    8    0    1
 -2       117       273       272      1599      1600      1595
 -1       381    8    0    1
 -2       118       119       274      1227      1601      1602
 -1       382    8    0    1
 -2       118       274       273      1602      1603      1598
 -1       383    8    0    1
 -2       119       120       275      1228      1604      1605
 -1       384    8    0    1
 -2       119       275       274      1605      1606      1601
 -1       385    8    0    1
 -2       120       121       276      1229      1607      1608
 -1       386    8    0    1
 -2       120       276       275      1608      1609      1604
 -1       387    8    0    1
 -2       121       122       277      1230      1610      1611
 -1       388    8    0    1
 -2       121       277       276      1611      1612      1607
 -1       389    8    0    1
 -2       122         3       278      1231      1613      1614
 -1       390    8    0    1
 -2       277       122       278      1610      1614      1615
 -1       391    8    0    1
 -2         3       123       278      1232      1616      1613
 -1       392    8    0    1
 -2       123       124       279      1233      1617      1618
 -1       393    8    0    1
 -2       123       279       278      1618      1619      1616
 -1       394    8    0    1
 -2       124       125       280      1234      1620      1621
 -1       395    8    0    1
 -2       124       280       279      1621      1622      1617
 -1       396    8    0    1
 -2       125       126       281      1235      1623      1624
 -1       397    8    0    1
 -2       125       281       280      1624      1625      1620
 -1       398    8    0    1
 -2       126       127       282      1236      1626      1627
 -1       399    8    0    1
 -2       126       282       281      1627      1628      1623
 -1       400    8    0    1
 -2       127       128       283      1237      1629      1630
 -1       401    8    0    1
 -2       127       283       282      1630      1631      1626
 -1       402    8    0    1
 -2       128       129       284      1238      1632      1633
 -1       403    8    0    1
 -2       128       284       283      1633      1634      1629
 -1       404    8    0    1
 -2       129       130       285      1239      1635      1636
 -1       405    8    0    1
 -2       129       285       284      1636      1637      1632
 -1       406    8    0    1
 -2       130       131       286      1240      1638      1639
 -1       407    8    0    1
 -2       130       286       285      1639      1640      1635
 -1       408    8    0    1
 -2       131       132       287      1241      1641      1642
 -1       409    8    0    1
 -2       131       287       286      1642      1643      1638
 -1       410    8    0    1
 -2       132       133       288      1242      1644      1645
 -1       411    8    0    1
 -2       132       288       287      1645      1646      1641
 -1       412    8    0    1
 -2       133       134       289      1243      1647      1648
 -1       413    8    0    1
 -2       133       289       288      1648      1649      1644
 -1       414    8    0    1
 -2       134       135       290      1244      1650      1651
 -1       415    8    0    1
 -2       134       290       289      1651      1652      1647
 -1       416    8    0    1
 -2       135       136       291      1245      1653      1654
 -1       417    8    0    1
 -2       135       291       290      1654      1655      1650
 -1       418    8    0    1
 -2       136       137       292      1246      1656      1657
 -1       419    8    0    1
 -2       136       292       291      1657      1658      1653
 -1       420    8    0    1
 -2         2       139       293      1249      1659      1660
 -1       421    8    0    1
 -2       139       140       294      1250      1661      1662
 -1       422    8    0    1
 -2       140       141       295      1251      1663      1664
 -1       423    8    0    1
 -2       141       142       296      1252      1665      1666
 -1       424    8    0    1
 -2       142       143       297      1253      1667      1668
 -1       425    8    0    1
 -2       143       144       298      1254      1669      1670
 -1       426    8    0    1
 -2       144       145       299      1255      1671      1672
 -1       427    8    0    1
 -2       145       146       300      1256      1673      1674
 -1       428    8    0    1
 -2       146       147       301      1257      1675      1676
 -1       429    8    0    1
 -2       147       148       302      1258      1677      1678
 -1       430    8    0    1
 -2       148       149       303      1259      1679      1680
 -1       431    8    0    1
 -2       149       150       304      1260      1681      1682
 -1       432    8    0    1
 -2       150       151       305      1261      1683      1684
 -1       433    8    0    1
 -2       151       152       306      1262      1685      1686
 -1       434    8    0    1
 -2       152       153       307      1263      1687      1688
 -1       435    8    0    1
 -2       153       154       308      1264      1689      1690
 -1       436    8    0    1
 -2       154       155       309      1265      1691      1692
 -1       437    8    0    1
 -2       155       156       310      1266      1693      1694
 -1       438    8    0    1
 -2       156       157       311      1267      1695      1696
 -1       439    8    0    1
 -2       157       158       312      1268      1697      1698
 -1       440    8    0    1
 -2       158       159       313      1269      1699      1700
 -1       441    8    0    1
 -2       159       160       314      1270      1701      1702
 -1       442    8    0    1
 -2       160       161       315      1271      1703      1704
 -1       443    8    0    1
 -2       161       162       316      1272      1705      1706
 -1       444    8    0    1
 -2       162         1       317      1273      1707      1708
 -1       445    8    0    1
 -2         1       163       318      1274      1709      1710
 -1       446    8    0    1
 -2       163       164       319      1275      1711      1712
 -1       447    8    0    1
 -2       164       165       320      1276      1713      1714
 -1       448    8    0    1
 -2       165         2       321      1277      1715      1716
 -1       449    8    0    1
 -2        22        72       180      1323      1717      1320
 -1       450    8    0    1
 -2       113       269       268      1588      1718      1584
 -1       451    8    0    1
 -2       109       110       322      1218      1719      1720
 -1       452    8    0    1
 -2       109       322       265      1720      1721      1576
 -1       453    8    0    1
 -2       294       140       295      1661      1664      1722
 -1       454    8    0    1
 -2         2       293       321      1660      1723      1715
 -1       455    8    0    1
 -2       293       139       294      1659      1662      1724
 -1       456    8    0    1
 -2       137       138       323      1247      1725      1726
 -1       457    8    0    1
 -2       137       323       292      1726      1727      1656
 -1       458    8    0    1
 -2       141       296       295      1666      1728      1663
 -1       459    8    0    1
 -2       142       297       296      1668      1729      1665
 -1       460    8    0    1
 -2       143       298       297      1670      1730      1667
 -1       461    8    0    1
 -2       144       299       298      1672      1731      1669
 -1       462    8    0    1
 -2       145       300       299      1674      1732      1671
 -1       463    8    0    1
 -2       146       301       300      1676      1733      1673
 -1       464    8    0    1
 -2       147       302       301      1678      1734      1675
 -1       465    8    0    1
 -2       148       303       302      1680      1735      1677
 -1       466    8    0    1
 -2       149       304       303      1682      1736      1679
 -1       467    8    0    1
 -2       150       305       304      1684      1737      1681
 -1       468    8    0    1
 -2       151       306       305      1686      1738      1683
 -1       469    8    0    1
 -2       152       307       306      1688      1739      1685
 -1       470    8    0    1
 -2       153       308       307      1690      1740      1687
 -1       471    8    0    1
 -2       154       309       308      1692      1741      1689
 -1       472    8    0    1
 -2       155       310       309      1694      1742      1691
 -1       473    8    0    1
 -2       156       311       310      1696      1743      1693
 -1       474    8    0    1
 -2       157       312       311      1698      1744      1695
 -1       475    8    0    1
 -2       158       313       312      1700      1745      1697
 -1       476    8    0    1
 -2       159       314       313      1702      1746      1699
 -1       477    8    0    1
 -2       160       315       314      1704      1747      1701
 -1       478    8    0    1
 -2       161       316       315      1706      1748      1703
 -1       479    8    0    1
 -2       162       317       316      1708      1749      1705
 -1       480    8    0    1
 -2         1       318       317      1710      1750      1707
 -1       481    8    0    1
 -2       163       319       318      1712      1751      1709
 -1       482    8    0    1
 -2       164       320       319      1714      1752      1711
 -1       483    8    0    1
 -2       165       321       320      1716      1753      1713
 -1       484    8    0    1
 -2        23         7       166      1278      1280      1754
 -1       485    8    0    1
 -2       322       110       266      1719      1580      1755
 -1       486    8    0    1
 -2       167       168       324      1286      1756      1757
 -1       487    8    0    1
 -2       166       167       325      1283      1758      1759
 -1       488    8    0    1
 -2       167       324       325      1757      1760      1758
 -1       489    8    0    1
 -2       169       170       326      1292      1761      1762
 -1       490    8    0    1
 -2       170       171       327      1295      1763      1764
 -1       491    8    0    1
 -2       170       327       326      1764      1765      1761
 -1       492    8    0    1
 -2       171       172       328      1298      1766      1767
 -1       493    8    0    1
 -2       171       328       327      1767      1768      1763
 -1       494    8    0    1
 -2       172       173       329      1301      1769      1770
 -1       495    8    0    1
 -2       172       329       328      1770      1771      1766
 -1       496    8    0    1
 -2       173       174       330      1304      1772      1773
 -1       497    8    0    1
 -2       173       330       329      1773      1774      1769
 -1       498    8    0    1
 -2       174       175       331      1307      1775      1776
 -1       499    8    0    1
 -2       174       331       330      1776      1777      1772
 -1       500    8    0    1
 -2       175       176       332      1310      1778      1779
 -1       501    8    0    1
 -2       175       332       331      1779      1780      1775
 -1       502    8    0    1
 -2       176       177       333      1313      1781      1782
 -1       503    8    0    1
 -2       176       333       332      1782      1783      1778
 -1       504    8    0    1
 -2       177       178       334      1316      1784      1785
 -1       505    8    0    1
 -2       177       334       333      1785      1786      1781
 -1       506    8    0    1
 -2       178       179       335      1319      1787      1788
 -1       507    8    0    1
 -2       178       335       334      1788      1789      1784
 -1       508    8    0    1
 -2       179       180       336      1322      1790      1791
 -1       509    8    0    1
 -2       179       336       335      1791      1792      1787
 -1       510    8    0    1
 -2       268       269       298      1718      1793      1794
 -1       511    8    0    1
 -2       181        23       166      1324      1754      1795
 -1       512    8    0    1
 -2        72       229       180      1470      1796      1717
 -1       513    8    0    1
 -2       183       182       337      1331      1797      1798
 -1       514    8    0    1
 -2       184       183       338      1334      1799      1800
 -1       515    8    0    1
 -2       183       337       338      1798      1801      1799
 -1       516    8    0    1
 -2       185       184       339      1337      1802      1803
 -1       517    8    0    1
 -2       184       338       339      1800      1804      1802
 -1       518    8    0    1
 -2       186       185       340      1340      1805      1806
 -1       519    8    0    1
 -2       185       339       340      1803      1807      1805
 -1       520    8    0    1
 -2       187       186       341      1343      1808      1809
 -1       521    8    0    1
 -2       186       340       341      1806      1810      1808
 -1       522    8    0    1
 -2       188       187       342      1346      1811      1812
 -1       523    8    0    1
 -2       187       341       342      1809      1813      1811
 -1       524    8    0    1
 -2       189       188       343      1349      1814      1815
 -1       525    8    0    1
 -2       188       342       343      1812      1816      1814
 -1       526    8    0    1
 -2       190       189       344      1352      1817      1818
 -1       527    8    0    1
 -2       189       343       344      1815      1819      1817
 -1       528    8    0    1
 -2       191       190       345      1355      1820      1821
 -1       529    8    0    1
 -2       190       344       345      1818      1822      1820
 -1       530    8    0    1
 -2       192       191       346      1358      1823      1824
 -1       531    8    0    1
 -2       191       345       346      1821      1825      1823
 -1       532    8    0    1
 -2       193       192       347      1361      1826      1827
 -1       533    8    0    1
 -2       192       346       347      1824      1828      1826
 -1       534    8    0    1
 -2       194       193       348      1364      1829      1830
 -1       535    8    0    1
 -2       193       347       348      1827      1831      1829
 -1       536    8    0    1
 -2       195       194       349      1367      1832      1833
 -1       537    8    0    1
 -2       194       348       349      1830      1834      1832
 -1       538    8    0    1
 -2       196       195       350      1370      1835      1836
 -1       539    8    0    1
 -2       195       349       350      1833      1837      1835
 -1       540    8    0    1
 -2       197       196       351      1373      1838      1839
 -1       541    8    0    1
 -2       196       350       351      1836      1840      1838
 -1       542    8    0    1
 -2       198       197       352      1376      1841      1842
 -1       543    8    0    1
 -2       197       351       352      1839      1843      1841
 -1       544    8    0    1
 -2       199       198       353      1379      1844      1845
 -1       545    8    0    1
 -2       198       352       353      1842      1846      1844
 -1       546    8    0    1
 -2       200       199       354      1382      1847      1848
 -1       547    8    0    1
 -2       199       353       354      1845      1849      1847
 -1       548    8    0    1
 -2       201       200       355      1385      1850      1851
 -1       549    8    0    1
 -2       200       354       355      1848      1852      1850
 -1       550    8    0    1
 -2       202       201       356      1388      1853      1854
 -1       551    8    0    1
 -2       201       355       356      1851      1855      1853
 -1       552    8    0    1
 -2       203       202       357      1391      1856      1857
 -1       553    8    0    1
 -2       202       356       357      1854      1858      1856
 -1       554    8    0    1
 -2       204       203       358      1394      1859      1860
 -1       555    8    0    1
 -2       203       357       358      1857      1861      1859
 -1       556    8    0    1
 -2       205       204       359      1397      1862      1863
 -1       557    8    0    1
 -2       204       358       359      1860      1864      1862
 -1       558    8    0    1
 -2       206       205       360      1400      1865      1866
 -1       559    8    0    1
 -2       205       359       360      1863      1867      1865
 -1       560    8    0    1
 -2       207       206       361      1403      1868      1869
 -1       561    8    0    1
 -2       206       360       361      1866      1870      1868
 -1       562    8    0    1
 -2       208       207       362      1406      1871      1872
 -1       563    8    0    1
 -2       207       361       362      1869      1873      1871
 -1       564    8    0    1
 -2       209       208       363      1409      1874      1875
 -1       565    8    0    1
 -2       208       362       363      1872      1876      1874
 -1       566    8    0    1
 -2       210       209       364      1412      1877      1878
 -1       567    8    0    1
 -2       209       363       364      1875      1879      1877
 -1       568    8    0    1
 -2       211       210       365      1415      1880      1881
 -1       569    8    0    1
 -2       210       364       365      1878      1882      1880
 -1       570    8    0    1
 -2       212       211       366      1418      1883      1884
 -1       571    8    0    1
 -2       211       365       366      1881      1885      1883
 -1       572    8    0    1
 -2       213       212       367      1421      1886      1887
 -1       573    8    0    1
 -2       212       366       367      1884      1888      1886
 -1       574    8    0    1
 -2       214       213       368      1424      1889      1890
 -1       575    8    0    1
 -2       213       367       368      1887      1891      1889
 -1       576    8    0    1
 -2       215       214       369      1427      1892      1893
 -1       577    8    0    1
 -2       214       368       369      1890      1894      1892
 -1       578    8    0    1
 -2       216       215       370      1430      1895      1896
 -1       579    8    0    1
 -2       215       369       370      1893      1897      1895
 -1       580    8    0    1
 -2       217       216       371      1433      1898      1899
 -1       581    8    0    1
 -2       216       370       371      1896      1900      1898
 -1       582    8    0    1
 -2       218       217       372      1436      1901      1902
 -1       583    8    0    1
 -2       217       371       372      1899      1903      1901
 -1       584    8    0    1
 -2       219       218       373      1439      1904      1905
 -1       585    8    0    1
 -2       218       372       373      1902      1906      1904
 -1       586    8    0    1
 -2       220       219       374      1442      1907      1908
 -1       587    8    0    1
 -2       219       373       374      1905      1909      1907
 -1       588    8    0    1
 -2       221       220       375      1445      1910      1911
 -1       589    8    0    1
 -2       220       374       375      1908      1912      1910
 -1       590    8    0    1
 -2       222       221       376      1448      1913      1914
 -1       591    8    0    1
 -2       221       375       376      1911      1915      1913
 -1       592    8    0    1
 -2       223       222       377      1451      1916      1917
 -1       593    8    0    1
 -2       222       376       377      1914      1918      1916
 -1       594    8    0    1
 -2       224       223       378      1454      1919      1920
 -1       595    8    0    1
 -2       223       377       378      1917      1921      1919
 -1       596    8    0    1
 -2       225       224       379      1457      1922      1923
 -1       597    8    0    1
 -2       224       378       379      1920      1924      1922
 -1       598    8    0    1
 -2       226       225       380      1460      1925      1926
 -1       599    8    0    1
 -2       225       379       380      1923      1927      1925
 -1       600    8    0    1
 -2       227       226       381      1463      1928      1929
 -1       601    8    0    1
 -2       226       380       381      1926      1930      1928
 -1       602    8    0    1
 -2       228       227       382      1466      1931      1932
 -1       603    8    0    1
 -2       227       381       382      1929      1933      1931
 -1       604    8    0    1
 -2       231       232       383      1479      1934      1935
 -1       605    8    0    1
 -2       230       231       384      1476      1936      1937
 -1       606    8    0    1
 -2       231       383       384      1935      1938      1936
 -1       607    8    0    1
 -2       232       233       385      1482      1939      1940
 -1       608    8    0    1
 -2       232       385       383      1940      1941      1934
 -1       609    8    0    1
 -2       233       234       386      1485      1942      1943
 -1       610    8    0    1
 -2       233       386       385      1943      1944      1939
 -1       611    8    0    1
 -2       234       235       387      1488      1945      1946
 -1       612    8    0    1
 -2       234       387       386      1946      1947      1942
 -1       613    8    0    1
 -2       235       236       388      1491      1948      1949
 -1       614    8    0    1
 -2       235       388       387      1949      1950      1945
 -1       615    8    0    1
 -2       236       237       389      1494      1951      1952
 -1       616    8    0    1
 -2       236       389       388      1952      1953      1948
 -1       617    8    0    1
 -2       237       238       390      1497      1954      1955
 -1       618    8    0    1
 -2       237       390       389      1955      1956      1951
 -1       619    8    0    1
 -2       238       239       391      1500      1957      1958
 -1       620    8    0    1
 -2       238       391       390      1958      1959      1954
 -1       621    8    0    1
 -2       239       240       392      1503      1960      1961
 -1       622    8    0    1
 -2       239       392       391      1961      1962      1957
 -1       623    8    0    1
 -2       240       241       393      1506      1963      1964
 -1       624    8    0    1
 -2       240       393       392      1964      1965      1960
 -1       625    8    0    1
 -2       241       242       394      1509      1966      1967
 -1       626    8    0    1
 -2       241       394       393      1967      1968      1963
 -1       627    8    0    1
 -2       242       243       395      1512      1969      1970
 -1       628    8    0    1
 -2       242       395       394      1970      1971      1966
 -1       629    8    0    1
 -2       243       244       396      1515      1972      1973
 -1       630    8    0    1
 -2       243       396       395      1973      1974      1969
 -1       631    8    0    1
 -2       244       245       397      1518      1975      1976
 -1       632    8    0    1
 -2       244       397       396      1976      1977      1972
 -1       633    8    0    1
 -2       245       246       398      1521      1978      1979
 -1       634    8    0    1
 -2       245       398       397      1979      1980      1975
 -1       635    8    0    1
 -2       246       247       399      1524      1981      1982
 -1       636    8    0    1
 -2       246       399       398      1982      1983      1978
 -1       637    8    0    1
 -2       247       248       400      1527      1984      1985
 -1       638    8    0    1
 -2       247       400       399      1985      1986      1981
 -1       639    8    0    1
 -2       248       249       401      1530      1987      1988
 -1       640    8    0    1
 -2       248       401       400      1988      1989      1984
 -1       641    8    0    1
 -2       249       250       402      1533      1990      1991
 -1       642    8    0    1
 -2       249       402       401      1991      1992      1987
 -1       643    8    0    1
 -2       250       251       403      1536      1993      1994
 -1       644    8    0    1
 -2       250       403       402      1994      1995      1990
 -1       645    8    0    1
 -2       251       252       404      1539      1996      1997
 -1       646    8    0    1
 -2       251       404       403      1997      1998      1993
 -1       647    8    0    1
 -2       252       253       405      1542      1999      2000
 -1       648    8    0    1
 -2       252       405       404      2000      2001      1996
 -1       649    8    0    1
 -2       253       254       406      1545      2002      2003
 -1       650    8    0    1
 -2       253       406       405      2003      2004      1999
 -1       651    8    0    1
 -2       254       255       407      1548      2005      2006
 -1       652    8    0    1
 -2       254       407       406      2006      2007      2002
 -1       653    8    0    1
 -2       255       256       408      1551      2008      2009
 -1       654    8    0    1
 -2       255       408       407      2009      2010      2005
 -1       655    8    0    1
 -2       256       257       409      1554      2011      2012
 -1       656    8    0    1
 -2       256       409       408      2012      2013      2008
 -1       657    8    0    1
 -2       257       258       410      1557      2014      2015
 -1       658    8    0    1
 -2       257       410       409      2015      2016      2011
 -1       659    8    0    1
 -2       258       259       411      1560      2017      2018
 -1       660    8    0    1
 -2       258       411       410      2018      2019      2014
 -1       661    8    0    1
 -2       259       260       412      1563      2020      2021
 -1       662    8    0    1
 -2       259       412       411      2021      2022      2017
 -1       663    8    0    1
 -2       260       261       413      1566      2023      2024
 -1       664    8    0    1
 -2       260       413       412      2024      2025      2020
 -1       665    8    0    1
 -2       261       262       414      1569      2026      2027
 -1       666    8    0    1
 -2       261       414       413      2027      2028      2023
 -1       667    8    0    1
 -2       262       263       415      1572      2029      2030
 -1       668    8    0    1
 -2       262       415       414      2030      2031      2026
 -1       669    8    0    1
 -2       263       264       416      1575      2032      2033
 -1       670    8    0    1
 -2       263       416       415      2033      2034      2029
 -1       671    8    0    1
 -2       294       295       417      1722      2035      2036
 -1       672    8    0    1
 -2       267       268       300      1586      2037      2038
 -1       673    8    0    1
 -2       265       322       418      1721      2039      2040
 -1       674    8    0    1
 -2       266       267       301      1583      2041      2042
 -1       675    8    0    1
 -2       270       271       419      1594      2043      2044
 -1       676    8    0    1
 -2       272       273       420      1600      2045      2046
 -1       677    8    0    1
 -2       273       274       421      1603      2047      2048
 -1       678    8    0    1
 -2       273       421       420      2048      2049      2045
 -1       679    8    0    1
 -2       274       275       422      1606      2050      2051
 -1       680    8    0    1
 -2       274       422       421      2051      2052      2047
 -1       681    8    0    1
 -2       275       276       423      1609      2053      2054
 -1       682    8    0    1
 -2       275       423       422      2054      2055      2050
 -1       683    8    0    1
 -2       276       277       424      1612      2056      2057
 -1       684    8    0    1
 -2       276       424       423      2057      2058      2053
 -1       685    8    0    1
 -2       277       278       425      1615      2059      2060
 -1       686    8    0    1
 -2       424       277       425      2056      2060      2061
 -1       687    8    0    1
 -2       278       279       425      1619      2062      2059
 -1       688    8    0    1
 -2       280       281       426      1625      2063      2064
 -1       689    8    0    1
 -2       279       280       427      1622      2065      2066
 -1       690    8    0    1
 -2       425       279       427      2062      2066      2067
 -1       691    8    0    1
 -2       280       426       427      2064      2068      2065
 -1       692    8    0    1
 -2       281       282       428      1628      2069      2070
 -1       693    8    0    1
 -2       281       428       426      2070      2071      2063
 -1       694    8    0    1
 -2       282       283       429      1631      2072      2073
 -1       695    8    0    1
 -2       282       429       428      2073      2074      2069
 -1       696    8    0    1
 -2       283       284       430      1634      2075      2076
 -1       697    8    0    1
 -2       283       430       429      2076      2077      2072
 -1       698    8    0    1
 -2       284       285       431      1637      2078      2079
 -1       699    8    0    1
 -2       284       431       430      2079      2080      2075
 -1       700    8    0    1
 -2       285       286       432      1640      2081      2082
 -1       701    8    0    1
 -2       285       432       431      2082      2083      2078
 -1       702    8    0    1
 -2       286       287       433      1643      2084      2085
 -1       703    8    0    1
 -2       286       433       432      2085      2086      2081
 -1       704    8    0    1
 -2       287       288       434      1646      2087      2088
 -1       705    8    0    1
 -2       287       434       433      2088      2089      2084
 -1       706    8    0    1
 -2       288       289       435      1649      2090      2091
 -1       707    8    0    1
 -2       288       435       434      2091      2092      2087
 -1       708    8    0    1
 -2       289       290       436      1652      2093      2094
 -1       709    8    0    1
 -2       289       436       435      2094      2095      2090
 -1       710    8    0    1
 -2       290       291       437      1655      2096      2097
 -1       711    8    0    1
 -2       290       437       436      2097      2098      2093
 -1       712    8    0    1
 -2       291       292       438      1658      2099      2100
 -1       713    8    0    1
 -2       291       438       437      2100      2101      2096
 -1       714    8    0    1
 -2       295       296       439      1728      2102      2103
 -1       715    8    0    1
 -2       323       138       228      1725      1468      2104
 -1       716    8    0    1
 -2       321       293       440      1723      2105      2106
 -1       717    8    0    1
 -2       301       267       300      2041      2038      1733
 -1       718    8    0    1
 -2       168       169       441      1289      2107      2108
 -1       719    8    0    1
 -2       324       168       441      1756      2108      2109
 -1       720    8    0    1
 -2       169       326       441      1762      2110      2107
 -1       721    8    0    1
 -2       271       272       442      1597      2111      2112
 -1       722    8    0    1
 -2       272       420       442      2046      2113      2111
 -1       723    8    0    1
 -2       296       297       443      1729      2114      2115
 -1       724    8    0    1
 -2       303       304       418      1736      2116      2117
 -1       725    8    0    1
 -2       304       305       444      1737      2118      2119
 -1       726    8    0    1
 -2       305       306       445      1738      2120      2121
 -1       727    8    0    1
 -2       306       307       446      1739      2122      2123
 -1       728    8    0    1
 -2       307       308       447      1740      2124      2125
 -1       729    8    0    1
 -2       307       447       446      2125      2126      2122
 -1       730    8    0    1
 -2       308       309       448      1741      2127      2128
 -1       731    8    0    1
 -2       309       310       449      1742      2129      2130
 -1       732    8    0    1
 -2       310       311       450      1743      2131      2132
 -1       733    8    0    1
 -2       311       312       451      1744      2133      2134
 -1       734    8    0    1
 -2       312       313       452      1745      2135      2136
 -1       735    8    0    1
 -2       313       314       453      1746      2137      2138
 -1       736    8    0    1
 -2       314       315       454      1747      2139      2140
 -1       737    8    0    1
 -2       315       316       455      1748      2141      2142
 -1       738    8    0    1
 -2       316       317       456      1749      2143      2144
 -1       739    8    0    1
 -2       316       456       455      2144      2145      2141
 -1       740    8    0    1
 -2       317       318       457      1750      2146      2147
 -1       741    8    0    1
 -2       318       319       458      1751      2148      2149
 -1       742    8    0    1
 -2       319       320       459      1752      2150      2151
 -1       743    8    0    1
 -2       320       321       460      1753      2152      2153
 -1       744    8    0    1
 -2       180       229       336      1796      2154      1790
 -1       745    8    0    1
 -2       293       294       461      1724      2155      2156
 -1       746    8    0    1
 -2       298       269       462      1793      2157      2158
 -1       747    8    0    1
 -2       297       298       462      1730      2158      2159
 -1       748    8    0    1
 -2       269       270       462      1591      2160      2157
 -1       749    8    0    1
 -2       181       166       325      1795      1759      2161
 -1       750    8    0    1
 -2       323       228       382      2104      1932      2162
 -1       751    8    0    1
 -2       268       298       299      1794      1731      2163
 -1       752    8    0    1
 -2       293       461       440      2156      2164      2105
 -1       753    8    0    1
 -2       182       181       325      1328      2161      2165
 -1       754    8    0    1
 -2       322       266       463      1755      2166      2167
 -1       755    8    0    1
 -2       337       182       325      1797      2165      2168
 -1       756    8    0    1
 -2       268       299       300      2163      1732      2037
 -1       757    8    0    1
 -2       230       384       336      1937      2169      2170
 -1       758    8    0    1
 -2       229       230       336      1473      2170      2154
 -1       759    8    0    1
 -2       294       417       461      2036      2171      2155
 -1       760    8    0    1
 -2       417       295       439      2035      2103      2172
 -1       761    8    0    1
 -2       264       265       464      1578      2173      2174
 -1       762    8    0    1
 -2       271       442       419      2112      2175      2043
 -1       763    8    0    1
 -2       265       418       464      2040      2176      2173
 -1       764    8    0    1
 -2       270       419       462      2044      2177      2160
 -1       765    8    0    1
 -2       296       443       439      2115      2178      2102
 -1       766    8    0    1
 -2       308       448       447      2128      2179      2124
 -1       767    8    0    1
 -2       264       464       416      2174      2180      2032
 -1       768    8    0    1
 -2       292       323       382      1727      2162      2181
 -1       769    8    0    1
 -2       321       440       460      2106      2182      2152
 -1       770    8    0    1
 -2       445       306       446      2120      2123      2183
 -1       771    8    0    1
 -2       459       320       460      2150      2153      2184
 -1       772    8    0    1
 -2       458       319       459      2148      2151      2185
 -1       773    8    0    1
 -2       456       317       465      2143      2186      2187
 -1       774    8    0    1
 -2       317       457       465      2147      2188      2186
 -1       775    8    0    1
 -2       454       315       455      2139      2142      2189
 -1       776    8    0    1
 -2       453       314       454      2137      2140      2190
 -1       777    8    0    1
 -2       452       313       453      2135      2138      2191
 -1       778    8    0    1
 -2       451       312       452      2133      2136      2192
 -1       779    8    0    1
 -2       450       311       451      2131      2134      2193
 -1       780    8    0    1
 -2       449       310       450      2129      2132      2194
 -1       781    8    0    1
 -2       444       305       445      2118      2121      2195
 -1       782    8    0    1
 -2       418       304       444      2116      2119      2196
 -1       783    8    0    1
 -2       301       302       463      1734      2197      2198
 -1       784    8    0    1
 -2       302       303       466      1735      2199      2200
 -1       785    8    0    1
 -2       463       302       466      2197      2200      2201
 -1       786    8    0    1
 -2       303       418       466      2117      2202      2199
 -1       787    8    0    1
 -2       448       309       449      2127      2130      2203
 -1       788    8    0    1
 -2       457       318       458      2146      2149      2204
 -1       789    8    0    1
 -2       292       382       438      2181      2205      2099
 -1       790    8    0    1
 -2       460       440       467      2182      2206      2207
 -1       791    8    0    1
 -2       327       328       468      1768      2208      2209
 -1       792    8    0    1
 -2       326       327       469      1765      2210      2211
 -1       793    8    0    1
 -2       327       468       469      2209      2212      2210
 -1       794    8    0    1
 -2       329       330       470      1774      2213      2214
 -1       795    8    0    1
 -2       330       331       471      1777      2215      2216
 -1       796    8    0    1
 -2       330       471       470      2216      2217      2213
 -1       797    8    0    1
 -2       331       332       472      1780      2218      2219
 -1       798    8    0    1
 -2       331       472       471      2219      2220      2215
 -1       799    8    0    1
 -2       332       333       473      1783      2221      2222
 -1       800    8    0    1
 -2       332       473       472      2222      2223      2218
 -1       801    8    0    1
 -2       333       334       474      1786      2224      2225
 -1       802    8    0    1
 -2       333       474       473      2225      2226      2221
 -1       803    8    0    1
 -2       334       335       475      1789      2227      2228
 -1       804    8    0    1
 -2       334       475       474      2228      2229      2224
 -1       805    8    0    1
 -2       335       336       476      1792      2230      2231
 -1       806    8    0    1
 -2       475       335       476      2227      2231      2232
 -1       807    8    0    1
 -2       336       384       476      2169      2233      2230
 -1       808    8    0    1
 -2       463       266       301      2166      2042      2198
 -1       809    8    0    1
 -2       338       337       477      1801      2234      2235
 -1       810    8    0    1
 -2       337       325       478      2168      2236      2237
 -1       811    8    0    1
 -2       477       337       478      2234      2237      2238
 -1       812    8    0    1
 -2       325       324       478      1760      2239      2236
 -1       813    8    0    1
 -2       339       338       479      1804      2240      2241
 -1       814    8    0    1
 -2       338       477       479      2235      2242      2240
 -1       815    8    0    1
 -2       340       339       480      1807      2243      2244
 -1       816    8    0    1
 -2       339       479       480      2241      2245      2243
 -1       817    8    0    1
 -2       341       340       481      1810      2246      2247
 -1       818    8    0    1
 -2       340       480       481      2244      2248      2246
 -1       819    8    0    1
 -2       342       341       482      1813      2249      2250
 -1       820    8    0    1
 -2       341       481       482      2247      2251      2249
 -1       821    8    0    1
 -2       343       342       483      1816      2252      2253
 -1       822    8    0    1
 -2       342       482       483      2250      2254      2252
 -1       823    8    0    1
 -2       344       343       484      1819      2255      2256
 -1       824    8    0    1
 -2       343       483       484      2253      2257      2255
 -1       825    8    0    1
 -2       345       344       485      1822      2258      2259
 -1       826    8    0    1
 -2       344       484       485      2256      2260      2258
 -1       827    8    0    1
 -2       346       345       486      1825      2261      2262
 -1       828    8    0    1
 -2       345       485       486      2259      2263      2261
 -1       829    8    0    1
 -2       347       346       487      1828      2264      2265
 -1       830    8    0    1
 -2       346       486       487      2262      2266      2264
 -1       831    8    0    1
 -2       348       347       488      1831      2267      2268
 -1       832    8    0    1
 -2       347       487       488      2265      2269      2267
 -1       833    8    0    1
 -2       349       348       489      1834      2270      2271
 -1       834    8    0    1
 -2       348       488       489      2268      2272      2270
 -1       835    8    0    1
 -2       350       349       490      1837      2273      2274
 -1       836    8    0    1
 -2       349       489       490      2271      2275      2273
 -1       837    8    0    1
 -2       351       350       491      1840      2276      2277
 -1       838    8    0    1
 -2       350       490       491      2274      2278      2276
 -1       839    8    0    1
 -2       352       351       492      1843      2279      2280
 -1       840    8    0    1
 -2       351       491       492      2277      2281      2279
 -1       841    8    0    1
 -2       353       352       493      1846      2282      2283
 -1       842    8    0    1
 -2       352       492       493      2280      2284      2282
 -1       843    8    0    1
 -2       354       353       494      1849      2285      2286
 -1       844    8    0    1
 -2       353       493       494      2283      2287      2285
 -1       845    8    0    1
 -2       355       354       495      1852      2288      2289
 -1       846    8    0    1
 -2       354       494       495      2286      2290      2288
 -1       847    8    0    1
 -2       356       355       496      1855      2291      2292
 -1       848    8    0    1
 -2       355       495       496      2289      2293      2291
 -1       849    8    0    1
 -2       357       356       497      1858      2294      2295
 -1       850    8    0    1
 -2       356       496       497      2292      2296      2294
 -1       851    8    0    1
 -2       358       357       498      1861      2297      2298
 -1       852    8    0    1
 -2       357       497       498      2295      2299      2297
 -1       853    8    0    1
 -2       359       358       499      1864      2300      2301
 -1       854    8    0    1
 -2       358       498       499      2298      2302      2300
 -1       855    8    0    1
 -2       360       359       500      1867      2303      2304
 -1       856    8    0    1
 -2       359       499       500      2301      2305      2303
 -1       857    8    0    1
 -2       361       360       501      1870      2306      2307
 -1       858    8    0    1
 -2       360       500       501      2304      2308      2306
 -1       859    8    0    1
 -2       362       361       502      1873      2309      2310
 -1       860    8    0    1
 -2       361       501       502      2307      2311      2309
 -1       861    8    0    1
 -2       363       362       503      1876      2312      2313
 -1       862    8    0    1
 -2       362       502       503      2310      2314      2312
 -1       863    8    0    1
 -2       364       363       504      1879      2315      2316
 -1       864    8    0    1
 -2       363       503       504      2313      2317      2315
 -1       865    8    0    1
 -2       365       364       505      1882      2318      2319
 -1       866    8    0    1
 -2       364       504       505      2316      2320      2318
 -1       867    8    0    1
 -2       366       365       506      1885      2321      2322
 -1       868    8    0    1
 -2       365       505       506      2319      2323      2321
 -1       869    8    0    1
 -2       367       366       507      1888      2324      2325
 -1       870    8    0    1
 -2       366       506       507      2322      2326      2324
 -1       871    8    0    1
 -2       368       367       508      1891      2327      2328
 -1       872    8    0    1
 -2       367       507       508      2325      2329      2327
 -1       873    8    0    1
 -2       369       368       509      1894      2330      2331
 -1       874    8    0    1
 -2       368       508       509      2328      2332      2330
 -1       875    8    0    1
 -2       370       369       510      1897      2333      2334
 -1       876    8    0    1
 -2       369       509       510      2331      2335      2333
 -1       877    8    0    1
 -2       371       370       511      1900      2336      2337
 -1       878    8    0    1
 -2       370       510       511      2334      2338      2336
 -1       879    8    0    1
 -2       372       371       512      1903      2339      2340
 -1       880    8    0    1
 -2       371       511       512      2337      2341      2339
 -1       881    8    0    1
 -2       373       372       513      1906      2342      2343
 -1       882    8    0    1
 -2       372       512       513      2340      2344      2342
 -1       883    8    0    1
 -2       374       373       514      1909      2345      2346
 -1       884    8    0    1
 -2       373       513       514      2343      2347      2345
 -1       885    8    0    1
 -2       375       374       515      1912      2348      2349
 -1       886    8    0    1
 -2       374       514       515      2346      2350      2348
 -1       887    8    0    1
 -2       376       375       516      1915      2351      2352
 -1       888    8    0    1
 -2       375       515       516      2349      2353      2351
 -1       889    8    0    1
 -2       377       376       517      1918      2354      2355
 -1       890    8    0    1
 -2       376       516       517      2352      2356      2354
 -1       891    8    0    1
 -2       378       377       518      1921      2357      2358
 -1       892    8    0    1
 -2       377       517       518      2355      2359      2357
 -1       893    8    0    1
 -2       379       378       519      1924      2360      2361
 -1       894    8    0    1
 -2       378       518       519      2358      2362      2360
 -1       895    8    0    1
 -2       380       379       520      1927      2363      2364
 -1       896    8    0    1
 -2       379       519       520      2361      2365      2363
 -1       897    8    0    1
 -2       381       380       521      1930      2366      2367
 -1       898    8    0    1
 -2       380       520       521      2364      2368      2366
 -1       899    8    0    1
 -2       382       381       522      1933      2369      2370
 -1       900    8    0    1
 -2       438       382       522      2205      2370      2371
 -1       901    8    0    1
 -2       381       521       522      2367      2372      2369
 -1       902    8    0    1
 -2       385       386       523      1944      2373      2374
 -1       903    8    0    1
 -2       442       420       524      2113      2375      2376
 -1       904    8    0    1
 -2       386       387       525      1947      2377      2378
 -1       905    8    0    1
 -2       386       525       523      2378      2379      2373
 -1       906    8    0    1
 -2       387       388       526      1950      2380      2381
 -1       907    8    0    1
 -2       387       526       525      2381      2382      2377
 -1       908    8    0    1
 -2       388       389       527      1953      2383      2384
 -1       909    8    0    1
 -2       388       527       526      2384      2385      2380
 -1       910    8    0    1
 -2       389       390       528      1956      2386      2387
 -1       911    8    0    1
 -2       389       528       527      2387      2388      2383
 -1       912    8    0    1
 -2       390       391       529      1959      2389      2390
 -1       913    8    0    1
 -2       390       529       528      2390      2391      2386
 -1       914    8    0    1
 -2       391       392       530      1962      2392      2393
 -1       915    8    0    1
 -2       391       530       529      2393      2394      2389
 -1       916    8    0    1
 -2       392       393       531      1965      2395      2396
 -1       917    8    0    1
 -2       392       531       530      2396      2397      2392
 -1       918    8    0    1
 -2       393       394       532      1968      2398      2399
 -1       919    8    0    1
 -2       393       532       531      2399      2400      2395
 -1       920    8    0    1
 -2       394       395       533      1971      2401      2402
 -1       921    8    0    1
 -2       394       533       532      2402      2403      2398
 -1       922    8    0    1
 -2       395       396       534      1974      2404      2405
 -1       923    8    0    1
 -2       395       534       533      2405      2406      2401
 -1       924    8    0    1
 -2       396       397       535      1977      2407      2408
 -1       925    8    0    1
 -2       396       535       534      2408      2409      2404
 -1       926    8    0    1
 -2       397       398       536      1980      2410      2411
 -1       927    8    0    1
 -2       397       536       535      2411      2412      2407
 -1       928    8    0    1
 -2       398       399       537      1983      2413      2414
 -1       929    8    0    1
 -2       398       537       536      2414      2415      2410
 -1       930    8    0    1
 -2       399       400       538      1986      2416      2417
 -1       931    8    0    1
 -2       399       538       537      2417      2418      2413
 -1       932    8    0    1
 -2       400       401       539      1989      2419      2420
 -1       933    8    0    1
 -2       400       539       538      2420      2421      2416
 -1       934    8    0    1
 -2       401       402       540      1992      2422      2423
 -1       935    8    0    1
 -2       401       540       539      2423      2424      2419
 -1       936    8    0    1
 -2       402       403       541      1995      2425      2426
 -1       937    8    0    1
 -2       402       541       540      2426      2427      2422
 -1       938    8    0    1
 -2       403       404       542      1998      2428      2429
 -1       939    8    0    1
 -2       403       542       541      2429      2430      2425
 -1       940    8    0    1
 -2       404       405       543      2001      2431      2432
 -1       941    8    0    1
 -2       404       543       542      2432      2433      2428
 -1       942    8    0    1
 -2       405       406       544      2004      2434      2435
 -1       943    8    0    1
 -2       405       544       543      2435      2436      2431
 -1       944    8    0    1
 -2       406       407       545      2007      2437      2438
 -1       945    8    0    1
 -2       406       545       544      2438      2439      2434
 -1       946    8    0    1
 -2       407       408       546      2010      2440      2441
 -1       947    8    0    1
 -2       407       546       545      2441      2442      2437
 -1       948    8    0    1
 -2       408       409       547      2013      2443      2444
 -1       949    8    0    1
 -2       408       547       546      2444      2445      2440
 -1       950    8    0    1
 -2       409       410       548      2016      2446      2447
 -1       951    8    0    1
 -2       409       548       547      2447      2448      2443
 -1       952    8    0    1
 -2       410       411       549      2019      2449      2450
 -1       953    8    0    1
 -2       410       549       548      2450      2451      2446
 -1       954    8    0    1
 -2       411       412       550      2022      2452      2453
 -1       955    8    0    1
 -2       411       550       549      2453      2454      2449
 -1       956    8    0    1
 -2       412       413       551      2025      2455      2456
 -1       957    8    0    1
 -2       412       551       550      2456      2457      2452
 -1       958    8    0    1
 -2       413       414       552      2028      2458      2459
 -1       959    8    0    1
 -2       413       552       551      2459      2460      2455
 -1       960    8    0    1
 -2       414       415       553      2031      2461      2462
 -1       961    8    0    1
 -2       414       553       552      2462      2463      2458
 -1       962    8    0    1
 -2       415       416       554      2034      2464      2465
 -1       963    8    0    1
 -2       415       554       553      2465      2466      2461
 -1       964    8    0    1
 -2       322       463       466      2167      2201      2467
 -1       965    8    0    1
 -2       420       421       555      2049      2468      2469
 -1       966    8    0    1
 -2       420       555       524      2469      2470      2375
 -1       967    8    0    1
 -2       424       425       556      2061      2471      2472
 -1       968    8    0    1
 -2       425       427       556      2067      2473      2471
 -1       969    8    0    1
 -2       428       429       557      2074      2474      2475
 -1       970    8    0    1
 -2       429       430       558      2077      2476      2477
 -1       971    8    0    1
 -2       429       558       557      2477      2478      2474
 -1       972    8    0    1
 -2       426       428       559      2071      2479      2480
 -1       973    8    0    1
 -2       428       557       559      2475      2481      2479
 -1       974    8    0    1
 -2       430       431       560      2080      2482      2483
 -1       975    8    0    1
 -2       430       560       558      2483      2484      2476
 -1       976    8    0    1
 -2       431       432       561      2083      2485      2486
 -1       977    8    0    1
 -2       431       561       560      2486      2487      2482
 -1       978    8    0    1
 -2       432       433       562      2086      2488      2489
 -1       979    8    0    1
 -2       432       562       561      2489      2490      2485
 -1       980    8    0    1
 -2       433       434       563      2089      2491      2492
 -1       981    8    0    1
 -2       433       563       562      2492      2493      2488
 -1       982    8    0    1
 -2       434       435       564      2092      2494      2495
 -1       983    8    0    1
 -2       434       564       563      2495      2496      2491
 -1       984    8    0    1
 -2       435       436       565      2095      2497      2498
 -1       985    8    0    1
 -2       435       565       564      2498      2499      2494
 -1       986    8    0    1
 -2       436       437       566      2098      2500      2501
 -1       987    8    0    1
 -2       436       566       565      2501      2502      2497
 -1       988    8    0    1
 -2       437       438       567      2101      2503      2504
 -1       989    8    0    1
 -2       566       437       567      2500      2504      2505
 -1       990    8    0    1
 -2       438       522       567      2371      2506      2503
 -1       991    8    0    1
 -2       447       448       568      2179      2507      2508
 -1       992    8    0    1
 -2       445       446       569      2183      2509      2510
 -1       993    8    0    1
 -2       454       455       570      2189      2511      2512
 -1       994    8    0    1
 -2       416       464       571      2180      2513      2514
 -1       995    8    0    1
 -2       422       423       572      2055      2515      2516
 -1       996    8    0    1
 -2       421       422       573      2052      2517      2518
 -1       997    8    0    1
 -2       422       572       573      2516      2519      2517
 -1       998    8    0    1
 -2       464       418       444      2176      2196      2520
 -1       999    8    0    1
 -2       418       322       466      2039      2467      2202
 -1      1000    8    0    1
 -2       384       383       574      1938      2521      2522
 -1      1001    8    0    1
 -2       384       574       476      2522      2523      2233
 -1      1002    8    0    1
 -2       328       329       575      1771      2524      2525
 -1      1003    8    0    1
 -2       468       328       575      2208      2525      2526
 -1      1004    8    0    1
 -2       329       470       575      2214      2527      2524
 -1      1005    8    0    1
 -2       383       385       576      1941      2528      2529
 -1      1006    8    0    1
 -2       574       383       576      2521      2529      2530
 -1      1007    8    0    1
 -2       385       523       576      2374      2531      2528
 -1      1008    8    0    1
 -2       443       297       462      2114      2159      2532
 -1      1009    8    0    1
 -2       448       449       577      2203      2533      2534
 -1      1010    8    0    1
 -2       440       461       578      2164      2535      2536
 -1      1011    8    0    1
 -2       459       460       579      2184      2537      2538
 -1      1012    8    0    1
 -2       446       447       580      2126      2539      2540
 -1      1013    8    0    1
 -2       457       458       581      2204      2541      2542
 -1      1014    8    0    1
 -2       444       445       571      2195      2543      2544
 -1      1015    8    0    1
 -2       449       450       582      2194      2545      2546
 -1      1016    8    0    1
 -2       450       451       583      2193      2547      2548
 -1      1017    8    0    1
 -2       451       452       584      2192      2549      2550
 -1      1018    8    0    1
 -2       452       453       585      2191      2551      2552
 -1      1019    8    0    1
 -2       453       454       586      2190      2553      2554
 -1      1020    8    0    1
 -2       455       456       587      2145      2555      2556
 -1      1021    8    0    1
 -2       458       459       588      2185      2557      2558
 -1      1022    8    0    1
 -2       461       417       589      2171      2559      2560
 -1      1023    8    0    1
 -2       417       439       590      2172      2561      2562
 -1      1024    8    0    1
 -2       464       444       571      2520      2544      2513
 -1      1025    8    0    1
 -2       443       462       419      2532      2177      2563
 -1      1026    8    0    1
 -2       443       419       439      2563      2564      2178
 -1      1027    8    0    1
 -2       439       419       590      2564      2565      2561
 -1      1028    8    0    1
 -2       326       469       591      2211      2566      2567
 -1      1029    8    0    1
 -2       326       591       441      2567      2568      2110
 -1      1030    8    0    1
 -2       478       324       441      2239      2109      2569
 -1      1031    8    0    1
 -2       424       556       423      2472      2570      2058
 -1      1032    8    0    1
 -2       442       524       590      2376      2571      2572
 -1      1033    8    0    1
 -2       578       461       589      2535      2560      2573
 -1      1034    8    0    1
 -2       554       416       571      2464      2514      2574
 -1      1035    8    0    1
 -2       467       440       578      2206      2536      2575
 -1      1036    8    0    1
 -2       419       442       590      2175      2572      2565
 -1      1037    8    0    1
 -2       555       421       573      2468      2518      2576
 -1      1038    8    0    1
 -2       427       426       592      2068      2577      2578
 -1      1039    8    0    1
 -2       556       427       592      2473      2578      2579
 -1      1040    8    0    1
 -2       426       559       592      2480      2580      2577
 -1      1041    8    0    1
 -2       568       448       577      2507      2534      2581
 -1      1042    8    0    1
 -2       569       446       580      2509      2540      2582
 -1      1043    8    0    1
 -2       460       467       593      2207      2583      2584
 -1      1044    8    0    1
 -2       460       593       579      2584      2585      2537
 -1      1045    8    0    1
 -2       445       569       571      2510      2586      2543
 -1      1046    8    0    1
 -2       454       570       586      2512      2587      2553
 -1      1047    8    0    1
 -2       465       457       594      2188      2588      2589
 -1      1048    8    0    1
 -2       457       581       594      2542      2590      2588
 -1      1049    8    0    1
 -2       589       417       590      2559      2562      2591
 -1      1050    8    0    1
 -2       588       459       579      2557      2538      2592
 -1      1051    8    0    1
 -2       587       456       595      2555      2593      2594
 -1      1052    8    0    1
 -2       456       465       595      2187      2595      2593
 -1      1053    8    0    1
 -2       585       453       586      2551      2554      2596
 -1      1054    8    0    1
 -2       584       452       585      2549      2552      2597
 -1      1055    8    0    1
 -2       583       451       584      2547      2550      2598
 -1      1056    8    0    1
 -2       582       450       583      2545      2548      2599
 -1      1057    8    0    1
 -2       581       458       588      2541      2558      2600
 -1      1058    8    0    1
 -2       580       447       568      2539      2508      2601
 -1      1059    8    0    1
 -2       577       449       582      2533      2546      2602
 -1      1060    8    0    1
 -2       570       455       587      2511      2556      2603
 -1      1061    8    0    1
 -2       423       556       572      2570      2604      2515
 -1      1062    8    0    1
 -2       471       472       596      2220      2605      2606
 -1      1063    8    0    1
 -2       470       471       597      2217      2607      2608
 -1      1064    8    0    1
 -2       471       596       597      2606      2609      2607
 -1      1065    8    0    1
 -2       473       474       598      2226      2610      2611
 -1      1066    8    0    1
 -2       474       475       599      2229      2612      2613
 -1      1067    8    0    1
 -2       474       599       598      2613      2614      2610
 -1      1068    8    0    1
 -2       475       476       600      2232      2615      2616
 -1      1069    8    0    1
 -2       599       475       600      2612      2616      2617
 -1      1070    8    0    1
 -2       476       574       600      2523      2618      2615
 -1      1071    8    0    1
 -2       477       478       601      2238      2619      2620
 -1      1072    8    0    1
 -2       526       527       602      2385      2621      2622
 -1      1073    8    0    1
 -2       480       479       603      2245      2623      2624
 -1      1074    8    0    1
 -2       481       480       604      2248      2625      2626
 -1      1075    8    0    1
 -2       480       603       604      2624      2627      2625
 -1      1076    8    0    1
 -2       482       481       605      2251      2628      2629
 -1      1077    8    0    1
 -2       481       604       605      2626      2630      2628
 -1      1078    8    0    1
 -2       483       482       606      2254      2631      2632
 -1      1079    8    0    1
 -2       482       605       606      2629      2633      2631
 -1      1080    8    0    1
 -2       484       483       607      2257      2634      2635
 -1      1081    8    0    1
 -2       483       606       607      2632      2636      2634
 -1      1082    8    0    1
 -2       485       484       608      2260      2637      2638
 -1      1083    8    0    1
 -2       484       607       608      2635      2639      2637
 -1      1084    8    0    1
 -2       486       485       609      2263      2640      2641
 -1      1085    8    0    1
 -2       485       608       609      2638      2642      2640
 -1      1086    8    0    1
 -2       487       486       610      2266      2643      2644
 -1      1087    8    0    1
 -2       486       609       610      2641      2645      2643
 -1      1088    8    0    1
 -2       488       487       611      2269      2646      2647
 -1      1089    8    0    1
 -2       487       610       611      2644      2648      2646
 -1      1090    8    0    1
 -2       489       488       612      2272      2649      2650
 -1      1091    8    0    1
 -2       488       611       612      2647      2651      2649
 -1      1092    8    0    1
 -2       490       489       613      2275      2652      2653
 -1      1093    8    0    1
 -2       489       612       613      2650      2654      2652
 -1      1094    8    0    1
 -2       491       490       614      2278      2655      2656
 -1      1095    8    0    1
 -2       490       613       614      2653      2657      2655
 -1      1096    8    0    1
 -2       492       491       615      2281      2658      2659
 -1      1097    8    0    1
 -2       491       614       615      2656      2660      2658
 -1      1098    8    0    1
 -2       493       492       616      2284      2661      2662
 -1      1099    8    0    1
 -2       492       615       616      2659      2663      2661
 -1      1100    8    0    1
 -2       494       493       617      2287      2664      2665
 -1      1101    8    0    1
 -2       493       616       617      2662      2666      2664
 -1      1102    8    0    1
 -2       495       494       618      2290      2667      2668
 -1      1103    8    0    1
 -2       494       617       618      2665      2669      2667
 -1      1104    8    0    1
 -2       496       495       619      2293      2670      2671
 -1      1105    8    0    1
 -2       495       618       619      2668      2672      2670
 -1      1106    8    0    1
 -2       497       496       620      2296      2673      2674
 -1      1107    8    0    1
 -2       496       619       620      2671      2675      2673
 -1      1108    8    0    1
 -2       498       497       621      2299      2676      2677
 -1      1109    8    0    1
 -2       497       620       621      2674      2678      2676
 -1      1110    8    0    1
 -2       499       498       622      2302      2679      2680
 -1      1111    8    0    1
 -2       498       621       622      2677      2681      2679
 -1      1112    8    0    1
 -2       500       499       623      2305      2682      2683
 -1      1113    8    0    1
 -2       499       622       623      2680      2684      2682
 -1      1114    8    0    1
 -2       501       500       624      2308      2685      2686
 -1      1115    8    0    1
 -2       500       623       624      2683      2687      2685
 -1      1116    8    0    1
 -2       502       501       625      2311      2688      2689
 -1      1117    8    0    1
 -2       501       624       625      2686      2690      2688
 -1      1118    8    0    1
 -2       503       502       626      2314      2691      2692
 -1      1119    8    0    1
 -2       502       625       626      2689      2693      2691
 -1      1120    8    0    1
 -2       504       503       627      2317      2694      2695
 -1      1121    8    0    1
 -2       503       626       627      2692      2696      2694
 -1      1122    8    0    1
 -2       505       504       628      2320      2697      2698
 -1      1123    8    0    1
 -2       504       627       628      2695      2699      2697
 -1      1124    8    0    1
 -2       506       505       629      2323      2700      2701
 -1      1125    8    0    1
 -2       505       628       629      2698      2702      2700
 -1      1126    8    0    1
 -2       507       506       630      2326      2703      2704
 -1      1127    8    0    1
 -2       506       629       630      2701      2705      2703
 -1      1128    8    0    1
 -2       508       507       631      2329      2706      2707
 -1      1129    8    0    1
 -2       507       630       631      2704      2708      2706
 -1      1130    8    0    1
 -2       509       508       632      2332      2709      2710
 -1      1131    8    0    1
 -2       508       631       632      2707      2711      2709
 -1      1132    8    0    1
 -2       510       509       633      2335      2712      2713
 -1      1133    8    0    1
 -2       509       632       633      2710      2714      2712
 -1      1134    8    0    1
 -2       511       510       634      2338      2715      2716
 -1      1135    8    0    1
 -2       510       633       634      2713      2717      2715
 -1      1136    8    0    1
 -2       512       511       635      2341      2718      2719
 -1      1137    8    0    1
 -2       511       634       635      2716      2720      2718
 -1      1138    8    0    1
 -2       513       512       636      2344      2721      2722
 -1      1139    8    0    1
 -2       512       635       636      2719      2723      2721
 -1      1140    8    0    1
 -2       514       513       637      2347      2724      2725
 -1      1141    8    0    1
 -2       513       636       637      2722      2726      2724
 -1      1142    8    0    1
 -2       515       514       638      2350      2727      2728
 -1      1143    8    0    1
 -2       514       637       638      2725      2729      2727
 -1      1144    8    0    1
 -2       516       515       639      2353      2730      2731
 -1      1145    8    0    1
 -2       515       638       639      2728      2732      2730
 -1      1146    8    0    1
 -2       517       516       640      2356      2733      2734
 -1      1147    8    0    1
 -2       516       639       640      2731      2735      2733
 -1      1148    8    0    1
 -2       518       517       641      2359      2736      2737
 -1      1149    8    0    1
 -2       517       640       641      2734      2738      2736
 -1      1150    8    0    1
 -2       519       518       642      2362      2739      2740
 -1      1151    8    0    1
 -2       518       641       642      2737      2741      2739
 -1      1152    8    0    1
 -2       520       519       643      2365      2742      2743
 -1      1153    8    0    1
 -2       519       642       643      2740      2744      2742
 -1      1154    8    0    1
 -2       521       520       644      2368      2745      2746
 -1      1155    8    0    1
 -2       520       643       644      2743      2747      2745
 -1      1156    8    0    1
 -2       522       521       645      2372      2748      2749
 -1      1157    8    0    1
 -2       567       522       645      2506      2749      2750
 -1      1158    8    0    1
 -2       521       644       645      2746      2751      2748
 -1      1159    8    0    1
 -2       590       524       589      2571      2752      2591
 -1      1160    8    0    1
 -2       578       589       646      2573      2753      2754
 -1      1161    8    0    1
 -2       523       525       647      2379      2755      2756
 -1      1162    8    0    1
 -2       527       528       648      2388      2757      2758
 -1      1163    8    0    1
 -2       527       648       602      2758      2759      2621
 -1      1164    8    0    1
 -2       528       529       649      2391      2760      2761
 -1      1165    8    0    1
 -2       528       649       648      2761      2762      2757
 -1      1166    8    0    1
 -2       529       530       650      2394      2763      2764
 -1      1167    8    0    1
 -2       529       650       649      2764      2765      2760
 -1      1168    8    0    1
 -2       530       531       651      2397      2766      2767
 -1      1169    8    0    1
 -2       530       651       650      2767      2768      2763
 -1      1170    8    0    1
 -2       531       532       652      2400      2769      2770
 -1      1171    8    0    1
 -2       531       652       651      2770      2771      2766
 -1      1172    8    0    1
 -2       532       533       653      2403      2772      2773
 -1      1173    8    0    1
 -2       532       653       652      2773      2774      2769
 -1      1174    8    0    1
 -2       533       534       654      2406      2775      2776
 -1      1175    8    0    1
 -2       533       654       653      2776      2777      2772
 -1      1176    8    0    1
 -2       534       535       655      2409      2778      2779
 -1      1177    8    0    1
 -2       534       655       654      2779      2780      2775
 -1      1178    8    0    1
 -2       535       536       656      2412      2781      2782
 -1      1179    8    0    1
 -2       535       656       655      2782      2783      2778
 -1      1180    8    0    1
 -2       536       537       657      2415      2784      2785
 -1      1181    8    0    1
 -2       536       657       656      2785      2786      2781
 -1      1182    8    0    1
 -2       537       538       658      2418      2787      2788
 -1      1183    8    0    1
 -2       537       658       657      2788      2789      2784
 -1      1184    8    0    1
 -2       538       539       659      2421      2790      2791
 -1      1185    8    0    1
 -2       538       659       658      2791      2792      2787
 -1      1186    8    0    1
 -2       539       540       660      2424      2793      2794
 -1      1187    8    0    1
 -2       539       660       659      2794      2795      2790
 -1      1188    8    0    1
 -2       540       541       661      2427      2796      2797
 -1      1189    8    0    1
 -2       540       661       660      2797      2798      2793
 -1      1190    8    0    1
 -2       541       542       662      2430      2799      2800
 -1      1191    8    0    1
 -2       541       662       661      2800      2801      2796
 -1      1192    8    0    1
 -2       542       543       663      2433      2802      2803
 -1      1193    8    0    1
 -2       542       663       662      2803      2804      2799
 -1      1194    8    0    1
 -2       543       544       664      2436      2805      2806
 -1      1195    8    0    1
 -2       543       664       663      2806      2807      2802
 -1      1196    8    0    1
 -2       544       545       665      2439      2808      2809
 -1      1197    8    0    1
 -2       544       665       664      2809      2810      2805
 -1      1198    8    0    1
 -2       545       546       666      2442      2811      2812
 -1      1199    8    0    1
 -2       545       666       665      2812      2813      2808
 -1      1200    8    0    1
 -2       546       547       667      2445      2814      2815
 -1      1201    8    0    1
 -2       546       667       666      2815      2816      2811
 -1      1202    8    0    1
 -2       547       548       668      2448      2817      2818
 -1      1203    8    0    1
 -2       547       668       667      2818      2819      2814
 -1      1204    8    0    1
 -2       548       549       669      2451      2820      2821
 -1      1205    8    0    1
 -2       548       669       668      2821      2822      2817
 -1      1206    8    0    1
 -2       549       550       670      2454      2823      2824
 -1      1207    8    0    1
 -2       549       670       669      2824      2825      2820
 -1      1208    8    0    1
 -2       550       551       671      2457      2826      2827
 -1      1209    8    0    1
 -2       550       671       670      2827      2828      2823
 -1      1210    8    0    1
 -2       551       552       672      2460      2829      2830
 -1      1211    8    0    1
 -2       551       672       671      2830      2831      2826
 -1      1212    8    0    1
 -2       552       553       673      2463      2832      2833
 -1      1213    8    0    1
 -2       552       673       672      2833      2834      2829
 -1      1214    8    0    1
 -2       553       554       674      2466      2835      2836
 -1      1215    8    0    1
 -2       553       674       673      2836      2837      2832
 -1      1216    8    0    1
 -2       560       561       675      2487      2838      2839
 -1      1217    8    0    1
 -2       478       441       601      2569      2840      2619
 -1      1218    8    0    1
 -2       479       477       676      2242      2841      2842
 -1      1219    8    0    1
 -2       603       479       676      2623      2842      2843
 -1      1220    8    0    1
 -2       477       601       676      2620      2844      2841
 -1      1221    8    0    1
 -2       568       577       677      2581      2845      2846
 -1      1222    8    0    1
 -2       557       558       678      2478      2847      2848
 -1      1223    8    0    1
 -2       559       557       679      2481      2849      2850
 -1      1224    8    0    1
 -2       557       678       679      2848      2851      2849
 -1      1225    8    0    1
 -2       558       560       680      2484      2852      2853
 -1      1226    8    0    1
 -2       560       675       680      2839      2854      2852
 -1      1227    8    0    1
 -2       561       562       681      2490      2855      2856
 -1      1228    8    0    1
 -2       561       681       675      2856      2857      2838
 -1      1229    8    0    1
 -2       562       563       682      2493      2858      2859
 -1      1230    8    0    1
 -2       562       682       681      2859      2860      2855
 -1      1231    8    0    1
 -2       563       564       683      2496      2861      2862
 -1      1232    8    0    1
 -2       563       683       682      2862      2863      2858
 -1      1233    8    0    1
 -2       564       565       684      2499      2864      2865
 -1      1234    8    0    1
 -2       564       684       683      2865      2866      2861
 -1      1235    8    0    1
 -2       565       566       685      2502      2867      2868
 -1      1236    8    0    1
 -2       565       685       684      2868      2869      2864
 -1      1237    8    0    1
 -2       555       573       686      2576      2870      2871
 -1      1238    8    0    1
 -2       467       578       687      2575      2872      2873
 -1      1239    8    0    1
 -2       571       569       554      2586      2874      2574
 -1      1240    8    0    1
 -2       472       473       688      2223      2875      2876
 -1      1241    8    0    1
 -2       596       472       688      2605      2876      2877
 -1      1242    8    0    1
 -2       473       598       688      2611      2878      2875
 -1      1243    8    0    1
 -2       573       572       689      2519      2879      2880
 -1      1244    8    0    1
 -2       573       689       686      2880      2881      2870
 -1      1245    8    0    1
 -2       577       582       690      2602      2882      2883
 -1      1246    8    0    1
 -2       586       570       691      2587      2884      2885
 -1      1247    8    0    1
 -2       469       468       692      2212      2886      2887
 -1      1248    8    0    1
 -2       570       587       693      2603      2888      2889
 -1      1249    8    0    1
 -2       581       588       694      2600      2890      2891
 -1      1250    8    0    1
 -2       582       583       695      2599      2892      2893
 -1      1251    8    0    1
 -2       583       584       696      2598      2894      2895
 -1      1252    8    0    1
 -2       583       696       695      2895      2896      2892
 -1      1253    8    0    1
 -2       584       585       697      2597      2897      2898
 -1      1254    8    0    1
 -2       572       556       592      2604      2579      2899
 -1      1255    8    0    1
 -2       580       568       698      2601      2900      2901
 -1      1256    8    0    1
 -2       525       526       699      2382      2902      2903
 -1      1257    8    0    1
 -2       526       602       699      2622      2904      2902
 -1      1258    8    0    1
 -2       585       586       700      2596      2905      2906
 -1      1259    8    0    1
 -2       588       579       701      2592      2907      2908
 -1      1260    8    0    1
 -2       589       524       646      2752      2909      2753
 -1      1261    8    0    1
 -2       554       569       702      2874      2910      2911
 -1      1262    8    0    1
 -2       674       554       702      2835      2911      2912
 -1      1263    8    0    1
 -2       569       580       702      2582      2913      2910
 -1      1264    8    0    1
 -2       574       576       703      2530      2914      2915
 -1      1265    8    0    1
 -2       574       703       600      2915      2916      2618
 -1      1266    8    0    1
 -2       470       597       704      2608      2917      2918
 -1      1267    8    0    1
 -2       470       704       575      2918      2919      2527
 -1      1268    8    0    1
 -2       468       575       705      2526      2920      2921
 -1      1269    8    0    1
 -2       692       468       705      2886      2921      2922
 -1      1270    8    0    1
 -2       575       704       705      2919      2923      2920
 -1      1271    8    0    1
 -2       585       700       697      2906      2924      2897
 -1      1272    8    0    1
 -2       702       580       698      2913      2901      2925
 -1      1273    8    0    1
 -2       601       441       591      2840      2568      2926
 -1      1274    8    0    1
 -2       591       469       706      2566      2927      2928
 -1      1275    8    0    1
 -2       469       692       706      2887      2929      2927
 -1      1276    8    0    1
 -2       678       558       680      2847      2853      2930
 -1      1277    8    0    1
 -2       592       559       707      2580      2931      2932
 -1      1278    8    0    1
 -2       559       679       707      2850      2933      2931
 -1      1279    8    0    1
 -2       555       686       646      2871      2934      2935
 -1      1280    8    0    1
 -2       577       690       677      2883      2936      2845
 -1      1281    8    0    1
 -2       566       567       645      2505      2750      2937
 -1      1282    8    0    1
 -2       647       525       699      2755      2903      2938
 -1      1283    8    0    1
 -2       593       467       708      2583      2939      2940
 -1      1284    8    0    1
 -2       467       687       708      2873      2941      2939
 -1      1285    8    0    1
 -2       701       579       709      2907      2942      2943
 -1      1286    8    0    1
 -2       579       593       709      2585      2944      2942
 -1      1287    8    0    1
 -2       594       581       710      2590      2945      2946
 -1      1288    8    0    1
 -2       581       694       710      2891      2947      2945
 -1      1289    8    0    1
 -2       696       584       697      2894      2898      2948
 -1      1290    8    0    1
 -2       595       465       711      2595      2949      2950
 -1      1291    8    0    1
 -2       465       594       711      2589      2951      2949
 -1      1292    8    0    1
 -2       694       588       701      2890      2908      2952
 -1      1293    8    0    1
 -2       693       587       712      2888      2953      2954
 -1      1294    8    0    1
 -2       587       595       712      2594      2955      2953
 -1      1295    8    0    1
 -2       687       578       646      2872      2754      2956
 -1      1296    8    0    1
 -2       568       677       698      2846      2957      2900
 -1      1297    8    0    1
 -2       566       645       685      2937      2958      2867
 -1      1298    8    0    1
 -2       691       570       693      2884      2889      2959
 -1      1299    8    0    1
 -2       689       572       707      2879      2960      2961
 -1      1300    8    0    1
 -2       524       555       646      2470      2935      2909
 -1      1301    8    0    1
 -2       690       582       695      2882      2893      2962
 -1      1302    8    0    1
 -2       586       691       700      2885      2963      2905
 -1      1303    8    0    1
 -2       572       592       707      2899      2932      2960
 -1      1304    8    0    1
 -2       576       523       713      2531      2964      2965
 -1      1305    8    0    1
 -2       703       576       713      2914      2965      2966
 -1      1306    8    0    1
 -2       523       647       713      2756      2967      2964
 -1      1307    8    0    1
 -2       599       600       714      2617      2968      2969
 -1      1308    8    0    1
 -2       600       703       714      2916      2970      2968
 -1      1309    8    0    1
 -2       598       599       714      2614      2969      2971
 -1      1310    8    0    1
 -2       697       700       715      2924      2972      2973
 -1      1311    8    0    1
 -2       648       649       716      2762      2974      2975
 -1      1312    8    0    1
 -2       686       689       717      2881      2976      2977
 -1      1313    8    0    1
 -2       647       699       718      2938      2978      2979
 -1      1314    8    0    1
 -2       605       604       719      2630      2980      2981
 -1      1315    8    0    1
 -2       606       605       720      2633      2982      2983
 -1      1316    8    0    1
 -2       605       719       720      2981      2984      2982
 -1      1317    8    0    1
 -2       607       606       721      2636      2985      2986
 -1      1318    8    0    1
 -2       606       720       721      2983      2987      2985
 -1      1319    8    0    1
 -2       608       607       722      2639      2988      2989
 -1      1320    8    0    1
 -2       607       721       722      2986      2990      2988
 -1      1321    8    0    1
 -2       609       608       723      2642      2991      2992
 -1      1322    8    0    1
 -2       608       722       723      2989      2993      2991
 -1      1323    8    0    1
 -2       610       609       724      2645      2994      2995
 -1      1324    8    0    1
 -2       609       723       724      2992      2996      2994
 -1      1325    8    0    1
 -2       611       610       725      2648      2997      2998
 -1      1326    8    0    1
 -2       610       724       725      2995      2999      2997
 -1      1327    8    0    1
 -2       612       611       726      2651      3000      3001
 -1      1328    8    0    1
 -2       611       725       726      2998      3002      3000
 -1      1329    8    0    1
 -2       613       612       727      2654      3003      3004
 -1      1330    8    0    1
 -2       612       726       727      3001      3005      3003
 -1      1331    8    0    1
 -2       614       613       728      2657      3006      3007
 -1      1332    8    0    1
 -2       613       727       728      3004      3008      3006
 -1      1333    8    0    1
 -2       615       614       729      2660      3009      3010
 -1      1334    8    0    1
 -2       614       728       729      3007      3011      3009
 -1      1335    8    0    1
 -2       616       615       730      2663      3012      3013
 -1      1336    8    0    1
 -2       615       729       730      3010      3014      3012
 -1      1337    8    0    1
 -2       617       616       731      2666      3015      3016
 -1      1338    8    0    1
 -2       616       730       731      3013      3017      3015
 -1      1339    8    0    1
 -2       618       617       732      2669      3018      3019
 -1      1340    8    0    1
 -2       617       731       732      3016      3020      3018
 -1      1341    8    0    1
 -2       619       618       733      2672      3021      3022
 -1      1342    8    0    1
 -2       618       732       733      3019      3023      3021
 -1      1343    8    0    1
 -2       620       619       734      2675      3024      3025
 -1      1344    8    0    1
 -2       619       733       734      3022      3026      3024
 -1      1345    8    0    1
 -2       621       620       735      2678      3027      3028
 -1      1346    8    0    1
 -2       620       734       735      3025      3029      3027
 -1      1347    8    0    1
 -2       622       621       736      2681      3030      3031
 -1      1348    8    0    1
 -2       621       735       736      3028      3032      3030
 -1      1349    8    0    1
 -2       623       622       737      2684      3033      3034
 -1      1350    8    0    1
 -2       622       736       737      3031      3035      3033
 -1      1351    8    0    1
 -2       624       623       738      2687      3036      3037
 -1      1352    8    0    1
 -2       623       737       738      3034      3038      3036
 -1      1353    8    0    1
 -2       625       624       739      2690      3039      3040
 -1      1354    8    0    1
 -2       624       738       739      3037      3041      3039
 -1      1355    8    0    1
 -2       626       625       740      2693      3042      3043
 -1      1356    8    0    1
 -2       625       739       740      3040      3044      3042
 -1      1357    8    0    1
 -2       627       626       741      2696      3045      3046
 -1      1358    8    0    1
 -2       626       740       741      3043      3047      3045
 -1      1359    8    0    1
 -2       628       627       742      2699      3048      3049
 -1      1360    8    0    1
 -2       627       741       742      3046      3050      3048
 -1      1361    8    0    1
 -2       629       628       743      2702      3051      3052
 -1      1362    8    0    1
 -2       628       742       743      3049      3053      3051
 -1      1363    8    0    1
 -2       630       629       744      2705      3054      3055
 -1      1364    8    0    1
 -2       629       743       744      3052      3056      3054
 -1      1365    8    0    1
 -2       631       630       745      2708      3057      3058
 -1      1366    8    0    1
 -2       630       744       745      3055      3059      3057
 -1      1367    8    0    1
 -2       632       631       746      2711      3060      3061
 -1      1368    8    0    1
 -2       631       745       746      3058      3062      3060
 -1      1369    8    0    1
 -2       633       632       747      2714      3063      3064
 -1      1370    8    0    1
 -2       632       746       747      3061      3065      3063
 -1      1371    8    0    1
 -2       634       633       748      2717      3066      3067
 -1      1372    8    0    1
 -2       633       747       748      3064      3068      3066
 -1      1373    8    0    1
 -2       635       634       749      2720      3069      3070
 -1      1374    8    0    1
 -2       634       748       749      3067      3071      3069
 -1      1375    8    0    1
 -2       636       635       750      2723      3072      3073
 -1      1376    8    0    1
 -2       635       749       750      3070      3074      3072
 -1      1377    8    0    1
 -2       637       636       751      2726      3075      3076
 -1      1378    8    0    1
 -2       636       750       751      3073      3077      3075
 -1      1379    8    0    1
 -2       638       637       752      2729      3078      3079
 -1      1380    8    0    1
 -2       637       751       752      3076      3080      3078
 -1      1381    8    0    1
 -2       639       638       753      2732      3081      3082
 -1      1382    8    0    1
 -2       638       752       753      3079      3083      3081
 -1      1383    8    0    1
 -2       640       639       754      2735      3084      3085
 -1      1384    8    0    1
 -2       639       753       754      3082      3086      3084
 -1      1385    8    0    1
 -2       641       640       755      2738      3087      3088
 -1      1386    8    0    1
 -2       640       754       755      3085      3089      3087
 -1      1387    8    0    1
 -2       642       641       756      2741      3090      3091
 -1      1388    8    0    1
 -2       641       755       756      3088      3092      3090
 -1      1389    8    0    1
 -2       643       642       757      2744      3093      3094
 -1      1390    8    0    1
 -2       642       756       757      3091      3095      3093
 -1      1391    8    0    1
 -2       644       643       758      2747      3096      3097
 -1      1392    8    0    1
 -2       643       757       758      3094      3098      3096
 -1      1393    8    0    1
 -2       645       644       685      2751      3099      2958
 -1      1394    8    0    1
 -2       649       650       759      2765      3100      3101
 -1      1395    8    0    1
 -2       649       759       716      3101      3102      2974
 -1      1396    8    0    1
 -2       674       702       760      2912      3103      3104
 -1      1397    8    0    1
 -2       702       698       760      2925      3105      3103
 -1      1398    8    0    1
 -2       602       648       761      2759      3106      3107
 -1      1399    8    0    1
 -2       648       716       761      2975      3108      3106
 -1      1400    8    0    1
 -2       650       651       762      2768      3109      3110
 -1      1401    8    0    1
 -2       650       762       759      3110      3111      3100
 -1      1402    8    0    1
 -2       651       652       763      2771      3112      3113
 -1      1403    8    0    1
 -2       651       763       762      3113      3114      3109
 -1      1404    8    0    1
 -2       652       653       764      2774      3115      3116
 -1      1405    8    0    1
 -2       652       764       763      3116      3117      3112
 -1      1406    8    0    1
 -2       653       654       765      2777      3118      3119
 -1      1407    8    0    1
 -2       653       765       764      3119      3120      3115
 -1      1408    8    0    1
 -2       654       655       766      2780      3121      3122
 -1      1409    8    0    1
 -2       654       766       765      3122      3123      3118
 -1      1410    8    0    1
 -2       655       656       767      2783      3124      3125
 -1      1411    8    0    1
 -2       655       767       766      3125      3126      3121
 -1      1412    8    0    1
 -2       656       657       768      2786      3127      3128
 -1      1413    8    0    1
 -2       656       768       767      3128      3129      3124
 -1      1414    8    0    1
 -2       657       658       769      2789      3130      3131
 -1      1415    8    0    1
 -2       657       769       768      3131      3132      3127
 -1      1416    8    0    1
 -2       658       659       770      2792      3133      3134
 -1      1417    8    0    1
 -2       658       770       769      3134      3135      3130
 -1      1418    8    0    1
 -2       659       660       771      2795      3136      3137
 -1      1419    8    0    1
 -2       659       771       770      3137      3138      3133
 -1      1420    8    0    1
 -2       660       661       772      2798      3139      3140
 -1      1421    8    0    1
 -2       660       772       771      3140      3141      3136
 -1      1422    8    0    1
 -2       661       662       773      2801      3142      3143
 -1      1423    8    0    1
 -2       661       773       772      3143      3144      3139
 -1      1424    8    0    1
 -2       662       663       774      2804      3145      3146
 -1      1425    8    0    1
 -2       662       774       773      3146      3147      3142
 -1      1426    8    0    1
 -2       663       664       775      2807      3148      3149
 -1      1427    8    0    1
 -2       663       775       774      3149      3150      3145
 -1      1428    8    0    1
 -2       664       665       776      2810      3151      3152
 -1      1429    8    0    1
 -2       664       776       775      3152      3153      3148
 -1      1430    8    0    1
 -2       665       666       777      2813      3154      3155
 -1      1431    8    0    1
 -2       665       777       776      3155      3156      3151
 -1      1432    8    0    1
 -2       666       667       778      2816      3157      3158
 -1      1433    8    0    1
 -2       666       778       777      3158      3159      3154
 -1      1434    8    0    1
 -2       667       668       779      2819      3160      3161
 -1      1435    8    0    1
 -2       667       779       778      3161      3162      3157
 -1      1436    8    0    1
 -2       668       669       780      2822      3163      3164
 -1      1437    8    0    1
 -2       668       780       779      3164      3165      3160
 -1      1438    8    0    1
 -2       669       670       781      2825      3166      3167
 -1      1439    8    0    1
 -2       669       781       780      3167      3168      3163
 -1      1440    8    0    1
 -2       670       671       782      2828      3169      3170
 -1      1441    8    0    1
 -2       670       782       781      3170      3171      3166
 -1      1442    8    0    1
 -2       671       672       783      2831      3172      3173
 -1      1443    8    0    1
 -2       671       783       782      3173      3174      3169
 -1      1444    8    0    1
 -2       672       673       784      2834      3175      3176
 -1      1445    8    0    1
 -2       672       784       783      3176      3177      3172
 -1      1446    8    0    1
 -2       673       674       785      2837      3178      3179
 -1      1447    8    0    1
 -2       784       673       785      3175      3179      3180
 -1      1448    8    0    1
 -2       674       760       785      3104      3181      3178
 -1      1449    8    0    1
 -2       675       681       786      2857      3182      3183
 -1      1450    8    0    1
 -2       681       682       787      2860      3184      3185
 -1      1451    8    0    1
 -2       681       787       786      3185      3186      3182
 -1      1452    8    0    1
 -2       707       679       689      2933      3187      2961
 -1      1453    8    0    1
 -2       646       686       788      2934      3188      3189
 -1      1454    8    0    1
 -2       687       646       788      2956      3189      3190
 -1      1455    8    0    1
 -2       686       717       788      2977      3191      3188
 -1      1456    8    0    1
 -2       680       675       789      2854      3192      3193
 -1      1457    8    0    1
 -2       675       786       789      3183      3194      3192
 -1      1458    8    0    1
 -2       682       683       790      2863      3195      3196
 -1      1459    8    0    1
 -2       682       790       787      3196      3197      3184
 -1      1460    8    0    1
 -2       683       684       791      2866      3198      3199
 -1      1461    8    0    1
 -2       683       791       790      3199      3200      3195
 -1      1462    8    0    1
 -2       677       690       792      2936      3201      3202
 -1      1463    8    0    1
 -2       691       693       793      2959      3203      3204
 -1      1464    8    0    1
 -2       699       602       794      2904      3205      3206
 -1      1465    8    0    1
 -2       602       761       794      3107      3207      3205
 -1      1466    8    0    1
 -2       694       701       795      2952      3208      3209
 -1      1467    8    0    1
 -2       601       591       706      2926      2928      3210
 -1      1468    8    0    1
 -2       679       678       796      2851      3211      3212
 -1      1469    8    0    1
 -2       604       603       797      2627      3213      3214
 -1      1470    8    0    1
 -2       604       797       719      3214      3215      2980
 -1      1471    8    0    1
 -2       597       596       798      2609      3216      3217
 -1      1472    8    0    1
 -2       678       680       799      2930      3218      3219
 -1      1473    8    0    1
 -2       796       678       799      3211      3219      3220
 -1      1474    8    0    1
 -2       680       789       799      3193      3221      3218
 -1      1475    8    0    1
 -2       698       677       800      2957      3222      3223
 -1      1476    8    0    1
 -2       760       698       800      3105      3223      3224
 -1      1477    8    0    1
 -2       677       792       800      3202      3225      3222
 -1      1478    8    0    1
 -2       696       697       801      2948      3226      3227
 -1      1479    8    0    1
 -2       700       691       802      2963      3228      3229
 -1      1480    8    0    1
 -2       695       696       803      2896      3230      3231
 -1      1481    8    0    1
 -2       690       695       804      2962      3232      3233
 -1      1482    8    0    1
 -2       685       644       758      3099      3097      3234
 -1      1483    8    0    1
 -2       704       597       805      2917      3235      3236
 -1      1484    8    0    1
 -2       597       798       805      3217      3237      3235
 -1      1485    8    0    1
 -2       715       700       802      2972      3229      3238
 -1      1486    8    0    1
 -2       647       718       806      2979      3239      3240
 -1      1487    8    0    1
 -2       797       603       807      3213      3241      3242
 -1      1488    8    0    1
 -2       603       676       807      2843      3243      3241
 -1      1489    8    0    1
 -2       801       697       715      3226      2973      3244
 -1      1490    8    0    1
 -2       689       679       717      3187      3245      2976
 -1      1491    8    0    1
 -2       706       692       808      2929      3246      3247
 -1      1492    8    0    1
 -2       676       601       706      2844      3210      3248
 -1      1493    8    0    1
 -2       793       693       809      3203      3249      3250
 -1      1494    8    0    1
 -2       693       712       809      2954      3251      3249
 -1      1495    8    0    1
 -2       713       647       806      2967      3240      3252
 -1      1496    8    0    1
 -2       804       695       803      3232      3231      3253
 -1      1497    8    0    1
 -2       696       801       803      3227      3254      3230
 -1      1498    8    0    1
 -2       792       690       810      3201      3255      3256
 -1      1499    8    0    1
 -2       690       804       810      3233      3257      3255
 -1      1500    8    0    1
 -2       684       685       811      2869      3258      3259
 -1      1501    8    0    1
 -2       691       793       802      3204      3260      3228
 -1      1502    8    0    1
 -2       699       794       718      3206      3261      2978
 -1      1503    8    0    1
 -2       708       687       788      2941      3190      3262
 -1      1504    8    0    1
 -2       709       593       708      2944      2940      3263
 -1      1505    8    0    1
 -2       710       694       812      2947      3264      3265
 -1      1506    8    0    1
 -2       694       795       812      3209      3266      3264
 -1      1507    8    0    1
 -2       795       701       709      3208      2943      3267
 -1      1508    8    0    1
 -2       711       594       813      2951      3268      3269
 -1      1509    8    0    1
 -2       594       710       813      2946      3270      3268
 -1      1510    8    0    1
 -2       679       796       717      3212      3271      3245
 -1      1511    8    0    1
 -2       595       711       814      2950      3272      3273
 -1      1512    8    0    1
 -2       595       814       712      3273      3274      2955
 -1      1513    8    0    1
 -2       798       596       815      3216      3275      3276
 -1      1514    8    0    1
 -2       596       688       815      2877      3277      3275
 -1      1515    8    0    1
 -2       692       705       816      2922      3278      3279
 -1      1516    8    0    1
 -2       692       816       808      3279      3280      3246
 -1      1517    8    0    1
 -2       688       598       817      2878      3281      3282
 -1      1518    8    0    1
 -2       688       817       815      3282      3283      3277
 -1      1519    8    0    1
 -2       684       811       791      3259      3284      3198
 -1      1520    8    0    1
 -2       685       758       811      3234      3285      3258
 -1      1521    8    0    1
 -2       598       714       817      2971      3286      3281
 -1      1522    8    0    1
 -2       705       704       818      2923      3287      3288
 -1      1523    8    0    1
 -2       705       818       816      3288      3289      3278
 -1      1524    8    0    1
 -2       787       790       819      3197      3290      3291
 -1      1525    8    0    1
 -2       806       718       820      3239      3292      3293
 -1      1526    8    0    1
 -2       759       762       821      3111      3294      3295
 -1      1527    8    0    1
 -2       721       720       822      2987      3296      3297
 -1      1528    8    0    1
 -2       722       721       823      2990      3298      3299
 -1      1529    8    0    1
 -2       721       822       823      3297      3300      3298
 -1      1530    8    0    1
 -2       723       722       824      2993      3301      3302
 -1      1531    8    0    1
 -2       722       823       824      3299      3303      3301
 -1      1532    8    0    1
 -2       724       723       825      2996      3304      3305
 -1      1533    8    0    1
 -2       723       824       825      3302      3306      3304
 -1      1534    8    0    1
 -2       725       724       826      2999      3307      3308
 -1      1535    8    0    1
 -2       724       825       826      3305      3309      3307
 -1      1536    8    0    1
 -2       726       725       827      3002      3310      3311
 -1      1537    8    0    1
 -2       725       826       827      3308      3312      3310
 -1      1538    8    0    1
 -2       727       726       828      3005      3313      3314
 -1      1539    8    0    1
 -2       726       827       828      3311      3315      3313
 -1      1540    8    0    1
 -2       728       727       829      3008      3316      3317
 -1      1541    8    0    1
 -2       727       828       829      3314      3318      3316
 -1      1542    8    0    1
 -2       729       728       830      3011      3319      3320
 -1      1543    8    0    1
 -2       728       829       830      3317      3321      3319
 -1      1544    8    0    1
 -2       730       729       831      3014      3322      3323
 -1      1545    8    0    1
 -2       729       830       831      3320      3324      3322
 -1      1546    8    0    1
 -2       731       730       832      3017      3325      3326
 -1      1547    8    0    1
 -2       730       831       832      3323      3327      3325
 -1      1548    8    0    1
 -2       732       731       833      3020      3328      3329
 -1      1549    8    0    1
 -2       731       832       833      3326      3330      3328
 -1      1550    8    0    1
 -2       733       732       834      3023      3331      3332
 -1      1551    8    0    1
 -2       732       833       834      3329      3333      3331
 -1      1552    8    0    1
 -2       734       733       835      3026      3334      3335
 -1      1553    8    0    1
 -2       733       834       835      3332      3336      3334
 -1      1554    8    0    1
 -2       735       734       836      3029      3337      3338
 -1      1555    8    0    1
 -2       734       835       836      3335      3339      3337
 -1      1556    8    0    1
 -2       736       735       837      3032      3340      3341
 -1      1557    8    0    1
 -2       735       836       837      3338      3342      3340
 -1      1558    8    0    1
 -2       737       736       838      3035      3343      3344
 -1      1559    8    0    1
 -2       736       837       838      3341      3345      3343
 -1      1560    8    0    1
 -2       738       737       839      3038      3346      3347
 -1      1561    8    0    1
 -2       737       838       839      3344      3348      3346
 -1      1562    8    0    1
 -2       739       738       840      3041      3349      3350
 -1      1563    8    0    1
 -2       738       839       840      3347      3351      3349
 -1      1564    8    0    1
 -2       740       739       841      3044      3352      3353
 -1      1565    8    0    1
 -2       739       840       841      3350      3354      3352
 -1      1566    8    0    1
 -2       741       740       842      3047      3355      3356
 -1      1567    8    0    1
 -2       740       841       842      3353      3357      3355
 -1      1568    8    0    1
 -2       742       741       843      3050      3358      3359
 -1      1569    8    0    1
 -2       741       842       843      3356      3360      3358
 -1      1570    8    0    1
 -2       743       742       844      3053      3361      3362
 -1      1571    8    0    1
 -2       742       843       844      3359      3363      3361
 -1      1572    8    0    1
 -2       744       743       845      3056      3364      3365
 -1      1573    8    0    1
 -2       743       844       845      3362      3366      3364
 -1      1574    8    0    1
 -2       745       744       846      3059      3367      3368
 -1      1575    8    0    1
 -2       744       845       846      3365      3369      3367
 -1      1576    8    0    1
 -2       746       745       847      3062      3370      3371
 -1      1577    8    0    1
 -2       745       846       847      3368      3372      3370
 -1      1578    8    0    1
 -2       747       746       848      3065      3373      3374
 -1      1579    8    0    1
 -2       746       847       848      3371      3375      3373
 -1      1580    8    0    1
 -2       748       747       849      3068      3376      3377
 -1      1581    8    0    1
 -2       747       848       849      3374      3378      3376
 -1      1582    8    0    1
 -2       749       748       850      3071      3379      3380
 -1      1583    8    0    1
 -2       748       849       850      3377      3381      3379
 -1      1584    8    0    1
 -2       750       749       851      3074      3382      3383
 -1      1585    8    0    1
 -2       749       850       851      3380      3384      3382
 -1      1586    8    0    1
 -2       751       750       852      3077      3385      3386
 -1      1587    8    0    1
 -2       750       851       852      3383      3387      3385
 -1      1588    8    0    1
 -2       752       751       853      3080      3388      3389
 -1      1589    8    0    1
 -2       751       852       853      3386      3390      3388
 -1      1590    8    0    1
 -2       753       752       854      3083      3391      3392
 -1      1591    8    0    1
 -2       752       853       854      3389      3393      3391
 -1      1592    8    0    1
 -2       754       753       855      3086      3394      3395
 -1      1593    8    0    1
 -2       753       854       855      3392      3396      3394
 -1      1594    8    0    1
 -2       755       754       856      3089      3397      3398
 -1      1595    8    0    1
 -2       754       855       856      3395      3399      3397
 -1      1596    8    0    1
 -2       756       755       857      3092      3400      3401
 -1      1597    8    0    1
 -2       755       856       857      3398      3402      3400
 -1      1598    8    0    1
 -2       757       756       858      3095      3403      3404
 -1      1599    8    0    1
 -2       756       857       858      3401      3405      3403
 -1      1600    8    0    1
 -2       758       757       859      3098      3406      3407
 -1      1601    8    0    1
 -2       811       758       859      3285      3407      3408
 -1      1602    8    0    1
 -2       757       858       859      3404      3409      3406
 -1      1603    8    0    1
 -2       762       763       860      3114      3410      3411
 -1      1604    8    0    1
 -2       762       860       821      3411      3412      3294
 -1      1605    8    0    1
 -2       761       716       861      3108      3413      3414
 -1      1606    8    0    1
 -2       763       764       862      3117      3415      3416
 -1      1607    8    0    1
 -2       763       862       860      3416      3417      3410
 -1      1608    8    0    1
 -2       764       765       863      3120      3418      3419
 -1      1609    8    0    1
 -2       764       863       862      3419      3420      3415
 -1      1610    8    0    1
 -2       765       766       864      3123      3421      3422
 -1      1611    8    0    1
 -2       765       864       863      3422      3423      3418
 -1      1612    8    0    1
 -2       766       767       865      3126      3424      3425
 -1      1613    8    0    1
 -2       766       865       864      3425      3426      3421
 -1      1614    8    0    1
 -2       767       768       866      3129      3427      3428
 -1      1615    8    0    1
 -2       767       866       865      3428      3429      3424
 -1      1616    8    0    1
 -2       768       769       867      3132      3430      3431
 -1      1617    8    0    1
 -2       768       867       866      3431      3432      3427
 -1      1618    8    0    1
 -2       769       770       868      3135      3433      3434
 -1      1619    8    0    1
 -2       769       868       867      3434      3435      3430
 -1      1620    8    0    1
 -2       770       771       869      3138      3436      3437
 -1      1621    8    0    1
 -2       770       869       868      3437      3438      3433
 -1      1622    8    0    1
 -2       771       772       870      3141      3439      3440
 -1      1623    8    0    1
 -2       771       870       869      3440      3441      3436
 -1      1624    8    0    1
 -2       772       773       871      3144      3442      3443
 -1      1625    8    0    1
 -2       772       871       870      3443      3444      3439
 -1      1626    8    0    1
 -2       773       774       872      3147      3445      3446
 -1      1627    8    0    1
 -2       773       872       871      3446      3447      3442
 -1      1628    8    0    1
 -2       774       775       873      3150      3448      3449
 -1      1629    8    0    1
 -2       774       873       872      3449      3450      3445
 -1      1630    8    0    1
 -2       775       776       874      3153      3451      3452
 -1      1631    8    0    1
 -2       775       874       873      3452      3453      3448
 -1      1632    8    0    1
 -2       776       777       875      3156      3454      3455
 -1      1633    8    0    1
 -2       776       875       874      3455      3456      3451
 -1      1634    8    0    1
 -2       777       778       876      3159      3457      3458
 -1      1635    8    0    1
 -2       777       876       875      3458      3459      3454
 -1      1636    8    0    1
 -2       778       779       877      3162      3460      3461
 -1      1637    8    0    1
 -2       778       877       876      3461      3462      3457
 -1      1638    8    0    1
 -2       779       780       878      3165      3463      3464
 -1      1639    8    0    1
 -2       779       878       877      3464      3465      3460
 -1      1640    8    0    1
 -2       780       781       879      3168      3466      3467
 -1      1641    8    0    1
 -2       780       879       878      3467      3468      3463
 -1      1642    8    0    1
 -2       781       782       880      3171      3469      3470
 -1      1643    8    0    1
 -2       781       880       879      3470      3471      3466
 -1      1644    8    0    1
 -2       782       783       881      3174      3472      3473
 -1      1645    8    0    1
 -2       782       881       880      3473      3474      3469
 -1      1646    8    0    1
 -2       783       784       882      3177      3475      3476
 -1      1647    8    0    1
 -2       783       882       881      3476      3477      3472
 -1      1648    8    0    1
 -2       790       791       883      3200      3478      3479
 -1      1649    8    0    1
 -2       790       883       819      3479      3480      3290
 -1      1650    8    0    1
 -2       786       787       884      3186      3481      3482
 -1      1651    8    0    1
 -2       787       819       884      3291      3483      3481
 -1      1652    8    0    1
 -2       714       703       713      2970      2966      3484
 -1      1653    8    0    1
 -2       794       761       885      3207      3485      3486
 -1      1654    8    0    1
 -2       761       861       885      3414      3487      3485
 -1      1655    8    0    1
 -2       676       706       807      3248      3488      3243
 -1      1656    8    0    1
 -2       788       717       886      3191      3489      3490
 -1      1657    8    0    1
 -2       717       796       886      3271      3491      3489
 -1      1658    8    0    1
 -2       802       793       887      3260      3492      3493
 -1      1659    8    0    1
 -2       791       811       859      3284      3408      3494
 -1      1660    8    0    1
 -2       719       797       888      3215      3495      3496
 -1      1661    8    0    1
 -2       714       713       806      3484      3252      3497
 -1      1662    8    0    1
 -2       801       715       889      3244      3498      3499
 -1      1663    8    0    1
 -2       789       786       890      3194      3500      3501
 -1      1664    8    0    1
 -2       786       884       890      3482      3502      3500
 -1      1665    8    0    1
 -2       720       719       891      2984      3503      3504
 -1      1666    8    0    1
 -2       720       891       822      3504      3505      3296
 -1      1667    8    0    1
 -2       718       794       892      3261      3506      3507
 -1      1668    8    0    1
 -2       820       718       892      3292      3507      3508
 -1      1669    8    0    1
 -2       794       885       892      3486      3509      3506
 -1      1670    8    0    1
 -2       709       708       893      3263      3510      3511
 -1      1671    8    0    1
 -2       804       803       894      3253      3512      3513
 -1      1672    8    0    1
 -2       803       801       895      3254      3514      3515
 -1      1673    8    0    1
 -2       795       709       896      3267      3516      3517
 -1      1674    8    0    1
 -2       709       893       896      3511      3518      3516
 -1      1675    8    0    1
 -2       716       759       897      3102      3519      3520
 -1      1676    8    0    1
 -2       861       716       897      3413      3520      3521
 -1      1677    8    0    1
 -2       759       821       897      3295      3522      3519
 -1      1678    8    0    1
 -2       706       808       807      3247      3523      3488
 -1      1679    8    0    1
 -2       715       802       898      3238      3524      3525
 -1      1680    8    0    1
 -2       714       806       817      3497      3526      3286
 -1      1681    8    0    1
 -2       817       806       820      3526      3293      3527
 -1      1682    8    0    1
 -2       807       808       899      3523      3528      3529
 -1      1683    8    0    1
 -2       807       899       797      3529      3530      3242
 -1      1684    8    0    1
 -2       760       800       900      3224      3531      3532
 -1      1685    8    0    1
 -2       760       900       785      3532      3533      3181
 -1      1686    8    0    1
 -2       805       798       901      3237      3534      3535
 -1      1687    8    0    1
 -2       704       805       818      3236      3536      3287
 -1      1688    8    0    1
 -2       719       888       891      3496      3537      3503
 -1      1689    8    0    1
 -2       712       814       902      3274      3538      3539
 -1      1690    8    0    1
 -2       712       902       809      3539      3540      3251
 -1      1691    8    0    1
 -2       883       791       859      3478      3494      3541
 -1      1692    8    0    1
 -2       784       785       903      3180      3542      3543
 -1      1693    8    0    1
 -2       882       784       903      3475      3543      3544
 -1      1694    8    0    1
 -2       785       900       903      3533      3545      3542
 -1      1695    8    0    1
 -2       895       801       889      3514      3499      3546
 -1      1696    8    0    1
 -2       886       796       799      3491      3220      3547
 -1      1697    8    0    1
 -2       887       793       904      3492      3548      3549
 -1      1698    8    0    1
 -2       793       809       904      3250      3550      3548
 -1      1699    8    0    1
 -2       810       804       905      3257      3551      3552
 -1      1700    8    0    1
 -2       804       894       905      3513      3553      3551
 -1      1701    8    0    1
 -2       812       795       906      3266      3554      3555
 -1      1702    8    0    1
 -2       795       896       906      3517      3556      3554
 -1      1703    8    0    1
 -2       813       710       907      3270      3557      3558
 -1      1704    8    0    1
 -2       710       812       907      3265      3559      3557
 -1      1705    8    0    1
 -2       711       813       908      3269      3560      3561
 -1      1706    8    0    1
 -2       711       908       814      3561      3562      3272
 -1      1707    8    0    1
 -2       888       797       899      3495      3530      3563
 -1      1708    8    0    1
 -2       798       815       909      3276      3564      3565
 -1      1709    8    0    1
 -2       798       909       901      3565      3566      3534
 -1      1710    8    0    1
 -2       800       792       910      3225      3567      3568
 -1      1711    8    0    1
 -2       800       910       900      3568      3569      3531
 -1      1712    8    0    1
 -2       889       715       898      3498      3525      3570
 -1      1713    8    0    1
 -2       799       789       896      3221      3571      3572
 -1      1714    8    0    1
 -2       792       810       910      3256      3573      3567
 -1      1715    8    0    1
 -2       802       887       898      3493      3574      3524
 -1      1716    8    0    1
 -2       894       803       895      3512      3515      3575
 -1      1717    8    0    1
 -2       708       788       886      3262      3490      3576
 -1      1718    8    0    1
 -2       899       808       911      3528      3577      3578
 -1      1719    8    0    1
 -2       808       816       911      3280      3579      3577
 -1      1720    8    0    1
 -2       893       708       886      3510      3576      3580
 -1      1721    8    0    1
 -2       822       891       912      3505      3581      3582
 -1      1722    8    0    1
 -2       889       898       913      3570      3583      3584
 -1      1723    8    0    1
 -2       821       860       914      3412      3585      3586
 -1      1724    8    0    1
 -2       895       889       915      3546      3587      3588
 -1      1725    8    0    1
 -2       818       805       916      3536      3589      3590
 -1      1726    8    0    1
 -2       805       901       916      3535      3591      3589
 -1      1727    8    0    1
 -2       824       823       917      3303      3592      3593
 -1      1728    8    0    1
 -2       825       824       918      3306      3594      3595
 -1      1729    8    0    1
 -2       824       917       918      3593      3596      3594
 -1      1730    8    0    1
 -2       826       825       919      3309      3597      3598
 -1      1731    8    0    1
 -2       825       918       919      3595      3599      3597
 -1      1732    8    0    1
 -2       827       826       920      3312      3600      3601
 -1      1733    8    0    1
 -2       826       919       920      3598      3602      3600
 -1      1734    8    0    1
 -2       828       827       921      3315      3603      3604
 -1      1735    8    0    1
 -2       827       920       921      3601      3605      3603
 -1      1736    8    0    1
 -2       829       828       922      3318      3606      3607
 -1      1737    8    0    1
 -2       828       921       922      3604      3608      3606
 -1      1738    8    0    1
 -2       830       829       923      3321      3609      3610
 -1      1739    8    0    1
 -2       829       922       923      3607      3611      3609
 -1      1740    8    0    1
 -2       831       830       924      3324      3612      3613
 -1      1741    8    0    1
 -2       830       923       924      3610      3614      3612
 -1      1742    8    0    1
 -2       832       831       925      3327      3615      3616
 -1      1743    8    0    1
 -2       831       924       925      3613      3617      3615
 -1      1744    8    0    1
 -2       833       832       926      3330      3618      3619
 -1      1745    8    0    1
 -2       832       925       926      3616      3620      3618
 -1      1746    8    0    1
 -2       834       833       927      3333      3621      3622
 -1      1747    8    0    1
 -2       833       926       927      3619      3623      3621
 -1      1748    8    0    1
 -2       835       834       928      3336      3624      3625
 -1      1749    8    0    1
 -2       834       927       928      3622      3626      3624
 -1      1750    8    0    1
 -2       836       835       929      3339      3627      3628
 -1      1751    8    0    1
 -2       835       928       929      3625      3629      3627
 -1      1752    8    0    1
 -2       837       836       930      3342      3630      3631
 -1      1753    8    0    1
 -2       836       929       930      3628      3632      3630
 -1      1754    8    0    1
 -2       838       837       931      3345      3633      3634
 -1      1755    8    0    1
 -2       837       930       931      3631      3635      3633
 -1      1756    8    0    1
 -2       839       838       932      3348      3636      3637
 -1      1757    8    0    1
 -2       838       931       932      3634      3638      3636
 -1      1758    8    0    1
 -2       840       839       933      3351      3639      3640
 -1      1759    8    0    1
 -2       839       932       933      3637      3641      3639
 -1      1760    8    0    1
 -2       841       840       934      3354      3642      3643
 -1      1761    8    0    1
 -2       840       933       934      3640      3644      3642
 -1      1762    8    0    1
 -2       842       841       935      3357      3645      3646
 -1      1763    8    0    1
 -2       841       934       935      3643      3647      3645
 -1      1764    8    0    1
 -2       843       842       936      3360      3648      3649
 -1      1765    8    0    1
 -2       842       935       936      3646      3650      3648
 -1      1766    8    0    1
 -2       844       843       937      3363      3651      3652
 -1      1767    8    0    1
 -2       843       936       937      3649      3653      3651
 -1      1768    8    0    1
 -2       845       844       938      3366      3654      3655
 -1      1769    8    0    1
 -2       844       937       938      3652      3656      3654
 -1      1770    8    0    1
 -2       846       845       939      3369      3657      3658
 -1      1771    8    0    1
 -2       845       938       939      3655      3659      3657
 -1      1772    8    0    1
 -2       847       846       940      3372      3660      3661
 -1      1773    8    0    1
 -2       846       939       940      3658      3662      3660
 -1      1774    8    0    1
 -2       848       847       941      3375      3663      3664
 -1      1775    8    0    1
 -2       847       940       941      3661      3665      3663
 -1      1776    8    0    1
 -2       849       848       942      3378      3666      3667
 -1      1777    8    0    1
 -2       848       941       942      3664      3668      3666
 -1      1778    8    0    1
 -2       850       849       943      3381      3669      3670
 -1      1779    8    0    1
 -2       849       942       943      3667      3671      3669
 -1      1780    8    0    1
 -2       851       850       944      3384      3672      3673
 -1      1781    8    0    1
 -2       850       943       944      3670      3674      3672
 -1      1782    8    0    1
 -2       852       851       913      3387      3675      3676
 -1      1783    8    0    1
 -2       854       853       945      3393      3677      3678
 -1      1784    8    0    1
 -2       855       854       904      3396      3679      3680
 -1      1785    8    0    1
 -2       857       856       946      3402      3681      3682
 -1      1786    8    0    1
 -2       858       857       947      3405      3683      3684
 -1      1787    8    0    1
 -2       857       946       947      3682      3685      3683
 -1      1788    8    0    1
 -2       859       858       948      3409      3686      3687
 -1      1789    8    0    1
 -2       883       859       948      3541      3687      3688
 -1      1790    8    0    1
 -2       858       947       948      3684      3689      3686
 -1      1791    8    0    1
 -2       863       864       949      3423      3690      3691
 -1      1792    8    0    1
 -2       860       862       950      3417      3692      3693
 -1      1793    8    0    1
 -2       860       950       914      3693      3694      3585
 -1      1794    8    0    1
 -2       864       865       951      3426      3695      3696
 -1      1795    8    0    1
 -2       864       951       949      3696      3697      3690
 -1      1796    8    0    1
 -2       865       866       952      3429      3698      3699
 -1      1797    8    0    1
 -2       865       952       951      3699      3700      3695
 -1      1798    8    0    1
 -2       866       867       953      3432      3701      3702
 -1      1799    8    0    1
 -2       866       953       952      3702      3703      3698
 -1      1800    8    0    1
 -2       867       868       954      3435      3704      3705
 -1      1801    8    0    1
 -2       867       954       953      3705      3706      3701
 -1      1802    8    0    1
 -2       868       869       955      3438      3707      3708
 -1      1803    8    0    1
 -2       868       955       954      3708      3709      3704
 -1      1804    8    0    1
 -2       869       870       956      3441      3710      3711
 -1      1805    8    0    1
 -2       869       956       955      3711      3712      3707
 -1      1806    8    0    1
 -2       870       871       957      3444      3713      3714
 -1      1807    8    0    1
 -2       870       957       956      3714      3715      3710
 -1      1808    8    0    1
 -2       871       872       958      3447      3716      3717
 -1      1809    8    0    1
 -2       871       958       957      3717      3718      3713
 -1      1810    8    0    1
 -2       872       873       959      3450      3719      3720
 -1      1811    8    0    1
 -2       872       959       958      3720      3721      3716
 -1      1812    8    0    1
 -2       873       874       960      3453      3722      3723
 -1      1813    8    0    1
 -2       873       960       959      3723      3724      3719
 -1      1814    8    0    1
 -2       874       875       961      3456      3725      3726
 -1      1815    8    0    1
 -2       874       961       960      3726      3727      3722
 -1      1816    8    0    1
 -2       875       876       962      3459      3728      3729
 -1      1817    8    0    1
 -2       875       962       961      3729      3730      3725
 -1      1818    8    0    1
 -2       876       877       963      3462      3731      3732
 -1      1819    8    0    1
 -2       876       963       962      3732      3733      3728
 -1      1820    8    0    1
 -2       877       878       964      3465      3734      3735
 -1      1821    8    0    1
 -2       877       964       963      3735      3736      3731
 -1      1822    8    0    1
 -2       878       879       965      3468      3737      3738
 -1      1823    8    0    1
 -2       878       965       964      3738      3739      3734
 -1      1824    8    0    1
 -2       879       880       966      3471      3740      3741
 -1      1825    8    0    1
 -2       879       966       965      3741      3742      3737
 -1      1826    8    0    1
 -2       880       881       967      3474      3743      3744
 -1      1827    8    0    1
 -2       880       967       966      3744      3745      3740
 -1      1828    8    0    1
 -2       881       882       968      3477      3746      3747
 -1      1829    8    0    1
 -2       881       968       967      3747      3748      3743
 -1      1830    8    0    1
 -2       819       883       969      3480      3749      3750
 -1      1831    8    0    1
 -2       883       948       969      3688      3751      3749
 -1      1832    8    0    1
 -2       815       817       970      3283      3752      3753
 -1      1833    8    0    1
 -2       884       819       971      3483      3754      3755
 -1      1834    8    0    1
 -2       819       969       971      3750      3756      3754
 -1      1835    8    0    1
 -2       885       861       972      3487      3757      3758
 -1      1836    8    0    1
 -2       862       863       973      3420      3759      3760
 -1      1837    8    0    1
 -2       950       862       973      3692      3760      3761
 -1      1838    8    0    1
 -2       863       949       973      3691      3762      3759
 -1      1839    8    0    1
 -2       817       820       970      3527      3763      3752
 -1      1840    8    0    1
 -2       823       822       974      3300      3764      3765
 -1      1841    8    0    1
 -2       822       912       974      3582      3766      3764
 -1      1842    8    0    1
 -2       888       899       975      3563      3767      3768
 -1      1843    8    0    1
 -2       899       911       975      3578      3769      3767
 -1      1844    8    0    1
 -2       896       789       890      3571      3501      3770
 -1      1845    8    0    1
 -2       816       818       976      3289      3771      3772
 -1      1846    8    0    1
 -2       911       816       976      3579      3772      3773
 -1      1847    8    0    1
 -2       818       916       976      3590      3774      3771
 -1      1848    8    0    1
 -2       910       810       977      3573      3775      3776
 -1      1849    8    0    1
 -2       894       895       978      3575      3777      3778
 -1      1850    8    0    1
 -2       891       888       979      3537      3779      3780
 -1      1851    8    0    1
 -2       912       891       979      3581      3780      3781
 -1      1852    8    0    1
 -2       888       975       979      3768      3782      3779
 -1      1853    8    0    1
 -2       815       970       909      3753      3783      3564
 -1      1854    8    0    1
 -2       970       820       980      3763      3784      3785
 -1      1855    8    0    1
 -2       889       913       944      3584      3786      3787
 -1      1856    8    0    1
 -2       901       909       981      3566      3788      3789
 -1      1857    8    0    1
 -2       821       914       982      3586      3790      3791
 -1      1858    8    0    1
 -2       821       982       897      3791      3792      3522
 -1      1859    8    0    1
 -2       895       915       978      3588      3793      3777
 -1      1860    8    0    1
 -2       900       910       983      3569      3794      3795
 -1      1861    8    0    1
 -2       903       900       983      3545      3795      3796
 -1      1862    8    0    1
 -2       910       977       983      3776      3797      3794
 -1      1863    8    0    1
 -2       917       823       974      3592      3765      3798
 -1      1864    8    0    1
 -2       902       814       984      3538      3799      3800
 -1      1865    8    0    1
 -2       814       908       984      3562      3801      3799
 -1      1866    8    0    1
 -2       851       944       913      3673      3786      3675
 -1      1867    8    0    1
 -2       853       852       985      3390      3802      3803
 -1      1868    8    0    1
 -2       855       904       986      3680      3804      3805
 -1      1869    8    0    1
 -2       980       820       892      3784      3508      3806
 -1      1870    8    0    1
 -2       856       855       986      3399      3805      3807
 -1      1871    8    0    1
 -2       889       944       915      3787      3808      3587
 -1      1872    8    0    1
 -2       885       972       987      3758      3809      3810
 -1      1873    8    0    1
 -2       885       987       892      3810      3811      3509
 -1      1874    8    0    1
 -2       946       856       986      3681      3807      3812
 -1      1875    8    0    1
 -2       852       913       985      3676      3813      3802
 -1      1876    8    0    1
 -2       972       861       988      3757      3814      3815
 -1      1877    8    0    1
 -2       861       897       988      3521      3816      3814
 -1      1878    8    0    1
 -2       890       884       989      3502      3817      3818
 -1      1879    8    0    1
 -2       904       809       986      3550      3819      3804
 -1      1880    8    0    1
 -2       905       894       990      3553      3820      3821
 -1      1881    8    0    1
 -2       894       978       990      3778      3822      3820
 -1      1882    8    0    1
 -2       882       903       991      3544      3823      3824
 -1      1883    8    0    1
 -2       968       882       991      3746      3824      3825
 -1      1884    8    0    1
 -2       903       983       991      3796      3826      3823
 -1      1885    8    0    1
 -2       907       812       989      3559      3827      3828
 -1      1886    8    0    1
 -2       896       893       799      3518      3829      3572
 -1      1887    8    0    1
 -2       908       813       992      3560      3830      3831
 -1      1888    8    0    1
 -2       813       907       992      3558      3832      3830
 -1      1889    8    0    1
 -2       945       853       985      3677      3803      3833
 -1      1890    8    0    1
 -2       970       980       909      3785      3834      3783
 -1      1891    8    0    1
 -2       898       887       985      3574      3835      3836
 -1      1892    8    0    1
 -2       810       905       977      3552      3837      3775
 -1      1893    8    0    1
 -2       890       989       812      3818      3827      3838
 -1      1894    8    0    1
 -2       916       901       993      3591      3839      3840
 -1      1895    8    0    1
 -2       901       981       993      3789      3841      3839
 -1      1896    8    0    1
 -2       898       985       913      3836      3813      3583
 -1      1897    8    0    1
 -2       989       884       971      3817      3755      3842
 -1      1898    8    0    1
 -2       917       974       994      3798      3843      3844
 -1      1899    8    0    1
 -2       919       918       995      3599      3845      3846
 -1      1900    8    0    1
 -2       920       919       996      3602      3847      3848
 -1      1901    8    0    1
 -2       919       995       996      3846      3849      3847
 -1      1902    8    0    1
 -2       921       920       997      3605      3850      3851
 -1      1903    8    0    1
 -2       920       996       997      3848      3852      3850
 -1      1904    8    0    1
 -2       922       921       998      3608      3853      3854
 -1      1905    8    0    1
 -2       921       997       998      3851      3855      3853
 -1      1906    8    0    1
 -2       923       922       999      3611      3856      3857
 -1      1907    8    0    1
 -2       922       998       999      3854      3858      3856
 -1      1908    8    0    1
 -2       924       923      1000      3614      3859      3860
 -1      1909    8    0    1
 -2       923       999      1000      3857      3861      3859
 -1      1910    8    0    1
 -2       925       924      1001      3617      3862      3863
 -1      1911    8    0    1
 -2       924      1000      1001      3860      3864      3862
 -1      1912    8    0    1
 -2       926       925      1002      3620      3865      3866
 -1      1913    8    0    1
 -2       925      1001      1002      3863      3867      3865
 -1      1914    8    0    1
 -2       927       926      1003      3623      3868      3869
 -1      1915    8    0    1
 -2       926      1002      1003      3866      3870      3868
 -1      1916    8    0    1
 -2       928       927      1004      3626      3871      3872
 -1      1917    8    0    1
 -2       927      1003      1004      3869      3873      3871
 -1      1918    8    0    1
 -2       929       928      1005      3629      3874      3875
 -1      1919    8    0    1
 -2       928      1004      1005      3872      3876      3874
 -1      1920    8    0    1
 -2       930       929      1006      3632      3877      3878
 -1      1921    8    0    1
 -2       929      1005      1006      3875      3879      3877
 -1      1922    8    0    1
 -2       931       930      1007      3635      3880      3881
 -1      1923    8    0    1
 -2       930      1006      1007      3878      3882      3880
 -1      1924    8    0    1
 -2       932       931      1008      3638      3883      3884
 -1      1925    8    0    1
 -2       931      1007      1008      3881      3885      3883
 -1      1926    8    0    1
 -2       933       932      1009      3641      3886      3887
 -1      1927    8    0    1
 -2       932      1008      1009      3884      3888      3886
 -1      1928    8    0    1
 -2       934       933      1010      3644      3889      3890
 -1      1929    8    0    1
 -2       933      1009      1010      3887      3891      3889
 -1      1930    8    0    1
 -2       935       934      1011      3647      3892      3893
 -1      1931    8    0    1
 -2       934      1010      1011      3890      3894      3892
 -1      1932    8    0    1
 -2       936       935      1012      3650      3895      3896
 -1      1933    8    0    1
 -2       935      1011      1012      3893      3897      3895
 -1      1934    8    0    1
 -2       937       936      1013      3653      3898      3899
 -1      1935    8    0    1
 -2       936      1012      1013      3896      3900      3898
 -1      1936    8    0    1
 -2       938       937      1014      3656      3901      3902
 -1      1937    8    0    1
 -2       937      1013      1014      3899      3903      3901
 -1      1938    8    0    1
 -2       939       938      1015      3659      3904      3905
 -1      1939    8    0    1
 -2       938      1014      1015      3902      3906      3904
 -1      1940    8    0    1
 -2       940       939      1016      3662      3907      3908
 -1      1941    8    0    1
 -2       939      1015      1016      3905      3909      3907
 -1      1942    8    0    1
 -2       941       940      1017      3665      3910      3911
 -1      1943    8    0    1
 -2       940      1016      1017      3908      3912      3910
 -1      1944    8    0    1
 -2       942       941      1018      3668      3913      3914
 -1      1945    8    0    1
 -2       941      1017      1018      3911      3915      3913
 -1      1946    8    0    1
 -2       944       943       915      3674      3916      3808
 -1      1947    8    0    1
 -2       909       980       981      3834      3917      3788
 -1      1948    8    0    1
 -2       854       945       904      3678      3918      3679
 -1      1949    8    0    1
 -2       981       980      1019      3917      3919      3920
 -1      1950    8    0    1
 -2       980       892       987      3806      3811      3921
 -1      1951    8    0    1
 -2       948       947      1020      3689      3922      3923
 -1      1952    8    0    1
 -2       948      1020       969      3923      3924      3751
 -1      1953    8    0    1
 -2       914       950      1021      3694      3925      3926
 -1      1954    8    0    1
 -2       952       953      1022      3703      3927      3928
 -1      1955    8    0    1
 -2       953       954      1023      3706      3929      3930
 -1      1956    8    0    1
 -2       953      1023      1022      3930      3931      3927
 -1      1957    8    0    1
 -2       954       955      1024      3709      3932      3933
 -1      1958    8    0    1
 -2       954      1024      1023      3933      3934      3929
 -1      1959    8    0    1
 -2       955       956      1025      3712      3935      3936
 -1      1960    8    0    1
 -2       955      1025      1024      3936      3937      3932
 -1      1961    8    0    1
 -2       956       957      1026      3715      3938      3939
 -1      1962    8    0    1
 -2       956      1026      1025      3939      3940      3935
 -1      1963    8    0    1
 -2       957       958      1027      3718      3941      3942
 -1      1964    8    0    1
 -2       957      1027      1026      3942      3943      3938
 -1      1965    8    0    1
 -2       958       959      1028      3721      3944      3945
 -1      1966    8    0    1
 -2       958      1028      1027      3945      3946      3941
 -1      1967    8    0    1
 -2       959       960      1029      3724      3947      3948
 -1      1968    8    0    1
 -2       959      1029      1028      3948      3949      3944
 -1      1969    8    0    1
 -2       960       961      1030      3727      3950      3951
 -1      1970    8    0    1
 -2       960      1030      1029      3951      3952      3947
 -1      1971    8    0    1
 -2       961       962      1031      3730      3953      3954
 -1      1972    8    0    1
 -2       961      1031      1030      3954      3955      3950
 -1      1973    8    0    1
 -2       962       963      1032      3733      3956      3957
 -1      1974    8    0    1
 -2       962      1032      1031      3957      3958      3953
 -1      1975    8    0    1
 -2       963       964      1033      3736      3959      3960
 -1      1976    8    0    1
 -2       963      1033      1032      3960      3961      3956
 -1      1977    8    0    1
 -2       964       965      1034      3739      3962      3963
 -1      1978    8    0    1
 -2       964      1034      1033      3963      3964      3959
 -1      1979    8    0    1
 -2       965       966      1035      3742      3965      3966
 -1      1980    8    0    1
 -2       965      1035      1034      3966      3967      3962
 -1      1981    8    0    1
 -2       966       967      1036      3745      3968      3969
 -1      1982    8    0    1
 -2       966      1036      1035      3969      3970      3965
 -1      1983    8    0    1
 -2       967       968      1037      3748      3971      3972
 -1      1984    8    0    1
 -2       967      1037      1036      3972      3973      3968
 -1      1985    8    0    1
 -2       947       946      1020      3685      3974      3922
 -1      1986    8    0    1
 -2       951       952      1038      3700      3975      3976
 -1      1987    8    0    1
 -2       952      1022      1038      3928      3977      3975
 -1      1988    8    0    1
 -2       974       912      1039      3766      3978      3979
 -1      1989    8    0    1
 -2       974      1039       994      3979      3980      3843
 -1      1990    8    0    1
 -2       799       893       886      3829      3580      3547
 -1      1991    8    0    1
 -2       975       911      1040      3769      3981      3982
 -1      1992    8    0    1
 -2       911       976      1040      3773      3983      3981
 -1      1993    8    0    1
 -2       985       887       945      3835      3984      3833
 -1      1994    8    0    1
 -2       977       905      1041      3837      3985      3986
 -1      1995    8    0    1
 -2       918       917      1042      3596      3987      3988
 -1      1996    8    0    1
 -2       918      1042       995      3988      3989      3845
 -1      1997    8    0    1
 -2       915       943      1043      3916      3990      3991
 -1      1998    8    0    1
 -2       978       915      1043      3793      3991      3992
 -1      1999    8    0    1
 -2       943       942      1043      3671      3993      3990
 -1      2000    8    0    1
 -2       945       887       904      3984      3549      3918
 -1      2001    8    0    1
 -2       946       986       984      3812      3994      3995
 -1      2002    8    0    1
 -2       949       951      1044      3697      3996      3997
 -1      2003    8    0    1
 -2       951      1038      1044      3976      3998      3996
 -1      2004    8    0    1
 -2       896       890       906      3770      3999      3556
 -1      2005    8    0    1
 -2       897       982       988      3792      4000      3816
 -1      2006    8    0    1
 -2       983       977      1045      3797      4001      4002
 -1      2007    8    0    1
 -2       983      1045       991      4002      4003      3826
 -1      2008    8    0    1
 -2       984       908      1046      3801      4004      4005
 -1      2009    8    0    1
 -2       908       992      1046      3831      4006      4004
 -1      2010    8    0    1
 -2       973       949      1047      3762      4007      4008
 -1      2011    8    0    1
 -2       949      1044      1047      3997      4009      4007
 -1      2012    8    0    1
 -2       905       990      1041      3821      4010      3985
 -1      2013    8    0    1
 -2       942      1018      1043      3914      4011      3993
 -1      2014    8    0    1
 -2      1019       980       987      3919      3921      4012
 -1      2015    8    0    1
 -2      1045       977      1041      4001      3986      4013
 -1      2016    8    0    1
 -2       906       890       812      3999      3838      3555
 -1      2017    8    0    1
 -2       987       972      1048      3809      4014      4015
 -1      2018    8    0    1
 -2       987      1048      1019      4015      4016      4012
 -1      2019    8    0    1
 -2      1021       950      1049      3925      4017      4018
 -1      2020    8    0    1
 -2       950       973      1049      3761      4019      4017
 -1      2021    8    0    1
 -2       982       914      1050      3790      4020      4021
 -1      2022    8    0    1
 -2       914      1021      1050      3926      4022      4020
 -1      2023    8    0    1
 -2       971       969      1051      3756      4023      4024
 -1      2024    8    0    1
 -2       917       994      1042      3844      4025      3987
 -1      2025    8    0    1
 -2       981      1019      1052      3920      4026      4027
 -1      2026    8    0    1
 -2       981      1052       993      4027      4028      3841
 -1      2027    8    0    1
 -2       986       809       902      3819      3540      4029
 -1      2028    8    0    1
 -2       990       978      1043      3822      3992      4030
 -1      2029    8    0    1
 -2      1039       912      1053      3978      4031      4032
 -1      2030    8    0    1
 -2       912       979      1053      3781      4033      4031
 -1      2031    8    0    1
 -2       979       975      1054      3782      4034      4035
 -1      2032    8    0    1
 -2      1053       979      1054      4033      4035      4036
 -1      2033    8    0    1
 -2       975      1040      1054      3982      4037      4034
 -1      2034    8    0    1
 -2       976       916      1055      3774      4038      4039
 -1      2035    8    0    1
 -2      1040       976      1055      3983      4039      4040
 -1      2036    8    0    1
 -2       916       993      1055      3840      4041      4038
 -1      2037    8    0    1
 -2       907       989       992      3828      4042      3832
 -1      2038    8    0    1
 -2      1051       969      1020      4023      3924      4043
 -1      2039    8    0    1
 -2       992       989       971      4042      3842      4044
 -1      2040    8    0    1
 -2       986       902       984      4029      3800      3994
 -1      2041    8    0    1
 -2       968       991      1056      3825      4045      4046
 -1      2042    8    0    1
 -2      1037       968      1056      3971      4046      4047
 -1      2043    8    0    1
 -2       991      1045      1056      4003      4048      4045
 -1      2044    8    0    1
 -2      1048       972      1057      4014      4049      4050
 -1      2045    8    0    1
 -2       972       988      1057      3815      4051      4049
 -1      2046    8    0    1
 -2       997       996      1058      3852      4052      4053
 -1      2047    8    0    1
 -2       998       997      1059      3855      4054      4055
 -1      2048    8    0    1
 -2       997      1058      1059      4053      4056      4054
 -1      2049    8    0    1
 -2       999       998      1060      3858      4057      4058
 -1      2050    8    0    1
 -2       998      1059      1060      4055      4059      4057
 -1      2051    8    0    1
 -2      1000       999      1061      3861      4060      4061
 -1      2052    8    0    1
 -2       999      1060      1061      4058      4062      4060
 -1      2053    8    0    1
 -2      1001      1000      1062      3864      4063      4064
 -1      2054    8    0    1
 -2      1000      1061      1062      4061      4065      4063
 -1      2055    8    0    1
 -2      1002      1001      1063      3867      4066      4067
 -1      2056    8    0    1
 -2      1001      1062      1063      4064      4068      4066
 -1      2057    8    0    1
 -2      1003      1002      1064      3870      4069      4070
 -1      2058    8    0    1
 -2      1002      1063      1064      4067      4071      4069
 -1      2059    8    0    1
 -2      1004      1003      1065      3873      4072      4073
 -1      2060    8    0    1
 -2      1003      1064      1065      4070      4074      4072
 -1      2061    8    0    1
 -2      1005      1004      1066      3876      4075      4076
 -1      2062    8    0    1
 -2      1004      1065      1066      4073      4077      4075
 -1      2063    8    0    1
 -2      1006      1005      1067      3879      4078      4079
 -1      2064    8    0    1
 -2      1005      1066      1067      4076      4080      4078
 -1      2065    8    0    1
 -2      1007      1006      1068      3882      4081      4082
 -1      2066    8    0    1
 -2      1006      1067      1068      4079      4083      4081
 -1      2067    8    0    1
 -2      1008      1007      1069      3885      4084      4085
 -1      2068    8    0    1
 -2      1007      1068      1069      4082      4086      4084
 -1      2069    8    0    1
 -2      1009      1008      1070      3888      4087      4088
 -1      2070    8    0    1
 -2      1008      1069      1070      4085      4089      4087
 -1      2071    8    0    1
 -2      1010      1009      1071      3891      4090      4091
 -1      2072    8    0    1
 -2      1009      1070      1071      4088      4092      4090
 -1      2073    8    0    1
 -2      1011      1010      1072      3894      4093      4094
 -1      2074    8    0    1
 -2      1010      1071      1072      4091      4095      4093
 -1      2075    8    0    1
 -2      1012      1011      1073      3897      4096      4097
 -1      2076    8    0    1
 -2      1011      1072      1073      4094      4098      4096
 -1      2077    8    0    1
 -2      1013      1012      1074      3900      4099      4100
 -1      2078    8    0    1
 -2      1012      1073      1074      4097      4101      4099
 -1      2079    8    0    1
 -2      1014      1013      1075      3903      4102      4103
 -1      2080    8    0    1
 -2      1013      1074      1075      4100      4104      4102
 -1      2081    8    0    1
 -2      1015      1014      1076      3906      4105      4106
 -1      2082    8    0    1
 -2      1014      1075      1076      4103      4107      4105
 -1      2083    8    0    1
 -2      1016      1015      1077      3909      4108      4109
 -1      2084    8    0    1
 -2      1015      1076      1077      4106      4110      4108
 -1      2085    8    0    1
 -2      1017      1016      1078      3912      4111      4112
 -1      2086    8    0    1
 -2      1016      1077      1078      4109      4113      4111
 -1      2087    8    0    1
 -2      1024      1025      1079      3937      4114      4115
 -1      2088    8    0    1
 -2      1023      1024      1080      3934      4116      4117
 -1      2089    8    0    1
 -2      1024      1079      1080      4115      4118      4116
 -1      2090    8    0    1
 -2      1045      1041      1081      4013      4119      4120
 -1      2091    8    0    1
 -2      1045      1081      1056      4120      4121      4048
 -1      2092    8    0    1
 -2       994      1039      1082      3980      4122      4123
 -1      2093    8    0    1
 -2      1022      1023      1083      3931      4124      4125
 -1      2094    8    0    1
 -2      1023      1080      1083      4117      4126      4124
 -1      2095    8    0    1
 -2      1042       994      1084      4025      4127      4128
 -1      2096    8    0    1
 -2       994      1082      1084      4123      4129      4127
 -1      2097    8    0    1
 -2      1025      1026      1085      3940      4130      4131
 -1      2098    8    0    1
 -2      1025      1085      1079      4131      4132      4114
 -1      2099    8    0    1
 -2      1026      1027      1086      3943      4133      4134
 -1      2100    8    0    1
 -2      1026      1086      1085      4134      4135      4130
 -1      2101    8    0    1
 -2      1027      1028      1087      3946      4136      4137
 -1      2102    8    0    1
 -2      1027      1087      1086      4137      4138      4133
 -1      2103    8    0    1
 -2      1028      1029      1088      3949      4139      4140
 -1      2104    8    0    1
 -2      1028      1088      1087      4140      4141      4136
 -1      2105    8    0    1
 -2      1029      1030      1089      3952      4142      4143
 -1      2106    8    0    1
 -2      1029      1089      1088      4143      4144      4139
 -1      2107    8    0    1
 -2      1030      1031      1090      3955      4145      4146
 -1      2108    8    0    1
 -2      1030      1090      1089      4146      4147      4142
 -1      2109    8    0    1
 -2      1031      1032      1091      3958      4148      4149
 -1      2110    8    0    1
 -2      1031      1091      1090      4149      4150      4145
 -1      2111    8    0    1
 -2      1032      1033      1092      3961      4151      4152
 -1      2112    8    0    1
 -2      1032      1092      1091      4152      4153      4148
 -1      2113    8    0    1
 -2      1033      1034      1093      3964      4154      4155
 -1      2114    8    0    1
 -2      1033      1093      1092      4155      4156      4151
 -1      2115    8    0    1
 -2      1034      1035      1094      3967      4157      4158
 -1      2116    8    0    1
 -2      1034      1094      1093      4158      4159      4154
 -1      2117    8    0    1
 -2      1035      1036      1095      3970      4160      4161
 -1      2118    8    0    1
 -2      1035      1095      1094      4161      4162      4157
 -1      2119    8    0    1
 -2      1036      1037      1096      3973      4163      4164
 -1      2120    8    0    1
 -2      1036      1096      1095      4164      4165      4160
 -1      2121    8    0    1
 -2      1020       946       984      3974      3995      4166
 -1      2122    8    0    1
 -2      1038      1022      1097      3977      4167      4168
 -1      2123    8    0    1
 -2      1022      1083      1097      4125      4169      4167
 -1      2124    8    0    1
 -2       988       982      1098      4000      4170      4171
 -1      2125    8    0    1
 -2       982      1050      1098      4021      4172      4170
 -1      2126    8    0    1
 -2      1043      1018       990      4011      4173      4030
 -1      2127    8    0    1
 -2       995      1042      1099      3989      4174      4175
 -1      2128    8    0    1
 -2      1042      1084      1099      4128      4176      4174
 -1      2129    8    0    1
 -2      1044      1038      1100      3998      4177      4178
 -1      2130    8    0    1
 -2      1038      1097      1100      4168      4179      4177
 -1      2131    8    0    1
 -2      1041       990      1101      4010      4180      4181
 -1      2132    8    0    1
 -2      1081      1041      1101      4119      4181      4182
 -1      2133    8    0    1
 -2       990      1018      1101      4173      4183      4180
 -1      2134    8    0    1
 -2      1019      1048      1052      4016      4184      4026
 -1      2135    8    0    1
 -2       996       995      1102      3849      4185      4186
 -1      2136    8    0    1
 -2       995      1099      1102      4175      4187      4185
 -1      2137    8    0    1
 -2      1047      1044      1103      4009      4188      4189
 -1      2138    8    0    1
 -2      1044      1100      1103      4178      4190      4188
 -1      2139    8    0    1
 -2      1018      1017      1101      3915      4191      4183
 -1      2140    8    0    1
 -2      1101      1017      1078      4191      4112      4192
 -1      2141    8    0    1
 -2      1082      1039      1104      4122      4193      4194
 -1      2142    8    0    1
 -2      1039      1053      1104      4032      4195      4193
 -1      2143    8    0    1
 -2      1049       973      1047      4019      4008      4196
 -1      2144    8    0    1
 -2      1050      1021      1105      4022      4197      4198
 -1      2145    8    0    1
 -2       988      1098      1057      4171      4199      4051
 -1      2146    8    0    1
 -2      1096      1037      1106      4163      4200      4201
 -1      2147    8    0    1
 -2      1037      1056      1106      4047      4202      4200
 -1      2148    8    0    1
 -2       971      1051       992      4024      4203      4044
 -1      2149    8    0    1
 -2       996      1102      1058      4186      4204      4052
 -1      2150    8    0    1
 -2      1048      1057      1107      4050      4205      4206
 -1      2151    8    0    1
 -2      1052      1048      1107      4184      4206      4207
 -1      2152    8    0    1
 -2      1055       993      1108      4041      4208      4209
 -1      2153    8    0    1
 -2       993      1052      1108      4028      4210      4208
 -1      2154    8    0    1
 -2      1054      1040      1055      4037      4040      4211
 -1      2155    8    0    1
 -2      1021      1049      1109      4018      4212      4213
 -1      2156    8    0    1
 -2      1021      1109      1105      4213      4214      4197
 -1      2157    8    0    1
 -2      1056      1081      1106      4121      4215      4202
 -1      2158    8    0    1
 -2      1060      1059      1103      4059      4216      4217
 -1      2159    8    0    1
 -2      1061      1060      1100      4062      4218      4219
 -1      2160    8    0    1
 -2      1062      1061      1097      4065      4220      4221
 -1      2161    8    0    1
 -2      1063      1062      1083      4068      4222      4223
 -1      2162    8    0    1
 -2      1064      1063      1080      4071      4224      4225
 -1      2163    8    0    1
 -2      1065      1064      1079      4074      4226      4227
 -1      2164    8    0    1
 -2      1066      1065      1085      4077      4228      4229
 -1      2165    8    0    1
 -2      1067      1066      1086      4080      4230      4231
 -1      2166    8    0    1
 -2      1068      1067      1087      4083      4232      4233
 -1      2167    8    0    1
 -2      1069      1068      1088      4086      4234      4235
 -1      2168    8    0    1
 -2      1070      1069      1089      4089      4236      4237
 -1      2169    8    0    1
 -2      1071      1070      1090      4092      4238      4239
 -1      2170    8    0    1
 -2      1072      1071      1091      4095      4240      4241
 -1      2171    8    0    1
 -2      1073      1072      1092      4098      4242      4243
 -1      2172    8    0    1
 -2      1074      1073      1093      4101      4244      4245
 -1      2173    8    0    1
 -2      1075      1074      1094      4104      4246      4247
 -1      2174    8    0    1
 -2      1076      1075      1095      4107      4248      4249
 -1      2175    8    0    1
 -2      1077      1076      1096      4110      4250      4251
 -1      2176    8    0    1
 -2      1078      1077      1096      4113      4251      4252
 -1      2177    8    0    1
 -2      1085      1086      1066      4135      4230      4229
 -1      2178    8    0    1
 -2      1085      1065      1079      4228      4227      4132
 -1      2179    8    0    1
 -2      1087      1067      1086      4232      4231      4138
 -1      2180    8    0    1
 -2      1079      1064      1080      4226      4225      4118
 -1      2181    8    0    1
 -2      1057      1098      1110      4199      4253      4254
 -1      2182    8    0    1
 -2      1057      1110      1107      4254      4255      4205
 -1      2183    8    0    1
 -2      1092      1072      1091      4242      4241      4153
 -1      2184    8    0    1
 -2      1084      1082      1110      4129      4256      4257
 -1      2185    8    0    1
 -2      1087      1088      1068      4141      4234      4233
 -1      2186    8    0    1
 -2      1088      1089      1069      4144      4236      4235
 -1      2187    8    0    1
 -2      1089      1090      1070      4147      4238      4237
 -1      2188    8    0    1
 -2      1090      1091      1071      4150      4240      4239
 -1      2189    8    0    1
 -2      1092      1093      1073      4156      4244      4243
 -1      2190    8    0    1
 -2      1093      1094      1074      4159      4246      4245
 -1      2191    8    0    1
 -2      1094      1095      1075      4162      4248      4247
 -1      2192    8    0    1
 -2      1095      1096      1076      4165      4250      4249
 -1      2193    8    0    1
 -2      1020       984      1046      4166      4005      4258
 -1      2194    8    0    1
 -2      1080      1063      1083      4224      4223      4126
 -1      2195    8    0    1
 -2      1097      1083      1062      4169      4222      4221
 -1      2196    8    0    1
 -2      1098      1050      1111      4172      4259      4260
 -1      2197    8    0    1
 -2      1110      1098      1111      4253      4260      4261
 -1      2198    8    0    1
 -2      1050      1105      1111      4198      4262      4259
 -1      2199    8    0    1
 -2      1097      1061      1100      4220      4219      4179
 -1      2200    8    0    1
 -2      1051      1020      1046      4043      4258      4263
 -1      2201    8    0    1
 -2      1054      1055      1108      4211      4209      4264
 -1      2202    8    0    1
 -2      1099      1084      1111      4176      4265      4266
 -1      2203    8    0    1
 -2      1100      1060      1103      4218      4217      4190
 -1      2204    8    0    1
 -2      1049      1047      1112      4196      4267      4268
 -1      2205    8    0    1
 -2      1109      1049      1112      4212      4268      4269
 -1      2206    8    0    1
 -2      1047      1103      1112      4189      4270      4267
 -1      2207    8    0    1
 -2      1101      1078      1081      4192      4271      4182
 -1      2208    8    0    1
 -2       992      1051      1046      4203      4263      4006
 -1      2209    8    0    1
 -2      1059      1058      1112      4056      4272      4273
 -1      2210    8    0    1
 -2      1058      1102      1109      4204      4274      4275
 -1      2211    8    0    1
 -2      1102      1099      1105      4187      4276      4277
 -1      2212    8    0    1
 -2      1053      1054      1108      4036      4264      4278
 -1      2213    8    0    1
 -2      1105      1099      1111      4276      4266      4262
 -1      2214    8    0    1
 -2      1102      1105      1109      4277      4214      4274
 -1      2215    8    0    1
 -2      1059      1112      1103      4273      4270      4216
 -1      2216    8    0    1
 -2      1110      1082      1107      4256      4279      4255
 -1      2217    8    0    1
 -2      1104      1053      1108      4195      4278      4280
 -1      2218    8    0    1
 -2      1084      1110      1111      4257      4261      4265
 -1      2219    8    0    1
 -2      1052      1107      1104      4207      4281      4282
 -1      2220    8    0    1
 -2      1112      1058      1109      4272      4275      4269
 -1      2221    8    0    1
 -2      1081      1078      1106      4271      4283      4215
 -1      2222    8    0    1
 -2      1082      1104      1107      4194      4281      4279
 -1      2223    8    0    1
 -2      1078      1096      1106      4252      4201      4283
 -1      2224    8    0    1
 -2      1108      1052      1104      4210      4282      4280
 -3
    1PSTEP                         1           1           1          
  100CL  101 1.000000000        4283                     0    1           1
 -4  DISP        4    1
 -5  D1          1    2    1    0
 -5  D2          1    2    2    0
 -5  D3          1    2    3    0
 -5  ALL         1    2    0    0    1ALL
 -1         1 1.37186E-02 4.85538E-04-9.59645E-14
 -1         2 1.49657E-02 1.26328E-03-9.82648E-14
 -1         3 1.71098E-02 2.88838E-03-1.24942E-13
 -1         4 1.35285E-02 1.58869E-03-1.32922E-13
 -1         5 0.00000E+00 0.00000E+00 0.00000E+00
 -1         6 0.00000E+00 0.00000E+00 0.00000E+00
 -1         7 0.00000E+00 0.00000E+00 0.00000E+00
 -1         8 0.00000E+00 0.00000E+00 0.00000E+00
 -1         9 0.00000E+00 0.00000E+00 0.00000E+00
 -1        10 0.00000E+00 0.00000E+00 0.00000E+00
 -1        11 0.00000E+00 0.00000E+00 0.00000E+00
 -1        12 0.00000E+00 0.00000E+00 0.00000E+00
 -1        13 0.00000E+00 0.00000E+00 0.00000E+00
 -1        14 0.00000E+00 0.00000E+00 0.00000E+00
 -1        15 0.00000E+00 0.00000E+00 0.00000E+00
 -1        16 0.00000E+00 0.00000E+00 0.00000E+00
 -1        17 0.00000E+00 0.00000E+00 0.00000E+00
 -1        18 0.00000E+00 0.00000E+00 0.00000E+00
 -1        19 0.00000E+00 0.00000E+00 0.00000E+00
 -1        20 0.00000E+00 0.00000E+00 0.00000E+00
 -1        21 0.00000E+00 0.00000E+00 0.00000E+00
 -1        22 0.00000E+00 0.00000E+00 0.00000E+00
 -1        23 4.11541E-04-2.60846E-04 3.74219E-17
 -1        24 7.03642E-04-4.01185E-04-1.03484E-16
 -1        25 9.73816E-04-4.98665E-04-4.17608E-16
 -1        26 1.23841E-03-5.67521E-04-9.01121E-16
 -1        27 1.50204E-03-6.16895E-04-1.54898E-15
 -1        28 1.76681E-03-6.52174E-04-2.35649E-15
 -1        29 2.03368E-03-6.77072E-04-3.31840E-15
 -1        30 2.30302E-03-6.94293E-04-4.43231E-15
 -1        31 2.57489E-03-7.05865E-04-5.69609E-15
 -1        32 2.84915E-03-7.13326E-04-7.10784E-15
 -1        33 3.12557E-03-7.17845E-04-8.66128E-15
 -1        34 3.40388E-03-7.20299E-04-1.03476E-14
 -1        35 3.68380E-03-7.21343E-04-1.21608E-14
 -1        36 3.96505E-03-7.21457E-04-1.40961E-14
 -1        37 4.24739E-03-7.20982E-04-1.61492E-14
 -1        38 4.53061E-03-7.20161E-04-1.83189E-14
 -1        39 4.81452E-03-7.19156E-04-2.06020E-14
 -1        40 5.09899E-03-7.18075E-04-2.29916E-14
 -1        41 5.38390E-03-7.16986E-04-2.54862E-14
 -1        42 5.66917E-03-7.15938E-04-2.80873E-14
 -1        43 5.95474E-03-7.14964E-04-3.07882E-14
 -1        44 6.24059E-03-7.14105E-04-3.35837E-14
 -1        45 6.52669E-03-7.13410E-04-3.64826E-14
 -1        46 6.81302E-03-7.12956E-04-3.94808E-14
 -1        47 7.09955E-03-7.12849E-04-4.25721E-14
 -1        48 7.38619E-03-7.13234E-04-4.57480E-14
 -1        49 7.67279E-03-7.14290E-04-4.90054E-14
 -1        50 7.95905E-03-7.16206E-04-5.23409E-14
 -1        51 8.24448E-03-7.19136E-04-5.57481E-14
 -1        52 8.52832E-03-7.23116E-04-5.92165E-14
 -1        53 8.80947E-03-7.27922E-04-6.27289E-14
 -1        54 9.08648E-03-7.32880E-04-6.62721E-14
 -1        55 9.35759E-03-7.36635E-04-6.98406E-14
 -1        56 9.62087E-03-7.36911E-04-7.34347E-14
 -1        57 9.87456E-03-7.30364E-04-7.70689E-14
 -1        58 1.01174E-02-7.12610E-04-8.07262E-14
 -1        59 1.03494E-02-6.78558E-04-8.44085E-14
 -1        60 1.05717E-02-6.23059E-04-8.81037E-14
 -1        61 1.07871E-02-5.41799E-04-9.18085E-14
 -1        62 1.09998E-02-4.32178E-04-9.55322E-14
 -1        63 1.12142E-02-2.93911E-04-9.92833E-14
 -1        64 1.14346E-02-1.29085E-04-1.03046E-13
 -1        65 1.16643E-02 5.82953E-05-1.06819E-13
 -1        66 1.19051E-02 2.63130E-04-1.10593E-13
 -1        67 1.21572E-02 4.80068E-04-1.14366E-13
 -1        68 1.24202E-02 7.04134E-04-1.18126E-13
 -1        69 1.26925E-02 9.31031E-04-1.21871E-13
 -1        70 1.29722E-02 1.15721E-03-1.25605E-13
 -1        71 1.32567E-02 1.38017E-03-1.29352E-13
 -1        72 3.95552E-04 2.52355E-04 6.83589E-17
 -1        73 6.89853E-04 3.95537E-04-9.28348E-18
 -1        74 9.60559E-04 4.94729E-04-2.40462E-16
 -1        75 1.22530E-03 5.64743E-04-6.24287E-16
 -1        76 1.48893E-03 6.14946E-04-1.15915E-15
 -1        77 1.75362E-03 6.50839E-04-1.84616E-15
 -1        78 2.02037E-03 6.76197E-04-2.68451E-15
 -1        79 2.28959E-03 6.93760E-04-3.67331E-15
 -1        80 2.56133E-03 7.05587E-04-4.80947E-15
 -1        81 2.83548E-03 7.13237E-04-6.08810E-15
 -1        82 3.11180E-03 7.17894E-04-7.50719E-15
 -1        83 3.39001E-03 7.20448E-04-9.06243E-15
 -1        84 3.66985E-03 7.21564E-04-1.07512E-14
 -1        85 3.93694E-03 7.21736E-04-1.24787E-14
 -1        86 4.21916E-03 7.21317E-04-1.44336E-14
 -1        87 4.50226E-03 7.20522E-04-1.65177E-14
 -1        88 4.78606E-03 7.19514E-04-1.87215E-14
 -1        89 5.07040E-03 7.18393E-04-2.10388E-14
 -1        90 5.35515E-03 7.17208E-04-2.34576E-14
 -1        91 5.64025E-03 7.15975E-04-2.59671E-14
 -1        92 5.92561E-03 7.14675E-04-2.85616E-14
 -1        93 6.21123E-03 7.13266E-04-3.12401E-14
 -1        94 6.49713E-03 7.11677E-04-3.40104E-14
 -1        95 6.78337E-03 7.09809E-04-3.68716E-14
 -1        96 7.07013E-03 7.07535E-04-3.98207E-14
 -1        97 7.35770E-03 7.04692E-04-4.28443E-14
 -1        98 7.63209E-03 7.01297E-04-4.57759E-14
 -1        99 7.92303E-03 6.96809E-04-4.89279E-14
 -1       100 8.21754E-03 6.91276E-04-5.21475E-14
 -1       101 8.51802E-03 6.84849E-04-5.54241E-14
 -1       102 8.82854E-03 6.78384E-04-5.87444E-14
 -1       103 9.15581E-03 6.74427E-04-6.21038E-14
 -1       104 9.51070E-03 6.79334E-04-6.54927E-14
 -1       105 9.90978E-03 7.07575E-04-6.88956E-14
 -1       106 1.03752E-02 7.89525E-04-7.23031E-14
 -1       107 1.09262E-02 9.81682E-04-7.57009E-14
 -1       108 1.14238E-02 1.26875E-03-7.84094E-14
 -1       109 1.19599E-02 1.73809E-03-8.12801E-14
 -1       110 1.24298E-02 2.35386E-03-8.43049E-14
 -1       111 1.26689E-02 2.75588E-03-8.66568E-14
 -1       112 1.28284E-02 2.91032E-03-8.90376E-14
 -1       113 1.30523E-02 2.73509E-03-9.18144E-14
 -1       114 1.34198E-02 2.37470E-03-9.46435E-14
 -1       115 1.38677E-02 2.07076E-03-9.73137E-14
 -1       116 1.44033E-02 1.87697E-03-1.00350E-13
 -1       117 1.49802E-02 1.84453E-03-1.03916E-13
 -1       118 1.54678E-02 1.94847E-03-1.07494E-13
 -1       119 1.58774E-02 2.12081E-03-1.11075E-13
 -1       120 1.62306E-02 2.32003E-03-1.14626E-13
 -1       121 1.65460E-02 2.52297E-03-1.18145E-13
 -1       122 1.68387E-02 2.71632E-03-1.21631E-13
 -1       123 1.69369E-02 2.80357E-03-1.25387E-13
 -1       124 1.67750E-02 2.72649E-03-1.25841E-13
 -1       125 1.66155E-02 2.66687E-03-1.26318E-13
 -1       126 1.64435E-02 2.62361E-03-1.26811E-13
 -1       127 1.62484E-02 2.58793E-03-1.27305E-13
 -1       128 1.60318E-02 2.54948E-03-1.27777E-13
 -1       129 1.57915E-02 2.49812E-03-1.28276E-13
 -1       130 1.55404E-02 2.43016E-03-1.28775E-13
 -1       131 1.52883E-02 2.34611E-03-1.29263E-13
 -1       132 1.50425E-02 2.24990E-03-1.29738E-13
 -1       133 1.48071E-02 2.14700E-03-1.30203E-13
 -1       134 1.45863E-02 2.04450E-03-1.30665E-13
 -1       135 1.43706E-02 1.94304E-03-1.31119E-13
 -1       136 1.41603E-02 1.84693E-03-1.31578E-13
 -1       137 1.39512E-02 1.75684E-03-1.32043E-13
 -1       138 1.37396E-02 1.67127E-03-1.32493E-13
 -1       139 1.50193E-02 1.48091E-03-9.78366E-14
 -1       140 1.49553E-02 1.68881E-03-9.70937E-14
 -1       141 1.47600E-02 1.92499E-03-9.59528E-14
 -1       142 1.44498E-02 2.16239E-03-9.45957E-14
 -1       143 1.40064E-02 2.40192E-03-9.30192E-14
 -1       144 1.34540E-02 2.59137E-03-9.13444E-14
 -1       145 1.28245E-02 2.66500E-03-8.96392E-14
 -1       146 1.21192E-02 2.57003E-03-8.78358E-14
 -1       147 1.14618E-02 2.31924E-03-8.61924E-14
 -1       148 1.09068E-02 1.99946E-03-8.47629E-14
 -1       149 1.04702E-02 1.68270E-03-8.36036E-14
 -1       150 1.01319E-02 1.38445E-03-8.26866E-14
 -1       151 9.89034E-03 1.11133E-03-8.20545E-14
 -1       152 9.75626E-03 8.62894E-04-8.17738E-14
 -1       153 9.74142E-03 6.50436E-04-8.18974E-14
 -1       154 9.83005E-03 4.79108E-04-8.23599E-14
 -1       155 1.00253E-02 3.28746E-04-8.32047E-14
 -1       156 1.03265E-02 2.07873E-04-8.44167E-14
 -1       157 1.06853E-02 1.29902E-04-8.58025E-14
 -1       158 1.11164E-02 8.76962E-05-8.74145E-14
 -1       159 1.16010E-02 8.52530E-05-8.91664E-14
 -1       160 1.20921E-02 1.21061E-04-9.08794E-14
 -1       161 1.26547E-02 2.04136E-04-9.27589E-14
 -1       162 1.31842E-02 3.21668E-04-9.44180E-14
 -1       163 1.41617E-02 6.62582E-04-9.70992E-14
 -1       164 1.45223E-02 8.52962E-04-9.78736E-14
 -1       165 1.47944E-02 1.05369E-03-9.82796E-14
 -1       166 2.40472E-04-1.25577E-04-3.78488E-17
 -1       167 2.25316E-04-9.46703E-05-6.06950E-17
 -1       168 2.19536E-04-7.28321E-05-7.26144E-17
 -1       169 2.16720E-04-5.51658E-05-7.86690E-17
 -1       170 2.15211E-04-4.00419E-05-8.12914E-17
 -1       171 2.14363E-04-2.60113E-05-8.19216E-17
 -1       172 2.13935E-04-1.27646E-05-8.15557E-17
 -1       173 2.13805E-04 1.21605E-07-8.05359E-17
 -1       174 2.13941E-04 1.30114E-05-7.89435E-17
 -1       175 2.14376E-04 2.62697E-05-7.64871E-17
 -1       176 2.15214E-04 4.00764E-05-7.26924E-17
 -1       177 2.16758E-04 5.54836E-05-6.69698E-17
 -1       178 2.19621E-04 7.32106E-05-5.78151E-17
 -1       179 2.25457E-04 9.51493E-05-4.21856E-17
 -1       180 2.40788E-04 1.26301E-04-1.55312E-17
 -1       181 4.68777E-04-2.63681E-04-1.00319E-16
 -1       182 7.67013E-04-3.82370E-04-3.59894E-16
 -1       183 1.05095E-03-4.65359E-04-7.80212E-16
 -1       184 1.32842E-03-5.24246E-04-1.36090E-15
 -1       185 1.60311E-03-5.66052E-04-2.09860E-15
 -1       186 1.87708E-03-5.95469E-04-2.98985E-15
 -1       187 2.15149E-03-6.15805E-04-4.03194E-15
 -1       188 2.42691E-03-6.29494E-04-5.22113E-15
 -1       189 2.70363E-03-6.38355E-04-6.55571E-15
 -1       190 2.98169E-03-6.43762E-04-8.03259E-15
 -1       191 3.26107E-03-6.46746E-04-9.64451E-15
 -1       192 3.54163E-03-6.48072E-04-1.13846E-14
 -1       193 3.82324E-03-6.48303E-04-1.32507E-14
 -1       194 4.10574E-03-6.47840E-04-1.52357E-14
 -1       195 4.38899E-03-6.46968E-04-1.73393E-14
 -1       196 4.67286E-03-6.45877E-04-1.95570E-14
 -1       197 4.95723E-03-6.44694E-04-2.18848E-14
 -1       198 5.24201E-03-6.43498E-04-2.43180E-14
 -1       199 5.52713E-03-6.42340E-04-2.68550E-14
 -1       200 5.81253E-03-6.41252E-04-2.94944E-14
 -1       201 6.09817E-03-6.40266E-04-3.22347E-14
 -1       202 6.38402E-03-6.39423E-04-3.50732E-14
 -1       203 6.67006E-03-6.38785E-04-3.80124E-14
 -1       204 6.95625E-03-6.38445E-04-4.10440E-14
 -1       205 7.24252E-03-6.38539E-04-4.41648E-14
 -1       206 7.52878E-03-6.39249E-04-4.73660E-14
 -1       207 7.81482E-03-6.40790E-04-5.06434E-14
 -1       208 8.10035E-03-6.43386E-04-5.39977E-14
 -1       209 8.38490E-03-6.47205E-04-5.74142E-14
 -1       210 8.66780E-03-6.52244E-04-6.08837E-14
 -1       211 8.94816E-03-6.58162E-04-6.43918E-14
 -1       212 9.22488E-03-6.64048E-04-6.79287E-14
 -1       213 9.49671E-03-6.68152E-04-7.14940E-14
 -1       214 9.76241E-03-6.67647E-04-7.50904E-14
 -1       215 1.00210E-02-6.58528E-04-7.87176E-14
 -1       216 1.02720E-02-6.35760E-04-8.23723E-14
 -1       217 1.05159E-02-5.93796E-04-8.60464E-14
 -1       218 1.07540E-02-5.27432E-04-8.97307E-14
 -1       219 1.09889E-02-4.32826E-04-9.34281E-14
 -1       220 1.12233E-02-3.08363E-04-9.71495E-14
 -1       221 1.14604E-02-1.55046E-04-1.00889E-13
 -1       222 1.17028E-02 2.37457E-05-1.04638E-13
 -1       223 1.19522E-02 2.23015E-04-1.08395E-13
 -1       224 1.22092E-02 4.37115E-04-1.12150E-13
 -1       225 1.24739E-02 6.60581E-04-1.15900E-13
 -1       226 1.27455E-02 8.88612E-04-1.19644E-13
 -1       227 1.30228E-02 1.11720E-03-1.23375E-13
 -1       228 1.33045E-02 1.34317E-03-1.27109E-13
 -1       229 4.53667E-04 2.56789E-04-4.10574E-17
 -1       230 7.52599E-04 3.77534E-04-2.34652E-16
 -1       231 1.03703E-03 4.62008E-04-5.72123E-16
 -1       232 1.31472E-03 5.21902E-04-1.05627E-15
 -1       233 1.58949E-03 5.64440E-04-1.68825E-15
 -1       234 1.86347E-03 5.94399E-04-2.46934E-15
 -1       235 2.13783E-03 6.15138E-04-3.39953E-15
 -1       236 2.41320E-03 6.29123E-04-4.47576E-15
 -1       237 2.68985E-03 6.38203E-04-5.69431E-15
 -1       238 2.96784E-03 6.43770E-04-7.05156E-15
 -1       239 3.24715E-03 6.46869E-04-8.54523E-15
 -1       240 3.52765E-03 6.48278E-04-1.01733E-14
 -1       241 3.79510E-03 6.48573E-04-1.18422E-14
 -1       242 4.07751E-03 6.48178E-04-1.37285E-14
 -1       243 4.36067E-03 6.47344E-04-1.57483E-14
 -1       244 4.64446E-03 6.46266E-04-1.78894E-14
 -1       245 4.92875E-03 6.45065E-04-2.01469E-14
 -1       246 5.21344E-03 6.43807E-04-2.25131E-14
 -1       247 5.49847E-03 6.42517E-04-2.49750E-14
 -1       248 5.78379E-03 6.41185E-04-2.75276E-14
 -1       249 6.06938E-03 6.39772E-04-3.01674E-14
 -1       250 6.35524E-03 6.38211E-04-3.28970E-14
 -1       251 6.64143E-03 6.36406E-04-3.57138E-14
 -1       252 6.92807E-03 6.34224E-04-3.86177E-14
 -1       253 7.21535E-03 6.31490E-04-4.16023E-14
 -1       254 7.48916E-03 6.28182E-04-4.45000E-14
 -1       255 7.77882E-03 6.23693E-04-4.76186E-14
 -1       256 8.07077E-03 6.17898E-04-5.08028E-14
 -1       257 8.36629E-03 6.10594E-04-5.40489E-14
 -1       258 8.66735E-03 6.01906E-04-5.73470E-14
 -1       259 8.97695E-03 5.92894E-04-6.06891E-14
 -1       260 9.29949E-03 5.86922E-04-6.40620E-14
 -1       261 9.64111E-03 5.92636E-04-6.74565E-14
 -1       262 1.00098E-02 6.29899E-04-7.08619E-14
 -1       263 1.04149E-02 7.39618E-04-7.42668E-14
 -1       264 1.07724E-02 9.27920E-04-7.69853E-14
 -1       265 1.11885E-02 1.28193E-03-7.98674E-14
 -1       266 1.23020E-02 2.51523E-03-8.56848E-14
 -1       267 1.26454E-02 2.82329E-03-8.80638E-14
 -1       268 1.30314E-02 2.79266E-03-9.08264E-14
 -1       269 1.34398E-02 2.46865E-03-9.34932E-14
 -1       270 1.38480E-02 2.10842E-03-9.61551E-14
 -1       271 1.43032E-02 1.83467E-03-9.91898E-14
 -1       272 1.48007E-02 1.73789E-03-1.02764E-13
 -1       273 1.52436E-02 1.81177E-03-1.06343E-13
 -1       274 1.56353E-02 1.97485E-03-1.09919E-13
 -1       275 1.59862E-02 2.17513E-03-1.13481E-13
 -1       276 1.63076E-02 2.38417E-03-1.17013E-13
 -1       277 1.66088E-02 2.58590E-03-1.20516E-13
 -1       278 1.67743E-02 2.69864E-03-1.22956E-13
 -1       279 1.66132E-02 2.62219E-03-1.23401E-13
 -1       280 1.64581E-02 2.55759E-03-1.23865E-13
 -1       281 1.62920E-02 2.50389E-03-1.24333E-13
 -1       282 1.61020E-02 2.45564E-03-1.24812E-13
 -1       283 1.58883E-02 2.40635E-03-1.25287E-13
 -1       284 1.56483E-02 2.34809E-03-1.25768E-13
 -1       285 1.53952E-02 2.27816E-03-1.26247E-13
 -1       286 1.51398E-02 2.19637E-03-1.26716E-13
 -1       287 1.48905E-02 2.10506E-03-1.27178E-13
 -1       288 1.46522E-02 2.00789E-03-1.27639E-13
 -1       289 1.44297E-02 1.91035E-03-1.28089E-13
 -1       290 1.42133E-02 1.81223E-03-1.28542E-13
 -1       291 1.40034E-02 1.71732E-03-1.28994E-13
 -1       292 1.37954E-02 1.62649E-03-1.29444E-13
 -1       293 1.50432E-02 1.39247E-03-9.95729E-14
 -1       294 1.50041E-02 1.50523E-03-9.88697E-14
 -1       295 1.48034E-02 1.65830E-03-9.77480E-14
 -1       296 1.44654E-02 1.88855E-03-9.62040E-14
 -1       297 1.40270E-02 2.17899E-03-9.44816E-14
 -1       298 1.35268E-02 2.49783E-03-9.25940E-14
 -1       299 1.30485E-02 2.72718E-03-9.05785E-14
 -1       300 1.25603E-02 2.75567E-03-8.84921E-14
 -1       301 1.20264E-02 2.48616E-03-8.65121E-14
 -1       302 1.14898E-02 2.06393E-03-8.46702E-14
 -1       303 1.09426E-02 1.65106E-03-8.32151E-14
 -1       304 1.04673E-02 1.30560E-03-8.20039E-14
 -1       305 1.00873E-02 1.02217E-03-8.09188E-14
 -1       306 9.81300E-03 8.40974E-04-8.03648E-14
 -1       307 9.70523E-03 7.23518E-04-8.04493E-14
 -1       308 9.75962E-03 6.21595E-04-8.06856E-14
 -1       309 9.95509E-03 5.21555E-04-8.13600E-14
 -1       310 1.02715E-02 3.94075E-04-8.25779E-14
 -1       311 1.06389E-02 2.46560E-04-8.42445E-14
 -1       312 1.10339E-02 1.21263E-04-8.59994E-14
 -1       313 1.14468E-02 3.24116E-05-8.79508E-14
 -1       314 1.18472E-02 1.39955E-05-9.00109E-14
 -1       315 1.22646E-02 8.21110E-05-9.21682E-14
 -1       316 1.27296E-02 2.49537E-04-9.42530E-14
 -1       317 1.31980E-02 4.95856E-04-9.63514E-14
 -1       318 1.37545E-02 7.31842E-04-9.76839E-14
 -1       319 1.42243E-02 9.55231E-04-9.88135E-14
 -1       320 1.46224E-02 1.13608E-03-9.95062E-14
 -1       321 1.49086E-02 1.28146E-03-9.98340E-14
 -1       322 1.17013E-02 1.89309E-03-8.30908E-14
 -1       323 1.35982E-02 1.52464E-03-1.29032E-13
 -1       324 4.55453E-04-1.64935E-04-2.45064E-16
 -1       325 4.74368E-04-2.13112E-04-2.08184E-16
 -1       326 4.40429E-04-9.41724E-05-2.76912E-16
 -1       327 4.37441E-04-6.50961E-05-2.81710E-16
 -1       328 4.35796E-04-3.81269E-05-2.82560E-16
 -1       329 4.35066E-04-1.22872E-05-2.81140E-16
 -1       330 4.35079E-04 1.32043E-05-2.77315E-16
 -1       331 4.35839E-04 3.90707E-05-2.71108E-16
 -1       332 4.37485E-04 6.56239E-05-2.61777E-16
 -1       333 4.40512E-04 9.47532E-05-2.48455E-16
 -1       334 4.45857E-04 1.27451E-04-2.29031E-16
 -1       335 4.55702E-04 1.66030E-04-1.99303E-16
 -1       336 4.75092E-04 2.14760E-04-1.53198E-16
 -1       337 8.63480E-04-3.57660E-04-6.43925E-16
 -1       338 1.14990E-03-4.26527E-04-1.16270E-15
 -1       339 1.43274E-03-4.75809E-04-1.83548E-15
 -1       340 1.71352E-03-5.10658E-04-2.65942E-15
 -1       341 1.99337E-03-5.34879E-04-3.63200E-15
 -1       342 2.27304E-03-5.51299E-04-4.75051E-15
 -1       343 2.55300E-03-5.62043E-04-6.01150E-15
 -1       344 2.83352E-03-5.68712E-04-7.41382E-15
 -1       345 3.11471E-03-5.72508E-04-8.95347E-15
 -1       346 3.39659E-03-5.74330E-04-1.06224E-14
 -1       347 3.67914E-03-5.74834E-04-1.24171E-14
 -1       348 3.96230E-03-5.74498E-04-1.43345E-14
 -1       349 4.24599E-03-5.73656E-04-1.63713E-14
 -1       350 4.53014E-03-5.72539E-04-1.85243E-14
 -1       351 4.81466E-03-5.71297E-04-2.07891E-14
 -1       352 5.09951E-03-5.70026E-04-2.31609E-14
 -1       353 5.38463E-03-5.68783E-04-2.56368E-14
 -1       354 5.66997E-03-5.67606E-04-2.82159E-14
 -1       355 5.95550E-03-5.66519E-04-3.08971E-14
 -1       356 6.24121E-03-5.65554E-04-3.36786E-14
 -1       357 6.52706E-03-5.64756E-04-3.65568E-14
 -1       358 6.81305E-03-5.64199E-04-3.95321E-14
 -1       359 7.09915E-03-5.63997E-04-4.25950E-14
 -1       360 7.38533E-03-5.64310E-04-4.57431E-14
 -1       361 7.67152E-03-5.65347E-04-4.89682E-14
 -1       362 7.95760E-03-5.67352E-04-5.22672E-14
 -1       363 8.24337E-03-5.70564E-04-5.56355E-14
 -1       364 8.52853E-03-5.75137E-04-5.90598E-14
 -1       365 8.81262E-03-5.81004E-04-6.25285E-14
 -1       366 9.09503E-03-5.87674E-04-6.60331E-14
 -1       367 9.37493E-03-5.93962E-04-6.95702E-14
 -1       368 9.65136E-03-5.97697E-04-7.31351E-14
 -1       369 9.92333E-03-5.95474E-04-7.67309E-14
 -1       370 1.01900E-02-5.82610E-04-8.03535E-14
 -1       371 1.04512E-02-5.53427E-04-8.40027E-14
 -1       372 1.07072E-02-5.01981E-04-8.76698E-14
 -1       373 1.09594E-02-4.23157E-04-9.13456E-14
 -1       374 1.12101E-02-3.13820E-04-9.50364E-14
 -1       375 1.14617E-02-1.73622E-04-9.87531E-14
 -1       376 1.17165E-02-5.08616E-06-1.02480E-13
 -1       377 1.19761E-02 1.87038E-04-1.06218E-13
 -1       378 1.22412E-02 3.96863E-04-1.09955E-13
 -1       379 1.25116E-02 6.18445E-04-1.13691E-13
 -1       380 1.27867E-02 8.46508E-04-1.17424E-13
 -1       381 1.30658E-02 1.07671E-03-1.21150E-13
 -1       382 1.33479E-02 1.30556E-03-1.24872E-13
 -1       383 1.13575E-03 4.23734E-04-9.32617E-16
 -1       384 8.49157E-04 3.53782E-04-4.93979E-16
 -1       385 1.41874E-03 4.73865E-04-1.51390E-15
 -1       386 1.69960E-03 5.09352E-04-2.24102E-15
 -1       387 1.97946E-03 5.34041E-04-3.11396E-15
 -1       388 2.25913E-03 5.50808E-04-4.13265E-15
 -1       389 2.53907E-03 5.61806E-04-5.29328E-15
 -1       390 2.81955E-03 5.68661E-04-6.59169E-15
 -1       391 3.10071E-03 5.72592E-04-8.02640E-15
 -1       392 3.38256E-03 5.74510E-04-9.59449E-15
 -1       393 3.65093E-03 5.75078E-04-1.12051E-14
 -1       394 3.93403E-03 5.74823E-04-1.30276E-14
 -1       395 4.21766E-03 5.74031E-04-1.49826E-14
 -1       396 4.50176E-03 5.72937E-04-1.70635E-14
 -1       397 4.78625E-03 5.71692E-04-1.92615E-14
 -1       398 5.07106E-03 5.70384E-04-2.15731E-14
 -1       399 5.35615E-03 5.69051E-04-2.39869E-14
 -1       400 5.64148E-03 5.67696E-04-2.64944E-14
 -1       401 5.92702E-03 5.66291E-04-2.90930E-14
 -1       402 6.21278E-03 5.64779E-04-3.17808E-14
 -1       403 6.49878E-03 5.63076E-04-3.45568E-14
 -1       404 6.78506E-03 5.61065E-04-3.74175E-14
 -1       405 7.07170E-03 5.58593E-04-4.03608E-14
 -1       406 7.34444E-03 5.55639E-04-4.32283E-14
 -1       407 7.63216E-03 5.51661E-04-4.63121E-14
 -1       408 7.92072E-03 5.46533E-04-4.94650E-14
 -1       409 8.21037E-03 5.40021E-04-5.26799E-14
 -1       410 8.50139E-03 5.32089E-04-5.59533E-14
 -1       411 8.79393E-03 5.23273E-04-5.92759E-14
 -1       412 9.08793E-03 5.15520E-04-6.26341E-14
 -1       413 9.38286E-03 5.13890E-04-6.60176E-14
 -1       414 9.67794E-03 5.29835E-04-6.94203E-14
 -1       415 9.97375E-03 5.86758E-04-7.28288E-14
 -1       416 1.02170E-02 6.92435E-04-7.55542E-14
 -1       417 1.49157E-02 1.52752E-03-9.98015E-14
 -1       418 1.09599E-02 1.40359E-03-8.17208E-14
 -1       419 1.42881E-02 1.82678E-03-9.79448E-14
 -1       420 1.50956E-02 1.65999E-03-1.04929E-13
 -1       421 1.54172E-02 1.80140E-03-1.08505E-13
 -1       422 1.57266E-02 1.99407E-03-1.12078E-13
 -1       423 1.60279E-02 2.20462E-03-1.15627E-13
 -1       424 1.63222E-02 2.41440E-03-1.19154E-13
 -1       425 1.64693E-02 2.52125E-03-1.21279E-13
 -1       426 1.61412E-02 2.36049E-03-1.21043E-13
 -1       427 1.63065E-02 2.43723E-03-1.21161E-13
 -1       428 1.59667E-02 2.30705E-03-1.21501E-13
 -1       429 1.57651E-02 2.25416E-03-1.21957E-13
 -1       430 1.55313E-02 2.19377E-03-1.22425E-13
 -1       431 1.52783E-02 2.12318E-03-1.22888E-13
 -1       432 1.50184E-02 2.04201E-03-1.23341E-13
 -1       433 1.47622E-02 1.95229E-03-1.23789E-13
 -1       434 1.45168E-02 1.85713E-03-1.24238E-13
 -1       435 1.42884E-02 1.76138E-03-1.24681E-13
 -1       436 1.40684E-02 1.66433E-03-1.25125E-13
 -1       437 1.38573E-02 1.56946E-03-1.25567E-13
 -1       438 1.36508E-02 1.47783E-03-1.26007E-13
 -1       439 1.45947E-02 1.69574E-03-9.80435E-14
 -1       440 1.50122E-02 1.39398E-03-1.01256E-13
 -1       441 4.45703E-04-1.26554E-04-2.65752E-16
 -1       442 1.47486E-02 1.62932E-03-1.01357E-13
 -1       443 1.41751E-02 1.95170E-03-9.62561E-14
 -1       444 1.03878E-02 1.00351E-03-7.99896E-14
 -1       445 9.96154E-03 8.01669E-04-7.91270E-14
 -1       446 9.72393E-03 6.93069E-04-7.86377E-14
 -1       447 9.69099E-03 6.52968E-04-7.88634E-14
 -1       448 9.83031E-03 5.92678E-04-7.96015E-14
 -1       449 1.01169E-02 4.96367E-04-8.06348E-14
 -1       450 1.05091E-02 3.46948E-04-8.24660E-14
 -1       451 1.08862E-02 1.96363E-04-8.41778E-14
 -1       452 1.12604E-02 5.89011E-05-8.63003E-14
 -1       453 1.16395E-02-2.06658E-05-8.87767E-14
 -1       454 1.19865E-02-2.20102E-08-9.12014E-14
 -1       455 1.23997E-02 1.53422E-04-9.38799E-14
 -1       456 1.27879E-02 3.70385E-04-9.59891E-14
 -1       457 1.34114E-02 7.26678E-04-9.83820E-14
 -1       458 1.38957E-02 9.68466E-04-9.96721E-14
 -1       459 1.43827E-02 1.17432E-03-1.00644E-13
 -1       460 1.47614E-02 1.32269E-03-1.01414E-13
 -1       461 1.50621E-02 1.44985E-03-1.00887E-13
 -1       462 1.38851E-02 2.13343E-03-9.53194E-14
 -1       463 1.18493E-02 2.27385E-03-8.52587E-14
 -1       464 1.06508E-02 9.72786E-04-7.86249E-14
 -1       465 1.30322E-02 5.75825E-04-9.80231E-14
 -1       466 1.13798E-02 1.82656E-03-8.34917E-14
 -1       467 1.49356E-02 1.43801E-03-1.03195E-13
 -1       468 6.65749E-04-7.54433E-05-5.99106E-16
 -1       469 6.69755E-04-1.16161E-04-5.93469E-16
 -1       470 6.63011E-04 6.70967E-07-5.93692E-16
 -1       471 6.63701E-04 3.82460E-05-5.84053E-16
 -1       472 6.65807E-04 7.61928E-05-5.69335E-16
 -1       473 6.69851E-04 1.16964E-04-5.48281E-16
 -1       474 6.76800E-04 1.61397E-04-5.18862E-16
 -1       475 6.88613E-04 2.11540E-04-4.76903E-16
 -1       476 7.62721E-04 2.77412E-04-4.97164E-16
 -1       477 9.76453E-04-3.28933E-04-9.58106E-16
 -1       478 7.12753E-04-2.51948E-04-5.43182E-16
 -1       479 1.26240E-03-3.83926E-04-1.56836E-15
 -1       480 1.54746E-03-4.23786E-04-2.32724E-15
 -1       481 1.83162E-03-4.51959E-04-3.23336E-15
 -1       482 2.11520E-03-4.71350E-04-4.28296E-15
 -1       483 2.39851E-03-4.84258E-04-5.47449E-15
 -1       484 2.68180E-03-4.92460E-04-6.80492E-15
 -1       485 2.96523E-03-4.97312E-04-8.27152E-15
 -1       486 3.24889E-03-4.99835E-04-9.87048E-15
 -1       487 3.53283E-03-5.00786E-04-1.15964E-14
 -1       488 3.81705E-03-5.00716E-04-1.34454E-14
 -1       489 4.10153E-03-5.00019E-04-1.54144E-14
 -1       490 4.38626E-03-4.98965E-04-1.75011E-14
 -1       491 4.67120E-03-4.97736E-04-1.97029E-14
 -1       492 4.95633E-03-4.96449E-04-2.20141E-14
 -1       493 5.24161E-03-4.95173E-04-2.44308E-14
 -1       494 5.52703E-03-4.93948E-04-2.69505E-14
 -1       495 5.81257E-03-4.92800E-04-2.95741E-14
 -1       496 6.09821E-03-4.91749E-04-3.22979E-14
 -1       497 6.38397E-03-4.90823E-04-3.51192E-14
 -1       498 6.66985E-03-4.90073E-04-3.80361E-14
 -1       499 6.95585E-03-4.89577E-04-4.10428E-14
 -1       500 7.24202E-03-4.89457E-04-4.41361E-14
 -1       501 7.52840E-03-4.89886E-04-4.73097E-14
 -1       502 7.81501E-03-4.91084E-04-5.05582E-14
 -1       503 8.10191E-03-4.93304E-04-5.38746E-14
 -1       504 8.38909E-03-4.96789E-04-5.72539E-14
 -1       505 8.67649E-03-5.01682E-04-6.06854E-14
 -1       506 8.96391E-03-5.07874E-04-6.41572E-14
 -1       507 9.25096E-03-5.14770E-04-6.76602E-14
 -1       508 9.53693E-03-5.20974E-04-7.11972E-14
 -1       509 9.82084E-03-5.23938E-04-7.47606E-14
 -1       510 1.01015E-02-5.19669E-04-7.83540E-14
 -1       511 1.03779E-02-5.02694E-04-8.19747E-14
 -1       512 1.06495E-02-4.66499E-04-8.56183E-14
 -1       513 1.09167E-02-4.04577E-04-8.92774E-14
 -1       514 1.11812E-02-3.11900E-04-9.29458E-14
 -1       515 1.14453E-02-1.86311E-04-9.66328E-14
 -1       516 1.17114E-02-2.91759E-05-1.00340E-13
 -1       517 1.19815E-02 1.55033E-04-1.04056E-13
 -1       518 1.22561E-02 3.60013E-04-1.07777E-13
 -1       519 1.25348E-02 5.79120E-04-1.11497E-13
 -1       520 1.28167E-02 8.06458E-04-1.15214E-13
 -1       521 1.31007E-02 1.03737E-03-1.18930E-13
 -1       522 1.33753E-02 1.25882E-03-1.22468E-13
 -1       523 1.53330E-03 4.22256E-04-2.00029E-15
 -1       524 1.50578E-02 1.55184E-03-1.03487E-13
 -1       525 1.81750E-03 4.50945E-04-2.81920E-15
 -1       526 2.10110E-03 4.70726E-04-3.78096E-15
 -1       527 2.38442E-03 4.83923E-04-4.88439E-15
 -1       528 2.66770E-03 4.92338E-04-6.12657E-15
 -1       529 2.95112E-03 4.97344E-04-7.50383E-15
 -1       530 3.23477E-03 4.99977E-04-9.01351E-15
 -1       531 3.50450E-03 5.00984E-04-1.05679E-14
 -1       532 3.78869E-03 5.01011E-04-1.23297E-14
 -1       533 4.07315E-03 5.00374E-04-1.42216E-14
 -1       534 4.35787E-03 4.99353E-04-1.62405E-14
 -1       535 4.64280E-03 4.98134E-04-1.83814E-14
 -1       536 4.92792E-03 4.96828E-04-2.06368E-14
 -1       537 5.21322E-03 4.95495E-04-2.29985E-14
 -1       538 5.49866E-03 4.94153E-04-2.54618E-14
 -1       539 5.78423E-03 4.92789E-04-2.80169E-14
 -1       540 6.06992E-03 4.91364E-04-3.06633E-14
 -1       541 6.35572E-03 4.89814E-04-3.33982E-14
 -1       542 6.64163E-03 4.88054E-04-3.62188E-14
 -1       543 6.92763E-03 4.85974E-04-3.91217E-14
 -1       544 7.19937E-03 4.83580E-04-4.19552E-14
 -1       545 7.48537E-03 4.80479E-04-4.50095E-14
 -1       546 7.77113E-03 4.76640E-04-4.81310E-14
 -1       547 8.05625E-03 4.71981E-04-5.13161E-14
 -1       548 8.33998E-03 4.66612E-04-5.45606E-14
 -1       549 8.62096E-03 4.61100E-04-5.78599E-14
 -1       550 8.89678E-03 4.56980E-04-6.12026E-14
 -1       551 9.16349E-03 4.57658E-04-6.45743E-14
 -1       552 9.41516E-03 4.69853E-04-6.79726E-14
 -1       553 9.64420E-03 5.05735E-04-7.13813E-14
 -1       554 9.80682E-03 5.65982E-04-7.41115E-14
 -1       555 1.52868E-02 1.66794E-03-1.07063E-13
 -1       556 1.61651E-02 2.32773E-03-1.19026E-13
 -1       557 1.56435E-02 2.11106E-03-1.18643E-13
 -1       558 1.54166E-02 2.05411E-03-1.19094E-13
 -1       559 1.58327E-02 2.16090E-03-1.18196E-13
 -1       560 1.51625E-02 1.98461E-03-1.19549E-13
 -1       561 1.48962E-02 1.90201E-03-1.19991E-13
 -1       562 1.46316E-02 1.80938E-03-1.20427E-13
 -1       563 1.43782E-02 1.71104E-03-1.20864E-13
 -1       564 1.41436E-02 1.61262E-03-1.21289E-13
 -1       565 1.39197E-02 1.51351E-03-1.21724E-13
 -1       566 1.37076E-02 1.41713E-03-1.22156E-13
 -1       567 1.35404E-02 1.33684E-03-1.22314E-13
 -1       568 9.70827E-03 5.90300E-04-7.73374E-14
 -1       569 9.81620E-03 6.61056E-04-7.72400E-14
 -1       570 1.21228E-02 5.68195E-05-9.29620E-14
 -1       571 1.01973E-02 7.75819E-04-7.77481E-14
 -1       572 1.57869E-02 2.04032E-03-1.14229E-13
 -1       573 1.55286E-02 1.83921E-03-1.10665E-13
 -1       574 1.04851E-03 3.46191E-04-9.33007E-16
 -1       575 6.63651E-04-3.68859E-05-5.98700E-16
 -1       576 1.29122E-03 3.89597E-04-1.41520E-15
 -1       577 9.92192E-03 5.40355E-04-7.84795E-14
 -1       578 1.50913E-02 1.47208E-03-1.03113E-13
 -1       579 1.45523E-02 1.33493E-03-1.02704E-13
 -1       580 9.66245E-03 6.08735E-04-7.67933E-14
 -1       581 1.36158E-02 9.47206E-04-1.00759E-13
 -1       582 1.02995E-02 4.12957E-04-8.01264E-14
 -1       583 1.06607E-02 2.74483E-04-8.21613E-14
 -1       584 1.10442E-02 1.08220E-04-8.43799E-14
 -1       585 1.14167E-02-1.48615E-05-8.71135E-14
 -1       586 1.17448E-02-4.31444E-05-8.98492E-14
 -1       587 1.25163E-02 2.70532E-04-9.57101E-14
 -1       588 1.41209E-02 1.17640E-03-1.01880E-13
 -1       589 1.50527E-02 1.50158E-03-1.02385E-13
 -1       590 1.47743E-02 1.58518E-03-1.00409E-13
 -1       591 6.76595E-04-1.60361E-04-5.79631E-16
 -1       592 1.60031E-02 2.24108E-03-1.18610E-13
 -1       593 1.47886E-02 1.45469E-03-1.04484E-13
 -1       594 1.32737E-02 7.90817E-04-1.00401E-13
 -1       595 1.27498E-02 4.50405E-04-9.77468E-14
 -1       596 8.99494E-04 7.34170E-05-9.92841E-16
 -1       597 8.97447E-04 2.45845E-05-1.01201E-15
 -1       598 9.11409E-04 1.77262E-04-9.27382E-16
 -1       599 9.23718E-04 2.35664E-04-8.74887E-16
 -1       600 9.83530E-04 2.88532E-04-9.10442E-16
 -1       601 8.72416E-04-2.47449E-04-8.59545E-16
 -1       602 2.22762E-03 4.04955E-04-4.47102E-15
 -1       603 1.38338E-03-3.37544E-04-1.99763E-15
 -1       604 1.66959E-03-3.68569E-04-2.83779E-15
 -1       605 1.95581E-03-3.90464E-04-3.82080E-15
 -1       606 2.24185E-03-4.05385E-04-4.94437E-15
 -1       607 2.52771E-03-4.15130E-04-6.20536E-15
 -1       608 2.81343E-03-4.21123E-04-7.60210E-15
 -1       609 3.09905E-03-4.24467E-04-9.13053E-15
 -1       610 3.38462E-03-4.25994E-04-1.07865E-14
 -1       611 3.67017E-03-4.26317E-04-1.25676E-14
 -1       612 3.95572E-03-4.25878E-04-1.44694E-14
 -1       613 4.24127E-03-4.24991E-04-1.64906E-14
 -1       614 4.52685E-03-4.23866E-04-1.86278E-14
 -1       615 4.81244E-03-4.22640E-04-2.08764E-14
 -1       616 5.09805E-03-4.21398E-04-2.32344E-14
 -1       617 5.38369E-03-4.20187E-04-2.56980E-14
 -1       618 5.66934E-03-4.19033E-04-2.82628E-14
 -1       619 5.95503E-03-4.17949E-04-3.09306E-14
 -1       620 6.24077E-03-4.16948E-04-3.36960E-14
 -1       621 6.52657E-03-4.16052E-04-3.65559E-14
 -1       622 6.81250E-03-4.15303E-04-3.95076E-14
 -1       623 7.09862E-03-4.14773E-04-4.25448E-14
 -1       624 7.38505E-03-4.14573E-04-4.56654E-14
 -1       625 7.67195E-03-4.14863E-04-4.88659E-14
 -1       626 7.95953E-03-4.15857E-04-5.21346E-14
 -1       627 8.24804E-03-4.17808E-04-5.54670E-14
 -1       628 8.53778E-03-4.20973E-04-5.88564E-14
 -1       629 8.82896E-03-4.25534E-04-6.22951E-14
 -1       630 9.12163E-03-4.31436E-04-6.57694E-14
 -1       631 9.41555E-03-4.38121E-04-6.92737E-14
 -1       632 9.70993E-03-4.44127E-04-7.28090E-14
 -1       633 1.00035E-02-4.46591E-04-7.63722E-14
 -1       634 1.02944E-02-4.40806E-04-7.99643E-14
 -1       635 1.05811E-02-4.20137E-04-8.35808E-14
 -1       636 1.08628E-02-3.76711E-04-8.72167E-14
 -1       637 1.11401E-02-3.03083E-04-9.08661E-14
 -1       638 1.14155E-02-1.94406E-04-9.45328E-14
 -1       639 1.16919E-02-5.01611E-05-9.82167E-14
 -1       640 1.19720E-02 1.25670E-04-1.01912E-13
 -1       641 1.22568E-02 3.26025E-04-1.05615E-13
 -1       642 1.25456E-02 5.42984E-04-1.09319E-13
 -1       643 1.28368E-02 7.69570E-04-1.13019E-13
 -1       644 1.31286E-02 1.00058E-03-1.16717E-13
 -1       645 1.33351E-02 1.16894E-03-1.19515E-13
 -1       646 1.51635E-02 1.53961E-03-1.04749E-13
 -1       647 1.65535E-03 3.67428E-04-2.51700E-15
 -1       648 2.51349E-03 4.14933E-04-5.65638E-15
 -1       649 2.79921E-03 4.21098E-04-6.97747E-15
 -1       650 3.08484E-03 4.24565E-04-8.43069E-15
 -1       651 3.35613E-03 4.26133E-04-9.93144E-15
 -1       652 3.64169E-03 4.26566E-04-1.16342E-14
 -1       653 3.92725E-03 4.26199E-04-1.34660E-14
 -1       654 4.21282E-03 4.25354E-04-1.54236E-14
 -1       655 4.49841E-03 4.24248E-04-1.75043E-14
 -1       656 4.78403E-03 4.23018E-04-1.97043E-14
 -1       657 5.06967E-03 4.21747E-04-2.20140E-14
 -1       658 5.35534E-03 4.20469E-04-2.44269E-14
 -1       659 5.64104E-03 4.19191E-04-2.69390E-14
 -1       660 5.92674E-03 4.17892E-04-2.95425E-14
 -1       661 6.21244E-03 4.16536E-04-3.22365E-14
 -1       662 6.49810E-03 4.15073E-04-3.50180E-14
 -1       663 6.78364E-03 4.13444E-04-3.78831E-14
 -1       664 7.05469E-03 4.11689E-04-4.06815E-14
 -1       665 7.33955E-03 4.09584E-04-4.37028E-14
 -1       666 7.62358E-03 4.07219E-04-4.67963E-14
 -1       667 7.90610E-03 4.04707E-04-4.99537E-14
 -1       668 8.18600E-03 4.02389E-04-5.31717E-14
 -1       669 8.46143E-03 4.01045E-04-5.64465E-14
 -1       670 8.72944E-03 4.02238E-04-5.97679E-14
 -1       671 8.98538E-03 4.08842E-04-6.31283E-14
 -1       672 9.22231E-03 4.25688E-04-6.65175E-14
 -1       673 9.43022E-03 4.60141E-04-6.99215E-14
 -1       674 9.56686E-03 5.06583E-04-7.26547E-14
 -1       675 1.47805E-02 1.77647E-03-1.16648E-13
 -1       676 1.12700E-03-2.97503E-04-1.37067E-15
 -1       677 9.75009E-03 5.30062E-04-7.61910E-14
 -1       678 1.53154E-02 1.92346E-03-1.15776E-13
 -1       679 1.55317E-02 1.97088E-03-1.15332E-13
 -1       680 1.50580E-02 1.85942E-03-1.16216E-13
 -1       681 1.45030E-02 1.67902E-03-1.17075E-13
 -1       682 1.42385E-02 1.57403E-03-1.17500E-13
 -1       683 1.39964E-02 1.46933E-03-1.17915E-13
 -1       684 1.37683E-02 1.36511E-03-1.18334E-13
 -1       685 1.35553E-02 1.26509E-03-1.18751E-13
 -1       686 1.53487E-02 1.70928E-03-1.09017E-13
 -1       687 1.50688E-02 1.51956E-03-1.05012E-13
 -1       688 9.03893E-04 1.23802E-04-9.65353E-16
 -1       689 1.55560E-02 1.88993E-03-1.12589E-13
 -1       690 1.00097E-02 4.44502E-04-7.72613E-14
 -1       691 1.18659E-02-1.88342E-05-9.16564E-14
 -1       692 9.03750E-04-1.22597E-04-1.02418E-15
 -1       693 1.22592E-02 1.63142E-04-9.51134E-14
 -1       694 1.39023E-02 1.16033E-03-1.03400E-13
 -1       695 1.04339E-02 3.00113E-04-7.98071E-14
 -1       696 1.07716E-02 1.59634E-04-8.20053E-14
 -1       697 1.11604E-02 1.31144E-05-8.50129E-14
 -1       698 9.61499E-03 5.49979E-04-7.51344E-14
 -1       699 1.94157E-03 3.89720E-04-3.42372E-15
 -1       700 1.15042E-02-6.28267E-05-8.81612E-14
 -1       701 1.43534E-02 1.33785E-03-1.04159E-13
 -1       702 9.62466E-03 5.52837E-04-7.47225E-14
 -1       703 1.22581E-03 3.30756E-04-1.38746E-15
 -1       704 8.97427E-04-2.36688E-05-1.02371E-15
 -1       705 8.99417E-04-7.22710E-05-1.02791E-15
 -1       706 9.11201E-04-1.75943E-04-1.01009E-15
 -1       707 1.57075E-02 2.04146E-03-1.15754E-13
 -1       708 1.49782E-02 1.54738E-03-1.06303E-13
 -1       709 1.46290E-02 1.46619E-03-1.05941E-13
 -1       710 1.35853E-02 1.01787E-03-1.03048E-13
 -1       711 1.29959E-02 6.51511E-04-1.00131E-13
 -1       712 1.24698E-02 3.09406E-04-9.71546E-14
 -1       713 1.44042E-03 3.52686E-04-1.91001E-15
 -1       714 1.16436E-03 2.75093E-04-1.34544E-15
 -1       715 1.12078E-02-7.07766E-05-8.57505E-14
 -1       716 2.64603E-03 3.44128E-04-6.44936E-15
 -1       717 1.53342E-02 1.77644E-03-1.11155E-13
 -1       718 1.78295E-03 3.09342E-04-3.06300E-15
 -1       719 1.79727E-03-3.10159E-04-3.36686E-15
 -1       720 2.08491E-03-3.26351E-04-4.42297E-15
 -1       721 2.37268E-03-3.37248E-04-5.61664E-15
 -1       722 2.66035E-03-3.44205E-04-6.94435E-15
 -1       723 2.94782E-03-3.48321E-04-8.40372E-15
 -1       724 3.23505E-03-3.50446E-04-9.99040E-15
 -1       725 3.52204E-03-3.51224E-04-1.17031E-14
 -1       726 3.80879E-03-3.51128E-04-1.35376E-14
 -1       727 4.09534E-03-3.50497E-04-1.54917E-14
 -1       728 4.38170E-03-3.49563E-04-1.75651E-14
 -1       729 4.66791E-03-3.48482E-04-1.97515E-14
 -1       730 4.95399E-03-3.47351E-04-2.20487E-14
 -1       731 5.23996E-03-3.46226E-04-2.44550E-14
 -1       732 5.52584E-03-3.45134E-04-2.69639E-14
 -1       733 5.81166E-03-3.44086E-04-2.95760E-14
 -1       734 6.09744E-03-3.43081E-04-3.22862E-14
 -1       735 6.38322E-03-3.42117E-04-3.50927E-14
 -1       736 6.66907E-03-3.41200E-04-3.79881E-14
 -1       737 6.95508E-03-3.40348E-04-4.09725E-14
 -1       738 7.24139E-03-3.39602E-04-4.40395E-14
 -1       739 7.52824E-03-3.39039E-04-4.71890E-14
 -1       740 7.81593E-03-3.38781E-04-5.04129E-14
 -1       741 8.10491E-03-3.39014E-04-5.36990E-14
 -1       742 8.39570E-03-3.39995E-04-5.70459E-14
 -1       743 8.68892E-03-3.42042E-04-6.04463E-14
 -1       744 8.98514E-03-3.45486E-04-6.38906E-14
 -1       745 9.28468E-03-3.50514E-04-6.73683E-14
 -1       746 9.58737E-03-3.56846E-04-7.08736E-14
 -1       747 9.89218E-03-3.63166E-04-7.44059E-14
 -1       748 1.01971E-02-3.66319E-04-7.79682E-14
 -1       749 1.04994E-02-3.60511E-04-8.15575E-14
 -1       750 1.07966E-02-3.37103E-04-8.51680E-14
 -1       751 1.10879E-02-2.85901E-04-8.87947E-14
 -1       752 1.13747E-02-1.98061E-04-9.24423E-14
 -1       753 1.16610E-02-6.95944E-05-9.61046E-14
 -1       754 1.19507E-02 9.69198E-05-9.97835E-14
 -1       755 1.22459E-02 2.93340E-04-1.03469E-13
 -1       756 1.25461E-02 5.09498E-04-1.07158E-13
 -1       757 1.28487E-02 7.36343E-04-1.10842E-13
 -1       758 1.31511E-02 9.67598E-04-1.14525E-13
 -1       759 2.93351E-03 3.48375E-04-7.84639E-15
 -1       760 9.53809E-03 5.04213E-04-7.30623E-14
 -1       761 2.35835E-03 3.36990E-04-5.18480E-15
 -1       762 3.20640E-03 3.50521E-04-9.29344E-15
 -1       763 3.49342E-03 3.51421E-04-1.09406E-14
 -1       764 3.78020E-03 3.51405E-04-1.27130E-14
 -1       765 4.06679E-03 3.50823E-04-1.46112E-14
 -1       766 4.35319E-03 3.49915E-04-1.66327E-14
 -1       767 4.63944E-03 3.48842E-04-1.87751E-14
 -1       768 4.92557E-03 3.47702E-04-2.10313E-14
 -1       769 5.21159E-03 3.46549E-04-2.33936E-14
 -1       770 5.49751E-03 3.45406E-04-2.58587E-14
 -1       771 5.78334E-03 3.44273E-04-2.84195E-14
 -1       772 6.06905E-03 3.43137E-04-3.10714E-14
 -1       773 6.35460E-03 3.41981E-04-3.38132E-14
 -1       774 6.63992E-03 3.40794E-04-3.66416E-14
 -1       775 6.91062E-03 3.39641E-04-3.94063E-14
 -1       776 7.19495E-03 3.38449E-04-4.23940E-14
 -1       777 7.47826E-03 3.37401E-04-4.54592E-14
 -1       778 7.75986E-03 3.36764E-04-4.85890E-14
 -1       779 8.03871E-03 3.37058E-04-5.17822E-14
 -1       780 8.31316E-03 3.39220E-04-5.50355E-14
 -1       781 8.58070E-03 3.44865E-04-5.83340E-14
 -1       782 8.83765E-03 3.56608E-04-6.16773E-14
 -1       783 9.07875E-03 3.78385E-04-6.50556E-14
 -1       784 9.29678E-03 4.15488E-04-6.84587E-14
 -1       785 9.42803E-03 4.55216E-04-7.07590E-14
 -1       786 1.43767E-02 1.55992E-03-1.13736E-13
 -1       787 1.40951E-02 1.44556E-03-1.14155E-13
 -1       788 1.51809E-02 1.63906E-03-1.08085E-13
 -1       789 1.46758E-02 1.66313E-03-1.13319E-13
 -1       790 1.38425E-02 1.33162E-03-1.14562E-13
 -1       791 1.36095E-02 1.21988E-03-1.14967E-13
 -1       792 9.75517E-03 4.47642E-04-7.46683E-14
 -1       793 1.20017E-02 5.30762E-05-9.38926E-14
 -1       794 2.07058E-03 3.25852E-04-4.05506E-15
 -1       795 1.42228E-02 1.35651E-03-1.06369E-13
 -1       796 1.52365E-02 1.80017E-03-1.12512E-13
 -1       797 1.51019E-03-2.87091E-04-2.44991E-15
 -1       798 1.13794E-03 5.83173E-05-1.52963E-15
 -1       799 1.49739E-02 1.74524E-03-1.12921E-13
 -1       800 9.60262E-03 4.94308E-04-7.38652E-14
 -1       801 1.08544E-02 3.15360E-05-8.23753E-14
 -1       802 1.16018E-02-7.84451E-05-8.98790E-14
 -1       803 1.04875E-02 1.80099E-04-7.94072E-14
 -1       804 1.01096E-02 3.14297E-04-7.66664E-14
 -1       805 1.13662E-03 5.44957E-07-1.55124E-15
 -1       806 1.49599E-03 2.85883E-04-2.20990E-15
 -1       807 1.25388E-03-2.56692E-04-1.75098E-15
 -1       808 1.14915E-03-1.76598E-04-1.55301E-15
 -1       809 1.21924E-02 1.63631E-04-9.59377E-14
 -1       810 9.82761E-03 3.40117E-04-7.40705E-14
 -1       811 1.33959E-02 1.11446E-03-1.15369E-13
 -1       812 1.39367E-02 1.23900E-03-1.06022E-13
 -1       813 1.33083E-02 8.78673E-04-1.02785E-13
 -1       814 1.27029E-02 4.87566E-04-9.95432E-14
 -1       815 1.14200E-03 1.16966E-04-1.49715E-15
 -1       816 1.14188E-03-1.15709E-04-1.56395E-15
 -1       817 1.14933E-03 1.77885E-04-1.45248E-15
 -1       818 1.13789E-03-5.70916E-05-1.56295E-15
 -1       819 1.36782E-02 1.19690E-03-1.11218E-13
 -1       820 1.62714E-03 2.31565E-04-2.70176E-15
 -1       821 3.06322E-03 2.74372E-04-8.69357E-15
 -1       822 2.21813E-03-2.59710E-04-5.03978E-15
 -1       823 2.50715E-03-2.67119E-04-6.29983E-15
 -1       824 2.79611E-03-2.71718E-04-7.69081E-15
 -1       825 3.08482E-03-2.74303E-04-9.21042E-15
 -1       826 3.37317E-03-2.75493E-04-1.08545E-14
 -1       827 3.66114E-03-2.75754E-04-1.26217E-14
 -1       828 3.94873E-03-2.75427E-04-1.45096E-14
 -1       829 4.23596E-03-2.74751E-04-1.65166E-14
 -1       830 4.52288E-03-2.73888E-04-1.86408E-14
 -1       831 4.80952E-03-2.72943E-04-2.08774E-14
 -1       832 5.09592E-03-2.71978E-04-2.32236E-14
 -1       833 5.38211E-03-2.71022E-04-2.56775E-14
 -1       834 5.66813E-03-2.70085E-04-2.82342E-14
 -1       835 5.95403E-03-2.69158E-04-3.08891E-14
 -1       836 6.23983E-03-2.68223E-04-3.36419E-14
 -1       837 6.52561E-03-2.67254E-04-3.64861E-14
 -1       838 6.81146E-03-2.66225E-04-3.94177E-14
 -1       839 7.09753E-03-2.65108E-04-4.24327E-14
 -1       840 7.38404E-03-2.63887E-04-4.55304E-14
 -1       841 7.67134E-03-2.62570E-04-4.87074E-14
 -1       842 7.95993E-03-2.61213E-04-5.19522E-14
 -1       843 8.25048E-03-2.59958E-04-5.52567E-14
 -1       844 8.54388E-03-2.59079E-04-5.86167E-14
 -1       845 8.84113E-03-2.59038E-04-6.20258E-14
 -1       846 9.14326E-03-2.60490E-04-6.54738E-14
 -1       847 9.45096E-03-2.64157E-04-6.89528E-14
 -1       848 9.76415E-03-2.70421E-04-7.24577E-14
 -1       849 1.00814E-02-2.78410E-04-7.59912E-14
 -1       850 1.03995E-02-2.84625E-04-7.95488E-14
 -1       851 1.07144E-02-2.81322E-04-8.31328E-14
 -1       852 1.10224E-02-2.56183E-04-8.67338E-14
 -1       853 1.13231E-02-1.95267E-04-9.03618E-14
 -1       854 1.16201E-02-8.79512E-05-9.40062E-14
 -1       855 1.19194E-02 6.64188E-05-9.76677E-14
 -1       856 1.22253E-02 2.59482E-04-1.01340E-13
 -1       857 1.25381E-02 4.77236E-04-1.05011E-13
 -1       858 1.28545E-02 7.06718E-04-1.08681E-13
 -1       859 1.31276E-02 9.10794E-04-1.12026E-13
 -1       860 3.35161E-03 2.75658E-04-1.02878E-14
 -1       861 2.49274E-03 2.67010E-04-5.92177E-15
 -1       862 3.63962E-03 2.75984E-04-1.20071E-14
 -1       863 3.92725E-03 2.75698E-04-1.38497E-14
 -1       864 4.21453E-03 2.75046E-04-1.58168E-14
 -1       865 4.50150E-03 2.74195E-04-1.79042E-14
 -1       866 4.78819E-03 2.73253E-04-2.01083E-14
 -1       867 5.07464E-03 2.72285E-04-2.24218E-14
 -1       868 5.36087E-03 2.71327E-04-2.48413E-14
 -1       869 5.64690E-03 2.70395E-04-2.73599E-14
 -1       870 5.93273E-03 2.69496E-04-2.99735E-14
 -1       871 6.21832E-03 2.68639E-04-3.26756E-14
 -1       872 6.50361E-03 2.67845E-04-3.54672E-14
 -1       873 6.77424E-03 2.67197E-04-3.82012E-14
 -1       874 7.05849E-03 2.66730E-04-4.11572E-14
 -1       875 7.34176E-03 2.66681E-04-4.41907E-14
 -1       876 7.62352E-03 2.67405E-04-4.72954E-14
 -1       877 7.90297E-03 2.69502E-04-5.04661E-14
 -1       878 8.17894E-03 2.73951E-04-5.36993E-14
 -1       879 8.44974E-03 2.82284E-04-5.69832E-14
 -1       880 8.71311E-03 2.96783E-04-6.03080E-14
 -1       881 8.96621E-03 3.20601E-04-6.36752E-14
 -1       882 9.20575E-03 3.57552E-04-6.70720E-14
 -1       883 1.34388E-02 1.07596E-03-1.11617E-13
 -1       884 1.39512E-02 1.32503E-03-1.10814E-13
 -1       885 2.20372E-03 2.59425E-04-4.71331E-15
 -1       886 1.50588E-02 1.66227E-03-1.09438E-13
 -1       887 1.17268E-02-4.75054E-05-9.23275E-14
 -1       888 1.64147E-03-2.32397E-04-2.92435E-15
 -1       889 1.08784E-02-8.51811E-05-8.29158E-14
 -1       890 1.42607E-02 1.45169E-03-1.10406E-13
 -1       891 1.92937E-03-2.48514E-04-3.91387E-15
 -1       892 1.91501E-03 2.47998E-04-3.63934E-15
 -1       893 1.48927E-02 1.60220E-03-1.08578E-13
 -1       894 1.01593E-02 1.74663E-04-7.62481E-14
 -1       895 1.05242E-02 4.79399E-05-7.93956E-14
 -1       896 1.45567E-02 1.52677E-03-1.09013E-13
 -1       897 2.77810E-03 2.71695E-04-7.24460E-15
 -1       898 1.13033E-02-1.29001E-04-8.74966E-14
 -1       899 1.40331E-03-2.02395E-04-2.21660E-15
 -1       900 9.48518E-03 4.39316E-04-7.15540E-14
 -1       901 1.38066E-03 3.33367E-05-2.17644E-15
 -1       902 1.24082E-02 3.12253E-04-9.83278E-14
 -1       903 9.35154E-03 3.94709E-04-6.93092E-14
 -1       904 1.19022E-02 2.93280E-05-9.43771E-14
 -1       905 9.87735E-03 2.15030E-04-7.36458E-14
 -1       906 1.42996E-02 1.43342E-03-1.08675E-13
 -1       907 1.36687E-02 1.11396E-03-1.05765E-13
 -1       908 1.29999E-02 7.03770E-04-1.02206E-13
 -1       909 1.38376E-03 9.89835E-05-2.14109E-15
 -1       910 9.60383E-03 3.96851E-04-7.23480E-14
 -1       911 1.39487E-03-1.33956E-04-2.23025E-15
 -1       912 2.06527E-03-1.83664E-04-4.47710E-15
 -1       913 1.09710E-02-1.81018E-04-8.46986E-14
 -1       914 3.20252E-03 1.99449E-04-9.59389E-15
 -1       915 1.05109E-02-8.45949E-05-7.94624E-14
 -1       916 1.38064E-03-3.19531E-05-2.19865E-15
 -1       917 2.64484E-03-1.95189E-04-6.99274E-15
 -1       918 2.93467E-03-1.97896E-04-8.44401E-15
 -1       919 3.22418E-03-1.99312E-04-1.00213E-14
 -1       920 3.51324E-03-1.99848E-04-1.17216E-14
 -1       921 3.80182E-03-1.99808E-04-1.35433E-14
 -1       922 4.08991E-03-1.99413E-04-1.54838E-14
 -1       923 4.37755E-03-1.98816E-04-1.75439E-14
 -1       924 4.66479E-03-1.98116E-04-1.97193E-14
 -1       925 4.95166E-03-1.97376E-04-2.20064E-14
 -1       926 5.23822E-03-1.96625E-04-2.44037E-14
 -1       927 5.52451E-03-1.95872E-04-2.69041E-14
 -1       928 5.81057E-03-1.95106E-04-2.95058E-14
 -1       929 6.09645E-03-1.94300E-04-3.22045E-14
 -1       930 6.38220E-03-1.93408E-04-3.49961E-14
 -1       931 6.66791E-03-1.92372E-04-3.78786E-14
 -1       932 6.95367E-03-1.91111E-04-4.08458E-14
 -1       933 7.23970E-03-1.89530E-04-4.38921E-14
 -1       934 7.52627E-03-1.87520E-04-4.70181E-14
 -1       935 7.81384E-03-1.84984E-04-5.02200E-14
 -1       936 8.10310E-03-1.81872E-04-5.34832E-14
 -1       937 8.39499E-03-1.78258E-04-5.68041E-14
 -1       938 8.69079E-03-1.74455E-04-6.01771E-14
 -1       939 8.99205E-03-1.71167E-04-6.35940E-14
 -1       940 9.30043E-03-1.69624E-04-6.70452E-14
 -1       941 9.61725E-03-1.71525E-04-7.05233E-14
 -1       942 9.94266E-03-1.78555E-04-7.40280E-14
 -1       943 1.02747E-02-1.90660E-04-7.75596E-14
 -1       944 1.06085E-02-2.03956E-04-8.11138E-14
 -1       945 1.15686E-02-1.03737E-04-9.19176E-14
 -1       946 1.25233E-02 4.43535E-04-1.02873E-13
 -1       947 1.28561E-02 6.79796E-04-1.06528E-13
 -1       948 1.31459E-02 8.78640E-04-1.09079E-13
 -1       949 4.06840E-03 1.99675E-04-1.49531E-14
 -1       950 3.49163E-03 2.00046E-04-1.12572E-14
 -1       951 4.35609E-03 1.99092E-04-1.69834E-14
 -1       952 4.64338E-03 1.98401E-04-1.91317E-14
 -1       953 4.93030E-03 1.97671E-04-2.13929E-14
 -1       954 5.21690E-03 1.96944E-04-2.37630E-14
 -1       955 5.50321E-03 1.96245E-04-2.62341E-14
 -1       956 5.78924E-03 1.95595E-04-2.88057E-14
 -1       957 6.07498E-03 1.95018E-04-3.14687E-14
 -1       958 6.36039E-03 1.94555E-04-3.42215E-14
 -1       959 6.63115E-03 1.94291E-04-3.69190E-14
 -1       960 6.91561E-03 1.94326E-04-3.98409E-14
 -1       961 7.19929E-03 1.94903E-04-4.28419E-14
 -1       962 7.48184E-03 1.96390E-04-4.59171E-14
 -1       963 7.76277E-03 1.99369E-04-4.90629E-14
 -1       964 8.04140E-03 2.04726E-04-5.22731E-14
 -1       965 8.31689E-03 2.13759E-04-5.55397E-14
 -1       966 8.58825E-03 2.28268E-04-5.88508E-14
 -1       967 8.85459E-03 2.50539E-04-6.22036E-14
 -1       968 9.11560E-03 2.82988E-04-6.55917E-14
 -1       969 1.33691E-02 9.98925E-04-1.08695E-13
 -1       970 1.39025E-03 1.66292E-04-2.09140E-15
 -1       971 1.36299E-02 1.13254E-03-1.08300E-13
 -1       972 2.34045E-03 1.90555E-04-5.39719E-15
 -1       973 3.78025E-03 2.00046E-04-1.30441E-14
 -1       974 2.35491E-03-1.90661E-04-5.66946E-15
 -1       975 1.63186E-03-1.58373E-04-2.94242E-15
 -1       976 1.38679E-03-8.25098E-05-2.21878E-15
 -1       977 9.54987E-03 2.93970E-04-7.07476E-14
 -1       978 1.01773E-02 3.04107E-05-7.60871E-14
 -1       979 1.84812E-03-1.71883E-04-3.67153E-15
 -1       980 1.66207E-03 1.58295E-04-2.91595E-15
 -1       981 1.62883E-03 7.23145E-05-2.89464E-15
 -1       982 2.91660E-03 1.97969E-04-8.07503E-15
 -1       983 9.43842E-03 3.55470E-04-7.00280E-14
 -1       984 1.26829E-02 5.07329E-04-1.00994E-13
 -1       985 1.12576E-02-1.80062E-04-8.82926E-14
 -1       986 1.22117E-02 2.22862E-04-9.87396E-14
 -1       987 2.05083E-03 1.83387E-04-4.24445E-15
 -1       988 2.62675E-03 1.95155E-04-6.66409E-15
 -1       989 1.38041E-02 1.20586E-03-1.07484E-13
 -1       990 9.90961E-03 7.70467E-05-7.34798E-14
 -1       991 9.27944E-03 3.16457E-04-6.78074E-14
 -1       992 1.33533E-02 9.45160E-04-1.05194E-13
 -1       993 1.62713E-03 6.84090E-07-2.93055E-15
 -1       994 2.49486E-03-1.19408E-04-6.31068E-15
 -1       995 3.07571E-03-1.22995E-04-9.20295E-15
 -1       996 3.36564E-03-1.23604E-04-1.08378E-14
 -1       997 3.65504E-03-1.23750E-04-1.25932E-14
 -1       998 3.94389E-03-1.23601E-04-1.44689E-14
 -1       999 4.23220E-03-1.23276E-04-1.64638E-14
 -1      1000 4.52000E-03-1.22854E-04-1.85765E-14
 -1      1001 4.80734E-03-1.22385E-04-2.08036E-14
 -1      1002 5.09428E-03-1.21894E-04-2.31416E-14
 -1      1003 5.38086E-03-1.21388E-04-2.55880E-14
 -1      1004 5.66713E-03-1.20855E-04-2.81352E-14
 -1      1005 5.95313E-03-1.20266E-04-3.07808E-14
 -1      1006 6.23891E-03-1.19570E-04-3.35202E-14
 -1      1007 6.52452E-03-1.18690E-04-3.63506E-14
 -1      1008 6.81003E-03-1.17519E-04-3.92694E-14
 -1      1009 7.09556E-03-1.15907E-04-4.22688E-14
 -1      1010 7.38130E-03-1.13660E-04-4.53471E-14
 -1      1011 7.66759E-03-1.10541E-04-4.85016E-14
 -1      1012 7.95496E-03-1.06298E-04-5.17250E-14
 -1      1013 8.24422E-03-1.00722E-04-5.50067E-14
 -1      1014 8.53661E-03-9.37717E-05-5.83428E-14
 -1      1015 8.83386E-03-8.57899E-05-6.17267E-14
 -1      1016 9.13825E-03-7.78550E-05-6.51485E-14
 -1      1017 9.45239E-03-7.20503E-05-6.86002E-14
 -1      1018 9.77874E-03-7.17564E-05-7.20755E-14
 -1      1019 1.89294E-03 1.16837E-04-3.74622E-15
 -1      1020 1.30591E-02 7.93190E-04-1.06158E-13
 -1      1021 3.34394E-03 1.23783E-04-1.05124E-14
 -1      1022 4.78589E-03 1.22653E-04-2.03688E-14
 -1      1023 5.07287E-03 1.22193E-04-2.26876E-14
 -1      1024 5.35948E-03 1.21755E-04-2.51126E-14
 -1      1025 5.64576E-03 1.21364E-04-2.76386E-14
 -1      1026 5.93170E-03 1.21052E-04-3.02602E-14
 -1      1027 6.21731E-03 1.20867E-04-3.29739E-14
 -1      1028 6.48830E-03 1.20883E-04-3.56366E-14
 -1      1029 6.77310E-03 1.21229E-04-3.85214E-14
 -1      1030 7.05734E-03 1.22124E-04-4.14897E-14
 -1      1031 7.34083E-03 1.23899E-04-4.45352E-14
 -1      1032 7.62335E-03 1.27057E-04-4.76528E-14
 -1      1033 7.90464E-03 1.32325E-04-5.08402E-14
 -1      1034 8.18445E-03 1.40710E-04-5.40866E-14
 -1      1035 8.46268E-03 1.53518E-04-5.73821E-14
 -1      1036 8.73962E-03 1.72257E-04-6.07247E-14
 -1      1037 9.01647E-03 1.98256E-04-6.41048E-14
 -1      1038 4.49850E-03 1.23109E-04-1.81611E-14
 -1      1039 2.20453E-03-1.15766E-04-5.05508E-15
 -1      1040 1.62295E-03-1.02420E-04-2.93009E-15
 -1      1041 9.55847E-03 1.76191E-04-7.01514E-14
 -1      1042 2.78538E-03-1.21695E-04-7.69358E-15
 -1      1043 1.00681E-02-7.83321E-05-7.50668E-14
 -1      1044 4.21065E-03 1.23522E-04-1.60686E-14
 -1      1045 9.37114E-03 2.58621E-04-6.85169E-14
 -1      1046 1.30184E-02 7.42588E-04-1.03995E-13
 -1      1047 3.92230E-03 1.23835E-04-1.40954E-14
 -1      1048 2.18237E-03 1.22758E-04-4.83797E-15
 -1      1049 3.63339E-03 1.23962E-04-1.22430E-14
 -1      1050 3.05760E-03 1.23136E-04-8.92517E-15
 -1      1051 1.31787E-02 8.51511E-04-1.05356E-13
 -1      1052 1.88942E-03 3.99632E-05-3.79944E-15
 -1      1053 1.98698E-03-1.07347E-04-4.19968E-15
 -1      1054 1.80456E-03-1.05452E-04-3.53785E-15
 -1      1055 1.62416E-03-5.07938E-05-2.93458E-15
 -1      1056 9.19398E-03 2.26590E-04-6.63068E-14
 -1      1057 2.46898E-03 1.26722E-04-6.04482E-15
 -1      1058 3.50887E-03-4.74442E-05-1.16591E-14
 -1      1059 3.79830E-03-4.74367E-05-1.34704E-14
 -1      1060 4.08713E-03-4.73390E-05-1.54002E-14
 -1      1061 4.37540E-03-4.71887E-05-1.74486E-14
 -1      1062 4.66315E-03-4.70091E-05-1.96146E-14
 -1      1063 4.95042E-03-4.68113E-05-2.18942E-14
 -1      1064 5.23728E-03-4.65949E-05-2.42841E-14
 -1      1065 5.52377E-03-4.63475E-05-2.67785E-14
 -1      1066 5.80993E-03-4.60419E-05-2.93689E-14
 -1      1067 6.09579E-03-4.56310E-05-3.20562E-14
 -1      1068 6.38139E-03-4.50404E-05-3.48348E-14
 -1      1069 6.66674E-03-4.41557E-05-3.77039E-14
 -1      1070 6.95190E-03-4.28103E-05-4.06572E-14
 -1      1071 7.23694E-03-4.07677E-05-4.36897E-14
 -1      1072 7.52203E-03-3.77080E-05-4.67978E-14
 -1      1073 7.80745E-03-3.32245E-05-4.99764E-14
 -1      1074 8.09373E-03-2.68476E-05-5.32208E-14
 -1      1075 8.38176E-03-1.81258E-05-5.65197E-14
 -1      1076 8.67298E-03-6.80973E-06-5.98688E-14
 -1      1077 8.96959E-03 6.88373E-06-6.32611E-14
 -1      1078 9.27483E-03 2.12337E-05-6.66884E-14
 -1      1079 5.50233E-03 4.67969E-05-2.64751E-14
 -1      1080 5.21582E-03 4.69174E-05-2.39942E-14
 -1      1081 9.36291E-03 1.50044E-04-6.79275E-14
 -1      1082 2.34684E-03-4.51250E-05-5.64555E-15
 -1      1083 4.92893E-03 4.70742E-05-2.16170E-14
 -1      1084 2.63759E-03-4.62638E-05-6.96053E-15
 -1      1085 5.78850E-03 4.67418E-05-2.90531E-14
 -1      1086 6.07433E-03 4.67979E-05-3.17264E-14
 -1      1087 6.34556E-03 4.70215E-05-3.43508E-14
 -1      1088 6.63072E-03 4.75477E-05-3.71995E-14
 -1      1089 6.91550E-03 4.85497E-05-4.01354E-14
 -1      1090 7.19984E-03 5.02981E-05-4.31489E-14
 -1      1091 7.48372E-03 5.31866E-05-4.62385E-14
 -1      1092 7.76714E-03 5.77641E-05-4.93982E-14
 -1      1093 8.05023E-03 6.47536E-05-5.26243E-14
 -1      1094 8.33338E-03 7.50296E-05-5.59029E-14
 -1      1095 8.61743E-03 8.94976E-05-5.92334E-14
 -1      1096 8.90413E-03 1.08782E-04-6.26073E-14
 -1      1097 4.64161E-03 4.72465E-05-1.93492E-14
 -1      1098 2.76724E-03 1.21777E-04-7.44291E-15
 -1      1099 2.92838E-03-4.69469E-05-8.40097E-15
 -1      1100 4.35383E-03 4.74155E-05-1.71964E-14
 -1      1101 9.57777E-03 4.72653E-05-6.99970E-14
 -1      1102 3.21887E-03-4.73065E-05-9.96771E-15
 -1      1103 4.06551E-03 4.75598E-05-1.51607E-14
 -1      1104 2.12901E-03-3.92427E-05-4.74254E-15
 -1      1105 3.19893E-03 4.74909E-05-9.78344E-15
 -1      1106 9.09059E-03 1.31689E-04-6.48071E-14
 -1      1107 2.32254E-03 5.24571E-05-5.48593E-15
 -1      1108 1.88521E-03-1.51563E-05-3.81255E-15
 -1      1109 3.48897E-03 4.76462E-05-1.14595E-14
 -1      1110 2.62125E-03 4.63978E-05-6.82529E-15
 -1      1111 2.91023E-03 4.71089E-05-8.24183E-15
 -1      1112 3.77753E-03 4.76500E-05-1.32507E-14
 -1      1113 0.00000E+00 0.00000E+00 0.00000E+00
 -1      1114 0.00000E+00 0.00000E+00 0.00000E+00
 -1      1115 0.00000E+00 0.00000E+00 0.00000E+00
 -1      1116 0.00000E+00 0.00000E+00 0.00000E+00
 -1      1117 0.00000E+00 0.00000E+00 0.00000E+00
 -1      1118 0.00000E+00 0.00000E+00 0.00000E+00
 -1      1119 0.00000E+00 0.00000E+00 0.00000E+00
 -1      1120 0.00000E+00 0.00000E+00 0.00000E+00
 -1      1121 0.00000E+00 0.00000E+00 0.00000E+00
 -1      1122 0.00000E+00 0.00000E+00 0.00000E+00
 -1      1123 0.00000E+00 0.00000E+00 0.00000E+00
 -1      1124 0.00000E+00 0.00000E+00 0.00000E+00
 -1      1125 0.00000E+00 0.00000E+00 0.00000E+00
 -1      1126 0.00000E+00 0.00000E+00 0.00000E+00
 -1      1127 0.00000E+00 0.00000E+00 0.00000E+00
 -1      1128 0.00000E+00 0.00000E+00 0.00000E+00
 -1      1129 0.00000E+00 0.00000E+00 0.00000E+00
 -1      1130 2.11745E-04-1.48384E-04 1.55719E-17
 -1      1131 5.51843E-04-3.37655E-04-5.67851E-17
 -1      1132 8.33769E-04-4.59240E-04-2.80388E-16
 -1      1133 1.10344E-03-5.41022E-04-6.80350E-16
 -1      1134 1.36896E-03-5.98377E-04-1.24714E-15
 -1      1135 1.63387E-03-6.39200E-04-1.97509E-15
 -1      1136 1.90004E-03-6.68141E-04-2.85961E-15
 -1      1137 2.16833E-03-6.88328E-04-3.89679E-15
 -1      1138 2.43903E-03-7.02054E-04-5.08515E-15
 -1      1139 2.71214E-03-7.11053E-04-6.42205E-15
 -1      1140 2.98750E-03-7.16645E-04-7.90440E-15
 -1      1141 3.26487E-03-7.19827E-04-9.52407E-15
 -1      1142 3.54397E-03-7.21348E-04-1.12731E-14
 -1      1143 3.82454E-03-7.21757E-04-1.31465E-14
 -1      1144 4.10633E-03-7.21453E-04-1.51404E-14
 -1      1145 4.38909E-03-7.20717E-04-1.72512E-14
 -1      1146 4.67264E-03-7.19742E-04-1.94766E-14
 -1      1147 4.95682E-03-7.18656E-04-2.18121E-14
 -1      1148 5.24150E-03-7.17542E-04-2.42538E-14
 -1      1149 5.52658E-03-7.16451E-04-2.68028E-14
 -1      1150 5.81199E-03-7.15421E-04-2.94541E-14
 -1      1151 6.09769E-03-7.14484E-04-3.22015E-14
 -1      1152 6.38366E-03-7.13682E-04-3.50478E-14
 -1      1153 6.66987E-03-7.13075E-04-3.79948E-14
 -1      1154 6.95628E-03-7.12754E-04-4.10381E-14
 -1      1155 7.24284E-03-7.12847E-04-4.41724E-14
 -1      1156 7.52942E-03-7.13523E-04-4.73881E-14
 -1      1157 7.81580E-03-7.14981E-04-5.06826E-14
 -1      1158 8.10157E-03-7.17423E-04-5.40548E-14
 -1      1159 8.38611E-03-7.20985E-04-5.74919E-14
 -1      1160 8.66849E-03-7.25630E-04-6.09778E-14
 -1      1161 8.94746E-03-7.30980E-04-6.45053E-14
 -1      1162 9.22142E-03-7.36093E-04-6.80590E-14
 -1      1163 9.48855E-03-7.39201E-04-7.16409E-14
 -1      1164 9.74701E-03-7.37495E-04-7.52574E-14
 -1      1165 9.99533E-03-7.27033E-04-7.89013E-14
 -1      1166 1.02328E-02-7.02903E-04-8.25701E-14
 -1      1167 1.04601E-02-6.59732E-04-8.62607E-14
 -1      1168 1.06792E-02-5.92506E-04-8.99577E-14
 -1      1169 1.08934E-02-4.97542E-04-9.36707E-14
 -1      1170 1.11072E-02-3.73294E-04-9.74107E-14
 -1      1171 1.13248E-02-2.20722E-04-1.01169E-13
 -1      1172 1.15500E-02-4.30661E-05-1.04938E-13
 -1      1173 1.17854E-02 1.54864E-04-1.08711E-13
 -1      1174 1.20319E-02 3.67599E-04-1.12479E-13
 -1      1175 1.22894E-02 5.89804E-04-1.16242E-13
 -1      1176 1.25570E-02 8.16742E-04-1.19997E-13
 -1      1177 1.28328E-02 1.04441E-03-1.23739E-13
 -1      1178 1.31150E-02 1.26959E-03-1.27481E-13
 -1      1179 1.33933E-02 1.48525E-03-1.31140E-13
 -1      1180 2.03112E-04 1.43181E-04 2.98562E-17
 -1      1181 5.37299E-04 3.30592E-04 9.67650E-18
 -1      1182 8.20168E-04 4.54474E-04-1.42234E-16
 -1      1183 1.09018E-03 5.37744E-04-4.51624E-16
 -1      1184 1.35580E-03 5.96090E-04-9.11990E-16
 -1      1185 1.62070E-03 6.37621E-04-1.52367E-15
 -1      1186 1.88678E-03 6.67085E-04-2.28661E-15
 -1      1187 2.15496E-03 6.87662E-04-3.20056E-15
 -1      1188 2.42553E-03 7.01679E-04-4.26178E-15
 -1      1189 2.69853E-03 7.10893E-04-5.46942E-15
 -1      1190 2.97378E-03 7.16642E-04-6.81807E-15
 -1      1191 3.25105E-03 7.19940E-04-8.30498E-15
 -1      1192 3.53006E-03 7.21543E-04-9.92705E-15
 -1      1193 3.80353E-03 7.22010E-04-1.16364E-14
 -1      1194 4.07815E-03 7.21773E-04-1.34742E-14
 -1      1195 4.36080E-03 7.21078E-04-1.54935E-14
 -1      1196 4.64423E-03 7.20117E-04-1.76367E-14
 -1      1197 4.92829E-03 7.19015E-04-1.98968E-14
 -1      1198 5.21283E-03 7.17842E-04-2.22633E-14
 -1      1199 5.49775E-03 7.16627E-04-2.47251E-14
 -1      1200 5.78298E-03 7.15364E-04-2.72785E-14
 -1      1201 6.06848E-03 7.14023E-04-2.99165E-14
 -1      1202 6.35425E-03 7.12544E-04-3.26390E-14
 -1      1203 6.64034E-03 7.10842E-04-3.54508E-14
 -1      1204 6.92689E-03 7.08798E-04-3.83565E-14
 -1      1205 7.21412E-03 7.06261E-04-4.13437E-14
 -1      1206 7.49523E-03 7.03127E-04-4.43221E-14
 -1      1207 7.77805E-03 6.99124E-04-4.73646E-14
 -1      1208 8.07103E-03 6.93889E-04-5.05481E-14
 -1      1209 8.36890E-03 6.87353E-04-5.37962E-14
 -1      1210 8.67492E-03 6.79660E-04-5.70932E-14
 -1      1211 8.99440E-03 6.71823E-04-6.04280E-14
 -1      1212 9.33586E-03 6.67078E-04-6.37983E-14
 -1      1213 9.71243E-03 6.74015E-04-6.71944E-14
 -1      1214 1.01428E-02 7.13331E-04-7.06008E-14
 -1      1215 1.06486E-02 8.29817E-04-7.40029E-14
 -1      1216 1.11772E-02 1.06449E-03-7.70545E-14
 -1      1217 1.17019E-02 1.45057E-03-7.98457E-14
 -1      1218 1.22231E-02 2.04247E-03-8.27949E-14
 -1      1219 1.25750E-02 2.61367E-03-8.54831E-14
 -1      1220 1.27546E-02 2.92769E-03-8.78531E-14
 -1      1221 1.29168E-02 2.90884E-03-9.04340E-14
 -1      1222 1.32053E-02 2.57565E-03-9.32407E-14
 -1      1223 1.36260E-02 2.18896E-03-9.59894E-14
 -1      1224 1.41297E-02 1.91354E-03-9.88400E-14
 -1      1225 1.46941E-02 1.79872E-03-1.02132E-13
 -1      1226 1.52254E-02 1.85498E-03-1.05698E-13
 -1      1227 1.56716E-02 2.01215E-03-1.09280E-13
 -1      1228 1.60520E-02 2.21083E-03-1.12846E-13
 -1      1229 1.63864E-02 2.41972E-03-1.16386E-13
 -1      1230 1.66906E-02 2.62214E-03-1.19894E-13
 -1      1231 1.69717E-02 2.80521E-03-1.23281E-13
 -1      1232 1.70199E-02 2.84770E-03-1.25162E-13
 -1      1233 1.68536E-02 2.76531E-03-1.25605E-13
 -1      1234 1.66971E-02 2.69643E-03-1.26077E-13
 -1      1235 1.65354E-02 2.64499E-03-1.26571E-13
 -1      1236 1.63540E-02 2.60558E-03-1.27064E-13
 -1      1237 1.61477E-02 2.56843E-03-1.27548E-13
 -1      1238 1.59172E-02 2.52340E-03-1.28023E-13
 -1      1239 1.56684E-02 2.46356E-03-1.28524E-13
 -1      1240 1.54139E-02 2.38745E-03-1.29015E-13
 -1      1241 1.51629E-02 2.29736E-03-1.29501E-13
 -1      1242 1.49214E-02 2.19795E-03-1.29974E-13
 -1      1243 1.46935E-02 2.09545E-03-1.30435E-13
 -1      1244 1.44760E-02 1.99366E-03-1.30894E-13
 -1      1245 1.42643E-02 1.89502E-03-1.31341E-13
 -1      1246 1.40558E-02 1.80202E-03-1.31808E-13
 -1      1247 1.38462E-02 1.71440E-03-1.32270E-13
 -1      1248 1.36349E-02 1.63066E-03-1.32717E-13
 -1      1249 1.50615E-02 1.35720E-03-9.81033E-14
 -1      1250 1.50432E-02 1.53949E-03-9.75081E-14
 -1      1251 1.48900E-02 1.74506E-03-9.65702E-14
 -1      1252 1.46052E-02 1.98963E-03-9.53095E-14
 -1      1253 1.42061E-02 2.26228E-03-9.38380E-14
 -1      1254 1.37013E-02 2.53043E-03-9.22153E-14
 -1      1255 1.31219E-02 2.70874E-03-9.05191E-14
 -1      1256 1.24773E-02 2.71349E-03-8.87491E-14
 -1      1257 1.18147E-02 2.50790E-03-8.70093E-14
 -1      1258 1.12141E-02 2.16614E-03-8.54559E-14
 -1      1259 1.07058E-02 1.80122E-03-8.41514E-14
 -1      1260 1.02917E-02 1.47051E-03-8.31040E-14
 -1      1261 9.97160E-03 1.18623E-03-8.23204E-14
 -1      1262 9.76072E-03 9.47578E-04-8.18560E-14
 -1      1263 9.68120E-03 7.50524E-04-8.17834E-14
 -1      1264 9.73320E-03 5.88839E-04-8.20877E-14
 -1      1265 9.90108E-03 4.44413E-04-8.27438E-14
 -1      1266 1.01806E-02 3.07317E-04-8.37798E-14
 -1      1267 1.05367E-02 1.89962E-04-8.50909E-14
 -1      1268 1.09407E-02 1.02021E-04-8.65997E-14
 -1      1269 1.13906E-02 5.25937E-05-8.82882E-14
 -1      1270 1.18578E-02 5.37023E-05-9.00270E-14
 -1      1271 1.23575E-02 1.13860E-04-9.18297E-14
 -1      1272 1.28821E-02 2.33276E-04-9.36051E-14
 -1      1273 1.34107E-02 4.04496E-04-9.52280E-14
 -1      1274 1.39147E-02 6.03378E-04-9.65740E-14
 -1      1275 1.43453E-02 8.02195E-04-9.75290E-14
 -1      1276 1.46941E-02 9.93512E-04-9.81262E-14
 -1      1277 1.49406E-02 1.17659E-03-9.83287E-14
 -1      1278 1.66757E-04-1.10379E-04-8.90401E-18
 -1      1279 1.12569E-04-5.69955E-05-3.67138E-17
 -1      1280 1.17656E-04-6.76059E-05-2.89482E-17
 -1      1281 1.08440E-04-4.35111E-05-4.92092E-17
 -1      1282 1.10308E-04-4.96258E-05-4.54823E-17
 -1      1283 2.26382E-04-1.07672E-04-1.06957E-16
 -1      1284 1.06851E-04-3.36363E-05-5.57686E-17
 -1      1285 1.07700E-04-3.83563E-05-5.39526E-17
 -1      1286 2.19135E-04-8.25056E-05-1.29156E-16
 -1      1287 1.06065E-04-2.53810E-05-5.95363E-17
 -1      1288 1.06499E-04-2.94110E-05-5.87231E-17
 -1      1289 2.15883E-04-6.33330E-05-1.41610E-16
 -1      1290 1.05655E-04-1.81294E-05-6.11897E-17
 -1      1291 1.05889E-04-2.16927E-05-6.09186E-17
 -1      1292 2.14209E-04-4.72542E-05-1.48373E-16
 -1      1293 1.05430E-04-1.12883E-05-6.18537E-17
 -1      1294 1.05556E-04-1.46679E-05-6.18944E-17
 -1      1295 2.13280E-04-3.28378E-05-1.51436E-16
 -1      1296 1.05327E-04-4.75191E-06-6.18402E-17
 -1      1297 1.05381E-04-7.99833E-06-6.19215E-17
 -1      1298 2.12774E-04-1.92970E-05-1.52317E-16
 -1      1299 1.05313E-04 1.66305E-06-6.10406E-17
 -1      1300 1.05312E-04-1.54161E-06-6.13252E-17
 -1      1301 2.12552E-04-6.29491E-06-1.51734E-16
 -1      1302 1.05384E-04 8.12245E-06-5.97802E-17
 -1      1303 1.05328E-04 4.87416E-06-6.01055E-17
 -1      1304 2.12554E-04 6.53861E-06-1.49471E-16
 -1      1305 1.05561E-04 1.47988E-05-5.79371E-17
 -1      1306 1.05434E-04 1.14150E-05-5.84792E-17
 -1      1307 2.12781E-04 1.95478E-05-1.45988E-16
 -1      1308 1.05895E-04 2.17728E-05-5.50368E-17
 -1      1309 1.05660E-04 1.82052E-05-5.58635E-17
 -1      1310 2.13289E-04 3.29859E-05-1.40770E-16
 -1      1311 1.06521E-04 2.95680E-05-5.07813E-17
 -1      1312 1.06080E-04 2.55284E-05-5.22450E-17
 -1      1313 2.14225E-04 4.74175E-05-1.33113E-16
 -1      1314 1.07734E-04 3.85543E-05-4.42083E-17
 -1      1315 1.06875E-04 3.38137E-05-4.67156E-17
 -1      1316 2.15937E-04 6.36719E-05-1.22041E-16
 -1      1317 1.10362E-04 4.98637E-05-3.35425E-17
 -1      1318 1.08470E-04 4.37213E-05-3.80826E-17
 -1      1319 2.19206E-04 8.29275E-05-1.05168E-16
 -1      1320 1.17789E-04 6.79315E-05-1.51924E-17
 -1      1321 1.12632E-04 5.72730E-05-2.37847E-17
 -1      1322 2.26526E-04 1.08231E-04-7.84827E-17
 -1      1323 1.59226E-04 1.05701E-04 7.48099E-18
 -1      1324 4.21685E-04-2.61842E-04-7.34140E-17
 -1      1325 5.74834E-04-3.36947E-04-1.48888E-16
 -1      1326 7.22072E-04-3.97595E-04-2.70725E-16
 -1      1327 8.65288E-04-4.46939E-04-4.34914E-16
 -1      1328 6.12262E-04-3.31052E-04-2.54354E-16
 -1      1329 1.00536E-03-4.88061E-04-6.39571E-16
 -1      1330 1.14325E-03-5.22101E-04-8.85631E-16
 -1      1331 9.05584E-04-4.31847E-04-5.93845E-16
 -1      1332 1.27979E-03-5.50928E-04-1.17182E-15
 -1      1333 1.41548E-03-5.75018E-04-1.49879E-15
 -1      1334 1.18810E-03-5.01371E-04-1.09404E-15
 -1      1335 1.55077E-03-5.95439E-04-1.86490E-15
 -1      1336 1.68591E-03-6.12523E-04-2.27029E-15
 -1      1337 1.46511E-03-5.50252E-04-1.75303E-15
 -1      1338 1.82115E-03-6.26899E-04-2.71399E-15
 -1      1339 1.95659E-03-6.38861E-04-3.19555E-15
 -1      1340 1.73988E-03-5.84669E-04-2.56727E-15
 -1      1341 2.09236E-03-6.48813E-04-3.71515E-15
 -1      1342 2.22850E-03-6.57003E-04-4.27237E-15
 -1      1343 2.01429E-03-6.08608E-04-3.53343E-15
 -1      1344 2.36507E-03-6.63710E-04-4.86667E-15
 -1      1345 2.50208E-03-6.69138E-04-5.49758E-15
 -1      1346 2.28931E-03-6.24889E-04-4.64865E-15
 -1      1347 2.63954E-03-6.73485E-04-6.16570E-15
 -1      1348 2.77745E-03-6.76916E-04-6.86979E-15
 -1      1349 2.56543E-03-6.35594E-04-5.91031E-15
 -1      1350 2.91579E-03-6.79571E-04-7.60840E-15
 -1      1351 3.05456E-03-6.81582E-04-8.38243E-15
 -1      1352 2.84284E-03-6.42286E-04-7.31526E-15
 -1      1353 3.19372E-03-6.83050E-04-9.18958E-15
 -1      1354 3.33326E-03-6.84076E-04-1.00299E-14
 -1      1355 3.12156E-03-6.46141E-04-8.85862E-15
 -1      1356 3.47315E-03-6.84730E-04-1.09025E-14
 -1      1357 3.61336E-03-6.85092E-04-1.18059E-14
 -1      1358 3.40151E-03-6.48037E-04-1.05342E-14
 -1      1359 3.75388E-03-6.85208E-04-1.27405E-14
 -1      1360 3.89467E-03-6.85138E-04-1.37050E-14
 -1      1361 3.68258E-03-6.48621E-04-1.23373E-14
 -1      1362 4.03572E-03-6.84914E-04-1.46996E-14
 -1      1363 4.17699E-03-6.84579E-04-1.57239E-14
 -1      1364 3.96462E-03-6.48362E-04-1.42620E-14
 -1      1365 4.31847E-03-6.84153E-04-1.67773E-14
 -1      1366 4.46013E-03-6.83667E-04-1.78595E-14
 -1      1367 4.24747E-03-6.47591E-04-1.63057E-14
 -1      1368 4.60197E-03-6.83133E-04-1.89692E-14
 -1      1369 4.74395E-03-6.82573E-04-2.01077E-14
 -1      1370 4.53102E-03-6.46536E-04-1.84651E-14
 -1      1371 4.88607E-03-6.81993E-04-2.12735E-14
 -1      1372 5.02832E-03-6.81409E-04-2.24648E-14
 -1      1373 4.81512E-03-6.45348E-04-2.07369E-14
 -1      1374 5.17067E-03-6.80822E-04-2.36840E-14
 -1      1375 5.31312E-03-6.80244E-04-2.49295E-14
 -1      1376 5.09968E-03-6.44123E-04-2.31172E-14
 -1      1377 5.45566E-03-6.79675E-04-2.62007E-14
 -1      1378 5.59828E-03-6.79122E-04-2.74979E-14
 -1      1379 5.38462E-03-6.42921E-04-2.56020E-14
 -1      1380 5.74098E-03-6.78587E-04-2.88207E-14
 -1      1381 5.88374E-03-6.78076E-04-3.01679E-14
 -1      1382 5.66987E-03-6.41778E-04-2.81907E-14
 -1      1383 6.02657E-03-6.77589E-04-3.15402E-14
 -1      1384 6.16947E-03-6.77135E-04-3.29361E-14
 -1      1385 5.95538E-03-6.40722E-04-3.08810E-14
 -1      1386 6.31242E-03-6.76718E-04-3.43580E-14
 -1      1387 6.45542E-03-6.76345E-04-3.58043E-14
 -1      1388 6.24112E-03-6.39786E-04-3.36705E-14
 -1      1389 6.59847E-03-6.76027E-04-3.72752E-14
 -1      1390 6.74157E-03-6.75773E-04-3.87700E-14
 -1      1391 6.52706E-03-6.39018E-04-3.65588E-14
 -1      1392 6.88471E-03-6.75601E-04-4.02878E-14
 -1      1393 7.02788E-03-6.75522E-04-4.18299E-14
 -1      1394 6.81316E-03-6.38494E-04-3.95424E-14
 -1      1395 7.17107E-03-6.75562E-04-4.33926E-14
 -1      1396 7.31426E-03-6.75736E-04-4.49757E-14
 -1      1397 7.09937E-03-6.38329E-04-4.26165E-14
 -1      1398 7.45744E-03-6.76079E-04-4.65803E-14
 -1      1399 7.60057E-03-6.76604E-04-4.82042E-14
 -1      1400 7.38561E-03-6.38687E-04-4.57763E-14
 -1      1401 7.74361E-03-6.77358E-04-4.98473E-14
 -1      1402 7.88654E-03-6.78348E-04-5.15102E-14
 -1      1403 7.67171E-03-6.39777E-04-4.90160E-14
 -1      1404 8.02928E-03-6.79626E-04-5.31899E-14
 -1      1405 8.17177E-03-6.81184E-04-5.48876E-14
 -1      1406 7.95742E-03-6.41840E-04-5.23315E-14
 -1      1407 8.31391E-03-6.83073E-04-5.66007E-14
 -1      1408 8.45563E-03-6.85253E-04-5.83269E-14
 -1      1409 8.24237E-03-6.45105E-04-5.57144E-14
 -1      1410 8.59679E-03-6.87755E-04-6.00649E-14
 -1      1411 8.73727E-03-6.90491E-04-6.18135E-14
 -1      1412 8.52597E-03-6.49702E-04-5.91569E-14
 -1      1413 8.87691E-03-6.93440E-04-6.35718E-14
 -1      1414 9.01555E-03-6.96443E-04-6.53375E-14
 -1      1415 8.80747E-03-6.55526E-04-6.26437E-14
 -1      1416 9.15300E-03-6.99389E-04-6.71102E-14
 -1      1417 9.28909E-03-7.02019E-04-6.88888E-14
 -1      1418 9.08587E-03-6.62022E-04-6.61647E-14
 -1      1419 9.42363E-03-7.04092E-04-7.06763E-14
 -1      1420 9.55642E-03-7.05224E-04-7.24734E-14
 -1      1421 9.36002E-03-6.67924E-04-6.97168E-14
 -1      1422 9.68730E-03-7.05010E-04-7.42758E-14
 -1      1423 9.81613E-03-7.02938E-04-7.60852E-14
 -1      1424 9.62870E-03-6.70977E-04-7.32981E-14
 -1      1425 9.94280E-03-6.98429E-04-7.79030E-14
 -1      1426 1.00672E-02-6.90867E-04-7.97273E-14
 -1      1427 9.89082E-03-6.67734E-04-7.69102E-14
 -1      1428 1.01895E-02-6.79539E-04-8.15568E-14
 -1      1429 1.03095E-02-6.63782E-04-8.33927E-14
 -1      1430 1.01457E-02-6.53551E-04-8.05486E-14
 -1      1431 1.04276E-02-6.42851E-04-8.52322E-14
 -1      1432 1.05438E-02-6.16133E-04-8.70778E-14
 -1      1433 1.03933E-02-6.22922E-04-8.42114E-14
 -1      1434 1.06585E-02-5.82985E-04-8.89241E-14
 -1      1435 1.07720E-02-5.42963E-04-9.07703E-14
 -1      1436 1.06345E-02-5.70187E-04-8.78905E-14
 -1      1437 1.08848E-02-4.95672E-04-9.26260E-14
 -1      1438 1.09972E-02-4.40928E-04-9.44862E-14
 -1      1439 1.08713E-02-4.90552E-04-9.15843E-14
 -1      1440 1.11098E-02-3.78683E-04-9.63485E-14
 -1      1441 1.12229E-02-3.09057E-04-9.82196E-14
 -1      1442 1.11062E-02-3.81108E-04-9.52932E-14
 -1      1443 1.13370E-02-2.32360E-04-1.00094E-13
 -1      1444 1.14525E-02-1.48990E-04-1.01970E-13
 -1      1445 1.13423E-02-2.41525E-04-9.90238E-14
 -1      1446 1.15697E-02-5.95346E-05-1.03849E-13
 -1      1447 1.16889E-02 3.54138E-05-1.05732E-13
 -1      1448 1.15823E-02-7.41352E-05-1.02768E-13
 -1      1449 1.18102E-02 1.35123E-04-1.07612E-13
 -1      1450 1.19338E-02 2.38914E-04-1.09491E-13
 -1      1451 1.18283E-02 1.16627E-04-1.06519E-13
 -1      1452 1.20597E-02 3.46047E-04-1.11373E-13
 -1      1453 1.21879E-02 4.55851E-04-1.13254E-13
 -1      1454 1.20816E-02 3.25174E-04-1.10273E-13
 -1      1455 1.23183E-02 5.67668E-04-1.15132E-13
 -1      1456 1.24509E-02 6.80894E-04-1.17007E-13
 -1      1457 1.23425E-02 5.45737E-04-1.14025E-13
 -1      1458 1.25855E-02 7.94986E-04-1.18881E-13
 -1      1459 1.27219E-02 9.09423E-04-1.20754E-13
 -1      1460 1.26105E-02 7.73059E-04-1.17771E-13
 -1      1461 1.28599E-02 1.02377E-03-1.22623E-13
 -1      1462 1.29994E-02 1.13759E-03-1.24491E-13
 -1      1463 1.28848E-02 1.00268E-03-1.21508E-13
 -1      1464 1.31400E-02 1.25056E-03-1.26360E-13
 -1      1465 1.32817E-02 1.36233E-03-1.28232E-13
 -1      1466 1.31641E-02 1.23093E-03-1.25241E-13
 -1      1467 1.34993E-02 1.52675E-03-1.30928E-13
 -1      1468 1.35223E-02 1.50909E-03-1.29800E-13
 -1      1469 5.59947E-04 3.30486E-04-6.76949E-17
 -1      1470 4.06219E-04 2.53867E-04-2.04372E-17
 -1      1471 8.51244E-04 4.42581E-04-2.80185E-16
 -1      1472 7.07662E-04 3.92300E-04-1.54987E-16
 -1      1473 5.97462E-04 3.25271E-04-1.58809E-16
 -1      1474 1.12963E-03 5.19083E-04-6.40465E-16
 -1      1475 9.91563E-04 4.84443E-04-4.41541E-16
 -1      1476 8.91354E-04 4.27834E-04-4.24235E-16
 -1      1477 1.40202E-03 5.72927E-04-1.15043E-15
 -1      1478 1.26627E-03 5.48416E-04-8.76632E-16
 -1      1479 1.17423E-03 4.98593E-04-8.35513E-16
 -1      1480 1.67248E-03 6.11094E-04-1.80999E-15
 -1      1481 1.53734E-03 5.93705E-04-1.46161E-15
 -1      1482 1.45142E-03 5.48337E-04-1.39437E-15
 -1      1483 1.94312E-03 6.37924E-04-2.61973E-15
 -1      1484 1.80771E-03 6.25735E-04-2.19589E-15
 -1      1485 1.72625E-03 5.83379E-04-2.10141E-15
 -1      1486 2.21496E-03 6.56431E-04-3.57793E-15
 -1      1487 2.07886E-03 6.48072E-04-3.08049E-15
 -1      1488 2.00065E-03 6.07780E-04-2.95677E-15
 -1      1489 2.48845E-03 6.68836E-04-4.68240E-15
 -1      1490 2.35149E-03 6.63283E-04-4.11186E-15
 -1      1491 2.27562E-03 6.24402E-04-3.95941E-15
 -1      1492 2.76373E-03 6.76812E-04-5.93037E-15
 -1      1493 2.62587E-03 6.73290E-04-5.28867E-15
 -1      1494 2.55168E-03 6.35358E-04-5.10628E-15
 -1      1495 3.04075E-03 6.81624E-04-7.31705E-15
 -1      1496 2.90203E-03 6.79546E-04-6.60678E-15
 -1      1497 2.82902E-03 6.42233E-04-6.39385E-15
 -1      1498 3.31937E-03 6.84222E-04-8.84152E-15
 -1      1499 3.17987E-03 6.83148E-04-8.06220E-15
 -1      1500 3.10767E-03 6.46221E-04-7.81927E-15
 -1      1501 3.59940E-03 6.85313E-04-1.04989E-14
 -1      1502 3.45922E-03 6.84918E-04-9.65342E-15
 -1      1503 3.38757E-03 6.48213E-04-9.37995E-15
 -1      1504 3.86656E-03 6.85426E-04-1.21975E-14
 -1      1505 3.73285E-03 6.85457E-04-1.13334E-14
 -1      1506 3.66154E-03 6.48862E-04-1.10297E-14
 -1      1507 4.14876E-03 6.84926E-04-1.41159E-14
 -1      1508 4.00754E-03 6.85235E-04-1.31405E-14
 -1      1509 3.93643E-03 6.48680E-04-1.28053E-14
 -1      1510 4.43181E-03 6.84047E-04-1.61651E-14
 -1      1511 4.29019E-03 6.84520E-04-1.51244E-14
 -1      1512 4.21920E-03 6.47961E-04-1.47572E-14
 -1      1513 4.71552E-03 6.82961E-04-1.83368E-14
 -1      1514 4.57359E-03 6.83520E-04-1.72360E-14
 -1      1515 4.50266E-03 6.46932E-04-1.68369E-14
 -1      1516 4.99978E-03 6.81773E-04-2.06217E-14
 -1      1517 4.85759E-03 6.82374E-04-1.94656E-14
 -1      1518 4.78668E-03 6.45745E-04-1.90354E-14
 -1      1519 5.28447E-03 6.80537E-04-2.30100E-14
 -1      1520 5.14208E-03 6.81158E-04-2.18036E-14
 -1      1521 5.07116E-03 6.44487E-04-2.13456E-14
 -1      1522 5.56951E-03 6.79271E-04-2.54947E-14
 -1      1523 5.42695E-03 6.79907E-04-2.42409E-14
 -1      1524 5.35601E-03 6.43199E-04-2.37580E-14
 -1      1525 5.85484E-03 6.77957E-04-2.80701E-14
 -1      1526 5.71214E-03 6.78620E-04-2.67713E-14
 -1      1527 5.64118E-03 6.41886E-04-2.62648E-14
 -1      1528 6.14046E-03 6.76553E-04-3.07297E-14
 -1      1529 5.99762E-03 6.77268E-04-2.93888E-14
 -1      1530 5.92663E-03 6.40520E-04-2.88617E-14
 -1      1531 6.42638E-03 6.74987E-04-3.34772E-14
 -1      1532 6.28338E-03 6.75793E-04-3.20933E-14
 -1      1533 6.21237E-03 6.39048E-04-3.15450E-14
 -1      1534 6.71267E-03 6.73159E-04-3.63154E-14
 -1      1535 6.56947E-03 6.74110E-04-3.48857E-14
 -1      1536 6.49841E-03 6.37385E-04-3.43192E-14
 -1      1537 6.99950E-03 6.70930E-04-3.92396E-14
 -1      1538 6.85600E-03 6.72099E-04-3.77668E-14
 -1      1539 6.78486E-03 6.35414E-04-3.71781E-14
 -1      1540 7.28712E-03 6.68119E-04-4.22412E-14
 -1      1541 7.14319E-03 6.69602E-04-4.07305E-14
 -1      1542 7.07188E-03 6.32974E-04-4.01203E-14
 -1      1543 7.56153E-03 6.64697E-04-4.51578E-14
 -1      1544 7.42415E-03 6.66502E-04-4.36922E-14
 -1      1545 7.35252E-03 6.29944E-04-4.30626E-14
 -1      1546 7.85232E-03 6.60037E-04-4.82933E-14
 -1      1547 7.70662E-03 6.62499E-04-4.67175E-14
 -1      1548 7.63439E-03 6.26012E-04-4.60708E-14
 -1      1549 8.14630E-03 6.53993E-04-5.14914E-14
 -1      1550 7.99881E-03 6.57170E-04-4.98840E-14
 -1      1551 7.92542E-03 6.20725E-04-4.92218E-14
 -1      1552 8.44543E-03 6.46335E-04-5.47518E-14
 -1      1553 8.29506E-03 6.50316E-04-5.31150E-14
 -1      1554 8.21950E-03 6.13805E-04-5.24353E-14
 -1      1555 8.75283E-03 6.37170E-04-5.80575E-14
 -1      1556 8.59783E-03 6.41826E-04-5.63996E-14
 -1      1557 8.51832E-03 6.04978E-04-5.57073E-14
 -1      1558 9.07334E-03 6.27611E-04-6.14025E-14
 -1      1559 8.91103E-03 6.32191E-04-5.97268E-14
 -1      1560 8.82438E-03 5.94381E-04-5.90248E-14
 -1      1561 9.41422E-03 6.21385E-04-6.47800E-14
 -1      1562 9.24063E-03 6.23550E-04-6.30884E-14
 -1      1563 9.14132E-03 5.83386E-04-6.23789E-14
 -1      1564 9.78563E-03 6.28576E-04-6.81785E-14
 -1      1565 9.59530E-03 6.22166E-04-6.64771E-14
 -1      1566 9.47407E-03 5.76587E-04-6.57614E-14
 -1      1567 1.02003E-02 6.73523E-04-7.15813E-14
 -1      1568 9.98663E-03 6.43896E-04-6.98789E-14
 -1      1569 9.82898E-03 5.86223E-04-6.91594E-14
 -1      1570 1.06708E-02 8.08442E-04-7.49836E-14
 -1      1571 1.04279E-02 7.24831E-04-7.32844E-14
 -1      1572 1.02140E-02 6.41182E-04-7.25643E-14
 -1      1573 1.10904E-02 1.04032E-03-7.76959E-14
 -1      1574 1.08763E-02 9.05843E-04-7.63397E-14
 -1      1575 1.05950E-02 7.77410E-04-7.56252E-14
 -1      1576 1.15674E-02 1.46979E-03-8.05746E-14
 -1      1577 1.13271E-02 1.22715E-03-7.91358E-14
 -1      1578 1.09821E-02 1.03613E-03-7.84248E-14
 -1      1579 1.25081E-02 2.69651E-03-8.61790E-14
 -1      1580 1.23624E-02 2.46831E-03-8.49947E-14
 -1      1581 1.27592E-02 2.94750E-03-8.85684E-14
 -1      1582 1.26384E-02 2.86446E-03-8.73703E-14
 -1      1583 1.24846E-02 2.75943E-03-8.68811E-14
 -1      1584 1.30511E-02 2.81524E-03-9.13398E-14
 -1      1585 1.28981E-02 2.93066E-03-8.99486E-14
 -1      1586 1.28330E-02 2.92485E-03-8.94571E-14
 -1      1587 1.34277E-02 2.42079E-03-9.40827E-14
 -1      1588 1.32285E-02 2.63458E-03-9.26708E-14
 -1      1589 1.38443E-02 2.05183E-03-9.67457E-14
 -1      1590 1.36311E-02 2.22231E-03-9.54136E-14
 -1      1591 1.36298E-02 2.27027E-03-9.48362E-14
 -1      1592 1.43322E-02 1.80645E-03-9.97756E-14
 -1      1593 1.40894E-02 1.90412E-03-9.82576E-14
 -1      1594 1.40697E-02 1.91081E-03-9.76815E-14
 -1      1595 1.48670E-02 1.74946E-03-1.03339E-13
 -1      1596 1.46071E-02 1.75180E-03-1.01560E-13
 -1      1597 1.45518E-02 1.71625E-03-1.00982E-13
 -1      1598 1.53344E-02 1.85349E-03-1.06912E-13
 -1      1599 1.51091E-02 1.78751E-03-1.05122E-13
 -1      1600 1.50206E-02 1.72530E-03-1.04550E-13
 -1      1601 1.57398E-02 2.03379E-03-1.10488E-13
 -1      1602 1.55442E-02 1.93779E-03-1.08701E-13
 -1      1603 1.54357E-02 1.86477E-03-1.08121E-13
 -1      1604 1.60969E-02 2.24195E-03-1.14044E-13
 -1      1605 1.59236E-02 2.13630E-03-1.12269E-13
 -1      1606 1.58065E-02 2.06129E-03-1.11693E-13
 -1      1607 1.64197E-02 2.45297E-03-1.17576E-13
 -1      1608 1.62619E-02 2.34815E-03-1.15812E-13
 -1      1609 1.61434E-02 2.27525E-03-1.15242E-13
 -1      1610 1.67200E-02 2.65308E-03-1.21076E-13
 -1      1611 1.65721E-02 2.55496E-03-1.19330E-13
 -1      1612 1.64557E-02 2.48625E-03-1.18764E-13
 -1      1613 1.69389E-02 2.79555E-03-1.23946E-13
 -1      1614 1.68024E-02 2.70920E-03-1.22292E-13
 -1      1615 1.66891E-02 2.64466E-03-1.21734E-13
 -1      1616 1.68534E-02 2.75415E-03-1.24166E-13
 -1      1617 1.66939E-02 2.67823E-03-1.24619E-13
 -1      1618 1.67721E-02 2.71475E-03-1.24391E-13
 -1      1619 1.66904E-02 2.66101E-03-1.23178E-13
 -1      1620 1.65393E-02 2.61547E-03-1.25094E-13
 -1      1621 1.66170E-02 2.64507E-03-1.24851E-13
 -1      1622 1.65365E-02 2.59017E-03-1.23630E-13
 -1      1623 1.63723E-02 2.56494E-03-1.25577E-13
 -1      1624 1.64582E-02 2.58894E-03-1.25337E-13
 -1      1625 1.63803E-02 2.53095E-03-1.24100E-13
 -1      1626 1.61805E-02 2.52038E-03-1.26063E-13
 -1      1627 1.62798E-02 2.54240E-03-1.25818E-13
 -1      1628 1.62048E-02 2.47981E-03-1.24577E-13
 -1      1629 1.59647E-02 2.47439E-03-1.26532E-13
 -1      1630 1.60757E-02 2.49814E-03-1.26300E-13
 -1      1631 1.60030E-02 2.43068E-03-1.25051E-13
 -1      1632 1.57228E-02 2.41847E-03-1.27022E-13
 -1      1633 1.58459E-02 2.44792E-03-1.26774E-13
 -1      1634 1.57743E-02 2.37654E-03-1.25526E-13
 -1      1635 1.54688E-02 2.34959E-03-1.27507E-13
 -1      1636 1.55967E-02 2.38577E-03-1.27268E-13
 -1      1637 1.55248E-02 2.31214E-03-1.26008E-13
 -1      1638 1.52133E-02 2.26766E-03-1.27985E-13
 -1      1639 1.53407E-02 2.31018E-03-1.27746E-13
 -1      1640 1.52676E-02 2.23619E-03-1.26480E-13
 -1      1641 1.49647E-02 2.17536E-03-1.28461E-13
 -1      1642 1.50878E-02 2.22259E-03-1.28223E-13
 -1      1643 1.50131E-02 2.14977E-03-1.26948E-13
 -1      1644 1.47275E-02 2.07680E-03-1.28923E-13
 -1      1645 1.48446E-02 2.12660E-03-1.28692E-13
 -1      1646 1.47682E-02 2.05582E-03-1.27412E-13
 -1      1647 1.45061E-02 1.97797E-03-1.29376E-13
 -1      1648 1.46154E-02 2.02739E-03-1.29151E-13
 -1      1649 1.45377E-02 1.95881E-03-1.27866E-13
 -1      1650 1.42907E-02 1.87892E-03-1.29828E-13
 -1      1651 1.43974E-02 1.92807E-03-1.29606E-13
 -1      1652 1.43189E-02 1.86129E-03-1.28318E-13
 -1      1653 1.40814E-02 1.78364E-03-1.30282E-13
 -1      1654 1.41856E-02 1.83071E-03-1.30053E-13
 -1      1655 1.41070E-02 1.76497E-03-1.28768E-13
 -1      1656 1.38736E-02 1.69293E-03-1.30742E-13
 -1      1657 1.39776E-02 1.73771E-03-1.30513E-13
 -1      1658 1.38993E-02 1.67218E-03-1.29219E-13
 -1      1659 1.50890E-02 1.39377E-03-9.87043E-14
 -1      1660 1.50676E-02 1.33964E-03-9.89204E-14
 -1      1661 1.50142E-02 1.52156E-03-9.79837E-14
 -1      1662 1.50677E-02 1.46053E-03-9.83564E-14
 -1      1663 1.47788E-02 1.70360E-03-9.68573E-14
 -1      1664 1.49083E-02 1.61020E-03-9.74258E-14
 -1      1665 1.44198E-02 1.95875E-03-9.54051E-14
 -1      1666 1.45993E-02 1.83464E-03-9.60835E-14
 -1      1667 1.39618E-02 2.27323E-03-9.37645E-14
 -1      1668 1.41841E-02 2.12070E-03-9.45474E-14
 -1      1669 1.34464E-02 2.59178E-03-9.19914E-14
 -1      1670 1.36821E-02 2.44856E-03-9.28253E-14
 -1      1671 1.29382E-02 2.78925E-03-9.01330E-14
 -1      1672 1.31753E-02 2.72189E-03-9.09877E-14
 -1      1673 1.23995E-02 2.75270E-03-8.81834E-14
 -1      1674 1.26516E-02 2.80929E-03-8.90870E-14
 -1      1675 1.18242E-02 2.43874E-03-8.63621E-14
 -1      1676 1.20872E-02 2.60763E-03-8.71863E-14
 -1      1677 1.12730E-02 2.00466E-03-8.47170E-14
 -1      1678 1.15288E-02 2.20961E-03-8.54324E-14
 -1      1679 1.07456E-02 1.60332E-03-8.34068E-14
 -1      1680 1.09757E-02 1.78305E-03-8.39854E-14
 -1      1681 1.02972E-02 1.27280E-03-8.23397E-14
 -1      1682 1.04944E-02 1.41587E-03-8.27983E-14
 -1      1683 9.94937E-03 1.01033E-03-8.14794E-14
 -1      1684 1.01001E-02 1.11381E-03-8.17954E-14
 -1      1685 9.72267E-03 8.35557E-04-8.10602E-14
 -1      1686 9.80754E-03 9.07760E-04-8.12033E-14
 -1      1687 9.66411E-03 7.12100E-04-8.11692E-14
 -1      1688 9.66983E-03 7.67264E-04-8.11076E-14
 -1      1689 9.75987E-03 6.07103E-04-8.15228E-14
 -1      1690 9.69835E-03 6.53805E-04-8.12935E-14
 -1      1691 9.99164E-03 4.95350E-04-8.22879E-14
 -1      1692 9.86859E-03 5.50240E-04-8.18658E-14
 -1      1693 1.03362E-02 3.56881E-04-8.35063E-14
 -1      1694 1.01660E-02 4.23187E-04-8.29023E-14
 -1      1695 1.07154E-02 2.10302E-04-8.50331E-14
 -1      1696 1.05354E-02 2.73262E-04-8.43416E-14
 -1      1697 1.11248E-02 8.86269E-05-8.67170E-14
 -1      1698 1.09328E-02 1.41700E-04-8.59112E-14
 -1      1699 1.15490E-02 1.15811E-05-8.85674E-14
 -1      1700 1.13553E-02 3.99519E-05-8.76934E-14
 -1      1701 1.19578E-02 8.34518E-06-9.04487E-14
 -1      1702 1.17725E-02 1.62152E-08-8.95935E-14
 -1      1703 1.24044E-02 9.56752E-05-9.24611E-14
 -1      1704 1.21917E-02 4.17030E-05-9.15241E-14
 -1      1705 1.28804E-02 2.69787E-04-9.43302E-14
 -1      1706 1.26636E-02 1.81958E-04-9.35001E-14
 -1      1707 1.33779E-02 5.18936E-04-9.61623E-14
 -1      1708 1.31350E-02 3.98817E-04-9.53819E-14
 -1      1709 1.39158E-02 7.49619E-04-9.73952E-14
 -1      1710 1.36874E-02 6.39546E-04-9.68248E-14
 -1      1711 1.43710E-02 9.62743E-04-9.83389E-14
 -1      1712 1.41682E-02 8.69082E-04-9.79535E-14
 -1      1713 1.47442E-02 1.13481E-03-9.88912E-14
 -1      1714 1.45842E-02 1.06060E-03-9.86867E-14
 -1      1715 1.49958E-02 1.27499E-03-9.90505E-14
 -1      1716 1.48967E-02 1.21721E-03-9.90572E-14
 -1      1717 2.78183E-04 1.72793E-04-2.86771E-17
 -1      1718 1.32151E-02 2.68292E-03-9.21736E-14
 -1      1719 1.20818E-02 2.13886E-03-8.36983E-14
 -1      1720 1.18381E-02 1.79561E-03-8.21792E-14
 -1      1721 1.14539E-02 1.53270E-03-8.14752E-14
 -1      1722 1.49476E-02 1.52128E-03-9.83147E-14
 -1      1723 1.50430E-02 1.33999E-03-9.97024E-14
 -1      1724 1.50875E-02 1.41623E-03-9.92241E-14
 -1      1725 1.36696E-02 1.59900E-03-1.30761E-13
 -1      1726 1.37750E-02 1.64222E-03-1.30537E-13
 -1      1727 1.36973E-02 1.57612E-03-1.29239E-13
 -1      1728 1.46479E-02 1.70335E-03-9.69820E-14
 -1      1729 1.42287E-02 1.98343E-03-9.53494E-14
 -1      1730 1.37375E-02 2.33290E-03-9.35507E-14
 -1      1731 1.32526E-02 2.67251E-03-9.16051E-14
 -1      1732 1.27863E-02 2.84403E-03-8.95549E-14
 -1      1733 1.23212E-02 2.71186E-03-8.75170E-14
 -1      1734 1.17928E-02 2.30801E-03-8.55962E-14
 -1      1735 1.12480E-02 1.83013E-03-8.39416E-14
 -1      1736 1.07128E-02 1.41679E-03-8.26046E-14
 -1      1737 1.02541E-02 1.09230E-03-8.14537E-14
 -1      1738 9.89728E-03 8.78465E-04-8.06326E-14
 -1      1739 9.69092E-03 7.64842E-04-8.03995E-14
 -1      1740 9.67128E-03 6.85501E-04-8.05657E-14
 -1      1741 9.81893E-03 6.10828E-04-8.10260E-14
 -1      1742 1.01064E-02 5.07008E-04-8.19770E-14
 -1      1743 1.04789E-02 3.58344E-04-8.34215E-14
 -1      1744 1.08797E-02 1.96546E-04-8.51311E-14
 -1      1745 1.12859E-02 5.94302E-05-8.69852E-14
 -1      1746 1.16741E-02-1.88240E-05-8.89872E-14
 -1      1747 1.20569E-02-3.24036E-06-9.10905E-14
 -1      1748 1.24661E-02 1.24554E-04-9.32081E-14
 -1      1749 1.29231E-02 3.56676E-04-9.53019E-14
 -1      1750 1.34321E-02 6.34157E-04-9.70221E-14
 -1      1751 1.39739E-02 8.86706E-04-9.82476E-14
 -1      1752 1.44412E-02 1.09420E-03-9.91554E-14
 -1      1753 1.48144E-02 1.24387E-03-9.96673E-14
 -1      1754 2.85333E-04-1.76295E-04-6.56620E-17
 -1      1755 1.20304E-02 2.23064E-03-8.43891E-14
 -1      1756 3.32209E-04-1.16851E-04-2.04792E-16
 -1      1757 3.36374E-04-1.33096E-04-1.92839E-16
 -1      1758 3.42280E-04-1.52083E-04-1.77985E-16
 -1      1759 3.51849E-04-1.74088E-04-1.57047E-16
 -1      1760 4.58410E-04-1.88198E-04-2.79643E-16
 -1      1761 3.24547E-04-6.54884E-05-2.28048E-16
 -1      1762 3.25703E-04-7.67675E-05-2.24742E-16
 -1      1763 3.23044E-04-4.40225E-05-2.31708E-16
 -1      1764 3.23704E-04-5.44970E-05-2.30352E-16
 -1      1765 4.36477E-04-7.94505E-05-3.37892E-16
 -1      1766 3.22247E-04-2.39399E-05-2.32317E-16
 -1      1767 3.22585E-04-3.38344E-05-2.32263E-16
 -1      1768 4.34464E-04-5.15104E-05-3.41700E-16
 -1      1769 3.21942E-04-4.55052E-06-2.30732E-16
 -1      1770 3.22045E-04-1.41790E-05-2.31775E-16
 -1      1771 4.33426E-04-2.51634E-05-3.41659E-16
 -1      1772 3.22054E-04 1.47105E-05-2.26964E-16
 -1      1773 3.21945E-04 5.07815E-06-2.29187E-16
 -1      1774 4.33112E-04 4.57739E-07-3.38773E-16
 -1      1775 3.22608E-04 3.43855E-05-2.21231E-16
 -1      1776 3.22263E-04 2.44790E-05-2.24471E-16
 -1      1777 4.33450E-04 2.60920E-05-3.32864E-16
 -1      1778 3.23723E-04 5.47237E-05-2.12544E-16
 -1      1779 3.23067E-04 4.44147E-05-2.17450E-16
 -1      1780 4.34507E-04 5.22506E-05-3.23648E-16
 -1      1781 3.25759E-04 7.72269E-05-2.00374E-16
 -1      1782 3.24572E-04 6.57272E-05-2.07150E-16
 -1      1783 4.36534E-04 7.99988E-05-3.10516E-16
 -1      1784 3.29432E-04 1.02823E-04-1.82336E-16
 -1      1785 3.27283E-04 8.96098E-05-1.92514E-16
 -1      1786 4.40139E-04 1.10777E-04-2.91813E-16
 -1      1787 3.36520E-04 1.33881E-04-1.54770E-16
 -1      1788 3.32344E-04 1.17583E-04-1.70315E-16
 -1      1789 4.46593E-04 1.46216E-04-2.64423E-16
 -1      1790 3.52330E-04 1.75261E-04-1.12337E-16
 -1      1791 3.42588E-04 1.53064E-04-1.36582E-16
 -1      1792 4.58876E-04 1.89559E-04-2.23576E-16
 -1      1793 1.34334E-02 2.49573E-03-9.30631E-14
 -1      1794 1.31922E-02 2.69917E-03-9.17290E-14
 -1      1795 3.40120E-04-1.90985E-04-1.14627E-16
 -1      1796 3.32957E-04 1.87916E-04-6.88875E-17
 -1      1797 8.07450E-04-3.74325E-04-5.43402E-16
 -1      1798 9.52756E-04-4.15556E-04-7.58928E-16
 -1      1799 1.09563E-03-4.50293E-04-1.01324E-15
 -1      1800 1.23734E-03-4.79238E-04-1.30694E-15
 -1      1801 1.00416E-03-3.98190E-04-9.29785E-16
 -1      1802 1.37778E-03-5.03771E-04-1.63934E-15
 -1      1803 1.51751E-03-5.24193E-04-2.01072E-15
 -1      1804 1.28991E-03-4.56253E-04-1.52443E-15
 -1      1805 1.65671E-03-5.41421E-04-2.41997E-15
 -1      1806 1.79559E-03-5.55697E-04-2.86692E-15
 -1      1807 1.57238E-03-4.97296E-04-2.27185E-15
 -1      1808 1.93435E-03-5.67629E-04-3.35115E-15
 -1      1809 2.07305E-03-5.77420E-04-3.87253E-15
 -1      1810 1.85306E-03-5.25942E-04-3.16900E-15
 -1      1811 2.21185E-03-5.85489E-04-4.43094E-15
 -1      1812 2.35074E-03-5.92009E-04-5.02540E-15
 -1      1813 2.13304E-03-5.45533E-04-4.21378E-15
 -1      1814 2.48983E-03-5.97276E-04-5.65631E-15
 -1      1815 2.62910E-03-6.01432E-04-6.32284E-15
 -1      1816 2.41298E-03-5.58528E-04-5.40369E-15
 -1      1817 2.76862E-03-6.04691E-04-7.02436E-15
 -1      1818 2.90835E-03-6.07166E-04-7.76037E-15
 -1      1819 2.69329E-03-5.66769E-04-6.73489E-15
 -1      1820 3.04835E-03-6.09011E-04-8.53027E-15
 -1      1821 3.18856E-03-6.10316E-04-9.33344E-15
 -1      1822 2.97419E-03-5.71636E-04-8.20475E-15
 -1      1823 3.32903E-03-6.11190E-04-1.01696E-14
 -1      1824 3.46970E-03-6.11702E-04-1.10377E-14
 -1      1825 3.25574E-03-5.74162E-04-9.80769E-15
 -1      1826 3.61060E-03-6.11930E-04-1.19367E-14
 -1      1827 3.75169E-03-6.11926E-04-1.28665E-14
 -1      1828 3.53796E-03-5.75109E-04-1.15396E-14
 -1      1829 3.89298E-03-6.11742E-04-1.38270E-14
 -1      1830 4.03443E-03-6.11418E-04-1.48175E-14
 -1      1831 3.82082E-03-5.75031E-04-1.33950E-14
 -1      1832 4.17606E-03-6.10988E-04-1.58374E-14
 -1      1833 4.31783E-03-6.10480E-04-1.68869E-14
 -1      1834 4.10423E-03-5.74322E-04-1.53719E-14
 -1      1835 4.45974E-03-6.09916E-04-1.79641E-14
 -1      1836 4.60177E-03-6.09317E-04-1.90694E-14
 -1      1837 4.38814E-03-5.73255E-04-1.74654E-14
 -1      1838 4.74392E-03-6.08693E-04-2.02037E-14
 -1      1839 4.88617E-03-6.08061E-04-2.13649E-14
 -1      1840 4.67247E-03-5.72014E-04-1.96731E-14
 -1      1841 5.02851E-03-6.07425E-04-2.25520E-14
 -1      1842 5.17094E-03-6.06795E-04-2.37662E-14
 -1      1843 4.95715E-03-5.70713E-04-2.19903E-14
 -1      1844 5.31344E-03-6.06175E-04-2.50073E-14
 -1      1845 5.45602E-03-6.05571E-04-2.62730E-14
 -1      1846 5.24212E-03-5.69426E-04-2.44140E-14
 -1      1847 5.59866E-03-6.04983E-04-2.75655E-14
 -1      1848 5.74136E-03-6.04418E-04-2.88826E-14
 -1      1849 5.52734E-03-5.68193E-04-2.69432E-14
 -1      1850 5.88412E-03-6.03876E-04-3.02251E-14
 -1      1851 6.02692E-03-6.03363E-04-3.15933E-14
 -1      1852 5.81277E-03-5.67042E-04-2.95731E-14
 -1      1853 6.16978E-03-6.02882E-04-3.29861E-14
 -1      1854 6.31268E-03-6.02439E-04-3.44036E-14
 -1      1855 6.09838E-03-5.65996E-04-3.23052E-14
 -1      1856 6.45562E-03-6.02043E-04-3.58454E-14
 -1      1857 6.59860E-03-6.01700E-04-3.73106E-14
 -1      1858 6.38415E-03-5.65092E-04-3.51348E-14
 -1      1859 6.74161E-03-6.01427E-04-3.87994E-14
 -1      1860 6.88465E-03-6.01231E-04-4.03107E-14
 -1      1861 6.67006E-03-5.64387E-04-3.80603E-14
 -1      1862 7.02772E-03-6.01138E-04-4.18448E-14
 -1      1863 7.17080E-03-6.01160E-04-4.34000E-14
 -1      1864 6.95609E-03-5.63976E-04-4.10767E-14
 -1      1865 7.31388E-03-6.01332E-04-4.49759E-14
 -1      1866 7.45694E-03-6.01666E-04-4.65730E-14
 -1      1867 7.24220E-03-5.63996E-04-4.41805E-14
 -1      1868 7.59998E-03-6.02210E-04-4.81902E-14
 -1      1869 7.74296E-03-6.02976E-04-4.98253E-14
 -1      1870 7.52835E-03-5.64641E-04-4.73678E-14
 -1      1871 7.88587E-03-6.04019E-04-5.14776E-14
 -1      1872 8.02863E-03-6.05347E-04-5.31477E-14
 -1      1873 7.81443E-03-5.66153E-04-5.06287E-14
 -1      1874 8.17125E-03-6.07012E-04-5.48355E-14
 -1      1875 8.31362E-03-6.09011E-04-5.65377E-14
 -1      1876 8.10028E-03-5.68796E-04-5.39608E-14
 -1      1877 8.45574E-03-6.11380E-04-5.82539E-14
 -1      1878 8.59745E-03-6.14087E-04-5.99813E-14
 -1      1879 8.38567E-03-5.72805E-04-5.73556E-14
 -1      1880 8.73877E-03-6.17124E-04-6.17193E-14
 -1      1881 8.87948E-03-6.20414E-04-6.34660E-14
 -1      1882 8.67022E-03-5.78278E-04-6.08004E-14
 -1      1883 9.01959E-03-6.23867E-04-6.52248E-14
 -1      1884 9.15885E-03-6.27330E-04-6.69879E-14
 -1      1885 8.95341E-03-5.85000E-04-6.42876E-14
 -1      1886 9.29729E-03-6.30590E-04-6.87593E-14
 -1      1887 9.43460E-03-6.33390E-04-7.05400E-14
 -1      1888 9.23453E-03-5.92200E-04-6.78079E-14
 -1      1889 9.57082E-03-6.35347E-04-7.23260E-14
 -1      1890 9.70567E-03-6.36076E-04-7.41197E-14
 -1      1891 9.51270E-03-5.98255E-04-7.13581E-14
 -1      1892 9.83917E-03-6.35004E-04-7.59222E-14
 -1      1893 9.97112E-03-6.31611E-04-7.77308E-14
 -1      1894 9.78697E-03-6.00386E-04-7.49386E-14
 -1      1895 1.01015E-02-6.25153E-04-7.95463E-14
 -1      1896 1.02304E-02-6.15008E-04-8.13683E-14
 -1      1897 1.00564E-02-5.94485E-04-7.85480E-14
 -1      1898 1.03577E-02-6.00334E-04-8.31945E-14
 -1      1899 1.04835E-02-5.80485E-04-8.50265E-14
 -1      1900 1.03204E-02-5.75211E-04-8.21822E-14
 -1      1901 1.06080E-02-5.54658E-04-8.68627E-14
 -1      1902 1.07314E-02-5.22299E-04-8.87019E-14
 -1      1903 1.05791E-02-5.36501E-04-8.58392E-14
 -1      1904 1.08539E-02-4.82809E-04-9.05442E-14
 -1      1905 1.09759E-02-4.35848E-04-9.23912E-14
 -1      1906 1.08333E-02-4.72532E-04-8.95105E-14
 -1      1907 1.10975E-02-3.81164E-04-9.42430E-14
 -1      1908 1.12194E-02-3.18719E-04-9.60985E-14
 -1      1909 1.10848E-02-3.78934E-04-9.31951E-14
 -1      1910 1.13415E-02-2.48669E-04-9.79583E-14
 -1      1911 1.14645E-02-1.71286E-04-9.98231E-14
 -1      1912 1.13359E-02-2.53856E-04-9.68994E-14
 -1      1913 1.15883E-02-8.70968E-05-1.01691E-13
 -1      1914 1.17135E-02 3.38394E-06-1.03563E-13
 -1      1915 1.15892E-02-9.84485E-05-1.00619E-13
 -1      1916 1.18400E-02 9.93883E-05-1.05433E-13
 -1      1917 1.19681E-02 2.00276E-04-1.07303E-13
 -1      1918 1.18465E-02 8.34367E-05-1.04350E-13
 -1      1919 1.20978E-02 3.05193E-04-1.09178E-13
 -1      1920 1.22290E-02 4.13489E-04-1.11051E-13
 -1      1921 1.21089E-02 2.86206E-04-1.08086E-13
 -1      1922 1.23618E-02 5.24357E-04-1.12922E-13
 -1      1923 1.24961E-02 6.37216E-04-1.14792E-13
 -1      1924 1.23768E-02 5.03697E-04-1.11824E-13
 -1      1925 1.26318E-02 7.51376E-04-1.16661E-13
 -1      1926 1.27687E-02 8.66347E-04-1.18529E-13
 -1      1927 1.26496E-02 7.30140E-04-1.15555E-13
 -1      1928 1.29070E-02 9.81578E-04-1.20396E-13
 -1      1929 1.30462E-02 1.09665E-03-1.22261E-13
 -1      1930 1.29266E-02 9.60656E-04-1.19286E-13
 -1      1931 1.31865E-02 1.21115E-03-1.24124E-13
 -1      1932 1.33275E-02 1.32472E-03-1.25989E-13
 -1      1933 1.32071E-02 1.19132E-03-1.23009E-13
 -1      1934 1.22333E-03 4.76707E-04-1.03757E-15
 -1      1935 1.08150E-03 4.47249E-04-7.88676E-16
 -1      1936 9.38494E-04 4.11904E-04-5.76484E-16
 -1      1937 7.93002E-04 3.69918E-04-4.00071E-16
 -1      1938 9.89915E-04 3.94913E-04-7.36919E-16
 -1      1939 1.50365E-03 5.22448E-04-1.64482E-15
 -1      1940 1.36385E-03 5.01662E-04-1.32288E-15
 -1      1941 1.27581E-03 4.53961E-04-1.24708E-15
 -1      1942 1.78180E-03 5.54538E-04-2.39873E-15
 -1      1943 1.64289E-03 5.39993E-04-2.00342E-15
 -1      1944 1.55839E-03 4.95721E-04-1.90168E-15
 -1      1945 2.05926E-03 5.76692E-04-3.29909E-15
 -1      1946 1.92057E-03 5.66703E-04-2.83035E-15
 -1      1947 1.83913E-03 5.24910E-04-2.70141E-15
 -1      1948 2.33692E-03 5.91599E-04-4.34540E-15
 -1      1949 2.19805E-03 5.84933E-04-3.80433E-15
 -1      1950 2.11912E-03 5.44901E-04-3.64659E-15
 -1      1951 2.61524E-03 6.01255E-04-5.53336E-15
 -1      1952 2.47600E-03 5.96992E-04-4.92163E-15
 -1      1953 2.39905E-03 5.58190E-04-4.73532E-15
 -1      1954 2.89445E-03 6.07158E-04-6.86045E-15
 -1      1955 2.75474E-03 6.04606E-04-6.17987E-15
 -1      1956 2.67934E-03 5.66646E-04-5.96414E-15
 -1      1957 3.17461E-03 6.10430E-04-8.32389E-15
 -1      1958 3.03442E-03 6.09070E-04-7.57506E-15
 -1      1959 2.96020E-03 5.71669E-04-7.33014E-15
 -1      1960 3.45569E-03 6.11905E-04-9.92065E-15
 -1      1961 3.31505E-03 6.11352E-04-9.10593E-15
 -1      1962 3.24172E-03 5.74307E-04-8.83106E-15
 -1      1963 3.72352E-03 6.12197E-04-1.15605E-14
 -1      1964 3.58952E-03 6.12160E-04-1.07257E-14
 -1      1965 3.51685E-03 5.75322E-04-1.04220E-14
 -1      1966 4.00619E-03 6.11762E-04-1.34149E-14
 -1      1967 3.86477E-03 6.12054E-04-1.24712E-14
 -1      1968 3.79257E-03 5.75331E-04-1.21373E-14
 -1      1969 4.28951E-03 6.10867E-04-1.53995E-14
 -1      1970 4.14778E-03 6.11357E-04-1.43914E-14
 -1      1971 4.07593E-03 5.74685E-04-1.40258E-14
 -1      1972 4.57339E-03 6.09723E-04-1.75084E-14
 -1      1973 4.43139E-03 6.10316E-04-1.64384E-14
 -1      1974 4.35979E-03 5.73655E-04-1.60423E-14
 -1      1975 4.85772E-03 6.08460E-04-1.97353E-14
 -1      1976 4.71551E-03 6.09100E-04-1.86076E-14
 -1      1977 4.64407E-03 5.72425E-04-1.81807E-14
 -1      1978 5.14244E-03 6.07150E-04-2.20698E-14
 -1      1979 5.00004E-03 6.07807E-04-2.08895E-14
 -1      1980 4.92871E-03 5.71109E-04-2.04339E-14
 -1      1981 5.42747E-03 6.05823E-04-2.45059E-14
 -1      1982 5.28492E-03 6.06487E-04-2.32760E-14
 -1      1983 5.21366E-03 5.69765E-04-2.27952E-14
 -1      1984 5.71278E-03 6.04471E-04-2.70353E-14
 -1      1985 5.57009E-03 6.05150E-04-2.57589E-14
 -1      1986 5.49886E-03 5.68410E-04-2.52543E-14
 -1      1987 5.99834E-03 6.03058E-04-2.96551E-14
 -1      1988 5.85553E-03 6.03773E-04-2.83344E-14
 -1      1989 5.78430E-03 5.67029E-04-2.78068E-14
 -1      1990 6.28417E-03 6.01519E-04-3.23626E-14
 -1      1991 6.14122E-03 6.02307E-04-3.09971E-14
 -1      1992 6.06996E-03 5.65575E-04-3.04496E-14
 -1      1993 6.57031E-03 5.99759E-04-3.51590E-14
 -1      1994 6.42720E-03 6.00670E-04-3.37503E-14
 -1      1995 6.35586E-03 5.63977E-04-3.31810E-14
 -1      1996 6.85683E-03 5.97646E-04-3.80396E-14
 -1      1997 6.71351E-03 5.98752E-04-3.65893E-14
 -1      1998 6.64202E-03 5.62129E-04-3.59991E-14
 -1      1999 7.14390E-03 5.95004E-04-4.10008E-14
 -1      2000 7.00028E-03 5.96397E-04-3.95106E-14
 -1      2001 6.92852E-03 5.59891E-04-3.89013E-14
 -1      2002 7.41733E-03 5.91791E-04-4.38841E-14
 -1      2003 7.28050E-03 5.93489E-04-4.24337E-14
 -1      2004 7.20829E-03 5.57156E-04-4.18075E-14
 -1      2005 7.70624E-03 5.87385E-04-4.69852E-14
 -1      2006 7.56159E-03 5.89726E-04-4.54259E-14
 -1      2007 7.48861E-03 5.53648E-04-4.47820E-14
 -1      2008 7.99681E-03 5.81582E-04-5.01515E-14
 -1      2009 7.85124E-03 5.84664E-04-4.85610E-14
 -1      2010 7.77691E-03 5.48960E-04-4.79001E-14
 -1      2011 8.28981E-03 5.74017E-04-5.33808E-14
 -1      2012 8.14287E-03 5.78018E-04-5.17590E-14
 -1      2013 8.06624E-03 5.42836E-04-5.10836E-14
 -1      2014 8.58632E-03 5.64470E-04-5.66642E-14
 -1      2015 8.43740E-03 5.69472E-04-5.50162E-14
 -1      2016 8.35688E-03 5.34982E-04-5.43261E-14
 -1      2017 8.88776E-03 5.53278E-04-5.99917E-14
 -1      2018 8.73607E-03 5.59017E-04-5.83221E-14
 -1      2019 8.64903E-03 5.25353E-04-5.76209E-14
 -1      2020 9.19589E-03 5.42330E-04-6.33535E-14
 -1      2021 9.04047E-03 5.47602E-04-6.16694E-14
 -1      2022 8.94265E-03 5.14668E-04-6.09586E-14
 -1      2023 9.51264E-03 5.37338E-04-6.67412E-14
 -1      2024 9.35245E-03 5.38643E-04-6.50443E-14
 -1      2025 9.23715E-03 5.05555E-04-6.43277E-14
 -1      2026 9.84040E-03 5.52629E-04-7.01407E-14
 -1      2027 9.67418E-03 5.41303E-04-6.84398E-14
 -1      2028 9.53124E-03 5.04926E-04-6.77192E-14
 -1      2029 1.01843E-02 6.20360E-04-7.35465E-14
 -1      2030 1.00091E-02 5.76984E-04-7.18428E-14
 -1      2031 9.82395E-03 5.28561E-04-7.11226E-14
 -1      2032 1.04801E-02 7.52705E-04-7.62676E-14
 -1      2033 1.03291E-02 6.74144E-04-7.49088E-14
 -1      2034 1.00897E-02 5.96805E-04-7.41878E-14
 -1      2035 1.48752E-02 1.51671E-03-9.87772E-14
 -1      2036 1.49912E-02 1.46705E-03-9.93376E-14
 -1      2037 1.28445E-02 2.88948E-03-8.96786E-14
 -1      2038 1.26076E-02 2.86753E-03-8.82972E-14
 -1      2039 1.13602E-02 1.61198E-03-8.24040E-14
 -1      2040 1.11111E-02 1.29144E-03-8.07918E-14
 -1      2041 1.24175E-02 2.74776E-03-8.73041E-14
 -1      2042 1.22027E-02 2.54833E-03-8.61053E-14
 -1      2043 1.42748E-02 1.78184E-03-9.85709E-14
 -1      2044 1.40576E-02 1.92285E-03-9.70563E-14
 -1      2045 1.51471E-02 1.70127E-03-1.05630E-13
 -1      2046 1.49547E-02 1.65140E-03-1.03847E-13
 -1      2047 1.55073E-02 1.86680E-03-1.09207E-13
 -1      2048 1.53304E-02 1.77582E-03-1.07419E-13
 -1      2049 1.52579E-02 1.69548E-03-1.06715E-13
 -1      2050 1.58423E-02 2.07352E-03-1.12771E-13
 -1      2051 1.56769E-02 1.96726E-03-1.10991E-13
 -1      2052 1.55707E-02 1.87886E-03-1.10287E-13
 -1      2053 1.61584E-02 2.29018E-03-1.16313E-13
 -1      2054 1.60019E-02 2.18174E-03-1.14543E-13
 -1      2055 1.58753E-02 2.09110E-03-1.13845E-13
 -1      2056 1.64600E-02 2.50015E-03-1.19831E-13
 -1      2057 1.63104E-02 2.39680E-03-1.18074E-13
 -1      2058 1.61735E-02 2.30803E-03-1.17384E-13
 -1      2059 1.66180E-02 2.61138E-03-1.22114E-13
 -1      2060 1.65344E-02 2.55304E-03-1.20894E-13
 -1      2061 1.63947E-02 2.46848E-03-1.20210E-13
 -1      2062 1.65407E-02 2.57395E-03-1.22337E-13
 -1      2063 1.62206E-02 2.43297E-03-1.22689E-13
 -1      2064 1.63015E-02 2.46113E-03-1.22456E-13
 -1      2065 1.63841E-02 2.49940E-03-1.22508E-13
 -1      2066 1.64591E-02 2.53165E-03-1.22279E-13
 -1      2067 1.63874E-02 2.47882E-03-1.21213E-13
 -1      2068 1.62268E-02 2.39818E-03-1.21097E-13
 -1      2069 1.60391E-02 2.38024E-03-1.23155E-13
 -1      2070 1.61335E-02 2.40656E-03-1.22922E-13
 -1      2071 1.60611E-02 2.33316E-03-1.21271E-13
 -1      2072 1.58310E-02 2.32730E-03-1.23620E-13
 -1      2073 1.59388E-02 2.35450E-03-1.23388E-13
 -1      2074 1.58741E-02 2.28060E-03-1.21727E-13
 -1      2075 1.55928E-02 2.26675E-03-1.24093E-13
 -1      2076 1.57148E-02 2.29828E-03-1.23856E-13
 -1      2077 1.56553E-02 2.22423E-03-1.22189E-13
 -1      2078 1.53381E-02 2.19624E-03-1.24562E-13
 -1      2079 1.54669E-02 2.23287E-03-1.24329E-13
 -1      2080 1.54092E-02 2.15863E-03-1.22654E-13
 -1      2081 1.50789E-02 2.11543E-03-1.25025E-13
 -1      2082 1.52084E-02 2.15701E-03-1.24796E-13
 -1      2083 1.51497E-02 2.08245E-03-1.23114E-13
 -1      2084 1.48251E-02 2.02613E-03-1.25483E-13
 -1      2085 1.49509E-02 2.07158E-03-1.25254E-13
 -1      2086 1.48891E-02 1.99673E-03-1.23568E-13
 -1      2087 1.45827E-02 1.93135E-03-1.25940E-13
 -1      2088 1.47023E-02 1.97912E-03-1.25712E-13
 -1      2089 1.46367E-02 1.90417E-03-1.24016E-13
 -1      2090 1.43573E-02 1.83588E-03-1.26381E-13
 -1      2091 1.44684E-02 1.88363E-03-1.26160E-13
 -1      2092 1.43994E-02 1.80874E-03-1.24459E-13
 -1      2093 1.41396E-02 1.73911E-03-1.26833E-13
 -1      2094 1.42472E-02 1.78725E-03-1.26609E-13
 -1      2095 1.41755E-02 1.71246E-03-1.24902E-13
 -1      2096 1.39299E-02 1.64458E-03-1.27279E-13
 -1      2097 1.40340E-02 1.69145E-03-1.27057E-13
 -1      2098 1.39609E-02 1.61664E-03-1.25347E-13
 -1      2099 1.37233E-02 1.55333E-03-1.27723E-13
 -1      2100 1.38265E-02 1.59853E-03-1.27500E-13
 -1      2101 1.37534E-02 1.52349E-03-1.25787E-13
 -1      2102 1.45139E-02 1.71646E-03-9.71268E-14
 -1      2103 1.46997E-02 1.61062E-03-9.79002E-14
 -1      2104 1.34520E-02 1.43456E-03-1.28071E-13
 -1      2105 1.50783E-02 1.37946E-03-1.00411E-13
 -1      2106 1.50087E-02 1.36014E-03-1.00540E-13
 -1      2107 3.27184E-04-8.90527E-05-2.20052E-16
 -1      2108 3.29279E-04-1.02216E-04-2.13235E-16
 -1      2109 4.46332E-04-1.45217E-04-3.10746E-16
 -1      2110 4.40005E-04-1.10067E-04-3.28337E-16
 -1      2111 1.47502E-02 1.63610E-03-1.02063E-13
 -1      2112 1.45336E-02 1.67270E-03-1.00277E-13
 -1      2113 1.49273E-02 1.58662E-03-1.03142E-13
 -1      2114 1.40632E-02 2.01918E-03-9.53769E-14
 -1      2115 1.42842E-02 1.86108E-03-9.62353E-14
 -1      2116 1.07383E-02 1.29076E-03-8.18588E-14
 -1      2117 1.09896E-02 1.47055E-03-8.24644E-14
 -1      2118 1.02267E-02 9.48779E-04-8.04493E-14
 -1      2119 1.04360E-02 1.07320E-03-8.09932E-14
 -1      2120 9.84758E-03 7.82828E-04-7.97394E-14
 -1      2121 9.99822E-03 8.42699E-04-8.00175E-14
 -1      2122 9.66365E-03 7.08395E-04-7.95371E-14
 -1      2123 9.72096E-03 7.28233E-04-7.94956E-14
 -1      2124 9.68036E-03 6.70602E-04-7.97725E-14
 -1      2125 9.65110E-03 6.88101E-04-7.96547E-14
 -1      2126 9.65171E-03 6.70975E-04-7.87469E-14
 -1      2127 9.87450E-03 6.10445E-04-8.04856E-14
 -1      2128 9.76542E-03 6.40280E-04-8.01480E-14
 -1      2129 1.02084E-02 5.02178E-04-8.16157E-14
 -1      2130 1.00380E-02 5.59734E-04-8.10068E-14
 -1      2131 1.06153E-02 3.35825E-04-8.33666E-14
 -1      2132 1.04254E-02 4.17276E-04-8.25350E-14
 -1      2133 1.10105E-02 1.68802E-04-8.50994E-14
 -1      2134 1.08262E-02 2.49936E-04-8.42240E-14
 -1      2135 1.13916E-02 2.38893E-05-8.71348E-14
 -1      2136 1.12169E-02 8.78236E-05-8.61588E-14
 -1      2137 1.17544E-02-4.67540E-05-8.93998E-14
 -1      2138 1.15954E-02-2.56263E-05-8.83731E-14
 -1      2139 1.21011E-02-4.82350E-06-9.16860E-14
 -1      2140 1.19400E-02-3.99024E-05-9.06084E-14
 -1      2141 1.25079E-02 1.72073E-04-9.40638E-14
 -1      2142 1.23198E-02 7.60639E-05-9.30217E-14
 -1      2143 1.29280E-02 4.31957E-04-9.61744E-14
 -1      2144 1.27172E-02 2.90517E-04-9.51183E-14
 -1      2145 1.25574E-02 2.34966E-04-9.49353E-14
 -1      2146 1.35257E-02 7.66158E-04-9.80352E-14
 -1      2147 1.32609E-02 6.27992E-04-9.73663E-14
 -1      2148 1.40332E-02 1.01459E-03-9.92377E-14
 -1      2149 1.37909E-02 8.97427E-04-9.86755E-14
 -1      2150 1.45122E-02 1.20361E-03-1.00065E-13
 -1      2151 1.42987E-02 1.12442E-03-9.97190E-14
 -1      2152 1.48733E-02 1.32626E-03-1.00620E-13
 -1      2153 1.47178E-02 1.28178E-03-1.00456E-13
 -1      2154 4.52259E-04 2.34592E-04-1.39076E-16
 -1      2155 1.50741E-02 1.42577E-03-9.98766E-14
 -1      2156 1.51021E-02 1.40570E-03-1.00228E-13
 -1      2157 1.36305E-02 2.29354E-03-9.44203E-14
 -1      2158 1.36766E-02 2.30794E-03-9.39711E-14
 -1      2159 1.38978E-02 2.12212E-03-9.49147E-14
 -1      2160 1.38413E-02 2.09150E-03-9.57512E-14
 -1      2161 4.59076E-04-2.36825E-04-2.03830E-16
 -1      2162 1.34734E-02 1.41639E-03-1.26948E-13
 -1      2163 1.30134E-02 2.82933E-03-9.07269E-14
 -1      2164 1.51006E-02 1.40887E-03-1.01065E-13
 -1      2165 6.08038E-04-2.98275E-04-3.30126E-16
 -1      2166 1.21247E-02 2.42801E-03-8.54767E-14
 -1      2167 1.18017E-02 2.08587E-03-8.41713E-14
 -1      2168 6.63746E-04-2.92577E-04-4.42734E-16
 -1      2169 6.57060E-04 2.91159E-04-3.40534E-16
 -1      2170 6.01357E-04 2.96663E-04-2.37820E-16
 -1      2171 1.50405E-02 1.44176E-03-1.00340E-13
 -1      2172 1.47831E-02 1.54152E-03-9.89230E-14
 -1      2173 1.09193E-02 1.07000E-03-7.92459E-14
 -1      2174 1.07279E-02 8.99284E-04-7.78029E-14
 -1      2175 1.45281E-02 1.65044E-03-9.96527E-14
 -1      2176 1.08149E-02 1.10938E-03-8.01697E-14
 -1      2177 1.40734E-02 1.92508E-03-9.66379E-14
 -1      2178 1.43803E-02 1.75934E-03-9.71526E-14
 -1      2179 9.70831E-03 6.49985E-04-7.92341E-14
 -1      2180 1.04181E-02 7.62452E-04-7.70883E-14
 -1      2181 1.35714E-02 1.46752E-03-1.27158E-13
 -1      2182 1.49442E-02 1.37654E-03-1.01328E-13
 -1      2183 9.78145E-03 7.10309E-04-7.88778E-14
 -1      2184 1.46032E-02 1.29206E-03-1.01019E-13
 -1      2185 1.41378E-02 1.11834E-03-1.00148E-13
 -1      2186 1.30504E-02 5.48647E-04-9.71884E-14
 -1      2187 1.28736E-02 4.71288E-04-9.70062E-14
 -1      2188 1.31711E-02 6.64070E-04-9.82038E-14
 -1      2189 1.21780E-02 2.88614E-05-9.25407E-14
 -1      2190 1.18282E-02-5.62488E-05-8.99939E-14
 -1      2191 1.14854E-02-1.10633E-05-8.75444E-14
 -1      2192 1.11178E-02 1.25624E-04-8.52477E-14
 -1      2193 1.07354E-02 2.96374E-04-8.33330E-14
 -1      2194 1.03220E-02 4.66524E-04-8.15603E-14
 -1      2195 1.01359E-02 8.39059E-04-7.95553E-14
 -1      2196 1.06639E-02 1.13068E-03-8.08536E-14
 -1      2197 1.17211E-02 2.17490E-03-8.49660E-14
 -1      2198 1.19707E-02 2.41756E-03-8.58906E-14
 -1      2199 1.12060E-02 1.69994E-03-8.33487E-14
 -1      2200 1.14764E-02 1.92840E-03-8.40763E-14
 -1      2201 1.16496E-02 2.04850E-03-8.43723E-14
 -1      2202 1.11930E-02 1.56969E-03-8.26007E-14
 -1      2203 9.95189E-03 5.88913E-04-8.01251E-14
 -1      2204 1.36230E-02 8.80485E-04-9.90241E-14
 -1      2205 1.34995E-02 1.39160E-03-1.25439E-13
 -1      2206 1.50112E-02 1.42074E-03-1.02219E-13
 -1      2207 1.48842E-02 1.40838E-03-1.02299E-13
 -1      2208 5.47710E-04-5.55625E-05-4.85099E-16
 -1      2209 5.48762E-04-7.22571E-05-4.83988E-16
 -1      2210 5.50198E-04-8.95609E-05-4.81332E-16
 -1      2211 5.52077E-04-1.07530E-04-4.77022E-16
 -1      2212 6.65221E-04-9.57696E-05-6.53394E-16
 -1      2213 5.46278E-04 8.46820E-06-4.78784E-16
 -1      2214 5.46269E-04-7.33230E-06-4.81887E-16
 -1      2215 5.47010E-04 4.03908E-05-4.69825E-16
 -1      2216 5.46521E-04 2.43631E-05-4.74894E-16
 -1      2217 6.61171E-04 1.94523E-05-6.45669E-16
 -1      2218 5.48811E-04 7.29009E-05-4.56192E-16
 -1      2219 5.47762E-04 5.64682E-05-4.63700E-16
 -1      2220 6.62468E-04 5.72071E-05-6.32646E-16
 -1      2221 5.52164E-04 1.08220E-04-4.36879E-16
 -1      2222 5.50260E-04 9.02293E-05-4.47410E-16
 -1      2223 6.65292E-04 9.65493E-05-6.13469E-16
 -1      2224 5.57983E-04 1.47342E-04-4.09666E-16
 -1      2225 5.54700E-04 1.27234E-04-4.24560E-16
 -1      2226 6.70328E-04 1.39152E-04-5.86580E-16
 -1      2227 5.68233E-04 1.92621E-04-3.70160E-16
 -1      2228 5.62420E-04 1.69102E-04-3.91939E-16
 -1      2229 6.78894E-04 1.86502E-04-5.48877E-16
 -1      2230 6.14178E-04 2.52893E-04-3.45210E-16
 -1      2231 6.03375E-04 2.23641E-04-3.77384E-16
 -1      2232 7.20702E-04 2.44545E-04-5.35609E-16
 -1      2233 8.00281E-04 3.16842E-04-5.42047E-16
 -1      2234 9.15354E-04-3.46623E-04-8.44322E-16
 -1      2235 1.05947E-03-3.79993E-04-1.10738E-15
 -1      2236 5.88580E-04-2.38128E-04-4.07131E-16
 -1      2237 7.81443E-04-3.05006E-04-6.44992E-16
 -1      2238 8.40841E-04-2.93837E-04-7.84746E-16
 -1      2239 5.79040E-04-2.10358E-04-4.30577E-16
 -1      2240 1.20275E-03-4.08433E-04-1.40813E-15
 -1      2241 1.34558E-03-4.32353E-04-1.74691E-15
 -1      2242 1.11712E-03-3.60842E-04-1.29127E-15
 -1      2243 1.48778E-03-4.52615E-04-2.12318E-15
 -1      2244 1.62959E-03-4.69499E-04-2.53686E-15
 -1      2245 1.40349E-03-4.07697E-04-1.97449E-15
 -1      2246 1.77103E-03-4.83677E-04-2.98748E-15
 -1      2247 1.91223E-03-4.95364E-04-3.47452E-15
 -1      2248 1.68865E-03-4.41024E-04-2.80582E-15
 -1      2249 2.05329E-03-5.05054E-04-3.99748E-15
 -1      2250 2.19423E-03-5.12925E-04-4.55715E-15
 -1      2251 1.97287E-03-4.64164E-04-3.78254E-15
 -1      2252 2.33515E-03-5.19337E-04-5.15194E-15
 -1      2253 2.47607E-03-5.24435E-04-5.78267E-15
 -1      2254 2.25654E-03-4.79761E-04-4.90195E-15
 -1      2255 2.61704E-03-5.28483E-04-6.44798E-15
 -1      2256 2.75806E-03-5.31596E-04-7.14754E-15
 -1      2257 2.53999E-03-4.89859E-04-6.16233E-15
 -1      2258 2.89919E-03-5.33969E-04-7.88157E-15
 -1      2259 3.04040E-03-5.35691E-04-8.64849E-15
 -1      2260 2.82344E-03-4.96016E-04-7.56049E-15
 -1      2261 3.18173E-03-5.36904E-04-9.44808E-15
 -1      2262 3.32316E-03-5.37676E-04-1.02809E-14
 -1      2263 3.10705E-03-4.99410E-04-9.09215E-15
 -1      2264 3.46472E-03-5.38109E-04-1.11451E-14
 -1      2265 3.60637E-03-5.38254E-04-1.20402E-14
 -1      2266 3.39088E-03-5.00918E-04-1.07532E-14
 -1      2267 3.74815E-03-5.38183E-04-1.29659E-14
 -1      2268 3.89001E-03-5.37933E-04-1.39222E-14
 -1      2269 3.67498E-03-5.01183E-04-1.25402E-14
 -1      2270 4.03199E-03-5.37553E-04-1.49087E-14
 -1      2271 4.17405E-03-5.37072E-04-1.59246E-14
 -1      2272 3.95934E-03-5.00667E-04-1.44489E-14
 -1      2273 4.31621E-03-5.36519E-04-1.69700E-14
 -1      2274 4.45844E-03-5.35916E-04-1.80433E-14
 -1      2275 4.24395E-03-4.99693E-04-1.64762E-14
 -1      2276 4.60076E-03-5.35281E-04-1.91450E-14
 -1      2277 4.74314E-03-5.34627E-04-2.02752E-14
 -1      2278 4.52879E-03-4.98481E-04-1.86198E-14
 -1      2279 4.88559E-03-5.33967E-04-2.14322E-14
 -1      2280 5.02809E-03-5.33308E-04-2.26147E-14
 -1      2281 4.81382E-03-4.97172E-04-2.08750E-14
 -1      2282 5.17065E-03-5.32656E-04-2.38245E-14
 -1      2283 5.31325E-03-5.32018E-04-2.50617E-14
 -1      2284 5.09902E-03-4.95854E-04-2.32388E-14
 -1      2285 5.45591E-03-5.31395E-04-2.63238E-14
 -1      2286 5.59861E-03-5.30792E-04-2.76118E-14
 -1      2287 5.38436E-03-4.94577E-04-2.57074E-14
 -1      2288 5.74134E-03-5.30210E-04-2.89255E-14
 -1      2289 5.88412E-03-5.29653E-04-3.02638E-14
 -1      2290 5.66983E-03-4.93371E-04-2.82799E-14
 -1      2291 6.02693E-03-5.29123E-04-3.16267E-14
 -1      2292 6.16977E-03-5.28624E-04-3.30154E-14
 -1      2293 5.95542E-03-4.92253E-04-3.09528E-14
 -1      2294 6.31265E-03-5.28163E-04-3.44286E-14
 -1      2295 6.45556E-03-5.27743E-04-3.58646E-14
 -1      2296 6.24111E-03-4.91247E-04-3.37252E-14
 -1      2297 6.59849E-03-5.27377E-04-3.73251E-14
 -1      2298 6.74146E-03-5.27071E-04-3.88077E-14
 -1      2299 6.52691E-03-4.90388E-04-3.65930E-14
 -1      2300 6.88446E-03-5.26845E-04-4.03128E-14
 -1      2301 7.02749E-03-5.26707E-04-4.18401E-14
 -1      2302 6.81283E-03-4.89741E-04-3.95533E-14
 -1      2303 7.17055E-03-5.26687E-04-4.33902E-14
 -1      2304 7.31363E-03-5.26799E-04-4.49595E-14
 -1      2305 7.09889E-03-4.89408E-04-4.26022E-14
 -1      2306 7.45675E-03-5.27080E-04-4.65486E-14
 -1      2307 7.59987E-03-5.27548E-04-4.81595E-14
 -1      2308 7.38513E-03-4.89539E-04-4.57355E-14
 -1      2309 7.74303E-03-5.28249E-04-4.97857E-14
 -1      2310 7.88618E-03-5.29204E-04-5.14287E-14
 -1      2311 7.67158E-03-4.90341E-04-4.89450E-14
 -1      2312 8.02934E-03-5.30461E-04-5.30912E-14
 -1      2313 8.17247E-03-5.32039E-04-5.47697E-14
 -1      2314 7.95828E-03-4.92066E-04-5.22266E-14
 -1      2315 8.31559E-03-5.33977E-04-5.64634E-14
 -1      2316 8.45860E-03-5.36285E-04-5.81695E-14
 -1      2317 8.24526E-03-4.94990E-04-5.55746E-14
 -1      2318 8.60157E-03-5.38973E-04-5.98872E-14
 -1      2319 8.74434E-03-5.42022E-04-6.16158E-14
 -1      2320 8.53251E-03-4.99346E-04-5.89778E-14
 -1      2321 8.88698E-03-5.45386E-04-6.33536E-14
 -1      2322 9.02929E-03-5.48991E-04-6.51028E-14
 -1      2323 8.81992E-03-5.05205E-04-6.24274E-14
 -1      2324 9.17132E-03-5.52695E-04-6.68586E-14
 -1      2325 9.31284E-03-5.56332E-04-6.86215E-14
 -1      2326 9.10720E-03-5.12281E-04-6.59135E-14
 -1      2327 9.45388E-03-5.59622E-04-7.03939E-14
 -1      2328 9.59418E-03-5.62263E-04-7.21728E-14
 -1      2329 9.39383E-03-5.19650E-04-6.94327E-14
 -1      2330 9.73374E-03-5.63799E-04-7.39597E-14
 -1      2331 9.87232E-03-5.63758E-04-7.57526E-14
 -1      2332 9.67897E-03-5.25393E-04-7.29846E-14
 -1      2333 1.00099E-02-5.61499E-04-7.75536E-14
 -1      2334 1.01463E-02-5.56371E-04-7.93608E-14
 -1      2335 9.96151E-03-5.26241E-04-7.65633E-14
 -1      2336 1.02814E-02-5.47584E-04-8.11737E-14
 -1      2337 1.04153E-02-5.34365E-04-8.29921E-14
 -1      2338 1.02403E-02-5.17373E-04-8.01689E-14
 -1      2339 1.05479E-02-5.15873E-04-8.48160E-14
 -1      2340 1.06794E-02-4.91339E-04-8.66460E-14
 -1      2341 1.05143E-02-4.92586E-04-8.37988E-14
 -1      2342 1.08098E-02-4.60028E-04-8.84768E-14
 -1      2343 1.09395E-02-4.21346E-04-9.03117E-14
 -1      2344 1.07836E-02-4.45060E-04-8.74472E-14
 -1      2345 1.10685E-02-3.74840E-04-9.21525E-14
 -1      2346 1.11974E-02-3.20257E-04-9.39973E-14
 -1      2347 1.10492E-02-3.68690E-04-9.11121E-14
 -1      2348 1.13262E-02-2.57547E-04-9.58456E-14
 -1      2349 1.14556E-02-1.86867E-04-9.76957E-14
 -1      2350 1.13131E-02-2.59653E-04-9.47937E-14
 -1      2351 1.15854E-02-1.08584E-04-9.95508E-14
 -1      2352 1.17163E-02-2.32241E-05-1.01412E-13
 -1      2353 1.15779E-02-1.17527E-04-9.84902E-14
 -1      2354 1.18482E-02 6.85286E-05-1.03274E-13
 -1      2355 1.19813E-02 1.65935E-04-1.05136E-13
 -1      2356 1.18458E-02 5.45832E-05-1.02200E-13
 -1      2357 1.21156E-02 2.68155E-04-1.06997E-13
 -1      2358 1.22511E-02 3.74410E-04-1.08863E-13
 -1      2359 1.21182E-02 2.50973E-04-1.05917E-13
 -1      2360 1.23878E-02 4.83865E-04-1.10729E-13
 -1      2361 1.25255E-02 5.95829E-04-1.12591E-13
 -1      2362 1.23950E-02 4.64858E-04-1.09636E-13
 -1      2363 1.26641E-02 7.09573E-04-1.14454E-13
 -1      2364 1.28036E-02 8.24554E-04-1.16315E-13
 -1      2365 1.26756E-02 6.89755E-04-1.13355E-13
 -1      2366 1.29438E-02 9.40190E-04-1.18176E-13
 -1      2367 1.30846E-02 1.05605E-03-1.20038E-13
 -1      2368 1.29586E-02 9.20296E-04-1.17070E-13
 -1      2369 1.32207E-02 1.16693E-03-1.21808E-13
 -1      2370 1.33625E-02 1.28203E-03-1.23665E-13
 -1      2371 1.35129E-02 1.36879E-03-1.24234E-13
 -1      2372 1.32379E-02 1.14760E-03-1.20696E-13
 -1      2373 1.61551E-03 4.68094E-04-2.16499E-15
 -1      2374 1.47367E-03 4.50897E-04-1.79617E-15
 -1      2375 1.50727E-02 1.56856E-03-1.04208E-13
 -1      2376 1.49300E-02 1.53599E-03-1.02425E-13
 -1      2377 1.89820E-03 4.94454E-04-3.01008E-15
 -1      2378 1.75698E-03 4.82538E-04-2.56976E-15
 -1      2379 1.67450E-03 4.39783E-04-2.43520E-15
 -1      2380 2.18021E-03 5.12383E-04-3.99917E-15
 -1      2381 2.03926E-03 5.04343E-04-3.48663E-15
 -1      2382 1.95875E-03 4.63373E-04-3.32503E-15
 -1      2383 2.46205E-03 5.24163E-04-5.12960E-15
 -1      2384 2.32114E-03 5.18941E-04-4.54683E-15
 -1      2385 2.24244E-03 4.79306E-04-4.35662E-15
 -1      2386 2.74403E-03 5.31522E-04-6.39883E-15
 -1      2387 2.60302E-03 5.28318E-04-5.74683E-15
 -1      2388 2.52589E-03 4.89650E-04-5.52840E-15
 -1      2389 3.02635E-03 5.35760E-04-7.80313E-15
 -1      2390 2.88515E-03 5.33972E-04-7.08412E-15
 -1      2391 2.80934E-03 4.95987E-04-6.83701E-15
 -1      2392 3.30909E-03 5.37847E-04-9.34086E-15
 -1      2393 3.16767E-03 5.37028E-04-8.55555E-15
 -1      2394 3.09293E-03 4.99511E-04-8.27971E-15
 -1      2395 3.57810E-03 5.38490E-04-1.09233E-14
 -1      2396 3.44355E-03 5.38302E-04-1.01176E-14
 -1      2397 3.36966E-03 5.01088E-04-9.81321E-15
 -1      2398 3.86170E-03 5.38255E-04-1.27162E-14
 -1      2399 3.71986E-03 5.38466E-04-1.18028E-14
 -1      2400 3.64664E-03 5.01446E-04-1.14694E-14
 -1      2401 4.14571E-03 5.37448E-04-1.46381E-14
 -1      2402 4.00366E-03 5.37906E-04-1.36610E-14
 -1      2403 3.93097E-03 5.01005E-04-1.32967E-14
 -1      2404 4.43007E-03 5.36321E-04-1.66855E-14
 -1      2405 4.28785E-03 5.36913E-04-1.56471E-14
 -1      2406 4.21557E-03 5.00077E-04-1.52517E-14
 -1      2407 4.71474E-03 5.35037E-04-1.88536E-14
 -1      2408 4.57237E-03 5.35691E-04-1.77544E-14
 -1      2409 4.50039E-03 4.98886E-04-1.73303E-14
 -1      2410 4.99967E-03 5.33693E-04-2.11335E-14
 -1      2411 4.85718E-03 5.34368E-04-1.99802E-14
 -1      2412 4.78542E-03 4.97575E-04-1.95268E-14
 -1      2413 5.28484E-03 5.32334E-04-2.35193E-14
 -1      2414 5.14223E-03 5.33013E-04-2.23138E-14
 -1      2415 5.07062E-03 4.96223E-04-2.18339E-14
 -1      2416 5.57020E-03 5.30967E-04-2.60032E-14
 -1      2417 5.42750E-03 5.31651E-04-2.47495E-14
 -1      2418 5.35599E-03 4.94866E-04-2.42445E-14
 -1      2419 5.85575E-03 5.29569E-04-2.85797E-14
 -1      2420 5.71296E-03 5.30273E-04-2.72798E-14
 -1      2421 5.64149E-03 4.93503E-04-2.67531E-14
 -1      2422 6.14148E-03 5.28089E-04-3.12457E-14
 -1      2423 5.99859E-03 5.28842E-04-2.99016E-14
 -1      2424 5.92713E-03 4.92104E-04-2.93524E-14
 -1      2425 6.42740E-03 5.26449E-04-3.39998E-14
 -1      2426 6.28441E-03 5.27293E-04-3.26114E-14
 -1      2427 6.21289E-03 4.90616E-04-3.20425E-14
 -1      2428 6.71352E-03 5.24541E-04-3.68411E-14
 -1      2429 6.57043E-03 5.25533E-04-3.54102E-14
 -1      2430 6.49877E-03 4.88959E-04-3.48203E-14
 -1      2431 6.99987E-03 5.22224E-04-3.97630E-14
 -1      2432 6.85666E-03 5.23440E-04-3.82920E-14
 -1      2433 6.78476E-03 4.87030E-04-3.76825E-14
 -1      2434 7.27216E-03 5.19479E-04-4.26120E-14
 -1      2435 7.13597E-03 5.20925E-04-4.11793E-14
 -1      2436 7.06368E-03 4.84762E-04-4.05513E-14
 -1      2437 7.55907E-03 5.15800E-04-4.56807E-14
 -1      2438 7.41556E-03 5.17750E-04-4.41369E-14
 -1      2439 7.34263E-03 4.81963E-04-4.34930E-14
 -1      2440 7.84626E-03 5.11062E-04-4.88153E-14
 -1      2441 7.70260E-03 5.13576E-04-4.72401E-14
 -1      2442 7.62862E-03 4.78367E-04-4.65800E-14
 -1      2443 8.13360E-03 5.05015E-04-5.20167E-14
 -1      2444 7.98987E-03 5.08216E-04-5.04093E-14
 -1      2445 7.91421E-03 4.73869E-04-4.97343E-14
 -1      2446 8.42075E-03 4.97541E-04-5.52722E-14
 -1      2447 8.27714E-03 5.01470E-04-5.36376E-14
 -1      2448 8.19882E-03 4.68382E-04-5.29501E-14
 -1      2449 8.70685E-03 4.88927E-04-5.85795E-14
 -1      2450 8.56385E-03 4.93382E-04-5.69209E-14
 -1      2451 8.48136E-03 4.62071E-04-5.62198E-14
 -1      2452 8.99022E-03 4.80468E-04-6.19256E-14
 -1      2453 8.84877E-03 4.84658E-04-6.02477E-14
 -1      2454 8.75983E-03 4.55703E-04-5.95376E-14
 -1      2455 9.26779E-03 4.75677E-04-6.53016E-14
 -1      2456 9.12958E-03 4.77523E-04-6.36108E-14
 -1      2457 9.03079E-03 4.51311E-04-6.28922E-14
 -1      2458 9.53498E-03 4.82504E-04-6.86974E-14
 -1      2459 9.40240E-03 4.77351E-04-6.69975E-14
 -1      2460 9.28871E-03 4.53325E-04-6.62746E-14
 -1      2461 9.78724E-03 5.17212E-04-7.21024E-14
 -1      2462 9.66227E-03 4.95539E-04-7.03989E-14
 -1      2463 9.52584E-03 4.70270E-04-6.96734E-14
 -1      2464 9.97896E-03 5.83946E-04-7.48324E-14
 -1      2465 9.88295E-03 5.45509E-04-7.34679E-14
 -1      2466 9.71499E-03 5.10544E-04-7.27431E-14
 -1      2467 1.15809E-02 1.84095E-03-8.32845E-14
 -1      2468 1.53472E-02 1.70967E-03-1.07782E-13
 -1      2469 1.52094E-02 1.62928E-03-1.05993E-13
 -1      2470 1.51822E-02 1.57193E-03-1.05276E-13
 -1      2471 1.63152E-02 2.42439E-03-1.20148E-13
 -1      2472 1.62422E-02 2.36891E-03-1.19081E-13
 -1      2473 1.62367E-02 2.38248E-03-1.20084E-13
 -1      2474 1.57081E-02 2.18144E-03-1.20295E-13
 -1      2475 1.58096E-02 2.20792E-03-1.20073E-13
 -1      2476 1.54769E-02 2.12205E-03-1.20758E-13
 -1      2477 1.55962E-02 2.15319E-03-1.20528E-13
 -1      2478 1.55388E-02 2.08374E-03-1.18867E-13
 -1      2479 1.59039E-02 2.23333E-03-1.19847E-13
 -1      2480 1.59894E-02 2.25940E-03-1.19620E-13
 -1      2481 1.57476E-02 2.13545E-03-1.18416E-13
 -1      2482 1.52220E-02 2.05145E-03-1.21213E-13
 -1      2483 1.53515E-02 2.08834E-03-1.20985E-13
 -1      2484 1.52955E-02 2.02117E-03-1.19320E-13
 -1      2485 1.49577E-02 1.96946E-03-1.21665E-13
 -1      2486 1.50902E-02 2.01175E-03-1.21440E-13
 -1      2487 1.50318E-02 1.94484E-03-1.19769E-13
 -1      2488 1.46965E-02 1.87861E-03-1.22109E-13
 -1      2489 1.48261E-02 1.92483E-03-1.21887E-13
 -1      2490 1.47634E-02 1.85648E-03-1.20210E-13
 -1      2491 1.44464E-02 1.78250E-03-1.22550E-13
 -1      2492 1.45698E-02 1.83087E-03-1.22330E-13
 -1      2493 1.45024E-02 1.76024E-03-1.20647E-13
 -1      2494 1.42148E-02 1.68611E-03-1.22983E-13
 -1      2495 1.43288E-02 1.73426E-03-1.22769E-13
 -1      2496 1.42577E-02 1.66135E-03-1.21079E-13
 -1      2497 1.39931E-02 1.58865E-03-1.23422E-13
 -1      2498 1.41024E-02 1.63710E-03-1.23201E-13
 -1      2499 1.40285E-02 1.56232E-03-1.21509E-13
 -1      2500 1.37820E-02 1.49347E-03-1.23859E-13
 -1      2501 1.38865E-02 1.54065E-03-1.23641E-13
 -1      2502 1.38113E-02 1.46449E-03-1.21938E-13
 -1      2503 1.35958E-02 1.40765E-03-1.24156E-13
 -1      2504 1.36981E-02 1.45341E-03-1.23942E-13
 -1      2505 1.36228E-02 1.37638E-03-1.22233E-13
 -1      2506 1.34574E-02 1.29725E-03-1.22388E-13
 -1      2507 9.74135E-03 6.26605E-04-7.84720E-14
 -1      2508 9.66636E-03 6.33798E-04-7.81020E-14
 -1      2509 9.73069E-03 6.56973E-04-7.79336E-14
 -1      2510 9.85548E-03 6.84879E-04-7.81808E-14
 -1      2511 1.22302E-02 7.13838E-05-9.34199E-14
 -1      2512 1.20570E-02-9.20424E-06-9.20809E-14
 -1      2513 1.04088E-02 8.16595E-04-7.81857E-14
 -1      2514 1.02076E-02 6.86335E-04-7.66489E-14
 -1      2515 1.59029E-02 2.11457E-03-1.14922E-13
 -1      2516 1.57613E-02 2.00646E-03-1.13147E-13
 -1      2517 1.56221E-02 1.90132E-03-1.11366E-13
 -1      2518 1.54833E-02 1.79996E-03-1.09584E-13
 -1      2519 1.56588E-02 1.92876E-03-1.12446E-13
 -1      2520 1.05315E-02 9.29812E-04-7.93050E-14
 -1      2521 1.08854E-03 3.87128E-04-9.78601E-16
 -1      2522 9.44504E-04 3.54755E-04-7.42475E-16
 -1      2523 9.02286E-04 3.16263E-04-7.41405E-16
 -1      2524 5.46495E-04-2.32191E-05-4.83907E-16
 -1      2525 5.46966E-04-3.92307E-05-4.84950E-16
 -1      2526 6.62410E-04-5.61460E-05-6.56417E-16
 -1      2527 6.61148E-04-1.81015E-05-6.53557E-16
 -1      2528 1.35293E-03 4.34079E-04-1.51037E-15
 -1      2529 1.21012E-03 4.10337E-04-1.20810E-15
 -1      2530 1.16773E-03 3.71671E-04-1.20454E-15
 -1      2531 1.41083E-03 4.09298E-04-1.73799E-15
 -1      2532 1.40001E-02 2.00382E-03-9.57968E-14
 -1      2533 1.00134E-02 5.64729E-04-7.95636E-14
 -1      2534 9.86550E-03 6.02269E-04-7.90466E-14
 -1      2535 1.51176E-02 1.43339E-03-1.01992E-13
 -1      2536 1.50921E-02 1.43277E-03-1.02176E-13
 -1      2537 1.46759E-02 1.36025E-03-1.02054E-13
 -1      2538 1.44772E-02 1.30104E-03-1.01665E-13
 -1      2539 9.63902E-03 6.37823E-04-7.78253E-14
 -1      2540 9.65423E-03 6.36554E-04-7.77121E-14
 -1      2541 1.37184E-02 9.94018E-04-1.00211E-13
 -1      2542 1.34826E-02 8.67535E-04-9.95679E-14
 -1      2543 1.00620E-02 7.41126E-04-7.84342E-14
 -1      2544 1.02816E-02 8.22165E-04-7.88672E-14
 -1      2545 1.04270E-02 4.22182E-04-8.13054E-14
 -1      2546 1.02278E-02 4.95105E-04-8.03918E-14
 -1      2547 1.08084E-02 2.56958E-04-8.31821E-14
 -1      2548 1.06276E-02 3.40736E-04-8.23278E-14
 -1      2549 1.11886E-02 8.04893E-05-8.53480E-14
 -1      2550 1.10183E-02 1.59454E-04-8.42906E-14
 -1      2551 1.15498E-02-4.41170E-05-8.79522E-14
 -1      2552 1.13876E-02 4.54899E-06-8.67132E-14
 -1      2553 1.18633E-02-5.90783E-05-9.05288E-14
 -1      2554 1.17213E-02-6.58692E-05-8.93187E-14
 -1      2555 1.26056E-02 3.04223E-04-9.58518E-14
 -1      2556 1.24340E-02 1.88006E-04-9.47942E-14
 -1      2557 1.42417E-02 1.21843E-03-1.01251E-13
 -1      2558 1.39953E-02 1.11865E-03-1.00770E-13
 -1      2559 1.50098E-02 1.45730E-03-1.01090E-13
 -1      2560 1.50880E-02 1.44406E-03-1.01631E-13
 -1      2561 1.46848E-02 1.56920E-03-9.92252E-14
 -1      2562 1.48552E-02 1.50324E-03-1.00103E-13
 -1      2563 1.42068E-02 1.83447E-03-9.71025E-14
 -1      2564 1.44207E-02 1.70430E-03-9.79952E-14
 -1      2565 1.45463E-02 1.63617E-03-9.91747E-14
 -1      2566 6.70180E-04-1.38217E-04-6.42566E-16
 -1      2567 5.54549E-04-1.26427E-04-4.70842E-16
 -1      2568 5.57760E-04-1.46415E-04-4.62250E-16
 -1      2569 5.71785E-04-1.85484E-04-4.48589E-16
 -1      2570 1.60993E-02 2.26274E-03-1.17317E-13
 -1      2571 1.49405E-02 1.50736E-03-1.01948E-13
 -1      2572 1.47582E-02 1.55765E-03-1.00882E-13
 -1      2573 1.51269E-02 1.45986E-03-1.02741E-13
 -1      2574 9.96804E-03 6.10128E-04-7.59309E-14
 -1      2575 1.50663E-02 1.45771E-03-1.03145E-13
 -1      2576 1.54131E-02 1.73215E-03-1.08861E-13
 -1      2577 1.60748E-02 2.30029E-03-1.19826E-13
 -1      2578 1.61552E-02 2.33841E-03-1.19884E-13
 -1      2579 1.60861E-02 2.28203E-03-1.18813E-13
 -1      2580 1.59229E-02 2.19885E-03-1.18400E-13
 -1      2581 9.78113E-03 5.97428E-04-7.79114E-14
 -1      2582 9.68394E-03 6.15882E-04-7.70149E-14
 -1      2583 1.48888E-02 1.46197E-03-1.03834E-13
 -1      2584 1.47908E-02 1.41846E-03-1.02945E-13
 -1      2585 1.46933E-02 1.42456E-03-1.03591E-13
 -1      2586 9.96212E-03 6.72645E-04-7.74922E-14
 -1      2587 1.19331E-02-3.91995E-05-9.14051E-14
 -1      2588 1.32924E-02 7.82239E-04-9.93879E-14
 -1      2589 1.31235E-02 6.96133E-04-9.92090E-14
 -1      2590 1.34121E-02 8.86783E-04-1.00575E-13
 -1      2591 1.49533E-02 1.48639E-03-1.01392E-13
 -1      2592 1.43483E-02 1.29492E-03-1.02287E-13
 -1      2593 1.27275E-02 4.05679E-04-9.68687E-14
 -1      2594 1.26065E-02 3.47625E-04-9.67292E-14
 -1      2595 1.28485E-02 5.09853E-04-9.78876E-14
 -1      2596 1.16028E-02-6.43391E-05-8.84838E-14
 -1      2597 1.12668E-02 2.95511E-05-8.57519E-14
 -1      2598 1.08905E-02 1.99626E-04-8.32802E-14
 -1      2599 1.04994E-02 3.73716E-04-8.11536E-14
 -1      2600 1.38537E-02 1.09612E-03-1.01315E-13
 -1      2601 9.63690E-03 6.09517E-04-7.70654E-14
 -1      2602 1.01037E-02 5.17179E-04-7.93091E-14
 -1      2603 1.22958E-02 1.27720E-04-9.43365E-14
 -1      2604 1.59749E-02 2.18049E-03-1.16626E-13
 -1      2605 7.79949E-04 7.66582E-05-8.20389E-16
 -1      2606 7.78707E-04 5.48536E-05-8.30309E-16
 -1      2607 7.77879E-04 3.29945E-05-8.38508E-16
 -1      2608 7.77473E-04 1.13780E-05-8.45014E-16
 -1      2609 8.96239E-04 4.90301E-05-1.05635E-15
 -1      2610 7.91163E-04 1.72137E-04-7.58467E-16
 -1      2611 7.87188E-04 1.46823E-04-7.78010E-16
 -1      2612 8.02927E-04 2.27142E-04-7.08377E-16
 -1      2613 7.96382E-04 1.98858E-04-7.35509E-16
 -1      2614 9.14423E-04 2.06758E-04-9.51577E-16
 -1      2615 8.69569E-04 2.87184E-04-7.34289E-16
 -1      2616 8.32240E-04 2.52827E-04-7.22851E-16
 -1      2617 9.50380E-04 2.62874E-04-9.40342E-16
 -1      2618 1.01270E-03 3.18778E-04-9.67664E-16
 -1      2619 7.88927E-04-2.52743E-04-7.44020E-16
 -1      2620 9.20128E-04-2.88571E-04-9.60237E-16
 -1      2621 2.30578E-03 4.45639E-04-4.71955E-15
 -1      2622 2.16330E-03 4.39383E-04-4.16506E-15
 -1      2623 1.32026E-03-3.63185E-04-1.82630E-15
 -1      2624 1.46349E-03-3.82215E-04-2.20731E-15
 -1      2625 1.60654E-03-3.98344E-04-2.62475E-15
 -1      2626 1.74949E-03-4.11800E-04-3.07870E-15
 -1      2627 1.52505E-03-3.55916E-04-2.44521E-15
 -1      2628 1.89226E-03-4.23054E-04-3.56827E-15
 -1      2629 2.03493E-03-4.32294E-04-4.09311E-15
 -1      2630 1.81173E-03-3.81913E-04-3.35533E-15
 -1      2631 2.17749E-03-4.39895E-04-4.65379E-15
 -1      2632 2.31996E-03-4.46012E-04-5.24910E-15
 -1      2633 2.09819E-03-3.99860E-04-4.40753E-15
 -1      2634 2.46238E-03-4.50933E-04-5.87943E-15
 -1      2635 2.60475E-03-4.54783E-04-6.54415E-15
 -1      2636 2.38437E-03-4.11781E-04-5.59889E-15
 -1      2637 2.74711E-03-4.57779E-04-7.24235E-15
 -1      2638 2.88945E-03-4.60018E-04-7.97423E-15
 -1      2639 2.67032E-03-4.19301E-04-6.92702E-15
 -1      2640 3.03181E-03-4.61663E-04-8.73897E-15
 -1      2641 3.17416E-03-4.62787E-04-9.53583E-15
 -1      2642 2.95609E-03-4.23684E-04-8.38865E-15
 -1      2643 3.31655E-03-4.63509E-04-1.03646E-14
 -1      2644 3.45895E-03-4.63885E-04-1.12257E-14
 -1      2645 3.24176E-03-4.25890E-04-9.97986E-15
 -1      2646 3.60138E-03-4.64001E-04-1.21172E-14
 -1      2647 3.74383E-03-4.63896E-04-1.30394E-14
 -1      2648 3.52737E-03-4.26635E-04-1.16972E-14
 -1      2649 3.88632E-03-4.63631E-04-1.39924E-14
 -1      2650 4.02884E-03-4.63234E-04-1.49747E-14
 -1      2651 3.81295E-03-4.26439E-04-1.35386E-14
 -1      2652 4.17139E-03-4.62747E-04-1.59861E-14
 -1      2653 4.31396E-03-4.62189E-04-1.70276E-14
 -1      2654 4.09852E-03-4.25672E-04-1.54992E-14
 -1      2655 4.45657E-03-4.61587E-04-1.80977E-14
 -1      2656 4.59919E-03-4.60953E-04-1.91952E-14
 -1      2657 4.38410E-03-4.24588E-04-1.75782E-14
 -1      2658 4.74185E-03-4.60305E-04-2.03214E-14
 -1      2659 4.88453E-03-4.59651E-04-2.14743E-14
 -1      2660 4.66969E-03-4.23356E-04-1.97704E-14
 -1      2661 5.02723E-03-4.58999E-04-2.26546E-14
 -1      2662 5.16995E-03-4.58356E-04-2.38615E-14
 -1      2663 4.95529E-03-4.22082E-04-2.20732E-14
 -1      2664 5.31269E-03-4.57725E-04-2.50936E-14
 -1      2665 5.45545E-03-4.57109E-04-2.63525E-14
 -1      2666 5.24091E-03-4.20827E-04-2.44832E-14
 -1      2667 5.59823E-03-4.56512E-04-2.76370E-14
 -1      2668 5.74103E-03-4.55934E-04-2.89474E-14
 -1      2669 5.52655E-03-4.19623E-04-2.69974E-14
 -1      2670 5.88385E-03-4.55378E-04-3.02817E-14
 -1      2671 6.02668E-03-4.54845E-04-3.16404E-14
 -1      2672 5.81222E-03-4.18487E-04-2.96135E-14
 -1      2673 6.16953E-03-4.54339E-04-3.30258E-14
 -1      2674 6.31241E-03-4.53861E-04-3.44349E-14
 -1      2675 6.09792E-03-4.17430E-04-3.23295E-14
 -1      2676 6.45530E-03-4.53420E-04-3.58659E-14
 -1      2677 6.59823E-03-4.53019E-04-3.73205E-14
 -1      2678 6.38367E-03-4.16468E-04-3.51426E-14
 -1      2679 6.74119E-03-4.52670E-04-3.87993E-14
 -1      2680 6.88418E-03-4.52380E-04-4.02982E-14
 -1      2681 6.66952E-03-4.15630E-04-3.80475E-14
 -1      2682 7.02722E-03-4.52167E-04-4.18192E-14
 -1      2683 7.17031E-03-4.52044E-04-4.33623E-14
 -1      2684 6.95552E-03-4.14973E-04-4.10416E-14
 -1      2685 7.31347E-03-4.52035E-04-4.49255E-14
 -1      2686 7.45670E-03-4.52161E-04-4.65081E-14
 -1      2687 7.24175E-03-4.14591E-04-4.41194E-14
 -1      2688 7.60004E-03-4.52451E-04-4.81099E-14
 -1      2689 7.74347E-03-4.52933E-04-4.97299E-14
 -1      2690 7.52837E-03-4.14625E-04-4.72785E-14
 -1      2691 7.88704E-03-4.53642E-04-5.13662E-14
 -1      2692 8.03073E-03-4.54614E-04-5.30200E-14
 -1      2693 7.81556E-03-4.15271E-04-5.05114E-14
 -1      2694 8.17462E-03-4.55881E-04-5.46903E-14
 -1      2695 8.31865E-03-4.57482E-04-5.63749E-14
 -1      2696 8.10356E-03-4.16776E-04-5.38111E-14
 -1      2697 8.46292E-03-4.59435E-04-5.80734E-14
 -1      2698 8.60735E-03-4.61774E-04-5.97829E-14
 -1      2699 8.39266E-03-4.19423E-04-5.71722E-14
 -1      2700 8.75203E-03-4.64486E-04-6.15031E-14
 -1      2701 8.89685E-03-4.67575E-04-6.32336E-14
 -1      2702 8.68313E-03-4.23472E-04-6.05835E-14
 -1      2703 9.04190E-03-4.70967E-04-6.49729E-14
 -1      2704 9.18699E-03-4.74605E-04-6.67203E-14
 -1      2705 8.97514E-03-4.29045E-04-6.40361E-14
 -1      2706 9.33220E-03-4.78313E-04-6.84776E-14
 -1      2707 9.47727E-03-4.81916E-04-7.02419E-14
 -1      2708 9.26863E-03-4.35911E-04-6.75262E-14
 -1      2709 9.62223E-03-4.85096E-04-7.20129E-14
 -1      2710 9.76678E-03-4.87490E-04-7.37914E-14
 -1      2711 9.56310E-03-4.43151E-04-7.10465E-14
 -1      2712 9.91088E-03-4.88602E-04-7.55772E-14
 -1      2713 1.00542E-02-4.87821E-04-7.73705E-14
 -1      2714 9.85748E-03-4.48678E-04-7.45953E-14
 -1      2715 1.01967E-02-4.84461E-04-7.91694E-14
 -1      2716 1.03381E-02-4.77659E-04-8.09743E-14
 -1      2717 1.01501E-02-4.48722E-04-7.81734E-14
 -1      2718 1.04782E-02-4.66581E-04-8.27865E-14
 -1      2719 1.06172E-02-4.50213E-04-8.46023E-14
 -1      2720 1.04392E-02-4.37493E-04-8.17770E-14
 -1      2721 1.07549E-02-4.27706E-04-8.64223E-14
 -1      2722 1.08915E-02-3.98102E-04-8.82456E-14
 -1      2723 1.07233E-02-4.07437E-04-8.54009E-14
 -1      2724 1.10271E-02-3.60739E-04-9.00740E-14
 -1      2725 1.11622E-02-3.14990E-04-9.19101E-14
 -1      2726 1.10024E-02-3.50454E-04-8.90413E-14
 -1      2727 1.12968E-02-2.60567E-04-9.37465E-14
 -1      2728 1.14317E-02-1.97416E-04-9.55864E-14
 -1      2729 1.12779E-02-2.59956E-04-9.27011E-14
 -1      2730 1.15668E-02-1.25715E-04-9.74319E-14
 -1      2731 1.17029E-02-4.59626E-05-9.92793E-14
 -1      2732 1.15530E-02-1.33061E-04-9.63749E-14
 -1      2733 1.18398E-02 4.12364E-05-1.01131E-13
 -1      2734 1.19779E-02 1.34988E-04-1.02984E-13
 -1      2735 1.18307E-02 2.83587E-05-1.00067E-13
 -1      2736 1.21172E-02 2.34457E-04-1.04837E-13
 -1      2737 1.22576E-02 3.38635E-04-1.06692E-13
 -1      2738 1.21129E-02 2.18392E-04-1.03762E-13
 -1      2739 1.23990E-02 4.46658E-04-1.08549E-13
 -1      2740 1.25413E-02 5.57637E-04-1.10406E-13
 -1      2741 1.23999E-02 4.29093E-04-1.07468E-13
 -1      2742 1.26842E-02 6.70816E-04-1.12259E-13
 -1      2743 1.28276E-02 7.85534E-04-1.14114E-13
 -1      2744 1.26902E-02 6.52692E-04-1.11169E-13
 -1      2745 1.29714E-02 9.01194E-04-1.15968E-13
 -1      2746 1.31152E-02 1.01738E-03-1.17821E-13
 -1      2747 1.29821E-02 8.82956E-04-1.14869E-13
 -1      2748 1.32173E-02 1.10184E-03-1.19221E-13
 -1      2749 1.33556E-02 1.21319E-03-1.20987E-13
 -1      2750 1.34373E-02 1.25248E-03-1.20913E-13
 -1      2751 1.32315E-02 1.08370E-03-1.18115E-13
 -1      2752 1.50711E-02 1.49100E-03-1.02935E-13
 -1      2753 1.51392E-02 1.48704E-03-1.03563E-13
 -1      2754 1.51562E-02 1.49028E-03-1.03925E-13
 -1      2755 1.73527E-03 4.10720E-04-2.71250E-15
 -1      2756 1.59232E-03 3.97012E-04-2.29860E-15
 -1      2757 2.59058E-03 4.54633E-04-5.93182E-15
 -1      2758 2.44821E-03 4.50681E-04-5.30855E-15
 -1      2759 2.37013E-03 4.11486E-04-5.08789E-15
 -1      2760 2.87529E-03 4.60030E-04-7.27943E-15
 -1      2761 2.73295E-03 4.57717E-04-6.58898E-15
 -1      2762 2.65609E-03 4.19206E-04-6.34005E-15
 -1      2763 3.16000E-03 4.62915E-04-8.76004E-15
 -1      2764 3.01764E-03 4.61738E-04-8.00366E-15
 -1      2765 2.94187E-03 4.23733E-04-7.72659E-15
 -1      2766 3.43054E-03 4.64067E-04-1.02866E-14
 -1      2767 3.29526E-03 4.63653E-04-9.50841E-15
 -1      2768 3.22041E-03 4.26005E-04-9.20428E-15
 -1      2769 3.71542E-03 4.64180E-04-1.20187E-14
 -1      2770 3.57297E-03 4.64239E-04-1.11364E-14
 -1      2771 3.49888E-03 4.26846E-04-1.08038E-14
 -1      2772 4.00042E-03 4.63583E-04-1.38801E-14
 -1      2773 3.85790E-03 4.63951E-04-1.29333E-14
 -1      2774 3.78447E-03 4.26738E-04-1.25705E-14
 -1      2775 4.28554E-03 4.62575E-04-1.58665E-14
 -1      2776 4.14297E-03 4.63117E-04-1.48579E-14
 -1      2777 4.07006E-03 4.26025E-04-1.44653E-14
 -1      2778 4.57078E-03 4.61354E-04-1.79756E-14
 -1      2779 4.42815E-03 4.61983E-04-1.69063E-14
 -1      2780 4.35565E-03 4.24971E-04-1.64832E-14
 -1      2781 4.85613E-03 4.60042E-04-2.02009E-14
 -1      2782 4.71344E-03 4.60704E-04-1.90741E-14
 -1      2783 4.64126E-03 4.23747E-04-1.86228E-14
 -1      2784 5.14158E-03 4.58706E-04-2.25340E-14
 -1      2785 4.99885E-03 4.59374E-04-2.13544E-14
 -1      2786 4.92690E-03 4.22457E-04-2.08755E-14
 -1      2787 5.42712E-03 4.57371E-04-2.49708E-14
 -1      2788 5.28434E-03 4.58037E-04-2.37401E-14
 -1      2789 5.21256E-03 4.21157E-04-2.32356E-14
 -1      2790 5.71274E-03 4.56030E-04-2.75023E-14
 -1      2791 5.56992E-03 4.56702E-04-2.62244E-14
 -1      2792 5.49824E-03 4.19862E-04-2.56969E-14
 -1      2793 5.99843E-03 4.54651E-04-3.01265E-14
 -1      2794 5.85558E-03 4.55347E-04-2.88035E-14
 -1      2795 5.78395E-03 4.18562E-04-2.82530E-14
 -1      2796 6.28419E-03 4.53181E-04-3.28403E-14
 -1      2797 6.14130E-03 4.53930E-04-3.14727E-14
 -1      2798 6.06966E-03 4.17226E-04-3.09017E-14
 -1      2799 6.56997E-03 4.51548E-04-3.56413E-14
 -1      2800 6.42707E-03 4.52389E-04-3.42298E-14
 -1      2801 6.35536E-03 4.15807E-04-3.36392E-14
 -1      2802 6.85574E-03 4.49659E-04-3.85249E-14
 -1      2803 6.71286E-03 4.50640E-04-3.70728E-14
 -1      2804 6.64099E-03 4.14243E-04-3.64625E-14
 -1      2805 7.12713E-03 4.47534E-04-4.13400E-14
 -1      2806 6.99145E-03 4.48642E-04-3.99240E-14
 -1      2807 6.91932E-03 4.12516E-04-3.92956E-14
 -1      2808 7.41252E-03 4.44838E-04-4.43757E-14
 -1      2809 7.26986E-03 4.46251E-04-4.28487E-14
 -1      2810 7.19733E-03 4.10530E-04-4.22043E-14
 -1      2811 7.69732E-03 4.41579E-04-4.74816E-14
 -1      2812 7.55501E-03 4.43288E-04-4.59200E-14
 -1      2813 7.48186E-03 4.08182E-04-4.52605E-14
 -1      2814 7.98093E-03 4.37726E-04-5.06530E-14
 -1      2815 7.83930E-03 4.39736E-04-4.90585E-14
 -1      2816 7.76523E-03 4.05543E-04-4.83843E-14
 -1      2817 8.26230E-03 4.33434E-04-5.38833E-14
 -1      2818 8.12193E-03 4.35645E-04-5.22619E-14
 -1      2819 8.04655E-03 4.02780E-04-5.15720E-14
 -1      2820 8.53961E-03 4.29256E-04-5.71661E-14
 -1      2821 8.40153E-03 4.31339E-04-5.55187E-14
 -1      2822 8.32430E-03 4.00361E-04-5.48185E-14
 -1      2823 8.80977E-03 4.26557E-04-6.04950E-14
 -1      2824 8.67571E-03 4.27730E-04-5.88266E-14
 -1      2825 8.59599E-03 3.99326E-04-5.81142E-14
 -1      2826 9.06781E-03 4.28179E-04-6.38590E-14
 -1      2827 8.94053E-03 4.26842E-04-6.21722E-14
 -1      2828 8.85759E-03 4.01729E-04-6.14537E-14
 -1      2829 9.30608E-03 4.39392E-04-6.72462E-14
 -1      2830 9.18976E-03 4.32648E-04-6.55501E-14
 -1      2831 9.10289E-03 4.11263E-04-6.48238E-14
 -1      2832 9.51397E-03 4.68858E-04-7.06507E-14
 -1      2833 9.41426E-03 4.52061E-04-6.89483E-14
 -1      2834 9.32267E-03 4.33863E-04-6.82193E-14
 -1      2835 9.65023E-03 5.14188E-04-7.33861E-14
 -1      2836 9.58558E-03 4.89870E-04-7.20181E-14
 -1      2837 9.48856E-03 4.72304E-04-7.12904E-14
 -1      2838 1.48388E-02 1.83841E-03-1.18318E-13
 -1      2839 1.49760E-02 1.88185E-03-1.18098E-13
 -1      2840 6.52901E-04-1.88601E-04-5.74424E-16
 -1      2841 1.04835E-03-3.16183E-04-1.20620E-15
 -1      2842 1.19163E-03-3.41879E-04-1.51767E-15
 -1      2843 1.25312E-03-3.20343E-04-1.71694E-15
 -1      2844 9.96798E-04-2.75179E-04-1.14967E-15
 -1      2845 9.82041E-03 5.65349E-04-7.73369E-14
 -1      2846 9.71076E-03 5.79338E-04-7.67667E-14
 -1      2847 1.53690E-02 1.98849E-03-1.17432E-13
 -1      2848 1.54856E-02 2.01614E-03-1.17206E-13
 -1      2849 1.55919E-02 2.03997E-03-1.16986E-13
 -1      2850 1.56867E-02 2.06261E-03-1.16764E-13
 -1      2851 1.54357E-02 1.94845E-03-1.15551E-13
 -1      2852 1.51118E-02 1.92157E-03-1.17875E-13
 -1      2853 1.52434E-02 1.95729E-03-1.17656E-13
 -1      2854 1.49231E-02 1.82183E-03-1.16430E-13
 -1      2855 1.45670E-02 1.74305E-03-1.18751E-13
 -1      2856 1.47019E-02 1.79180E-03-1.18536E-13
 -1      2857 1.46416E-02 1.73044E-03-1.16864E-13
 -1      2858 1.43076E-02 1.64131E-03-1.19181E-13
 -1      2859 1.44353E-02 1.69251E-03-1.18966E-13
 -1      2860 1.43680E-02 1.62766E-03-1.17290E-13
 -1      2861 1.40691E-02 1.53986E-03-1.19603E-13
 -1      2862 1.41862E-02 1.59042E-03-1.19392E-13
 -1      2863 1.41136E-02 1.52156E-03-1.17710E-13
 -1      2864 1.38432E-02 1.43841E-03-1.20026E-13
 -1      2865 1.39542E-02 1.48869E-03-1.19816E-13
 -1      2866 1.38785E-02 1.41631E-03-1.18126E-13
 -1      2867 1.36310E-02 1.34042E-03-1.20451E-13
 -1      2868 1.37357E-02 1.38886E-03-1.20239E-13
 -1      2869 1.36587E-02 1.31379E-03-1.18544E-13
 -1      2870 1.54456E-02 1.75902E-03-1.09841E-13
 -1      2871 1.53436E-02 1.66928E-03-1.08039E-13
 -1      2872 1.51134E-02 1.48831E-03-1.04055E-13
 -1      2873 1.50333E-02 1.48651E-03-1.04100E-13
 -1      2874 9.79994E-03 5.80314E-04-7.56720E-14
 -1      2875 7.84089E-04 1.22650E-04-7.94517E-16
 -1      2876 7.81730E-04 9.92843E-05-8.08584E-16
 -1      2877 8.99308E-04 9.86814E-05-1.03221E-15
 -1      2878 9.04975E-04 1.50677E-04-9.98320E-16
 -1      2879 1.56745E-02 1.95557E-03-1.13407E-13
 -1      2880 1.55558E-02 1.85427E-03-1.11625E-13
 -1      2881 1.54574E-02 1.78889E-03-1.10804E-13
 -1      2882 1.01562E-02 4.63635E-04-7.87004E-14
 -1      2883 9.97160E-03 5.21702E-04-7.78787E-14
 -1      2884 1.19818E-02-1.19225E-05-9.23115E-14
 -1      2885 1.18173E-02-6.22604E-05-9.07552E-14
 -1      2886 7.81639E-04-9.83100E-05-8.53633E-16
 -1      2887 7.83975E-04-1.21636E-04-8.49432E-16
 -1      2888 1.23569E-02 1.94016E-04-9.54120E-14
 -1      2889 1.21818E-02 8.40757E-05-9.40341E-14
 -1      2890 1.39922E-02 1.19827E-03-1.02635E-13
 -1      2891 1.37461E-02 1.08451E-03-1.02075E-13
 -1      2892 1.05699E-02 3.12055E-04-8.09945E-14
 -1      2893 1.03928E-02 3.81145E-04-7.99762E-14
 -1      2894 1.09348E-02 1.41455E-04-8.32008E-14
 -1      2895 1.07573E-02 2.29497E-04-8.20961E-14
 -1      2896 1.06256E-02 2.43438E-04-8.09125E-14
 -1      2897 1.13114E-02-1.35636E-05-8.60697E-14
 -1      2898 1.11419E-02 5.34185E-05-8.47053E-14
 -1      2899 1.59007E-02 2.13725E-03-1.16419E-13
 -1      2900 9.63419E-03 5.83615E-04-7.62375E-14
 -1      2901 9.60911E-03 5.78562E-04-7.59639E-14
 -1      2902 2.02073E-03 4.31619E-04-3.64555E-15
 -1      2903 1.87806E-03 4.22191E-04-3.16156E-15
 -1      2904 2.08394E-03 3.99294E-04-3.97265E-15
 -1      2905 1.16333E-02-7.90906E-05-8.90085E-14
 -1      2906 1.14897E-02-6.17956E-05-8.76409E-14
 -1      2907 1.44550E-02 1.36580E-03-1.03429E-13
 -1      2908 1.42388E-02 1.29283E-03-1.03015E-13
 -1      2909 1.51464E-02 1.51290E-03-1.04119E-13
 -1      2910 9.67924E-03 5.79736E-04-7.59811E-14
 -1      2911 9.67391E-03 5.39210E-04-7.44158E-14
 -1      2912 9.57797E-03 5.19256E-04-7.36893E-14
 -1      2913 9.61720E-03 5.74179E-04-7.57559E-14
 -1      2914 1.25611E-03 3.61845E-04-1.44715E-15
 -1      2915 1.13434E-03 3.41771E-04-1.19460E-15
 -1      2916 1.10221E-03 3.12689E-04-1.18122E-15
 -1      2917 8.95255E-04 4.57794E-07-1.07251E-15
 -1      2918 7.77462E-04-1.01959E-05-8.50055E-16
 -1      2919 7.77845E-04-3.18048E-05-8.53525E-16
 -1      2920 7.78643E-04-5.35551E-05-8.55083E-16
 -1      2921 7.79881E-04-7.57127E-05-8.55205E-16
 -1      2922 8.99202E-04-9.75048E-05-1.08085E-15
 -1      2923 8.96195E-04-4.80001E-05-1.08071E-15
 -1      2924 1.13583E-02-5.02741E-05-8.65887E-14
 -1      2925 9.58607E-03 5.51002E-04-7.49283E-14
 -1      2926 7.70008E-04-2.02651E-04-7.67019E-16
 -1      2927 7.87054E-04-1.45754E-04-8.42927E-16
 -1      2928 7.90943E-04-1.70891E-04-8.33562E-16
 -1      2929 9.04804E-04-1.49410E-04-1.07142E-15
 -1      2930 1.51953E-02 1.89513E-03-1.15992E-13
 -1      2931 1.57742E-02 2.09911E-03-1.16973E-13
 -1      2932 1.58568E-02 2.13759E-03-1.17185E-13
 -1      2933 1.56286E-02 2.00352E-03-1.15543E-13
 -1      2934 1.52666E-02 1.60307E-03-1.06884E-13
 -1      2935 1.52333E-02 1.57776E-03-1.05904E-13
 -1      2936 9.86448E-03 5.15935E-04-7.67296E-14
 -1      2937 1.35196E-02 1.29235E-03-1.20836E-13
 -1      2938 1.79747E-03 3.80986E-04-2.99630E-15
 -1      2939 1.49748E-02 1.50195E-03-1.04744E-13
 -1      2940 1.49074E-02 1.51525E-03-1.05391E-13
 -1      2941 1.50502E-02 1.53716E-03-1.05654E-13
 -1      2942 1.45956E-02 1.42840E-03-1.04319E-13
 -1      2943 1.45039E-02 1.42684E-03-1.05049E-13
 -1      2944 1.47221E-02 1.47911E-03-1.05209E-13
 -1      2945 1.35733E-02 1.00543E-03-1.01900E-13
 -1      2946 1.34125E-02 9.22989E-04-1.01721E-13
 -1      2947 1.37276E-02 1.10802E-03-1.03223E-13
 -1      2948 1.09958E-02 8.13209E-05-8.35140E-14
 -1      2949 1.29761E-02 6.21175E-04-9.90734E-14
 -1      2950 1.28490E-02 5.50761E-04-9.89368E-14
 -1      2951 1.31029E-02 7.25874E-04-1.00261E-13
 -1      2952 1.41267E-02 1.27810E-03-1.03780E-13
 -1      2953 1.24668E-02 2.77026E-04-9.64326E-14
 -1      2954 1.23483E-02 2.17959E-04-9.61319E-14
 -1      2955 1.25773E-02 3.65967E-04-9.74533E-14
 -1      2956 1.51622E-02 1.51982E-03-1.04879E-13
 -1      2957 9.64582E-03 5.58004E-04-7.56630E-14
 -1      2958 1.34432E-02 1.21536E-03-1.19133E-13
 -1      2959 1.20520E-02 3.39187E-05-9.33849E-14
 -1      2960 1.57585E-02 2.03514E-03-1.14988E-13
 -1      2961 1.56371E-02 1.96122E-03-1.14171E-13
 -1      2962 1.02249E-02 4.02356E-04-7.85393E-14
 -1      2963 1.16944E-02-7.88500E-05-8.99094E-14
 -1      2964 1.48506E-03 3.89056E-04-2.00137E-15
 -1      2965 1.36344E-03 3.73807E-04-1.69979E-15
 -1      2966 1.33129E-03 3.44374E-04-1.68284E-15
 -1      2967 1.54648E-03 3.62424E-04-2.24720E-15
 -1      2968 1.07123E-03 2.84690E-04-1.16390E-15
 -1      2969 1.04136E-03 2.57716E-04-1.14397E-15
 -1      2970 1.19258E-03 3.04064E-04-1.41330E-15
 -1      2971 1.03410E-03 2.25476E-04-1.17804E-15
 -1      2972 1.13678E-02-8.27774E-05-8.69594E-14
 -1      2973 1.12113E-02-4.25292E-05-8.53882E-14
 -1      2974 2.72240E-03 3.83354E-04-6.75301E-15
 -1      2975 2.57897E-03 3.80513E-04-6.09064E-15
 -1      2976 1.54575E-02 1.82651E-03-1.11870E-13
 -1      2977 1.53617E-02 1.73690E-03-1.10085E-13
 -1      2978 1.86104E-03 3.50535E-04-3.28742E-15
 -1      2979 1.71738E-03 3.40088E-04-2.83030E-15
 -1      2980 1.73168E-03-3.41059E-04-3.14484E-15
 -1      2981 1.87535E-03-3.51313E-04-3.63648E-15
 -1      2982 2.01900E-03-3.59850E-04-4.16305E-15
 -1      2983 2.16264E-03-3.66824E-04-4.72489E-15
 -1      2984 1.94010E-03-3.20033E-04-3.92160E-15
 -1      2985 2.30623E-03-3.72513E-04-5.32071E-15
 -1      2986 2.44977E-03-3.77044E-04-5.95086E-15
 -1      2987 2.22811E-03-3.33246E-04-5.04524E-15
 -1      2988 2.59326E-03-3.80639E-04-6.61479E-15
 -1      2989 2.73668E-03-3.83399E-04-7.31185E-15
 -1      2990 2.51605E-03-3.41871E-04-6.30512E-15
 -1      2991 2.88005E-03-3.85496E-04-8.04104E-15
 -1      2992 3.02337E-03-3.87007E-04-8.80334E-15
 -1      2993 2.80378E-03-3.47148E-04-7.69733E-15
 -1      2994 3.16664E-03-3.88062E-04-9.59869E-15
 -1      2995 3.30986E-03-3.88719E-04-1.04244E-14
 -1      2996 3.09125E-03-3.50054E-04-9.21978E-15
 -1      2997 3.45304E-03-3.89074E-04-1.12815E-14
 -1      2998 3.59618E-03-3.89169E-04-1.21693E-14
 -1      2999 3.37844E-03-3.51333E-04-1.08695E-14
 -1      3000 3.73928E-03-3.89073E-04-1.30879E-14
 -1      3001 3.88235E-03-3.88816E-04-1.40372E-14
 -1      3002 3.66536E-03-3.51538E-04-1.26418E-14
 -1      3003 4.02540E-03-3.88447E-04-1.50160E-14
 -1      3004 4.16842E-03-3.87985E-04-1.60243E-14
 -1      3005 3.95205E-03-3.51070E-04-1.45358E-14
 -1      3006 4.31141E-03-3.87464E-04-1.70617E-14
 -1      3007 4.45438E-03-3.86897E-04-1.81283E-14
 -1      3008 4.23853E-03-3.50209E-04-1.65489E-14
 -1      3009 4.59734E-03-3.86305E-04-1.92225E-14
 -1      3010 4.74028E-03-3.85696E-04-2.03444E-14
 -1      3011 4.52483E-03-3.49143E-04-1.86780E-14
 -1      3012 4.88320E-03-3.85083E-04-2.14956E-14
 -1      3013 5.02611E-03-3.84471E-04-2.26727E-14
 -1      3014 4.81098E-03-3.47995E-04-2.09198E-14
 -1      3015 5.16901E-03-3.83867E-04-2.38758E-14
 -1      3016 5.31190E-03-3.83272E-04-2.51052E-14
 -1      3017 5.09701E-03-3.46837E-04-2.32714E-14
 -1      3018 5.45478E-03-3.82691E-04-2.63612E-14
 -1      3019 5.59766E-03-3.82124E-04-2.76431E-14
 -1      3020 5.38294E-03-3.45707E-04-2.57278E-14
 -1      3021 5.74053E-03-3.81572E-04-2.89492E-14
 -1      3022 5.88339E-03-3.81035E-04-3.02805E-14
 -1      3023 5.66878E-03-3.44622E-04-2.82878E-14
 -1      3024 6.02626E-03-3.80515E-04-3.16365E-14
 -1      3025 6.16913E-03-3.80011E-04-3.30179E-14
 -1      3026 5.95457E-03-3.43583E-04-3.09475E-14
 -1      3027 6.31202E-03-3.79526E-04-3.44230E-14
 -1      3028 6.45491E-03-3.79061E-04-3.58495E-14
 -1      3029 6.24034E-03-3.42589E-04-3.37056E-14
 -1      3030 6.59784E-03-3.78621E-04-3.72991E-14
 -1      3031 6.74079E-03-3.78208E-04-3.87725E-14
 -1      3032 6.52614E-03-3.41640E-04-3.65557E-14
 -1      3033 6.88379E-03-3.77831E-04-4.02665E-14
 -1      3034 7.02684E-03-3.77498E-04-4.17812E-14
 -1      3035 6.81204E-03-3.40747E-04-3.94950E-14
 -1      3036 7.16998E-03-3.77220E-04-4.33188E-14
 -1      3037 7.31322E-03-3.77011E-04-4.48754E-14
 -1      3038 7.09816E-03-3.39940E-04-4.25211E-14
 -1      3039 7.45659E-03-3.76888E-04-4.64512E-14
 -1      3040 7.60012E-03-3.76873E-04-4.80475E-14
 -1      3041 7.38470E-03-3.39278E-04-4.56292E-14
 -1      3042 7.74385E-03-3.76986E-04-4.96615E-14
 -1      3043 7.88781E-03-3.77265E-04-5.12911E-14
 -1      3044 7.67192E-03-3.38864E-04-4.88145E-14
 -1      3045 8.03209E-03-3.77728E-04-5.29364E-14
 -1      3046 8.17668E-03-3.78428E-04-5.45982E-14
 -1      3047 7.96020E-03-3.38859E-04-5.20677E-14
 -1      3048 8.32170E-03-3.79380E-04-5.62754E-14
 -1      3049 8.46714E-03-3.80654E-04-5.79665E-14
 -1      3050 8.25004E-03-3.39496E-04-5.53838E-14
 -1      3051 8.61314E-03-3.82249E-04-5.96682E-14
 -1      3052 8.75965E-03-3.84241E-04-6.13802E-14
 -1      3053 8.54205E-03-3.41085E-04-5.87563E-14
 -1      3054 8.90682E-03-3.86601E-04-6.31038E-14
 -1      3055 9.05454E-03-3.89386E-04-6.48368E-14
 -1      3056 8.83685E-03-3.43989E-04-6.21753E-14
 -1      3057 9.20293E-03-3.92514E-04-6.65779E-14
 -1      3058 9.35182E-03-3.95969E-04-6.83287E-14
 -1      3059 9.13494E-03-3.48536E-04-6.56348E-14
 -1      3060 9.50127E-03-3.99576E-04-7.00846E-14
 -1      3061 9.65098E-03-4.03161E-04-7.18467E-14
 -1      3062 9.43645E-03-3.54782E-04-6.91257E-14
 -1      3063 9.80094E-03-4.06404E-04-7.36165E-14
 -1      3064 9.95074E-03-4.08858E-04-7.53948E-14
 -1      3065 9.74077E-03-3.62074E-04-7.26434E-14
 -1      3066 1.01003E-02-4.09999E-04-7.71807E-14
 -1      3067 1.02491E-02-4.09003E-04-7.89719E-14
 -1      3068 1.00463E-02-3.68315E-04-7.61911E-14
 -1      3069 1.03969E-02-4.05120E-04-8.07694E-14
 -1      3070 1.05436E-02-3.97131E-04-8.25732E-14
 -1      3071 1.03506E-02-3.69087E-04-7.97657E-14
 -1      3072 1.06888E-02-3.84111E-04-8.43822E-14
 -1      3073 1.08326E-02-3.64660E-04-8.61945E-14
 -1      3074 1.06506E-02-3.56985E-04-8.33652E-14
 -1      3075 1.09749E-02-3.37874E-04-8.80107E-14
 -1      3076 1.11161E-02-3.02547E-04-8.98324E-14
 -1      3077 1.09444E-02-3.22070E-04-8.69835E-14
 -1      3078 1.12563E-02-2.58089E-04-9.16586E-14
 -1      3079 1.13964E-02-2.03918E-04-9.34896E-14
 -1      3080 1.12323E-02-2.54150E-04-9.06194E-14
 -1      3081 1.15363E-02-1.39965E-04-9.53251E-14
 -1      3082 1.16770E-02-6.66569E-05-9.71626E-14
 -1      3083 1.15173E-02-1.46123E-04-9.42753E-14
 -1      3084 1.18185E-02 1.55265E-05-9.90032E-14
 -1      3085 1.19615E-02 1.05543E-04-1.00848E-13
 -1      3086 1.18040E-02 2.67754E-06-9.79453E-14
 -1      3087 1.21056E-02 2.02489E-04-1.02693E-13
 -1      3088 1.22512E-02 3.04982E-04-1.04539E-13
 -1      3089 1.20958E-02 1.86399E-04-1.01626E-13
 -1      3090 1.23980E-02 4.12078E-04-1.06385E-13
 -1      3091 1.25456E-02 5.22511E-04-1.08234E-13
 -1      3092 1.23936E-02 3.95223E-04-1.05311E-13
 -1      3093 1.26940E-02 6.35473E-04-1.10083E-13
 -1      3094 1.28425E-02 7.50099E-04-1.11928E-13
 -1      3095 1.26955E-02 6.18934E-04-1.08998E-13
 -1      3096 1.29912E-02 8.65779E-04-1.13772E-13
 -1      3097 1.31394E-02 9.82023E-04-1.15618E-13
 -1      3098 1.29987E-02 8.49619E-04-1.12682E-13
 -1      3099 1.33385E-02 1.13095E-03-1.17739E-13
 -1      3100 3.00910E-03 3.87090E-04-8.17722E-15
 -1      3101 2.86578E-03 3.85520E-04-7.44862E-15
 -1      3102 2.78946E-03 3.47149E-04-7.17099E-15
 -1      3103 9.55812E-03 5.23670E-04-7.38945E-14
 -1      3104 9.52805E-03 5.00458E-04-7.28631E-14
 -1      3105 9.55696E-03 5.28403E-04-7.40995E-14
 -1      3106 2.43548E-03 3.76823E-04-5.46202E-15
 -1      3107 2.29193E-03 3.72181E-04-4.86697E-15
 -1      3108 2.50171E-03 3.41718E-04-5.84126E-15
 -1      3109 3.28128E-03 3.88837E-04-9.64981E-15
 -1      3110 3.14522E-03 3.88149E-04-8.89920E-15
 -1      3111 3.06976E-03 3.50113E-04-8.59349E-15
 -1      3112 3.56762E-03 3.89402E-04-1.13244E-14
 -1      3113 3.42448E-03 3.89256E-04-1.04712E-14
 -1      3114 3.34980E-03 3.51484E-04-1.01386E-14
 -1      3115 3.85383E-03 3.89124E-04-1.31256E-14
 -1      3116 3.71074E-03 3.89348E-04-1.22091E-14
 -1      3117 3.63675E-03 3.51788E-04-1.18481E-14
 -1      3118 4.13992E-03 3.88338E-04-1.50526E-14
 -1      3119 3.99689E-03 3.88780E-04-1.40735E-14
 -1      3120 3.92348E-03 3.51382E-04-1.36827E-14
 -1      3121 4.42592E-03 3.87272E-04-1.71029E-14
 -1      3122 4.28293E-03 3.87830E-04-1.60628E-14
 -1      3123 4.21000E-03 3.50556E-04-1.56426E-14
 -1      3124 4.71185E-03 3.86073E-04-1.92712E-14
 -1      3125 4.56889E-03 3.86683E-04-1.81721E-14
 -1      3126 4.49634E-03 3.49507E-04-1.77232E-14
 -1      3127 4.99773E-03 3.84830E-04-2.15513E-14
 -1      3128 4.85479E-03 3.85454E-04-2.03979E-14
 -1      3129 4.78254E-03 3.48357E-04-1.99209E-14
 -1      3130 5.28356E-03 3.83586E-04-2.39382E-14
 -1      3131 5.14065E-03 3.84207E-04-2.27316E-14
 -1      3132 5.06862E-03 3.47181E-04-2.22286E-14
 -1      3133 5.56936E-03 3.82352E-04-2.64242E-14
 -1      3134 5.42647E-03 3.82968E-04-2.51695E-14
 -1      3135 5.35460E-03 3.46011E-04-2.46414E-14
 -1      3136 5.85512E-03 3.81117E-04-2.90055E-14
 -1      3137 5.71225E-03 3.81735E-04-2.77028E-14
 -1      3138 5.64048E-03 3.44857E-04-2.71532E-14
 -1      3139 6.14082E-03 3.79853E-04-3.16778E-14
 -1      3140 5.99798E-03 3.80490E-04-3.03307E-14
 -1      3141 5.92626E-03 3.43709E-04-2.97592E-14
 -1      3142 6.42642E-03 3.78524E-04-3.44393E-14
 -1      3143 6.28363E-03 3.79199E-04-3.30476E-14
 -1      3144 6.21191E-03 3.42548E-04-3.24556E-14
 -1      3145 6.71183E-03 3.77092E-04-3.72856E-14
 -1      3146 6.56915E-03 3.77824E-04-3.58522E-14
 -1      3147 6.49736E-03 3.41354E-04-3.52404E-14
 -1      3148 6.98268E-03 3.75607E-04-4.00668E-14
 -1      3149 6.84730E-03 3.76366E-04-3.86664E-14
 -1      3150 6.77540E-03 3.40150E-04-3.80377E-14
 -1      3151 7.26722E-03 3.73907E-04-4.30692E-14
 -1      3152 7.12503E-03 3.74776E-04-4.15583E-14
 -1      3153 7.05296E-03 3.38921E-04-4.09117E-14
 -1      3154 7.55076E-03 3.72123E-04-4.61461E-14
 -1      3155 7.40914E-03 3.73026E-04-4.45993E-14
 -1      3156 7.33683E-03 3.37704E-04-4.39366E-14
 -1      3157 7.83260E-03 3.70428E-04-4.92880E-14
 -1      3158 7.69194E-03 3.71262E-04-4.77085E-14
 -1      3159 7.61935E-03 3.36705E-04-4.70324E-14
 -1      3160 8.11156E-03 3.69233E-04-5.24939E-14
 -1      3161 7.97252E-03 3.69761E-04-5.08829E-14
 -1      3162 7.89964E-03 3.36282E-04-5.01931E-14
 -1      3163 8.38575E-03 3.69367E-04-5.57538E-14
 -1      3164 8.24938E-03 3.69119E-04-5.41170E-14
 -1      3165 8.17631E-03 3.37124E-04-5.34148E-14
 -1      3166 8.65218E-03 3.72390E-04-5.90622E-14
 -1      3167 8.52014E-03 3.70496E-04-5.74028E-14
 -1      3168 8.44723E-03 3.40459E-04-5.66905E-14
 -1      3169 8.90624E-03 3.81022E-04-6.24113E-14
 -1      3170 8.78109E-03 3.75987E-04-6.07331E-14
 -1      3171 8.70914E-03 3.48378E-04-6.00106E-14
 -1      3172 9.14110E-03 3.99647E-04-6.57915E-14
 -1      3173 9.02660E-03 3.89118E-04-6.40981E-14
 -1      3174 8.95730E-03 3.64231E-04-6.33705E-14
 -1      3175 9.34704E-03 4.34473E-04-6.91931E-14
 -1      3176 9.24850E-03 4.15301E-04-6.74891E-14
 -1      3177 9.18495E-03 3.92918E-04-6.67594E-14
 -1      3178 9.47588E-03 4.75680E-04-7.17105E-14
 -1      3179 9.41125E-03 4.53030E-04-7.03422E-14
 -1      3180 9.35450E-03 4.32741E-04-6.96102E-14
 -1      3181 9.47087E-03 4.77311E-04-7.19129E-14
 -1      3182 1.44392E-02 1.62008E-03-1.15406E-13
 -1      3183 1.45824E-02 1.67226E-03-1.15194E-13
 -1      3184 1.41657E-02 1.50963E-03-1.15825E-13
 -1      3185 1.42999E-02 1.56528E-03-1.15617E-13
 -1      3186 1.42321E-02 1.50567E-03-1.13945E-13
 -1      3187 1.55592E-02 1.92807E-03-1.13957E-13
 -1      3188 1.52880E-02 1.66662E-03-1.08552E-13
 -1      3189 1.52103E-02 1.57469E-03-1.06415E-13
 -1      3190 1.51408E-02 1.57518E-03-1.06547E-13
 -1      3191 1.52671E-02 1.70280E-03-1.09619E-13
 -1      3192 1.47284E-02 1.72117E-03-1.14981E-13
 -1      3193 1.48738E-02 1.76514E-03-1.14765E-13
 -1      3194 1.45262E-02 1.61713E-03-1.13527E-13
 -1      3195 1.39184E-02 1.39977E-03-1.16235E-13
 -1      3196 1.40394E-02 1.45436E-03-1.16030E-13
 -1      3197 1.39637E-02 1.38920E-03-1.14355E-13
 -1      3198 1.36880E-02 1.29144E-03-1.16647E-13
 -1      3199 1.38008E-02 1.34488E-03-1.16443E-13
 -1      3200 1.37209E-02 1.27481E-03-1.14761E-13
 -1      3201 9.87279E-03 4.69431E-04-7.59702E-14
 -1      3202 9.74850E-03 5.06669E-04-7.54350E-14
 -1      3203 1.21144E-02 8.47524E-05-9.45042E-14
 -1      3204 1.19340E-02-7.07816E-06-9.27756E-14
 -1      3205 2.14834E-03 3.66363E-04-4.30581E-15
 -1      3206 2.00470E-03 3.59241E-04-3.77923E-15
 -1      3207 2.21376E-03 3.32884E-04-4.64532E-15
 -1      3208 1.42809E-02 1.36802E-03-1.05260E-13
 -1      3209 1.40628E-02 1.28329E-03-1.04880E-13
 -1      3210 8.87900E-04-2.12127E-04-9.88901E-16
 -1      3211 1.52804E-02 1.86201E-03-1.14140E-13
 -1      3212 1.53923E-02 1.88278E-03-1.13922E-13
 -1      3213 1.44461E-03-3.14242E-04-2.26751E-15
 -1      3214 1.58810E-03-3.28765E-04-2.68835E-15
 -1      3215 1.65233E-03-3.00724E-04-2.93662E-15
 -1      3216 1.01625E-03 6.74765E-05-1.29912E-15
 -1      3217 1.01511E-03 4.05477E-05-1.31110E-15
 -1      3218 1.50176E-02 1.80403E-03-1.14562E-13
 -1      3219 1.51533E-02 1.83609E-03-1.14345E-13
 -1      3220 1.51190E-02 1.77796E-03-1.12714E-13
 -1      3221 1.48312E-02 1.71150E-03-1.13116E-13
 -1      3222 9.65978E-03 5.27422E-04-7.50294E-14
 -1      3223 9.58880E-03 5.30533E-04-7.45029E-14
 -1      3224 9.54227E-03 5.06715E-04-7.34680E-14
 -1      3225 9.66103E-03 4.88392E-04-7.42731E-14
 -1      3226 1.10256E-02 2.04764E-05-8.37022E-14
 -1      3227 1.08446E-02 9.43134E-05-8.22008E-14
 -1      3228 1.17328E-02-7.25983E-05-9.07713E-14
 -1      3229 1.15685E-02-9.40984E-05-8.90217E-14
 -1      3230 1.06462E-02 1.81263E-04-8.07121E-14
 -1      3231 1.04856E-02 2.51414E-04-7.96154E-14
 -1      3232 1.02787E-02 3.29055E-04-7.82421E-14
 -1      3233 1.00737E-02 3.97748E-04-7.69718E-14
 -1      3234 1.33518E-02 1.11522E-03-1.16637E-13
 -1      3235 1.01453E-03 1.38204E-05-1.32034E-15
 -1      3236 1.01452E-03-1.28114E-05-1.32770E-15
 -1      3237 1.13517E-03 2.94665E-05-1.59300E-15
 -1      3238 1.14194E-02-1.04396E-04-8.78145E-14
 -1      3239 1.63802E-03 2.99729E-04-2.66370E-15
 -1      3240 1.57380E-03 3.27563E-04-2.40811E-15
 -1      3241 1.31611E-03-2.97748E-04-1.92221E-15
 -1      3242 1.38017E-03-2.73927E-04-2.13375E-15
 -1      3243 1.18786E-03-2.79175E-04-1.60542E-15
 -1      3244 1.10532E-02-3.33408E-05-8.40671E-14
 -1      3245 1.54366E-02 1.86955E-03-1.13242E-13
 -1      3246 1.02356E-03-1.49522E-04-1.32796E-15
 -1      3247 1.02765E-03-1.78736E-04-1.31923E-15
 -1      3248 1.01426E-03-2.34749E-04-1.23893E-15
 -1      3249 1.22123E-02 1.47443E-04-9.55263E-14
 -1      3250 1.20893E-02 8.89884E-05-9.49178E-14
 -1      3251 1.23109E-02 2.17706E-04-9.65503E-14
 -1      3252 1.46589E-03 3.20685E-04-2.10540E-15
 -1      3253 1.03093E-02 2.63301E-04-7.80397E-14
 -1      3254 1.06930E-02 1.07602E-04-8.08950E-14
 -1      3255 9.92752E-03 4.09481E-04-7.56720E-14
 -1      3256 9.79339E-03 4.09172E-04-7.43774E-14
 -1      3257 9.96731E-03 3.43294E-04-7.53721E-14
 -1      3258 1.34751E-02 1.18858E-03-1.17056E-13
 -1      3259 1.35797E-02 1.23919E-03-1.16852E-13
 -1      3260 1.18005E-02-4.76113E-05-9.18846E-14
 -1      3261 1.92575E-03 3.19393E-04-3.58544E-15
 -1      3262 1.51035E-02 1.59541E-03-1.07192E-13
 -1      3263 1.48341E-02 1.52486E-03-1.06120E-13
 -1      3264 1.39073E-02 1.21824E-03-1.04707E-13
 -1      3265 1.37559E-02 1.14770E-03-1.04533E-13
 -1      3266 1.40759E-02 1.31351E-03-1.06191E-13
 -1      3267 1.44315E-02 1.43310E-03-1.06150E-13
 -1      3268 1.32664E-02 8.47207E-04-1.01588E-13
 -1      3269 1.31349E-02 7.72675E-04-1.01455E-13
 -1      3270 1.34265E-02 9.58087E-04-1.02916E-13
 -1      3271 1.53000E-02 1.78855E-03-1.11830E-13
 -1      3272 1.28213E-02 5.63499E-04-9.98343E-14
 -1      3273 1.26990E-02 4.65178E-04-9.86448E-14
 -1      3274 1.25694E-02 3.89136E-04-9.83477E-14
 -1      3275 1.01803E-03 9.46804E-05-1.28468E-15
 -1      3276 1.13778E-03 8.77600E-05-1.56536E-15
 -1      3277 1.02048E-03 1.22389E-04-1.26772E-15
 -1      3278 1.01794E-03-9.34633E-05-1.33543E-15
 -1      3279 1.02034E-03-1.21148E-04-1.33311E-15
 -1      3280 1.14314E-03-1.46374E-04-1.61114E-15
 -1      3281 1.02786E-03 1.80063E-04-1.22444E-15
 -1      3282 1.02374E-03 1.50807E-04-1.24784E-15
 -1      3283 1.14331E-03 1.47659E-04-1.52570E-15
 -1      3284 1.34986E-02 1.16541E-03-1.15166E-13
 -1      3285 1.32706E-02 1.03922E-03-1.14945E-13
 -1      3286 1.15336E-03 2.26396E-04-1.45125E-15
 -1      3287 1.01507E-03-3.94759E-05-1.33274E-15
 -1      3288 1.01619E-03-6.62801E-05-1.33529E-15
 -1      3289 1.13768E-03-8.65175E-05-1.61636E-15
 -1      3290 1.37586E-02 1.26464E-03-1.12885E-13
 -1      3291 1.38849E-02 1.32470E-03-1.12685E-13
 -1      3292 1.70338E-03 2.70974E-04-2.92721E-15
 -1      3293 1.55961E-03 2.60312E-04-2.49678E-15
 -1      3294 3.13459E-03 3.12900E-04-9.03214E-15
 -1      3295 2.99777E-03 3.11961E-04-8.30722E-15
 -1      3296 2.15025E-03-2.94152E-04-4.77258E-15
 -1      3297 2.29458E-03-2.99105E-04-5.36866E-15
 -1      3298 2.43891E-03-3.03105E-04-5.99829E-15
 -1      3299 2.58321E-03-3.06250E-04-6.66155E-15
 -1      3300 2.36194E-03-2.64446E-04-5.69522E-15
 -1      3301 2.72745E-03-3.08704E-04-7.35656E-15
 -1      3302 2.87162E-03-3.10543E-04-8.08415E-15
 -1      3303 2.65115E-03-2.70235E-04-7.01912E-15
 -1      3304 3.01572E-03-3.11898E-04-8.84466E-15
 -1      3305 3.15973E-03-3.12824E-04-9.63708E-15
 -1      3306 2.94014E-03-2.73642E-04-8.47339E-15
 -1      3307 3.30366E-03-3.13423E-04-1.04607E-14
 -1      3308 3.44750E-03-3.13735E-04-1.13145E-14
 -1      3309 3.22879E-03-2.75375E-04-1.00550E-14
 -1      3310 3.59126E-03-3.13834E-04-1.21992E-14
 -1      3311 3.73493E-03-3.13749E-04-1.31140E-14
 -1      3312 3.51703E-03-2.75977E-04-1.17605E-14
 -1      3313 3.87853E-03-3.13535E-04-1.40596E-14
 -1      3314 4.02204E-03-3.13209E-04-1.50351E-14
 -1      3315 3.80487E-03-2.75848E-04-1.35875E-14
 -1      3316 4.16549E-03-3.12811E-04-1.60403E-14
 -1      3317 4.30887E-03-3.12351E-04-1.70741E-14
 -1      3318 4.09232E-03-2.75271E-04-1.55351E-14
 -1      3319 4.45219E-03-3.11858E-04-1.81361E-14
 -1      3320 4.59544E-03-3.11336E-04-1.92279E-14
 -1      3321 4.37942E-03-2.74446E-04-1.75994E-14
 -1      3322 4.73865E-03-3.10803E-04-2.03475E-14
 -1      3323 4.88181E-03-3.10261E-04-2.14951E-14
 -1      3324 4.66622E-03-2.73501E-04-1.97792E-14
 -1      3325 5.02492E-03-3.09722E-04-2.26695E-14
 -1      3326 5.16799E-03-3.09186E-04-2.38697E-14
 -1      3327 4.95275E-03-2.72517E-04-2.20704E-14
 -1      3328 5.31102E-03-3.08658E-04-2.50970E-14
 -1      3329 5.45402E-03-3.08137E-04-2.63512E-14
 -1      3330 5.23904E-03-2.71536E-04-2.44699E-14
 -1      3331 5.59699E-03-3.07626E-04-2.76297E-14
 -1      3332 5.73993E-03-3.07122E-04-2.89334E-14
 -1      3333 5.52515E-03-2.70576E-04-2.69745E-14
 -1      3334 5.88285E-03-3.06626E-04-3.02616E-14
 -1      3335 6.02576E-03-3.06135E-04-3.16145E-14
 -1      3336 5.81111E-03-2.69635E-04-2.95792E-14
 -1      3337 6.16865E-03-3.05650E-04-3.29922E-14
 -1      3338 6.31154E-03-3.05166E-04-3.43934E-14
 -1      3339 6.09695E-03-2.68698E-04-3.22824E-14
 -1      3340 6.45443E-03-3.04684E-04-3.58166E-14
 -1      3341 6.59734E-03-3.04201E-04-3.72618E-14
 -1      3342 6.38272E-03-2.67744E-04-3.50806E-14
 -1      3343 6.74028E-03-3.03719E-04-3.87290E-14
 -1      3344 6.88326E-03-3.03237E-04-4.02179E-14
 -1      3345 6.66852E-03-2.66744E-04-3.79672E-14
 -1      3346 7.02631E-03-3.02755E-04-4.17276E-14
 -1      3347 7.16945E-03-3.02279E-04-4.32592E-14
 -1      3348 6.95444E-03-2.65671E-04-4.09399E-14
 -1      3349 7.31272E-03-3.01809E-04-4.48116E-14
 -1      3350 7.45615E-03-3.01359E-04-4.63821E-14
 -1      3351 7.24069E-03-2.64502E-04-4.39963E-14
 -1      3352 7.59980E-03-3.00930E-04-4.79713E-14
 -1      3353 7.74370E-03-3.00550E-04-4.95793E-14
 -1      3354 7.52754E-03-2.63233E-04-4.71330E-14
 -1      3355 7.88795E-03-3.00218E-04-5.12021E-14
 -1      3356 8.03260E-03-2.99984E-04-5.28409E-14
 -1      3357 7.81542E-03-2.61894E-04-5.03411E-14
 -1      3358 8.17776E-03-2.99845E-04-5.44965E-14
 -1      3359 8.32348E-03-2.99882E-04-5.61664E-14
 -1      3360 8.10494E-03-2.60583E-04-5.36143E-14
 -1      3361 8.46992E-03-3.00091E-04-5.78489E-14
 -1      3362 8.61713E-03-3.00585E-04-5.95439E-14
 -1      3363 8.39688E-03-2.59513E-04-5.69454E-14
 -1      3364 8.76528E-03-3.01355E-04-6.12508E-14
 -1      3365 8.91438E-03-3.02550E-04-6.29672E-14
 -1      3366 8.69224E-03-2.59064E-04-6.03296E-14
 -1      3367 9.06463E-03-3.04144E-04-6.46913E-14
 -1      3368 9.21594E-03-3.06288E-04-6.64267E-14
 -1      3369 8.99209E-03-2.59833E-04-6.37548E-14
 -1      3370 9.36849E-03-3.08923E-04-6.81702E-14
 -1      3371 9.52205E-03-3.12128E-04-6.99192E-14
 -1      3372 9.29736E-03-2.62594E-04-6.72168E-14
 -1      3373 9.67671E-03-3.15760E-04-7.16749E-14
 -1      3374 9.83204E-03-3.19684E-04-7.34374E-14
 -1      3375 9.60845E-03-2.68062E-04-7.07091E-14
 -1      3376 9.98802E-03-3.23600E-04-7.52074E-14
 -1      3377 1.01440E-02-3.26941E-04-7.69850E-14
 -1      3378 9.92460E-03-2.76249E-04-7.42283E-14
 -1      3379 1.02998E-02-3.29161E-04-7.87672E-14
 -1      3380 1.04547E-02-3.29050E-04-8.05565E-14
 -1      3381 1.02434E-02-2.85253E-04-7.77732E-14
 -1      3382 1.06083E-02-3.25741E-04-8.23522E-14
 -1      3383 1.07604E-02-3.17372E-04-8.41528E-14
 -1      3384 1.05608E-02-2.89583E-04-8.13445E-14
 -1      3385 1.09105E-02-3.02793E-04-8.59587E-14
 -1      3386 1.10589E-02-2.80095E-04-8.77689E-14
 -1      3387 1.08723E-02-2.78822E-04-8.49361E-14
 -1      3388 1.12054E-02-2.48214E-04-8.95829E-14
 -1      3389 1.13510E-02-2.05622E-04-9.14030E-14
 -1      3390 1.11754E-02-2.38811E-04-8.85507E-14
 -1      3391 1.14958E-02-1.51882E-04-9.32297E-14
 -1      3392 1.16411E-02-8.67936E-05-9.50599E-14
 -1      3393 1.14720E-02-1.56222E-04-9.21867E-14
 -1      3394 1.17867E-02-1.06501E-05-9.68922E-14
 -1      3395 1.19342E-02 7.51977E-05-9.87265E-14
 -1      3396 1.17677E-02-2.45002E-05-9.58399E-14
 -1      3397 1.20832E-02 1.69746E-04-1.00561E-13
 -1      3398 1.22341E-02 2.71219E-04-1.02401E-13
 -1      3399 1.20686E-02 1.52179E-04-9.95022E-14
 -1      3400 1.23867E-02 3.78435E-04-1.04241E-13
 -1      3401 1.25405E-02 4.89390E-04-1.06078E-13
 -1      3402 1.23778E-02 3.60987E-04-1.03171E-13
 -1      3403 1.26952E-02 6.03183E-04-1.07917E-13
 -1      3404 1.28501E-02 7.18509E-04-1.09758E-13
 -1      3405 1.26931E-02 5.87694E-04-1.06842E-13
 -1      3406 1.29843E-02 8.20482E-04-1.11434E-13
 -1      3407 1.31383E-02 9.36968E-04-1.13269E-13
 -1      3408 1.32605E-02 1.01137E-03-1.13695E-13
 -1      3409 1.29890E-02 8.06500E-04-1.10349E-13
 -1      3410 3.42240E-03 3.13920E-04-1.06518E-14
 -1      3411 3.27854E-03 3.13559E-04-9.82598E-15
 -1      3412 3.20720E-03 2.75503E-04-9.51320E-15
 -1      3413 2.56883E-03 3.06160E-04-6.22638E-15
 -1      3414 2.42453E-03 3.02932E-04-5.59246E-15
 -1      3415 3.70987E-03 3.14006E-04-1.23971E-14
 -1      3416 3.56618E-03 3.14059E-04-1.15088E-14
 -1      3417 3.49549E-03 2.76184E-04-1.11693E-14
 -1      3418 3.99702E-03 3.13511E-04-1.42668E-14
 -1      3419 3.85349E-03 3.13817E-04-1.33165E-14
 -1      3420 3.78337E-03 2.76105E-04-1.29499E-14
 -1      3421 4.28389E-03 3.12679E-04-1.62605E-14
 -1      3422 4.14049E-03 3.13128E-04-1.52479E-14
 -1      3423 4.07087E-03 2.75560E-04-1.48542E-14
 -1      3424 4.57052E-03 3.11672E-04-1.83729E-14
 -1      3425 4.42724E-03 3.12192E-04-1.73023E-14
 -1      3426 4.35802E-03 2.74751E-04-1.68806E-14
 -1      3427 4.85694E-03 3.10595E-04-2.06004E-14
 -1      3428 4.71375E-03 3.11139E-04-1.94727E-14
 -1      3429 4.64487E-03 2.73812E-04-1.90253E-14
 -1      3430 5.14317E-03 3.09505E-04-2.29374E-14
 -1      3431 5.00008E-03 3.10050E-04-2.17555E-14
 -1      3432 4.93145E-03 2.72826E-04-2.12827E-14
 -1      3433 5.42925E-03 3.08430E-04-2.53776E-14
 -1      3434 5.28623E-03 3.08966E-04-2.41453E-14
 -1      3435 5.21780E-03 2.71840E-04-2.36489E-14
 -1      3436 5.71517E-03 3.07378E-04-2.79162E-14
 -1      3437 5.57223E-03 3.07902E-04-2.66355E-14
 -1      3438 5.50394E-03 2.70877E-04-2.61165E-14
 -1      3439 6.00094E-03 3.06343E-04-3.05477E-14
 -1      3440 5.85808E-03 3.06859E-04-2.92202E-14
 -1      3441 5.78988E-03 2.69946E-04-2.86819E-14
 -1      3442 6.28650E-03 3.05320E-04-3.32697E-14
 -1      3443 6.14375E-03 3.05831E-04-3.18978E-14
 -1      3444 6.07560E-03 2.69050E-04-3.13389E-14
 -1      3445 6.57179E-03 3.04312E-04-3.60794E-14
 -1      3446 6.42919E-03 3.04814E-04-3.46635E-14
 -1      3447 6.36105E-03 2.68201E-04-3.40863E-14
 -1      3448 6.84243E-03 3.03394E-04-3.88277E-14
 -1      3449 6.70716E-03 3.03847E-04-3.74441E-14
 -1      3450 6.63903E-03 2.67449E-04-3.68492E-14
 -1      3451 7.12666E-03 3.02541E-04-4.17974E-14
 -1      3452 6.98464E-03 3.02949E-04-4.03029E-14
 -1      3453 6.91649E-03 2.66838E-04-3.96925E-14
 -1      3454 7.40985E-03 3.01964E-04-4.48446E-14
 -1      3455 7.26841E-03 3.02210E-04-4.33115E-14
 -1      3456 7.20028E-03 2.66499E-04-4.26854E-14
 -1      3457 7.69136E-03 3.01975E-04-4.79604E-14
 -1      3458 7.55086E-03 3.01882E-04-4.63948E-14
 -1      3459 7.48284E-03 2.66715E-04-4.57543E-14
 -1      3460 7.97022E-03 3.03138E-04-5.11416E-14
 -1      3461 7.83120E-03 3.02389E-04-4.95428E-14
 -1      3462 7.76347E-03 2.67945E-04-4.88905E-14
 -1      3463 8.24493E-03 3.06426E-04-5.43798E-14
 -1      3464 8.10821E-03 3.04479E-04-5.27541E-14
 -1      3465 8.04117E-03 2.70966E-04-5.20907E-14
 -1      3466 8.51326E-03 3.13447E-04-5.76701E-14
 -1      3467 8.38007E-03 3.09414E-04-5.60195E-14
 -1      3468 8.31445E-03 2.77027E-04-5.53472E-14
 -1      3469 8.77206E-03 3.26738E-04-6.10028E-14
 -1      3470 8.64413E-03 3.19238E-04-5.93313E-14
 -1      3471 8.58126E-03 2.88072E-04-5.86511E-14
 -1      3472 9.01694E-03 3.50045E-04-6.43735E-14
 -1      3473 8.89667E-03 3.37075E-04-6.26841E-14
 -1      3474 8.83887E-03 3.06962E-04-6.19962E-14
 -1      3475 9.24222E-03 3.88311E-04-6.77687E-14
 -1      3476 9.13271E-03 3.67343E-04-6.60683E-14
 -1      3477 9.08396E-03 3.37591E-04-6.53760E-14
 -1      3478 1.35228E-02 1.14714E-03-1.13286E-13
 -1      3479 1.36375E-02 1.20481E-03-1.13086E-13
 -1      3480 1.35514E-02 1.13563E-03-1.11415E-13
 -1      3481 1.40210E-02 1.38706E-03-1.12481E-13
 -1      3482 1.41652E-02 1.44869E-03-1.12276E-13
 -1      3483 1.38068E-02 1.26283E-03-1.11014E-13
 -1      3484 1.30010E-03 3.15649E-04-1.66201E-15
 -1      3485 2.28020E-03 2.98836E-04-4.99126E-15
 -1      3486 2.13586E-03 2.93772E-04-4.42379E-15
 -1      3487 2.34752E-03 2.64261E-04-5.34323E-15
 -1      3488 1.07912E-03-2.17174E-04-1.40689E-15
 -1      3489 1.52160E-02 1.71955E-03-1.10295E-13
 -1      3490 1.51409E-02 1.65327E-03-1.08760E-13
 -1      3491 1.51554E-02 1.73132E-03-1.10972E-13
 -1      3492 1.18573E-02-1.62501E-05-9.31139E-14
 -1      3493 1.16704E-02-8.32207E-05-9.11034E-14
 -1      3494 1.33628E-02 1.06385E-03-1.13498E-13
 -1      3495 1.57393E-03-2.61272E-04-2.73102E-15
 -1      3496 1.71772E-03-2.71795E-04-3.18959E-15
 -1      3497 1.32799E-03 2.84170E-04-1.79652E-15
 -1      3498 1.10532E-02-8.49507E-05-8.43390E-14
 -1      3499 1.08879E-02-3.44958E-05-8.26556E-14
 -1      3500 1.43168E-02 1.50933E-03-1.12069E-13
 -1      3501 1.44742E-02 1.56570E-03-1.11860E-13
 -1      3502 1.40998E-02 1.39431E-03-1.10607E-13
 -1      3503 1.86175E-03-2.80668E-04-3.68279E-15
 -1      3504 2.00596E-03-2.88048E-04-4.21054E-15
 -1      3505 2.07278E-03-2.55375E-04-4.50334E-15
 -1      3506 1.99158E-03 2.87537E-04-3.89092E-15
 -1      3507 1.84738E-03 2.80014E-04-3.39202E-15
 -1      3508 1.76970E-03 2.41281E-04-3.19857E-15
 -1      3509 2.05837E-03 2.54990E-04-4.20299E-15
 -1      3510 1.49489E-02 1.58284E-03-1.07435E-13
 -1      3511 1.47763E-02 1.54798E-03-1.07256E-13
 -1      3512 1.03311E-02 1.88560E-04-7.78324E-14
 -1      3513 1.01508E-02 2.53355E-04-7.64656E-14
 -1      3514 1.07011E-02 4.26205E-05-8.08902E-14
 -1      3515 1.05271E-02 1.16126E-04-7.94066E-14
 -1      3516 1.45912E-02 1.50988E-03-1.07473E-13
 -1      3517 1.43975E-02 1.45808E-03-1.07688E-13
 -1      3518 1.47375E-02 1.57860E-03-1.08792E-13
 -1      3519 2.85546E-03 3.10564E-04-7.58444E-15
 -1      3520 2.71128E-03 3.08657E-04-6.88498E-15
 -1      3521 2.63493E-03 2.70173E-04-6.60843E-15
 -1      3522 2.92033E-03 2.73671E-04-7.99289E-15
 -1      3523 1.19869E-03-2.16392E-04-1.70243E-15
 -1      3524 1.14566E-02-1.20280E-04-8.86916E-14
 -1      3525 1.12718E-02-1.16752E-04-8.66276E-14
 -1      3526 1.31929E-03 2.31481E-04-1.86282E-15
 -1      3527 1.38549E-03 2.07343E-04-2.07758E-15
 -1      3528 1.27407E-03-1.90836E-04-1.92014E-15
 -1      3529 1.32626E-03-2.31412E-04-2.02799E-15
 -1      3530 1.45444E-03-2.44897E-04-2.38221E-15
 -1      3531 9.53453E-03 4.72859E-04-7.27141E-14
 -1      3532 9.49178E-03 4.76959E-04-7.23138E-14
 -1      3533 9.43649E-03 4.51411E-04-7.11599E-14
 -1      3534 1.25711E-03 4.70883E-05-1.88947E-15
 -1      3535 1.25640E-03 1.60668E-05-1.90219E-15
 -1      3536 1.13514E-03-2.83097E-05-1.60990E-15
 -1      3537 1.78409E-03-2.41942E-04-3.44726E-15
 -1      3538 1.25352E-02 3.87084E-04-9.89354E-14
 -1      3539 1.24225E-02 3.00632E-04-9.77411E-14
 -1      3540 1.22900E-02 2.23570E-04-9.71327E-14
 -1      3541 1.32754E-02 9.89831E-04-1.11819E-13
 -1      3542 9.37619E-03 4.28157E-04-7.00381E-14
 -1      3543 9.31069E-03 4.06950E-04-6.88871E-14
 -1      3544 9.27396E-03 3.76940E-04-6.81932E-14
 -1      3545 9.41149E-03 4.19695E-04-7.04353E-14
 -1      3546 1.07207E-02-2.53988E-05-8.11557E-14
 -1      3547 1.50217E-02 1.70971E-03-1.11175E-13
 -1      3548 1.19467E-02 2.70332E-05-9.41377E-14
 -1      3549 1.18127E-02-2.54383E-05-9.33544E-14
 -1      3550 1.20359E-02 7.79808E-05-9.51629E-14
 -1      3551 1.00023E-02 2.74547E-04-7.51629E-14
 -1      3552 9.86010E-03 2.87071E-04-7.38665E-14
 -1      3553 1.00211E-02 2.04196E-04-7.49515E-14
 -1      3554 1.42595E-02 1.40765E-03-1.07515E-13
 -1      3555 1.41208E-02 1.35143E-03-1.07344E-13
 -1      3556 1.44316E-02 1.49225E-03-1.08839E-13
 -1      3557 1.36135E-02 1.07903E-03-1.04404E-13
 -1      3558 1.34799E-02 1.00858E-03-1.04274E-13
 -1      3559 1.37933E-02 1.18736E-03-1.05890E-13
 -1      3560 1.31324E-02 7.92158E-04-1.02494E-13
 -1      3561 1.29767E-02 6.80048E-04-1.01162E-13
 -1      3562 1.28362E-02 5.93478E-04-1.00870E-13
 -1      3563 1.52069E-03-2.18518E-04-2.60622E-15
 -1      3564 1.26071E-03 1.09624E-04-1.85462E-15
 -1      3565 1.25854E-03 7.81904E-05-1.87385E-15
 -1      3566 1.38022E-03 6.62708E-05-2.20935E-15
 -1      3567 9.67500E-03 4.33992E-04-7.35140E-14
 -1      3568 9.59691E-03 4.57804E-04-7.31137E-14
 -1      3569 9.53067E-03 4.29052E-04-7.19565E-14
 -1      3570 1.11054E-02-1.26402E-04-8.52062E-14
 -1      3571 1.46138E-02 1.59986E-03-1.11162E-13
 -1      3572 1.47767E-02 1.64424E-03-1.10964E-13
 -1      3573 9.70785E-03 3.83214E-04-7.32149E-14
 -1      3574 1.15215E-02-1.18378E-04-8.99114E-14
 -1      3575 1.03540E-02 1.17695E-04-7.78228E-14
 -1      3576 1.50291E-02 1.60882E-03-1.07867E-13
 -1      3577 1.26963E-03-1.57921E-04-1.92876E-15
 -1      3578 1.39699E-03-1.68515E-04-2.27432E-15
 -1      3579 1.26620E-03-1.25663E-04-1.93332E-15
 -1      3580 1.49904E-02 1.63861E-03-1.09004E-13
 -1      3581 1.99588E-03-2.17113E-04-4.23793E-15
 -1      3582 2.14054E-03-2.22016E-04-4.79986E-15
 -1      3583 1.11419E-02-1.64039E-04-8.61040E-14
 -1      3584 1.09395E-02-1.44825E-04-8.38144E-14
 -1      3585 3.27678E-03 2.37867E-04-9.97897E-15
 -1      3586 3.13228E-03 2.37337E-04-9.18085E-15
 -1      3587 1.07019E-02-8.68281E-05-8.11922E-14
 -1      3588 1.05336E-02-2.13536E-05-7.94340E-14
 -1      3589 1.25638E-03-1.48265E-05-1.91209E-15
 -1      3590 1.25706E-03-4.57785E-05-1.91909E-15
 -1      3591 1.37868E-03 6.91646E-07-2.23836E-15
 -1      3592 2.57504E-03-2.31839E-04-6.68565E-15
 -1      3593 2.71987E-03-2.33827E-04-7.37916E-15
 -1      3594 2.86464E-03-2.35347E-04-8.10560E-15
 -1      3595 3.00932E-03-2.36448E-04-8.86395E-15
 -1      3596 2.78929E-03-1.97077E-04-7.74188E-15
 -1      3597 3.15391E-03-2.37225E-04-9.65356E-15
 -1      3598 3.29839E-03-2.37713E-04-1.04745E-14
 -1      3599 3.07911E-03-1.99016E-04-9.25562E-15
 -1      3600 3.44276E-03-2.37987E-04-1.13255E-14
 -1      3601 3.58701E-03-2.38069E-04-1.22068E-14
 -1      3602 3.36851E-03-1.99891E-04-1.08941E-14
 -1      3603 3.73115E-03-2.38016E-04-1.31190E-14
 -1      3604 3.87517E-03-2.37843E-04-1.40610E-14
 -1      3605 3.65741E-03-2.00057E-04-1.26546E-14
 -1      3606 4.01908E-03-2.37591E-04-1.50332E-14
 -1      3607 4.16288E-03-2.37267E-04-1.60352E-14
 -1      3608 3.94580E-03-1.99776E-04-1.45357E-14
 -1      3609 4.30659E-03-2.36903E-04-1.70662E-14
 -1      3610 4.45020E-03-2.36502E-04-1.81252E-14
 -1      3611 4.23371E-03-1.99232E-04-1.65357E-14
 -1      3612 4.59372E-03-2.36083E-04-1.92136E-14
 -1      3613 4.73715E-03-2.35649E-04-2.03306E-14
 -1      3614 4.52117E-03-1.98548E-04-1.86523E-14
 -1      3615 4.88051E-03-2.35211E-04-2.14757E-14
 -1      3616 5.02380E-03-2.34769E-04-2.26476E-14
 -1      3617 4.80824E-03-1.97802E-04-2.08838E-14
 -1      3618 5.16702E-03-2.34331E-04-2.38455E-14
 -1      3619 5.31018E-03-2.33894E-04-2.50707E-14
 -1      3620 5.09497E-03-1.97039E-04-2.32252E-14
 -1      3621 5.45329E-03-2.33462E-04-2.63226E-14
 -1      3622 5.59634E-03-2.33029E-04-2.75990E-14
 -1      3623 5.38139E-03-1.96276E-04-2.56731E-14
 -1      3624 5.73934E-03-2.32599E-04-2.88999E-14
 -1      3625 5.88231E-03-2.32165E-04-3.02250E-14
 -1      3626 5.66757E-03-1.95510E-04-2.82234E-14
 -1      3627 6.02524E-03-2.31726E-04-3.15751E-14
 -1      3628 6.16814E-03-2.31276E-04-3.29497E-14
 -1      3629 5.95353E-03-1.94723E-04-3.08715E-14
 -1      3630 6.31102E-03-2.30811E-04-3.43466E-14
 -1      3631 6.45390E-03-2.30326E-04-3.57662E-14
 -1      3632 6.23934E-03-1.93876E-04-3.36164E-14
 -1      3633 6.59677E-03-2.29814E-04-3.72090E-14
 -1      3634 6.73966E-03-2.29268E-04-3.86723E-14
 -1      3635 6.52505E-03-1.92918E-04-3.64525E-14
 -1      3636 6.88259E-03-2.28681E-04-4.01562E-14
 -1      3637 7.02557E-03-2.28047E-04-4.16614E-14
 -1      3638 6.81076E-03-1.91778E-04-3.93764E-14
 -1      3639 7.16864E-03-2.27355E-04-4.31878E-14
 -1      3640 7.31184E-03-2.26604E-04-4.47343E-14
 -1      3641 7.09662E-03-1.90367E-04-4.23832E-14
 -1      3642 7.45521E-03-2.25778E-04-4.62998E-14
 -1      3643 7.59880E-03-2.24887E-04-4.78833E-14
 -1      3644 7.38286E-03-1.88580E-04-4.54699E-14
 -1      3645 7.74270E-03-2.23911E-04-4.94839E-14
 -1      3646 7.88696E-03-2.22877E-04-5.11016E-14
 -1      3647 7.66987E-03-1.86310E-04-4.86317E-14
 -1      3648 8.03170E-03-2.21763E-04-5.27355E-14
 -1      3649 8.17702E-03-2.20628E-04-5.43852E-14
 -1      3650 7.95822E-03-1.83475E-04-5.18615E-14
 -1      3651 8.32307E-03-2.19449E-04-5.60477E-14
 -1      3652 8.46996E-03-2.18338E-04-5.77235E-14
 -1      3653 8.24872E-03-1.80074E-04-5.51529E-14
 -1      3654 8.61789E-03-2.17275E-04-5.94116E-14
 -1      3655 8.76698E-03-2.16442E-04-6.11115E-14
 -1      3656 8.54254E-03-1.76288E-04-5.84982E-14
 -1      3657 8.91746E-03-2.15830E-04-6.28222E-14
 -1      3658 9.06944E-03-2.15708E-04-6.45402E-14
 -1      3659 8.84112E-03-1.72621E-04-6.18910E-14
 -1      3660 9.22315E-03-2.16076E-04-6.62666E-14
 -1      3661 9.37858E-03-2.17257E-04-6.80032E-14
 -1      3662 9.14618E-03-1.70073E-04-6.53228E-14
 -1      3663 9.53595E-03-2.19251E-04-6.97466E-14
 -1      3664 9.69499E-03-2.22325E-04-7.14961E-14
 -1      3665 9.45933E-03-1.70223E-04-6.87860E-14
 -1      3666 9.85585E-03-2.26412E-04-7.32511E-14
 -1      3667 1.00179E-02-2.31462E-04-7.50141E-14
 -1      3668 9.78144E-03-1.75017E-04-7.22780E-14
 -1      3669 1.01810E-02-2.37271E-04-7.67842E-14
 -1      3670 1.03443E-02-2.43041E-04-7.85584E-14
 -1      3671 1.01116E-02-1.85784E-04-7.57965E-14
 -1      3672 1.05074E-02-2.48139E-04-8.03391E-14
 -1      3673 1.06691E-02-2.50675E-04-8.21258E-14
 -1      3674 1.04463E-02-2.01170E-04-7.93387E-14
 -1      3675 1.08464E-02-2.36174E-04-8.39252E-14
 -1      3676 1.10056E-02-2.29686E-04-8.57226E-14
 -1      3677 1.14451E-02-1.59466E-04-9.11436E-14
 -1      3678 1.15957E-02-1.06205E-04-9.29651E-14
 -1      3679 1.17565E-02-3.81276E-05-9.42011E-14
 -1      3680 1.19112E-02 4.12466E-05-9.60221E-14
 -1      3681 1.23667E-02 3.42838E-04-1.02104E-13
 -1      3682 1.25274E-02 4.56070E-04-1.03936E-13
 -1      3683 1.26896E-02 5.72700E-04-1.05768E-13
 -1      3684 1.28521E-02 6.90340E-04-1.07598E-13
 -1      3685 1.26849E-02 5.57231E-04-1.04695E-13
 -1      3686 1.29927E-02 7.88500E-04-1.08875E-13
 -1      3687 1.31336E-02 8.91808E-04-1.10544E-13
 -1      3688 1.32885E-02 9.76720E-04-1.10344E-13
 -1      3689 1.29961E-02 7.77054E-04-1.07798E-13
 -1      3690 4.14141E-03 2.37548E-04-1.54205E-14
 -1      3691 3.99758E-03 2.37861E-04-1.44373E-14
 -1      3692 3.56544E-03 2.38286E-04-1.16693E-14
 -1      3693 3.42117E-03 2.38176E-04-1.08084E-14
 -1      3694 3.34686E-03 2.00065E-04-1.04490E-14
 -1      3695 4.42878E-03 2.36795E-04-1.74783E-14
 -1      3696 4.28514E-03 2.37191E-04-1.64340E-14
 -1      3697 4.21222E-03 1.99503E-04-1.59894E-14
 -1      3698 4.71579E-03 2.35947E-04-1.96516E-14
 -1      3699 4.57232E-03 2.36380E-04-1.85511E-14
 -1      3700 4.49973E-03 1.98829E-04-1.80776E-14
 -1      3701 5.00249E-03 2.35072E-04-2.19383E-14
 -1      3702 4.85918E-03 2.35511E-04-2.07815E-14
 -1      3703 4.78686E-03 1.98090E-04-2.02814E-14
 -1      3704 5.28891E-03 2.34207E-04-2.43315E-14
 -1      3705 5.14573E-03 2.34638E-04-2.31218E-14
 -1      3706 5.07363E-03 1.97340E-04-2.25961E-14
 -1      3707 5.57509E-03 2.33373E-04-2.68262E-14
 -1      3708 5.43203E-03 2.33786E-04-2.55666E-14
 -1      3709 5.36010E-03 1.96609E-04-2.50169E-14
 -1      3710 5.86102E-03 2.32583E-04-2.94151E-14
 -1      3711 5.71808E-03 2.32973E-04-2.81084E-14
 -1      3712 5.64628E-03 1.95919E-04-2.75364E-14
 -1      3713 6.14668E-03 2.31853E-04-3.20980E-14
 -1      3714 6.00388E-03 2.32210E-04-3.07455E-14
 -1      3715 5.93217E-03 1.95288E-04-3.01519E-14
 -1      3716 6.43201E-03 2.31213E-04-3.48704E-14
 -1      3717 6.28939E-03 2.31520E-04-3.34734E-14
 -1      3718 6.21776E-03 1.94746E-04-3.28594E-14
 -1      3719 6.70268E-03 2.30749E-04-3.75845E-14
 -1      3720 6.56741E-03 2.30960E-04-3.62177E-14
 -1      3721 6.49585E-03 1.94356E-04-3.55862E-14
 -1      3722 6.98700E-03 2.30526E-04-4.05216E-14
 -1      3723 6.84493E-03 2.30596E-04-3.90427E-14
 -1      3724 6.77348E-03 1.94195E-04-3.83931E-14
 -1      3725 7.27041E-03 2.30790E-04-4.35364E-14
 -1      3726 7.12884E-03 2.30585E-04-4.20192E-14
 -1      3727 7.05756E-03 1.94436E-04-4.13523E-14
 -1      3728 7.55247E-03 2.31909E-04-4.66260E-14
 -1      3729 7.41165E-03 2.31222E-04-4.50730E-14
 -1      3730 7.34069E-03 1.95377E-04-4.43899E-14
 -1      3731 7.83250E-03 2.34484E-04-4.97827E-14
 -1      3732 7.69279E-03 2.32982E-04-4.81964E-14
 -1      3733 7.62242E-03 1.97485E-04-4.75006E-14
 -1      3734 8.10954E-03 2.39475E-04-5.30004E-14
 -1      3735 7.97148E-03 2.36628E-04-5.13839E-14
 -1      3736 7.90217E-03 2.01492E-04-5.06757E-14
 -1      3737 8.38231E-03 2.48345E-04-5.62735E-14
 -1      3738 8.24658E-03 2.43353E-04-5.46309E-14
 -1      3739 8.17914E-03 2.08506E-04-5.39121E-14
 -1      3740 8.64912E-03 2.63228E-04-5.95904E-14
 -1      3741 8.51663E-03 2.54938E-04-5.79264E-14
 -1      3742 8.45234E-03 2.20129E-04-5.71999E-14
 -1      3743 8.90808E-03 2.87032E-04-6.29480E-14
 -1      3744 8.77983E-03 2.73895E-04-6.12644E-14
 -1      3745 8.72076E-03 2.38541E-04-6.05307E-14
 -1      3746 9.15743E-03 3.23313E-04-6.63376E-14
 -1      3747 9.03429E-03 3.03496E-04-6.46405E-14
 -1      3748 8.98367E-03 2.66453E-04-6.39018E-14
 -1      3749 1.34000E-02 1.03686E-03-1.10149E-13
 -1      3750 1.35197E-02 1.09982E-03-1.09952E-13
 -1      3751 1.32489E-02 9.36524E-04-1.08880E-13
 -1      3752 1.26765E-03 1.74116E-04-1.80590E-15
 -1      3753 1.26374E-03 1.41604E-04-1.83214E-15
 -1      3754 1.36484E-02 1.16623E-03-1.09754E-13
 -1      3755 1.37878E-02 1.23432E-03-1.09554E-13
 -1      3756 1.34884E-02 1.06605E-03-1.08493E-13
 -1      3757 2.41573E-03 2.29156E-04-5.70094E-15
 -1      3758 2.27088E-03 2.25850E-04-5.09442E-15
 -1      3759 3.85364E-03 2.38100E-04-1.34834E-14
 -1      3760 3.70960E-03 2.38256E-04-1.25609E-14
 -1      3761 3.63581E-03 2.00280E-04-1.21730E-14
 -1      3762 3.92426E-03 2.00030E-04-1.40206E-14
 -1      3763 1.50668E-03 1.99107E-04-2.43540E-15
 -1      3764 2.28533E-03-2.26036E-04-5.39560E-15
 -1      3765 2.43018E-03-2.29264E-04-6.02457E-15
 -1      3766 2.20916E-03-1.87994E-04-5.09988E-15
 -1      3767 1.51561E-03-1.82387E-04-2.61652E-15
 -1      3768 1.63480E-03-1.95829E-04-2.98252E-15
 -1      3769 1.51159E-03-1.46794E-04-2.62264E-15
 -1      3770 1.44053E-02 1.49977E-03-1.09706E-13
 -1      3771 1.26011E-03-6.97488E-05-1.92779E-15
 -1      3772 1.26207E-03-1.01112E-04-1.92909E-15
 -1      3773 1.38898E-03-1.08482E-04-2.27504E-15
 -1      3774 1.38188E-03-5.73458E-05-2.25915E-15
 -1      3775 9.68627E-03 3.26069E-04-7.24128E-14
 -1      3776 9.57855E-03 3.53484E-04-7.15543E-14
 -1      3777 1.03570E-02 4.36703E-05-7.77455E-14
 -1      3778 1.01832E-02 1.04685E-04-7.61762E-14
 -1      3779 1.74299E-03-2.03800E-04-3.33640E-15
 -1      3780 1.88723E-03-2.10506E-04-3.83902E-15
 -1      3781 1.95555E-03-1.78491E-04-4.10956E-15
 -1      3782 1.73858E-03-1.65886E-04-3.34346E-15
 -1      3783 1.38494E-03 1.32871E-04-2.16639E-15
 -1      3784 1.64274E-03 1.95605E-04-2.85629E-15
 -1      3785 1.52435E-03 1.63873E-04-2.53405E-15
 -1      3786 1.07945E-02-1.99011E-04-8.29102E-14
 -1      3787 1.07520E-02-1.48463E-04-8.20251E-14
 -1      3788 1.50442E-03 8.69113E-05-2.55216E-15
 -1      3789 1.50280E-03 5.23519E-05-2.57204E-15
 -1      3790 3.05923E-03 1.99125E-04-8.85883E-15
 -1      3791 2.98948E-03 2.36521E-04-8.42355E-15
 -1      3792 2.84659E-03 2.35381E-04-7.69758E-15
 -1      3793 1.03558E-02-2.75004E-05-7.77751E-14
 -1      3794 9.51654E-03 3.82643E-04-7.11921E-14
 -1      3795 9.45649E-03 4.04605E-04-7.07967E-14
 -1      3796 9.38505E-03 3.81493E-04-6.96723E-14
 -1      3797 9.48945E-03 3.33097E-04-7.03926E-14
 -1      3798 2.49921E-03-1.93603E-04-6.35589E-15
 -1      3799 1.26777E-02 4.92576E-04-1.00266E-13
 -1      3800 1.25338E-02 4.00733E-04-9.96591E-14
 -1      3801 1.28227E-02 5.99270E-04-1.01598E-13
 -1      3802 1.11418E-02-2.25757E-04-8.75209E-14
 -1      3803 1.12947E-02-1.98697E-04-8.93302E-14
 -1      3804 1.20536E-02 1.09831E-04-9.65527E-14
 -1      3805 1.20578E-02 1.33928E-04-9.82065E-14
 -1      3806 1.78670E-03 2.03052E-04-3.31705E-15
 -1      3807 1.22156E-02 2.35563E-04-1.00034E-13
 -1      3808 1.05721E-02-1.51127E-04-8.02908E-14
 -1      3809 2.19470E-03 1.87820E-04-4.84713E-15
 -1      3810 2.12611E-03 2.21739E-04-4.52179E-15
 -1      3811 1.98145E-03 2.16746E-04-3.98264E-15
 -1      3812 1.23629E-02 3.24758E-04-1.00799E-13
 -1      3813 1.11219E-02-1.95438E-04-8.64974E-14
 -1      3814 2.55878E-03 2.31769E-04-6.33203E-15
 -1      3815 2.48292E-03 1.93536E-04-6.05608E-15
 -1      3816 2.70181E-03 2.33800E-04-6.99400E-15
 -1      3817 1.38733E-02 1.27095E-03-1.09145E-13
 -1      3818 1.40337E-02 1.34079E-03-1.08942E-13
 -1      3819 1.21957E-02 1.85563E-04-9.73362E-14
 -1      3820 1.00420E-02 1.30165E-04-7.48719E-14
 -1      3821 9.90306E-03 1.50424E-04-7.35718E-14
 -1      3822 1.00481E-02 5.76707E-05-7.47877E-14
 -1      3823 9.31125E-03 3.60226E-04-6.85632E-14
 -1      3824 9.23519E-03 3.40934E-04-6.74431E-14
 -1      3825 9.19514E-03 3.01408E-04-6.67035E-14
 -1      3826 9.35568E-03 3.39318E-04-6.89207E-14
 -1      3827 1.38600E-02 1.23151E-03-1.06750E-13
 -1      3828 1.37303E-02 1.16833E-03-1.06621E-13
 -1      3829 1.49331E-02 1.67789E-03-1.10744E-13
 -1      3830 1.33165E-02 9.17938E-04-1.03986E-13
 -1      3831 1.31660E-02 8.28619E-04-1.03696E-13
 -1      3832 1.34975E-02 1.03505E-03-1.05476E-13
 -1      3833 1.14153E-02-1.59560E-04-9.01062E-14
 -1      3834 1.52081E-03 1.28357E-04-2.56332E-15
 -1      3835 1.14898E-02-1.33536E-04-9.03156E-14
 -1      3836 1.12874E-02-1.65588E-04-8.78995E-14
 -1      3837 9.70926E-03 2.67132E-04-7.21994E-14
 -1      3838 1.40993E-02 1.35789E-03-1.08211E-13
 -1      3839 1.50199E-03 1.78938E-05-2.58855E-15
 -1      3840 1.50196E-03-1.65073E-05-2.60126E-15
 -1      3841 1.62618E-03 3.65681E-05-2.96176E-15
 -1      3842 1.37074E-02 1.17374E-03-1.07888E-13
 -1      3843 2.42378E-03-1.55643E-04-6.03016E-15
 -1      3844 2.56900E-03-1.57475E-04-6.68991E-15
 -1      3845 3.00449E-03-1.60804E-04-8.86202E-15
 -1      3846 3.14948E-03-1.61358E-04-9.64932E-15
 -1      3847 3.29436E-03-1.61725E-04-1.04666E-14
 -1      3848 3.43911E-03-1.61919E-04-1.13152E-14
 -1      3849 3.22038E-03-1.23526E-04-1.00435E-14
 -1      3850 3.58373E-03-1.61993E-04-1.21940E-14
 -1      3851 3.72820E-03-1.61954E-04-1.31033E-14
 -1      3852 3.51015E-03-1.23847E-04-1.17377E-14
 -1      3853 3.87255E-03-1.61841E-04-1.40422E-14
 -1      3854 4.01675E-03-1.61660E-04-1.50114E-14
 -1      3855 3.79936E-03-1.23801E-04-1.35531E-14
 -1      3856 4.16083E-03-1.61438E-04-1.60107E-14
 -1      3857 4.30478E-03-1.61176E-04-1.70384E-14
 -1      3858 4.08799E-03-1.23529E-04-1.54885E-14
 -1      3859 4.44862E-03-1.60895E-04-1.80952E-14
 -1      3860 4.59234E-03-1.60594E-04-1.91807E-14
 -1      3861 4.37608E-03-1.23129E-04-1.75419E-14
 -1      3862 4.73596E-03-1.60286E-04-2.02948E-14
 -1      3863 4.87947E-03-1.59969E-04-2.14381E-14
 -1      3864 4.66368E-03-1.22665E-04-1.97110E-14
 -1      3865 5.02290E-03-1.59653E-04-2.26080E-14
 -1      3866 5.16623E-03-1.59332E-04-2.38041E-14
 -1      3867 4.95083E-03-1.22172E-04-2.19934E-14
 -1      3868 5.30949E-03-1.59012E-04-2.50270E-14
 -1      3869 5.45268E-03-1.58688E-04-2.62764E-14
 -1      3870 5.23760E-03-1.21666E-04-2.43848E-14
 -1      3871 5.59579E-03-1.58361E-04-2.75494E-14
 -1      3872 5.73885E-03-1.58025E-04-2.88480E-14
 -1      3873 5.52403E-03-1.21144E-04-2.68796E-14
 -1      3874 5.88184E-03-1.57678E-04-3.01717E-14
 -1      3875 6.02478E-03-1.57313E-04-3.15189E-14
 -1      3876 5.81016E-03-1.20584E-04-2.94745E-14
 -1      3877 6.16768E-03-1.56925E-04-3.28906E-14
 -1      3878 6.31054E-03-1.56504E-04-3.42838E-14
 -1      3879 6.09605E-03-1.19948E-04-3.21669E-14
 -1      3880 6.45337E-03-1.56042E-04-3.56993E-14
 -1      3881 6.59618E-03-1.55526E-04-3.71388E-14
 -1      3882 6.38173E-03-1.19171E-04-3.49510E-14
 -1      3883 6.73898E-03-1.54944E-04-3.85988E-14
 -1      3884 6.88180E-03-1.54281E-04-4.00798E-14
 -1      3885 6.66727E-03-1.18162E-04-3.78234E-14
 -1      3886 7.02465E-03-1.53519E-04-4.15807E-14
 -1      3887 7.16756E-03-1.52641E-04-4.31026E-14
 -1      3888 6.95276E-03-1.16790E-04-4.07822E-14
 -1      3889 7.31056E-03-1.51621E-04-4.46440E-14
 -1      3890 7.45371E-03-1.50447E-04-4.62044E-14
 -1      3891 7.23835E-03-1.14882E-04-4.38206E-14
 -1      3892 7.59705E-03-1.49083E-04-4.77836E-14
 -1      3893 7.74066E-03-1.47526E-04-4.93780E-14
 -1      3894 7.52431E-03-1.12218E-04-4.69371E-14
 -1      3895 7.88462E-03-1.45730E-04-5.09896E-14
 -1      3896 8.02904E-03-1.43717E-04-5.26183E-14
 -1      3897 7.81107E-03-1.08540E-04-5.01230E-14
 -1      3898 8.17404E-03-1.41436E-04-5.42618E-14
 -1      3899 8.31979E-03-1.38954E-04-5.59187E-14
 -1      3900 8.09929E-03-1.03600E-04-5.33736E-14
 -1      3901 8.46645E-03-1.36220E-04-5.75889E-14
 -1      3902 8.61423E-03-1.33388E-04-5.92705E-14
 -1      3903 8.39002E-03-9.72399E-05-5.66820E-14
 -1      3904 8.76338E-03-1.30423E-04-6.09641E-14
 -1      3905 8.91413E-03-1.27601E-04-6.26677E-14
 -1      3906 8.68479E-03-8.95762E-05-6.00402E-14
 -1      3907 9.06679E-03-1.24921E-04-6.43808E-14
 -1      3908 9.22156E-03-1.22852E-04-6.61005E-14
 -1      3909 8.98566E-03-8.12560E-05-6.34408E-14
 -1      3910 9.37885E-03-1.21431E-04-6.78286E-14
 -1      3911 9.53867E-03-1.21287E-04-6.95648E-14
 -1      3912 9.29523E-03-7.39005E-05-6.68761E-14
 -1      3913 9.70146E-03-1.22535E-04-7.13087E-14
 -1      3914 9.86679E-03-1.25789E-04-7.30563E-14
 -1      3915 9.61627E-03-7.03540E-05-7.03395E-14
 -1      3916 1.03990E-02-1.39870E-04-7.85193E-14
 -1      3917 1.64346E-03 1.15328E-04-2.95509E-15
 -1      3918 1.17307E-02-5.38789E-05-9.31515E-14
 -1      3919 1.77591E-03 1.38864E-04-3.36496E-15
 -1      3920 1.75925E-03 9.44273E-05-3.35418E-15
 -1      3921 1.85495E-03 1.72010E-04-3.59546E-15
 -1      3922 1.29484E-02 7.32665E-04-1.06337E-13
 -1      3923 1.30979E-02 8.34764E-04-1.07609E-13
 -1      3924 1.32078E-02 8.96311E-04-1.07420E-13
 -1      3925 3.41745E-03 1.62109E-04-1.09227E-14
 -1      3926 3.27267E-03 1.61889E-04-1.00901E-14
 -1      3927 4.85807E-03 1.60250E-04-2.09137E-14
 -1      3928 4.71453E-03 1.60560E-04-1.97829E-14
 -1      3929 5.14488E-03 1.59639E-04-2.32563E-14
 -1      3930 5.00152E-03 1.59944E-04-2.20714E-14
 -1      3931 4.92941E-03 1.22448E-04-2.15481E-14
 -1      3932 5.43135E-03 1.59055E-04-2.57035E-14
 -1      3933 5.28816E-03 1.59343E-04-2.44664E-14
 -1      3934 5.21621E-03 1.21985E-04-2.39184E-14
 -1      3935 5.71751E-03 1.58522E-04-2.82488E-14
 -1      3936 5.57447E-03 1.58782E-04-2.69653E-14
 -1      3937 5.50266E-03 1.21557E-04-2.63926E-14
 -1      3938 6.00335E-03 1.58066E-04-3.08915E-14
 -1      3939 5.86047E-03 1.58283E-04-2.95583E-14
 -1      3940 5.78878E-03 1.21191E-04-2.89655E-14
 -1      3941 6.28886E-03 1.57734E-04-3.36239E-14
 -1      3942 6.14615E-03 1.57882E-04-3.22457E-14
 -1      3943 6.07457E-03 1.20924E-04-3.16325E-14
 -1      3944 6.55972E-03 1.57606E-04-3.63033E-14
 -1      3945 6.42434E-03 1.57643E-04-3.49539E-14
 -1      3946 6.35286E-03 1.20818E-04-3.43204E-14
 -1      3947 6.84433E-03 1.57796E-04-3.92044E-14
 -1      3948 6.70210E-03 1.57650E-04-3.77438E-14
 -1      3949 6.63077E-03 1.20961E-04-3.70931E-14
 -1      3950 7.12826E-03 1.58540E-04-4.21868E-14
 -1      3951 6.98639E-03 1.58084E-04-4.06857E-14
 -1      3952 6.91529E-03 1.21531E-04-4.00186E-14
 -1      3953 7.41123E-03 1.60196E-04-4.52462E-14
 -1      3954 7.26989E-03 1.59231E-04-4.37069E-14
 -1      3955 7.19915E-03 1.22799E-04-4.30237E-14
 -1      3956 7.69289E-03 1.63317E-04-4.83777E-14
 -1      3957 7.55226E-03 1.61538E-04-4.68037E-14
 -1      3958 7.48214E-03 1.25180E-04-4.61051E-14
 -1      3959 7.97277E-03 1.68731E-04-5.15716E-14
 -1      3960 7.83310E-03 1.65687E-04-4.99675E-14
 -1      3961 7.76400E-03 1.29291E-04-4.92560E-14
 -1      3962 8.25032E-03 1.77632E-04-5.48254E-14
 -1      3963 8.11190E-03 1.72675E-04-5.31916E-14
 -1      3964 8.04446E-03 1.36021E-04-5.24696E-14
 -1      3965 8.52503E-03 1.91637E-04-5.81284E-14
 -1      3966 8.38810E-03 1.83902E-04-5.64716E-14
 -1      3967 8.32331E-03 1.46573E-04-5.57404E-14
 -1      3968 8.79666E-03 2.12771E-04-6.14740E-14
 -1      3969 8.66131E-03 2.01200E-04-5.97954E-14
 -1      3970 8.60059E-03 1.62466E-04-5.90583E-14
 -1      3971 9.06579E-03 2.43200E-04-6.48551E-14
 -1      3972 8.93160E-03 2.26688E-04-6.31600E-14
 -1      3973 8.87700E-03 1.85373E-04-6.24173E-14
 -1      3974 1.27760E-02 6.09450E-04-1.04513E-13
 -1      3975 4.57088E-03 1.60863E-04-1.86799E-14
 -1      3976 4.42714E-03 1.61160E-04-1.76060E-14
 -1      3977 4.64220E-03 1.22923E-04-1.92851E-14
 -1      3978 2.13356E-03-1.50473E-04-4.80814E-15
 -1      3979 2.27861E-03-1.53328E-04-5.40282E-15
 -1      3980 2.34883E-03-1.18054E-04-5.70842E-15
 -1      3981 1.50705E-03-1.19643E-04-2.61835E-15
 -1      3982 1.62575E-03-1.30713E-04-2.98463E-15
 -1      3983 1.50306E-03-9.27489E-05-2.61123E-15
 -1      3984 1.16470E-02-8.71315E-05-9.21264E-14
 -1      3985 9.71769E-03 2.01634E-04-7.19001E-14
 -1      3986 9.55817E-03 2.41182E-04-7.04537E-14
 -1      3987 2.71422E-03-1.58915E-04-7.38212E-15
 -1      3988 2.85939E-03-1.59998E-04-8.10590E-15
 -1      3989 2.93011E-03-1.22642E-04-8.47208E-15
 -1      3990 1.01803E-02-1.37207E-04-7.63165E-14
 -1      3991 1.02930E-02-7.97200E-05-7.72642E-14
 -1      3992 1.01310E-02-2.42192E-05-7.55847E-14
 -1      3993 1.00105E-02-1.29901E-04-7.45546E-14
 -1      3994 1.24262E-02 3.47366E-04-9.98692E-14
 -1      3995 1.25904E-02 4.69028E-04-1.01931E-13
 -1      3996 4.28328E-03 1.61437E-04-1.65609E-14
 -1      3997 4.13930E-03 1.61693E-04-1.55463E-14
 -1      3998 4.35456E-03 1.23379E-04-1.71361E-14
 -1      3999 1.42777E-02 1.45037E-03-1.09534E-13
 -1      4000 2.77120E-03 1.97106E-04-7.39397E-15
 -1      4001 9.45886E-03 2.80908E-04-6.96361E-14
 -1      4002 9.40530E-03 3.12599E-04-6.92786E-14
 -1      4003 9.32123E-03 2.93165E-04-6.81665E-14
 -1      4004 1.29967E-02 7.22813E-04-1.03095E-13
 -1      4005 1.28399E-02 6.21696E-04-1.02491E-13
 -1      4006 1.31716E-02 8.43392E-04-1.04591E-13
 -1      4007 3.99519E-03 1.61908E-04-1.45612E-14
 -1      4008 3.85096E-03 1.62080E-04-1.36053E-14
 -1      4009 4.06642E-03 1.23770E-04-1.51043E-14
 -1      4010 9.73498E-03 1.34929E-04-7.18149E-14
 -1      4011 9.92598E-03-7.37684E-05-7.35740E-14
 -1      4012 1.97051E-03 1.50154E-04-4.03811E-15
 -1      4013 9.46320E-03 2.24672E-04-6.93359E-14
 -1      4014 2.26034E-03 1.56809E-04-5.15831E-15
 -1      4015 2.11532E-03 1.53810E-04-4.58155E-15
 -1      4016 2.03646E-03 1.20374E-04-4.31938E-15
 -1      4017 3.56209E-03 1.62203E-04-1.17861E-14
 -1      4018 3.48847E-03 1.24047E-04-1.14008E-14
 -1      4019 3.70659E-03 1.62180E-04-1.26802E-14
 -1      4020 3.12959E-03 1.61498E-04-9.29836E-15
 -1      4021 2.98639E-03 1.60919E-04-8.53752E-15
 -1      4022 3.20047E-03 1.23690E-04-9.74245E-15
 -1      4023 1.32689E-02 9.27119E-04-1.07017E-13
 -1      4024 1.33966E-02 9.96399E-04-1.06823E-13
 -1      4025 2.63950E-03-1.20931E-04-7.02658E-15
 -1      4026 1.88959E-03 7.85593E-05-3.82053E-15
 -1      4027 1.75751E-03 5.70454E-05-3.37867E-15
 -1      4028 1.75663E-03 1.97813E-05-3.39899E-15
 -1      4029 1.22972E-02 2.56851E-04-9.85326E-14
 -1      4030 9.99998E-03 3.48919E-08-7.42776E-14
 -1      4031 2.02472E-03-1.45633E-04-4.38401E-15
 -1      4032 2.09469E-03-1.11949E-04-4.66202E-15
 -1      4033 1.91603E-03-1.40494E-04-3.97882E-15
 -1      4034 1.71653E-03-1.33067E-04-3.28174E-15
 -1      4035 1.82481E-03-1.38867E-04-3.65207E-15
 -1      4036 1.89454E-03-1.06843E-04-3.90771E-15
 -1      4037 1.71232E-03-1.04417E-04-3.27401E-15
 -1      4038 1.50056E-03-4.12729E-05-2.60278E-15
 -1      4039 1.50359E-03-6.78261E-05-2.61436E-15
 -1      4040 1.62195E-03-7.68171E-05-2.98115E-15
 -1      4041 1.62405E-03-2.51319E-05-2.98131E-15
 -1      4042 1.35702E-02 1.08360E-03-1.06336E-13
 -1      4043 1.31089E-02 8.20900E-04-1.05749E-13
 -1      4044 1.34864E-02 1.04474E-03-1.06742E-13
 -1      4045 9.23668E-03 2.75257E-04-6.70619E-14
 -1      4046 9.15146E-03 2.58549E-04-6.59552E-14
 -1      4047 9.10411E-03 2.13938E-04-6.52091E-14
 -1      4048 9.28114E-03 2.45329E-04-6.74148E-14
 -1      4049 2.40367E-03 1.59222E-04-5.75986E-15
 -1      4050 2.32480E-03 1.25245E-04-5.46721E-15
 -1      4051 2.54706E-03 1.61140E-04-6.39362E-15
 -1      4052 3.43677E-03-8.56555E-05-1.12851E-14
 -1      4053 3.58161E-03-8.56917E-05-1.21615E-14
 -1      4054 3.72631E-03-8.56783E-05-1.30682E-14
 -1      4055 3.87085E-03-8.56136E-05-1.40045E-14
 -1      4056 3.65343E-03-4.74933E-05-1.25867E-14
 -1      4057 4.01525E-03-8.55211E-05-1.49703E-14
 -1      4058 4.15950E-03-8.53967E-05-1.59669E-14
 -1      4059 3.94263E-03-4.74269E-05-1.44569E-14
 -1      4060 4.30361E-03-8.52590E-05-1.69925E-14
 -1      4061 4.44759E-03-8.51025E-05-1.80467E-14
 -1      4062 4.23122E-03-4.72926E-05-1.64461E-14
 -1      4063 4.59144E-03-8.49413E-05-1.91308E-14
 -1      4064 4.73517E-03-8.47691E-05-2.02431E-14
 -1      4065 4.51926E-03-4.71205E-05-1.85540E-14
 -1      4066 4.87879E-03-8.45963E-05-2.13829E-14
 -1      4067 5.02230E-03-8.44161E-05-2.25509E-14
 -1      4068 4.80680E-03-4.69273E-05-2.07762E-14
 -1      4069 5.16572E-03-8.42354E-05-2.37454E-14
 -1      4070 5.30904E-03-8.40468E-05-2.49670E-14
 -1      4071 5.09388E-03-4.67185E-05-2.31097E-14
 -1      4072 5.45228E-03-8.38542E-05-2.62130E-14
 -1      4073 5.59543E-03-8.36493E-05-2.74844E-14
 -1      4074 5.38056E-03-4.64879E-05-2.55501E-14
 -1      4075 5.73851E-03-8.34328E-05-2.87814E-14
 -1      4076 5.88152E-03-8.31945E-05-3.01017E-14
 -1      4077 5.66689E-03-4.62159E-05-2.80909E-14
 -1      4078 6.02446E-03-8.29321E-05-3.14457E-14
 -1      4079 6.16733E-03-8.26326E-05-3.28141E-14
 -1      4080 5.95290E-03-4.58663E-05-3.07287E-14
 -1      4081 6.31015E-03-8.22893E-05-3.42060E-14
 -1      4082 6.45292E-03-8.18855E-05-3.56181E-14
 -1      4083 6.23862E-03-4.53790E-05-3.34620E-14
 -1      4084 6.59564E-03-8.14090E-05-3.70528E-14
 -1      4085 6.73832E-03-8.08381E-05-3.85096E-14
 -1      4086 6.52409E-03-4.46606E-05-3.62853E-14
 -1      4087 6.88098E-03-8.01530E-05-3.99863E-14
 -1      4088 7.02363E-03-7.93259E-05-4.14841E-14
 -1      4089 6.80932E-03-4.35713E-05-3.91942E-14
 -1      4090 7.16629E-03-7.83275E-05-4.30006E-14
 -1      4091 7.30899E-03-7.71241E-05-4.45385E-14
 -1      4092 7.09439E-03-4.19088E-05-4.21853E-14
 -1      4093 7.45175E-03-7.56742E-05-4.60958E-14
 -1      4094 7.59463E-03-7.39411E-05-4.76692E-14
 -1      4095 7.37942E-03-3.93914E-05-4.52554E-14
 -1      4096 7.73769E-03-7.18696E-05-4.92580E-14
 -1      4097 7.88100E-03-6.94285E-05-5.08650E-14
 -1      4098 7.66461E-03-3.56468E-05-4.83969E-14
 -1      4099 8.02466E-03-6.65489E-05-5.24889E-14
 -1      4100 8.16880E-03-6.32248E-05-5.41268E-14
 -1      4101 7.95037E-03-3.02180E-05-5.16070E-14
 -1      4102 8.31355E-03-5.93778E-05-5.57793E-14
 -1      4103 8.45913E-03-5.50639E-05-5.74432E-14
 -1      4104 8.23740E-03-2.26096E-05-5.48782E-14
 -1      4105 8.60574E-03-5.02058E-05-5.91198E-14
 -1      4106 8.75371E-03-4.49921E-05-6.08070E-14
 -1      4107 8.52688E-03-1.24126E-05-5.82016E-14
 -1      4108 8.90332E-03-3.93489E-05-6.25042E-14
 -1      4109 9.05500E-03-3.37396E-05-6.42111E-14
 -1      4110 8.82070E-03 4.15596E-07-6.15702E-14
 -1      4111 9.20908E-03-2.80844E-05-6.59253E-14
 -1      4112 9.36611E-03-2.32247E-05-6.76468E-14
 -1      4113 9.12165E-03 1.50936E-05-6.49770E-14
 -1      4114 5.57404E-03 8.41210E-05-2.70851E-14
 -1      4115 5.43088E-03 8.42475E-05-2.58215E-14
 -1      4116 5.28763E-03 8.43855E-05-2.45834E-14
 -1      4117 5.14429E-03 8.45366E-05-2.33711E-14
 -1      4118 5.35912E-03 4.68511E-05-2.52516E-14
 -1      4119 9.46080E-03 1.66323E-04-6.90396E-14
 -1      4120 9.36934E-03 2.08913E-04-6.82265E-14
 -1      4121 9.27655E-03 1.93528E-04-6.71197E-14
 -1      4122 2.27446E-03-8.09524E-05-5.39144E-15
 -1      4123 2.41980E-03-8.22108E-05-6.01705E-15
 -1      4124 5.00086E-03 8.46926E-05-2.21849E-14
 -1      4125 4.85732E-03 8.48566E-05-2.10254E-14
 -1      4126 5.07240E-03 4.69982E-05-2.28248E-14
 -1      4127 2.56523E-03-8.32170E-05-6.67504E-15
 -1      4128 2.71067E-03-8.39976E-05-7.36452E-15
 -1      4129 2.49146E-03-4.58411E-05-6.32823E-15
 -1      4130 5.86010E-03 8.39296E-05-2.96844E-14
 -1      4131 5.71711E-03 8.40149E-05-2.83728E-14
 -1      4132 5.64546E-03 4.67528E-05-2.77805E-14
 -1      4133 6.14582E-03 8.38591E-05-3.23761E-14
 -1      4134 6.00300E-03 8.38764E-05-3.10187E-14
 -1      4135 5.93146E-03 4.67391E-05-3.04055E-14
 -1      4136 6.41693E-03 8.39751E-05-3.50191E-14
 -1      4137 6.28142E-03 8.38905E-05-3.36878E-14
 -1      4138 6.20999E-03 4.68627E-05-3.30545E-14
 -1      4139 6.70190E-03 8.44113E-05-3.78860E-14
 -1      4140 6.55947E-03 8.41448E-05-3.64419E-14
 -1      4141 6.48819E-03 4.72077E-05-3.57899E-14
 -1      4142 6.98640E-03 8.53664E-05-4.08344E-14
 -1      4143 6.84422E-03 8.48106E-05-3.93498E-14
 -1      4144 6.77315E-03 4.79339E-05-3.86805E-14
 -1      4145 7.27031E-03 8.71471E-05-4.38623E-14
 -1      4146 7.12844E-03 8.61329E-05-4.23391E-14
 -1      4147 7.05769E-03 4.92590E-05-4.16532E-14
 -1      4148 7.55350E-03 9.02098E-05-4.69658E-14
 -1      4149 7.41201E-03 8.84875E-05-4.54048E-14
 -1      4150 7.34178E-03 5.15157E-05-4.47041E-14
 -1      4151 7.83587E-03 9.52077E-05-5.01364E-14
 -1      4152 7.69480E-03 9.24230E-05-4.85428E-14
 -1      4153 7.62538E-03 5.51811E-05-4.78277E-14
 -1      4154 8.11737E-03 1.03030E-04-5.33687E-14
 -1      4155 7.97674E-03 9.87063E-05-5.17456E-14
 -1      4156 7.90855E-03 6.09082E-05-5.10195E-14
 -1      4157 8.39818E-03 1.14806E-04-5.66569E-14
 -1      4158 8.25787E-03 1.08348E-04-5.50075E-14
 -1      4159 8.19154E-03 6.95346E-05-5.42715E-14
 -1      4160 8.67896E-03 1.31812E-04-5.99906E-14
 -1      4161 8.53856E-03 1.22563E-04-5.83178E-14
 -1      4162 8.47494E-03 8.20280E-05-5.75747E-14
 -1      4163 8.96128E-03 1.55219E-04-6.33642E-14
 -1      4164 8.81987E-03 1.42634E-04-6.16736E-14
 -1      4165 8.76001E-03 9.93323E-05-6.09258E-14
 -1      4166 1.28661E-02 6.51433E-04-1.03569E-13
 -1      4167 4.71368E-03 8.50192E-05-1.98936E-14
 -1      4168 4.56992E-03 8.51849E-05-1.87893E-14
 -1      4169 4.78528E-03 4.71706E-05-2.05039E-14
 -1      4170 2.84128E-03 1.60074E-04-7.79842E-15
 -1      4171 2.69610E-03 1.58948E-04-7.09126E-15
 -1      4172 2.91198E-03 1.22759E-04-8.20791E-15
 -1      4173 9.85266E-03 2.37547E-06-7.27883E-14
 -1      4174 2.85608E-03-8.45973E-05-8.08655E-15
 -1      4175 3.00142E-03-8.50330E-05-8.84010E-15
 -1      4176 2.78244E-03-4.67229E-05-7.70529E-15
 -1      4177 4.42605E-03 8.53417E-05-1.77135E-14
 -1      4178 4.28204E-03 8.54949E-05-1.66675E-14
 -1      4179 4.49771E-03 4.73495E-05-1.82948E-14
 -1      4180 9.74460E-03 6.55242E-05-7.17416E-14
 -1      4181 9.57401E-03 1.14967E-04-7.00792E-14
 -1      4182 9.47212E-03 1.03677E-04-6.89651E-14
 -1      4183 9.68383E-03-9.89534E-06-7.10393E-14
 -1      4184 2.03429E-03 8.07440E-05-4.35123E-15
 -1      4185 3.14666E-03-8.53447E-05-9.62392E-15
 -1      4186 3.29178E-03-8.55406E-05-1.04389E-14
 -1      4187 3.07325E-03-4.72187E-05-9.20836E-15
 -1      4188 4.13791E-03 8.56290E-05-1.56507E-14
 -1      4189 3.99363E-03 8.57496E-05-1.46639E-14
 -1      4190 4.20962E-03 4.75158E-05-1.62004E-14
 -1      4191 9.51981E-03-1.21757E-05-6.93047E-14
 -1      4192 9.42639E-03 3.61248E-05-6.83446E-14
 -1      4193 2.16546E-03-7.74864E-05-4.94349E-15
 -1      4194 2.23697E-03-4.22970E-05-5.22759E-15
 -1      4195 2.05659E-03-7.39230E-05-4.51393E-15
 -1      4196 3.77773E-03 1.24026E-04-1.31918E-14
 -1      4197 3.27095E-03 8.57211E-05-1.01865E-14
 -1      4198 3.12762E-03 8.55134E-05-9.39149E-15
 -1      4199 2.61746E-03 1.24692E-04-6.76722E-15
 -1      4200 9.05260E-03 1.67786E-04-6.44608E-14
 -1      4201 8.99693E-03 1.21398E-04-6.37124E-14
 -1      4202 9.14393E-03 1.81424E-04-6.55629E-14
 -1      4203 1.32541E-02 8.99166E-04-1.05268E-13
 -1      4204 3.36362E-03-4.74457E-05-1.08360E-14
 -1      4205 2.39470E-03 8.95492E-05-5.80621E-15
 -1      4206 2.25121E-03 8.81599E-05-5.20170E-15
 -1      4207 2.10466E-03 4.63914E-05-4.65036E-15
 -1      4208 1.75463E-03-7.00760E-06-3.40453E-15
 -1      4209 1.75306E-03-3.37824E-05-3.40773E-15
 -1      4210 1.88593E-03 1.24207E-05-3.85315E-15
 -1      4211 1.71272E-03-7.78019E-05-3.27719E-15
 -1      4212 3.56082E-03 8.58980E-05-1.18881E-14
 -1      4213 3.41596E-03 8.58519E-05-1.10215E-14
 -1      4214 3.34368E-03 4.76418E-05-1.06443E-14
 -1      4215 9.22553E-03 1.42916E-04-6.63678E-14
 -1      4216 3.93160E-03 1.00528E-07-1.43447E-14
 -1      4217 4.07601E-03 1.05209E-07-1.53208E-14
 -1      4218 4.22027E-03 1.01834E-07-1.63266E-14
 -1      4219 4.36438E-03 1.06170E-07-1.73623E-14
 -1      4220 4.50836E-03 1.04533E-07-1.84274E-14
 -1      4221 4.65222E-03 1.10111E-07-1.95216E-14
 -1      4222 4.79595E-03 1.12182E-07-2.06428E-14
 -1      4223 4.93956E-03 1.22040E-07-2.17931E-14
 -1      4224 5.08307E-03 1.31687E-07-2.29701E-14
 -1      4225 5.22647E-03 1.51367E-07-2.41748E-14
 -1      4226 5.36978E-03 1.75685E-07-2.54048E-14
 -1      4227 5.51300E-03 2.14882E-07-2.66588E-14
 -1      4228 5.65613E-03 2.66252E-07-2.79394E-14
 -1      4229 5.79917E-03 3.41355E-07-2.92434E-14
 -1      4230 5.94214E-03 4.40570E-07-3.05705E-14
 -1      4231 6.08502E-03 5.78378E-07-3.19209E-14
 -1      4232 6.22069E-03 7.48905E-07-3.32264E-14
 -1      4233 6.36343E-03 9.89169E-07-3.46229E-14
 -1      4234 6.50609E-03 1.30089E-06-3.60406E-14
 -1      4235 6.64867E-03 1.71104E-06-3.74797E-14
 -1      4236 6.79117E-03 2.23700E-06-3.89404E-14
 -1      4237 6.93361E-03 2.91590E-06-4.04210E-14
 -1      4238 7.07596E-03 3.77604E-06-4.19227E-14
 -1      4239 7.21826E-03 4.86732E-06-4.34427E-14
 -1      4240 7.36050E-03 6.23328E-06-4.49823E-14
 -1      4241 7.50270E-03 7.93738E-06-4.65417E-14
 -1      4242 7.64488E-03 1.00439E-05-4.81162E-14
 -1      4243 7.78710E-03 1.26261E-05-4.97063E-14
 -1      4244 7.92935E-03 1.57752E-05-5.13152E-14
 -1      4245 8.07179E-03 1.95597E-05-5.29384E-14
 -1      4246 8.21442E-03 2.41047E-05-5.45768E-14
 -1      4247 8.35747E-03 2.94382E-05-5.62278E-14
 -1      4248 8.50100E-03 3.57232E-05-5.78903E-14
 -1      4249 8.64538E-03 4.28724E-05-5.95647E-14
 -1      4250 8.79075E-03 5.11231E-05-6.12498E-14
 -1      4251 8.93768E-03 6.00027E-05-6.29441E-14
 -1      4252 9.08666E-03 6.97992E-05-6.46475E-14
 -1      4253 2.69341E-03 8.41019E-05-7.17361E-15
 -1      4254 2.54403E-03 8.69989E-05-6.47261E-15
 -1      4255 2.47109E-03 4.96461E-05-6.17986E-15
 -1      4256 2.48281E-03 8.43964E-08-6.26768E-15
 -1      4257 2.62833E-03 9.38738E-08-6.93643E-15
 -1      4258 1.30305E-02 7.67052E-04-1.05069E-13
 -1      4259 2.98327E-03 8.51822E-05-8.62261E-15
 -1      4260 2.83792E-03 8.47274E-05-7.87997E-15
 -1      4261 2.76517E-03 4.68739E-05-7.55803E-15
 -1      4262 3.05418E-03 4.73949E-05-9.03695E-15
 -1      4263 1.30898E-02 7.96909E-04-1.04668E-13
 -1      4264 1.84304E-03-6.08489E-05-3.72342E-15
 -1      4265 2.77294E-03 8.93080E-08-7.63276E-15
 -1      4266 2.91842E-03 9.84600E-08-8.36535E-15
 -1      4267 3.84966E-03 8.58360E-05-1.37096E-14
 -1      4268 3.70509E-03 8.58946E-05-1.27824E-14
 -1      4269 3.63308E-03 4.77029E-05-1.23771E-14
 -1      4270 3.92143E-03 4.76449E-05-1.42280E-14
 -1      4271 9.32342E-03 8.74019E-05-6.73143E-14
 -1      4272 3.64278E-03 9.89993E-08-1.24844E-14
 -1      4273 3.78750E-03 1.04722E-07-1.34011E-14
 -1      4274 3.35335E-03 9.66704E-08-1.07433E-14
 -1      4275 3.49837E-03 1.03655E-07-1.15999E-14
 -1      4276 3.06291E-03 9.34219E-08-9.12420E-15
 -1      4277 3.20820E-03 1.01647E-07-9.91821E-15
 -1      4278 1.93435E-03-6.09293E-05-4.05225E-15
 -1      4279 2.33330E-03 3.73860E-06-5.61141E-15
 -1      4280 2.00586E-03-2.70628E-05-4.31083E-15
 -1      4281 2.22430E-03 6.02047E-06-5.15506E-15
 -1      4282 2.00758E-03 1.21322E-06-4.30550E-15
 -1      4283 9.18353E-03 8.06560E-05-6.57521E-14
 -3
    1PSTEP                         2           1           1          
  100CL  101 1.000000000        4283                     0    1           1
 -4  STRESS      6    1
 -5  SXX         1    4    1    1
 -5  SYY         1    4    2    2
 -5  SZZ         1    4    3    3
 -5  SXY         1    4    1    2
 -5  SYZ         1    4    2    3
 -5  SZX         1    4    3    1
 -1         1 2.22267E+01 1.32701E+01 9.39546E-01-1.68692E+01-4.95881E-13 7.17093E-13
 -1         2-7.70970E-01-2.85709E+01-3.53973E+00-2.04073E-01-1.79579E-13 2.34902E-13
 -1         3 1.99270E+01-9.77179E-02 4.64562E-02-1.04247E-01 8.20974E-13 7.55288E-13
 -1         4 2.00170E+01 1.79153E-02-2.43327E-02-1.78182E-02 2.56692E-14 1.55918E-13
 -1         5 3.60438E+01 1.23915E+01 5.26092E+00 8.76227E+00 1.58262E-13 3.55022E-12
 -1         6 3.57644E+01 1.22676E+01 5.12739E+00-8.64942E+00-2.13440E-13 3.11967E-12
 -1         7 2.08246E+01 6.10142E+00-1.28705E-01-4.72696E+00-3.04895E-14 4.48697E-13
 -1         8 1.96761E+01 5.93624E+00 5.09610E-02-3.27587E+00-3.60892E-14-3.50383E-13
 -1         9 1.91397E+01 5.77271E+00 4.90651E-02-2.52771E+00-3.11869E-14-7.67474E-13
 -1        10 1.88968E+01 5.69257E+00 5.10129E-02-1.95279E+00-1.92051E-14-9.58459E-13
 -1        11 1.87742E+01 5.65136E+00 5.01943E-02-1.45795E+00-1.50375E-14-1.03711E-12
 -1        12 1.87096E+01 5.62943E+00 4.86553E-02-1.01760E+00-7.00915E-15-1.05539E-12
 -1        13 1.86753E+01 5.61779E+00 4.73119E-02-5.98568E-01-3.65257E-15-1.04156E-12
 -1        14 1.86607E+01 5.61279E+00 4.65698E-02-1.95342E-01 3.49872E-16-1.02508E-12
 -1        15 1.86609E+01 5.61284E+00 4.65786E-02 2.02903E-01 8.79456E-15-9.91479E-13
 -1        16 1.86758E+01 5.61795E+00 4.73450E-02 6.06351E-01 1.35704E-14-9.63668E-13
 -1        17 1.87106E+01 5.62969E+00 4.87656E-02 1.02597E+00 1.58896E-14-9.13237E-13
 -1        18 1.87758E+01 5.65187E+00 5.03611E-02 1.46685E+00 2.18120E-14-8.34788E-13
 -1        19 1.89005E+01 5.69379E+00 5.11972E-02 1.96295E+00 3.39104E-14-6.90362E-13
 -1        20 1.91457E+01 5.77493E+00 4.87891E-02 2.54005E+00 4.01085E-14-4.27191E-13
 -1        21 1.96887E+01 5.94177E+00 5.02465E-02 3.29034E+00 4.29240E-14 8.35998E-14
 -1        22 2.08097E+01 6.12351E+00-1.30905E-01 4.73365E+00 2.08306E-14 9.76590E-13
 -1        23 2.30376E+01-1.37964E+00-9.38561E-01-7.11437E-01-1.42338E-13 2.39150E-12
 -1        24 1.93735E+01-9.95278E-02-3.09928E-01 6.32180E-02-3.68290E-14 1.76305E-12
 -1        25 1.86846E+01-5.63524E-02-6.88178E-02 6.07236E-02-2.57535E-14 1.10865E-12
 -1        26 1.84820E+01-2.21114E-02-6.50237E-03 3.29701E-02-6.40124E-15 6.57014E-13
 -1        27 1.84935E+01-1.18246E-02 1.55424E-03 2.26211E-02-1.90187E-14 3.49706E-13
 -1        28 1.86083E+01-6.25862E-03 1.76289E-03 1.63346E-02-3.07149E-15 1.58684E-13
 -1        29 1.87691E+01-3.10064E-03 1.70323E-03 1.21963E-02 5.02796E-15 1.35942E-14
 -1        30 1.89445E+01-1.24169E-03 1.88757E-03 9.25203E-03-3.28419E-15-1.81290E-13
 -1        31 1.91170E+01-1.41946E-04 2.05139E-03 7.04346E-03-1.53340E-14-4.05394E-13
 -1        32 1.92765E+01 4.89556E-04 2.08667E-03 5.33800E-03-3.53898E-14-6.41120E-13
 -1        33 1.94182E+01 8.22623E-04 2.00076E-03 4.00523E-03 4.23021E-14-7.17251E-13
 -1        34 1.95403E+01 9.63427E-04 1.83195E-03 2.96258E-03-3.02905E-14-6.45293E-13
 -1        35 1.96429E+01 9.81657E-04 1.61644E-03 2.15172E-03 1.94957E-14-7.02238E-13
 -1        36 1.97274E+01 9.24323E-04 1.38117E-03 1.52824E-03-5.93330E-15-7.21803E-13
 -1        37 1.97959E+01 8.23422E-04 1.14423E-03 1.05685E-03-2.51259E-14-7.18464E-13
 -1        38 1.98506E+01 7.00699E-04 9.16773E-04 7.09315E-04-5.00203E-14-7.95438E-13
 -1        39 1.98941E+01 5.70980E-04 7.05002E-04 4.63375E-04 4.63000E-15-9.32954E-13
 -1        40 1.99286E+01 4.44789E-04 5.12120E-04 3.02220E-04 2.34916E-14-7.78857E-13
 -1        41 1.99565E+01 3.30645E-04 3.40343E-04 2.13994E-04-2.40934E-14-9.29165E-13
 -1        42 1.99796E+01 2.37267E-04 1.93170E-04 1.91113E-04 2.38323E-14-9.58863E-13
 -1        43 1.99997E+01 1.75852E-04 7.81290E-05 2.29078E-04-2.30881E-15-7.41897E-13
 -1        44 2.00180E+01 1.62436E-04 1.01655E-05 3.24328E-04 1.78255E-15-7.02616E-13
 -1        45 2.00349E+01 2.20194E-04 1.57164E-05 4.70544E-04-3.79628E-14-7.66916E-13
 -1        46 2.00501E+01 3.81202E-04 1.37116E-04 6.52616E-04 2.44309E-15-9.84137E-13
 -1        47 2.00614E+01 6.86657E-04 4.36204E-04 8.37482E-04-3.49247E-14-9.23007E-13
 -1        48 2.00647E+01 1.18386E-03 9.94688E-04 9.61456E-04 4.31382E-14-1.04698E-12
 -1        49 2.00525E+01 1.91750E-03 1.90690E-03 9.14897E-04-1.66891E-14-1.22203E-12
 -1        50 2.00133E+01 2.91224E-03 3.25847E-03 5.27751E-04 1.54272E-14-1.25147E-12
 -1        51 1.99309E+01 4.14456E-03 5.08359E-03-4.35884E-04-3.66420E-14-1.20155E-12
 -1        52 1.97842E+01 5.50483E-03 7.29654E-03-2.25977E-03-2.74992E-14-1.14281E-12
 -1        53 1.95487E+01 6.75826E-03 9.60494E-03-5.21444E-03 7.83992E-15-1.14808E-12
 -1        54 1.91999E+01 7.52486E-03 1.14360E-02-9.43542E-03 6.39970E-14-1.14334E-12
 -1        55 1.87203E+01 7.31010E-03 1.19374E-02-1.47429E-02-7.66364E-14-1.22397E-12
 -1        56 1.81080E+01 5.62013E-03 1.01367E-02-2.04508E-02-2.59878E-14-1.43522E-12
 -1        57 1.73874E+01 2.16935E-03 5.30920E-03-2.52796E-02 4.42376E-14-1.35584E-12
 -1        58 1.66157E+01-2.87136E-03-2.50729E-03-2.75284E-02-6.44244E-15-1.17616E-12
 -1        59 1.58815E+01-8.71626E-03-1.21095E-02-2.56037E-02 2.34555E-14-1.07573E-12
 -1        60 1.52917E+01-1.40540E-02-2.11903E-02-1.87885E-02-5.08458E-15-8.22522E-13
 -1        61 1.49460E+01-1.74432E-02-2.70564E-02-7.85960E-03 6.27121E-14-8.30137E-13
 -1        62 1.49084E+01-1.78912E-02-2.78075E-02 4.91593E-03-9.20291E-14-1.09889E-12
 -1        63 1.51871E+01-1.53015E-02-2.32692E-02 1.65664E-02-4.02295E-14-1.11951E-12
 -1        64 1.57330E+01-1.05141E-02-1.51006E-02 2.46277E-02-4.22733E-14-8.47515E-13
 -1        65 1.64563E+01-4.90485E-03-5.95674E-03 2.80774E-02 7.60563E-14-2.28836E-13
 -1        66 1.72549E+01 2.27241E-04 1.78255E-03 2.74936E-02 4.01660E-14 9.21051E-14
 -1        67 1.80398E+01 4.15098E-03 7.01563E-03 2.44606E-02 3.65968E-14-1.16814E-13
 -1        68 1.87480E+01 6.88250E-03 1.03658E-02 2.05982E-02 6.78288E-14-1.14782E-13
 -1        69 1.93391E+01 9.04370E-03 1.38318E-02 1.65377E-02 4.05832E-14-2.55745E-13
 -1        70 1.97765E+01 9.45220E-03 1.78004E-02 9.35557E-03 7.20420E-15 2.45901E-14
 -1        71 2.00005E+01 1.11355E-04 9.35662E-03-4.09356E-03 6.88736E-14 2.71239E-13
 -1        72 2.32622E+01-1.33980E+00-9.29519E-01 8.02990E-01 1.09857E-13 2.98966E-12
 -1        73 1.94367E+01-1.08299E-01-3.29025E-01-6.58700E-02 3.51533E-14 2.43919E-12
 -1        74 1.87049E+01-5.80772E-02-7.48951E-02-6.17034E-02 1.12061E-14 1.80839E-12
 -1        75 1.84862E+01-2.29997E-02-8.11659E-03-3.36978E-02 2.45936E-14 1.38530E-12
 -1        76 1.84903E+01-1.21994E-02 1.34294E-03-2.30149E-02 3.84241E-16 1.10406E-12
 -1        77 1.86014E+01-6.46059E-03 1.74248E-03-1.65627E-02 3.02227E-15 8.81453E-13
 -1        78 1.87606E+01-3.22305E-03 1.67867E-03-1.23656E-02 1.15338E-14 6.66030E-13
 -1        79 1.89358E+01-1.31342E-03 1.87160E-03-9.37951E-03-7.90080E-15 5.69871E-13
 -1        80 1.91086E+01-1.82230E-04 2.04776E-03-7.14031E-03 3.82506E-14 4.25057E-13
 -1        81 1.92688E+01 4.69197E-04 2.09245E-03-5.41241E-03-2.01093E-14 3.03097E-13
 -1        82 1.94113E+01 8.15969E-04 2.01447E-03-4.06203E-03 2.73135E-14 2.14006E-13
 -1        83 1.95342E+01 9.69452E-04 1.85386E-03-3.00607E-03 1.33307E-15 2.94967E-13
 -1        84 1.96372E+01 9.35861E-04 1.61103E-03-2.12740E-03-2.47124E-15 2.96741E-13
 -1        85 1.97185E+01 9.94177E-04 1.45172E-03-1.57322E-03 1.34894E-14 2.10185E-13
 -1        86 1.97877E+01 8.47282E-04 1.19944E-03-1.06952E-03 3.70996E-14-8.53655E-14
 -1        87 1.98426E+01 7.27821E-04 9.82857E-04-6.86620E-04-9.70602E-15-2.19480E-13
 -1        88 1.98857E+01 5.93670E-04 7.83092E-04-3.96251E-04 3.41175E-14-2.67207E-13
 -1        89 1.99191E+01 4.51897E-04 6.01048E-04-1.72962E-04 2.34456E-14-1.92930E-13
 -1        90 1.99452E+01 3.01522E-04 4.32735E-04 3.74117E-06-4.29458E-14-8.04706E-14
 -1        91 1.99662E+01 1.34833E-04 2.68945E-04 1.51892E-04 2.53429E-14-1.74282E-13
 -1        92 1.99844E+01-6.43056E-05 9.31551E-05 2.87374E-04-4.05590E-14-5.18767E-14
 -1        93 2.00026E+01-3.23935E-04-1.22763E-04 4.23493E-04 6.39266E-14 1.08768E-13
 -1        94 2.00241E+01-6.90192E-04-4.26587E-04 5.68983E-04-2.93768E-14 8.17875E-14
 -1        95 2.00537E+01-1.23745E-03-9.00351E-04 7.22337E-04 1.46314E-14-1.65067E-13
 -1        96 2.00989E+01-2.10685E-03-1.69502E-03 8.68671E-04-7.58688E-14-4.17257E-13
 -1        97 2.01717E+01-3.18658E-03-3.00250E-03 6.58144E-04-3.10462E-14-3.30577E-13
 -1        98 2.02837E+01-5.52132E-03-5.30680E-03 7.60124E-04 3.51344E-14-3.58784E-13
 -1        99 2.04777E+01-8.66047E-03-9.38430E-03-1.81876E-04 1.44669E-14-2.37610E-14
 -1       100 2.08023E+01-1.37410E-02-1.67893E-02-2.63380E-03 4.03744E-14-1.06907E-13
 -1       101 2.13456E+01-2.14219E-02-3.01736E-02-8.57755E-03-6.61912E-14-3.91028E-14
 -1       102 2.22528E+01-3.23883E-02-5.38559E-02-2.20399E-02-2.31961E-14 3.33801E-13
 -1       103 2.37554E+01-4.62221E-02-9.24554E-02-5.10170E-02 3.82832E-14 5.24653E-13
 -1       104 2.61971E+01-5.85973E-02-1.41917E-01-1.09729E-01 1.55570E-14 9.71306E-14
 -1       105 3.00045E+01-5.47154E-02-1.60456E-01-2.16998E-01 3.00636E-14 1.19155E-13
 -1       106 3.54344E+01-3.99884E-03-1.73811E-02-3.69619E-01 1.79947E-14 2.45443E-13
 -1       107 4.15420E+01 6.24703E-02 4.23512E-01-3.70342E-01 1.64495E-14 3.84082E-13
 -1       108 4.47608E+01 1.61612E-01 9.09291E-01 2.29653E-02 1.30243E-14 4.52124E-13
 -1       109 4.20073E+01 9.81235E-02 7.73937E-01 1.09519E+00-7.03708E-14 8.63754E-13
 -1       110 2.95545E+01 2.55614E-01-1.23896E+00 1.88357E+00-2.17451E-13 1.06692E-12
 -1       111 1.74128E+01-1.42547E-01-3.52277E+00 7.91506E-01-9.13644E-14 1.23263E-12
 -1       112 1.43504E+01-8.32449E-02-4.13700E+00-2.76397E-01 8.03108E-14 2.92641E-13
 -1       113 2.48939E+01-1.07940E-02-2.01881E+00-1.25127E+00 1.36276E-13-6.61471E-13
 -1       114 3.81016E+01 1.13549E-02 2.57077E-01-9.66416E-01-1.30396E-13-4.83835E-13
 -1       115 4.42766E+01 1.50905E-01 1.04797E+00-2.41493E-01 1.28186E-13 7.24143E-14
 -1       116 4.32135E+01 8.72476E-02 7.24585E-01 1.66173E-01-1.20752E-13 8.96325E-13
 -1       117 3.72443E+01 1.76472E-02 1.16666E-01 2.53463E-01 5.18053E-14 1.00794E-12
 -1       118 3.10861E+01-2.42869E-02-1.38305E-01 1.71121E-01 1.06695E-13-8.35720E-14
 -1       119 2.64029E+01-3.62143E-02-1.59441E-01 9.77238E-02 5.52958E-14-4.42243E-13
 -1       120 2.31876E+01-3.48929E-02-1.21864E-01 5.70918E-02-2.85774E-15-4.25923E-13
 -1       121 2.11070E+01-3.44777E-02-1.01850E-01 3.61994E-02-1.07964E-13 7.25670E-13
 -1       122 2.00647E+01-8.65365E-03-5.93418E-02-7.05985E-03-8.51951E-14 1.40000E-12
 -1       123 1.99966E+01 7.05699E-02-5.17520E-02-1.53094E-02 7.99714E-13-3.43799E-13
 -1       124 2.00030E+01 1.10834E+00-2.56831E-02 5.77441E-02-7.73381E-13 1.78656E-13
 -1       125 2.00186E+01 2.43603E+00 4.00923E-02 6.79225E-02-1.66718E-12-1.71613E-13
 -1       126 2.00250E+01 3.33847E+00 7.78384E-02 4.45051E-02-1.03176E-12 3.51538E-13
 -1       127 2.00210E+01 3.46244E+00 7.53777E-02 8.67952E-03-9.13934E-13-1.13977E-13
 -1       128 2.00113E+01 2.84961E+00 4.72982E-02-2.05866E-02-8.30936E-13 1.30632E-13
 -1       129 1.99998E+01 1.75288E+00 1.03274E-02-3.77201E-02-1.73248E-12-3.04947E-13
 -1       130 1.99911E+01 5.38461E-01-1.97899E-02-3.96890E-02-1.14790E-12 1.27038E-13
 -1       131 1.99866E+01-4.90282E-01-3.61987E-02-3.11815E-02-8.47135E-13-1.13163E-13
 -1       132 1.99861E+01-1.16071E+00-3.93330E-02-1.80711E-02-6.18004E-14 1.44360E-13
 -1       133 1.99886E+01-1.43063E+00-3.32416E-02-4.62248E-03-3.83205E-13 3.43688E-14
 -1       134 1.99924E+01-1.35751E+00-2.26508E-02 5.57231E-03-9.01192E-13-1.36075E-13
 -1       135 1.99972E+01-1.04267E+00-9.43718E-03 1.33281E-02-2.72906E-13 2.43631E-13
 -1       136 2.00026E+01-6.15058E-01 4.93942E-03 1.74699E-02-1.06676E-12-1.82540E-13
 -1       137 2.00036E+01-2.24898E-01 1.47085E-02 1.65794E-02-8.83997E-13 1.48317E-13
 -1       138 2.00069E+01-1.53827E-02 7.17429E-03-4.67096E-03-7.31277E-13-1.15969E-13
 -1       139-2.08823E+00-2.71254E+01-3.72691E+00-5.88697E+00 4.54886E-13 1.54590E-14
 -1       140-4.00218E+00-1.75683E+01-3.58948E+00-7.38300E+00 1.56986E-13 5.82590E-14
 -1       141-1.43985E+00-4.04866E+00-2.96405E+00-1.89258E+00-6.95999E-13-7.69440E-13
 -1       142 1.13204E+01 6.33541E+00-1.42241E+00 8.84238E+00-2.39475E-13 2.28706E-14
 -1       143 3.82720E+01 9.55300E+00 1.62676E+00 1.86291E+01 2.57905E-13 6.94667E-13
 -1       144 7.16156E+01 6.12775E+00 5.52483E+00 1.91352E+01 1.00170E-13 2.19491E-13
 -1       145 9.35158E+01 2.13346E+00 8.18290E+00 5.75136E+00-9.46465E-15-5.62411E-13
 -1       146 8.79126E+01 3.17887E+00 7.53598E+00-1.18227E+01 1.69848E-13-1.08447E-12
 -1       147 5.73791E+01 7.94700E+00 3.83690E+00-2.03004E+01 6.83120E-13-1.78135E-12
 -1       148 2.52191E+01 8.89879E+00 1.32080E-01-1.50254E+01 1.10045E-12-1.67688E-12
 -1       149 4.76223E+00 2.80952E+00-2.21058E+00-4.22764E+00 1.05305E-12-1.20748E-12
 -1       150-3.28100E+00-8.92550E+00-3.31516E+00 4.67358E+00 8.25839E-13-6.17950E-13
 -1       151-3.62304E+00-2.12462E+01-3.67495E+00 7.53766E+00 8.24896E-14-4.35069E-14
 -1       152-1.43038E+00-2.86119E+01-3.67706E+00 4.23072E+00-1.17840E-12 1.26635E-15
 -1       153-7.48161E-01-2.61317E+01-3.31757E+00-1.62846E+00-1.23182E-12 1.46055E-14
 -1       154-1.48622E+00-1.53497E+01-2.62088E+00-3.69257E+00-9.91762E-13-4.16070E-13
 -1       155 5.02454E-01-8.24579E-01-1.52450E+00 6.58298E-01-9.06497E-13-4.37206E-13
 -1       156 9.96200E+00 1.05701E+01-1.18000E-01 1.03000E+01-4.57467E-13-4.26215E-13
 -1       157 2.69724E+01 1.36139E+01 1.28185E+00 1.88849E+01-4.69624E-13-7.16482E-13
 -1       158 4.85487E+01 9.59894E+00 2.52601E+00 2.07757E+01-2.02616E-15 2.67009E-13
 -1       159 6.64127E+01 3.54999E+00 3.36833E+00 1.33286E+01 1.63671E-13 3.83055E-13
 -1       160 7.29879E+01 9.56887E-01 3.66789E+00-1.55275E-01-3.15303E-14 1.94488E-13
 -1       161 6.49742E+01 4.11734E+00 3.32742E+00-1.44671E+01 1.26149E-14 1.95122E-13
 -1       162 4.53928E+01 1.04624E+01 2.35821E+00-2.09757E+01-1.55542E-13 5.65659E-14
 -1       163 5.83104E+00 7.82139E+00-5.91682E-01-6.90586E+00-3.99014E-13 1.51767E-13
 -1       164-8.41975E-01-5.21175E+00-1.91942E+00 1.64322E+00 8.49432E-13-3.30291E-15
 -1       165-1.35695E+00-1.97940E+01-2.94166E+00 3.82534E+00 6.97276E-13-4.18984E-13
 -1       166 2.10185E+01 3.69503E+00-5.73867E-02-3.61189E+00-4.68722E-13 3.59296E-14
 -1       167 1.99944E+01 4.20838E+00-4.58105E-02-2.81060E+00-4.28298E-13-4.53849E-13
 -1       168 1.95087E+01 4.47898E+00-3.17236E-02-2.19664E+00-3.41100E-13-7.17154E-13
 -1       169 1.92687E+01 4.61552E+00-2.38154E-02-1.67658E+00-2.43656E-13-8.33245E-13
 -1       170 1.91365E+01 4.69820E+00-1.95709E-02-1.22132E+00-1.60955E-13-8.77659E-13
 -1       171 1.90618E+01 4.74903E+00-1.74282E-02-7.95029E-01-8.43436E-14-8.78496E-13
 -1       172 1.90239E+01 4.77704E+00-1.63979E-02-3.90531E-01 1.44925E-15-8.58765E-13
 -1       173 1.90123E+01 4.78591E+00-1.60935E-02 3.73268E-03 6.49584E-14-8.45071E-13
 -1       174 1.90244E+01 4.77669E+00-1.64107E-02 3.98098E-01 1.41964E-13-8.20124E-13
 -1       175 1.90630E+01 4.74821E+00-1.74399E-02 8.02903E-01 2.05100E-13-7.99183E-13
 -1       176 1.91368E+01 4.69769E+00-1.95462E-02 1.22246E+00 2.69236E-13-7.20137E-13
 -1       177 1.92715E+01 4.61420E+00-2.36167E-02 1.68608E+00 3.65419E-13-6.18705E-13
 -1       178 1.95187E+01 4.47382E+00-3.15079E-02 2.20865E+00 4.43088E-13-4.50098E-13
 -1       179 2.00064E+01 4.20350E+00-4.60105E-02 2.82374E+00 4.82037E-13-1.10849E-13
 -1       180 2.10405E+01 3.68016E+00-5.43670E-02 3.63283E+00 4.70263E-13 4.54792E-13
 -1       181 2.19777E+01 8.58577E-01 6.14805E-04-1.95981E+00-4.09374E-13 6.55812E-13
 -1       182 2.04528E+01 1.90170E-01-9.98919E-03-7.64637E-01-3.74390E-13 4.48933E-13
 -1       183 1.96768E+01 1.01781E-01 1.35787E-02-2.85934E-01-2.79806E-13 2.76700E-13
 -1       184 1.93370E+01 4.73433E-02 1.00176E-02-6.78566E-02-2.09928E-13 8.89098E-14
 -1       185 1.92075E+01 2.26895E-02 5.17544E-03 3.97761E-02-1.22744E-13-7.14099E-15
 -1       186 1.91946E+01 9.63538E-03 2.43929E-03 9.26976E-02-1.12482E-13-8.82639E-14
 -1       187 1.92440E+01 2.23506E-03 1.13312E-03 1.15367E-01-1.19669E-13-1.61729E-13
 -1       188 1.93242E+01-2.00502E-03 4.97303E-04 1.20564E-01-1.07249E-13-2.13089E-13
 -1       189 1.94163E+01-4.31855E-03 1.60579E-04 1.15693E-01-1.23260E-13-2.08865E-13
 -1       190 1.95092E+01-5.40813E-03-2.79709E-05 1.05343E-01-6.04162E-14-2.04769E-13
 -1       191 1.95965E+01-5.71457E-03-1.31771E-04 9.24423E-02-2.76519E-14-3.59184E-13
 -1       192 1.96749E+01-5.53024E-03-1.82619E-04 7.88656E-02-2.10317E-14-3.97849E-13
 -1       193 1.97429E+01-5.05371E-03-1.99541E-04 6.57831E-02-2.49339E-14-3.56885E-13
 -1       194 1.98005E+01-4.41982E-03-1.95096E-04 5.38883E-02-2.57207E-14-3.67414E-13
 -1       195 1.98483E+01-3.71861E-03-1.77901E-04 4.35512E-02-2.09914E-14-3.18267E-13
 -1       196 1.98876E+01-3.00871E-03-1.53989E-04 3.49257E-02-7.75633E-14-3.55408E-13
 -1       197 1.99197E+01-2.32804E-03-1.27744E-04 2.80229E-02 7.80010E-15-4.77599E-13
 -1       198 1.99459E+01-1.70320E-03-1.02638E-04 2.27560E-02-4.72675E-14-5.31413E-13
 -1       199 1.99677E+01-1.15877E-03-8.18600E-05 1.89605E-02-6.02295E-14-4.61809E-13
 -1       200 1.99861E+01-7.27048E-04-6.89064E-05 1.63886E-02 3.36075E-14-6.07902E-13
 -1       201 2.00020E+01-4.59206E-04-6.81079E-05 1.46769E-02 8.79994E-14-6.39780E-13
 -1       202 2.00159E+01-4.37633E-04-8.50482E-05 1.32843E-02-4.29900E-14-5.06014E-13
 -1       203 2.00276E+01-7.88834E-04-1.26723E-04 1.13979E-02-1.11297E-14-4.56953E-13
 -1       204 2.00357E+01-1.69390E-03-2.01196E-04 7.81227E-03-2.65130E-15-3.68315E-13
 -1       205 2.00376E+01-3.39054E-03-3.16391E-04 7.94579E-04-1.29329E-13-4.97153E-13
 -1       206 2.00290E+01-6.15585E-03-4.77622E-04-1.20266E-02-6.73860E-14-5.59367E-13
 -1       207 2.00029E+01-1.02537E-02-6.83578E-04-3.36809E-02-1.86312E-14-5.38579E-13
 -1       208 1.99497E+01-1.58269E-02-9.20995E-04-6.76717E-02-2.35860E-14-6.01071E-13
 -1       209 1.98568E+01-2.27193E-02-1.15911E-03-1.17434E-01 1.86868E-14-4.97084E-13
 -1       210 1.97094E+01-3.02341E-02-1.34658E-03-1.85274E-01-2.91268E-14-4.64080E-13
 -1       211 1.94924E+01-3.68889E-02-1.41458E-03-2.70722E-01-1.13928E-13-4.53067E-13
 -1       212 1.91936E+01-4.03087E-02-1.28939E-03-3.68451E-01-1.07600E-13-5.52876E-13
 -1       213 1.88086E+01-3.74828E-02-9.16153E-04-4.66417E-01-8.70769E-14-5.83670E-13
 -1       214 1.83468E+01-2.56080E-02-2.86842E-04-5.45353E-01 1.35946E-13-3.54267E-13
 -1       215 1.78364E+01-3.53251E-03 5.39005E-04-5.81106E-01 2.27004E-14-4.26417E-13
 -1       216 1.73259E+01 2.66737E-02 1.43967E-03-5.50721E-01 7.39995E-14-4.79871E-13
 -1       217 1.68798E+01 5.90437E-02 2.25800E-03-4.41340E-01 7.17005E-14-7.36136E-13
 -1       218 1.65655E+01 8.49708E-02 2.84117E-03-2.58413E-01 9.28580E-14-5.15032E-13
 -1       219 1.64365E+01 9.64576E-02 3.09358E-03-2.82937E-02-9.68785E-14-2.63480E-13
 -1       220 1.65164E+01 8.98383E-02 2.97234E-03 2.07949E-01 3.68579E-14-3.00013E-14
 -1       221 1.67918E+01 6.76673E-02 2.50097E-03 4.07822E-01 5.25992E-14-2.47531E-14
 -1       222 1.72166E+01 3.74127E-02 1.75382E-03 5.41436E-01 4.43831E-13 6.11755E-14
 -1       223 1.77276E+01 7.76495E-03 8.43472E-04 5.99219E-01 1.45628E-13 1.92426E-13
 -1       224 1.82606E+01-1.51487E-02-9.92316E-05 5.90215E-01 1.33393E-13 2.51281E-13
 -1       225 1.87638E+01-2.98374E-02-9.37743E-04 5.33186E-01 1.85275E-14 3.93227E-13
 -1       226 1.92022E+01-3.95196E-02-1.45813E-03 4.45278E-01-5.96687E-14 2.07262E-13
 -1       227 1.95545E+01-5.05978E-02-1.42565E-03 3.32856E-01 1.59633E-13 2.53393E-13
 -1       228 1.98189E+01-7.38739E-02-7.84785E-04 1.91849E-01 1.60571E-13 5.06455E-13
 -1       229 2.20465E+01 9.19511E-01 2.88914E-04 2.03824E+00 3.93234E-13 1.04945E-12
 -1       230 2.04998E+01 2.07491E-01-1.14343E-02 8.01376E-01 3.64018E-13 8.58013E-13
 -1       231 1.97014E+01 1.06693E-01 1.31095E-02 3.01702E-01 2.68768E-13 6.54365E-13
 -1       232 1.93478E+01 4.94942E-02 1.02301E-02 7.55604E-02 1.86122E-13 5.00624E-13
 -1       233 1.92107E+01 2.36041E-02 5.34265E-03-3.57877E-02 1.49785E-13 3.68188E-13
 -1       234 1.91935E+01 1.01587E-02 2.52064E-03-9.08150E-02 1.40764E-13 2.71587E-13
 -1       235 1.92406E+01 2.52350E-03 1.17142E-03-1.14675E-01 9.26067E-14 1.68638E-13
 -1       236 1.93197E+01-1.85165E-03 5.18634E-04-1.20537E-01 8.02233E-14 1.02275E-13
 -1       237 1.94115E+01-4.24767E-03 1.72611E-04-1.16022E-01 5.96056E-14 1.11736E-13
 -1       238 1.95045E+01-5.39261E-03-2.14347E-05-1.05829E-01 3.48241E-14 1.04481E-13
 -1       239 1.95921E+01-5.73959E-03-1.28003E-04-9.29478E-02-1.31771E-14 5.05264E-14
 -1       240 1.96706E+01-5.58101E-03-1.85105E-04-7.92740E-02-1.22005E-14 3.37544E-14
 -1       241 1.97357E+01-5.16155E-03-1.97318E-04-6.66504E-02 6.26987E-14 2.29923E-14
 -1       242 1.97940E+01-4.56801E-03-1.98835E-04-5.44803E-02 1.56275E-13 1.12184E-14
 -1       243 1.98423E+01-3.89250E-03-1.81751E-04-4.37681E-02 6.13879E-14 3.85646E-15
 -1       244 1.98818E+01-3.20038E-03-1.55595E-04-3.47204E-02 4.77832E-14-1.73905E-14
 -1       245 1.99139E+01-2.51815E-03-1.23459E-04-2.73979E-02-1.18927E-14-4.71222E-14
 -1       246 1.99400E+01-1.84778E-03-8.60520E-05-2.18121E-02-3.53295E-15-6.97586E-14
 -1       247 1.99618E+01-1.16700E-03-4.19998E-05-1.79946E-02 2.45674E-14-1.25509E-13
 -1       248 1.99813E+01-4.24449E-04 1.25899E-05-1.60700E-02 5.14886E-15-1.59439E-13
 -1       249 2.00005E+01 4.71968E-04 8.50264E-05-1.63486E-02-2.95686E-14-2.34121E-13
 -1       250 2.00220E+01 1.67740E-03 1.87681E-04-1.94620E-02-2.79310E-14-1.15650E-13
 -1       251 2.00496E+01 3.44929E-03 3.40796E-04-2.65739E-02 8.61212E-14-1.39177E-13
 -1       252 2.00882E+01 6.21684E-03 5.77396E-04-3.97185E-02 1.21039E-13-3.70442E-14
 -1       253 2.01457E+01 1.07369E-02 9.29421E-04-6.24774E-02 1.21006E-14-1.26516E-13
 -1       254 2.02286E+01 1.75645E-02 1.49286E-03-9.80841E-02-7.96824E-15-1.41571E-13
 -1       255 2.03625E+01 2.94438E-02 2.33450E-03-1.59167E-01-1.68603E-13 6.16850E-14
 -1       256 2.05718E+01 4.91029E-02 3.57999E-03-2.59956E-01-3.87483E-14 1.66420E-13
 -1       257 2.08981E+01 8.14581E-02 5.22381E-03-4.24655E-01-1.80760E-14 1.35510E-13
 -1       258 2.14027E+01 1.33664E-01 6.91791E-03-6.90941E-01-1.72117E-13 3.87691E-14
 -1       259 2.21708E+01 2.14263E-01 7.58922E-03-1.11265E+00-1.61544E-13-4.07557E-14
 -1       260 2.33097E+01 3.26707E-01 5.56390E-03-1.75346E+00 1.20843E-13 7.87676E-14
 -1       261 2.49309E+01 4.45349E-01 1.49358E-03-2.64724E+00 3.08087E-14 1.97902E-13
 -1       262 2.71098E+01 4.47747E-01 7.74736E-03-3.66192E+00-7.66154E-14 1.73370E-13
 -1       263 2.97940E+01-4.16509E-02 4.38976E-02-4.19122E+00-9.78315E-14 1.50609E-13
 -1       264 3.22954E+01-1.12186E+00 1.03227E-01-3.31120E+00-1.32068E-13 3.54978E-13
 -1       265 3.51913E+01-2.84672E+00 7.84309E-02-2.65850E-03-9.10799E-14 1.98468E-13
 -1       266 3.59679E+01 7.43834E-01-5.59846E-01 6.43683E+00 1.32949E-14-1.47111E-13
 -1       267 3.37691E+01 2.67354E+00-1.04128E+00 1.80921E+00 5.52502E-13-7.32098E-13
 -1       268 3.39242E+01 1.87769E+00-1.00632E+00-5.43886E+00 3.75144E-13-6.90770E-13
 -1       269 3.78575E+01-1.07970E+00-1.62491E-01-6.48556E+00-1.06665E-13-4.88613E-13
 -1       270 3.76752E+01-2.02693E+00 1.00721E-01-2.89989E+00-2.97030E-13-5.99479E-13
 -1       271 3.62445E+01-1.26006E+00 2.32683E-01 1.21841E+00-5.35690E-13-6.44432E-14
 -1       272 3.28312E+01-1.89341E-01 9.40868E-02 3.30396E+00 7.83332E-14 5.15837E-14
 -1       273 2.91228E+01 2.05471E-01-3.68565E-03 3.25035E+00 3.50805E-13 1.07338E-13
 -1       274 2.59254E+01 2.47983E-01-2.32862E-02 2.49125E+00 2.66748E-13-1.31350E-13
 -1       275 2.34881E+01 1.93343E-01-1.45438E-02 1.73262E+00-6.10362E-15-2.93413E-13
 -1       276 2.17659E+01 1.52137E-01-8.46526E-03 1.12902E+00-4.76378E-13-1.40678E-13
 -1       277 2.06800E+01 1.54842E-01-4.60644E-03 5.96943E-01-1.63726E-13-1.40270E-13
 -1       278 2.02195E+01 2.49649E-01-7.90416E-03 3.15936E-01 4.69689E-14-3.88498E-13
 -1       279 2.00877E+01 9.87780E-01-5.31914E-03 7.27959E-01-2.65633E-13-5.97188E-13
 -1       280 1.99428E+01 1.81843E+00 2.36273E-03 7.41853E-01-7.25589E-13-2.97411E-13
 -1       281 1.98590E+01 2.40512E+00 6.74513E-03 4.04982E-01-3.01781E-13 3.13731E-13
 -1       282 1.98517E+01 2.51906E+00 5.00520E-03-7.24689E-02-6.44939E-13-1.79124E-13
 -1       283 1.98972E+01 2.14920E+00 1.49131E-03-4.80983E-01-6.19810E-13-2.48425E-14
 -1       284 1.99653E+01 1.42865E+00-1.77778E-03-7.10174E-01-5.79484E-13-4.08712E-13
 -1       285 2.00258E+01 5.83313E-01-3.24990E-03-7.26686E-01-2.36922E-13 3.97875E-13
 -1       286 2.00628E+01-1.78728E-01-3.02597E-03-5.80095E-01-1.28679E-13 7.03194E-14
 -1       287 2.00744E+01-7.22724E-01-1.87019E-03-3.50636E-01-1.39420E-13 3.26134E-13
 -1       288 2.00670E+01-9.98627E-01-5.95832E-04-1.11984E-01-2.76684E-13-2.55543E-13
 -1       289 2.00490E+01-1.02687E+00 2.58711E-04 8.23056E-02-2.94827E-13-2.32308E-13
 -1       290 2.00258E+01-8.69635E-01 9.78648E-04 2.11479E-01-3.47043E-13 4.05097E-13
 -1       291 2.00003E+01-6.07668E-01 1.62494E-03 2.60010E-01-5.26047E-13-3.02107E-13
 -1       292 1.99768E+01-3.33308E-01 2.04538E-03 2.24168E-01-3.22827E-13 2.18851E-13
 -1       293-1.95496E+00-1.27387E+01-1.01276E+00-1.01978E+00 1.20909E-13 1.54043E-13
 -1       294 6.55073E-01-1.13854E+01-1.03321E+00 1.17489E+00-1.34864E-13-2.56434E-13
 -1       295 7.52807E+00-8.71861E+00-1.00084E+00 3.40399E+00 3.25295E-14-4.13999E-13
 -1       296 1.87756E+01-5.37539E+00-7.75684E-01 4.96951E+00-2.53964E-13 6.70297E-14
 -1       297 3.42863E+01-2.44048E+00-2.90530E-02 4.81355E+00-3.49998E-13 4.86278E-14
 -1       298 4.85358E+01 1.23261E+00 1.01320E+00 7.58121E-01 1.65506E-13-5.85532E-13
 -1       299 5.85634E+01 5.57137E+00 2.28427E+00 1.75705E-01 2.39336E-13-6.27109E-13
 -1       300 5.73821E+01 7.34001E+00 2.14879E+00 6.31071E-01 4.17666E-13-8.45053E-13
 -1       301 5.56270E+01 4.33801E+00 1.94775E+00-2.45365E-01 5.85587E-13-1.22574E-12
 -1       302 4.30287E+01-4.02224E-01 5.98900E-01-2.92129E+00 4.62852E-13-1.02163E-12
 -1       303 2.77960E+01-3.58925E+00-3.87526E-01-5.12542E+00 6.42486E-13-1.00614E-12
 -1       304 1.39731E+01-6.65162E+00-9.46517E-01-4.41751E+00 5.60996E-13-8.68056E-13
 -1       305 5.14200E+00-9.34843E+00-9.23947E-01-2.92020E+00 2.05974E-13-6.57453E-13
 -1       306-6.03945E-01-1.13468E+01-9.32188E-01-5.10206E-01-2.32064E-13-5.39152E-13
 -1       307-1.95919E+00-1.30252E+01-1.04456E+00 1.88264E+00-2.68133E-13-5.58997E-14
 -1       308 5.49346E-01-1.02900E+01-7.98843E-01 3.92998E+00-3.96072E-13-2.02199E-14
 -1       309 6.65069E+00-6.46031E+00-4.96813E-01 6.35801E+00-2.48745E-13 4.95115E-14
 -1       310 1.57352E+01-2.27647E+00-2.08263E-01 8.13697E+00-2.85549E-13-1.86379E-13
 -1       311 2.58702E+01 2.51082E+00 1.74561E-01 9.43618E+00-2.59459E-13-1.39583E-13
 -1       312 3.70051E+01 5.34540E+00 5.80941E-01 9.13067E+00-4.41744E-13 1.46549E-13
 -1       313 4.57516E+01 6.88277E+00 8.13993E-01 6.10886E+00-1.48548E-13-9.27591E-14
 -1       314 5.04806E+01 7.68940E+00 9.43862E-01 2.15379E+00 3.66374E-14 2.01505E-13
 -1       315 4.95882E+01 7.88115E+00 8.79842E-01-2.23218E+00 3.19467E-14 1.62453E-13
 -1       316 4.47680E+01 6.62759E+00 7.56358E-01-6.41579E+00 1.48784E-13 3.10030E-14
 -1       317 3.49901E+01 3.33412E+00 3.28478E-01-7.35000E+00-1.18849E-13-4.14252E-13
 -1       318 2.26483E+01 1.31594E+00 6.13200E-02-9.18269E+00-2.32314E-14 6.92224E-14
 -1       319 1.18802E+01-3.39174E+00-3.83022E-01-7.28121E+00 3.78531E-13 3.99819E-13
 -1       320 3.95917E+00-8.39523E+00-7.38207E-01-4.95335E+00 3.41116E-13-7.62931E-15
 -1       321-6.46072E-01-1.15703E+01-8.88643E-01-3.07129E+00 1.68421E-13-2.71699E-13
 -1       322 3.90449E+01-2.70163E+00 7.74750E-03 5.14226E+00-4.76355E-14-8.91232E-14
 -1       323 1.99331E+01-1.85086E-01-1.04231E-03 1.94170E-01-2.22885E-13-1.11074E-14
 -1       324 2.01484E+01 3.01604E+00-1.78001E-02-2.11164E+00-4.46735E-13-4.30132E-13
 -1       325 2.07590E+01 2.21066E+00-1.78593E-02-2.36471E+00-5.01125E-13-1.40964E-13
 -1       326 1.95822E+01 3.69379E+00-1.55918E-02-1.32049E+00-2.56371E-13-6.65848E-13
 -1       327 1.94589E+01 3.85032E+00-1.36757E-02-9.26260E-01-1.61644E-13-6.88417E-13
 -1       328 1.93889E+01 3.94179E+00-1.26833E-02-5.46835E-01-5.38120E-14-6.68847E-13
 -1       329 1.93575E+01 3.98374E+00-1.22632E-02-1.76847E-01 5.01382E-14-6.53999E-13
 -1       330 1.93581E+01 3.98299E+00-1.22719E-02 1.90047E-01 1.28236E-13-6.41313E-13
 -1       331 1.93908E+01 3.93938E+00-1.27031E-02 5.60227E-01 2.06584E-13-6.43284E-13
 -1       332 1.94607E+01 3.84816E+00-1.36858E-02 9.33415E-01 2.87716E-13-5.88615E-13
 -1       333 1.95865E+01 3.68940E+00-1.55116E-02 1.32673E+00 3.93225E-13-4.82022E-13
 -1       334 1.97995E+01 3.42716E+00-1.85116E-02 1.73249E+00 4.88555E-13-3.84357E-13
 -1       335 2.01586E+01 2.98093E+00-2.15733E-02 2.11567E+00 5.35658E-13-1.85446E-13
 -1       336 2.07789E+01 2.17140E+00-1.81310E-02 2.36186E+00 5.30942E-13 1.85329E-13
 -1       337 2.04628E+01 6.75603E-01 1.25657E-02-1.02640E+00-4.20057E-13-5.95299E-14
 -1       338 2.00404E+01 3.37713E-01 7.19064E-03-4.58066E-01-3.28507E-13-8.59589E-14
 -1       339 1.97865E+01 1.77024E-01 4.17191E-03-1.48370E-01-2.41740E-13-1.28539E-13
 -1       340 1.96512E+01 9.09332E-02 1.90977E-03 2.32806E-02-1.64972E-13-1.83476E-13
 -1       341 1.95961E+01 4.17905E-02 7.96315E-04 1.14917E-01-1.39453E-13-2.13247E-13
 -1       342 1.95912E+01 1.27963E-02 2.76258E-04 1.58536E-01-1.33353E-13-2.15950E-13
 -1       343 1.96158E+01-4.23004E-03 1.83457E-05 1.73015E-01-9.03325E-14-2.15099E-13
 -1       344 1.96558E+01-1.37492E-02-1.16864E-04 1.70087E-01-1.08113E-13-2.38042E-13
 -1       345 1.97023E+01-1.84348E-02-1.85089E-04 1.57302E-01-1.47169E-13-3.15654E-13
 -1       346 1.97495E+01-2.00039E-02-2.12591E-04 1.39590E-01-7.47941E-14-3.44510E-13
 -1       347 1.97941E+01-1.96054E-02-2.14542E-04 1.20157E-01-2.25237E-14-3.69873E-13
 -1       348 1.98344E+01-1.80218E-02-2.00863E-04 1.01037E-01-1.22306E-14-3.19348E-13
 -1       349 1.98696E+01-1.57850E-02-1.78282E-04 8.34588E-02-3.55590E-14-2.41600E-13
 -1       350 1.98997E+01-1.32530E-02-1.51379E-04 6.81059E-02-8.72242E-14-3.61348E-13
 -1       351 1.99250E+01-1.06647E-02-1.23300E-04 5.52862E-02-8.08288E-14-3.41446E-13
 -1       352 1.99462E+01-8.18446E-03-9.63235E-05 4.50516E-02-8.29523E-14-3.89816E-13
 -1       353 1.99640E+01-5.94233E-03-7.23679E-05 3.72653E-02-3.30624E-14-5.03016E-13
 -1       354 1.99792E+01-4.07368E-03-5.34698E-05 3.16246E-02-5.05127E-14-4.91513E-13
 -1       355 1.99922E+01-2.76100E-03-4.22731E-05 2.76398E-02 5.66052E-14-4.11678E-13
 -1       356 2.00035E+01-2.27955E-03-4.25142E-05 2.45653E-02 1.44326E-13-4.03949E-13
 -1       357 2.00133E+01-3.04496E-03-5.94476E-05 2.12829E-02-4.44541E-14-2.90687E-13
 -1       358 2.00211E+01-5.65577E-03-1.00076E-04 1.61385E-02-1.16705E-14-3.20616E-13
 -1       359 2.00261E+01-1.09138E-02-1.72927E-04 6.74748E-03-9.44179E-14-3.66139E-13
 -1       360 2.00263E+01-1.97916E-02-2.87001E-04-1.01930E-02-7.75401E-14-4.52020E-13
 -1       361 2.00187E+01-3.32974E-02-4.49375E-04-3.90075E-02 2.22421E-14-4.15819E-13
 -1       362 1.99988E+01-5.21726E-02-6.61020E-04-8.49262E-02-4.85051E-14-3.39403E-13
 -1       363 1.99601E+01-7.63570E-02-9.10862E-04-1.53548E-01-7.67126E-14-4.66562E-13
 -1       364 1.98943E+01-1.04204E-01-1.16861E-03-2.49637E-01-8.08761E-14-5.30144E-13
 -1       365 1.97915E+01-1.31557E-01-1.37953E-03-3.75029E-01-4.12608E-14-5.08534E-13
 -1       366 1.96410E+01-1.51052E-01-1.46504E-03-5.25656E-01-7.89089E-14-3.28295E-13
 -1       367 1.94337E+01-1.52318E-01-1.33414E-03-6.88182E-01-7.87002E-14-2.33248E-13
 -1       368 1.91659E+01-1.23960E-01-9.12667E-04-8.37590E-01 1.39908E-13-3.57436E-14
 -1       369 1.88442E+01-5.78866E-02-1.82696E-04-9.37913E-01 6.15621E-14 2.83067E-14
 -1       370 1.84909E+01 4.46957E-02 7.80743E-04-9.48496E-01-2.30351E-14 6.68085E-14
 -1       371 1.81458E+01 1.68432E-01 1.81958E-03-8.36636E-01-6.33157E-14-2.35464E-14
 -1       372 1.78618E+01 2.84464E-01 2.71665E-03-5.93354E-01 1.76336E-13-5.39139E-14
 -1       373 1.76918E+01 3.59216E-01 3.24435E-03-2.44529E-01 2.45336E-13-5.37436E-14
 -1       374 1.76710E+01 3.68782E-01 3.31448E-03 1.51030E-01 2.62706E-13 2.58099E-13
 -1       375 1.78034E+01 3.10814E-01 2.91361E-03 5.19261E-01-6.65738E-14 4.81601E-13
 -1       376 1.80601E+01 2.05774E-01 2.14140E-03 7.96513E-01 1.73973E-13 5.50546E-13
 -1       377 1.83912E+01 8.64612E-02 1.17199E-03 9.49733E-01 2.58849E-13 3.59174E-13
 -1       378 1.87431E+01-1.74512E-02 1.79550E-04 9.81159E-01 2.38113E-13 3.58504E-13
 -1       379 1.90739E+01-9.06766E-02-6.80034E-04 9.17840E-01 5.57593E-14 4.19361E-13
 -1       380 1.93591E+01-1.35463E-01-1.35909E-03 7.94228E-01-1.22993E-13 4.34037E-13
 -1       381 1.95918E+01-1.67396E-01-1.79420E-03 6.36710E-01-8.77233E-15 4.13182E-13
 -1       382 1.97826E+01-2.06531E-01-1.75894E-03 4.56329E-01 1.77890E-13 1.72777E-13
 -1       383 2.00531E+01 3.55439E-01 8.08917E-03 4.80007E-01 3.09728E-13 1.05788E-13
 -1       384 2.04751E+01 7.05761E-01 1.29240E-02 1.05587E+00 4.28322E-13 2.01558E-13
 -1       385 1.97950E+01 1.85517E-01 4.62273E-03 1.60821E-01 2.25033E-13 4.84924E-14
 -1       386 1.96555E+01 9.43062E-02 1.94126E-03-1.68333E-02 2.07750E-13 3.51895E-14
 -1       387 1.95974E+01 4.37064E-02 8.11576E-04-1.11629E-01 1.47963E-13 2.02571E-14
 -1       388 1.95906E+01 1.39004E-02 2.88601E-04-1.57095E-01 1.36860E-13-4.45304E-15
 -1       389 1.96140E+01-3.61900E-03 2.64710E-05-1.72679E-01 1.06520E-13-5.19261E-14
 -1       390 1.96535E+01-1.34601E-02-1.12418E-04-1.70370E-01 7.89431E-14-1.14874E-13
 -1       391 1.96998E+01-1.83696E-02-1.82120E-04-1.57871E-01 3.28414E-14-1.04779E-13
 -1       392 1.97469E+01-2.00935E-02-2.13685E-04-1.40217E-01 1.32247E-14-1.28706E-13
 -1       393 1.97895E+01-1.98916E-02-2.17738E-04-1.21638E-01 5.12077E-14-1.51550E-13
 -1       394 1.98302E+01-1.84500E-02-2.05618E-04-1.02244E-01 4.78790E-14-1.22420E-13
 -1       395 1.98658E+01-1.63242E-02-1.84655E-04-8.42391E-02 4.93602E-14-4.05837E-14
 -1       396 1.98963E+01-1.38518E-02-1.57697E-04-6.83852E-02 1.05524E-13-4.42737E-14
 -1       397 1.99221E+01-1.12397E-02-1.28229E-04-5.50833E-02 1.71561E-14-7.67586E-14
 -1       398 1.99440E+01-8.57341E-03-9.71077E-05-4.45443E-02 6.68784E-14-3.32388E-14
 -1       399 1.99628E+01-5.83036E-03-6.37885E-05-3.69207E-02 1.80005E-14-9.17660E-14
 -1       400 1.99796E+01-2.87418E-03-2.61396E-05-3.24341E-02 1.78307E-14-4.24218E-14
 -1       401 1.99959E+01 5.73832E-04 2.00888E-05-3.15151E-02 6.77779E-14-1.05953E-13
 -1       402 2.00130E+01 4.99545E-03 8.22954E-05-3.49857E-02-3.70497E-15-2.49964E-13
 -1       403 2.00331E+01 1.11845E-02 1.72952E-04-4.43195E-02 5.25417E-14-3.06885E-13
 -1       404 2.00584E+01 2.04311E-02 3.12373E-04-6.20367E-02 1.64144E-14-2.78590E-13
 -1       405 2.00923E+01 3.48739E-02 5.28863E-04-9.23792E-02 3.94501E-14-7.04499E-14
 -1       406 2.01362E+01 5.63535E-02 8.71142E-04-1.38903E-01 1.04569E-13-1.14362E-13
 -1       407 2.01997E+01 9.21353E-02 1.42882E-03-2.16545E-01-2.29482E-13-1.56800E-13
 -1       408 2.02868E+01 1.49714E-01 2.31260E-03-3.39978E-01-8.67391E-14-2.12300E-13
 -1       409 2.04032E+01 2.41511E-01 3.66981E-03-5.33946E-01-1.71321E-14-2.92897E-15
 -1       410 2.05516E+01 3.85282E-01 5.59419E-03-8.34757E-01-9.57958E-15 1.38445E-13
 -1       411 2.07252E+01 6.02496E-01 7.97897E-03-1.29201E+00-4.32191E-14-3.48200E-14
 -1       412 2.08989E+01 9.07413E-01 1.04334E-02-1.96500E+00 3.58849E-14-2.60038E-13
 -1       413 2.10227E+01 1.26882E+00 1.32829E-02-2.90365E+00 1.94133E-14-1.81199E-13
 -1       414 2.10494E+01 1.50876E+00 2.27567E-02-4.09294E+00 6.17460E-14-2.81843E-13
 -1       415 2.10502E+01 1.03878E+00 4.78485E-02-5.36199E+00-2.66020E-14-5.91086E-13
 -1       416 2.15376E+01-5.32738E-01 1.21078E-01-5.97586E+00-1.27755E-13-5.79137E-13
 -1       417 9.36427E+00-5.69907E+00-8.64376E-02 5.76855E+00 3.57769E-14-1.41775E-13
 -1       418 3.02658E+01-6.59849E+00-1.58217E-01-2.70205E+00 9.89209E-14-4.44395E-13
 -1       419 3.19216E+01-4.82617E+00 4.98180E-02 1.96908E+00-5.45106E-13-1.98393E-13
 -1       420 2.32055E+01 3.99939E-01 5.48847E-02 5.63351E+00 2.58205E-13-3.75410E-13
 -1       421 2.22975E+01 1.12392E+00 2.22589E-02 4.61755E+00 3.16097E-13-2.06971E-13
 -1       422 2.16725E+01 1.05699E+00 1.58672E-02 3.43727E+00 2.95294E-13-1.11251E-13
 -1       423 2.11028E+01 8.40619E-01 1.14408E-02 2.40132E+00-1.65654E-13-2.56955E-13
 -1       424 2.06212E+01 7.25922E-01 8.00728E-03 1.56045E+00-1.99517E-13-6.69584E-13
 -1       425 2.03119E+01 8.44459E-01 2.52808E-03 1.16141E+00-4.82106E-14-8.20469E-13
 -1       426 1.94484E+01 1.86119E+00-4.96839E-03 1.01595E+00 1.89992E-13 4.28340E-13
 -1       427 1.98998E+01 1.44459E+00 1.84840E-03 1.31801E+00-6.18945E-14-5.29281E-13
 -1       428 1.92448E+01 2.02984E+00-6.80267E-03 1.93089E-01-1.63852E-14-5.15640E-13
 -1       429 1.93589E+01 1.79147E+00-6.54141E-03-6.38371E-01-4.52113E-13-8.63675E-14
 -1       430 1.96611E+01 1.24619E+00-4.58700E-03-1.21614E+00-4.38941E-13-2.46412E-13
 -1       431 1.99937E+01 5.78052E-01-1.50358E-03-1.40301E+00-1.50971E-13 1.41756E-14
 -1       432 2.02416E+01-4.07124E-02 1.50864E-03-1.24214E+00-2.41174E-14 3.35835E-14
 -1       433 2.03625E+01-5.01260E-01 3.59476E-03-8.66926E-01-9.62000E-14 1.67538E-13
 -1       434 2.03703E+01-7.64558E-01 4.36847E-03-4.21738E-01-3.33097E-13-5.97322E-14
 -1       435 2.03044E+01-8.43180E-01 3.93250E-03-2.26580E-02-2.34881E-13-2.25012E-13
 -1       436 2.01972E+01-7.78149E-01 2.80477E-03 2.78405E-01-2.46790E-13 2.56920E-13
 -1       437 2.00734E+01-6.17422E-01 1.59136E-03 4.43701E-01-2.87342E-13-2.96361E-13
 -1       438 1.99450E+01-4.10320E-01-3.13134E-04 4.65797E-01-1.31902E-13 1.70239E-13
 -1       439 1.99812E+01-6.90125E+00-2.00819E-01 5.62630E+00-2.03199E-13-2.84484E-13
 -1       440 2.89271E-01-4.95489E+00-7.31087E-02-2.42571E+00 9.81229E-14-1.25733E-14
 -1       441 1.98041E+01 3.43255E+00-1.76651E-02-1.73971E+00-3.67429E-13-5.92103E-13
 -1       442 2.51418E+01-2.15774E+00 1.06890E-01 5.52680E+00-2.55129E-13-4.06754E-13
 -1       443 3.17891E+01-6.00950E+00-5.96923E-02 2.20740E+00-6.16007E-13-1.42525E-14
 -1       444 1.75169E+01-6.39862E+00-8.18021E-02-6.01543E+00-8.36553E-14-7.42349E-13
 -1       445 6.25292E+00-5.15489E+00-8.66339E-02-4.78975E+00-1.48437E-13-6.32702E-13
 -1       446 9.38591E-01-3.83775E+00 3.77104E-03-4.62668E-01 1.36346E-13-3.50553E-13
 -1       447 1.06739E+00-4.26792E+00-1.44981E-02 3.73682E+00 8.25312E-14-1.69503E-13
 -1       448 6.43885E+00-5.06287E+00-3.13610E-02 7.60631E+00-2.85744E-14 6.72934E-14
 -1       449 1.55989E+01-5.11384E+00-1.00521E-02 8.85650E+00-1.87794E-13-1.12627E-13
 -1       450 2.51181E+01-3.41577E+00 1.73280E-02 7.32436E+00-1.49811E-13-1.36460E-13
 -1       451 3.22393E+01-5.01417E-01 8.59594E-03 4.24152E+00-3.90132E-13 5.31519E-14
 -1       452 3.64482E+01 3.85885E+00-2.84144E-03 1.50683E+00-3.05339E-13-1.44967E-13
 -1       453 3.87165E+01 8.00259E+00 1.57111E-02 2.05570E-01-2.38670E-13 7.37188E-14
 -1       454 3.86199E+01 9.59140E+00-1.08408E-02 1.23827E-02 1.75138E-14-1.22252E-13
 -1       455 3.80659E+01 7.60181E+00-1.45112E-02-9.59173E-02 2.26055E-13-1.71418E-13
 -1       456 3.60504E+01 3.61408E+00-3.13315E-02-1.31945E+00 5.01960E-14-1.94691E-13
 -1       457 3.00731E+01-2.06302E+00 1.12945E-03-5.30204E+00-4.69139E-14-2.03837E-13
 -1       458 2.21642E+01-4.46539E+00-8.37558E-04-8.02934E+00 3.04617E-13 7.37327E-14
 -1       459 1.23522E+01-5.55791E+00-5.64472E-02-8.64528E+00 5.02320E-13 2.71509E-13
 -1       460 5.00033E+00-4.93261E+00 8.75830E-04-6.94819E+00 2.65218E-13-4.83669E-13
 -1       461 2.21609E+00-4.55814E+00-3.37488E-02 2.49454E+00-3.38604E-13-2.31148E-13
 -1       462 3.70466E+01-4.52864E+00-6.71890E-02-2.31884E+00-2.78479E-13-2.91003E-13
 -1       463 4.55103E+01 7.90396E-01 5.62297E-01 2.72168E+00 4.24799E-13-9.68614E-13
 -1       464 2.67344E+01-3.83848E+00 1.11094E-01-4.67579E+00 7.50788E-15-4.72386E-13
 -1       465 3.26102E+01-5.21626E-01-8.14191E-02-1.29921E+00-5.98185E-14-1.45703E-13
 -1       466 3.81548E+01-3.77746E+00 6.34975E-02 1.72481E-01 3.65999E-13-8.53984E-13
 -1       467 5.13396E+00-1.11763E+00 2.16040E-01-4.68037E+00 4.05488E-13-2.97359E-13
 -1       468 1.97305E+01 3.10694E+00-5.32302E-03-6.36007E-01-1.05896E-13-6.00956E-13
 -1       469 1.98283E+01 2.93266E+00-5.70564E-03-9.51391E-01-1.98942E-13-6.03517E-13
 -1       470 1.96610E+01 3.23118E+00-5.00829E-03 5.69427E-03 7.18519E-14-5.90091E-13
 -1       471 1.96789E+01 3.19936E+00-5.08619E-03 3.26889E-01 1.55873E-13-5.71251E-13
 -1       472 1.97321E+01 3.10414E+00-5.40102E-03 6.42184E-01 2.40365E-13-5.73971E-13
 -1       473 1.98298E+01 2.92885E+00-5.97484E-03 9.58329E-01 3.41158E-13-4.71381E-13
 -1       474 1.99858E+01 2.64663E+00-6.59632E-03 1.25399E+00 4.23021E-13-3.86705E-13
 -1       475 2.02094E+01 2.20799E+00-6.76998E-03 1.48594E+00 4.76102E-13-2.71004E-13
 -1       476 2.04345E+01 1.46614E+00-3.17579E-03 1.40181E+00 4.73530E-13-8.30190E-14
 -1       477 2.03466E+01 9.73833E-01 2.78266E-03-9.40558E-01-3.59445E-13-2.69874E-13
 -1       478 2.03998E+01 1.75673E+00-5.96096E-03-1.53806E+00-4.27212E-13-3.56838E-13
 -1       479 2.01743E+01 5.46415E-01 2.33643E-03-4.67656E-01-2.85638E-13-2.49910E-13
 -1       480 2.00267E+01 3.04646E-01 1.11498E-03-1.65780E-01-2.30679E-13-2.22314E-13
 -1       481 1.99260E+01 1.62574E-01 4.70256E-04 1.63036E-02-1.86500E-13-2.30215E-13
 -1       482 1.98673E+01 7.62365E-02 1.63464E-04 1.19462E-01-1.51049E-13-2.66735E-13
 -1       483 1.98400E+01 2.34454E-02 2.45717E-05 1.71304E-01-1.37597E-13-2.84206E-13
 -1       484 1.98340E+01-8.15269E-03-4.49942E-05 1.90381E-01-1.25892E-13-2.73855E-13
 -1       485 1.98413E+01-2.59680E-02-8.03939E-05 1.89218E-01-1.46518E-13-2.36859E-13
 -1       486 1.98562E+01-3.47327E-02-9.59615E-05 1.76294E-01-1.30331E-13-2.09363E-13
 -1       487 1.98745E+01-3.76036E-02-9.89514E-05 1.57316E-01-7.30774E-14-2.53928E-13
 -1       488 1.98938E+01-3.67385E-02-9.40668E-05 1.36063E-01-9.14311E-16-2.78320E-13
 -1       489 1.99125E+01-3.36218E-02-8.45666E-05 1.14968E-01 1.42897E-14-2.67825E-13
 -1       490 1.99296E+01-2.92692E-02-7.26964E-05 9.55181E-02-6.02618E-14-2.05869E-13
 -1       491 1.99449E+01-2.43701E-02-5.99811E-05 7.85505E-02-1.77517E-13-1.63990E-13
 -1       492 1.99583E+01-1.93952E-02-4.74715E-05 6.44485E-02-1.62981E-13-3.10213E-13
 -1       493 1.99699E+01-1.46878E-02-3.59654E-05 5.32770E-02-9.61843E-14-3.43863E-13
 -1       494 1.99800E+01-1.05479E-02-2.62151E-05 4.48535E-02-7.36838E-14-4.09826E-13
 -1       495 1.99889E+01-7.31612E-03-1.91366E-05 3.87652E-02 5.58838E-14-3.16797E-13
 -1       496 1.99970E+01-5.46253E-03-1.60272E-05 3.43295E-02 7.18980E-14-3.87929E-13
 -1       497 2.00047E+01-5.68079E-03-1.87807E-05 3.04971E-02 1.28076E-13-3.66952E-13
 -1       498 2.00122E+01-8.97965E-03-3.00669E-05 2.56974E-02 2.32687E-15-2.16752E-13
 -1       499 2.00200E+01-1.67506E-02-5.33956E-05 1.76299E-02-9.25958E-14-2.95235E-13
 -1       500 2.00282E+01-3.07675E-02-9.29281E-05 3.02569E-03-1.47852E-13-3.36041E-13
 -1       501 2.00367E+01-5.30433E-02-1.52828E-04-2.25687E-02-1.42126E-13-4.21773E-13
 -1       502 2.00452E+01-8.54327E-02-2.35894E-04-6.48797E-02 5.49137E-14-4.53653E-13
 -1       503 2.00523E+01-1.28845E-01-3.41161E-04-1.30687E-01-6.77374E-14-2.81296E-13
 -1       504 2.00553E+01-1.81963E-01-4.61018E-04-2.27027E-01-1.45116E-13-2.02651E-13
 -1       505 2.00488E+01-2.39487E-01-5.76625E-04-3.59467E-01-9.45461E-14-6.62389E-14
 -1       506 2.00245E+01-2.90298E-01-6.56100E-04-5.29135E-01 2.20158E-14-7.89616E-14
 -1       507 1.99703E+01-3.16489E-01-6.56110E-04-7.28471E-01 8.48685E-14 1.99811E-14
 -1       508 1.98719E+01-2.94903E-01-5.26965E-04-9.36434E-01 1.08709E-13 6.07876E-14
 -1       509 1.97168E+01-2.03070E-01-2.41386E-04-1.11527E+00 9.35389E-14 1.53319E-13
 -1       510 1.95026E+01-3.01736E-02 1.78414E-04-1.21246E+00 1.07580E-13 2.87277E-13
 -1       511 1.92460E+01 2.09677E-01 6.41060E-04-1.17191E+00 8.45185E-14 5.30982E-13
 -1       512 1.89880E+01 4.70003E-01 1.07492E-03-9.55479E-01-6.27585E-14 6.17279E-13
 -1       513 1.87871E+01 6.80634E-01 1.38829E-03-5.67356E-01 4.10768E-14 3.43759E-13
 -1       514 1.86981E+01 7.74104E-01 1.41272E-03-6.59655E-02 3.39279E-13 1.55138E-13
 -1       515 1.87465E+01 7.18973E-01 1.33132E-03 4.48894E-01 2.64491E-13 2.89027E-13
 -1       516 1.89145E+01 5.36761E-01 1.12075E-03 8.73303E-01 1.68332E-13 3.17783E-13
 -1       517 1.91505E+01 2.90369E-01 8.00800E-04 1.13832E+00 2.70716E-14 2.26581E-13
 -1       518 1.93935E+01 5.14822E-02 3.61655E-04 1.22946E+00 2.44455E-13 3.46492E-14
 -1       519 1.95983E+01-1.30757E-01-1.17699E-04 1.17796E+00 5.30716E-14 1.90773E-13
 -1       520 1.97456E+01-2.43281E-01-4.13662E-04 1.03563E+00 4.19586E-17 2.01046E-13
 -1       521 1.98372E+01-3.05258E-01-9.30894E-04 8.50783E-01-1.13215E-13 2.72351E-13
 -1       522 1.98965E+01-3.53474E-01-1.19978E-03 6.62962E-01-1.00909E-14 3.52931E-13
 -1       523 2.00313E+01 3.16885E-01 1.06283E-03 1.78939E-01 1.95324E-13-1.14404E-13
 -1       524 1.54939E+01-9.96248E-02 1.53562E-01 6.11465E+00-1.83263E-13-5.23803E-13
 -1       525 1.99298E+01 1.68081E-01 3.97666E-04-9.34786E-03 1.66957E-13-1.06856E-13
 -1       526 1.98693E+01 7.95959E-02 1.56570E-04-1.15660E-01 1.84861E-13-1.26756E-13
 -1       527 1.98408E+01 2.54500E-02 2.60489E-05-1.69525E-01 1.68507E-13-1.18852E-13
 -1       528 1.98339E+01-7.03344E-03-4.25582E-05-1.89862E-01 1.38661E-13-1.23213E-13
 -1       529 1.98408E+01-2.54537E-02-7.75862E-05-1.89419E-01 6.72507E-14-1.47515E-13
 -1       530 1.98553E+01-3.46377E-02-9.57980E-05-1.76844E-01 1.93945E-14-1.96494E-13
 -1       531 1.98726E+01-3.77837E-02-1.01863E-04-1.58963E-01 2.22762E-15-1.47410E-13
 -1       532 1.98920E+01-3.73094E-02-9.54037E-05-1.37667E-01 3.81130E-14-1.64316E-13
 -1       533 1.99109E+01-3.44597E-02-8.74406E-05-1.16294E-01-3.08035E-14-1.35714E-13
 -1       534 1.99285E+01-3.02558E-02-7.57852E-05-9.64438E-02 1.06932E-13-6.73042E-14
 -1       535 1.99444E+01-2.53438E-02-6.28640E-05-7.90705E-02 9.13210E-14-2.07272E-15
 -1       536 1.99585E+01-2.00771E-02-4.94317E-05-6.47277E-02 3.24414E-14-4.53793E-15
 -1       537 1.99711E+01-1.45633E-02-3.55084E-05-5.37625E-02 8.39869E-14 1.37871E-14
 -1       538 1.99827E+01-8.67668E-03-2.05249E-05-4.64802E-02 5.91949E-14-4.67018E-14
 -1       539 1.99936E+01-2.03359E-03-3.18501E-06-4.33026E-02 7.97263E-14-1.73336E-13
 -1       540 2.00044E+01 6.08287E-03 1.88440E-05-4.49443E-02 9.75302E-14-1.10075E-13
 -1       541 2.00156E+01 1.68675E-02 4.95988E-05-5.26327E-02 7.60551E-14-2.57530E-13
 -1       542 2.00274E+01 3.22382E-02 9.50900E-05-6.84119E-02 3.31434E-14-3.50599E-13
 -1       543 2.00398E+01 5.52930E-02 1.68690E-04-9.55873E-02-3.35402E-14-4.51533E-13
 -1       544 2.00510E+01 8.85274E-02 2.73840E-04-1.36535E-01 1.06157E-13-4.47167E-13
 -1       545 2.00594E+01 1.42336E-01 4.58639E-04-2.02794E-01-4.57464E-14-3.01179E-13
 -1       546 2.00573E+01 2.26531E-01 7.48544E-04-3.03883E-01-1.45230E-13-3.91816E-13
 -1       547 2.00308E+01 3.57241E-01 1.20400E-03-4.55385E-01-1.58573E-13-3.24336E-13
 -1       548 1.99528E+01 5.57082E-01 1.87658E-03-6.78160E-01-2.04733E-13-2.73932E-13
 -1       549 1.97736E+01 8.53992E-01 2.78410E-03-9.97791E-01 9.52842E-14 1.67883E-14
 -1       550 1.94072E+01 1.27281E+00 3.98774E-03-1.44162E+00 1.91669E-13-4.91473E-14
 -1       551 1.87172E+01 1.80720E+00 6.46806E-03-2.03315E+00 4.83306E-14-8.26934E-14
 -1       552 1.75168E+01 2.34493E+00 1.61464E-02-2.78923E+00 2.14326E-13-2.46810E-13
 -1       553 1.56116E+01 2.47430E+00 5.58143E-02-3.73389E+00 3.38630E-13-3.94218E-13
 -1       554 1.34282E+01 1.76009E+00 1.30321E-01-4.71011E+00 7.89022E-14-6.73184E-13
 -1       555 1.69977E+01 1.91615E+00 6.94169E-02 4.91458E+00 7.03456E-14-2.57863E-13
 -1       556 1.98700E+01 1.34818E+00 5.31106E-03 1.74430E+00 2.45702E-13-4.46435E-13
 -1       557 1.83659E+01 1.82346E+00-3.25568E-03-5.39097E-01 8.01225E-14-5.41146E-13
 -1       558 1.89170E+01 1.21539E+00-2.58890E-03-1.53068E+00-2.17926E-13-2.33765E-13
 -1       559 1.83954E+01 2.03295E+00-4.67436E-03 7.37511E-01-1.26336E-13-7.85782E-14
 -1       560 1.96825E+01 4.66298E-01-1.62401E-03-1.97233E+00-2.32243E-13 1.14096E-14
 -1       561 2.03420E+01-1.91387E-01-1.04192E-04-1.87318E+00 6.95091E-14 1.99730E-13
 -1       562 2.07327E+01-6.35133E-01 1.38181E-03-1.41328E+00 9.14058E-14 5.65546E-14
 -1       563 2.08466E+01-8.51329E-01 2.17112E-03-8.08278E-01-2.41790E-15-2.22750E-13
 -1       564 2.07608E+01-8.86977E-01 2.19168E-03-2.34707E-01-3.49757E-13-6.77756E-14
 -1       565 2.05580E+01-8.02440E-01 1.78384E-03 2.29866E-01-2.54230E-13-2.07791E-14
 -1       566 2.03019E+01-6.44587E-01 8.19560E-04 5.25310E-01-3.51943E-13-1.33131E-14
 -1       567 2.01005E+01-5.02047E-01-7.24480E-05 6.43492E-01-6.06216E-14-1.66249E-13
 -1       568 6.65790E+00-1.25501E+00 1.92784E-01 6.17438E+00 1.66450E-13-7.78960E-14
 -1       569 6.49988E+00-8.75876E-01 1.72903E-01-3.72631E+00-7.84095E-15-5.02570E-13
 -1       570 3.25009E+01 8.42540E+00-1.92343E-01 9.08490E-01 6.63219E-14-3.23866E-13
 -1       571 1.64357E+01-2.71140E+00 1.49487E-01-6.53308E+00 6.27137E-14-9.57442E-13
 -1       572 1.90760E+01 1.78748E+00 1.12686E-02 2.76458E+00 1.08997E-13 1.48914E-13
 -1       573 1.80583E+01 2.13767E+00 2.44439E-02 3.70579E+00 1.65922E-13-1.13491E-13
 -1       574 2.02923E+01 8.31066E-01 2.60317E-03 7.94808E-01 3.91659E-13-9.09584E-14
 -1       575 1.96775E+01 3.20167E+00-5.08661E-03-3.15526E-01 4.70353E-15-5.87216E-13
 -1       576 2.01519E+01 5.13672E-01 1.72031E-03 4.29694E-01 2.80371E-13-1.12733E-13
 -1       577 1.34428E+01-3.80933E+00 1.15297E-01 8.69386E+00-1.17267E-13-5.46507E-14
 -1       578 4.21181E+00-1.10498E-01 2.05792E-01 4.62052E-01 8.76105E-14-6.31786E-13
 -1       579 1.19008E+01-3.70345E+00 1.34965E-01-8.47474E+00 2.31370E-13-8.64517E-14
 -1       580 4.37994E+00 2.30507E-01 2.51153E-01 1.50786E+00 2.00038E-13-1.77386E-13
 -1       581 2.70975E+01-4.78652E+00 1.21024E-02-5.34988E+00 2.13808E-13 2.34188E-15
 -1       582 2.30435E+01-5.13285E+00 6.29746E-02 7.30488E+00-9.46812E-14-2.29133E-13
 -1       583 2.89940E+01-3.77318E+00-3.43681E-02 4.15406E+00-1.87749E-13-1.89848E-14
 -1       584 3.23217E+01 1.36215E-01-1.01301E-01 3.03964E-01-2.21760E-13-3.45002E-14
 -1       585 3.28365E+01 5.16385E+00-1.65606E-01-1.50410E+00-1.97703E-13-7.80556E-14
 -1       586 3.23429E+01 8.44161E+00-1.98758E-01-8.97852E-01-2.46331E-14-2.28113E-13
 -1       587 3.28870E+01 4.75261E+00-1.82972E-01 1.38834E+00 1.01516E-13-9.19542E-14
 -1       588 1.97338E+01-5.23345E+00 7.16452E-02-8.34130E+00 4.91052E-13 3.28089E-13
 -1       589 9.92913E+00-1.05210E+00 2.05170E-01 5.43740E+00-3.36044E-13 4.02595E-14
 -1       590 1.96435E+01-3.92521E+00 1.10903E-01 6.46913E+00-3.03660E-13-8.56239E-13
 -1       591 1.99729E+01 2.65109E+00-9.81590E-03-1.24052E+00-2.86676E-13-5.69732E-13
 -1       592 1.90781E+01 1.81962E+00 4.43786E-03 1.45869E+00 3.01955E-13 1.21248E-13
 -1       593 9.94092E+00-9.75147E-01 1.65084E-01-6.54910E+00 9.37653E-14-2.46358E-13
 -1       594 2.96056E+01-3.36438E+00-5.36892E-02-2.10765E+00-9.22591E-14-2.88249E-13
 -1       595 3.13582E+01 1.33560E+00-1.24389E-01 1.13218E+00-1.56195E-14-2.32425E-13
 -1       596 1.99553E+01 2.45613E+00-1.57973E-03 3.91817E-01 1.91324E-13-5.17081E-13
 -1       597 1.99238E+01 2.52976E+00-1.50939E-03 1.33442E-01 1.13084E-13-5.27746E-13
 -1       598 2.01181E+01 2.05629E+00-1.47540E-03 8.51412E-01 3.49704E-13-3.64331E-13
 -1       599 2.02337E+01 1.70058E+00 3.63054E-05 1.00138E+00 4.03227E-13-2.87322E-13
 -1       600 2.03102E+01 1.26274E+00 8.83936E-04 9.42726E-01 3.95846E-13-2.06804E-13
 -1       601 2.02819E+01 1.68043E+00 7.77962E-05-1.14150E+00-3.32696E-13-4.11411E-13
 -1       602 2.00542E+01 1.03843E-01 1.00765E-05-1.15409E-01 1.51239E-13-2.12505E-13
 -1       603 2.02403E+01 6.76394E-01 5.65724E-04-3.94327E-01-2.31023E-13-3.34282E-13
 -1       604 2.01680E+01 3.93242E-01 2.07694E-04-1.39034E-01-1.97286E-13-3.02794E-13
 -1       605 2.01025E+01 2.13724E-01 6.81006E-05 2.34686E-02-1.58364E-13-2.45894E-13
 -1       606 2.00521E+01 9.93515E-02 9.09557E-06 1.18983E-01-1.20509E-13-2.62314E-13
 -1       607 2.00169E+01 2.75323E-02-1.46188E-05 1.68178E-01-1.13931E-13-2.13587E-13
 -1       608 1.99943E+01-1.59549E-02-2.56886E-05 1.86618E-01-7.57896E-14-1.61543E-13
 -1       609 1.99810E+01-4.04237E-02-3.10324E-05 1.85593E-01-9.43489E-14-9.34855E-14
 -1       610 1.99744E+01-5.21858E-02-3.25656E-05 1.73095E-01-1.06041E-13-5.27099E-14
 -1       611 1.99722E+01-5.56107E-02-3.14669E-05 1.54653E-01-1.18167E-13-1.08328E-13
 -1       612 1.99728E+01-5.37472E-02-2.86913E-05 1.33986E-01-1.96151E-14-2.09270E-13
 -1       613 1.99750E+01-4.87147E-02-2.49893E-05 1.13510E-01-2.65509E-14-1.88894E-13
 -1       614 1.99781E+01-4.19729E-02-2.08975E-05 9.47115E-02-7.82022E-14-2.59022E-13
 -1       615 1.99816E+01-3.45216E-02-1.67806E-05 7.84298E-02-2.12462E-13-2.23248E-13
 -1       616 1.99852E+01-2.70614E-02-1.28915E-05 6.50493E-02-1.75123E-13-1.72309E-13
 -1       617 1.99888E+01-2.01347E-02-9.43434E-06 5.46300E-02-1.01111E-13-1.32493E-13
 -1       618 1.99923E+01-1.42584E-02-6.62863E-06 4.69738E-02 1.00998E-14-1.62256E-13
 -1       619 1.99961E+01-1.00600E-02-4.77801E-06 4.16347E-02 3.22397E-14-2.51069E-13
 -1       620 2.00005E+01-8.42017E-03-4.34426E-06 3.78700E-02 1.00131E-13-2.47551E-13
 -1       621 2.00063E+01-1.06211E-02-6.02321E-06 3.45298E-02 1.07412E-13-3.54527E-13
 -1       622 2.00144E+01-1.84820E-02-1.08136E-05 2.98803E-02-1.41396E-14-3.40150E-13
 -1       623 2.00266E+01-3.44389E-02-2.00525E-05 2.13627E-02-1.84046E-13-2.23110E-13
 -1       624 2.00450E+01-6.14884E-02-3.53617E-05 5.30162E-03-1.32777E-13-1.75052E-13
 -1       625 2.00721E+01-1.02859E-01-5.84316E-05-2.33902E-02 1.64962E-14-5.44975E-14
 -1       626 2.01111E+01-1.61218E-01-9.04936E-05-7.14050E-02 3.30799E-14-1.10185E-13
 -1       627 2.01643E+01-2.37186E-01-1.30955E-04-1.46927E-01-4.84296E-14 1.54156E-14
 -1       628 2.02324E+01-3.26995E-01-1.77783E-04-2.58850E-01 7.35531E-15 1.82169E-13
 -1       629 2.03117E+01-4.19397E-01-2.21102E-04-4.14790E-01-4.14344E-14 2.67072E-13
 -1       630 2.03919E+01-4.92600E-01-2.44387E-04-6.17209E-01-4.71704E-14 1.77609E-13
 -1       631 2.04537E+01-5.13176E-01-2.25512E-04-8.57278E-01 2.28738E-13 1.36566E-13
 -1       632 2.04701E+01-4.40171E-01-1.22778E-04-1.10723E+00 7.90042E-14 2.63482E-13
 -1       633 2.04128E+01-2.37986E-01 6.40588E-05-1.31452E+00 4.76289E-14 1.61750E-13
 -1       634 2.02675E+01 1.01423E-01 2.75174E-04-1.40434E+00 1.14587E-13 1.24671E-15
 -1       635 2.00519E+01 5.33725E-01 3.78816E-04-1.29882E+00-5.53785E-14-4.42459E-14
 -1       636 1.98247E+01 9.55033E-01 4.51050E-04-9.55567E-01-7.81250E-14-2.69308E-14
 -1       637 1.96671E+01 1.23335E+00 5.75842E-04-4.05201E-01 2.44168E-14 2.53446E-15
 -1       638 1.96438E+01 1.26650E+00 1.50243E-04 2.39433E-01 2.46884E-13-2.74972E-13
 -1       639 1.97606E+01 1.04551E+00 1.84894E-04 8.23910E-01 3.56194E-14-5.27606E-13
 -1       640 1.99610E+01 6.55535E-01 4.48342E-04 1.22127E+00 1.35199E-13-4.77410E-13
 -1       641 2.01598E+01 2.29783E-01 3.51935E-04 1.38375E+00 1.81099E-13-1.81590E-13
 -1       642 2.02897E+01-1.20441E-01 5.58876E-05 1.34316E+00 2.31917E-13-2.56859E-13
 -1       643 2.03247E+01-3.44944E-01-2.70600E-04 1.17503E+00-1.74244E-14-1.55487E-13
 -1       644 2.02801E+01-4.56561E-01-5.73158E-04 9.56902E-01-1.69311E-14 3.92902E-14
 -1       645 2.01873E+01-4.80476E-01-1.90075E-05 7.95795E-01-1.25516E-13 6.73519E-14
 -1       646 9.43942E+00 1.67412E+00 1.64676E-01 3.19885E+00-5.99364E-14-3.07442E-13
 -1       647 2.01722E+01 4.04494E-01-5.38094E-05 1.50081E-01 2.18710E-13-2.35125E-13
 -1       648 2.00184E+01 3.02564E-02-1.22075E-05-1.66482E-01 1.28335E-13-1.67397E-13
 -1       649 1.99952E+01-1.44509E-02-2.28776E-05-1.86112E-01 1.01036E-13-1.13811E-13
 -1       650 1.99816E+01-3.97518E-02-2.94019E-05-1.85785E-01 7.48097E-14-7.03592E-14
 -1       651 1.99750E+01-5.17488E-02-3.62087E-05-1.74426E-01-3.22341E-14-6.27774E-14
 -1       652 1.99727E+01-5.59764E-02-3.08843E-05-1.56305E-01-5.46625E-14-4.93684E-14
 -1       653 1.99733E+01-5.46467E-02-2.98308E-05-1.35633E-01 3.01786E-14-8.23341E-15
 -1       654 1.99758E+01-4.99314E-02-2.62020E-05-1.14960E-01 1.24745E-14-1.39548E-13
 -1       655 1.99793E+01-4.32656E-02-2.21396E-05-9.59025E-02 3.82255E-14-1.10732E-13
 -1       656 1.99834E+01-3.55305E-02-1.79026E-05-7.94485E-02-5.47474E-15 2.65831E-17
 -1       657 1.99878E+01-2.71653E-02-1.36186E-05-6.61992E-02 1.24071E-13-3.45640E-14
 -1       658 1.99922E+01-1.82263E-02-9.22214E-06-5.65617E-02 1.14388E-13-6.09006E-14
 -1       659 1.99965E+01-8.39343E-03-4.48228E-06-5.09100E-02 1.50981E-13-1.70837E-14
 -1       660 2.00004E+01 3.08420E-03 1.04161E-06-4.97337E-02 8.21251E-14-1.33111E-13
 -1       661 2.00034E+01 1.75192E-02 8.17126E-06-5.37886E-02 1.95142E-13-1.98442E-13
 -1       662 2.00044E+01 3.70202E-02 1.75810E-05-6.42670E-02 1.24266E-13-2.48918E-13
 -1       663 2.00013E+01 6.49247E-02 3.67368E-05-8.29749E-02 1.04624E-13-3.31164E-13
 -1       664 1.99912E+01 1.03677E-01 5.14604E-05-1.10757E-01-9.00224E-15-2.96965E-13
 -1       665 1.99666E+01 1.64419E-01 9.14388E-05-1.53920E-01-2.45102E-14-1.30668E-13
 -1       666 1.99158E+01 2.56573E-01 1.48267E-04-2.15851E-01-7.41416E-14-1.92554E-13
 -1       667 1.98183E+01 3.95548E-01 2.35286E-04-3.01607E-01-1.61983E-13-2.72407E-13
 -1       668 1.96393E+01 6.02214E-01 3.59699E-04-4.15504E-01-1.78421E-13-2.36228E-13
 -1       669 1.93216E+01 9.01857E-01 5.16401E-04-5.58228E-01-1.37721E-13-3.47350E-13
 -1       670 1.87730E+01 1.31839E+00 7.65031E-04-7.21690E-01 6.69265E-14-1.88762E-13
 -1       671 1.78512E+01 1.85734E+00 1.83260E-03-8.82261E-01 1.37115E-13 1.20181E-13
 -1       672 1.63445E+01 2.46654E+00 8.01823E-03-9.97538E-01 2.58824E-13-9.07408E-14
 -1       673 1.39520E+01 2.91687E+00 3.32426E-02-1.00298E+00 2.91611E-13-8.63528E-14
 -1       674 1.11256E+01 2.84848E+00 1.02380E-01-9.58876E-01 4.30562E-13-1.97817E-13
 -1       675 2.02269E+01-4.45773E-01 4.76588E-05-2.59058E+00 6.55573E-14 2.88799E-13
 -1       676 2.02919E+01 1.07793E+00-1.42169E-04-7.23571E-01-2.88332E-13-3.67717E-13
 -1       677 1.22230E+01-1.27448E+00 1.36383E-01 7.14228E+00 1.47642E-13-1.32235E-13
 -1       678 1.75980E+01 1.44239E+00 3.13159E-03-1.77231E+00-1.97810E-13-4.59383E-13
 -1       679 1.69314E+01 2.17533E+00 1.16615E-03-2.20200E-01-2.27336E-13-3.63446E-13
 -1       680 1.89263E+01 4.31542E-01 1.42029E-03-2.59190E+00 5.43748E-14-1.65363E-13
 -1       681 2.10949E+01-9.80521E-01 5.33544E-04-2.02689E+00 8.81456E-15 1.64295E-13
 -1       682 2.14449E+01-1.17081E+00 9.52986E-04-1.23710E+00 8.02580E-14-1.30290E-13
 -1       683 2.13970E+01-1.12568E+00 9.82318E-04-4.79088E-01 1.52025E-13-4.81244E-13
 -1       684 2.11111E+01-9.55706E-01 1.09168E-03 1.41927E-01-3.91584E-14-7.60878E-14
 -1       685 2.07143E+01-7.40715E-01 5.73613E-04 5.73578E-01-1.80583E-13-2.60263E-14
 -1       686 1.37872E+01 2.80649E+00 4.81173E-02 2.23503E+00 2.56774E-14-4.19432E-13
 -1       687 7.21573E+00 1.29675E+00 2.04283E-01-1.96238E+00-6.28083E-14-7.39263E-13
 -1       688 2.00192E+01 2.30299E+00-1.62529E-03 6.36129E-01 2.82022E-13-4.51263E-13
 -1       689 1.63942E+01 2.55202E+00 1.23494E-02 1.87643E+00 1.16038E-13-3.77890E-13
 -1       690 1.96587E+01-3.82420E+00 7.51186E-02 7.27022E+00 1.40353E-13-4.49918E-14
 -1       691 2.84114E+01 7.70166E+00-1.59448E-01 3.62991E-02 1.05783E-13 2.16949E-15
 -1       692 2.00162E+01 2.30841E+00-1.57024E-03-6.31007E-01-1.45611E-13-5.16561E-13
 -1       693 2.90733E+01 5.68703E+00-1.63058E-01 1.90438E+00 2.99760E-15-5.11986E-14
 -1       694 2.37486E+01-4.81964E+00 4.98380E-02-6.09144E+00 2.16559E-13 4.25660E-13
 -1       695 2.65236E+01-4.60676E+00 1.35323E-02 4.26836E+00 1.35274E-14 2.84064E-13
 -1       696 2.94526E+01-2.58851E+00-6.85372E-02 8.62627E-01-2.34274E-14 3.45418E-14
 -1       697 3.02004E+01 1.81087E+00-1.14419E-01-1.77407E+00-1.13229E-13 1.19821E-13
 -1       698 8.06561E+00 1.30872E+00 1.63121E-01 3.49935E+00 2.55251E-13-1.01620E-13
 -1       699 2.01053E+01 2.20857E-01 6.05993E-05-1.70400E-02 1.87745E-13-2.45723E-13
 -1       700 2.89670E+01 5.91310E+00-1.44599E-01-1.91511E+00-9.57706E-14-6.47780E-14
 -1       701 1.74672E+01-3.65257E+00 9.59276E-02-7.80607E+00 1.82077E-14 2.47365E-13
 -1       702 7.93261E+00 2.21130E+00 1.88664E-01-3.31022E-02 2.61387E-13-2.31017E-13
 -1       703 2.02554E+01 8.27601E-01 4.58951E-04 5.68935E-01 3.07339E-13-1.97092E-13
 -1       704 1.99235E+01 2.53043E+00-1.50806E-03-1.28597E-01 2.28777E-14-5.36722E-13
 -1       705 1.99540E+01 2.45873E+00-1.55730E-03-3.86189E-01-5.40286E-14-4.89014E-13
 -1       706 2.01181E+01 2.06557E+00-1.17297E-03-8.55379E-01-2.20772E-13-5.33920E-13
 -1       707 1.75812E+01 2.21493E+00 5.27759E-03 1.12325E+00-9.18138E-14-5.45504E-13
 -1       708 1.01254E+01 1.08057E+00 1.35792E-01-4.07254E+00-2.85969E-14-4.00693E-13
 -1       709 1.47786E+01-1.52863E+00 1.12642E-01-6.91354E+00-7.49054E-15 3.48589E-13
 -1       710 2.65791E+01-4.43986E+00-4.22435E-03-3.63251E+00 2.79386E-14-2.33411E-13
 -1       711 2.95530E+01-1.54384E+00-6.60415E-02 2.13259E-01-1.24810E-13-3.19762E-13
 -1       712 2.87725E+01 3.17874E+00-1.04843E-01 2.15152E+00-9.39908E-14-1.36172E-13
 -1       713 2.02115E+01 5.80442E-01-3.61477E-04 3.30981E-01 2.15823E-13-1.92495E-13
 -1       714 2.02854E+01 1.15327E+00 5.97447E-04 6.59320E-01 3.18521E-13-2.64918E-13
 -1       715 2.71569E+01 2.89500E+00-6.79362E-02-2.30762E+00-2.28862E-14 1.21889E-13
 -1       716 2.01431E+01 2.51278E-02-3.42259E-06-1.53400E-01 5.10714E-14-1.52823E-13
 -1       717 1.42907E+01 2.61026E+00 3.32090E-02-2.29590E-01-4.08990E-14-6.46819E-13
 -1       718 2.02632E+01 4.46575E-01 9.76743E-05 1.00900E-01 1.79933E-13-2.71754E-13
 -1       719 2.02611E+01 4.34731E-01-4.44683E-05-9.29327E-02-1.27176E-13-3.32810E-13
 -1       720 2.02208E+01 2.35888E-01-1.52137E-05 3.72175E-02-1.49143E-13-2.63733E-13
 -1       721 2.01791E+01 1.05262E-01-1.28560E-05 1.14804E-01-1.13201E-13-2.75800E-13
 -1       722 2.01412E+01 2.19872E-02-1.10226E-05 1.54727E-01-3.03510E-14-2.62550E-13
 -1       723 2.01089E+01-2.85261E-02-9.67196E-06 1.68991E-01-4.50412E-14-2.31123E-13
 -1       724 2.00824E+01-5.65334E-02-8.94006E-06 1.66814E-01-7.36696E-14-1.81453E-13
 -1       725 2.00612E+01-6.93330E-02-8.27426E-06 1.54936E-01-1.25976E-13-1.17726E-13
 -1       726 2.00445E+01-7.21259E-02-7.44459E-06 1.38104E-01-8.38702E-14-3.41332E-14
 -1       727 2.00316E+01-6.85971E-02-6.46586E-06 1.19546E-01-5.87079E-14-1.54757E-13
 -1       728 2.00217E+01-6.13270E-02-5.42067E-06 1.01369E-01-1.64708E-13-2.56833E-13
 -1       729 2.00143E+01-5.21000E-02-4.38073E-06 8.48745E-02-1.22083E-13-3.17978E-13
 -1       730 2.00088E+01-4.21489E-02-3.39464E-06 7.08001E-02-1.37998E-13-2.15305E-13
 -1       731 2.00047E+01-3.23613E-02-2.49341E-06 5.94951E-02-1.23278E-13-1.49731E-13
 -1       732 2.00019E+01-2.34654E-02-1.69877E-06 5.10347E-02-9.19840E-14-1.24695E-13
 -1       733 2.00003E+01-1.62113E-02-1.04112E-06 4.52834E-02 4.58003E-16-1.11240E-13
 -1       734 2.00003E+01-1.15577E-02-5.79874E-07 4.19063E-02 3.17950E-14-1.44238E-13
 -1       735 2.00024E+01-1.08721E-02-4.22956E-07 4.03265E-02 5.03579E-14-1.26537E-13
 -1       736 2.00081E+01-1.61347E-02-7.57483E-07 3.96175E-02 7.08343E-14-2.02703E-13
 -1       737 2.00195E+01-3.01205E-02-1.89909E-06 3.83186E-02-3.42221E-14-2.07789E-13
 -1       738 2.00401E+01-5.64925E-02-4.34734E-06 3.41509E-02-1.32523E-13-1.98733E-14
 -1       739 2.00743E+01-9.96802E-02-8.87226E-06 2.36218E-02-6.85839E-14-3.24274E-14
 -1       740 2.01284E+01-1.64338E-01-1.65648E-05 1.52060E-03 7.39285E-14-3.89499E-15
 -1       741 2.02095E+01-2.54079E-01-2.86769E-05-3.96237E-02 1.12919E-13 1.47866E-13
 -1       742 2.03243E+01-3.69112E-01-4.46637E-05-1.09909E-01-1.59505E-14 2.51711E-13
 -1       743 2.04772E+01-5.02481E-01-7.10582E-05-2.21754E-01 1.56358E-14 3.37667E-13
 -1       744 2.06653E+01-6.34981E-01-9.94336E-05-3.87953E-01-1.52381E-13 3.42242E-13
 -1       745 2.08740E+01-7.30079E-01-1.18487E-04-6.16618E-01 1.26292E-13 3.40168E-13
 -1       746 2.10711E+01-7.32202E-01-1.23862E-04-9.01558E-01 4.72462E-14 2.02735E-13
 -1       747 2.12088E+01-5.74754E-01-1.41477E-05-1.20848E+00 3.15479E-14 3.74964E-14
 -1       748 2.12347E+01-2.04789E-01 1.57213E-04-1.46307E+00-1.30632E-13 3.95303E-14
 -1       749 2.11204E+01 3.74881E-01 2.70722E-04-1.55236E+00-4.74330E-14-7.48947E-15
 -1       750 2.08983E+01 1.05814E+00-6.12741E-05-1.36185E+00-2.22953E-13-1.58762E-13
 -1       751 2.06671E+01 1.64404E+00-6.07279E-05-8.51826E-01 1.33381E-14-1.10297E-13
 -1       752 2.05528E+01 1.90925E+00 7.65181E-04-1.06297E-01-2.50837E-14-1.75642E-13
 -1       753 2.06136E+01 1.74627E+00-7.99752E-04 6.61058E-01 2.03898E-14-3.08309E-13
 -1       754 2.08141E+01 1.22062E+00 3.22261E-04 1.23485E+00 2.45009E-13-1.74929E-13
 -1       755 2.10225E+01 5.54891E-01 7.16004E-04 1.49258E+00 3.51221E-13-2.32681E-13
 -1       756 2.11285E+01-3.97170E-02-9.34070E-05 1.45609E+00 3.04539E-13-3.07171E-13
 -1       757 2.10826E+01-4.38996E-01-1.48550E-04 1.23413E+00 1.48077E-13-9.00828E-14
 -1       758 2.09082E+01-6.35279E-01-4.00925E-05 9.48432E-01 1.26649E-13 8.00862E-14
 -1       759 2.01106E+01-2.68401E-02-1.52330E-05-1.68638E-01 4.32577E-14-1.39837E-13
 -1       760 1.04323E+01 2.39153E+00 1.00758E-01 1.82476E+00 4.45843E-13 4.70457E-15
 -1       761 2.01812E+01 1.10422E-01-3.41413E-06-1.11931E-01 1.06215E-13-1.98782E-13
 -1       762 2.00851E+01-5.47723E-02-1.01331E-05-1.67448E-01 3.83883E-14-8.92051E-14
 -1       763 2.00636E+01-6.89830E-02-4.33529E-06-1.56284E-01-5.70637E-14-8.05300E-14
 -1       764 2.00468E+01-7.27124E-02-5.38863E-06-1.39759E-01-1.04809E-14-1.50549E-13
 -1       765 2.00339E+01-6.97745E-02-4.78828E-06-1.21255E-01 5.12102E-14-1.68558E-13
 -1       766 2.00243E+01-6.27693E-02-4.10942E-06-1.03004E-01-1.11613E-15-1.19466E-13
 -1       767 2.00172E+01-5.34009E-02-3.39132E-06-8.64239E-02 3.71623E-14-6.29308E-14
 -1       768 2.00122E+01-4.26771E-02-2.66760E-06-7.23868E-02 8.06886E-14-1.62114E-13
 -1       769 2.00085E+01-3.10378E-02-1.95990E-06-6.14227E-02 8.03676E-14-1.12971E-13
 -1       770 2.00056E+01-1.84199E-02-1.27795E-06-5.38755E-02 1.18579E-13-9.16819E-14
 -1       771 2.00028E+01-4.25504E-03-6.38640E-07-5.00219E-02 1.99144E-13-1.66470E-13
 -1       772 1.99988E+01 1.26075E-02-3.87241E-08-5.01579E-02 1.51850E-13-2.58635E-13
 -1       773 1.99921E+01 3.40685E-02 3.24667E-08-5.46524E-02 1.59824E-13-2.47257E-13
 -1       774 1.99799E+01 6.31042E-02 5.03163E-06-6.39239E-02 1.44845E-13-2.09763E-13
 -1       775 1.99591E+01 1.01601E-01-1.86811E-06-7.75651E-02 1.32956E-14-1.53389E-13
 -1       776 1.99207E+01 1.59583E-01 1.62243E-06-9.71260E-02-1.31379E-14-1.82873E-13
 -1       777 1.98535E+01 2.44333E-01 2.29588E-06-1.21253E-01-3.30262E-14-3.15825E-13
 -1       778 1.97387E+01 3.67750E-01 7.22439E-07-1.47111E-01-6.64437E-15-3.26183E-13
 -1       779 1.95464E+01 5.44972E-01-5.39957E-06-1.67442E-01-2.20868E-13-4.08777E-13
 -1       780 1.92309E+01 7.92859E-01-2.37253E-05-1.66588E-01-7.86221E-14-3.09444E-13
 -1       781 1.87232E+01 1.12504E+00-3.79401E-05-1.14151E-01-1.03590E-13-2.17946E-13
 -1       782 1.79234E+01 1.54004E+00 2.93707E-04 4.38044E-02 1.19658E-15-2.69133E-13
 -1       783 1.66895E+01 1.99710E+00 2.79118E-03 3.93103E-01 1.51292E-13-1.35758E-13
 -1       784 1.48353E+01 2.35500E+00 1.86598E-02 1.06838E+00 3.06968E-13-8.42256E-14
 -1       785 1.29706E+01 2.54564E+00 5.22626E-02 1.45581E+00 3.88721E-13-1.39277E-13
 -1       786 2.14111E+01-1.49643E+00 2.06940E-03-2.79294E+00-1.46148E-13 8.19233E-14
 -1       787 2.21575E+01-1.67740E+00 9.80745E-04-1.71968E+00-3.92698E-15 1.11293E-13
 -1       788 1.12756E+01 2.57109E+00 1.05113E-01-9.93321E-01 5.56517E-14-7.93702E-13
 -1       789 1.97817E+01-7.66852E-01-3.74726E-04-3.52748E+00 1.01288E-13 1.38561E-15
 -1       790 2.22083E+01-1.51469E+00 1.50726E-04-7.18730E-01 5.79692E-14-2.33771E-13
 -1       791 2.18491E+01-1.20493E+00-6.73229E-04 7.79593E-02 8.18306E-14-3.13603E-13
 -1       792 1.67317E+01-1.54061E+00 7.25415E-02 6.28934E+00 3.68618E-13 9.28441E-14
 -1       793 2.62965E+01 5.87744E+00-9.44672E-02 1.12715E+00 1.41758E-13-9.76528E-14
 -1       794 2.02230E+01 2.43849E-01 8.36628E-06-3.21163E-02 1.41699E-13-2.21057E-13
 -1       795 2.08135E+01-3.24912E+00 6.01810E-02-6.05108E+00 1.33156E-13 1.29006E-13
 -1       796 1.56149E+01 1.86068E+00 1.66819E-02-1.89942E+00-1.26343E-13-4.02788E-13
 -1       797 2.02885E+01 7.33303E-01-1.26261E-05-2.91271E-01-1.83686E-13-3.65987E-13
 -1       798 2.01344E+01 1.89450E+00-3.18623E-04 1.98045E-01 1.32848E-13-4.44764E-13
 -1       799 1.75624E+01 5.39005E-01 1.65804E-02-3.37493E+00 2.78147E-13-3.17099E-14
 -1       800 1.23343E+01 6.61617E-01 9.86285E-02 5.04709E+00 3.40030E-13-2.25001E-13
 -1       801 2.80037E+01-7.60833E-01-4.68220E-02-1.21856E+00-9.83840E-14-5.43714E-14
 -1       802 2.60588E+01 5.93228E+00-7.80259E-02-1.10010E+00 5.47826E-14-1.37966E-13
 -1       803 2.70293E+01-3.49658E+00-1.74261E-02 1.68588E+00 1.90262E-14 1.33591E-13
 -1       804 2.34077E+01-3.83146E+00 6.67283E-03 4.61239E+00-1.53063E-14 1.23418E-13
 -1       805 2.01229E+01 1.93187E+00-3.44417E-04 1.80025E-03 5.37749E-14-4.61187E-13
 -1       806 2.02928E+01 7.45214E-01 3.23977E-04 3.03389E-01 2.26253E-13-2.94777E-13
 -1       807 2.02875E+01 1.12670E+00 2.46739E-04-5.36071E-01-2.34361E-13-3.99586E-13
 -1       808 2.02129E+01 1.59455E+00-9.52887E-04-5.27850E-01-1.63971E-13-4.77198E-13
 -1       809 2.63342E+01 4.37012E+00-6.53456E-02 1.85820E+00 1.42341E-13-4.33082E-14
 -1       810 2.06733E+01-2.48131E+00 1.84291E-02 4.95209E+00 1.48617E-13-2.27540E-13
 -1       811 2.12882E+01-8.72210E-01 6.69193E-05 6.13602E-01 5.81509E-14-8.97511E-15
 -1       812 2.35117E+01-3.83829E+00 1.53384E-02-4.61406E+00 3.89092E-13 5.81978E-15
 -1       813 2.75991E+01-3.33882E+00-2.36431E-02-1.38603E+00-9.70909E-14-4.43083E-13
 -1       814 2.81038E+01 5.70143E-01-5.72368E-02 1.72592E+00 3.60077E-14-2.61163E-13
 -1       815 2.01666E+01 1.78340E+00-1.77468E-04 3.79964E-01 2.04419E-13-4.23804E-13
 -1       816 2.01647E+01 1.78572E+00-4.93694E-04-3.74856E-01-9.38507E-14-4.38267E-13
 -1       817 2.02237E+01 1.58173E+00-1.49515E-04 5.35689E-01 2.76072E-13-3.44946E-13
 -1       818 2.01328E+01 1.89582E+00-5.97163E-04-1.93404E-01-2.60449E-14-4.49701E-13
 -1       819 2.32395E+01-1.99610E+00 1.13976E-03-8.99402E-01 5.04199E-14-1.86144E-13
 -1       820 2.03367E+01 7.41510E-01 1.01188E-03 1.97764E-01 1.82604E-13-2.71481E-13
 -1       821 2.01899E+01-4.23219E-02 9.30534E-06-1.41372E-01 3.02600E-14-1.40273E-13
 -1       822 2.03019E+01 2.29413E-01-4.13211E-05 4.86979E-02-1.04774E-13-2.93790E-13
 -1       823 2.02653E+01 9.37952E-02-1.07374E-05 1.04820E-01-6.51692E-14-2.22415E-13
 -1       824 2.02255E+01 7.01879E-03-6.79945E-06 1.32788E-01-4.26058E-14-2.63064E-13
 -1       825 2.01868E+01-4.51037E-02-4.11124E-06 1.41471E-01-3.65537E-14-3.42796E-13
 -1       826 2.01515E+01-7.31178E-02-2.82634E-06 1.37805E-01-4.22456E-14-2.91603E-13
 -1       827 2.01204E+01-8.47735E-02-2.11111E-06 1.26946E-01-7.96873E-14-2.34338E-13
 -1       828 2.00938E+01-8.56954E-02-1.62609E-06 1.12562E-01-1.00640E-13-2.52205E-13
 -1       829 2.00716E+01-7.99010E-02-1.26194E-06 9.71576E-02-1.39291E-13-1.87128E-13
 -1       830 2.00533E+01-7.02092E-02-9.72494E-07 8.23687E-02-1.78626E-13-2.15511E-13
 -1       831 2.00384E+01-5.85696E-02-7.37166E-07 6.92164E-02-1.11439E-13-3.18782E-13
 -1       832 2.00264E+01-4.63369E-02-5.44876E-07 5.83007E-02-1.00727E-13-3.33114E-13
 -1       833 2.00168E+01-3.45098E-02-3.79201E-07 4.99471E-02-3.87776E-14-2.63646E-13
 -1       834 2.00093E+01-2.39538E-02-2.12272E-07 4.43125E-02 1.04002E-14-1.38078E-13
 -1       835 2.00039E+01-1.56222E-02-2.64270E-08 4.14526E-02-1.62714E-14-1.27881E-13
 -1       836 2.00010E+01-1.07911E-02 1.86019E-07 4.13512E-02 5.72775E-14-1.64800E-13
 -1       837 2.00019E+01-1.13150E-02 4.31884E-07 4.39043E-02 4.82548E-14-1.50230E-13
 -1       838 2.00086E+01-1.98955E-02 6.99587E-07 4.88369E-02 4.04450E-14-1.26342E-13
 -1       839 2.00245E+01-4.03273E-02 9.36040E-07 5.55202E-02 1.37327E-14-2.75428E-13
 -1       840 2.00551E+01-7.76408E-02 9.16670E-07 6.26274E-02-8.87474E-15-2.14626E-13
 -1       841 2.01079E+01-1.37972E-01 1.06914E-07 6.75520E-02-4.64438E-14-5.26736E-14
 -1       842 2.01932E+01-2.27865E-01-2.51677E-06 6.55061E-02 1.73151E-13-1.10891E-13
 -1       843 2.03231E+01-3.52562E-01-7.83320E-06 4.82768E-02 1.36455E-13-1.45327E-13
 -1       844 2.05106E+01-5.12618E-01-1.00893E-05 2.81329E-03 1.02647E-13 2.25015E-14
 -1       845 2.07650E+01-6.98214E-01-4.50373E-05-8.96687E-02-2.64444E-14 7.20785E-14
 -1       846 2.10859E+01-8.80754E-01-8.69153E-05-2.52338E-01-2.79675E-14 1.39168E-13
 -1       847 2.14529E+01-1.00401E+00-1.26723E-04-5.06195E-01-7.43411E-14-1.59511E-13
 -1       848 2.18153E+01-9.78988E-01-2.92656E-04-8.54095E-01 1.17367E-14-8.68176E-14
 -1       849 2.20934E+01-6.99975E-01-2.82407E-04-1.25355E+00 2.50760E-14-7.15630E-14
 -1       850 2.21947E+01-8.23544E-02-7.46278E-05-1.59377E+00 8.59572E-15 6.46113E-14
 -1       851 2.20806E+01 8.34987E-01 1.94586E-03-1.68988E+00-2.10797E-13-1.20845E-13
 -1       852 2.17970E+01 1.84631E+00-4.23533E-03-1.37246E+00-1.92155E-13 3.90231E-15
 -1       853 2.15676E+01 2.55573E+00-7.34977E-05-6.15113E-01 3.18643E-14-2.68508E-13
 -1       854 2.15239E+01 2.60951E+00 2.26695E-03 3.61735E-01 2.65456E-15-2.73226E-13
 -1       855 2.17099E+01 2.02955E+00 3.19704E-03 1.18009E+00 1.77728E-14-1.35367E-13
 -1       856 2.19938E+01 1.07704E+00 4.79351E-03 1.59031E+00 3.97618E-13-2.23473E-13
 -1       857 2.21208E+01 1.34478E-01-1.09518E-03 1.56457E+00 3.33209E-13-2.99691E-14
 -1       858 2.20102E+01-5.22696E-01-3.39058E-03 1.25721E+00 1.76463E-13-7.78581E-14
 -1       859 2.16984E+01-8.09615E-01-7.94768E-04 9.23714E-01 2.84038E-13-1.59614E-13
 -1       860 2.01545E+01-7.20298E-02-5.75158E-07-1.38448E-01 3.10063E-15-1.13343E-13
 -1       861 2.02674E+01 9.91657E-02-2.41540E-06-1.02789E-01 5.83608E-14-1.83441E-13
 -1       862 2.01233E+01-8.48023E-02-7.03175E-07-1.28028E-01 7.52734E-15-9.56736E-14
 -1       863 2.00967E+01-8.64620E-02-2.10515E-07-1.13876E-01 4.08024E-14-1.13524E-13
 -1       864 2.00746E+01-8.10694E-02 1.19407E-07-9.85812E-02 2.26849E-14-9.61576E-14
 -1       865 2.00565E+01-7.14013E-02 3.35523E-07-8.38471E-02-6.62092E-15-1.63403E-13
 -1       866 2.00419E+01-5.92415E-02 4.69874E-07-7.07436E-02 9.93026E-14-1.72560E-13
 -1       867 2.00300E+01-4.55911E-02 5.45424E-07-5.99021E-02 7.10507E-14-2.57757E-13
 -1       868 2.00200E+01-3.08072E-02 5.57828E-07-5.16575E-02 1.02563E-13-3.09453E-13
 -1       869 2.00109E+01-1.46713E-02 4.65634E-07-4.61388E-02 1.46331E-13-2.23029E-13
 -1       870 2.00014E+01 3.61223E-03 1.79961E-07-4.33075E-02 1.97937E-13-1.69313E-13
 -1       871 1.99896E+01 2.54901E-02-6.72985E-07-4.29337E-02 1.76713E-13-1.68644E-13
 -1       872 1.99728E+01 5.32405E-02 1.71411E-06-4.44515E-02 8.30520E-14-1.67279E-13
 -1       873 1.99486E+01 8.79814E-02-6.66814E-06-4.66924E-02 8.92094E-14-1.85161E-13
 -1       874 1.99086E+01 1.37679E-01-7.75927E-06-4.78707E-02-4.04775E-15-2.32698E-13
 -1       875 1.98444E+01 2.06890E-01-1.29385E-05-4.38826E-02 1.05379E-14-1.07303E-13
 -1       876 1.97422E+01 3.03136E-01-2.30923E-05-2.75041E-02 8.64199E-14-1.72585E-13
 -1       877 1.95814E+01 4.34885E-01-3.86772E-05 1.42052E-02-7.73102E-14-1.84154E-13
 -1       878 1.93334E+01 6.09470E-01-6.03067E-05 1.03617E-01-1.93428E-13-2.48276E-13
 -1       879 1.89590E+01 8.28219E-01-6.61257E-05 2.78045E-01-1.28503E-13-2.69801E-13
 -1       880 1.84092E+01 1.07649E+00 7.55065E-05 5.97086E-01-7.51661E-14-3.90291E-13
 -1       881 1.76286E+01 1.30542E+00 1.11760E-03 1.15087E+00 3.30954E-14-3.54425E-13
 -1       882 1.65811E+01 1.39095E+00 7.66208E-03 2.07275E+00 1.15945E-13-3.85678E-13
 -1       883 2.27691E+01-1.46696E+00 6.74377E-04 9.57291E-02-2.64055E-15-2.10765E-13
 -1       884 2.30287E+01-2.36969E+00 1.63881E-04-2.29389E+00 3.05183E-13 3.37250E-13
 -1       885 2.03037E+01 2.37697E-01 7.38493E-06-4.51293E-02 7.59675E-14-2.31572E-13
 -1       886 1.36043E+01 1.57386E+00 4.44583E-02-3.15902E+00-1.20394E-13-2.78921E-13
 -1       887 2.41020E+01 4.94687E+00-3.08122E-02 7.19453E-02 5.22204E-14-1.21042E-13
 -1       888 2.03312E+01 7.30824E-01 8.70066E-05-1.87969E-01-1.26120E-13-3.68493E-13
 -1       889 2.57631E+01 5.52090E-01-2.19313E-02-1.98149E+00-3.00166E-13-1.29876E-13
 -1       890 2.16238E+01-2.21803E+00 3.32751E-03-3.85567E+00 1.79079E-13-2.21685E-13
 -1       891 2.03279E+01 4.33903E-01 4.10117E-05-4.56270E-02-9.18269E-14-3.34073E-13
 -1       892 2.03306E+01 4.42298E-01-2.64234E-04 5.16488E-02 1.09540E-13-2.47059E-13
 -1       893 1.42455E+01 5.31689E-01 4.94260E-02-4.60941E+00-7.17247E-14-5.09801E-14
 -1       894 2.46911E+01-3.22810E+00-5.02125E-03 2.20885E+00-6.01196E-14-7.76579E-14
 -1       895 2.63135E+01-2.14203E+00-1.44572E-02-2.10830E-01-1.23595E-13-2.35605E-13
 -1       896 1.85049E+01-1.39541E+00 2.44307E-02-5.29733E+00 8.85073E-14-3.37968E-14
 -1       897 2.02282E+01 1.11064E-02-7.75993E-06-1.31695E-01 4.94307E-14-1.45641E-13
 -1       898 2.47751E+01 3.68531E+00-3.14713E-02-1.84320E+00 4.04286E-14-1.49518E-13
 -1       899 2.03028E+01 1.10362E+00 2.23842E-04-3.36393E-01-1.47836E-13-4.20178E-13
 -1       900 1.42525E+01 1.17583E+00 4.65848E-02 3.86832E+00 3.97939E-13-1.49143E-13
 -1       901 2.02711E+01 1.41088E+00-1.71060E-05 6.88160E-02 7.71466E-14-3.63883E-13
 -1       902 2.62636E+01 2.39339E+00-2.88779E-02 2.15703E+00 5.46663E-14-9.01414E-14
 -1       903 1.55658E+01 1.37146E+00 1.99763E-02 2.86243E+00 3.22098E-13-1.59209E-13
 -1       904 2.40602E+01 4.34965E+00-2.96081E-02 9.49196E-01-2.48282E-14 1.76228E-13
 -1       905 2.27497E+01-2.69524E+00 8.58922E-03 3.11131E+00-1.29952E-15 2.87587E-14
 -1       906 2.09537E+01-2.41643E+00 5.67415E-02-4.81835E+00 2.86464E-13-3.20704E-13
 -1       907 2.51649E+01-3.68237E+00-9.72734E-03-2.88437E+00 1.74596E-13-6.66533E-14
 -1       908 2.73337E+01-1.61571E+00-2.95108E-02 5.89411E-01-1.68281E-14-3.08979E-13
 -1       909 2.02828E+01 1.34229E+00 2.28002E-04 1.97198E-01 1.51989E-13-4.01129E-13
 -1       910 1.72402E+01-6.44593E-01 3.08490E-02 4.96568E+00 2.77631E-13-1.54643E-13
 -1       911 2.02908E+01 1.26866E+00 1.87923E-04-2.47892E-01-8.65456E-14-3.42670E-13
 -1       912 2.03766E+01 3.96748E-01-3.57554E-05-9.26726E-03-5.29827E-14-2.41139E-13
 -1       913 2.37026E+01 1.70612E+00-7.32764E-03-1.91647E+00-1.90298E-13-1.24509E-13
 -1       914 2.02378E+01-6.11954E-02 6.11454E-06-1.06967E-01 1.44042E-14-2.18484E-13
 -1       915 2.47848E+01-9.83478E-01-2.49798E-03-1.21326E+00-4.74664E-14 4.58745E-14
 -1       916 2.02706E+01 1.41115E+00-3.62943E-05-6.53387E-02 1.17708E-14-4.16212E-13
 -1       917 2.03199E+01 6.82537E-02-6.95560E-06 8.68189E-02-3.17971E-14-2.05957E-13
 -1       918 2.02776E+01-1.48698E-02-4.04617E-06 1.03161E-01-6.61737E-14-2.23879E-13
 -1       919 2.02342E+01-6.36631E-02-2.19202E-06 1.06706E-01-4.51162E-14-1.98017E-13
 -1       920 2.01929E+01-8.84932E-02-1.31225E-06 1.02168E-01-6.37044E-14-1.72804E-13
 -1       921 2.01555E+01-9.71110E-02-8.23921E-07 9.30657E-02-6.84665E-14-1.98940E-13
 -1       922 2.01228E+01-9.51830E-02-5.51448E-07 8.19025E-02-6.76589E-14-1.43821E-13
 -1       923 2.00947E+01-8.67574E-02-3.90565E-07 7.03866E-02-1.35584E-13-1.04870E-13
 -1       924 2.00711E+01-7.46616E-02-2.81193E-07 5.96452E-02-2.00249E-13-9.62255E-14
 -1       925 2.00515E+01-6.08386E-02-2.11948E-07 5.04064E-02-1.41266E-13-1.32949E-13
 -1       926 2.00352E+01-4.66356E-02-1.62832E-07 4.31510E-02-6.43478E-14-1.27191E-13
 -1       927 2.00218E+01-3.30607E-02-1.02617E-07 3.82373E-02 5.43210E-14-1.18441E-13
 -1       928 2.00110E+01-2.10273E-02 4.51559E-08 3.60056E-02 8.92766E-14 3.71364E-15
 -1       929 2.00027E+01-1.16048E-02 2.47486E-07 3.68655E-02-3.52052E-15 2.46146E-14
 -1       930 1.99976E+01-6.29124E-03 6.39400E-07 4.13691E-02 8.35800E-15-3.64534E-14
 -1       931 1.99971E+01-7.33171E-03 1.22517E-06 5.02463E-02 1.50842E-14-1.80041E-13
 -1       932 2.00041E+01-1.80612E-02 2.30291E-06 6.43798E-02 1.70634E-14-1.23455E-13
 -1       933 2.00232E+01-4.32682E-02 4.03019E-06 8.46468E-02-6.70271E-15-4.35171E-14
 -1       934 2.00618E+01-8.94766E-02 6.54361E-06 1.11510E-01 9.34788E-14-8.07490E-15
 -1       935 2.01308E+01-1.64955E-01 9.62508E-06 1.44177E-01 3.83492E-14 1.38688E-14
 -1       936 2.02451E+01-2.79071E-01 1.26141E-05 1.79103E-01 1.07190E-13-6.18202E-14
 -1       937 2.04238E+01-4.40318E-01 1.87906E-05 2.07609E-01 1.53488E-13 1.80532E-14
 -1       938 2.06888E+01-6.51893E-01 6.84023E-05 2.12586E-01 1.76323E-13-2.47037E-14
 -1       939 2.10591E+01-9.03409E-01-3.81293E-05 1.64977E-01 2.07394E-15 1.17192E-13
 -1       940 2.15413E+01-1.15636E+00-1.15531E-04 2.41841E-02-8.42506E-14 1.42559E-13
 -1       941 2.21129E+01-1.32920E+00-1.48419E-04-2.56472E-01-6.32578E-14 7.70794E-14
 -1       942 2.26978E+01-1.27426E+00 1.95719E-04-7.01911E-01-1.44044E-13-1.70528E-13
 -1       943 2.31640E+01-8.36675E-01-1.62684E-03-1.25928E+00 1.84111E-14-3.67362E-13
 -1       944 2.33338E+01 1.55020E-01 4.44842E-04-1.74294E+00-6.38350E-14-1.23711E-13
 -1       945 2.26408E+01 3.58804E+00-2.35107E-02-1.91136E-01-3.70045E-14 1.29330E-13
 -1       946 2.33222E+01 4.55119E-01-9.46448E-05 1.74189E+00 3.02984E-13 3.50943E-14
 -1       947 2.31731E+01-5.92779E-01 2.29746E-03 1.26596E+00 2.33445E-13-2.31334E-13
 -1       948 2.30946E+01-1.18089E+00 1.84322E-03 6.99137E-01 2.16997E-13-1.04704E-13
 -1       949 2.01261E+01-9.60601E-02 4.11321E-06-8.33311E-02 3.66478E-15-1.99210E-13
 -1       950 2.01965E+01-8.76321E-02 5.97153E-06-1.02992E-01-1.11833E-14-2.73347E-13
 -1       951 2.00981E+01-8.79167E-02 3.25098E-06-7.19657E-02 5.06680E-14-1.66236E-13
 -1       952 2.00746E+01-7.56503E-02 2.50476E-06-6.12872E-02 9.27608E-14-2.34328E-13
 -1       953 2.00549E+01-6.09938E-02 1.86998E-06-5.19647E-02 1.00762E-13-2.63287E-13
 -1       954 2.00383E+01-4.48739E-02 1.31357E-06-4.43257E-02 8.58830E-14-2.57860E-13
 -1       955 2.00236E+01-2.75603E-02 7.87914E-07-3.84203E-02 5.30051E-14-1.38802E-13
 -1       956 2.00096E+01-8.75009E-03 2.10905E-07-3.40288E-02 1.84841E-13-1.76745E-13
 -1       957 1.99946E+01 1.24063E-02-5.71943E-07-3.05986E-02 1.53979E-13-2.01433E-13
 -1       958 1.99765E+01 3.73402E-02 9.56265E-07-2.70586E-02 1.40704E-13-1.92029E-13
 -1       959 1.99534E+01 6.63632E-02-4.54985E-06-2.19645E-02 5.67672E-14-1.97997E-13
 -1       960 1.99190E+01 1.05081E-01-4.79378E-06-1.18143E-02 9.22863E-14-9.95215E-14
 -1       961 1.98681E+01 1.55449E-01-5.67586E-06 8.40946E-03 1.30156E-14-2.08725E-13
 -1       962 1.97926E+01 2.20971E-01-6.70952E-06 4.71879E-02 8.10099E-14-3.56841E-13
 -1       963 1.96814E+01 3.04452E-01-4.27786E-06 1.18272E-01-9.70172E-14-2.76960E-13
 -1       964 1.95212E+01 4.05796E-01 8.28532E-06 2.43334E-01-1.41850E-13-2.66745E-13
 -1       965 1.92975E+01 5.17650E-01 5.04963E-05 4.55473E-01 2.28087E-14-2.92870E-13
 -1       966 1.89995E+01 6.17566E-01 1.95927E-04 8.03097E-01 6.75412E-14-4.21147E-13
 -1       967 1.86305E+01 6.54735E-01 5.27471E-04 1.35256E+00-7.99945E-14-4.82693E-13
 -1       968 1.82411E+01 5.23029E-01 2.05787E-03 2.18598E+00 1.62337E-13-4.61476E-13
 -1       969 2.39616E+01-1.90302E+00-2.35826E-03-1.41472E-01-3.76999E-14-3.18145E-13
 -1       970 2.02950E+01 1.20115E+00-1.57802E-03 3.01188E-01 2.01721E-13-3.34166E-13
 -1       971 2.43371E+01-2.70475E+00-6.50042E-03-1.54381E+00 4.49744E-14-2.39539E-13
 -1       972 2.03572E+01 2.07044E-01-2.11801E-05-4.95171E-02 5.07049E-14-3.14377E-13
 -1       973 2.01590E+01-9.73234E-02 5.05866E-06-9.42563E-02 5.13324E-14-2.07369E-13
 -1       974 2.03557E+01 1.99249E-01-2.82913E-05 5.16960E-02-5.80794E-14-2.11686E-13
 -1       975 2.03540E+01 8.75860E-01 8.58242E-05-1.54115E-01-8.97371E-14-3.00240E-13
 -1       976 2.02800E+01 1.35817E+00 1.94847E-04-1.61950E-01-1.24793E-14-4.02414E-13
 -1       977 1.96729E+01-1.20022E+00 5.34961E-03 3.81401E+00 1.38532E-14-3.16917E-13
 -1       978 2.45498E+01-2.32684E+00-1.46095E-03 4.10258E-01-1.86114E-13-1.39216E-13
 -1       979 2.03773E+01 6.06081E-01-6.17408E-05-7.37847E-02-4.11140E-14-2.91744E-13
 -1       980 2.03632E+01 8.31462E-01 1.07590E-04 1.42634E-01 1.33918E-13-3.28547E-13
 -1       981 2.03635E+01 9.73672E-01-1.26149E-04 7.87010E-02 1.07238E-13-3.27667E-13
 -1       982 2.02806E+01-1.09916E-02 5.71522E-06-1.02723E-01-1.21014E-14-3.00598E-13
 -1       983 1.74573E+01 4.13876E-02 1.32651E-02 3.80004E+00 1.43807E-13-5.19657E-13
 -1       984 2.62048E+01 2.87416E-01-2.34431E-02 1.73682E+00 5.48945E-14-7.48485E-14
 -1       985 2.28339E+01 3.00243E+00-7.52042E-03-1.30167E+00-1.36959E-13 1.56420E-14
 -1       986 2.35365E+01 2.16994E+00-1.88515E-02 1.79126E+00 1.97782E-13 3.99073E-13
 -1       987 2.03787E+01 4.05345E-01 2.11233E-04 1.26371E-02 9.49565E-14-2.94420E-13
 -1       988 2.03224E+01 7.46620E-02-2.55657E-05-8.53222E-02 1.52259E-14-3.37021E-13
 -1       989 2.41773E+01-3.25790E+00-2.63232E-03-2.92740E+00 5.11255E-13 8.49477E-14
 -1       990 2.35165E+01-2.40603E+00 3.68433E-03 1.35286E+00-1.21638E-13-2.98423E-13
 -1       991 1.78715E+01 3.58256E-01 5.67645E-03 2.89978E+00 2.35910E-14-5.16199E-13
 -1       992 2.59940E+01-2.82917E+00 1.53597E-03-9.02276E-01 3.38262E-14-5.87834E-13
 -1       993 2.03646E+01 1.00147E+00 1.12482E-04 1.75698E-03 6.37136E-14-3.60687E-13
 -1       994 2.03857E+01 1.52307E-01-4.91289E-05 4.23466E-02-4.16479E-14-2.33670E-13
 -1       995 2.03022E+01-4.00168E-02-1.78854E-05 6.69848E-02-4.21480E-14-2.14054E-13
 -1       996 2.02554E+01-8.15936E-02-1.08460E-05 6.71304E-02-2.53458E-14-2.01060E-13
 -1       997 2.02107E+01-1.00839E-01-5.88962E-06 6.30127E-02-4.68594E-14-1.63172E-13
 -1       998 2.01700E+01-1.05121E-01-2.73178E-06 5.66178E-02-9.99998E-15-9.45698E-14
 -1       999 2.01341E+01-9.98109E-02-8.18922E-07 4.93523E-02-1.20548E-13-1.19627E-13
 -1      1000 2.01033E+01-8.87128E-02 3.03419E-07 4.21830E-02-1.18964E-13-1.12961E-13
 -1      1001 2.00771E+01-7.44509E-02 8.11738E-07 3.57744E-02-1.52459E-13-1.17791E-13
 -1      1002 2.00551E+01-5.87966E-02 8.76250E-07 3.06114E-02-4.70105E-14-4.34228E-14
 -1      1003 2.00365E+01-4.29538E-02 6.13003E-07 2.71141E-02 6.48398E-14 1.26950E-13
 -1      1004 2.00208E+01-2.78144E-02 1.08272E-07 2.57507E-02 1.95449E-13 2.26115E-13
 -1      1005 2.00075E+01-1.42079E-02-4.43816E-07 2.71570E-02 7.09120E-15 1.41241E-13
 -1      1006 1.99967E+01-3.15950E-03-1.13914E-06 3.22588E-02 1.23426E-14 1.11649E-13
 -1      1007 1.99888E+01 3.79384E-03-2.40169E-06 4.24331E-02-5.22819E-14 1.15848E-13
 -1      1008 1.99853E+01 4.24546E-03-3.19921E-06 5.96123E-02-1.96491E-14 6.69913E-14
 -1      1009 1.99895E+01-5.54865E-03-3.56100E-06 8.63910E-02 1.03678E-13-2.26794E-15
 -1      1010 2.00068E+01-3.12191E-02-2.73699E-06 1.25941E-01 7.76425E-14 1.73211E-13
 -1      1011 2.00461E+01-8.08626E-02 3.31228E-07 1.81593E-01-3.83529E-14-6.65765E-14
 -1      1012 2.01214E+01-1.65467E-01 6.63069E-06 2.55751E-01 1.78112E-13 3.56213E-14
 -1      1013 2.02533E+01-2.98708E-01 1.86708E-05 3.47645E-01 2.19170E-13 4.07285E-14
 -1      1014 2.04700E+01-4.95156E-01 5.47410E-05 4.49438E-01 2.31490E-13 2.92790E-14
 -1      1015 2.08079E+01-7.65721E-01 3.76444E-04 5.40314E-01 1.43335E-14-7.04718E-14
 -1      1016 2.13026E+01-1.10177E+00 3.15813E-04 5.74356E-01 6.89623E-14-1.66674E-13
 -1      1017 2.19853E+01-1.46525E+00 2.57699E-04 4.84467E-01 1.71631E-14-8.08478E-14
 -1      1018 2.28369E+01-1.73159E+00-7.48535E-04 1.76370E-01-2.38888E-13 4.90642E-14
 -1      1019 2.04015E+01 6.08286E-01-1.70150E-04 4.65007E-02 9.70289E-14-3.18310E-13
 -1      1020 2.44299E+01-1.35298E+00 2.87348E-03 7.35989E-01 2.49540E-13 2.77799E-14
 -1      1021 2.02592E+01-7.95780E-02-6.18580E-06-6.76593E-02-2.19161E-14-3.07277E-13
 -1      1022 2.00802E+01-7.52573E-02 3.43200E-06-3.72998E-02 1.09253E-13-1.62407E-13
 -1      1023 2.00578E+01-5.86830E-02 2.80739E-06-3.16523E-02 1.23196E-13-1.51765E-13
 -1      1024 2.00385E+01-4.08959E-02 1.87009E-06-2.68312E-02 1.58042E-15-1.30455E-13
 -1      1025 2.00211E+01-2.21259E-02 5.96808E-07-2.25526E-02 1.10847E-13-1.47185E-13
 -1      1026 2.00041E+01-2.13079E-03-8.24417E-07-1.81705E-02 1.95864E-13-9.01361E-14
 -1      1027 1.99860E+01 1.97290E-02-9.93850E-07-1.24968E-02 1.15957E-13-8.00148E-14
 -1      1028 1.99657E+01 4.30562E-02-7.20556E-06-4.15959E-03 1.36181E-13-5.48043E-14
 -1      1029 1.99389E+01 7.13911E-02-9.43723E-06 1.07539E-02 4.91821E-14-1.54989E-13
 -1      1030 1.99032E+01 1.04655E-01-1.21297E-05 3.69647E-02 4.93377E-14-1.27558E-13
 -1      1031 1.98550E+01 1.43359E-01-1.40014E-05 8.22616E-02 7.26310E-14-2.41865E-13
 -1      1032 1.97904E+01 1.86441E-01-1.08229E-05 1.58507E-01-2.46427E-14-1.55306E-13
 -1      1033 1.97067E+01 2.29334E-01 4.61435E-06 2.83151E-01-1.09034E-13-1.37977E-13
 -1      1034 1.96047E+01 2.60573E-01 4.25602E-05 4.80800E-01-2.44658E-14-1.88785E-13
 -1      1035 1.94947E+01 2.56252E-01 1.17022E-04 7.84133E-01 1.14359E-13-3.27194E-13
 -1      1036 1.94055E+01 1.72457E-01 2.33032E-04 1.23249E+00 7.66823E-14-2.86470E-13
 -1      1037 1.94132E+01-7.04229E-02 1.53457E-05 1.85869E+00 1.16103E-13-4.11214E-13
 -1      1038 2.01065E+01-8.97986E-02 3.68393E-06-4.37758E-02 9.26033E-14-1.33458E-13
 -1      1039 2.04086E+01 3.33000E-01 2.40619E-05 1.04739E-02-6.75813E-14-2.47108E-13
 -1      1040 2.03584E+01 9.58978E-01 3.58427E-04-1.10572E-01-4.50450E-14-2.93143E-13
 -1      1041 2.14240E+01-1.73039E+00 1.52970E-04 2.60955E+00-2.01904E-14-1.85772E-13
 -1      1042 2.03474E+01 3.37219E-02-2.83084E-05 5.98914E-02-7.19732E-14-2.26161E-13
 -1      1043 2.36265E+01-1.71704E+00 2.45577E-03-3.00175E-01-1.99728E-13 1.75176E-13
 -1      1044 2.01375E+01-1.00731E-01 3.46313E-06-5.08154E-02 4.85547E-15-1.92509E-13
 -1      1045 1.94846E+01-6.67067E-01 9.97370E-05 3.04806E+00 1.18893E-13-2.64108E-13
 -1      1046 2.58279E+01-1.52225E+00-1.98343E-02 6.91971E-01 2.36460E-13-1.24616E-13
 -1      1047 2.01736E+01-1.05494E-01 3.09503E-06-5.78518E-02 2.21486E-14-2.19374E-13
 -1      1048 2.04073E+01 3.42631E-01-2.75780E-04-7.24073E-03 6.01714E-14-2.83123E-13
 -1      1049 2.02144E+01-1.00262E-01 1.35286E-06-6.39427E-02-5.13899E-14-3.00341E-13
 -1      1050 2.03053E+01-3.66250E-02-8.24055E-06-6.70210E-02-2.98434E-14-3.75718E-13
 -1      1051 2.54660E+01-1.97638E+00 2.91890E-03 1.04804E-01 8.32073E-14-1.03046E-13
 -1      1052 2.04181E+01 6.48904E-01 1.86084E-04 1.76782E-02 4.51536E-14-3.15378E-13
 -1      1053 2.04102E+01 5.24024E-01 4.54210E-05-2.42118E-02-5.59121E-15-2.51841E-13
 -1      1054 2.03935E+01 7.19586E-01-1.96914E-04-6.33716E-02-4.97287E-14-2.63596E-13
 -1      1055 2.03632E+01 9.93952E-01 3.44071E-04-5.60752E-02 1.87836E-14-3.53245E-13
 -1      1056 1.94122E+01-3.07222E-01-1.22976E-03 2.39737E+00-2.51990E-14-3.82854E-13
 -1      1057 2.03851E+01 1.63426E-01-1.13935E-05-4.31970E-02 4.52327E-14-2.64351E-13
 -1      1058 2.02542E+01-9.59084E-02 5.20251E-05 2.52595E-02-4.21952E-14-2.00865E-13
 -1      1059 2.02085E+01-1.08336E-01 3.92217E-05 2.31055E-02-3.47432E-14-2.15176E-13
 -1      1060 2.01673E+01-1.07831E-01 2.83055E-05 2.03480E-02-5.79108E-14-2.36724E-13
 -1      1061 2.01311E+01-9.91883E-02 2.04297E-05 1.74627E-02-1.13054E-13-3.23894E-13
 -1      1062 2.01001E+01-8.57571E-02 1.46686E-05 1.48056E-02-1.10498E-14-2.06584E-13
 -1      1063 2.00736E+01-6.97894E-02 1.06434E-05 1.26752E-02 3.54022E-14 5.65947E-14
 -1      1064 2.00511E+01-5.27459E-02 8.19250E-06 1.13903E-02 1.28175E-13 1.85209E-13
 -1      1065 2.00318E+01-3.55582E-02 7.24822E-06 1.13762E-02 1.35961E-13 1.37028E-13
 -1      1066 2.00149E+01-1.88639E-02 8.25224E-06 1.32771E-02 5.03541E-14-6.01308E-14
 -1      1067 1.99997E+01-3.22442E-03 1.21465E-05 1.81130E-02 3.80174E-14 4.84765E-14
 -1      1068 1.99858E+01 1.05924E-02 1.48296E-05 2.74398E-02-5.89709E-14 1.06079E-13
 -1      1069 1.99735E+01 2.13015E-02 2.16044E-05 4.36294E-02-2.90429E-14 1.64425E-13
 -1      1070 1.99638E+01 2.67085E-02 3.26390E-05 7.01517E-02 3.51917E-14 2.44282E-13
 -1      1071 1.99594E+01 2.30641E-02 4.73675E-05 1.11817E-01 1.29224E-13 5.51660E-14
 -1      1072 1.99658E+01 4.24739E-03 6.46505E-05 1.74922E-01 3.99595E-14 1.47531E-13
 -1      1073 1.99923E+01-3.93291E-02 7.87689E-05 2.66979E-01 4.41769E-14 1.79139E-13
 -1      1074 2.00555E+01-1.21965E-01 7.27508E-05 3.95566E-01 1.58018E-13-1.14782E-13
 -1      1075 2.01815E+01-2.63602E-01 1.56121E-05 5.65488E-01 8.30847E-14-9.67995E-14
 -1      1076 2.04104E+01-4.88386E-01 1.42104E-04 7.72570E-01 3.90780E-14-2.10950E-13
 -1      1077 2.07768E+01-8.25197E-01-3.39384E-03 1.00510E+00-5.02103E-14-9.11204E-14
 -1      1078 2.14148E+01-1.28368E+00 1.66940E-03 1.19799E+00-1.04450E-14-1.97280E-13
 -1      1079 2.00332E+01-3.48885E-02-9.67175E-06-8.91382E-03 2.70180E-14-1.54712E-13
 -1      1080 2.00531E+01-5.31983E-02-1.18932E-05-1.16066E-02 8.15191E-14-8.83049E-14
 -1      1081 2.08923E+01-1.23054E+00-2.11652E-03 2.20251E+00-1.76267E-13-7.63478E-14
 -1      1082 2.04218E+01 2.53783E-01 5.27502E-05 1.09236E-02-2.08976E-14-2.41172E-13
 -1      1083 2.00760E+01-7.07973E-02-1.50487E-05-1.40610E-02 1.42432E-13-4.39763E-14
 -1      1084 2.03928E+01 9.75690E-02 1.11875E-04 2.03065E-02-2.42235E-14-1.98094E-13
 -1      1085 2.00150E+01-1.61686E-02-8.42188E-06-5.38639E-03 6.27356E-14-1.20658E-13
 -1      1086 1.99975E+01 2.92689E-03-9.84171E-06 2.14485E-05 1.04790E-13-1.22522E-13
 -1      1087 1.99803E+01 2.15172E-02-1.08222E-05 8.46444E-03 7.01199E-14-9.38005E-14
 -1      1088 1.99605E+01 4.14933E-02-1.25308E-05 2.33590E-02 1.08326E-13 4.39838E-14
 -1      1089 1.99378E+01 6.14322E-02-1.72843E-05 4.85294E-02 6.70929E-15 2.82624E-14
 -1      1090 1.99118E+01 7.99277E-02-2.44133E-05 9.01137E-02 2.90346E-14 7.60833E-14
 -1      1091 1.98831E+01 9.37145E-02-3.27584E-05 1.57007E-01 6.72583E-14-1.42457E-15
 -1      1092 1.98551E+01 9.62178E-02-3.99097E-05 2.61507E-01-8.15869E-14-1.21332E-13
 -1      1093 1.98361E+01 7.52886E-02-4.41115E-05 4.19572E-01-5.79066E-14-2.54069E-13
 -1      1094 1.98444E+01 9.96404E-03-6.50501E-05 6.49872E-01 1.51906E-13-2.87221E-13
 -1      1095 1.99147E+01-1.34017E-01-2.88023E-04 9.69995E-01 1.12717E-14-2.45065E-13
 -1      1096 2.01144E+01-4.07039E-01 2.21040E-03 1.40289E+00 8.57571E-14-1.40122E-13
 -1      1097 2.01027E+01-8.69426E-02-1.90668E-05-1.65734E-02 1.22339E-13-4.65238E-14
 -1      1098 2.03503E+01 3.95160E-02 1.17834E-06-5.94350E-02-1.04731E-15-2.87294E-13
 -1      1099 2.03505E+01-3.28078E-03 8.63714E-05 2.48861E-02-3.36575E-14-1.64947E-13
 -1      1100 2.01341E+01-1.00258E-01-2.38817E-05-1.92230E-02-2.29193E-14-1.16130E-13
 -1      1101 2.22525E+01-1.80176E+00 4.27479E-03 1.34592E+00 1.23878E-13-2.52515E-13
 -1      1102 2.03026E+01-6.38853E-02 6.63061E-05 2.61536E-02-7.79571E-14-1.40182E-13
 -1      1103 2.01706E+01-1.08500E-01-3.00808E-05-2.19103E-02-1.89025E-14-2.22542E-13
 -1      1104 2.04298E+01 4.16149E-01-3.64507E-04-1.74103E-03-7.21685E-15-2.65130E-13
 -1      1105 2.03061E+01-6.11496E-02-4.37515E-05-2.64582E-02-5.72118E-14-1.95334E-13
 -1      1106 2.02656E+01-6.44160E-01-2.72578E-03 1.75100E+00-7.18973E-14 3.30368E-14
 -1      1107 2.04233E+01 2.67279E-01 2.83198E-04-9.91110E-03 2.41539E-14-2.44134E-13
 -1      1108 2.04155E+01 6.65657E-01 2.91818E-04-7.81021E-03 4.20195E-14-2.96511E-13
 -1      1109 2.02577E+01-9.48116E-02-4.20964E-05-2.61021E-02-5.07794E-14-2.02807E-13
 -1      1110 2.03952E+01 1.04084E-01-4.85342E-05-1.90206E-02 3.29479E-16-2.17172E-13
 -1      1111 2.03535E+01 1.21915E-03-5.17107E-05-2.44712E-02-8.02100E-15-2.05774E-13
 -1      1112 2.02120E+01-1.08292E-01-3.70152E-05-2.43551E-02-5.31902E-14-2.10388E-13
 -1      1113 2.79721E+01 9.08955E+00 2.32619E+00-6.70048E+00-6.05072E-14 1.74982E-12
 -1      1114 2.05527E+01 6.22878E+00 2.09809E-01-3.90540E+00-3.17246E-14 1.33511E-13
 -1      1115 1.94378E+01 5.85393E+00 7.52744E-02-2.88921E+00-2.00673E-14-5.40078E-13
 -1      1116 1.90281E+01 5.72655E+00 6.03520E-02-2.23659E+00-1.39437E-14-8.41622E-13
 -1      1117 1.88406E+01 5.66943E+00 5.74774E-02-1.70332E+00-8.43423E-15-9.80892E-13
 -1      1118 1.87460E+01 5.64043E+00 5.54221E-02-1.23638E+00-5.47912E-15-1.02734E-12
 -1      1119 1.86961E+01 5.62492E+00 5.36290E-02-8.07240E-01-3.05485E-15-1.03271E-12
 -1      1120 1.86715E+01 5.61715E+00 5.23786E-02-3.96551E-01 3.26128E-16-1.01540E-12
 -1      1121 1.86641E+01 5.61483E+00 5.19500E-02 3.77577E-03 2.20765E-15-9.89326E-13
 -1      1122 1.86718E+01 5.61725E+00 5.24017E-02 4.04212E-01 5.17143E-15-9.59758E-13
 -1      1123 1.86968E+01 5.62514E+00 5.36805E-02 8.15270E-01 5.73716E-15-9.20114E-13
 -1      1124 1.87475E+01 5.64098E+00 5.57070E-02 1.24508E+00 9.50975E-15-8.55706E-13
 -1      1125 1.88435E+01 5.67040E+00 5.77941E-02 1.71283E+00 1.32290E-14-7.43173E-13
 -1      1126 1.90328E+01 5.72790E+00 6.02340E-02 2.24791E+00 1.77705E-14-5.40092E-13
 -1      1127 1.94475E+01 5.85672E+00 7.48883E-02 2.90289E+00 2.27179E-14-1.52307E-13
 -1      1128 2.05761E+01 6.23598E+00 2.10488E-01 3.92124E+00 2.86715E-14 6.18366E-13
 -1      1129 2.80522E+01 9.12606E+00 2.36782E+00 6.74408E+00 3.40838E-14 2.22292E-12
 -1      1130 2.88229E+01 3.61768E+00 1.27188E+00-4.21853E+00-2.43722E-13 2.77051E-12
 -1      1131 2.02348E+01-1.77813E-01-6.16502E-01-1.09959E-01-7.85899E-14 2.22872E-12
 -1      1132 1.88398E+01-9.64025E-02-2.36437E-01 6.25260E-02-3.38982E-14 1.42868E-12
 -1      1133 1.85055E+01-4.81068E-02-5.96454E-02 4.05058E-02-2.32188E-14 8.78110E-13
 -1      1134 1.84504E+01-2.46697E-02-1.52596E-02 2.68021E-02-1.97544E-14 4.98820E-13
 -1      1135 1.85326E+01-1.30964E-02-5.03056E-03 1.90930E-02-1.83206E-14 2.52492E-13
 -1      1136 1.86803E+01-6.64948E-03-1.52313E-03 1.41608E-02-3.75828E-15 1.02276E-13
 -1      1137 1.88540E+01-2.87411E-03 5.16790E-04 1.07434E-02-8.10528E-15-6.85008E-14
 -1      1138 1.90312E+01-6.34263E-04 1.84019E-03 8.22062E-03-1.39950E-14-2.95489E-13
 -1      1139 1.91990E+01 6.68762E-04 2.59288E-03 6.28316E-03-6.82648E-15-5.34848E-13
 -1      1140 1.93505E+01 1.37744E-03 2.91069E-03 4.76678E-03-4.47591E-15-7.24866E-13
 -1      1141 1.94827E+01 1.70288E-03 2.92857E-03 3.57354E-03 9.76259E-15-6.86384E-13
 -1      1142 1.95951E+01 1.78251E-03 2.75590E-03 2.63748E-03-1.35638E-14-6.94165E-13
 -1      1143 1.96884E+01 1.70879E-03 2.47252E-03 1.90968E-03 6.40655E-15-6.91098E-13
 -1      1144 1.97645E+01 1.54463E-03 2.13370E-03 1.35166E-03-2.67889E-15-7.25282E-13
 -1      1145 1.98257E+01 1.33276E-03 1.77617E-03 9.32409E-04-3.20627E-14-7.79824E-13
 -1      1146 1.98743E+01 1.10192E-03 1.42337E-03 6.27045E-04-3.05749E-14-8.58202E-13
 -1      1147 1.99129E+01 8.71682E-04 1.08993E-03 4.16127E-04 9.99119E-15-8.57937E-13
 -1      1148 1.99437E+01 6.56393E-04 7.85774E-04 2.85188E-04-4.34045E-15-8.38012E-13
 -1      1149 1.99688E+01 4.68934E-04 5.20293E-04 2.24159E-04 1.83444E-15-9.76835E-13
 -1      1150 1.99902E+01 3.24493E-04 3.06910E-04 2.26402E-04 1.25051E-14-8.63631E-13
 -1      1151 2.00092E+01 2.44591E-04 1.68391E-04 2.86986E-04-1.85410E-14-6.86325E-13
 -1      1152 2.00268E+01 2.61333E-04 1.42981E-04 3.99698E-04 6.20779E-15-7.40447E-13
 -1      1153 2.00432E+01 4.21458E-04 2.90987E-04 5.52131E-04-6.11649E-14-9.03797E-13
 -1      1154 2.00570E+01 7.89074E-04 7.00462E-04 7.18116E-04 8.88402E-15-1.00695E-12
 -1      1155 2.00655E+01 1.44489E-03 1.48897E-03 8.46989E-04-1.57622E-14-9.48837E-13
 -1      1156 2.00628E+01 2.47832E-03 2.79596E-03 8.50035E-04 4.40482E-14-1.14896E-12
 -1      1157 2.00398E+01 3.96723E-03 4.75738E-03 5.86401E-04-1.40365E-14-1.32398E-12
 -1      1158 1.99826E+01 5.93973E-03 7.45216E-03-1.45692E-04-6.10026E-15-1.20892E-12
 -1      1159 1.98724E+01 8.31427E-03 1.08126E-02-1.60137E-03-9.92587E-15-1.27678E-12
 -1      1160 1.96859E+01 1.08227E-02 1.45022E-02-4.04873E-03-6.78213E-14-1.15863E-12
 -1      1161 1.93977E+01 1.29379E-02 1.77929E-02-7.67793E-03 5.54409E-14-1.13184E-12
 -1      1162 1.89852E+01 1.38525E-02 1.95146E-02-1.24531E-02 1.89859E-14-1.20066E-12
 -1      1163 1.84370E+01 1.25796E-02 1.81897E-02-1.79322E-02-4.12549E-14-1.26421E-12
 -1      1164 1.77628E+01 8.23875E-03 1.24600E-02-2.31339E-02-1.71460E-14-1.47365E-12
 -1      1165 1.70026E+01 5.22550E-04 1.79606E-03-2.65829E-02 4.70124E-14-1.26449E-12
 -1      1166 1.62310E+01-9.81111E-03-1.27589E-02-2.66564E-02 6.12856E-15-1.19664E-12
 -1      1167 1.55494E+01-2.07484E-02-2.83062E-02-2.22219E-02 1.59673E-14-9.48758E-13
 -1      1168 1.50660E+01-2.94501E-02-4.07248E-02-1.33189E-02 1.24531E-14-8.63944E-13
 -1      1169 1.48674E+01-3.32940E-02-4.62194E-02-1.45925E-03 2.91173E-15-9.29289E-13
 -1      1170 1.49919E+01-3.10860E-02-4.30702E-02 1.07612E-02-7.80296E-14-1.25917E-12
 -1      1171 1.54175E+01-2.36482E-02-3.24911E-02 2.06487E-02-9.46443E-15-9.38600E-13
 -1      1172 1.60704E+01-1.34047E-02-1.80278E-02 2.64705E-02 3.13044E-14-6.07431E-13
 -1      1173 1.68497E+01-3.19788E-03-3.82408E-03 2.79931E-02 1.06359E-14 5.20382E-14
 -1      1174 1.76561E+01 4.92522E-03 7.21178E-03 2.62674E-02 1.52901E-14-1.42664E-14
 -1      1175 1.84125E+01 1.03528E-02 1.45040E-02 2.28578E-02 4.32084E-14-1.09312E-13
 -1      1176 1.90689E+01 1.38819E-02 1.98483E-02 1.88537E-02 3.59745E-14-2.11119E-13
 -1      1177 1.95907E+01 1.68917E-02 2.57045E-02 1.36833E-02 4.01094E-14-4.33785E-14
 -1      1178 1.99285E+01 2.25804E-02 2.82411E-02 2.15629E-03-1.94519E-14-2.58136E-14
 -1      1179 2.00171E+01-4.27466E-03-8.61513E-03-6.97690E-03 1.08104E-13 3.10532E-13
 -1      1180 2.91324E+01 3.72140E+00 1.36627E+00 4.34235E+00 1.88766E-13 3.29431E-12
 -1      1181 2.03833E+01-1.75501E-01-6.28683E-01 1.39248E-01 6.33243E-14 2.87878E-12
 -1      1182 1.88727E+01-9.82058E-02-2.49534E-01-6.29031E-02 3.40578E-14 2.12541E-12
 -1      1183 1.85148E+01-4.99631E-02-6.43076E-02-4.12387E-02 1.92988E-14 1.60308E-12
 -1      1184 1.84495E+01-2.54763E-02-1.65626E-02-2.72716E-02 1.61028E-14 1.25581E-12
 -1      1185 1.85268E+01-1.35176E-02-5.35880E-03-1.93760E-02 1.89952E-16 1.00618E-12
 -1      1186 1.86722E+01-6.90229E-03-1.68121E-03-1.43518E-02 9.10914E-15 7.81521E-13
 -1      1187 1.88452E+01-3.02057E-03 4.19694E-04-1.08880E-02 1.09500E-14 6.27559E-13
 -1      1188 1.90225E+01-7.17996E-04 1.78801E-03-8.33088E-03 1.38813E-14 4.98719E-13
 -1      1189 1.91909E+01 6.23977E-04 2.57212E-03-6.36807E-03 1.74724E-15 3.73993E-13
 -1      1190 1.93432E+01 1.35882E-03 2.91223E-03-4.83215E-03 1.48170E-14 2.59281E-13
 -1      1191 1.94762E+01 1.70267E-03 2.94702E-03-3.62282E-03 4.66023E-15 2.20176E-13
 -1      1192 1.95893E+01 1.78310E-03 2.78293E-03-2.66490E-03 2.07204E-14 3.12248E-13
 -1      1193 1.96811E+01 1.82148E-03 2.58184E-03-1.84210E-03 8.70357E-15 2.98854E-13
 -1      1194 1.97560E+01 1.58439E-03 2.20755E-03-1.38129E-03 2.27703E-14 6.31179E-14
 -1      1195 1.98177E+01 1.38245E-03 1.86692E-03-9.26666E-04 6.39560E-15-1.91513E-13
 -1      1196 1.98662E+01 1.15255E-03 1.52680E-03-5.81860E-04 9.44904E-15-2.70839E-13
 -1      1197 1.99040E+01 9.10829E-04 1.20011E-03-3.18033E-04 1.38143E-14-2.23803E-13
 -1      1198 1.99333E+01 6.60928E-04 8.86626E-04-1.13139E-04 6.49103E-15-1.38121E-13
 -1      1199 1.99564E+01 3.95766E-04 5.75587E-04 5.15554E-05-2.48337E-14-1.41241E-13
 -1      1200 1.99755E+01 9.62447E-05 2.43457E-04 1.92116E-04-8.54275E-15-1.73780E-13
 -1      1201 1.99931E+01-2.72788E-04-1.51567E-04 3.21586E-04 1.02940E-14 9.84371E-14
 -1      1202 2.00121E+01-7.70232E-04-6.80121E-04 4.48290E-04 2.50416E-14 8.87035E-14
 -1      1203 2.00364E+01-1.49183E-03-1.46057E-03 5.71310E-04-1.96810E-14-2.33288E-15
 -1      1204 2.00719E+01-2.59021E-03-2.69117E-03 6.68681E-04-2.14473E-14-3.19352E-13
 -1      1205 2.01278E+01-4.22189E-03-4.68305E-03 6.48407E-04-2.31587E-14-4.15263E-13
 -1      1206 2.02158E+01-7.03093E-03-8.01071E-03 2.60473E-04 1.18891E-14-3.74577E-13
 -1      1207 2.03606E+01-1.11592E-02-1.35138E-02-2.66693E-04-1.68279E-14-2.01499E-13
 -1      1208 2.06069E+01-1.79349E-02-2.31380E-02-2.27334E-03 2.50902E-14-4.69134E-14
 -1      1209 2.10198E+01-2.85119E-02-3.96423E-02-6.98048E-03-1.05289E-14-1.45980E-13
 -1      1210 2.17119E+01-4.45331E-02-6.75808E-02-1.74070E-02-3.03386E-14 1.64799E-13
 -1      1211 2.28674E+01-6.73884E-02-1.12455E-01-3.94982E-02 8.78464E-15 4.99378E-13
 -1      1212 2.47750E+01-9.60472E-02-1.74471E-01-8.39893E-02 2.65404E-14 3.01092E-13
 -1      1213 2.78423E+01-1.20908E-01-2.26128E-01-1.66324E-01 3.32200E-15 7.10543E-15
 -1      1214 3.24946E+01-1.09909E-01-1.62560E-01-2.93939E-01 1.54347E-14 1.82188E-13
 -1      1215 3.86286E+01 1.50045E-02 2.16431E-01-3.82005E-01 9.84109E-15 3.45668E-13
 -1      1216 4.38635E+01 2.33339E-01 8.67407E-01-1.68697E-01-2.42861E-17 3.52357E-13
 -1      1217 4.46928E+01 5.12191E-01 1.23702E+00 5.33099E-01-1.08823E-13 6.50868E-13
 -1      1218 3.68302E+01 6.10213E-01 1.78103E-01 1.66086E+00-1.59942E-14 1.07003E-12
 -1      1219 2.31080E+01-5.16190E-02-2.45502E+00 1.28974E+00-1.42317E-13 1.24911E-12
 -1      1220 1.43396E+01-5.31169E-01-4.33596E+00 2.81279E-01-4.22162E-14 8.98392E-13
 -1      1221 1.84205E+01-1.89067E-01-3.41239E+00-7.91597E-01 6.23807E-14-2.48135E-13
 -1      1222 3.20126E+01 1.66132E-01-6.95643E-01-1.19916E+00 1.72640E-14-6.91225E-13
 -1      1223 4.22809E+01 4.30012E-01 1.01183E+00-5.73162E-01 1.55414E-14-1.66978E-13
 -1      1224 4.45377E+01 2.80405E-01 1.10218E+00-3.72260E-02 5.79398E-15 4.09645E-13
 -1      1225 4.05075E+01 5.85973E-03 4.50792E-01 1.92882E-01-8.22745E-14 1.22374E-12
 -1      1226 3.40896E+01-6.44111E-02-5.02303E-02 2.11465E-01 7.72967E-14 2.80886E-13
 -1      1227 2.86001E+01-6.91571E-02-1.89570E-01 1.48012E-01-1.00449E-14-3.86691E-13
 -1      1228 2.46701E+01-5.57894E-02-1.71088E-01 9.28167E-02 7.78566E-14-3.37896E-13
 -1      1229 2.20437E+01-4.59492E-02-1.35600E-01 5.82298E-02-9.12725E-15 7.13318E-14
 -1      1230 2.04532E+01-3.65071E-02-1.13506E-01 3.22214E-02-3.87312E-14 1.07385E-12
 -1      1231 1.99489E+01-5.85513E-02-2.30315E-02-5.07547E-02 2.48569E-13 1.16825E-12
 -1      1232 1.99562E+01-5.39472E-02-1.28089E-02-5.33192E-02 1.14925E-12 1.24685E-13
 -1      1233 1.99916E+01 4.92817E-01-6.09751E-02 1.11879E-02-1.37064E-13 1.45136E-13
 -1      1234 2.00265E+01 1.76483E+00 1.21473E-02 5.38192E-02-1.28365E-12-1.72942E-13
 -1      1235 2.00485E+01 2.95160E+00 8.21996E-02 5.90317E-02-1.45296E-12 1.31241E-13
 -1      1236 2.00482E+01 3.49643E+00 1.05214E-01 3.86858E-02-9.44349E-13-7.02598E-14
 -1      1237 2.00332E+01 3.24238E+00 8.48953E-02 8.07984E-03-7.12728E-13 1.27944E-13
 -1      1238 2.00099E+01 2.35438E+00 4.07228E-02-1.75160E-02-1.43903E-12-5.16527E-14
 -1      1239 1.99901E+01 1.15743E+00-4.71532E-03-3.27364E-02-1.48342E-12 5.11784E-14
 -1      1240 1.99781E+01 2.73952E-03-3.66023E-02-3.55062E-02-1.13280E-12-2.79581E-14
 -1      1241 1.99742E+01-8.65676E-01-5.05863E-02-2.91430E-02-4.93050E-13 1.11430E-14
 -1      1242 1.99768E+01-1.34105E+00-4.94421E-02-1.81950E-02-9.95141E-14-4.78894E-14
 -1      1243 1.99823E+01-1.43407E+00-3.91376E-02-6.23519E-03-6.35845E-13-1.05598E-13
 -1      1244 1.99907E+01-1.22909E+00-2.33408E-02 3.69659E-03-4.96384E-13 2.07657E-13
 -1      1245 1.99998E+01-8.41629E-01-4.81562E-03 1.14991E-02-6.99916E-13-1.47905E-13
 -1      1246 2.00087E+01-4.06515E-01 1.46892E-02 1.76493E-02-1.08723E-12 1.19031E-13
 -1      1247 2.00140E+01-8.11074E-02 2.35019E-02 3.35378E-03-7.88964E-13-1.17762E-13
 -1      1248 1.99919E+01 1.42769E-02-1.03558E-02-3.27650E-03-4.48202E-13 2.85653E-14
 -1      1249-1.40373E+00-2.98751E+01-4.16355E+00-3.31109E+00 1.74472E-13 7.76809E-14
 -1      1250-3.40072E+00-2.39325E+01-4.19137E+00-7.37669E+00 4.62963E-13 1.15297E-13
 -1      1251-3.52171E+00-1.16799E+01-3.71527E+00-5.59685E+00-2.62679E-13-3.04645E-13
 -1      1252 3.82088E+00 1.13594E+00-2.49480E+00 2.86386E+00-7.46070E-13-5.70211E-13
 -1      1253 2.40848E+01 8.67695E+00 1.24563E-01 1.40512E+01 1.57652E-13 3.53495E-13
 -1      1254 5.62376E+01 8.75602E+00 4.19424E+00 1.99764E+01 1.64091E-13 6.61693E-13
 -1      1255 8.67179E+01 4.46050E+00 8.09852E+00 1.37036E+01 4.39093E-14-1.90736E-13
 -1      1256 9.57544E+01 3.16961E+00 9.37651E+00-3.30208E+00 5.60108E-14-7.66720E-13
 -1      1257 7.58506E+01 6.08320E+00 6.71894E+00-1.75128E+01 4.05453E-13-1.48237E-12
 -1      1258 4.13780E+01 9.20486E+00 2.23446E+00-1.84502E+01 9.26148E-13-1.84919E-12
 -1      1259 1.39676E+01 6.25982E+00-1.19171E+00-9.50171E+00 1.15064E-12-1.43840E-12
 -1      1260-3.74478E-01-3.47370E+00-3.18425E+00 1.04713E+00 1.03628E-12-9.30811E-13
 -1      1261-4.17661E+00-1.62584E+01-4.01138E+00 7.01934E+00 3.78808E-13-3.04201E-13
 -1      1262-2.76136E+00-2.67244E+01-4.21592E+00 6.52451E+00-4.91163E-13 9.99201E-15
 -1      1263-9.52753E-01-2.94107E+01-4.00633E+00 1.28583E+00-1.51551E-12-1.64313E-14
 -1      1264-1.29783E+00-2.21869E+01-3.41348E+00-3.18724E+00-9.40581E-13-1.87239E-13
 -1      1265-9.53232E-01-8.76693E+00-2.37322E+00-2.24069E+00-1.08313E-12-4.27436E-13
 -1      1266 4.60811E+00 5.16631E+00-9.10400E-01 5.13548E+00-6.76792E-13-4.17000E-13
 -1      1267 1.82948E+01 1.28990E+01 7.56643E-01 1.49195E+01-4.76286E-13-6.48370E-13
 -1      1268 3.84932E+01 1.24160E+01 2.33773E+00 2.06849E+01-3.11084E-13-3.50830E-13
 -1      1269 5.93220E+01 7.06159E+00 3.59280E+00 1.78915E+01 1.39111E-13 5.52447E-13
 -1      1270 7.23137E+01 2.50810E+00 4.32981E+00 6.95416E+00 6.90004E-14 2.76890E-13
 -1      1271 7.16359E+01 2.70842E+00 4.26879E+00-7.71031E+00-4.22787E-14 2.54130E-13
 -1      1272 5.71398E+01 7.81363E+00 3.53197E+00-1.88057E+01-2.89768E-14 1.82299E-13
 -1      1273 3.43748E+01 1.28744E+01 2.08100E+00-1.96835E+01-3.45945E-13 4.46310E-13
 -1      1274 1.37474E+01 1.14524E+01 3.70812E-01-1.21330E+01-3.51053E-13 5.20473E-13
 -1      1275 1.95879E+00 1.38132E+00-1.37102E+00-2.15171E+00-3.10862E-15 1.18905E-13
 -1      1276-1.42350E+00-1.34329E+01-2.76695E+00 3.44995E+00 1.14442E-12-3.79086E-13
 -1      1277-1.11292E+00-2.59085E+01-3.71678E+00 2.21406E+00-1.21014E-13 8.10532E-14
 -1      1278 2.22738E+01 1.83865E+00-7.26096E-01-2.79160E+00-9.11771E-14 1.39000E-12
 -1      1279 2.03641E+01 4.69129E+00-4.86782E-02-3.30843E+00-2.39225E-13-1.86795E-13
 -1      1280 2.08723E+01 4.81202E+00-1.13406E-01-4.16285E+00-3.10335E-13 1.70301E-13
 -1      1281 1.95345E+01 4.99411E+00-1.97253E-02-2.65589E+00-2.34479E-13-6.79363E-13
 -1      1282 1.98336E+01 5.09126E+00 2.44116E-04-3.04697E+00-2.67827E-13-4.70596E-13
 -1      1283 2.05304E+01 3.95373E+00-2.59097E-02-3.07656E+00-4.20240E-13-1.71821E-13
 -1      1284 1.91857E+01 5.08512E+00-3.57800E-03-2.07242E+00-1.83541E-13-9.08714E-13
 -1      1285 1.93349E+01 5.14052E+00 1.05521E-02-2.36512E+00-2.13399E-13-8.07413E-13
 -1      1286 1.97558E+01 4.36684E+00-2.45261E-02-2.49090E+00-3.68532E-13-5.73819E-13
 -1      1287 1.90097E+01 5.13137E+00 3.24664E-03-1.56658E+00-1.31159E-13-1.00895E-12
 -1      1288 1.90880E+01 5.16112E+00 1.25438E-02-1.81645E+00-1.50340E-13-9.64059E-13
 -1      1289 1.93928E+01 4.55582E+00-2.00483E-02-1.93378E+00-2.78301E-13-7.66495E-13
 -1      1290 1.89150E+01 5.16117E+00 6.48167E-03-1.11946E+00-8.16695E-14-1.04072E-12
 -1      1291 1.89579E+01 5.17764E+00 1.26685E-02-1.34063E+00-1.00691E-13-1.02746E-12
 -1      1292 1.92058E+01 4.66252E+00-1.61198E-02-1.44662E+00-1.94617E-13-8.45855E-13
 -1      1293 1.88628E+01 5.18084E+00 8.14391E-03-6.96932E-01-4.23348E-14-1.03315E-12
 -1      1294 1.88861E+01 5.18979E+00 1.19490E-02-9.06799E-01-5.33089E-14-1.04051E-12
 -1      1295 1.91017E+01 4.72792E+00-1.40310E-02-1.00694E+00-1.17498E-13-8.76244E-13
 -1      1296 1.88382E+01 5.19274E+00 9.23803E-03-2.93063E-01 6.20774E-15-1.01737E-12
 -1      1297 1.88484E+01 5.19667E+00 1.10473E-02-4.94739E-01-4.97475E-15-1.02413E-12
 -1      1298 1.90452E+01 4.76689E+00-1.29253E-02-5.92095E-01-4.10508E-14-8.61117E-13
 -1      1299 1.88340E+01 5.19780E+00 1.01604E-02 1.03307E-01 4.44910E-14-9.88905E-13
 -1      1300 1.88339E+01 5.19774E+00 1.01359E-02-9.58036E-02 2.85907E-14-1.00659E-12
 -1      1301 1.90204E+01 4.78514E+00-1.24658E-02-1.93187E-01 2.94836E-14-8.45757E-13
 -1      1302 1.88489E+01 5.19659E+00 1.10796E-02 5.02414E-01 8.82476E-14-9.64010E-13
 -1      1303 1.88385E+01 5.19255E+00 9.21703E-03 3.00607E-01 7.73677E-14-9.79626E-13
 -1      1304 1.90206E+01 4.78494E+00-1.24796E-02 2.00687E-01 9.91062E-14-8.25395E-13
 -1      1305 1.88871E+01 5.18947E+00 1.19793E-02 9.14896E-01 1.22669E-13-9.25909E-13
 -1      1306 1.88636E+01 5.18048E+00 8.13725E-03 7.04729E-01 1.14038E-13-9.53739E-13
 -1      1307 1.90460E+01 4.76628E+00-1.29672E-02 5.99795E-01 1.65439E-13-8.04634E-13
 -1      1308 1.89588E+01 5.17752E+00 1.27375E-02 1.34558E+00 1.66592E-13-8.43920E-13
 -1      1309 1.89157E+01 5.16081E+00 6.48729E-03 1.12415E+00 1.48407E-13-8.88850E-13
 -1      1310 1.91027E+01 4.72722E+00-1.39909E-02 1.01143E+00 2.19700E-13-7.54091E-13
 -1      1311 1.90917E+01 5.16109E+00 1.28177E-02 1.82622E+00 2.24995E-13-7.17593E-13
 -1      1312 1.90120E+01 5.13066E+00 3.30011E-03 1.57572E+00 1.98848E-13-7.92061E-13
 -1      1313 1.92073E+01 4.66140E+00-1.60751E-02 1.45210E+00 3.02130E-13-6.58307E-13
 -1      1314 1.93418E+01 5.13990E+00 1.04520E-02 2.37730E+00 2.74693E-13-4.98841E-13
 -1      1315 1.91912E+01 5.08370E+00-3.61279E-03 2.08296E+00 2.47951E-13-6.35304E-13
 -1      1316 1.93992E+01 4.55347E+00-1.95136E-02 1.94335E+00 3.86120E-13-5.28473E-13
 -1      1317 1.98467E+01 5.09244E+00 3.85360E-04 3.06126E+00 3.02994E-13-6.92432E-14
 -1      1318 1.95431E+01 4.99301E+00-2.00702E-02 2.66862E+00 2.71547E-13-3.27013E-13
 -1      1319 1.97675E+01 4.36356E+00-2.37066E-02 2.50473E+00 4.39820E-13-2.68431E-13
 -1      1320 2.09018E+01 4.84030E+00-9.92332E-02 4.18741E+00 3.00870E-13 6.60513E-13
 -1      1321 2.03832E+01 4.68860E+00-4.88404E-02 3.32590E+00 2.49245E-13 2.53228E-13
 -1      1322 2.05520E+01 3.94301E+00-2.51867E-02 3.09212E+00 4.49661E-13 2.18756E-13
 -1      1323 2.23793E+01 1.87372E+00-7.17822E-01 2.84987E+00 6.41709E-14 1.94167E-12
 -1      1324 2.20077E+01 1.31469E-01-4.00986E-01-1.28630E+00-2.55546E-13 1.49908E-12
 -1      1325 2.06844E+01 3.06816E-01-1.64890E-01-8.06183E-01-2.35659E-13 1.20040E-12
 -1      1326 2.00865E+01 1.53541E-01-7.35440E-02-4.02431E-01-1.96478E-13 1.06543E-12
 -1      1327 1.96163E+01 9.12277E-02-1.49345E-02-3.30243E-01-1.92527E-13 7.78714E-13
 -1      1328 2.09777E+01 3.69193E-01-1.04321E-01-1.27459E+00-4.19026E-13 5.61613E-13
 -1      1329 1.92587E+01 6.45569E-02 3.03817E-03-1.35515E-01-1.54447E-13 6.73753E-13
 -1      1330 1.91042E+01 4.13281E-02 1.32235E-02-1.17687E-01-1.34311E-13 4.70589E-13
 -1      1331 1.99264E+01 1.33995E-01-3.51616E-02-5.04414E-01-3.34267E-13 3.74752E-13
 -1      1332 1.89437E+01 3.15992E-02 1.32435E-02-2.80225E-02-1.07895E-13 3.60073E-13
 -1      1333 1.89243E+01 1.94544E-02 1.10599E-02-1.86036E-02-1.08323E-13 2.11432E-13
 -1      1334 1.94489E+01 5.55575E-02-8.53270E-03-1.70157E-01-2.49290E-13 1.93082E-13
 -1      1335 1.88683E+01 1.60734E-02 8.77928E-03 2.51833E-02-7.06238E-14 1.62802E-13
 -1      1336 1.89109E+01 9.12950E-03 6.44096E-03 2.98431E-02-5.46334E-14 7.09623E-14
 -1      1337 1.92399E+01 2.45241E-02-3.51242E-03-1.09694E-02-1.75032E-13 3.71933E-14
 -1      1338 1.89111E+01 7.91034E-03 4.67366E-03 5.11263E-02-6.19184E-14 3.11851E-14
 -1      1339 1.89819E+01 3.55175E-03 3.64420E-03 5.30438E-02-5.75178E-14-4.59060E-14
 -1      1340 1.91834E+01 1.02867E-02-2.22798E-03 6.80193E-02-1.13972E-13-3.46173E-14
 -1      1341 1.90117E+01 3.24015E-03 2.44142E-03 6.19523E-02-4.89499E-14-7.99838E-14
 -1      1342 1.90928E+01 3.75747E-04 2.21223E-03 6.22462E-02-5.79728E-14-1.66262E-13
 -1      1343 1.92100E+01 2.86305E-03-1.33501E-03 1.05128E-01-1.19674E-13-1.32388E-13
 -1      1344 1.91368E+01 4.92734E-04 1.32927E-03 6.40351E-02-5.63067E-14-1.97082E-13
 -1      1345 1.92183E+01-1.42407E-03 1.43957E-03 6.33769E-02-7.14281E-14-2.98613E-13
 -1      1346 1.92798E+01-1.22177E-03-5.70099E-04 1.18658E-01-1.12466E-13-1.76267E-13
 -1      1347 1.92674E+01-1.09594E-03 7.42293E-04 6.10854E-02-6.65623E-14-3.14852E-13
 -1      1348 1.93439E+01-2.37432E-03 9.69607E-04 5.99065E-02-8.27907E-14-4.13071E-13
 -1      1349 1.93690E+01-3.43014E-03-9.38438E-06 1.18563E-01-1.10597E-13-2.31541E-13
 -1      1350 1.93926E+01-1.95027E-03 4.03274E-04 5.54137E-02-6.68579E-14-4.29429E-13
 -1      1351 1.94612E+01-2.78400E-03 6.56269E-04 5.39967E-02-9.57996E-15-4.71406E-13
 -1      1352 1.94633E+01-4.49695E-03 3.45612E-04 1.10779E-01-1.05352E-13-2.20149E-13
 -1      1353 1.95066E+01-2.33023E-03 1.95918E-04 4.85000E-02 1.43781E-14-5.15684E-13
 -1      1354 1.95660E+01-2.85026E-03 4.38243E-04 4.70285E-02-2.30091E-14-5.18851E-13
 -1      1355 1.95544E+01-4.84712E-03 5.39358E-04 9.90349E-02-3.44401E-14-2.69471E-13
 -1      1356 1.96065E+01-2.40554E-03 6.75346E-05 4.12917E-02-4.51539E-14-4.83877E-13
 -1      1357 1.96567E+01-2.70471E-03 2.84878E-04 3.98813E-02-1.14046E-14-5.37569E-13
 -1      1358 1.96377E+01-4.75006E-03 6.20305E-04 8.57163E-02-3.46482E-14-4.19198E-13
 -1      1359 1.96917E+01-2.29085E-03-1.00366E-05 3.43797E-02 1.32048E-14-5.09970E-13
 -1      1360 1.97333E+01-2.43662E-03 1.77606E-04 3.30988E-02-1.46279E-14-5.21449E-13
 -1      1361 1.97110E+01-4.38481E-03 6.27121E-04 7.23336E-02-9.99157E-15-3.93570E-13
 -1      1362 1.97628E+01-2.06445E-03-5.41774E-05 2.81124E-02-1.81661E-14-5.61518E-13
 -1      1363 1.97966E+01-2.10629E-03 1.03683E-04 2.69972E-02-2.36031E-14-5.60802E-13
 -1      1364 1.97738E+01-3.87212E-03 5.87795E-04 5.98113E-02-4.23252E-14-3.49170E-13
 -1      1365 1.98211E+01-1.77939E-03-7.65889E-05 2.26737E-02-2.90154E-14-5.27919E-13
 -1      1366 1.98482E+01-1.75367E-03 5.37331E-05 2.17388E-02-3.54319E-14-5.71317E-13
 -1      1367 1.98263E+01-3.29266E-03 5.21834E-04 4.86752E-02-1.95064E-14-3.74922E-13
 -1      1368 1.98682E+01-1.47103E-03-8.55737E-05 1.81378E-02-6.56572E-14-5.76443E-13
 -1      1369 1.98899E+01-1.40470E-03 2.04968E-05 1.73841E-02-4.58395E-14-6.38785E-13
 -1      1370 1.98696E+01-2.69901E-03 4.42537E-04 3.91833E-02-4.83530E-14-3.37474E-13
 -1      1371 1.99061E+01-1.16275E-03-8.72942E-05 1.45070E-02 8.66648E-15-7.05425E-13
 -1      1372 1.99234E+01-1.07637E-03-1.96472E-06 1.39262E-02 2.44068E-14-6.30659E-13
 -1      1373 1.99050E+01-2.12458E-03 3.58851E-04 3.14154E-02-6.26319E-14-4.23468E-13
 -1      1374 1.99367E+01-8.70767E-04-8.65610E-05 1.17349E-02 3.55237E-15-6.61972E-13
 -1      1375 1.99507E+01-7.81331E-04-1.88333E-05 1.13129E-02-3.49063E-14-7.01544E-13
 -1      1376 1.99339E+01-1.59118E-03 2.76915E-04 2.53318E-02-4.78851E-15-5.36845E-13
 -1      1377 1.99617E+01-6.08717E-04-8.73397E-05 9.73748E-03-4.55312E-14-6.97819E-13
 -1      1378 1.99733E+01-5.32385E-04-3.49575E-05 9.45474E-03-1.23363E-14-7.17841E-13
 -1      1379 1.99576E+01-1.11619E-03 2.01434E-04 2.08064E-02-7.21848E-14-4.84561E-13
 -1      1380 1.99826E+01-3.92407E-04-9.30288E-05 8.39136E-03 2.56063E-14-7.83713E-13
 -1      1381 1.99926E+01-3.47281E-04-5.51396E-05 8.22082E-03 1.20021E-14-7.11272E-13
 -1      1382 1.99775E+01-7.19982E-04 1.37026E-04 1.76336E-02-3.19043E-15-5.50374E-13
 -1      1383 2.00007E+01-2.45077E-04-1.06482E-04 7.51784E-03 4.47577E-14-6.62249E-13
 -1      1384 2.00098E+01-2.54010E-04-8.42220E-05 7.42044E-03 3.15913E-14-6.28991E-13
 -1      1385 1.99945E+01-4.34221E-04 8.96528E-05 1.55098E-02 6.57522E-14-6.66817E-13
 -1      1386 2.00169E+01-2.03343E-04-1.29684E-04 6.85220E-03 1.38682E-15-6.03571E-13
 -1      1387 2.00251E+01-2.96497E-04-1.26847E-04 6.76898E-03-3.26040E-14-6.36596E-13
 -1      1388 2.00094E+01-3.11322E-04 6.81967E-05 1.39858E-02 2.19976E-14-5.69405E-13
 -1      1389 2.00311E+01-3.23521E-04-1.62949E-04 5.99650E-03-1.87635E-14-6.34103E-13
 -1      1390 2.00382E+01-5.40016E-04-1.86697E-04 5.83731E-03-1.43295E-14-6.95412E-13
 -1      1391 2.00223E+01-4.34776E-04 8.61760E-05 1.23891E-02-3.16788E-14-5.00295E-13
 -1      1392 2.00425E+01-6.87272E-04-2.03506E-04 4.35730E-03 1.24844E-14-6.39692E-13
 -1      1393 2.00475E+01-1.07460E-03-2.65021E-04 3.98640E-03-1.08069E-14-6.46137E-13
 -1      1394 2.00326E+01-9.28807E-04 1.63429E-04 9.71602E-03-1.50747E-14-3.85977E-13
 -1      1395 2.00488E+01-1.40409E-03-2.43430E-04 1.07480E-03-7.12377E-14-7.05161E-13
 -1      1396 2.00494E+01-2.01304E-03-3.58333E-04 2.95377E-04-4.87032E-14-7.57501E-13
 -1      1397 2.00383E+01-1.96369E-03 3.27276E-04 4.50278E-03-4.89645E-14-4.82224E-13
 -1      1398 2.00454E+01-2.60610E-03-2.67207E-04-5.03954E-03-1.04506E-14-8.20497E-13
 -1      1399 2.00379E+01-3.47792E-03-4.55505E-04-6.49761E-03-3.04743E-14-9.01629E-13
 -1      1400 2.00362E+01-3.74971E-03 6.12180E-04-5.29991E-03-1.21229E-13-5.26424E-13
 -1      1401 2.00250E+01-4.42797E-03-2.49791E-04-1.55233E-02-4.32297E-14-8.84934E-13
 -1      1402 2.00038E+01-5.56991E-03-5.35179E-04-1.80036E-02-5.99412E-15-8.74463E-13
 -1      1403 2.00205E+01-6.50869E-03 1.05619E-03-2.23964E-02-3.67754E-14-5.67862E-13
 -1      1404 1.99772E+01-6.96286E-03-1.57016E-04-3.21858E-02 2.11043E-14-8.90450E-13
 -1      1405 1.99342E+01-8.30904E-03-5.65407E-04-3.60790E-02 1.72692E-15-8.63223E-13
 -1      1406 1.99832E+01-1.04080E-02 1.69170E-03-5.00697E-02-2.08600E-14-5.94686E-13
 -1      1407 1.98873E+01-1.01858E-02 4.88413E-05-5.68537E-02-4.67760E-14-8.69027E-13
 -1      1408 1.98126E+01-1.15447E-02-5.08607E-04-6.25256E-02 2.82443E-14-8.04995E-13
 -1      1409 1.99129E+01-1.54428E-02 2.52750E-03-9.18266E-02-3.95623E-14-5.85593E-13
 -1      1410 1.97376E+01-1.38441E-02 3.95143E-04-9.08540E-02-3.41881E-14-7.67145E-13
 -1      1411 1.96196E+01-1.48446E-02-3.34918E-04-9.85090E-02-1.00800E-14-7.53685E-13
 -1      1412 1.97959E+01-2.12640E-02 3.52054E-03-1.50604E-01 1.92105E-14-5.00869E-13
 -1      1413 1.95086E+01-1.73357E-02 8.75766E-04-1.34185E-01-2.60159E-14-7.56608E-13
 -1      1414 1.93361E+01-1.73992E-02-4.44855E-05-1.43659E-01-2.00445E-14-7.67461E-13
 -1      1415 1.96166E+01-2.69804E-02 4.53937E-03-2.27411E-01-7.24984E-14-4.24975E-13
 -1      1416 1.91826E+01-1.96321E-02 1.42411E-03-1.84444E-01-2.64498E-14-8.26622E-13
 -1      1417 1.89479E+01-1.80186E-02 3.07288E-04-1.94957E-01-7.90366E-14-9.08584E-13
 -1      1418 1.93605E+01-3.10201E-02 5.33147E-03-3.19454E-01-1.28171E-13-4.85008E-13
 -1      1419 1.87494E+01-1.93446E-02 1.89712E-03-2.35802E-01-8.42490E-14-9.07720E-13
 -1      1420 1.84528E+01-1.53262E-02 5.97535E-04-2.45766E-01-5.84120E-14-9.97102E-13
 -1      1421 1.90182E+01-3.12037E-02 5.51939E-03-4.18119E-01-5.88878E-14-5.96444E-13
 -1      1422 1.82138E+01-1.50475E-02 2.09450E-03-2.78619E-01 1.89070E-14-8.90430E-13
 -1      1423 1.78678E+01-8.22797E-03 6.59173E-04-2.85658E-01 8.78171E-14-8.62269E-13
 -1      1424 1.85909E+01-2.52068E-02 4.66234E-03-5.07717E-01-9.72551E-15-4.67616E-13
 -1      1425 1.76029E+01-5.89966E-03 1.83110E-03-3.00455E-01 3.41470E-14-8.61021E-13
 -1      1426 1.72353E+01 3.38936E-03 3.54853E-04-3.01814E-01 1.15198E-14-7.96222E-13
 -1      1427 1.80968E+01-1.14955E-02 2.41348E-03-5.66330E-01 9.34661E-14-3.74751E-13
 -1      1428 1.69697E+01 7.59183E-03 1.05197E-03-2.89029E-01 3.37332E-14-8.17214E-13
 -1      1429 1.66222E+01 1.80221E-02-3.18961E-04-2.82444E-01 6.39165E-14-7.38857E-13
 -1      1430 1.75746E+01 9.47684E-03-1.24203E-03-5.70000E-01 4.48805E-14-4.81555E-13
 -1      1431 1.63896E+01 2.30948E-02-7.89344E-05-2.36779E-01 7.33398E-14-8.77173E-13
 -1      1432 1.61119E+01 3.24664E-02-1.16404E-03-2.21563E-01 4.70401E-14-7.51723E-13
 -1      1433 1.70826E+01 3.44343E-02-5.77144E-03-5.00330E-01 9.21546E-14-6.17032E-13
 -1      1434 1.59478E+01 3.67826E-02-1.19770E-03-1.45335E-01 1.89345E-14-6.52761E-13
 -1      1435 1.57855E+01 4.26727E-02-1.81892E-03-1.23148E-01 8.05818E-14-6.67836E-13
 -1      1436 1.66897E+01 5.75775E-02-1.00929E-02-3.53288E-01 6.12158E-14-6.56628E-13
 -1      1437 1.57181E+01 4.46511E-02-1.88933E-03-2.73273E-02-4.77153E-14-5.71270E-13
 -1      1438 1.57006E+01 4.53788E-02-1.93264E-03-2.04600E-03-1.52402E-13-6.78800E-13
 -1      1439 1.64600E+01 7.23843E-02-1.29039E-02-1.44854E-01 3.25816E-14-4.07806E-13
 -1      1440 1.57424E+01 4.42835E-02-1.92633E-03 9.63248E-02-2.38139E-14-5.93679E-13
 -1      1441 1.58734E+01 3.96769E-02-1.37631E-03 1.19798E-01 1.92463E-14-6.58867E-13
 -1      1442 1.64344E+01 7.43336E-02-1.32498E-02 9.07096E-02-6.14873E-14-1.60429E-13
 -1      1443 1.60172E+01 3.60420E-02-1.39334E-03 2.03091E-01 1.22706E-14-5.26112E-13
 -1      1444 1.62745E+01 2.75158E-02-3.42854E-04 2.20570E-01 2.20635E-14-4.73200E-13
 -1      1445 1.66183E+01 6.29945E-02-1.10409E-02 3.10827E-01 7.84711E-14-8.74474E-15
 -1      1446 1.64962E+01 2.28550E-02-6.39232E-04 2.76361E-01 1.75345E-13-3.85220E-13
 -1      1447 1.68386E+01 1.27295E-02 7.44062E-04 2.85741E-01 2.74982E-13-1.58581E-13
 -1      1448 1.69798E+01 4.22705E-02-7.09164E-03 4.78678E-01 2.15452E-13-2.02715E-14
 -1      1449 1.71047E+01 8.73713E-03-7.03893E-05 3.10006E-01 1.11213E-13 3.29545E-14
 -1      1450 1.74852E+01-7.84647E-04 1.46737E-03 3.11579E-01 1.22186E-13 1.91621E-13
 -1      1451 1.74610E+01 1.84860E-02-2.69488E-03 5.74373E-01 3.39080E-13 1.21989E-13
 -1      1452 1.77623E+01-3.03037E-03 7.57927E-05 3.08020E-01 5.36218E-14 1.31315E-13
 -1      1453 1.81385E+01-1.06699E-02 1.64370E-03 3.03738E-01 2.81490E-14 1.11171E-13
 -1      1454 1.79950E+01-2.50427E-03 1.00727E-03 5.97964E-01 1.35642E-13 2.08672E-13
 -1      1455 1.83998E+01-1.11106E-02-1.27842E-04 2.80097E-01 3.73774E-14 9.74828E-14
 -1      1456 1.87408E+01-1.68046E-02 1.47461E-03 2.72277E-01 3.70097E-14 1.23537E-13
 -1      1457 1.85222E+01-1.76537E-02 3.47787E-03 5.63919E-01 5.70932E-14 3.49773E-13
 -1      1458 1.89681E+01-1.63848E-02-1.93621E-04 2.35602E-01-2.99754E-14 2.77608E-14
 -1      1459 1.92530E+01-2.10506E-02 1.53391E-03 2.25631E-01-5.53140E-14-5.45571E-14
 -1      1460 1.89989E+01-2.77293E-02 4.89498E-03 4.90762E-01-4.00938E-14 2.88112E-13
 -1      1461 1.94353E+01-2.13563E-02 6.83527E-04 1.78540E-01 1.24266E-13-3.31575E-14
 -1      1462 1.96459E+01-2.60331E-02 2.17346E-03 1.65579E-01 1.06291E-13 1.00473E-13
 -1      1463 1.93979E+01-3.67870E-02 5.92568E-03 3.90709E-01 4.02772E-14 2.05345E-13
 -1      1464 1.97787E+01-3.24879E-02 1.70394E-03 1.05279E-01 5.88923E-14 2.81228E-13
 -1      1465 1.98958E+01-3.21721E-02 1.49812E-03 8.67707E-02 8.56439E-14 3.99655E-13
 -1      1466 1.97036E+01-5.14051E-02 6.29369E-03 2.64985E-01 1.78680E-13 3.79932E-13
 -1      1467 1.99890E+01-1.69115E-02 1.56033E-03 5.15102E-03-2.99564E-13 1.85000E-13
 -1      1468 1.99351E+01-6.15440E-02 4.54978E-03 8.99260E-02-1.90305E-13 2.14636E-13
 -1      1469 2.07562E+01 3.27468E-01-1.76322E-01 8.49640E-01 2.27013E-13 1.72808E-12
 -1      1470 2.21430E+01 1.87718E-01-4.00718E-01 1.36275E+00 2.39336E-13 2.00023E-12
 -1      1471 1.96562E+01 9.39853E-02-1.84415E-02 3.46547E-01 1.83745E-13 1.32572E-12
 -1      1472 2.01489E+01 1.60421E-01-8.03960E-02 4.19903E-01 1.92908E-13 1.59927E-12
 -1      1473 2.10398E+01 4.14105E-01-1.02760E-01 1.33626E+00 4.01998E-13 9.67223E-13
 -1      1474 1.91201E+01 4.31031E-02 1.25908E-02 1.24911E-01 1.44967E-13 1.01196E-12
 -1      1475 1.92841E+01 6.75001E-02 1.11314E-03 1.43668E-01 1.44315E-13 1.20678E-12
 -1      1476 1.99629E+01 1.40870E-01-3.70102E-02 5.31191E-01 3.21854E-13 7.80664E-13
 -1      1477 1.89287E+01 2.02349E-02 1.12056E-02 2.20385E-02 9.16567E-14 7.87235E-13
 -1      1478 1.89525E+01 3.27242E-02 1.30270E-02 3.18634E-02 1.09502E-13 9.23137E-13
 -1      1479 1.94652E+01 5.85935E-02-9.08108E-03 1.81773E-01 2.31801E-13 5.86350E-13
 -1      1480 1.89093E+01 9.50670E-03 6.60313E-03-2.80683E-02 7.55036E-14 6.04190E-13
 -1      1481 1.88689E+01 1.65881E-02 8.95753E-03-2.32330E-02 7.78904E-14 7.17003E-13
 -1      1482 1.92462E+01 2.56339E-02-3.62409E-03 1.66631E-02 1.70568E-13 4.48959E-13
 -1      1483 1.89772E+01 3.77554E-03 3.72896E-03-5.22327E-02 7.30324E-14 4.51228E-13
 -1      1484 1.89074E+01 8.23079E-03 4.80835E-03-5.01987E-02 8.24399E-14 5.64921E-13
 -1      1485 1.91839E+01 1.08109E-02-2.29400E-03-6.51447E-02 1.47106E-13 3.28256E-13
 -1      1486 1.90868E+01 4.97463E-04 2.25761E-03-6.19883E-02 3.97465E-14 3.64165E-13
 -1      1487 1.90059E+01 3.42503E-03 2.50982E-03-6.16297E-02 5.60936E-14 4.15754E-13
 -1      1488 1.92075E+01 3.16071E-03-1.38707E-03-1.03871E-01 1.20504E-13 2.18917E-13
 -1      1489 1.92119E+01-1.36078E-03 1.46802E-03-6.34243E-02 5.58879E-14 2.46508E-13
 -1      1490 1.91303E+01 5.96403E-04 1.36605E-03-6.40481E-02 3.81611E-14 3.24844E-13
 -1      1491 1.92757E+01-1.06826E-03-6.06925E-04-1.18316E-01 9.12712E-14 1.43211E-13
 -1      1492 1.93376E+01-2.34759E-03 9.88490E-04-6.01126E-02 1.71968E-14 1.91568E-13
 -1      1493 1.92609E+01-1.04147E-03 7.64238E-04-6.12760E-02 5.42443E-14 2.57706E-13
 -1      1494 1.93643E+01-3.35810E-03-3.17857E-05-1.18725E-01 7.00202E-14 1.07529E-13
 -1      1495 1.94554E+01-2.78212E-03 6.69401E-04-5.42673E-02 2.23957E-14 1.64088E-13
 -1      1496 1.93864E+01-1.92828E-03 4.17055E-04-5.56817E-02 1.76921E-14 1.96365E-13
 -1      1497 1.94585E+01-4.47510E-03 3.34074E-04-1.11194E-01 5.71520E-14 9.90855E-14
 -1      1498 1.95607E+01-2.86640E-03 4.48162E-04-4.72978E-02-1.99534E-14 1.55366E-13
 -1      1499 1.95009E+01-2.33113E-03 2.05248E-04-4.87761E-02 1.15967E-14 1.42712E-13
 -1      1500 1.95498E+01-4.85996E-03 5.35965E-04-9.95365E-02 1.20230E-14 8.80181E-14
 -1      1501 1.96518E+01-2.74317E-03 2.69428E-04-4.00929E-02 7.57573E-15 1.57270E-13
 -1      1502 1.96013E+01-2.41726E-03 7.54162E-05-4.15288E-02 7.03756E-15 1.90767E-13
 -1      1503 1.96334E+01-4.79000E-03 6.20432E-04-8.61803E-02-1.70361E-14 3.18961E-14
 -1      1504 1.97251E+01-2.49282E-03 1.81347E-04-3.35525E-02 3.70592E-14 1.22792E-13
 -1      1505 1.96851E+01-2.40204E-03-3.38901E-05-3.47868E-02 1.26368E-14 1.70986E-13
 -1      1506 1.97054E+01-4.39823E-03 6.84977E-04-7.29328E-02 1.53663E-14 3.93717E-14
 -1      1507 1.97893E+01-2.17878E-03 1.13764E-04-2.72848E-02 9.57472E-14-1.95606E-14
 -1      1508 1.97551E+01-2.11706E-03-4.07286E-05-2.84436E-02 9.19396E-14 9.31208E-14
 -1      1509 1.97670E+01-3.99615E-03 5.94688E-04-6.05529E-02 1.23733E-13 1.37125E-14
 -1      1510 1.98412E+01-1.83375E-03 6.55193E-05-2.18217E-02 1.03657E-14-1.01120E-13
 -1      1511 1.98139E+01-1.85605E-03-6.58666E-05-2.28017E-02 5.04100E-14-4.79782E-14
 -1      1512 1.98201E+01-3.43230E-03 5.37023E-04-4.90828E-02 1.08640E-13-2.74517E-14
 -1      1513 1.98827E+01-1.48664E-03 3.91250E-05-1.72368E-02 4.22988E-14-1.36393E-13
 -1      1514 1.98612E+01-1.55850E-03-6.89964E-05-1.80406E-02 2.89345E-14-9.94908E-14
 -1      1515 1.98638E+01-2.85854E-03 4.59975E-04-3.91905E-02 4.87116E-14-8.47119E-15
 -1      1516 1.99157E+01-1.14600E-03 3.02702E-05-1.35467E-02-2.13032E-14-1.23202E-13
 -1      1517 1.98989E+01-1.25288E-03-5.94518E-05-1.41791E-02 1.76054E-14-1.19584E-13
 -1      1518 1.98992E+01-2.29619E-03 3.75488E-04-3.09985E-02 3.47503E-14-1.31201E-14
 -1      1519 1.99421E+01-8.09366E-04 3.74501E-05-1.07484E-02-3.53849E-14-5.64557E-14
 -1      1520 1.99289E+01-9.45293E-04-4.00246E-05-1.12142E-02 2.17724E-14-9.70370E-14
 -1      1521 1.99280E+01-1.75301E-03 2.87641E-04-2.45396E-02-1.45071E-14-6.89001E-14
 -1      1522 1.99638E+01-4.62079E-04 6.14823E-05-8.85316E-03 3.66732E-14-1.43318E-13
 -1      1523 1.99530E+01-6.29678E-04-1.14191E-05-9.15186E-03 2.96838E-15-9.80993E-14
 -1      1524 1.99516E+01-1.21873E-03 1.96680E-04-1.98322E-02 1.16747E-14-9.51400E-14
 -1      1525 1.99829E+01-7.42857E-05 1.05874E-04-7.92360E-03-2.02627E-14-1.23657E-13
 -1      1526 1.99735E+01-2.86196E-04 2.74218E-05-8.04273E-03 3.33622E-14-1.53667E-13
 -1      1527 1.99719E+01-6.62423E-04 9.92626E-05-1.69510E-02 2.51451E-14-1.63108E-13
 -1      1528 2.00020E+01 4.05527E-04 1.77580E-04-8.12177E-03 2.11099E-14-8.23946E-14
 -1      1529 1.99924E+01 1.23422E-04 7.93004E-05-8.02732E-03-4.65449E-14-1.26496E-13
 -1      1530 1.99907E+01-2.54403E-05-1.20852E-05-1.61089E-02-2.39097E-14-2.00493E-13
 -1      1531 2.00240E+01 1.06251E-03 2.88158E-04-9.78055E-03-3.56415E-14-4.73845E-15
 -1      1532 2.00126E+01 6.65123E-04 1.48807E-04-9.40232E-03 1.84695E-14-2.46812E-14
 -1      1533 2.00104E+01 7.93057E-04-1.50305E-04-1.77698E-02-2.33342E-14-2.07487E-13
 -1      1534 2.00534E+01 2.03613E-03 4.55200E-04-1.35166E-02 2.88608E-14-1.40044E-13
 -1      1535 2.00376E+01 1.44905E-03 2.42174E-04-1.27242E-02 1.89659E-14-4.89441E-14
 -1      1536 2.00341E+01 1.96239E-03-3.36173E-04-2.28209E-02 3.58944E-14-1.22072E-13
 -1      1537 2.00965E+01 3.56156E-03 7.06222E-04-2.04116E-02 1.24109E-14-1.92638E-13
 -1      1538 2.00725E+01 2.65751E-03 3.65888E-04-1.89767E-02 7.07353E-14-1.00751E-13
 -1      1539 2.00659E+01 3.76682E-03-6.01840E-04-3.28451E-02 8.77821E-14-6.03698E-14
 -1      1540 2.01635E+01 6.03648E-03 1.03826E-03-3.23485E-02-2.05103E-14-2.29015E-13
 -1      1541 2.01251E+01 4.53048E-03 5.00864E-04-2.98363E-02-2.92516E-14-2.51125E-13
 -1      1542 2.01119E+01 6.70552E-03-9.89537E-04-5.05798E-02 8.12557E-14-9.05271E-14
 -1      1543 2.02640E+01 9.73203E-03 1.54055E-03-5.11295E-02 4.57730E-14-2.31758E-13
 -1      1544 2.02050E+01 7.66456E-03 6.93271E-04-4.73741E-02 9.73310E-15-2.27729E-13
 -1      1545 2.01794E+01 1.13599E-02-1.57612E-03-7.96612E-02 1.44784E-15-1.78500E-13
 -1      1546 2.04327E+01 1.60243E-02 2.09783E-03-8.36404E-02-1.15782E-13-1.13469E-14
 -1      1547 2.03312E+01 1.26053E-02 8.13024E-04-7.67415E-02-8.44587E-14-1.46256E-13
 -1      1548 2.02830E+01 1.91611E-02-2.48068E-03-1.27340E-01-6.60010E-14-7.13058E-14
 -1      1549 2.07073E+01 2.63049E-02 2.60923E-03-1.37517E-01 8.04782E-15 2.47998E-14
 -1      1550 2.05386E+01 2.10719E-02 7.66038E-04-1.25998E-01-1.36839E-14 8.95256E-14
 -1      1551 2.04477E+01 3.23073E-02-3.98901E-03-2.07552E-01-1.44522E-13 1.43863E-13
 -1      1552 2.11539E+01 4.28432E-02 2.44927E-03-2.26243E-01-7.22929E-14 5.00607E-14
 -1      1553 2.08735E+01 3.49013E-02 6.67882E-06-2.06974E-01 3.81323E-14 5.11720E-14
 -1      1554 2.07050E+01 5.44272E-02-6.38446E-03-3.39042E-01 3.47309E-14 1.29247E-13
 -1      1555 2.18768E+01 6.86933E-02 1.77881E-04-3.70987E-01-1.01509E-13 1.63125E-13
 -1      1556 2.14131E+01 5.72705E-02-2.61606E-03-3.38939E-01-8.85915E-14 7.41698E-14
 -1      1557 2.11053E+01 9.08947E-02-1.03456E-02-5.52615E-01-1.21770E-13 1.02214E-13
 -1      1558 2.30339E+01 1.06668E-01-6.64017E-03-6.02604E-01-8.04686E-14 2.45103E-13
 -1      1559 2.22755E+01 9.21631E-02-9.42592E-03-5.50124E-01-1.07808E-13 1.71935E-13
 -1      1560 2.17213E+01 1.48985E-01-1.69067E-02-8.93931E-01-1.71833E-13-5.21094E-14
 -1      1561 2.48432E+01 1.54854E-01-1.91765E-02-9.58554E-01 9.38503E-14 1.32151E-13
 -1      1562 2.36324E+01 1.42309E-01-2.34823E-02-8.75807E-01 1.25497E-13 2.96069E-13
 -1      1563 2.26514E+01 2.34633E-01-2.69694E-02-1.42232E+00-1.80411E-14 4.12786E-14
 -1      1564 2.75470E+01 1.92366E-01-2.77993E-02-1.45974E+00 3.05866E-14 1.08524E-13
 -1      1565 2.57069E+01 2.00720E-01-4.36706E-02-1.34059E+00 5.25170E-14 1.54973E-13
 -1      1566 2.40134E+01 3.38763E-01-3.83825E-02-2.18951E+00 8.90191E-14 1.33730E-13
 -1      1567 3.12509E+01 1.50867E-01 9.76104E-03-2.02370E+00-3.01035E-14 1.38889E-13
 -1      1568 2.87197E+01 2.25586E-01-4.88229E-02-1.89346E+00-4.42008E-15 1.82743E-13
 -1      1569 2.59183E+01 3.94850E-01-3.78750E-02-3.15851E+00-3.63702E-14 2.00090E-13
 -1      1570 3.54577E+01-1.45652E-01 1.48955E-01-2.23739E+00-3.50830E-14 2.23446E-13
 -1      1571 3.27093E+01 6.55951E-02 1.97232E-02-2.25261E+00-3.69323E-14 1.97259E-13
 -1      1572 2.84082E+01 2.00561E-01 6.90716E-03-3.98857E+00-9.93823E-14 1.27738E-13
 -1      1573 3.80685E+01-6.74133E-01 2.94882E-01-1.53307E+00-7.30110E-14 3.74575E-13
 -1      1574 3.67039E+01-3.77777E-01 2.11717E-01-1.81503E+00-4.14668E-14 3.51719E-13
 -1      1575 3.11273E+01-5.79506E-01 1.05233E-01-3.83903E+00-9.20236E-14 2.14164E-13
 -1      1576 3.82997E+01-1.31309E+00 2.44386E-01 6.87636E-01-1.47077E-13 4.53970E-13
 -1      1577 3.94297E+01-1.10524E+00 3.88565E-01-4.07986E-02-2.10040E-14 3.91603E-13
 -1      1578 3.38005E+01-1.80489E+00 1.74691E-01-1.85026E+00-1.12327E-13 3.40915E-13
 -1      1579 2.68230E+01 7.11157E-01-1.87387E+00 3.16375E+00 3.55826E-14 5.69322E-13
 -1      1580 3.21281E+01 1.21968E-01-1.05482E+00 3.72716E+00-1.62093E-13 4.73066E-13
 -1      1581 2.47875E+01 1.07672E+00-2.31978E+00 4.63193E-01 3.68872E-13-2.23932E-13
 -1      1582 2.60543E+01 9.38166E-01-2.08173E+00 1.30437E+00 1.79412E-13 2.20546E-13
 -1      1583 3.44840E+01 1.76616E+00-9.16417E-01 4.39247E+00 2.99649E-13-4.07722E-13
 -1      1584 2.98201E+01 1.93651E-01-1.42305E+00-3.09859E+00 2.09499E-13-6.65468E-13
 -1      1585 2.51143E+01 9.86392E-01-2.20119E+00-2.45952E+00 1.95732E-13-3.12694E-13
 -1      1586 3.41838E+01 2.63564E+00-7.83915E-01-1.55717E+00 4.90386E-13-7.62154E-13
 -1      1587 3.72190E+01-7.02445E-01-1.01915E-01-3.56013E+00-1.36113E-13-5.38791E-13
 -1      1588 3.16619E+01 7.41078E-02-9.14622E-01-3.78640E+00 9.27591E-14-5.70877E-13
 -1      1589 4.04253E+01-8.72121E-01 4.74746E-01-1.42575E+00-7.54292E-14-2.39975E-13
 -1      1590 3.76858E+01-7.77028E-01 1.10279E-01-2.02662E+00-1.80301E-13-4.72289E-13
 -1      1591 3.76958E+01-1.49905E+00-7.81738E-03-4.77765E+00-2.65454E-13-5.74957E-13
 -1      1592 3.95308E+01-3.79230E-01 4.64978E-01 7.70246E-01-2.79880E-13 3.28142E-13
 -1      1593 3.98932E+01-6.42938E-01 4.63710E-01 3.40095E-01-1.63564E-13 4.77396E-14
 -1      1594 3.71497E+01-1.49979E+00 2.74167E-01-7.70890E-01-3.66020E-13-2.64691E-13
 -1      1595 3.50571E+01 5.96931E-02 1.29360E-01 1.75838E+00 1.12681E-13 5.88862E-13
 -1      1596 3.77523E+01-2.54370E-01 2.81460E-01 1.63789E+00-2.98234E-14 5.14699E-13
 -1      1597 3.46722E+01-7.02435E-01 1.97725E-01 2.41864E+00-3.13610E-13-1.23009E-14
 -1      1598 3.01692E+01 1.54662E-01-5.31465E-02 1.64895E+00 1.90844E-13 9.66449E-14
 -1      1599 3.30757E+01-1.61365E-02 2.32377E-02 1.70731E+00 1.81236E-13 5.39707E-13
 -1      1600 3.09974E+01-1.77842E-02 4.39217E-02 3.35189E+00 2.78694E-13 1.09121E-13
 -1      1601 2.62228E+01 1.32810E-01-8.03091E-02 1.23683E+00 1.10923E-13-2.68230E-13
 -1      1602 2.85086E+01 7.11842E-02-6.07158E-02 1.32509E+00 2.23856E-13-3.70259E-14
 -1      1603 2.74611E+01 1.84798E-01-3.91100E-02 2.88712E+00 3.09135E-13 1.12410E-14
 -1      1604 2.33833E+01 9.52681E-02-5.94469E-02 8.51125E-01-2.48326E-14-2.64025E-13
 -1      1605 2.49802E+01 7.82504E-02-5.64761E-02 9.24228E-01 3.88335E-14-3.40769E-13
 -1      1606 2.46167E+01 1.84108E-01-5.04583E-02 2.11005E+00 7.61266E-14-2.78798E-13
 -1      1607 2.14783E+01 7.52906E-02-4.32937E-02 5.48380E-01-3.70835E-13 2.94778E-13
 -1      1608 2.25129E+01 6.75394E-02-3.95721E-02 6.06414E-01-2.44364E-13-2.85792E-13
 -1      1609 2.25390E+01 1.42101E-01-4.13867E-02 1.42881E+00-1.59182E-13-1.41928E-13
 -1      1610 2.04100E+01 8.41584E-02-1.70747E-02 2.77542E-01-4.55252E-14 6.63863E-13
 -1      1611 2.09212E+01 6.04111E-02-3.67527E-02 3.32129E-01-1.17770E-13 3.75307E-13
 -1      1612 2.11302E+01 1.28510E-01-3.53080E-02 8.64910E-01-3.68185E-13-1.70192E-13
 -1      1613 2.00904E+01 9.78477E-02 3.08930E-02 9.32982E-02 3.73098E-13 3.01790E-13
 -1      1614 2.01817E+01 1.11073E-01-2.47003E-02 1.56634E-01-1.13540E-13 6.20121E-13
 -1      1615 2.03922E+01 1.67301E-01-3.40230E-02 4.55736E-01-6.87384E-14-1.63473E-13
 -1      1616 2.00693E+01 1.83023E-01-3.35863E-02 1.61311E-01 5.60158E-13-3.58365E-13
 -1      1617 2.00101E+01 1.05561E+00-1.86960E-02 3.97745E-01-5.21611E-13-9.79275E-14
 -1      1618 2.00679E+01 5.73240E-01-9.95817E-03 3.37321E-01 1.69254E-13-3.91631E-13
 -1      1619 2.01581E+01 6.03435E-01-7.93008E-03 5.28381E-01 8.85663E-14-6.73740E-13
 -1      1620 1.99629E+01 2.11028E+00 1.52618E-02 3.90103E-01-1.11804E-12-1.94074E-13
 -1      1621 1.99971E+01 1.51022E+00 7.78378E-04 3.92304E-01-8.34895E-13-1.95798E-13
 -1      1622 2.00185E+01 1.40605E+00 1.28261E-03 7.52211E-01-7.02043E-13-5.55914E-13
 -1      1623 1.99396E+01 2.84087E+00 3.45902E-02 2.01166E-01-6.93907E-13 4.10175E-13
 -1      1624 1.99396E+01 2.42961E+00 1.62774E-02 2.50535E-01-9.47027E-13 9.83267E-14
 -1      1625 1.99202E+01 2.15383E+00 2.08322E-02 5.87277E-01-4.11437E-13 8.61897E-14
 -1      1626 1.99438E+01 2.96035E+00 3.37858E-02-5.34664E-02-7.26315E-13-2.11404E-13
 -1      1627 1.99181E+01 2.90164E+00 2.10992E-02 1.23951E-02-7.65945E-13-1.33227E-15
 -1      1628 1.98892E+01 2.53222E+00 3.27394E-02 1.71105E-01-5.14941E-13 4.72088E-14
 -1      1629 1.99661E+01 2.47907E+00 2.07886E-02-2.64322E-01-7.07486E-13 7.42687E-14
 -1      1630 1.99296E+01 2.75872E+00 1.51728E-02-2.09967E-01-7.90104E-13 2.35081E-14
 -1      1631 1.99064E+01 2.40317E+00 2.99627E-02-2.80582E-01-6.61118E-13-5.60732E-14
 -1      1632 1.99946E+01 1.58422E+00 3.92031E-03-3.76858E-01-1.18318E-12-3.97096E-13
 -1      1633 1.99616E+01 2.09308E+00 5.25568E-03-3.47234E-01-8.71400E-13-1.47735E-13
 -1      1634 1.99491E+01 1.83607E+00 1.70596E-02-6.03923E-01-6.57746E-13-2.55398E-13
 -1      1635 2.00170E+01 5.66106E-01-9.61872E-03-3.77175E-01-6.20941E-13 3.63343E-13
 -1      1636 1.99969E+01 1.13609E+00-3.97812E-03-3.75642E-01-9.13037E-13 2.92644E-14
 -1      1637 1.99985E+01 1.02091E+00 2.48106E-03-7.27249E-01-4.04551E-13-1.34536E-13
 -1      1638 2.00288E+01-3.21912E-01-1.64737E-02-2.94538E-01-5.15161E-13 8.75675E-14
 -1      1639 2.00238E+01 1.67384E-01-9.15746E-03-3.13710E-01-6.07278E-13 2.52983E-14
 -1      1640 2.00354E+01 1.88496E-01-8.85316E-03-6.59869E-01-2.29133E-13 1.53337E-13
 -1      1641 2.00306E+01-9.26419E-01-1.71269E-02-1.72027E-01-9.33715E-14 2.74317E-13
 -1      1642 2.00376E+01-6.01645E-01-1.01565E-02-2.01389E-01-3.78628E-13 6.11438E-14
 -1      1643 2.00532E+01-4.82963E-01-1.47787E-02-4.68705E-01-8.86374E-14 2.24541E-13
 -1      1644 2.00255E+01-1.20029E+00-1.37262E-02-4.78010E-02-3.81060E-13-8.46649E-14
 -1      1645 2.00394E+01-1.06354E+00-8.38192E-03-7.81366E-02-7.28237E-14-1.38131E-13
 -1      1646 2.00541E+01-8.99829E-01-1.57646E-02-2.31996E-01-2.11471E-13-5.09167E-14
 -1      1647 2.00171E+01-1.18125E+00-8.78555E-03 5.14287E-02-5.68582E-13-2.56050E-13
 -1      1648 2.00332E+01-1.20719E+00-5.29326E-03 2.65308E-02-3.66984E-13-1.81764E-13
 -1      1649 2.00429E+01-1.04883E+00-1.37333E-02-1.35988E-02-3.55630E-13-2.99059E-13
 -1      1650 2.00071E+01-9.50564E-01-3.17731E-03 1.15948E-01-3.21947E-13 3.82152E-13
 -1      1651 2.00219E+01-1.09270E+00-2.09584E-03 9.88422E-02-5.46868E-13 2.04155E-13
 -1      1652 2.00270E+01-9.75744E-01-9.35805E-03 1.49227E-01-2.67352E-13 1.43052E-13
 -1      1653 1.99970E+01-6.12290E-01 2.60042E-03 1.37822E-01-7.61152E-13-2.57954E-13
 -1      1654 2.00080E+01-8.08784E-01 1.22698E-03 1.31150E-01-4.69989E-13-1.44213E-13
 -1      1655 2.00076E+01-7.53504E-01-4.16980E-03 2.39006E-01-5.64607E-13-7.15307E-14
 -1      1656 1.99845E+01-2.90889E-01 3.88823E-03 1.15197E-01-6.65549E-13 3.27820E-13
 -1      1657 1.99937E+01-4.65714E-01 4.47844E-03 1.19883E-01-7.13922E-13 8.13525E-14
 -1      1658 1.99881E+01-4.69086E-01 1.97789E-03 2.46634E-01-4.30699E-13-6.57569E-14
 -1      1659-1.49657E+00-1.92107E+01-1.98852E+00-3.01672E+00 2.25764E-13-2.07612E-14
 -1      1660-1.08996E+00-1.98320E+01-1.93606E+00-9.48401E-01 3.43614E-14 1.20903E-13
 -1      1661-7.71319E-01-1.40018E+01-1.87221E+00-2.80147E+00-2.66454E-15-1.52656E-13
 -1      1662-7.47933E-01-1.82231E+01-2.09698E+00-2.41524E+00 1.23124E-13-1.54932E-13
 -1      1663 4.00015E+00-6.16401E+00-1.57240E+00 7.13729E-01-2.85549E-13-5.66658E-13
 -1      1664 1.58880E+00-1.22598E+01-2.11824E+00-1.66692E+00 2.93099E-14-2.40918E-13
 -1      1665 1.55276E+01 6.99899E-01-8.16346E-01 6.53775E+00-3.52385E-13 8.30447E-14
 -1      1666 8.51933E+00-4.29806E+00-1.84405E+00 2.15133E+00-4.31877E-13-3.51275E-13
 -1      1667 3.55738E+01 3.98064E+00 7.78921E-01 1.13920E+01 1.73195E-14 2.96874E-13
 -1      1668 2.27457E+01 1.79871E+00-8.80020E-01 7.51411E+00-1.48326E-13 7.86038E-14
 -1      1669 5.83067E+01 3.69835E+00 2.81534E+00 1.01441E+01 2.23044E-13-1.91847E-13
 -1      1670 4.35950E+01 4.34223E+00 9.52570E-01 1.01027E+01 2.21045E-13 7.92699E-14
 -1      1671 7.36299E+01 3.80556E+00 4.51976E+00 3.63010E+00 1.25733E-13-6.35381E-13
 -1      1672 6.39252E+01 5.05954E+00 3.24522E+00 9.15506E+00 1.29674E-13-2.13385E-13
 -1      1673 7.11194E+01 4.38632E+00 4.04106E+00-4.59632E+00 2.77112E-13-9.47686E-13
 -1      1674 7.34377E+01 3.99399E+00 4.29231E+00 2.15589E+00 1.41998E-13-7.22755E-13
 -1      1675 5.62132E+01 5.18027E+00 2.44929E+00-1.03879E+01 6.21891E-13-1.42131E-12
 -1      1676 6.91104E+01 3.56389E+00 3.95350E+00-6.78410E+00 4.10783E-13-1.14442E-12
 -1      1677 3.44771E+01 3.54373E+00 1.72957E-01-9.22814E+00 6.83564E-13-1.34759E-12
 -1      1678 4.88004E+01 3.71053E+00 1.87759E+00-1.09670E+01 5.57221E-13-1.39755E-12
 -1      1679 1.61867E+01-3.55575E-01-1.36827E+00-5.23169E+00 8.35554E-13-1.13176E-12
 -1      1680 2.63782E+01 2.77167E+00-4.10739E-02-9.50572E+00 8.80851E-13-1.22879E-12
 -1      1681 5.18278E+00-7.09687E+00-2.01089E+00-3.12619E-01 7.70495E-13-6.97331E-13
 -1      1682 1.01134E+01-1.66109E+00-1.21005E+00-4.04727E+00 8.00693E-13-9.59677E-13
 -1      1683 6.84870E-01-1.42479E+01-2.03968E+00 2.05122E+00 1.70641E-13-3.97085E-13
 -1      1684 1.99469E+00-8.83099E+00-1.66001E+00 7.20969E-01 5.06706E-13-6.57474E-13
 -1      1685-9.96249E-01-1.89591E+01-1.99767E+00 2.04327E+00-6.48287E-13-2.68563E-13
 -1      1686-1.28599E+00-1.57077E+01-1.85620E+00 3.12283E+00-6.27276E-14-3.33095E-13
 -1      1687-9.81042E-01-1.89643E+01-1.86386E+00 4.36351E-01-7.88702E-13 3.89411E-14
 -1      1688-1.33056E+00-2.00777E+01-2.02835E+00 2.63178E+00-7.33108E-13-7.79932E-14
 -1      1689 1.99470E-01-1.24673E+01-1.37179E+00 3.58405E-01-6.62581E-13-2.34993E-13
 -1      1690-1.45727E-01-1.72717E+01-1.82153E+00 9.86407E-01-7.26863E-13-4.87110E-14
 -1      1691 4.26212E+00-3.63726E+00-7.44533E-01 3.47883E+00-6.00409E-13-2.02172E-13
 -1      1692 2.39269E+00-1.01019E+01-1.41968E+00 1.57371E+00-6.22613E-13-2.17659E-13
 -1      1693 1.32070E+01 4.05750E+00-1.92521E-02 8.81425E+00-3.99902E-13-3.01981E-13
 -1      1694 8.01424E+00-1.24601E+00-8.71129E-01 4.88182E+00-5.47562E-13-2.45470E-13
 -1      1695 2.60620E+01 8.27322E+00 7.34235E-01 1.37349E+01-3.42171E-13-3.73923E-13
 -1      1696 1.77310E+01 6.27987E+00-1.58501E-01 1.02536E+01-3.33844E-13-2.81997E-13
 -1      1697 4.18006E+01 7.66610E+00 1.35962E+00 1.47504E+01-2.30704E-13 1.22569E-13
 -1      1698 3.17894E+01 8.69948E+00 5.88174E-01 1.41204E+01-4.22107E-13-2.16049E-13
 -1      1699 5.47997E+01 5.20585E+00 1.72785E+00 9.81936E+00 2.12400E-14 1.47438E-13
 -1      1700 4.68000E+01 7.27242E+00 1.23214E+00 1.31186E+01-7.33025E-14 1.86740E-13
 -1      1701 6.04476E+01 3.98002E+00 1.82321E+00 1.46102E+00 2.48690E-14 2.51216E-13
 -1      1702 5.75736E+01 4.91800E+00 1.66701E+00 7.23792E+00 9.76164E-14 2.35201E-13
 -1      1703 5.64936E+01 5.21035E+00 1.60307E+00-7.77238E+00-3.21132E-14 1.79190E-13
 -1      1704 6.00391E+01 4.11054E+00 1.80751E+00-1.64460E+00-3.37508E-14 1.70752E-13
 -1      1705 4.46049E+01 7.62156E+00 1.09597E+00-1.34997E+01-6.45317E-14-3.55271E-14
 -1      1706 5.35365E+01 5.50529E+00 1.70754E+00-1.05569E+01 8.16222E-14 1.80966E-14
 -1      1707 2.87364E+01 7.44378E+00 3.31702E-01-1.23298E+01-2.92877E-13 2.84217E-14
 -1      1708 3.91356E+01 6.99258E+00 1.11677E+00-1.36646E+01-1.55098E-13-3.15969E-13
 -1      1709 1.39108E+01 4.41765E+00-4.58783E-01-8.40575E+00-1.00586E-13 1.46327E-13
 -1      1710 2.19687E+01 7.35730E+00 4.37561E-01-1.25225E+01-2.13496E-13 3.97016E-13
 -1      1711 5.23926E+00-3.87594E+00-1.15768E+00-3.15518E+00 6.28386E-13 2.43250E-13
 -1      1712 9.25023E+00 2.22175E+00-3.10458E-01-6.77807E+00-7.86038E-14 2.49134E-13
 -1      1713 1.08705E+00-1.32395E+01-1.68600E+00-5.54822E-01 5.87197E-13-2.59626E-13
 -1      1714 2.23032E+00-6.67475E+00-1.04522E+00-1.66238E+00 6.51479E-13 2.96430E-14
 -1      1715-6.04307E-01-1.91149E+01-1.91689E+00-1.35408E+00-1.10467E-14 9.24816E-14
 -1      1716-3.86025E-01-1.52348E+01-1.56520E+00 2.25187E-02 3.38951E-13-3.47278E-13
 -1      1717 2.29498E+01 1.98763E+00-2.67905E-02 2.77304E+00 2.86736E-13 1.60363E-12
 -1      1718 3.65599E+01 1.45849E-01-5.10260E-01-6.43582E+00 1.96732E-13-5.15617E-13
 -1      1719 3.47164E+01-7.51686E-01-5.28305E-01 3.99326E+00-6.80844E-14 4.81060E-13
 -1      1720 3.95416E+01-1.48216E+00 2.00020E-01 3.27098E+00-2.84148E-14 3.81084E-13
 -1      1721 3.70309E+01-2.90153E+00 7.79366E-02 2.59082E+00-1.45500E-13 1.25039E-14
 -1      1722 3.46992E+00-1.08417E+01-1.39654E+00 2.11075E+00-2.40918E-14-3.50317E-13
 -1      1723-1.82914E+00-1.31955E+01-1.36322E+00-2.06159E+00 1.73250E-13 1.26732E-13
 -1      1724-1.24066E+00-1.30753E+01-1.45244E+00-4.60916E-02-4.39093E-14-7.83262E-14
 -1      1725 1.99717E+01-1.07255E-01 1.53236E-03 8.58171E-02-4.72226E-13-1.00915E-13
 -1      1726 1.99733E+01-2.11378E-01 5.13659E-03 1.08511E-01-5.21402E-13 9.09971E-15
 -1      1727 1.99657E+01-2.49022E-01 6.30655E-03 2.11835E-01-3.13290E-13 1.24225E-13
 -1      1728 1.26172E+01-7.52981E+00-1.14681E+00 4.02466E+00-2.97540E-14-1.79134E-13
 -1      1729 2.65599E+01-3.86302E+00-3.90508E-01 5.03073E+00-4.29878E-13 6.58362E-14
 -1      1730 4.26011E+01 1.79712E-02 1.01563E+00 3.46373E+00-1.08580E-13-2.50244E-13
 -1      1731 5.49791E+01 4.03964E+00 2.15662E+00 3.23884E-01 2.08611E-13-5.45786E-13
 -1      1732 6.01673E+01 7.62624E+00 3.18460E+00 4.51688E-01 3.17302E-13-7.68441E-13
 -1      1733 5.88631E+01 7.10271E+00 3.01080E+00 6.66289E-01 5.40346E-13-1.01008E-12
 -1      1734 5.03681E+01 2.35653E+00 1.69668E+00-2.02341E+00 5.33226E-13-1.11133E-12
 -1      1735 3.57948E+01-1.93572E+00 2.09520E-01-4.26409E+00 5.40235E-13-9.72999E-13
 -1      1736 2.04398E+01-5.41102E+00-8.72857E-01-4.74305E+00 5.85754E-13-1.06892E-12
 -1      1737 8.92279E+00-8.73869E+00-1.28909E+00-3.38769E+00 4.46310E-13-7.65277E-13
 -1      1738 1.66248E+00-1.12472E+01-1.33088E+00-1.53324E+00-8.88178E-16-6.15896E-13
 -1      1739-1.89625E+00-1.32456E+01-1.42960E+00 7.87099E-01-3.35884E-13-3.71481E-13
 -1      1740-1.23074E+00-1.25933E+01-1.31464E+00 2.91225E+00-3.54550E-13 1.72085E-14
 -1      1741 3.20586E+00-8.98655E+00-9.22941E-01 5.07988E+00-3.38174E-13-7.74381E-15
 -1      1742 1.09978E+01-4.69963E+00-4.89392E-01 7.22703E+00-2.76112E-13 3.96905E-15
 -1      1743 2.07948E+01 1.09668E-01 2.19160E-03 8.70059E+00-3.11640E-13-2.49245E-13
 -1      1744 3.19885E+01 4.37624E+00 6.58649E-01 9.46126E+00-3.63043E-13 2.22045E-14
 -1      1745 4.25272E+01 6.75756E+00 1.18906E+00 7.86819E+00-3.21763E-13 7.46070E-14
 -1      1746 4.95423E+01 8.03135E+00 1.48632E+00 4.28384E+00-3.59157E-14-1.26565E-14
 -1      1747 5.15799E+01 8.58617E+00 1.56343E+00-7.82460E-02 8.77076E-15 2.46442E-13
 -1      1748 4.86929E+01 7.98125E+00 1.42729E+00-4.47841E+00 1.42053E-13 1.11855E-13
 -1      1749 4.04475E+01 5.54199E+00 8.67713E-01-6.97495E+00-5.53099E-14-1.83853E-13
 -1      1750 2.96288E+01 2.85666E+00 5.29534E-01-8.77903E+00-6.05627E-14-1.58096E-13
 -1      1751 1.72495E+01-9.94875E-01-1.35338E-01-8.24281E+00 8.45990E-14 1.88960E-13
 -1      1752 7.62225E+00-6.30978E+00-7.46447E-01-6.03349E+00 4.87277E-13 3.09780E-13
 -1      1753 1.20426E+00-1.08450E+01-1.15798E+00-3.93706E+00 2.08500E-13-4.17555E-13
 -1      1754 2.28665E+01 1.98556E+00-2.35500E-02-2.72357E+00-3.09697E-13 1.11591E-12
 -1      1755 3.85898E+01-7.70372E-01-2.70287E-02 6.14320E+00 5.21805E-15-6.58501E-14
 -1      1756 1.98255E+01 3.71543E+00-3.55695E-02-2.15362E+00-3.86990E-13-5.18512E-13
 -1      1757 2.00614E+01 3.56321E+00-4.02562E-02-2.44656E+00-4.45543E-13-3.89085E-13
 -1      1758 2.03676E+01 3.18269E+00-4.57320E-02-2.58641E+00-4.50779E-13-2.21337E-13
 -1      1759 2.05883E+01 2.81089E+00-1.42566E-01-2.85481E+00-4.85393E-13 6.38378E-15
 -1      1760 2.04271E+01 2.69437E+00-4.43570E-03-2.22740E+00-4.67498E-13-2.79117E-13
 -1      1761 1.93538E+01 4.19087E+00-2.02005E-02-1.27292E+00-2.10363E-13-6.97309E-13
 -1      1762 1.94277E+01 4.15054E+00-1.74859E-02-1.49697E+00-2.54408E-13-6.80003E-13
 -1      1763 1.92566E+01 4.29623E+00-1.67860E-02-8.62403E-01-1.20668E-13-7.10473E-13
 -1      1764 1.92998E+01 4.27246E+00-1.43094E-02-1.07287E+00-1.64100E-13-7.13367E-13
 -1      1765 1.95257E+01 3.78466E+00-9.20495E-03-1.12242E+00-2.09002E-13-6.81274E-13
 -1      1766 1.92042E+01 4.35696E+00-1.47868E-02-4.70061E-01-2.51917E-14-6.85067E-13
 -1      1767 1.92266E+01 4.34407E+00-1.32781E-02-6.70019E-01-6.93004E-14-6.99923E-13
 -1      1768 1.94276E+01 3.90534E+00-9.18878E-03-7.35929E-01-1.07212E-13-6.81172E-13
 -1      1769 1.91841E+01 4.38306E+00-1.36406E-02-8.76775E-02 5.92525E-14-6.78499E-13
 -1      1770 1.91909E+01 4.37898E+00-1.31720E-02-2.82693E-01 2.48747E-14-6.84518E-13
 -1      1771 1.93763E+01 3.97039E+00-9.14955E-03-3.61549E-01-1.89464E-16-6.63126E-13
 -1      1772 1.91915E+01 4.37851E+00-1.31239E-02 2.93125E-01 1.38053E-13-6.54910E-13
 -1      1773 1.91842E+01 4.38268E+00-1.36905E-02 9.80518E-02 9.74923E-14-6.73994E-13
 -1      1774 1.93607E+01 3.99052E+00-9.13756E-03 6.59148E-03 8.35551E-14-6.51612E-13
 -1      1775 1.92282E+01 4.34254E+00-1.32545E-02 6.80738E-01 2.09672E-13-6.50599E-13
 -1      1776 1.92053E+01 4.35570E+00-1.48264E-02 4.80598E-01 1.75906E-13-6.61859E-13
 -1      1777 1.93774E+01 3.96883E+00-9.18356E-03 3.74840E-01 1.66429E-13-6.43978E-13
 -1      1778 1.93010E+01 4.27122E+00-1.42714E-02 1.07706E+00 2.80276E-13-5.82387E-13
 -1      1779 1.92580E+01 4.29471E+00-1.68306E-02 8.69945E-01 2.42890E-13-6.22308E-13
 -1      1780 1.94295E+01 3.90294E+00-9.20230E-03 7.46209E-01 2.38363E-13-6.21078E-13
 -1      1781 1.94317E+01 4.14785E+00-1.70543E-02 1.50524E+00 3.85920E-13-4.87287E-13
 -1      1782 1.93558E+01 4.18850E+00-2.02304E-02 1.27702E+00 3.30446E-13-5.36255E-13
 -1      1783 1.95282E+01 3.78167E+00-9.25331E-03 1.12920E+00 3.34041E-13-5.35162E-13
 -1      1784 1.96587E+01 3.93753E+00-2.45962E-02 1.96761E+00 4.69409E-13-3.60392E-13
 -1      1785 1.95275E+01 4.01181E+00-2.61537E-02 1.71255E+00 4.24811E-13-4.41192E-13
 -1      1786 1.96999E+01 3.57896E+00-8.76946E-03 1.52846E+00 4.35141E-13-4.32066E-13
 -1      1787 2.00672E+01 3.54844E+00-4.34981E-02 2.45325E+00 5.12897E-13-1.03237E-13
 -1      1788 1.98331E+01 3.71016E+00-3.51064E-02 2.16726E+00 4.82368E-13-2.60354E-13
 -1      1789 1.99894E+01 3.24756E+00-5.20066E-03 1.92592E+00 5.05280E-13-2.82767E-13
 -1      1790 2.06139E+01 2.79374E+00-1.38120E-01 2.86935E+00 5.03139E-13 3.81098E-13
 -1      1791 2.03857E+01 3.16329E+00-4.58041E-02 2.59903E+00 4.93964E-13 1.01877E-13
 -1      1792 2.04708E+01 2.67032E+00 4.48468E-03 2.23986E+00 5.27895E-13 1.24761E-14
 -1      1793 4.27632E+01-6.42982E-01 2.06404E-01-3.78405E+00-2.11497E-14-4.90719E-13
 -1      1794 4.23475E+01 2.30121E+00 1.90779E-01-3.46079E+00 2.39808E-13-5.94524E-13
 -1      1795 2.18033E+01 2.45899E+00 9.08917E-02-3.04944E+00-4.14137E-13 4.19526E-13
 -1      1796 2.18363E+01 2.47483E+00 8.92622E-02 3.08963E+00 4.06484E-13 8.03121E-13
 -1      1797 2.05269E+01 5.00767E-01 3.25422E-02-9.22083E-01-3.81278E-13 1.95817E-13
 -1      1798 2.00948E+01 3.52161E-01 7.59370E-03-6.30111E-01-3.41838E-13 9.96972E-14
 -1      1799 1.99001E+01 2.57687E-01 2.74292E-02-3.91502E-01-3.07310E-13 9.23896E-14
 -1      1800 1.97090E+01 1.78445E-01 1.04215E-02-2.53447E-01-2.67369E-13 4.98213E-15
 -1      1801 2.02040E+01 4.84290E-01-5.73263E-03-7.23289E-01-3.81804E-13-7.25882E-14
 -1      1802 1.95871E+01 1.33055E-01 1.66921E-02-1.19631E-01-2.27485E-13-9.69537E-15
 -1      1803 1.95091E+01 9.33363E-02 6.99294E-03-4.86881E-02-1.74900E-13-7.29525E-14
 -1      1804 1.98777E+01 2.44584E-01-5.71375E-03-2.95485E-01-2.96076E-13-1.00637E-13
 -1      1805 1.94442E+01 6.86266E-02 8.70240E-03 2.49904E-02-1.42537E-13-8.74665E-14
 -1      1806 1.94299E+01 4.69083E-02 4.12576E-03 6.12837E-02-1.23368E-13-1.31950E-13
 -1      1807 1.96951E+01 1.25592E-01-4.61900E-03-5.82398E-02-2.04546E-13-1.52236E-13
 -1      1808 1.94039E+01 3.25468E-02 4.24235E-03 1.00116E-01-1.30214E-13-1.50690E-13
 -1      1809 1.94240E+01 2.00831E-02 2.44124E-03 1.16974E-01-1.28759E-13-1.92908E-13
 -1      1810 1.96087E+01 6.11978E-02-3.45648E-03 7.16504E-02-1.59500E-13-2.06811E-13
 -1      1811 1.94224E+01 1.14196E-02 1.85549E-03 1.34977E-01-1.30230E-13-1.87535E-13
 -1      1812 1.94597E+01 4.21203E-03 1.45367E-03 1.40455E-01-1.06854E-13-2.14701E-13
 -1      1813 1.95847E+01 2.42412E-02-2.33632E-03 1.38282E-01-1.39380E-13-2.15002E-13
 -1      1814 1.94723E+01-1.01212E-03 5.50565E-04 1.45876E-01-9.35727E-14-2.16142E-13
 -1      1815 1.95169E+01-5.02788E-03 8.36875E-04 1.44676E-01-9.10672E-14-2.02474E-13
 -1      1816 1.95985E+01 2.62880E-03-1.43483E-03 1.66724E-01-1.17334E-13-2.20174E-13
 -1      1817 1.95369E+01-8.05543E-03-1.74886E-04 1.42632E-01-1.17193E-13-1.97294E-13
 -1      1818 1.95826E+01-1.00598E-02 4.36538E-04 1.37680E-01-7.38358E-14-1.94694E-13
 -1      1819 1.96333E+01-9.73074E-03-7.85925E-04 1.72112E-01-9.75018E-14-2.19619E-13
 -1      1820 1.96057E+01-1.16475E-02-5.66000E-04 1.31457E-01-8.67288E-14-2.39029E-13
 -1      1821 1.96491E+01-1.23715E-02 1.77650E-04 1.24634E-01-7.91705E-14-2.94777E-13
 -1      1822 1.96782E+01-1.62530E-02-3.48781E-04 1.64000E-01-1.31612E-13-2.93256E-13
 -1      1823 1.96725E+01-1.30135E-02-7.52655E-04 1.16370E-01-6.69064E-14-3.57703E-13
 -1      1824 1.97116E+01-1.29342E-02 1.65844E-05 1.08887E-01-1.89525E-14-3.75344E-13
 -1      1825 1.97261E+01-1.90303E-02-6.93122E-05 1.48583E-01-1.24734E-13-3.50086E-13
 -1      1826 1.97337E+01-1.29665E-02-8.11794E-04 9.99697E-02-4.52272E-15-3.80878E-13
 -1      1827 1.97679E+01-1.24037E-02-7.59013E-05 9.25941E-02-2.25300E-14-3.74269E-13
 -1      1828 1.97726E+01-1.94233E-02 9.83794E-05 1.29901E-01-3.09903E-14-3.37095E-13
 -1      1829 1.97877E+01-1.20582E-02-7.92722E-04 8.38983E-02-3.14313E-14-3.58113E-13
 -1      1830 1.98168E+01-1.12275E-02-1.20665E-04 7.70936E-02-1.22017E-14-3.04546E-13
 -1      1831 1.98153E+01-1.83462E-02 1.88918E-04 1.10556E-01-3.07640E-14-3.69985E-13
 -1      1832 1.98341E+01-1.06644E-02-7.28239E-04 6.91455E-02-1.23436E-14-2.93043E-13
 -1      1833 1.98584E+01-9.70970E-03-1.32874E-04 6.31695E-02 1.90310E-15-2.65298E-13
 -1      1834 1.98531E+01-1.64197E-02 2.27485E-04 9.21662E-02-2.16116E-14-2.84500E-13
 -1      1835 1.98732E+01-9.03827E-03-6.40364E-04 5.62562E-02-4.90150E-14-3.17305E-13
 -1      1836 1.98931E+01-8.05385E-03-1.23770E-04 5.12279E-02-6.17840E-14-3.56372E-13
 -1      1837 1.98857E+01-1.40628E-02 2.32180E-04 7.56797E-02-6.36393E-14-2.89967E-13
 -1      1838 1.99056E+01-7.34831E-03-5.43794E-04 4.54747E-02-9.13657E-14-3.38656E-13
 -1      1839 1.99219E+01-6.39612E-03-1.02114E-04 4.14202E-02-5.03815E-14-3.61442E-13
 -1      1840 1.99133E+01-1.15556E-02 2.15954E-04 6.15856E-02-8.66054E-14-3.96749E-13
 -1      1841 1.99324E+01-5.70843E-03-4.48239E-04 3.68417E-02-4.43600E-14-4.18812E-13
 -1      1842 1.99457E+01-4.83249E-03-7.55145E-05 3.37222E-02-7.04070E-14-4.65174E-13
 -1      1843 1.99364E+01-9.08657E-03 1.88118E-04 5.00598E-02-8.30156E-14-3.39711E-13
 -1      1844 1.99545E+01-4.20400E-03-3.60121E-04 3.02520E-02-5.61887E-14-5.03861E-13
 -1      1845 1.99656E+01-3.44411E-03-5.17901E-05 2.79775E-02-3.90470E-14-4.55608E-13
 -1      1846 1.99558E+01-6.79313E-03 1.55529E-04 4.10581E-02-7.82058E-14-4.51917E-13
 -1      1847 1.99730E+01-2.91711E-03-2.83869E-04 2.54773E-02-6.40521E-14-4.43827E-13
 -1      1848 1.99824E+01-2.32302E-03-4.04195E-05 2.39044E-02-8.03192E-15-4.86463E-13
 -1      1849 1.99721E+01-4.80002E-03 1.23583E-04 3.43605E-02-3.91917E-14-5.31146E-13
 -1      1850 1.99888E+01-1.95301E-03-2.22947E-04 2.21541E-02 2.35204E-14-4.67951E-13
 -1      1851 1.99969E+01-1.59981E-03-5.41245E-05 2.10680E-02 6.56964E-14-5.55943E-13
 -1      1852 1.99861E+01-3.25832E-03 9.70861E-05 2.95729E-02 6.44143E-15-4.49768E-13
 -1      1853 2.00025E+01-1.46882E-03-1.80650E-04 1.97341E-02 1.29617E-13-5.10242E-13
 -1      1854 2.00094E+01-1.47372E-03-1.10473E-04 1.88132E-02 5.03933E-14-4.60636E-13
 -1      1855 1.99982E+01-2.38782E-03 8.10405E-05 2.60817E-02 1.07403E-13-4.18201E-13
 -1      1856 2.00143E+01-1.70422E-03-1.60697E-04 1.73956E-02-5.14929E-14-3.87958E-13
 -1      1857 2.00200E+01-2.24337E-03-2.33192E-04 1.61590E-02-2.99559E-14-3.73801E-13
 -1      1858 2.00088E+01-2.52225E-03 8.14106E-05 2.29611E-02 4.59832E-14-3.58609E-13
 -1      1859 2.00240E+01-3.01064E-03-1.67582E-04 1.39165E-02-1.51365E-14-3.90242E-13
 -1      1860 2.00276E+01-4.33199E-03-4.52547E-04 1.16552E-02 3.52137E-15-3.72774E-13
 -1      1861 2.00178E+01-4.15309E-03 1.05858E-04 1.88332E-02-4.48494E-14-2.81328E-13
 -1      1862 2.00304E+01-5.86988E-03-2.06607E-04 7.51624E-03-6.97404E-14-3.67350E-13
 -1      1863 2.00306E+01-8.29394E-03-8.03668E-04 3.21882E-03-1.20351E-13-4.30368E-13
 -1      1864 2.00246E+01-7.96023E-03 1.64437E-04 1.16879E-02-3.44479E-14-3.26911E-13
 -1      1865 2.00312E+01-1.08849E-02-2.83531E-04-4.30452E-03-1.23292E-13-4.53565E-13
 -1      1866 2.00257E+01-1.47794E-02-1.32119E-03-1.20123E-02-7.83798E-14-4.73397E-13
 -1      1867 2.00278E+01-1.48060E-02 2.70132E-04-1.31080E-03-8.30649E-14-4.69669E-13
 -1      1868 2.00226E+01-1.87142E-02-4.03721E-04-2.48732E-02-1.82990E-14-4.53587E-13
 -1      1869 2.00079E+01-2.44217E-02-2.02823E-03-3.77346E-02 2.56361E-14-4.88135E-13
 -1      1870 2.00250E+01-2.56530E-02 4.38994E-04-2.39746E-02-4.04836E-14-4.08798E-13
 -1      1871 1.99989E+01-2.99088E-02-5.70767E-04-5.83001E-02-4.03522E-14-4.51653E-13
 -1      1872 1.99701E+01-3.76037E-02-2.91799E-03-7.83162E-02-5.25104E-14-4.66656E-13
 -1      1873 2.00124E+01-4.13503E-02 6.89251E-04-6.10926E-02 2.59558E-16-3.86367E-13
 -1      1874 1.99521E+01-4.46096E-02-7.84471E-04-1.09125E-01-6.22360E-14-5.14761E-13
 -1      1875 1.99029E+01-5.40649E-02-3.92830E-03-1.38241E-01 2.34539E-14-4.91153E-13
 -1      1876 1.99846E+01-6.22239E-02 1.03817E-03-1.18115E-01-9.71500E-14-4.16599E-13
 -1      1877 1.98717E+01-6.20788E-02-1.03762E-03-1.81456E-01-3.79152E-14-5.00047E-13
 -1      1878 1.97950E+01-7.23566E-02-4.91378E-03-2.20952E-01-5.41177E-14-5.18063E-13
 -1      1879 1.99342E+01-8.74323E-02 1.49456E-03-2.00296E-01-6.00915E-14-5.00145E-13
 -1      1880 1.97455E+01-8.01126E-02-1.31066E-03-2.77408E-01-8.29770E-14-4.69712E-13
 -1      1881 1.96342E+01-8.92540E-02-5.62825E-03-3.26967E-01-1.04242E-13-4.85226E-13
 -1      1882 1.98518E+01-1.14135E-01 2.04399E-03-3.11052E-01-4.70745E-14-5.26571E-13
 -1      1883 1.95608E+01-9.45198E-02-1.56193E-03-3.94815E-01-1.28256E-13-4.15317E-13
 -1      1884 1.94095E+01-9.94172E-02-5.73889E-03-4.51338E-01-1.02280E-13-4.09525E-13
 -1      1885 1.97268E+01-1.36714E-01 2.62395E-03-4.49423E-01-7.08899E-14-4.47382E-13
 -1      1886 1.93072E+01-9.90526E-02-1.71143E-03-5.24528E-01-8.05638E-14-4.34285E-13
 -1      1887 1.91148E+01-9.57904E-02-4.89807E-03-5.81075E-01-4.74382E-14-3.97546E-13
 -1      1888 1.95487E+01-1.46552E-01 3.09273E-03-6.06866E-01-7.78674E-14-3.07603E-13
 -1      1889 1.89811E+01-8.63473E-02-1.62354E-03-6.48282E-01 2.48102E-14-2.90362E-13
 -1      1890 1.87532E+01-7.12906E-02-2.88619E-03-6.93772E-01 1.70844E-13-1.88653E-13
 -1      1891 1.93103E+01-1.33132E-01 3.20729E-03-7.64279E-01 3.66480E-14-1.46657E-13
 -1      1892 1.85909E+01-5.03279E-02-1.10226E-03-7.38764E-01 1.34151E-13-2.02710E-13
 -1      1893 1.83420E+01-2.19815E-02 2.04177E-04-7.59283E-01 6.75340E-14-2.08610E-13
 -1      1894 1.90123E+01-8.71440E-02 2.64404E-03-8.91042E-01 1.16143E-13 4.86547E-15
 -1      1895 1.81621E+01 1.01014E-02 6.71485E-05-7.63810E-01 5.12524E-15-2.00153E-13
 -1      1896 1.79161E+01 4.90636E-02 3.84308E-03-7.46067E-01 1.67383E-14-1.78464E-13
 -1      1897 1.86685E+01-5.48323E-03 1.11235E-03-9.48400E-01 4.31577E-14 3.69866E-14
 -1      1898 1.77391E+01 8.75334E-02 2.00750E-03-6.95567E-01-2.08102E-14-2.37726E-13
 -1      1899 1.75261E+01 1.29383E-01 7.13753E-03-6.32043E-01-2.63236E-14-3.67224E-13
 -1      1900 1.83105E+01 1.03611E-01-1.41793E-03-8.98936E-01-4.89692E-14 8.71648E-14
 -1      1901 1.73797E+01 1.65356E-01 4.56387E-03-5.22655E-01 1.32667E-13-3.56034E-13
 -1      1902 1.72307E+01 1.98926E-01 9.14892E-03-4.16419E-01 1.74168E-13-3.07752E-13
 -1      1903 1.79862E+01 2.18773E-01-4.47578E-03-7.21049E-01 4.41940E-14-7.40519E-14
 -1      1904 1.71427E+01 2.22061E-01 7.17484E-03-2.59850E-01 1.84805E-13-2.91882E-13
 -1      1905 1.70819E+01 2.36953E-01 9.34470E-03-1.26171E-01 1.39064E-13-1.01861E-13
 -1      1906 1.77513E+01 3.10160E-01-7.12960E-03-4.22875E-01 1.91484E-13-1.02289E-13
 -1      1907 1.70711E+01 2.39886E-01 9.00970E-03 5.12755E-02 1.19653E-13 9.42196E-14
 -1      1908 1.71090E+01 2.31321E-01 7.88867E-03 1.88496E-01 1.22831E-13 2.45330E-13
 -1      1909 1.76523E+01 3.50495E-01-8.34570E-03-4.72382E-02 2.76012E-13 1.12056E-13
 -1      1910 1.71775E+01 2.13318E-01 9.27209E-03 3.53778E-01-1.33361E-14 2.66465E-13
 -1      1911 1.73081E+01 1.84608E-01 5.50277E-03 4.69785E-01 2.80904E-14 3.07870E-13
 -1      1912 1.77103E+01 3.27439E-01-7.56089E-03 3.38235E-01 7.49834E-14 3.51519E-13
 -1      1913 1.74405E+01 1.51974E-01 7.66866E-03 5.94473E-01 7.91129E-14 2.74813E-13
 -1      1914 1.76434E+01 1.12803E-01 3.04426E-03 6.71892E-01 2.94049E-13 3.68195E-13
 -1      1915 1.79120E+01 2.49521E-01-5.14290E-03 6.63427E-01 7.60635E-14 5.22712E-13
 -1      1916 1.78132E+01 7.56445E-02 4.58911E-03 7.41116E-01 3.58355E-13 1.90519E-13
 -1      1917 1.80595E+01 3.72725E-02 1.08515E-03 7.74434E-01 2.44460E-13 1.92044E-13
 -1      1918 1.82153E+01 1.41986E-01-2.07549E-03 8.79328E-01 1.84719E-13 4.23751E-13
 -1      1919 1.82387E+01 4.73275E-03 9.17139E-04 7.89051E-01 1.41772E-13 2.38579E-13
 -1      1920 1.84984E+01-2.48832E-02-2.52577E-04 7.83553E-01 2.53174E-13 3.42038E-13
 -1      1921 1.85659E+01 3.45972E-02 5.92860E-04 9.70752E-01 2.82499E-13 3.58454E-13
 -1      1922 1.86654E+01-4.80827E-02-2.37580E-03 7.55567E-01 1.43330E-13 3.41714E-13
 -1      1923 1.89132E+01-6.68395E-02-1.17956E-03 7.22162E-01 5.23718E-14 4.33485E-13
 -1      1924 1.89141E+01-5.10164E-02 2.26855E-03 9.53134E-01 1.28758E-13 3.87945E-13
 -1      1925 1.90561E+01-8.13910E-02-4.58632E-03 6.66917E-01-1.03764E-13 3.34044E-13
 -1      1926 1.92738E+01-9.28679E-02-1.98996E-03 6.15774E-01-2.84007E-14 3.18580E-13
 -1      1927 1.92261E+01-1.08400E-01 2.89380E-03 8.58098E-01-3.68744E-14 3.59181E-13
 -1      1928 1.93904E+01-1.03704E-01-5.27081E-03 5.44744E-01 1.63374E-14 3.13011E-13
 -1      1929 1.95667E+01-1.14764E-01-2.72399E-03 4.80560E-01 4.69282E-14 3.63735E-13
 -1      1930 1.94866E+01-1.46214E-01 2.72127E-03 7.16530E-01-4.30819E-14 4.59270E-13
 -1      1931 1.96618E+01-1.26701E-01-3.84921E-03 3.97902E-01 1.69497E-13 3.21855E-13
 -1      1932 1.97937E+01-1.42283E-01-1.77353E-03 3.22244E-01 1.95415E-13 2.54272E-13
 -1      1933 1.96957E+01-1.80908E-01 2.29259E-03 5.46604E-01 7.55182E-14 3.15997E-13
 -1      1934 1.97240E+01 1.84398E-01 1.07770E-02 2.67571E-01 2.38023E-13 3.04370E-13
 -1      1935 1.99181E+01 2.65516E-01 2.63272E-02 4.09256E-01 2.82334E-13 3.84794E-13
 -1      1936 2.01201E+01 3.68931E-01 8.09611E-03 6.56926E-01 3.43909E-13 4.22013E-13
 -1      1937 2.05519E+01 5.23254E-01 2.93521E-02 9.61742E-01 3.89223E-13 5.31696E-13
 -1      1938 2.02244E+01 5.08877E-01-3.00932E-03 7.50618E-01 3.76408E-13 1.61210E-13
 -1      1939 1.95157E+01 9.60934E-02 7.09943E-03 5.63233E-02 1.84834E-13 2.21523E-13
 -1      1940 1.95966E+01 1.37130E-01 1.66778E-02 1.29069E-01 1.98725E-13 2.83504E-13
 -1      1941 1.98920E+01 2.56596E-01-3.97075E-03 3.13625E-01 2.64208E-13 8.15129E-14
 -1      1942 1.94317E+01 4.87214E-02 4.21100E-03-5.72033E-02 1.57482E-13 1.67099E-13
 -1      1943 1.94484E+01 7.10690E-02 8.95452E-03-1.96106E-02 1.67483E-13 2.03702E-13
 -1      1944 1.97019E+01 1.29936E-01-4.55021E-03 6.75631E-02 2.23401E-13 4.10152E-14
 -1      1945 1.94230E+01 2.11311E-02 2.48902E-03-1.15038E-01 1.18959E-13 7.97160E-14
 -1      1946 1.94043E+01 3.39728E-02 4.39184E-03-9.74247E-02 1.47037E-13 1.41843E-13
 -1      1947 1.96112E+01 6.37152E-02-3.53781E-03-6.68653E-02 1.81155E-13 4.09191E-14
 -1      1948 1.94572E+01 4.81041E-03 1.48735E-03-1.39757E-01 1.07271E-13 5.78904E-14
 -1      1949 1.94205E+01 1.22323E-02 1.93650E-03-1.33844E-01 1.15489E-13 8.04715E-14
 -1      1950 1.95848E+01 2.56670E-02-2.39871E-03-1.35953E-01 1.43567E-13 9.14774E-15
 -1      1951 1.95136E+01-4.70674E-03 8.59126E-04-1.44694E-01 7.21555E-14 3.85672E-14
 -1      1952 1.94693E+01-5.57365E-04 5.98169E-04-1.45653E-01 8.65547E-14 3.91169E-14
 -1      1953 1.95971E+01 3.42997E-03-1.47598E-03-1.65861E-01 1.24976E-13-2.93961E-14
 -1      1954 1.95791E+01-9.92275E-03 4.49760E-04-1.38076E-01 4.91895E-14 6.66779E-15
 -1      1955 1.95334E+01-7.82914E-03-1.47961E-04-1.42913E-01 7.05699E-14 2.08581E-14
 -1      1956 1.96312E+01-9.31615E-03-8.12570E-04-1.72102E-01 1.05072E-13-9.65109E-14
 -1      1957 1.96456E+01-1.23615E-02 1.86235E-04-1.25175E-01 1.37561E-14-2.44159E-14
 -1      1958 1.96021E+01-1.15771E-02-5.51828E-04-1.31971E-01 3.67741E-14 1.13221E-14
 -1      1959 1.96757E+01-1.60966E-02-3.65169E-04-1.64439E-01 4.73676E-14-1.06266E-13
 -1      1960 1.97082E+01-1.30145E-02 2.61735E-06-1.09398E-01-1.58267E-14-6.25283E-14
 -1      1961 1.96690E+01-1.30620E-02-7.48348E-04-1.16936E-01 1.51330E-15-3.31883E-14
 -1      1962 1.97235E+01-1.90472E-02-7.81449E-05-1.49188E-01 4.44402E-14-9.78042E-14
 -1      1963 1.97619E+01-1.25945E-02-8.53196E-05-9.37856E-02 5.19375E-14-8.33846E-14
 -1      1964 1.97291E+01-1.31936E-02-8.39286E-04-1.00919E-01-5.59817E-15-6.30096E-14
 -1      1965 1.97690E+01-1.95823E-02 1.29956E-04-1.30925E-01 1.51167E-14-1.47514E-13
 -1      1966 1.98115E+01-1.15309E-02-1.27664E-04-7.79872E-02 1.00684E-13-6.22987E-14
 -1      1967 1.97821E+01-1.23057E-02-7.91762E-04-8.49513E-02 7.36989E-14-6.96133E-14
 -1      1968 1.98109E+01-1.87077E-02 1.78451E-04-1.11918E-01 4.91778E-14-1.39252E-13
 -1      1969 1.98535E+01-1.00773E-02-1.43006E-04-6.36601E-02 4.53830E-14-2.98660E-14
 -1      1970 1.98290E+01-1.10013E-02-7.34185E-04-6.98371E-02 9.60837E-14-3.41923E-14
 -1      1971 1.98491E+01-1.69018E-02 2.22353E-04-9.31654E-02 6.09057E-14-1.04981E-13
 -1      1972 1.98886E+01-8.45067E-03-1.31935E-04-5.12594E-02 6.04271E-14-6.70729E-14
 -1      1973 1.98685E+01-9.42461E-03-6.44980E-04-5.65104E-02 9.26410E-14-1.14692E-14
 -1      1974 1.98821E+01-1.46289E-02 2.26870E-04-7.62119E-02 6.66660E-14-2.32534E-14
 -1      1975 1.99176E+01-6.76018E-03-1.00402E-04-4.10095E-02 1.73765E-14-8.75927E-14
 -1      1976 1.99013E+01-7.73979E-03-5.43321E-04-4.52742E-02 4.39058E-14-7.22944E-14
 -1      1977 1.99102E+01-1.21441E-02 2.06728E-04-6.16214E-02 7.33815E-14-6.46829E-14
 -1      1978 1.99417E+01-5.04029E-03-4.91389E-05-3.30193E-02 1.07792E-14-6.53668E-14
 -1      1979 1.99283E+01-6.02018E-03-4.37816E-04-3.62714E-02 2.37730E-14-3.44672E-14
 -1      1980 1.99338E+01-9.58220E-03 1.69840E-04-4.96940E-02 3.10922E-14-2.97211E-14
 -1      1981 1.99622E+01-3.25679E-03 2.56909E-05-2.73828E-02-5.11045E-15-6.21072E-14
 -1      1982 1.99509E+01-4.26877E-03-3.32593E-04-2.95875E-02 1.76857E-14-9.21617E-14
 -1      1983 1.99539E+01-6.96960E-03 1.20836E-04-4.06058E-02 5.88293E-14-1.02428E-13
 -1      1984 1.99806E+01-1.29896E-03 1.33904E-04-2.42790E-02 1.10191E-14-9.83441E-14
 -1      1985 1.99705E+01-2.41816E-03-2.28420E-04-2.53489E-02 3.01289E-14-8.26409E-14
 -1      1986 1.99715E+01-4.22632E-03 6.15716E-05-3.45385E-02 1.95413E-14-5.65865E-14
 -1      1987 1.99986E+01 1.04408E-03 2.93828E-04-2.40900E-02 3.13005E-14-1.45534E-13
 -1      1988 1.99885E+01-3.16507E-04-1.23277E-04-2.38295E-02 3.04612E-14-1.32158E-13
 -1      1989 1.99877E+01-1.14897E-03-8.34342E-06-3.18114E-02 2.94919E-14-9.21790E-14
 -1      1990 2.00183E+01 4.13039E-03 5.36618E-04-2.75615E-02-3.07615E-14-2.02300E-13
 -1      1991 2.00069E+01 2.30534E-03-1.26575E-05-2.55879E-02-3.71578E-14-1.82594E-13
 -1      1992 2.00040E+01 2.63359E-03-9.10048E-05-3.30420E-02 1.51411E-14-1.53213E-13
 -1      1993 2.00426E+01 8.54788E-03 9.13382E-04-3.60423E-02 8.05327E-14-2.27683E-13
 -1      1994 2.00280E+01 5.89467E-03 1.10342E-04-3.16639E-02 3.49805E-14-2.18126E-13
 -1      1995 2.00221E+01 7.74415E-03-1.89342E-04-3.93644E-02 5.01812E-14-3.00654E-13
 -1      1996 2.00755E+01 1.52509E-02 1.50448E-03-5.18579E-02 4.25748E-14-1.67806E-13
 -1      1997 2.00549E+01 1.11808E-02 2.54810E-04-4.38804E-02 5.17509E-14-2.07340E-13
 -1      1998 2.00441E+01 1.52022E-02-3.05366E-04-5.27541E-02 2.18272E-14-3.12321E-13
 -1      1999 2.01222E+01 2.57289E-02 2.36988E-03-7.89301E-02 2.14043E-14-6.46210E-14
 -1      2000 2.00917E+01 1.93324E-02 4.25250E-04-6.52996E-02 8.98648E-14-6.77401E-14
 -1      2001 2.00728E+01 2.66586E-02-4.33617E-04-7.65291E-02 1.92952E-14-1.44812E-13
 -1      2002 2.01874E+01 4.15129E-02 3.77942E-03-1.20748E-01-5.97526E-15-1.47937E-13
 -1      2003 2.01431E+01 3.18948E-02 6.62154E-04-9.98121E-02 5.13775E-14-1.18759E-13
 -1      2004 2.01106E+01 4.43725E-02-4.92633E-04-1.14791E-01 8.51377E-14-9.16045E-14
 -1      2005 2.02888E+01 6.81649E-02 6.08086E-03-1.91492E-01-1.67806E-13-5.13509E-14
 -1      2006 2.02172E+01 5.17692E-02 8.52026E-04-1.55640E-01-1.08065E-13-1.29133E-13
 -1      2007 2.01625E+01 7.21692E-02-6.37513E-04-1.76122E-01-4.74200E-14-1.33408E-13
 -1      2008 2.04407E+01 1.10858E-01 9.50785E-03-3.05471E-01-1.02749E-13 3.72117E-14
 -1      2009 2.03293E+01 8.46043E-02 1.10528E-03-2.47209E-01-1.36443E-13 4.57414E-15
 -1      2010 2.02357E+01 1.17995E-01-6.14455E-04-2.75830E-01-1.81684E-13-2.06440E-13
 -1      2011 2.06671E+01 1.78982E-01 1.45499E-02-4.87424E-01-1.29371E-14 9.22999E-14
 -1      2012 2.04940E+01 1.37202E-01 1.18199E-03-3.93589E-01-8.66841E-15 5.59797E-14
 -1      2013 2.03353E+01 1.91625E-01-2.56576E-04-4.33183E-01-5.24058E-14-1.71096E-13
 -1      2014 2.09997E+01 2.85371E-01 2.14339E-02-7.74375E-01-1.20241E-13 7.63476E-14
 -1      2015 2.07334E+01 2.20474E-01 7.10961E-04-6.25153E-01-2.33737E-14 6.92688E-14
 -1      2016 2.04661E+01 3.08313E-01 7.49564E-04-6.78598E-01-2.81537E-14 1.35565E-13
 -1      2017 2.14765E+01 4.44501E-01 2.97331E-02-1.21760E+00-1.21299E-13-4.86449E-14
 -1      2018 2.10742E+01 3.48512E-01-1.16324E-03-9.85774E-01-1.13161E-13-2.65495E-14
 -1      2019 2.06280E+01 4.88149E-01 2.89056E-03-1.05496E+00-1.71738E-14 3.01343E-14
 -1      2020 2.21360E+01 6.61666E-01 3.78539E-02-1.87701E+00 1.97758E-14-8.49112E-14
 -1      2021 2.15450E+01 5.33844E-01-5.74288E-03-1.53262E+00-6.09859E-14-1.78020E-13
 -1      2022 2.08082E+01 7.50166E-01 6.83232E-03-1.61700E+00-2.40363E-14-1.39479E-13
 -1      2023 2.30052E+01 8.97141E-01 4.39483E-02-2.79101E+00-2.74086E-16 3.33258E-14
 -1      2024 2.21735E+01 7.67996E-01-1.30549E-02-2.32341E+00 4.76147E-14-1.02542E-13
 -1      2025 2.09729E+01 1.08823E+00 1.36289E-02-2.42068E+00 4.09447E-14-1.94914E-13
 -1      2026 2.41029E+01 9.76888E-01 5.34215E-02-3.88426E+00-2.06172E-14 2.38507E-14
 -1      2027 2.29958E+01 9.64186E-01-1.46695E-02-3.36859E+00 2.39765E-14 1.85416E-14
 -1      2028 2.10720E+01 1.40031E+00 2.58174E-02-3.48815E+00 2.56409E-14-2.17491E-13
 -1      2029 2.54635E+01 3.98258E-01 7.25357E-02-4.77794E+00-4.40273E-14-9.93771E-14
 -1      2030 2.41263E+01 7.95274E-01 1.26223E-02-4.50641E+00-4.12378E-14-1.20786E-13
 -1      2031 2.10983E+01 1.33444E+00 4.81106E-02-4.73223E+00 3.08104E-14-4.14613E-13
 -1      2032 2.69207E+01-1.10093E+00 8.19185E-02-4.73722E+00-1.17767E-13-8.14210E-14
 -1      2033 2.57476E+01-1.79709E-01 1.01655E-01-5.06927E+00-9.71029E-14-1.34121E-13
 -1      2034 2.13406E+01 1.97047E-01 6.94495E-02-5.68864E+00-7.37604E-14-6.07674E-13
 -1      2035 8.93695E+00-7.06652E+00-3.42109E-01 4.75585E+00-5.55112E-15-1.94733E-13
 -1      2036 4.90666E+00-8.17902E+00-5.39083E-01 3.43415E+00-9.16489E-14-8.71525E-14
 -1      2037 4.39852E+01 4.53665E+00 1.80387E-01-2.19397E+00 4.20775E-13-7.97640E-13
 -1      2038 4.46524E+01 4.84207E+00 2.65671E-01 9.56612E-01 4.78839E-13-8.06868E-13
 -1      2039 3.53689E+01-4.54302E+00-3.31322E-02 9.81978E-01-3.00315E-14-2.98095E-13
 -1      2040 3.32867E+01-4.82896E+00 9.73630E-02-1.09966E+00 1.23790E-14-1.44496E-13
 -1      2041 4.47970E+01 3.96084E+00 3.50737E-01 1.94463E+00 5.68212E-13-9.80549E-13
 -1      2042 4.49836E+01 2.19597E+00 4.50721E-01 4.02703E+00 2.93321E-13-7.60336E-13
 -1      2043 3.42458E+01-2.81818E+00 2.55199E-01 1.49435E+00-5.58359E-13-1.22173E-13
 -1      2044 3.50171E+01-3.47520E+00 4.82524E-02-5.26979E-01-4.38261E-13-4.07192E-13
 -1      2045 2.62521E+01 4.10372E-01 3.79327E-02 4.44802E+00 3.29434E-13-3.06345E-13
 -1      2046 2.80060E+01-9.48010E-02 6.08614E-02 4.49407E+00 2.03684E-13-2.45422E-13
 -1      2047 2.41806E+01 6.94950E-01-1.05882E-02 3.56252E+00 3.11878E-13-2.37130E-13
 -1      2048 2.57378E+01 6.16661E-01 3.91274E-02 3.97096E+00 3.74234E-13-1.50165E-13
 -1      2049 2.27315E+01 7.69255E-01 2.44404E-02 5.14855E+00 2.67925E-13-2.98542E-13
 -1      2050 2.26419E+01 6.09255E-01-9.05763E-03 2.58299E+00 9.35658E-14-2.71947E-13
 -1      2051 2.38544E+01 6.67769E-01 3.66155E-02 2.99941E+00 2.89298E-13-2.27846E-13
 -1      2052 2.19806E+01 1.08701E+00 1.20583E-02 4.02108E+00 3.37603E-13-2.03900E-13
 -1      2053 2.14994E+01 4.84544E-01-1.52873E-04 1.76304E+00-2.31220E-13-3.06853E-13
 -1      2054 2.23583E+01 5.37056E-01 3.09302E-02 2.09995E+00-4.90753E-14-3.64297E-13
 -1      2055 2.13720E+01 9.45088E-01 6.49096E-03 2.91315E+00-1.97412E-15-1.70542E-13
 -1      2056 2.07038E+01 4.46935E-01 1.06102E-02 1.06250E+00-2.20272E-13-6.32650E-13
 -1      2057 2.12436E+01 4.52104E-01 2.22987E-02 1.36316E+00-2.83953E-13-5.43352E-13
 -1      2058 2.08442E+01 7.74734E-01 5.23847E-03 1.97351E+00-1.51646E-13-4.65696E-13
 -1      2059 2.03071E+01 5.64825E-01 1.18129E-02 7.31388E-01 3.18495E-14-8.46185E-13
 -1      2060 2.05305E+01 5.12943E-01 1.11642E-02 8.96612E-01-1.34209E-13-5.34455E-13
 -1      2061 2.04120E+01 7.49293E-01-2.19294E-02 1.35578E+00-1.43923E-13-5.08328E-13
 -1      2062 2.01485E+01 8.89257E-01-2.16523E-02 9.39356E-01-1.05220E-13-7.94697E-13
 -1      2063 1.96174E+01 2.08183E+00-1.45743E-02 6.84779E-01 2.05140E-14 3.52529E-13
 -1      2064 1.97276E+01 1.81279E+00-3.74208E-03 8.85293E-01-1.78755E-13 1.57316E-13
 -1      2065 1.98675E+01 1.58831E+00-1.79259E-02 1.01616E+00-4.78274E-13-4.00405E-13
 -1      2066 2.00341E+01 1.21686E+00 3.73003E-03 1.02137E+00-2.70103E-13-5.66950E-13
 -1      2067 2.01334E+01 1.17810E+00 1.84851E-02 1.25511E+00-2.09711E-14-8.09116E-13
 -1      2068 1.97058E+01 1.70480E+00 2.24383E-02 1.18909E+00 7.83488E-15 4.40160E-14
 -1      2069 1.95449E+01 2.22997E+00-1.07324E-02 3.51314E-02-4.15403E-13-2.27334E-13
 -1      2070 1.95532E+01 2.16794E+00-1.42440E-02 3.15225E-01-1.63951E-13-7.50389E-14
 -1      2071 1.93714E+01 2.01231E+00 2.16894E-02 6.15646E-01 1.01532E-13-1.45915E-13
 -1      2072 1.96500E+01 1.94675E+00-3.87647E-03-5.76226E-01-5.40811E-13-9.33368E-14
 -1      2073 1.95785E+01 2.10116E+00-2.06762E-02-3.39380E-01-5.60477E-13-7.79030E-14
 -1      2074 1.93351E+01 1.97408E+00 2.08016E-02-2.30501E-01-2.36122E-13-2.40763E-13
 -1      2075 1.98462E+01 1.33740E+00 1.76808E-03-9.68294E-01-5.04601E-13-3.59423E-13
 -1      2076 1.97403E+01 1.65934E+00-1.86827E-02-8.37756E-01-5.10670E-13-2.15000E-13
 -1      2077 1.95280E+01 1.55958E+00 1.07187E-02-9.45637E-01-5.33053E-13-1.92438E-13
 -1      2078 2.00397E+01 5.98535E-01 5.17912E-03-1.06017E+00-1.95977E-13 1.96998E-13
 -1      2079 1.99452E+01 9.89247E-01-1.05859E-02-1.05395E+00-3.07542E-13-1.90384E-13
 -1      2080 1.98296E+01 9.21459E-01-2.50993E-04-1.32881E+00-3.44494E-13-2.03164E-13
 -1      2081 2.01717E+01-8.27800E-02 6.66080E-03-9.00551E-01-9.81645E-14 6.46636E-14
 -1      2082 2.01137E+01 2.80458E-01-6.14083E-04-9.88617E-01-1.78212E-13 2.44349E-13
 -1      2083 2.01075E+01 2.51778E-01-7.95782E-03-1.33626E+00-6.74959E-14 5.81838E-14
 -1      2084 2.02265E+01-5.84079E-01 6.80130E-03-5.96155E-01-1.33547E-13 2.86058E-13
 -1      2085 2.02081E+01-3.15573E-01 7.30036E-03-7.31628E-01-8.05970E-14 1.81434E-13
 -1      2086 2.02857E+01-3.03147E-01-1.11105E-02-1.06076E+00-6.68025E-14 1.07671E-13
 -1      2087 2.02179E+01-8.58327E-01 6.06594E-03-2.55090E-01-2.66321E-13-1.41866E-13
 -1      2088 2.02293E+01-7.13721E-01 1.13220E-02-3.95273E-01-3.37089E-13 8.32225E-14
 -1      2089 2.03494E+01-6.69577E-01-1.08084E-02-6.44292E-01-2.69525E-13-5.59028E-14
 -1      2090 2.01700E+01-9.19539E-01 4.35526E-03 3.90239E-02-2.17363E-13-1.59366E-13
 -1      2091 2.01989E+01-8.92700E-01 1.17827E-02-7.51511E-02-2.66117E-13-2.14528E-13
 -1      2092 2.03221E+01-8.36704E-01-8.96188E-03-2.18275E-01-2.71485E-13-7.73279E-14
 -1      2093 2.01013E+01-8.17296E-01 2.21203E-03 2.50458E-01-2.07697E-13 3.85439E-13
 -1      2094 2.01385E+01-8.81670E-01 9.67633E-03 1.74483E-01-2.39686E-13 1.93085E-13
 -1      2095 2.02402E+01-8.35658E-01-6.11131E-03 1.33931E-01-2.58757E-13 2.44570E-14
 -1      2096 2.00250E+01-6.14187E-01-1.27607E-04 3.53825E-01-4.11677E-13-2.57918E-13
 -1      2097 2.00650E+01-7.32376E-01 6.43954E-03 3.24660E-01-3.78255E-13 2.35968E-14
 -1      2098 2.01311E+01-7.13119E-01-3.11271E-03 3.67460E-01-2.65414E-13-5.66105E-14
 -1      2099 1.99521E+01-3.79404E-01-2.49326E-03 3.41676E-01-1.68728E-13 1.52780E-13
 -1      2100 1.99871E+01-5.08151E-01 2.97829E-03 3.61484E-01-3.47354E-13-8.55560E-15
 -1      2101 2.00055E+01-5.20933E-01-2.09131E-03 4.61685E-01-2.40778E-13-8.83188E-14
 -1      2102 1.96601E+01-6.06054E+00-3.32965E-01 5.30056E+00-1.81855E-13-5.40124E-14
 -1      2103 1.35376E+01-7.65339E+00-6.70439E-01 4.54346E+00-5.60663E-14-2.98553E-13
 -1      2104 1.98764E+01-1.30336E-01-5.45489E-04 1.93594E-01 2.71831E-15 2.23800E-13
 -1      2105-6.63170E-01-8.54700E+00-4.34772E-01-1.44980E+00 1.12271E-13 2.37477E-13
 -1      2106-8.60265E-02-7.96913E+00-3.70387E-01-2.98937E+00 1.10856E-13-1.04750E-13
 -1      2107 1.95248E+01 4.01879E+00-2.49872E-02-1.70158E+00-2.99608E-13-6.44365E-13
 -1      2108 1.96495E+01 3.94506E+00-2.46422E-02-1.95780E+00-3.61318E-13-5.86926E-13
 -1      2109 1.99658E+01 3.23864E+00-1.87449E-02-1.92719E+00-3.97687E-13-5.18840E-13
 -1      2110 1.96955E+01 3.59101E+00-6.67327E-03-1.52192E+00-3.01923E-13-6.30794E-13
 -1      2111 2.91229E+01-8.80473E-01 1.60040E-01 4.35858E+00-1.60150E-13-2.01537E-13
 -1      2112 3.07024E+01-2.06310E+00 8.01443E-02 3.38478E+00-5.16365E-13-3.34330E-13
 -1      2113 2.40501E+01-8.40868E-01 4.59526E-02 5.68341E+00 6.08125E-14-3.55771E-13
 -1      2114 3.27287E+01-4.45588E+00-1.09397E-01 3.15509E+00-5.26024E-13 2.04281E-14
 -1      2115 2.51399E+01-5.95146E+00-6.22541E-01 3.45180E+00-4.28768E-13-1.10023E-13
 -1      2116 2.22313E+01-6.42881E+00-5.53318E-01-3.82902E+00 2.93432E-13-7.40852E-13
 -1      2117 2.96129E+01-4.96600E+00-1.37064E-02-3.93284E+00 3.55493E-13-7.03437E-13
 -1      2118 1.12451E+01-7.58058E+00-5.07817E-01-4.53418E+00 4.71845E-14-6.19338E-13
 -1      2119 1.63449E+01-6.55531E+00-3.15279E-01-5.34217E+00 2.04281E-13-7.63778E-13
 -1      2120 2.73728E+00-7.91004E+00-4.78967E-01-2.53371E+00-1.23956E-13-5.36626E-13
 -1      2121 6.05718E+00-7.06082E+00-3.43664E-01-4.02880E+00-4.21885E-14-5.69711E-13
 -1      2122-4.58976E-01-7.97052E+00-4.04791E-01 9.61109E-01-4.91968E-14-1.68310E-13
 -1      2123 4.34156E-01-7.25604E+00-2.97790E-01-7.32364E-01-6.36158E-14-3.37841E-13
 -1      2124 8.89901E-01-7.02829E+00-2.78404E-01 4.06381E+00-1.80578E-13-6.52256E-14
 -1      2125-2.63570E-01-8.23097E+00-4.07660E-01 2.58227E+00-7.44960E-14-1.36002E-13
 -1      2126 7.92665E-01-4.48609E+00-1.89213E-01 1.64720E+00 1.42539E-13-3.01315E-13
 -1      2127 6.68131E+00-5.62553E+00-1.63549E-01 7.09208E+00-1.15685E-13 4.33820E-14
 -1      2128 3.49354E+00-7.46376E+00-4.03045E-01 5.60501E+00-1.90459E-13 4.60743E-14
 -1      2129 1.57644E+01-3.65277E+00-2.19368E-02 8.58123E+00-1.92069E-13-1.31090E-13
 -1      2130 1.11263E+01-5.68458E+00-2.89582E-01 7.55273E+00-2.12941E-13 4.33716E-14
 -1      2131 2.54757E+01-4.63024E-01 1.35003E-01 8.32804E+00-1.88238E-13-1.20681E-13
 -1      2132 2.02819E+01-2.86155E+00-2.01318E-01 7.68048E+00-2.06557E-13-1.80911E-13
 -1      2133 3.42211E+01 2.34987E+00 2.29857E-01 6.55258E+00-4.43562E-13 1.32672E-13
 -1      2134 2.91075E+01 5.60121E-01-8.52683E-02 6.72638E+00-3.68094E-13-5.56222E-14
 -1      2135 4.04263E+01 5.35342E+00 2.62339E-01 3.86871E+00-1.94844E-13-1.15796E-13
 -1      2136 3.66053E+01 4.09249E+00 7.15945E-02 4.96666E+00-3.92741E-13 9.54792E-15
 -1      2137 4.39267E+01 7.74956E+00 2.93548E-01 1.41677E+00-1.19127E-13 1.16906E-13
 -1      2138 4.18319E+01 7.09662E+00 1.86748E-01 2.76448E+00-1.73195E-13-4.00235E-14
 -1      2139 4.34990E+01 8.49375E+00 2.04197E-01-7.23160E-01 4.25215E-14-2.58404E-14
 -1      2140 4.40213E+01 8.46391E+00 2.83906E-01 6.78022E-01 1.79856E-14-7.24421E-15
 -1      2141 4.11633E+01 6.69047E+00 1.62371E-01-2.84085E+00 2.10498E-13-1.73195E-14
 -1      2142 4.31408E+01 7.69295E+00 2.59005E-01-1.40820E+00 1.89848E-13-1.29896E-14
 -1      2143 3.55540E+01 3.33698E+00 5.65026E-02-4.25300E+00-4.15640E-15-2.01839E-13
 -1      2144 4.01729E+01 5.25654E+00 3.86047E-01-4.00386E+00 1.12174E-13-4.43534E-14
 -1      2145 3.76598E+01 5.89624E+00 2.07956E-01-7.25315E-01 6.19504E-14-2.48024E-13
 -1      2146 2.65791E+01-6.88609E-01-6.07920E-02-7.13933E+00-6.28941E-14-9.72555E-14
 -1      2147 3.18342E+01 5.86378E-01 1.09517E-02-6.25071E+00-2.92544E-14-2.90268E-13
 -1      2148 1.69864E+01-3.99569E+00-2.88690E-01-7.67470E+00 2.85882E-13 1.92790E-13
 -1      2149 2.23306E+01-1.66381E+00 4.99320E-02-8.55411E+00 1.00031E-13 2.09277E-14
 -1      2150 8.09190E+00-6.73902E+00-4.04460E-01-6.77292E+00 4.68181E-13 3.11473E-13
 -1      2151 1.22909E+01-4.40065E+00-1.06013E-01-8.05325E+00 4.19109E-13 4.15459E-13
 -1      2152 2.18612E+00-7.85028E+00-3.68252E-01-4.83927E+00 2.13163E-13-4.07063E-13
 -1      2153 4.72504E+00-6.53922E+00-2.27897E-01-6.21910E+00 2.61013E-13-2.21934E-13
 -1      2154 2.15464E+01 1.75291E+00 7.77838E-02 2.36636E+00 4.48697E-13 6.13176E-13
 -1      2155 1.78461E+00-7.73126E+00-3.70710E-01 2.11427E+00-2.27041E-13-2.25764E-13
 -1      2156 1.25547E-01-8.23180E+00-4.36456E-01 5.42911E-01-1.46549E-13-9.44800E-14
 -1      2157 3.81424E+01-2.50185E+00 5.42580E-02-4.15722E+00-2.05870E-13-4.12670E-13
 -1      2158 4.12573E+01-2.11863E+00 1.68343E-01-1.10780E+00-8.21565E-14-4.53304E-13
 -1      2159 3.54371E+01-4.29039E+00-3.27081E-01 4.93377E-01-3.31735E-13-1.53211E-13
 -1      2160 3.77906E+01-3.50328E+00 6.96891E-02-2.50427E+00-3.22464E-13-4.61936E-13
 -1      2161 2.15130E+01 1.74333E+00 7.94775E-02-2.33820E+00-4.49151E-13 2.48759E-13
 -1      2162 1.98542E+01-1.98160E-01-2.08655E-03 3.20050E-01 8.30152E-15 6.76268E-14
 -1      2163 4.54647E+01 3.40185E+00 3.29377E-01-3.21840E+00 3.34621E-13-6.40432E-13
 -1      2164 9.32936E-01-5.19192E+00-2.17573E-01 3.82151E-02-1.73431E-13-6.09512E-14
 -1      2165 2.07405E+01 1.10890E+00-2.09077E-02-1.61653E+00-4.37227E-13 1.45687E-13
 -1      2166 4.09757E+01 1.06392E+00 5.30665E-02 5.12316E+00 2.57072E-13-5.59441E-13
 -1      2167 4.13751E+01-1.57723E+00-6.73744E-03 3.66420E+00 2.76890E-13-5.62328E-13
 -1      2168 2.06313E+01 1.33278E+00-1.78663E-02-1.67827E+00-4.65745E-13-7.75890E-14
 -1      2169 2.06378E+01 1.32636E+00-2.21658E-02 1.68598E+00 4.82657E-13 2.11036E-13
 -1      2170 2.07621E+01 1.10524E+00-2.34418E-02 1.62899E+00 4.45196E-13 5.04763E-13
 -1      2171 5.55141E+00-5.53122E+00-2.04375E-01 4.12385E+00-1.95399E-13-1.48437E-13
 -1      2172 1.44585E+01-6.63822E+00-2.40457E-01 5.64403E+00 2.22600E-14-2.85688E-13
 -1      2173 3.12751E+01-3.60223E+00 1.08429E-01-2.43140E+00-6.49480E-15-1.17645E-13
 -1      2174 2.98236E+01-2.26358E+00 2.29810E-01-3.94049E+00-5.48450E-14 1.17319E-14
 -1      2175 2.81858E+01-3.56635E+00 2.73513E-02 3.96397E+00-4.06147E-13-3.33927E-13
 -1      2176 2.81193E+01-5.41741E+00-5.31501E-02-3.67962E+00 3.79696E-14-4.54616E-13
 -1      2177 3.43184E+01-4.73637E+00-3.40671E-02-1.64677E-01-4.19220E-13-1.66867E-13
 -1      2178 2.60548E+01-6.53406E+00-1.19295E-01 3.91991E+00-4.31100E-13-1.67644E-13
 -1      2179 3.45226E+00-5.05977E+00-1.51176E-01 5.72517E+00-1.34337E-14-2.30371E-14
 -1      2180 2.37853E+01-2.12580E+00 5.65585E-02-5.46246E+00-4.31599E-14-5.02154E-13
 -1      2181 1.98929E+01-2.71955E-01 1.33141E-03 3.42528E-01-9.31547E-15 1.79852E-13
 -1      2182 2.30561E+00-5.29974E+00-1.73741E-01-4.74300E+00 2.93598E-13-3.92242E-13
 -1      2183 3.27040E+00-4.94195E+00-1.85945E-01-2.60085E+00 6.38378E-15-5.21305E-13
 -1      2184 8.43353E+00-5.68250E+00-1.66553E-01-7.79108E+00 3.40117E-13-2.00950E-14
 -1      2185 1.72978E+01-5.11469E+00-3.42576E-02-8.44279E+00 3.64764E-13 1.21514E-13
 -1      2186 3.39293E+01 1.21695E+00 1.43514E-01-4.00900E+00-9.13575E-14-1.55653E-13
 -1      2187 3.40776E+01 1.31008E+00-1.73693E-01-1.23507E+00 3.05589E-14-1.86740E-13
 -1      2188 3.18368E+01-1.02171E+00 1.33693E-01-3.38258E+00-6.95347E-14-1.54710E-13
 -1      2189 3.91257E+01 9.00754E+00 2.74631E-01-4.77170E-02 1.34281E-13-1.92513E-13
 -1      2190 3.93984E+01 9.25561E+00 3.15567E-01 1.07958E-01-1.04694E-13 5.06262E-14
 -1      2191 3.82912E+01 6.31984E+00 2.89045E-01 8.86684E-01-2.32536E-13-7.12208E-14
 -1      2192 3.49065E+01 1.93483E+00 2.28232E-01 2.90255E+00-3.53554E-13 2.02061E-14
 -1      2193 2.90462E+01-1.83807E+00 1.27532E-01 5.90453E+00-2.79887E-13-8.04357E-14
 -1      2194 2.04431E+01-4.45364E+00 4.85303E-03 8.09017E+00-1.53766E-13-1.46549E-13
 -1      2195 1.16530E+01-6.04632E+00-1.89260E-01-5.45059E+00-1.20459E-13-6.77347E-13
 -1      2196 2.36540E+01-6.80343E+00-2.10057E-01-4.48488E+00-1.99840E-15-6.75515E-13
 -1      2197 4.44266E+01 3.27094E-01 6.03921E-01-3.66213E-02 4.28338E-13-9.78329E-13
 -1      2198 5.03666E+01 2.36119E+00 1.22656E+00 9.70563E-01 4.64295E-13-1.12288E-12
 -1      2199 3.27444E+01-3.62237E+00-2.78467E-01-2.63211E+00 4.73621E-13-9.03611E-13
 -1      2200 4.05699E+01-2.02765E+00 4.04457E-01-1.83279E+00 4.23828E-13-9.85878E-13
 -1      2201 4.24541E+01-1.58926E+00 4.70306E-01 1.45042E+00 4.20046E-13-9.52460E-13
 -1      2202 3.36537E+01-5.51505E+00-3.14072E-01-1.15291E+00 2.18492E-13-5.56444E-13
 -1      2203 1.09646E+01-5.27096E+00-6.96856E-02 8.34459E+00-1.55043E-13-4.87804E-14
 -1      2204 2.65275E+01-3.09364E+00 1.55511E-01-6.74931E+00 7.57172E-14-7.88258E-14
 -1      2205 1.98665E+01-3.04429E-01-6.96845E-04 4.65114E-01 4.64024E-14 1.88729E-13
 -1      2206 2.75423E+00-2.92817E+00 9.13231E-02-3.47185E+00 3.04839E-13-2.59348E-13
 -1      2207 4.92138E+00-3.03027E+00 8.54438E-02-5.82713E+00 4.09839E-13-5.08926E-13
 -1      2208 1.95575E+01 3.51871E+00-1.10944E-02-5.94047E-01-7.93119E-14-6.42051E-13
 -1      2209 1.95935E+01 3.47246E+00-1.04832E-02-7.78252E-01-1.35835E-13-6.51997E-13
 -1      2210 1.96410E+01 3.38364E+00-1.27815E-02-9.42278E-01-1.72977E-13-6.48397E-13
 -1      2211 1.97025E+01 3.30287E+00-1.27481E-02-1.13197E+00-2.34037E-13-6.38610E-13
 -1      2212 1.97850E+01 3.03593E+00 3.25973E-04-7.93888E-01-1.42865E-13-6.06327E-13
 -1      2213 1.95085E+01 3.60284E+00-9.58143E-03 9.57462E-02 1.05159E-13-6.21434E-13
 -1      2214 1.95082E+01 3.60323E+00-9.58956E-03-8.34356E-02 5.74938E-14-6.24946E-13
 -1      2215 1.95339E+01 3.56471E+00-9.65766E-03 4.41279E-01 1.84792E-13-6.08177E-13
 -1      2216 1.95168E+01 3.58661E+00-1.00941E-02 2.60748E-01 1.40927E-13-6.14529E-13
 -1      2217 1.96742E+01 3.22638E+00-9.14892E-04 1.66276E-01 1.15247E-13-5.89646E-13
 -1      2218 1.95952E+01 3.47006E+00-1.05192E-02 7.84923E-01 2.69887E-13-5.90467E-13
 -1      2219 1.95592E+01 3.51600E+00-1.11528E-02 6.03727E-01 2.18539E-13-6.12746E-13
 -1      2220 1.97104E+01 3.16421E+00-5.26806E-04 4.84505E-01 1.91435E-13-5.69318E-13
 -1      2221 1.97049E+01 3.29949E+00-1.28168E-02 1.13818E+00 3.71340E-13-4.76595E-13
 -1      2222 1.96427E+01 3.38094E+00-1.28268E-02 9.49095E-01 3.11568E-13-5.35616E-13
 -1      2223 1.97868E+01 3.03257E+00 2.07319E-04 8.00424E-01 2.88726E-13-5.30991E-13
 -1      2224 1.98834E+01 3.01864E+00-1.79323E-02 1.48592E+00 4.62772E-13-3.92233E-13
 -1      2225 1.97845E+01 3.15673E+00-1.51296E-02 1.29500E+00 4.07165E-13-4.37393E-13
 -1      2226 1.99158E+01 2.81055E+00 1.94954E-03 1.10703E+00 3.80837E-13-4.23443E-13
 -1      2227 2.01614E+01 2.55550E+00-2.74835E-02 1.79018E+00 5.10940E-13-2.38079E-13
 -1      2228 2.00124E+01 2.80083E+00-1.63834E-02 1.61890E+00 4.77288E-13-3.32666E-13
 -1      2229 2.01094E+01 2.46147E+00 4.52390E-03 1.37460E+00 4.46648E-13-3.28931E-13
 -1      2230 2.05761E+01 1.76715E+00-1.91902E-02 1.82775E+00 5.06642E-13 4.58956E-14
 -1      2231 2.03322E+01 2.19271E+00-9.14822E-03 1.77673E+00 4.97240E-13-1.29492E-13
 -1      2232 2.03452E+01 1.87275E+00 7.15304E-03 1.45948E+00 4.72714E-13-1.74105E-13
 -1      2233 2.04295E+01 1.10847E+00 9.16415E-04 1.23572E+00 4.60977E-13 5.94798E-14
 -1      2234 2.04053E+01 8.56345E-01 1.35282E-02-1.00013E+00-3.88450E-13-1.67367E-13
 -1      2235 2.01927E+01 6.27678E-01-4.67199E-03-6.92021E-01-3.37902E-13-1.82015E-13
 -1      2236 2.05507E+01 1.95600E+00-1.37198E-02-1.89684E+00-4.47302E-13-2.66440E-13
 -1      2237 2.04127E+01 1.20977E+00-8.81054E-03-1.29017E+00-4.27386E-13-2.18792E-13
 -1      2238 2.03848E+01 1.38596E+00 9.18864E-03-1.23900E+00-3.97831E-13-2.94914E-13
 -1      2239 2.02976E+01 2.39862E+00 7.09268E-04-1.83717E+00-4.36155E-13-3.82657E-13
 -1      2240 2.01275E+01 4.70561E-01 1.62057E-02-4.74829E-01-3.08629E-13-1.57925E-13
 -1      2241 1.99867E+01 3.45174E-01 9.54970E-05-3.03160E-01-2.67173E-13-1.94903E-13
 -1      2242 2.02476E+01 7.50320E-01-6.75859E-04-6.94118E-01-3.29558E-13-2.51728E-13
 -1      2243 1.99231E+01 2.60167E-01 1.08847E-02-1.65592E-01-2.38894E-13-1.67042E-13
 -1      2244 1.98445E+01 1.88671E-01 7.34686E-04-6.81536E-02-2.05967E-13-2.03204E-13
 -1      2245 2.00830E+01 4.17027E-01-3.63538E-03-3.10161E-01-2.55677E-13-2.38152E-13
 -1      2246 1.98001E+01 1.39150E-01 6.41213E-03 1.41518E-02-1.70751E-13-2.03743E-13
 -1      2247 1.97651E+01 9.67727E-02 7.28841E-04 6.76501E-02-1.45532E-13-2.15558E-13
 -1      2248 1.99619E+01 2.28057E-01-3.61577E-03-7.05924E-02-2.16708E-13-2.30619E-13
 -1      2249 1.97392E+01 6.68271E-02 3.58580E-03 1.13551E-01-1.42359E-13-2.36563E-13
 -1      2250 1.97320E+01 4.12457E-02 6.22799E-04 1.40267E-01-1.37929E-13-2.43570E-13
 -1      2251 1.98861E+01 1.15543E-01-2.92362E-03 7.05501E-02-1.75326E-13-2.39803E-13
 -1      2252 1.97203E+01 2.29389E-02 1.85941E-03 1.62652E-01-1.38367E-13-2.43932E-13
 -1      2253 1.97296E+01 7.63011E-03 4.98573E-04 1.72888E-01-1.10348E-13-2.49744E-13
 -1      2254 1.98465E+01 4.72765E-02-2.11811E-03 1.47098E-01-1.50693E-13-2.75248E-13
 -1      2255 1.97277E+01-3.35053E-03 7.95313E-04 1.80358E-01-1.06833E-13-2.46813E-13
 -1      2256 1.97459E+01-1.21135E-02 3.78671E-04 1.80599E-01-1.04207E-13-2.60105E-13
 -1      2257 1.98324E+01 6.02864E-03-1.42950E-03 1.81921E-01-1.21605E-13-2.95839E-13
 -1      2258 1.97500E+01-1.83256E-02 1.43266E-04 1.78934E-01-1.35689E-13-2.56833E-13
 -1      2259 1.97723E+01-2.28352E-02 2.76601E-04 1.73390E-01-1.57566E-13-2.84614E-13
 -1      2260 1.98349E+01-1.80085E-02-9.06716E-04 1.90449E-01-1.40886E-13-2.48892E-13
 -1      2261 1.97798E+01-2.59081E-02-2.42194E-04 1.66487E-01-1.44647E-13-2.82777E-13
 -1      2262 1.98030E+01-2.76549E-02 1.97023E-04 1.57927E-01-9.66111E-14-3.04181E-13
 -1      2263 1.98472E+01-3.08402E-02-5.32938E-04 1.83115E-01-1.46815E-13-2.30584E-13
 -1      2264 1.98121E+01-2.86770E-02-4.52061E-04 1.48400E-01-6.70588E-14-2.98774E-13
 -1      2265 1.98343E+01-2.86642E-02 1.39181E-04 1.38639E-01-3.43801E-14-3.18094E-13
 -1      2266 1.98646E+01-3.63558E-02-2.76589E-04 1.66969E-01-9.58483E-14-2.45336E-13
 -1      2267 1.98437E+01-2.83816E-02-5.46757E-04 1.28212E-01-2.04923E-14-3.33135E-13
 -1      2268 1.98640E+01-2.72945E-02 9.99291E-05 1.18413E-01 5.60397E-15-2.82376E-13
 -1      2269 1.98840E+01-3.71692E-02-1.07828E-04 1.46726E-01-4.75802E-14-2.79638E-13
 -1      2270 1.98730E+01-2.62220E-02-5.67688E-04 1.08188E-01 1.46562E-14-2.77058E-13
 -1      2271 1.98909E+01-2.45283E-02 7.56055E-05 9.90661E-02-7.98215E-15-2.49710E-13
 -1      2272 1.99033E+01-3.50684E-02-2.43956E-06 1.25471E-01 8.65835E-15-2.52355E-13
 -1      2273 1.98991E+01-2.30195E-02-5.43439E-04 8.97102E-02-7.92755E-14-2.15537E-13
 -1      2274 1.99145E+01-2.10352E-02 6.26985E-05 8.16720E-02-9.04905E-14-2.36433E-13
 -1      2275 1.99214E+01-3.12789E-02 5.82065E-05 1.05152E-01-1.63858E-14-2.72114E-13
 -1      2276 1.99218E+01-1.93306E-02-4.93548E-04 7.35549E-02-1.35309E-13-2.65279E-13
 -1      2277 1.99348E+01-1.72679E-02 5.78240E-05 6.67955E-02-1.07528E-13-2.71934E-13
 -1      2278 1.99377E+01-2.66349E-02 8.80757E-05 8.69182E-02-1.25650E-13-1.50711E-13
 -1      2279 1.99412E+01-1.55324E-02-4.31002E-04 6.00798E-02-1.17250E-13-3.58129E-13
 -1      2280 1.99521E+01-1.35379E-02 5.73390E-05 5.46484E-02-8.94118E-14-3.59158E-13
 -1      2281 1.99520E+01-2.17032E-02 9.74613E-05 7.13743E-02-1.86021E-13-2.80022E-13
 -1      2282 1.99577E+01-1.18924E-02-3.63930E-04 4.93516E-02-7.62904E-14-3.93015E-13
 -1      2283 1.99669E+01-1.00811E-02 5.67241E-05 4.51898E-02-5.30454E-14-4.15108E-13
 -1      2284 1.99645E+01-1.68809E-02 9.38360E-05 5.87400E-02-1.11983E-13-2.99342E-13
 -1      2285 1.99717E+01-8.63174E-03-2.96759E-04 4.12167E-02-5.69639E-14-4.44123E-13
 -1      2286 1.99795E+01-7.11968E-03 4.97649E-05 3.81722E-02-6.38493E-14-4.62181E-13
 -1      2287 1.99753E+01-1.24826E-02 8.25292E-05 4.89546E-02-8.74751E-14-3.67778E-13
 -1      2288 1.99837E+01-5.98748E-03-2.30966E-04 3.53214E-02 2.75131E-14-4.31498E-13
 -1      2289 1.99904E+01-4.92594E-03 2.75470E-05 3.31388E-02 8.42437E-14-3.61224E-13
 -1      2290 1.99847E+01-8.82301E-03 6.72379E-05 4.17209E-02-1.29181E-14-3.97309E-13
 -1      2291 1.99944E+01-4.27848E-03-1.65559E-04 3.10827E-02 7.27842E-14-3.93024E-13
 -1      2292 2.00001E+01-3.89043E-03-2.26816E-05 2.93689E-02 1.15653E-13-3.96312E-13
 -1      2293 1.99932E+01-6.30294E-03 5.04019E-05 3.64940E-02 4.45302E-14-3.47034E-13
 -1      2294 2.00039E+01-3.97520E-03-9.73797E-05 2.76057E-02 1.23980E-13-4.05442E-13
 -1      2295 2.00087E+01-4.59318E-03-1.18607E-04 2.57706E-02 4.40723E-14-3.45066E-13
 -1      2296 2.00011E+01-5.50017E-03 3.35048E-05 3.24135E-02 1.19231E-13-4.20382E-13
 -1      2297 2.00126E+01-5.77024E-03-2.14424E-05 2.35484E-02-2.17376E-14-2.97555E-13
 -1      2298 2.00163E+01-7.87008E-03-2.83528E-04 2.07212E-02-1.38779E-14-2.39889E-13
 -1      2299 2.00087E+01-7.26177E-03 1.74116E-05 2.81774E-02 7.41426E-14-2.99862E-13
 -1      2300 2.00205E+01-1.06359E-02 6.83997E-05 1.69361E-02-4.77393E-14-3.01108E-13
 -1      2301 2.00223E+01-1.48536E-02-5.45912E-04 1.18668E-02-6.61287E-14-3.00196E-13
 -1      2302 2.00164E+01-1.27831E-02 2.94162E-06 2.18604E-02-5.96735E-14-2.01359E-13
 -1      2303 2.00271E+01-1.98400E-02 1.77982E-04 4.94656E-03-1.03811E-13-3.59901E-13
 -1      2304 2.00261E+01-2.69484E-02-9.36692E-04-4.08995E-03-8.37485E-14-3.64855E-13
 -1      2305 2.00245E+01-2.36411E-02-8.00112E-06 1.06883E-02-1.15727E-13-3.78101E-13
 -1      2306 2.00315E+01-3.48694E-02 3.09885E-04-1.62917E-02-9.57539E-14-4.29825E-13
 -1      2307 2.00260E+01-4.56765E-02-1.48265E-03-3.15471E-02-6.18253E-14-4.17043E-13
 -1      2308 2.00330E+01-4.17207E-02-1.02996E-05-9.19154E-03-1.41604E-13-3.56631E-13
 -1      2309 2.00319E+01-5.71825E-02 4.58296E-04-5.17921E-02 4.84863E-14-4.31854E-13
 -1      2310 2.00195E+01-7.23017E-02-2.19390E-03-7.59848E-02 4.23556E-14-3.63600E-13
 -1      2311 2.00418E+01-6.89434E-02 7.89162E-06-4.28689E-02-5.33756E-14-4.65504E-13
 -1      2312 2.00254E+01-8.76923E-02 6.01408E-04-1.07540E-01-6.55349E-14-3.58700E-13
 -1      2313 2.00029E+01-1.07132E-01-3.04390E-03-1.43581E-01-8.99966E-14-3.55234E-13
 -1      2314 2.00501E+01-1.06672E-01 6.99776E-05-9.66151E-02-1.64769E-14-3.93001E-13
 -1      2315 2.00072E+01-1.25891E-01 6.92146E-04-1.89822E-01-1.18649E-13-3.48815E-13
 -1      2316 1.99705E+01-1.48444E-01-3.94226E-03-2.40199E-01-9.24462E-14-3.29602E-13
 -1      2317 2.00557E+01-1.54674E-01 2.15352E-04-1.77388E-01-1.12840E-13-2.11269E-13
 -1      2318 1.99707E+01-1.68605E-01 6.52473E-04-3.03760E-01-1.11117E-13-3.36237E-13
 -1      2319 1.99151E+01-1.91107E-01-4.70575E-03-3.69470E-01-1.48954E-14-3.15555E-13
 -1      2320 2.00549E+01-2.09604E-01 4.98849E-04-2.91589E-01-1.39135E-13-1.54600E-13
 -1      2321 1.99063E+01-2.08610E-01 3.79321E-04-4.50794E-01 1.23144E-14-3.64981E-13
 -1      2322 1.98274E+01-2.25336E-01-5.04407E-03-5.29804E-01 5.05650E-15-2.51342E-13
 -1      2323 2.00407E+01-2.63221E-01 9.76455E-04-4.42727E-01-3.67100E-15-6.75630E-14
 -1      2324 1.98029E+01-2.33700E-01-2.21956E-04-6.25096E-01 6.37641E-15-1.96298E-13
 -1      2325 1.96972E+01-2.36421E-01-4.58798E-03-7.10580E-01-3.70561E-14-7.65783E-14
 -1      2326 2.00029E+01-3.01016E-01 1.66302E-03-6.27805E-01 7.10357E-14-8.61774E-14
 -1      2327 1.96487E+01-2.27347E-01-1.16231E-03-8.09553E-01 3.94474E-14-3.94577E-14
 -1      2328 1.95158E+01-2.06768E-01-2.99834E-03-8.88555E-01 1.61897E-13 1.23459E-14
 -1      2329 1.99280E+01-3.02576E-01 2.46041E-03-8.32744E-01 7.03535E-14 3.44385E-14
 -1      2330 1.94361E+01-1.72319E-01-2.26956E-03-9.73013E-01 1.03732E-13 4.65317E-14
 -1      2331 1.92808E+01-1.21454E-01-1.75565E-04-1.02669E+00 5.66638E-14 8.73160E-14
 -1      2332 1.98018E+01-2.45394E-01 3.07714E-03-1.02824E+00 8.71970E-14 7.65003E-14
 -1      2333 1.91677E+01-5.79925E-02-3.10780E-03-1.07165E+00 5.14125E-14 1.64998E-13
 -1      2334 1.90016E+01 2.28917E-02 3.48593E-03-1.07838E+00 4.88392E-14 1.25181E-13
 -1      2335 1.96159E+01-1.13361E-01 3.00678E-03-1.16893E+00 1.11341E-13 1.94264E-13
 -1      2336 1.88640E+01 1.10032E-01-3.03371E-03-1.05761E+00-7.59961E-15 2.62880E-13
 -1      2337 1.87055E+01 2.09082E-01 6.99840E-03-9.99588E-01 1.19479E-16 2.87685E-13
 -1      2338 1.93763E+01 9.12715E-02 1.69971E-03-1.19973E+00 1.22383E-13 3.75207E-13
 -1      2339 1.85658E+01 3.03091E-01-1.46021E-03-8.95709E-01-7.12833E-14 2.91644E-13
 -1      2340 1.84378E+01 3.96933E-01 9.09081E-03-7.67587E-01 1.36241E-15 3.00275E-13
 -1      2341 1.91121E+01 3.38018E-01-9.65747E-04-1.07232E+00-2.47666E-14 6.04999E-13
 -1      2342 1.83285E+01 4.72714E-01 1.62255E-03-5.83152E-01 1.55937E-13 1.53712E-13
 -1      2343 1.82528E+01 5.33526E-01 8.81770E-03-3.98357E-01 1.65648E-13 1.43853E-13
 -1      2344 1.88749E+01 5.69466E-01-4.20857E-03-7.68650E-01-5.06539E-16 4.83491E-13
 -1      2345 1.82043E+01 5.67100E-01 5.30554E-03-1.61048E-01 3.06417E-13 1.32245E-14
 -1      2346 1.81950E+01 5.74777E-01 6.24911E-03 4.88829E-02 3.33168E-13 1.19929E-13
 -1      2347 1.87243E+01 7.18512E-01-6.65943E-03-3.19910E-01 1.67472E-13 2.10221E-13
 -1      2348 1.82216E+01 5.55032E-01 8.20236E-03 2.92550E-01 2.27683E-13 1.15531E-13
 -1      2349 1.82803E+01 5.07560E-01 2.60380E-03 4.87648E-01 7.47672E-14 3.50560E-13
 -1      2350 1.87035E+01 7.37347E-01-6.96209E-03 1.93462E-01 2.95210E-13 2.28556E-13
 -1      2351 1.83720E+01 4.42090E-01 8.99196E-03 6.89231E-01 3.98605E-14 3.86698E-13
 -1      2352 1.84874E+01 3.56663E-01-6.04248E-04 8.35240E-01 2.09767E-13 4.29203E-13
 -1      2353 1.88166E+01 6.21278E-01-4.83739E-03 6.67498E-01 2.19839E-13 3.68129E-13
 -1      2354 1.86155E+01 2.67823E-01 7.33861E-03 9.62332E-01 1.30865E-13 4.58585E-13
 -1      2355 1.87671E+01 1.71773E-01-2.37334E-03 1.04185E+00 1.37940E-13 4.14807E-13
 -1      2356 1.90264E+01 4.11092E-01-1.46011E-03 1.01416E+00 1.19224E-13 2.90191E-13
 -1      2357 1.88979E+01 8.51169E-02 3.98720E-03 1.08710E+00 2.17833E-13 2.99605E-13
 -1      2358 1.90629E+01 2.76610E-03-2.65861E-03 1.10189E+00 2.56451E-13 1.98292E-13
 -1      2359 1.92734E+01 1.72108E-01 1.52584E-03 1.19156E+00 9.24006E-14 1.21946E-13
 -1      2360 1.91715E+01-6.40646E-02 2.63093E-04 1.07937E+00 1.45717E-13 1.94310E-13
 -1      2361 1.93307E+01-1.20510E-01-2.04986E-03 1.04432E+00 3.39092E-14 2.93977E-13
 -1      2362 1.95022E+01-3.63060E-02 3.11877E-03 1.20910E+00 1.68012E-13 9.74689E-14
 -1      2363 1.94072E+01-1.62710E-01-2.59707E-03 9.78094E-01 4.24021E-14 3.18458E-13
 -1      2364 1.95477E+01-1.94923E-01-1.24592E-03 9.11872E-01-5.07036E-14 3.34459E-13
 -1      2365 1.96799E+01-1.83148E-01 3.27723E-03 1.10968E+00 5.97357E-14 2.30043E-13
 -1      2366 1.95951E+01-2.19809E-01-4.15651E-03 8.24644E-01-8.42776E-14 3.97441E-13
 -1      2367 1.97114E+01-2.39260E-01-1.01434E-03 7.41278E-01-5.22910E-14 3.87688E-13
 -1      2368 1.97993E+01-2.70919E-01 2.28816E-03 9.44111E-01-7.19703E-14 2.23604E-13
 -1      2369 1.97420E+01-2.60970E-01-4.22739E-03 6.52277E-01-3.95799E-14 4.06678E-13
 -1      2370 1.98355E+01-2.83698E-01-1.88450E-03 5.57134E-01 5.02135E-14 2.62019E-13
 -1      2371 1.99289E+01-3.75202E-01 3.39560E-03 5.63948E-01-5.28956E-14 2.87944E-13
 -1      2372 1.98753E+01-3.25713E-01 1.92931E-03 7.56407E-01-5.62523E-14 3.28337E-13
 -1      2373 1.98496E+01 1.95123E-01 7.70269E-04 7.69415E-02 2.04188E-13-5.39927E-14
 -1      2374 1.99275E+01 2.67133E-01 9.38924E-03 1.78319E-01 2.08438E-13-3.95443E-14
 -1      2375 1.94488E+01 3.05508E-01 1.24228E-01 5.86768E+00 4.27991E-14-3.47805E-13
 -1      2376 2.02540E+01-1.27944E+00 1.30327E-01 5.94579E+00-1.14464E-13-5.23526E-13
 -1      2377 1.97677E+01 1.00372E-01 6.92418E-04-6.25703E-02 1.41699E-13-2.87821E-14
 -1      2378 1.98042E+01 1.43814E-01 6.45965E-03-7.29236E-03 1.88873E-13-1.89951E-14
 -1      2379 1.99670E+01 2.34984E-01-3.72229E-03 7.98514E-02 1.83783E-13-1.10105E-13
 -1      2380 1.97328E+01 4.33962E-02 6.17754E-04-1.37677E-01 1.56348E-13-6.01492E-14
 -1      2381 1.97410E+01 6.96468E-02 3.67362E-03-1.09918E-01 1.63860E-13-3.96104E-14
 -1      2382 1.98889E+01 1.19928E-01-3.00833E-03-6.52433E-02 1.74338E-13-1.21774E-13
 -1      2383 1.97292E+01 8.88484E-03 5.01379E-04-1.71853E-01 1.42507E-13-8.88990E-14
 -1      2384 1.97205E+01 2.46143E-02 1.92246E-03-1.60986E-01 1.55214E-13-6.61343E-14
 -1      2385 1.98477E+01 4.99005E-02-2.16541E-03-1.44346E-01 1.82950E-13-1.22418E-13
 -1      2386 1.97448E+01-1.14456E-02 3.82199E-04-1.80495E-01 1.05957E-13-1.25389E-13
 -1      2387 1.97268E+01-2.40299E-03 8.37440E-04-1.79892E-01 1.24871E-13-9.41518E-14
 -1      2388 1.98326E+01 7.55091E-03-1.46123E-03-1.80799E-01 1.56634E-13-1.33518E-13
 -1      2389 1.97708E+01-2.25660E-02 2.82129E-04-1.73783E-01 2.94167E-14-1.50580E-13
 -1      2390 1.97486E+01-1.78679E-02 1.69930E-04-1.79151E-01 7.36889E-14-1.38173E-13
 -1      2391 1.98344E+01-1.72188E-02-9.28395E-04-1.90310E-01 1.13873E-13-1.15563E-13
 -1      2392 1.98013E+01-2.76570E-02 1.90561E-04-1.58502E-01 2.42521E-14-1.70653E-13
 -1      2393 1.97782E+01-2.58153E-02-2.32955E-04-1.67038E-01 2.83538E-14-1.58238E-13
 -1      2394 1.98464E+01-3.05417E-02-5.46561E-04-1.83505E-01 4.57620E-14-1.78478E-13
 -1      2395 1.98311E+01-2.88803E-02 1.38519E-04-1.40208E-01 3.48865E-14-1.43238E-13
 -1      2396 1.98097E+01-2.88403E-02-4.65164E-04-1.49548E-01 6.06123E-15-1.54551E-13
 -1      2397 1.98633E+01-3.64142E-02-2.72669E-04-1.68049E-01 8.38893E-15-1.81424E-13
 -1      2398 1.98610E+01-2.78093E-02 9.88423E-05-1.19824E-01 3.61681E-14-1.48815E-13
 -1      2399 1.98406E+01-2.87856E-02-5.39734E-04-1.29752E-01 6.26694E-14-1.45276E-13
 -1      2400 1.98821E+01-3.75537E-02-1.24474E-04-1.48373E-01 1.58664E-14-1.41486E-13
 -1      2401 1.98883E+01-2.52245E-02 7.29192E-05-1.00123E-01 2.46567E-14-8.36732E-14
 -1      2402 1.98702E+01-2.68349E-02-5.63853E-04-1.09447E-01 2.62292E-14-1.10506E-13
 -1      2403 1.99016E+01-3.57862E-02-1.67947E-05-1.26946E-01 1.40929E-14-1.65281E-13
 -1      2404 1.99123E+01-2.18226E-02 6.29330E-05-8.22820E-02 1.00016E-13-4.11589E-14
 -1      2405 1.98967E+01-2.37733E-02-5.42068E-04-9.05566E-02 9.12913E-14-2.10952E-14
 -1      2406 1.99200E+01-3.22029E-02 4.40505E-05-1.06281E-01 3.39733E-14-9.97591E-14
 -1      2407 1.99331E+01-1.80136E-02 6.69356E-05-6.69705E-02 3.92148E-14-3.37522E-14
 -1      2408 1.99199E+01-2.01211E-02-4.92844E-04-7.39470E-02 1.08772E-13-1.56071E-14
 -1      2409 1.99368E+01-2.76298E-02 7.13699E-05-8.76391E-02 1.04496E-13-4.12068E-14
 -1      2410 1.99512E+01-1.40025E-02 8.60186E-05-5.45678E-02 4.52453E-14-2.45021E-14
 -1      2411 1.99399E+01-1.61865E-02-4.30930E-04-6.01066E-02-3.09685E-15-3.76542E-14
 -1      2412 1.99518E+01-2.25533E-02 7.50441E-05-7.17634E-02 4.96316E-14-1.11778E-14
 -1      2413 1.99670E+01-9.81628E-03 1.23809E-04-4.53231E-02 8.11576E-14-4.40144E-14
 -1      2414 1.99572E+01-1.20882E-02-3.66159E-04-4.93218E-02 1.23696E-13-2.26842E-14
 -1      2415 1.99651E+01-1.71957E-02 6.22575E-05-5.90971E-02 7.47810E-14 1.83928E-14
 -1      2416 1.99813E+01-5.30659E-03 1.87192E-04-3.95018E-02 9.14638E-15-2.75153E-14
 -1      2417 1.99724E+01-7.77169E-03-3.05781E-04-4.18265E-02 3.20994E-14-6.88208E-14
 -1      2418 1.99771E+01-1.15424E-02 3.82814E-05-4.99596E-02 6.41386E-14-3.63089E-14
 -1      2419 1.99950E+01-1.19226E-04 2.87813E-04-3.75348E-02 8.49988E-14-1.47612E-13
 -1      2420 1.99864E+01-2.99743E-03-2.56026E-04-3.79453E-02 3.25141E-14-1.13797E-13
 -1      2421 1.99881E+01-5.33590E-03 7.43644E-06-4.47078E-02 5.71738E-14-1.03568E-13
 -1      2422 2.00092E+01 6.37733E-03 4.44358E-04-4.01976E-02 5.16876E-14-1.87222E-13
 -1      2423 2.00000E+01 2.70737E-03-2.23848E-04-3.82522E-02 8.46511E-14-1.31868E-13
 -1      2424 1.99988E+01 1.97596E-03-2.55439E-05-4.39015E-02 9.63184E-14-1.50525E-13
 -1      2425 2.00252E+01 1.52241E-02 6.86072E-04-4.88512E-02 6.44694E-14-3.07621E-13
 -1      2426 2.00143E+01 1.01459E-02-2.19128E-04-4.37732E-02 5.36641E-14-2.75589E-13
 -1      2427 2.00096E+01 1.13510E-02-5.33397E-05-4.85011E-02 7.67021E-14-1.63486E-13
 -1      2428 2.00442E+01 2.80873E-02 1.05414E-03-6.57915E-02 1.06185E-14-3.62470E-13
 -1      2429 2.00303E+01 2.06216E-02-2.57624E-04-5.62689E-02 2.82519E-14-3.53761E-13
 -1      2430 2.00210E+01 2.43499E-02-6.25843E-05-6.01252E-02 8.04858E-14-3.12136E-13
 -1      2431 2.00677E+01 4.75733E-02 1.55221E-03-9.47804E-02-4.21576E-15-2.63170E-13
 -1      2432 2.00492E+01 3.62341E-02-3.60396E-04-7.86334E-02 2.89964E-15-3.14271E-13
 -1      2433 2.00330E+01 4.34418E-02-2.83930E-05-8.14105E-02-2.83657E-14-3.98099E-13
 -1      2434 2.00959E+01 7.61025E-02 2.35474E-03-1.38769E-01 1.12803E-13-2.41264E-13
 -1      2435 2.00716E+01 5.94418E-02-5.60947E-04-1.14407E-01 8.16975E-14-3.01006E-13
 -1      2436 2.00448E+01 7.18442E-02 1.81510E-04-1.15335E-01 4.60093E-14-4.91179E-13
 -1      2437 2.01327E+01 1.22904E-01 3.65778E-03-2.11158E-01-1.42603E-13-2.33486E-13
 -1      2438 2.00975E+01 9.54933E-02-1.00222E-03-1.70645E-01 6.85134E-14-2.08802E-13
 -1      2439 2.00549E+01 1.15143E-01 4.19442E-04-1.68415E-01 4.95930E-14-3.62000E-13
 -1      2440 2.01759E+01 1.96397E-01 5.42947E-03-3.23777E-01-9.46479E-14-3.41644E-13
 -1      2441 2.01274E+01 1.53364E-01-1.74825E-03-2.60233E-01-2.15110E-13-2.61148E-13
 -1      2442 2.00591E+01 1.84478E-01 1.10307E-03-2.51545E-01-1.16312E-13-3.26732E-13
 -1      2443 2.02210E+01 3.11144E-01 7.86690E-03-4.96648E-01-1.43888E-13-2.13274E-13
 -1      2444 2.01559E+01 2.44201E-01-3.04908E-03-3.98189E-01-1.45071E-13-3.02826E-13
 -1      2445 2.00475E+01 2.92676E-01 2.47257E-03-3.77027E-01-1.51175E-13-3.78394E-13
 -1      2446 2.02547E+01 4.87227E-01 1.09565E-02-7.57893E-01-9.51296E-14-1.84592E-14
 -1      2447 2.01716E+01 3.85143E-01-5.26973E-03-6.07693E-01-1.06108E-13-9.66391E-14
 -1      2448 2.00009E+01 4.59629E-01 5.06203E-03-5.63088E-01-1.86604E-13-3.11473E-13
 -1      2449 2.02473E+01 7.48691E-01 1.43759E-02-1.14416E+00 3.04453E-14-2.19443E-15
 -1      2450 2.01496E+01 5.98696E-01-8.97988E-03-9.20311E-01 6.07544E-14 7.29202E-14
 -1      2451 1.98836E+01 7.11457E-01 9.71198E-03-8.33004E-01-4.39041E-14-1.42062E-13
 -1      2452 2.01407E+01 1.11344E+00 1.75248E-02-1.69709E+00 8.71490E-14-2.09041E-13
 -1      2453 2.00417E+01 9.08085E-01-1.48616E-02-1.37557E+00 6.89691E-14-6.29483E-14
 -1      2454 1.96317E+01 1.07599E+00 1.76729E-02-1.21345E+00 1.52272E-13 2.74954E-15
 -1      2455 1.98405E+01 1.55982E+00 2.09981E-02-2.45134E+00 5.35336E-14-2.01854E-13
 -1      2456 1.97660E+01 1.31835E+00-2.27860E-02-2.01638E+00 8.86734E-14-1.62118E-13
 -1      2457 1.91393E+01 1.56466E+00 3.08957E-02-1.73018E+00 1.10773E-13-4.46592E-14
 -1      2458 1.92341E+01 1.93861E+00 3.24660E-02-3.40907E+00 1.18860E-13-2.95107E-13
 -1      2459 1.92075E+01 1.76097E+00-2.79321E-02-2.87726E+00 9.60764E-14-2.30007E-13
 -1      2460 1.82483E+01 2.12084E+00 5.32064E-02-2.40331E+00 1.18976E-13-2.11903E-13
 -1      2461 1.82488E+01 1.76777E+00 6.93913E-02-4.51591E+00 1.49773E-13-5.91235E-13
 -1      2462 1.82725E+01 1.95630E+00-1.15908E-02-3.95648E+00 2.22579E-13-4.09429E-13
 -1      2463 1.67701E+01 2.49303E+00 9.35494E-02-3.25233E+00 2.94009E-13-2.71934E-13
 -1      2464 1.73253E+01 4.17471E-01 8.36565E-02-5.44059E+00-6.26860E-14-7.69856E-13
 -1      2465 1.72188E+01 1.38353E+00 6.17351E-02-5.08110E+00 9.61731E-15-8.15598E-13
 -1      2466 1.48918E+01 2.19718E+00 1.90528E-01-4.14213E+00 2.13579E-13-5.00974E-13
 -1      2467 3.90626E+01-3.32332E+00 1.37654E-01 2.78735E+00 1.48034E-13-4.89386E-13
 -1      2468 1.96119E+01 1.51235E+00 1.48743E-02 4.76882E+00 1.49714E-13-1.41741E-13
 -1      2469 2.00841E+01 1.08908E+00 8.20937E-02 5.24627E+00 9.60447E-14-2.06068E-13
 -1      2470 1.63061E+01 9.67098E-01 9.48803E-02 5.53942E+00-5.98063E-14-3.92714E-13
 -1      2471 2.01408E+01 1.10517E+00 1.02597E-02 1.44707E+00 1.07291E-13-5.85599E-13
 -1      2472 2.02194E+01 1.06595E+00 6.69345E-03 1.66605E+00 8.72566E-16-4.57874E-13
 -1      2473 1.98386E+01 1.34721E+00-2.50749E-02 1.51450E+00 1.68911E-13-5.58647E-13
 -1      2474 1.88902E+01 1.79883E+00 4.57226E-05-5.96153E-01-1.48046E-13-2.03316E-13
 -1      2475 1.87799E+01 1.89226E+00-2.33960E-02-1.54245E-01 1.25195E-13-6.25283E-13
 -1      2476 1.93428E+01 1.24215E+00 1.21961E-02-1.36814E+00-3.58349E-13-1.87466E-13
 -1      2477 1.90799E+01 1.46882E+00-2.87244E-02-1.06612E+00-3.37650E-13-2.37423E-13
 -1      2478 1.86564E+01 1.55029E+00 1.23035E-02-1.05854E+00-8.13697E-14-3.35270E-13
 -1      2479 1.87985E+01 2.00593E+00-1.48877E-02 4.41270E-01 2.25120E-14-4.03778E-13
 -1      2480 1.89455E+01 1.93118E+00-7.21658E-03 8.88861E-01 2.66471E-14 1.74530E-13
 -1      2481 1.83915E+01 1.98141E+00 1.87905E-02 9.48694E-02 3.33958E-14-4.76691E-13
 -1      2482 1.98922E+01 5.43585E-01 1.62620E-02-1.67563E+00-1.55788E-13-7.25743E-14
 -1      2483 1.96114E+01 8.32734E-01-2.26542E-02-1.58399E+00-2.78963E-13-8.46918E-14
 -1      2484 1.92982E+01 8.41516E-01-1.89274E-03-1.78034E+00-3.42122E-13-6.11184E-14
 -1      2485 2.03298E+01-9.39080E-02 1.42275E-02-1.54476E+00 2.21064E-14 1.46643E-13
 -1      2486 2.01262E+01 1.86265E-01-1.00585E-02-1.63680E+00-1.96846E-14 1.46456E-13
 -1      2487 1.99999E+01 1.15932E-01-1.11756E-02-1.94489E+00-1.95843E-14 9.04340E-14
 -1      2488 2.05653E+01-5.50638E-01 9.71807E-03-1.12979E+00 2.47798E-14 1.80524E-13
 -1      2489 2.04704E+01-3.31154E-01 2.17549E-03-1.33278E+00 2.60013E-14 2.94235E-14
 -1      2490 2.05224E+01-4.43313E-01-1.32525E-02-1.65437E+00 8.50158E-14 8.70734E-14
 -1      2491 2.06098E+01-7.96383E-01 5.27986E-03-6.08258E-01-1.85488E-13-5.86571E-14
 -1      2492 2.06082E+01-6.61753E-01 9.99886E-03-8.45775E-01-1.13362E-13-4.75765E-14
 -1      2493 2.07769E+01-7.71770E-01-1.08723E-02-1.11247E+00-5.96962E-16-1.02443E-13
 -1      2494 2.05233E+01-8.59073E-01 1.62296E-03-1.25163E-01-3.31189E-13-2.18614E-13
 -1      2495 2.05814E+01-8.08362E-01 1.30351E-02-3.36916E-01-3.19411E-13-3.99572E-14
 -1      2496 2.07934E+01-8.91369E-01-7.57441E-03-5.17345E-01-8.92234E-14-7.79207E-14
 -1      2497 2.03622E+01-7.89081E-01-1.20410E-03 2.55266E-01-3.07947E-13 5.88522E-14
 -1      2498 2.04523E+01-8.06999E-01 1.25051E-02 9.56502E-02-2.46635E-13-1.33395E-13
 -1      2499 2.06531E+01-8.60337E-01-4.35047E-03 4.61660E-03-3.16693E-13-9.04162E-14
 -1      2500 2.01738E+01-6.30657E-01-1.22375E-03 4.81300E-01-3.18104E-13-2.04266E-13
 -1      2501 2.02692E+01-6.98498E-01 9.57408E-03 3.97247E-01-3.25632E-13 1.15411E-13
 -1      2502 2.04259E+01-7.32994E-01-2.25181E-03 3.88019E-01-2.83467E-13 1.19741E-13
 -1      2503 2.00090E+01-4.57588E-01-1.25454E-03 5.53965E-01-8.88824E-14-3.41017E-14
 -1      2504 2.01018E+01-5.51839E-01 6.09575E-03 5.40863E-01-1.89819E-13-2.06424E-13
 -1      2505 2.02072E+01-5.78176E-01-2.39182E-04 5.88054E-01-2.12686E-13-1.17876E-13
 -1      2506 1.99882E+01-4.30274E-01-3.75706E-03 6.53881E-01-1.20152E-14 6.32584E-14
 -1      2507 6.43645E+00-3.11537E+00 7.23371E-02 7.02316E+00 4.74065E-14 5.04041E-14
 -1      2508 3.93851E+00-2.55102E+00 1.27415E-01 4.89128E+00 9.39804E-14-6.19504E-14
 -1      2509 3.73773E+00-2.21491E+00 1.25682E-01-2.02567E+00 6.07708E-14-4.57745E-13
 -1      2510 6.46132E+00-3.10498E+00 3.87474E-02-4.40265E+00-5.38458E-14-5.32963E-13
 -1      2511 3.51970E+01 7.96588E+00-1.41853E-01 5.72609E-01 1.46383E-13-2.88131E-13
 -1      2512 3.53346E+01 8.92609E+00-1.67242E-01 3.05155E-01 6.36713E-14-2.41897E-13
 -1      2513 2.17005E+01-3.58733E+00 6.55519E-02-5.69541E+00 3.45002E-14-7.63736E-13
 -1      2514 1.92429E+01-1.38906E+00 2.30821E-01-6.08600E+00-4.26326E-14-7.70689E-13
 -1      2515 2.00769E+01 1.29741E+00-1.18823E-02 2.60495E+00-6.84487E-14 2.61323E-14
 -1      2516 2.03666E+01 1.43640E+00 3.06014E-02 3.09569E+00 2.20055E-13 5.37279E-14
 -1      2517 1.98271E+01 1.56571E+00-1.68325E-02 3.59392E+00 2.47282E-13-9.03028E-14
 -1      2518 2.01562E+01 1.63467E+00 4.88142E-02 4.14235E+00 2.59046E-13-1.87819E-13
 -1      2519 1.86727E+01 1.98365E+00 4.24053E-02 3.23578E+00 1.03932E-13 7.14567E-14
 -1      2520 2.22784E+01-4.97691E+00 4.50423E-02-5.16244E+00-7.01661E-14-6.85021E-13
 -1      2521 2.01673E+01 5.83580E-01-1.84867E-03 6.33620E-01 3.56466E-13 2.28463E-15
 -1      2522 2.03742E+01 7.82742E-01 8.09095E-03 9.32804E-01 4.03672E-13 5.45017E-14
 -1      2523 2.03645E+01 1.16298E+00 6.37866E-03 1.09693E+00 4.27922E-13-7.74804E-14
 -1      2524 1.95159E+01 3.58813E+00-1.00700E-02-2.48421E-01 3.03641E-14-6.24699E-13
 -1      2525 1.95323E+01 3.56713E+00-9.63929E-03-4.28889E-01-2.91149E-14-6.32095E-13
 -1      2526 1.97087E+01 3.16681E+00-5.59088E-04-4.75783E-01-5.29292E-14-5.86724E-13
 -1      2527 1.96735E+01 3.22747E+00-9.21578E-04-1.54906E-01 3.61754E-14-5.96360E-13
 -1      2528 1.99803E+01 3.37805E-01 8.99862E-04 2.91232E-01 2.53888E-13-4.41596E-14
 -1      2529 2.01141E+01 4.53147E-01 1.11305E-02 4.65807E-01 2.92142E-13-1.32671E-14
 -1      2530 2.02140E+01 6.74711E-01 1.69956E-03 6.09087E-01 3.38223E-13-1.03703E-13
 -1      2531 2.00780E+01 4.09205E-01-2.88546E-03 3.00828E-01 2.46878E-13-1.01977E-13
 -1      2532 3.49436E+01-4.70834E+00 2.23946E-01 1.22194E-01-4.36429E-13-6.34492E-14
 -1      2533 1.42538E+01-4.55173E+00-2.17090E-02 8.87461E+00-1.63758E-13-1.56736E-13
 -1      2534 1.01340E+01-4.23361E+00 1.01575E-01 8.07068E+00-4.64073E-14 2.42861E-14
 -1      2535 3.20911E+00-2.20412E+00 1.00439E-01 1.56706E+00-1.26316E-13-3.27183E-13
 -1      2536 2.28988E+00-2.34771E+00 9.49831E-02-1.08851E+00 1.39888E-13-2.92544E-13
 -1      2537 8.52276E+00-4.08308E+00 1.12717E-01-7.69967E+00 2.07445E-13-3.09919E-13
 -1      2538 1.20191E+01-4.66673E+00 3.39106E-02-8.67824E+00 3.89522E-13-3.26406E-14
 -1      2539 2.77818E+00-1.84928E+00 1.46167E-01 2.71507E+00 1.69226E-13-1.73861E-13
 -1      2540 2.78518E+00-1.71592E+00 1.49774E-01 3.79022E-01 1.80543E-13-2.93543E-13
 -1      2541 2.48601E+01-4.63598E+00 1.17104E-02-6.53032E+00 2.96402E-13 1.83187E-15
 -1      2542 2.81802E+01-3.58923E+00-1.04445E-01-5.30576E+00 8.05189E-14-1.81605E-13
 -1      2543 1.15098E+01-3.72148E+00 8.21594E-02-5.60678E+00-4.21330E-14-8.19123E-13
 -1      2544 1.69757E+01-4.60820E+00 1.58213E-02-6.30301E+00 1.69309E-14-8.67140E-13
 -1      2545 2.38604E+01-4.47644E+00-3.09956E-02 7.37107E+00-1.39888E-13-2.03754E-13
 -1      2546 1.95919E+01-4.97386E+00 8.30251E-02 8.00852E+00-7.48568E-14-1.81140E-13
 -1      2547 3.02510E+01-2.25822E+00-1.11604E-01 4.29054E+00-2.60000E-13-4.06897E-14
 -1      2548 2.71753E+01-3.55197E+00-1.11203E-03 5.60836E+00-1.50657E-13-1.41859E-13
 -1      2549 3.40124E+01 1.82164E+00-1.56958E-01 1.01622E+00-2.66107E-13-2.83384E-14
 -1      2550 3.23771E+01-1.54133E-01-3.74328E-02 2.10058E+00-2.48145E-13 1.67644E-14
 -1      2551 3.54172E+01 6.44456E+00-1.70028E-01-5.28230E-01-2.26985E-13-2.97540E-14
 -1      2552 3.46117E+01 4.51999E+00-1.09424E-01-1.72422E-01-2.33036E-13-8.18234E-14
 -1      2553 3.51850E+01 8.92342E+00-1.87628E-01-2.96486E-01-2.49800E-15-1.26982E-13
 -1      2554 3.53611E+01 8.15554E+00-1.40141E-01-5.38036E-01-1.39999E-13-1.39111E-13
 -1      2555 3.44812E+01 4.13877E+00-1.35993E-01 1.56536E-01 5.64271E-14-1.46050E-13
 -1      2556 3.52726E+01 6.08128E+00-1.49279E-01 5.06133E-01 2.05308E-13-6.66689E-14
 -1      2557 1.62192E+01-5.26587E+00 3.79631E-02-8.42850E+00 5.01432E-13 1.29900E-13
 -1      2558 2.06763E+01-4.97888E+00-3.43415E-02-8.23672E+00 4.40037E-13 1.52253E-13
 -1      2559 9.70831E+00-3.35879E+00 6.41571E-02 5.72848E+00-1.26787E-13-1.01419E-13
 -1      2560 6.18399E+00-2.56284E+00 1.29019E-01 3.92287E+00-2.92544E-13-2.21489E-14
 -1      2561 1.99382E+01-5.55680E+00-4.63986E-02 6.09465E+00-3.14637E-13-4.88609E-13
 -1      2562 1.45779E+01-4.59012E+00 4.11978E-02 6.08714E+00-3.23630E-14-5.53974E-13
 -1      2563 3.19965E+01-5.60213E+00 1.11171E-02 2.07382E+00-5.73874E-13-5.76761E-14
 -1      2564 2.63435E+01-5.77785E+00-3.52256E-02 3.80851E+00-4.22384E-13-3.28917E-13
 -1      2565 2.58918E+01-4.65825E+00 3.92100E-02 4.42264E+00-4.71678E-13-5.30230E-13
 -1      2566 1.99126E+01 2.81262E+00 1.14492E-03-1.09902E+00-2.46158E-13-5.88557E-13
 -1      2567 1.97800E+01 3.15805E+00-1.61786E-02-1.28882E+00-2.64161E-13-6.23091E-13
 -1      2568 1.98836E+01 3.01447E+00-1.85288E-02-1.47860E+00-3.32053E-13-5.84801E-13
 -1      2569 2.01207E+01 2.61422E+00-9.99000E-03-1.67756E+00-3.99007E-13-4.76761E-13
 -1      2570 2.04224E+01 1.09206E+00 7.60734E-03 2.05196E+00 1.40200E-14-2.44377E-13
 -1      2571 1.71390E+01-2.06356E+00 4.27028E-02 6.39673E+00-2.00395E-13-8.00360E-13
 -1      2572 2.26980E+01-2.86827E+00 2.29301E-01 5.85714E+00-2.72227E-13-6.30294E-13
 -1      2573 6.91417E+00-6.92324E-01 1.82569E-01 3.02410E+00-1.93109E-13-2.23821E-13
 -1      2574 1.45378E+01-2.56100E-01 1.15720E-01-5.65835E+00 3.73035E-14-8.47183E-13
 -1      2575 4.50408E+00-7.83370E-01 1.74718E-01-2.13792E+00 3.09981E-13-4.25215E-13
 -1      2576 1.76138E+01 2.06435E+00 7.65414E-02 4.30341E+00 1.59740E-13-1.98300E-13
 -1      2577 1.92178E+01 1.78167E+00-3.02060E-02 1.22078E+00 1.98832E-13 2.66353E-13
 -1      2578 1.95307E+01 1.62921E+00 6.23340E-03 1.39841E+00 1.64175E-13-7.76180E-14
 -1      2579 1.94754E+01 1.61888E+00 1.35437E-02 1.63427E+00 3.13011E-13-1.23075E-13
 -1      2580 1.87991E+01 1.97193E+00 2.91397E-02 1.12334E+00 9.79327E-15 5.15336E-14
 -1      2581 9.99915E+00-2.62114E+00 1.62149E-01 7.50936E+00 8.08797E-14-2.77278E-14
 -1      2582 5.10328E+00-4.75924E-01 1.38423E-01-1.14692E+00 1.05554E-13-3.61933E-13
 -1      2583 7.63865E+00-9.87789E-01 2.10613E-01-5.76988E+00 2.37671E-13-3.06422E-13
 -1      2584 7.76579E+00-2.81372E+00 1.24834E-01-6.80779E+00 1.77081E-13-3.66623E-13
 -1      2585 1.07855E+01-2.42325E+00 1.03394E-01-7.39046E+00 1.37834E-13-1.34392E-13
 -1      2586 1.13454E+01-2.04298E+00 1.02903E-01-5.36177E+00 2.80331E-14-7.22256E-13
 -1      2587 3.27248E+01 8.65571E+00-9.63094E-02-1.23990E-03 5.78426E-14-1.80182E-13
 -1      2588 3.00569E+01-2.79875E+00 8.78245E-03-3.59276E+00-1.07275E-14-1.40304E-13
 -1      2589 3.07400E+01-2.14602E+00-2.05352E-01-1.62453E+00-9.09793E-14-2.00562E-13
 -1      2590 2.86116E+01-3.94071E+00 6.26582E-02-3.75560E+00 7.28792E-14-1.52087E-13
 -1      2591 1.45957E+01-2.66053E+00 1.15429E-01 6.05326E+00-2.91017E-13-5.76039E-13
 -1      2592 1.57867E+01-4.60953E+00 9.17401E-02-8.51588E+00 3.33428E-13 1.54238E-13
 -1      2593 3.37009E+01 2.30955E+00-6.99850E-02-3.91391E-03 4.65877E-14-1.50296E-13
 -1      2594 3.21517E+01 3.03033E+00-1.33719E-01 1.30465E+00 3.54716E-14-1.35281E-13
 -1      2595 3.20340E+01 5.59560E-01-7.11049E-02-1.61375E-01-4.32987E-15-2.57627E-13
 -1      2596 3.28912E+01 6.96497E+00-7.17982E-02-1.22576E+00-1.56125E-13-2.45082E-13
 -1      2597 3.29060E+01 2.74261E+00-4.57367E-02-6.44144E-01-2.07431E-13 3.21965E-15
 -1      2598 3.10018E+01-1.78827E+00 9.57824E-03 2.27519E+00-2.09058E-13-1.47660E-14
 -1      2599 2.61829E+01-4.51037E+00 6.60628E-02 5.68827E+00-1.77997E-13-1.58554E-13
 -1      2600 2.36845E+01-5.05645E+00 9.64400E-02-6.93497E+00 4.30489E-13 1.94442E-13
 -1      2601 5.36337E+00-6.20448E-01 1.83908E-01 3.85487E+00 1.51629E-13-1.57319E-13
 -1      2602 1.83831E+01-4.60939E+00 1.05990E-01 8.18363E+00-1.08080E-13-1.30243E-13
 -1      2603 3.30535E+01 6.72171E+00-9.46558E-02 1.20357E+00 7.08877E-14-2.21184E-13
 -1      2604 1.95608E+01 1.54353E+00 2.02887E-02 2.22133E+00 1.29770E-13-1.24441E-13
 -1      2605 1.98400E+01 2.77213E+00-6.23325E-03 5.13310E-01 2.15627E-13-5.37118E-13
 -1      2606 1.98153E+01 2.82103E+00-5.68857E-03 3.62450E-01 1.69139E-13-5.33269E-13
 -1      2607 1.97986E+01 2.85794E+00-5.58085E-03 2.26984E-01 1.38226E-13-5.53359E-13
 -1      2608 1.97904E+01 2.87421E+00-5.42073E-03 7.25000E-02 9.10527E-14-5.55996E-13
 -1      2609 1.99449E+01 2.50711E+00 3.62063E-03 2.62919E-01 1.50958E-13-5.26486E-13
 -1      2610 2.00372E+01 2.33509E+00-1.12526E-02 1.04266E+00 3.89534E-13-3.75328E-13
 -1      2611 1.99717E+01 2.48289E+00-7.02249E-03 9.08997E-01 3.44130E-13-4.13770E-13
 -1      2612 2.02061E+01 1.93451E+00-1.08875E-02 1.23107E+00 4.41450E-13-2.82609E-13
 -1      2613 2.01207E+01 2.16015E+00-4.42257E-03 1.13547E+00 4.08437E-13-3.38085E-13
 -1      2614 2.01915E+01 1.89929E+00 8.07239E-03 9.32035E-01 3.69651E-13-3.24195E-13
 -1      2615 2.03544E+01 1.35685E+00-8.05250E-03 1.16237E+00 4.26808E-13-1.45809E-13
 -1      2616 2.02762E+01 1.73068E+00 2.64437E-03 1.21781E+00 4.35538E-13-2.30399E-13
 -1      2617 2.02730E+01 1.49086E+00 2.38442E-03 9.73422E-01 4.02022E-13-2.50723E-13
 -1      2618 2.02938E+01 1.05109E+00-5.36068E-04 8.70137E-01 3.93995E-13-1.46325E-13
 -1      2619 2.03218E+01 1.71098E+00-9.82963E-03-1.33278E+00-3.79072E-13-3.82494E-13
 -1      2620 2.02892E+01 1.32936E+00-7.04607E-03-1.03539E+00-3.51162E-13-3.53109E-13
 -1      2621 1.99490E+01 6.08802E-02-3.14646E-04-1.43314E-01 1.55018E-13-1.56677E-13
 -1      2622 1.99678E+01 9.90931E-02 2.96593E-03-1.12522E-01 1.65221E-13-1.69748E-13
 -1      2623 2.02171E+01 6.28367E-01 7.81213E-03-4.37285E-01-2.50105E-13-2.89569E-13
 -1      2624 2.01340E+01 4.77201E-01-3.11057E-03-2.77868E-01-2.20191E-13-2.81430E-13
 -1      2625 2.01077E+01 3.63728E-01 6.62456E-03-1.57944E-01-2.12781E-13-2.64446E-13
 -1      2626 2.00486E+01 2.69032E-01-1.73763E-03-5.99244E-02-1.98888E-13-2.88848E-13
 -1      2627 2.01964E+01 5.30234E-01-1.51478E-03-2.61541E-01-2.17713E-13-3.17397E-13
 -1      2628 2.00224E+01 1.98764E-01 4.54413E-03 1.57186E-02-1.85826E-13-2.44414E-13
 -1      2629 1.99866E+01 1.39192E-01-8.25901E-04 7.25956E-02-1.55849E-13-2.56834E-13
 -1      2630 2.01271E+01 3.00198E-01-2.05860E-03-5.43332E-02-1.83025E-13-2.73451E-13
 -1      2631 1.99656E+01 9.50262E-02 2.90396E-03 1.16263E-01-1.27960E-13-2.41984E-13
 -1      2632 1.99476E+01 5.77196E-02-2.91565E-04 1.45977E-01-1.29087E-13-2.55451E-13
 -1      2633 2.00705E+01 1.53944E-01-1.88875E-03 7.35985E-02-1.40581E-13-2.59250E-13
 -1      2634 1.99325E+01 3.02311E-02 1.73577E-03 1.67721E-01-1.29327E-13-2.40958E-13
 -1      2635 1.99267E+01 7.43565E-03 3.96367E-06 1.79864E-01-1.20652E-13-2.52069E-13
 -1      2636 2.00293E+01 6.15049E-02-1.51553E-03 1.45175E-01-1.22081E-13-2.39697E-13
 -1      2637 1.99168E+01-9.08737E-03 9.29202E-04 1.87174E-01-1.04249E-13-2.28130E-13
 -1      2638 1.99187E+01-2.22562E-02 1.58644E-04 1.88311E-01-9.84369E-14-2.10481E-13
 -1      2639 2.00018E+01 4.40338E-03-1.13358E-03 1.78428E-01-9.14745E-14-2.07015E-13
 -1      2640 1.99128E+01-3.14699E-02 3.89722E-04 1.86579E-01-1.08574E-13-1.84102E-13
 -1      2641 1.99192E+01-3.82307E-02 2.32032E-04 1.81197E-01-1.09647E-13-1.40134E-13
 -1      2642 1.99850E+01-2.91439E-02-8.09880E-04 1.86735E-01-8.72849E-14-1.28430E-13
 -1      2643 1.99162E+01-4.25814E-02 4.30912E-05 1.74217E-01-1.20948E-13-1.18332E-13
 -1      2644 1.99249E+01-4.51236E-02 2.59244E-04 1.65361E-01-1.08988E-13-1.49518E-13
 -1      2645 1.99759E+01-4.69370E-02-5.57024E-04 1.79694E-01-9.47805E-14-6.54422E-14
 -1      2646 1.99238E+01-4.62937E-02-1.67030E-04 1.55745E-01-1.05304E-13-1.52525E-13
 -1      2647 1.99333E+01-4.61319E-02 2.60666E-04 1.45448E-01-4.84194E-14-1.90558E-13
 -1      2648 1.99721E+01-5.42971E-02-3.68292E-04 1.64034E-01-1.31618E-13-7.97385E-14
 -1      2649 1.99334E+01-4.52908E-02-2.82843E-04 1.34941E-01-2.77067E-14-2.47009E-13
 -1      2650 1.99429E+01-4.34753E-02 2.48422E-04 1.24524E-01-3.10121E-14-2.22013E-13
 -1      2651 1.99718E+01-5.49138E-02-2.31970E-04 1.44354E-01-6.23814E-14-1.90813E-13
 -1      2652 1.99436E+01-4.14344E-02-3.35358E-04 1.14254E-01-1.24776E-14-2.48673E-13
 -1      2653 1.99525E+01-3.86886E-02 2.29836E-04 1.04536E-01-7.33019E-15-2.42121E-13
 -1      2654 1.99735E+01-5.13540E-02-1.36397E-04 1.23702E-01-2.54324E-14-1.72179E-13
 -1      2655 1.99537E+01-3.60062E-02-3.46848E-04 9.51872E-02-5.35928E-14-2.28268E-13
 -1      2656 1.99617E+01-3.28233E-02 2.09189E-04 8.66388E-02-1.29899E-13-1.91459E-13
 -1      2657 1.99764E+01-4.53937E-02-7.16096E-05 1.04018E-01-4.22648E-14-2.22132E-13
 -1      2658 1.99630E+01-2.98817E-02-3.32768E-04 7.85915E-02-2.15244E-13-1.99434E-13
 -1      2659 1.99701E+01-2.65996E-02 1.88545E-04 7.14401E-02-1.89560E-13-2.30512E-13
 -1      2660 1.99798E+01-3.82519E-02-2.97273E-05 8.64533E-02-1.73834E-13-2.70763E-13
 -1      2661 1.99715E+01-2.36671E-02-3.03160E-04 6.48601E-02-1.70984E-13-2.05194E-13
 -1      2662 1.99776E+01-2.05312E-02 1.68066E-04 5.91611E-02-1.48350E-13-2.47497E-13
 -1      2663 1.99834E+01-3.07709E-02-4.92222E-06 7.16134E-02-1.66602E-13-1.64680E-13
 -1      2664 1.99791E+01-1.78171E-02-2.63582E-04 5.40616E-02-1.00962E-13-2.89700E-13
 -1      2665 1.99844E+01-1.50369E-02 1.45999E-04 4.97376E-02-6.00999E-14-3.06547E-13
 -1      2666 1.99870E+01-2.35665E-02 6.67438E-06 5.97165E-02-1.44897E-13-1.60562E-13
 -1      2667 1.99859E+01-1.27436E-02-2.15618E-04 4.60094E-02-2.79538E-14-2.90901E-13
 -1      2668 1.99906E+01-1.05498E-02 1.18402E-04 4.28611E-02 2.58628E-14-2.24471E-13
 -1      2669 1.99906E+01-1.71651E-02 6.99138E-06 5.06918E-02-5.19370E-14-1.40350E-13
 -1      2670 1.99923E+01-8.92596E-03-1.57039E-04 4.02753E-02 3.50703E-14-2.50455E-13
 -1      2671 1.99966E+01-7.62943E-03 7.86520E-05 3.79645E-02 5.43433E-14-3.02518E-13
 -1      2672 1.99943E+01-1.21375E-02-4.08704E-06 4.42182E-02 6.25113E-15-2.22376E-13
 -1      2673 1.99987E+01-7.02654E-03-8.16944E-05 3.61459E-02 7.84324E-14-2.80751E-13
 -1      2674 2.00026E+01-7.08085E-03 1.67735E-05 3.41490E-02 1.18396E-13-3.40379E-13
 -1      2675 1.99983E+01-9.23879E-03-2.89270E-05 3.97045E-02 8.68650E-14-2.31053E-13
 -1      2676 2.00055E+01-8.01176E-03 2.06436E-05 3.25185E-02 1.24648E-13-3.10580E-13
 -1      2677 2.00091E+01-1.00750E-02-8.12971E-05 3.00510E-02 6.21474E-14-3.09391E-13
 -1      2678 2.00033E+01-9.55394E-03-7.23186E-05 3.62106E-02 9.86361E-14-3.22612E-13
 -1      2679 2.00135E+01-1.32661E-02 1.64142E-04 2.77354E-02-3.16711E-15-2.88469E-13
 -1      2680 2.00170E+01-1.82492E-02-2.34283E-04 2.36506E-02-6.11128E-14-2.72370E-13
 -1      2681 2.00101E+01-1.46398E-02-1.41336E-04 3.23035E-02 6.27465E-14-4.18478E-13
 -1      2682 2.00237E+01-2.46690E-02 3.65809E-04 1.93599E-02-1.31643E-13-3.02218E-13
 -1      2683 2.00270E+01-3.37438E-02-4.65509E-04 1.20308E-02-1.47720E-13-3.11084E-13
 -1      2684 2.00201E+01-2.66326E-02-2.44382E-04 2.58486E-02-1.31332E-13-2.58713E-13
 -1      2685 2.00372E+01-4.45737E-02 6.42409E-04 3.91297E-03-1.58323E-13-3.17840E-13
 -1      2686 2.00402E+01-5.90943E-02-8.01327E-04-8.87558E-03-1.42013E-13-3.19839E-13
 -1      2687 2.00351E+01-4.82576E-02-3.88522E-04 1.37423E-02-1.44727E-13-2.10924E-13
 -1      2688 2.00555E+01-7.55864E-02 1.00390E-03-2.33781E-02-6.48488E-14-2.99224E-13
 -1      2689 2.00577E+01-9.68526E-02-1.26651E-03-4.44786E-02 4.63917E-14-2.60837E-13
 -1      2690 2.00575E+01-8.26328E-02-5.73978E-04-8.38452E-03-7.89043E-14-1.23230E-13
 -1      2691 2.00796E+01-1.19998E-01 1.44173E-03-6.87130E-02 3.67822E-14-3.00959E-13
 -1      2692 2.00803E+01-1.48769E-01-1.87403E-03-1.01519E-01-4.00728E-15-2.36600E-13
 -1      2693 2.00901E+01-1.32699E-01-7.84587E-04-4.64161E-02 3.63757E-14-4.48191E-14
 -1      2694 2.01102E+01-1.78688E-01 1.91119E-03-1.39539E-01-4.06882E-14-1.64164E-13
 -1      2695 2.01078E+01-2.14362E-01-2.60637E-03-1.87611E-01-9.39718E-14-8.94033E-14
 -1      2696 2.01357E+01-2.00068E-01-9.73879E-04-1.07803E-01 5.99286E-15-9.46569E-14
 -1      2697 2.01459E+01-2.49371E-01 2.30792E-03-2.43748E-01-6.82149E-14-4.45317E-14
 -1      2698 2.01380E+01-2.88816E-01-3.38441E-03-3.09990E-01-4.35951E-14 7.51471E-14
 -1      2699 2.01961E+01-2.83091E-01-1.05023E-03-2.01136E-01-2.70331E-14 9.79930E-14
 -1      2700 2.01821E+01-3.24224E-01 2.45174E-03-3.87804E-01-5.47201E-14 1.29227E-13
 -1      2701 2.01648E+01-3.60449E-01-4.02568E-03-4.73013E-01-2.31962E-14 1.70612E-13
 -1      2702 2.02701E+01-3.74124E-01-8.70227E-04-3.34784E-01-1.67006E-14 2.30552E-13
 -1      2703 2.02092E+01-3.87444E-01 2.09086E-03-5.73332E-01-5.93779E-14 1.11473E-13
 -1      2704 2.01775E+01-4.08696E-01-4.21149E-03-6.74074E-01 6.66229E-14 9.97518E-14
 -1      2705 2.03510E+01-4.56463E-01-2.58720E-04-5.14004E-01-7.05238E-14 2.18527E-13
 -1      2706 2.02111E+01-4.14092E-01 9.65951E-04-7.91985E-01 1.45495E-13 8.33573E-14
 -1      2707 2.01595E+01-4.04482E-01-3.50280E-03-8.98095E-01 1.20329E-13 8.30608E-14
 -1      2708 2.04244E+01-5.02320E-01 9.06062E-04-7.35940E-01 1.03979E-13 1.18098E-13
 -1      2709 2.01671E+01-3.72559E-01-1.02369E-03-1.01936E+00 7.28785E-14 1.84749E-13
 -1      2710 2.00918E+01-3.15674E-01-1.48466E-03-1.11206E+00 1.17578E-13 2.46863E-13
 -1      2711 2.04668E+01-4.74520E-01 2.53385E-03-9.82668E-01 1.54438E-13 2.01654E-13
 -1      2712 2.00577E+01-2.33355E-01-3.60969E-03-1.21065E+00 1.00253E-13 2.41708E-13
 -1      2713 1.99595E+01-1.19720E-01 1.89972E-03-1.26312E+00 9.62614E-14 2.85120E-13
 -1      2714 2.04496E+01-3.35183E-01 4.14031E-03-1.21424E+00 8.91613E-14 1.79653E-13
 -1      2715 1.98756E+01 1.49581E-02-5.95567E-03-1.30298E+00 1.41423E-13 2.60665E-13
 -1      2716 1.97631E+01 1.77851E-01 5.90260E-03-1.28568E+00 1.93778E-13 3.25700E-13
 -1      2717 2.03495E+01-6.34735E-02 4.74398E-03-1.36663E+00 5.95209E-14 9.91733E-14
 -1      2718 1.96398E+01 3.46794E-01-6.77096E-03-1.23046E+00 3.45094E-14 2.40151E-13
 -1      2719 1.95306E+01 5.27570E-01 8.90951E-03-1.12227E+00-4.97198E-14 2.95359E-13
 -1      2720 2.01661E+01 3.21190E-01 3.25277E-03-1.36215E+00 6.51173E-14-1.13785E-13
 -1      2721 1.94011E+01 6.90642E-01-4.87145E-03-9.53242E-01-3.22659E-14 2.64083E-13
 -1      2722 1.93180E+01 8.39079E-01 9.24331E-03-7.55070E-01-8.05874E-14 1.50111E-13
 -1      2723 1.99376E+01 7.44224E-01-4.32646E-04-1.13844E+00-7.30924E-14 2.35693E-14
 -1      2724 1.92285E+01 9.46155E-01-3.43580E-04-4.88036E-01-2.33332E-14 1.29819E-13
 -1      2725 1.91919E+01 1.01233E+00 6.10326E-03-2.29823E-01 1.56343E-13 6.94707E-14
 -1      2726 1.97372E+01 1.08936E+00-4.57647E-03-6.88302E-01-2.72027E-14-3.68385E-14
 -1      2727 1.91790E+01 1.02526E+00 4.78923E-03 8.16163E-02 3.01880E-13-2.93594E-15
 -1      2728 1.91982E+01 9.85527E-01 7.24063E-04 3.46757E-01 2.78667E-13 5.15052E-14
 -1      2729 1.96428E+01 1.24302E+00-6.69872E-03-8.37054E-02 1.30651E-13-1.32171E-13
 -1      2730 1.92651E+01 9.00903E-01 8.44112E-03 6.30019E-01 1.70374E-13-6.97096E-14
 -1      2731 1.93334E+01 7.71318E-01-4.13369E-03 8.47029E-01 1.35515E-13-1.14887E-13
 -1      2732 1.96924E+01 1.15026E+00-5.62099E-03 5.38113E-01 1.22044E-13-3.36619E-13
 -1      2733 1.94484E+01 6.21014E-01 8.88694E-03 1.04225E+00 1.24453E-13-1.20956E-13
 -1      2734 1.95469E+01 4.48430E-01-6.43974E-03 1.17511E+00 3.76298E-14-2.30476E-13
 -1      2735 1.98592E+01 8.49887E-01-1.06957E-03 1.03345E+00 1.21895E-13-5.00593E-13
 -1      2736 1.96616E+01 2.82740E-01 6.20945E-03 1.25848E+00-1.37992E-15-1.66678E-13
 -1      2737 1.97667E+01 1.19210E-01-6.04232E-03 1.30088E+00 1.93450E-13-1.67137E-13
 -1      2738 2.00669E+01 4.46204E-01 3.17703E-03 1.31331E+00 1.10714E-13-3.34907E-13
 -1      2739 1.98433E+01-1.92621E-02 2.13000E-03 1.28609E+00 2.91037E-13-9.19117E-14
 -1      2740 1.99359E+01-1.39639E-01-3.89745E-03 1.25567E+00 1.48105E-13 5.97326E-14
 -1      2741 2.02355E+01 6.00818E-02 5.19086E-03 1.37119E+00 2.59272E-13-1.62060E-13
 -1      2742 1.99599E+01-2.31192E-01-1.49086E-03 1.17756E+00 4.62271E-14 6.99244E-14
 -1      2743 2.00307E+01-3.00668E-01-1.20928E-03 1.10198E+00-2.59272E-14 2.51012E-14
 -1      2744 2.03180E+01-2.27816E-01 4.88044E-03 1.26283E+00 1.61521E-13-1.89111E-13
 -1      2745 2.00097E+01-3.48747E-01-3.10997E-03 9.97373E-01-4.73495E-14 4.17686E-14
 -1      2746 2.00555E+01-3.82296E-01 4.89362E-04 9.02352E-01-1.57651E-13 9.71724E-14
 -1      2747 2.03097E+01-3.96235E-01 3.59413E-03 1.06645E+00-4.79018E-14-6.20687E-14
 -1      2748 2.00028E+01-3.94185E-01-3.73286E-03 8.21123E-01-1.27318E-13 1.50139E-13
 -1      2749 2.00305E+01-4.17493E-01-8.60329E-04 7.26989E-01-1.03803E-14 1.49807E-13
 -1      2750 2.01424E+01-4.92002E-01-8.62080E-04 7.16296E-01-9.35526E-14-5.73578E-14
 -1      2751 2.02337E+01-4.71868E-01-1.16177E-03 8.74783E-01-9.68472E-14 1.57888E-13
 -1      2752 1.28821E+01-4.93577E-01 2.30989E-01 5.62487E+00-3.23117E-13-2.50133E-13
 -1      2753 9.51897E+00 2.42203E-01 1.26422E-01 4.35924E+00-1.90362E-13-7.79932E-15
 -1      2754 6.97352E+00 8.51878E-01 2.35748E-01 1.79458E+00-9.75123E-14-5.62772E-13
 -1      2755 2.00521E+01 2.78204E-01-1.62485E-03 6.84571E-02 1.94340E-13-1.75909E-13
 -1      2756 2.01098E+01 3.73441E-01 5.27662E-03 1.69982E-01 1.99981E-13-1.59293E-13
 -1      2757 1.99273E+01 9.29619E-03-7.49777E-06-1.78766E-01 1.36957E-13-1.41484E-13
 -1      2758 1.99337E+01 3.27026E-02 1.78477E-03-1.65942E-01 1.52577E-13-1.24694E-13
 -1      2759 2.00309E+01 6.50844E-02-1.53442E-03-1.42573E-01 1.42888E-13-1.84201E-13
 -1      2760 1.99189E+01-2.12820E-02 1.56595E-04-1.88167E-01 8.92682E-14-1.28079E-13
 -1      2761 1.99173E+01-7.69790E-03 9.64668E-04-1.86633E-01 1.33449E-13-1.12884E-13
 -1      2762 2.00029E+01 6.48997E-03-1.15131E-03-1.77355E-01 1.19560E-13-1.43410E-13
 -1      2763 1.99191E+01-3.78409E-02 2.34128E-04-1.81552E-01 4.37995E-14-1.27806E-13
 -1      2764 1.99129E+01-3.08590E-02 4.04408E-04-1.86767E-01 7.19982E-14-1.10422E-13
 -1      2765 1.99857E+01-2.80646E-02-8.23026E-04-1.86602E-01 8.65117E-14-9.30192E-14
 -1      2766 1.99243E+01-4.49763E-02 2.66280E-04-1.66844E-01-2.63722E-14-9.75295E-14
 -1      2767 1.99160E+01-4.23095E-02 4.55597E-05-1.75164E-01-1.46149E-14-1.08268E-13
 -1      2768 1.99765E+01-4.64325E-02-5.80914E-04-1.80445E-01 1.66410E-14-6.52391E-14
 -1      2769 1.99327E+01-4.66183E-02 2.63215E-04-1.47086E-01-4.91139E-15-9.66575E-14
 -1      2770 1.99231E+01-4.65411E-02-1.53857E-04-1.57384E-01-1.08762E-14-8.24749E-14
 -1      2771 1.99726E+01-5.42757E-02-3.87298E-04-1.65553E-01-4.12983E-14-7.36059E-14
 -1      2772 1.99424E+01-4.43530E-02 2.50493E-04-1.26021E-01-3.18873E-14-9.43075E-14
 -1      2773 1.99328E+01-4.59912E-02-2.69695E-04-1.36551E-01 3.28415E-14-7.87482E-14
 -1      2774 1.99722E+01-5.55683E-02-2.51006E-04-1.46016E-01-6.25062E-15-2.92311E-14
 -1      2775 1.99523E+01-3.97843E-02 2.35986E-04-1.05736E-01 5.44558E-14-1.39468E-13
 -1      2776 1.99433E+01-4.24414E-02-3.26771E-04-1.15628E-01-2.29920E-14-1.45358E-13
 -1      2777 1.99741E+01-5.24328E-02-1.55303E-04-1.25256E-01 1.23269E-14-8.18257E-14
 -1      2778 1.99620E+01-3.39297E-02 2.22447E-04-8.75134E-02 6.38483E-14-8.31031E-14
 -1      2779 1.99537E+01-3.71409E-02-3.42128E-04-9.62316E-02 7.37116E-14-1.04333E-13
 -1      2780 1.99773E+01-4.66703E-02-9.12679E-05-1.05339E-01 2.73708E-14-1.42198E-13
 -1      2781 1.99711E+01-2.73846E-02 2.14828E-04-7.21192E-02 2.12193E-14-6.92643E-15
 -1      2782 1.99637E+01-3.08898E-02-3.33480E-04-7.93460E-02 6.02687E-14 6.96642E-15
 -1      2783 1.99812E+01-3.94278E-02-5.08977E-05-8.75513E-02 3.02553E-14-6.33727E-14
 -1      2784 1.99796E+01-2.04045E-02 2.17537E-04-6.00263E-02 7.86734E-14 7.93094E-15
 -1      2785 1.99729E+01-2.41132E-02-3.14263E-04-6.55582E-02 8.27026E-14 2.16748E-14
 -1      2786 1.99856E+01-3.13569E-02-2.70971E-05-7.26799E-02 3.15297E-14-2.77972E-14
 -1      2787 1.99876E+01-1.29379E-02 2.35321E-04-5.15901E-02 1.04176E-13-7.35805E-14
 -1      2788 1.99814E+01-1.69170E-02-2.95366E-04-5.52529E-02 8.71063E-14-3.64715E-14
 -1      2789 1.99900E+01-2.26983E-02-1.34486E-05-6.12215E-02 1.32425E-13-4.57047E-14
 -1      2790 1.99953E+01-4.61567E-03 2.73887E-04-4.72084E-02 1.11428E-13-1.08684E-13
 -1      2791 1.99894E+01-9.10112E-03-2.87046E-04-4.87763E-02 1.20267E-13-1.56626E-14
 -1      2792 1.99943E+01-1.33134E-02-3.20378E-06-5.35600E-02 1.21100E-13-3.78380E-14
 -1      2793 2.00027E+01 5.31542E-03 3.40510E-04-4.74826E-02 7.87207E-14-1.05808E-13
 -1      2794 1.99968E+01-1.23100E-04-3.00961E-04-4.65907E-02 8.50016E-14-1.27576E-13
 -1      2795 1.99984E+01-2.65888E-03 1.22510E-05-5.01211E-02 1.27391E-13-8.47257E-14
 -1      2796 2.00099E+01 1.81325E-02 4.44610E-04-5.34022E-02 1.21152E-13-1.99361E-13
 -1      2797 2.00036E+01 1.10011E-02-3.52738E-04-4.94399E-02 1.45198E-13-1.47276E-13
 -1      2798 2.00019E+01 1.03078E-02 4.58564E-05-5.15207E-02 1.44388E-13-1.80119E-13
 -1      2799 2.00164E+01 3.58707E-02 5.94107E-04-6.65781E-02 9.66958E-14-2.59590E-13
 -1      2800 2.00096E+01 2.58818E-02-4.65091E-04-5.85456E-02 1.03903E-13-2.18388E-13
 -1      2801 2.00040E+01 2.73148E-02 1.18584E-04-5.87230E-02 1.36393E-13-2.04503E-13
 -1      2802 2.00210E+01 6.16932E-02 7.58016E-04-8.95452E-02 2.04656E-14-3.73931E-13
 -1      2803 2.00138E+01 4.70921E-02-6.62056E-04-7.58487E-02 8.08297E-14-3.07550E-13
 -1      2804 2.00033E+01 5.10643E-02 2.62531E-04-7.32142E-02 1.25541E-13-3.06525E-13
 -1      2805 2.00215E+01 9.82154E-02 1.01018E-03-1.23852E-01 4.45965E-14-3.49589E-13
 -1      2806 2.00144E+01 7.74777E-02-1.00383E-03-1.03538E-01-1.55487E-14-3.90197E-13
 -1      2807 1.99974E+01 8.48594E-02 6.06345E-04-9.63923E-02 2.98969E-14-3.42543E-13
 -1      2808 2.00131E+01 1.56350E-01 1.39641E-03-1.78445E-01-5.30465E-14-2.40101E-13
 -1      2809 2.00070E+01 1.23283E-01-1.59324E-03-1.45795E-01 7.35167E-14-3.02747E-13
 -1      2810 1.99813E+01 1.34737E-01 1.05007E-03-1.31616E-01 8.17638E-16-2.22131E-13
 -1      2811 1.99855E+01 2.45334E-01 1.72407E-03-2.59515E-01-8.87102E-14-3.03946E-13
 -1      2812 1.99842E+01 1.94748E-01-2.55461E-03-2.10482E-01-7.43115E-14-2.21813E-13
 -1      2813 1.99459E+01 2.12030E-01 1.99318E-03-1.83951E-01-7.50234E-14-1.36707E-13
 -1      2814 1.99211E+01 3.80826E-01 1.90793E-03-3.77114E-01-1.27045E-13-3.04383E-13
 -1      2815 1.99316E+01 3.04130E-01-4.05917E-03-3.04941E-01-1.48955E-13-3.16286E-13
 -1      2816 1.98760E+01 3.29019E-01 3.64121E-03-2.57550E-01-1.03713E-13-2.55531E-13
 -1      2817 1.97878E+01 5.84051E-01 1.63240E-03-5.43284E-01-2.08587E-13-2.82066E-13
 -1      2818 1.98242E+01 4.69792E-01-6.38800E-03-4.39509E-01-9.15535E-14-2.64916E-13
 -1      2819 1.97453E+01 5.04379E-01 6.47184E-03-3.57189E-01-1.49477E-13-2.48166E-13
 -1      2820 1.95301E+01 8.80657E-01 3.12325E-04-7.70218E-01-2.00545E-14-1.72451E-13
 -1      2821 1.96183E+01 7.15595E-01-9.92321E-03-6.25565E-01-1.55371E-13-2.87964E-13
 -1      2822 1.95102E+01 7.61949E-01 1.12090E-02-4.85545E-01-1.60815E-13-2.71941E-13
 -1      2823 1.90562E+01 1.29365E+00-2.81891E-03-1.06605E+00 1.69665E-13-1.22244E-14
 -1      2824 1.92411E+01 1.06745E+00-1.51458E-02-8.72852E-01 9.43825E-14-9.67160E-14
 -1      2825 1.90992E+01 1.12752E+00 1.89463E-02-6.39223E-01-5.18778E-14-3.48476E-13
 -1      2826 1.82229E+01 1.82159E+00-7.65486E-03-1.42861E+00 5.94915E-14 8.12215E-14
 -1      2827 1.85756E+01 1.54033E+00-2.23712E-02-1.18479E+00 1.68453E-13 1.11486E-13
 -1      2828 1.84004E+01 1.61749E+00 3.15125E-02-8.02750E-01 9.07535E-14 5.17581E-14
 -1      2829 1.68260E+01 2.38390E+00-8.88013E-03-1.84348E+00 2.38132E-13-1.72296E-13
 -1      2830 1.74436E+01 2.10360E+00-3.01396E-02-1.55439E+00 1.49257E-13-5.57388E-14
 -1      2831 1.72441E+01 2.21006E+00 5.28575E-02-9.42883E-01 2.14273E-13-3.35561E-14
 -1      2832 1.45936E+01 2.69287E+00 1.66191E-02-2.31611E+00 3.44830E-13-2.02491E-13
 -1      2833 1.55926E+01 2.60671E+00-2.77092E-02-1.97366E+00 3.22834E-13-1.62200E-13
 -1      2834 1.53758E+01 2.77595E+00 8.95202E-02-1.00995E+00 2.65863E-13-1.22960E-13
 -1      2835 1.19577E+01 2.19963E+00 4.43968E-02-2.77499E+00 2.71838E-13-3.21035E-13
 -1      2836 1.30766E+01 2.59883E+00-8.43024E-03-2.45497E+00 3.93689E-13-2.62596E-13
 -1      2837 1.28502E+01 3.00514E+00 1.67221E-01-9.47063E-01 3.87480E-13-9.23150E-14
 -1      2838 2.03446E+01-2.83524E-01 2.35810E-02-2.21165E+00 5.33458E-14 2.28136E-13
 -1      2839 1.98882E+01-2.16746E-03-1.84677E-02-2.27976E+00-1.01339E-13 2.01293E-13
 -1      2840 2.00865E+01 2.52818E+00-2.10672E-03-1.45889E+00-3.56065E-13-4.88495E-13
 -1      2841 2.03206E+01 1.03715E+00 5.03982E-03-8.34035E-01-3.08569E-13-3.28146E-13
 -1      2842 2.02268E+01 8.00085E-01-5.16778E-03-5.93394E-01-2.75126E-13-3.14625E-13
 -1      2843 2.02626E+01 8.80188E-01 2.16121E-03-5.54183E-01-2.69946E-13-3.41786E-13
 -1      2844 2.02807E+01 1.38762E+00 1.93346E-03-9.20477E-01-3.15614E-13-3.84670E-13
 -1      2845 1.25594E+01-2.62938E+00 2.90576E-02 7.97297E+00 1.14908E-14-4.06342E-14
 -1      2846 9.56303E+00-1.19408E+00 1.93491E-01 6.58626E+00 1.95177E-13-1.09746E-13
 -1      2847 1.83375E+01 1.35086E+00 2.50061E-02-1.64019E+00-1.50942E-13-3.05028E-13
 -1      2848 1.79135E+01 1.59535E+00-3.09240E-02-1.13642E+00-6.05306E-14-3.93833E-13
 -1      2849 1.76957E+01 1.99279E+00 9.40522E-03-3.81226E-01-8.74347E-14-5.27558E-13
 -1      2850 1.76600E+01 2.08634E+00-1.28629E-02 2.74620E-01-1.87031E-13-2.18455E-13
 -1      2851 1.72711E+01 1.82547E+00 1.54594E-02-1.00490E+00-2.18385E-13-3.72277E-13
 -1      2852 1.93884E+01 4.87829E-01 3.05059E-02-2.25998E+00-1.35927E-13-6.43285E-14
 -1      2853 1.88342E+01 7.92557E-01-3.10797E-02-2.04924E+00-1.33821E-13-1.60205E-13
 -1      2854 1.95546E+01-4.37689E-02-1.62680E-02-2.62561E+00 9.84655E-14 9.05143E-14
 -1      2855 2.09412E+01-7.85218E-01 1.28547E-02-1.70755E+00 1.09967E-13 6.11461E-14
 -1      2856 2.06870E+01-5.82000E-01-3.09645E-03-1.95445E+00 9.19924E-14 2.13882E-13
 -1      2857 2.06404E+01-7.55032E-01-1.95830E-02-2.32573E+00 3.80299E-14 2.73028E-13
 -1      2858 2.11475E+01-1.00126E+00 3.69378E-03-1.01760E+00 9.43706E-15-2.62830E-13
 -1      2859 2.10868E+01-8.90640E-01 7.30543E-03-1.33148E+00 8.85266E-14-7.65243E-14
 -1      2860 2.12572E+01-1.10607E+00-1.40582E-02-1.63452E+00 9.36240E-14-5.81610E-14
 -1      2861 2.10651E+01-1.00557E+00-2.31449E-03-3.56864E-01-1.07057E-13-2.63641E-13
 -1      2862 2.11366E+01-9.73449E-01 1.16937E-02-6.50007E-01 1.46411E-13-3.90239E-13
 -1      2863 2.14137E+01-1.16400E+00-7.52106E-03-8.52956E-01 1.10565E-13-2.50359E-13
 -1      2864 2.08139E+01-8.83859E-01-5.18463E-03 1.83768E-01-2.07593E-13-1.07221E-13
 -1      2865 2.09583E+01-9.08087E-01 1.20557E-02-5.18096E-02-2.17937E-13-6.66019E-14
 -1      2866 2.12529E+01-1.04574E+00-1.91828E-03-1.59865E-01 5.88519E-14-3.27051E-13
 -1      2867 2.04828E+01-6.97542E-01-6.07152E-03 5.46853E-01-3.16890E-13 5.57295E-14
 -1      2868 2.06587E+01-7.59806E-01 1.05926E-02 3.95019E-01-1.65260E-13 1.18319E-13
 -1      2869 2.09124E+01-8.47594E-01 7.02877E-04 3.64706E-01-7.21319E-14 5.95954E-14
 -1      2870 1.58244E+01 2.43126E+00-1.13937E-02 3.02432E+00 1.25674E-13-3.28626E-13
 -1      2871 1.53391E+01 2.36016E+00 7.51644E-02 3.51448E+00 1.21321E-13-3.58179E-13
 -1      2872 5.60974E+00 5.39873E-01 1.51965E-01-6.87402E-01 2.19165E-14-7.55729E-13
 -1      2873 6.16936E+00 7.83802E-02 2.03528E-01-3.34308E+00 1.68900E-13-3.86219E-13
 -1      2874 1.04663E+01 7.84030E-01 2.98417E-01-4.11330E+00 3.04617E-14-5.99465E-13
 -1      2875 1.99184E+01 2.60505E+00-7.74976E-03 7.92041E-01 3.19317E-13-4.66179E-13
 -1      2876 1.98746E+01 2.69579E+00-6.15009E-03 6.42844E-01 2.59708E-13-5.13845E-13
 -1      2877 1.99936E+01 2.39592E+00 4.34966E-03 5.14749E-01 2.29898E-13-4.88005E-13
 -1      2878 2.00758E+01 2.20074E+00 6.15873E-03 7.45882E-01 3.16552E-13-4.04758E-13
 -1      2879 1.76630E+01 2.14029E+00-2.90869E-02 2.37452E+00 9.63032E-14-1.41239E-13
 -1      2880 1.71859E+01 2.33582E+00 1.80667E-02 2.74178E+00 1.10498E-13-1.43174E-13
 -1      2881 1.53218E+01 2.74424E+00 9.44759E-02 2.06000E+00 4.88758E-14-3.25375E-13
 -1      2882 2.09288E+01-4.67688E+00-6.35969E-02 7.40786E+00-1.13798E-15-1.44378E-13
 -1      2883 1.68835E+01-3.62464E+00 1.90221E-01 7.89502E+00-3.61655E-14-6.17562E-14
 -1      2884 3.03601E+01 8.06710E+00-1.83486E-01 5.47663E-01 3.98015E-14-6.34076E-14
 -1      2885 3.03002E+01 8.09833E+00-1.80149E-01-4.97356E-01 4.81837E-14-6.88373E-14
 -1      2886 1.98726E+01 2.70000E+00-5.96978E-03-6.37142E-01-1.21469E-13-5.57726E-13
 -1      2887 1.99160E+01 2.61011E+00-7.54327E-03-7.85967E-01-1.74203E-13-5.59937E-13
 -1      2888 3.09725E+01 5.25873E+00-1.71406E-01 1.72562E+00 4.50751E-14-1.32561E-13
 -1      2889 3.06410E+01 6.97012E+00-2.16274E-01 1.36536E+00 5.57610E-14-1.48201E-13
 -1      2890 2.20437E+01-4.92224E+00 1.28102E-01-7.11521E+00 3.82472E-13 3.83778E-13
 -1      2891 2.51407E+01-4.93036E+00-4.59987E-02-5.74888E+00 2.37088E-13 2.98234E-13
 -1      2892 2.74563E+01-4.36070E+00-1.14576E-01 4.30059E+00-9.30922E-14 1.62023E-13
 -1      2893 2.49817E+01-4.68718E+00 1.07972E-01 5.62823E+00-6.80150E-14-1.76248E-15
 -1      2894 3.05673E+01-1.45599E+00-2.01943E-01 6.83195E-01-1.59987E-13 6.30052E-15
 -1      2895 2.94029E+01-3.01141E+00 1.16985E-02 2.38489E+00-1.08627E-13-1.66533E-15
 -1      2896 2.81678E+01-3.60855E+00 1.21830E-02 2.55676E+00 1.73507E-14 1.39694E-13
 -1      2897 3.12844E+01 3.30181E+00-2.30681E-01-1.54046E+00-1.61288E-13 6.44068E-14
 -1      2898 3.13645E+01 1.15938E+00-3.91340E-02-8.63819E-01-1.92665E-13-1.40166E-14
 -1      2899 1.89891E+01 1.78327E+00-3.73290E-03 2.04323E+00 2.42867E-13 2.88320E-14
 -1      2900 7.27294E+00 4.57748E-02 1.51114E-01 4.84572E+00 1.79481E-13-1.86962E-13
 -1      2901 6.20216E+00 8.09006E-01 1.80163E-01 2.47687E+00 1.66984E-13-1.76803E-13
 -1      2902 1.99891E+01 1.44316E-01-8.69705E-04-6.75402E-02 1.75219E-13-1.96867E-13
 -1      2903 2.00259E+01 2.05167E-01 4.56094E-03-8.95945E-03 1.89472E-13-1.78762E-13
 -1      2904 2.00728E+01 1.59704E-01-1.91375E-03-6.86912E-02 1.65459E-13-2.44450E-13
 -1      2905 3.04851E+01 7.06088E+00-2.19330E-01-1.32895E+00-7.29417E-14-1.11022E-13
 -1      2906 3.09040E+01 5.63832E+00-1.18177E-01-1.80059E+00-1.44190E-13-9.81715E-14
 -1      2907 1.47914E+01-3.55335E+00 1.50162E-01-8.12529E+00 1.10328E-13 9.50628E-14
 -1      2908 1.83168E+01-4.52558E+00 9.13424E-03-8.14916E+00 2.19713E-13 2.56281E-13
 -1      2909 1.24996E+01 6.76427E-01 1.70108E-01 4.70210E+00-1.25427E-13-2.62484E-13
 -1      2910 6.87745E+00 8.14073E-01 1.28133E-01-1.83619E+00 1.11737E-13-3.33622E-13
 -1      2911 1.04402E+01 1.85944E+00 1.00375E-01-2.53349E+00 1.78593E-13-3.31568E-13
 -1      2912 9.81309E+00 2.66720E+00 2.52236E-01-4.81397E-01 3.24112E-13-2.66204E-13
 -1      2913 6.37219E+00 1.31476E+00 2.75984E-01 8.09186E-01 2.15137E-13-1.81299E-13
 -1      2914 2.02001E+01 6.67074E-01-1.76072E-03 4.97177E-01 2.90135E-13-1.45739E-13
 -1      2915 2.02731E+01 8.32909E-01 1.84715E-03 6.81981E-01 3.47620E-13-1.49788E-13
 -1      2916 2.02848E+01 1.05261E+00 4.28355E-03 7.56474E-01 3.52107E-13-2.03833E-13
 -1      2917 1.99288E+01 2.54353E+00 3.40976E-03 2.40818E-03 6.68239E-14-5.27294E-13
 -1      2918 1.97901E+01 2.87456E+00-5.45914E-03-6.44735E-02 4.94141E-14-5.61968E-13
 -1      2919 1.97980E+01 2.85944E+00-5.52698E-03-2.18989E-01 1.28780E-14-5.68830E-13
 -1      2920 1.98140E+01 2.82358E+00-5.65987E-03-3.54024E-01-1.78479E-14-5.32852E-13
 -1      2921 1.98386E+01 2.77494E+00-6.15034E-03-5.07398E-01-8.52941E-14-5.42457E-13
 -1      2922 1.99914E+01 2.39942E+00 4.23549E-03-5.09435E-01-1.01949E-13-5.08713E-13
 -1      2923 1.99441E+01 2.50856E+00 3.59417E-03-2.57717E-01-1.45256E-14-5.16678E-13
 -1      2924 2.97274E+01 3.89485E+00-1.11906E-01-1.88433E+00-6.28803E-14 7.86871E-14
 -1      2925 8.08035E+00 1.62947E+00 1.60278E-01 1.69362E+00 2.67799E-13-2.30677E-13
 -1      2926 2.01450E+01 2.17481E+00 5.22586E-04-1.20798E+00-3.05670E-13-4.87071E-13
 -1      2927 1.99712E+01 2.49193E+00-5.44090E-03-9.03205E-01-2.07880E-13-5.66045E-13
 -1      2928 2.00328E+01 2.36214E+00-6.73890E-03-1.03735E+00-2.58497E-13-5.49209E-13
 -1      2929 2.00713E+01 2.20762E+00 5.86234E-03-7.40824E-01-1.80565E-13-5.26525E-13
 -1      2930 1.82617E+01 9.27232E-01 2.52847E-03-2.22577E+00-1.40680E-13-3.89464E-13
 -1      2931 1.79512E+01 2.07554E+00-2.91374E-02 9.35518E-01-1.28369E-13-2.70342E-13
 -1      2932 1.83560E+01 2.00055E+00 2.12231E-03 1.29769E+00 1.32792E-13-2.22411E-13
 -1      2933 1.71861E+01 2.20659E+00-7.17118E-03 4.47852E-01-1.77772E-13-3.65449E-13
 -1      2934 1.19469E+01 2.40292E+00 1.68643E-01 2.66667E+00 6.94236E-15-3.70939E-13
 -1      2935 1.32892E+01 1.83268E+00 8.00549E-02 4.18180E+00 4.24799E-14-2.86743E-13
 -1      2936 1.60242E+01-2.55896E+00 1.37802E-01 7.33604E+00 1.54737E-13-4.47350E-14
 -1      2937 2.02657E+01-5.58841E-01 4.79237E-03 6.59866E-01-2.31035E-13-2.15394E-14
 -1      2938 2.01299E+01 3.09233E-01-2.20692E-03 6.22436E-02 2.13110E-13-2.35896E-13
 -1      2939 7.93424E+00 8.08263E-02 2.19245E-01-4.36195E+00 2.13551E-13-2.04642E-13
 -1      2940 9.84396E+00-3.58514E-02 8.95882E-02-5.28225E+00 5.89181E-14-2.92238E-13
 -1      2941 8.66009E+00 1.21751E+00 1.56724E-01-3.12149E+00-7.12624E-15-5.15421E-13
 -1      2942 1.34926E+01-2.61439E+00 1.27242E-01-7.67063E+00 6.59472E-14 1.68476E-13
 -1      2943 1.59099E+01-2.69755E+00 2.09591E-02-7.32029E+00-5.57748E-14 3.93352E-13
 -1      2944 1.24302E+01-1.12944E+00 1.97712E-01-6.73793E+00 6.96526E-14-2.06779E-15
 -1      2945 2.69645E+01-4.59638E+00 4.08771E-02-4.41678E+00 9.23567E-14-2.87409E-14
 -1      2946 2.79148E+01-3.98353E+00-7.93020E-02-2.84633E+00-3.70502E-14-2.41029E-13
 -1      2947 2.52179E+01-4.64493E+00 2.04714E-02-4.90087E+00 1.56493E-13 1.73620E-13
 -1      2948 3.00540E+01-4.22280E-01-5.05448E-02-4.94243E-01-1.12119E-13 1.03265E-13
 -1      2949 3.10388E+01-1.08460E+00-6.92101E-02-5.09272E-01-8.72774E-14-1.45883E-13
 -1      2950 3.03780E+01-1.94138E-01-1.29369E-01 7.21917E-01-1.23054E-13-2.77722E-13
 -1      2951 2.96754E+01-2.31354E+00-1.11231E-02-1.02604E+00-1.40978E-13-3.54994E-13
 -1      2952 2.08097E+01-4.34848E+00 9.88471E-02-7.07650E+00 1.41165E-13 2.78368E-13
 -1      2953 3.07707E+01 3.83082E+00-1.51346E-01 1.74943E+00-5.88418E-15-1.62662E-13
 -1      2954 2.90146E+01 4.45933E+00-9.15522E-02 2.07330E+00-4.07313E-14-1.04416E-13
 -1      2955 3.00542E+01 2.33323E+00-1.22048E-01 1.63777E+00-8.51264E-14-1.20903E-13
 -1      2956 8.02041E+00 1.42671E+00 1.49195E-01 6.92092E-01-1.20397E-13-6.69687E-13
 -1      2957 1.00257E+01 4.62431E-02 1.77550E-01 5.36407E+00 2.18700E-13-1.50879E-13
 -1      2958 2.04535E+01-6.07617E-01 1.32659E-03 6.97928E-01-2.20618E-13 1.29288E-14
 -1      2959 2.88886E+01 6.79942E+00-1.35413E-01 1.02111E+00 4.58522E-14 8.75341E-14
 -1      2960 1.82589E+01 2.06107E+00 2.32364E-02 1.96096E+00 6.93482E-14-2.69756E-13
 -1      2961 1.70380E+01 2.40652E+00 3.18239E-02 1.47536E+00 1.06646E-14-5.44176E-13
 -1      2962 2.31754E+01-4.40206E+00 5.06911E-02 5.91760E+00 7.62723E-14 7.83072E-14
 -1      2963 2.87926E+01 6.89491E+00-1.32336E-01-9.79795E-01-5.68989E-15-1.01773E-13
 -1      2964 2.01212E+01 4.48022E-01-7.12962E-04 2.53261E-01 2.10541E-13-1.42746E-13
 -1      2965 2.01862E+01 5.58444E-01 4.49505E-03 3.84781E-01 2.42149E-13-1.44871E-13
 -1      2966 2.02266E+01 6.92994E-01-4.27863E-03 4.47864E-01 2.59439E-13-1.94969E-13
 -1      2967 2.01824E+01 4.92369E-01-2.83631E-03 2.35643E-01 2.22918E-13-2.04527E-13
 -1      2968 2.02919E+01 1.20652E+00-1.45868E-03 7.96186E-01 3.59587E-13-2.47589E-13
 -1      2969 2.02515E+01 1.42173E+00-2.71353E-03 8.28366E-01 3.64213E-13-2.67220E-13
 -1      2970 2.02754E+01 9.98640E-01 4.22549E-03 6.13959E-01 3.21646E-13-2.41211E-13
 -1      2971 2.02133E+01 1.60272E+00-1.10506E-04 7.72384E-01 3.28566E-13-3.06644E-13
 -1      2972 2.79241E+01 4.25628E+00-1.61677E-01-2.06777E+00-6.99302E-14 3.68802E-14
 -1      2973 2.87207E+01 2.53055E+00-2.46341E-02-2.11021E+00-8.25173E-14 1.04160E-13
 -1      2974 2.00699E+01 3.17038E-03-2.17686E-04-1.70225E-01 6.81089E-14-1.51267E-13
 -1      2975 2.00840E+01 3.18729E-02 1.50650E-03-1.58266E-01 9.51667E-14-1.80794E-13
 -1      2976 1.52159E+01 2.55864E+00-2.15595E-02 8.71365E-01 3.11721E-14-4.32900E-13
 -1      2977 1.38596E+01 2.65928E+00-4.30063E-03 9.16807E-01-1.04980E-13-4.43527E-13
 -1      2978 2.01840E+01 3.26172E-01-2.30134E-03 4.15228E-02 1.89901E-13-2.54646E-13
 -1      2979 2.02253E+01 4.35719E-01 4.42988E-03 1.27880E-01 2.07340E-13-2.48253E-13
 -1      2980 2.02208E+01 4.24549E-01 4.04579E-03-1.19423E-01-1.58988E-13-3.03409E-13
 -1      2981 2.01816E+01 3.16758E-01-2.29914E-03-3.42742E-02-1.37844E-13-2.84351E-13
 -1      2982 2.01672E+01 2.33088E-01 3.17712E-03 2.74499E-02-1.59147E-13-2.44687E-13
 -1      2983 2.01369E+01 1.62417E-01-1.30747E-03 7.86161E-02-1.50202E-13-2.73691E-13
 -1      2984 2.02367E+01 3.33500E-01-8.88317E-04-2.52173E-02-1.36389E-13-2.96003E-13
 -1      2985 2.01200E+01 1.08280E-01 2.23704E-03 1.14660E-01-1.10245E-13-2.74722E-13
 -1      2986 2.00987E+01 6.29817E-02-6.35121E-04 1.42005E-01-9.95444E-14-2.45347E-13
 -1      2987 2.01958E+01 1.68924E-01-1.01724E-03 7.79170E-02-1.36500E-13-2.61270E-13
 -1      2988 2.00823E+01 2.88560E-02 1.46745E-03 1.59804E-01-6.94648E-14-2.24557E-13
 -1      2989 2.00685E+01 9.06454E-04-2.03833E-04 1.71130E-01-5.71579E-14-1.95076E-13
 -1      2990 2.01565E+01 6.22391E-02-9.62890E-04 1.36088E-01-8.29183E-14-2.75741E-13
 -1      2991 2.00539E+01-1.95755E-02 8.84573E-04 1.76630E-01-7.32590E-14-1.47651E-13
 -1      2992 2.00457E+01-3.56605E-02 5.89918E-05 1.77682E-01-8.48183E-14-1.43820E-13
 -1      2993 2.01220E+01-4.39675E-03-8.32459E-04 1.62727E-01-3.72582E-14-2.46275E-13
 -1      2994 2.00332E+01-4.68599E-02 4.66682E-04 1.75395E-01-9.47894E-14-1.20450E-13
 -1      2995 2.00291E+01-5.49119E-02 2.09323E-04 1.70278E-01-8.48495E-14-1.07099E-13
 -1      2996 2.00932E+01-4.34174E-02-6.84170E-04 1.68436E-01-5.47381E-14-2.15116E-13
 -1      2997 2.00188E+01-5.98805E-02 1.80941E-04 1.63480E-01-1.17012E-13-9.38477E-14
 -1      2998 2.00173E+01-6.26046E-02 2.86015E-04 1.55058E-01-1.26151E-13-1.28251E-13
 -1      2999 2.00699E+01-6.36157E-02-5.44549E-04 1.61169E-01-1.15898E-13-1.56888E-13
 -1      3000 2.00089E+01-6.34959E-02-5.13740E-06 1.46042E-01-1.24557E-13-9.01465E-14
 -1      3001 2.00091E+01-6.28034E-02 3.15631E-04 1.36258E-01-4.54443E-14-1.43258E-13
 -1      3002 2.00514E+01-7.12437E-02-4.23235E-04 1.46650E-01-1.05415E-13-7.23670E-14
 -1      3003 2.00025E+01-6.11338E-02-1.19135E-04 1.26571E-01-2.71743E-14-1.63133E-13
 -1      3004 2.00037E+01-5.83646E-02 3.16317E-04 1.16699E-01-6.32182E-14-1.74190E-13
 -1      3005 2.00370E+01-7.07413E-02-3.22231E-04 1.28845E-01-5.43839E-14-6.21610E-14
 -1      3006 1.99985E+01-5.51923E-02-1.82781E-04 1.07343E-01-1.08750E-13-2.15689E-13
 -1      3007 2.00003E+01-5.12746E-02 3.00430E-04 9.81760E-02-1.11024E-13-2.69229E-13
 -1      3008 2.00259E+01-6.52366E-02-2.40435E-04 1.10409E-01-1.17635E-13-2.28889E-13
 -1      3009 1.99962E+01-4.73296E-02-2.12248E-04 8.97623E-02-1.22778E-13-3.19128E-13
 -1      3010 1.99983E+01-4.29011E-02 2.76220E-04 8.17594E-02-1.71714E-13-3.11577E-13
 -1      3011 2.00175E+01-5.69069E-02-1.75784E-04 9.30318E-02-1.59962E-13-3.01935E-13
 -1      3012 1.99951E+01-3.86883E-02-2.18798E-04 7.46266E-02-1.68963E-13-2.43401E-13
 -1      3013 1.99972E+01-3.41946E-02 2.48886E-04 6.80094E-02-1.51138E-13-2.14934E-13
 -1      3014 2.00112E+01-4.72568E-02-1.26346E-04 7.77256E-02-1.16347E-13-2.68886E-13
 -1      3015 1.99948E+01-3.00795E-02-2.09358E-04 6.23085E-02-1.39266E-13-1.62620E-13
 -1      3016 1.99969E+01-2.58601E-02 2.21265E-04 5.71296E-02-1.09855E-13-9.48430E-14
 -1      3017 2.00065E+01-3.73436E-02-9.10022E-05 6.50276E-02-1.31082E-13-1.88200E-13
 -1      3018 1.99952E+01-2.21474E-02-1.86828E-04 5.28789E-02-1.24842E-13-7.73556E-14
 -1      3019 1.99973E+01-1.85165E-02 1.94209E-04 4.90581E-02-4.38653E-14-1.47875E-13
 -1      3020 2.00032E+01-2.79738E-02-7.00325E-05 5.51464E-02-1.09037E-13-1.35962E-13
 -1      3021 1.99962E+01-1.55263E-02-1.50064E-04 4.61718E-02 1.92340E-16-1.36195E-13
 -1      3022 1.99984E+01-1.28543E-02 1.66714E-04 4.35043E-02 1.03640E-14-1.72572E-13
 -1      3023 2.00010E+01-1.98873E-02-6.57515E-05 4.80501E-02-5.33739E-14-1.48113E-13
 -1      3024 1.99981E+01-1.10015E-02-9.35128E-05 4.17946E-02 1.92307E-14-1.63505E-13
 -1      3025 2.00005E+01-9.80137E-03 1.35740E-04 3.99305E-02 7.52591E-14-1.68709E-13
 -1      3026 2.00001E+01-1.39427E-02-8.32658E-05 4.35042E-02 1.73865E-14-1.04322E-13
 -1      3027 2.00015E+01-9.67972E-03-6.58399E-06 3.90816E-02 6.58625E-14-1.77299E-13
 -1      3028 2.00045E+01-1.06974E-02 9.56753E-05 3.74757E-02 8.54735E-14-2.08492E-13
 -1      3029 2.00011E+01-1.13107E-02-1.31312E-04 4.10556E-02 3.12973E-14-1.74424E-13
 -1      3030 2.00074E+01-1.31641E-02 1.27033E-04 3.69848E-02 6.21985E-14-2.59098E-13
 -1      3031 2.00115E+01-1.74651E-02 3.73460E-05 3.48136E-02 2.21189E-14-3.01045E-13
 -1      3032 2.00048E+01-1.36779E-02-2.22886E-04 3.99587E-02 6.82281E-14-1.24300E-13
 -1      3033 2.00175E+01-2.37123E-02 3.29642E-04 3.38925E-02-4.96606E-14-2.41538E-13
 -1      3034 2.00233E+01-3.27422E-02-5.35676E-05 2.99394E-02-1.44958E-13-1.71741E-13
 -1      3035 2.00130E+01-2.34404E-02-3.75294E-04 3.90293E-02 3.82846E-14-2.57896E-13
 -1      3036 2.00343E+01-4.43238E-02 6.28544E-04 2.73676E-02-1.56296E-13-7.23068E-14
 -1      3037 2.00428E+01-5.99001E-02-1.98626E-04 1.98809E-02-1.07468E-13-3.04660E-14
 -1      3038 2.00284E+01-4.38405E-02-6.08612E-04 3.64117E-02-8.70918E-14-1.16768E-13
 -1      3039 2.00612E+01-7.86577E-02 1.05218E-03 1.38071E-02-1.11270E-13-6.35356E-14
 -1      3040 2.00736E+01-1.02816E-01-4.28692E-04 3.50132E-04-5.22244E-14-6.31942E-14
 -1      3041 2.00550E+01-7.89497E-02-9.41036E-04 2.92397E-02-1.02276E-13 1.11962E-14
 -1      3042 2.01026E+01-1.30613E-01 1.62101E-03-1.19504E-02 2.79511E-14-1.62929E-14
 -1      3043 2.01201E+01-1.65193E-01-7.84203E-04-3.46110E-02 4.60465E-14 9.99481E-15
 -1      3044 2.00981E+01-1.33329E-01-1.37897E-03 1.31856E-02-6.23830E-15-1.02920E-13
 -1      3045 2.01635E+01-2.03331E-01 2.32982E-03-5.69780E-02 3.72779E-14 8.83289E-14
 -1      3046 2.01872E+01-2.49156E-01-1.30897E-03-9.28529E-02 1.12190E-14 1.01515E-13
 -1      3047 2.01643E+01-2.11107E-01-1.89938E-03-1.80671E-02 9.33304E-14 8.63008E-14
 -1      3048 2.02485E+01-2.97336E-01 3.11894E-03-1.30363E-01-4.26385E-14 1.66498E-13
 -1      3049 2.02783E+01-3.52841E-01-2.03157E-03-1.83919E-01 1.32018E-14 2.10196E-13
 -1      3050 2.02608E+01-3.14143E-01-2.42244E-03-7.32906E-02 5.07208E-14 1.90697E-13
 -1      3051 2.03597E+01-4.07577E-01 3.82723E-03-2.42627E-01-2.73788E-14 2.82694E-13
 -1      3052 2.03937E+01-4.66855E-01-2.91879E-03-3.17900E-01-1.96266E-14 3.03618E-13
 -1      3053 2.03935E+01-4.38916E-01-2.78097E-03-1.63770E-01-1.08216E-14 2.56559E-13
 -1      3054 2.04935E+01-5.19462E-01 4.15971E-03-4.03729E-01-1.18778E-13 3.12833E-13
 -1      3055 2.05269E+01-5.70067E-01-3.79253E-03-5.02499E-01-1.01348E-13 2.70905E-13
 -1      3056 2.05638E+01-5.72077E-01-2.69978E-03-3.02237E-01-5.47515E-14 3.38837E-13
 -1      3057 2.06365E+01-6.04870E-01 3.67174E-03-6.18603E-01 4.52641E-14 2.72820E-13
 -1      3058 2.06611E+01-6.26419E-01-4.23735E-03-7.37378E-01 1.80211E-13 2.65803E-13
 -1      3059 2.07638E+01-6.85354E-01-1.81457E-03-4.99442E-01-1.26836E-14 3.07715E-13
 -1      3060 2.07628E+01-6.20599E-01 1.86242E-03-8.79373E-01 1.80166E-13 2.35562E-13
 -1      3061 2.07675E+01-5.86299E-01-3.57503E-03-1.00538E+00 4.33597E-14 2.09344E-13
 -1      3062 2.09708E+01-7.32207E-01 1.78442E-04-7.56900E-01 9.19673E-14 3.43668E-13
 -1      3063 2.08346E+01-5.13818E-01-1.47913E-03-1.15495E+00-6.62027E-15 1.32810E-13
 -1      3064 2.08089E+01-3.97742E-01-1.07318E-03-1.26264E+00 2.23501E-14 3.08383E-14
 -1      3065 2.11449E+01-6.51542E-01 3.16796E-03-1.05509E+00-4.70471E-15 9.58791E-14
 -1      3066 2.08128E+01-2.39640E-01-5.92589E-03-1.38243E+00-5.59962E-14 7.08427E-14
 -1      3067 2.07529E+01-3.12202E-02 3.37822E-03-1.43388E+00-6.17585E-14-1.05616E-14
 -1      3068 2.12339E+01-3.83982E-01 6.38041E-03-1.34018E+00 1.83917E-14 1.59926E-14
 -1      3069 2.06787E+01 2.08073E-01-9.90161E-03-1.46967E+00-3.28306E-14-9.41769E-14
 -1      3070 2.05935E+01 4.84938E-01 8.33486E-03-1.42336E+00-5.06230E-14-9.25744E-14
 -1      3071 2.11938E+01 9.31222E-02 7.73697E-03-1.51815E+00-1.24679E-13 5.67840E-15
 -1      3072 2.04599E+01 7.61239E-01-1.11092E-02-1.32249E+00-1.03937E-13-8.89014E-14
 -1      3073 2.03731E+01 1.03866E+00 1.08799E-02-1.15361E+00-1.36762E-13-1.03932E-13
 -1      3074 2.10223E+01 7.23999E-01 5.37663E-03-1.47226E+00-1.05109E-13-7.50589E-14
 -1      3075 2.02374E+01 1.27212E+00-7.40890E-03-9.00003E-01-7.87962E-14-6.06773E-14
 -1      3076 2.01779E+01 1.45875E+00 8.81160E-03-6.22223E-01 6.34323E-15-8.54022E-14
 -1      3077 2.07864E+01 1.35188E+00-6.62741E-04-1.12187E+00-1.26504E-13-1.28571E-13
 -1      3078 2.01111E+01 1.56414E+00 4.72346E-04-2.58281E-01 2.31602E-15-5.47900E-14
 -1      3079 2.01015E+01 1.58551E+00 1.91926E-03 6.96256E-02 5.42358E-14-2.93141E-13
 -1      3080 2.06039E+01 1.77156E+00-5.68275E-03-4.86015E-01 4.42389E-14-1.54270E-13
 -1      3081 2.01386E+01 1.52078E+00 6.87028E-03 4.44463E-01 1.06721E-13-3.39610E-13
 -1      3082 2.01807E+01 1.37111E+00-6.62431E-03 7.40460E-01 1.47254E-14-4.45502E-13
 -1      3083 2.05784E+01 1.82354E+00-5.39435E-03 2.81279E-01-5.19560E-14-2.51163E-13
 -1      3084 2.02989E+01 1.16377E+00 1.07047E-02 1.02414E+00 4.08817E-14-3.66896E-13
 -1      3085 2.03726E+01 9.03865E-01-1.06841E-02 1.22044E+00 1.94912E-13-3.46531E-13
 -1      3086 2.07168E+01 1.48336E+00-1.65425E-03 9.62897E-01 1.47087E-13-2.57929E-13
 -1      3087 2.04992E+01 6.36352E-01 8.91947E-03 1.35441E+00 2.29818E-13-3.38574E-13
 -1      3088 2.05747E+01 3.60654E-01-1.03472E-02 1.42890E+00 2.50538E-13-2.38943E-13
 -1      3089 2.09311E+01 8.95008E-01 5.47031E-03 1.37915E+00 3.18359E-13-2.04298E-13
 -1      3090 2.06458E+01 1.16922E-01 3.72507E-03 1.42044E+00 2.43346E-13-1.39425E-13
 -1      3091 2.06960E+01-1.00612E-01-7.04760E-03 1.39221E+00 1.88664E-13-3.13785E-13
 -1      3092 2.10940E+01 2.66567E-01 8.44104E-03 1.48575E+00 3.23853E-13-2.95484E-13
 -1      3093 2.06836E+01-2.69648E-01-1.13398E-03 1.29098E+00 1.58887E-13-2.01284E-13
 -1      3094 2.06955E+01-4.00045E-01-2.85301E-03 1.20092E+00 7.05860E-14-1.94444E-13
 -1      3095 2.11217E+01-2.32890E-01 7.03408E-03 1.35056E+00 2.70109E-13-2.05679E-13
 -1      3096 2.06107E+01-4.89427E-01-4.35740E-03 1.06309E+00 4.43507E-14-7.24245E-14
 -1      3097 2.05910E+01-5.46083E-01-1.43110E-04 9.50419E-01 1.00986E-13 7.70329E-14
 -1      3098 2.10056E+01-5.34259E-01 4.79137E-03 1.09148E+00 1.24480E-13-1.59020E-14
 -1      3099 2.05105E+01-5.99246E-01-5.47656E-04 7.74331E-01-7.41648E-14-1.51382E-14
 -1      3100 2.00469E+01-3.44394E-02 7.01696E-05-1.77582E-01 5.97340E-14-1.00179E-13
 -1      3101 2.00552E+01-1.79389E-02 9.08067E-04-1.76196E-01 5.74563E-14-1.28605E-13
 -1      3102 2.01237E+01-2.04061E-03-8.52481E-04-1.61946E-01 4.16163E-14-1.53140E-13
 -1      3103 9.11989E+00 2.20501E+00 7.30917E-02 9.07233E-01 4.00006E-13-1.72501E-13
 -1      3104 1.07314E+01 2.53112E+00 6.22472E-02 3.28680E-01 4.35801E-13-1.85976E-13
 -1      3105 9.37323E+00 1.88465E+00 1.57710E-01 2.65279E+00 3.81441E-13-1.03806E-14
 -1      3106 2.01005E+01 6.68421E-02-6.58612E-04-1.39723E-01 1.06881E-13-1.95319E-13
 -1      3107 2.01221E+01 1.13215E-01 2.28800E-03-1.11412E-01 1.26139E-13-2.03669E-13
 -1      3108 2.01584E+01 6.63676E-02-9.63201E-04-1.34011E-01 8.86115E-14-1.80665E-13
 -1      3109 2.00308E+01-5.38095E-02 2.23879E-04-1.71246E-01 3.79129E-15-7.05106E-14
 -1      3110 2.00349E+01-4.56144E-02 4.80423E-04-1.75802E-01 5.45100E-14-6.57366E-14
 -1      3111 2.00954E+01-4.16829E-02-7.19554E-04-1.68553E-01 4.53169E-14-1.21804E-13
 -1      3112 2.00188E+01-6.26432E-02 2.90201E-04-1.56577E-01-7.51985E-14-5.14065E-14
 -1      3113 2.00204E+01-5.94706E-02 1.95525E-04-1.64813E-01-2.93935E-14-6.57357E-14
 -1      3114 2.00724E+01-6.25806E-02-5.56336E-04-1.62171E-01-9.59954E-15-9.88982E-14
 -1      3115 2.00106E+01-6.35630E-02 3.20342E-04-1.37929E-01-4.81890E-15-6.80378E-14
 -1      3116 2.00103E+01-6.39303E-02 1.33784E-05-1.47676E-01-5.84434E-14-8.34860E-14
 -1      3117 2.00537E+01-7.13915E-02-4.42107E-04-1.48152E-01-2.90678E-14-1.15824E-13
 -1      3118 2.00053E+01-5.95606E-02 3.25499E-04-1.18300E-01 2.55114E-14-1.11086E-13
 -1      3119 2.00039E+01-6.21429E-02-1.05250E-04-1.28230E-01 5.63343E-14-6.90466E-14
 -1      3120 2.00392E+01-7.16567E-02-3.45151E-04-1.30525E-01 2.63878E-14-1.67016E-13
 -1      3121 2.00022E+01-5.26230E-02 3.14567E-04-9.96148E-02 1.54212E-14-7.30039E-14
 -1      3122 2.00002E+01-5.65052E-02-1.73355E-04-1.08866E-01 3.10429E-15-9.14949E-14
 -1      3123 2.00282E+01-6.65823E-02-2.65405E-04-1.12076E-01 1.01510E-14-1.68956E-13
 -1      3124 2.00007E+01-4.40147E-02 2.97101E-04-8.30743E-02 7.96420E-15-2.52259E-14
 -1      3125 1.99983E+01-4.86265E-02-2.08957E-04-9.11134E-02 5.23847E-14-7.13438E-14
 -1      3126 2.00201E+01-5.83157E-02-2.00880E-04-9.46167E-02 3.09602E-14-7.39868E-14
 -1      3127 2.00003E+01-3.44376E-02 2.79670E-04-6.94148E-02 1.01294E-13-1.27644E-13
 -1      3128 1.99977E+01-3.94825E-02-2.26303E-04-7.59111E-02 2.07682E-14-6.39240E-14
 -1      3129 2.00142E+01-4.82077E-02-1.48085E-04-7.92817E-02 4.49442E-14-1.03607E-13
 -1      3130 2.00006E+01-2.41236E-02 2.66714E-04-5.91033E-02 9.70947E-14-9.07686E-14
 -1      3131 1.99980E+01-2.95384E-02-2.37209E-04-6.38329E-02 1.35718E-13-9.96669E-14
 -1      3132 2.00100E+01-3.69766E-02-1.02441E-04-6.67648E-02 8.97182E-14-1.59764E-13
 -1      3133 2.00013E+01-1.28686E-02 2.60868E-04-5.24959E-02 1.21178E-13-5.43752E-14
 -1      3134 1.99987E+01-1.88127E-02-2.52472E-04-5.52618E-02 1.04206E-13-7.34783E-14
 -1      3135 2.00069E+01-2.48040E-02-5.77457E-05-5.74973E-02 9.95022E-14-9.18969E-14
 -1      3136 2.00018E+01-4.25218E-06 2.62753E-04-4.99709E-02 1.38516E-13-1.83297E-13
 -1      3137 1.99994E+01-6.88141E-03-2.83508E-04-5.05312E-02 1.88569E-13-8.49258E-14
 -1      3138 2.00041E+01-1.13651E-02-5.00132E-06-5.17852E-02 1.61324E-13-1.08177E-13
 -1      3139 2.00013E+01 1.57056E-02 2.70106E-04-5.20451E-02 1.94576E-13-2.03475E-13
 -1      3140 1.99993E+01 7.18482E-03-3.44241E-04-5.00442E-02 1.25944E-13-1.93401E-13
 -1      3141 2.00009E+01 4.21306E-03 6.96033E-05-4.99119E-02 1.75781E-13-2.27581E-13
 -1      3142 1.99983E+01 3.62581E-02 2.72969E-04-5.94817E-02 1.40488E-13-2.20584E-13
 -1      3143 1.99973E+01 2.49691E-02-4.53103E-04-5.43771E-02 1.69468E-13-1.94366E-13
 -1      3144 1.99959E+01 2.34771E-02 1.87701E-04-5.22067E-02 1.52872E-13-2.82779E-13
 -1      3145 1.99903E+01 6.47385E-02 2.31253E-04-7.33690E-02 1.23641E-13-2.82857E-13
 -1      3146 1.99914E+01 4.89955E-02-6.24776E-04-6.43647E-02 1.61608E-13-2.64677E-13
 -1      3147 1.99869E+01 4.88580E-02 3.79967E-04-5.90685E-02 1.73194E-13-2.07977E-13
 -1      3148 1.99744E+01 1.03363E-01 1.50589E-04-9.38595E-02 1.11170E-14-2.07303E-13
 -1      3149 1.99788E+01 8.19165E-02-9.11769E-04-8.07221E-02 5.97349E-14-2.50322E-13
 -1      3150 1.99712E+01 8.31068E-02 7.45279E-04-7.05236E-02 5.63213E-14-1.90863E-13
 -1      3151 1.99421E+01 1.62671E-01-3.77302E-06-1.24815E-01-5.25383E-14-1.92437E-13
 -1      3152 1.99538E+01 1.29673E-01-1.35830E-03-1.04707E-01 1.65523E-15-2.45986E-13
 -1      3153 1.99431E+01 1.31634E-01 1.23661E-03-8.71035E-02 1.62386E-14-1.34814E-13
 -1      3154 1.98813E+01 2.50627E-01-4.54704E-04-1.67059E-01-8.19462E-14-2.19794E-13
 -1      3155 1.99064E+01 2.01730E-01-2.06432E-03-1.38939E-01-4.35710E-14-2.22797E-13
 -1      3156 1.98926E+01 2.03925E-01 2.15709E-03-1.08999E-01-4.35676E-14-3.13058E-13
 -1      3157 1.97720E+01 3.80552E-01-1.40687E-03-2.21430E-01-8.46244E-14-2.85821E-13
 -1      3158 1.98212E+01 3.08672E-01-3.08311E-03-1.83809E-01-3.69067E-14-2.36359E-13
 -1      3159 1.98056E+01 3.09451E-01 3.64648E-03-1.34169E-01-2.00192E-14-2.99523E-13
 -1      3160 1.95809E+01 5.69755E-01-3.26878E-03-2.85995E-01-1.97209E-13-3.30821E-13
 -1      3161 1.96724E+01 4.65884E-01-4.53451E-03-2.38484E-01-1.56747E-13-3.88771E-13
 -1      3162 1.96587E+01 4.62139E-01 6.03590E-03-1.57695E-01-1.05627E-13-3.90499E-13
 -1      3163 1.92550E+01 8.38184E-01-6.70264E-03-3.52540E-01-1.22653E-13-2.98213E-13
 -1      3164 1.94190E+01 6.92483E-01-6.53521E-03-2.97699E-01-1.49732E-13-3.13120E-13
 -1      3165 1.94154E+01 6.78506E-01 9.78761E-03-1.68353E-01-1.75455E-13-3.68748E-13
 -1      3166 1.87115E+01 1.20305E+00-1.26135E-02-4.00723E-01-1.78822E-14-2.76185E-13
 -1      3167 1.89967E+01 1.00834E+00-9.20111E-03-3.47239E-01-9.69687E-14-2.83387E-13
 -1      3168 1.90206E+01 9.74535E-01 1.55480E-02-1.43489E-01-6.11751E-14-1.86393E-13
 -1      3169 1.78261E+01 1.66478E+00-2.16210E-02-3.90173E-01 7.37236E-14-1.20340E-13
 -1      3170 1.83072E+01 1.42505E+00-1.25420E-02-3.57131E-01 3.58342E-14-2.39426E-13
 -1      3171 1.83928E+01 1.35727E+00 2.43229E-02-4.14652E-02-6.93824E-14-2.36965E-13
 -1      3172 1.64189E+01 2.17539E+00-3.17908E-02-2.53918E-01 2.19835E-13-1.07908E-13
 -1      3173 1.72054E+01 1.92449E+00-1.57612E-02-2.74249E-01 1.95755E-13-8.81890E-14
 -1      3174 1.74156E+01 1.80679E+00 3.82508E-02 2.07399E-01 7.17024E-14-2.25113E-13
 -1      3175 1.42741E+01 2.58094E+00-1.45987E-02 1.00594E-01 2.63926E-13-9.50802E-14
 -1      3176 1.54878E+01 2.42200E+00-1.01575E-02-2.21238E-02 2.75855E-13-6.29132E-14
 -1      3177 1.59261E+01 2.23843E+00 6.21315E-02 7.07106E-01 2.07816E-13-8.45114E-14
 -1      3178 1.19826E+01 2.66548E+00 4.14894E-02 3.31719E-01 4.20648E-13-1.80328E-13
 -1      3179 1.33069E+01 2.67402E+00-8.93003E-03 1.69121E-01 2.85356E-13-1.89238E-13
 -1      3180 1.41126E+01 2.52003E+00 1.08715E-01 1.27112E+00 3.32425E-13-1.21448E-13
 -1      3181 1.19388E+01 2.55416E+00 1.51940E-01 1.66184E+00 4.51628E-13-5.24164E-14
 -1      3182 2.12917E+01-1.20473E+00 1.96372E-02-2.39156E+00-8.65700E-14 1.34281E-13
 -1      3183 2.07679E+01-9.66637E-01-5.58724E-03-2.69966E+00 6.56072E-15 1.78404E-13
 -1      3184 2.18013E+01-1.41385E+00 3.29721E-03-1.47380E+00 6.30960E-14 2.25699E-14
 -1      3185 2.16221E+01-1.31450E+00 8.54953E-03-1.88066E+00-1.05359E-13 1.33168E-13
 -1      3186 2.17684E+01-1.62686E+00-1.91304E-02-2.25773E+00-1.18100E-13 8.08485E-14
 -1      3187 1.65929E+01 2.34823E+00 1.19501E-03 7.64653E-01 3.00732E-14-4.53087E-13
 -1      3188 1.22921E+01 2.65967E+00 1.55262E-02 7.00365E-01-2.03934E-14-5.21742E-13
 -1      3189 1.00976E+01 2.18176E+00 1.06138E-01 9.08301E-01 4.48981E-14-5.90056E-13
 -1      3190 9.52231E+00 2.10526E+00 2.51377E-01-1.50982E+00 2.72525E-14-7.94018E-13
 -1      3191 1.30678E+01 2.68189E+00 1.61884E-01-6.02778E-01-6.99224E-14-6.22530E-13
 -1      3192 2.00927E+01-5.46237E-01 3.95725E-02-3.02920E+00 9.98188E-14 1.92726E-13
 -1      3193 1.92409E+01-1.89786E-01-2.94200E-02-3.06111E+00 1.04687E-13 4.15041E-14
 -1      3194 2.05594E+01-1.19457E+00-2.87110E-02-3.18991E+00 9.46292E-15 5.93747E-14
 -1      3195 2.17826E+01-1.32548E+00-6.21592E-03-6.02560E-01 1.04917E-13-2.47752E-13
 -1      3196 2.18455E+01-1.32756E+00 1.31556E-02-9.82629E-01 1.11446E-14-4.82086E-14
 -1      3197 2.21776E+01-1.60877E+00-8.55579E-03-1.21021E+00 6.62203E-14-7.30778E-14
 -1      3198 2.14482E+01-1.09300E+00-1.08045E-02 9.87444E-02 1.14450E-13-2.90553E-13
 -1      3199 2.16449E+01-1.15297E+00 1.16817E-02-2.03852E-01 1.34784E-13-3.85801E-13
 -1      3200 2.20289E+01-1.35255E+00-1.45622E-04-3.06340E-01 6.39974E-14-2.93551E-13
 -1      3201 1.78985E+01-2.67330E+00 1.54211E-02 6.77016E+00 2.88915E-13 1.59803E-14
 -1      3202 1.46959E+01-1.36107E+00 1.47251E-01 6.68654E+00 2.77146E-13-2.70686E-14
 -1      3203 2.76916E+01 5.82161E+00-1.21875E-01 1.54262E+00 2.48829E-14-1.04253E-13
 -1      3204 2.73179E+01 6.78790E+00-1.30537E-01 5.82745E-01 1.38348E-13-6.16226E-14
 -1      3205 2.01389E+01 1.68562E-01-1.34795E-03-7.42732E-02 1.51073E-13-2.30846E-13
 -1      3206 2.01697E+01 2.40777E-01 3.23781E-03-2.17222E-02 1.66218E-13-2.27224E-13
 -1      3207 2.01978E+01 1.75546E-01-9.90596E-04-7.39503E-02 1.27947E-13-2.18548E-13
 -1      3208 1.94726E+01-3.35625E+00 1.68304E-01-6.90322E+00 6.78346E-14 2.80938E-13
 -1      3209 2.20041E+01-4.10843E+00-1.65031E-02-6.08066E+00 1.54793E-13 2.43028E-13
 -1      3210 2.01970E+01 1.89312E+00 1.10310E-03-1.00793E+00-2.72247E-13-4.75471E-13
 -1      3211 1.66911E+01 1.68236E+00 3.71695E-02-1.82070E+00-2.36069E-13-3.39823E-13
 -1      3212 1.61764E+01 2.00702E+00-2.99500E-02-1.01203E+00-2.26911E-13-3.62388E-13
 -1      3213 2.02684E+01 7.14771E-01 3.62676E-03-3.45921E-01-2.05043E-13-3.57926E-13
 -1      3214 2.02266E+01 5.53205E-01-3.43720E-03-2.14470E-01-1.82229E-13-3.46716E-13
 -1      3215 2.02719E+01 5.81237E-01-3.03792E-04-1.88468E-01-1.52253E-13-3.47848E-13
 -1      3216 2.00402E+01 2.16697E+00-4.28343E-03 2.90977E-01 1.65586E-13-4.93823E-13
 -1      3217 2.00272E+01 2.20512E+00-3.31127E-03 1.69128E-01 1.22616E-13-4.85840E-13
 -1      3218 1.83481E+01 5.46525E-01 5.63504E-02-2.93830E+00 1.92438E-13-1.83369E-14
 -1      3219 1.74285E+01 9.56683E-01-3.19275E-02-2.53983E+00 1.25811E-15-2.31315E-13
 -1      3220 1.65805E+01 1.18079E+00 2.08046E-02-2.67148E+00 2.12955E-14-1.34129E-13
 -1      3221 1.86187E+01-1.69464E-01-1.42730E-02-3.50590E+00 1.95483E-13-2.46725E-14
 -1      3222 1.21206E+01-3.15419E-01 7.17129E-02 6.07207E+00 2.16806E-13-2.93418E-13
 -1      3223 1.01413E+01 9.70135E-01 1.05041E-01 4.26826E+00 3.49516E-13-1.32352E-13
 -1      3224 1.12584E+01 1.55177E+00 1.03000E-01 3.42012E+00 3.65845E-13-9.93788E-14
 -1      3225 1.46295E+01-4.39027E-01 1.28176E-01 5.73895E+00 3.28328E-13-6.10345E-14
 -1      3226 2.88723E+01 3.17868E-01-1.66549E-01-1.40839E+00-1.51684E-13 3.17524E-14
 -1      3227 2.88592E+01-1.44627E+00 2.69030E-02-2.75654E-01-5.20209E-14-4.60673E-14
 -1      3228 2.71763E+01 6.76351E+00-1.29905E-01-5.00294E-01 8.80407E-14-1.30545E-13
 -1      3229 2.75275E+01 6.03054E+00-6.88124E-02-1.54494E+00-5.10703E-15-1.47094E-13
 -1      3230 2.79568E+01-3.21560E+00-1.48130E-01 1.38274E+00 1.15411E-14 4.41903E-14
 -1      3231 2.69187E+01-3.83323E+00 7.80538E-02 2.83639E+00-2.76654E-14 1.77330E-13
 -1      3232 2.46972E+01-4.38376E+00-7.54606E-02 4.55829E+00 1.06998E-14 2.01227E-13
 -1      3233 2.17051E+01-3.73233E+00 7.74423E-02 5.87326E+00 6.18117E-14 6.26565E-14
 -1      3234 2.08269E+01-6.91592E-01 3.14672E-03 7.56728E-01-2.08893E-14 9.32616E-15
 -1      3235 2.00203E+01 2.22350E+00-3.63794E-03 6.41225E-02 8.91755E-14-4.87799E-13
 -1      3236 2.00201E+01 2.22377E+00-3.68922E-03-5.99283E-02 3.62987E-14-4.89480E-13
 -1      3237 2.01343E+01 1.92771E+00 4.94645E-03 1.00161E-01 9.67087E-14-4.44895E-13
 -1      3238 2.66614E+01 4.45055E+00-7.81187E-02-1.76534E+00 7.60850E-14-4.03774E-14
 -1      3239 2.02693E+01 5.98788E-01-5.43357E-04 1.98221E-01 2.04659E-13-2.69443E-13
 -1      3240 2.02316E+01 5.71297E-01-1.99015E-03 2.29770E-01 2.15992E-13-2.73718E-13
 -1      3241 2.02557E+01 8.94326E-01-4.84298E-03-4.63561E-01-2.31915E-13-3.69218E-13
 -1      3242 2.02866E+01 9.32747E-01 1.71067E-03-4.09244E-01-2.16745E-13-3.71763E-13
 -1      3243 2.02868E+01 1.10570E+00-2.69795E-04-6.32191E-01-2.61904E-13-3.85328E-13
 -1      3244 2.76872E+01 1.01479E+00-5.39954E-02-1.79248E+00-1.40589E-13 7.84234E-14
 -1      3245 1.57893E+01 2.42410E+00 5.95981E-02-2.14590E-01-8.51489E-14-5.36260E-13
 -1      3246 2.01180E+01 1.94301E+00-2.48869E-03-5.84716E-01-1.53349E-13-4.96865E-13
 -1      3247 2.01558E+01 1.81320E+00-6.69858E-03-6.83847E-01-1.83025E-13-5.18107E-13
 -1      3248 2.02172E+01 1.56998E+00-2.11782E-03-8.08419E-01-2.66430E-13-4.44849E-13
 -1      3249 2.76693E+01 4.90503E+00-1.36697E-01 1.82749E+00 2.08999E-14-1.43434E-13
 -1      3250 2.64038E+01 5.18318E+00-4.07668E-02 1.55979E+00 1.72660E-13-3.19918E-14
 -1      3251 2.75436E+01 3.85118E+00-9.06940E-02 1.99577E+00-3.66929E-14-1.94414E-13
 -1      3252 2.02619E+01 6.81795E-01 7.08599E-03 3.22396E-01 2.19578E-13-2.41010E-13
 -1      3253 2.53493E+01-3.78504E+00 1.39262E-02 3.23885E+00-1.28161E-14 8.44498E-14
 -1      3254 2.76773E+01-2.17319E+00-1.55117E-02 2.15324E-01 3.83179E-14 5.50948E-14
 -1      3255 2.02825E+01-3.11370E+00 5.14374E-02 6.01765E+00 2.11730E-13-6.86413E-14
 -1      3256 1.87201E+01-2.04605E+00 2.12382E-02 5.67930E+00 2.47753E-13-1.09572E-13
 -1      3257 2.19880E+01-3.06963E+00 3.12438E-02 4.71221E+00 5.88110E-14-1.62752E-14
 -1      3258 2.09806E+01-8.16946E-01-6.21638E-03 5.82738E-01-1.88398E-14-4.45862E-14
 -1      3259 2.12291E+01-9.09387E-01 9.97793E-03 3.80117E-01 4.10118E-14 5.50189E-15
 -1      3260 2.62108E+01 5.98794E+00-9.00800E-02 2.42340E-02 5.62328E-14-1.16279E-13
 -1      3261 2.02388E+01 3.43421E-01-8.18512E-04 3.17458E-02 1.63902E-13-2.44942E-13
 -1      3262 1.05447E+01 1.76860E+00 5.99892E-02-2.39254E+00 1.43765E-14-7.68247E-13
 -1      3263 1.22376E+01-2.57420E-01 1.21217E-01-5.60261E+00 2.67703E-14-1.06637E-13
 -1      3264 2.37120E+01-4.25009E+00 7.28973E-02-5.27046E+00 2.85855E-13 2.14136E-13
 -1      3265 2.49467E+01-4.17188E+00-9.54175E-03-4.12112E+00 2.17069E-13-2.03117E-13
 -1      3266 2.21164E+01-3.62261E+00 1.58110E-03-5.35729E+00 2.91604E-13 9.64125E-14
 -1      3267 1.79763E+01-2.46895E+00 9.71592E-02-6.57961E+00 2.37310E-15 2.46025E-13
 -1      3268 2.85894E+01-3.35005E+00-2.66181E-02-1.78020E+00-7.95466E-14-3.81223E-13
 -1      3269 2.85364E+01-2.47862E+00-5.54885E-02-5.60469E-01-4.06307E-14-5.07420E-13
 -1      3270 2.71096E+01-3.85190E+00-1.30926E-02-2.53984E+00-3.04843E-14-3.12774E-13
 -1      3271 1.48833E+01 2.19284E+00-1.37079E-04-1.10408E+00 1.30868E-14-6.72212E-13
 -1      3272 2.88540E+01-3.97536E-01-5.24695E-02 9.46890E-01-7.97556E-14-1.39180E-13
 -1      3273 2.96929E+01 8.86669E-01-9.57302E-02 1.42784E+00-1.37945E-14-1.93415E-13
 -1      3274 2.84708E+01 1.87211E+00-6.64988E-02 1.97655E+00-1.47937E-14-2.07820E-13
 -1      3275 2.00606E+01 2.11218E+00-3.04273E-03 3.89483E-01 1.95625E-13-4.75972E-13
 -1      3276 2.01565E+01 1.85414E+00 5.29932E-03 2.90039E-01 1.65323E-13-4.47687E-13
 -1      3277 2.00863E+01 2.03254E+00-5.29998E-03 5.03266E-01 2.43740E-13-4.35540E-13
 -1      3278 2.00601E+01 2.11496E+00-2.84330E-03-3.84676E-01-7.08930E-14-4.61159E-13
 -1      3279 2.00847E+01 2.03671E+00-5.12163E-03-4.99779E-01-1.23819E-13-4.79568E-13
 -1      3280 2.01932E+01 1.70422E+00 3.77595E-03-4.52315E-01-1.39540E-13-4.60769E-13
 -1      3281 2.01553E+01 1.81024E+00-7.91433E-03 6.86337E-01 3.19362E-13-3.60926E-13
 -1      3282 2.01185E+01 1.93838E+00-3.00466E-03 5.88608E-01 2.75217E-13-3.97175E-13
 -1      3283 2.01985E+01 1.70430E+00 6.04995E-03 4.57977E-01 2.40698E-13-3.83553E-13
 -1      3284 2.15921E+01-1.02851E+00 6.86709E-03 3.58410E-01 4.61277E-14-1.47762E-13
 -1      3285 2.10857E+01-7.53819E-01-4.20903E-03 7.77920E-01 1.01706E-13 9.49745E-15
 -1      3286 2.02625E+01 1.40092E+00 7.86313E-03 6.12064E-01 2.92200E-13-3.04369E-13
 -1      3287 2.00272E+01 2.20634E+00-3.16171E-03-1.64489E-01-9.61592E-16-4.91961E-13
 -1      3288 2.00395E+01 2.16899E+00-4.23392E-03-2.86418E-01-4.70960E-14-4.71893E-13
 -1      3289 2.01539E+01 1.85538E+00 4.44551E-03-2.84524E-01-6.27764E-14-4.45030E-13
 -1      3290 2.26910E+01-1.76667E+00-8.90868E-03-8.18212E-01 4.10917E-14-2.43734E-13
 -1      3291 2.27301E+01-1.83181E+00 1.67536E-02-1.32051E+00 8.47102E-14-3.33214E-14
 -1      3292 2.02944E+01 5.85530E-01-4.42434E-03 1.47722E-01 1.73872E-13-2.96590E-13
 -1      3293 2.03217E+01 7.53637E-01 5.13602E-03 2.49243E-01 2.08996E-13-2.88034E-13
 -1      3294 2.01383E+01-4.94116E-02 5.72614E-05-1.54786E-01 2.97659E-14-1.19382E-13
 -1      3295 2.01522E+01-3.23712E-02 7.62136E-04-1.53994E-01 3.52876E-14-1.25257E-13
 -1      3296 2.02650E+01 2.38604E-01 2.09031E-03 4.09949E-02-1.21036E-13-2.78916E-13
 -1      3297 2.02404E+01 1.63157E-01-1.29143E-03 8.19659E-02-1.12672E-13-2.76764E-13
 -1      3298 2.02254E+01 1.04084E-01 1.61715E-03 1.08193E-01-9.51269E-14-2.61189E-13
 -1      3299 2.02036E+01 5.51105E-02-6.67401E-04 1.30109E-01-3.99431E-14-2.55505E-13
 -1      3300 2.02810E+01 1.60617E-01-4.43310E-04 7.82086E-02-8.94257E-14-2.44441E-13
 -1      3301 2.01859E+01 1.77245E-02 1.12969E-03 1.42468E-01-4.08900E-14-2.64655E-13
 -1      3302 2.01678E+01-1.24488E-02-2.36049E-04 1.51279E-01-4.86124E-14-2.69452E-13
 -1      3303 2.02428E+01 4.94120E-02-5.81027E-04 1.19796E-01-5.18409E-14-2.24754E-13
 -1      3304 2.01498E+01-3.46586E-02 7.35979E-04 1.54240E-01-2.62240E-14-2.99486E-13
 -1      3305 2.01353E+01-5.17262E-02 4.16944E-05 1.54537E-01-3.62459E-14-2.73353E-13
 -1      3306 2.02037E+01-1.99670E-02-6.16023E-04 1.37783E-01-4.51061E-14-3.11594E-13
 -1      3307 2.01183E+01-6.34750E-02 4.37985E-04 1.51569E-01-6.78938E-14-2.51176E-13
 -1      3308 2.01070E+01-7.15887E-02 2.07399E-04 1.46742E-01-8.40673E-14-1.82969E-13
 -1      3309 2.01670E+01-5.99273E-02-5.88890E-04 1.40036E-01-4.50403E-14-3.41925E-13
 -1      3310 2.00917E+01-7.62875E-02 2.23644E-04 1.40402E-01-9.62449E-14-1.51789E-13
 -1      3311 2.00831E+01-7.84545E-02 2.95281E-04 1.32860E-01-7.13972E-14-1.22221E-13
 -1      3312 2.01341E+01-7.96413E-02-5.30356E-04 1.32589E-01-5.31132E-14-2.47998E-13
 -1      3313 2.00698E+01-7.85549E-02 7.59323E-05 1.24952E-01-7.44143E-14-1.64857E-13
 -1      3314 2.00633E+01-7.69282E-02 3.31295E-04 1.16347E-01-5.93261E-14-1.85576E-13
 -1      3315 2.01056E+01-8.58105E-02-4.58434E-04 1.19841E-01-9.60440E-14-2.49602E-13
 -1      3316 2.00520E+01-7.41709E-02-2.17218E-05 1.08093E-01-9.73407E-14-2.17469E-13
 -1      3317 2.00472E+01-7.02684E-02 3.34568E-04 9.95117E-02-1.42835E-13-2.09371E-13
 -1      3318 2.00815E+01-8.32635E-02-3.83666E-04 1.04862E-01-1.23695E-13-2.28381E-13
 -1      3319 2.00378E+01-6.58709E-02-8.32500E-05 9.17014E-02-1.80488E-13-2.39307E-13
 -1      3320 2.00343E+01-6.07457E-02 3.18935E-04 8.38280E-02-1.52688E-13-2.47184E-13
 -1      3321 2.00615E+01-7.54218E-02-3.12219E-04 8.97116E-02-1.36493E-13-1.98643E-13
 -1      3322 2.00265E+01-5.55494E-02-1.19329E-04 7.69463E-02-9.73346E-14-3.01879E-13
 -1      3323 2.00240E+01-4.99284E-02 2.94261E-04 7.01772E-02-1.05901E-13-2.56884E-13
 -1      3324 2.00451E+01-6.46714E-02-2.47840E-04 7.57086E-02-1.58543E-13-2.75206E-13
 -1      3325 2.00176E+01-4.45205E-02-1.37350E-04 6.45009E-02-1.29013E-13-2.66101E-13
 -1      3326 2.00159E+01-3.89209E-02 2.67548E-04 5.90352E-02-1.24778E-13-2.57313E-13
 -1      3327 2.00319E+01-5.26649E-02-1.93230E-04 6.36564E-02-1.08205E-13-3.46336E-13
 -1      3328 2.00107E+01-3.37410E-02-1.41460E-04 5.47054E-02-8.75750E-14-2.38279E-13
 -1      3329 2.00096E+01-2.85756E-02 2.43835E-04 5.06041E-02-4.54153E-14-2.06869E-13
 -1      3330 2.00212E+01-4.05801E-02-1.51187E-04 5.40124E-02-6.99045E-14-2.95707E-13
 -1      3331 2.00056E+01-2.40140E-02-1.32412E-04 4.76766E-02-3.02406E-14-1.72083E-13
 -1      3332 2.00051E+01-1.96935E-02 2.26863E-04 4.48971E-02 3.09970E-14-1.65266E-13
 -1      3333 2.00127E+01-2.93516E-02-1.25722E-04 4.70144E-02-2.93948E-14-1.98428E-13
 -1      3334 2.00021E+01-1.61909E-02-1.07124E-04 4.33724E-02-1.80348E-14-1.08517E-13
 -1      3335 2.00023E+01-1.32281E-02 2.19477E-04 4.17784E-02 1.32129E-14-1.57895E-13
 -1      3336 2.00063E+01-1.98938E-02-1.23277E-04 4.27665E-02 2.11805E-14-1.27734E-13
 -1      3337 2.00007E+01-1.13801E-02-5.78183E-05 4.16115E-02 4.04385E-14-1.54886E-13
 -1      3338 2.00021E+01-1.05035E-02 2.23566E-04 4.09574E-02 4.21088E-14-1.65939E-13
 -1      3339 2.00021E+01-1.33304E-02-1.54126E-04 4.12878E-02 1.13618E-14-1.67864E-13
 -1      3340 2.00023E+01-1.11730E-02 2.92989E-05 4.20425E-02 5.14373E-14-1.56164E-13
 -1      3341 2.00054E+01-1.34460E-02 2.39357E-04 4.19276E-02 8.60209E-14-1.98267E-13
 -1      3342 2.00010E+01-1.12419E-02-2.33961E-04 4.25199E-02 5.41629E-14-1.53181E-13
 -1      3343 2.00088E+01-1.78767E-02 1.75594E-04 4.40476E-02 4.91898E-14-1.80960E-13
 -1      3344 2.00147E+01-2.48134E-02 2.63536E-04 4.38328E-02 1.53376E-14-1.90519E-13
 -1      3345 2.00044E+01-1.59289E-02-3.85023E-04 4.62783E-02 5.27078E-14-1.30071E-13
 -1      3346 2.00229E+01-3.47239E-02 4.11578E-04 4.65571E-02-1.52013E-14-2.27399E-13
 -1      3347 2.00332E+01-4.83700E-02 2.85537E-04 4.52330E-02-7.17542E-14-1.80002E-13
 -1      3348 2.00150E+01-3.06713E-02-6.36911E-04 5.21208E-02 1.49089E-14-1.73174E-13
 -1      3349 2.00491E+01-6.59865E-02 7.77431E-04 4.77362E-02-8.46142E-14-1.24914E-13
 -1      3350 2.00660E+01-8.89060E-02 2.81461E-04 4.37313E-02-3.52692E-14-3.31204E-14
 -1      3351 2.00373E+01-5.99228E-02-1.02489E-03 5.90880E-02 2.19757E-14-3.07816E-13
 -1      3352 2.00935E+01-1.16850E-01 1.32042E-03 4.44989E-02-6.98956E-14-5.38976E-14
 -1      3353 2.01199E+01-1.51908E-01 2.05726E-04 3.54238E-02 3.60253E-14-1.83275E-14
 -1      3354 2.00776E+01-1.09313E-01-1.58396E-03 6.52436E-02-6.58119E-14-9.82473E-14
 -1      3355 2.01645E+01-1.92805E-01 2.08544E-03 3.18153E-02 1.31006E-13-1.76433E-14
 -1      3356 2.02035E+01-2.42577E-01-1.75404E-05 1.41671E-02 1.63577E-13 1.47615E-14
 -1      3357 2.01447E+01-1.85222E-01-2.33482E-03 6.69369E-02 8.98034E-14-4.48416E-14
 -1      3358 2.02715E+01-2.98196E-01 3.09247E-03 1.83987E-03 1.45374E-13-1.29059E-14
 -1      3359 2.03262E+01-3.63763E-01-4.94405E-04-2.92457E-02 6.25433E-14 7.51813E-14
 -1      3360 2.02498E+01-2.93554E-01-3.25640E-03 5.77307E-02 1.48426E-13-2.03632E-13
 -1      3361 2.04244E+01-4.33439E-01 4.29451E-03-5.69378E-02 7.30161E-15 1.04622E-13
 -1      3362 2.04962E+01-5.12307E-01-1.34643E-03-1.07655E-01 8.13415E-14 1.82816E-13
 -1      3363 2.04057E+01-4.37149E-01-4.23826E-03 2.70610E-02 1.15016E-13-5.31615E-14
 -1      3364 2.06295E+01-5.90473E-01 5.47437E-03-1.59918E-01 5.97881E-15 1.63003E-13
 -1      3365 2.07167E+01-6.73439E-01-2.63222E-03-2.37035E-01-7.39419E-14 1.83322E-13
 -1      3366 2.06242E+01-6.11145E-01-5.02605E-03-4.09546E-02 5.50377E-14 9.56593E-14
 -1      3367 2.08844E+01-7.46283E-01 6.20004E-03-3.24673E-01-1.29479E-13 2.14192E-13
 -1      3368 2.09796E+01-8.13752E-01-4.18589E-03-4.33212E-01 2.07325E-14 2.09412E-13
 -1      3369 2.09109E+01-7.95905E-01-5.16802E-03-1.67417E-01-5.51492E-14 1.30571E-13
 -1      3370 2.11704E+01-8.56193E-01 5.72050E-03-5.65092E-01 2.84669E-14 1.00918E-13
 -1      3371 2.12593E+01-8.75457E-01-5.37157E-03-7.03781E-01-4.79170E-14 2.06983E-14
 -1      3372 2.12569E+01-9.48342E-01-3.99301E-03-3.74779E-01-1.85855E-14-8.93355E-16
 -1      3373 2.14451E+01-8.50446E-01 3.04864E-03-8.78667E-01-1.09897E-14 2.91676E-14
 -1      3374 2.15074E+01-7.78302E-01-5.04786E-03-1.03259E+00-4.17351E-15 9.08317E-16
 -1      3375 2.16286E+01-9.94648E-01-8.17923E-04-6.76075E-01-4.35505E-14-1.45849E-13
 -1      3376 2.16443E+01-6.44601E-01-2.22758E-03-1.22703E+00 6.65847E-14-2.68476E-14
 -1      3377 2.16603E+01-4.40647E-01-1.65399E-03-1.36098E+00-1.62967E-14-3.77003E-14
 -1      3378 2.19602E+01-8.37898E-01 3.89909E-03-1.05249E+00-1.75790E-15-6.34388E-14
 -1      3379 2.16977E+01-1.69949E-01-9.50465E-03-1.51827E+00-1.02102E-13 9.94229E-14
 -1      3380 2.16585E+01 1.75774E-01 4.73909E-03-1.57427E+00-1.52046E-14 9.81157E-14
 -1      3381 2.21636E+01-3.81502E-01 9.88322E-03-1.42984E+00 2.35984E-14-9.39721E-15
 -1      3382 2.15756E+01 5.63289E-01-1.54248E-02-1.60789E+00-1.09695E-13-6.80402E-15
 -1      3383 2.14979E+01 9.93797E-01 1.22040E-02-1.52465E+00-2.66360E-13-8.20859E-14
 -1      3384 2.21637E+01 3.90144E-01 1.14224E-02-1.65750E+00-1.02769E-13-6.03124E-14
 -1      3385 2.13276E+01 1.39932E+00-1.86478E-02-1.35254E+00-2.87588E-13-4.67375E-14
 -1      3386 2.12514E+01 1.78069E+00 1.24088E-02-1.10427E+00-9.54063E-14-6.96414E-14
 -1      3387 2.19599E+01 1.35249E+00 6.66613E-03-1.55757E+00-2.00460E-13 3.66738E-14
 -1      3388 2.11075E+01 2.06818E+00-8.32012E-03-7.30430E-01 3.56165E-14-1.85756E-13
 -1      3389 2.10665E+01 2.24389E+00 6.84907E-03-3.55330E-01 1.80694E-14-2.31472E-13
 -1      3390 2.17014E+01 2.20040E+00-1.00254E-03-1.01225E+00-5.23574E-14-1.62413E-13
 -1      3391 2.10505E+01 2.26815E+00 3.58780E-03 1.22407E-01-5.67255E-16-2.02099E-13
 -1      3392 2.10658E+01 2.15964E+00-8.22859E-03 5.02311E-01-3.55911E-15-1.84090E-13
 -1      3393 2.15562E+01 2.59589E+00-2.20902E-03-1.26076E-01 1.45534E-14-3.52876E-13
 -1      3394 2.11834E+01 1.93240E+00 1.14393E-02 9.19073E-01 7.46365E-14-1.74549E-13
 -1      3395 2.12489E+01 1.58253E+00-1.72710E-02 1.19840E+00 2.24073E-13-7.50064E-14
 -1      3396 2.16314E+01 2.30908E+00 2.51676E-03 7.83475E-01-5.72545E-15-1.62365E-13
 -1      3397 2.14138E+01 1.19633E+00 1.41029E-02 1.41126E+00 3.93999E-13-1.91640E-13
 -1      3398 2.14822E+01 7.72148E-01-1.53750E-02 1.52848E+00 4.23600E-13-1.36362E-13
 -1      3399 2.18787E+01 1.56722E+00 8.06173E-03 1.41287E+00 2.08558E-13-2.11461E-13
 -1      3400 2.15732E+01 3.78030E-01 5.96378E-03 1.53054E+00 3.33767E-13-9.59658E-14
 -1      3401 2.16052E+01 1.71412E-02-1.17736E-02 1.49843E+00 3.28173E-13-9.13451E-14
 -1      3402 2.20850E+01 6.22794E-01 1.26533E-02 1.59560E+00 3.57697E-13-1.45358E-13
 -1      3403 2.15715E+01-2.68552E-01-1.13363E-03 1.35782E+00 3.08107E-13-2.49682E-13
 -1      3404 2.15400E+01-4.93996E-01-4.81865E-03 1.23753E+00 2.06017E-13-1.54272E-13
 -1      3405 2.20956E+01-1.89620E-01 8.97260E-03 1.41730E+00 2.90670E-13 4.23570E-14
 -1      3406 2.13794E+01-6.19199E-01-3.46959E-03 1.07214E+00 2.00025E-13-1.55964E-13
 -1      3407 2.12938E+01-7.23056E-01 3.66783E-04 9.29282E-01 1.95635E-13-5.50335E-14
 -1      3408 2.14831E+01-8.58973E-01-6.70211E-03 7.60677E-01 1.83734E-13-7.97417E-14
 -1      3409 2.18653E+01-6.53610E-01 8.06109E-03 1.08707E+00 1.62809E-13-1.92473E-13
 -1      3410 2.01098E+01-7.08510E-02 2.13504E-04-1.47765E-01-2.90160E-14-1.02746E-13
 -1      3411 2.01213E+01-6.20787E-02 4.43858E-04-1.52203E-01 2.45407E-14-9.41539E-14
 -1      3412 2.01700E+01-5.80198E-02-5.92070E-04-1.40294E-01 1.76487E-14-1.32507E-13
 -1      3413 2.02055E+01 5.93108E-02-6.80162E-04-1.28422E-01 4.87727E-14-1.45111E-13
 -1      3414 2.02274E+01 1.09394E-01 1.64449E-03-1.05737E-01 9.14318E-14-1.70728E-13
 -1      3415 2.00858E+01-7.87517E-02 3.03776E-04-1.34253E-01 3.48022E-15-1.25307E-13
 -1      3416 2.00945E+01-7.61089E-02 2.41735E-04-1.41591E-01-2.56406E-14-9.45671E-14
 -1      3417 2.01370E+01-7.91217E-02-5.43549E-04-1.33452E-01 8.88052E-15-1.17310E-13
 -1      3418 2.00660E+01-7.78886E-02 3.44692E-04-1.17879E-01 4.25963E-14-1.47358E-13
 -1      3419 2.00725E+01-7.92148E-02 9.48457E-05-1.26411E-01 3.16518E-14-1.25614E-13
 -1      3420 2.01084E+01-8.62295E-02-4.77868E-04-1.21036E-01 3.07702E-14-1.02041E-13
 -1      3421 2.00501E+01-7.15591E-02 3.51319E-04-1.01061E-01-1.07190E-14-1.60437E-13
 -1      3422 2.00548E+01-7.53308E-02-3.96227E-06-1.09635E-01 2.67027E-14-1.56126E-13
 -1      3423 2.00843E+01-8.42590E-02-4.06158E-04-1.06228E-01 3.24972E-14-9.44968E-14
 -1      3424 2.00374E+01-6.19725E-02 3.37824E-04-8.53624E-02 5.73061E-15-1.30697E-13
 -1      3425 2.00407E+01-6.71816E-02-6.89791E-05-9.32354E-02 2.37987E-15-1.54517E-13
 -1      3426 2.00645E+01-7.66336E-02-3.34768E-04-9.11592E-02-4.14060E-15-1.32788E-13
 -1      3427 2.00275E+01-5.05017E-02 3.13640E-04-7.17540E-02 7.42102E-14-1.59143E-13
 -1      3428 2.00298E+01-5.65407E-02-1.12267E-04-7.84647E-02 6.83160E-14-1.24918E-13
 -1      3429 2.00484E+01-6.56344E-02-2.66101E-04-7.72073E-02 5.96094E-14-1.73947E-13
 -1      3430 2.00196E+01-3.78517E-02 2.84360E-04-6.08161E-02 6.30005E-14-1.91730E-13
 -1      3431 2.00212E+01-4.44363E-02-1.44007E-04-6.60812E-02 8.99570E-14-1.91551E-13
 -1      3432 2.00354E+01-5.26523E-02-1.99614E-04-6.52162E-02 8.64462E-14-1.92795E-13
 -1      3433 2.00131E+01-2.41602E-02 2.51971E-04-5.28851E-02 9.67795E-14-2.09486E-13
 -1      3434 2.00142E+01-3.12857E-02-1.73229E-04-5.65238E-02 6.49245E-14-2.08589E-13
 -1      3435 2.00246E+01-3.83623E-02-1.31985E-04-5.56641E-02 8.88640E-14-3.31723E-13
 -1      3436 2.00070E+01-9.03157E-03 2.14482E-04-4.81582E-02 1.47731E-13-1.77471E-13
 -1      3437 2.00082E+01-1.69633E-02-2.08705E-04-5.00368E-02 1.58742E-13-1.92013E-13
 -1      3438 2.00153E+01-2.28265E-02-5.66167E-05-4.87801E-02 1.31759E-13-2.78304E-13
 -1      3439 2.00002E+01 8.50066E-03 1.64672E-04-4.67540E-02 1.64066E-13-2.12934E-13
 -1      3440 2.00018E+01-7.99149E-04-2.59925E-04-4.67487E-02 1.92026E-13-1.79602E-13
 -1      3441 2.00062E+01-5.52681E-03 3.75229E-05-4.46089E-02 1.58346E-13-1.95496E-13
 -1      3442 1.99907E+01 3.00877E-02 8.60364E-05-4.87243E-02 1.62121E-13-2.38189E-13
 -1      3443 1.99938E+01 1.84970E-02-3.37787E-04-4.67052E-02 1.55877E-13-2.60244E-13
 -1      3444 1.99958E+01 1.46751E-02 1.67683E-04-4.30177E-02 1.97100E-13-1.93775E-13
 -1      3445 1.99758E+01 5.82932E-02-5.59549E-05-5.39761E-02 1.35231E-13-1.70255E-13
 -1      3446 1.99818E+01 4.30229E-02-4.46558E-04-4.98396E-02 1.36950E-13-2.10281E-13
 -1      3447 1.99821E+01 3.96424E-02 3.56849E-04-4.36234E-02 1.04934E-13-1.34726E-13
 -1      3448 1.99527E+01 9.46008E-02-2.93543E-04-6.16695E-02 2.95031E-14-1.80654E-13
 -1      3449 1.99631E+01 7.48426E-02-6.21046E-04-5.57321E-02 9.08146E-14-2.07539E-13
 -1      3450 1.99623E+01 7.12709E-02 6.65262E-04-4.55455E-02 1.12544E-13-1.74021E-13
 -1      3451 1.99125E+01 1.47873E-01-6.89588E-04-7.15953E-02 3.49564E-15-1.79350E-13
 -1      3452 1.99322E+01 1.18807E-01-8.56955E-04-6.34615E-02-4.50678E-15-2.11351E-13
 -1      3453 1.99314E+01 1.13787E-01 1.08749E-03-4.73762E-02 4.43869E-14-2.09341E-13
 -1      3454 1.98451E+01 2.23725E-01-1.42784E-03-8.09169E-02-1.66289E-14-1.88887E-13
 -1      3455 1.98798E+01 1.82379E-01-1.21125E-03-7.17125E-02 3.10618E-14-1.43790E-13
 -1      3456 1.98812E+01 1.73982E-01 1.80313E-03-4.61711E-02 2.17338E-14-1.88571E-13
 -1      3457 1.97336E+01 3.31487E-01-2.71731E-03-8.44062E-02 3.44819E-14-2.35498E-13
 -1      3458 1.97935E+01 2.73071E-01-1.64910E-03-7.63216E-02 3.51456E-14-1.82275E-13
 -1      3459 1.98010E+01 2.57798E-01 2.88264E-03-3.63742E-02 2.12404E-14-1.20936E-13
 -1      3460 1.95525E+01 4.82329E-01-4.90525E-03-7.16682E-02-1.78471E-13-3.07478E-13
 -1      3461 1.96533E+01 4.01323E-01-2.15721E-03-6.95318E-02-9.70017E-15-3.16829E-13
 -1      3462 1.96740E+01 3.73471E-01 4.49489E-03-8.02232E-03 5.30870E-14-1.81524E-13
 -1      3463 1.92633E+01 6.87383E-01-8.50965E-03-2.32623E-02-1.57093E-13-3.22019E-13
 -1      3464 1.94296E+01 5.78828E-01-2.64839E-03-3.67142E-02-2.37358E-13-3.16478E-13
 -1      3465 1.94763E+01 5.29154E-01 6.83340E-03 5.63326E-02-1.73963E-13-2.31335E-13
 -1      3466 1.88111E+01 9.52813E-01-1.42206E-02 9.52405E-02-1.65418E-13-2.70156E-13
 -1      3467 1.90795E+01 8.15395E-01-2.92411E-03 4.83648E-02-8.57356E-14-3.21085E-13
 -1      3468 1.91747E+01 7.29483E-01 1.01028E-02 1.86225E-01-1.39414E-13-2.92795E-13
 -1      3469 1.81196E+01 1.26903E+00-2.26784E-02 3.41341E-01-3.50169E-14-3.16570E-13
 -1      3470 1.85432E+01 1.11147E+00-2.59708E-03 2.30362E-01-1.27661E-13-2.83791E-13
 -1      3471 1.87257E+01 9.68120E-01 1.45035E-02 4.29677E-01-1.29213E-13-2.73855E-13
 -1      3472 1.70884E+01 1.58992E+00-3.36340E-02 8.04649E-01 5.59331E-14-2.27031E-13
 -1      3473 1.77417E+01 1.44266E+00-7.96725E-04 5.80922E-01 1.68717E-14-3.11005E-13
 -1      3474 1.80776E+01 1.21365E+00 2.04495E-02 8.61048E-01 6.12151E-15-4.13243E-13
 -1      3475 1.56197E+01 1.79996E+00-3.26305E-02 1.61502E+00 2.20482E-13-1.99400E-13
 -1      3476 1.65754E+01 1.73281E+00 5.10509E-03 1.20605E+00 1.26493E-13-2.01423E-13
 -1      3477 1.71793E+01 1.38769E+00 3.06722E-02 1.58793E+00 6.87364E-14-3.48177E-13
 -1      3478 2.22748E+01-1.36164E+00-1.49675E-02 8.15934E-02 1.65739E-14-2.67236E-13
 -1      3479 2.25333E+01-1.49225E+00 1.51977E-02-3.19194E-01 4.31760E-14-2.96076E-13
 -1      3480 2.29968E+01-1.72302E+00-2.42910E-03-3.93609E-01-3.96317E-14-2.04458E-13
 -1      3481 2.25877E+01-2.00694E+00 4.31269E-03-2.00313E+00 1.45020E-13 2.00449E-13
 -1      3482 2.22166E+01-1.91489E+00 1.29687E-02-2.55294E+00 2.01212E-14 1.77538E-13
 -1      3483 2.31368E+01-2.20063E+00-1.19997E-02-1.58575E+00 2.55446E-13 6.51395E-14
 -1      3484 2.02525E+01 8.51256E-01-1.15796E-03 4.89549E-01 2.64361E-13-2.37777E-13
 -1      3485 2.02422E+01 1.69751E-01-1.33120E-03-7.87435E-02 9.41448E-14-2.03175E-13
 -1      3486 2.02671E+01 2.46967E-01 2.23560E-03-3.67225E-02 1.07149E-13-2.12750E-13
 -1      3487 2.02830E+01 1.67412E-01-4.06608E-04-7.53973E-02 8.16866E-14-2.14577E-13
 -1      3488 2.02178E+01 1.58402E+00 1.61004E-03-7.00038E-01-2.30056E-13-4.59307E-13
 -1      3489 1.38048E+01 2.09707E+00 2.15390E-02-1.63252E+00-3.48367E-14-5.70276E-13
 -1      3490 1.23451E+01 1.93669E+00 1.87302E-02-2.14552E+00-8.14279E-14-5.68032E-13
 -1      3491 1.46687E+01 1.74705E+00 4.95322E-02-2.50767E+00-5.50957E-14-3.66339E-13
 -1      3492 2.51620E+01 5.37371E+00-7.42237E-02 6.06291E-01 9.81923E-14-1.63665E-13
 -1      3493 2.50476E+01 5.49860E+00-4.20445E-02-4.97929E-01 4.04538E-14-1.12471E-13
 -1      3494 2.18225E+01-1.01075E+00 7.35463E-03 5.11687E-01 1.67733E-13-1.21055E-13
 -1      3495 2.03107E+01 7.36421E-01 9.48350E-04-2.42138E-01-1.53820E-13-3.52831E-13
 -1      3496 2.02948E+01 5.75426E-01-2.63291E-03-1.40761E-01-1.32593E-13-3.47331E-13
 -1      3497 2.02766E+01 9.33664E-01-5.75473E-03 4.68923E-01 2.70140E-13-2.86803E-13
 -1      3498 2.63332E+01 1.54818E+00-1.08585E-01-2.07328E+00-1.60802E-13 5.60645E-14
 -1      3499 2.69644E+01 1.04207E-01 4.03048E-02-1.66872E+00-2.00926E-13-2.87305E-14
 -1      3500 2.15868E+01-1.79945E+00 3.40008E-02-3.29098E+00-5.65333E-14 9.13907E-15
 -1      3501 2.06466E+01-1.47207E+00-3.94926E-03-3.68426E+00 1.22173E-13-1.02701E-13
 -1      3502 2.23428E+01-2.33872E+00-1.54827E-02-3.07760E+00 1.95256E-13 1.45607E-13
 -1      3503 2.02978E+01 4.41037E-01 2.29155E-03-7.14298E-02-1.08364E-13-3.30308E-13
 -1      3504 2.02737E+01 3.28762E-01-2.00589E-03-4.08353E-03-1.01379E-13-3.04794E-13
 -1      3505 2.03131E+01 3.29725E-01-2.40733E-04 3.50510E-03-9.47508E-14-3.11092E-13
 -1      3506 2.02747E+01 3.38594E-01-2.23355E-03 9.90599E-03 1.18217E-13-2.38278E-13
 -1      3507 2.03011E+01 4.53551E-01 3.06896E-03 7.87656E-02 1.35178E-13-2.66662E-13
 -1      3508 2.03297E+01 5.90715E-01-8.59365E-04 1.21463E-01 1.54023E-13-2.59141E-13
 -1      3509 2.03140E+01 3.41177E-01 3.45332E-05 1.10748E-03 9.30081E-14-2.40102E-13
 -1      3510 1.22455E+01 8.16022E-01 1.06641E-01-4.36756E+00-4.77569E-14-2.22142E-13
 -1      3511 1.42122E+01-5.33423E-01 6.58358E-03-5.74071E+00-2.04975E-14 1.20667E-13
 -1      3512 2.56597E+01-3.50578E+00-8.61917E-02 2.03856E+00-2.76047E-14 6.42988E-14
 -1      3513 2.41574E+01-3.44959E+00 3.26985E-02 3.35928E+00-4.37788E-14 7.23835E-14
 -1      3514 2.69725E+01-1.60912E+00-1.11193E-01-6.34095E-01-5.75148E-14-1.79492E-13
 -1      3515 2.68022E+01-2.62588E+00 6.20530E-02 6.47661E-01-1.08247E-14-3.63876E-14
 -1      3516 1.69212E+01-1.34060E+00 1.43646E-01-6.01915E+00-1.71425E-14 2.57468E-13
 -1      3517 1.94427E+01-2.37989E+00-1.68813E-02-5.66971E+00 7.07490E-14-3.18842E-14
 -1      3518 1.64245E+01-4.73797E-01 4.91084E-02-5.09329E+00-1.99285E-14 7.24698E-14
 -1      3519 2.01699E+01-9.61104E-03-2.37551E-04-1.50553E-01 5.08646E-14-1.29669E-13
 -1      3520 2.01881E+01 2.14141E-02 1.16482E-03-1.41238E-01 4.23099E-14-1.22238E-13
 -1      3521 2.02451E+01 5.41546E-02-5.89142E-04-1.18267E-01 4.46077E-14-1.64419E-13
 -1      3522 2.02066E+01-1.65792E-02-6.24991E-04-1.37209E-01 4.20905E-14-1.50825E-13
 -1      3523 2.02548E+01 1.36850E+00 2.06352E-03-5.38627E-01-1.97884E-13-4.40173E-13
 -1      3524 2.53685E+01 4.71990E+00-8.12009E-02-1.43294E+00 6.47260E-14-1.57194E-13
 -1      3525 2.60184E+01 3.46077E+00 8.16256E-03-2.10770E+00 9.24399E-14-3.14870E-14
 -1      3526 2.02696E+01 1.14325E+00-2.39166E-03 4.28506E-01 2.47603E-13-3.19992E-13
 -1      3527 2.02851E+01 1.13439E+00-1.79860E-03 3.61808E-01 2.29850E-13-2.98465E-13
 -1      3528 2.02600E+01 1.35349E+00 2.26948E-03-4.33654E-01-1.55700E-13-4.31699E-13
 -1      3529 2.02920E+01 1.11625E+00-1.09908E-03-4.36755E-01-1.93239E-13-4.15986E-13
 -1      3530 2.02947E+01 9.15630E-01-2.24290E-03-3.16245E-01-1.68522E-13-3.95928E-13
 -1      3531 1.34109E+01 9.48581E-01 9.85592E-02 4.44544E+00 3.79606E-13-1.25691E-13
 -1      3532 1.22298E+01 1.75473E+00 3.68470E-02 2.96503E+00 3.46188E-13-6.89171E-14
 -1      3533 1.34592E+01 1.84160E+00 1.91932E-02 2.64369E+00 3.76716E-13-1.52520E-13
 -1      3534 2.01987E+01 1.64484E+00-3.26993E-03 1.29530E-01 1.08852E-13-3.92696E-13
 -1      3535 2.01945E+01 1.66420E+00-2.71813E-03 3.88328E-02 5.61408E-14-4.26459E-13
 -1      3536 2.01334E+01 1.92832E+00 4.70556E-03-9.61258E-02 1.31513E-14-4.55311E-13
 -1      3537 2.03296E+01 5.80134E-01 5.36589E-04-1.14376E-01-1.18873E-13-3.47856E-13
 -1      3538 2.71537E+01 1.54793E+00-5.29681E-02 1.91711E+00 3.00523E-14-2.37685E-13
 -1      3539 2.74758E+01 2.72008E+00-8.44312E-02 2.12096E+00-2.88519E-14-1.80033E-13
 -1      3540 2.63594E+01 3.34255E+00-3.63711E-02 2.03764E+00 6.90975E-14-6.61277E-14
 -1      3541 2.22395E+01-1.11359E+00 2.15036E-03 5.38193E-01 1.81400E-13-1.79135E-13
 -1      3542 1.41611E+01 1.88884E+00-1.25688E-02 2.21287E+00 3.68228E-13-1.29865E-13
 -1      3543 1.50976E+01 1.85507E+00-1.33387E-03 1.95862E+00 3.40014E-13-1.13761E-13
 -1      3544 1.61660E+01 1.40351E+00 4.32699E-02 2.46181E+00 1.91970E-13-2.75654E-13
 -1      3545 1.50254E+01 1.30719E+00 6.97640E-02 3.35408E+00 3.69243E-13-2.10231E-13
 -1      3546 2.61374E+01-8.13436E-01-1.73794E-02-1.13589E+00-2.20921E-13-1.53873E-13
 -1      3547 1.57040E+01 1.01538E+00 2.44478E-02-3.35110E+00 4.76615E-14-1.54590E-13
 -1      3548 2.51362E+01 4.99473E+00-9.13652E-02 9.78275E-01 7.03188E-14-2.41040E-14
 -1      3549 2.41801E+01 4.69826E+00 5.90626E-03 5.69903E-01-2.02234E-14-1.24012E-13
 -1      3550 2.51717E+01 4.45368E+00-4.00307E-02 1.38803E+00 1.05818E-13 9.42204E-14
 -1      3551 2.30769E+01-3.25063E+00 2.93958E-04 3.83489E+00-7.00134E-15 6.01706E-14
 -1      3552 2.17159E+01-2.59244E+00 6.31675E-03 4.01761E+00 9.98993E-14-2.96716E-14
 -1      3553 2.37184E+01-2.88398E+00 2.86578E-02 2.61777E+00-8.88074E-14-4.14126E-14
 -1      3554 2.09280E+01-2.77639E+00 8.94207E-02-5.36722E+00 2.29133E-13-1.31058E-14
 -1      3555 2.21391E+01-3.16672E+00 1.52093E-02-4.77183E+00 3.62420E-13-1.45803E-13
 -1      3556 1.96618E+01-1.97832E+00 6.21470E-03-5.11018E+00 1.71498E-13-2.87732E-13
 -1      3557 2.58875E+01-4.01993E+00 1.51862E-02-3.26597E+00 6.58432E-14-2.07395E-13
 -1      3558 2.63526E+01-3.50610E+00-5.81647E-03-2.13569E+00 2.62464E-15-2.21951E-13
 -1      3559 2.44134E+01-3.76369E+00 1.08572E-02-3.74127E+00 2.30121E-13-4.66693E-14
 -1      3560 2.74815E+01-2.44295E+00-3.23356E-02-4.00650E-01-9.85123E-14-3.25049E-13
 -1      3561 2.84156E+01-1.59829E+00-5.21746E-02 3.73584E-01-4.83624E-14-3.37973E-13
 -1      3562 2.77480E+01-5.17114E-01-2.95822E-02 1.18698E+00 2.53304E-14-3.52478E-13
 -1      3563 2.03198E+01 9.16739E-01 1.57904E-03-2.62625E-01-1.29866E-13-3.86502E-13
 -1      3564 2.02178E+01 1.55435E+00-3.98935E-03 2.83744E-01 1.80599E-13-4.14105E-13
 -1      3565 2.02070E+01 1.61212E+00-2.09437E-03 2.00729E-01 1.37215E-13-4.22921E-13
 -1      3566 2.02822E+01 1.39159E+00 5.32905E-03 1.33637E-01 1.15138E-13-3.68821E-13
 -1      3567 1.69641E+01-1.12818E+00 2.95392E-02 5.62168E+00 3.08739E-13 1.76630E-14
 -1      3568 1.48558E+01-6.42890E-03 5.21098E-02 5.09247E+00 3.16185E-13-1.02522E-13
 -1      3569 1.57662E+01 2.88917E-01 6.11100E-02 4.42971E+00 3.84054E-13-8.25728E-14
 -1      3570 2.53251E+01 2.13423E+00-2.50812E-02-1.98203E+00-1.04973E-13-1.72383E-13
 -1      3571 1.92965E+01-1.00132E+00 5.95047E-02-4.32797E+00 1.37322E-13-1.74709E-13
 -1      3572 1.78031E+01-4.29435E-01-2.70529E-02-4.28495E+00 2.09347E-13-4.21121E-14
 -1      3573 1.89773E+01-1.57437E+00 4.71340E-02 4.99398E+00 1.94945E-13-2.65283E-13
 -1      3574 2.44368E+01 4.40841E+00-3.70926E-02-8.90278E-01 2.31169E-14-1.79723E-13
 -1      3575 2.56243E+01-2.77000E+00 6.04652E-03 1.03588E+00-8.50045E-14-1.83940E-13
 -1      3576 1.20583E+01 1.37037E+00 1.28508E-01-3.59550E+00-1.02531E-13-3.44801E-13
 -1      3577 2.02461E+01 1.42811E+00-2.96403E-03-3.81185E-01-1.30787E-13-4.17879E-13
 -1      3578 2.02958E+01 1.19443E+00 1.61439E-03-2.91961E-01-1.25122E-13-3.89687E-13
 -1      3579 2.02296E+01 1.52353E+00-4.68228E-06-3.13001E-01-8.32794E-14-3.92260E-13
 -1      3580 1.39217E+01 1.05045E+00 3.77381E-02-3.80960E+00-7.80326E-14-1.73844E-13
 -1      3581 2.03535E+01 4.18437E-01 7.22363E-04-2.87157E-02-7.78099E-14-2.94464E-13
 -1      3582 2.03385E+01 3.08833E-01-1.48759E-03 1.97292E-02-7.91703E-14-2.93802E-13
 -1      3583 2.41888E+01 2.60398E+00-4.32750E-02-1.87278E+00-8.95985E-14-7.38389E-14
 -1      3584 2.47392E+01 1.24489E+00 8.44807E-03-1.96044E+00-2.48553E-13-2.05626E-13
 -1      3585 2.01969E+01-6.71948E-02 8.50748E-05-1.23134E-01 5.70422E-15-1.74435E-13
 -1      3586 2.02154E+01-5.01856E-02 5.66640E-04-1.23340E-01 2.98345E-14-1.70106E-13
 -1      3587 2.52175E+01-2.89300E-01-3.56495E-02-1.56637E+00-1.97847E-13-2.67256E-14
 -1      3588 2.56225E+01-1.42798E+00 3.88086E-02-7.73299E-01-1.10356E-13-7.79264E-14
 -1      3589 2.01952E+01 1.66487E+00-2.38272E-03-3.56339E-02 3.72092E-14-4.35584E-13
 -1      3590 2.01981E+01 1.64549E+00-3.34098E-03-1.26205E-01-5.25384E-15-4.25378E-13
 -1      3591 2.02759E+01 1.42501E+00 4.76059E-03 1.56496E-03 4.66261E-14-3.96396E-13
 -1      3592 2.02948E+01 8.42193E-02 1.07125E-03 9.46651E-02-5.09848E-14-2.07660E-13
 -1      3593 2.02730E+01 3.56584E-02-5.30285E-04 1.10088E-01-3.69385E-14-2.21986E-13
 -1      3594 2.02534E+01-1.60887E-03 7.97095E-04 1.16979E-01-4.70524E-14-2.37594E-13
 -1      3595 2.02328E+01-3.11379E-02-1.59651E-04 1.22699E-01-6.33176E-14-2.68960E-13
 -1      3596 2.02967E+01 2.59287E-02-3.68145E-04 9.56491E-02-6.09310E-14-2.10585E-13
 -1      3597 2.02121E+01-5.27926E-02 5.60292E-04 1.23264E-01-4.64200E-14-2.69942E-13
 -1      3598 2.01936E+01-6.89404E-02 8.20226E-05 1.22673E-01-3.08924E-14-2.53003E-13
 -1      3599 2.02538E+01-4.00660E-02-4.93325E-04 1.05364E-01-5.39098E-14-2.31197E-13
 -1      3600 2.01734E+01-7.97784E-02 3.70328E-04 1.19324E-01-5.53475E-14-2.21227E-13
 -1      3601 2.01574E+01-8.67717E-02 2.25829E-04 1.14969E-01-7.59885E-14-2.28436E-13
 -1      3602 2.02116E+01-7.68462E-02-5.34809E-04 1.04693E-01-5.52220E-14-1.72990E-13
 -1      3603 2.01389E+01-9.03341E-02 2.25731E-04 1.09487E-01-7.66470E-14-2.31701E-13
 -1      3604 2.01254E+01-9.12763E-02 2.99982E-04 1.03196E-01-8.54482E-14-2.09138E-13
 -1      3605 2.01724E+01-9.34990E-02-5.22835E-04 9.77480E-02-7.64217E-14-1.97402E-13
 -1      3606 2.01090E+01-9.01323E-02 1.19275E-04 9.68368E-02-1.01456E-13-1.90769E-13
 -1      3607 2.00979E+01-8.72564E-02 3.27339E-04 8.98696E-02-1.23910E-13-1.38173E-13
 -1      3608 2.01376E+01-9.67533E-02-4.79134E-04 8.75288E-02-6.34282E-14-1.75494E-13
 -1      3609 2.00837E+01-8.32335E-02 4.25524E-05 8.34792E-02-1.53866E-13-1.03539E-13
 -1      3610 2.00746E+01-7.81122E-02 3.25571E-04 7.66693E-02-1.57499E-13-1.23225E-13
 -1      3611 2.01074E+01-9.14797E-02-4.18847E-04 7.61316E-02-1.00241E-13-1.30188E-13
 -1      3612 2.00626E+01-7.24849E-02-1.20784E-05 7.07983E-02-2.09075E-13-1.32414E-13
 -1      3613 2.00553E+01-6.62056E-02 3.08010E-04 6.46749E-02-1.69080E-13-1.76289E-13
 -1      3614 2.00819E+01-8.11241E-02-3.52330E-04 6.49657E-02-1.68989E-13-9.68133E-14
 -1      3615 2.00452E+01-5.98527E-02-5.07623E-05 5.96712E-02-1.39618E-13-2.06033E-13
 -1      3616 2.00394E+01-5.31647E-02 2.84793E-04 5.45543E-02-1.19454E-13-1.97607E-13
 -1      3617 2.00605E+01-6.80772E-02-2.86795E-04 5.49517E-02-1.70126E-13-1.36127E-13
 -1      3618 2.00309E+01-4.67031E-02-7.78396E-05 5.06399E-02-4.96012E-14-2.34738E-13
 -1      3619 2.00264E+01-4.01462E-02 2.64041E-04 4.67141E-02-2.98403E-14-1.97949E-13
 -1      3620 2.00427E+01-5.39876E-02-2.27823E-04 4.66883E-02-1.07520E-13-1.48048E-13
 -1      3621 2.00194E+01-3.40503E-02-9.55759E-05 4.40471E-02 1.14132E-15-1.99017E-13
 -1      3622 2.00159E+01-2.80735E-02 2.52931E-04 4.14158E-02 6.32450E-15-1.02180E-13
 -1      3623 2.00280E+01-4.00366E-02-1.80757E-04 4.05903E-02 1.14407E-14-1.29530E-13
 -1      3624 2.00101E+01-2.27902E-02-1.03711E-04 4.01401E-02 3.45817E-14-4.41556E-14
 -1      3625 2.00078E+01-1.78687E-02 2.58603E-04 3.88625E-02 4.41242E-14-4.50500E-14
 -1      3626 2.00160E+01-2.71900E-02-1.52199E-04 3.70029E-02 5.06064E-14-6.83026E-14
 -1      3627 2.00033E+01-1.39351E-02-9.87273E-05 3.91474E-02-2.76794E-14-4.71266E-14
 -1      3628 2.00023E+01-1.06945E-02 2.88854E-04 3.92585E-02 2.72541E-14-8.72516E-14
 -1      3629 2.00065E+01-1.64473E-02-1.51734E-04 3.62977E-02 4.92173E-14 1.04428E-14
 -1      3630 1.99994E+01-8.86529E-03-7.23141E-05 4.13279E-02 3.61316E-14-9.17555E-14
 -1      3631 2.00003E+01-8.22100E-03 3.52042E-04 4.28392E-02 7.99021E-15-1.00253E-13
 -1      3632 1.99997E+01-9.10568E-03-1.94141E-04 3.89525E-02-1.56780E-15 2.83985E-14
 -1      3633 1.99998E+01-9.61156E-03-9.15015E-06 4.69795E-02 3.77906E-14-1.44234E-13
 -1      3634 2.00036E+01-1.29209E-02 4.56256E-04 4.98479E-02 6.15734E-14-1.40382E-13
 -1      3635 1.99967E+01-7.05782E-03-3.01347E-04 4.56077E-02 5.98261E-15-1.41996E-13
 -1      3636 2.00069E+01-1.91544E-02 1.16247E-04 5.63812E-02 3.51065E-14-1.35208E-13
 -1      3637 2.00155E+01-2.83734E-02 6.06145E-04 6.04321E-02 3.14740E-14-1.39814E-13
 -1      3638 1.99994E+01-1.31264E-02-5.05487E-04 5.70717E-02 2.14557E-14-1.98846E-13
 -1      3639 2.00249E+01-4.17175E-02 3.43921E-04 6.96203E-02 2.80575E-14-1.97558E-13
 -1      3640 2.00409E+01-5.95299E-02 7.96222E-04 7.43916E-02 3.64643E-14-1.83376E-13
 -1      3641 2.00116E+01-3.14201E-02-8.50694E-04 7.42342E-02-3.46472E-15-5.27934E-14
 -1      3642 2.00603E+01-8.29655E-02 7.32777E-04 8.62133E-02 1.55646E-14-1.52557E-13
 -1      3643 2.00874E+01-1.12810E-01 9.99312E-04 9.06777E-02 6.37699E-15-3.15159E-14
 -1      3644 2.00391E+01-6.76584E-02-1.39345E-03 9.77880E-02 6.29474E-14-4.23168E-14
 -1      3645 2.01225E+01-1.49930E-01 1.36286E-03 1.04397E-01 2.11761E-14-9.27759E-15
 -1      3646 2.01655E+01-1.95786E-01 1.14874E-03 1.06513E-01 1.22966E-13 1.53800E-14
 -1      3647 2.00908E+01-1.29316E-01-2.19773E-03 1.27615E-01 6.60848E-14 4.99257E-15
 -1      3648 2.02241E+01-2.50336E-01 2.32991E-03 1.19935E-01 1.10109E-13-1.17455E-13
 -1      3649 2.02886E+01-3.16018E-01 1.11642E-03 1.16003E-01 9.73235E-14-9.76155E-14
 -1      3650 2.01795E+01-2.25295E-01-3.31917E-03 1.61627E-01 5.09355E-14-6.21838E-14
 -1      3651 2.03809E+01-3.90790E-01 3.72214E-03 1.24336E-01 1.40204E-13-5.14239E-14
 -1      3652 2.04725E+01-4.78375E-01 7.01731E-04 1.08204E-01 1.67139E-13-7.17061E-14
 -1      3653 2.03221E+01-3.64580E-01-4.76654E-03 1.93839E-01 1.37558E-13 1.56004E-14
 -1      3654 2.06100E+01-5.73003E-01 5.56924E-03 1.02554E-01 1.11576E-13-1.53562E-15
 -1      3655 2.07324E+01-6.79846E-01-3.82935E-04 6.49982E-02 6.86639E-14 5.99680E-15
 -1      3656 2.05392E+01-5.53021E-01-6.42171E-03 2.11527E-01 1.56041E-13-1.56624E-14
 -1      3657 2.09251E+01-7.87100E-01 7.56657E-03 3.09862E-02-3.40094E-14 1.02102E-13
 -1      3658 2.10769E+01-9.00708E-01-2.37838E-03-4.00497E-02 3.82778E-15 1.72487E-13
 -1      3659 2.08522E+01-7.86635E-01-7.95593E-03 1.91806E-01 1.00950E-13 4.75639E-15
 -1      3660 2.13280E+01-1.00069E+00 9.17821E-03-1.21788E-01-3.88898E-14 8.21869E-14
 -1      3661 2.14984E+01-1.09270E+00-5.20619E-03-2.38126E-01-7.83609E-14-2.51951E-14
 -1      3662 2.12754E+01-1.04070E+00-8.85615E-03 9.96708E-02-3.96229E-14 9.67965E-14
 -1      3663 2.17952E+01-1.14762E+00 9.15317E-03-3.88185E-01-4.25209E-14-7.94327E-14
 -1      3664 2.19605E+01-1.16698E+00-7.94696E-03-5.54534E-01 1.10843E-14-4.65665E-17
 -1      3665 2.18039E+01-1.25374E+00-7.65881E-03-1.08708E-01-7.79769E-14 9.55019E-14
 -1      3666 2.22603E+01-1.11456E+00 5.95060E-03-7.80070E-01-3.46873E-14-1.20265E-13
 -1      3667 2.23848E+01-9.93001E-01-8.74393E-03-9.77482E-01-6.31170E-14-9.43796E-14
 -1      3668 2.23916E+01-1.31146E+00-3.31674E-03-4.71714E-01-1.03548E-13-2.19641E-14
 -1      3669 2.26187E+01-7.72406E-01-2.87192E-03-1.24955E+00 3.06131E-14-2.25932E-13
 -1      3670 2.26695E+01-4.38554E-01-3.48680E-03-1.43059E+00 6.43281E-14-1.93222E-13
 -1      3671 2.29308E+01-1.06095E+00 3.47291E-04-9.72743E-01-6.49509E-14-2.80344E-13
 -1      3672 2.27423E+01 3.89043E-03-1.46891E-02-1.64987E+00-4.66431E-14-7.78428E-14
 -1      3673 2.27023E+01 5.32321E-01 4.21973E-03-1.70605E+00-1.72615E-13-1.17496E-13
 -1      3674 2.32793E+01-3.20601E-01 1.21796E-02-1.51541E+00-1.64430E-15-2.40907E-13
 -1      3675 2.28590E+01 1.19816E+00-1.85840E-02-1.78019E+00-1.67473E-13-1.31002E-13
 -1      3676 2.27461E+01 1.84317E+00 6.57866E-03-1.63794E+00-1.38165E-13-5.08855E-14
 -1      3677 2.21134E+01 3.07746E+00-4.50960E-03-3.75592E-01 1.06798E-14-1.46674E-13
 -1      3678 2.20787E+01 3.13205E+00 6.29428E-03 9.46401E-02-1.65742E-14-1.35879E-13
 -1      3679 2.27312E+01 3.44749E+00-9.86804E-03 6.33265E-01 5.52943E-15 6.91964E-14
 -1      3680 2.28181E+01 3.07788E+00-2.35780E-02 1.07312E+00-4.16849E-14 5.39722E-14
 -1      3681 2.26361E+01 8.12670E-01 7.05311E-03 1.64480E+00 4.00318E-13-9.90622E-14
 -1      3682 2.26951E+01 2.54620E-01-1.43532E-02 1.62415E+00 3.85228E-13-6.81127E-14
 -1      3683 2.26258E+01-2.16888E-01-5.82696E-03 1.40680E+00 2.66086E-13-1.96405E-13
 -1      3684 2.25588E+01-5.82480E-01-1.42136E-02 1.24875E+00 1.75825E-13-1.21038E-13
 -1      3685 2.32699E+01-9.45624E-02-1.97425E-03 1.50565E+00 2.44198E-13-1.28226E-13
 -1      3686 2.25403E+01-8.40992E-01-6.73262E-03 9.82910E-01 1.79548E-13-1.32207E-13
 -1      3687 2.23634E+01-1.00427E+00-9.13031E-03 8.08288E-01 2.32568E-13-1.42695E-13
 -1      3688 2.29566E+01-1.30166E+00 1.57854E-02 4.08328E-01 1.25040E-13-6.87003E-14
 -1      3689 2.31768E+01-8.90830E-01 1.49839E-02 9.88579E-01 2.38135E-13-2.29742E-13
 -1      3690 2.01011E+01-8.82749E-02 3.36864E-04-9.13142E-02 8.93092E-15-1.34413E-13
 -1      3691 2.01121E+01-9.09330E-02 1.30758E-04-9.81929E-02 1.43328E-14-1.76743E-13
 -1      3692 2.01606E+01-8.63703E-02 2.29861E-04-1.15934E-01 7.97252E-15-1.79106E-13
 -1      3693 2.01767E+01-7.87760E-02 3.84857E-04-1.20046E-01-2.58754E-15-1.81173E-13
 -1      3694 2.02151E+01-7.52036E-02-5.30034E-04-1.05251E-01 6.90579E-15-2.48963E-13
 -1      3695 2.00780E+01-7.92816E-02 3.34374E-04-7.82169E-02 1.79087E-14-1.63754E-13
 -1      3696 2.00869E+01-8.43789E-02 5.17069E-05-8.49646E-02 4.19836E-14-1.20953E-13
 -1      3697 2.01108E+01-9.25137E-02-4.25906E-04-7.76384E-02 1.40581E-14-1.69807E-13
 -1      3698 2.00588E+01-6.70353E-02 3.11858E-04-6.62755E-02 9.00185E-14-2.11883E-13
 -1      3699 2.00659E+01-7.35582E-02-6.15696E-06-7.23425E-02 6.24105E-14-1.92402E-13
 -1      3700 2.00852E+01-8.22129E-02-3.57581E-04-6.65798E-02 8.38121E-14-2.03237E-13
 -1      3701 2.00429E+01-5.28869E-02 2.76251E-04-5.61416E-02 9.11829E-14-2.60781E-13
 -1      3702 2.00486E+01-6.02481E-02-5.00432E-05-6.11997E-02 1.15248E-13-2.25239E-13
 -1      3703 2.00639E+01-6.86581E-02-2.84133E-04-5.65589E-02 9.71212E-14-2.41982E-13
 -1      3704 2.00295E+01-3.74706E-02 2.29974E-04-4.81448E-02 9.55941E-14-2.56712E-13
 -1      3705 2.00343E+01-4.54270E-02-8.61583E-05-5.20197E-02 7.49121E-14-2.60224E-13
 -1      3706 2.00460E+01-5.31788E-02-2.06506E-04-4.80701E-02 1.00888E-13-2.89378E-13
 -1      3707 2.00174E+01-2.08132E-02 1.70617E-04-4.23699E-02 1.16009E-13-1.63207E-13
 -1      3708 2.00218E+01-2.94172E-02-1.19814E-04-4.50000E-02 1.17899E-13-1.90592E-13
 -1      3709 2.00306E+01-3.63692E-02-1.22066E-04-4.13004E-02 6.92407E-14-1.83389E-13
 -1      3710 2.00055E+01-2.37754E-03 8.99001E-05-3.86785E-02 1.79800E-13-1.54118E-13
 -1      3711 2.00101E+01-1.19619E-02-1.55556E-04-4.01016E-02 1.68777E-13-1.58527E-13
 -1      3712 2.00165E+01-1.82055E-02-2.43555E-05-3.61660E-02 1.15585E-13-1.60376E-13
 -1      3713 1.99919E+01 1.89559E-02-2.89408E-05-3.66631E-02 1.71654E-13-1.64552E-13
 -1      3714 1.99977E+01 7.76533E-03-1.96853E-04-3.70369E-02 1.94831E-13-1.60062E-13
 -1      3715 2.00023E+01 1.90078E-03 9.76409E-05-3.22844E-02 1.77692E-13-2.29769E-13
 -1      3716 1.99740E+01 4.49945E-02-2.08925E-04-3.54897E-02 7.68033E-14-1.92366E-13
 -1      3717 1.99825E+01 3.12262E-02-2.39701E-04-3.51804E-02 1.73363E-13-1.48583E-13
 -1      3718 1.99862E+01 2.50946E-02 2.57759E-04-2.88615E-02 1.51282E-13-1.79335E-13
 -1      3719 1.99498E+01 7.63895E-02-4.99944E-04-3.38173E-02 9.50854E-14-1.96034E-13
 -1      3720 1.99623E+01 5.97214E-02-2.98986E-04-3.34553E-02 8.13230E-14-2.16353E-13
 -1      3721 1.99661E+01 5.23327E-02 4.81023E-04-2.46093E-02 9.13405E-14-2.18169E-13
 -1      3722 1.99117E+01 1.19767E-01-9.63844E-04-2.89076E-02 5.24473E-14-1.66915E-13
 -1      3723 1.99327E+01 9.66786E-02-3.41739E-04-2.97248E-02 1.01675E-13-1.56298E-13
 -1      3724 1.99383E+01 8.64634E-02 7.90172E-04-1.71716E-02 6.76922E-14-1.16345E-13
 -1      3725 1.98528E+01 1.78180E-01-1.71956E-03-1.61518E-02 2.01280E-14-1.83724E-13
 -1      3726 1.98867E+01 1.47163E-01-3.80900E-04-2.04521E-02 6.69393E-15-1.78491E-13
 -1      3727 1.98969E+01 1.31507E-01 1.25818E-03-2.23951E-03 4.36942E-14-1.56087E-13
 -1      3728 1.97617E+01 2.56815E-01-2.92473E-03 1.24318E-02 8.24856E-14-3.33116E-13
 -1      3729 1.98160E+01 2.15383E-01-3.35256E-04 5.53302E-04 6.31657E-14-2.44727E-13
 -1      3730 1.98355E+01 1.90134E-01 1.90481E-03 2.68214E-02 5.55209E-14-2.78240E-13
 -1      3731 1.96226E+01 3.60850E-01-4.79712E-03 7.03464E-02-7.36576E-14-1.99526E-13
 -1      3732 1.97083E+01 3.06779E-01-1.12239E-04 4.37505E-02 1.01546E-14-2.69369E-13
 -1      3733 1.97445E+01 2.65590E-01 2.77780E-03 8.10416E-02 7.21198E-16-3.45057E-13
 -1      3734 1.94140E+01 4.93284E-01-7.61817E-03 1.79797E-01-1.71613E-13-2.26442E-13
 -1      3735 1.95467E+01 4.25977E-01 4.76572E-04 1.26413E-01-1.12442E-13-1.79105E-13
 -1      3736 1.96120E+01 3.59280E-01 3.88598E-03 1.77991E-01-1.14379E-13-2.53566E-13
 -1      3737 1.91090E+01 6.50388E-01-1.16773E-02 3.76154E-01-4.15100E-14-2.59332E-13
 -1      3738 1.93096E+01 5.73589E-01 1.75879E-03 2.76272E-01-6.25324E-14-2.58606E-13
 -1      3739 1.94238E+01 4.67465E-01 5.14951E-03 3.44870E-01-9.12525E-14-3.37048E-13
 -1      3740 1.86778E+01 8.13009E-01-1.71099E-02 7.13444E-01-1.98492E-14-4.31960E-13
 -1      3741 1.89726E+01 7.39836E-01 4.28488E-03 5.36252E-01-3.86557E-14-3.46121E-13
 -1      3742 1.91667E+01 5.75077E-01 6.31720E-03 6.22223E-01 5.46144E-14-3.52424E-13
 -1      3743 1.80956E+01 9.31598E-01-2.33577E-02 1.26982E+00-2.76456E-14-4.61273E-13
 -1      3744 1.85134E+01 8.92562E-01 8.83394E-03 9.69597E-01-4.21610E-14-4.76045E-13
 -1      3745 1.88350E+01 6.45286E-01 6.88159E-03 1.06719E+00 1.65571E-14-4.57581E-13
 -1      3746 1.73851E+01 9.03383E-01-2.13395E-02 2.14982E+00 1.49880E-13-4.65384E-13
 -1      3747 1.79233E+01 9.54429E-01 1.54244E-02 1.66383E+00 1.13630E-13-3.90155E-13
 -1      3748 1.84483E+01 6.05807E-01 7.64479E-03 1.75278E+00 1.46433E-14-4.56604E-13
 -1      3749 2.33267E+01-1.69720E+00-1.36967E-02-3.63668E-02-4.27117E-14-3.00628E-13
 -1      3750 2.36285E+01-1.92044E+00 1.69233E-02-5.08794E-01-3.02440E-14-2.95008E-13
 -1      3751 2.35250E+01-1.51811E+00 9.71504E-04 2.86281E-01 1.11927E-13-1.41350E-13
 -1      3752 2.02569E+01 1.38805E+00-1.10670E-03 4.10457E-01 2.39520E-13-3.45839E-13
 -1      3753 2.02331E+01 1.48973E+00-1.01323E-03 3.46473E-01 2.00017E-13-3.83198E-13
 -1      3754 2.37749E+01-2.34882E+00-9.27340E-03-1.21519E+00 9.71020E-14-2.23086E-13
 -1      3755 2.36978E+01-2.49972E+00 1.69547E-02-1.90443E+00 2.39319E-13 6.86155E-14
 -1      3756 2.41848E+01-2.27802E+00 1.66722E-03-8.19974E-01-5.80265E-15-2.73833E-13
 -1      3757 2.03120E+01 1.50111E-01-1.08936E-03-7.61571E-02 4.50345E-14-2.66246E-13
 -1      3758 2.03328E+01 2.26647E-01 1.33895E-03-4.60593E-02 5.18620E-14-2.79663E-13
 -1      3759 2.01286E+01-9.17688E-02 3.07679E-04-1.04464E-01 3.97334E-14-1.70883E-13
 -1      3760 2.01421E+01-9.04300E-02 2.39213E-04-1.10610E-01 2.56628E-14-1.42002E-13
 -1      3761 2.01759E+01-9.31859E-02-5.24005E-04-9.87626E-02 1.50542E-14-2.60803E-13
 -1      3762 2.01409E+01-9.73125E-02-4.84456E-04-8.88426E-02 4.47134E-14-2.03374E-13
 -1      3763 2.03144E+01 9.64297E-01-2.03671E-03 2.50969E-01 1.88917E-13-2.93312E-13
 -1      3764 2.03311E+01 2.18391E-01 1.28555E-03 4.89503E-02-7.45488E-14-2.73501E-13
 -1      3765 2.03103E+01 1.43496E-01-1.04903E-03 7.83683E-02-5.73980E-14-2.25363E-13
 -1      3766 2.03654E+01 2.96547E-01 1.70686E-04 2.27783E-02-5.88275E-14-2.32598E-13
 -1      3767 2.03247E+01 9.84608E-01-2.14079E-03-2.41425E-01-1.14693E-13-3.87498E-13
 -1      3768 2.03410E+01 8.08414E-01 1.86418E-04-1.71382E-01-1.02439E-13-3.66762E-13
 -1      3769 2.03250E+01 1.06854E+00 4.22668E-04-2.03048E-01-8.56491E-14-3.08391E-13
 -1      3770 2.01738E+01-1.87666E+00 4.29766E-04-4.59689E+00 1.42489E-13-2.83978E-13
 -1      3771 2.02066E+01 1.62091E+00-1.54618E-03-1.80482E-01-1.37232E-14-4.25007E-13
 -1      3772 2.02174E+01 1.56499E+00-3.35725E-03-2.63804E-01-4.79961E-14-4.23873E-13
 -1      3773 2.02885E+01 1.32372E+00 3.70377E-03-2.04904E-01-4.68717E-14-3.71987E-13
 -1      3774 2.02810E+01 1.39656E+00 4.82663E-03-1.13822E-01-1.11893E-14-4.13113E-13
 -1      3775 2.00368E+01-1.84670E+00-1.82029E-02 4.38950E+00 8.83607E-14-3.17083E-13
 -1      3776 1.84860E+01-9.16363E-01 1.50819E-02 4.34429E+00 1.15912E-13-3.11758E-13
 -1      3777 2.52938E+01-2.34257E+00-6.03096E-02 1.64899E-01-1.48316E-13-1.59132E-13
 -1      3778 2.46760E+01-2.70388E+00 1.97562E-02 1.26723E+00-8.33274E-14-2.16283E-13
 -1      3779 2.03536E+01 6.68616E-01-4.24513E-04-1.29034E-01-8.75802E-14-3.51125E-13
 -1      3780 2.03512E+01 5.18939E-01-1.23121E-03-5.99041E-02-8.34026E-14-3.25423E-13
 -1      3781 2.03767E+01 5.03172E-01 8.53588E-04-4.16289E-02-5.30492E-14-2.53624E-13
 -1      3782 2.03666E+01 7.41761E-01 1.02503E-03-1.15103E-01-6.02516E-14-2.98814E-13
 -1      3783 2.02970E+01 1.28722E+00 5.19852E-03 2.51712E-01 1.77632E-13-3.69179E-13
 -1      3784 2.03531E+01 8.03613E-01 4.87460E-03 1.75009E-01 1.52582E-13-2.79032E-13
 -1      3785 2.03228E+01 1.01171E+00-3.57599E-03 2.16068E-01 1.69322E-13-3.19838E-13
 -1      3786 2.35431E+01 9.29971E-01 1.22085E-02-1.86085E+00-1.39138E-13-8.44734E-14
 -1      3787 2.44915E+01 3.02486E-01-1.60797E-02-1.82728E+00-1.61147E-13-1.55814E-13
 -1      3788 2.03184E+01 1.14937E+00-3.53588E-03 1.34495E-01 1.36688E-13-3.64551E-13
 -1      3789 2.03161E+01 1.18563E+00-1.98547E-03 7.69398E-02 9.52901E-14-3.41563E-13
 -1      3790 2.02571E+01-3.68543E-02-4.84115E-04-1.05254E-01 2.02337E-15-2.49766E-13
 -1      3791 2.02358E+01-2.78127E-02-1.58851E-04-1.22426E-01 2.00206E-14-2.22561E-13
 -1      3792 2.02563E+01 2.41900E-03 8.21255E-04-1.16220E-01 2.62822E-14-2.21294E-13
 -1      3793 2.47511E+01-1.74102E+00-7.60616E-03-4.01218E-01-1.43033E-13-4.92414E-14
 -1      3794 1.72999E+01-3.24583E-01 1.84382E-03 4.36827E+00 2.24437E-13-3.70126E-13
 -1      3795 1.58582E+01 5.60504E-01 5.81035E-03 3.84349E+00 3.50858E-13-3.34496E-13
 -1      3796 1.65215E+01 7.31314E-01 3.36427E-02 3.32613E+00 2.71375E-13-3.11516E-13
 -1      3797 1.86480E+01-5.42546E-01 4.57158E-02 3.80655E+00 3.83027E-15-4.46056E-13
 -1      3798 2.03361E+01 1.33127E-01-1.26112E-04 7.02313E-02-4.10331E-14-2.04338E-13
 -1      3799 2.71251E+01 3.88804E-01-5.85632E-02 1.69693E+00 8.26179E-14-2.37317E-13
 -1      3800 2.62816E+01 1.42714E+00 2.27373E-04 1.99083E+00 4.88602E-14-4.77431E-14
 -1      3801 2.67856E+01-6.24312E-01-3.01398E-02 1.15682E+00 1.23627E-13-1.96759E-13
 -1      3802 2.22966E+01 2.34996E+00-2.63243E-02-1.31612E+00-1.35293E-13-1.39542E-13
 -1      3803 2.21907E+01 2.80152E+00-9.65887E-04-9.54654E-01-1.74956E-14-1.64006E-13
 -1      3804 2.38618E+01 3.25502E+00-7.14021E-03 1.45874E+00 9.43638E-14 3.48700E-13
 -1      3805 2.26349E+01 2.16672E+00 1.40601E-02 1.46563E+00 7.11046E-14 1.26969E-13
 -1      3806 2.03482E+01 6.27998E-01-2.31105E-03 1.00606E-01 1.22268E-13-2.76239E-13
 -1      3807 2.27683E+01 1.54517E+00-1.74205E-02 1.65325E+00 2.65877E-13 1.31119E-13
 -1      3808 2.40289E+01-3.83486E-01-9.34052E-03-1.46662E+00-5.95964E-15-2.32366E-14
 -1      3809 2.03669E+01 3.06373E-01 3.28357E-04-1.95800E-02 7.29570E-14-3.01948E-13
 -1      3810 2.03397E+01 3.17056E-01-2.03281E-03-1.61328E-02 7.90444E-14-2.75900E-13
 -1      3811 2.03577E+01 4.29409E-01 1.93587E-03 3.30924E-02 1.01527E-13-2.53890E-13
 -1      3812 2.34795E+01 1.35038E+00 1.19920E-02 1.78989E+00 2.82910E-13 2.25757E-13
 -1      3813 2.33173E+01 2.32358E+00-1.00475E-02-1.61515E+00-1.71382E-13-1.12325E-13
 -1      3814 2.02971E+01 9.02238E-02 1.09803E-03-9.29125E-02 3.69119E-14-2.52038E-13
 -1      3815 2.03382E+01 1.40345E-01-9.55918E-05-6.83603E-02 4.32242E-14-3.24633E-13
 -1      3816 2.02756E+01 4.08924E-02-5.54112E-04-1.08778E-01 3.16372E-14-2.39443E-13
 -1      3817 2.35735E+01-2.81473E+00-5.74026E-03-2.62372E+00 3.87942E-13 1.91739E-13
 -1      3818 2.28771E+01-2.75350E+00 1.12433E-02-3.43052E+00 4.59357E-13-9.17909E-14
 -1      3819 2.48352E+01 3.13006E+00-6.25906E-02 1.79337E+00 1.77853E-13 2.31952E-13
 -1      3820 2.40516E+01-2.81864E+00-1.50537E-02 1.79105E+00-1.10454E-13-2.61441E-13
 -1      3821 2.31407E+01-2.52925E+00 6.48416E-03 2.20352E+00-1.29865E-13-2.61507E-13
 -1      3822 2.40180E+01-2.33761E+00 5.90009E-03 8.70525E-01-1.54494E-13-2.21090E-13
 -1      3823 1.67108E+01 8.24069E-01-7.36512E-03 2.89113E+00 1.21159E-13-3.11317E-13
 -1      3824 1.72306E+01 8.91419E-01 1.89869E-02 2.49166E+00 5.18744E-14-4.76070E-13
 -1      3825 1.80590E+01 4.26648E-01-4.82781E-04 2.53495E+00 1.15864E-13-4.64360E-13
 -1      3826 1.76484E+01 1.88187E-01 4.45746E-04 3.33626E+00 4.54385E-14-4.78056E-13
 -1      3827 2.38811E+01-3.47319E+00 1.95675E-02-3.71435E+00 4.90135E-13 7.23020E-14
 -1      3828 2.46136E+01-3.52344E+00-4.65273E-02-2.91041E+00 3.44395E-13 8.15580E-15
 -1      3829 1.61630E+01 6.01340E-01 9.22949E-02-3.97209E+00 7.67663E-14-1.21472E-13
 -1      3830 2.67748E+01-3.08108E+00-1.29421E-02-1.15320E+00-9.95697E-14-3.80942E-13
 -1      3831 2.66602E+01-2.23714E+00-8.82842E-03-1.46894E-01-2.64185E-14-4.09499E-13
 -1      3832 2.56256E+01-3.23227E+00 5.96423E-03-1.88906E+00 1.08323E-13-2.74831E-13
 -1      3833 2.27625E+01 3.37287E+00 1.80074E-03-7.26105E-01-7.33337E-14 2.66592E-14
 -1      3834 2.03231E+01 1.08195E+00-1.00624E-03 1.73848E-01 1.43020E-13-3.77952E-13
 -1      3835 2.34343E+01 3.99002E+00-2.53777E-02-6.85462E-01-4.26482E-14 1.22381E-13
 -1      3836 2.37896E+01 3.35149E+00-8.90952E-03-1.57030E+00-9.76328E-14-1.50904E-14
 -1      3837 2.12409E+01-1.95985E+00 3.10292E-02 3.54004E+00 9.62112E-14-4.83517E-14
 -1      3838 2.24335E+01-2.98901E+00 1.09735E-03-4.27173E+00 3.64450E-13-1.37440E-13
 -1      3839 2.03154E+01 1.19996E+00-2.29634E-03 3.14090E-02 7.35004E-14-3.60004E-13
 -1      3840 2.03151E+01 1.20015E+00-2.24639E-03-2.90056E-02 3.53740E-14-4.01264E-13
 -1      3841 2.03688E+01 1.00039E+00 4.36955E-03 4.02113E-02 8.09240E-14-3.41199E-13
 -1      3842 2.42725E+01-2.92975E+00 7.33550E-03-2.21367E+00 2.17443E-13-2.42696E-14
 -1      3843 2.03721E+01 1.78310E-01 6.68294E-04 4.62455E-02-5.18907E-14-2.20993E-13
 -1      3844 2.03527E+01 1.08511E-01-6.94543E-04 6.47208E-02-2.01475E-14-2.37025E-13
 -1      3845 2.02912E+01-2.59028E-02 5.12275E-04 8.42941E-02-4.67554E-14-2.33844E-13
 -1      3846 2.02688E+01-5.23728E-02-2.10800E-05 8.72503E-02-4.49588E-14-2.15277E-13
 -1      3847 2.02460E+01-7.15321E-02 4.02381E-04 8.62247E-02-4.38786E-14-1.98233E-13
 -1      3848 2.02250E+01-8.51957E-02 1.55866E-04 8.50912E-02-3.10176E-14-1.71996E-13
 -1      3849 2.02768E+01-6.16044E-02-5.05163E-04 6.72595E-02-3.55338E-14-2.14870E-13
 -1      3850 2.02029E+01-9.39240E-02 3.03593E-04 8.19968E-02-6.21263E-14-1.59897E-13
 -1      3851 2.01840E+01-9.88774E-02 2.55552E-04 7.84754E-02-8.02738E-14-1.69444E-13
 -1      3852 2.02311E+01-9.19979E-02-5.53279E-04 6.51842E-02-4.19584E-14-1.69166E-13
 -1      3853 2.01636E+01-1.00646E-01 2.19516E-04 7.43506E-02-4.22162E-14-1.39819E-13
 -1      3854 2.01472E+01-9.99036E-02 3.00657E-04 6.96640E-02-3.18820E-14-1.21369E-13
 -1      3855 2.01886E+01-1.03698E-01-5.44432E-04 5.98644E-02-1.78627E-14-1.15545E-13
 -1      3856 2.01292E+01-9.72303E-02 1.49666E-04 6.52331E-02-9.14680E-14-1.25484E-13
 -1      3857 2.01152E+01-9.29534E-02 3.10047E-04 6.02265E-02-1.16236E-13-1.31170E-13
 -1      3858 2.01505E+01-1.03096E-01-5.00748E-04 5.29905E-02-7.40126E-14-1.21561E-13
 -1      3859 2.00995E+01-8.76202E-02 9.18721E-05 5.59789E-02-1.20436E-13-1.33174E-13
 -1      3860 2.00878E+01-8.13180E-02 2.98589E-04 5.12188E-02-1.52919E-13-1.12635E-13
 -1      3861 2.01174E+01-9.47930E-02-4.37932E-04 4.57435E-02-1.06234E-13-1.19529E-13
 -1      3862 2.00745E+01-7.45563E-02 4.33398E-05 4.74825E-02-1.68058E-13-1.55142E-13
 -1      3863 2.00648E+01-6.72603E-02 2.77903E-04 4.33435E-02-1.29666E-13-1.55495E-13
 -1      3864 2.00891E+01-8.20139E-02-3.67103E-04 3.89342E-02-1.47883E-13-1.14086E-13
 -1      3865 2.00535E+01-5.99095E-02 1.20919E-06 4.03505E-02-9.21700E-14-1.08697E-13
 -1      3866 2.00456E+01-5.23217E-02 2.57607E-04 3.70882E-02-8.87450E-14-6.75030E-14
 -1      3867 2.00652E+01-6.69625E-02-2.96230E-04 3.31324E-02-9.41451E-14-9.23684E-14
 -1      3868 2.00360E+01-4.49674E-02-3.70042E-05 3.50336E-02-2.54772E-14 6.56700E-15
 -1      3869 2.00296E+01-3.75917E-02 2.46541E-04 3.28466E-02 7.93183E-14-1.83636E-14
 -1      3870 2.00451E+01-5.11308E-02-2.31523E-04 2.87862E-02-2.53806E-15 1.24733E-14
 -1      3871 2.00214E+01-3.06908E-02-7.30607E-05 3.19448E-02 1.06269E-13 5.23463E-14
 -1      3872 2.00163E+01-2.39563E-02 2.54095E-04 3.10281E-02 1.23362E-13 9.82478E-14
 -1      3873 2.00282E+01-3.55709E-02-1.78980E-04 2.63353E-02 1.40932E-13 1.60951E-13
 -1      3874 2.00093E+01-1.79602E-02-1.07410E-04 3.15701E-02 7.39661E-14 8.05393E-14
 -1      3875 2.00055E+01-1.23472E-02 2.91305E-04 3.21628E-02 4.35692E-14 6.31692E-14
 -1      3876 2.00138E+01-2.11490E-02-1.46004E-04 2.63265E-02 7.82141E-14 1.61282E-13
 -1      3877 1.99997E+01-7.82963E-03-1.38316E-04 3.45735E-02 9.95322E-15 8.31813E-14
 -1      3878 1.99976E+01-4.00451E-03 3.72072E-04 3.70020E-02 1.64619E-14 8.85503E-14
 -1      3879 2.00018E+01-8.80205E-03-1.43207E-04 2.95351E-02 2.10705E-14 1.03400E-13
 -1      3880 1.99932E+01-1.81417E-03-1.59149E-04 4.19084E-02-1.56780E-14 1.44277E-14
 -1      3881 1.99937E+01-7.99808E-04 5.13024E-04 4.66134E-02-4.09353E-14-4.52691E-14
 -1      3882 1.99923E+01 1.71961E-04-1.90165E-04 3.71068E-02-1.96464E-14 1.13401E-13
 -1      3883 1.99914E+01-2.22840E-03-1.55832E-04 5.48882E-02 2.58238E-15-6.59753E-14
 -1      3884 1.99958E+01-5.58807E-03 7.33511E-04 6.24294E-02 1.43203E-14-7.01256E-14
 -1      3885 1.99863E+01 3.77531E-03-3.12876E-04 5.06898E-02-3.13903E-14 9.59784E-14
 -1      3886 1.99972E+01-1.25725E-02-1.00154E-04 7.52203E-02 3.89636E-14-4.14593E-14
 -1      3887 2.00081E+01-2.26385E-02 1.05036E-03 8.62166E-02 1.44820E-14-1.95928E-14
 -1      3888 1.99861E+01-1.10854E-03-5.53835E-04 7.25463E-02 2.81222E-14 4.32106E-14
 -1      3889 2.00159E+01-3.79725E-02 5.82977E-05 1.04878E-01 1.50435E-14 1.02757E-13
 -1      3890 2.00369E+01-5.80727E-02 1.46924E-03 1.19831E-01 1.24772E-13 9.25989E-14
 -1      3891 1.99958E+01-1.92312E-02-9.75112E-04 1.05566E-01 9.50207E-14 7.98302E-14
 -1      3892 2.00559E+01-8.55789E-02 4.04222E-04 1.45680E-01 3.80588E-14-6.30982E-14
 -1      3893 2.00923E+01-1.20199E-01 1.96607E-03 1.64584E-01 1.42244E-14-5.04533E-14
 -1      3894 2.00223E+01-5.75492E-02-1.66302E-03 1.53025E-01-6.64487E-16 5.84015E-14
 -1      3895 2.01297E+01-1.64746E-01 1.06908E-03 1.98320E-01 6.19576E-14-6.50882E-14
 -1      3896 2.01887E+01-2.19456E-01 2.45607E-03 2.19939E-01 1.48636E-13-2.40516E-14
 -1      3897 2.00769E+01-1.25732E-01-2.72885E-03 2.17854E-01 6.68212E-14-7.35798E-14
 -1      3898 2.02553E+01-2.86577E-01 2.23792E-03 2.60496E-01 1.71401E-13 1.56303E-14
 -1      3899 2.03459E+01-3.67382E-01 2.75604E-03 2.81170E-01 1.79131E-13 7.91005E-14
 -1      3900 2.01764E+01-2.36275E-01-4.29556E-03 3.00994E-01 2.03072E-13 4.61950E-14
 -1      3901 2.04566E+01-4.62069E-01 4.13827E-03 3.23794E-01 1.64125E-13 9.55692E-14
 -1      3902 2.05885E+01-5.73592E-01 2.56358E-03 3.35709E-01 2.11302E-13 1.12226E-13
 -1      3903 2.03448E+01-4.03438E-01-6.43861E-03 3.98338E-01 2.21387E-13 2.19799E-14
 -1      3904 2.07626E+01-6.97586E-01 7.01104E-03 3.68943E-01 1.20342E-13-5.00788E-15
 -1      3905 2.09436E+01-8.39247E-01 1.30760E-03 3.58261E-01 3.45870E-14 3.57448E-14
 -1      3906 2.06144E+01-6.39826E-01-8.97371E-03 4.95864E-01 1.12083E-13 9.59736E-15
 -1      3907 2.12003E+01-9.84332E-01 1.03376E-02 3.59474E-01 2.06573E-14-3.93632E-14
 -1      3908 2.14311E+01-1.14083E+00-1.64092E-03 3.06033E-01-1.02176E-14 2.37421E-14
 -1      3909 2.10231E+01-9.46378E-01-1.12728E-02 5.60282E-01 4.00952E-14-1.52903E-13
 -1      3910 2.17844E+01-1.28242E+00 1.38660E-02 2.43432E-01-1.51048E-14 1.10995E-13
 -1      3911 2.20525E+01-1.41663E+00-6.22978E-03 1.22260E-01-3.74650E-14 5.55705E-14
 -1      3912 2.16009E+01-1.30065E+00-1.46385E-02 5.37113E-01 4.91083E-14-1.15128E-13
 -1      3913 2.24934E+01-1.49655E+00 1.59572E-02-4.86930E-02-1.72307E-13 1.18360E-13
 -1      3914 2.27640E+01-1.52510E+00-1.03197E-02-2.56446E-01-2.31357E-13-1.41600E-14
 -1      3915 2.23605E+01-1.62445E+00-1.74619E-02 3.43566E-01-1.11008E-13-2.78495E-14
 -1      3916 2.39585E+01-9.06765E-01 1.71534E-03-1.22592E+00-1.48703E-14-8.46726E-14
 -1      3917 2.03671E+01 9.16873E-01 3.86443E-03 1.12127E-01 1.20166E-13-3.42816E-13
 -1      3918 2.33425E+01 4.00035E+00-2.91602E-02 3.28341E-01-3.44464E-14 2.73387E-13
 -1      3919 2.03806E+01 7.17001E-01-1.25983E-03 9.13503E-02 1.18405E-13-3.34140E-13
 -1      3920 2.03840E+01 7.88294E-01-2.79695E-04 6.67523E-02 9.83090E-14-3.17617E-13
 -1      3921 2.03722E+01 6.09767E-01-1.30848E-04 7.48803E-02 1.21901E-13-2.97724E-13
 -1      3922 2.38157E+01-9.36124E-01 4.26761E-03 1.02209E+00 2.33653E-13-2.48423E-14
 -1      3923 2.37066E+01-1.28893E+00-1.82191E-02 6.84436E-01 2.15258E-13-3.86986E-14
 -1      3924 2.42201E+01-1.63914E+00 5.32753E-03 2.91159E-01 1.69579E-13-2.02079E-13
 -1      3925 2.02286E+01-8.37745E-02 1.51078E-04-8.57711E-02-1.31326E-14-2.78109E-13
 -1      3926 2.02498E+01-6.92632E-02 4.23340E-04-8.66217E-02 1.13961E-14-2.80013E-13
 -1      3927 2.00681E+01-6.77873E-02 2.62934E-04-4.48827E-02 8.53873E-14-1.70637E-13
 -1      3928 2.00778E+01-7.54194E-02 5.36186E-05-4.90532E-02 1.06479E-13-1.95644E-13
 -1      3929 2.00484E+01-5.14883E-02 2.13387E-04-3.81758E-02 1.07257E-13-2.02175E-13
 -1      3930 2.00567E+01-5.98702E-02 1.38707E-05-4.16376E-02 1.13953E-13-1.88379E-13
 -1      3931 2.00682E+01-6.73075E-02-2.85932E-04-3.44359E-02 1.27111E-13-1.49982E-13
 -1      3932 2.00313E+01-3.40223E-02 1.48089E-04-3.27424E-02 1.71851E-14-1.21846E-13
 -1      3933 2.00386E+01-4.29496E-02-1.86821E-05-3.54705E-02 6.80517E-14-1.96437E-13
 -1      3934 2.00476E+01-5.00276E-02-2.00686E-04-2.92072E-02 6.12899E-14-1.50588E-13
 -1      3935 2.00154E+01-1.53655E-02 6.03320E-05-2.83244E-02 1.55725E-13-1.55775E-13
 -1      3936 2.00224E+01-2.49055E-02-4.43815E-05-3.04381E-02 6.97974E-14-1.44348E-13
 -1      3937 2.00295E+01-3.16471E-02-1.09158E-04-2.46756E-02 4.50301E-14-1.37706E-13
 -1      3938 1.99992E+01 5.00300E-03-6.27214E-05-2.43110E-02 1.77947E-13-1.51652E-13
 -1      3939 2.00068E+01-5.45509E-03-6.14404E-05-2.61115E-02 2.18160E-13-1.43148E-13
 -1      3940 2.00125E+01-1.21547E-02-7.00325E-06-2.03812E-02 1.58998E-13-1.25038E-13
 -1      3941 1.99807E+01 2.80887E-02-2.33367E-04-1.95647E-02 1.37064E-13-1.37447E-13
 -1      3942 1.99901E+01 1.61709E-02-6.21097E-05-2.16380E-02 1.33097E-13-1.27242E-13
 -1      3943 1.99953E+01 8.89844E-03 1.12428E-04-1.54217E-02 1.51775E-13-7.28299E-14
 -1      3944 1.99586E+01 5.37781E-02-5.00979E-04-1.26588E-02 5.98062E-14-1.39114E-13
 -1      3945 1.99708E+01 4.04943E-02-4.68739E-05-1.57236E-02 1.39847E-13-1.48613E-13
 -1      3946 1.99765E+01 3.16336E-02 2.46307E-04-8.48730E-03 1.43100E-13-7.34603E-14
 -1      3947 1.99273E+01 8.64934E-02-9.15605E-04 1.88483E-04 7.67386E-14-1.32834E-13
 -1      3948 1.99457E+01 6.95695E-02 2.70890E-05-5.86204E-03 5.44289E-14-1.40956E-13
 -1      3949 1.99535E+01 5.76565E-02 4.30174E-04 2.94571E-03 6.87061E-14-7.35412E-14
 -1      3950 1.98831E+01 1.27081E-01-1.53478E-03 2.38487E-02 3.47768E-14-1.84487E-13
 -1      3951 1.99104E+01 1.06205E-01 1.70345E-04 1.22155E-02 8.28696E-14-1.18653E-13
 -1      3952 1.99229E+01 8.87216E-02 6.64186E-04 2.32599E-02 5.25591E-14-1.63740E-13
 -1      3953 1.98198E+01 1.77319E-01-2.45644E-03 6.65181E-02 6.49550E-14-2.51846E-13
 -1      3954 1.98607E+01 1.51814E-01 4.69650E-04 4.48404E-02 5.86556E-14-2.21190E-13
 -1      3955 1.98817E+01 1.25028E-01 9.39174E-04 5.86132E-02 6.29634E-14-2.09165E-13
 -1      3956 1.97301E+01 2.37826E-01-3.78234E-03 1.41051E-01-5.62049E-14-1.66175E-13
 -1      3957 1.97906E+01 2.07844E-01 1.03223E-03 1.02212E-01 3.26323E-14-2.21030E-13
 -1      3958 1.98262E+01 1.66302E-01 1.23446E-03 1.18780E-01 3.18816E-14-1.97404E-13
 -1      3959 1.96059E+01 3.05994E-01-5.60358E-03 2.67023E-01-1.42126E-13-1.75786E-13
 -1      3960 1.96934E+01 2.73728E-01 2.04092E-03 1.99979E-01-1.28821E-13-1.50133E-13
 -1      3961 1.97528E+01 2.09678E-01 1.47306E-03 2.18342E-01-8.00001E-14-1.61379E-13
 -1      3962 1.94406E+01 3.72229E-01-7.93553E-03 4.73194E-01-2.36538E-14-2.69823E-13
 -1      3963 1.95632E+01 3.44079E-01 3.77864E-03 3.61392E-01-8.00607E-14-2.68041E-13
 -1      3964 1.96601E+01 2.47000E-01 1.47084E-03 3.78256E-01-5.76573E-14-1.63990E-13
 -1      3965 1.92349E+01 4.13550E-01-1.05477E-02 7.99796E-01 1.03271E-13-3.09430E-13
 -1      3966 1.93985E+01 4.03654E-01 6.65013E-03 6.19568E-01 8.91747E-14-2.93872E-13
 -1      3967 1.95527E+01 2.60264E-01 8.46325E-04 6.27119E-01 4.36994E-14-2.76854E-13
 -1      3968 1.90066E+01 3.84103E-01-1.26826E-02 1.29894E+00-8.23560E-16-3.55058E-13
 -1      3969 1.92095E+01 4.19052E-01 1.11017E-02 1.01882E+00 9.04917E-14-2.90896E-13
 -1      3970 1.94483E+01 2.14915E-01-1.03151E-03 1.00098E+00 8.01729E-14-2.96344E-13
 -1      3971 1.88262E+01 1.97798E-01-1.06452E-02 2.02585E+00 1.04542E-13-4.98667E-13
 -1      3972 1.90296E+01 3.22502E-01 1.52894E-02 1.61225E+00 2.26630E-14-4.06857E-13
 -1      3973 1.93925E+01 5.52072E-02-3.60236E-03 1.53664E+00 1.13660E-13-3.03619E-13
 -1      3974 2.39291E+01-4.70059E-01-6.73266E-03 1.28316E+00 1.61990E-13 7.19056E-14
 -1      3975 2.00912E+01-8.23722E-02 2.97898E-04-5.28415E-02 9.92058E-14-1.70561E-13
 -1      3976 2.01029E+01-8.87198E-02 1.02177E-04-5.75526E-02 7.51729E-14-1.51114E-13
 -1      3977 2.00923E+01-8.29645E-02-3.66344E-04-4.05032E-02 1.12282E-13-1.66986E-13
 -1      3978 2.03932E+01 3.66545E-01 2.76323E-04 3.19571E-04-5.89033E-14-2.36436E-13
 -1      3979 2.03816E+01 2.63470E-01-9.85752E-04 3.10090E-02-7.39879E-14-2.22492E-13
 -1      3980 2.03967E+01 2.41486E-01 2.33447E-04 2.72701E-02-5.66843E-14-2.44560E-13
 -1      3981 2.03211E+01 1.10616E+00-2.71514E-03-1.77397E-01-6.53006E-14-3.00509E-13
 -1      3982 2.03570E+01 9.22602E-01 1.56626E-03-1.32018E-01-7.37146E-14-2.68716E-13
 -1      3983 2.03195E+01 1.15274E+00-8.72958E-04-1.38097E-01-2.54031E-14-3.45147E-13
 -1      3984 2.33536E+01 4.15734E+00-5.14370E-02-9.32515E-02-1.69101E-14 7.96342E-14
 -1      3985 2.19705E+01-2.24361E+00-2.87288E-02 2.88246E+00 4.54671E-15-1.09910E-13
 -1      3986 2.05805E+01-1.46479E+00 6.45948E-03 3.19871E+00 1.87582E-14-1.33184E-13
 -1      3987 2.03351E+01 5.30521E-02 6.23058E-04 7.25269E-02-4.27010E-14-2.15413E-13
 -1      3988 2.03129E+01 8.35330E-03-2.99751E-04 8.18283E-02-6.72488E-14-2.28261E-13
 -1      3989 2.03229E+01-3.88942E-03-3.71525E-04 6.37592E-02-5.44591E-14-2.24607E-13
 -1      3990 2.33834E+01-1.30496E+00-1.45610E-02-7.75896E-01-1.21089E-13-1.16378E-13
 -1      3991 2.41639E+01-1.42246E+00-1.57984E-02-7.30730E-01-1.04270E-13 1.25211E-13
 -1      3992 2.41488E+01-1.97452E+00 2.93945E-02 4.90329E-02-2.04480E-13 8.72974E-14
 -1      3993 2.31840E+01-1.45751E+00 1.78399E-02-5.14466E-01-1.83468E-13-6.55323E-14
 -1      3994 2.48854E+01 1.36337E+00-2.31908E-02 1.82364E+00 1.07097E-13 1.50651E-13
 -1      3995 2.47106E+01 3.95091E-01-8.26998E-03 1.76430E+00 9.42931E-14-1.50487E-14
 -1      3996 2.01186E+01-9.39980E-02 3.14659E-04-6.17556E-02-3.55324E-16-1.95147E-13
 -1      3997 2.01326E+01-9.81081E-02 1.61910E-04-6.66680E-02-2.70302E-15-1.96196E-13
 -1      3998 2.01207E+01-9.58000E-02-4.40172E-04-4.72782E-02 2.80749E-14-1.71767E-13
 -1      3999 2.13130E+01-2.28899E+00 3.61736E-02-4.32244E+00 2.39540E-13-4.00574E-13
 -1      4000 2.02995E+01 3.11383E-02-3.35117E-04-9.47059E-02-2.06171E-15-3.28962E-13
 -1      4001 1.95094E+01-9.76448E-01-3.17135E-02 3.41706E+00 3.88951E-14-3.35825E-13
 -1      4002 1.84972E+01-3.22807E-01 3.11980E-03 3.41189E+00 9.13035E-14-4.46981E-13
 -1      4003 1.87231E+01-1.22915E-01 2.84081E-02 2.97564E+00 1.05192E-13-4.35475E-13
 -1      4004 2.65631E+01-1.58542E+00-3.14976E-02 6.26609E-01 1.39123E-13-2.40887E-13
 -1      4005 2.60508E+01-6.94403E-01-2.52769E-02 1.18882E+00 1.77787E-13-1.47814E-13
 -1      4006 2.59242E+01-2.13931E+00-8.97867E-03-6.64646E-02 1.70437E-13-3.94683E-13
 -1      4007 2.01506E+01-1.00534E-01 3.04986E-04-7.10031E-02 3.29542E-14-1.87291E-13
 -1      4008 2.01672E+01-1.00916E-01 2.34898E-04-7.55534E-02 3.94977E-14-1.98662E-13
 -1      4009 2.01539E+01-1.03743E-01-5.01815E-04-5.43481E-02 4.42708E-14-1.93039E-13
 -1      4010 2.25178E+01-2.08697E+00 2.08779E-02 2.03538E+00-5.94212E-14-3.14933E-13
 -1      4011 2.31914E+01-1.73991E+00-1.35897E-02-5.13687E-02-2.32932E-13 1.62313E-13
 -1      4012 2.03876E+01 5.04516E-01-1.29767E-03 2.87710E-02 9.37652E-14-3.19572E-13
 -1      4013 2.05127E+01-1.15875E+00 3.22770E-02 2.84851E+00 1.91225E-14-1.09527E-13
 -1      4014 2.03802E+01 2.72849E-01-1.50096E-03-2.83416E-02 5.46225E-14-2.97479E-13
 -1      4015 2.03946E+01 3.79075E-01 1.34757E-03 3.95049E-03 6.77374E-14-3.01455E-13
 -1      4016 2.04034E+01 4.73285E-01-6.13243E-04 1.67031E-02 7.88871E-14-3.10554E-13
 -1      4017 2.02065E+01-9.31760E-02 3.23298E-04-8.28670E-02-2.16246E-14-2.78843E-13
 -1      4018 2.02348E+01-9.06866E-02-5.44218E-04-6.59370E-02-3.66885E-14-2.73286E-13
 -1      4019 2.01875E+01-9.87070E-02 2.56158E-04-7.95419E-02 5.94457E-15-2.69196E-13
 -1      4020 2.02722E+01-4.94183E-02-2.61447E-05-8.73940E-02-1.98580E-14-2.98264E-13
 -1      4021 2.02943E+01-2.22441E-02 5.38577E-04-8.40899E-02-3.62583E-14-3.35000E-13
 -1      4022 2.02802E+01-5.88303E-02-4.93023E-04-6.75696E-02-2.07826E-14-3.68534E-13
 -1      4023 2.46627E+01-2.00065E+00-2.17093E-02-4.28989E-02-4.49829E-14-1.90454E-13
 -1      4024 2.49703E+01-2.40689E+00 4.59342E-03-7.34290E-01 3.25981E-14-2.77649E-13
 -1      4025 2.03651E+01 9.24527E-02-1.21070E-04 5.16207E-02-5.53133E-14-2.21243E-13
 -1      4026 2.04138E+01 6.39608E-01 3.40983E-03 3.44084E-02 7.31259E-14-3.06673E-13
 -1      4027 2.03862E+01 8.06369E-01-2.52541E-03 4.45498E-02 8.02445E-14-3.15590E-13
 -1      4028 2.03877E+01 8.20594E-01-2.02069E-03 1.23973E-02 5.28817E-14-3.39279E-13
 -1      4029 2.48286E+01 2.29423E+00-3.30100E-02 1.94842E+00 1.27121E-13 8.12198E-14
 -1      4030 2.36201E+01-2.07318E+00-7.87962E-04 4.92145E-01-1.55324E-13-2.77525E-14
 -1      4031 2.03927E+01 4.60171E-01-6.12493E-04-1.70893E-02-2.15661E-14-2.29896E-13
 -1      4032 2.04094E+01 4.29721E-01 9.15752E-04-7.14895E-03-3.12171E-14-2.45421E-13
 -1      4033 2.03934E+01 5.65290E-01-2.64508E-04-4.89336E-02-1.23852E-14-2.52613E-13
 -1      4034 2.03728E+01 7.96422E-01-8.00443E-04-1.07197E-01-6.78176E-14-2.60817E-13
 -1      4035 2.03845E+01 6.64302E-01-2.45432E-04-6.82716E-02-3.57355E-14-2.67601E-13
 -1      4036 2.04012E+01 6.24842E-01 8.52748E-04-4.34323E-02-3.26557E-14-2.59763E-13
 -1      4037 2.03759E+01 8.37571E-01-1.30894E-04-8.69520E-02-4.43825E-14-2.87066E-13
 -1      4038 2.03144E+01 1.19580E+00-2.01313E-03-6.29716E-02 7.25029E-15-3.96678E-13
 -1      4039 2.03172E+01 1.16978E+00-2.60019E-03-1.06624E-01-1.50495E-15-3.80277E-13
 -1      4040 2.03634E+01 9.84315E-01 2.97187E-03-8.43464E-02-6.53902E-15-3.29509E-13
 -1      4041 2.03694E+01 1.00739E+00 4.41142E-03-2.67842E-02 3.64273E-14-3.70655E-13
 -1      4042 2.51456E+01-3.10401E+00 1.18635E-03-1.95985E+00 2.28465E-13-2.24858E-13
 -1      4043 2.49247E+01-1.59757E+00 1.12070E-02 4.22511E-01 1.66226E-13-5.92536E-14
 -1      4044 2.50589E+01-2.84882E+00-4.40131E-02-1.28554E+00 2.47857E-14-4.25421E-13
 -1      4045 1.86562E+01 1.51373E-02-1.48229E-03 2.64337E+00 5.39775E-14-4.30371E-13
 -1      4046 1.88620E+01 1.33406E-01 2.07624E-02 2.29829E+00 6.03225E-14-4.38076E-13
 -1      4047 1.93811E+01-2.14760E-01-1.79919E-02 2.12147E+00 1.66408E-14-4.93478E-13
 -1      4048 1.94002E+01-5.12262E-01-2.13426E-02 2.71319E+00 6.04276E-14-2.67932E-13
 -1      4049 2.03725E+01 1.88341E-01 9.93558E-04-4.55425E-02 6.56303E-14-3.00037E-13
 -1      4050 2.03948E+01 2.54948E-01 4.82000E-04-2.64745E-02 5.63817E-14-2.59245E-13
 -1      4051 2.03532E+01 1.16705E-01-8.60072E-04-6.43072E-02 3.03237E-14-3.19897E-13
 -1      4052 2.02555E+01-8.80869E-02 2.66030E-04 4.55053E-02-4.49288E-14-1.94009E-13
 -1      4053 2.02333E+01-9.80492E-02 3.36618E-04 4.48162E-02-3.43487E-14-1.81433E-13
 -1      4054 2.02104E+01-1.04077E-01 2.49301E-04 4.25074E-02-1.48204E-14-1.94422E-13
 -1      4055 2.01901E+01-1.06350E-01 3.44833E-04 4.04934E-02-9.46707E-15-1.46813E-13
 -1      4056 2.02289E+01-1.03471E-01-7.90282E-04 2.39096E-02-2.67793E-14-1.99300E-13
 -1      4057 2.01693E+01-1.06097E-01 2.19016E-04 3.80514E-02-3.13665E-14-1.81605E-13
 -1      4058 2.01515E+01-1.03426E-01 3.28814E-04 3.54103E-02-8.06446E-14-1.68414E-13
 -1      4059 2.01858E+01-1.09179E-01-7.12284E-04 2.15151E-02-3.88134E-14-2.23124E-13
 -1      4060 2.01332E+01-9.92346E-02 1.80977E-04 3.30779E-02-1.22289E-13-1.89748E-13
 -1      4061 2.01178E+01-9.35641E-02 2.99486E-04 3.03011E-02-1.09641E-13-1.90594E-13
 -1      4062 2.01474E+01-1.04381E-01-6.15843E-04 1.87402E-02-9.61346E-14-2.68906E-13
 -1      4063 2.01021E+01-8.70684E-02 1.39031E-04 2.82500E-02-7.97968E-14-1.70030E-13
 -1      4064 2.00891E+01-7.97337E-02 2.66138E-04 2.56854E-02-1.02828E-13-1.24062E-13
 -1      4065 2.01141E+01-9.31511E-02-5.13533E-04 1.60037E-02-6.15860E-14-3.02287E-13
 -1      4066 2.00757E+01-7.20426E-02 9.42743E-05 2.40512E-02-9.01114E-14-3.00363E-14
 -1      4067 2.00648E+01-6.39317E-02 2.36459E-04 2.19621E-02-5.92331E-15 3.82253E-14
 -1      4068 2.00856E+01-7.82913E-02-4.14563E-04 1.36323E-02-3.46049E-15-9.28967E-14
 -1      4069 2.00534E+01-5.57802E-02 4.65450E-05 2.08855E-02 3.25759E-14 9.36932E-14
 -1      4070 2.00442E+01-4.74748E-02 2.17864E-04 1.95060E-02 9.96283E-14 1.88830E-13
 -1      4071 2.00614E+01-6.16592E-02-3.25927E-04 1.19340E-02 8.58734E-14 1.51849E-13
 -1      4072 2.00343E+01-3.93567E-02-5.50031E-06 1.91777E-02 1.18703E-13 2.28777E-13
 -1      4073 2.00266E+01-3.12566E-02 2.18798E-04 1.87698E-02 1.98717E-13 2.50718E-13
 -1      4074 2.00408E+01-4.44537E-02-2.54210E-04 1.12784E-02 1.44689E-13 1.65094E-13
 -1      4075 2.00178E+01-2.35461E-02-6.40047E-05 1.94849E-02 1.04763E-13 1.56378E-13
 -1      4076 2.00115E+01-1.59847E-02 2.51234E-04 2.04000E-02-1.13114E-14 1.05294E-13
 -1      4077 2.00228E+01-2.74656E-02-2.07384E-04 1.21965E-02 8.85847E-14 1.40003E-14
 -1      4078 2.00035E+01-9.06776E-03-1.34115E-04 2.26312E-02-6.39425E-15 1.39622E-13
 -1      4079 1.99985E+01-2.43577E-03 3.27702E-04 2.53720E-02 3.35119E-14 7.50247E-14
 -1      4080 2.00068E+01-1.13025E-02-1.93355E-04 1.55137E-02 3.84856E-14-1.50444E-14
 -1      4081 1.99910E+01 3.19843E-03-2.12066E-04 2.98622E-02-2.94200E-14 1.24371E-13
 -1      4082 1.99877E+01 8.29820E-03 4.74309E-04 3.51921E-02-5.28535E-14 1.19080E-13
 -1      4083 1.99923E+01 3.37967E-03-2.23641E-04 2.25023E-02 3.26495E-14 8.05503E-14
 -1      4084 1.99808E+01 1.18196E-02-2.99369E-04 4.30384E-02-5.32764E-14 1.33524E-13
 -1      4085 1.99801E+01 1.44097E-02 7.14021E-04 5.20238E-02-2.66523E-14 9.49385E-14
 -1      4086 1.99790E+01 1.54520E-02-3.48619E-04 3.51249E-02-6.80177E-14 1.14348E-13
 -1      4087 1.99741E+01 1.45162E-02-3.81190E-04 6.48464E-02-2.83693E-14 1.31535E-13
 -1      4088 1.99778E+01 1.29800E-02 1.08256E-03 7.89422E-02 6.44137E-14 1.41768E-13
 -1      4089 1.99674E+01 2.31676E-02-6.07452E-04 5.62811E-02 3.40845E-14 2.02474E-13
 -1      4090 1.99741E+01 7.58145E-03-4.29790E-04 9.89608E-02 1.36116E-13 3.19105E-14
 -1      4091 1.99849E+01-6.47401E-04 1.61530E-03 1.19997E-01 1.06026E-13 7.80702E-14
 -1      4092 1.99594E+01 2.34579E-02-1.07769E-03 9.00984E-02 8.23364E-14 1.91453E-13
 -1      4093 1.99861E+01-1.47562E-02-3.83205E-04 1.50071E-01 3.16344E-14 1.41083E-13
 -1      4094 2.00086E+01-3.36006E-02 2.33719E-03 1.80084E-01-2.17276E-14 1.36504E-13
 -1      4095 1.99585E+01 1.12722E-02-1.87242E-03 1.42130E-01 8.48526E-14 5.32760E-14
 -1      4096 2.00197E+01-6.11270E-02-1.25097E-04 2.23527E-01-4.18417E-14 1.02936E-13
 -1      4097 2.00609E+01-9.63068E-02 3.23620E-03 2.64260E-01 1.20625E-13 1.55297E-13
 -1      4098 1.99719E+01-2.13970E-02-3.15148E-03 2.19304E-01 2.14309E-14 2.22416E-13
 -1      4099 2.00903E+01-1.43789E-01 5.43261E-04 3.24207E-01 1.66646E-13 5.07662E-14
 -1      4100 2.01601E+01-2.03132E-01 4.21250E-03 3.76040E-01 1.85312E-13-4.54955E-14
 -1      4101 2.00119E+01-8.66708E-02-5.12494E-03 3.29243E-01 1.13622E-13 3.96331E-14
 -1      4102 2.02219E+01-2.78949E-01 1.92406E-03 4.53930E-01 1.31280E-13-1.90020E-14
 -1      4103 2.03333E+01-3.72103E-01 4.98576E-03 5.13916E-01 1.80015E-13-8.16688E-14
 -1      4104 2.00991E+01-2.01809E-01-8.01602E-03 4.78312E-01 1.00138E-13-1.15979E-13
 -1      4105 2.04489E+01-4.85496E-01 4.40667E-03 6.06445E-01 1.36658E-13-1.49354E-13
 -1      4106 2.06195E+01-6.20895E-01 5.96640E-03 6.64623E-01 5.76980E-15-1.42937E-13
 -1      4107 2.02662E+01-3.88760E-01-1.16907E-02 6.67460E-01 1.27878E-13-1.46616E-13
 -1      4108 2.08166E+01-7.85829E-01 6.88605E-03 7.62149E-01-2.98478E-14-1.11067E-13
 -1      4109 2.10651E+01-9.66053E-01 4.85276E-03 7.92870E-01 1.97266E-14-1.10537E-13
 -1      4110 2.05618E+01-6.63684E-01-1.28025E-02 8.87092E-01-2.94329E-14-1.68002E-13
 -1      4111 2.13802E+01-1.16404E+00 1.29897E-02 8.67079E-01 6.87120E-14-2.12385E-13
 -1      4112 2.17253E+01-1.37944E+00 5.35237E-03 8.41182E-01 1.92168E-14-2.24092E-13
 -1      4113 2.10550E+01-1.04496E+00-6.78417E-03 1.10983E+00-3.87192E-14-1.20188E-13
 -1      4114 2.00272E+01-2.84379E-02 5.81371E-05-1.57722E-02 5.67494E-14-1.41669E-13
 -1      4115 2.00360E+01-3.77424E-02 5.27659E-05-1.76997E-02 1.01505E-14-1.43824E-13
 -1      4116 2.00461E+01-4.68436E-02 1.39277E-04-1.93118E-02 1.52118E-14-8.26536E-14
 -1      4117 2.00557E+01-5.57980E-02 7.33542E-05-2.13767E-02 8.80798E-14-1.04698E-13
 -1      4118 2.00424E+01-4.43526E-02-2.83013E-04-1.03255E-02 2.73019E-14-1.15507E-13
 -1      4119 2.10766E+01-1.52535E+00-3.86523E-02 2.40213E+00-1.14237E-13-1.94984E-13
 -1      4120 2.02155E+01-9.48532E-01 4.09357E-03 2.62491E+00-4.42576E-14-1.14367E-13
 -1      4121 2.01806E+01-7.43797E-01 1.86464E-02 2.32485E+00-1.07165E-13-1.86663E-13
 -1      4122 2.04149E+01 2.94313E-01-3.95517E-05 1.01480E-02-4.33217E-14-2.47124E-13
 -1      4123 2.04040E+01 2.02254E-01-1.92209E-04 2.66731E-02-3.51042E-14-2.41394E-13
 -1      4124 2.00673E+01-6.44371E-02 2.01759E-04-2.30048E-02 1.09133E-13-9.92777E-14
 -1      4125 2.00785E+01-7.28450E-02 1.07233E-04-2.53395E-02 1.29493E-13-1.11837E-13
 -1      4126 2.00635E+01-6.24124E-02-3.82383E-04-1.29108E-02 1.30816E-13-6.96928E-14
 -1      4127 2.03893E+01 1.26140E-01 1.24321E-04 3.02040E-02-3.47391E-14-2.05363E-13
 -1      4128 2.03706E+01 6.53676E-02 1.25534E-05 4.05456E-02-4.81247E-14-2.09588E-13
 -1      4129 2.04056E+01 1.73080E-01-4.65862E-04 1.48677E-02-2.59972E-14-2.20556E-13
 -1      4130 2.00095E+01-9.26692E-03-4.98048E-05-1.17590E-02 1.15167E-13-1.15711E-13
 -1      4131 2.00181E+01-1.89283E-02 5.01255E-05-1.38685E-02 8.77030E-14-1.38583E-13
 -1      4132 2.00236E+01-2.57555E-02-1.98025E-04-7.22911E-03 4.97560E-14-1.41643E-13
 -1      4133 1.99914E+01 1.09594E-02-1.88688E-04-6.14152E-03 8.90175E-14-7.74238E-14
 -1      4134 2.00008E+01 7.71556E-04 7.32285E-05-9.04073E-03 1.24101E-13-1.00374E-13
 -1      4135 2.00060E+01-6.78936E-03-1.32027E-04-2.81219E-03 8.95994E-14-1.11827E-13
 -1      4136 1.99723E+01 3.15343E-02-3.98139E-04 2.31736E-03 9.99955E-14-6.38827E-14
 -1      4137 1.99831E+01 2.12470E-02 1.35693E-04-2.00166E-03 8.47713E-14-1.08465E-13
 -1      4138 1.99888E+01 1.20552E-02-9.44840E-05 4.06133E-03 1.01947E-13-1.16470E-13
 -1      4139 1.99485E+01 5.50814E-02-7.09650E-04 1.73565E-02 7.62602E-14-4.70017E-14
 -1      4140 1.99630E+01 4.33946E-02 2.69474E-04 9.53872E-03 1.50572E-13-1.32432E-14
 -1      4141 1.99704E+01 3.13609E-02-7.26315E-05 1.55503E-02 7.67153E-14-2.68762E-14
 -1      4142 1.99187E+01 8.08344E-02-1.13800E-03 4.32149E-02-3.33208E-15-6.44096E-14
 -1      4143 1.99383E+01 6.82957E-02 5.03866E-04 2.95828E-02 1.69969E-14-9.61017E-14
 -1      4144 1.99492E+01 5.12434E-02-1.23729E-04 3.53601E-02 6.09708E-14 2.62543E-14
 -1      4145 1.98807E+01 1.08226E-01-1.72932E-03 8.68746E-02 5.12497E-14-1.11615E-13
 -1      4146 1.99075E+01 9.53624E-02 9.07009E-04 6.35265E-02 6.24696E-14-3.37656E-14
 -1      4147 1.99246E+01 7.02861E-02-2.84265E-04 6.83845E-02 2.38632E-14 3.65168E-14
 -1      4148 1.98331E+01 1.35009E-01-2.50470E-03 1.58713E-01 1.29442E-14-1.17365E-13
 -1      4149 1.98693E+01 1.23382E-01 1.56917E-03 1.19772E-01 4.92404E-14-1.11142E-13
 -1      4150 1.98965E+01 8.60935E-02-6.26802E-04 1.22107E-01 3.08396E-14 4.00772E-14
 -1      4151 1.97761E+01 1.55588E-01-3.43970E-03 2.73571E-01-1.17857E-13-1.79436E-13
 -1      4152 1.98235E+01 1.48717E-01 2.62061E-03 2.10494E-01-6.40015E-14-1.71826E-13
 -1      4153 1.98667E+01 9.36537E-02-1.27344E-03 2.07081E-01 1.97862E-14-3.30778E-14
 -1      4154 1.97150E+01 1.58303E-01-4.40123E-03 4.51631E-01-6.36364E-14-1.71536E-13
 -1      4155 1.97733E+01 1.63150E-01 4.23242E-03 3.52561E-01-7.98521E-14-1.69624E-13
 -1      4156 1.98403E+01 8.34598E-02-2.41931E-03 3.37415E-01-1.01281E-13-2.27527E-13
 -1      4157 1.96647E+01 1.21249E-01-5.04717E-03 7.18294E-01 1.60736E-13-2.74349E-13
 -1      4158 1.97287E+01 1.50423E-01 6.59414E-03 5.67891E-01 1.22907E-13-1.93283E-13
 -1      4159 1.98298E+01 3.87387E-02-4.36838E-03 5.30467E-01 7.10074E-14-2.81384E-13
 -1      4160 1.96580E+01 6.35638E-03-5.01056E-03 1.10149E+00 3.17064E-14-2.67540E-13
 -1      4161 1.97129E+01 8.08825E-02 9.74910E-03 8.82187E-01 6.42924E-14-2.67465E-13
 -1      4162 1.98602E+01-6.81846E-02-7.55736E-03 8.04554E-01 7.17426E-14-2.35193E-13
 -1      4163 1.97667E+01-2.42374E-01-2.23208E-03 1.62448E+00 9.24946E-14-2.11675E-13
 -1      4164 1.97708E+01-9.70035E-02 1.19925E-02 1.32279E+00 9.00311E-14-2.44708E-13
 -1      4165 1.99820E+01-2.79438E-01-1.15770E-02 1.17312E+00 7.28498E-14-2.59620E-13
 -1      4166 2.52993E+01-6.45737E-01-5.76726E-03 1.20662E+00 1.21286E-13-4.77615E-14
 -1      4167 2.00920E+01-8.07231E-02 2.49137E-04-2.71457E-02 1.23729E-13-9.81218E-14
 -1      4168 2.01051E+01-8.81089E-02 1.52274E-04-2.97379E-02 1.12158E-13-8.02635E-14
 -1      4169 2.00880E+01-7.94115E-02-4.92824E-04-1.54290E-02 1.45516E-13-5.13950E-14
 -1      4170 2.03157E+01 1.30918E-02-3.40806E-04-8.13285E-02-1.23364E-14-3.03768E-13
 -1      4171 2.03378E+01 5.94588E-02 7.27759E-04-7.15891E-02 5.16927E-15-3.07350E-13
 -1      4172 2.03259E+01 7.06842E-04-3.55597E-04-6.35502E-02-1.38655E-14-3.48877E-13
 -1      4173 2.32111E+01-2.00487E+00 2.18008E-02 7.08951E-01-1.33983E-13-8.66293E-14
 -1      4174 2.03494E+01 1.62336E-02 2.16774E-04 4.13864E-02-5.32464E-14-1.86123E-13
 -1      4175 2.03271E+01-2.16383E-02 1.85438E-04 4.65537E-02-3.83902E-14-1.83060E-13
 -1      4176 2.03693E+01 4.49759E-02-7.07551E-04 2.20368E-02-2.56965E-14-1.75829E-13
 -1      4177 2.01209E+01-9.46021E-02 2.80529E-04-3.17786E-02 3.54920E-14-1.15159E-13
 -1      4178 2.01365E+01-1.00115E-01 2.07734E-04-3.44814E-02 1.69735E-14-1.16048E-13
 -1      4179 2.01168E+01-9.42891E-02-6.10438E-04-1.80688E-02 5.43047E-14-9.13153E-14
 -1      4180 2.27804E+01-2.13758E+00-2.62192E-02 1.37678E+00 5.65130E-15-2.28990E-13
 -1      4181 2.18945E+01-1.75305E+00 1.65385E-02 1.95735E+00 2.61963E-14-2.17451E-13
 -1      4182 2.16391E+01-1.50500E+00 2.40258E-02 1.78239E+00-3.09689E-14-1.43652E-13
 -1      4183 2.25846E+01-1.79186E+00 3.23239E-03 7.61709E-01-3.28713E-14-2.19255E-13
 -1      4184 2.04139E+01 4.90718E-01-1.00312E-03 9.15859E-03 5.57100E-14-2.98452E-13
 -1      4185 2.03030E+01-5.11104E-02 2.60796E-04 4.57280E-02-7.23742E-14-1.48263E-13
 -1      4186 2.02799E+01-7.25280E-02 2.89350E-04 4.73271E-02-6.11856E-14-1.81207E-13
 -1      4187 2.03239E+01-3.54741E-02-8.13883E-04 2.50797E-02-5.33512E-14-1.45475E-13
 -1      4188 2.01547E+01-1.04170E-01 2.90811E-04-3.67236E-02 1.66896E-14-1.76421E-13
 -1      4189 2.01729E+01-1.06459E-01 2.73404E-04-3.92419E-02 1.44010E-14-2.13554E-13
 -1      4190 2.01503E+01-1.05234E-01-7.29494E-04-2.08239E-02-3.78965E-14-1.51849E-13
 -1      4191 2.21556E+01-1.59842E+00 1.94435E-02 8.89979E-01 6.04545E-14-2.34698E-13
 -1      4192 2.17480E+01-1.56686E+00-2.71509E-02 1.27154E+00 7.37257E-14-2.38108E-13
 -1      4193 2.04185E+01 3.76152E-01-4.02759E-04 4.90946E-03-3.52135E-14-2.64732E-13
 -1      4194 2.04240E+01 3.37461E-01 2.85456E-04 3.06265E-03-1.17199E-14-2.48648E-13
 -1      4195 2.04198E+01 4.69821E-01-5.33170E-04-1.22087E-02-8.67838E-15-2.66607E-13
 -1      4196 2.01922E+01-1.03592E-01-5.41500E-04-6.09596E-02-3.46490E-14-3.04999E-13
 -1      4197 2.02830E+01-7.01669E-02 8.46373E-05-4.77342E-02-5.73852E-14-2.57395E-13
 -1      4198 2.03069E+01-4.75902E-02 5.19526E-04-4.58981E-02-3.27120E-14-2.84415E-13
 -1      4199 2.03664E+01 1.00850E-01-6.71897E-05-5.20602E-02 1.92609E-14-2.61257E-13
 -1      4200 1.98882E+01-3.38152E-01 1.84271E-02 1.79803E+00 3.60606E-14-1.92260E-13
 -1      4201 2.01643E+01-5.20409E-01-5.00226E-03 1.58146E+00-3.34024E-14-5.41190E-15
 -1      4202 1.98704E+01-4.75499E-01 3.97976E-03 2.05934E+00-3.64630E-14-2.01878E-13
 -1      4203 2.57590E+01-2.33772E+00 1.93812E-02-3.56249E-01 1.56987E-13-4.18693E-13
 -1      4204 2.02758E+01-8.15168E-02-8.32727E-04 2.53560E-02-7.33587E-14-1.88450E-13
 -1      4205 2.04027E+01 2.13260E-01-1.23246E-03-2.77660E-02 2.90426E-14-2.41578E-13
 -1      4206 2.04166E+01 3.07431E-01 9.65603E-04-8.72158E-03 5.22626E-14-2.52285E-13
 -1      4207 2.04223E+01 4.49806E-01 1.30174E-04 3.77350E-03 3.42965E-14-2.72230E-13
 -1      4208 2.03877E+01 8.25032E-01-1.99765E-03-4.03424E-03 5.38543E-14-3.29424E-13
 -1      4209 2.03886E+01 8.24480E-01-9.83075E-04-2.87240E-02 3.42822E-14-3.25373E-13
 -1      4210 2.04183E+01 6.64504E-01 2.57195E-03 3.53096E-03 3.19927E-14-3.20429E-13
 -1      4211 2.03782E+01 8.53534E-01-1.05230E-03-6.21503E-02-1.22863E-14-3.02126E-13
 -1      4212 2.02366E+01-9.71799E-02 2.09491E-04-4.55856E-02-5.00049E-14-2.44168E-13
 -1      4213 2.02596E+01-8.62262E-02 4.26098E-04-4.60807E-02-4.71020E-14-2.42580E-13
 -1      4214 2.02790E+01-7.93927E-02-9.73396E-04-2.70195E-02-7.26285E-14-1.99914E-13
 -1      4215 2.05101E+01-9.56223E-01-2.58242E-02 1.98314E+00-1.26991E-13 9.86017E-15
 -1      4216 2.01913E+01-1.08334E-01 4.48637E-04 2.76270E-04-3.49950E-14-2.29776E-13
 -1      4217 2.01705E+01-1.07531E-01 4.30498E-04-3.26818E-04-4.51759E-14-2.22890E-13
 -1      4218 2.01521E+01-1.03875E-01 4.11662E-04 1.71831E-04-6.81151E-14-2.07512E-13
 -1      4219 2.01339E+01-9.93092E-02 3.37739E-04-5.32899E-04-5.38993E-14-2.47627E-13
 -1      4220 2.01181E+01-9.28670E-02 3.57940E-04 5.09628E-05-6.46252E-17-2.12969E-13
 -1      4221 2.01024E+01-8.60840E-02 2.62696E-04-6.23659E-04 6.23544E-14-1.29247E-13
 -1      4222 2.00890E+01-7.80937E-02 2.95339E-04 1.90230E-05 8.58464E-14-9.96976E-14
 -1      4223 2.00756E+01-7.01152E-02 2.06584E-04-5.00716E-04 1.09809E-13 6.46834E-15
 -1      4224 2.00641E+01-6.13602E-02 2.29452E-04 2.51414E-04 1.04791E-13-2.28517E-14
 -1      4225 2.00528E+01-5.28298E-02 1.71724E-04 3.42159E-05 1.03950E-13-4.62744E-15
 -1      4226 2.00427E+01-4.37647E-02 1.63968E-04 1.04730E-03 6.24609E-14-2.74534E-14
 -1      4227 2.00330E+01-3.50682E-02 1.62773E-04 1.34278E-03 7.48196E-14-8.18575E-14
 -1      4228 2.00238E+01-2.59254E-02 1.01486E-04 2.91354E-03 7.42424E-14-7.81781E-14
 -1      4229 2.00154E+01-1.72967E-02 1.87942E-04 4.04937E-03 7.82965E-14-1.17074E-13
 -1      4230 2.00065E+01-8.18663E-03 4.20496E-05 6.68709E-03 1.04004E-13-1.29283E-13
 -1      4231 1.99991E+01 1.98660E-04 2.57424E-04 9.19905E-03 8.07704E-14-5.09437E-14
 -1      4232 1.99902E+01 8.71500E-03-1.92981E-05 1.34852E-02 6.31675E-14-2.18097E-14
 -1      4233 1.99837E+01 1.66500E-02 3.97449E-04 1.81239E-02 2.29008E-14-4.58987E-16
 -1      4234 1.99735E+01 2.52984E-02-7.44079E-05 2.57613E-02-1.62460E-14 8.47630E-14
 -1      4235 1.99681E+01 3.23235E-02 6.43233E-04 3.37915E-02 2.56702E-14 1.40881E-13
 -1      4236 1.99563E+01 4.02589E-02-8.82522E-05 4.66133E-02 1.65081E-14 1.55365E-13
 -1      4237 1.99528E+01 4.54598E-02 1.03748E-03 5.98485E-02 5.24817E-14 1.78892E-13
 -1      4238 1.99392E+01 5.17809E-02-3.81522E-05 8.08137E-02 1.95487E-14 1.66650E-13
 -1      4239 1.99390E+01 5.34996E-02 1.64224E-03 1.01821E-01 5.30867E-14 1.09557E-13
 -1      4240 1.99239E+01 5.64116E-02 1.36001E-04 1.35143E-01 1.04450E-13 1.01382E-14
 -1      4241 1.99300E+01 5.17330E-02 2.52841E-03 1.67367E-01 8.97774E-14 3.49881E-14
 -1      4242 1.99153E+01 4.79467E-02 5.40286E-04 2.18745E-01 1.72933E-14 4.55026E-14
 -1      4243 1.99328E+01 3.19864E-02 3.76195E-03 2.66474E-01 1.88651E-14 4.39475E-14
 -1      4244 1.99228E+01 1.58235E-02 1.34672E-03 3.43067E-01 2.19523E-14-9.37704E-14
 -1      4245 1.99600E+01-1.92048E-02 5.36181E-03 4.11009E-01 9.06442E-14-2.08967E-13
 -1      4246 1.99644E+01-5.70139E-02 2.79720E-03 5.20725E-01 1.26237E-13-3.04106E-13
 -1      4247 2.00343E+01-1.22806E-01 7.17689E-03 6.12834E-01 5.98333E-14-2.33742E-13
 -1      4248 2.00708E+01-1.96693E-01 5.01777E-03 7.61942E-01 5.65520E-14-2.12705E-13
 -1      4249 2.01914E+01-3.09315E-01 8.31812E-03 8.78995E-01 5.92350E-14-2.71765E-13
 -1      4250 2.02916E+01-4.45614E-01 5.78256E-03 1.06395E+00 7.91984E-14-1.99315E-13
 -1      4251 2.04690E+01-6.22937E-01 4.55271E-03 1.21335E+00 3.83303E-14-1.21953E-13
 -1      4252 2.07466E+01-8.63972E-01-1.53963E-04 1.34857E+00-4.43135E-15-9.57058E-14
 -1      4253 2.03722E+01 7.12024E-02-4.84073E-04-4.01055E-02-1.47039E-15-2.43922E-13
 -1      4254 2.03916E+01 1.35999E-01 6.54914E-04-3.05672E-02 1.75442E-14-2.28457E-13
 -1      4255 2.04076E+01 1.83964E-01-4.08119E-04-1.60463E-02 6.96706E-15-2.33789E-13
 -1      4256 2.04103E+01 1.76428E-01-3.08352E-04-1.69704E-03-1.60469E-14-2.38518E-13
 -1      4257 2.03962E+01 1.04467E-01 1.11114E-03 2.00523E-03-2.12211E-14-2.13869E-13
 -1      4258 2.51320E+01-1.41911E+00 1.20019E-02 7.09855E-01 2.69163E-13 9.29465E-15
 -1      4259 2.03294E+01-1.78073E-02-1.27348E-04-4.65428E-02-9.22479E-15-2.85278E-13
 -1      4260 2.03532E+01 2.19721E-02 5.94196E-04-4.10928E-02-6.36370E-15-2.48232E-13
 -1      4261 2.03716E+01 5.10226E-02-8.33652E-04-2.30132E-02-7.15580E-16-1.94315E-13
 -1      4262 2.03269E+01-3.15283E-02-9.54840E-04-2.64782E-02-2.12990E-14-2.13698E-13
 -1      4263 2.56183E+01-1.72783E+00-1.62930E-02 3.95546E-01 1.79329E-13-2.62533E-14
 -1      4264 2.04057E+01 6.99081E-01 1.13005E-03-3.57442E-02-4.15158E-15-2.75771E-13
 -1      4265 2.03754E+01 4.80374E-02 1.18688E-04-7.24561E-04-2.26809E-14-1.97723E-13
 -1      4266 2.03543E+01 1.65987E-03 9.60547E-04 1.29669E-03-2.29401E-14-1.99219E-13
 -1      4267 2.01934E+01-1.06464E-01 2.71900E-04-4.15576E-02-3.46170E-14-2.33654E-13
 -1      4268 2.02141E+01-1.03543E-01 3.46974E-04-4.34160E-02-6.76773E-14-2.66416E-13
 -1      4269 2.02322E+01-1.02769E-01-9.31227E-04-2.57642E-02-4.28817E-14-2.07208E-13
 -1      4270 2.01889E+01-1.09429E-01-8.42159E-04-2.35095E-02-2.09976E-14-2.43367E-13
 -1      4271 2.12099E+01-1.23940E+00 1.47574E-02 1.66832E+00-9.39752E-14-8.77471E-14
 -1      4272 2.02351E+01-1.02182E-01 4.55826E-04 2.95057E-04-3.42459E-14-2.15049E-13
 -1      4273 2.02121E+01-1.07363E-01 5.41073E-04-4.32425E-05-4.09251E-14-2.12018E-13
 -1      4274 2.02823E+01-7.97094E-02 4.15849E-04 1.66242E-04-6.68123E-14-1.82020E-13
 -1      4275 2.02580E+01-9.39765E-02 6.67453E-04 3.11254E-04-5.19693E-14-2.22102E-13
 -1      4276 2.03306E+01-3.29889E-02 3.10323E-04-1.61353E-04-3.81998E-14-1.74733E-13
 -1      4277 2.03066E+01-6.05813E-02 8.05761E-04 7.48926E-04-5.52742E-14-1.58384E-13
 -1      4278 2.04127E+01 5.96727E-01-3.33501E-04-1.70094E-02 1.39690E-14-2.76403E-13
 -1      4279 2.04238E+01 2.65393E-01 8.36346E-04 2.39122E-03 5.31385E-15-2.58444E-13
 -1      4280 2.04226E+01 5.41138E-01 5.30405E-04-5.07219E-03 1.29434E-14-2.75582E-13
 -1      4281 2.04276E+01 3.41627E-01-1.04352E-04-4.39580E-03 1.33742E-14-2.60149E-13
 -1      4282 2.04250E+01 5.31498E-01-1.64611E-04 4.54512E-03 1.83782E-14-2.96052E-13
 -1      4283 2.08661E+01-9.79215E-01 3.56025E-03 1.50109E+00-7.46621E-14-1.96350E-14
 -3
    1PSTEP                         3           1           1          
  100CL  101 1.000000000        4283                     0    1           1
 -4  TOSTRAIN    6    1
 -5  EXX         1    4    1    1
 -5  EYY         1    4    2    2
 -5  EZZ         1    4    3    3
 -5  EXY         1    4    1    2
 -5  EYZ         1    4    2    3
 -5  EZX         1    4    3    1
 -1         1 8.55418E-05 3.00963E-05-4.62356E-05-1.04428E-04-3.07134E-18 4.43761E-18
 -1         2 4.22010E-05-1.29894E-04 2.50611E-05-1.26331E-06-1.11205E-18 1.45417E-18
 -1         3 9.49638E-05-2.89989E-05-2.81064E-05-6.45336E-07 5.08222E-18 4.67559E-18
 -1         4 9.53283E-05-2.84757E-05-2.87372E-05-1.10303E-07 1.58901E-19 9.65203E-19
 -1         5 1.46419E-04 2.58486E-10-4.41412E-05 5.42426E-05 9.79594E-19 2.19774E-17
 -1         6 1.45457E-04 2.57656E-10-4.42010E-05-5.35441E-05-1.32137E-18 1.93119E-17
 -1         7 9.06324E-05-5.11222E-07-3.90786E-05-2.92621E-05-1.88888E-19 2.77753E-18
 -1         8 8.51425E-05 8.63386E-08-3.63464E-05-2.02792E-05-2.23352E-19-2.16905E-18
 -1         9 8.28247E-05 7.65717E-08-3.53555E-05-1.56477E-05-1.93044E-19-4.75104E-18
 -1        10 8.17796E-05 3.92191E-08-3.48847E-05-1.20887E-05-1.18889E-19-5.93331E-18
 -1        11 8.12559E-05 1.92438E-08-3.46546E-05-9.02541E-06-9.30711E-20-6.42023E-18
 -1        12 8.09819E-05 9.28249E-09-3.45384E-05-6.29944E-06-4.33906E-20-6.53334E-18
 -1        13 8.08372E-05 4.74137E-09-3.44792E-05-3.70542E-06-2.26110E-20-6.44774E-18
 -1        14 8.07757E-05 2.88218E-09-3.44547E-05-1.20926E-06 2.16535E-21-6.34573E-18
 -1        15 8.07763E-05 2.90795E-09-3.44549E-05 1.25607E-06 5.44413E-20-6.13774E-18
 -1        16 8.08391E-05 4.79779E-09-3.44799E-05 3.75360E-06 8.40085E-20-5.96556E-18
 -1        17 8.09861E-05 8.94085E-09-3.45396E-05 6.35121E-06 9.83600E-20-5.65336E-18
 -1        18 8.12625E-05 1.91404E-08-3.46569E-05 9.08052E-06 1.35019E-19-5.16774E-18
 -1        19 8.17951E-05 3.94837E-08-3.48909E-05 1.21516E-05 2.09932E-19-4.27366E-18
 -1        20 8.28506E-05 7.89179E-08-3.53686E-05 1.57241E-05 2.48287E-19-2.64451E-18
 -1        21 8.51958E-05 9.56020E-08-3.63757E-05 2.03688E-05 2.65598E-19 5.17519E-19
 -1        22 9.05329E-05-3.81538E-07-3.90994E-05 2.93036E-05 1.28855E-19 6.04535E-18
 -1        23 1.13015E-04-3.81398E-05-3.54093E-05-4.40414E-06-8.81152E-19 1.48044E-17
 -1        24 9.28396E-05-2.77076E-05-2.90101E-05 3.91349E-07-2.27964E-19 1.09141E-17
 -1        25 8.91533E-05-2.68624E-05-2.69395E-05 3.75908E-07-1.59424E-19 6.86307E-18
 -1        26 8.80502E-05-2.64988E-05-2.64022E-05 2.04101E-07-3.96236E-20 4.06725E-18
 -1        27 8.80789E-05-2.64778E-05-2.63950E-05 1.40036E-07-1.17734E-19 2.16486E-18
 -1        28 8.86172E-05-2.66155E-05-2.65659E-05 1.01119E-07-1.90150E-20 9.82333E-19
 -1        29 8.93784E-05-2.68301E-05-2.68004E-05 7.55009E-08 3.11260E-20 8.41507E-20
 -1        30 9.02112E-05-2.70722E-05-2.70529E-05 5.72745E-08-2.03308E-20-1.12227E-18
 -1        31 9.10305E-05-2.73136E-05-2.73000E-05 4.36024E-08-9.49249E-20-2.50958E-18
 -1        32 9.17892E-05-2.75385E-05-2.75286E-05 3.30448E-08-2.19079E-19-3.96883E-18
 -1        33 9.24637E-05-2.77393E-05-2.77320E-05 2.47943E-08 2.61870E-19-4.44012E-18
 -1        34 9.30450E-05-2.79127E-05-2.79074E-05 1.83398E-08-1.87513E-19-3.99467E-18
 -1        35 9.35340E-05-2.80589E-05-2.80550E-05 1.33202E-08 1.20687E-19-4.34719E-18
 -1        36 9.39369E-05-2.81796E-05-2.81768E-05 9.46052E-09-3.67300E-20-4.46830E-18
 -1        37 9.42633E-05-2.82776E-05-2.82756E-05 6.54242E-09-1.55541E-19-4.44763E-18
 -1        38 9.45245E-05-2.83560E-05-2.83547E-05 4.39100E-09-3.09649E-19-4.92414E-18
 -1        39 9.47319E-05-2.84184E-05-2.84176E-05 2.86851E-09 2.86618E-20-5.77543E-18
 -1        40 9.48968E-05-2.84681E-05-2.84677E-05 1.87089E-09 1.45424E-19-4.82150E-18
 -1        41 9.50299E-05-2.85082E-05-2.85081E-05 1.32472E-09-1.49149E-19-5.75197E-18
 -1        42 9.51405E-05-2.85415E-05-2.85417E-05 1.18308E-09 1.47533E-19-5.93582E-18
 -1        43 9.52364E-05-2.85703E-05-2.85709E-05 1.41810E-09-1.42926E-20-4.59270E-18
 -1        44 9.53235E-05-2.85964E-05-2.85973E-05 2.00774E-09 1.10348E-20-4.34953E-18
 -1        45 9.54042E-05-2.86203E-05-2.86216E-05 2.91289E-09-2.35008E-19-4.74757E-18
 -1        46 9.54759E-05-2.86414E-05-2.86429E-05 4.04001E-09 1.51238E-20-6.09227E-18
 -1        47 9.55291E-05-2.86566E-05-2.86581E-05 5.18441E-09-2.16201E-19-5.71385E-18
 -1        48 9.55430E-05-2.86596E-05-2.86608E-05 5.95187E-09 2.67046E-19-6.48129E-18
 -1        49 9.54824E-05-2.86400E-05-2.86400E-05 5.66365E-09-1.03313E-19-7.56493E-18
 -1        50 9.52925E-05-2.85812E-05-2.85791E-05 3.26703E-09 9.55016E-20-7.74721E-18
 -1        51 9.48959E-05-2.84602E-05-2.84544E-05-2.69833E-09-2.26832E-19-7.43820E-18
 -1        52 9.41923E-05-2.82474E-05-2.82363E-05-1.39890E-08-1.70233E-19-7.07451E-18
 -1        53 9.30657E-05-2.79083E-05-2.78906E-05-3.22799E-08 4.85344E-20-7.10713E-18
 -1        54 9.14012E-05-2.74090E-05-2.73848E-05-5.84098E-08 3.96171E-19-7.07784E-18
 -1        55 8.91168E-05-2.67255E-05-2.66969E-05-9.12653E-08-4.74417E-19-7.57696E-18
 -1        56 8.62062E-05-2.58563E-05-2.58284E-05-1.26600E-07-1.60877E-19-8.88475E-18
 -1        57 8.27866E-05-2.48364E-05-2.48170E-05-1.56493E-07 2.73852E-19-8.39326E-18
 -1        58 7.91298E-05-2.37467E-05-2.37445E-05-1.70414E-07-3.98814E-20-7.28100E-18
 -1        59 7.56560E-05-2.27121E-05-2.27331E-05-1.58499E-07 1.45200E-19-6.65929E-18
 -1        60 7.28682E-05-2.18820E-05-2.19262E-05-1.16310E-07-3.14759E-20-5.09180E-18
 -1        61 7.12350E-05-2.13958E-05-2.14554E-05-4.86547E-08 3.88215E-19-5.13895E-18
 -1        62 7.10575E-05-2.13431E-05-2.14045E-05 3.04319E-08-5.69709E-19-6.80262E-18
 -1        63 7.23748E-05-2.17355E-05-2.17849E-05 1.02554E-07-2.49043E-19-6.93032E-18
 -1        64 7.49556E-05-2.25042E-05-2.25326E-05 1.52457E-07-2.61693E-19-5.24652E-18
 -1        65 7.83788E-05-2.35238E-05-2.35303E-05 1.73813E-07 4.70825E-19-1.41662E-18
 -1        66 8.21634E-05-2.46513E-05-2.46417E-05 1.70198E-07 2.48647E-19 5.70179E-19
 -1        67 8.58880E-05-2.57615E-05-2.57437E-05 1.51423E-07 2.26551E-19-7.23148E-19
 -1        68 8.92516E-05-2.67649E-05-2.67434E-05 1.27513E-07 4.19893E-19-7.10548E-19
 -1        69 9.20581E-05-2.76039E-05-2.75743E-05 1.02376E-07 2.51229E-19-1.58322E-18
 -1        70 9.41347E-05-2.82325E-05-2.81808E-05 5.79155E-08 4.45995E-20 1.52228E-19
 -1        71 9.52270E-05-2.85850E-05-2.85278E-05-2.53411E-08 4.26361E-19 1.67910E-18
 -1        72 1.14014E-04-3.82839E-05-3.57441E-05 4.97089E-06 6.80115E-19 1.85074E-17
 -1        73 9.31803E-05-2.78123E-05-2.91787E-05-4.07767E-07 2.17628E-19 1.50998E-17
 -1        74 8.92611E-05-2.68909E-05-2.69950E-05-3.81974E-07 6.93657E-20 1.11949E-17
 -1        75 8.80741E-05-2.65068E-05-2.64147E-05-2.08605E-07 1.52243E-19 8.57564E-18
 -1        76 8.80646E-05-2.64747E-05-2.63909E-05-1.42473E-07 2.37856E-21 6.83470E-18
 -1        77 8.85846E-05-2.66066E-05-2.65558E-05-1.02531E-07 1.87094E-20 5.45661E-18
 -1        78 8.93383E-05-2.68186E-05-2.67882E-05-7.65491E-08 7.13991E-20 4.12304E-18
 -1        79 9.01696E-05-2.70600E-05-2.70403E-05-5.80636E-08-4.89096E-20 3.52777E-18
 -1        80 9.09906E-05-2.73018E-05-2.72880E-05-4.42019E-08 2.36789E-19 2.63131E-18
 -1        81 9.17526E-05-2.75276E-05-2.75176E-05-3.35054E-08-1.24486E-19 1.87631E-18
 -1        82 9.24309E-05-2.77295E-05-2.77220E-05-2.51459E-08 1.69083E-19 1.32480E-18
 -1        83 9.30159E-05-2.79040E-05-2.78985E-05-1.86090E-08 8.25237E-21 1.82599E-18
 -1        84 9.35069E-05-2.80510E-05-2.80468E-05-1.31696E-08-1.52984E-20 1.83697E-18
 -1        85 9.38939E-05-2.81666E-05-2.81637E-05-9.73899E-09 8.35057E-20 1.30114E-18
 -1        86 9.42241E-05-2.82658E-05-2.82636E-05-6.62086E-09 2.29664E-19-5.28452E-19
 -1        87 9.44863E-05-2.83446E-05-2.83430E-05-4.25050E-09-6.00846E-20-1.35868E-18
 -1        88 9.46916E-05-2.84064E-05-2.84052E-05-2.45298E-09 2.11203E-19-1.65414E-18
 -1        89 9.48512E-05-2.84545E-05-2.84536E-05-1.07072E-09 1.45139E-19-1.19433E-18
 -1        90 9.49760E-05-2.84923E-05-2.84915E-05 2.31596E-11-2.65855E-19-4.98151E-19
 -1        91 9.50764E-05-2.85228E-05-2.85220E-05 9.40283E-10 1.56884E-19-1.07889E-18
 -1        92 9.51639E-05-2.85496E-05-2.85486E-05 1.77898E-09-2.51080E-19-3.21142E-19
 -1        93 9.52510E-05-2.85765E-05-2.85752E-05 2.62162E-09 3.95736E-19 6.73326E-19
 -1        94 9.53542E-05-2.86085E-05-2.86068E-05 3.52227E-09-1.81857E-19 5.06303E-19
 -1        95 9.54968E-05-2.86527E-05-2.86506E-05 4.47161E-09 9.05757E-20-1.02184E-18
 -1        96 9.57144E-05-2.87203E-05-2.87178E-05 5.37748E-09-4.69664E-19-2.58302E-18
 -1        97 9.60644E-05-2.88275E-05-2.88264E-05 4.07423E-09-1.92190E-19-2.04643E-18
 -1        98 9.66046E-05-2.89954E-05-2.89941E-05 4.70553E-09 2.17499E-19-2.22104E-18
 -1        99 9.75387E-05-2.92817E-05-2.92862E-05-1.12590E-09 8.95593E-20-1.47092E-19
 -1       100 9.91021E-05-2.97590E-05-2.97779E-05-1.63045E-08 2.49937E-19-6.61799E-19
 -1       101 1.01719E-04-3.05526E-05-3.06068E-05-5.30991E-08-4.09756E-19-2.42056E-19
 -1       102 1.06089E-04-3.18671E-05-3.20000E-05-1.36438E-07-1.43599E-19 2.06641E-18
 -1       103 1.13319E-04-3.40243E-05-3.43105E-05-3.15820E-07 2.36986E-19 3.24792E-18
 -1       104 1.25035E-04-3.75008E-05-3.80165E-05-6.79274E-07 9.63037E-20 6.01288E-19
 -1       105 1.43186E-04-4.28949E-05-4.35495E-05-1.34332E-06 1.86099E-19 7.37501E-19
 -1       106 1.68766E-04-5.06148E-05-5.06976E-05-2.28812E-06 1.11390E-19 1.51915E-18
 -1       107 1.97125E-04-5.96533E-05-5.74183E-05-2.29259E-06 1.01823E-19 2.37767E-18
 -1       108 2.11617E-04-6.44734E-05-5.98449E-05 1.42166E-07 8.07064E-20 2.79891E-18
 -1       109 1.98789E-04-6.06488E-05-5.64651E-05 6.77977E-06-4.35666E-19 5.34753E-18
 -1       110 1.42141E-04-3.92336E-05-4.84857E-05 1.16602E-05-1.34588E-18 6.60389E-18
 -1       111 8.81545E-05-2.05218E-05-4.14469E-05 4.89980E-06-5.65712E-19 7.62986E-18
 -1       112 7.43639E-05-1.49869E-05-4.00816E-05-1.71103E-06 4.97367E-19 1.81117E-18
 -1       113 1.21442E-04-3.27302E-05-4.51607E-05-7.74596E-06 8.43618E-19-4.09625E-18
 -1       114 1.81053E-04-5.47440E-05-5.32229E-05-5.98257E-06-8.07262E-19-2.99511E-18
 -1       115 2.09128E-04-6.40309E-05-5.84776E-05-1.49496E-06 7.93524E-19 4.48186E-19
 -1       116 2.04619E-04-6.23532E-05-5.84077E-05 1.02869E-06-7.47513E-19 5.54865E-18
 -1       117 1.77162E-04-5.32888E-05-5.26759E-05 1.56906E-06 3.20690E-19 6.23977E-18
 -1       118 1.48261E-04-4.43267E-05-4.50325E-05 1.05932E-06 6.60502E-19-5.17008E-19
 -1       119 1.26008E-04-3.76631E-05-3.84260E-05 6.04957E-07 3.42306E-19-2.73766E-18
 -1       120 1.10641E-04-3.31172E-05-3.36556E-05 3.53425E-07-1.76893E-20-2.63684E-18
 -1       121 1.00704E-04-3.01715E-05-3.05885E-05 2.24091E-07-6.68352E-19 4.49225E-18
 -1       122 9.56435E-05-2.86204E-05-2.89341E-05-4.37038E-08-5.27397E-19 8.66668E-18
 -1       123 9.51951E-05-2.81566E-05-2.89138E-05-9.47728E-08 4.95065E-18-2.12828E-18
 -1       124 9.37057E-05-2.32612E-05-3.02814E-05 3.57463E-07-4.78762E-18 1.10596E-18
 -1       125 9.17894E-05-1.70552E-05-3.18871E-05 4.20473E-07-1.03206E-17-1.06237E-18
 -1       126 9.04768E-05-1.28209E-05-3.30057E-05 2.75508E-07-6.38709E-18 2.17620E-18
 -1       127 9.02842E-05-1.22213E-05-3.31889E-05 5.37304E-08-5.65768E-18-7.05570E-19
 -1       128 9.11537E-05-1.50857E-05-3.24333E-05-1.27441E-07-5.14390E-18 8.08672E-19
 -1       129 9.27183E-05-2.02388E-05-3.10261E-05-2.33505E-07-1.07249E-17-1.88776E-18
 -1       130 9.44547E-05-2.59663E-05-2.94222E-05-2.45694E-07-7.10608E-18 7.86423E-19
 -1       131 9.59263E-05-3.08352E-05-2.80242E-05-1.93028E-07-5.24418E-18-7.00533E-19
 -1       132 9.68864E-05-3.40226E-05-2.70807E-05-1.11869E-07-3.82564E-19 8.93658E-19
 -1       133 9.72749E-05-3.53201E-05-2.66696E-05-2.86154E-08-2.37222E-18 2.12760E-19
 -1       134 9.71734E-05-3.49925E-05-2.67291E-05 3.44953E-08-5.57879E-18-8.42372E-19
 -1       135 9.67276E-05-3.35190E-05-2.71228E-05 8.25071E-08-1.68940E-18 1.50819E-18
 -1       136 9.61223E-05-3.15111E-05-2.76730E-05 1.08147E-07-6.60375E-18-1.13001E-18
 -1       137 9.55554E-05-2.96685E-05-2.81852E-05 1.02634E-07-5.47236E-18 9.18154E-19
 -1       138 9.52825E-05-2.86647E-05-2.85251E-05-2.89154E-08-4.52695E-18-7.17901E-19
 -1       139 3.41307E-05-1.20861E-04 2.39865E-05-3.64431E-05 2.81649E-18 9.56883E-20
 -1       140 1.11675E-05-7.28136E-05 1.37223E-05-4.57043E-05 9.72394E-19 3.59671E-19
 -1       141 3.16172E-06-1.29881E-05-6.27377E-06-1.17160E-05-4.30801E-18-4.76329E-18
 -1       142 4.68879E-05 1.60287E-05-3.19959E-05 5.47385E-05-1.48315E-18 1.40607E-19
 -1       143 1.66276E-04-1.15077E-05-6.05749E-05 1.15323E-04 1.59623E-18 4.29785E-18
 -1       144 3.24380E-04-8.10209E-05-8.47533E-05 1.18456E-04 6.19816E-19 1.35695E-18
 -1       145 4.30576E-04-1.35125E-04-9.76756E-05 3.56037E-05-5.85512E-20-3.48173E-18
 -1       146 4.03324E-04-1.21218E-04-9.42450E-05-7.31882E-05 1.05143E-18-6.71401E-18
 -1       147 2.56399E-04-4.96085E-05-7.50520E-05-1.25669E-04 4.22987E-18-1.10284E-17
 -1       148 1.07190E-04 6.15921E-06-4.81109E-05-9.30146E-05 6.81438E-18-1.03829E-17
 -1       149 2.18216E-05 9.73344E-06-2.13434E-05-2.61711E-05 6.51877E-18-7.47337E-18
 -1       150 1.86286E-06-3.30793E-05 1.65136E-06 2.89317E-05 5.11311E-18-3.82689E-18
 -1       151 1.83490E-05-9.07465E-05 1.80277E-05 4.66617E-05 5.10549E-19-2.69515E-19
 -1       152 3.93157E-05-1.28951E-04 2.54077E-05 2.61902E-05-7.29490E-18 7.88799E-21
 -1       153 3.85077E-05-1.18628E-04 2.26018E-05-1.00809E-05-7.62478E-18 9.03480E-20
 -1       154 1.85950E-05-6.72265E-05 1.15709E-05-2.28588E-05-6.14057E-18-2.57551E-18
 -1       155 5.74846E-06-2.46650E-06-6.79935E-06 4.07518E-06-5.61159E-18-2.70669E-18
 -1       156 3.25065E-05 3.62710E-05-2.98935E-05 6.37622E-05-2.83290E-18-2.64105E-18
 -1       157 1.07161E-04 2.44647E-05-5.18764E-05 1.16907E-04-2.90702E-18-4.43591E-18
 -1       158 2.13863E-04-2.72547E-05-7.10395E-05 1.28612E-04-1.29173E-20 1.65214E-18
 -1       159 3.06368E-04-8.27825E-05-8.39070E-05 8.25101E-05 1.01321E-18 2.37233E-18
 -1       160 3.40955E-04-1.04952E-04-8.81693E-05-9.61225E-07-1.95638E-19 1.20396E-18
 -1       161 2.98765E-04-7.79673E-05-8.28573E-05-8.95582E-05 7.81123E-20 1.20787E-18
 -1       162 1.97841E-04-1.83947E-05-6.85635E-05-1.29850E-04-9.63500E-19 3.51095E-19
 -1       163 1.74387E-05 2.97599E-05-2.23210E-05-4.27506E-05-2.46783E-18 9.38513E-19
 -1       164 6.17799E-06-2.08730E-05-4.91932E-07 1.01723E-05 5.25753E-18-2.07523E-20
 -1       165 2.60178E-05-8.81160E-05 1.62077E-05 2.36806E-05 4.31690E-18-2.59351E-18
 -1       166 9.48916E-05-1.23491E-05-3.55784E-05-2.23593E-05-2.90163E-18 2.22452E-19
 -1       167 8.92650E-05-8.45809E-06-3.47936E-05-1.73990E-05-2.65137E-18-2.80961E-18
 -1       168 8.65454E-05-6.49580E-06-3.44192E-05-1.35982E-05-2.11157E-18-4.43952E-18
 -1       169 8.51961E-05-5.51405E-06-3.42337E-05-1.03788E-05-1.50835E-18-5.15819E-18
 -1       170 8.44423E-05-4.93748E-06-3.41427E-05-7.56053E-06-9.96386E-19-5.43315E-18
 -1       171 8.40111E-05-4.59182E-06-3.40985E-05-4.92161E-06-5.22127E-19-5.43831E-18
 -1       172 8.37889E-05-4.40574E-06-3.40794E-05-2.41757E-06 8.97139E-21-5.31618E-18
 -1       173 8.37210E-05-4.34746E-06-3.40741E-05 2.31071E-08 4.02123E-19-5.23139E-18
 -1       174 8.37918E-05-4.40805E-06-3.40796E-05 2.46441E-06 8.78827E-19-5.07698E-18
 -1       175 8.40178E-05-4.59737E-06-3.40990E-05 4.97035E-06 1.26967E-18-4.94735E-18
 -1       176 8.44446E-05-4.94042E-06-3.41424E-05 7.56759E-06 1.66670E-18-4.45801E-18
 -1       177 8.52112E-05-5.52462E-06-3.42349E-05 1.04376E-05 2.26211E-18-3.83006E-18
 -1       178 8.66001E-05-6.53496E-06-3.44251E-05 1.36726E-05 2.74293E-18-2.78633E-18
 -1       179 8.93293E-05-8.49819E-06-3.48047E-05 1.74803E-05 2.98404E-18-6.86163E-19
 -1       180 9.50131E-05-1.24556E-05-3.55741E-05 2.24889E-05 2.91120E-18 2.81535E-18
 -1       181 1.03428E-04-2.73091E-05-3.26203E-05-1.21321E-05-2.53432E-18 4.05980E-18
 -1       182 9.71370E-05-2.82985E-05-2.95376E-05-4.73347E-06-2.31767E-18 2.77912E-18
 -1       183 9.35343E-05-2.76444E-05-2.81905E-05-1.77007E-06-1.73212E-18 1.71291E-18
 -1       184 9.19989E-05-2.74131E-05-2.76442E-05-4.20065E-07-1.29955E-18 5.50399E-19
 -1       185 9.14246E-05-2.73387E-05-2.74471E-05 2.46233E-07-7.59843E-19-4.42062E-20
 -1       186 9.13857E-05-2.73785E-05-2.74230E-05 5.73842E-07-6.96318E-19-5.46397E-19
 -1       187 9.16333E-05-2.74824E-05-2.74892E-05 7.14178E-07-7.40808E-19-1.00118E-18
 -1       188 9.20220E-05-2.76162E-05-2.76007E-05 7.46347E-07-6.63924E-19-1.31912E-18
 -1       189 9.24645E-05-2.77584E-05-2.77306E-05 7.16195E-07-7.63036E-19-1.29297E-18
 -1       190 9.29089E-05-2.78960E-05-2.78627E-05 6.52122E-07-3.74005E-19-1.26762E-18
 -1       191 9.33252E-05-2.80221E-05-2.79875E-05 5.72262E-07-1.71178E-19-2.22352E-18
 -1       192 9.36980E-05-2.81330E-05-2.80999E-05 4.88215E-07-1.30196E-19-2.46287E-18
 -1       193 9.40212E-05-2.82279E-05-2.81978E-05 4.07229E-07-1.54352E-19-2.20929E-18
 -1       194 9.42945E-05-2.83072E-05-2.82810E-05 3.33594E-07-1.59223E-19-2.27447E-18
 -1       195 9.45215E-05-2.83722E-05-2.83503E-05 2.69603E-07-1.29947E-19-1.97022E-18
 -1       196 9.47076E-05-2.84250E-05-2.84073E-05 2.16207E-07-4.80153E-19-2.20015E-18
 -1       197 9.48592E-05-2.84676E-05-2.84540E-05 1.73475E-07 4.82865E-20-2.95657E-18
 -1       198 9.49832E-05-2.85022E-05-2.84922E-05 1.40871E-07-2.92608E-19-3.28970E-18
 -1       199 9.50859E-05-2.85306E-05-2.85240E-05 1.17374E-07-3.72850E-19-2.85882E-18
 -1       200 9.51730E-05-2.85549E-05-2.85508E-05 1.01453E-07 2.08046E-19-3.76320E-18
 -1       201 9.52485E-05-2.85764E-05-2.85740E-05 9.08571E-08 5.44758E-19-3.96055E-18
 -1       202 9.53147E-05-2.85962E-05-2.85940E-05 8.22360E-08-2.66129E-19-3.13247E-18
 -1       203 9.53706E-05-2.86144E-05-2.86103E-05 7.05585E-08-6.88984E-20-2.82876E-18
 -1       204 9.54106E-05-2.86301E-05-2.86209E-05 4.83617E-08-1.64128E-20-2.28004E-18
 -1       205 9.54227E-05-2.86409E-05-2.86219E-05 4.91882E-09-8.00611E-19-3.07762E-18
 -1       206 9.53858E-05-2.86415E-05-2.86064E-05-7.44505E-08-4.17152E-19-3.46275E-18
 -1       207 9.52678E-05-2.86235E-05-2.85642E-05-2.08501E-07-1.15336E-19-3.33406E-18
 -1       208 9.50225E-05-2.85736E-05-2.84814E-05-4.18920E-07-1.46009E-19-3.72091E-18
 -1       209 9.45902E-05-2.84734E-05-2.83399E-05-7.26971E-07 1.15679E-19-3.07719E-18
 -1       210 9.38994E-05-2.82983E-05-2.81195E-05-1.14694E-06-1.80308E-19-2.87287E-18
 -1       211 9.28759E-05-2.80200E-05-2.78004E-05-1.67590E-06-7.05271E-19-2.80470E-18
 -1       212 9.14577E-05-2.76096E-05-2.73680E-05-2.28089E-06-6.66092E-19-3.42257E-18
 -1       213 8.96198E-05-2.70467E-05-2.68203E-05-2.88734E-06-5.39051E-19-3.61320E-18
 -1       214 8.74027E-05-2.63313E-05-2.61745E-05-3.37599E-06 8.41567E-19-2.19308E-18
 -1       215 8.49393E-05-2.54981E-05-2.54729E-05-3.59733E-06 1.40527E-19-2.63972E-18
 -1       216 8.24643E-05-2.46264E-05-2.47826E-05-3.40923E-06 4.58092E-19-2.97063E-18
 -1       217 8.02924E-05-2.38361E-05-2.41876E-05-2.73210E-06 4.43863E-19-4.55703E-18
 -1       218 7.87577E-05-2.32644E-05-2.37728E-05-1.59970E-06 5.74839E-19-3.18830E-18
 -1       219 7.81267E-05-2.30258E-05-2.36037E-05-1.75152E-07-5.99724E-19-1.63107E-18
 -1       220 7.85171E-05-2.31713E-05-2.37091E-05 1.28730E-06 2.28170E-19-1.85721E-19
 -1       221 7.98606E-05-2.36696E-05-2.40730E-05 2.52461E-06 3.25615E-19-1.53233E-19
 -1       222 8.19281E-05-2.44196E-05-2.46403E-05 3.35175E-06 2.74752E-18 3.78710E-19
 -1       223 8.44047E-05-2.52893E-05-2.53322E-05 3.70945E-06 9.01508E-19 1.19121E-18
 -1       224 8.69769E-05-2.61585E-05-2.60654E-05 3.65371E-06 8.25764E-19 1.55555E-18
 -1       225 8.93955E-05-2.69462E-05-2.67673E-05 3.30068E-06 1.14694E-19 2.43426E-18
 -1       226 9.14974E-05-2.76178E-05-2.73821E-05 2.75648E-06-3.69380E-19 1.28305E-18
 -1       227 9.31911E-05-2.81739E-05-2.78695E-05 2.06054E-06 9.88205E-19 1.56862E-18
 -1       228 9.44824E-05-2.86634E-05-2.82109E-05 1.18764E-06 9.94008E-19 3.13520E-18
 -1       229 1.03670E-04-2.71169E-05-3.28073E-05 1.26177E-05 2.43437E-18 6.49653E-18
 -1       230 9.73381E-05-2.82811E-05-2.96363E-05 4.96090E-06 2.25349E-18 5.31150E-18
 -1       231 9.36451E-05-2.76555E-05-2.82349E-05 1.86768E-06 1.66379E-18 4.05086E-18
 -1       232 9.20469E-05-2.74186E-05-2.76616E-05 4.67755E-07 1.15219E-18 3.09911E-18
 -1       233 9.14382E-05-2.73391E-05-2.74521E-05-2.21543E-07 9.27244E-19 2.27926E-18
 -1       234 9.13795E-05-2.73745E-05-2.74218E-05-5.62188E-07 8.71400E-19 1.68125E-18
 -1       235 9.16167E-05-2.74763E-05-2.74846E-05-7.09893E-07 5.73279E-19 1.04395E-18
 -1       236 9.20006E-05-2.76092E-05-2.75945E-05-7.46181E-07 4.96620E-19 6.33128E-19
 -1       237 9.24416E-05-2.77512E-05-2.77238E-05-7.18230E-07 3.68987E-19 6.91698E-19
 -1       238 9.28863E-05-2.78892E-05-2.78560E-05-6.55129E-07 2.15577E-19 6.46790E-19
 -1       239 9.33039E-05-2.80158E-05-2.79811E-05-5.75391E-07-8.15724E-20 3.12782E-19
 -1       240 9.36778E-05-2.81272E-05-2.80938E-05-4.90744E-07-7.55267E-20 2.08956E-19
 -1       241 9.39872E-05-2.82182E-05-2.81874E-05-4.12598E-07 3.88135E-19 1.42333E-19
 -1       242 9.42642E-05-2.82987E-05-2.82716E-05-3.37259E-07 9.67414E-19 6.94473E-20
 -1       243 9.44932E-05-2.83645E-05-2.83415E-05-2.70945E-07 3.80020E-19 2.38733E-20
 -1       244 9.46801E-05-2.84176E-05-2.83988E-05-2.14936E-07 2.95801E-19-1.07655E-19
 -1       245 9.48316E-05-2.84602E-05-2.84453E-05-1.69606E-07-7.36215E-20-2.91709E-19
 -1       246 9.49550E-05-2.84943E-05-2.84834E-05-1.35027E-07-2.18706E-20-4.31839E-19
 -1       247 9.50581E-05-2.85224E-05-2.85155E-05-1.11395E-07 1.52084E-19-7.76958E-19
 -1       248 9.51497E-05-2.85468E-05-2.85441E-05-9.94807E-08 3.18739E-20-9.87003E-19
 -1       249 9.52397E-05-2.85700E-05-2.85724E-05-1.01206E-07-1.83044E-19-1.44932E-18
 -1       250 9.53404E-05-2.85952E-05-2.86044E-05-1.20479E-07-1.72906E-19-7.15928E-19
 -1       251 9.54687E-05-2.86263E-05-2.86455E-05-1.64505E-07 5.33131E-19-8.61569E-19
 -1       252 9.56483E-05-2.86686E-05-2.87035E-05-2.45876E-07 7.49288E-19-2.29321E-19
 -1       253 9.59151E-05-2.87297E-05-2.87904E-05-3.86765E-07 7.49086E-20-7.83196E-19
 -1       254 9.62992E-05-2.88164E-05-2.89159E-05-6.07187E-07-4.93277E-20-8.76392E-19
 -1       255 9.69187E-05-2.89523E-05-2.91202E-05-9.85321E-07-1.04374E-18 3.81860E-19
 -1       256 9.78857E-05-2.91596E-05-2.94414E-05-1.60925E-06-2.39873E-19 1.03021E-18
 -1       257 9.93912E-05-2.94741E-05-2.99460E-05-2.62882E-06-1.11898E-19 8.38871E-19
 -1       258 1.01717E-04-2.99487E-05-3.07333E-05-4.27726E-06-1.06549E-18 2.40001E-19
 -1       259 1.05258E-04-3.06630E-05-3.19425E-05-6.88784E-06-1.00004E-18-2.52290E-19
 -1       260 1.10524E-04-3.17517E-05-3.37397E-05-1.08547E-05 7.48069E-19 4.87611E-19
 -1       261 1.18080E-04-3.34970E-05-3.62447E-05-1.63877E-05 1.90735E-19 1.22510E-18
 -1       262 1.28444E-04-3.66072E-05-3.93310E-05-2.26690E-05-4.74281E-19 1.07328E-18
 -1       263 1.41873E-04-4.28239E-05-4.22943E-05-2.59457E-05-6.05602E-19 9.32319E-19
 -1       264 1.55243E-04-5.16259E-05-4.40420E-05-2.04979E-05-8.17546E-19 2.19747E-18
 -1       265 1.71533E-04-6.39412E-05-4.58331E-05-1.64574E-08-5.63780E-19 1.22862E-18
 -1       266 1.71013E-04-4.70409E-05-5.51113E-05 3.98471E-05 8.25857E-20-9.10772E-19
 -1       267 1.58473E-04-3.40229E-05-5.70194E-05 1.11999E-05 3.42074E-18-4.53189E-18
 -1       268 1.60299E-04-3.80842E-05-5.59376E-05-3.36691E-05 2.32235E-18-4.27621E-18
 -1       269 1.82049E-04-5.89915E-05-5.33135E-05-4.01487E-05-6.60474E-19-3.02471E-18
 -1       270 1.82157E-04-6.36177E-05-5.04465E-05-1.79517E-05-1.83880E-18-3.71101E-18
 -1       271 1.74060E-04-5.81105E-05-4.88697E-05 7.54253E-06-3.31603E-18-3.98886E-19
 -1       272 1.56475E-04-4.79378E-05-4.61832E-05 2.04531E-05 4.84979E-19 3.19278E-19
 -1       273 1.38392E-04-4.06203E-05-4.19150E-05 2.01212E-05 2.17165E-18 6.64471E-19
 -1       274 1.23134E-04-3.58222E-05-3.75015E-05 1.54220E-05 1.65129E-18-8.13205E-19
 -1       275 1.11592E-04-3.26129E-05-3.38998E-05 1.07258E-05-3.77922E-20-1.81638E-18
 -1       276 1.03442E-04-3.03576E-05-3.13518E-05 6.98917E-06-2.94900E-18-8.70872E-19
 -1       277 9.82616E-05-2.87989E-05-2.97860E-05 3.69536E-06-1.01353E-18-8.68330E-19
 -1       278 9.59381E-05-2.76849E-05-2.92793E-05 1.95580E-06 2.90757E-19-2.40498E-18
 -1       279 9.42522E-05-2.39854E-05-3.01332E-05 4.50641E-06-1.64440E-18-3.69688E-18
 -1       280 9.23644E-05-1.98338E-05-3.10762E-05 4.59242E-06-4.49176E-18-1.84112E-18
 -1       281 9.11213E-05-1.69267E-05-3.17738E-05 2.50703E-06-1.86818E-18 1.94213E-18
 -1       282 9.09261E-05-1.63712E-05-3.19344E-05-4.48617E-07-3.99248E-18-1.10886E-18
 -1       283 9.16763E-05-1.81924E-05-3.14878E-05-2.97752E-06-3.83693E-18-1.53783E-19
 -1       284 9.30343E-05-2.17161E-05-3.05712E-05-4.39631E-06-3.58729E-18-2.53012E-18
 -1       285 9.45323E-05-2.58260E-05-2.94571E-05-4.49853E-06-1.46666E-18 2.46303E-18
 -1       286 9.57967E-05-2.95079E-05-2.84202E-05-3.59106E-06-7.96582E-19 4.35317E-19
 -1       287 9.66274E-05-3.21165E-05-2.76541E-05-2.17060E-06-8.63075E-19 2.01891E-18
 -1       288 9.69845E-05-3.34216E-05-2.72433E-05-6.93237E-07-1.71281E-18-1.58193E-18
 -1       289 9.69382E-05-3.35317E-05-2.71733E-05 5.09511E-07-1.82512E-18-1.43810E-18
 -1       290 9.66020E-05-3.27508E-05-2.73613E-05 1.30915E-06-2.14836E-18 2.50775E-18
 -1       291 9.61051E-05-3.14678E-05-2.76960E-05 1.60958E-06-3.25649E-18-1.87019E-18
 -1       292 9.56010E-05-3.01284E-05-2.80524E-05 1.38771E-06-1.99845E-18 1.35480E-18
 -1       293 1.03356E-05-5.64207E-05 1.61682E-05-6.31294E-06 7.48433E-19 9.53547E-19
 -1       294 2.08603E-05-5.36762E-05 1.04091E-05 7.27314E-06-8.34327E-19-1.58734E-18
 -1       295 4.97329E-05-5.08418E-05-3.06513E-06 2.10723E-05 2.00535E-19-2.56259E-18
 -1       296 9.81949E-05-5.13113E-05-2.28369E-05 3.07636E-05-1.57336E-18 4.14411E-19
 -1       297 1.66796E-04-6.05602E-05-4.56323E-05 2.97981E-05-2.16565E-18 3.01120E-19
 -1       298 2.27914E-04-6.49147E-05-6.62729E-05 4.69313E-06 1.02462E-18-3.62530E-18
 -1       299 2.67651E-04-6.03949E-05-8.07436E-05 1.08770E-06 1.48167E-18-3.88195E-18
 -1       300 2.59693E-04-5.00917E-05-8.22278E-05 3.90663E-06 2.58514E-18-5.23128E-18
 -1       301 2.55911E-04-6.15925E-05-7.63893E-05-1.51893E-06 3.62467E-18-7.58857E-18
 -1       302 2.04618E-04-6.42405E-05-5.80431E-05-1.80842E-05 2.86530E-18-6.32522E-18
 -1       303 1.38043E-04-5.62467E-05-3.64264E-05-3.17288E-05 3.97809E-18-6.22866E-18
 -1       304 7.73928E-05-5.02837E-05-1.49664E-05-2.73465E-05 3.47495E-18-5.37411E-18
 -1       305 3.91605E-05-5.05421E-05 1.60943E-06-1.80774E-05 1.27584E-18-4.06983E-18
 -1       306 1.46655E-05-5.18379E-05 1.26335E-05-3.15842E-06-1.43689E-18-3.33752E-18
 -1       307 1.07701E-05-5.77335E-05 1.64321E-05 1.16544E-05-1.65997E-18-3.46119E-19
 -1       308 1.84571E-05-4.86434E-05 1.01112E-05 2.43285E-05-2.45216E-18-1.24831E-19
 -1       309 4.16087E-05-3.95546E-05-2.63774E-06 3.93591E-05-1.53948E-18 3.06540E-19
 -1       310 7.84793E-05-3.30217E-05-2.02185E-05 5.03717E-05-1.76839E-18-1.15355E-18
 -1       311 1.19355E-04-2.52505E-05-3.97130E-05 5.84144E-05-1.60619E-18-8.64821E-19
 -1       312 1.67748E-04-2.82400E-05-5.77343E-05 5.65232E-05-2.73465E-18 9.06961E-19
 -1       313 2.06869E-04-3.37472E-05-7.13158E-05 3.78168E-05-9.19825E-19-5.73865E-19
 -1       314 2.28051E-04-3.68474E-05-7.86055E-05 1.33330E-05 2.26581E-19 1.24741E-18
 -1       315 2.23618E-04-3.45679E-05-7.79093E-05-1.38183E-05 1.97570E-19 1.00522E-18
 -1       316 2.02632E-04-3.34748E-05-6.98205E-05-3.97168E-05 9.20990E-19 1.92065E-19
 -1       317 1.61387E-04-3.45784E-05-5.31847E-05-4.55000E-05-7.36019E-19-2.56460E-18
 -1       318 1.05882E-04-2.61760E-05-3.39427E-05-5.68452E-05-1.43360E-19 4.27540E-19
 -1       319 6.19649E-05-3.25757E-05-1.39503E-05-4.50742E-05 2.34353E-18 2.47482E-18
 -1       320 3.19010E-05-4.45787E-05 2.82195E-06-3.06636E-05 2.11165E-18-4.72353E-20
 -1       321 1.47219E-05-5.29042E-05 1.32203E-05-1.90128E-05 1.04280E-18-1.68253E-18
 -1       322 1.89776E-04-6.86544E-05-5.18820E-05 3.18330E-05-2.94529E-19-5.51577E-19
 -1       323 9.51856E-05-2.93558E-05-2.82165E-05 1.20200E-06-1.37977E-18-6.87594E-20
 -1       324 9.16616E-05-1.43959E-05-3.31768E-05-1.30721E-05-2.76550E-18-2.66275E-18
 -1       325 9.57198E-05-1.91032E-05-3.28989E-05-1.46387E-05-3.10220E-18-8.72603E-19
 -1       326 8.79942E-05-1.03629E-05-3.33257E-05-8.17445E-06-1.58706E-18-4.12190E-18
 -1       327 8.71805E-05-9.44405E-06-3.33640E-05-5.73399E-06-1.00065E-18-4.26164E-18
 -1       328 8.67150E-05-8.90988E-06-3.33899E-05-3.38517E-06-3.33122E-19-4.14049E-18
 -1       329 8.65050E-05-8.66583E-06-3.34030E-05-1.09477E-06 3.10379E-19-4.04857E-18
 -1       330 8.65088E-05-8.67023E-06-3.34028E-05 1.17648E-06 7.93840E-19-3.97004E-18
 -1       331 8.67274E-05-8.92398E-06-3.33893E-05 3.46807E-06 1.27885E-18-3.98225E-18
 -1       332 8.71923E-05-9.45690E-06-3.33636E-05 5.77828E-06 1.78110E-18-3.64380E-18
 -1       333 8.80205E-05-1.03900E-05-3.33251E-05 8.21310E-06 2.43425E-18-2.98393E-18
 -1       334 8.94140E-05-1.19388E-05-3.32691E-05 1.07250E-05 3.02439E-18-2.37936E-18
 -1       335 9.17655E-05-1.45722E-05-3.31591E-05 1.30970E-05 3.31598E-18-1.14799E-18
 -1       336 9.58709E-05-1.93182E-05-3.28724E-05 1.46210E-05 3.28677E-18 1.14727E-18
 -1       337 9.64586E-05-2.60333E-05-3.01378E-05-6.35393E-06-2.60036E-18-3.68516E-19
 -1       338 9.49379E-05-2.70313E-05-2.90774E-05-2.83565E-06-2.03362E-18-5.32126E-19
 -1       339 9.39624E-05-2.74294E-05-2.84994E-05-9.18482E-07-1.49649E-18-7.95718E-19
 -1       340 9.34444E-05-2.76428E-05-2.81939E-05 1.44118E-07-1.02126E-18-1.13581E-18
 -1       341 9.32538E-05-2.77965E-05-2.80503E-05 7.11393E-07-8.63278E-19-1.32010E-18
 -1       342 9.32729E-05-2.79269E-05-2.80044E-05 9.81413E-07-8.25520E-19-1.33683E-18
 -1       343 9.34145E-05-2.80427E-05-2.80164E-05 1.07105E-06-5.59201E-19-1.33156E-18
 -1       344 9.36190E-05-2.81451E-05-2.80607E-05 1.05292E-06-6.69270E-19-1.47359E-18
 -1       345 9.38470E-05-2.82336E-05-2.81207E-05 9.73774E-07-9.11049E-19-1.95405E-18
 -1       346 9.40742E-05-2.83085E-05-2.81860E-05 8.64131E-07-4.63011E-19-2.13268E-18
 -1       347 9.42861E-05-2.83704E-05-2.82504E-05 7.43832E-07-1.39432E-19-2.28969E-18
 -1       348 9.44756E-05-2.84204E-05-2.83101E-05 6.25465E-07-7.57133E-20-1.97691E-18
 -1       349 9.46399E-05-2.84600E-05-2.83634E-05 5.16650E-07-2.20127E-19-1.49562E-18
 -1       350 9.47795E-05-2.84910E-05-2.84099E-05 4.21608E-07-5.39960E-19-2.23691E-18
 -1       351 9.48964E-05-2.85149E-05-2.84497E-05 3.42248E-07-5.00369E-19-2.11371E-18
 -1       352 9.49939E-05-2.85335E-05-2.84834E-05 2.78891E-07-5.13514E-19-2.41315E-18
 -1       353 9.50755E-05-2.85483E-05-2.85119E-05 2.30690E-07-2.04672E-19-3.11391E-18
 -1       354 9.51447E-05-2.85610E-05-2.85361E-05 1.95771E-07-3.12698E-19-3.04270E-18
 -1       355 9.52048E-05-2.85733E-05-2.85565E-05 1.71104E-07 3.50413E-19-2.54848E-18
 -1       356 9.52581E-05-2.85872E-05-2.85734E-05 1.52071E-07 8.93446E-19-2.50064E-18
 -1       357 9.53057E-05-2.86048E-05-2.85863E-05 1.31751E-07-2.75192E-19-1.79949E-18
 -1       358 9.53469E-05-2.86284E-05-2.85940E-05 9.99048E-08-7.22459E-20-1.98476E-18
 -1       359 9.53782E-05-2.86604E-05-2.85939E-05 4.17701E-08-5.84492E-19-2.26658E-18
 -1       360 9.53921E-05-2.87029E-05-2.85821E-05-6.30994E-08-4.80010E-19-2.79822E-18
 -1       361 9.53756E-05-2.87561E-05-2.85528E-05-2.41475E-07 1.37689E-19-2.57412E-18
 -1       362 9.53078E-05-2.88172E-05-2.84983E-05-5.25734E-07-3.00270E-19-2.10107E-18
 -1       363 9.51584E-05-2.88767E-05-2.84096E-05-9.50538E-07-4.74887E-19-2.88824E-18
 -1       364 9.48853E-05-2.89150E-05-2.82771E-05-1.54537E-06-5.00661E-19-3.28185E-18
 -1       365 9.44351E-05-2.88980E-05-2.80922E-05-2.32161E-06-2.55424E-19-3.14807E-18
 -1       366 9.37464E-05-2.87758E-05-2.78497E-05-3.25406E-06-4.88484E-19-2.03230E-18
 -1       367 9.27610E-05-2.84859E-05-2.75512E-05-4.26017E-06-4.87193E-19-1.44391E-18
 -1       368 9.14446E-05-2.79688E-05-2.72071E-05-5.18508E-06 8.66099E-19-2.21270E-19
 -1       369 8.98172E-05-2.71957E-05-2.68385E-05-5.80613E-06 3.81099E-19 1.75232E-19
 -1       370 8.79867E-05-2.62038E-05-2.64756E-05-5.87164E-06-1.42598E-19 4.13577E-19
 -1       371 8.61652E-05-2.51231E-05-2.61545E-05-5.17917E-06-3.91954E-19-1.45763E-19
 -1       372 8.46460E-05-2.41662E-05-2.59103E-05-3.67315E-06 1.09161E-18-3.33752E-19
 -1       373 8.37289E-05-2.35681E-05-2.57717E-05-1.51375E-06 1.51874E-18-3.32698E-19
 -1       374 8.36162E-05-2.34930E-05-2.57554E-05 9.34945E-07 1.62627E-18 1.59776E-18
 -1       375 8.43300E-05-2.39576E-05-2.58636E-05 3.21447E-06-4.12120E-19 2.98134E-18
 -1       376 8.57036E-05-2.48234E-05-2.60840E-05 4.93080E-06 1.07698E-18 3.40814E-18
 -1       377 8.74518E-05-2.58630E-05-2.63910E-05 5.87930E-06 1.60240E-18 2.22346E-18
 -1       378 8.92776E-05-2.68592E-05-2.67501E-05 6.07384E-06 1.47403E-18 2.21931E-18
 -1       379 9.09584E-05-2.76792E-05-2.71221E-05 5.68187E-06 3.45177E-19 2.59604E-18
 -1       380 9.23815E-05-2.82989E-05-2.74688E-05 4.91665E-06-7.61386E-19 2.68690E-18
 -1       381 9.35360E-05-2.87828E-05-2.77577E-05 3.94154E-06-5.43044E-20 2.55779E-18
 -1       382 9.45006E-05-2.92419E-05-2.79742E-05 2.82489E-06 1.10122E-18 1.06957E-18
 -1       383 9.49715E-05-2.69662E-05-2.91165E-05 2.97147E-06 1.91736E-18 6.54876E-19
 -1       384 9.64736E-05-2.59078E-05-3.01968E-05 6.53632E-06 2.65151E-18 1.24774E-18
 -1       385 9.39901E-05-2.74017E-05-2.85215E-05 9.95557E-07 1.39306E-18 3.00188E-19
 -1       386 9.34601E-05-2.76330E-05-2.82048E-05-1.04206E-07 1.28607E-18 2.17841E-19
 -1       387 9.32573E-05-2.77893E-05-2.80549E-05-6.91037E-07 9.15965E-19 1.25401E-19
 -1       388 9.32683E-05-2.79208E-05-2.80051E-05-9.72495E-07 8.47230E-19-2.75668E-20
 -1       389 9.34054E-05-2.80373E-05-2.80148E-05-1.06897E-06 6.59410E-19-3.21448E-19
 -1       390 9.36076E-05-2.81404E-05-2.80578E-05-1.05467E-06 4.88696E-19-7.11125E-19
 -1       391 9.38350E-05-2.82298E-05-2.81172E-05-9.77299E-07 2.03304E-19-6.48634E-19
 -1       392 9.40620E-05-2.83053E-05-2.81822E-05-8.68009E-07 8.18669E-20-7.96753E-19
 -1       393 9.42645E-05-2.83651E-05-2.82434E-05-7.52995E-07 3.17000E-19-9.38165E-19
 -1       394 9.44563E-05-2.84165E-05-2.83035E-05-6.32937E-07 2.96394E-19-7.57839E-19
 -1       395 9.46228E-05-2.84572E-05-2.83573E-05-5.21480E-07 3.05563E-19-2.51232E-19
 -1       396 9.47645E-05-2.84891E-05-2.84043E-05-4.23337E-07 6.53242E-19-2.74075E-19
 -1       397 9.48835E-05-2.85135E-05-2.84447E-05-3.40992E-07 1.06205E-19-4.75172E-19
 -1       398 9.49836E-05-2.85321E-05-2.84796E-05-2.75750E-07 4.14009E-19-2.05764E-19
 -1       399 9.50691E-05-2.85459E-05-2.85102E-05-2.28557E-07 1.11432E-19-5.68075E-19
 -1       400 9.51452E-05-2.85560E-05-2.85383E-05-2.00783E-07 1.10380E-19-2.62611E-19
 -1       401 9.52175E-05-2.85628E-05-2.85662E-05-1.95094E-07 4.19577E-19-6.55902E-19
 -1       402 9.52929E-05-2.85664E-05-2.85968E-05-2.16578E-07-2.29356E-20-1.54740E-18
 -1       403 9.53794E-05-2.85657E-05-2.86338E-05-2.74359E-07 3.25258E-19-1.89976E-18
 -1       404 9.54867E-05-2.85581E-05-2.86826E-05-3.84037E-07 1.01613E-19-1.72461E-18
 -1       405 9.56271E-05-2.85380E-05-2.87506E-05-5.71871E-07 2.44214E-19-4.36118E-19
 -1       406 9.58050E-05-2.84989E-05-2.88424E-05-8.59877E-07 6.47329E-19-7.07958E-19
 -1       407 9.60553E-05-2.84200E-05-2.89815E-05-1.34052E-06-1.42060E-18-9.70667E-19
 -1       408 9.63865E-05-2.82715E-05-2.91840E-05-2.10462E-06-5.36955E-19-1.31424E-18
 -1       409 9.68079E-05-2.80026E-05-2.94750E-05-3.30538E-06-1.06056E-19-1.81312E-20
 -1       410 9.73062E-05-2.75327E-05-2.98831E-05-5.16754E-06-5.93014E-20 8.57043E-19
 -1       411 9.78193E-05-2.67498E-05-3.04301E-05-7.99818E-06-2.67545E-19-2.15551E-19
 -1       412 9.82072E-05-2.55494E-05-3.11021E-05-1.21643E-05 2.22151E-19-1.60976E-18
 -1       413 9.82763E-05-2.40094E-05-3.17817E-05-1.79750E-05 1.20176E-19-1.12171E-18
 -1       414 9.80475E-05-2.29185E-05-3.21176E-05-2.53372E-05 3.82233E-19-1.74474E-18
 -1       415 9.86865E-05-2.51935E-05-3.13278E-05-3.31933E-05-1.64695E-19-3.65912E-18
 -1       416 1.03148E-04-3.34778E-05-2.94303E-05-3.69934E-05-7.90891E-19-3.58515E-18
 -1       417 5.28568E-05-4.03925E-05-5.64760E-06 3.57101E-05 2.21499E-19-8.77844E-19
 -1       418 1.53775E-04-7.44323E-05-3.45639E-05-1.67270E-05 6.12193E-19-2.75106E-18
 -1       419 1.58831E-04-6.86553E-05-3.84706E-05 1.21895E-05-3.37458E-18-1.22816E-18
 -1       420 1.09853E-04-3.13246E-05-3.34607E-05 3.48741E-05 1.59844E-18-2.32397E-18
 -1       421 1.04541E-04-2.65333E-05-3.33531E-05 2.85849E-05 1.95679E-18-1.28125E-18
 -1       422 1.01670E-04-2.59501E-05-3.23951E-05 2.12784E-05 1.82802E-18-6.88703E-19
 -1       423 9.92721E-05-2.61602E-05-3.12932E-05 1.48653E-05-1.02548E-18-1.59067E-18
 -1       424 9.71476E-05-2.60135E-05-3.04577E-05 9.65994E-06-1.23509E-18-4.14504E-18
 -1       425 9.55134E-05-2.49994E-05-3.02113E-05 7.18969E-06-2.98450E-19-5.07909E-18
 -1       426 8.99595E-05-1.89134E-05-3.04659E-05 6.28921E-06 1.17614E-18 2.65163E-18
 -1       427 9.26944E-05-2.15518E-05-3.04831E-05 8.15911E-06-3.83153E-19-3.27650E-18
 -1       428 8.87517E-05-1.78169E-05-3.04247E-05 1.19531E-06-1.01433E-19-3.19206E-18
 -1       429 8.96353E-05-1.91154E-05-3.02459E-05-3.95182E-06-2.79880E-18-5.34663E-19
 -1       430 9.18505E-05-2.21465E-05-2.98894E-05-7.52848E-06-2.71725E-18-1.52541E-18
 -1       431 9.43843E-05-2.58076E-05-2.93953E-05-8.68530E-06-9.34588E-19 8.77542E-20
 -1       432 9.64444E-05-2.91125E-05-2.88512E-05-7.68946E-06-1.49300E-19 2.07898E-19
 -1       433 9.76752E-05-3.14814E-05-2.83561E-05-5.36668E-06-5.95523E-19 1.03715E-18
 -1       434 9.80875E-05-3.27474E-05-2.79874E-05-2.61076E-06-2.06203E-18-3.69770E-19
 -1       435 9.78865E-05-3.30270E-05-2.77830E-05-1.40264E-07-1.45402E-18-1.39293E-18
 -1       436 9.72846E-05-3.25626E-05-2.77281E-05 1.72346E-06-1.52775E-18 1.59045E-18
 -1       437 9.64676E-05-3.16187E-05-2.77867E-05 2.74672E-06-1.77879E-18-1.83461E-18
 -1       438 9.55627E-05-3.04463E-05-2.79081E-05 2.88350E-06-8.16535E-19 1.05386E-18
 -1       439 1.05294E-04-6.11208E-05-1.96419E-05 3.48294E-05-1.25848E-18-1.76121E-18
 -1       440 8.56033E-06-2.39035E-05 6.31703E-06-1.50163E-05 6.07349E-19-7.70800E-20
 -1       441 8.94266E-05-1.19208E-05-3.32793E-05-1.07697E-05-2.27456E-18-3.66539E-18
 -1       442 1.22653E-04-4.63446E-05-3.23254E-05 3.42135E-05-1.57929E-18-2.51802E-18
 -1       443 1.60047E-04-7.39444E-05-3.71123E-05 1.36648E-05-3.81345E-18-8.84091E-20
 -1       444 9.26715E-05-5.53769E-05-1.62728E-05-3.72384E-05-5.17749E-19-4.59555E-18
 -1       445 3.72637E-05-3.33561E-05-1.98116E-06-2.96508E-05-9.18713E-19-3.91679E-18
 -1       446 9.94660E-06-1.96212E-05 4.15962E-06-2.86414E-06 8.44042E-19-2.17042E-18
 -1       447 1.12006E-05-2.18276E-05 4.50315E-06 2.31327E-05 5.11026E-19-1.04916E-18
 -1       448 3.79386E-05-3.32624E-05-2.11502E-06 4.70867E-05-1.76395E-19 4.16317E-19
 -1       449 8.16003E-05-4.66214E-05-1.50265E-05 5.48260E-05-1.16255E-18-6.97211E-19
 -1       450 1.24465E-04-5.21733E-05-3.09208E-05 4.53413E-05-9.27289E-19-8.44492E-19
 -1       451 1.54225E-04-4.84561E-05-4.52989E-05 2.62570E-05-2.41518E-18 3.28966E-19
 -1       452 1.68054E-04-3.36893E-05-5.75950E-05 9.32798E-06-1.89005E-18-8.97643E-19
 -1       453 1.72909E-04-1.72241E-05-6.66667E-05 1.27258E-06-1.47723E-18 4.56021E-19
 -1       454 1.70218E-04-9.48251E-06-6.89250E-05 7.66547E-08 1.08738E-19-7.56784E-19
 -1       455 1.70427E-04-1.81600E-05-6.53087E-05-5.93774E-07 1.39951E-18-1.06123E-18
 -1       456 1.66550E-04-3.42458E-05-5.68127E-05-8.16799E-06 3.10755E-19-1.20522E-18
 -1       457 1.46151E-04-5.27871E-05-4.00090E-05-3.28221E-05-2.90479E-19-1.26197E-18
 -1       458 1.11924E-04-5.29258E-05-2.52881E-05-4.97054E-05 1.88539E-18 4.56286E-19
 -1       459 6.68404E-05-4.40315E-05-9.97489E-06-5.35184E-05 3.10946E-18 1.68070E-18
 -1       460 3.08565E-05-3.06332E-05-9.25731E-08-4.30126E-05 1.64197E-18-2.99394E-18
 -1       461 1.71127E-05-2.48231E-05 3.18507E-06 1.54424E-05-2.09593E-18-1.43117E-18
 -1       462 1.82978E-04-7.43927E-05-4.67742E-05-1.43548E-05-1.72382E-18-1.80174E-18
 -1       463 2.14783E-04-6.20542E-05-6.34662E-05 1.68485E-05 2.62961E-18-5.99615E-18
 -1       464 1.32631E-04-5.66291E-05-3.21794E-05-2.89454E-05 4.65339E-20-2.92428E-18
 -1       465 1.56148E-04-4.89536E-05-4.62285E-05-8.04271E-06-3.70339E-19-9.01772E-19
 -1       466 1.86995E-04-7.25855E-05-4.88081E-05 1.06774E-06 2.26550E-18-5.28654E-18
 -1       467 2.57354E-05-1.29649E-05-4.70885E-06-2.89737E-05 2.51024E-18-1.84071E-18
 -1       468 8.95238E-05-1.33839E-05-3.26503E-05-3.93719E-06-6.55544E-19-3.72021E-18
 -1       469 9.02391E-05-1.43530E-05-3.25428E-05-5.88956E-06-1.23154E-18-3.73606E-18
 -1       470 8.90151E-05-1.26935E-05-3.27270E-05 3.52502E-08 4.44797E-19-3.65295E-18
 -1       471 8.91456E-05-1.28704E-05-3.27074E-05 2.02360E-06 9.64928E-19-3.53632E-18
 -1       472 8.95355E-05-1.33994E-05-3.26489E-05 3.97543E-06 1.48797E-18-3.55316E-18
 -1       473 9.02523E-05-1.43729E-05-3.25409E-05 5.93251E-06 2.11193E-18-2.91807E-18
 -1       474 9.13990E-05-1.59387E-05-3.23635E-05 7.76282E-06 2.61870E-18-2.39388E-18
 -1       475 9.30905E-05-1.83466E-05-3.20570E-05 9.19866E-06 2.94730E-18-1.67764E-18
 -1       476 9.52170E-05-2.22059E-05-3.13017E-05 8.67790E-06 2.93138E-18-5.13923E-19
 -1       477 9.54934E-05-2.44332E-05-3.04445E-05-5.82250E-06-2.22514E-18-1.67065E-18
 -1       478 9.46406E-05-2.07686E-05-3.16805E-05-9.52132E-06-2.64465E-18-2.20900E-18
 -1       479 9.52842E-05-2.62218E-05-2.95899E-05-2.89501E-06-1.76823E-18-1.54706E-18
 -1       480 9.49285E-05-2.71605E-05-2.90395E-05-1.02626E-06-1.42801E-18-1.37623E-18
 -1       481 9.46527E-05-2.76922E-05-2.86957E-05 1.00927E-07-1.15452E-18-1.42514E-18
 -1       482 9.44970E-05-2.80190E-05-2.84900E-05 7.39525E-07-9.35067E-19-1.65122E-18
 -1       483 9.44427E-05-2.82313E-05-2.83762E-05 1.06045E-06-8.51793E-19-1.75937E-18
 -1       484 9.44594E-05-2.83731E-05-2.83229E-05 1.17855E-06-7.79331E-19-1.69529E-18
 -1       485 9.45197E-05-2.84683E-05-2.83080E-05 1.17135E-06-9.07015E-19-1.46627E-18
 -1       486 9.46029E-05-2.85312E-05-2.83168E-05 1.09134E-06-8.06811E-19-1.29605E-18
 -1       487 9.46944E-05-2.85711E-05-2.83389E-05 9.73858E-07-4.52384E-19-1.57194E-18
 -1       488 9.47850E-05-2.85945E-05-2.83677E-05 8.42294E-07-5.65997E-21-1.72294E-18
 -1       489 9.48694E-05-2.86064E-05-2.83988E-05 7.11704E-07 8.84599E-20-1.65796E-18
 -1       490 9.49450E-05-2.86102E-05-2.84294E-05 5.91303E-07-3.73049E-19-1.27443E-18
 -1       491 9.50108E-05-2.86087E-05-2.84582E-05 4.86265E-07-1.09891E-18-1.01517E-18
 -1       492 9.50674E-05-2.86042E-05-2.84844E-05 3.98967E-07-1.00893E-18-1.92036E-18
 -1       493 9.51159E-05-2.85983E-05-2.85076E-05 3.29810E-07-5.95426E-19-2.12868E-18
 -1       494 9.51580E-05-2.85931E-05-2.85279E-05 2.77665E-07-4.56138E-19-2.53702E-18
 -1       495 9.51958E-05-2.85904E-05-2.85452E-05 2.39975E-07 3.45947E-19-1.96113E-18
 -1       496 9.52317E-05-2.85932E-05-2.85595E-05 2.12516E-07 4.45083E-19-2.40147E-18
 -1       497 9.52686E-05-2.86051E-05-2.85701E-05 1.88792E-07 7.92850E-19-2.27161E-18
 -1       498 9.53093E-05-2.86316E-05-2.85762E-05 1.59079E-07 1.44044E-20-1.34180E-18
 -1       499 9.53574E-05-2.86797E-05-2.85763E-05 1.09138E-07-5.73212E-19-1.82764E-18
 -1       500 9.54164E-05-2.87581E-05-2.85682E-05 1.87305E-08-9.15276E-19-2.08025E-18
 -1       501 9.54890E-05-2.88763E-05-2.85489E-05-1.39711E-07-8.79825E-19-2.61098E-18
 -1       502 9.55758E-05-2.90425E-05-2.85151E-05-4.01636E-07 3.39942E-19-2.80833E-18
 -1       503 9.56718E-05-2.92593E-05-2.84637E-05-8.09017E-07-4.19326E-19-1.74136E-18
 -1       504 9.57618E-05-2.95162E-05-2.83926E-05-1.40541E-06-8.98339E-19-1.25451E-18
 -1       505 9.58134E-05-2.97807E-05-2.83018E-05-2.22527E-06-5.85285E-19-4.10050E-19
 -1       506 9.57705E-05-2.99879E-05-2.81949E-05-3.27560E-06 1.36289E-19-4.88810E-19
 -1       507 9.55498E-05-3.00352E-05-2.80800E-05-4.50958E-06 5.25377E-19 1.23693E-19
 -1       508 9.50500E-05-2.97920E-05-2.79696E-05-5.79697E-06 6.72958E-19 3.76304E-19
 -1       509 9.41801E-05-2.91336E-05-2.78780E-05-6.90406E-06 5.79051E-19 9.49117E-19
 -1       510 9.29125E-05-2.80048E-05-2.78170E-05-7.50571E-06 6.65972E-19 1.77838E-18
 -1       511 9.13471E-05-2.64967E-05-2.77907E-05-7.25468E-06 5.23210E-19 3.28703E-18
 -1       512 8.97460E-05-2.48891E-05-2.77920E-05-5.91487E-06-3.88505E-19 3.82125E-18
 -1       513 8.84879E-05-2.35995E-05-2.78044E-05-3.51221E-06 2.54287E-19 2.12803E-18
 -1       514 8.79305E-05-2.30273E-05-2.78106E-05-4.08358E-07 2.10030E-18 9.60380E-19
 -1       515 8.82399E-05-2.33589E-05-2.78014E-05 2.77887E-06 1.63733E-18 1.78922E-18
 -1       516 8.93007E-05-2.44663E-05-2.77822E-05 5.40616E-06 1.04206E-18 1.96723E-18
 -1       517 9.07767E-05-2.59762E-05-2.77688E-05 7.04675E-06 1.67587E-19 1.40264E-18
 -1       518 9.22761E-05-2.74604E-05-2.77769E-05 7.61094E-06 1.51329E-18 2.14495E-19
 -1       519 9.35123E-05-2.86201E-05-2.78114E-05 7.29215E-06 3.28539E-19 1.18097E-18
 -1       520 9.43749E-05-2.93659E-05-2.78624E-05 6.41101E-06 2.59942E-22 1.24457E-18
 -1       521 9.49001E-05-2.97911E-05-2.79072E-05 5.26675E-06-7.00855E-19 1.68598E-18
 -1       522 9.52520E-05-3.01051E-05-2.79244E-05 4.10405E-06-6.24674E-20 2.18481E-18
 -1       523 9.49331E-05-2.71087E-05-2.90638E-05 1.10772E-06 1.20915E-18-7.08213E-19
 -1       524 7.37036E-05-2.28280E-05-2.12606E-05 3.78526E-05-1.13452E-18-3.24281E-18
 -1       525 9.46632E-05-2.76714E-05-2.87094E-05-5.78677E-08 1.03354E-18-6.61489E-19
 -1       526 9.45019E-05-2.80059E-05-2.84977E-05-7.15989E-07 1.14437E-18-7.84680E-19
 -1       527 9.44434E-05-2.82228E-05-2.83802E-05-1.04944E-06 1.04314E-18-7.35752E-19
 -1       528 9.44574E-05-2.83676E-05-2.83243E-05-1.17533E-06 8.58377E-19-7.62748E-19
 -1       529 9.45162E-05-2.84650E-05-2.83079E-05-1.17259E-06 4.16314E-19-9.13188E-19
 -1       530 9.45986E-05-2.85295E-05-2.83157E-05-1.09475E-06 1.20061E-19-1.21639E-18
 -1       531 9.46856E-05-2.85692E-05-2.83359E-05-9.84056E-07 1.37900E-20-9.12536E-19
 -1       532 9.47774E-05-2.85947E-05-2.83643E-05-8.52222E-07 2.35937E-19-1.01720E-18
 -1       533 9.48633E-05-2.86082E-05-2.83954E-05-7.19917E-07-1.90688E-19-8.40133E-19
 -1       534 9.49410E-05-2.86133E-05-2.84264E-05-5.97033E-07 6.61958E-19-4.16645E-19
 -1       535 9.50094E-05-2.86125E-05-2.84560E-05-4.89484E-07 5.65320E-19-1.28311E-20
 -1       536 9.50692E-05-2.86077E-05-2.84837E-05-4.00695E-07 2.00828E-19-2.80919E-20
 -1       537 9.51214E-05-2.85995E-05-2.85095E-05-3.32815E-07 5.19919E-19 8.53486E-20
 -1       538 9.51679E-05-2.85879E-05-2.85344E-05-2.87734E-07 3.66445E-19-2.89106E-19
 -1       539 9.52104E-05-2.85719E-05-2.85594E-05-2.68064E-07 4.93544E-19-1.07303E-18
 -1       540 9.52503E-05-2.85488E-05-2.85863E-05-2.78226E-07 6.03759E-19-6.81417E-19
 -1       541 9.52881E-05-2.85134E-05-2.86175E-05-3.25822E-07 4.70817E-19-1.59424E-18
 -1       542 9.53226E-05-2.84573E-05-2.86562E-05-4.23502E-07 2.05174E-19-2.17038E-18
 -1       543 9.53483E-05-2.83652E-05-2.87065E-05-5.91731E-07-2.07630E-19-2.79520E-18
 -1       544 9.53542E-05-2.82231E-05-2.87695E-05-8.45214E-07 6.57164E-19-2.76817E-18
 -1       545 9.53169E-05-2.79791E-05-2.88574E-05-1.25539E-06-2.83192E-19-1.86444E-18
 -1       546 9.51864E-05-2.75757E-05-2.89734E-05-1.88118E-06-8.99042E-19-2.42553E-18
 -1       547 9.48729E-05-2.69161E-05-2.91201E-05-2.81905E-06-9.81643E-19-2.00780E-18
 -1       548 9.42150E-05-2.58539E-05-2.92909E-05-4.19813E-06-1.26740E-18-1.69577E-18
 -1       549 9.29359E-05-2.41853E-05-2.94547E-05-6.17680E-06 5.89854E-19 1.03929E-19
 -1       550 9.05911E-05-2.16692E-05-2.95238E-05-8.92433E-06 1.18652E-18-3.04246E-19
 -1       551 8.65385E-05-1.81424E-05-2.92898E-05-1.25861E-05 2.99187E-19-5.11909E-19
 -1       552 8.00404E-05-1.38808E-05-2.82970E-05-1.72667E-05 1.32678E-18-1.52787E-18
 -1       553 7.07263E-05-1.05996E-05-2.55712E-05-2.31145E-05 2.09630E-18-2.44038E-18
 -1       554 6.12432E-05-1.09879E-05-2.10770E-05-2.91578E-05 4.88420E-19-4.16735E-18
 -1       555 7.81049E-05-1.52571E-05-2.66892E-05 3.04236E-05 4.35471E-19-1.59633E-18
 -1       556 9.26853E-05-2.19734E-05-3.02863E-05 1.07980E-05 1.52101E-18-2.76364E-18
 -1       557 8.48564E-05-1.75492E-05-2.88575E-05-3.33726E-06 4.95999E-19-3.34995E-18
 -1       558 8.83485E-05-2.12330E-05-2.87729E-05-9.47566E-06-1.34906E-18-1.44712E-18
 -1       559 8.46997E-05-1.65918E-05-2.92056E-05 4.56555E-06-7.82084E-19-4.86436E-19
 -1       560 9.30624E-05-2.58951E-05-2.87917E-05-1.22097E-05-1.43770E-18 7.06302E-20
 -1       561 9.71401E-05-2.99712E-05-2.87871E-05-1.15959E-05 4.30294E-19 1.23643E-18
 -1       562 9.96327E-05-3.26446E-05-2.87043E-05-8.74885E-06 5.65845E-19 3.50099E-19
 -1       563 1.00483E-04-3.38380E-05-2.85544E-05-5.00362E-06-1.49678E-20-1.37893E-18
 -1       564 1.00125E-04-3.38851E-05-2.83808E-05-1.45295E-06-2.16516E-18-4.19564E-19
 -1       565 9.90391E-05-3.31923E-05-2.82137E-05 1.42298E-06-1.57380E-18-1.28632E-19
 -1       566 9.75953E-05-3.20733E-05-2.80780E-05 3.25192E-06-2.17870E-18-8.24147E-20
 -1       567 9.64339E-05-3.11056E-05-2.79981E-05 3.98352E-06-3.75277E-19-1.02916E-18
 -1       568 3.32218E-05-1.57629E-05-6.80039E-06 3.82223E-05 1.03042E-18-4.82174E-19
 -1       569 3.19561E-05-1.37034E-05-7.21095E-06-2.30676E-05-4.85456E-20-3.11147E-18
 -1       570 1.43005E-04-6.03411E-06-5.93821E-05 5.62399E-06 4.10070E-19-2.00487E-18
 -1       571 8.19252E-05-3.66045E-05-1.88943E-05-4.04429E-05 3.87994E-19-5.92717E-18
 -1       572 8.82682E-05-1.87556E-05-2.97512E-05 1.71140E-05 6.74738E-19 9.21846E-19
 -1       573 8.29031E-05-1.56531E-05-2.87350E-05 2.29406E-05 1.02713E-18-7.02574E-19
 -1       574 9.54392E-05-2.50353E-05-3.01639E-05 4.92024E-06 2.42455E-18-5.63075E-19
 -1       575 8.91358E-05-1.28574E-05-3.27087E-05-1.95326E-06 2.91170E-20-3.63515E-18
 -1       576 9.52250E-05-2.63448E-05-2.95140E-05 2.66001E-06 1.73563E-18-6.97872E-19
 -1       577 6.92904E-05-3.75084E-05-1.32130E-05 5.38191E-05-7.25854E-19-3.38284E-19
 -1       578 1.99201E-05-6.83704E-06-4.87906E-06 2.86032E-06 5.42333E-19-3.91128E-18
 -1       579 6.17682E-05-3.48294E-05-1.10678E-05-5.24627E-05 1.43212E-18-5.35219E-19
 -1       580 2.01688E-05-5.51820E-06-5.39039E-06 9.33434E-06 1.23832E-18-1.09807E-18
 -1       581 1.35857E-04-6.15210E-05-3.18153E-05-3.31183E-05 1.32344E-18 1.46378E-20
 -1       582 1.16974E-04-5.74514E-05-2.52868E-05 4.52207E-05-5.85988E-19-1.41840E-18
 -1       583 1.43506E-04-5.93384E-05-3.61933E-05 2.57156E-05-1.16213E-18-1.17473E-19
 -1       584 1.53863E-04-4.53805E-05-4.68508E-05 1.88168E-06-1.37286E-18-2.13505E-19
 -1       585 1.49224E-04-2.20830E-05-5.50749E-05-9.31108E-06-1.22386E-18-4.83073E-19
 -1       586 1.42238E-04-5.72204E-06-5.92100E-05-5.55813E-06-1.52254E-19-1.41214E-18
 -1       587 1.50077E-04-2.40886E-05-5.46422E-05 8.59448E-06 6.28446E-19-5.69312E-19
 -1       588 1.01344E-04-5.32147E-05-2.03736E-05-5.16366E-05 3.03974E-18 2.03103E-18
 -1       589 4.84915E-05-1.94876E-05-1.17045E-05 3.36601E-05-2.08042E-18 2.49451E-19
 -1       590 9.89894E-05-4.69120E-05-2.19266E-05 4.00470E-05-1.88010E-18-5.30047E-18
 -1       591 9.13356E-05-1.58944E-05-3.23667E-05-7.67942E-06-1.77466E-18-3.52691E-18
 -1       592 8.82425E-05-1.85960E-05-2.98328E-05 9.02998E-06 1.86924E-18 7.50572E-19
 -1       593 4.84949E-05-1.90807E-05-1.20221E-05-4.05421E-05 5.80350E-19-1.52519E-18
 -1       594 1.45862E-04-5.82379E-05-3.77432E-05-1.30474E-05-5.71119E-19-1.78441E-18
 -1       595 1.47594E-04-3.82597E-05-4.72977E-05 7.00871E-06-9.67470E-20-1.43876E-18
 -1       596 9.15185E-05-1.68094E-05-3.20238E-05 2.42554E-06 1.18439E-18-3.20098E-18
 -1       597 9.12632E-05-1.64139E-05-3.20836E-05 8.26068E-07 7.00045E-19-3.26700E-18
 -1       598 9.28650E-05-1.89462E-05-3.16847E-05 5.27065E-06 2.16483E-18-2.25538E-18
 -1       599 9.39213E-05-2.08073E-05-3.13345E-05 6.19901E-06 2.49617E-18-1.77866E-18
 -1       600 9.49102E-05-2.30029E-05-3.08143E-05 5.83592E-06 2.45048E-18-1.28022E-18
 -1       601 9.41796E-05-2.09722E-05-3.13744E-05-7.06643E-06-2.05954E-18-2.54683E-18
 -1       602 9.53478E-05-2.81544E-05-2.87971E-05-7.14437E-07 9.36245E-19-1.31551E-18
 -1       603 9.54154E-05-2.56946E-05-2.98783E-05-2.44108E-06-1.43014E-18-2.06936E-18
 -1       604 9.54760E-05-2.69391E-05-2.93722E-05-8.60687E-07-1.22130E-18-1.87444E-18
 -1       605 9.54208E-05-2.77002E-05-2.90228E-05 1.45282E-07-9.80347E-19-1.52220E-18
 -1       606 9.53442E-05-2.81728E-05-2.87877E-05 7.36561E-07-7.46007E-19-1.62385E-18
 -1       607 9.52793E-05-2.84645E-05-2.86350E-05 1.04110E-06-7.05289E-19-1.32221E-18
 -1       608 9.52336E-05-2.86392E-05-2.85406E-05 1.15526E-06-4.69174E-19-1.00003E-18
 -1       609 9.52055E-05-2.87368E-05-2.84867E-05 1.14891E-06-5.84065E-19-5.78720E-19
 -1       610 9.51907E-05-2.87833E-05-2.84604E-05 1.07154E-06-6.56444E-19-3.26300E-19
 -1       611 9.51851E-05-2.87965E-05-2.84524E-05 9.57375E-07-7.31510E-19-6.70604E-19
 -1       612 9.51853E-05-2.87884E-05-2.84559E-05 8.29437E-07-1.21427E-19-1.29548E-18
 -1       613 9.51888E-05-2.87677E-05-2.84663E-05 7.02679E-07-1.64362E-19-1.16934E-18
 -1       614 9.51940E-05-2.87401E-05-2.84803E-05 5.86309E-07-4.84109E-19-1.60347E-18
 -1       615 9.52000E-05-2.87096E-05-2.84960E-05 4.85517E-07-1.31524E-18-1.38201E-18
 -1       616 9.52063E-05-2.86791E-05-2.85117E-05 4.02686E-07-1.08409E-18-1.06668E-18
 -1       617 9.52133E-05-2.86512E-05-2.85266E-05 3.38186E-07-6.25925E-19-8.20196E-19
 -1       618 9.52219E-05-2.86283E-05-2.85401E-05 2.90790E-07 6.25225E-20-1.00444E-18
 -1       619 9.52338E-05-2.86137E-05-2.85515E-05 2.57739E-07 1.99579E-19-1.55424E-18
 -1       620 9.52525E-05-2.86122E-05-2.85601E-05 2.34433E-07 6.19860E-19-1.53246E-18
 -1       621 9.52831E-05-2.86309E-05-2.85652E-05 2.13756E-07 6.64932E-19-2.19469E-18
 -1       622 9.53333E-05-2.86801E-05-2.85657E-05 1.84973E-07-8.75308E-20-2.10569E-18
 -1       623 9.54141E-05-2.87734E-05-2.85604E-05 1.32245E-07-1.13933E-18-1.38116E-18
 -1       624 9.55401E-05-2.89284E-05-2.85480E-05 3.28195E-08-8.21952E-19-1.08365E-18
 -1       625 9.57287E-05-2.91642E-05-2.85278E-05-1.44796E-07 1.02120E-19-3.37366E-19
 -1       626 9.59977E-05-2.94977E-05-2.85003E-05-4.42031E-07 2.04781E-19-6.82098E-19
 -1       627 9.63597E-05-2.99355E-05-2.84680E-05-9.09547E-07-2.99803E-19 9.54297E-20
 -1       628 9.68120E-05-3.04603E-05-2.84371E-05-1.60241E-06 4.55328E-20 1.12771E-18
 -1       629 9.73217E-05-3.10135E-05-2.84186E-05-2.56775E-06-2.56499E-19 1.65330E-18
 -1       630 9.78081E-05-3.14766E-05-2.84287E-05-3.82082E-06-2.92007E-19 1.09948E-18
 -1       631 9.81320E-05-3.16630E-05-2.84875E-05-5.30696E-06 1.41599E-18 8.45411E-19
 -1       632 9.81055E-05-3.13388E-05-2.86147E-05-6.85429E-06 4.89074E-19 1.63108E-18
 -1       633 9.75438E-05-3.02945E-05-2.88209E-05-8.13753E-06 2.94845E-19 1.00131E-18
 -1       634 9.63666E-05-2.84710E-05-2.90971E-05-8.69352E-06 7.09348E-19 7.71847E-21
 -1       635 9.47221E-05-2.61045E-05-2.94062E-05-8.04029E-06-3.42818E-19-2.73902E-19
 -1       636 9.30381E-05-2.37738E-05-2.96831E-05-5.91542E-06-4.83631E-19-1.66714E-19
 -1       637 9.18903E-05-2.22236E-05-2.98551E-05-2.50839E-06 1.51151E-19 1.56902E-20
 -1       638 9.17324E-05-2.20319E-05-2.98711E-05 1.48220E-06 1.52833E-18-1.70221E-18
 -1       639 9.26042E-05-2.32511E-05-2.97221E-05 5.10039E-06 2.20501E-19-3.26613E-18
 -1       640 9.41152E-05-2.53947E-05-2.94500E-05 7.56027E-06 8.36945E-19-2.95540E-18
 -1       641 9.56701E-05-2.77059E-05-2.91262E-05 8.56609E-06 1.12109E-18-1.12413E-18
 -1       642 9.67895E-05-2.95589E-05-2.88129E-05 8.31482E-06 1.43568E-18-1.59008E-18
 -1       643 9.72777E-05-3.06776E-05-2.85439E-05 7.27399E-06-1.07865E-19-9.62540E-19
 -1       644 9.72252E-05-3.11449E-05-2.83221E-05 5.92368E-06-1.04812E-19 2.43225E-19
 -1       645 9.68163E-05-3.11269E-05-2.81527E-05 4.92635E-06-7.77003E-19 4.16940E-19
 -1       646 4.23228E-05-5.74814E-06-1.50923E-05 1.98024E-05-3.70974E-19-1.90307E-18
 -1       647 9.54804E-05-2.68912E-05-2.93956E-05 9.29073E-07 1.35392E-18-1.45553E-18
 -1       648 9.52823E-05-2.84535E-05-2.86409E-05-1.03060E-06 7.94454E-19-1.03627E-18
 -1       649 9.52360E-05-2.86334E-05-2.85441E-05-1.15212E-06 6.25458E-19-7.04547E-19
 -1       650 9.52075E-05-2.87345E-05-2.84885E-05-1.15009E-06 4.63108E-19-4.35557E-19
 -1       651 9.51932E-05-2.87821E-05-2.84620E-05-1.07978E-06-1.99544E-19-3.88622E-19
 -1       652 9.51880E-05-2.87989E-05-2.84526E-05-9.67603E-07-3.38387E-19-3.05614E-19
 -1       653 9.51891E-05-2.87935E-05-2.84554E-05-8.39633E-07 1.86820E-19-5.09687E-20
 -1       654 9.51941E-05-2.87746E-05-2.84656E-05-7.11656E-07 7.72230E-20-8.63866E-19
 -1       655 9.52015E-05-2.87479E-05-2.84802E-05-5.93682E-07 2.36634E-19-6.85481E-19
 -1       656 9.52100E-05-2.87169E-05-2.84971E-05-4.91824E-07-3.38912E-20 1.64566E-22
 -1       657 9.52188E-05-2.86833E-05-2.85153E-05-4.09805E-07 7.68060E-19-2.13968E-19
 -1       658 9.52271E-05-2.86471E-05-2.85343E-05-3.50144E-07 7.08115E-19-3.77004E-19
 -1       659 9.52335E-05-2.86064E-05-2.85545E-05-3.15157E-07 9.34647E-19-1.05756E-19
 -1       660 9.52356E-05-2.85573E-05-2.85764E-05-3.07875E-07 5.08393E-19-8.24023E-19
 -1       661 9.52292E-05-2.84928E-05-2.86012E-05-3.32977E-07 1.20802E-18-1.22845E-18
 -1       662 9.52060E-05-2.84014E-05-2.86305E-05-3.97843E-07 7.69265E-19-1.54092E-18
 -1       663 9.51515E-05-2.82642E-05-2.86659E-05-5.13654E-07 6.47675E-19-2.05006E-18
 -1       664 9.50481E-05-2.80652E-05-2.87067E-05-6.85638E-07-5.57281E-20-1.83836E-18
 -1       665 9.48442E-05-2.77409E-05-2.87582E-05-9.52840E-07-1.51730E-19-8.08899E-19
 -1       666 9.44703E-05-2.72296E-05-2.88170E-05-1.33622E-06-4.58971E-19-1.19200E-18
 -1       667 9.38073E-05-2.64286E-05-2.88757E-05-1.86709E-06-1.00275E-18-1.68633E-18
 -1       668 9.26598E-05-2.51890E-05-2.89148E-05-2.57217E-06-1.10451E-18-1.46236E-18
 -1       669 9.07185E-05-2.33085E-05-2.88882E-05-3.45570E-06-8.52558E-19-2.15026E-18
 -1       670 8.75107E-05-2.05416E-05-2.86983E-05-4.46760E-06 4.14310E-19-1.16853E-18
 -1       671 8.23496E-05-1.66598E-05-2.81463E-05-5.46161E-06 8.48801E-19 7.43974E-19
 -1       672 7.42958E-05-1.16153E-05-2.68347E-05-6.17523E-06 1.60225E-18-5.61726E-19
 -1       673 6.22236E-05-6.08904E-06-2.39401E-05-6.20895E-06 1.80520E-18-5.34577E-19
 -1       674 4.87633E-05-2.47573E-06-1.94754E-05-5.93590E-06 2.66537E-18-1.22462E-18
 -1       675 9.69552E-05-3.10183E-05-2.82585E-05-1.60370E-05 4.05833E-19 1.78781E-18
 -1       676 9.50882E-05-2.38552E-05-3.05289E-05-4.47925E-06-1.78491E-18-2.27635E-18
 -1       677 5.98308E-05-2.37253E-05-1.49914E-05 4.42141E-05 9.14001E-19-8.18657E-19
 -1       678 8.17352E-05-1.82760E-05-2.71857E-05-1.09714E-05-1.22453E-18-2.84380E-18
 -1       679 7.75167E-05-1.38307E-05-2.72898E-05-1.36314E-06-1.40731E-18-2.24991E-18
 -1       680 8.95069E-05-2.49847E-05-2.76474E-05-1.60451E-05 3.36610E-19-1.02368E-18
 -1       681 1.01852E-04-3.48055E-05-2.87323E-05-1.25474E-05 5.45656E-20 1.01706E-18
 -1       682 1.03790E-04-3.62122E-05-2.89585E-05-7.65826E-06 4.96836E-19-8.06559E-19
 -1       683 1.03497E-04-3.59289E-05-2.89544E-05-2.96578E-06 9.41105E-19-2.97913E-18
 -1       684 1.01893E-04-3.47112E-05-2.87882E-05 8.78593E-07-2.42409E-19-4.71020E-19
 -1       685 9.96971E-05-3.31199E-05-2.85310E-05 3.55072E-06-1.11790E-18-1.61115E-19
 -1       686 6.15755E-05-6.40053E-06-2.34762E-05 1.38359E-05 1.58954E-19-2.59650E-18
 -1       687 3.22163E-05-4.42503E-06-1.11879E-05-1.21481E-05-3.88788E-19-4.57668E-18
 -1       688 9.20420E-05-1.76300E-05-3.18966E-05 3.93794E-06 1.74585E-18-2.79354E-18
 -1       689 7.44041E-05-1.12854E-05-2.70072E-05 1.16160E-05 7.18338E-19-2.33932E-18
 -1       690 9.89686E-05-4.64016E-05-2.22630E-05 4.50061E-05 8.68871E-19-2.78508E-19
 -1       691 1.24518E-04-3.68536E-06-5.23493E-05 2.24709E-07 6.54756E-19 1.34318E-20
 -1       692 9.20198E-05-1.75999E-05-3.18998E-05-3.90624E-06-9.01401E-19-3.19776E-18
 -1       693 1.30553E-04-1.42192E-05-5.04341E-05 1.17890E-05 1.86347E-20-3.16949E-19
 -1       694 1.19903E-04-5.69485E-05-2.68041E-05-3.77089E-05 1.34064E-18 2.63505E-18
 -1       695 1.32864E-04-5.98471E-05-3.12453E-05 2.64232E-05 8.37107E-20 1.75853E-18
 -1       696 1.44046E-04-5.43034E-05-3.87036E-05 5.34007E-06-1.44992E-19 2.13849E-19
 -1       697 1.41388E-04-3.43567E-05-4.62752E-05-1.09824E-05-7.00840E-19 7.41789E-19
 -1       698 3.63050E-05-5.52333E-06-1.26151E-05 2.16627E-05 1.58013E-18-6.29028E-19
 -1       699 9.54239E-05-2.76702E-05-2.90371E-05-1.05485E-07 1.16223E-18-1.52114E-18
 -1       700 1.29697E-04-1.30173E-05-5.05173E-05-1.18554E-05-5.92817E-19-4.00977E-19
 -1       701 8.82580E-05-4.24834E-05-1.92784E-05-4.83233E-05 1.12655E-19 1.53133E-18
 -1       702 3.43458E-05-1.07183E-06-1.35929E-05-2.04918E-07 1.61812E-18-1.42995E-18
 -1       703 9.52713E-05-2.49960E-05-3.01164E-05 3.52198E-06 1.90257E-18-1.22010E-18
 -1       704 9.12609E-05-1.64103E-05-3.20842E-05-7.96075E-07 1.41624E-19-3.32256E-18
 -1       705 9.15088E-05-1.67952E-05-3.20256E-05-2.39070E-06-3.34463E-19-3.02723E-18
 -1       706 9.28514E-05-1.89024E-05-3.16966E-05-5.29520E-06-1.36668E-18-3.30522E-18
 -1       707 8.05481E-05-1.45762E-05-2.82550E-05 6.95344E-06-5.68373E-19-3.37693E-18
 -1       708 4.64788E-05-9.51334E-06-1.53620E-05-2.52110E-05-1.76990E-19-2.48051E-18
 -1       709 7.23971E-05-2.85524E-05-1.83921E-05-4.27981E-05-4.63751E-20 2.15790E-18
 -1       710 1.32916E-04-5.91063E-05-3.16476E-05-2.24870E-05 1.72960E-19-1.44492E-18
 -1       711 1.43028E-04-4.94758E-05-4.03275E-05 1.32017E-06-7.72653E-19-1.97942E-18
 -1       712 1.32621E-04-2.58170E-05-4.61439E-05 1.33189E-05-5.81859E-19-8.42943E-19
 -1       713 9.54167E-05-2.61091E-05-2.97045E-05 2.04893E-06 1.33605E-18-1.19164E-18
 -1       714 9.49486E-05-2.34882E-05-3.06238E-05 4.08150E-06 1.97180E-18-1.63997E-18
 -1       715 1.25280E-04-2.49128E-05-4.32548E-05-1.42853E-05-1.41679E-19 7.54567E-19
 -1       716 9.58835E-05-2.86562E-05-2.88117E-05-9.49617E-07 3.16157E-19-9.46044E-19
 -1       717 6.42746E-05-8.03292E-06-2.39861E-05-1.42127E-06-2.53175E-19-4.00412E-18
 -1       718 9.58534E-05-2.68210E-05-2.95849E-05 6.24621E-07 1.11387E-18-1.68229E-18
 -1       719 9.58604E-05-2.68742E-05-2.95657E-05-5.75298E-07-7.87280E-19-2.06025E-18
 -1       720 9.59528E-05-2.77636E-05-2.92240E-05 2.30394E-07-9.23265E-19-1.63263E-18
 -1       721 9.59408E-05-2.83261E-05-2.89778E-05 7.10691E-07-7.00768E-19-1.70734E-18
 -1       722 9.58792E-05-2.86684E-05-2.88046E-05 9.57834E-07-1.87887E-19-1.62531E-18
 -1       723 9.57975E-05-2.88628E-05-2.86863E-05 1.04614E-06-2.78826E-19-1.43076E-18
 -1       724 9.57112E-05-2.89583E-05-2.86084E-05 1.03266E-06-4.56050E-19-1.12328E-18
 -1       725 9.56284E-05-2.89889E-05-2.85598E-05 9.59127E-07-7.79854E-19-7.28783E-19
 -1       726 9.55529E-05-2.89784E-05-2.85320E-05 8.54929E-07-5.19197E-19-2.11301E-19
 -1       727 9.54865E-05-2.89432E-05-2.85186E-05 7.40049E-07-3.63430E-19-9.58017E-19
 -1       728 9.54293E-05-2.88945E-05-2.85149E-05 6.27525E-07-1.01962E-18-1.58992E-18
 -1       729 9.53807E-05-2.88400E-05-2.85175E-05 5.25414E-07-7.55750E-19-1.96843E-18
 -1       730 9.53401E-05-2.87847E-05-2.85238E-05 4.38287E-07-8.54275E-19-1.33284E-18
 -1       731 9.53068E-05-2.87323E-05-2.85320E-05 3.68303E-07-7.63152E-19-9.26906E-19
 -1       732 9.52808E-05-2.86859E-05-2.85407E-05 3.15929E-07-5.69425E-19-7.71923E-19
 -1       733 9.52629E-05-2.86491E-05-2.85488E-05 2.80326E-07 2.83526E-21-6.88627E-19
 -1       734 9.52559E-05-2.86269E-05-2.85553E-05 2.59420E-07 1.96826E-19-8.92903E-19
 -1       735 9.52651E-05-2.86266E-05-2.85593E-05 2.49640E-07 3.11740E-19-7.83326E-19
 -1       736 9.52998E-05-2.86598E-05-2.85600E-05 2.45251E-07 4.38498E-19-1.25483E-18
 -1       737 9.53742E-05-2.87428E-05-2.85563E-05 2.37210E-07-2.11851E-19-1.28631E-18
 -1       738 9.55095E-05-2.88976E-05-2.85480E-05 2.11410E-07-8.20380E-19-1.23025E-19
 -1       739 9.57344E-05-2.91522E-05-2.85352E-05 1.46230E-07-4.24567E-19-2.00741E-19
 -1       740 9.60844E-05-2.95374E-05-2.85202E-05 9.41322E-09 4.57653E-19-2.41119E-20
 -1       741 9.65985E-05-3.00805E-05-2.85078E-05-2.45290E-07 6.99020E-19 9.15360E-19
 -1       742 9.73098E-05-3.07923E-05-2.85076E-05-6.80392E-07-9.87412E-20 1.55821E-18
 -1       743 9.82282E-05-3.16457E-05-2.85356E-05-1.37276E-06 9.67929E-20 2.09032E-18
 -1       744 9.93137E-05-3.25455E-05-2.86153E-05-2.40162E-06-9.43309E-19 2.11864E-18
 -1       745 1.00443E-04-3.32964E-05-2.87775E-05-3.81716E-06 7.81806E-19 2.10580E-18
 -1       746 1.01385E-04-3.35881E-05-2.90562E-05-5.58107E-06 2.92476E-19 1.25502E-18
 -1       747 1.01815E-04-3.30352E-05-2.94773E-05-7.48108E-06 1.95297E-19 2.32121E-19
 -1       748 1.01410E-04-3.13107E-05-3.00420E-05-9.05712E-06-8.08677E-19 2.44711E-19
 -1       749 1.00037E-04-2.83873E-05-3.07063E-05-9.60986E-06-2.93632E-19-4.63629E-20
 -1       750 9.80042E-05-2.48159E-05-3.13667E-05-8.43047E-06-1.38018E-18-9.82814E-19
 -1       751 9.60661E-05-2.16956E-05-3.18733E-05-5.27321E-06 8.25694E-20-6.82790E-19
 -1       752 9.51418E-05-2.02705E-05-3.20850E-05-6.58027E-07-1.55281E-19-1.08731E-18
 -1       753 9.56664E-05-2.11312E-05-3.19465E-05 4.09227E-06 1.26224E-19-1.90858E-18
 -1       754 9.73707E-05-2.39225E-05-3.14767E-05 7.64430E-06 1.51672E-18-1.08289E-18
 -1       755 9.93135E-05-2.73908E-05-3.08214E-05 9.23977E-06 2.17423E-18-1.44041E-18
 -1       756 1.00669E-04-3.03726E-05-3.01273E-05 9.01391E-06 1.88524E-18-1.90154E-18
 -1       757 1.01021E-04-3.22082E-05-2.94915E-05 7.63986E-06 9.16666E-19-5.57656E-19
 -1       758 1.00470E-04-3.28939E-05-2.89615E-05 5.87125E-06 7.84020E-19 4.95772E-19
 -1       759 9.58030E-05-2.88572E-05-2.86911E-05-1.04395E-06 2.67786E-19-8.65657E-19
 -1       760 4.61173E-05-3.65902E-06-1.78400E-05 1.12961E-05 2.75998E-18 2.90373E-20
 -1       761 9.59430E-05-2.83044E-05-2.89880E-05-6.92907E-07 6.57518E-19-1.23056E-18
 -1       762 9.57215E-05-2.89538E-05-2.86148E-05-1.03658E-06 2.37642E-19-5.52222E-19
 -1       763 9.56395E-05-2.89908E-05-2.85637E-05-9.67470E-07-3.53251E-19-4.98519E-19
 -1       764 9.55647E-05-2.89845E-05-2.85344E-05-8.65177E-07-6.48816E-20-9.31973E-19
 -1       765 9.54992E-05-2.89521E-05-2.85202E-05-7.50628E-07 3.17015E-19-1.04345E-18
 -1       766 9.54433E-05-2.89050E-05-2.85164E-05-6.37644E-07-6.90931E-21-7.39550E-19
 -1       767 9.53964E-05-2.88503E-05-2.85198E-05-5.35005E-07 2.30053E-19-3.89572E-19
 -1       768 9.53569E-05-2.87920E-05-2.85278E-05-4.48109E-07 4.99501E-19-1.00356E-18
 -1       769 9.53229E-05-2.87314E-05-2.85392E-05-3.80236E-07 4.97514E-19-6.99347E-19
 -1       770 9.52911E-05-2.86672E-05-2.85531E-05-3.33515E-07 7.34060E-19-5.67554E-19
 -1       771 9.52573E-05-2.85956E-05-2.85693E-05-3.09659E-07 1.23280E-18-1.03053E-18
 -1       772 9.52145E-05-2.85097E-05-2.85878E-05-3.10501E-07 9.40024E-19-1.60108E-18
 -1       773 9.51520E-05-2.83980E-05-2.86089E-05-3.38324E-07 9.89384E-19-1.53064E-18
 -1       774 9.50523E-05-2.82422E-05-2.86329E-05-3.95720E-07 8.96661E-19-1.29853E-18
 -1       775 9.48984E-05-2.80292E-05-2.86582E-05-4.80165E-07 8.23059E-20-9.49553E-19
 -1       776 9.46326E-05-2.76983E-05-2.86861E-05-6.01256E-07-8.13300E-20-1.13207E-18
 -1       777 9.41914E-05-2.71987E-05-2.87112E-05-7.50615E-07-2.04448E-19-1.95511E-18
 -1       778 9.34683E-05-2.64469E-05-2.87234E-05-9.10688E-07-4.11317E-20-2.01923E-18
 -1       779 9.22997E-05-2.53283E-05-2.87020E-05-1.03654E-06-1.36728E-18-2.53052E-18
 -1       780 9.04431E-05-2.36972E-05-2.86055E-05-1.03126E-06-4.86709E-19-1.91561E-18
 -1       781 8.75512E-05-2.13901E-05-2.83549E-05-7.06647E-07-6.41271E-19-1.34919E-18
 -1       782 8.31491E-05-1.82718E-05-2.78035E-05 2.71170E-07 7.40471E-21-1.66606E-18
 -1       783 7.66169E-05-1.43362E-05-2.66819E-05 2.43350E-06 9.36568E-19-8.40406E-19
 -1       784 6.72533E-05-1.00056E-05-2.44687E-05 6.61376E-06 1.90029E-18-5.21392E-19
 -1       785 5.80534E-05-6.48195E-06-2.19172E-05 9.01218E-06 2.40637E-18-8.62187E-19
 -1       786 1.04092E-04-3.77161E-05-2.84396E-05-1.72896E-05-9.04725E-19 5.07146E-19
 -1       787 1.07907E-04-3.96425E-05-2.92526E-05-1.06456E-05-2.43092E-20 6.88955E-19
 -1       788 4.98702E-05-4.01489E-06-1.92804E-05-6.14913E-06 3.44504E-19-4.91340E-18
 -1       789 9.52945E-05-3.19107E-05-2.71658E-05-2.18368E-05 6.27023E-19 8.57455E-21
 -1       790 1.07918E-04-3.89392E-05-2.95617E-05-4.44928E-06 3.58858E-19-1.44715E-18
 -1       791 1.05766E-04-3.69499E-05-2.94949E-05 4.82605E-07 5.06570E-19-1.94135E-18
 -1       792 8.17720E-05-3.13423E-05-2.13561E-05 3.89340E-05 2.28191E-18 5.74738E-19
 -1       793 1.16960E-04-9.44360E-06-4.64126E-05 6.97761E-06 8.77606E-19-6.04514E-19
 -1       794 9.59515E-05-2.77288E-05-2.92383E-05-1.98815E-07 8.77184E-19-1.36845E-18
 -1       795 1.03668E-04-4.52916E-05-2.48054E-05-3.74591E-05 8.24309E-19 7.98626E-19
 -1       796 7.16745E-05-1.34704E-05-2.48856E-05-1.17583E-05-7.82126E-19-2.49345E-18
 -1       797 9.55642E-05-2.54916E-05-3.00312E-05-1.80311E-06-1.13711E-18-2.26563E-18
 -1       798 9.31719E-05-1.97415E-05-3.14713E-05 1.22599E-06 8.22394E-19-2.75330E-18
 -1       799 8.28369E-05-2.25462E-05-2.57802E-05-2.08924E-05 1.72185E-18-1.96293E-19
 -1       800 5.76489E-05-1.46108E-05-1.80960E-05 3.12439E-05 2.10496E-18-1.39292E-18
 -1       801 1.34505E-04-4.35614E-05-3.91413E-05-7.54345E-06-6.09056E-19-3.36570E-19
 -1       802 1.15726E-04-8.86647E-06-4.60731E-05-6.81013E-06 3.39157E-19-8.54061E-19
 -1       803 1.33731E-04-5.52387E-05-3.37011E-05 1.04364E-05 1.17794E-19 8.26989E-19
 -1       804 1.16929E-04-5.16941E-05-2.79342E-05 2.85529E-05-9.47618E-20 7.64010E-19
 -1       805 9.30639E-05-1.95471E-05-3.15084E-05 1.11444E-08 3.32892E-19-2.85496E-18
 -1       806 9.55675E-05-2.54416E-05-3.00528E-05 1.87812E-06 1.40061E-18-1.82481E-18
 -1       807 9.49974E-05-2.36173E-05-3.05906E-05-3.31853E-06-1.45081E-18-2.47363E-18
 -1       808 9.39751E-05-2.12810E-05-3.11580E-05-3.26764E-06-1.01506E-18-2.95408E-18
 -1       809 1.19251E-04-1.67168E-05-4.41744E-05 1.15032E-05 8.81179E-19-2.68102E-19
 -1       810 1.01963E-04-4.13754E-05-2.59008E-05 3.06558E-05 9.20017E-19-1.40858E-18
 -1       811 1.02618E-04-3.45652E-05-2.91654E-05 3.79849E-06 3.59982E-19-5.55607E-20
 -1       812 1.17422E-04-5.18876E-05-2.80318E-05-2.85632E-05 2.40868E-18 3.60307E-20
 -1       813 1.36228E-04-5.52927E-05-3.47702E-05-8.58016E-06-6.01039E-19-2.74288E-18
 -1       814 1.33095E-04-3.73516E-05-4.12353E-05 1.06843E-05 2.22928E-19-1.61669E-18
 -1       815 9.34839E-05-2.03168E-05-3.13580E-05 2.35216E-06 1.26545E-18-2.62355E-18
 -1       816 9.34719E-05-2.03025E-05-3.13601E-05-2.32054E-06-5.80981E-19-2.71308E-18
 -1       817 9.40438E-05-2.13587E-05-3.11513E-05 3.31617E-06 1.70902E-18-2.13538E-18
 -1       818 9.31632E-05-1.97326E-05-3.14724E-05-1.19726E-06-1.61230E-19-2.78387E-18
 -1       819 1.13514E-04-4.27061E-05-3.03422E-05-5.56773E-06 3.12122E-19-1.15232E-18
 -1       820 9.57806E-05-2.55229E-05-3.01069E-05 1.22425E-06 1.13041E-18-1.68060E-18
 -1       821 9.62030E-05-2.90443E-05-2.87823E-05-8.75161E-07 1.87324E-19-8.68354E-19
 -1       822 9.63482E-05-2.79103E-05-2.93307E-05 3.01463E-07-6.48600E-19-1.81870E-18
 -1       823 9.63676E-05-2.85038E-05-2.90845E-05 6.48885E-07-4.03428E-19-1.37685E-18
 -1       824 9.63021E-05-2.88602E-05-2.89037E-05 8.22021E-07-2.63750E-19-1.62849E-18
 -1       825 9.61922E-05-2.90531E-05-2.87739E-05 8.75775E-07-2.26285E-19-2.12207E-18
 -1       826 9.60637E-05-2.91360E-05-2.86833E-05 8.53076E-07-2.61521E-19-1.80516E-18
 -1       827 9.59323E-05-2.91470E-05-2.86223E-05 7.85855E-07-4.93302E-19-1.45066E-18
 -1       828 9.58072E-05-2.91135E-05-2.85830E-05 6.96815E-07-6.23010E-19-1.56127E-18
 -1       829 9.56932E-05-2.90542E-05-2.85596E-05 6.01452E-07-8.62276E-19-1.15841E-18
 -1       830 9.55923E-05-2.89819E-05-2.85473E-05 5.09901E-07-1.10578E-18-1.33411E-18
 -1       831 9.55047E-05-2.89052E-05-2.85426E-05 4.28483E-07-6.89863E-19-1.97341E-18
 -1       832 9.54300E-05-2.88298E-05-2.85429E-05 3.60909E-07-6.23550E-19-2.06213E-18
 -1       833 9.53672E-05-2.87597E-05-2.85461E-05 3.09196E-07-2.40052E-19-1.63209E-18
 -1       834 9.53164E-05-2.86987E-05-2.85504E-05 2.74316E-07 6.43822E-20-8.54766E-19
 -1       835 9.52788E-05-2.86513E-05-2.85546E-05 2.56611E-07-1.00728E-19-7.91645E-19
 -1       836 9.52585E-05-2.86243E-05-2.85575E-05 2.55984E-07 3.54575E-19-1.02019E-18
 -1       837 9.52633E-05-2.86280E-05-2.85580E-05 2.71789E-07 2.98720E-19-9.29997E-19
 -1       838 9.53073E-05-2.86784E-05-2.85552E-05 3.02324E-07 2.50374E-19-7.82120E-19
 -1       839 9.54124E-05-2.87985E-05-2.85488E-05 3.43696E-07 8.50118E-20-1.70503E-18
 -1       840 9.56112E-05-2.90198E-05-2.85392E-05 3.87694E-07-5.49388E-20-1.32864E-18
 -1       841 9.59490E-05-2.93826E-05-2.85285E-05 4.18179E-07-2.87509E-19-3.26075E-19
 -1       842 9.64835E-05-2.99324E-05-2.85219E-05 4.05514E-07 1.07189E-18-6.86467E-19
 -1       843 9.72804E-05-3.07119E-05-2.85294E-05 2.98857E-07 8.44722E-19-8.99647E-19
 -1       844 9.84017E-05-3.17418E-05-2.85685E-05 1.74156E-08 6.35431E-19 1.39295E-19
 -1       845 9.98785E-05-3.29890E-05-2.86670E-05-5.55092E-07-1.63704E-19 4.46201E-19
 -1       846 1.01667E-04-3.43166E-05-2.88649E-05-1.56209E-06-1.73133E-19 8.61516E-19
 -1       847 1.03591E-04-3.54278E-05-2.92134E-05-3.13359E-06-4.60207E-19-9.87452E-19
 -1       848 1.05281E-04-3.58261E-05-2.97675E-05-5.28725E-06 7.26553E-20-5.37442E-19
 -1       849 1.06207E-04-3.48948E-05-3.05634E-05-7.76008E-06 1.55232E-19-4.43009E-19
 -1       850 1.05807E-04-3.20988E-05-3.15895E-05-9.86621E-06 5.32121E-20 3.99974E-19
 -1       851 1.03950E-04-2.75704E-05-3.27273E-05-1.04612E-05-1.30494E-18-7.48086E-19
 -1       852 1.01164E-04-2.23406E-05-3.37964E-05-8.49617E-06-1.18953E-18 2.41602E-20
 -1       853 9.90522E-05-1.86407E-05-3.44623E-05-3.80784E-06 1.97259E-19-1.66219E-18
 -1       854 9.87636E-05-1.83254E-05-3.44655E-05 2.23931E-06 1.64344E-20-1.69139E-18
 -1       855 1.00477E-04-2.13542E-05-3.38983E-05 7.30535E-06 1.10023E-19-8.37987E-19
 -1       856 1.03187E-04-2.62978E-05-3.29355E-05 9.84475E-06 2.46144E-18-1.38340E-18
 -1       857 1.05147E-04-3.09592E-05-3.17985E-05 9.68543E-06 2.06272E-18-1.85523E-19
 -1       858 1.05562E-04-3.39274E-05-3.07126E-05 7.78275E-06 1.09239E-18-4.81980E-19
 -1       859 1.04484E-04-3.48519E-05-2.98449E-05 5.71823E-06 1.75833E-18-9.88090E-19
 -1       860 9.60765E-05-2.91351E-05-2.86892E-05-8.57057E-07 1.91944E-20-7.01649E-19
 -1       861 9.63696E-05-2.84812E-05-2.90950E-05-6.36314E-07 3.61281E-19-1.13559E-18
 -1       862 9.59462E-05-2.91513E-05-2.86264E-05-7.92555E-07 4.65979E-20-5.92265E-19
 -1       863 9.58221E-05-2.91213E-05-2.85861E-05-7.04946E-07 2.52587E-19-7.02765E-19
 -1       864 9.57091E-05-2.90640E-05-2.85622E-05-6.10265E-07 1.40431E-19-5.95261E-19
 -1       865 9.56093E-05-2.89922E-05-2.85502E-05-5.19054E-07-4.09867E-20-1.01154E-18
 -1       866 9.55223E-05-2.89134E-05-2.85467E-05-4.37937E-07 6.14730E-19-1.06823E-18
 -1       867 9.54461E-05-2.88314E-05-2.85492E-05-3.70823E-07 4.39838E-19-1.59564E-18
 -1       868 9.53774E-05-2.87467E-05-2.85560E-05-3.19785E-07 6.34913E-19-1.91566E-18
 -1       869 9.53109E-05-2.86569E-05-2.85660E-05-2.85621E-07 9.05859E-19-1.38066E-18
 -1       870 9.52394E-05-2.85562E-05-2.85785E-05-2.68094E-07 1.22532E-18-1.04813E-18
 -1       871 9.51519E-05-2.84351E-05-2.85929E-05-2.65780E-07 1.09394E-18-1.04399E-18
 -1       872 9.50324E-05-2.82790E-05-2.86086E-05-2.75176E-07 5.14131E-19-1.03554E-18
 -1       873 9.48675E-05-2.80790E-05-2.86237E-05-2.89048E-07 5.52249E-19-1.14624E-18
 -1       874 9.46061E-05-2.77852E-05-2.86376E-05-2.96343E-07-2.50576E-20-1.44051E-18
 -1       875 9.42016E-05-2.73639E-05-2.86448E-05-2.71654E-07 6.52346E-20-6.64255E-19
 -1       876 9.35772E-05-2.67595E-05-2.86362E-05-1.70263E-07 5.34981E-19-1.06838E-18
 -1       877 9.26238E-05-2.59026E-05-2.85949E-05 8.79369E-08-4.78587E-19-1.14000E-18
 -1       878 9.11932E-05-2.47168E-05-2.84901E-05 6.41442E-07-1.19741E-18-1.53694E-18
 -1       879 8.90980E-05-2.31403E-05-2.82678E-05 1.72123E-06-7.95495E-19-1.67019E-18
 -1       880 8.61250E-05-2.11728E-05-2.78364E-05 3.69625E-06-4.65313E-19-2.41609E-18
 -1       881 8.20793E-05-1.89690E-05-2.70433E-05 7.12444E-06 2.04875E-19-2.19405E-18
 -1       882 7.69596E-05-1.70747E-05-2.56379E-05 1.28313E-05 7.17758E-19-2.38753E-18
 -1       883 1.10519E-04-3.95138E-05-3.04284E-05 5.92609E-07-1.63457E-20-1.30473E-18
 -1       884 1.13045E-04-4.41825E-05-2.95120E-05-1.42003E-05 1.88923E-18 2.08774E-18
 -1       885 9.63447E-05-2.78734E-05-2.93448E-05-2.79372E-07 4.70275E-19-1.43354E-18
 -1       886 6.24703E-05-1.20036E-05-2.14713E-05-1.95558E-05-7.45301E-19-1.72665E-18
 -1       887 1.07748E-04-1.08309E-05-4.16451E-05 4.45376E-07 3.23275E-19-7.49309E-19
 -1       888 9.57710E-05-2.55645E-05-3.00882E-05-1.16361E-06-7.80744E-19-2.28115E-18
 -1       889 1.21924E-04-3.41441E-05-3.76975E-05-1.22664E-05-1.85817E-18-8.03988E-19
 -1       890 1.06134E-04-4.14580E-05-2.77067E-05-2.38684E-05 1.10858E-18-1.37233E-18
 -1       891 9.61797E-05-2.69737E-05-2.96596E-05-2.82453E-07-5.68452E-19-2.06807E-18
 -1       892 9.61808E-05-2.69371E-05-2.96768E-05 3.19731E-07 6.78106E-19-1.52941E-18
 -1       893 6.70058E-05-1.78895E-05-2.08750E-05-2.85345E-05-4.44004E-19-3.15573E-19
 -1       894 1.22195E-04-5.06377E-05-3.06853E-05 1.36738E-05-3.72175E-19-4.80738E-19
 -1       895 1.28383E-04-4.77701E-05-3.45995E-05-1.30514E-06-7.65097E-19-1.45851E-18
 -1       896 9.00773E-05-3.31153E-05-2.43258E-05-3.27930E-05 5.47918E-19-2.09204E-19
 -1       897 9.63088E-05-2.88445E-05-2.89133E-05-8.15257E-07 3.06000E-19-9.01584E-19
 -1       898 1.12757E-04-1.77989E-05-4.08075E-05-1.14103E-05 2.50268E-19-9.25602E-19
 -1       899 9.51032E-05-2.37490E-05-3.05796E-05-2.08244E-06-9.15177E-19-2.60110E-18
 -1       900 6.61228E-05-1.48281E-05-2.18187E-05 2.39467E-05 2.46343E-18-9.23239E-19
 -1       901 9.45134E-05-2.22402E-05-3.09743E-05 4.26004E-07 4.77574E-19-2.25261E-18
 -1       902 1.21687E-04-2.60811E-05-4.10761E-05 1.33530E-05 3.38396E-19-5.58036E-19
 -1       903 7.21349E-05-1.57346E-05-2.41009E-05 1.77198E-05 1.99394E-18-9.85569E-19
 -1       904 1.08401E-04-1.36168E-05-4.07265E-05 5.87597E-06-1.53690E-19 1.09095E-18
 -1       905 1.12170E-04-4.53463E-05-2.86083E-05 1.92605E-05-8.04681E-21 1.78032E-19
 -1       906 1.03150E-04-4.15216E-05-2.62116E-05-2.98279E-05 1.77337E-18-1.98532E-18
 -1       907 1.25107E-04-5.34711E-05-3.07357E-05-1.78556E-05 1.08083E-18-4.12618E-19
 -1       908 1.32511E-04-4.66998E-05-3.68804E-05 3.64873E-06-1.04182E-19-1.91275E-18
 -1       909 9.46670E-05-2.25839E-05-3.08920E-05 1.22075E-06 9.40886E-19-2.48318E-18
 -1       910 8.29731E-05-2.77425E-05-2.35612E-05 3.07400E-05 1.71867E-18-9.57309E-19
 -1       911 9.48103E-05-2.29459E-05-3.07983E-05-1.53457E-06-5.35759E-19-2.12129E-18
 -1       912 9.64645E-05-2.72200E-05-2.96763E-05-5.73688E-08-3.27988E-19-1.49277E-18
 -1       913 1.10442E-04-2.57259E-05-3.63330E-05-1.18639E-05-1.17802E-18-7.70772E-19
 -1       914 9.64578E-05-2.92025E-05-2.88237E-05-6.62176E-07 8.91686E-20-1.35252E-18
 -1       915 1.19431E-04-4.00865E-05-3.40138E-05-7.51066E-06-2.93828E-19 2.83979E-19
 -1       916 9.45108E-05-2.22382E-05-3.09741E-05-4.04478E-07 7.28672E-20-2.57655E-18
 -1       917 9.66639E-05-2.87034E-05-2.91260E-05 5.37450E-07-1.96839E-19-1.27497E-18
 -1       918 9.65813E-05-2.90388E-05-2.89468E-05 6.38618E-07-4.09647E-19-1.38592E-18
 -1       919 9.64444E-05-2.92092E-05-2.88151E-05 6.60562E-07-2.79291E-19-1.22582E-18
 -1       920 9.62833E-05-2.92685E-05-2.87207E-05 6.32467E-07-3.94360E-19-1.06974E-18
 -1       921 9.61175E-05-2.92561E-05-2.86549E-05 5.76121E-07-4.23840E-19-1.23153E-18
 -1       922 9.59586E-05-2.92000E-05-2.86108E-05 5.07015E-07-4.18841E-19-8.90319E-19
 -1       923 9.58131E-05-2.91199E-05-2.85828E-05 4.35727E-07-8.39328E-19-6.49196E-19
 -1       924 9.56834E-05-2.90286E-05-2.85664E-05 3.69232E-07-1.23964E-18-5.95682E-19
 -1       925 9.55702E-05-2.89347E-05-2.85581E-05 3.12039E-07-8.74507E-19-8.23021E-19
 -1       926 9.54724E-05-2.88438E-05-2.85551E-05 2.67125E-07-3.98343E-19-7.87371E-19
 -1       927 9.53893E-05-2.87600E-05-2.85554E-05 2.36707E-07 3.36273E-19-7.33208E-19
 -1       928 9.53204E-05-2.86873E-05-2.85571E-05 2.22892E-07 5.52665E-19 2.29892E-20
 -1       929 9.52676E-05-2.86306E-05-2.85587E-05 2.28215E-07-2.17937E-20 1.52376E-19
 -1       930 9.52356E-05-2.85980E-05-2.85590E-05 2.56094E-07 5.17400E-20-2.25664E-19
 -1       931 9.52349E-05-2.86022E-05-2.85568E-05 3.11048E-07 9.33785E-20-1.11454E-18
 -1       932 9.52834E-05-2.86633E-05-2.85515E-05 3.98541E-07 1.05631E-19-7.64244E-19
 -1       933 9.54104E-05-2.88106E-05-2.85427E-05 5.24004E-07-4.14930E-20-2.69392E-19
 -1       934 9.56603E-05-2.90858E-05-2.85319E-05 6.90298E-07 5.78678E-19-4.99874E-20
 -1       935 9.60965E-05-2.95438E-05-2.85226E-05 8.92525E-07 2.37400E-19 8.58548E-20
 -1       936 9.68038E-05-3.02505E-05-2.85228E-05 1.10873E-06 6.63557E-19-3.82697E-19
 -1       937 9.78854E-05-3.12737E-05-2.85478E-05 1.28520E-06 9.50162E-19 1.11758E-19
 -1       938 9.94492E-05-3.26598E-05-2.86238E-05 1.31601E-06 1.09152E-18-1.52927E-19
 -1       939 1.01572E-04-3.43863E-05-2.87940E-05 1.02129E-06 1.28391E-20 7.25474E-19
 -1       940 1.04230E-04-3.62796E-05-2.91218E-05 1.49711E-07-5.21552E-19 8.82509E-19
 -1       941 1.07199E-04-3.79192E-05-2.96917E-05-1.58768E-06-3.91596E-19 4.77159E-19
 -1       942 1.09905E-04-3.84937E-05-3.06042E-05-4.34516E-06-8.91700E-19-1.05565E-18
 -1       943 1.11502E-04-3.70733E-05-3.19039E-05-7.79557E-06 1.13974E-19-2.27415E-18
 -1       944 1.10891E-04-3.25965E-05-3.35534E-05-1.07897E-05-3.95170E-19-7.65829E-19
 -1       945 1.02721E-04-1.52244E-05-3.75817E-05-1.18322E-06-2.29076E-19 8.00618E-19
 -1       946 1.10408E-04-3.11500E-05-3.39680E-05 1.07831E-05 1.87562E-18 2.17252E-19
 -1       947 1.11192E-04-3.59305E-05-3.22467E-05 7.83688E-06 1.44513E-18-1.43206E-18
 -1       948 1.11659E-04-3.86182E-05-3.12965E-05 4.32799E-06 1.34332E-18-6.48162E-19
 -1       949 9.59760E-05-2.92091E-05-2.86144E-05-5.15859E-07 2.26867E-20-1.23321E-18
 -1       950 9.62988E-05-2.92694E-05-2.87269E-05-6.37571E-07-6.92300E-20-1.69215E-18
 -1       951 9.58309E-05-2.91302E-05-2.85860E-05-4.45502E-07 3.13659E-19-1.02908E-18
 -1       952 9.57013E-05-2.90382E-05-2.85699E-05-3.79397E-07 5.74234E-19-1.45060E-18
 -1       953 9.55867E-05-2.89403E-05-2.85627E-05-3.21687E-07 6.23764E-19-1.62987E-18
 -1       954 9.54844E-05-2.88398E-05-2.85620E-05-2.74397E-07 5.31657E-19-1.59627E-18
 -1       955 9.53898E-05-2.87364E-05-2.85658E-05-2.37840E-07 3.28127E-19-8.59253E-19
 -1       956 9.52964E-05-2.86268E-05-2.85727E-05-2.10655E-07 1.14425E-18-1.09414E-18
 -1       957 9.51949E-05-2.85047E-05-2.85815E-05-1.89420E-07 9.53201E-19-1.24697E-18
 -1       958 9.50726E-05-2.83600E-05-2.85911E-05-1.67506E-07 8.71024E-19-1.18875E-18
 -1       959 9.49214E-05-2.81888E-05-2.85997E-05-1.35971E-07 3.51416E-19-1.22570E-18
 -1       960 9.47022E-05-2.79553E-05-2.86058E-05-7.31359E-08 5.71296E-19-6.16085E-19
 -1       961 9.43881E-05-2.76428E-05-2.86051E-05 5.20585E-08 8.05727E-20-1.29210E-18
 -1       962 9.39347E-05-2.72229E-05-2.85908E-05 2.92115E-07 5.01490E-19-2.20901E-18
 -1       963 9.32860E-05-2.66665E-05-2.85512E-05 7.32159E-07-6.00583E-19-1.71451E-18
 -1       964 9.23782E-05-2.59550E-05-2.84670E-05 1.50635E-06-8.78121E-19-1.65128E-18
 -1       965 9.11532E-05-2.51029E-05-2.83071E-05 2.81960E-06 1.41197E-19-1.81300E-18
 -1       966 8.95915E-05-2.42017E-05-2.80235E-05 4.97155E-06 4.18110E-19-2.60710E-18
 -1       967 8.77806E-05-2.34980E-05-2.75478E-05 8.37300E-06-4.95205E-19-2.98810E-18
 -1       968 8.61123E-05-2.35710E-05-2.67961E-05 1.35322E-05 1.00494E-18-2.85676E-18
 -1       969 1.16825E-04-4.32895E-05-3.15235E-05-8.75780E-07-2.33387E-19-1.96948E-18
 -1       970 9.49291E-05-2.32708E-05-3.07163E-05 1.86449E-06 1.24875E-18-2.06865E-18
 -1       971 1.19764E-04-4.76378E-05-3.09343E-05-9.55692E-06 2.78416E-19-1.48286E-18
 -1       972 9.66432E-05-2.80957E-05-2.93776E-05-3.06534E-07 3.13887E-19-1.94614E-18
 -1       973 9.61341E-05-2.92620E-05-2.86595E-05-5.83491E-07 3.17772E-19-1.28371E-18
 -1       974 9.66473E-05-2.81307E-05-2.93643E-05 3.20023E-07-3.59539E-19-1.31044E-18
 -1       975 9.56725E-05-2.49065E-05-3.03280E-05-9.54046E-07-5.55515E-19-1.85863E-18
 -1       976 9.46311E-05-2.25043E-05-3.09108E-05-1.00254E-06-7.72527E-20-2.49113E-18
 -1       977 9.53873E-05-3.38271E-05-2.63640E-05 2.36106E-05 8.57600E-20-1.96187E-18
 -1       978 1.20230E-04-4.61492E-05-3.17540E-05 2.53969E-06-1.15214E-18-8.61814E-19
 -1       979 9.61689E-05-2.62242E-05-2.99765E-05-4.56763E-07-2.54515E-19-1.80604E-18
 -1       980 9.57799E-05-2.51312E-05-3.02776E-05 8.82972E-07 8.29016E-19-2.03386E-18
 -1       981 9.55785E-05-2.44541E-05-3.04823E-05 4.87196E-07 6.63854E-19-2.02841E-18
 -1       982 9.65899E-05-2.90246E-05-2.89565E-05-6.35905E-07-7.49131E-20-1.86084E-18
 -1       983 8.30517E-05-2.47608E-05-2.49349E-05 2.35240E-05 8.90235E-19-3.21693E-18
 -1       984 1.24408E-04-3.60334E-05-3.79577E-05 1.07517E-05 3.39812E-19-4.63344E-19
 -1       985 1.04454E-04-1.83118E-05-3.69449E-05-8.05798E-06-8.47839E-19 9.68331E-20
 -1       986 1.09006E-04-2.32636E-05-3.68133E-05 1.10888E-05 1.22437E-18 2.47045E-18
 -1       987 9.64620E-05-2.71825E-05-2.96905E-05 7.82296E-08 5.87826E-19-1.82260E-18
 -1       988 9.66666E-05-2.86764E-05-2.91387E-05-5.28185E-07 9.42553E-20-2.08632E-18
 -1       989 1.19788E-04-5.00491E-05-2.98974E-05-1.81220E-05 3.16491E-18 5.25867E-19
 -1       990 1.15415E-04-4.50575E-05-3.01402E-05 8.37486E-06-7.52999E-19-1.84738E-18
 -1       991 8.45826E-05-2.38329E-05-2.60155E-05 1.79510E-05 1.46036E-19-3.19551E-18
 -1       992 1.27821E-04-5.06087E-05-3.30853E-05-5.58552E-06 2.09404E-19-3.63897E-18
 -1       993 9.55437E-05-2.43236E-05-3.05225E-05 1.08765E-08 3.94418E-19-2.23283E-18
 -1       994 9.68572E-05-2.83971E-05-2.93402E-05 2.62146E-07-2.57820E-19-1.44653E-18
 -1       995 9.67341E-05-2.91936E-05-2.89460E-05 4.14668E-07-2.60916E-19-1.32509E-18
 -1       996 9.65710E-05-2.93248E-05-2.88198E-05 4.15569E-07-1.56903E-19-1.24466E-18
 -1       997 9.63856E-05-2.93526E-05-2.87284E-05 3.90078E-07-2.90082E-19-1.01012E-18
 -1       998 9.61979E-05-2.93149E-05-2.86641E-05 3.50491E-07-6.19046E-20-5.85432E-19
 -1       999 9.60195E-05-2.92384E-05-2.86205E-05 3.05514E-07-7.46253E-19-7.40547E-19
 -1      1000 9.58566E-05-2.91414E-05-2.85922E-05 2.61133E-07-7.36446E-19-6.99283E-19
 -1      1001 9.57116E-05-2.90361E-05-2.85752E-05 2.21461E-07-9.43791E-19-7.29181E-19
 -1      1002 9.55843E-05-2.89301E-05-2.85661E-05 1.89499E-07-2.91017E-19-2.68808E-19
 -1      1003 9.54732E-05-2.88281E-05-2.85622E-05 1.67849E-07 4.01389E-19 7.85880E-19
 -1      1004 9.53768E-05-2.87336E-05-2.85614E-05 1.59409E-07 1.20992E-18 1.39976E-18
 -1      1005 9.52943E-05-2.86499E-05-2.85619E-05 1.68115E-07 4.38979E-20 8.74348E-19
 -1      1006 9.52268E-05-2.85817E-05-2.85622E-05 1.99698E-07 7.64068E-20 6.91163E-19
 -1      1007 9.51791E-05-2.85373E-05-2.85608E-05 2.62681E-07-3.23650E-19 7.17154E-19
 -1      1008 9.51622E-05-2.85302E-05-2.85565E-05 3.69028E-07-1.21637E-19 4.14708E-19
 -1      1009 9.51960E-05-2.85828E-05-2.85485E-05 5.34801E-07 6.41814E-19-1.40397E-20
 -1      1010 9.53148E-05-2.87297E-05-2.85365E-05 7.79634E-07 4.80644E-19 1.07226E-18
 -1      1011 9.55730E-05-2.90223E-05-2.85217E-05 1.12415E-06-2.37423E-19-4.12140E-19
 -1      1012 9.60527E-05-2.95328E-05-2.85085E-05 1.58322E-06 1.10260E-18 2.20513E-19
 -1      1013 9.68711E-05-3.03558E-05-2.85065E-05 2.15209E-06 1.35676E-18 2.52129E-19
 -1      1014 9.81834E-05-3.16008E-05-2.85352E-05 2.78224E-06 1.43303E-18 1.81251E-19
 -1      1015 1.00179E-04-3.33724E-05-2.86299E-05 3.34480E-06 8.87319E-20-4.36254E-19
 -1      1016 1.03015E-04-3.56793E-05-2.88569E-05 3.55553E-06 4.26909E-19-1.03179E-18
 -1      1017 1.06785E-04-3.83852E-05-2.93131E-05 2.99908E-06 1.06249E-19-5.00487E-19
 -1      1018 1.11222E-04-4.08688E-05-3.01540E-05 1.09182E-06-1.47883E-18 3.03730E-19
 -1      1019 9.62813E-05-2.62482E-05-3.00148E-05 2.87861E-07 6.00655E-19-1.97049E-18
 -1      1020 1.18262E-04-4.13467E-05-3.29533E-05 4.55612E-06 1.54477E-18 1.71971E-19
 -1      1021 9.65862E-05-2.93207E-05-2.88281E-05-4.18844E-07-1.35671E-19-1.90219E-18
 -1      1022 9.57275E-05-2.90444E-05-2.85785E-05-2.30904E-07 6.76329E-19-1.00537E-18
 -1      1023 9.55974E-05-2.89335E-05-2.85702E-05-1.95943E-07 7.62639E-19-9.39497E-19
 -1      1024 9.54799E-05-2.88212E-05-2.85680E-05-1.66098E-07 9.78355E-21-8.07576E-19
 -1      1025 9.53700E-05-2.87069E-05-2.85699E-05-1.39611E-07 6.86196E-19-9.11146E-19
 -1      1026 9.52607E-05-2.85874E-05-2.85743E-05-1.12484E-07 1.21249E-18-5.57986E-19
 -1      1027 9.51430E-05-2.84574E-05-2.85796E-05-7.73612E-08 7.17832E-19-4.95330E-19
 -1      1028 9.50135E-05-2.83175E-05-2.85840E-05-2.57499E-08 8.43028E-19-3.39265E-19
 -1      1029 9.48452E-05-2.81442E-05-2.85862E-05 6.65719E-08 3.04460E-19-9.59453E-19
 -1      1030 9.46277E-05-2.79348E-05-2.85827E-05 2.28829E-07 3.05424E-19-7.89647E-19
 -1      1031 9.43428E-05-2.76816E-05-2.85691E-05 5.09239E-07 4.49620E-19-1.49726E-18
 -1      1032 9.39737E-05-2.73842E-05-2.85384E-05 9.81232E-07-1.52550E-19-9.61420E-19
 -1      1033 9.35137E-05-2.70603E-05-2.84800E-05 1.75284E-06-6.74975E-19-8.54144E-19
 -1      1034 9.29836E-05-2.67660E-05-2.83788E-05 2.97638E-06-1.51455E-19-1.16867E-18
 -1      1035 9.24658E-05-2.66295E-05-2.82151E-05 4.85416E-06 7.07935E-19-2.02549E-18
 -1      1036 9.21603E-05-2.69012E-05-2.79674E-05 7.62972E-06 4.74700E-19-1.77339E-18
 -1      1037 9.25442E-05-2.80684E-05-2.76324E-05 1.15062E-05 7.18736E-19-2.54561E-18
 -1      1038 9.58737E-05-2.91512E-05-2.85953E-05-2.70993E-07 5.73259E-19-8.26168E-19
 -1      1039 9.67082E-05-2.75695E-05-2.96308E-05 6.48382E-08-4.18360E-19-1.52972E-18
 -1      1040 9.55745E-05-2.45174E-05-3.04518E-05-6.84494E-07-2.78850E-19-1.81469E-18
 -1      1041 1.04491E-04-3.88459E-05-2.81330E-05 1.61543E-05-1.24990E-19-1.15001E-18
 -1      1042 9.68444E-05-2.89071E-05-2.91161E-05 3.70757E-07-4.45549E-19-1.40004E-18
 -1      1043 1.14956E-04-4.19320E-05-3.12875E-05-1.85823E-06-1.23641E-18 1.08442E-18
 -1      1044 9.60369E-05-2.92476E-05-2.86240E-05-3.14572E-07 3.00577E-20-1.19172E-18
 -1      1045 9.37366E-05-3.10118E-05-2.68817E-05 1.88689E-05 7.36003E-19-1.63495E-18
 -1      1046 1.25193E-04-4.41174E-05-3.48168E-05 4.28363E-06 1.46380E-18-7.71432E-19
 -1      1047 9.62152E-05-2.93217E-05-2.86686E-05-3.58130E-07 1.37110E-19-1.35803E-18
 -1      1048 9.66885E-05-2.75213E-05-2.96441E-05-4.48236E-08 3.72489E-19-1.75267E-18
 -1      1049 9.64024E-05-2.93552E-05-2.87345E-05-3.95836E-07-3.18128E-19-1.85926E-18
 -1      1050 9.67443E-05-2.91820E-05-2.89553E-05-4.14892E-07-1.84745E-19-2.32587E-18
 -1      1051 1.24086E-04-4.57955E-05-3.35427E-05 6.48789E-07 5.15089E-19-6.37915E-19
 -1      1052 9.63017E-05-2.60789E-05-3.00948E-05 1.09437E-07 2.79523E-19-1.95234E-18
 -1      1053 9.64426E-05-2.66621E-05-2.99058E-05-1.49883E-07-3.46123E-20-1.55901E-18
 -1      1054 9.60844E-05-2.57068E-05-3.01626E-05-3.92301E-07-3.07844E-19-1.63179E-18
 -1      1055 9.55474E-05-2.43577E-05-3.05086E-05-3.47132E-07 1.16280E-19-2.18676E-18
 -1      1056 9.28796E-05-2.91929E-05-2.72987E-05 1.48409E-05-1.55993E-19-2.37005E-18
 -1      1057 9.68385E-05-2.83433E-05-2.93551E-05-2.67410E-07 2.80012E-19-1.63646E-18
 -1      1058 9.65855E-05-2.93914E-05-2.87973E-05 1.56368E-07-2.61208E-19-1.24345E-18
 -1      1059 9.63859E-05-2.93853E-05-2.87144E-05 1.43034E-07-2.15077E-19-1.33204E-18
 -1      1060 9.61888E-05-2.93239E-05-2.86562E-05 1.25964E-07-3.58495E-19-1.46543E-18
 -1      1061 9.60042E-05-2.92311E-05-2.86170E-05 1.08102E-07-6.99860E-19-2.00506E-18
 -1      1062 9.58371E-05-2.91228E-05-2.85918E-05 9.16535E-08-6.84033E-20-1.27885E-18
 -1      1063 9.56884E-05-2.90089E-05-2.85769E-05 7.84658E-08 2.19157E-19 3.50348E-19
 -1      1064 9.55570E-05-2.88957E-05-2.85691E-05 7.05113E-08 7.93463E-19 1.14653E-18
 -1      1065 9.54404E-05-2.87862E-05-2.85661E-05 7.04242E-08 8.41665E-19 8.48267E-19
 -1      1066 9.53359E-05-2.86825E-05-2.85657E-05 8.21914E-08 3.11716E-19-3.72238E-19
 -1      1067 9.52410E-05-2.85863E-05-2.85663E-05 1.12128E-07 2.35346E-19 3.00093E-19
 -1      1068 9.51553E-05-2.85007E-05-2.85662E-05 1.69865E-07-3.65058E-19 6.56680E-19
 -1      1069 9.50812E-05-2.84321E-05-2.85638E-05 2.70087E-07-1.79789E-19 1.01787E-18
 -1      1070 9.50274E-05-2.83925E-05-2.85577E-05 4.34272E-07 2.17853E-19 1.51222E-18
 -1      1071 9.50119E-05-2.84037E-05-2.85462E-05 6.92198E-07 7.99959E-19 3.41504E-19
 -1      1072 9.50688E-05-2.85024E-05-2.85283E-05 1.08285E-06 2.47368E-19 9.13286E-19
 -1      1073 9.52577E-05-2.87479E-05-2.85039E-05 1.65273E-06 2.73476E-19 1.10895E-18
 -1      1074 9.56766E-05-2.92316E-05-2.84762E-05 2.44874E-06 9.78207E-19-7.10556E-19
 -1      1075 9.64791E-05-3.00860E-05-2.84541E-05 3.50064E-06 5.14334E-19-5.99235E-19
 -1      1076 9.78899E-05-3.14836E-05-2.84593E-05 4.78258E-06 2.41911E-19-1.30588E-18
 -1      1077 1.00121E-04-3.36058E-05-2.85185E-05 6.22207E-06-3.10825E-19-5.64079E-19
 -1      1078 1.03807E-04-3.67078E-05-2.87508E-05 7.41613E-06-6.46611E-20-1.22126E-18
 -1      1079 9.54458E-05-2.87849E-05-2.85690E-05-5.51808E-08 1.67254E-19-9.57739E-19
 -1      1080 9.55671E-05-2.89006E-05-2.85714E-05-7.18504E-08 5.04642E-19-5.46650E-19
 -1      1081 1.01248E-04-3.57028E-05-2.80983E-05 1.36346E-05-1.09118E-18-4.72628E-19
 -1      1082 9.68840E-05-2.79656E-05-2.95363E-05 6.76221E-08-1.29366E-19-1.49297E-18
 -1      1083 9.57012E-05-2.90171E-05-2.85789E-05-8.70446E-08 8.81721E-19-2.72234E-19
 -1      1084 9.69690E-05-2.86681E-05-2.92714E-05 1.25707E-07-1.49955E-19-1.22630E-18
 -1      1085 9.53326E-05-2.86698E-05-2.85698E-05-3.33443E-08 3.88363E-19-7.46933E-19
 -1      1086 9.52219E-05-2.85539E-05-2.85721E-05 1.32776E-10 6.48703E-19-7.58470E-19
 -1      1087 9.51135E-05-2.84408E-05-2.85741E-05 5.23989E-08 4.34075E-19-5.80670E-19
 -1      1088 9.49906E-05-2.83173E-05-2.85743E-05 1.44603E-07 6.70587E-19 2.72281E-19
 -1      1089 9.48543E-05-2.81900E-05-2.85704E-05 3.00420E-07 4.15337E-20 1.74958E-19
 -1      1090 9.47040E-05-2.80648E-05-2.85597E-05 5.57847E-07 1.79738E-19 4.70992E-19
 -1      1091 9.45477E-05-2.79581E-05-2.85385E-05 9.71948E-07 4.16361E-19-8.81902E-21
 -1      1092 9.44105E-05-2.79061E-05-2.85020E-05 1.61885E-06-5.05062E-19-7.51102E-19
 -1      1093 9.43503E-05-2.79788E-05-2.84451E-05 2.59735E-06-3.58469E-19-1.57281E-18
 -1      1094 9.44831E-05-2.83016E-05-2.83637E-05 4.02302E-06 9.40373E-19-1.77804E-18
 -1      1095 9.50238E-05-2.90873E-05-2.82595E-05 6.00473E-06 6.97776E-20-1.51707E-18
 -1      1096 9.63613E-05-3.06763E-05-2.81429E-05 8.68459E-06 5.30877E-19-8.67422E-19
 -1      1097 9.58516E-05-2.91322E-05-2.85941E-05-1.02597E-07 7.57337E-19-2.88005E-19
 -1      1098 9.68499E-05-2.88837E-05-2.91284E-05-3.67931E-07-6.48338E-21-1.77849E-18
 -1      1099 9.69115E-05-2.90878E-05-2.90670E-05 1.54057E-07-2.08356E-19-1.02110E-18
 -1      1100 9.60200E-05-2.92404E-05-2.86199E-05-1.19000E-07-1.41882E-19-7.18902E-19
 -1      1101 1.08532E-04-4.03752E-05-2.91949E-05 8.33189E-06 7.66864E-19-1.56319E-18
 -1      1102 9.67700E-05-2.93080E-05-2.89121E-05 1.61903E-07-4.82592E-19-8.67796E-19
 -1      1103 9.62055E-05-2.93317E-05-2.86603E-05-1.35635E-07-1.17015E-19-1.37764E-18
 -1      1104 9.66908E-05-2.72032E-05-2.97817E-05-1.07778E-08-4.46757E-20-1.64128E-18
 -1      1105 9.67831E-05-2.92998E-05-2.89216E-05-1.63789E-07-3.54168E-19-1.20921E-18
 -1      1106 9.74268E-05-3.20143E-05-2.80436E-05 1.08395E-05-4.45075E-19 2.04515E-19
 -1      1107 9.68716E-05-2.79038E-05-2.95566E-05-6.13544E-08 1.49524E-19-1.51131E-18
 -1      1108 9.62652E-05-2.59956E-05-3.01145E-05-4.83489E-08 2.60121E-19-1.83554E-18
 -1      1109 9.66008E-05-2.93910E-05-2.88043E-05-1.61585E-07-3.14348E-19-1.25547E-18
 -1      1110 9.69713E-05-2.86403E-05-2.92849E-05-1.17747E-07 2.03970E-21-1.34440E-18
 -1      1111 9.69197E-05-2.90705E-05-2.90784E-05-1.51488E-07-4.96538E-20-1.27384E-18
 -1      1112 9.64023E-05-2.93899E-05-2.87197E-05-1.50770E-07-3.29273E-19-1.30240E-18
 -1      1113 1.16892E-04 2.57656E-10-4.18682E-05-4.14791E-05-3.74389E-19 1.08319E-17
 -1      1114 8.86722E-05 7.19346E-11-3.72602E-05-2.41763E-05-1.96300E-19 8.26387E-19
 -1      1115 8.40907E-05 4.14557E-11-3.57726E-05-1.78856E-05-1.24249E-19-3.34334E-18
 -1      1116 8.23431E-05 3.19999E-11-3.50764E-05-1.38456E-05-8.63180E-20-5.21007E-18
 -1      1117 8.15359E-05 2.73220E-11-3.47406E-05-1.05444E-05-5.22249E-20-6.07219E-18
 -1      1118 8.11297E-05 2.45746E-11-3.45739E-05-7.65380E-06-3.39078E-20-6.35973E-18
 -1      1119 8.09168E-05 2.29121E-11-3.44890E-05-4.99720E-06-1.89193E-20-6.39294E-18
 -1      1120 8.08123E-05 2.20096E-11-3.44486E-05-2.45484E-06 2.01998E-21-6.28581E-18
 -1      1121 8.07815E-05 2.17265E-11-3.44369E-05 2.33738E-08 1.36650E-20-6.12440E-18
 -1      1122 8.08136E-05 2.20223E-11-3.44491E-05 2.50226E-06 3.20152E-20-5.94137E-18
 -1      1123 8.09196E-05 2.29415E-11-3.44899E-05 5.04691E-06 3.55125E-20-5.69595E-18
 -1      1124 8.11359E-05 2.46042E-11-3.45755E-05 7.70767E-06 5.88688E-20-5.29724E-18
 -1      1125 8.15479E-05 2.73874E-11-3.47447E-05 1.06032E-05 8.19240E-20-4.60059E-18
 -1      1126 8.23634E-05 3.21400E-11-3.50855E-05 1.39156E-05 1.10008E-19-3.34341E-18
 -1      1127 8.41334E-05 4.16434E-11-3.57923E-05 1.79703E-05 1.40713E-19-9.42880E-19
 -1      1128 8.87720E-05 7.22608E-11-3.73006E-05 2.42744E-05 1.77242E-19 3.82790E-18
 -1      1129 1.17162E-04 2.58486E-10-4.18364E-05 4.17490E-05 2.10911E-19 1.37607E-17
 -1      1130 1.30267E-04-2.57655E-05-4.02871E-05-2.61147E-05-1.50878E-18 1.71507E-17
 -1      1131 9.74907E-05-2.88728E-05-3.15885E-05-6.80698E-07-4.86515E-19 1.37968E-17
 -1      1132 9.01889E-05-2.70353E-05-2.79022E-05 3.87066E-07-2.09852E-19 8.84422E-18
 -1      1133 8.82754E-05-2.65803E-05-2.66517E-05 2.50750E-07-1.43728E-19 5.43589E-18
 -1      1134 8.79159E-05-2.64533E-05-2.63951E-05 1.65918E-07-1.22284E-19 3.08799E-18
 -1      1135 8.82761E-05-2.65302E-05-2.64803E-05 1.18195E-07-1.13415E-19 1.56304E-18
 -1      1136 8.89654E-05-2.67156E-05-2.66839E-05 8.76621E-08-2.32657E-20 6.33104E-19
 -1      1137 8.97845E-05-2.69488E-05-2.69278E-05 6.65070E-08-5.01753E-20-4.24046E-19
 -1      1138 9.06231E-05-2.71931E-05-2.71778E-05 5.08895E-08-8.66361E-20-1.82921E-18
 -1      1139 9.14191E-05-2.74276E-05-2.74157E-05 3.88957E-08-4.22591E-20-3.31097E-18
 -1      1140 9.21391E-05-2.76412E-05-2.76317E-05 2.95087E-08-2.77081E-20-4.48726E-18
 -1      1141 9.27683E-05-2.78285E-05-2.78210E-05 2.21219E-08 6.04350E-20-4.24904E-18
 -1      1142 9.33033E-05-2.79884E-05-2.79824E-05 1.63273E-08-8.39666E-20-4.29721E-18
 -1      1143 9.37482E-05-2.81216E-05-2.81169E-05 1.18218E-08 3.96594E-20-4.27822E-18
 -1      1144 9.41114E-05-2.82307E-05-2.82270E-05 8.36740E-09-1.65833E-20-4.48984E-18
 -1      1145 9.44034E-05-2.83186E-05-2.83158E-05 5.77205E-09-1.98483E-19-4.82748E-18
 -1      1146 9.46359E-05-2.83887E-05-2.83867E-05 3.88171E-09-1.89273E-19-5.31268E-18
 -1      1147 9.48204E-05-2.84444E-05-2.84430E-05 2.57602E-09 6.18501E-20-5.31104E-18
 -1      1148 9.49678E-05-2.84890E-05-2.84882E-05 1.76545E-09-2.68694E-20-5.18769E-18
 -1      1149 9.50883E-05-2.85254E-05-2.85251E-05 1.38765E-09 1.13561E-20-6.04707E-18
 -1      1150 9.51905E-05-2.85563E-05-2.85564E-05 1.40154E-09 7.74122E-20-5.34629E-18
 -1      1151 9.52814E-05-2.85837E-05-2.85841E-05 1.77658E-09-1.14778E-19-4.24868E-18
 -1      1152 9.53653E-05-2.86087E-05-2.86095E-05 2.47432E-09 3.84292E-20-4.58372E-18
 -1      1153 9.54426E-05-2.86315E-05-2.86323E-05 3.41796E-09-3.78640E-19-5.59493E-18
 -1      1154 9.55075E-05-2.86501E-05-2.86507E-05 4.44548E-09 5.49961E-20-6.23351E-18
 -1      1155 9.55457E-05-2.86602E-05-2.86599E-05 5.24326E-09-9.75755E-20-5.87375E-18
 -1      1156 9.55297E-05-2.86534E-05-2.86514E-05 5.26212E-09 2.72680E-19-7.11263E-18
 -1      1157 9.54150E-05-2.86162E-05-2.86113E-05 3.63010E-09-8.68924E-20-8.19604E-18
 -1      1158 9.51359E-05-2.85289E-05-2.85195E-05-9.01903E-10-3.77645E-20-7.48379E-18
 -1      1159 9.46030E-05-2.83649E-05-2.83495E-05-9.91325E-09-6.14455E-20-7.90388E-18
 -1      1160 9.37061E-05-2.80919E-05-2.80691E-05-2.50635E-08-4.19847E-19-7.17247E-18
 -1      1161 9.23259E-05-2.76747E-05-2.76447E-05-4.75301E-08 3.43207E-19-7.00662E-18
 -1      1162 9.03581E-05-2.70836E-05-2.70486E-05-7.70906E-08 1.17531E-19-7.43267E-18
 -1      1163 8.77514E-05-2.63047E-05-2.62700E-05-1.11009E-07-2.55386E-19-7.82606E-18
 -1      1164 8.45551E-05-2.53540E-05-2.53278E-05-1.43210E-07-1.06143E-19-9.12262E-18
 -1      1165 8.09617E-05-2.42896E-05-2.42817E-05-1.64561E-07 2.91029E-19-7.82780E-18
 -1      1166 7.73229E-05-2.32157E-05-2.32339E-05-1.65016E-07 3.79386E-20-7.40778E-18
 -1      1167 7.41148E-05-2.22718E-05-2.23186E-05-1.37564E-07 9.88464E-20-5.87327E-18
 -1      1168 7.18431E-05-2.16049E-05-2.16747E-05-8.24504E-08 7.70932E-20-5.34823E-18
 -1      1169 7.09107E-05-2.13316E-05-2.14117E-05-9.03348E-09 1.80160E-20-5.75275E-18
 -1      1170 7.14959E-05-2.15035E-05-2.15777E-05 6.66169E-08-4.83039E-19-7.79485E-18
 -1      1171 7.34969E-05-2.20912E-05-2.21460E-05 1.27825E-07-5.85925E-20-5.81039E-18
 -1      1172 7.65709E-05-2.29959E-05-2.30245E-05 1.63865E-07 1.93788E-19-3.76027E-18
 -1      1173 8.02468E-05-2.40808E-05-2.40847E-05 1.73291E-07 6.58411E-20 3.22137E-19
 -1      1174 8.40592E-05-2.52098E-05-2.51957E-05 1.62607E-07 9.46530E-20-8.83297E-20
 -1      1175 8.76429E-05-2.62750E-05-2.62493E-05 1.41501E-07 2.67479E-19-6.76673E-19
 -1      1176 9.07562E-05-2.72036E-05-2.71666E-05 1.16713E-07 2.22699E-19-1.30696E-18
 -1      1177 9.32280E-05-2.79430E-05-2.78884E-05 8.47061E-08 2.48296E-19-2.68523E-19
 -1      1178 9.48250E-05-2.84021E-05-2.83671E-05 1.33484E-08-1.20414E-19-1.59801E-19
 -1      1179 9.53381E-05-2.86040E-05-2.86308E-05-4.31903E-08 6.69216E-19 1.92234E-18
 -1      1180 1.31457E-04-2.58485E-05-4.04279E-05 2.68812E-05 1.16859E-18 2.03936E-17
 -1      1181 9.82121E-05-2.90566E-05-3.18620E-05 8.62011E-07 3.91991E-19 1.78208E-17
 -1      1182 9.03666E-05-2.70721E-05-2.80089E-05-3.89400E-07 2.10858E-19 1.31573E-17
 -1      1183 8.83289E-05-2.65957E-05-2.66845E-05-2.55287E-07 1.19471E-19 9.92384E-18
 -1      1184 8.79149E-05-2.64541E-05-2.63989E-05-1.68824E-07 9.96868E-20 7.77402E-18
 -1      1185 8.82500E-05-2.65236E-05-2.64731E-05-1.19947E-07 1.17625E-21 6.22879E-18
 -1      1186 8.89276E-05-2.67051E-05-2.66727E-05-8.88448E-08 5.63885E-20 4.83799E-18
 -1      1187 8.97427E-05-2.69367E-05-2.69154E-05-6.74021E-08 6.77858E-20 3.88489E-18
 -1      1188 9.05818E-05-2.71810E-05-2.71655E-05-5.15721E-08 8.59318E-20 3.08732E-18
 -1      1189 9.13806E-05-2.74162E-05-2.74042E-05-3.94214E-08 1.08164E-20 2.31519E-18
 -1      1190 9.21043E-05-2.76308E-05-2.76212E-05-2.99133E-08 9.17238E-20 1.60507E-18
 -1      1191 9.27374E-05-2.78193E-05-2.78116E-05-2.24270E-08 2.88488E-20 1.36301E-18
 -1      1192 9.32758E-05-2.79802E-05-2.79740E-05-1.64970E-08 1.28269E-19 1.93296E-18
 -1      1193 9.37132E-05-2.81109E-05-2.81062E-05-1.14035E-08 5.38789E-20 1.85006E-18
 -1      1194 9.40706E-05-2.82184E-05-2.82146E-05-8.55081E-09 1.40959E-19 3.90730E-19
 -1      1195 9.43652E-05-2.83070E-05-2.83040E-05-5.73651E-09 3.95920E-20-1.18556E-18
 -1      1196 9.45972E-05-2.83770E-05-2.83747E-05-3.60199E-09 5.84942E-20-1.67662E-18
 -1      1197 9.47779E-05-2.84317E-05-2.84299E-05-1.96878E-09 8.55172E-20-1.38545E-18
 -1      1198 9.49183E-05-2.84743E-05-2.84729E-05-7.00385E-10 4.01827E-20-8.55034E-19
 -1      1199 9.50291E-05-2.85081E-05-2.85070E-05 3.19153E-10-1.53733E-19-8.74351E-19
 -1      1200 9.51211E-05-2.85364E-05-2.85354E-05 1.18929E-09-5.28837E-20-1.07578E-18
 -1      1201 9.52059E-05-2.85627E-05-2.85619E-05 1.99077E-09 6.37248E-20 6.09372E-19
 -1      1202 9.52978E-05-2.85914E-05-2.85908E-05 2.77513E-09 1.55019E-19 5.49116E-19
 -1      1203 9.54158E-05-2.86285E-05-2.86283E-05 3.53668E-09-1.21835E-19-1.44422E-20
 -1      1204 9.55882E-05-2.86827E-05-2.86833E-05 4.13946E-09-1.32769E-19-1.97694E-18
 -1      1205 9.58594E-05-2.87674E-05-2.87703E-05 4.01395E-09-1.43363E-19-2.57068E-18
 -1      1206 9.62871E-05-2.89017E-05-2.89078E-05 1.61245E-09 7.36000E-20-2.31881E-18
 -1      1207 9.69905E-05-2.91204E-05-2.91350E-05-1.65096E-09-1.04173E-19-1.24738E-18
 -1      1208 9.81867E-05-2.94908E-05-2.95230E-05-1.40731E-08 1.55326E-19-2.90416E-19
 -1      1209 1.00191E-04-3.01074E-05-3.01763E-05-4.32125E-08-6.51802E-20-9.03665E-19
 -1      1210 1.03550E-04-3.11325E-05-3.12751E-05-1.07757E-07-1.87813E-19 1.02021E-18
 -1      1211 1.09149E-04-3.28280E-05-3.31069E-05-2.44512E-07 5.44020E-20 3.09135E-18
 -1      1212 1.18362E-04-3.56009E-05-3.60864E-05-5.19934E-07 1.64285E-19 1.86411E-18
 -1      1213 1.33078E-04-4.00274E-05-4.06787E-05-1.02962E-06 2.05803E-20 4.40457E-20
 -1      1214 1.55125E-04-4.67120E-05-4.70379E-05-1.81962E-06 9.55361E-20 1.12719E-18
 -1      1215 1.83615E-04-5.54215E-05-5.41746E-05-2.36479E-06 6.09136E-20 2.13961E-18
 -1      1216 2.07301E-04-6.27902E-05-5.88650E-05-1.04431E-06-1.32349E-22 2.18132E-18
 -1      1217 2.10324E-04-6.31750E-05-5.86879E-05 3.30014E-06-6.73656E-19 4.03018E-18
 -1      1218 1.74256E-04-4.99632E-05-5.26382E-05 1.02815E-05-9.87852E-20 6.62380E-18
 -1      1219 1.13619E-04-2.97501E-05-4.46283E-05 7.98413E-06-8.81391E-19 7.73256E-18
 -1      1220 7.52367E-05-1.68202E-05-4.03737E-05 1.74125E-06-2.61521E-19 5.56077E-18
 -1      1221 9.28618E-05-2.23405E-05-4.22945E-05-4.90036E-06 3.86459E-19-1.53736E-18
 -1      1222 1.53197E-04-4.39473E-05-4.92821E-05-7.42337E-06 1.06911E-19-4.27752E-18
 -1      1223 1.99278E-04-5.97991E-05-5.61973E-05-3.54815E-06 9.61713E-20-1.03253E-18
 -1      1224 2.10109E-04-6.38645E-05-5.87773E-05-2.30447E-07 3.58401E-20 2.53602E-18
 -1      1225 1.92241E-04-5.84840E-05-5.57296E-05 1.19403E-06-5.09325E-19 7.57544E-18
 -1      1226 1.62495E-04-4.89343E-05-4.88465E-05 1.30907E-06 4.78488E-19 1.73917E-18
 -1      1227 1.36561E-04-4.09159E-05-4.16613E-05 9.16265E-07-6.21742E-20-2.39393E-18
 -1      1228 1.17801E-04-3.52642E-05-3.59780E-05 5.74580E-07 4.81958E-19-2.09175E-18
 -1      1229 1.05229E-04-3.15161E-05-3.20711E-05 3.60470E-07-5.64931E-20 4.41516E-19
 -1      1230 9.76106E-05-2.92306E-05-2.97072E-05 1.99466E-07-2.39757E-19 6.64765E-18
 -1      1231 9.51114E-05-2.87444E-05-2.85245E-05-3.14196E-07 1.53876E-18 7.23200E-18
 -1      1232 9.51247E-05-2.87474E-05-2.84927E-05-3.30071E-07 7.11442E-18 7.71859E-19
 -1      1233 9.45813E-05-2.61256E-05-2.95539E-05 6.92586E-08-8.48515E-19 8.98460E-19
 -1      1234 9.28255E-05-2.02226E-05-3.10726E-05 3.33166E-07-7.94644E-18-1.07060E-18
 -1      1235 9.11351E-05-1.47029E-05-3.24659E-05 3.65434E-07-8.99448E-18 8.12444E-19
 -1      1236 9.03226E-05-1.21410E-05-3.31342E-05 2.39484E-07-5.84597E-18-4.34928E-19
 -1      1237 9.06429E-05-1.33002E-05-3.28466E-05 5.00180E-08-4.41213E-18 7.92029E-19
 -1      1238 9.18639E-05-1.74325E-05-3.17551E-05-1.08432E-07-8.90819E-18-3.19753E-19
 -1      1239 9.35444E-05-2.30391E-05-3.02333E-05-2.02654E-07-9.18321E-18 3.16819E-19
 -1      1240 9.51820E-05-2.84747E-05-2.87183E-05-2.19800E-07-7.01267E-18-1.73073E-19
 -1      1241 9.64241E-05-3.25846E-05-2.75388E-05-1.80409E-07-3.05220E-18 6.89769E-20
 -1      1242 9.71139E-05-3.48536E-05-2.68579E-05-1.12636E-07-6.16018E-19-2.96460E-19
 -1      1243 9.72585E-05-3.53192E-05-2.66839E-05-3.85988E-08-3.93618E-18-6.53701E-19
 -1      1244 9.69830E-05-3.43776E-05-2.69135E-05 2.28837E-08-3.07284E-18 1.28549E-18
 -1      1245 9.64463E-05-3.25720E-05-2.73917E-05 7.11848E-08-4.33279E-18-9.15602E-19
 -1      1246 9.58395E-05-3.05407E-05-2.79332E-05 1.09258E-07-6.73052E-18 7.36858E-19
 -1      1247 9.53870E-05-2.90112E-05-2.83636E-05 2.07615E-08-4.88407E-18-7.29005E-19
 -1      1248 9.51941E-05-2.84771E-05-2.86296E-05-2.02831E-08-2.77458E-18 1.76832E-19
 -1      1249 4.19422E-05-1.34309E-04 2.48577E-05-2.04972E-05 1.07933E-18 4.80744E-19
 -1      1250 2.39830E-05-1.03118E-04 1.90886E-05-4.56653E-05 2.86551E-18 7.13202E-19
 -1      1251 5.22308E-06-4.52801E-05 4.02485E-06-3.46471E-05-1.62461E-18-1.88719E-18
 -1      1252 2.01359E-05 3.51485E-06-1.89612E-05 1.77286E-05-4.61802E-18-3.53043E-18
 -1      1253 1.02116E-04 6.73403E-06-4.62093E-05 8.69837E-05 9.72394E-19 2.18873E-18
 -1      1254 2.49298E-04-4.46358E-05-7.28754E-05 1.23664E-04 1.01475E-18 4.09286E-18
 -1      1255 3.95001E-04-1.14212E-04-9.16905E-05 8.48319E-05 2.71898E-19-1.18246E-18
 -1      1256 4.38051E-04-1.35094E-04-9.66700E-05-2.04414E-05 3.46966E-19-4.74550E-18
 -1      1257 3.42904E-04-8.89888E-05-8.50533E-05-1.08413E-04 2.50976E-18-9.18184E-18
 -1      1258 1.80696E-04-1.84708E-05-6.16209E-05-1.14216E-04 5.73611E-18-1.14451E-17
 -1      1259 5.92725E-05 1.15573E-05-3.45712E-05-5.88201E-05 7.12355E-18-8.90740E-18
 -1      1260 7.72813E-06-1.14575E-05-9.66571E-06 6.48226E-06 6.41712E-18-5.76152E-18
 -1      1261 9.06818E-06-6.57237E-05 1.00910E-05 4.34530E-05 2.34543E-18-1.88380E-18
 -1      1262 3.10512E-05-1.17292E-04 2.20467E-05 4.03898E-05-3.04127E-18 6.20452E-20
 -1      1263 4.32017E-05-1.32967E-04 2.42986E-05 7.95987E-06-9.38089E-18-1.01644E-19
 -1      1264 3.03918E-05-9.89214E-05 1.72949E-05-1.97305E-05-5.82335E-18-1.15906E-18
 -1      1265 1.13753E-05-3.69952E-05 2.58491E-06-1.38710E-05-6.70511E-18-2.64528E-18
 -1      1266 1.58635E-05 1.93190E-05-1.82987E-05 3.17911E-05-4.18773E-18-2.58260E-18
 -1      1267 6.76100E-05 3.42073E-05-4.09594E-05 9.23590E-05-2.94937E-18-4.01832E-18
 -1      1268 1.62224E-04 7.93719E-07-6.15954E-05 1.28050E-04-1.92700E-18-2.17010E-18
 -1      1269 2.67265E-04-5.62516E-05-7.77251E-05 1.10757E-04 8.61433E-19 3.41862E-18
 -1      1270 3.34582E-04-9.75474E-05-8.62701E-05 4.30496E-05 4.27010E-19 1.71439E-18
 -1      1271 3.31156E-04-9.55380E-05-8.58785E-05-4.77305E-05-2.61945E-19 1.57336E-18
 -1      1272 2.55886E-04-4.94662E-05-7.59717E-05-1.16416E-04-1.79571E-19 1.12825E-18
 -1      1273 1.42325E-04 9.22691E-06-5.75892E-05-1.21850E-04-2.14384E-18 2.76133E-18
 -1      1274 4.85735E-05 3.43663E-05-3.42339E-05-7.51093E-05-2.17518E-18 3.22042E-18
 -1      1275 9.31285E-06 5.73805E-06-1.13003E-05-1.33201E-05-2.03288E-20 7.36072E-19
 -1      1276 1.63641E-05-5.79797E-05 8.04742E-06 2.13568E-05 7.08458E-18-2.34670E-18
 -1      1277 3.70221E-05-1.16474E-04 2.09030E-05 1.37061E-05-7.48777E-19 5.01602E-19
 -1      1278 1.04476E-04-2.20270E-05-3.79040E-05-1.72813E-05-5.64759E-19 8.60416E-18
 -1      1279 9.03395E-05-6.68253E-06-3.60252E-05-2.04808E-05-1.48088E-18-1.15636E-18
 -1      1280 9.26796E-05-6.74115E-06-3.72319E-05-2.57700E-05-1.92128E-18 1.05429E-18
 -1      1281 8.59150E-05-4.09672E-06-3.51348E-05-1.64412E-05-1.45155E-18-4.20555E-18
 -1      1282 8.71720E-05-4.08994E-06-3.56057E-05-1.88622E-05-1.65796E-18-2.91321E-18
 -1      1283 9.21525E-05-1.04648E-05-3.51006E-05-1.90454E-05-2.60148E-18-1.06371E-18
 -1      1284 8.41010E-05-3.18814E-06-3.46896E-05-1.28292E-05-1.13618E-18-5.62541E-18
 -1      1285 8.47125E-05-3.15776E-06-3.49147E-05-1.46412E-05-1.32105E-18-4.99831E-18
 -1      1286 8.78719E-05-7.39304E-06-3.45777E-05-1.54198E-05-2.28138E-18-3.55227E-18
 -1      1287 8.31873E-05-2.72629E-06-3.44718E-05-9.69786E-06-8.11941E-19-6.24588E-18
 -1      1288 8.35041E-05-2.70968E-06-3.45818E-05-1.12447E-05-9.30691E-19-5.96801E-18
 -1      1289 8.58671E-05-5.98103E-06-3.43078E-05-1.19710E-05-1.72283E-18-4.74497E-18
 -1      1290 8.26890E-05-2.45368E-06-3.43636E-05-6.92999E-06-5.05569E-19-6.44257E-18
 -1      1291 8.28610E-05-2.44541E-06-3.44190E-05-8.29912E-06-6.23317E-19-6.36046E-18
 -1      1292 8.48187E-05-5.21141E-06-3.41744E-05-8.95529E-06-1.20477E-18-5.23625E-18
 -1      1293 8.24098E-05-2.28779E-06-3.43092E-05-4.31434E-06-2.62074E-19-6.39572E-18
 -1      1294 8.25026E-05-2.28388E-06-3.43372E-05-5.61352E-06-3.30012E-19-6.44128E-18
 -1      1295 8.42265E-05-4.75425E-06-3.41092E-05-6.23345E-06-7.27370E-19-5.42435E-18
 -1      1296 8.22743E-05-2.19756E-06-3.42859E-05-1.81420E-06 3.84283E-20-6.29805E-18
 -1      1297 8.23146E-05-2.19599E-06-3.42974E-05-3.06267E-06-3.07943E-20-6.33986E-18
 -1      1298 8.39002E-05-4.48957E-06-3.40789E-05-3.66535E-06-2.54125E-19-5.33075E-18
 -1      1299 8.22456E-05-2.16877E-06-3.42827E-05 6.39520E-07 2.75420E-19-6.12182E-18
 -1      1300 8.22453E-05-2.16885E-06-3.42826E-05-5.93070E-07 1.76989E-19-6.23128E-18
 -1      1301 8.37551E-05-4.36781E-06-3.40672E-05-1.19592E-06 1.82517E-19-5.23563E-18
 -1      1302 8.23171E-05-2.19713E-06-3.42979E-05 3.11018E-06 5.46297E-19-5.96769E-18
 -1      1303 8.22760E-05-2.19885E-06-3.42862E-05 1.86090E-06 4.78943E-19-6.06435E-18
 -1      1304 8.37565E-05-4.36904E-06-3.40674E-05 1.24235E-06 6.13514E-19-5.10957E-18
 -1      1305 8.25081E-05-2.28700E-06-3.43381E-05 5.66364E-06 7.59378E-19-5.73181E-18
 -1      1306 8.24141E-05-2.29061E-06-3.43099E-05 4.36261E-06 7.05949E-19-5.90411E-18
 -1      1307 8.39047E-05-4.49345E-06-3.40792E-05 3.71302E-06 1.02414E-18-4.98106E-18
 -1      1308 8.28652E-05-2.44728E-06-3.44198E-05 8.32979E-06 1.03128E-18-5.22430E-18
 -1      1309 8.26928E-05-2.45640E-06-3.43641E-05 6.95903E-06 9.18710E-19-5.50239E-18
 -1      1310 8.42321E-05-4.75901E-06-3.41094E-05 6.26126E-06 1.36005E-18-4.66821E-18
 -1      1311 8.35213E-05-2.71547E-06-3.45857E-05 1.13052E-05 1.39283E-18-4.44220E-18
 -1      1312 8.31992E-05-2.73306E-06-3.44738E-05 9.75444E-06 1.23095E-18-4.90324E-18
 -1      1313 8.48272E-05-5.21890E-06-3.41747E-05 8.98921E-06 1.87032E-18-4.07526E-18
 -1      1314 8.47460E-05-3.17033E-06-3.49240E-05 1.47166E-05 1.70052E-18-3.08807E-18
 -1      1315 8.41293E-05-3.20272E-06-3.46956E-05 1.28945E-05 1.53496E-18-3.93284E-18
 -1      1316 8.58998E-05-6.00203E-06-3.43109E-05 1.20302E-05 2.39026E-18-3.27148E-18
 -1      1317 8.72328E-05-4.10330E-06-3.56256E-05 1.89507E-05 1.87570E-18-4.28678E-19
 -1      1318 8.59581E-05-4.11379E-06-3.51471E-05 1.65201E-05 1.68096E-18-2.02438E-18
 -1      1319 8.79313E-05-7.42657E-06-3.45859E-05 1.55055E-05 2.72271E-18-1.66169E-18
 -1      1320 9.27593E-05-6.66884E-06-3.72469E-05 2.59221E-05 1.86199E-18 4.08895E-18
 -1      1321 9.04349E-05-6.72248E-06-3.60495E-05 2.05889E-05 1.54292E-18 1.56765E-18
 -1      1322 9.22700E-05-1.05479E-05-3.51129E-05 1.91417E-05 2.78367E-18 1.35419E-18
 -1      1323 1.04917E-04-2.20225E-05-3.80653E-05 1.76421E-05 3.97258E-19 1.20196E-17
 -1      1324 1.05184E-04-3.02407E-05-3.35369E-05-7.96283E-06-1.58205E-18 9.27988E-18
 -1      1325 9.82944E-05-2.78526E-05-3.07727E-05-4.99065E-06-1.45891E-18 7.43102E-18
 -1      1326 9.55356E-05-2.78588E-05-2.92645E-05-2.49124E-06-1.21631E-18 6.59552E-18
 -1      1327 9.33019E-05-2.75675E-05-2.82247E-05-2.04436E-06-1.19183E-18 4.82062E-18
 -1      1328 9.95156E-05-2.80611E-05-3.09924E-05-7.89034E-06-2.59399E-18 3.47670E-18
 -1      1329 9.16114E-05-2.72093E-05-2.75901E-05-8.38901E-07-9.56088E-19 4.17079E-18
 -1      1330 9.08942E-05-2.71137E-05-2.72877E-05-7.28542E-07-8.31429E-19 2.91318E-18
 -1      1331 9.47466E-05-2.77780E-05-2.88252E-05-3.12256E-06-2.06925E-18 2.31988E-18
 -1      1332 9.01441E-05-2.69309E-05-2.70445E-05-1.73473E-07-6.67922E-19 2.22905E-18
 -1      1333 9.00721E-05-2.69579E-05-2.70098E-05-1.15165E-07-6.70569E-19 1.30889E-18
 -1      1334 9.25465E-05-2.75073E-05-2.79041E-05-1.05335E-06-1.54323E-18 1.19527E-18
 -1      1335 8.98135E-05-2.68907E-05-2.69359E-05 1.55897E-07-4.37196E-19 1.00784E-18
 -1      1336 9.00297E-05-2.69813E-05-2.69979E-05 1.84743E-07-3.38208E-19 4.39292E-19
 -1      1337 9.15888E-05-2.73638E-05-2.75374E-05-6.79058E-08-1.08353E-18 2.30234E-19
 -1      1338 9.00350E-05-2.69849E-05-2.70049E-05 3.16496E-07-3.83304E-19 1.93051E-19
 -1      1339 9.03796E-05-2.71053E-05-2.71047E-05 3.28366E-07-3.56062E-19-2.84180E-19
 -1      1340 9.13380E-05-2.73527E-05-2.74301E-05 4.21072E-07-7.05542E-19-2.14293E-19
 -1      1341 9.05236E-05-2.71476E-05-2.71525E-05 3.83514E-07-3.03023E-19-4.95130E-19
 -1      1342 9.09143E-05-2.72768E-05-2.72654E-05 3.85333E-07-3.58879E-19-1.02924E-18
 -1      1343 9.14742E-05-2.74274E-05-2.74534E-05 6.50794E-07-7.40835E-19-8.19549E-19
 -1      1344 9.11249E-05-2.73378E-05-2.73326E-05 3.96408E-07-3.48566E-19-1.22003E-18
 -1      1345 9.15158E-05-2.74636E-05-2.74459E-05 3.92333E-07-4.42174E-19-1.84855E-18
 -1      1346 9.18112E-05-2.75476E-05-2.75436E-05 7.34551E-07-6.96218E-19-1.09118E-18
 -1      1347 9.17500E-05-2.75311E-05-2.75198E-05 3.78148E-07-4.12053E-19-1.94908E-18
 -1      1348 9.21157E-05-2.76468E-05-2.76261E-05 3.70850E-07-5.12514E-19-2.55711E-18
 -1      1349 9.22382E-05-2.76863E-05-2.76651E-05 7.33959E-07-6.84650E-19-1.43335E-18
 -1      1350 9.23481E-05-2.77136E-05-2.76990E-05 3.43037E-07-4.13883E-19-2.65837E-18
 -1      1351 9.26753E-05-2.78159E-05-2.77946E-05 3.34265E-07-5.93047E-20-2.91823E-18
 -1      1352 9.26883E-05-2.78266E-05-2.77966E-05 6.85772E-07-6.52179E-19-1.36283E-18
 -1      1353 9.28914E-05-2.78779E-05-2.78623E-05 3.00238E-07 8.90071E-20-3.19233E-18
 -1      1354 9.31750E-05-2.79657E-05-2.79453E-05 2.91129E-07-1.42437E-19-3.21194E-18
 -1      1355 9.31224E-05-2.79587E-05-2.79254E-05 6.13073E-07-2.13200E-19-1.66815E-18
 -1      1356 9.33676E-05-2.80208E-05-2.80055E-05 2.55616E-07-2.79524E-19-2.99543E-18
 -1      1357 9.36070E-05-2.80944E-05-2.80759E-05 2.46884E-07-7.05999E-20-3.32781E-18
 -1      1358 9.35188E-05-2.80774E-05-2.80441E-05 5.30624E-07-2.14489E-19-2.59504E-18
 -1      1359 9.37733E-05-2.81419E-05-2.81278E-05 2.12827E-07 8.17438E-20-3.15696E-18
 -1      1360 9.39713E-05-2.82023E-05-2.81861E-05 2.04897E-07-9.05539E-20-3.22802E-18
 -1      1361 9.38674E-05-2.81804E-05-2.81493E-05 4.47780E-07-6.18528E-20-2.43639E-18
 -1      1362 9.41115E-05-2.82423E-05-2.82299E-05 1.74029E-07-1.12456E-19-3.47607E-18
 -1      1363 9.42725E-05-2.82911E-05-2.82774E-05 1.67125E-07-1.46114E-19-3.47163E-18
 -1      1364 9.41654E-05-2.82675E-05-2.82399E-05 3.70260E-07-2.62013E-19-2.16153E-18
 -1      1365 9.43886E-05-2.83242E-05-2.83136E-05 1.40361E-07-1.79619E-19-3.26807E-18
 -1      1366 9.45178E-05-2.83630E-05-2.83519E-05 1.34574E-07-2.19340E-19-3.53672E-18
 -1      1367 9.44149E-05-2.83397E-05-2.83161E-05 3.01322E-07-1.20754E-19-2.32094E-18
 -1      1368 9.46127E-05-2.83900E-05-2.83815E-05 1.12282E-07-4.06449E-19-3.56846E-18
 -1      1369 9.47157E-05-2.84208E-05-2.84120E-05 1.07616E-07-2.83769E-19-3.95438E-18
 -1      1370 9.46205E-05-2.83987E-05-2.83792E-05 2.42563E-07-2.99328E-19-2.08912E-18
 -1      1371 9.47929E-05-2.84427E-05-2.84361E-05 8.98053E-08 5.36496E-20-4.36692E-18
 -1      1372 9.48750E-05-2.84672E-05-2.84605E-05 8.62099E-08 1.51090E-19-3.90408E-18
 -1      1373 9.47883E-05-2.84464E-05-2.84310E-05 1.94476E-07-3.87721E-19-2.62147E-18
 -1      1374 9.49380E-05-2.84850E-05-2.84802E-05 7.26444E-08 2.19910E-20-4.09792E-18
 -1      1375 9.50043E-05-2.85047E-05-2.84999E-05 7.00323E-08-2.16086E-19-4.34289E-18
 -1      1376 9.49251E-05-2.84849E-05-2.84734E-05 1.56816E-07-2.96428E-20-3.32333E-18
 -1      1377 9.50565E-05-2.85194E-05-2.85162E-05 6.02797E-08-2.81860E-19-4.31983E-18
 -1      1378 9.51117E-05-2.85357E-05-2.85327E-05 5.85293E-08-7.63678E-20-4.44378E-18
 -1      1379 9.50375E-05-2.85165E-05-2.85083E-05 1.28802E-07-4.46859E-19-2.99966E-18
 -1      1380 9.51558E-05-2.85483E-05-2.85464E-05 5.19465E-08 1.58515E-19-4.85156E-18
 -1      1381 9.52036E-05-2.85625E-05-2.85607E-05 5.08908E-08 7.42990E-20-4.40311E-18
 -1      1382 9.51316E-05-2.85429E-05-2.85376E-05 1.09161E-07-1.97502E-20-3.40707E-18
 -1      1383 9.52420E-05-2.85735E-05-2.85726E-05 4.65390E-08 2.77072E-19-4.09964E-18
 -1      1384 9.52851E-05-2.85865E-05-2.85854E-05 4.59361E-08 1.95565E-19-3.89375E-18
 -1      1385 9.52124E-05-2.85658E-05-2.85625E-05 9.60130E-08 4.07037E-19-4.12791E-18
 -1      1386 9.53188E-05-2.85963E-05-2.85958E-05 4.24184E-08 8.58510E-21-3.73639E-18
 -1      1387 9.53582E-05-2.86085E-05-2.86075E-05 4.19032E-08-2.01834E-19-3.94083E-18
 -1      1388 9.52833E-05-2.85865E-05-2.85841E-05 8.65785E-08 1.36175E-19-3.52489E-18
 -1      1389 9.53869E-05-2.86172E-05-2.86162E-05 3.71212E-08-1.16155E-19-3.92540E-18
 -1      1390 9.54212E-05-2.86284E-05-2.86262E-05 3.61357E-08-8.87061E-20-4.30493E-18
 -1      1391 9.53449E-05-2.86055E-05-2.86023E-05 7.66941E-08-1.96107E-19-3.09706E-18
 -1      1392 9.54419E-05-2.86352E-05-2.86322E-05 2.69738E-08 7.72841E-20-3.96000E-18
 -1      1393 9.54662E-05-2.86440E-05-2.86390E-05 2.46777E-08-6.68999E-20-3.99989E-18
 -1      1394 9.53943E-05-2.86226E-05-2.86159E-05 6.01468E-08-9.33199E-20-2.38938E-18
 -1      1395 9.54728E-05-2.86475E-05-2.86403E-05 6.65349E-09-4.40995E-19-4.36528E-18
 -1      1396 9.54766E-05-2.86510E-05-2.86408E-05 1.82853E-09-3.01496E-19-4.68929E-18
 -1      1397 9.54230E-05-2.86360E-05-2.86218E-05 2.78744E-08-3.03114E-19-2.98520E-18
 -1      1398 9.54582E-05-2.86483E-05-2.86338E-05-3.11971E-08-6.46946E-20-5.07926E-18
 -1      1399 9.54240E-05-2.86414E-05-2.86227E-05-4.02233E-08-1.88650E-19-5.58152E-18
 -1      1400 9.54149E-05-2.86419E-05-2.86149E-05-3.28089E-08-7.50468E-19-3.25882E-18
 -1      1401 9.53641E-05-2.86279E-05-2.86021E-05-9.60969E-08-2.67612E-19-5.47816E-18
 -1      1402 9.52649E-05-2.86026E-05-2.85714E-05-1.11451E-07-3.71057E-20-5.41334E-18
 -1      1403 9.53437E-05-2.86333E-05-2.85865E-05-1.38644E-07-2.27657E-19-3.51533E-18
 -1      1404 9.51395E-05-2.85717E-05-2.85296E-05-1.99246E-07 1.30645E-19-5.51231E-18
 -1      1405 9.49376E-05-2.85162E-05-2.84683E-05-2.23346E-07 1.06905E-20-5.34376E-18
 -1      1406 9.51704E-05-2.85994E-05-2.85245E-05-3.09955E-07-1.29134E-19-3.68139E-18
 -1      1407 9.47159E-05-2.84590E-05-2.83956E-05-3.51951E-07-2.89566E-19-5.37969E-18
 -1      1408 9.43628E-05-2.83579E-05-2.82896E-05-3.87063E-07 1.74844E-19-4.98330E-18
 -1      1409 9.48419E-05-2.85242E-05-2.84129E-05-5.68450E-07-2.44910E-19-3.62510E-18
 -1      1410 9.40080E-05-2.82631E-05-2.81750E-05-5.62430E-07-2.11642E-19-4.74899E-18
 -1      1411 9.34482E-05-2.80982E-05-2.80083E-05-6.09818E-07-6.23992E-20-4.66567E-18
 -1      1412 9.42915E-05-2.83861E-05-2.82327E-05-9.32308E-07 1.18922E-19-3.10062E-18
 -1      1413 9.29218E-05-2.79533E-05-2.78405E-05-8.30670E-07-1.61049E-19-4.68376E-18
 -1      1414 9.21015E-05-2.77058E-05-2.75983E-05-8.89318E-07-1.24087E-19-4.75093E-18
 -1      1415 9.34445E-05-2.81587E-05-2.79636E-05-1.40778E-06-4.48798E-19-2.63080E-18
 -1      1416 9.13717E-05-2.74992E-05-2.73689E-05-1.14179E-06-1.63737E-19-5.11719E-18
 -1      1417 9.02536E-05-2.71547E-05-2.70413E-05-1.20688E-06-4.89274E-19-5.62458E-18
 -1      1418 9.22296E-05-2.78132E-05-2.75882E-05-1.97757E-06-7.93443E-19-3.00243E-18
 -1      1419 8.93077E-05-2.68796E-05-2.67482E-05-1.45973E-06-5.21544E-19-5.61923E-18
 -1      1420 8.78916E-05-2.64350E-05-2.63364E-05-1.52141E-06-3.61600E-19-6.17255E-18
 -1      1421 9.05993E-05-2.73253E-05-2.70979E-05-2.58836E-06-3.64548E-19-3.69227E-18
 -1      1422 8.67509E-05-2.60944E-05-2.59882E-05-1.72479E-06 1.17043E-19-5.51221E-18
 -1      1423 8.50958E-05-2.55656E-05-2.55106E-05-1.76836E-06 5.43628E-19-5.33787E-18
 -1      1424 8.85574E-05-2.66851E-05-2.65002E-05-3.14301E-06-6.02055E-20-2.89476E-18
 -1      1425 8.38291E-05-2.51777E-05-2.51299E-05-1.85996E-06 2.11387E-19-5.33013E-18
 -1      1426 8.20673E-05-2.46062E-05-2.46249E-05-1.86837E-06 7.13132E-20-4.92899E-18
 -1      1427 8.61882E-05-2.59108E-05-2.58247E-05-3.50585E-06 5.78600E-19-2.31989E-18
 -1      1428 8.07956E-05-2.42077E-05-2.42482E-05-1.78922E-06 2.08822E-19-5.05893E-18
 -1      1429 7.91281E-05-2.36597E-05-2.37733E-05-1.74846E-06 3.95672E-19-4.57387E-18
 -1      1430 8.36769E-05-2.50597E-05-2.51261E-05-3.52857E-06 2.77833E-19-2.98106E-18
 -1      1431 7.80129E-05-2.33037E-05-2.34471E-05-1.46577E-06 4.54010E-19-5.43012E-18
 -1      1432 7.66784E-05-2.28607E-05-2.30689E-05-1.37158E-06 2.91204E-19-4.65352E-18
 -1      1433 8.13047E-05-2.42315E-05-2.44804E-05-3.09728E-06 5.70480E-19-3.81972E-18
 -1      1434 7.58910E-05-2.26057E-05-2.28408E-05-8.99693E-07 1.17215E-19-4.04091E-18
 -1      1435 7.51107E-05-2.23449E-05-2.26203E-05-7.62346E-07 4.98836E-19-4.13423E-18
 -1      1436 7.94069E-05-2.35538E-05-2.39727E-05-2.18702E-06 3.78948E-19-4.06483E-18
 -1      1437 7.47872E-05-2.22391E-05-2.25273E-05-1.69169E-07-2.95386E-19-3.53644E-18
 -1      1438 7.47026E-05-2.22105E-05-2.25034E-05-1.26657E-08-9.43443E-19-4.20210E-18
 -1      1439 7.82958E-05-2.31511E-05-2.36791E-05-8.96713E-07 2.01693E-19-2.52452E-18
 -1      1440 7.49032E-05-2.22755E-05-2.25616E-05 5.96297E-07-1.47417E-19-3.67515E-18
 -1      1441 7.55331E-05-2.24854E-05-2.27396E-05 7.41608E-07 1.19144E-19-4.07870E-18
 -1      1442 7.81717E-05-2.31048E-05-2.36470E-05 5.61536E-07-3.80635E-19-9.93130E-19
 -1      1443 7.62231E-05-2.27082E-05-2.29399E-05 1.25723E-06 7.59583E-20-3.25688E-18
 -1      1444 7.74588E-05-2.31178E-05-2.32902E-05 1.36543E-06 1.36587E-19-2.92933E-18
 -1      1445 7.90604E-05-2.34246E-05-2.38830E-05 1.92417E-06 4.85780E-19-5.41307E-20
 -1      1446 7.85214E-05-2.34562E-05-2.36016E-05 1.71080E-06 1.08546E-18-2.38470E-18
 -1      1447 8.01647E-05-2.39956E-05-2.40698E-05 1.76887E-06 1.70227E-18-9.81698E-19
 -1      1448 8.08060E-05-2.40455E-05-2.43510E-05 2.96325E-06 1.33375E-18-1.25493E-19
 -1      1449 8.14388E-05-2.43937E-05-2.44482E-05 1.91908E-06 6.88463E-19 2.03989E-19
 -1      1450 8.32617E-05-2.49846E-05-2.49707E-05 1.92882E-06 7.56393E-19 1.18624E-18
 -1      1451 8.31251E-05-2.48524E-05-2.49836E-05 3.55564E-06 2.09907E-18 7.55170E-19
 -1      1452 8.45866E-05-2.53892E-05-2.53700E-05 1.90679E-06 3.31946E-19 8.12900E-19
 -1      1453 8.63868E-05-2.59653E-05-2.58891E-05 1.88028E-06 1.74256E-19 6.88214E-19
 -1      1454 8.56927E-05-2.57205E-05-2.56988E-05 3.70168E-06 8.39689E-19 1.29178E-18
 -1      1455 8.76340E-05-2.63381E-05-2.62701E-05 1.73394E-06 2.31384E-19 6.03471E-19
 -1      1456 8.92640E-05-2.68548E-05-2.67416E-05 1.68553E-06 2.29108E-19 7.64752E-19
 -1      1457 8.82211E-05-2.65493E-05-2.64185E-05 3.49093E-06 3.53434E-19 2.16525E-18
 -1      1458 9.03479E-05-2.71750E-05-2.70748E-05 1.45849E-06-1.85560E-19 1.71855E-19
 -1      1459 9.17089E-05-2.76067E-05-2.74669E-05 1.39677E-06-3.42420E-19-3.37748E-19
 -1      1460 9.05035E-05-2.72803E-05-2.70783E-05 3.03805E-06-2.48201E-19 1.78355E-18
 -1      1461 9.25785E-05-2.78674E-05-2.77309E-05 1.10525E-06 7.69270E-19-2.05273E-19
 -1      1462 9.35858E-05-2.81926E-05-2.80180E-05 1.02501E-06 6.57992E-19 6.21980E-19
 -1      1463 9.24148E-05-2.78949E-05-2.76305E-05 2.41867E-06 2.49332E-19 1.27118E-18
 -1      1464 9.42281E-05-2.84124E-05-2.82007E-05 6.51725E-07 3.64573E-19 1.74094E-18
 -1      1465 9.47856E-05-2.85779E-05-2.83694E-05 5.37152E-07 5.30176E-19 2.47406E-18
 -1      1466 9.38909E-05-2.84017E-05-2.80445E-05 1.64038E-06 1.10612E-18 2.35196E-18
 -1      1467 9.52078E-05-2.86385E-05-2.85242E-05 3.18873E-08-1.85444E-18 1.14524E-18
 -1      1468 9.50106E-05-2.87783E-05-2.83692E-05 5.56685E-07-1.17808E-18 1.32870E-18
 -1      1469 9.86231E-05-2.78405E-05-3.09592E-05 5.25968E-06 1.40533E-18 1.06976E-17
 -1      1470 1.05747E-04-3.01665E-05-3.38092E-05 8.43607E-06 1.48167E-18 1.23824E-17
 -1      1471 9.34930E-05-2.76064E-05-2.83023E-05 2.14529E-06 1.13746E-18 8.20685E-18
 -1      1472 9.58331E-05-2.79055E-05-2.93962E-05 2.59940E-06 1.19424E-18 9.90022E-18
 -1      1473 9.97447E-05-2.79381E-05-3.11378E-05 8.27208E-06 2.48864E-18 5.98754E-18
 -1      1474 9.09684E-05-2.71271E-05-2.73160E-05 7.73261E-07 8.97418E-19 6.26455E-18
 -1      1475 9.17309E-05-2.72288E-05-2.76398E-05 8.89372E-07 8.93368E-19 7.47062E-18
 -1      1476 9.49128E-05-2.77947E-05-2.88958E-05 3.28833E-06 1.99238E-18 4.83269E-18
 -1      1477 9.00916E-05-2.69606E-05-2.70165E-05 1.36429E-07 5.67393E-19 4.87334E-18
 -1      1478 9.01848E-05-2.69378E-05-2.70597E-05 1.97249E-07 6.77868E-19 5.71464E-18
 -1      1479 9.26205E-05-2.75154E-05-2.79343E-05 1.12526E-06 1.43495E-18 3.62979E-18
 -1      1480 9.00211E-05-2.69774E-05-2.69954E-05-1.73756E-07 4.67403E-19 3.74022E-18
 -1      1481 8.98153E-05-2.68893E-05-2.69366E-05-1.43824E-07 4.82180E-19 4.43860E-18
 -1      1482 9.16170E-05-2.73673E-05-2.75484E-05 1.03153E-07 1.05590E-18 2.77928E-18
 -1      1483 9.03569E-05-2.70976E-05-2.70979E-05-3.23345E-07 4.52105E-19 2.79331E-18
 -1      1484 9.00166E-05-2.69783E-05-2.69994E-05-3.10754E-07 5.10342E-19 3.49711E-18
 -1      1485 9.13397E-05-2.73508E-05-2.74319E-05-4.03277E-07 9.10660E-19 2.03206E-18
 -1      1486 9.08854E-05-2.72677E-05-2.72568E-05-3.83737E-07 2.46050E-19 2.25435E-18
 -1      1487 9.04959E-05-2.71386E-05-2.71443E-05-3.81517E-07 3.47246E-19 2.57371E-18
 -1      1488 9.14616E-05-2.74222E-05-2.74504E-05-6.43008E-07 7.45976E-19 1.35521E-18
 -1      1489 9.14852E-05-2.74542E-05-2.74367E-05-3.92627E-07 3.45973E-19 1.52600E-18
 -1      1490 9.10938E-05-2.73281E-05-2.73233E-05-3.96488E-07 2.36235E-19 2.01093E-18
 -1      1491 9.17915E-05-2.75410E-05-2.75381E-05-7.32433E-07 5.65012E-19 8.86542E-19
 -1      1492 9.20859E-05-2.76378E-05-2.76171E-05-3.72126E-07 1.06456E-19 1.18589E-18
 -1      1493 9.17188E-05-2.75216E-05-2.75104E-05-3.79328E-07 3.35798E-19 1.59533E-18
 -1      1494 9.22156E-05-2.76792E-05-2.76586E-05-7.34962E-07 4.33458E-19 6.65654E-19
 -1      1495 9.26476E-05-2.78076E-05-2.77862E-05-3.35940E-07 1.38640E-19 1.01578E-18
 -1      1496 9.23186E-05-2.77047E-05-2.76902E-05-3.44696E-07 1.09522E-19 1.21559E-18
 -1      1497 9.26654E-05-2.78196E-05-2.77898E-05-6.88341E-07 3.53798E-19 6.13386E-19
 -1      1498 9.31497E-05-2.79582E-05-2.79376E-05-2.92796E-07-1.23521E-19 9.61789E-19
 -1      1499 9.28644E-05-2.78698E-05-2.78541E-05-3.01947E-07 7.17885E-20 8.83454E-19
 -1      1500 9.31004E-05-2.79522E-05-2.79188E-05-6.16179E-07 7.44272E-20 5.44873E-19
 -1      1501 9.35834E-05-2.80874E-05-2.80688E-05-2.48194E-07 4.68972E-20 9.73573E-19
 -1      1502 9.33431E-05-2.80135E-05-2.79981E-05-2.57083E-07 4.35657E-20 1.18094E-18
 -1      1503 9.34982E-05-2.80714E-05-2.80379E-05-5.33497E-07-1.05462E-19 1.97452E-19
 -1      1504 9.39325E-05-2.81909E-05-2.81743E-05-2.07706E-07 2.29414E-19 7.60143E-19
 -1      1505 9.37422E-05-2.81330E-05-2.81183E-05-2.15347E-07 7.82277E-20 1.05848E-18
 -1      1506 9.38404E-05-2.81724E-05-2.81410E-05-4.51489E-07 9.51254E-20 2.43729E-19
 -1      1507 9.42375E-05-2.82809E-05-2.82667E-05-1.68906E-07 5.92721E-19-1.21089E-19
 -1      1508 9.40748E-05-2.82315E-05-2.82187E-05-1.76079E-07 5.69150E-19 5.76461E-19
 -1      1509 9.41336E-05-2.82585E-05-2.82301E-05-3.74851E-07 7.65968E-19 8.48868E-20
 -1      1510 9.44844E-05-2.83534E-05-2.83416E-05-1.35086E-07 6.41687E-20-6.25982E-19
 -1      1511 9.43547E-05-2.83143E-05-2.83032E-05-1.41154E-07 3.12062E-19-2.97008E-19
 -1      1512 9.43857E-05-2.83316E-05-2.83070E-05-3.03846E-07 6.72535E-19-1.69939E-19
 -1      1513 9.46817E-05-2.84110E-05-2.84016E-05-1.06704E-07 2.61850E-19-8.44339E-19
 -1      1514 9.45797E-05-2.83805E-05-2.83713E-05-1.11680E-07 1.79118E-19-6.15895E-19
 -1      1515 9.45928E-05-2.83911E-05-2.83705E-05-2.42608E-07 3.01548E-19-5.24407E-20
 -1      1516 9.48383E-05-2.84565E-05-2.84492E-05-8.38606E-08-1.31877E-19-7.62679E-19
 -1      1517 9.47587E-05-2.84329E-05-2.84255E-05-8.77755E-08 1.08985E-19-7.40282E-19
 -1      1518 9.47609E-05-2.84389E-05-2.84224E-05-1.91896E-07 2.15120E-19-8.12199E-20
 -1      1519 9.49634E-05-2.84926E-05-2.84873E-05-6.65376E-08-2.19050E-19-3.49488E-19
 -1      1520 9.49008E-05-2.84743E-05-2.84686E-05-6.94210E-08 1.34782E-19-6.00705E-19
 -1      1521 9.48971E-05-2.84773E-05-2.84646E-05-1.51912E-07-8.98057E-20-4.26524E-19
 -1      1522 9.50662E-05-2.85220E-05-2.85187E-05-5.48053E-08 2.27025E-19-8.87207E-19
 -1      1523 9.50154E-05-2.85073E-05-2.85035E-05-5.66544E-08 1.83757E-20-6.07281E-19
 -1      1524 9.50091E-05-2.85084E-05-2.84996E-05-1.22771E-07 7.22718E-20-5.88962E-19
 -1      1525 9.51568E-05-2.85476E-05-2.85465E-05-4.90508E-08-1.25436E-19-7.65493E-19
 -1      1526 9.51122E-05-2.85349E-05-2.85330E-05-4.97883E-08 2.06528E-19-9.51271E-19
 -1      1527 9.51049E-05-2.85345E-05-2.85298E-05-1.04935E-07 1.55660E-19-1.00972E-18
 -1      1528 9.52468E-05-2.85726E-05-2.85740E-05-5.02776E-08 1.30680E-19-5.10062E-19
 -1      1529 9.52018E-05-2.85602E-05-2.85604E-05-4.96929E-08-2.88135E-19-7.83068E-19
 -1      1530 9.51939E-05-2.85582E-05-2.85582E-05-9.97215E-08-1.48013E-19-1.24115E-18
 -1      1531 9.53507E-05-2.86011E-05-2.86059E-05-6.05463E-08-2.20638E-19-2.93331E-20
 -1      1532 9.52971E-05-2.85865E-05-2.85897E-05-5.82048E-08 1.14335E-19-1.52789E-19
 -1      1533 9.52869E-05-2.85823E-05-2.85882E-05-1.10004E-07-1.44450E-19-1.28445E-18
 -1      1534 9.54889E-05-2.86387E-05-2.86485E-05-8.36740E-08 1.78662E-19-8.66941E-19
 -1      1535 9.54148E-05-2.86186E-05-2.86261E-05-7.87686E-08 1.17408E-19-3.02988E-19
 -1      1536 9.53981E-05-2.86103E-05-2.86245E-05-1.41272E-07 2.22203E-19-7.55685E-19
 -1      1537 9.56917E-05-2.86934E-05-2.87111E-05-1.26357E-07 7.68289E-20-1.19252E-18
 -1      1538 9.55791E-05-2.86629E-05-2.86771E-05-1.17475E-07 4.37885E-19-6.23698E-19
 -1      1539 9.55472E-05-2.86467E-05-2.86738E-05-2.03327E-07 5.43413E-19-3.73717E-19
 -1      1540 9.60066E-05-2.87778E-05-2.88087E-05-2.00253E-07-1.26968E-19-1.41771E-18
 -1      1541 9.58266E-05-2.87293E-05-2.87542E-05-1.84701E-07-1.81081E-19-1.55459E-18
 -1      1542 9.57630E-05-2.86980E-05-2.87456E-05-3.13113E-07 5.03010E-19-5.60407E-19
 -1      1543 9.64791E-05-2.89044E-05-2.89551E-05-3.16516E-07 2.83355E-19-1.43469E-18
 -1      1544 9.62025E-05-2.88288E-05-2.88720E-05-2.93268E-07 6.02527E-20-1.40975E-18
 -1      1545 9.60786E-05-2.87714E-05-2.88515E-05-4.93141E-07 8.96333E-21-1.10500E-18
 -1      1546 9.72728E-05-2.91163E-05-2.92025E-05-5.17774E-07-7.16744E-19-7.02419E-20
 -1      1547 9.67959E-05-2.89856E-05-2.90586E-05-4.75067E-07-5.22841E-19-9.05397E-19
 -1      1548 9.65619E-05-2.88809E-05-2.90149E-05-7.88295E-07-4.08581E-19-4.41416E-19
 -1      1549 9.85650E-05-2.94603E-05-2.96070E-05-8.51296E-07 4.98194E-20 1.53521E-19
 -1      1550 9.77716E-05-2.92416E-05-2.93673E-05-7.79988E-07-8.47066E-20 5.54205E-19
 -1      1551 9.73294E-05-2.90514E-05-2.92761E-05-1.28485E-06-8.94659E-19 8.90581E-19
 -1      1552 1.00668E-04-3.00193E-05-3.02693E-05-1.40055E-06-4.47525E-19 3.09915E-19
 -1      1553 9.93479E-05-2.96532E-05-2.98692E-05-1.28127E-06 2.36051E-19 3.16784E-19
 -1      1554 9.85265E-05-2.93102E-05-2.96867E-05-2.09883E-06 2.15001E-19 8.00095E-19
 -1      1555 1.04077E-04-3.09257E-05-3.13499E-05-2.29659E-06-6.28399E-19 1.00985E-18
 -1      1556 1.01889E-04-3.03137E-05-3.06844E-05-2.09820E-06-5.48427E-19 4.59141E-19
 -1      1557 1.00386E-04-2.97028E-05-3.03295E-05-3.42095E-06-7.53813E-19 6.32753E-19
 -1      1558 1.09542E-04-3.23881E-05-3.30896E-05-3.73041E-06-4.98141E-19 1.51730E-18
 -1      1559 1.05956E-04-3.13699E-05-3.19987E-05-3.40553E-06-6.67396E-19 1.06438E-18
 -1      1560 1.03246E-04-3.02968E-05-3.13237E-05-5.53386E-06-1.06371E-18-3.22574E-19
 -1      1561 1.18107E-04-3.47255E-05-3.58028E-05-5.93390E-06 5.80972E-19 8.18075E-19
 -1      1562 1.12366E-04-3.30494E-05-3.40757E-05-5.42166E-06 7.76875E-19 1.83285E-18
 -1      1563 1.07567E-04-3.12034E-05-3.28228E-05-8.80487E-06-1.11702E-19 2.55539E-19
 -1      1564 1.30941E-04-3.83971E-05-3.97600E-05-9.03646E-06 1.89352E-19 6.71803E-19
 -1      1565 1.22189E-04-3.57059E-05-3.72188E-05-8.29892E-06 3.25115E-19 9.59424E-19
 -1      1566 1.13920E-04-3.26369E-05-3.49716E-05-1.35541E-05 5.51088E-19 8.27842E-19
 -1      1567 1.48585E-04-4.39397E-05-4.48132E-05-1.25276E-05-1.86360E-19 8.59950E-19
 -1      1568 1.36508E-04-3.98841E-05-4.15828E-05-1.17214E-05-2.73631E-20 1.13121E-18
 -1      1569 1.22910E-04-3.50918E-05-3.77705E-05-1.95527E-05-2.25145E-19 1.23865E-18
 -1      1570 1.68842E-04-5.15603E-05-4.97365E-05-1.38505E-05-2.17158E-19 1.38320E-18
 -1      1571 1.55637E-04-4.64434E-05-4.67274E-05-1.39447E-05-2.28619E-19 1.22100E-18
 -1      1572 1.34981E-04-3.96380E-05-4.08368E-05-2.46911E-05-6.15224E-19 7.90785E-19
 -1      1573 1.81821E-04-5.80150E-05-5.20164E-05-9.49045E-06-4.51786E-19 2.31875E-18
 -1      1574 1.75017E-04-5.45355E-05-5.08862E-05-1.12359E-05-2.56704E-19 2.17730E-18
 -1      1575 1.48903E-04-4.73774E-05-4.31386E-05-2.37654E-05-5.69630E-19 1.32579E-18
 -1      1576 1.83906E-04-6.13157E-05-5.16742E-05 4.25679E-06-9.10560E-19 2.81046E-18
 -1      1577 1.88784E-04-6.21463E-05-5.28989E-05-2.52563E-07-1.30020E-19 2.42421E-18
 -1      1578 1.63284E-04-5.71307E-05-4.48762E-05-1.14540E-05-6.95308E-19 2.11044E-18
 -1      1579 1.29390E-04-3.22552E-05-4.82577E-05 1.95851E-05 2.20229E-19 3.52408E-18
 -1      1580 1.54324E-04-4.38096E-05-5.10945E-05 2.30729E-05-1.00331E-18 2.92650E-18
 -1      1581 1.19811E-04-2.69695E-05-4.79954E-05 2.86739E-06 2.28360E-18-1.38606E-18
 -1      1582 1.25702E-04-2.97791E-05-4.84736E-05 8.07464E-06 1.11173E-18 1.36457E-18
 -1      1583 1.62996E-04-3.95435E-05-5.61499E-05 2.71915E-05 1.85500E-18-2.52405E-18
 -1      1584 1.43757E-04-3.96450E-05-4.96532E-05-1.91817E-05 1.29681E-18-4.12039E-18
 -1      1585 1.21328E-04-2.80360E-05-4.77686E-05-1.52256E-05 1.21168E-18-1.93589E-18
 -1      1586 1.60135E-04-3.51635E-05-5.63322E-05-9.63963E-06 3.03577E-18-4.71811E-18
 -1      1587 1.78382E-04-5.63693E-05-5.26518E-05-2.20389E-05-8.42480E-19-3.33477E-18
 -1      1588 1.51972E-04-4.35718E-05-4.96925E-05-2.34396E-05 5.74500E-19-3.53467E-18
 -1      1589 1.93069E-04-6.25816E-05-5.42439E-05-8.82605E-06-4.66967E-19-1.48527E-18
 -1      1590 1.80409E-04-5.76945E-05-5.22017E-05-1.25457E-05-1.11620E-18-2.92480E-18
 -1      1591 1.81656E-04-6.09783E-05-5.17469E-05-2.95759E-05-1.64324E-18-3.55923E-18
 -1      1592 1.88119E-04-5.89427E-05-5.37166E-05 4.76819E-06-1.73250E-18 2.03142E-18
 -1      1593 1.90224E-04-6.07143E-05-5.38636E-05 2.10535E-06-1.01242E-18 2.95403E-19
 -1      1594 1.78654E-04-6.06044E-05-4.96228E-05-4.77218E-06-2.26587E-18-1.63859E-18
 -1      1595 1.66668E-04-4.99821E-05-4.95509E-05 1.08852E-05 6.97585E-19 3.64521E-18
 -1      1596 1.79734E-04-5.55452E-05-5.22282E-05 1.01393E-05-1.84653E-19 3.18617E-18
 -1      1597 1.65827E-04-5.31591E-05-4.75867E-05 1.49725E-05-1.94129E-18-7.61271E-20
 -1      1598 1.43518E-04-4.22864E-05-4.35729E-05 1.02078E-05 1.18142E-18 5.98429E-19
 -1      1599 1.57493E-04-4.73610E-05-4.71173E-05 1.05691E-05 1.12193E-18 3.34112E-18
 -1      1600 1.47569E-04-4.44294E-05-4.40474E-05 2.07498E-05 1.72527E-18 6.75456E-19
 -1      1601 1.24796E-04-3.67140E-05-3.80333E-05 7.65654E-06 6.86672E-19-1.66061E-18
 -1      1602 1.35740E-04-4.03009E-05-4.11174E-05 8.20294E-06 1.38577E-18-2.29122E-19
 -1      1603 1.30559E-04-3.82943E-05-3.96804E-05 1.78726E-05 1.91370E-18 6.95626E-20
 -1      1604 1.11298E-04-3.28662E-05-3.38239E-05 5.26887E-06-1.53710E-19-1.63451E-18
 -1      1605 1.18922E-04-3.52326E-05-3.60667E-05 5.72141E-06 2.40385E-19-2.10954E-18
 -1      1606 1.17032E-04-3.42180E-05-3.56701E-05 1.30622E-05 4.71268E-19-1.72594E-18
 -1      1607 1.02232E-04-3.02629E-05-3.09970E-05 3.39473E-06-2.29564E-18 1.82480E-18
 -1      1608 1.07164E-04-3.17831E-05-3.24461E-05 3.75399E-06-1.51273E-18-1.76940E-18
 -1      1609 1.07185E-04-3.14628E-05-3.25987E-05 8.84504E-06-9.85430E-19-8.78598E-19
 -1      1610 9.70947E-05-2.87320E-05-2.93587E-05 1.71811E-06-2.81811E-19 4.10964E-18
 -1      1611 9.95912E-05-2.95473E-05-3.01488E-05 2.05604E-06-7.29064E-19 2.32336E-18
 -1      1612 1.00487E-04-2.95236E-05-3.05377E-05 5.35420E-06-2.27923E-18-1.05356E-18
 -1      1613 9.54845E-05-2.82787E-05-2.86932E-05 5.77560E-07 2.30965E-18 1.86823E-18
 -1      1614 9.59799E-05-2.82668E-05-2.91073E-05 9.69639E-07-7.02872E-19 3.83885E-18
 -1      1615 9.69153E-05-2.82864E-05-2.95327E-05 2.82122E-06-4.25508E-19-1.01197E-18
 -1      1616 9.53547E-05-2.77509E-05-2.90918E-05 9.98592E-07 3.46765E-18-2.21846E-18
 -1      1617 9.38050E-05-2.35325E-05-3.01829E-05 2.46223E-06-3.22900E-18-6.06218E-19
 -1      1618 9.47568E-05-2.59245E-05-2.95348E-05 2.08818E-06 1.04778E-18-2.42439E-18
 -1      1619 9.51404E-05-2.59125E-05-2.96972E-05 3.27093E-06 5.48269E-19-4.17077E-18
 -1      1620 9.20249E-05-1.84913E-05-3.14604E-05 2.41492E-06-6.92111E-18-1.20141E-18
 -1      1621 9.30658E-05-2.13769E-05-3.07211E-05 2.42855E-06-5.16849E-18-1.21209E-18
 -1      1622 9.33156E-05-2.19042E-05-3.06003E-05 4.65655E-06-4.34599E-18-3.44137E-18
 -1      1623 9.08424E-05-1.50065E-05-3.23787E-05 1.24532E-06-4.29560E-18 2.53918E-18
 -1      1624 9.14561E-05-1.69388E-05-3.18784E-05 1.55093E-06-5.86253E-18 6.08679E-19
 -1      1625 9.17514E-05-1.82308E-05-3.14351E-05 3.63553E-06-2.54701E-18 5.33545E-19
 -1      1626 9.06930E-05-1.44425E-05-3.25593E-05-3.30982E-07-4.49624E-18-1.30869E-18
 -1      1627 9.06726E-05-1.46672E-05-3.24991E-05 7.67319E-08-4.74156E-18-8.23210E-21
 -1      1628 9.10464E-05-1.64018E-05-3.18748E-05 1.05922E-06-3.18773E-18 2.92226E-19
 -1      1629 9.15056E-05-1.67476E-05-3.19656E-05-1.63628E-06-4.37969E-18 4.59773E-19
 -1      1630 9.09400E-05-1.53557E-05-3.23396E-05-1.29980E-06-4.89111E-18 1.45531E-19
 -1      1631 9.13164E-05-1.70368E-05-3.17281E-05-1.73694E-06-4.09264E-18-3.47111E-19
 -1      1632 9.29436E-05-2.10254E-05-3.08082E-05-2.33293E-06-7.32437E-18-2.45821E-18
 -1      1633 9.20578E-05-1.85571E-05-3.14817E-05-2.14954E-06-5.39438E-18-9.14551E-19
 -1      1634 9.23486E-05-1.97800E-05-3.10405E-05-3.73857E-06-4.07179E-18-1.58104E-18
 -1      1635 9.45241E-05-2.58863E-05-2.94503E-05-2.33489E-06-3.84397E-18 2.24927E-18
 -1      1636 9.36058E-05-2.31513E-05-3.02089E-05-2.32540E-06-5.65220E-18 1.81161E-19
 -1      1637 9.37690E-05-2.37114E-05-3.00159E-05-4.50202E-06-2.50436E-18-8.32840E-19
 -1      1638 9.58587E-05-3.01220E-05-2.82312E-05-1.82333E-06-3.18915E-18 5.42088E-19
 -1      1639 9.51253E-05-2.77953E-05-2.88881E-05-1.94202E-06-3.75934E-18 1.56605E-19
 -1      1640 9.51499E-05-2.77117E-05-2.89334E-05-4.08490E-06-1.41844E-18 9.49233E-19
 -1      1641 9.67316E-05-3.30022E-05-2.73732E-05-1.06493E-06-5.78021E-19 1.69815E-18
 -1      1642 9.62912E-05-3.14756E-05-2.78140E-05-1.24669E-06-2.34390E-18 3.78505E-19
 -1      1643 9.62027E-05-3.09262E-05-2.80279E-05-2.90151E-06-5.48705E-19 1.39003E-18
 -1      1644 9.70938E-05-3.43039E-05-2.69585E-05-2.95911E-07-2.35894E-18-5.24121E-19
 -1      1645 9.69570E-05-3.36802E-05-2.71483E-05-4.83703E-07-4.50807E-19-8.55096E-19
 -1      1646 9.68038E-05-3.29111E-05-2.74383E-05-1.43616E-06-1.30911E-18-3.15202E-19
 -1      1647 9.70195E-05-3.42083E-05-2.69501E-05 3.18368E-07-3.51979E-18-1.58508E-18
 -1      1648 9.71284E-05-3.43598E-05-2.69195E-05 1.64238E-07-2.27180E-18-1.12520E-18
 -1      1649 9.69603E-05-3.36075E-05-2.71998E-05-8.41832E-08-2.20152E-18-1.85132E-18
 -1      1650 9.66342E-05-3.31035E-05-2.72387E-05 7.17776E-07-1.99299E-18 2.36571E-18
 -1      1651 9.69065E-05-3.38031E-05-2.70517E-05 6.11880E-07-3.38537E-18 1.26382E-18
 -1      1652 9.67739E-05-3.32430E-05-2.72606E-05 9.23789E-07-1.65504E-18 8.85570E-19
 -1      1653 9.60949E-05-3.14866E-05-2.76801E-05 8.53185E-07-4.71189E-18-1.59686E-18
 -1      1654 9.64299E-05-3.24360E-05-2.74216E-05 8.11882E-07-2.90943E-18-8.92749E-19
 -1      1655 9.63565E-05-3.21644E-05-2.75256E-05 1.47956E-06-3.49518E-18-4.42808E-19
 -1      1656 9.55741E-05-2.99400E-05-2.81151E-05 7.13124E-07-4.12007E-18 2.02936E-18
 -1      1657 9.58669E-05-3.07865E-05-2.78758E-05 7.42133E-07-4.41951E-18 5.03612E-19
 -1      1658 9.58486E-05-3.07910E-05-2.78749E-05 1.52678E-06-2.66624E-18-4.07066E-19
 -1      1659 2.31580E-05-8.65007E-05 2.01126E-05-1.86750E-05 1.39782E-18-1.28325E-19
 -1      1660 2.59070E-05-9.01154E-05 2.06692E-05-5.87106E-06 2.12605E-19 7.48565E-19
 -1      1661 1.90043E-05-6.28990E-05 1.21892E-05-1.73424E-05-1.77877E-20-9.45606E-19
 -1      1662 2.54670E-05-8.27123E-05 1.71158E-05-1.49515E-05 7.62330E-19-9.59265E-19
 -1      1663 3.01003E-05-3.28206E-05-4.39639E-06 4.41832E-06-1.76691E-18-3.50756E-18
 -1      1664 2.81058E-05-5.76238E-05 5.15749E-06-1.03190E-05 1.81265E-19-1.49120E-18
 -1      1665 7.41072E-05-1.76832E-05-2.70695E-05 4.04718E-05-2.18026E-18 5.13302E-19
 -1      1666 4.93427E-05-3.00031E-05-1.48116E-05 1.33177E-05-2.67324E-18-2.17518E-18
 -1      1667 1.62600E-04-3.29771E-05-5.27972E-05 7.05219E-05 1.08420E-19 1.83806E-18
 -1      1668 1.07001E-04-2.26715E-05-3.92541E-05 4.65159E-05-9.19031E-19 4.87891E-19
 -1      1669 2.68346E-04-6.97060E-05-7.51723E-05 6.27967E-05 1.38024E-18-1.18923E-18
 -1      1670 2.00031E-04-4.29622E-05-6.39457E-05 6.25404E-05 1.36838E-18 4.91279E-19
 -1      1671 3.38725E-04-9.35206E-05-8.90994E-05 2.24721E-05 7.78423E-19-3.93277E-18
 -1      1672 2.92542E-04-7.18646E-05-8.30962E-05 5.66742E-05 8.02670E-19-1.32307E-18
 -1      1673 3.26625E-04-8.64848E-05-8.86222E-05-2.84534E-05 1.71482E-18-5.86655E-18
 -1      1674 3.37866E-04-9.20240E-05-9.01772E-05 1.33460E-05 8.78373E-19-4.47445E-18
 -1      1675 2.56782E-04-5.91355E-05-7.60416E-05-6.43062E-05 3.85019E-18-8.80237E-18
 -1      1676 3.18358E-04-8.74061E-05-8.49942E-05-4.19968E-05 2.54258E-18-7.08628E-18
 -1      1677 1.58867E-04-3.26251E-05-5.34918E-05-5.71266E-05 4.23262E-18-8.34327E-18
 -1      1678 2.24400E-04-5.47279E-05-6.60746E-05-6.78907E-05 3.44954E-18-8.65159E-18
 -1      1679 7.95420E-05-2.28623E-05-2.91314E-05-3.23867E-05 5.17029E-18-7.00327E-18
 -1      1680 1.21710E-04-2.44261E-05-4.18383E-05-5.88449E-05 5.45235E-18-7.60805E-18
 -1      1681 3.76910E-05-3.83259E-05-6.84128E-06-1.93526E-06 4.77134E-18-4.31817E-18
 -1      1682 5.22605E-05-2.06290E-05-1.78368E-05-2.50545E-05 4.95684E-18-5.93940E-18
 -1      1683 2.65293E-05-6.59119E-05 9.66305E-06 1.26980E-05 1.05710E-18-2.45809E-18
 -1      1684 2.44857E-05-4.25304E-05 1.86132E-06 4.46314E-06 3.13572E-18-4.07084E-18
 -1      1685 2.51942E-05-8.60043E-05 1.89949E-05 1.26488E-05-4.01303E-18-1.66230E-18
 -1      1686 1.89675E-05-7.03097E-05 1.54377E-05 1.93318E-05-3.88365E-19-2.06178E-18
 -1      1687 2.50828E-05-8.62419E-05 1.96178E-05 2.70122E-06-4.88230E-18 2.40981E-19
 -1      1688 2.52441E-05-9.08097E-05 2.09244E-05 1.62920E-05-4.53830E-18-4.83444E-19
 -1      1689 2.07199E-05-5.76932E-05 1.09931E-05 2.21870E-06-4.10218E-18-1.45436E-18
 -1      1690 2.65821E-05-7.94360E-05 1.62081E-05 6.10633E-06-4.49944E-18-3.01544E-19
 -1      1691 2.65555E-05-2.23454E-05-4.43805E-06 2.15356E-05-3.71678E-18-1.25149E-18
 -1      1692 2.78532E-05-4.94944E-05 4.25283E-06 9.74204E-06-3.85400E-18-1.34721E-18
 -1      1693 5.71216E-05 4.81768E-07-2.47553E-05 5.45644E-05-2.47503E-18-1.87025E-18
 -1      1694 4.11875E-05-1.61378E-05-1.38171E-05 3.02208E-05-3.38983E-18-1.51958E-18
 -1      1695 1.11237E-04 1.11591E-06-4.55540E-05 8.50259E-05-2.11843E-18-2.31579E-18
 -1      1696 7.56886E-05 4.80057E-06-3.50560E-05 6.34745E-05-2.06507E-18-1.74743E-18
 -1      1697 1.86157E-04-2.51523E-05-6.41924E-05 9.13123E-05-1.42810E-18 7.58942E-19
 -1      1698 1.38110E-04-4.82750E-06-5.50404E-05 8.74122E-05-2.61310E-18-1.33831E-18
 -1      1699 2.51045E-04-5.59638E-05-7.74943E-05 6.07865E-05 1.31449E-19 9.12254E-19
 -1      1700 2.10708E-04-3.39868E-05-7.13790E-05 8.12104E-05-4.53904E-19 1.15535E-18
 -1      1701 2.79555E-04-7.00058E-05-8.33575E-05 9.04439E-06 1.53525E-19 1.55515E-18
 -1      1702 2.64753E-04-6.12104E-05-8.13356E-05 4.48062E-05 6.04146E-19 1.45647E-18
 -1      1703 2.59284E-04-5.81840E-05-8.05148E-05-4.81147E-05-1.98841E-19 1.10961E-18
 -1      1704 2.77446E-04-6.87783E-05-8.30351E-05-1.01808E-05-2.09005E-19 1.05731E-18
 -1      1705 1.99951E-04-2.89938E-05-6.93904E-05-8.35694E-05-3.99588E-19-2.21076E-19
 -1      1706 2.44631E-04-5.27043E-05-7.62142E-05-6.53520E-05 5.05335E-19 1.11808E-19
 -1      1707 1.25732E-04-6.07930E-06-5.01064E-05-7.63273E-05-1.81350E-18 1.73642E-19
 -1      1708 1.74775E-04-2.42054E-05-6.05795E-05-8.45906E-05-9.60535E-19-1.95749E-18
 -1      1709 6.05865E-05 1.81921E-06-2.83682E-05-5.20356E-05-6.20028E-19 9.03784E-19
 -1      1710 9.34773E-05 3.02584E-06-3.98106E-05-7.75203E-05-1.32222E-18 2.45724E-18
 -1      1711 3.21398E-05-2.42877E-05-7.46039E-06-1.95321E-05 3.88873E-18 1.50433E-18
 -1      1712 4.13183E-05-2.19132E-06-1.78669E-05-4.19595E-05-4.84503E-19 1.54160E-18
 -1      1713 2.64985E-05-6.21894E-05 9.33201E-06-3.43461E-06 3.63547E-18-1.60714E-18
 -1      1714 2.16491E-05-3.34775E-05 1.37194E-06-1.02909E-05 4.03103E-18 1.83383E-19
 -1      1715 2.71678E-05-8.74216E-05 1.90422E-05-8.38240E-06-6.86097E-20 5.72383E-19
 -1      1716 2.21617E-05-6.97590E-05 1.48621E-05 1.39402E-07 2.09895E-18-2.15019E-18
 -1      1717 1.06483E-04-2.32822E-05-3.57524E-05 1.71664E-05 1.77508E-18 9.92701E-18
 -1      1718 1.74615E-04-5.08050E-05-5.48666E-05-3.98408E-05 1.21719E-18-3.19178E-18
 -1      1719 1.67145E-04-5.24195E-05-5.10367E-05 2.47202E-05-4.20975E-19 2.97732E-18
 -1      1720 1.90125E-04-6.38316E-05-5.34181E-05 2.02489E-05-1.75892E-19 2.35941E-18
 -1      1721 1.80372E-04-6.68295E-05-4.83852E-05 1.60384E-05-9.00661E-19 7.75035E-20
 -1      1722 3.40067E-05-5.45891E-05 3.88090E-06 1.30665E-05-1.49925E-19-2.16872E-18
 -1      1723 1.20880E-05-5.82752E-05 1.49723E-05-1.27622E-05 1.07256E-18 7.84353E-19
 -1      1724 1.48460E-05-5.84159E-05 1.35349E-05-2.85329E-07-2.71898E-19-4.84926E-19
 -1      1725 9.52544E-05-2.90439E-05-2.83705E-05 5.31249E-07-2.92330E-18-6.24715E-19
 -1      1726 9.54055E-05-2.95471E-05-2.82068E-05 6.71735E-07-3.22774E-18 5.63327E-20
 -1      1727 9.54217E-05-2.97173E-05-2.81367E-05 1.31136E-06-1.93942E-18 7.69012E-19
 -1      1728 7.24770E-05-5.22425E-05-1.27287E-05 2.49145E-05-1.84653E-19-1.10877E-18
 -1      1729 1.32552E-04-5.57802E-05-3.42837E-05 3.11426E-05-2.66138E-18 4.06576E-19
 -1      1730 2.01386E-04-6.22240E-05-5.60480E-05 2.14422E-05-6.71697E-19-1.54838E-18
 -1      1731 2.52953E-04-6.23860E-05-7.40428E-05 2.00499E-06 1.29088E-18-3.37966E-18
 -1      1732 2.71067E-04-5.41873E-05-8.16831E-05 2.79616E-06 1.96342E-18-4.75694E-18
 -1      1733 2.65852E-04-5.45688E-05-7.98997E-05 4.12465E-06 3.34493E-18-6.25280E-18
 -1      1734 2.34058E-04-6.31566E-05-6.72414E-05-1.25259E-05 3.30083E-18-6.88130E-18
 -1      1735 1.72917E-04-6.06525E-05-4.73724E-05-2.63967E-05 3.34536E-18-6.02325E-18
 -1      1736 1.06309E-04-5.37195E-05-2.56262E-05-2.93618E-05 3.62784E-18-6.61702E-18
 -1      1737 5.68149E-05-5.25181E-05-6.40155E-06-2.09714E-05 2.76556E-18-4.73746E-18
 -1      1738 2.58852E-05-5.40317E-05 7.35491E-06-9.49147E-06-4.65868E-21-3.81250E-18
 -1      1739 1.19348E-05-5.83231E-05 1.48236E-05 4.87252E-06-2.07947E-18-2.30012E-18
 -1      1740 1.40079E-05-5.63321E-05 1.34885E-05 1.80282E-05-2.19509E-18 1.07150E-19
 -1      1741 2.94224E-05-4.60544E-05 3.86317E-06 3.14469E-05-2.09217E-18-4.75397E-20
 -1      1742 5.97834E-05-3.73912E-05-1.13279E-05 4.47387E-05-1.70931E-18 2.45640E-20
 -1      1743 9.88630E-05-2.91877E-05-2.98531E-05 5.38608E-05-1.92954E-18-1.54329E-18
 -1      1744 1.45133E-04-2.57995E-05-4.88131E-05 5.85697E-05-2.24718E-18 1.35525E-19
 -1      1745 1.91158E-04-3.02729E-05-6.47446E-05 4.87078E-05-1.99180E-18 4.63327E-19
 -1      1746 2.22319E-04-3.46535E-05-7.51703E-05 2.65190E-05-2.22770E-19-7.79270E-20
 -1      1747 2.31119E-04-3.50326E-05-7.85067E-05-4.84380E-07 5.37866E-20 1.52551E-18
 -1      1748 2.18430E-04-3.35943E-05-7.41665E-05-2.77235E-05 8.79644E-19 6.92026E-19
 -1      1749 1.83451E-04-3.26314E-05-6.15674E-05-4.31782E-05-3.42519E-19-1.13926E-18
 -1      1750 1.36252E-04-2.94802E-05-4.38862E-05-5.43464E-05-3.75236E-19-9.79170E-19
 -1      1751 8.37548E-05-2.91862E-05-2.38653E-05-5.10269E-05 5.24313E-19 1.16975E-18
 -1      1752 4.63767E-05-3.98692E-05-5.42946E-06-3.73502E-05 3.01713E-18 1.91768E-18
 -1      1753 2.28817E-05-5.17089E-05 8.25825E-06-2.43723E-05 1.29173E-18-2.58514E-18
 -1      1754 1.06085E-04-2.31777E-05-3.56150E-05-1.68602E-05-1.91722E-18 6.90755E-18
 -1      1755 1.84900E-04-5.87580E-05-5.41564E-05 3.80294E-05 3.26108E-20-4.07635E-19
 -1      1756 8.91502E-05-1.05788E-05-3.37993E-05-1.33319E-05-2.39565E-18-3.20988E-18
 -1      1757 9.04978E-05-1.16340E-05-3.39412E-05-1.51454E-05-2.75811E-18-2.40864E-18
 -1      1758 9.25073E-05-1.38756E-05-3.38611E-05-1.60111E-05-2.79054E-18-1.37023E-18
 -1      1759 9.42277E-05-1.58230E-05-3.41063E-05-1.76726E-05-3.00485E-18 3.95988E-20
 -1      1760 9.34291E-05-1.63449E-05-3.30518E-05-1.37887E-05-2.89403E-18-1.72789E-18
 -1      1761 8.62030E-05-7.66292E-06-3.37315E-05-7.87997E-06-1.30224E-18-4.31668E-18
 -1      1762 8.66085E-05-7.96441E-06-3.37665E-05-9.26698E-06-1.57490E-18-4.20954E-18
 -1      1763 8.55847E-05-7.02724E-06-3.37269E-05-5.33868E-06-7.46990E-19-4.39818E-18
 -1      1764 8.58208E-05-7.20568E-06-3.37428E-05-6.64155E-06-1.01585E-18-4.41611E-18
 -1      1765 8.75858E-05-9.85844E-06-3.33443E-05-6.94829E-06-1.29382E-18-4.21742E-18
 -1      1766 8.52456E-05-6.66609E-06-3.37292E-05-2.90990E-06-1.55949E-19-4.24091E-18
 -1      1767 8.53684E-05-6.76155E-06-3.37356E-05-4.14774E-06-4.29002E-19-4.33286E-18
 -1      1768 8.69463E-05-9.14367E-06-3.33765E-05-4.55575E-06-6.63695E-19-4.21678E-18
 -1      1769 8.51107E-05-6.51464E-06-3.37323E-05-5.42765E-07 3.66801E-19-4.20022E-18
 -1      1770 8.51482E-05-6.54444E-06-3.37339E-05-1.75000E-06 1.53986E-19-4.23751E-18
 -1      1771 8.66091E-05-8.76069E-06-3.33960E-05-2.23816E-06-1.17274E-21-4.10505E-18
 -1      1772 8.51519E-05-6.54766E-06-3.37340E-05 1.81458E-06 8.54613E-19-4.05422E-18
 -1      1773 8.51121E-05-6.51660E-06-3.37322E-05 6.06987E-07 6.03524E-19-4.17238E-18
 -1      1774 8.65061E-05-8.64264E-06-3.34024E-05 4.08044E-08 5.17246E-19-4.03378E-18
 -1      1775 8.53782E-05-6.77117E-06-3.37356E-05 4.21409E-06 1.29797E-18-4.02754E-18
 -1      1776 8.52525E-05-6.67353E-06-3.37292E-05 2.97513E-06 1.08894E-18-4.09723E-18
 -1      1777 8.66168E-05-8.76973E-06-3.33955E-05 2.32044E-06 1.03028E-18-3.98653E-18
 -1      1778 8.58283E-05-7.21338E-06-3.37426E-05 6.66748E-06 1.73504E-18-3.60526E-18
 -1      1779 8.55937E-05-7.03645E-06-3.37269E-05 5.38537E-06 1.50360E-18-3.85237E-18
 -1      1780 8.69589E-05-9.15784E-06-3.33758E-05 4.61939E-06 1.47558E-18-3.84477E-18
 -1      1781 8.66309E-05-7.98358E-06-3.37663E-05 9.31818E-06 2.38903E-18-3.01652E-18
 -1      1782 8.62157E-05-7.67697E-06-3.37310E-05 7.90533E-06 2.04562E-18-3.31965E-18
 -1      1783 8.76022E-05-9.87623E-06-3.33439E-05 6.99031E-06 2.06787E-18-3.31292E-18
 -1      1784 8.80228E-05-9.29852E-06-3.38260E-05 1.21805E-05 2.90588E-18-2.23098E-18
 -1      1785 8.72941E-05-8.75515E-06-3.37521E-05 1.06015E-05 2.62978E-18-2.73118E-18
 -1      1786 8.87088E-05-1.10875E-05-3.32973E-05 9.46189E-06 2.69373E-18-2.67469E-18
 -1      1787 9.05512E-05-1.17080E-05-3.39438E-05 1.51868E-05 3.17507E-18-6.39033E-19
 -1      1788 8.91933E-05-1.06154E-05-3.38004E-05 1.34164E-05 2.98610E-18-1.61172E-18
 -1      1789 9.05559E-05-1.30844E-05-3.32205E-05 1.19224E-05 3.12792E-18-1.75046E-18
 -1      1790 9.43677E-05-1.59476E-05-3.40972E-05 1.77626E-05 3.11467E-18 2.35915E-18
 -1      1791 9.26213E-05-1.39937E-05-3.38596E-05 1.60892E-05 3.05788E-18 6.30722E-19
 -1      1792 9.36588E-05-1.65346E-05-3.30374E-05 1.38658E-05 3.26792E-18 7.72653E-20
 -1      1793 2.04258E-04-6.44470E-05-5.91889E-05-2.34251E-05-1.30867E-19-3.03831E-18
 -1      1794 1.98095E-04-4.98109E-05-6.28755E-05-2.14239E-05 1.48485E-18-3.68036E-18
 -1      1795 1.00183E-04-1.95679E-05-3.42276E-05-1.88775E-05-2.56380E-18 2.59679E-18
 -1      1796 1.00320E-04-1.95374E-05-3.43052E-05 1.91263E-05 2.51636E-18 4.97155E-18
 -1      1797 9.69855E-05-2.69861E-05-2.98846E-05-5.70813E-06-2.36031E-18 1.21219E-18
 -1      1798 9.51754E-05-2.70407E-05-2.91737E-05-3.90068E-06-2.11614E-18 6.17176E-19
 -1      1799 9.43549E-05-2.72408E-05-2.86662E-05-2.42358E-06-1.90240E-18 5.71919E-19
 -1      1800 9.35827E-05-2.73209E-05-2.83610E-05-1.56896E-06-1.65515E-18 3.08505E-20
 -1      1801 9.55258E-05-2.65485E-05-2.95820E-05-4.47750E-06-2.36357E-18-4.49353E-19
 -1      1802 9.30579E-05-2.73718E-05-2.80921E-05-7.40576E-07-1.40824E-18-6.00268E-20
 -1      1803 9.27569E-05-2.74356E-05-2.79701E-05-3.01402E-07-1.08271E-18-4.51612E-19
 -1      1804 9.43144E-05-2.72238E-05-2.87733E-05-1.82920E-06-1.83285E-18-6.22993E-19
 -1      1805 9.24811E-05-2.74631E-05-2.78341E-05 1.54703E-07-8.82373E-19-5.41458E-19
 -1      1806 9.24504E-05-2.75395E-05-2.78044E-05 3.79375E-07-7.63708E-19-8.16836E-19
 -1      1807 9.36135E-05-2.75312E-05-2.83373E-05-3.60532E-07-1.26623E-18-9.42409E-19
 -1      1808 9.23471E-05-2.75710E-05-2.77462E-05 6.19768E-07-8.06088E-19-9.32841E-19
 -1      1809 9.24629E-05-2.76564E-05-2.77656E-05 7.24128E-07-7.97080E-19-1.19419E-18
 -1      1810 9.32923E-05-2.77161E-05-2.81163E-05 4.43550E-07-9.87379E-19-1.28026E-18
 -1      1811 9.24684E-05-2.76945E-05-2.77537E-05 8.35573E-07-8.06187E-19-1.16093E-18
 -1      1812 9.26572E-05-2.77816E-05-2.77987E-05 8.69481E-07-6.61474E-19-1.32910E-18
 -1      1813 9.32291E-05-2.78593E-05-2.80239E-05 8.56029E-07-8.62830E-19-1.33097E-18
 -1      1814 9.27260E-05-2.78232E-05-2.78135E-05 9.03044E-07-5.79260E-19-1.33802E-18
 -1      1815 9.29434E-05-2.79064E-05-2.78701E-05 8.95612E-07-5.63749E-19-1.25341E-18
 -1      1816 9.33243E-05-2.79832E-05-2.80084E-05 1.03210E-06-7.26353E-19-1.36298E-18
 -1      1817 9.30448E-05-2.79480E-05-2.78992E-05 8.82960E-07-7.25483E-19-1.22134E-18
 -1      1818 9.32643E-05-2.80237E-05-2.79587E-05 8.52308E-07-4.57078E-19-1.20525E-18
 -1      1819 9.35070E-05-2.80928E-05-2.80374E-05 1.06545E-06-6.03583E-19-1.35955E-18
 -1      1820 9.33781E-05-2.80628E-05-2.79942E-05 8.13778E-07-5.36892E-19-1.47970E-18
 -1      1821 9.35844E-05-2.81293E-05-2.80516E-05 7.71542E-07-4.90103E-19-1.82481E-18
 -1      1822 9.37295E-05-2.81886E-05-2.80902E-05 1.01524E-06-8.14739E-19-1.81539E-18
 -1      1823 9.36982E-05-2.81644E-05-2.80885E-05 7.20384E-07-4.14183E-19-2.21435E-18
 -1      1824 9.38833E-05-2.82211E-05-2.81409E-05 6.74064E-07-1.17325E-19-2.32355E-18
 -1      1825 9.39609E-05-2.82706E-05-2.81532E-05 9.19800E-07-7.72163E-19-2.16720E-18
 -1      1826 9.39897E-05-2.82516E-05-2.81763E-05 6.18860E-07-2.79982E-20-2.35781E-18
 -1      1827 9.41505E-05-2.82987E-05-2.82224E-05 5.73201E-07-1.39472E-19-2.31690E-18
 -1      1828 9.41826E-05-2.83391E-05-2.82183E-05 8.04152E-07-1.91844E-19-2.08678E-18
 -1      1829 9.42457E-05-2.83245E-05-2.82547E-05 5.19371E-07-1.94575E-19-2.21689E-18
 -1      1830 9.43818E-05-2.83630E-05-2.82942E-05 4.77246E-07-7.55340E-20-1.88529E-18
 -1      1831 9.43844E-05-2.83952E-05-2.82804E-05 6.84394E-07-1.90443E-19-2.29038E-18
 -1      1832 9.44645E-05-2.83842E-05-2.83227E-05 4.28044E-07-7.64127E-20-1.81407E-18
 -1      1833 9.45777E-05-2.84151E-05-2.83559E-05 3.91049E-07 1.17809E-20-1.64232E-18
 -1      1834 9.45617E-05-2.84401E-05-2.83370E-05 5.70553E-07-1.33786E-19-1.76119E-18
 -1      1835 9.46480E-05-2.84324E-05-2.83804E-05 3.48253E-07-3.03426E-19-1.96427E-18
 -1      1836 9.47409E-05-2.84569E-05-2.84078E-05 3.17125E-07-3.82472E-19-2.20611E-18
 -1      1837 9.47136E-05-2.84754E-05-2.83869E-05 4.68494E-07-3.93958E-19-1.79503E-18
 -1      1838 9.47998E-05-2.84708E-05-2.84287E-05 2.81510E-07-5.65597E-19-2.09644E-18
 -1      1839 9.48756E-05-2.84902E-05-2.84512E-05 2.56411E-07-3.11885E-19-2.23750E-18
 -1      1840 9.48415E-05-2.85029E-05-2.84300E-05 3.81244E-07-5.36129E-19-2.45607E-18
 -1      1841 9.49248E-05-2.85013E-05-2.84688E-05 2.28068E-07-2.74610E-19-2.59265E-18
 -1      1842 9.49868E-05-2.85168E-05-2.84874E-05 2.08757E-07-4.35853E-19-2.87965E-18
 -1      1843 9.49482E-05-2.85242E-05-2.84668E-05 3.09894E-07-5.13906E-19-2.10297E-18
 -1      1844 9.50279E-05-2.85259E-05-2.85021E-05 1.87274E-07-3.47835E-19-3.11914E-18
 -1      1845 9.50793E-05-2.85386E-05-2.85176E-05 1.73194E-07-2.41720E-19-2.82043E-18
 -1      1846 9.50372E-05-2.85409E-05-2.84979E-05 2.54169E-07-4.84131E-19-2.79758E-18
 -1      1847 9.51142E-05-2.85464E-05-2.85301E-05 1.57717E-07-3.96513E-19-2.74750E-18
 -1      1848 9.51577E-05-2.85573E-05-2.85432E-05 1.47980E-07-4.97214E-20-3.01144E-18
 -1      1849 9.51121E-05-2.85547E-05-2.85242E-05 2.12708E-07-2.42615E-19-3.28805E-18
 -1      1850 9.51880E-05-2.85644E-05-2.85537E-05 1.37145E-07 1.45602E-19-2.89684E-18
 -1      1851 9.52257E-05-2.85745E-05-2.85650E-05 1.30421E-07 4.06692E-19-3.44155E-18
 -1      1852 9.51764E-05-2.85672E-05-2.85464E-05 1.83071E-07 3.98755E-20-2.78428E-18
 -1      1853 9.52524E-05-2.85817E-05-2.85738E-05 1.22164E-07 8.02394E-19-3.15864E-18
 -1      1854 9.52854E-05-2.85918E-05-2.85833E-05 1.16463E-07 3.11959E-19-2.85155E-18
 -1      1855 9.52329E-05-2.85804E-05-2.85651E-05 1.61458E-07 6.64878E-19-2.58886E-18
 -1      1856 9.53090E-05-2.85998E-05-2.85902E-05 1.07687E-07-3.18766E-19-2.40164E-18
 -1      1857 9.53367E-05-2.86103E-05-2.85979E-05 1.00032E-07-1.85441E-19-2.31401E-18
 -1      1858 9.52836E-05-2.85962E-05-2.85800E-05 1.42140E-07 2.84658E-19-2.21996E-18
 -1      1859 9.53569E-05-2.86198E-05-2.86022E-05 8.61495E-08-9.37022E-20-2.41579E-18
 -1      1860 9.53766E-05-2.86309E-05-2.86069E-05 7.21511E-08 2.17988E-20-2.30765E-18
 -1      1861 9.53287E-05-2.86168E-05-2.85904E-05 1.16586E-07-2.77639E-19-1.74156E-18
 -1      1862 9.53914E-05-2.86425E-05-2.86074E-05 4.65291E-08-4.31726E-19-2.27407E-18
 -1      1863 9.53970E-05-2.86535E-05-2.86072E-05 1.99260E-08-7.45031E-19-2.66418E-18
 -1      1864 9.53663E-05-2.86447E-05-2.85944E-05 7.23535E-08-2.13249E-19-2.02373E-18
 -1      1865 9.54025E-05-2.86674E-05-2.86018E-05-2.66470E-08-7.63233E-19-2.80779E-18
 -1      1866 9.53835E-05-2.86767E-05-2.85933E-05-7.43622E-08-4.85209E-19-2.93055E-18
 -1      1867 9.53911E-05-2.86820E-05-2.85887E-05-8.11445E-09-5.14211E-19-2.90747E-18
 -1      1868 9.53731E-05-2.86923E-05-2.85789E-05-1.53977E-07-1.13279E-19-2.80792E-18
 -1      1869 9.53135E-05-2.86961E-05-2.85575E-05-2.33595E-07 1.58700E-19-3.02179E-18
 -1      1870 9.53930E-05-2.87299E-05-2.85683E-05-1.48415E-07-2.50613E-19-2.53065E-18
 -1      1871 9.52766E-05-2.87115E-05-2.85299E-05-3.60906E-07-2.49799E-19-2.79595E-18
 -1      1872 9.51535E-05-2.87036E-05-2.84889E-05-4.84815E-07-3.25065E-19-2.88882E-18
 -1      1873 9.53552E-05-2.87870E-05-2.85268E-05-3.78192E-07 1.60638E-21-2.39180E-18
 -1      1874 9.50749E-05-2.87143E-05-2.84430E-05-6.75537E-07-3.85269E-19-3.18661E-18
 -1      1875 9.48585E-05-2.86845E-05-2.83742E-05-8.55775E-07 1.45192E-19-3.04047E-18
 -1      1876 9.52522E-05-2.88472E-05-2.84556E-05-7.31189E-07-6.01405E-19-2.57894E-18
 -1      1877 9.47175E-05-2.86823E-05-2.83045E-05-1.12330E-06-2.34713E-19-3.09553E-18
 -1      1878 9.43723E-05-2.86161E-05-2.81986E-05-1.36780E-06-3.35013E-19-3.20706E-18
 -1      1879 9.50475E-05-2.88959E-05-2.83454E-05-1.23993E-06-3.71995E-19-3.09614E-18
 -1      1880 9.41427E-05-2.85875E-05-2.80997E-05-1.71729E-06-5.13666E-19-2.90774E-18
 -1      1881 9.36318E-05-2.84658E-05-2.79482E-05-2.02408E-06-6.45307E-19-3.00378E-18
 -1      1882 9.46926E-05-2.89062E-05-2.81870E-05-1.92556E-06-2.91412E-19-3.25972E-18
 -1      1883 9.32841E-05-2.83919E-05-2.78165E-05-2.44409E-06-7.93971E-19-2.57101E-18
 -1      1884 9.25766E-05-2.81931E-05-2.76132E-05-2.79400E-06-6.33157E-19-2.53515E-18
 -1      1885 9.41288E-05-2.88359E-05-2.79734E-05-2.78214E-06-4.38842E-19-2.76951E-18
 -1      1886 9.20831E-05-2.80510E-05-2.74484E-05-3.24708E-06-4.98729E-19-2.68843E-18
 -1      1887 9.11668E-05-2.77560E-05-2.71934E-05-3.59713E-06-2.93667E-19-2.46100E-18
 -1      1888 9.32941E-05-2.86290E-05-2.77027E-05-3.75679E-06-4.82037E-19-1.90421E-18
 -1      1889 9.05118E-05-2.75247E-05-2.70002E-05-4.01317E-06 1.53588E-19-1.79748E-18
 -1      1890 8.94068E-05-2.71256E-05-2.67021E-05-4.29478E-06 1.05761E-18-1.16785E-18
 -1      1891 9.21396E-05-2.82247E-05-2.73807E-05-4.73125E-06 2.26869E-19-9.07878E-19
 -1      1892 8.86014E-05-2.67965E-05-2.64917E-05-4.57330E-06 8.30459E-19-1.25487E-18
 -1      1893 8.73741E-05-2.63079E-05-2.61705E-05-4.70032E-06 4.18068E-19-1.29140E-18
 -1      1894 9.06554E-05-2.75792E-05-2.70233E-05-5.51597E-06 7.18983E-19 3.01201E-20
 -1      1895 8.64718E-05-2.58979E-05-2.59600E-05-4.72835E-06 3.17273E-20-1.23904E-18
 -1      1896 8.52391E-05-2.53663E-05-2.56462E-05-4.61851E-06 1.03619E-19-1.10477E-18
 -1      1897 8.89040E-05-2.66970E-05-2.66562E-05-5.87105E-06 2.67166E-19 2.28964E-19
 -1      1898 8.43440E-05-2.49276E-05-2.54571E-05-4.30589E-06-1.28823E-19-1.47163E-18
 -1      1899 8.32627E-05-2.44314E-05-2.51881E-05-3.91264E-06-1.62956E-19-2.27329E-18
 -1      1900 8.70469E-05-2.56624E-05-2.63126E-05-5.56484E-06-3.03142E-19 5.39593E-19
 -1      1901 8.25176E-05-2.40472E-05-2.50426E-05-3.23548E-06 8.21271E-19-2.20402E-18
 -1      1902 8.17537E-05-2.36811E-05-2.48559E-05-2.57783E-06 1.07818E-18-1.90513E-18
 -1      1903 8.53426E-05-2.46465E-05-2.60285E-05-4.46364E-06 2.73583E-19-4.58418E-19
 -1      1904 8.13045E-05-2.34424E-05-2.47727E-05-1.60859E-06 1.14403E-18-1.80689E-18
 -1      1905 8.09905E-05-2.32877E-05-2.46967E-05-7.81057E-07 8.60870E-19-6.30567E-19
 -1      1906 8.40970E-05-2.38718E-05-2.58360E-05-2.61780E-06 1.18537E-18-6.33221E-19
 -1      1907 8.09354E-05-2.32578E-05-2.46871E-05 3.17420E-07 7.40710E-19 5.83264E-19
 -1      1908 8.11296E-05-2.33511E-05-2.47343E-05 1.16688E-06 7.60384E-19 1.51871E-18
 -1      1909 8.35700E-05-2.35367E-05-2.57581E-05-2.92427E-07 1.70864E-18 6.93678E-19
 -1      1910 8.14794E-05-2.35367E-05-2.47998E-05 2.19005E-06-8.25592E-20 1.64954E-18
 -1      1911 8.21479E-05-2.38546E-05-2.49634E-05 2.90819E-06 1.73893E-19 1.90586E-18
 -1      1912 8.38780E-05-2.37305E-05-2.58043E-05 2.09383E-06 4.64184E-19 2.17607E-18
 -1      1913 8.28218E-05-2.42022E-05-2.50955E-05 3.68007E-06 4.89746E-19 1.70122E-18
 -1      1914 8.38508E-05-2.46721E-05-2.53515E-05 4.15933E-06 1.82030E-18 2.27930E-18
 -1      1915 8.49461E-05-2.43930E-05-2.59695E-05 4.10693E-06 4.70869E-19 3.23584E-18
 -1      1916 8.47101E-05-2.50938E-05-2.55336E-05 4.58786E-06 2.21839E-18 1.17941E-18
 -1      1917 8.59430E-05-2.56234E-05-2.58474E-05 4.79412E-06 1.51332E-18 1.18884E-18
 -1      1918 8.65399E-05-2.53428E-05-2.62346E-05 5.44346E-06 1.14350E-18 2.62322E-18
 -1      1919 8.68429E-05-2.60341E-05-2.60577E-05 4.88460E-06 8.77634E-19 1.47692E-18
 -1      1920 8.81238E-05-2.65445E-05-2.63920E-05 4.85056E-06 1.56727E-18 2.11738E-18
 -1      1921 8.83589E-05-2.63589E-05-2.65694E-05 6.00942E-06 1.74881E-18 2.21900E-18
 -1      1922 8.89550E-05-2.68905E-05-2.66075E-05 4.67732E-06 8.87279E-19 2.11538E-18
 -1      1923 9.01601E-05-2.73355E-05-2.69290E-05 4.47053E-06 3.24208E-19 2.68348E-18
 -1      1924 9.01370E-05-2.72664E-05-2.69365E-05 5.90036E-06 7.97073E-19 2.40156E-18
 -1      1925 9.08663E-05-2.76041E-05-2.71286E-05 4.12854E-06-6.42350E-19 2.06790E-18
 -1      1926 9.19154E-05-2.79734E-05-2.74108E-05 3.81193E-06-1.75812E-19 1.97216E-18
 -1      1927 9.17037E-05-2.79862E-05-2.72973E-05 5.31204E-06-2.28270E-19 2.22350E-18
 -1      1928 9.24911E-05-2.81869E-05-2.75776E-05 3.37223E-06 1.01136E-19 1.93768E-18
 -1      1929 9.33424E-05-2.84950E-05-2.78014E-05 2.97490E-06 2.90506E-19 2.25169E-18
 -1      1930 9.29984E-05-2.85382E-05-2.76162E-05 4.43566E-06-2.66696E-19 2.84310E-18
 -1      1931 9.38143E-05-2.86862E-05-2.79257E-05 2.46320E-06 1.04927E-18 1.99243E-18
 -1      1932 9.44613E-05-2.89517E-05-2.80819E-05 1.99485E-06 1.20972E-18 1.57406E-18
 -1      1933 9.40443E-05-2.90015E-05-2.78674E-05 3.38374E-06 4.67493E-19 1.95617E-18
 -1      1934 9.36448E-05-2.73144E-05-2.83892E-05 1.65639E-06 1.47347E-18 1.88421E-18
 -1      1935 9.44310E-05-2.72276E-05-2.87083E-05 2.53349E-06 1.74777E-18 2.38206E-18
 -1      1936 9.52712E-05-2.69977E-05-2.92314E-05 4.06669E-06 2.12894E-18 2.61247E-18
 -1      1937 9.70769E-05-2.69101E-05-2.99676E-05 5.95364E-06 2.40949E-18 3.29145E-18
 -1      1938 9.55839E-05-2.64645E-05-2.96333E-05 4.64668E-06 2.33013E-18 9.97968E-19
 -1      1939 9.27846E-05-2.74322E-05-2.79831E-05 3.48668E-07 1.14422E-18 1.37133E-18
 -1      1940 9.30976E-05-2.73660E-05-2.81117E-05 7.98998E-07 1.23021E-18 1.75502E-18
 -1      1941 9.43628E-05-2.71895E-05-2.88026E-05 1.94149E-06 1.63557E-18 5.04600E-19
 -1      1942 9.24565E-05-2.75336E-05-2.78092E-05-3.54115E-07 9.74889E-19 1.03442E-18
 -1      1943 9.24969E-05-2.74577E-05-2.78422E-05-1.21399E-07 1.03680E-18 1.26102E-18
 -1      1944 9.36394E-05-2.75203E-05-2.83529E-05 4.18248E-07 1.38296E-18 2.53903E-19
 -1      1945 9.24570E-05-2.76501E-05-2.77655E-05-7.12139E-07 7.36410E-19 4.93480E-19
 -1      1946 9.23465E-05-2.75649E-05-2.77480E-05-6.03105E-07 9.10230E-19 8.78075E-19
 -1      1947 9.33008E-05-2.77076E-05-2.81239E-05-4.13928E-07 1.12144E-18 2.53310E-19
 -1      1948 9.26446E-05-2.77753E-05-2.77959E-05-8.65164E-07 6.64059E-19 3.58369E-19
 -1      1949 9.24583E-05-2.76881E-05-2.77518E-05-8.28556E-07 7.14930E-19 4.98156E-19
 -1      1950 9.32277E-05-2.78526E-05-2.80264E-05-8.41612E-07 8.88747E-19 5.66284E-20
 -1      1951 9.29276E-05-2.79003E-05-2.78658E-05-8.95723E-07 4.46677E-19 2.38750E-19
 -1      1952 9.27110E-05-2.78168E-05-2.78097E-05-9.01664E-07 5.35815E-19 2.42152E-19
 -1      1953 9.33169E-05-2.79775E-05-2.80078E-05-1.02676E-06 7.73662E-19-1.81976E-19
 -1      1954 9.32474E-05-2.80181E-05-2.79539E-05-8.54758E-07 3.04507E-19 4.12767E-20
 -1      1955 9.30278E-05-2.79420E-05-2.78944E-05-8.84697E-07 4.36862E-19 1.29122E-19
 -1      1956 9.34964E-05-2.80878E-05-2.80351E-05-1.06539E-06 6.50449E-19-5.97448E-19
 -1      1957 9.35678E-05-2.81243E-05-2.80466E-05-7.74892E-07 8.51570E-20-1.51146E-19
 -1      1958 9.33609E-05-2.80574E-05-2.79892E-05-8.16963E-07 2.27648E-19 7.00899E-20
 -1      1959 9.37175E-05-2.81843E-05-2.80870E-05-1.01795E-06 2.93228E-19-6.57837E-19
 -1      1960 9.38671E-05-2.82165E-05-2.81359E-05-6.77225E-07-9.79748E-20-3.87080E-19
 -1      1961 9.36816E-05-2.81597E-05-2.80835E-05-7.23892E-07 9.36823E-21-2.05451E-19
 -1      1962 9.39488E-05-2.82670E-05-2.81496E-05-9.23545E-07 2.75106E-19-6.05455E-19
 -1      1963 9.41225E-05-2.82912E-05-2.82137E-05-5.80577E-07 3.21518E-19-5.16190E-19
 -1      1964 9.39681E-05-2.82461E-05-2.81696E-05-6.24736E-07-3.46549E-20-3.90059E-19
 -1      1965 9.41659E-05-2.83349E-05-2.82128E-05-8.10488E-07 9.35798E-20-9.13179E-19
 -1      1966 9.43570E-05-2.83568E-05-2.82862E-05-4.82778E-07 6.23285E-19-3.85658E-19
 -1      1967 9.42193E-05-2.83176E-05-2.82464E-05-5.25889E-07 4.56232E-19-4.30939E-19
 -1      1968 9.43641E-05-2.83906E-05-2.82737E-05-6.92827E-07 3.04434E-19-8.62035E-19
 -1      1969 9.45550E-05-2.84099E-05-2.83484E-05-3.94086E-07 2.80943E-19-1.84885E-19
 -1      1970 9.44408E-05-2.83785E-05-2.83150E-05-4.32325E-07 5.94803E-19-2.11666E-19
 -1      1971 9.45435E-05-2.84367E-05-2.83307E-05-5.76739E-07 3.77035E-19-6.49882E-19
 -1      1972 9.47197E-05-2.84523E-05-2.84008E-05-3.17320E-07 3.74072E-19-4.15213E-19
 -1      1973 9.46263E-05-2.84275E-05-2.83732E-05-3.49827E-07 5.73492E-19-7.10001E-20
 -1      1974 9.46975E-05-2.84731E-05-2.83811E-05-4.71788E-07 4.12694E-19-1.43949E-19
 -1      1975 9.48554E-05-2.84857E-05-2.84445E-05-2.53868E-07 1.07569E-19-5.42241E-19
 -1      1976 9.47797E-05-2.84664E-05-2.84219E-05-2.80269E-07 2.71798E-19-4.47537E-19
 -1      1977 9.48274E-05-2.85012E-05-2.84248E-05-3.81466E-07 4.54267E-19-4.00418E-19
 -1      1978 9.49677E-05-2.85121E-05-2.84812E-05-2.04405E-07 6.67286E-20-4.04652E-19
 -1      1979 9.49060E-05-2.84971E-05-2.84625E-05-2.24537E-07 1.47167E-19-2.13368E-19
 -1      1980 9.49364E-05-2.85227E-05-2.84624E-05-3.07630E-07 1.92476E-19-1.83987E-19
 -1      1981 9.50627E-05-2.85330E-05-2.85127E-05-1.69512E-07-3.16361E-20-3.84473E-19
 -1      1982 9.50110E-05-2.85212E-05-2.84968E-05-1.83161E-07 1.09483E-19-5.70525E-19
 -1      1983 9.50283E-05-2.85389E-05-2.84950E-05-2.51369E-07 3.64182E-19-6.34080E-19
 -1      1984 9.51473E-05-2.85501E-05-2.85412E-05-1.50299E-07 6.82135E-20-6.08797E-19
 -1      1985 9.51012E-05-2.85404E-05-2.85269E-05-1.56922E-07 1.86512E-19-5.11586E-19
 -1      1986 9.51081E-05-2.85509E-05-2.85243E-05-2.13810E-07 1.20970E-19-3.50298E-19
 -1      1987 9.52293E-05-2.85648E-05-2.85695E-05-1.49129E-07 1.93765E-19-9.00925E-19
 -1      1988 9.51840E-05-2.85563E-05-2.85551E-05-1.47516E-07 1.88569E-19-8.18122E-19
 -1      1989 9.51811E-05-2.85593E-05-2.85522E-05-1.96928E-07 1.82569E-19-5.70632E-19
 -1      1990 9.53186E-05-2.85787E-05-2.86009E-05-1.70619E-07-1.90428E-19-1.25233E-18
 -1      1991 9.52678E-05-2.85703E-05-2.85847E-05-1.58401E-07-2.30024E-19-1.13034E-18
 -1      1992 9.52534E-05-2.85645E-05-2.85813E-05-2.04545E-07 9.37305E-20-9.48464E-19
 -1      1993 9.54277E-05-2.85930E-05-2.86402E-05-2.23119E-07 4.98536E-19-1.40947E-18
 -1      1994 9.53629E-05-2.85835E-05-2.86193E-05-1.96015E-07 2.16546E-19-1.35030E-18
 -1      1995 9.53324E-05-2.85658E-05-2.86149E-05-2.43684E-07 3.10646E-19-1.86119E-18
 -1      1996 9.55735E-05-2.86088E-05-2.86939E-05-3.21025E-07 2.63559E-19-1.03880E-18
 -1      1997 9.54830E-05-2.85969E-05-2.86645E-05-2.71640E-07 3.20362E-19-1.28353E-18
 -1      1998 9.54267E-05-2.85616E-05-2.86576E-05-3.26573E-07 1.35121E-19-1.93342E-18
 -1      1999 9.57800E-05-2.86269E-05-2.87715E-05-4.88615E-07 1.32502E-19-4.00035E-19
 -1      2000 9.56464E-05-2.86109E-05-2.87280E-05-4.04236E-07 5.56305E-19-4.19344E-19
 -1      2001 9.55471E-05-2.85478E-05-2.87155E-05-4.73751E-07 1.19447E-19-8.96453E-19
 -1      2002 9.60658E-05-2.86469E-05-2.88804E-05-7.47490E-07-3.69899E-20-9.15802E-19
 -1      2003 9.58729E-05-2.86249E-05-2.88182E-05-6.17885E-07 3.18051E-19-7.35178E-19
 -1      2004 9.57020E-05-2.85174E-05-2.87952E-05-7.10609E-07 5.27043E-19-5.67075E-19
 -1      2005 9.65072E-05-2.86681E-05-2.90524E-05-1.18543E-06-1.03880E-18-3.17887E-19
 -1      2006 9.61973E-05-2.86365E-05-2.89517E-05-9.63488E-07-6.68971E-19-7.99396E-19
 -1      2007 9.59096E-05-2.84590E-05-2.89097E-05-1.09028E-06-2.93552E-19-8.25857E-19
 -1      2008 9.71648E-05-2.86867E-05-2.93141E-05-1.89101E-06-6.36065E-19 2.30359E-19
 -1      2009 9.66836E-05-2.86405E-05-2.91574E-05-1.53034E-06-8.44646E-19 2.83152E-20
 -1      2010 9.61928E-05-2.83454E-05-2.90796E-05-1.70752E-06-1.12471E-18-1.27796E-18
 -1      2011 9.81384E-05-2.86929E-05-2.97109E-05-3.01739E-06-8.00876E-20 5.71378E-19
 -1      2012 9.73929E-05-2.86255E-05-2.94676E-05-2.43651E-06-5.36675E-20 3.46541E-19
 -1      2013 9.65613E-05-2.81376E-05-2.93254E-05-2.68161E-06-3.24417E-19-1.05917E-18
 -1      2014 9.95601E-05-2.86712E-05-3.03051E-05-4.79375E-06-7.44350E-19 4.72629E-19
 -1      2015 9.84147E-05-2.85703E-05-2.99308E-05-3.86999E-06-1.44694E-19 4.28810E-19
 -1      2016 9.70163E-05-2.77703E-05-2.96742E-05-4.20085E-06-1.74284E-19 8.39209E-19
 -1      2017 1.01592E-04-2.86065E-05-3.11741E-05-7.53753E-06-7.50901E-19-3.01138E-19
 -1      2018 9.98570E-05-2.84447E-05-3.06094E-05-6.10241E-06-7.00529E-19-1.64357E-19
 -1      2019 9.75271E-05-2.71482E-05-3.01522E-05-6.53069E-06-1.06313E-19 1.86546E-19
 -1      2020 1.04410E-04-2.85262E-05-3.23878E-05-1.16196E-05 1.22409E-19-5.25637E-19
 -1      2021 1.01841E-04-2.82282E-05-3.15685E-05-9.48762E-06-3.77538E-19-1.10203E-18
 -1      2022 9.80051E-05-2.61635E-05-3.07651E-05-1.00100E-05-1.48793E-19-8.63443E-19
 -1      2023 1.08204E-04-2.86553E-05-3.39370E-05-1.72777E-05-1.66760E-21 2.06305E-19
 -1      2024 1.04510E-04-2.80007E-05-3.28358E-05-1.43830E-05 2.94767E-19-6.34780E-19
 -1      2025 9.82967E-05-2.47987E-05-3.14509E-05-1.49852E-05 2.53461E-19-1.20661E-18
 -1      2026 1.13304E-04-2.98572E-05-3.55739E-05-2.40454E-05-1.27631E-19 1.47648E-19
 -1      2027 1.08148E-04-2.82389E-05-3.42985E-05-2.08532E-05 1.48429E-19 1.14786E-19
 -1      2028 9.83056E-05-2.34716E-05-3.19804E-05-2.15933E-05 1.58726E-19-1.34637E-18
 -1      2029 1.20582E-04-3.45836E-05-3.66000E-05-2.95777E-05-2.72559E-19-6.15191E-19
 -1      2030 1.13733E-04-3.06971E-05-3.55421E-05-2.78968E-05-2.55275E-19-7.47741E-19
 -1      2031 9.84930E-05-2.38546E-05-3.18177E-05-2.92947E-05 1.90741E-19-2.56663E-18
 -1      2032 1.29649E-04-4.38176E-05-3.64953E-05-2.93257E-05-7.29189E-19-5.04064E-19
 -1      2033 1.22719E-04-3.77833E-05-3.60415E-05-3.13812E-05-6.01023E-19-8.30311E-19
 -1      2034 1.01241E-04-2.96474E-05-3.04373E-05-3.52154E-05-4.56551E-19-3.76189E-18
 -1      2035 5.31406E-05-4.59284E-05-4.30113E-06 2.94410E-05-3.47284E-20-1.20586E-18
 -1      2036 3.58195E-05-4.51871E-05 2.10775E-06 2.12590E-05-5.66665E-19-5.39772E-19
 -1      2037 2.02715E-04-4.14907E-05-6.84580E-05-1.35817E-05 2.60463E-18-4.93757E-18
 -1      2038 2.05334E-04-4.11111E-05-6.94413E-05 5.92188E-06 2.96462E-18-4.99453E-18
 -1      2039 1.74960E-04-7.21130E-05-4.41947E-05 6.07891E-06-1.85924E-19-1.84526E-18
 -1      2040 1.65268E-04-7.06865E-05-4.01903E-05-6.80744E-06 7.66565E-20-8.94043E-19
 -1      2041 2.07160E-04-4.56356E-05-6.79838E-05 1.20382E-05 3.51688E-18-6.06984E-18
 -1      2042 2.10427E-04-5.44492E-05-6.52532E-05 2.49293E-05 1.81519E-18-4.70612E-18
 -1      2043 1.66737E-04-6.27070E-05-4.36813E-05 9.25073E-06-3.45642E-18-7.56268E-19
 -1      2044 1.71644E-04-6.66419E-05-4.48301E-05-3.26225E-06-2.71315E-18-2.52072E-18
 -1      2045 1.24370E-04-3.56031E-05-3.79087E-05 2.75353E-05 2.03934E-18-1.89645E-18
 -1      2046 1.33410E-04-4.05469E-05-3.95833E-05 2.78204E-05 1.26091E-18-1.51931E-18
 -1      2047 1.14168E-04-3.12193E-05-3.55869E-05 2.20537E-05 1.93067E-18-1.46793E-18
 -1      2048 1.21624E-04-3.38877E-05-3.74629E-05 2.45821E-05 2.31669E-18-9.29619E-19
 -1      2049 1.07111E-04-2.88453E-05-3.34561E-05 3.18720E-05 1.65858E-18-1.84812E-18
 -1      2050 1.06961E-04-2.94314E-05-3.32590E-05 1.59899E-05 5.79212E-19-1.68348E-18
 -1      2051 1.12586E-04-3.09501E-05-3.48573E-05 1.85678E-05 1.79088E-18-1.41052E-18
 -1      2052 1.03100E-04-2.62419E-05-3.28964E-05 2.48924E-05 2.08992E-18-1.26224E-18
 -1      2053 1.01686E-04-2.84059E-05-3.14064E-05 1.09140E-05-1.43137E-18-1.89957E-18
 -1      2054 1.05657E-04-2.94272E-05-3.25604E-05 1.29997E-05-3.03807E-19-2.25519E-18
 -1      2055 1.00412E-04-2.60403E-05-3.18507E-05 1.80338E-05-1.22026E-20-1.05573E-18
 -1      2056 9.79357E-05-2.74637E-05-3.01648E-05 6.57740E-06-1.36355E-18-3.91640E-18
 -1      2057 1.00482E-04-2.82270E-05-3.08877E-05 8.43862E-06-1.75781E-18-3.36360E-18
 -1      2058 9.81437E-05-2.60956E-05-3.08592E-05 1.22170E-05-9.38777E-19-2.88288E-18
 -1      2059 9.58766E-05-2.63373E-05-2.97607E-05 4.52764E-06 1.97167E-19-5.23828E-18
 -1      2060 9.70156E-05-2.69026E-05-3.00089E-05 5.55046E-06-8.30820E-19-3.30853E-18
 -1      2061 9.61607E-05-2.55605E-05-3.03348E-05 8.39295E-06-8.90960E-19-3.14679E-18
 -1      2062 9.47056E-05-2.45180E-05-3.01570E-05 5.81506E-06-6.51368E-19-4.91956E-18
 -1      2063 9.04630E-05-1.80906E-05-3.10683E-05 4.23911E-06 1.26982E-19 2.18232E-18
 -1      2064 9.13565E-05-1.95446E-05-3.07898E-05 5.48038E-06-1.10657E-18 9.73856E-19
 -1      2065 9.23638E-05-2.07932E-05-3.07365E-05 6.29050E-06-2.96074E-18-2.47870E-18
 -1      2066 9.36567E-05-2.28309E-05-3.03407E-05 6.32275E-06-1.67208E-18-3.50969E-18
 -1      2067 9.41640E-05-2.31784E-05-3.03570E-05 7.76972E-06-1.29841E-19-5.00882E-18
 -1      2068 9.13696E-05-2.00651E-05-3.04797E-05 7.36104E-06 4.84926E-20 2.72487E-19
 -1      2069 8.99005E-05-1.72870E-05-3.11580E-05 2.17480E-07-2.57154E-18-1.40731E-18
 -1      2070 9.00338E-05-1.75893E-05-3.10980E-05 1.95139E-06-1.01494E-18-4.64538E-19
 -1      2071 8.93389E-05-1.81220E-05-3.04448E-05 3.81114E-06 6.28532E-19-9.03288E-19
 -1      2072 9.07960E-05-1.87957E-05-3.08710E-05-3.56711E-06-3.34789E-18-5.77809E-19
 -1      2073 9.02587E-05-1.79342E-05-3.10694E-05-2.10092E-06-3.46962E-18-4.82273E-19
 -1      2074 8.92220E-05-1.82509E-05-3.03426E-05-1.42691E-06-1.46171E-18-1.49045E-18
 -1      2075 9.25926E-05-2.19857E-05-3.02539E-05-5.99420E-06-3.12373E-18-2.22500E-18
 -1      2076 9.16578E-05-2.02722E-05-3.06599E-05-5.18611E-06-3.16129E-18-1.33095E-18
 -1      2077 9.07474E-05-2.04860E-05-3.00741E-05-5.85394E-06-3.29985E-18-1.19129E-18
 -1      2078 9.45649E-05-2.57854E-05-2.94586E-05-6.56297E-06-1.21320E-18 1.21952E-18
 -1      2079 9.35792E-05-2.37674E-05-2.99568E-05-6.52445E-06-1.90384E-18-1.17857E-18
 -1      2080 9.31106E-05-2.39397E-05-2.96455E-05-8.22598E-06-2.13257E-18-1.25768E-18
 -1      2081 9.61645E-05-2.92204E-05-2.86668E-05-5.57484E-06-6.07690E-19 4.00302E-19
 -1      2082 9.53798E-05-2.73975E-05-2.91375E-05-6.12001E-06-1.10322E-18 1.51264E-18
 -1      2083 9.54015E-05-2.75146E-05-2.91225E-05-8.27207E-06-4.17832E-19 3.60185E-19
 -1      2084 9.71414E-05-3.16860E-05-2.80282E-05-3.69048E-06-8.26717E-19 1.77083E-18
 -1      2085 9.66696E-05-3.03819E-05-2.83832E-05-4.52913E-06-4.98932E-19 1.12317E-18
 -1      2086 9.70477E-05-3.04073E-05-2.85995E-05-6.56659E-06-4.13536E-19 6.66542E-19
 -1      2087 9.74932E-05-3.29786E-05-2.76276E-05-1.57913E-06-1.64865E-18-8.78214E-19
 -1      2088 9.73335E-05-3.23139E-05-2.78255E-05-2.44693E-06-2.08674E-18 5.15181E-19
 -1      2089 9.78739E-05-3.22436E-05-2.81655E-05-3.98847E-06-1.66849E-18-3.46066E-19
 -1      2090 9.73551E-05-3.31993E-05-2.74799E-05 2.41577E-07-1.34558E-18-9.86552E-19
 -1      2091 9.74439E-05-3.31234E-05-2.75242E-05-4.65221E-07-1.64739E-18-1.32803E-18
 -1      2092 9.79799E-05-3.30030E-05-2.78789E-05-1.35122E-06-1.68062E-18-4.78693E-19
 -1      2093 9.68849E-05-3.26112E-05-2.75380E-05 1.55046E-06-1.28574E-18 2.38605E-18
 -1      2094 9.71432E-05-3.29815E-05-2.74637E-05 1.08013E-06-1.48377E-18 1.19529E-18
 -1      2095 9.75842E-05-3.28851E-05-2.77498E-05 8.29098E-07-1.60183E-18 1.51404E-19
 -1      2096 9.62347E-05-3.15317E-05-2.77303E-05 2.19034E-06-2.54847E-18-1.59664E-18
 -1      2097 9.65845E-05-3.21609E-05-2.75873E-05 2.00980E-06-2.34158E-18 1.46075E-19
 -1      2098 9.68855E-05-3.21501E-05-2.77548E-05 2.27475E-06-1.64304E-18-3.50443E-19
 -1      2099 9.55558E-05-3.03062E-05-2.79729E-05 2.11514E-06-1.04451E-18 9.45778E-19
 -1      2100 9.58985E-05-3.09771E-05-2.78129E-05 2.23776E-06-2.15029E-18-5.29627E-20
 -1      2101 9.60113E-05-3.10569E-05-2.78450E-05 2.85805E-06-1.49053E-18-5.46735E-19
 -1      2102 1.02753E-04-5.64699E-05-2.10134E-05 3.28130E-05-1.12655E-18-3.35002E-19
 -1      2103 7.63559E-05-5.48264E-05-1.15986E-05 2.81262E-05-3.48131E-19-1.84812E-18
 -1      2104 9.48363E-05-2.90147E-05-2.82112E-05 1.19844E-06 1.68273E-20 1.38543E-18
 -1      2105 9.67315E-06-3.91315E-05 1.10870E-05-8.97495E-06 6.94964E-19 1.47087E-18
 -1      2106 1.15039E-05-3.72962E-05 9.74362E-06-1.85056E-05 6.85885E-19-6.47980E-19
 -1      2107 8.72696E-05-8.71972E-06-3.37526E-05-1.05336E-05-1.85471E-18-3.98893E-18
 -1      2108 8.79685E-05-9.24952E-06-3.38239E-05-1.21197E-05-2.23673E-18-3.63336E-18
 -1      2109 9.04753E-05-1.30737E-05-3.32384E-05-1.19302E-05-2.46187E-18-3.21191E-18
 -1      2110 8.86676E-05-1.10269E-05-3.32982E-05-9.42141E-06-1.86905E-18-3.90490E-18
 -1      2111 1.39710E-04-4.60255E-05-3.95842E-05 2.69817E-05-9.91399E-19-1.24765E-18
 -1      2112 1.49035E-04-5.37993E-05-4.05316E-05 2.09534E-05-3.19649E-18-2.06967E-18
 -1      2113 1.15660E-04-3.84270E-05-3.29372E-05 3.51830E-05 3.76612E-19-2.20250E-18
 -1      2114 1.62373E-04-6.78175E-05-4.09107E-05 1.95315E-05-3.25769E-18 1.25361E-19
 -1      2115 1.29105E-04-6.33651E-05-3.03766E-05 2.13683E-05-2.65460E-18-6.81438E-19
 -1      2116 1.15838E-04-6.15819E-05-2.52098E-05-2.37034E-05 1.81689E-18-4.58668E-18
 -1      2117 1.48128E-04-6.59322E-05-3.52752E-05-2.43462E-05 2.20059E-18-4.35544E-18
 -1      2118 6.51030E-05-5.14370E-05-7.65323E-06-2.80687E-05 2.92650E-19-3.83404E-18
 -1      2119 8.76482E-05-5.41153E-05-1.54865E-05-3.30706E-05 1.26716E-18-4.72771E-18
 -1      2120 2.50190E-05-4.08930E-05 5.10886E-06-1.56849E-05-7.67412E-19-3.32206E-18
 -1      2121 3.94215E-05-4.17851E-05-2.02718E-07-2.49402E-05-2.60463E-19-3.52662E-18
 -1      2122 9.77913E-06-3.67209E-05 1.01146E-05 5.94973E-06-3.04508E-19-1.04227E-18
 -1      2123 1.28586E-05-3.47474E-05 8.32750E-06-4.53368E-06-3.93870E-19-2.09175E-18
 -1      2124 1.46758E-05-3.43416E-05 7.44339E-06 2.51569E-05-1.11808E-18-4.03188E-19
 -1      2125 1.10858E-05-3.82362E-05 1.01938E-05 1.59855E-05-4.61209E-19-8.42798E-19
 -1      2126 1.04536E-05-2.22244E-05 4.37530E-06 1.01970E-05 8.82397E-19-1.86517E-18
 -1      2127 4.00859E-05-3.60993E-05-2.28707E-06 4.39033E-05-7.15319E-19 2.68509E-19
 -1      2128 2.78742E-05-3.99567E-05 3.75248E-06 3.46977E-05-1.17865E-18 2.84603E-19
 -1      2129 8.03180E-05-3.98833E-05-1.74067E-05 5.31219E-05-1.18923E-18-8.11352E-19
 -1      2130 6.15167E-05-4.25504E-05-9.15277E-06 4.67550E-05-1.31798E-18 2.68457E-19
 -1      2131 1.21782E-04-3.87916E-05-3.50896E-05 5.15545E-05-1.16594E-18-7.47083E-19
 -1      2132 1.00956E-04-4.23129E-05-2.58448E-05 4.75458E-05-1.27902E-18-1.11978E-18
 -1      2133 1.59272E-04-3.80258E-05-5.11497E-05 4.05636E-05-2.74608E-18 8.21622E-19
 -1      2134 1.37929E-04-3.87931E-05-4.27884E-05 4.16395E-05-2.27852E-18-3.45589E-19
 -1      2135 1.84484E-04-3.26341E-05-6.41503E-05 2.39492E-05-1.20617E-18-7.17013E-19
 -1      2136 1.68362E-04-3.29075E-05-5.77987E-05 3.07460E-05-2.43117E-18 5.92923E-20
 -1      2137 1.97685E-04-2.62692E-05-7.24254E-05 8.77046E-06-7.36919E-19 7.23790E-19
 -1      2138 1.88795E-04-2.62332E-05-6.90086E-05 1.71135E-05-1.07234E-18-2.48181E-19
 -1      2139 1.94713E-04-2.19868E-05-7.33030E-05-4.47670E-06 2.63004E-19-1.60089E-19
 -1      2140 1.97129E-04-2.29889E-05-7.36270E-05 4.19728E-06 1.11808E-19-4.47869E-20
 -1      2141 1.86226E-04-2.71772E-05-6.75893E-05-1.75862E-05 1.30358E-18-1.07573E-19
 -1      2142 1.94072E-04-2.53666E-05-7.13863E-05-8.71742E-06 1.17483E-18-8.06799E-20
 -1      2143 1.64457E-04-3.49818E-05-5.52895E-05-2.63281E-05-2.56492E-20-1.25022E-18
 -1      2144 1.83239E-04-3.29103E-05-6.30609E-05-2.47858E-05 6.94355E-19-2.75286E-19
 -1      2145 1.70612E-04-2.60195E-05-6.12327E-05-4.49005E-06 3.83706E-19-1.53525E-18
 -1      2146 1.27638E-04-4.11624E-05-3.72759E-05-4.41959E-05-3.89635E-19-6.02664E-19
 -1      2147 1.50738E-04-4.27007E-05-4.62629E-05-3.86949E-05-1.81053E-19-1.79656E-18
 -1      2148 8.70080E-05-4.28809E-05-1.99328E-05-4.75100E-05 1.76903E-18 1.19305E-18
 -1      2149 1.08642E-04-3.98950E-05-2.92862E-05-5.29540E-05 6.19605E-19 1.29596E-19
 -1      2150 4.87378E-05-4.30726E-05-3.85868E-06-4.19276E-05 2.89728E-18 1.92811E-18
 -1      2151 6.49660E-05-3.83624E-05-1.17766E-05-4.98534E-05 2.59531E-18 2.57180E-18
 -1      2152 2.21509E-05-3.99793E-05 6.33808E-06-2.99574E-05 1.31968E-18-2.52035E-18
 -1      2153 3.21675E-05-3.75636E-05 1.50646E-06-3.84992E-05 1.61572E-18-1.37389E-18
 -1      2154 9.99869E-05-2.25446E-05-3.29144E-05 1.46489E-05 2.77769E-18 3.79577E-18
 -1      2155 2.00724E-05-3.88354E-05 6.72994E-06 1.30884E-05-1.40565E-18-1.39803E-18
 -1      2156 1.29811E-05-3.87549E-05 9.50201E-06 3.36088E-06-9.07172E-19-5.84876E-19
 -1      2157 1.85127E-04-6.64802E-05-5.06567E-05-2.57352E-05-1.27428E-18-2.55465E-18
 -1      2158 1.99249E-04-6.92681E-05-5.51107E-05-6.85781E-06-5.08537E-19-2.80876E-18
 -1      2159 1.75344E-04-7.05876E-05-4.60528E-05 3.05424E-06-2.05321E-18-9.48677E-19
 -1      2160 1.84861E-04-7.07685E-05-4.86501E-05-1.55026E-05-1.99614E-18-2.85990E-18
 -1      2161 9.98389E-05-2.25448E-05-3.28449E-05-1.44746E-05-2.78044E-18 1.53991E-18
 -1      2162 9.48298E-05-2.93038E-05-2.80900E-05 1.98126E-06 5.13911E-20 4.18642E-19
 -1      2163 2.11168E-04-4.92208E-05-6.82409E-05-1.99234E-05 2.07184E-18-3.96454E-18
 -1      2164 1.21704E-05-2.57454E-05 5.04819E-06 2.36570E-07-1.07367E-18-3.76930E-19
 -1      2165 9.72101E-05-2.43189E-05-3.13130E-05-1.00071E-05-2.70664E-18 9.01892E-19
 -1      2166 1.93527E-04-5.35462E-05-5.98039E-05 3.17148E-05 1.59157E-18-3.46352E-18
 -1      2167 1.99287E-04-6.66082E-05-5.68861E-05 2.26831E-05 1.71418E-18-3.48088E-18
 -1      2168 9.63660E-05-2.31012E-05-3.14624E-05-1.03893E-05-2.88317E-18-4.80294E-19
 -1      2169 9.64121E-05-2.31349E-05-3.14829E-05 1.04370E-05 2.98788E-18 1.30644E-18
 -1      2170 9.73216E-05-2.43636E-05-3.13507E-05 1.00842E-05 2.75601E-18 3.12470E-18
 -1      2171 3.46290E-05-3.39778E-05-1.00205E-06 2.55286E-05-1.20956E-18-9.19031E-19
 -1      2172 7.86766E-05-5.19220E-05-1.23168E-05 3.49392E-05 1.37219E-19-1.76892E-18
 -1      2173 1.53920E-04-6.19871E-05-3.90164E-05-1.50515E-05-4.02341E-20-7.28237E-19
 -1      2174 1.44923E-04-5.37125E-05-3.82772E-05-2.43935E-05-3.39554E-19 7.26347E-20
 -1      2175 1.39274E-04-5.72871E-05-3.50404E-05 2.45388E-05-2.51442E-18-2.06718E-18
 -1      2176 1.41716E-04-6.58917E-05-3.26844E-05-2.27786E-05 2.35052E-19-2.81427E-18
 -1      2177 1.70236E-04-7.15318E-05-4.24223E-05-1.01943E-06-2.59510E-18-1.03296E-18
 -1      2178 1.33575E-04-6.81653E-05-2.84549E-05 2.42661E-05-2.66858E-18-1.03825E-18
 -1      2179 2.38836E-05-2.88100E-05 1.57656E-06 3.54415E-05-8.32210E-20-1.42302E-19
 -1      2180 1.16219E-04-4.41826E-05-3.06728E-05-3.38152E-05-2.67345E-19-3.10851E-18
 -1      2181 9.51145E-05-2.97153E-05-2.80235E-05 2.12041E-06-5.76710E-20 1.11337E-18
 -1      2182 1.87983E-05-2.82824E-05 3.44999E-06-2.93614E-05 1.81731E-18-2.42844E-18
 -1      2183 2.28989E-05-2.79395E-05 1.50248E-06-1.61005E-05 3.98105E-20-3.22762E-18
 -1      2184 4.85154E-05-3.88695E-05-4.72315E-06-4.82305E-05 2.10615E-18-1.24514E-19
 -1      2185 8.97259E-05-4.90178E-05-1.75675E-05-5.22649E-05 2.25777E-18 7.52059E-19
 -1      2186 1.59624E-04-4.28804E-05-4.95255E-05-2.48176E-05-5.65659E-19-9.63923E-19
 -1      2187 1.60651E-04-4.21957E-05-5.13810E-05-7.64568E-06 1.89312E-19-1.15578E-18
 -1      2188 1.52872E-04-5.05374E-05-4.33849E-05-2.09398E-05-4.30610E-19-9.57359E-19
 -1      2189 1.73052E-04-1.33931E-05-6.74539E-05-2.95391E-07 8.32210E-19-1.19156E-18
 -1      2190 1.73938E-04-1.26599E-05-6.80030E-05 6.68312E-07-6.47980E-19 3.13190E-19
 -1      2191 1.72898E-04-2.50202E-05-6.23537E-05 5.48900E-06-1.43911E-18-4.40457E-19
 -1      2192 1.63131E-04-4.09790E-05-5.15436E-05 1.79682E-05-2.18873E-18 1.24514E-19
 -1      2193 1.40759E-04-5.04294E-05-3.82614E-05 3.65519E-05-1.73282E-18-4.98479E-19
 -1      2194 1.03703E-04-5.04191E-05-2.28189E-05 5.00820E-05-9.51642E-19-9.07172E-19
 -1      2195 6.43987E-05-4.51689E-05-8.91084E-06-3.37417E-05-7.46236E-19-4.19324E-18
 -1      2196 1.22657E-04-6.58886E-05-2.50725E-05-2.77636E-05-1.22820E-20-4.18223E-18
 -1      2197 2.10225E-04-6.27718E-05-6.10581E-05-2.26703E-07 2.65153E-18-6.05798E-18
 -1      2198 2.34716E-04-6.24608E-05-6.94847E-05 6.00825E-06 2.87356E-18-6.95160E-18
 -1      2199 1.61498E-04-6.36293E-05-4.29289E-05-1.62940E-05 2.93243E-18-5.59381E-18
 -1      2200 1.95509E-04-6.81902E-05-5.31343E-05-1.13459E-05 2.62326E-18-6.10457E-18
 -1      2201 2.03761E-04-6.88884E-05-5.61387E-05 8.97882E-06 2.60023E-18-5.89535E-18
 -1      2202 1.68583E-04-7.38902E-05-4.16936E-05-7.13703E-06 1.35186E-18-3.44319E-18
 -1      2203 5.98420E-05-4.06640E-05-8.46564E-06 5.16570E-05-9.58841E-19-3.01967E-19
 -1      2204 1.30519E-04-5.28502E-05-3.27364E-05-4.17815E-05 4.69044E-19-4.87891E-19
 -1      2205 9.50384E-05-2.98294E-05-2.79492E-05 2.87928E-06 2.87253E-19 1.16832E-18
 -1      2206 1.71680E-05-1.80087E-05 6.83355E-07-2.14924E-05 1.88698E-18-1.60555E-18
 -1      2207 2.76421E-05-2.15825E-05-2.29471E-06-3.60727E-05 2.53729E-18-3.15012E-18
 -1      2208 8.81199E-05-1.11676E-05-3.30188E-05-3.67743E-06-4.90978E-19-3.97461E-18
 -1      2209 8.83568E-05-1.14402E-05-3.30013E-05-4.81775E-06-8.40884E-19-4.03616E-18
 -1      2210 8.87129E-05-1.19277E-05-3.29532E-05-5.83315E-06-1.07081E-18-4.01390E-18
 -1      2211 8.91212E-05-1.24002E-05-3.29255E-05-7.00745E-06-1.44880E-18-3.95330E-18
 -1      2212 8.98769E-05-1.38080E-05-3.25998E-05-4.91454E-06-8.84404E-19-3.75345E-18
 -1      2213 8.77642E-05-1.06992E-05-3.30618E-05 5.92714E-07 6.50982E-19-3.84697E-18
 -1      2214 8.77622E-05-1.06968E-05-3.30619E-05-5.16506E-07 3.55914E-19-3.86870E-18
 -1      2215 8.79401E-05-1.09170E-05-3.30441E-05 2.73173E-06 1.14395E-18-3.76490E-18
 -1      2216 8.78279E-05-1.07876E-05-3.30529E-05 1.61415E-06 8.72405E-19-3.80422E-18
 -1      2217 8.90786E-05-1.27409E-05-3.27194E-05 1.02933E-06 7.13432E-19-3.65019E-18
 -1      2218 8.83682E-05-1.14540E-05-3.30004E-05 4.85905E-06 1.67073E-18-3.65526E-18
 -1      2219 8.81321E-05-1.11829E-05-3.30177E-05 3.73736E-06 1.35286E-18-3.79319E-18
 -1      2220 8.93395E-05-1.30893E-05-3.26805E-05 2.99932E-06 1.18507E-18-3.52435E-18
 -1      2221 8.91377E-05-1.24197E-05-3.29245E-05 7.04589E-06 2.29877E-18-2.95035E-18
 -1      2222 8.87252E-05-1.19430E-05-3.29520E-05 5.87535E-06 1.92875E-18-3.31571E-18
 -1      2223 8.98903E-05-1.38263E-05-3.25981E-05 4.95501E-06 1.78735E-18-3.28709E-18
 -1      2224 9.03963E-05-1.40048E-05-3.28026E-05 9.19857E-06 2.86478E-18-2.42811E-18
 -1      2225 8.97240E-05-1.32099E-05-3.28453E-05 8.01669E-06 2.52054E-18-2.70767E-18
 -1      2226 9.08194E-05-1.50704E-05-3.24569E-05 6.85303E-06 2.35756E-18-2.62131E-18
 -1      2227 9.23952E-05-1.65937E-05-3.25836E-05 1.10821E-05 3.16296E-18-1.47381E-18
 -1      2228 9.13196E-05-1.52285E-05-3.26684E-05 1.00218E-05 2.95464E-18-2.05936E-18
 -1      2229 9.22361E-05-1.70128E-05-3.22225E-05 8.50945E-06 2.76496E-18-2.03624E-18
 -1      2230 9.54841E-05-2.09520E-05-3.20102E-05 1.13147E-05 3.13635E-18 2.84153E-19
 -1      2231 9.37008E-05-1.85915E-05-3.22221E-05 1.09988E-05 3.07815E-18-8.01598E-19
 -1      2232 9.41965E-05-2.01570E-05-3.17059E-05 9.03490E-06 2.92633E-18-1.07779E-18
 -1      2233 9.56986E-05-2.39079E-05-3.07642E-05 7.64971E-06 2.85367E-18 3.68210E-19
 -1      2234 9.59254E-05-2.50919E-05-3.03093E-05-6.19126E-06-2.40468E-18-1.03608E-18
 -1      2235 9.52656E-05-2.58511E-05-2.97656E-05-4.28394E-06-2.09176E-18-1.12676E-18
 -1      2236 9.50858E-05-2.00243E-05-3.22177E-05-1.17423E-05-2.76900E-18-1.64937E-18
 -1      2237 9.54877E-05-2.33876E-05-3.09312E-05-7.98679E-06-2.64572E-18-1.35442E-18
 -1      2238 9.50773E-05-2.25344E-05-3.10573E-05-7.67003E-06-2.46276E-18-1.82566E-18
 -1      2239 9.32274E-05-1.75755E-05-3.24197E-05-1.13729E-05-2.70001E-18-2.36886E-18
 -1      2240 9.51498E-05-2.65359E-05-2.93486E-05-2.93942E-06-1.91056E-18-9.77633E-19
 -1      2241 9.46816E-05-2.69089E-05-2.90451E-05-1.87670E-06-1.65393E-18-1.20654E-18
 -1      2242 9.53464E-05-2.53513E-05-3.00003E-05-4.29692E-06-2.04012E-18-1.55832E-18
 -1      2243 9.44848E-05-2.72383E-05-2.87814E-05-1.02509E-06-1.47887E-18-1.03407E-18
 -1      2244 9.42269E-05-2.74519E-05-2.86153E-05-4.21903E-07-1.27503E-18-1.25793E-18
 -1      2245 9.50426E-05-2.66989E-05-2.93030E-05-1.92004E-06-1.58277E-18-1.47428E-18
 -1      2246 9.40781E-05-2.76323E-05-2.84541E-05 8.76065E-08-1.05703E-18-1.26127E-18
 -1      2247 9.39801E-05-2.77760E-05-2.83706E-05 4.18786E-07-9.00913E-19-1.33441E-18
 -1      2248 9.47359E-05-2.74258E-05-2.88600E-05-4.37000E-07-1.34152E-18-1.42764E-18
 -1      2249 9.38956E-05-2.78857E-05-2.82772E-05 7.02938E-07-8.81269E-19-1.46444E-18
 -1      2250 9.39020E-05-2.79930E-05-2.82445E-05 8.68318E-07-8.53845E-19-1.50782E-18
 -1      2251 9.45349E-05-2.78544E-05-2.85877E-05 4.36738E-07-1.08535E-18-1.48449E-18
 -1      2252 9.38708E-05-2.80653E-05-2.81958E-05 1.00689E-06-8.56560E-19-1.51005E-18
 -1      2253 9.39390E-05-2.81496E-05-2.81937E-05 1.07026E-06-6.83105E-19-1.54603E-18
 -1      2254 9.44425E-05-2.81239E-05-2.84297E-05 9.10604E-07-9.32861E-19-1.70391E-18
 -1      2255 9.39449E-05-2.81995E-05-2.81738E-05 1.11650E-06-6.61344E-19-1.52789E-18
 -1      2256 9.40450E-05-2.82667E-05-2.81894E-05 1.11800E-06-6.45090E-19-1.61018E-18
 -1      2257 9.44333E-05-2.83012E-05-2.83474E-05 1.12618E-06-7.52790E-19-1.83138E-18
 -1      2258 9.40737E-05-2.83018E-05-2.81875E-05 1.10769E-06-8.39982E-19-1.58992E-18
 -1      2259 9.41862E-05-2.83553E-05-2.82123E-05 1.07337E-06-9.75409E-19-1.76190E-18
 -1      2260 9.44787E-05-2.84200E-05-2.83141E-05 1.17897E-06-8.72153E-19-1.54076E-18
 -1      2261 9.42270E-05-2.83799E-05-2.82210E-05 1.03063E-06-8.95435E-19-1.75052E-18
 -1      2262 9.43394E-05-2.84220E-05-2.82496E-05 9.77643E-07-5.98069E-19-1.88303E-18
 -1      2263 9.45552E-05-2.84992E-05-2.83116E-05 1.13357E-06-9.08857E-19-1.42743E-18
 -1      2264 9.43848E-05-2.84389E-05-2.82641E-05 9.18667E-07-4.15126E-19-1.84955E-18
 -1      2265 9.44900E-05-2.84715E-05-2.82932E-05 8.58242E-07-2.12829E-19-1.96915E-18
 -1      2266 9.46458E-05-2.85508E-05-2.83274E-05 1.03362E-06-5.93346E-19-1.51874E-18
 -1      2267 9.45352E-05-2.84825E-05-2.83102E-05 7.93694E-07-1.26857E-19-2.06227E-18
 -1      2268 9.46294E-05-2.85073E-05-2.83377E-05 7.33035E-07 3.46913E-20-1.74804E-18
 -1      2269 9.47389E-05-2.85825E-05-2.83531E-05 9.08303E-07-2.94544E-19-1.73109E-18
 -1      2270 9.46717E-05-2.85141E-05-2.83553E-05 6.69734E-07 9.07285E-20-1.71512E-18
 -1      2271 9.47534E-05-2.85325E-05-2.83802E-05 6.13266E-07-4.94135E-20-1.54582E-18
 -1      2272 9.48277E-05-2.86003E-05-2.83832E-05 7.76728E-07 5.35993E-20-1.56219E-18
 -1      2273 9.47914E-05-2.85362E-05-2.83970E-05 5.55349E-07-4.90753E-19-1.33427E-18
 -1      2274 9.48609E-05-2.85495E-05-2.84189E-05 5.05589E-07-5.60179E-19-1.46363E-18
 -1      2275 9.49083E-05-2.86082E-05-2.84142E-05 6.50938E-07-1.01436E-19-1.68452E-18
 -1      2276 9.48940E-05-2.85511E-05-2.84345E-05 4.55340E-07-8.37628E-19-1.64220E-18
 -1      2277 9.49523E-05-2.85606E-05-2.84534E-05 4.13496E-07-6.65648E-19-1.68340E-18
 -1      2278 9.49793E-05-2.86094E-05-2.84440E-05 5.38065E-07-7.77836E-19-9.32975E-19
 -1      2279 9.49809E-05-2.85608E-05-2.84673E-05 3.71922E-07-7.25831E-19-2.21699E-18
 -1      2280 9.50295E-05-2.85676E-05-2.84835E-05 3.38300E-07-5.53501E-19-2.22336E-18
 -1      2281 9.50406E-05-2.86064E-05-2.84714E-05 4.41841E-07-1.15156E-18-1.73347E-18
 -1      2282 9.50540E-05-2.85670E-05-2.84957E-05 3.05510E-07-4.72274E-19-2.43295E-18
 -1      2283 9.50947E-05-2.85722E-05-2.85094E-05 2.79746E-07-3.28376E-19-2.56972E-18
 -1      2284 9.50930E-05-2.86012E-05-2.84961E-05 3.63628E-07-6.93231E-19-1.85307E-18
 -1      2285 9.51159E-05-2.85716E-05-2.85200E-05 2.55151E-07-3.52634E-19-2.74933E-18
 -1      2286 9.51505E-05-2.85761E-05-2.85317E-05 2.36304E-07-3.95258E-19-2.86112E-18
 -1      2287 9.51382E-05-2.85957E-05-2.85179E-05 3.03052E-07-5.41513E-19-2.27672E-18
 -1      2288 9.51696E-05-2.85764E-05-2.85408E-05 2.18656E-07 1.70319E-19-2.67118E-18
 -1      2289 9.51996E-05-2.85813E-05-2.85506E-05 2.05145E-07 5.21509E-19-2.23615E-18
 -1      2290 9.51780E-05-2.85917E-05-2.85367E-05 2.58272E-07-7.99694E-20-2.45953E-18
 -1      2291 9.52176E-05-2.85835E-05-2.85581E-05 1.92417E-07 4.50569E-19-2.43301E-18
 -1      2292 9.52442E-05-2.85901E-05-2.85661E-05 1.81808E-07 7.15945E-19-2.45336E-18
 -1      2293 9.52147E-05-2.85918E-05-2.85525E-05 2.25915E-07 2.75663E-19-2.14831E-18
 -1      2294 9.52626E-05-2.85958E-05-2.85718E-05 1.70893E-07 7.67494E-19-2.50988E-18
 -1      2295 9.52864E-05-2.86056E-05-2.85779E-05 1.59532E-07 2.72829E-19-2.13612E-18
 -1      2296 9.52510E-05-2.85992E-05-2.85649E-05 2.00655E-07 7.38099E-19-2.60237E-18
 -1      2297 9.53065E-05-2.86169E-05-2.85813E-05 1.45776E-07-1.34566E-19-1.84201E-18
 -1      2298 9.53271E-05-2.86317E-05-2.85848E-05 1.28274E-07-8.59110E-20-1.48503E-18
 -1      2299 9.52899E-05-2.86185E-05-2.85734E-05 1.74432E-07 4.58978E-19-1.85629E-18
 -1      2300 9.53507E-05-2.86514E-05-2.85852E-05 1.04843E-07-2.95529E-19-1.86400E-18
 -1      2301 9.53664E-05-2.86733E-05-2.85847E-05 7.34614E-08-4.09368E-19-1.85836E-18
 -1      2302 9.53345E-05-2.86557E-05-2.85766E-05 1.35326E-07-3.69407E-19-1.24651E-18
 -1      2303 9.53951E-05-2.87048E-05-2.85809E-05 3.06215E-08-6.42642E-19-2.22796E-18
 -1      2304 9.54023E-05-2.87357E-05-2.85747E-05-2.53187E-08-5.18443E-19-2.25863E-18
 -1      2305 9.53885E-05-2.87190E-05-2.85727E-05 6.61656E-08-7.16403E-19-2.34063E-18
 -1      2306 9.54373E-05-2.87829E-05-2.85651E-05-1.00853E-07-5.92762E-19-2.66082E-18
 -1      2307 9.54294E-05-2.88240E-05-2.85504E-05-1.95292E-07-3.82728E-19-2.58170E-18
 -1      2308 9.54550E-05-2.88173E-05-2.85591E-05-5.69000E-08-8.76597E-19-2.20771E-18
 -1      2309 9.54710E-05-2.88899E-05-2.85331E-05-3.20618E-07 3.00154E-19-2.67338E-18
 -1      2310 9.54376E-05-2.89405E-05-2.85065E-05-4.70382E-07 2.62202E-19-2.25086E-18
 -1      2311 9.55358E-05-2.89595E-05-2.85327E-05-2.65379E-07-3.30420E-19-2.88169E-18
 -1      2312 9.54833E-05-2.90261E-05-2.84795E-05-6.65724E-07-4.05692E-19-2.22052E-18
 -1      2313 9.54091E-05-2.90813E-05-2.84370E-05-8.88833E-07-5.57121E-19-2.19907E-18
 -1      2314 9.56288E-05-2.91510E-05-2.84902E-05-5.98093E-07-1.01999E-19-2.43286E-18
 -1      2315 9.54514E-05-2.91822E-05-2.83986E-05-1.17509E-06-7.34496E-19-2.15933E-18
 -1      2316 9.53154E-05-2.92305E-05-2.83360E-05-1.48694E-06-5.72286E-19-2.04039E-18
 -1      2317 9.57241E-05-2.93879E-05-2.84290E-05-1.09812E-06-6.98535E-19-1.30786E-18
 -1      2318 9.53383E-05-2.93333E-05-2.82855E-05-1.88042E-06-6.87867E-19-2.08147E-18
 -1      2319 9.51135E-05-2.93535E-05-2.81995E-05-2.28719E-06-9.22091E-20-1.95344E-18
 -1      2320 9.57981E-05-2.96486E-05-2.83480E-05-1.80507E-06-8.61314E-19-9.57048E-19
 -1      2321 9.50896E-05-2.94316E-05-2.81378E-05-2.79063E-06 7.62330E-20-2.25940E-18
 -1      2322 9.47452E-05-2.93906E-05-2.80269E-05-3.27974E-06 3.13022E-20-1.55593E-18
 -1      2323 9.58066E-05-2.98844E-05-2.82489E-05-2.74069E-06-2.27255E-20-4.18247E-19
 -1      2324 9.46337E-05-2.94024E-05-2.79571E-05-3.86964E-06 3.94731E-20-1.21518E-18
 -1      2325 9.41403E-05-2.92581E-05-2.78229E-05-4.39883E-06-2.29395E-19-4.74056E-19
 -1      2326 9.56797E-05-3.00114E-05-2.81377E-05-3.88641E-06 4.39744E-19-5.33479E-19
 -1      2327 9.38917E-05-2.91505E-05-2.77503E-05-5.01152E-06 2.44199E-19-2.44262E-19
 -1      2328 9.32322E-05-2.88601E-05-2.75986E-05-5.50058E-06 1.00222E-18 7.64274E-20
 -1      2329 9.53238E-05-2.99129E-05-2.80246E-05-5.15508E-06 4.35523E-19 2.13191E-19
 -1      2330 9.28021E-05-2.85831E-05-2.75304E-05-6.02341E-06 6.42148E-19 2.88053E-19
 -1      2331 9.19870E-05-2.81221E-05-2.73713E-05-6.35569E-06 3.50775E-19 5.40527E-19
 -1      2332 9.46404E-05-2.94612E-05-2.79230E-05-6.36530E-06 5.39791E-19 4.73573E-19
 -1      2333 9.13622E-05-2.76542E-05-2.73144E-05-6.63405E-06 3.18267E-19 1.02141E-18
 -1      2334 9.04460E-05-2.70411E-05-2.71612E-05-6.67567E-06 3.02338E-19 7.74932E-19
 -1      2335 9.35665E-05-2.85668E-05-2.78464E-05-7.23621E-06 6.89253E-19 1.20259E-18
 -1      2336 8.96757E-05-2.64203E-05-2.71202E-05-6.54712E-06-4.70455E-20 1.62736E-18
 -1      2337 8.87650E-05-2.57365E-05-2.69875E-05-6.18792E-06 7.39499E-22 1.78091E-18
 -1      2338 9.21353E-05-2.72482E-05-2.78027E-05-7.42691E-06 7.57608E-19 2.32271E-18
 -1      2339 8.79778E-05-2.50772E-05-2.69626E-05-5.54486E-06-4.41279E-19 1.80541E-18
 -1      2340 8.72191E-05-2.44626E-05-2.68635E-05-4.75173E-06 8.43393E-21 1.85884E-18
 -1      2341 9.05285E-05-2.56920E-05-2.77905E-05-6.63816E-06-1.53317E-19 3.74523E-18
 -1      2342 8.66009E-05-2.39349E-05-2.68511E-05-3.60999E-06 9.65328E-19 9.51550E-19
 -1      2343 8.61432E-05-2.35474E-05-2.67956E-05-2.46602E-06 1.02544E-18 8.90522E-19
 -1      2344 8.90728E-05-2.42463E-05-2.77976E-05-4.75831E-06-3.13501E-21 2.99304E-18
 -1      2345 8.58693E-05-2.33132E-05-2.67910E-05-9.96963E-07 1.89687E-18 8.18667E-20
 -1      2346 8.58130E-05-2.32648E-05-2.67843E-05 3.02608E-07 2.06247E-18 7.42416E-19
 -1      2347 8.81466E-05-2.33181E-05-2.78072E-05-1.98040E-06 1.03674E-18 1.30137E-18
 -1      2348 8.59648E-05-2.33995E-05-2.67847E-05 1.81103E-06 1.40946E-18 7.15195E-19
 -1      2349 8.63205E-05-2.37016E-05-2.68275E-05 3.01877E-06 4.62844E-19 2.17013E-18
 -1      2350 8.80211E-05-2.31982E-05-2.78059E-05 1.19762E-06 1.82749E-18 1.41487E-18
 -1      2351 8.68415E-05-2.41534E-05-2.68345E-05 4.26667E-06 2.46753E-19 2.39384E-18
 -1      2352 8.75268E-05-2.47114E-05-2.69230E-05 5.17053E-06 1.29856E-18 2.65697E-18
 -1      2353 8.87221E-05-2.39154E-05-2.77914E-05 4.13213E-06 1.36091E-18 2.27890E-18
 -1      2354 8.82520E-05-2.53287E-05-2.69412E-05 5.95729E-06 8.10116E-19 2.83886E-18
 -1      2355 8.91252E-05-2.59888E-05-2.70669E-05 6.44958E-06 8.53914E-19 2.56785E-18
 -1      2356 9.00167E-05-2.52209E-05-2.77748E-05 6.27813E-06 7.38053E-19 1.79642E-18
 -1      2357 8.98625E-05-2.65973E-05-2.70995E-05 6.72969E-06 1.34849E-18 1.85470E-18
 -1      2358 9.07757E-05-2.72158E-05-2.72494E-05 6.82124E-06 1.58756E-18 1.22752E-18
 -1      2359 9.15299E-05-2.67160E-05-2.77720E-05 7.37631E-06 5.72004E-19 7.54905E-19
 -1      2360 9.13842E-05-2.76934E-05-2.72952E-05 6.68182E-06 9.02056E-19 1.20287E-18
 -1      2361 9.22259E-05-2.81862E-05-2.74528E-05 6.46486E-06 2.09914E-19 1.81986E-18
 -1      2362 9.29149E-05-2.80376E-05-2.77935E-05 7.48491E-06 1.04007E-18 6.03379E-19
 -1      2363 9.26512E-05-2.84956E-05-2.75044E-05 6.05487E-06 2.62490E-19 1.97140E-18
 -1      2364 9.33645E-05-2.88517E-05-2.76528E-05 5.64492E-06-3.13879E-19 2.07046E-18
 -1      2365 9.39710E-05-2.89910E-05-2.78370E-05 6.86948E-06 3.69793E-19 1.42407E-18
 -1      2366 9.36302E-05-2.90338E-05-2.76988E-05 5.10494E-06-5.21719E-19 2.46035E-18
 -1      2367 9.42073E-05-2.92971E-05-2.78222E-05 4.58886E-06-3.23705E-19 2.39997E-18
 -1      2368 9.46663E-05-2.95781E-05-2.78868E-05 5.84449E-06-4.45530E-19 1.38421E-18
 -1      2369 9.43886E-05-2.94396E-05-2.78502E-05 4.03791E-06-2.45018E-19 2.51753E-18
 -1      2370 9.48626E-05-2.96846E-05-2.79401E-05 3.44893E-06 3.10846E-19 1.62202E-18
 -1      2371 9.54309E-05-3.02614E-05-2.79177E-05 3.49111E-06-3.27449E-19 1.78251E-18
 -1      2372 9.51069E-05-2.99471E-05-2.79188E-05 4.68252E-06-3.48228E-19 2.03256E-18
 -1      2373 9.42422E-05-2.74286E-05-2.86317E-05 4.76305E-07 1.26402E-18-3.34241E-19
 -1      2374 9.44978E-05-2.72092E-05-2.88048E-05 1.10388E-06 1.29033E-18-2.44798E-19
 -1      2375 9.19993E-05-2.65066E-05-2.76288E-05 3.63238E-05 2.64857E-19-2.15316E-18
 -1      2376 9.80890E-05-3.52130E-05-2.64859E-05 3.68073E-05-7.08543E-19-3.24096E-18
 -1      2377 9.39877E-05-2.77627E-05-2.83797E-05-3.87340E-07 8.77182E-19-1.78175E-19
 -1      2378 9.40912E-05-2.76162E-05-2.84665E-05-4.51432E-08 1.16922E-18-1.17589E-19
 -1      2379 9.47505E-05-2.74000E-05-2.88777E-05 4.94318E-07 1.13770E-18-6.81605E-19
 -1      2380 9.39027E-05-2.79839E-05-2.82487E-05-8.52288E-07 9.67868E-19-3.72352E-19
 -1      2381 9.39002E-05-2.78751E-05-2.82835E-05-6.80443E-07 1.01437E-18-2.45207E-19
 -1      2382 9.45418E-05-2.78373E-05-2.85983E-05-4.03887E-07 1.07923E-18-7.53839E-19
 -1      2383 9.39350E-05-2.81429E-05-2.81948E-05-1.06385E-06 8.82188E-19-5.50327E-19
 -1      2384 9.38692E-05-2.80577E-05-2.81981E-05-9.96579E-07 9.60852E-19-4.09403E-19
 -1      2385 9.44448E-05-2.81132E-05-2.84355E-05-8.93568E-07 1.13255E-18-7.57824E-19
 -1      2386 9.40385E-05-2.82619E-05-2.81886E-05-1.11735E-06 6.55925E-19-7.76219E-19
 -1      2387 9.39395E-05-2.81938E-05-2.81737E-05-1.11362E-06 7.73009E-19-5.82845E-19
 -1      2388 9.44322E-05-2.82942E-05-2.83500E-05-1.11923E-06 9.69641E-19-8.26537E-19
 -1      2389 9.41786E-05-2.83519E-05-2.82104E-05-1.07580E-06 1.82103E-19-9.32163E-19
 -1      2390 9.40664E-05-2.82977E-05-2.81860E-05-1.10903E-06 4.56170E-19-8.55355E-19
 -1      2391 9.44757E-05-2.84156E-05-2.83147E-05-1.17811E-06 7.04931E-19-7.15391E-19
 -1      2392 9.43312E-05-2.84196E-05-2.82472E-05-9.81203E-07 1.50132E-19-1.05642E-18
 -1      2393 9.42190E-05-2.83771E-05-2.82188E-05-1.03405E-06 1.75523E-19-9.79567E-19
 -1      2394 9.45512E-05-2.84967E-05-2.83110E-05-1.13598E-06 2.83288E-19-1.10486E-18
 -1      2395 9.44747E-05-2.84678E-05-2.82882E-05-8.67953E-07 2.15964E-19-8.86711E-19
 -1      2396 9.43738E-05-2.84363E-05-2.82606E-05-9.25776E-07 3.75223E-20-9.56742E-19
 -1      2397 9.46394E-05-2.85491E-05-2.83254E-05-1.04031E-06 5.19314E-20-1.12310E-18
 -1      2398 9.46160E-05-2.85055E-05-2.83327E-05-7.41770E-07 2.23898E-19-9.21237E-19
 -1      2399 9.45209E-05-2.84800E-05-2.83051E-05-8.03228E-07 3.87954E-19-8.99326E-19
 -1      2400 9.47306E-05-2.85817E-05-2.83500E-05-9.18501E-07 9.82205E-20-8.75864E-19
 -1      2401 9.47419E-05-2.85320E-05-2.83754E-05-6.19811E-07 1.52636E-19-5.17977E-19
 -1      2402 9.46590E-05-2.85129E-05-2.83503E-05-6.77530E-07 1.62371E-19-6.84084E-19
 -1      2403 9.48207E-05-2.86012E-05-2.83798E-05-7.85856E-07 8.72416E-20-1.02317E-18
 -1      2404 9.48515E-05-2.85501E-05-2.84146E-05-5.09365E-07 6.19144E-19-2.54793E-19
 -1      2405 9.47809E-05-2.85363E-05-2.83925E-05-5.60589E-07 5.65137E-19-1.30589E-19
 -1      2406 9.49031E-05-2.86106E-05-2.84109E-05-6.57931E-07 2.10311E-19-6.17556E-19
 -1      2407 9.49453E-05-2.85618E-05-2.84499E-05-4.14579E-07 2.42758E-19-2.08942E-19
 -1      2408 9.48859E-05-2.85521E-05-2.84305E-05-4.57767E-07 6.73350E-19-9.66153E-20
 -1      2409 9.49764E-05-2.86128E-05-2.84413E-05-5.42528E-07 6.46881E-19-2.55089E-19
 -1      2410 9.50255E-05-2.85685E-05-2.84813E-05-3.37800E-07 2.80090E-19-1.51679E-19
 -1      2411 9.49755E-05-2.85620E-05-2.84645E-05-3.72088E-07-1.91710E-20-2.33097E-19
 -1      2412 9.50405E-05-2.86100E-05-2.84699E-05-4.44250E-07 3.07243E-19-6.91960E-20
 -1      2413 9.50947E-05-2.85712E-05-2.85096E-05-2.80572E-07 5.02404E-19-2.72470E-19
 -1      2414 9.50519E-05-2.85673E-05-2.84947E-05-3.05325E-07 7.65738E-19-1.40426E-19
 -1      2415 9.50963E-05-2.86035E-05-2.84967E-05-3.65839E-07 4.62930E-19 1.13860E-19
 -1      2416 9.51563E-05-2.85702E-05-2.85362E-05-2.44535E-07 5.66205E-20-1.70333E-19
 -1      2417 9.51183E-05-2.85686E-05-2.85224E-05-2.58926E-07 1.98710E-19-4.26034E-19
 -1      2418 9.51452E-05-2.85937E-05-2.85220E-05-3.09274E-07 3.97049E-19-2.24770E-19
 -1      2419 9.52142E-05-2.85653E-05-2.85628E-05-2.32358E-07 5.26183E-19-9.13790E-19
 -1      2420 9.51780E-05-2.85659E-05-2.85489E-05-2.34900E-07 2.01278E-19-7.04455E-19
 -1      2421 9.51892E-05-2.85799E-05-2.85468E-05-2.76762E-07 3.53933E-19-6.41135E-19
 -1      2422 9.52724E-05-2.85549E-05-2.85916E-05-2.48842E-07 3.19971E-19-1.15899E-18
 -1      2423 9.52347E-05-2.85582E-05-2.85764E-05-2.36799E-07 5.24031E-19-8.16328E-19
 -1      2424 9.52297E-05-2.85603E-05-2.85727E-05-2.71771E-07 5.96257E-19-9.31819E-19
 -1      2425 9.53352E-05-2.85359E-05-2.86259E-05-3.02412E-07 3.99096E-19-1.90432E-18
 -1      2426 9.52920E-05-2.85432E-05-2.86074E-05-2.70977E-07 3.32207E-19-1.70603E-18
 -1      2427 9.52678E-05-2.85311E-05-2.86017E-05-3.00245E-07 4.74822E-19-1.01206E-18
 -1      2428 9.54068E-05-2.85023E-05-2.86696E-05-4.07281E-07 6.57340E-20-2.24386E-18
 -1      2429 9.53534E-05-2.85162E-05-2.86454E-05-3.48331E-07 1.74893E-19-2.18995E-18
 -1      2430 9.53033E-05-2.84853E-05-2.86365E-05-3.72204E-07 4.98246E-19-1.93227E-18
 -1      2431 9.54903E-05-2.84438E-05-2.87287E-05-5.86736E-07-2.60978E-20-1.62915E-18
 -1      2432 9.54213E-05-2.84687E-05-2.86952E-05-4.86778E-07 1.79500E-20-1.94549E-18
 -1      2433 9.53331E-05-2.84116E-05-2.86807E-05-5.03970E-07-1.75597E-19-2.46442E-18
 -1      2434 9.55828E-05-2.83494E-05-2.88060E-05-8.59044E-07 6.98302E-19-1.49354E-18
 -1      2435 9.54948E-05-2.83898E-05-2.87613E-05-7.08237E-07 5.05745E-19-1.86337E-18
 -1      2436 9.53486E-05-2.82936E-05-2.87372E-05-7.13982E-07 2.84820E-19-3.04063E-18
 -1      2437 9.56892E-05-2.81810E-05-2.89191E-05-1.30717E-06-8.82783E-19-1.44539E-18
 -1      2438 9.55673E-05-2.82545E-05-2.88519E-05-1.05637E-06 4.24130E-19-1.29259E-18
 -1      2439 9.53344E-05-2.81021E-05-2.88123E-05-1.04257E-06 3.07005E-19-2.24095E-18
 -1      2440 9.57872E-05-2.78952E-05-2.90774E-05-2.00433E-06-5.85915E-19-2.11493E-18
 -1      2441 9.56280E-05-2.80206E-05-2.89808E-05-1.61096E-06-1.33163E-18-1.61663E-18
 -1      2442 9.52544E-05-2.77790E-05-2.89141E-05-1.55718E-06-7.20024E-19-2.02262E-18
 -1      2443 9.58345E-05-2.74167E-05-2.92941E-05-3.07449E-06-8.90730E-19-1.32027E-18
 -1      2444 9.56361E-05-2.76270E-05-2.91576E-05-2.46498E-06-8.98059E-19-1.87464E-18
 -1      2445 9.50426E-05-2.72491E-05-2.90456E-05-2.33398E-06-9.35842E-19-2.34244E-18
 -1      2446 9.57394E-05-2.66309E-05-2.95792E-05-4.69172E-06-5.88900E-19-1.14271E-19
 -1      2447 9.55127E-05-2.69751E-05-2.93919E-05-3.76191E-06-6.56859E-19-5.98240E-19
 -1      2448 9.45787E-05-2.63913E-05-2.92053E-05-3.48578E-06-1.15517E-18-1.92817E-18
 -1      2449 9.53257E-05-2.53801E-05-2.99258E-05-7.08287E-06 1.88465E-19-1.35840E-20
 -1      2450 9.51079E-05-2.59213E-05-2.96832E-05-5.69716E-06 3.76102E-19 4.51411E-19
 -1      2451 9.36536E-05-2.50311E-05-2.93753E-05-5.15669E-06-2.71785E-19-8.79429E-19
 -1      2452 9.42926E-05-2.34954E-05-3.02797E-05-1.05058E-05 5.39494E-19-1.29407E-18
 -1      2453 9.41607E-05-2.42856E-05-2.99990E-05-8.51546E-06 4.26951E-19-3.89678E-19
 -1      2454 9.19220E-05-2.29468E-05-2.94983E-05-7.51185E-06 9.42635E-19 1.70201E-20
 -1      2455 9.22203E-05-2.09459E-05-3.04719E-05-1.51750E-05 3.31402E-19-1.24957E-18
 -1      2456 9.22730E-05-2.19268E-05-3.02290E-05-1.24824E-05 5.48930E-19-1.00359E-18
 -1      2457 8.88603E-05-1.99353E-05-2.94300E-05-1.07107E-05 6.85743E-19-2.76460E-19
 -1      2458 8.87750E-05-1.82922E-05-3.00921E-05-2.11038E-05 7.35794E-19-1.82686E-18
 -1      2459 8.89885E-05-1.90138E-05-3.00880E-05-1.78116E-05 5.94759E-19-1.42386E-18
 -1      2460 8.37910E-05-1.60458E-05-2.88454E-05-1.48777E-05 7.36515E-19-1.31178E-18
 -1      2461 8.42745E-05-1.77509E-05-2.82646E-05-2.79556E-05 9.27131E-19-3.66006E-18
 -1      2462 8.42339E-05-1.67714E-05-2.89535E-05-2.44925E-05 1.37787E-18-2.53459E-18
 -1      2463 7.61625E-05-1.22194E-05-2.70733E-05-2.01335E-05 1.82006E-18-1.68341E-18
 -1      2464 8.17855E-05-2.28820E-05-2.49484E-05-3.36799E-05-3.88100E-19-4.76572E-18
 -1      2465 7.99294E-05-1.80982E-05-2.62807E-05-3.14544E-05 5.94776E-20-5.04895E-18
 -1      2466 6.75023E-05-1.10834E-05-2.35056E-05-2.56417E-05 1.32211E-18-3.10120E-18
 -1      2467 1.90564E-04-7.18257E-05-5.04007E-05 1.72550E-05 9.16463E-19-3.02941E-18
 -1      2468 9.12085E-05-2.08367E-05-3.01067E-05 2.95213E-05 9.26786E-19-8.77473E-19
 -1      2469 9.39654E-05-2.36227E-05-2.98565E-05 3.24769E-05 5.94564E-19-1.27568E-18
 -1      2470 7.61307E-05-1.88247E-05-2.42241E-05 3.42917E-05-3.70312E-19-2.43120E-18
 -1      2471 9.43150E-05-2.35245E-05-3.03025E-05 8.95804E-06 6.64180E-19-3.62514E-18
 -1      2472 9.47506E-05-2.38185E-05-3.03758E-05 1.03136E-05 5.41307E-21-2.83446E-18
 -1      2473 9.25807E-05-2.18897E-05-3.03848E-05 9.37549E-06 1.04564E-18-3.45829E-18
 -1      2474 8.73836E-05-1.84202E-05-2.95556E-05-3.69047E-06-9.16476E-19-1.25862E-18
 -1      2475 8.67582E-05-1.77842E-05-2.96430E-05-9.54849E-07 7.75016E-19-3.87079E-18
 -1      2476 9.03164E-05-2.17349E-05-2.93489E-05-8.46943E-06-2.21835E-18-1.16050E-18
 -1      2477 8.87996E-05-2.02216E-05-2.94922E-05-6.59980E-06-2.09022E-18-1.46976E-18
 -1      2478 8.66079E-05-1.92873E-05-2.88082E-05-6.55287E-06-5.03717E-19-2.07548E-18
 -1      2479 8.66725E-05-1.72817E-05-2.97916E-05 2.73167E-06 1.39360E-19-2.49957E-18
 -1      2480 8.74684E-05-1.78587E-05-2.98583E-05 5.50247E-06 1.64950E-19 1.08043E-18
 -1      2481 8.47210E-05-1.68651E-05-2.90146E-05 5.87287E-07 2.06734E-19-2.95095E-18
 -1      2482 9.39252E-05-2.58522E-05-2.91166E-05-1.03729E-05-9.64410E-19-4.49270E-19
 -1      2483 9.22305E-05-2.40186E-05-2.93138E-05-9.80564E-06-1.72691E-18-5.24282E-19
 -1      2484 9.06965E-05-2.35589E-05-2.87800E-05-1.10212E-05-2.11790E-18-3.78352E-19
 -1      2485 9.69222E-05-2.95100E-05-2.88406E-05-9.56278E-06 1.36849E-19 9.07796E-19
 -1      2486 9.55871E-05-2.78503E-05-2.90656E-05-1.01326E-05-1.21860E-19 9.06635E-19
 -1      2487 9.50881E-05-2.80033E-05-2.87902E-05-1.20398E-05-1.21237E-19 5.59829E-19
 -1      2488 9.87027E-05-3.20150E-05-2.85461E-05-6.99396E-06 1.53399E-19 1.11753E-18
 -1      2489 9.79479E-05-3.08234E-05-2.87600E-05-8.25052E-06 1.60959E-19 1.82148E-19
 -1      2490 9.83778E-05-3.14097E-05-2.87475E-05-1.02413E-05 5.26287E-19 5.39025E-19
 -1      2491 9.92719E-05-3.32424E-05-2.82797E-05-3.76540E-06-1.14826E-18-3.63114E-19
 -1      2492 9.90653E-05-3.26058E-05-2.84473E-05-5.23575E-06-7.01766E-19-2.94523E-19
 -1      2493 1.00056E-04-3.33408E-05-2.86305E-05-6.88674E-06-3.69626E-21-6.34172E-19
 -1      2494 9.89548E-05-3.34121E-05-2.80840E-05-7.74817E-07-2.05022E-18-1.35333E-18
 -1      2495 9.91427E-05-3.32699E-05-2.81851E-05-2.08567E-06-1.97731E-18-2.47353E-19
 -1      2496 1.00300E-04-3.39386E-05-2.84675E-05-3.20261E-06-5.52336E-19-4.82367E-19
 -1      2497 9.80917E-05-3.28446E-05-2.79673E-05 1.58022E-06-1.90634E-18 3.64323E-19
 -1      2498 9.85270E-05-3.30783E-05-2.80052E-05 5.92121E-07-1.52679E-18-8.25778E-19
 -1      2499 9.95835E-05-3.35951E-05-2.82961E-05 2.85790E-08-1.96048E-18-5.59718E-19
 -1      2500 9.69684E-05-3.18211E-05-2.79246E-05 2.97947E-06-1.96921E-18-1.26451E-18
 -1      2501 9.75041E-05-3.22958E-05-2.79125E-05 2.45915E-06-2.01582E-18 7.14447E-19
 -1      2502 9.83164E-05-3.26670E-05-2.81434E-05 2.40202E-06-1.75480E-18 7.41256E-19
 -1      2503 9.59365E-05-3.07615E-05-2.79366E-05 3.42930E-06-5.50224E-19-2.11106E-19
 -1      2504 9.65023E-05-3.13533E-05-2.78994E-05 3.34820E-06-1.17507E-18-1.27786E-18
 -1      2505 9.70513E-05-3.16204E-05-2.80427E-05 3.64033E-06-1.31663E-18-7.29709E-19
 -1      2506 9.58021E-05-3.05982E-05-2.79578E-05 4.04784E-06-7.43809E-20 3.91599E-19
 -1      2507 3.49969E-05-2.41334E-05-4.39994E-06 4.34767E-05 2.93709E-19 3.12132E-19
 -1      2508 2.22171E-05-1.79562E-05-1.37540E-06 3.02793E-05 5.81700E-19-3.83706E-19
 -1      2509 2.07833E-05-1.60663E-05-1.57698E-06-1.25399E-05 3.76083E-19-2.83417E-18
 -1      2510 3.51485E-05-2.40714E-05-4.61027E-06-2.72545E-05-3.33096E-19-3.29962E-18
 -1      2511 1.56428E-04-1.21460E-05-6.23367E-05 3.54472E-06 9.06749E-19-1.78385E-18
 -1      2512 1.55748E-04-7.73396E-06-6.40260E-05 1.88905E-06 3.93870E-19-1.49750E-18
 -1      2513 1.08367E-04-4.81770E-05-2.55639E-05-3.52573E-05 2.13452E-19-4.72771E-18
 -1      2514 9.32874E-05-3.44342E-05-2.44063E-05-3.76752E-05-2.64063E-19-4.77091E-18
 -1      2515 9.37680E-05-2.24862E-05-3.05914E-05 1.61259E-05-4.23728E-19 1.61775E-19
 -1      2516 9.48883E-05-2.22989E-05-3.10015E-05 1.91638E-05 1.36225E-18 3.32601E-19
 -1      2517 9.22022E-05-2.08447E-05-3.06413E-05 2.22481E-05 1.53079E-18-5.59029E-19
 -1      2518 9.35769E-05-2.10802E-05-3.08974E-05 2.56431E-05 1.60362E-18-1.16269E-18
 -1      2519 8.60232E-05-1.72899E-05-2.93071E-05 2.00310E-05 6.43388E-19 4.42345E-19
 -1      2520 1.13133E-04-5.55901E-05-2.45019E-05-3.19580E-05-4.34316E-19-4.24067E-18
 -1      2521 9.52038E-05-2.60288E-05-2.96529E-05 3.92241E-06 2.20670E-18 1.41448E-20
 -1      2522 9.58903E-05-2.53902E-05-3.01857E-05 5.77450E-06 2.49893E-18 3.37391E-19
 -1      2523 9.53033E-05-2.35633E-05-3.07232E-05 6.79053E-06 2.64904E-18-4.79640E-19
 -1      2524 8.78212E-05-1.07791E-05-3.30537E-05-1.53784E-06 1.87968E-19-3.86718E-18
 -1      2525 8.79290E-05-1.09033E-05-3.30451E-05-2.65503E-06-1.80235E-19-3.91297E-18
 -1      2526 8.93277E-05-1.30744E-05-3.26820E-05-2.94532E-06-3.27657E-19-3.63210E-18
 -1      2527 8.90739E-05-1.27348E-05-3.27201E-05-9.58941E-07 2.23943E-19-3.69175E-18
 -1      2528 9.46605E-05-2.69360E-05-2.90216E-05 1.80287E-06 1.57169E-18-2.73370E-19
 -1      2529 9.51183E-05-2.65925E-05-2.93288E-05 2.88357E-06 1.80850E-18-8.21299E-20
 -1      2530 9.52909E-05-2.56667E-05-2.98329E-05 3.77054E-06 2.09376E-18-6.41972E-19
 -1      2531 9.50292E-05-2.67302E-05-2.92812E-05 1.86227E-06 1.52829E-18-6.31286E-19
 -1      2532 1.72804E-04-7.26600E-05-4.21268E-05 7.56437E-07-2.70182E-18-3.93023E-19
 -1      2533 7.44089E-05-4.20065E-05-1.39635E-05 5.49381E-05-1.01347E-18-9.70276E-19
 -1      2534 5.41601E-05-3.47823E-05-7.94545E-06 4.99614E-05-2.87144E-19 1.50348E-19
 -1      2535 1.82867E-05-1.52237E-05-9.57422E-07 9.70084E-06-7.82023E-19-2.02568E-18
 -1      2536 1.41224E-05-1.45865E-05 5.34909E-07-6.73839E-06 8.65985E-19-1.81053E-18
 -1      2537 4.62565E-05-3.17796E-05-5.80566E-06-4.76646E-05 1.28495E-18-1.91853E-18
 -1      2538 6.38522E-05-3.94411E-05-1.03419E-05-5.37224E-05 2.41150E-18-2.02123E-19
 -1      2539 1.56625E-05-1.29837E-05-6.30976E-07 1.68076E-05 1.04757E-18-1.07616E-18
 -1      2540 1.55001E-05-1.23638E-05-8.14304E-07 2.34632E-06 1.11766E-18-1.81731E-18
 -1      2541 1.24987E-04-5.76072E-05-2.88358E-05-4.04258E-05 1.83467E-18 1.14349E-20
 -1      2542 1.39468E-04-5.71999E-05-3.56274E-05-3.28452E-05 4.98373E-19-1.12422E-18
 -1      2543 6.00077E-05-3.42813E-05-1.07350E-05-3.47086E-05-2.60886E-19-5.07076E-18
 -1      2544 8.73972E-05-4.62174E-05-1.75925E-05-3.90186E-05 1.04185E-19-5.36786E-18
 -1      2545 1.20060E-04-5.53583E-05-2.78389E-05 4.56304E-05-8.66091E-19-1.26102E-18
 -1      2546 1.00281E-04-5.17920E-05-2.04875E-05 4.95765E-05-4.63751E-19-1.12131E-18
 -1      2547 1.47438E-04-5.38097E-05-4.05211E-05 2.65605E-05-1.60957E-18-2.51992E-19
 -1      2548 1.34482E-04-5.57344E-05-3.37529E-05 3.47184E-05-9.32583E-19-8.78373E-19
 -1      2549 1.59585E-04-3.96904E-05-5.19388E-05 6.29086E-06-1.64737E-18-1.75548E-19
 -1      2550 1.54450E-04-4.69335E-05-4.62111E-05 1.30036E-05-1.53607E-18 1.03762E-19
 -1      2551 1.59690E-04-1.96647E-05-6.06122E-05-3.26999E-06-1.40565E-18-1.84230E-19
 -1      2552 1.58517E-04-2.77653E-05-5.64235E-05-1.06737E-06-1.44292E-18-5.06526E-19
 -1      2553 1.55068E-04-7.50376E-06-6.39055E-05-1.83539E-06-1.52466E-20-7.86047E-19
 -1      2554 1.56936E-04-1.14798E-05-6.28340E-05-3.33070E-06-8.66515E-19-8.61433E-19
 -1      2555 1.58478E-04-2.93561E-05-5.58190E-05 9.69033E-07 3.49401E-19-9.03784E-19
 -1      2556 1.59490E-04-2.12177E-05-5.97878E-05 3.13321E-06 1.27097E-18-4.12505E-19
 -1      2557 8.47028E-05-4.83001E-05-1.54668E-05-5.21764E-05 3.10438E-18 8.04086E-19
 -1      2558 1.05620E-04-5.31975E-05-2.25884E-05-5.09892E-05 2.72406E-18 9.42483E-19
 -1      2559 5.09367E-05-2.99549E-05-8.76523E-06 3.54620E-05-7.84776E-19-6.27651E-19
 -1      2560 3.29245E-05-2.12226E-05-4.55869E-06 2.42844E-05-1.81106E-18-1.38066E-19
 -1      2561 1.02948E-04-5.48778E-05-2.07658E-05 3.77288E-05-1.94818E-18-3.02465E-18
 -1      2562 7.59171E-05-4.27422E-05-1.40721E-05 3.76823E-05-2.00323E-19-3.42942E-18
 -1      2563 1.60351E-04-7.24019E-05-3.76532E-05 1.28379E-05-3.55246E-18-3.57448E-19
 -1      2564 1.33749E-04-6.50968E-05-2.95472E-05 2.35765E-05-2.61479E-18-2.03627E-18
 -1      2565 1.29893E-04-5.92265E-05-3.01470E-05 2.73783E-05-2.92015E-18-3.28240E-18
 -1      2566 9.08020E-05-1.50547E-05-3.24591E-05-6.80348E-06-1.52383E-18-3.64345E-18
 -1      2567 8.97022E-05-1.31958E-05-3.28457E-05-7.97839E-06-1.63528E-18-3.85723E-18
 -1      2568 9.04040E-05-1.40241E-05-3.27998E-05-9.15326E-06-2.05557E-18-3.62021E-18
 -1      2569 9.20924E-05-1.62809E-05-3.25260E-05-1.03849E-05-2.47004E-18-2.95138E-18
 -1      2570 9.56785E-05-2.39854E-05-3.06987E-05 1.27026E-05 8.67812E-20-1.51281E-18
 -1      2571 8.45012E-05-3.43717E-05-2.13330E-05 3.95988E-05-1.24027E-18-4.95472E-18
 -1      2572 1.11856E-04-4.64117E-05-2.72362E-05 3.62585E-05-1.68538E-18-3.90175E-18
 -1      2573 3.36528E-05-1.34350E-05-8.01897E-06 1.87206E-05-1.19538E-18-1.38532E-18
 -1      2574 6.94283E-05-2.21532E-05-1.98514E-05-3.50279E-05 2.30816E-19-5.24483E-18
 -1      2575 2.23175E-05-1.04143E-05-4.48331E-06-1.32348E-05 1.91895E-18-2.63279E-18
 -1      2576 8.08171E-05-1.54417E-05-2.77472E-05 2.66401E-05 9.88871E-19-1.22758E-18
 -1      2577 8.90112E-05-1.89267E-05-3.01431E-05 7.55718E-06 1.23086E-18 1.64886E-18
 -1      2578 9.06669E-05-2.01518E-05-3.01987E-05 8.65683E-06 1.01632E-18-4.80493E-19
 -1      2579 9.04081E-05-2.01324E-05-3.00702E-05 1.01169E-05 1.93768E-18-7.61895E-19
 -1      2580 8.66607E-05-1.75073E-05-2.95341E-05 6.95404E-06 6.06249E-20 3.19017E-19
 -1      2581 5.11278E-05-2.69977E-05-9.76788E-06 4.64865E-05 5.00596E-19-1.71524E-19
 -1      2582 2.47835E-05-9.75445E-06-5.95135E-06-7.09997E-06 6.53486E-19-2.24083E-18
 -1      2583 3.74848E-05-1.59170E-05-8.49831E-06-3.57183E-05 1.47130E-18-1.89672E-18
 -1      2584 4.08212E-05-2.46710E-05-6.47994E-06-4.21435E-05 1.09606E-18-2.26962E-18
 -1      2585 5.46736E-05-2.70948E-05-1.14537E-05-4.57505E-05 8.53068E-19-8.32210E-19
 -1      2586 5.67974E-05-2.60832E-05-1.27992E-05-3.31919E-05 1.73218E-19-4.47128E-18
 -1      2587 1.43605E-04-5.39455E-06-5.95737E-05-7.67555E-09 3.58295E-19-1.11538E-18
 -1      2588 1.47114E-04-5.62784E-05-3.88984E-05-2.22409E-05-6.64921E-20-8.68632E-19
 -1      2589 1.49740E-04-5.38400E-05-4.18264E-05-1.00566E-05-5.63224E-19-1.24133E-18
 -1      2590 1.41786E-04-5.97285E-05-3.49457E-05-2.32490E-05 4.51151E-19-9.41477E-19
 -1      2591 7.31392E-05-3.36851E-05-1.65006E-05 3.74725E-05-1.80164E-18-3.56559E-18
 -1      2592 8.16287E-05-4.46336E-05-1.55305E-05-5.27174E-05 2.06422E-18 9.55030E-19
 -1      2593 1.57281E-04-3.70463E-05-5.17767E-05-2.42289E-08 2.88415E-19-9.30254E-19
 -1      2594 1.48965E-04-3.13098E-05-5.08968E-05 8.07638E-06 2.19593E-19-8.37716E-19
 -1      2595 1.51845E-04-4.29967E-05-4.69008E-05-9.98986E-07-2.66815E-20-1.59486E-18
 -1      2596 1.46777E-04-1.37182E-05-5.72792E-05-7.58801E-06-9.66465E-19-1.51704E-18
 -1      2597 1.52843E-04-3.38833E-05-5.11444E-05-3.98756E-06-1.28431E-18 1.96935E-20
 -1      2598 1.50169E-04-5.28176E-05-4.16880E-05 1.40845E-05-1.29405E-18-9.14796E-20
 -1      2599 1.31030E-04-5.89765E-05-3.06462E-05 3.52131E-05-1.10178E-18-9.81499E-19
 -1      2600 1.19869E-04-5.80511E-05-2.61522E-05-4.29308E-05 2.66477E-18 1.20374E-18
 -1      2601 2.61635E-05-1.08792E-05-5.89985E-06 2.38635E-05 9.38724E-19-9.74088E-19
 -1      2602 9.39722E-05-4.83625E-05-1.91721E-05 5.06606E-05-6.68944E-19-8.06269E-19
 -1      2603 1.47931E-04-1.50760E-05-5.72725E-05 7.45065E-06 4.38340E-19-1.36944E-18
 -1      2604 9.09126E-05-2.06228E-05-3.00524E-05 1.37511E-05 8.03331E-19-7.70350E-19
 -1      2605 9.05251E-05-1.51334E-05-3.23328E-05 3.17763E-06 1.33483E-18-3.32502E-18
 -1      2606 9.03367E-05-1.48660E-05-3.23647E-05 2.24374E-06 1.04705E-18-3.30119E-18
 -1      2607 9.02044E-05-1.46666E-05-3.23931E-05 1.40514E-06 8.55688E-19-3.42555E-18
 -1      2608 9.01416E-05-1.45775E-05-3.24038E-05 4.48810E-07 5.63660E-19-3.44188E-18
 -1      2609 9.13889E-05-1.65592E-05-3.20570E-05 1.62760E-06 9.34504E-19-3.25920E-18
 -1      2610 9.20955E-05-1.74890E-05-3.20140E-05 6.45457E-06 2.41140E-18-2.32346E-18
 -1      2611 9.15664E-05-1.66977E-05-3.21114E-05 5.62712E-06 2.13033E-18-2.56143E-18
 -1      2612 9.34715E-05-1.96384E-05-3.16813E-05 7.62092E-06 2.73279E-18-1.74948E-18
 -1      2613 9.27331E-05-1.84511E-05-3.18508E-05 7.02910E-06 2.52842E-18-2.09290E-18
 -1      2614 9.34252E-05-1.98123E-05-3.15198E-05 5.76974E-06 2.28832E-18-2.00692E-18
 -1      2615 9.49987E-05-2.26050E-05-3.10544E-05 7.19563E-06 2.64214E-18-9.02624E-19
 -1      2616 9.40771E-05-2.07285E-05-3.14258E-05 7.53881E-06 2.69619E-18-1.42628E-18
 -1      2617 9.44049E-05-2.18655E-05-3.10799E-05 6.02594E-06 2.48871E-18-1.55209E-18
 -1      2618 9.51364E-05-2.39852E-05-3.04953E-05 5.38657E-06 2.43901E-18-9.05822E-19
 -1      2619 9.43402E-05-2.08695E-05-3.15222E-05-8.25051E-06-2.34663E-18-2.36782E-18
 -1      2620 9.47263E-05-2.26442E-05-3.09173E-05-6.40953E-06-2.17386E-18-2.18591E-18
 -1      2621 9.49087E-05-2.82082E-05-2.85870E-05-8.87184E-07 9.59637E-19-9.69905E-19
 -1      2622 9.49389E-05-2.80578E-05-2.86529E-05-6.96562E-07 1.02280E-18-1.05082E-18
 -1      2623 9.53630E-05-2.59005E-05-2.97420E-05-2.70700E-06-1.54827E-18-1.79257E-18
 -1      2624 9.51989E-05-2.64860E-05-2.94594E-05-1.72014E-06-1.36308E-18-1.74219E-18
 -1      2625 9.52221E-05-2.70028E-05-2.92134E-05-9.77750E-07-1.31722E-18-1.63705E-18
 -1      2626 9.50878E-05-2.73573E-05-2.90335E-05-3.70960E-07-1.23121E-18-1.78811E-18
 -1      2627 9.54182E-05-2.63250E-05-2.96168E-05-1.61907E-06-1.34775E-18-1.96484E-18
 -1      2628 9.50545E-05-2.76635E-05-2.88658E-05 9.73054E-08-1.15035E-18-1.51304E-18
 -1      2629 9.49768E-05-2.78883E-05-2.87551E-05 4.49401E-07-9.64776E-19-1.58993E-18
 -1      2630 9.54174E-05-2.73205E-05-2.91917E-05-3.36348E-07-1.13301E-18-1.69279E-18
 -1      2631 9.49345E-05-2.80740E-05-2.86442E-05 7.19724E-07-7.92134E-19-1.49800E-18
 -1      2632 9.49064E-05-2.82213E-05-2.85804E-05 9.03666E-07-7.99112E-19-1.58136E-18
 -1      2633 9.53564E-05-2.79363E-05-2.89010E-05 4.55609E-07-8.70264E-19-1.60488E-18
 -1      2634 9.48711E-05-2.83335E-05-2.85099E-05 1.03827E-06-8.00599E-19-1.49164E-18
 -1      2635 9.48782E-05-2.84313E-05-2.84773E-05 1.11344E-06-7.46892E-19-1.56043E-18
 -1      2636 9.52917E-05-2.83182E-05-2.87083E-05 8.98701E-07-7.55737E-19-1.48384E-18
 -1      2637 9.48535E-05-2.84971E-05-2.84351E-05 1.15870E-06-6.45350E-19-1.41224E-18
 -1      2638 9.48825E-05-2.85615E-05-2.84227E-05 1.16573E-06-6.09372E-19-1.30298E-18
 -1      2639 9.52418E-05-2.85514E-05-2.85856E-05 1.10456E-06-5.66271E-19-1.28152E-18
 -1      2640 9.48672E-05-2.85973E-05-2.84000E-05 1.15502E-06-6.72125E-19-1.13968E-18
 -1      2641 9.49078E-05-2.86384E-05-2.84003E-05 1.12169E-06-6.78766E-19-8.67494E-19
 -1      2642 9.52093E-05-2.86876E-05-2.85122E-05 1.15598E-06-5.40335E-19-7.95042E-19
 -1      2643 9.48997E-05-2.86545E-05-2.83906E-05 1.07849E-06-7.48729E-19-7.32533E-19
 -1      2644 9.49446E-05-2.86794E-05-2.83985E-05 1.02366E-06-6.74690E-19-9.25590E-19
 -1      2645 9.51911E-05-2.87597E-05-2.84726E-05 1.11239E-06-5.86736E-19-4.05119E-19
 -1      2646 9.49414E-05-2.86827E-05-2.83972E-05 9.64134E-07-6.51879E-19-9.44201E-19
 -1      2647 9.49861E-05-2.86962E-05-2.84090E-05 9.00391E-07-2.99739E-19-1.17964E-18
 -1      2648 9.51834E-05-2.87896E-05-2.84558E-05 1.01545E-06-8.14780E-19-4.93619E-19
 -1      2649 9.49860E-05-2.86915E-05-2.84129E-05 8.35352E-07-1.71518E-19-1.52911E-18
 -1      2650 9.50277E-05-2.86972E-05-2.84265E-05 7.70865E-07-1.91979E-19-1.37437E-18
 -1      2651 9.51824E-05-2.87923E-05-2.84538E-05 8.93617E-07-3.86170E-19-1.18122E-18
 -1      2652 9.50294E-05-2.86878E-05-2.84333E-05 7.07285E-07-7.72423E-20-1.53941E-18
 -1      2653 9.50668E-05-2.86881E-05-2.84472E-05 6.47127E-07-4.53773E-20-1.49884E-18
 -1      2654 9.51855E-05-2.87779E-05-2.84609E-05 7.65776E-07-1.57438E-19-1.06587E-18
 -1      2655 9.50695E-05-2.86762E-05-2.84555E-05 5.89254E-07-3.31765E-19-1.41309E-18
 -1      2656 9.51021E-05-2.86733E-05-2.84688E-05 5.36336E-07-8.04137E-19-1.18522E-18
 -1      2657 9.51907E-05-2.87538E-05-2.84732E-05 6.43920E-07-2.61640E-19-1.37510E-18
 -1      2658 9.51052E-05-2.86604E-05-2.84775E-05 4.86519E-07-1.33246E-18-1.23459E-18
 -1      2659 9.51333E-05-2.86556E-05-2.84898E-05 4.42248E-07-1.17347E-18-1.42698E-18
 -1      2660 9.51968E-05-2.87247E-05-2.84881E-05 5.35187E-07-1.07612E-18-1.67615E-18
 -1      2661 9.51366E-05-2.86430E-05-2.84983E-05 4.01515E-07-1.05847E-18-1.27025E-18
 -1      2662 9.51607E-05-2.86375E-05-2.85093E-05 3.66235E-07-9.18356E-19-1.53212E-18
 -1      2663 9.52032E-05-2.86943E-05-2.85038E-05 4.43321E-07-1.03135E-18-1.01945E-18
 -1      2664 9.51643E-05-2.86260E-05-2.85173E-05 3.34667E-07-6.25005E-19-1.79338E-18
 -1      2665 9.51852E-05-2.86210E-05-2.85270E-05 3.07899E-07-3.72047E-19-1.89767E-18
 -1      2666 9.52101E-05-2.86652E-05-2.85192E-05 3.69673E-07-8.96981E-19-9.93954E-19
 -1      2667 9.51896E-05-2.86117E-05-2.85341E-05 2.84820E-07-1.73047E-19-1.80081E-18
 -1      2668 9.52085E-05-2.86085E-05-2.85424E-05 2.65331E-07 1.60103E-19-1.38958E-18
 -1      2669 9.52179E-05-2.86398E-05-2.85335E-05 3.13807E-07-3.21515E-19-8.68836E-19
 -1      2670 9.52145E-05-2.86027E-05-2.85485E-05 2.49323E-07 2.17102E-19-1.55043E-18
 -1      2671 9.52325E-05-2.86030E-05-2.85552E-05 2.35019E-07 3.36411E-19-1.87273E-18
 -1      2672 9.52281E-05-2.86210E-05-2.85459E-05 2.73732E-07 3.86975E-20-1.37661E-18
 -1      2673 9.52419E-05-2.86029E-05-2.85599E-05 2.23761E-07 4.85534E-19-1.73798E-18
 -1      2674 9.52604E-05-2.86088E-05-2.85649E-05 2.11398E-07 7.32925E-19-2.10711E-18
 -1      2675 9.52433E-05-2.86130E-05-2.85559E-05 2.45790E-07 5.37736E-19-1.43033E-18
 -1      2676 9.52756E-05-2.86174E-05-2.85677E-05 2.01305E-07 7.71632E-19-1.92264E-18
 -1      2677 9.52961E-05-2.86324E-05-2.85705E-05 1.86030E-07 3.84722E-19-1.91528E-18
 -1      2678 9.52676E-05-2.86216E-05-2.85629E-05 2.24161E-07 6.10604E-19-1.99712E-18
 -1      2679 9.53211E-05-2.86541E-05-2.85710E-05 1.71696E-07-1.96059E-20-1.78576E-18
 -1      2680 9.53455E-05-2.86823E-05-2.85708E-05 1.46408E-07-3.78317E-19-1.68610E-18
 -1      2681 9.53075E-05-2.86554E-05-2.85657E-05 1.99974E-07 3.88431E-19-2.59058E-18
 -1      2682 9.53856E-05-2.87233E-05-2.85683E-05 1.19847E-07-8.14936E-19-1.87087E-18
 -1      2683 9.54156E-05-2.87700E-05-2.85640E-05 7.44765E-08-9.14458E-19-1.92576E-18
 -1      2684 9.53723E-05-2.87267E-05-2.85633E-05 1.60015E-07-8.13005E-19-1.60156E-18
 -1      2685 9.54781E-05-2.88378E-05-2.85579E-05 2.42231E-08-9.80096E-19-1.96758E-18
 -1      2686 9.55152E-05-2.89092E-05-2.85483E-05-5.49440E-08-8.79128E-19-1.97995E-18
 -1      2687 9.54747E-05-2.88508E-05-2.85545E-05 8.50713E-08-8.95928E-19-1.30572E-18
 -1      2688 9.56088E-05-2.90120E-05-2.85379E-05-1.44722E-07-4.01445E-19-1.85234E-18
 -1      2689 9.56532E-05-2.91133E-05-2.85216E-05-2.75344E-07 2.87187E-19-1.61471E-18
 -1      2690 9.56306E-05-2.90462E-05-2.85382E-05-5.19042E-08-4.88455E-19-7.62850E-19
 -1      2691 9.57866E-05-2.92586E-05-2.85069E-05-4.25366E-07 2.27699E-19-1.86308E-18
 -1      2692 9.58358E-05-2.93919E-05-2.84826E-05-6.28451E-07-2.48068E-20-1.46466E-18
 -1      2693 9.58577E-05-2.93309E-05-2.85143E-05-2.87338E-07 2.25183E-19-2.77451E-19
 -1      2694 9.60153E-05-2.95825E-05-2.84645E-05-8.63815E-07-2.51879E-19-1.01625E-18
 -1      2695 9.60616E-05-2.97425E-05-2.84317E-05-1.16140E-06-5.81730E-19-5.53449E-19
 -1      2696 9.61716E-05-2.97166E-05-2.84841E-05-6.67354E-07 3.70988E-20-5.85971E-19
 -1      2697 9.62858E-05-2.99706E-05-2.84126E-05-1.50892E-06-4.22283E-19-2.75673E-19
 -1      2698 9.63125E-05-3.01390E-05-2.83721E-05-1.91899E-06-2.69874E-19 4.65196E-19
 -1      2699 9.65779E-05-3.01982E-05-2.84522E-05-1.24513E-06-1.67348E-19 6.06624E-19
 -1      2700 9.65651E-05-3.03790E-05-2.83568E-05-2.40069E-06-3.38743E-19 7.99974E-19
 -1      2701 9.65437E-05-3.05176E-05-2.83111E-05-2.92817E-06-1.43596E-19 1.05617E-18
 -1      2702 9.70599E-05-3.07376E-05-2.84269E-05-2.07248E-06-1.03385E-19 1.42723E-18
 -1      2703 9.67846E-05-3.07182E-05-2.83068E-05-3.54920E-06-3.67577E-19 6.90070E-19
 -1      2704 9.66730E-05-3.07651E-05-2.82611E-05-4.17284E-06 4.12427E-19 6.17511E-19
 -1      2705 9.75620E-05-3.12461E-05-2.84220E-05-3.18193E-06-4.36576E-19 1.35279E-18
 -1      2706 9.68333E-05-3.08462E-05-2.82768E-05-4.90277E-06 9.00685E-19 5.16021E-19
 -1      2707 9.65805E-05-3.07204E-05-2.82382E-05-5.55964E-06 7.44896E-19 5.14186E-19
 -1      2708 9.79752E-05-3.15710E-05-2.84558E-05-4.55582E-06 6.43680E-19 7.31080E-19
 -1      2709 9.65676E-05-3.05828E-05-2.82828E-05-6.31033E-06 4.51153E-19 1.14368E-18
 -1      2710 9.61284E-05-3.02037E-05-2.82587E-05-6.88416E-06 7.27863E-19 1.52820E-18
 -1      2711 9.81351E-05-3.15015E-05-2.85483E-05-6.08319E-06 9.56046E-19 1.24834E-18
 -1      2712 9.58514E-05-2.97599E-05-2.83377E-05-7.49449E-06 6.20616E-19 1.49629E-18
 -1      2713 9.52133E-05-2.90863E-05-2.83334E-05-7.81931E-06 5.95904E-19 1.76503E-18
 -1      2714 9.78517E-05-3.08157E-05-2.87151E-05-7.51670E-06 5.51951E-19 1.11214E-18
 -1      2715 9.46330E-05-2.83140E-05-2.84435E-05-8.06609E-06 8.75476E-19 1.61364E-18
 -1      2716 9.38475E-05-2.73945E-05-2.84590E-05-7.95899E-06 1.19958E-18 2.01624E-18
 -1      2717 9.69861E-05-2.93797E-05-2.89574E-05-8.46011E-06 3.68463E-19 6.13930E-19
 -1      2718 9.30371E-05-2.63958E-05-2.85845E-05-7.61715E-06 2.13630E-19 1.48665E-18
 -1      2719 9.22362E-05-2.54013E-05-2.86120E-05-6.94740E-06-3.07788E-19 1.82841E-18
 -1      2720 9.55654E-05-2.72838E-05-2.92520E-05-8.43235E-06 4.03108E-19-7.04384E-19
 -1      2721 9.14064E-05-2.44201E-05-2.87257E-05-5.90102E-06-1.99741E-19 1.63480E-18
 -1      2722 9.07786E-05-2.36147E-05-2.87518E-05-4.67424E-06-4.98873E-19 9.29260E-19
 -1      2723 9.38782E-05-2.49377E-05-2.95475E-05-7.04747E-06-4.52475E-19 1.45906E-19
 -1      2724 9.02133E-05-2.29633E-05-2.88226E-05-3.02117E-06-1.44443E-19 8.03644E-19
 -1      2725 8.99350E-05-2.26051E-05-2.88341E-05-1.42271E-06 9.67841E-19 4.30057E-19
 -1      2726 9.24369E-05-2.30020E-05-2.97740E-05-4.26092E-06-1.68398E-19-2.28047E-19
 -1      2727 8.98570E-05-2.25232E-05-2.88404E-05 5.05244E-07 1.86878E-18-1.81748E-20
 -1      2728 9.00110E-05-2.27340E-05-2.88304E-05 2.14659E-06 1.72508E-18 3.18841E-19
 -1      2729 9.17711E-05-2.21325E-05-2.98688E-05-5.18176E-07 8.08793E-19-8.18204E-19
 -1      2730 9.04397E-05-2.32437E-05-2.87684E-05 3.90012E-06 1.05470E-18-4.31536E-19
 -1      2731 9.09680E-05-2.39404E-05-2.87408E-05 5.24351E-06 8.38903E-19-7.11202E-19
 -1      2732 9.21383E-05-2.26466E-05-2.98021E-05 3.33117E-06 7.55509E-19-2.08383E-18
 -1      2733 9.17117E-05-2.48390E-05-2.86283E-05 6.45202E-06 7.70422E-19-7.48776E-19
 -1      2734 9.24489E-05-2.57795E-05-2.85954E-05 7.27449E-06 2.32946E-19-1.42676E-18
 -1      2735 9.33551E-05-2.43217E-05-2.95895E-05 6.39755E-06 7.54587E-19-3.09891E-18
 -1      2736 9.32141E-05-2.67505E-05-2.84624E-05 7.79057E-06-8.54250E-21-1.03181E-18
 -1      2737 9.39654E-05-2.76618E-05-2.84372E-05 8.05310E-06 1.19755E-18-1.03466E-18
 -1      2738 9.49147E-05-2.65468E-05-2.92893E-05 8.13003E-06 6.85370E-19-2.07324E-18
 -1      2739 9.45163E-05-2.84423E-05-2.83099E-05 7.96148E-06 1.80166E-18-5.68978E-19
 -1      2740 9.51378E-05-2.91392E-05-2.82989E-05 7.77321E-06 9.16843E-19 3.69773E-19
 -1      2741 9.62664E-05-2.86292E-05-2.89690E-05 8.48830E-06 1.60502E-18-1.00323E-18
 -1      2742 9.53793E-05-2.96129E-05-2.81909E-05 7.28968E-06 2.86168E-19 4.32866E-19
 -1      2743 9.58156E-05-3.00453E-05-2.81915E-05 6.82180E-06-1.60501E-19 1.55388E-19
 -1      2744 9.70708E-05-3.01175E-05-2.86770E-05 7.81751E-06 9.99891E-19-1.17069E-18
 -1      2745 9.57871E-05-3.02416E-05-2.81019E-05 6.17421E-06-2.93116E-19 2.58568E-19
 -1      2746 9.60476E-05-3.04718E-05-2.81022E-05 5.58599E-06-9.75936E-19 6.01543E-19
 -1      2747 9.72738E-05-3.09058E-05-2.84307E-05 6.60185E-06-2.96534E-19-3.84235E-19
 -1      2748 9.58200E-05-3.04472E-05-2.80301E-05 5.08314E-06-7.88162E-19 9.29432E-19
 -1      2749 9.59809E-05-3.06018E-05-2.80226E-05 4.50041E-06-6.42587E-20 9.27377E-19
 -1      2750 9.66205E-05-3.11165E-05-2.80762E-05 4.43421E-06-5.79135E-19-3.55072E-19
 -1      2751 9.70266E-05-3.11506E-05-2.82367E-05 5.41532E-06-5.99531E-19 9.77404E-19
 -1      2752 6.17185E-05-2.10834E-05-1.65979E-05 3.48206E-05-2.00037E-18-1.54859E-18
 -1      2753 4.48018E-05-1.26258E-05-1.33425E-05 2.69858E-05-1.17843E-18-4.80691E-20
 -1      2754 3.16535E-05-6.24239E-06-1.00565E-05 1.11093E-05-6.03643E-19-3.48385E-18
 -1      2755 9.50911E-05-2.73188E-05-2.90510E-05 4.23782E-07 1.20305E-18-1.08896E-18
 -1      2756 9.52202E-05-2.69576E-05-2.92367E-05 1.05227E-06 1.23798E-18-9.86096E-19
 -1      2757 9.48789E-05-2.84234E-05-2.84810E-05-1.10665E-06 8.47831E-19-8.75851E-19
 -1      2758 9.48731E-05-2.83235E-05-2.85149E-05-1.02726E-06 9.44523E-19-7.71913E-19
 -1      2759 9.52947E-05-2.83035E-05-2.87159E-05-8.82598E-07 8.84544E-19-1.14029E-18
 -1      2760 9.48821E-05-2.85571E-05-2.84244E-05-1.16484E-06 5.52613E-19-7.92869E-19
 -1      2761 9.48538E-05-2.84913E-05-2.84377E-05-1.15535E-06 8.26115E-19-6.98808E-19
 -1      2762 9.52442E-05-2.85430E-05-2.85903E-05-1.09791E-06 7.40132E-19-8.87777E-19
 -1      2763 9.49067E-05-2.86364E-05-2.84007E-05-1.12390E-06 2.71140E-19-7.91180E-19
 -1      2764 9.48666E-05-2.85945E-05-2.84009E-05-1.15618E-06 4.45703E-19-6.83563E-19
 -1      2765 9.52112E-05-2.86834E-05-2.85148E-05-1.15515E-06 5.35549E-19-5.75833E-19
 -1      2766 9.49415E-05-2.86778E-05-2.83978E-05-1.03284E-06-1.63257E-19-6.03754E-19
 -1      2767 9.48984E-05-2.86529E-05-2.83908E-05-1.08435E-06-9.04733E-20-6.70232E-19
 -1      2768 9.51936E-05-2.87582E-05-2.84743E-05-1.11704E-06 1.03016E-19-4.03861E-19
 -1      2769 9.49839E-05-2.86977E-05-2.84074E-05-9.10534E-07-3.04038E-20-5.98356E-19
 -1      2770 9.49387E-05-2.86830E-05-2.83959E-05-9.74282E-07-6.73287E-20-5.10559E-19
 -1      2771 9.51858E-05-2.87902E-05-2.84566E-05-1.02485E-06-2.55656E-19-4.55656E-19
 -1      2772 9.50267E-05-2.87007E-05-2.84245E-05-7.80129E-07-1.97398E-19-5.83809E-19
 -1      2773 9.49841E-05-2.86940E-05-2.84110E-05-8.45313E-07 2.03305E-19-4.87489E-19
 -1      2774 9.51855E-05-2.87960E-05-2.84535E-05-9.03908E-07-3.86943E-20-1.80954E-19
 -1      2775 9.50676E-05-2.86931E-05-2.84454E-05-6.54559E-07 3.37108E-19-8.63371E-19
 -1      2776 9.50291E-05-2.86920E-05-2.84313E-05-7.15790E-07-1.42332E-19-8.99835E-19
 -1      2777 9.51898E-05-2.87839E-05-2.84602E-05-7.75396E-07 7.63093E-20-5.06540E-19
 -1      2778 9.51053E-05-2.86790E-05-2.84676E-05-5.41750E-07 3.95251E-19-5.14448E-19
 -1      2779 9.50713E-05-2.86817E-05-2.84539E-05-5.95719E-07 4.56310E-19-6.45873E-19
 -1      2780 9.51968E-05-2.87611E-05-2.84728E-05-6.52096E-07 1.69438E-19-8.80270E-19
 -1      2781 9.51393E-05-2.86609E-05-2.84900E-05-4.46452E-07 1.31358E-19-4.28779E-20
 -1      2782 9.51096E-05-2.86661E-05-2.84770E-05-4.91190E-07 3.73092E-19 4.31255E-20
 -1      2783 9.52052E-05-2.87323E-05-2.84886E-05-5.41984E-07 1.87295E-19-3.92307E-19
 -1      2784 9.51699E-05-2.86398E-05-2.85121E-05-3.71591E-07 4.87026E-19 4.90963E-20
 -1      2785 9.51439E-05-2.86471E-05-2.84998E-05-4.05837E-07 5.11968E-19 1.34177E-19
 -1      2786 9.52141E-05-2.87001E-05-2.85061E-05-4.49923E-07 1.95184E-19-1.72078E-19
 -1      2787 9.51974E-05-2.86157E-05-2.85342E-05-3.19368E-07 6.44897E-19-4.55498E-19
 -1      2788 9.51742E-05-2.86250E-05-2.85221E-05-3.42042E-07 5.39229E-19-2.25776E-19
 -1      2789 9.52228E-05-2.86652E-05-2.85247E-05-3.78990E-07 8.19775E-19-2.82934E-19
 -1      2790 9.52219E-05-2.85871E-05-2.85568E-05-2.92243E-07 6.89790E-19-6.72806E-19
 -1      2791 9.52008E-05-2.85991E-05-2.85446E-05-3.01949E-07 7.44511E-19-9.69591E-20
 -1      2792 9.52301E-05-2.86267E-05-2.85443E-05-3.31562E-07 7.49667E-19-2.34235E-19
 -1      2793 9.52430E-05-2.85505E-05-2.85813E-05-2.93940E-07 4.87319E-19-6.55000E-19
 -1      2794 9.52233E-05-2.85670E-05-2.85681E-05-2.88419E-07 5.26200E-19-7.89757E-19
 -1      2795 9.52344E-05-2.85819E-05-2.85653E-05-3.10273E-07 7.88613E-19-5.24493E-19
 -1      2796 9.52587E-05-2.84999E-05-2.86094E-05-3.30585E-07 7.49989E-19-1.23414E-18
 -1      2797 9.52401E-05-2.85237E-05-2.85940E-05-3.06056E-07 8.98846E-19-9.11708E-19
 -1      2798 9.52324E-05-2.85251E-05-2.85887E-05-3.18938E-07 8.93833E-19-1.11502E-18
 -1      2799 9.52642E-05-2.84249E-05-2.86433E-05-4.12150E-07 5.98593E-19-1.60699E-18
 -1      2800 9.52476E-05-2.84613E-05-2.86244E-05-3.62425E-07 6.43212E-19-1.35193E-18
 -1      2801 9.52181E-05-2.84473E-05-2.86156E-05-3.63523E-07 8.44337E-19-1.26597E-18
 -1      2802 9.52489E-05-2.83087E-05-2.86860E-05-5.54327E-07 1.26692E-19-2.31481E-18
 -1      2803 9.52375E-05-2.83660E-05-2.86616E-05-4.69539E-07 5.00374E-19-1.90388E-18
 -1      2804 9.51806E-05-2.83334E-05-2.86479E-05-4.53231E-07 7.77157E-19-1.89753E-18
 -1      2805 9.51987E-05-2.81359E-05-2.87376E-05-7.66705E-07 2.76073E-19-2.16412E-18
 -1      2806 9.51972E-05-2.82216E-05-2.87074E-05-6.40948E-07-9.62536E-20-2.41551E-18
 -1      2807 9.51035E-05-2.81644E-05-2.86860E-05-5.96715E-07 1.85076E-19-2.12051E-18
 -1      2808 9.50749E-05-2.78476E-05-2.88068E-05-1.10466E-06-3.28383E-19-1.48634E-18
 -1      2809 9.50975E-05-2.79921E-05-2.87651E-05-9.02539E-07 4.55104E-19-1.87415E-18
 -1      2810 9.49550E-05-2.79046E-05-2.87322E-05-8.14765E-07 5.06170E-21-1.37510E-18
 -1      2811 9.48163E-05-2.73850E-05-2.88930E-05-1.60652E-06-5.49159E-19-1.88157E-18
 -1      2812 9.48881E-05-2.76178E-05-2.88392E-05-1.30298E-06-4.60024E-19-1.37313E-18
 -1      2813 9.46746E-05-2.74873E-05-2.87875E-05-1.13874E-06-4.64430E-19-8.46279E-19
 -1      2814 9.43158E-05-2.66480E-05-2.89937E-05-2.33451E-06-7.86471E-19-1.88427E-18
 -1      2815 9.44838E-05-2.70197E-05-2.89276E-05-1.88773E-06-9.22104E-19-1.95796E-18
 -1      2816 9.41722E-05-2.68327E-05-2.88469E-05-1.59436E-06-6.42034E-19-1.58186E-18
 -1      2817 9.33910E-05-2.54894E-05-2.90949E-05-3.36319E-06-1.29125E-18-1.74612E-18
 -1      2818 9.37389E-05-2.60740E-05-2.90218E-05-2.72077E-06-5.66760E-19-1.63996E-18
 -1      2819 9.32956E-05-2.58151E-05-2.88973E-05-2.21117E-06-9.25337E-19-1.53627E-18
 -1      2820 9.17419E-05-2.37070E-05-2.91567E-05-4.76802E-06-1.24148E-19-1.06755E-18
 -1      2821 9.24124E-05-2.46044E-05-2.90957E-05-3.87255E-06-9.61819E-19-1.78264E-18
 -1      2822 9.18010E-05-2.42593E-05-2.89068E-05-3.00575E-06-9.95522E-19-1.68344E-18
 -1      2823 8.88998E-05-2.10589E-05-2.90846E-05-6.59936E-06 1.05030E-18-7.56765E-20
 -1      2824 9.01211E-05-2.23826E-05-2.90844E-05-5.40337E-06 5.84272E-19-5.98716E-19
 -1      2825 8.93109E-05-2.19425E-05-2.88051E-05-3.95710E-06-3.21148E-19-2.15723E-18
 -1      2826 8.41842E-05-1.73475E-05-2.86714E-05-8.84375E-06 3.68274E-19 5.02802E-19
 -1      2827 8.62869E-05-1.91698E-05-2.88436E-05-7.33442E-06 1.04281E-18 6.90147E-19
 -1      2828 8.52653E-05-1.86290E-05-2.84469E-05-4.96941E-06 5.61809E-19 3.20403E-19
 -1      2829 7.67308E-05-1.26725E-05-2.74850E-05-1.14120E-05 1.47415E-18-1.06659E-18
 -1      2830 8.01028E-05-1.48593E-05-2.80681E-05-9.62239E-06 9.23976E-19-3.45040E-19
 -1      2831 7.88823E-05-1.41859E-05-2.75400E-05-5.83689E-06 1.32645E-18-2.07732E-19
 -1      2832 6.56226E-05-8.04852E-06-2.46158E-05-1.43378E-05 2.13465E-18-1.25345E-18
 -1      2833 7.05660E-05-9.82260E-06-2.61309E-05-1.22179E-05 1.99850E-18-1.00408E-18
 -1      2834 6.91245E-05-8.87450E-06-2.55048E-05-6.25207E-06 1.64582E-18-7.61191E-19
 -1      2835 5.37358E-05-6.67147E-06-2.00134E-05-1.71785E-05 1.68279E-18-1.98725E-18
 -1      2836 5.85690E-05-6.29343E-06-2.24336E-05-1.51975E-05 2.43713E-18-1.62556E-18
 -1      2837 5.66595E-05-4.28615E-06-2.18542E-05-5.86277E-06 2.39867E-18-5.71456E-19
 -1      2838 9.72504E-05-3.04475E-05-2.85464E-05-1.36912E-05 3.30237E-19 1.41227E-18
 -1      2839 9.47353E-05-2.83957E-05-2.84966E-05-1.41128E-05-6.27340E-19 1.24610E-18
 -1      2840 9.20412E-05-1.66530E-05-3.23167E-05-9.03124E-06-2.20421E-18-3.02401E-18
 -1      2841 9.52758E-05-2.40978E-05-3.04870E-05-5.16307E-06-1.91019E-18-2.03138E-18
 -1      2842 9.51823E-05-2.50781E-05-3.00630E-05-3.67339E-06-1.70316E-18-1.94768E-18
 -1      2843 9.52282E-05-2.47583E-05-3.01937E-05-3.43066E-06-1.67109E-18-2.11582E-18
 -1      2844 9.45895E-05-2.23674E-05-3.09455E-05-5.69819E-06-1.95380E-18-2.38129E-18
 -1      2845 6.35216E-05-3.05044E-05-1.40474E-05 4.93565E-05 7.15743E-20-2.51569E-19
 -1      2846 4.69677E-05-1.96240E-05-1.10343E-05 4.07721E-05 1.20829E-18-6.79744E-19
 -1      2847 8.53557E-05-1.97994E-05-2.80071E-05-1.01535E-05-9.34403E-19-1.88827E-18
 -1      2848 8.30677E-05-1.79497E-05-2.80171E-05-7.03499E-06-3.74711E-19-2.43801E-18
 -1      2849 8.14050E-05-1.58035E-05-2.80816E-05-2.35997E-06-5.41255E-19-3.26583E-18
 -1      2850 8.11333E-05-1.52753E-05-2.82704E-05 1.70003E-06-1.15781E-18-1.35234E-18
 -1      2851 7.96132E-05-1.60023E-05-2.72071E-05-6.22083E-06-1.35190E-18-2.30457E-18
 -1      2852 9.15853E-05-2.54183E-05-2.82494E-05-1.39904E-05-8.41453E-19-3.98224E-19
 -1      2853 8.85988E-05-2.30875E-05-2.81862E-05-1.26858E-05-8.28413E-19-9.91743E-19
 -1      2854 9.32027E-05-2.81203E-05-2.79500E-05-1.62538E-05 6.09551E-19 5.60327E-19
 -1      2855 1.00823E-04-3.36735E-05-2.87330E-05-1.05705E-05 6.80750E-19 3.78523E-19
 -1      2856 9.93455E-05-3.23199E-05-2.87362E-05-1.20990E-05 5.69476E-19 1.32403E-18
 -1      2857 9.93944E-05-3.30538E-05-2.85010E-05-1.43974E-05 2.35423E-19 1.69017E-18
 -1      2858 1.02128E-04-3.49840E-05-2.87628E-05-6.29942E-06 5.84205E-20-1.62704E-18
 -1      2859 1.01675E-04-3.43756E-05-2.88169E-05-8.24247E-06 5.48022E-19-4.73723E-19
 -1      2860 1.02825E-04-3.56144E-05-2.88543E-05-1.01185E-05 5.79578E-19-3.60042E-19
 -1      2861 1.01750E-04-3.48782E-05-2.86675E-05-2.20916E-06-6.62735E-19-1.63206E-18
 -1      2862 1.02025E-04-3.48474E-05-2.87489E-05-4.02385E-06 9.06354E-19-2.41576E-18
 -1      2863 1.03644E-04-3.61232E-05-2.89640E-05-5.28020E-06 6.84449E-19-1.54984E-18
 -1      2864 1.00384E-04-3.39356E-05-2.84962E-05 1.13761E-06-1.28510E-18-6.63751E-19
 -1      2865 1.01082E-04-3.42819E-05-2.85858E-05-3.20726E-07-1.34914E-18-4.12297E-19
 -1      2866 1.02701E-04-3.53383E-05-2.88765E-05-9.89644E-07 3.64321E-19-2.02460E-18
 -1      2867 9.85423E-05-3.25741E-05-2.82936E-05 3.38528E-06-1.96170E-18 3.44991E-19
 -1      2868 9.94451E-05-3.31457E-05-2.83766E-05 2.44535E-06-1.02304E-18 7.32449E-19
 -1      2869 1.00793E-04-3.39121E-05-2.86607E-05 2.25770E-06-4.46531E-19 3.68924E-19
 -1      2870 7.18974E-05-1.10126E-05-2.61338E-05 1.87220E-05 7.77960E-19-2.03436E-18
 -1      2871 6.95642E-05-1.07815E-05-2.49267E-05 2.17563E-05 7.51037E-19-2.21737E-18
 -1      2872 2.57247E-05-5.66019E-06-8.06152E-06-4.25535E-06 1.35658E-19-4.67795E-18
 -1      2873 2.89752E-05-8.73088E-06-7.95616E-06-2.06952E-05 1.04550E-18-2.39075E-18
 -1      2874 4.82930E-05-1.16446E-05-1.46508E-05-2.54633E-05 1.88571E-19-3.71085E-18
 -1      2875 9.11393E-05-1.60389E-05-3.22133E-05 4.90311E-06 1.97673E-18-2.88587E-18
 -1      2876 9.07985E-05-1.55463E-05-3.22727E-05 3.97951E-06 1.60772E-18-3.18095E-18
 -1      2877 9.17785E-05-1.71593E-05-3.19643E-05 3.18654E-06 1.42318E-18-3.02098E-18
 -1      2878 9.24463E-05-1.82088E-05-3.17943E-05 4.61737E-06 1.95961E-18-2.50565E-18
 -1      2879 8.10934E-05-1.49994E-05-2.84289E-05 1.46994E-05 5.96169E-19-8.74343E-19
 -1      2880 7.84750E-05-1.34542E-05-2.78022E-05 1.69729E-05 6.84039E-19-8.86307E-19
 -1      2881 6.89057E-05-8.95544E-06-2.53588E-05 1.27524E-05 3.02576E-19-2.01423E-18
 -1      2882 1.06433E-04-5.20784E-05-2.35199E-05 4.58582E-05-6.98802E-21-8.93779E-19
 -1      2883 8.53039E-05-4.16512E-05-1.80354E-05 4.88739E-05-2.23723E-19-3.82329E-19
 -1      2884 1.33310E-04-4.69470E-06-5.57697E-05 3.39030E-06 2.46063E-19-3.92494E-19
 -1      2885 1.32975E-04-4.46516E-06-5.57129E-05-3.07887E-06 2.98367E-19-4.26111E-19
 -1      2886 9.07826E-05-1.55237E-05-3.22749E-05-3.94421E-06-7.51951E-19-3.45259E-18
 -1      2887 9.11202E-05-1.60116E-05-3.22161E-05-4.86551E-06-1.07840E-18-3.46627E-18
 -1      2888 1.40220E-04-1.89599E-05-5.25751E-05 1.06824E-05 2.79097E-19-8.20669E-19
 -1      2889 1.36261E-04-1.02729E-05-5.47601E-05 8.45222E-06 3.44954E-19-9.17390E-19
 -1      2890 1.11819E-04-5.51132E-05-2.38492E-05-4.40465E-05 2.36767E-18 2.37581E-18
 -1      2891 1.26826E-04-5.93274E-05-2.90909E-05-3.55883E-05 1.46780E-18 1.84624E-18
 -1      2892 1.37137E-04-5.98248E-05-3.35393E-05 2.66227E-05-5.76194E-19 1.00299E-18
 -1      2893 1.25502E-04-5.81622E-05-2.84779E-05 3.48414E-05-4.20975E-19-1.08526E-20
 -1      2894 1.47927E-04-5.03124E-05-4.25492E-05 4.22930E-06-9.90393E-19 3.87518E-20
 -1      2895 1.44299E-04-5.63609E-05-3.76465E-05 1.47636E-05-6.72359E-19-1.01644E-20
 -1      2896 1.39270E-04-5.74408E-05-3.50267E-05 1.58276E-05 1.07388E-19 8.64768E-19
 -1      2897 1.44586E-04-2.86396E-05-5.05074E-05-9.53618E-06-9.98440E-19 3.98847E-19
 -1      2898 1.47754E-04-3.92297E-05-4.66491E-05-5.34745E-06-1.19273E-18-8.66091E-20
 -1      2899 8.78820E-05-1.86301E-05-2.96926E-05 1.26486E-05 1.50346E-18 1.78479E-19
 -1      2900 3.43518E-05-1.03878E-05-9.73571E-06 2.99973E-05 1.11120E-18-1.15747E-18
 -1      2901 2.81210E-05-5.26520E-06-9.15804E-06 1.53330E-05 1.03372E-18-1.09458E-18
 -1      2902 9.49813E-05-2.78674E-05-2.87662E-05-4.18106E-07 1.08469E-18-1.21870E-18
 -1      2903 9.50619E-05-2.76380E-05-2.88798E-05-5.54633E-08 1.17292E-18-1.10662E-18
 -1      2904 9.53596E-05-2.79123E-05-2.89128E-05-4.25231E-07 1.02427E-18-1.51326E-18
 -1      2905 1.35394E-04-9.61364E-06-5.46816E-05-8.22685E-06-4.51892E-19-6.87261E-19
 -1      2906 1.39276E-04-1.71306E-05-5.27661E-05-1.11465E-05-8.92349E-19-6.07746E-19
 -1      2907 7.52969E-05-3.82658E-05-1.53393E-05-5.02994E-05 6.82920E-19 5.88370E-19
 -1      2908 9.36750E-05-4.77303E-05-1.96583E-05-5.04472E-05 1.35991E-18 1.58660E-18
 -1      2909 5.83125E-05-1.48785E-05-1.80128E-05 2.91082E-05-7.76412E-19-1.62503E-18
 -1      2910 3.14037E-05-6.13143E-06-1.03777E-05-1.13669E-05 6.91708E-19-2.06507E-18
 -1      2911 4.69155E-05-6.20347E-06-1.70929E-05-1.56835E-05 1.10559E-18-2.05268E-18
 -1      2912 4.25584E-05-1.67808E-06-1.66279E-05-2.98008E-06 2.00642E-18-1.64801E-18
 -1      2913 2.80713E-05-3.23662E-06-9.66716E-06 5.00925E-06 1.33183E-18-1.12232E-18
 -1      2914 9.52404E-05-2.56782E-05-2.98186E-05 3.07776E-06 1.79607E-18-9.02193E-19
 -1      2915 9.53459E-05-2.49979E-05-3.01426E-05 4.22179E-06 2.15194E-18-9.27260E-19
 -1      2916 9.50843E-05-2.39720E-05-3.04616E-05 4.68294E-06 2.17971E-18-1.26182E-18
 -1      2917 9.12603E-05-1.63625E-05-3.20870E-05 1.49078E-08 4.13672E-19-3.26420E-18
 -1      2918 9.01398E-05-1.45754E-05-3.24041E-05-3.99122E-07 3.05897E-19-3.47885E-18
 -1      2919 9.01991E-05-1.46585E-05-3.23941E-05-1.35564E-06 7.97213E-20-3.52133E-18
 -1      2920 9.03269E-05-1.48520E-05-3.23664E-05-2.19157E-06-1.10487E-19-3.29861E-18
 -1      2921 9.05142E-05-1.51181E-05-3.23344E-05-3.14104E-06-5.28011E-19-3.35807E-18
 -1      2922 9.17632E-05-1.71393E-05-3.19667E-05-3.15365E-06-6.31113E-19-3.14918E-18
 -1      2923 9.13833E-05-1.65512E-05-3.20582E-05-1.59539E-06-8.99203E-20-3.19848E-18
 -1      2924 1.36155E-04-2.37610E-05-4.85647E-05-1.16649E-05-3.89212E-19 4.87150E-19
 -1      2925 3.59211E-05-4.01293E-06-1.31079E-05 1.04843E-05 1.65781E-18-1.42810E-18
 -1      2926 9.28210E-05-1.84231E-05-3.18830E-05-7.47800E-06-1.89224E-18-3.01520E-18
 -1      2927 9.15489E-05-1.66562E-05-3.21161E-05-5.59127E-06-1.28687E-18-3.50409E-18
 -1      2928 9.20296E-05-1.73604E-05-3.20249E-05-6.42172E-06-1.60022E-18-3.39987E-18
 -1      2929 9.24156E-05-1.81692E-05-3.17992E-05-4.58605E-06-1.11778E-18-3.25944E-18
 -1      2930 8.56322E-05-2.16764E-05-2.74007E-05-1.37786E-05-8.70872E-19-2.41097E-18
 -1      2931 8.25583E-05-1.57194E-05-2.87483E-05 5.79130E-06-7.94664E-19-1.67355E-18
 -1      2932 8.45487E-05-1.66995E-05-2.90707E-05 8.03333E-06 8.22042E-19-1.37683E-18
 -1      2933 7.86968E-05-1.40338E-05-2.77381E-05 2.77242E-06-1.10049E-18-2.26230E-18
 -1      2934 5.32164E-05-5.86544E-06-1.96967E-05 1.65079E-05 4.29869E-20-2.29636E-18
 -1      2935 6.05496E-05-1.03720E-05-2.12215E-05 2.58874E-05 2.63004E-19-1.77506E-18
 -1      2936 7.97647E-05-3.52741E-05-1.85799E-05 4.54136E-05 9.57888E-19-2.76874E-19
 -1      2937 9.72948E-05-3.16190E-05-2.81298E-05 4.08488E-06-1.43021E-18-1.33340E-19
 -1      2938 9.54180E-05-2.72813E-05-2.92093E-05 3.85318E-07 1.31925E-18-1.46031E-18
 -1      2939 3.73534E-05-1.12629E-05-1.04061E-05-2.70025E-05 1.32201E-18-1.26674E-18
 -1      2940 4.67992E-05-1.43615E-05-1.35850E-05-3.26996E-05 3.64648E-19-1.80916E-18
 -1      2941 3.92753E-05-6.79776E-06-1.33646E-05-1.93235E-05-4.40987E-20-3.19077E-18
 -1      2942 6.78038E-05-3.19064E-05-1.49345E-05-4.74848E-05 4.07952E-19 1.04291E-18
 -1      2943 7.95850E-05-3.56038E-05-1.87749E-05-4.53161E-05-3.45325E-19 2.43501E-18
 -1      2944 6.05226E-05-2.34182E-05-1.52025E-05-4.17110E-05 4.31087E-19-1.29173E-20
 -1      2945 1.34910E-04-6.04666E-05-3.17598E-05-2.73420E-05 5.71747E-19-1.77877E-19
 -1      2946 1.38732E-04-5.87341E-05-3.45651E-05-1.76201E-05-2.29361E-19-1.49215E-18
 -1      2947 1.26691E-04-5.81735E-05-2.92924E-05-3.03387E-05 9.68847E-19 1.07479E-18
 -1      2948 1.43790E-04-4.48729E-05-4.25717E-05-3.05960E-06-6.93985E-19 6.39298E-19
 -1      2949 1.49452E-04-4.94071E-05-4.31214E-05-3.15264E-06-5.40301E-19-9.02937E-19
 -1      2950 1.45119E-04-4.41368E-05-4.37358E-05 4.46901E-06-7.61853E-19-1.71905E-18
 -1      2951 1.44632E-04-5.33944E-05-3.91413E-05-6.35169E-06-8.72748E-19-2.19752E-18
 -1      2952 1.05165E-04-5.05764E-05-2.30453E-05-4.38069E-05 8.73820E-19 1.72324E-18
 -1      2953 1.41271E-04-2.54999E-05-5.01514E-05 1.08298E-05-3.64224E-20-1.00712E-18
 -1      2954 1.31925E-04-2.00837E-05-4.82558E-05 1.28347E-05-2.52098E-19-6.46339E-19
 -1      2955 1.39956E-04-3.16496E-05-4.68490E-05 1.01386E-05-5.27066E-19-7.48407E-19
 -1      2956 3.59411E-05-4.87700E-06-1.27854E-05 4.28438E-06-7.45257E-19-4.14580E-18
 -1      2957 4.74218E-05-1.43559E-05-1.35430E-05 3.32061E-05 1.35398E-18-9.33960E-19
 -1      2958 9.82636E-05-3.21145E-05-2.83449E-05 4.32051E-06-1.36573E-18 8.00355E-20
 -1      2959 1.28045E-04-8.69772E-06-5.16277E-05 6.32114E-06 2.83968E-19 5.41889E-19
 -1      2960 8.39695E-05-1.63027E-05-2.89178E-05 1.21392E-05 4.29294E-19-1.66993E-18
 -1      2961 7.76501E-05-1.29259E-05-2.76264E-05 9.13317E-06 6.60206E-20-3.36871E-18
 -1      2962 1.16575E-04-5.41423E-05-2.65776E-05 3.66328E-05 4.72221E-19 4.84820E-19
 -1      2963 1.27447E-04-8.11029E-06-5.16123E-05-6.06539E-06-3.51519E-20-6.29954E-19
 -1      2964 9.51763E-05-2.66101E-05-2.93880E-05 1.56781E-06 1.30335E-18-8.83669E-19
 -1      2965 9.53207E-05-2.61846E-05-2.96138E-05 2.38198E-06 1.49902E-18-8.96819E-19
 -1      2966 9.53334E-05-2.55891E-05-2.99056E-05 2.77249E-06 1.60605E-18-1.20695E-18
 -1      2967 9.54072E-05-2.64833E-05-2.95489E-05 1.45874E-06 1.37997E-18-1.26612E-18
 -1      2968 9.49064E-05-2.32409E-05-3.07189E-05 4.92877E-06 2.22602E-18-1.53269E-18
 -1      2969 9.44088E-05-2.21568E-05-3.09747E-05 5.12798E-06 2.25465E-18-1.65422E-18
 -1      2970 9.51167E-05-2.42154E-05-3.03713E-05 3.80070E-06 1.99114E-18-1.49321E-18
 -1      2971 9.39642E-05-2.12439E-05-3.11662E-05 4.78143E-06 2.03398E-18-1.89827E-18
 -1      2972 1.27123E-04-1.93926E-05-4.67419E-05-1.28005E-05-4.33046E-19 2.28328E-19
 -1      2973 1.33185E-04-2.89441E-05-4.47619E-05-1.30632E-05-5.10655E-19 6.44857E-19
 -1      2974 9.55669E-05-2.86559E-05-2.86769E-05-1.05377E-06 4.21627E-19-9.36412E-19
 -1      2975 9.55904E-05-2.85418E-05-2.87298E-05-9.79739E-07 5.89128E-19-1.11920E-18
 -1      2976 6.88322E-05-9.52218E-06-2.54949E-05 5.39416E-06 1.92978E-19-2.67985E-18
 -1      2977 6.22053E-05-7.13003E-06-2.36189E-05 5.67547E-06-6.49860E-19-2.74563E-18
 -1      2978 9.56514E-05-2.72777E-05-2.93112E-05 2.57046E-07 1.17558E-18-1.57638E-18
 -1      2979 9.56820E-05-2.68247E-05-2.94946E-05 7.91639E-07 1.28353E-18-1.53680E-18
 -1      2980 9.56774E-05-2.68710E-05-2.94741E-05-7.39286E-07-9.84211E-19-1.87825E-18
 -1      2981 9.56535E-05-2.73192E-05-2.92943E-05-2.12174E-07-8.53319E-19-1.76027E-18
 -1      2982 9.56970E-05-2.77049E-05-2.91282E-05 1.69928E-07-9.85198E-19-1.51473E-18
 -1      2983 9.56598E-05-2.79917E-05-2.90053E-05 4.86671E-07-9.29820E-19-1.69428E-18
 -1      2984 9.58900E-05-2.73202E-05-2.93902E-05-1.56107E-07-8.44312E-19-1.83240E-18
 -1      2985 9.56516E-05-2.82304E-05-2.88869E-05 7.09803E-07-6.82466E-19-1.70066E-18
 -1      2986 9.56192E-05-2.84117E-05-2.88055E-05 8.79081E-07-6.16227E-19-1.51882E-18
 -1      2987 9.59305E-05-2.80452E-05-2.90973E-05 4.82343E-07-8.44999E-19-1.61738E-18
 -1      2988 9.55867E-05-2.85537E-05-2.87232E-05 9.89263E-07-4.30020E-19-1.39012E-18
 -1      2989 9.55635E-05-2.86647E-05-2.86716E-05 1.05938E-06-3.53834E-19-1.20761E-18
 -1      2990 9.58957E-05-2.84972E-05-2.88885E-05 8.42448E-07-5.13304E-19-1.70697E-18
 -1      2991 9.55213E-05-2.87429E-05-2.86162E-05 1.09343E-06-4.53508E-19-9.14028E-19
 -1      2992 9.55067E-05-2.88067E-05-2.85855E-05 1.09994E-06-5.25066E-19-8.90314E-19
 -1      2993 9.58266E-05-2.87655E-05-2.87434E-05 1.00736E-06-2.30646E-19-1.52456E-18
 -1      2994 9.54627E-05-2.88427E-05-2.85498E-05 1.08578E-06-5.86792E-19-7.45641E-19
 -1      2995 9.54547E-05-2.88748E-05-2.85335E-05 1.05410E-06-5.25259E-19-6.62991E-19
 -1      2996 9.57450E-05-2.89104E-05-2.86458E-05 1.04270E-06-3.38855E-19-1.33167E-18
 -1      2997 9.54127E-05-2.88836E-05-2.85118E-05 1.01202E-06-7.24362E-19-5.80962E-19
 -1      2998 9.54094E-05-2.88946E-05-2.85053E-05 9.59886E-07-7.80938E-19-7.93933E-19
 -1      2999 9.56626E-05-2.89734E-05-2.85830E-05 9.97714E-07-7.17462E-19-9.71213E-19
 -1      3000 9.53713E-05-2.88865E-05-2.84935E-05 9.04070E-07-7.71064E-19-5.58050E-19
 -1      3001 9.53709E-05-2.88840E-05-2.84933E-05 8.43502E-07-2.81322E-19-8.86832E-19
 -1      3002 9.55853E-05-2.89835E-05-2.85451E-05 9.07830E-07-6.52568E-19-4.47986E-19
 -1      3003 9.53375E-05-2.88659E-05-2.84882E-05 7.83537E-07-1.68222E-19-1.00987E-18
 -1      3004 9.53388E-05-2.88552E-05-2.84919E-05 7.22419E-07-3.91351E-19-1.07832E-18
 -1      3005 9.55158E-05-2.89607E-05-2.85248E-05 7.97615E-07-3.36662E-19-3.84806E-19
 -1      3006 9.53101E-05-2.88319E-05-2.84913E-05 6.64503E-07-6.73212E-19-1.33522E-18
 -1      3007 9.53124E-05-2.88165E-05-2.84972E-05 6.07756E-07-6.87290E-19-1.66665E-18
 -1      3008 9.54550E-05-2.89188E-05-2.85164E-05 6.83484E-07-7.28218E-19-1.41693E-18
 -1      3009 9.52880E-05-2.87911E-05-2.84994E-05 5.55671E-07-7.60057E-19-1.97555E-18
 -1      3010 9.52908E-05-2.87736E-05-2.85064E-05 5.06130E-07-1.06299E-18-1.92881E-18
 -1      3011 9.54030E-05-2.88672E-05-2.85160E-05 5.75911E-07-9.90239E-19-1.86912E-18
 -1      3012 9.52705E-05-2.87484E-05-2.85102E-05 4.61974E-07-1.04596E-18-1.50677E-18
 -1      3013 9.52734E-05-2.87307E-05-2.85174E-05 4.21011E-07-9.35619E-19-1.33054E-18
 -1      3014 9.53590E-05-2.88123E-05-2.85205E-05 4.81158E-07-7.20246E-19-1.66453E-18
 -1      3015 9.52568E-05-2.87070E-05-2.85221E-05 3.85719E-07-8.62125E-19-1.00670E-18
 -1      3016 9.52602E-05-2.86905E-05-2.85291E-05 3.53659E-07-6.80057E-19-5.87123E-19
 -1      3017 9.53226E-05-2.87584E-05-2.85278E-05 4.02552E-07-8.11458E-19-1.16504E-18
 -1      3018 9.52472E-05-2.86698E-05-2.85338E-05 3.27345E-07-7.72830E-19-4.78868E-19
 -1      3019 9.52514E-05-2.86560E-05-2.85402E-05 3.03693E-07-2.71547E-19-9.15416E-19
 -1      3020 9.52932E-05-2.87090E-05-2.85363E-05 3.41382E-07-6.74989E-19-8.41669E-19
 -1      3021 9.52425E-05-2.86397E-05-2.85446E-05 2.85825E-07 1.19067E-21-8.43112E-19
 -1      3022 9.52485E-05-2.86305E-05-2.85499E-05 2.69312E-07 6.41581E-20-1.06830E-18
 -1      3023 9.52713E-05-2.86675E-05-2.85448E-05 2.97453E-07-3.30410E-19-9.16893E-19
 -1      3024 9.52450E-05-2.86210E-05-2.85535E-05 2.58728E-07 1.19047E-19-1.01217E-18
 -1      3025 9.52544E-05-2.86191E-05-2.85575E-05 2.47189E-07 4.65890E-19-1.04439E-18
 -1      3026 9.52588E-05-2.86379E-05-2.85521E-05 2.69312E-07 1.07630E-19-6.45805E-19
 -1      3027 9.52591E-05-2.86197E-05-2.85598E-05 2.41934E-07 4.07720E-19-1.09757E-18
 -1      3028 9.52746E-05-2.86289E-05-2.85621E-05 2.31992E-07 5.29121E-19-1.29066E-18
 -1      3029 9.52596E-05-2.86267E-05-2.85574E-05 2.54154E-07 1.93745E-19-1.07977E-18
 -1      3030 9.52920E-05-2.86449E-05-2.85626E-05 2.28954E-07 3.85038E-19-1.60394E-18
 -1      3031 9.53175E-05-2.86710E-05-2.85627E-05 2.15513E-07 1.36926E-19-1.86361E-18
 -1      3032 9.52808E-05-2.86431E-05-2.85598E-05 2.47363E-07 4.22365E-19-7.69477E-19
 -1      3033 9.53549E-05-2.87098E-05-2.85610E-05 2.09810E-07-3.07423E-19-1.49524E-18
 -1      3034 9.53960E-05-2.87606E-05-2.85582E-05 1.85339E-07-8.97359E-19-1.06316E-18
 -1      3035 9.53341E-05-2.87011E-05-2.85583E-05 2.41610E-07 2.37000E-19-1.59650E-18
 -1      3036 9.54637E-05-2.88323E-05-2.85541E-05 1.69418E-07-9.67548E-19-4.47614E-19
 -1      3037 9.55277E-05-2.89175E-05-2.85479E-05 1.23072E-07-6.65275E-19-1.88599E-19
 -1      3038 9.54369E-05-2.88199E-05-2.85523E-05 2.25406E-07-5.39140E-19-7.22850E-19
 -1      3039 9.56402E-05-2.90349E-05-2.85414E-05 8.54723E-08-6.88816E-19-3.93315E-19
 -1      3040 9.57359E-05-2.91655E-05-2.85317E-05 2.16748E-09-3.23294E-19-3.91202E-19
 -1      3041 9.56141E-05-2.90246E-05-2.85417E-05 1.81008E-07-6.33139E-19 6.93096E-20
 -1      3042 9.59109E-05-2.93423E-05-2.85237E-05-7.39789E-08 1.73031E-19-1.00861E-19
 -1      3043 9.60472E-05-2.95286E-05-2.85108E-05-2.14259E-07 2.85050E-19 6.18725E-20
 -1      3044 9.58975E-05-2.93444E-05-2.85276E-05 8.16248E-08-3.86181E-20-6.37121E-19
 -1      3045 9.63040E-05-2.97766E-05-2.85035E-05-3.52721E-07 2.30768E-19 5.46798E-19
 -1      3046 9.64871E-05-3.00234E-05-2.84891E-05-5.74804E-07 6.94508E-20 6.28429E-19
 -1      3047 9.63246E-05-2.98087E-05-2.85136E-05-1.11844E-07 5.77760E-19 5.34243E-19
 -1      3048 9.68420E-05-3.03468E-05-2.84869E-05-8.07007E-07-2.63953E-19 1.03070E-18
 -1      3049 9.70702E-05-3.06463E-05-2.84746E-05-1.13855E-06 8.17250E-20 1.30121E-18
 -1      3050 9.69321E-05-3.04364E-05-2.85067E-05-4.53704E-07 3.13986E-19 1.18050E-18
 -1      3051 9.75278E-05-3.10316E-05-2.84848E-05-1.50198E-06-1.69488E-19 1.75001E-18
 -1      3052 9.77840E-05-3.13528E-05-2.84808E-05-1.96795E-06-1.21498E-19 1.87954E-18
 -1      3053 9.77427E-05-3.12196E-05-2.85197E-05-1.01382E-06-6.69908E-20 1.58823E-18
 -1      3054 9.83241E-05-3.17559E-05-2.85145E-05-2.49928E-06-7.35294E-19 1.93659E-18
 -1      3055 9.85670E-05-3.20334E-05-2.85279E-05-3.11071E-06-6.27394E-19 1.67703E-18
 -1      3056 9.87438E-05-3.20971E-05-2.85724E-05-1.87099E-06-3.38938E-19 2.09756E-18
 -1      3057 9.91280E-05-3.23663E-05-2.85992E-05-3.82945E-06 2.80206E-19 1.68888E-18
 -1      3058 9.92872E-05-3.24928E-05-2.86412E-05-4.56472E-06 1.11559E-18 1.64545E-18
 -1      3059 9.98568E-05-3.29235E-05-2.86921E-05-3.09178E-06-7.85174E-20 1.90491E-18
 -1      3060 9.97543E-05-3.26190E-05-2.87657E-05-5.44374E-06 1.11532E-18 1.45824E-18
 -1      3061 9.97353E-05-3.24546E-05-2.88472E-05-6.22377E-06 2.68418E-19 1.29594E-18
 -1      3062 1.00907E-04-3.34453E-05-2.89115E-05-4.68557E-06 5.69322E-19 2.12747E-18
 -1      3063 9.99484E-05-3.22083E-05-2.90367E-05-7.14972E-06-4.09825E-20 8.22158E-19
 -1      3064 9.96597E-05-3.16195E-05-2.91639E-05-7.81637E-06 1.38357E-19 1.90904E-19
 -1      3065 1.01616E-04-3.33141E-05-2.92611E-05-6.53148E-06-2.91244E-20 5.93537E-19
 -1      3066 9.94595E-05-3.08653E-05-2.94185E-05-8.55790E-06-3.46644E-19 4.38550E-19
 -1      3067 9.88632E-05-2.98005E-05-2.95864E-05-8.87639E-06-3.82315E-19-6.53799E-20
 -1      3068 1.01653E-04-3.21718E-05-2.97553E-05-8.29634E-06 1.13853E-19 9.90015E-20
 -1      3069 9.81868E-05-2.85360E-05-2.98854E-05-9.09794E-06-2.03237E-19-5.82999E-19
 -1      3070 9.73597E-05-2.71220E-05-3.00724E-05-8.81127E-06-3.13380E-19-5.73078E-19
 -1      3071 1.00779E-04-2.98445E-05-3.03730E-05-9.39805E-06-7.71822E-19 3.51523E-20
 -1      3072 9.63563E-05-2.55876E-05-3.03688E-05-8.18682E-06-6.43420E-19-5.50341E-19
 -1      3073 9.55155E-05-2.41740E-05-3.05364E-05-7.14142E-06-8.46624E-19-6.43389E-19
 -1      3074 9.90640E-05-2.65919E-05-3.10405E-05-9.11399E-06-6.50672E-19-4.64649E-19
 -1      3075 9.45617E-05-2.28422E-05-3.07631E-05-5.57145E-06-4.87786E-19-3.75623E-19
 -1      3076 9.39886E-05-2.18917E-05-3.08675E-05-3.85186E-06 3.92663E-20-5.28680E-19
 -1      3077 9.70528E-05-2.32564E-05-3.16293E-05-6.94493E-06-7.83117E-19-7.95913E-19
 -1      3078 9.35320E-05-2.12826E-05-3.09624E-05-1.59888E-06 1.43369E-20-3.39175E-19
 -1      3079 9.34537E-05-2.11691E-05-3.09723E-05 4.31016E-07 3.35745E-19-1.81468E-18
 -1      3080 9.55913E-05-2.09901E-05-3.19921E-05-3.00867E-06 2.73859E-19-9.55008E-19
 -1      3081 9.37157E-05-2.15374E-05-3.09093E-05 2.75143E-06 6.60654E-19-2.10235E-18
 -1      3082 9.41491E-05-2.22909E-05-3.08198E-05 4.58380E-06 9.11553E-20-2.75787E-18
 -1      3083 9.53949E-05-2.07064E-05-3.20284E-05 1.74125E-06-3.21633E-19-1.55482E-18
 -1      3084 9.49834E-05-2.34719E-05-3.06099E-05 6.33993E-06 2.53078E-19-2.27126E-18
 -1      3085 9.57363E-05-2.47843E-05-3.04458E-05 7.55513E-06 1.20660E-18-2.14519E-18
 -1      3086 9.65346E-05-2.25294E-05-3.17224E-05 5.96079E-06 9.10540E-19-1.59670E-18
 -1      3087 9.66933E-05-2.62670E-05-3.01511E-05 8.38447E-06 1.42269E-18-2.09594E-18
 -1      3088 9.74742E-05-2.76602E-05-2.99569E-05 8.84556E-06 1.55095E-18-1.47917E-18
 -1      3089 9.83856E-05-2.56475E-05-3.11541E-05 8.53757E-06 1.97079E-18-1.26470E-18
 -1      3090 9.81408E-05-2.89425E-05-2.96432E-05 8.79323E-06 1.50643E-18-8.63108E-19
 -1      3091 9.87063E-05-3.00348E-05-2.94556E-05 8.61846E-06 1.16792E-18-1.94248E-18
 -1      3092 1.00055E-04-2.88770E-05-3.04750E-05 9.19750E-06 2.00480E-18-1.82919E-18
 -1      3093 9.88800E-05-3.08304E-05-2.91681E-05 7.99179E-06 9.83584E-19-1.24604E-18
 -1      3094 9.91255E-05-3.14659E-05-2.90071E-05 7.43427E-06 4.36961E-19-1.20370E-18
 -1      3095 1.00902E-04-3.12929E-05-2.98077E-05 8.36060E-06 1.67210E-18-1.27325E-18
 -1      3096 9.88518E-05-3.17683E-05-2.87655E-05 6.58101E-06 2.74552E-19-4.48343E-19
 -1      3097 9.88328E-05-3.20159E-05-2.86363E-05 5.88355E-06 6.25151E-19 4.76871E-19
 -1      3098 1.00783E-04-3.25589E-05-2.92219E-05 6.75678E-06 7.70590E-19-9.84415E-20
 -1      3099 9.85260E-05-3.21535E-05-2.84473E-05 4.79348E-06-4.59115E-19-9.37129E-20
 -1      3100 9.55104E-05-2.88025E-05-2.85889E-05-1.09931E-06 3.69782E-19-6.20157E-19
 -1      3101 9.55255E-05-2.87371E-05-2.86204E-05-1.09074E-06 3.55682E-19-7.96127E-19
 -1      3102 9.58313E-05-2.87567E-05-2.87493E-05-1.00252E-06 2.57625E-19-9.48009E-19
 -1      3103 4.01736E-05-2.63277E-06-1.58304E-05 5.61620E-06 2.47624E-18-1.06790E-18
 -1      3104 4.73970E-05-3.36651E-06-1.86500E-05 2.03469E-06 2.69780E-18-1.15144E-18
 -1      3105 4.17168E-05-4.64109E-06-1.53317E-05 1.64220E-05 2.36129E-18-6.42686E-20
 -1      3106 9.56219E-05-2.83957E-05-2.88136E-05-8.64954E-07 6.61643E-19-1.20912E-18
 -1      3107 9.56546E-05-2.82100E-05-2.88967E-05-6.89692E-07 7.80860E-19-1.26081E-18
 -1      3108 9.58988E-05-2.84803E-05-2.88971E-05-8.29591E-07 5.48548E-19-1.11840E-18
 -1      3109 9.54612E-05-2.88720E-05-2.85375E-05-1.06010E-06 2.34698E-20-4.36494E-19
 -1      3110 9.54686E-05-2.88391E-05-2.85538E-05-1.08830E-06 3.37443E-19-4.06941E-19
 -1      3111 9.57529E-05-2.89052E-05-2.86516E-05-1.04342E-06 2.80533E-19-7.54025E-19
 -1      3112 9.54165E-05-2.88969E-05-2.85074E-05-9.69289E-07-4.65514E-19-3.18231E-19
 -1      3113 9.54197E-05-2.88840E-05-2.85146E-05-1.02027E-06-1.81960E-19-4.06935E-19
 -1      3114 9.56731E-05-2.89721E-05-2.85881E-05-1.00392E-06-5.94257E-20-6.12227E-19
 -1      3115 9.53787E-05-2.88897E-05-2.84942E-05-8.53847E-07-2.98313E-20-4.21186E-19
 -1      3116 9.53786E-05-2.88907E-05-2.84948E-05-9.14188E-07-3.61793E-19-5.16818E-19
 -1      3117 9.55964E-05-2.89875E-05-2.85482E-05-9.17129E-07-1.79943E-19-7.17008E-19
 -1      3118 9.53479E-05-2.88631E-05-2.84923E-05-7.32336E-07 1.57928E-19-6.87676E-19
 -1      3119 9.53457E-05-2.88728E-05-2.84888E-05-7.93803E-07 3.48736E-19-4.27431E-19
 -1      3120 9.55277E-05-2.89682E-05-2.85267E-05-8.08010E-07 1.63353E-19-1.03391E-18
 -1      3121 9.53232E-05-2.88256E-05-2.84979E-05-6.16663E-07 9.54648E-20-4.51929E-19
 -1      3122 9.53198E-05-2.88405E-05-2.84918E-05-6.73933E-07 1.92170E-20-5.66397E-19
 -1      3123 9.54681E-05-2.89285E-05-2.85179E-05-6.93806E-07 6.28393E-20-1.04592E-18
 -1      3124 9.53037E-05-2.87824E-05-2.85081E-05-5.14269E-07 4.93022E-20-1.56160E-19
 -1      3125 9.52997E-05-2.88002E-05-2.85005E-05-5.64035E-07 3.24286E-19-4.41652E-19
 -1      3126 9.54175E-05-2.88776E-05-2.85178E-05-5.85723E-07 1.91658E-19-4.58013E-19
 -1      3127 9.52882E-05-2.87362E-05-2.85213E-05-4.29711E-07 6.27055E-19-7.90175E-19
 -1      3128 9.52840E-05-2.87559E-05-2.85129E-05-4.69926E-07 1.28565E-19-3.95720E-19
 -1      3129 9.53750E-05-2.88211E-05-2.85236E-05-4.90792E-07 2.78226E-19-6.41379E-19
 -1      3130 9.52751E-05-2.86876E-05-2.85366E-05-3.65878E-07 6.01062E-19-5.61901E-19
 -1      3131 9.52712E-05-2.87089E-05-2.85275E-05-3.95156E-07 8.40158E-19-6.16985E-19
 -1      3132 9.53387E-05-2.87617E-05-2.85334E-05-4.13306E-07 5.55398E-19-9.89018E-19
 -1      3133 9.52623E-05-2.86349E-05-2.85537E-05-3.24975E-07 7.50152E-19-3.36609E-19
 -1      3134 9.52593E-05-2.86589E-05-2.85440E-05-3.42097E-07 6.45086E-19-4.54866E-19
 -1      3135 9.53063E-05-2.86993E-05-2.85461E-05-3.55936E-07 6.15966E-19-5.68886E-19
 -1      3136 9.52463E-05-2.85744E-05-2.85727E-05-3.09343E-07 8.57483E-19-1.13469E-18
 -1      3137 9.52455E-05-2.86029E-05-2.85621E-05-3.12812E-07 1.16733E-18-5.25731E-19
 -1      3138 9.52740E-05-2.86314E-05-2.85611E-05-3.20575E-07 9.98670E-19-6.69669E-19
 -1      3139 9.52213E-05-2.84988E-05-2.85944E-05-3.22184E-07 1.20452E-18-1.25961E-18
 -1      3140 9.52249E-05-2.85357E-05-2.85823E-05-3.09797E-07 7.79651E-19-1.19725E-18
 -1      3141 9.52363E-05-2.85528E-05-2.85784E-05-3.08978E-07 1.08817E-18-1.40884E-18
 -1      3142 9.51778E-05-2.83967E-05-2.86195E-05-3.68220E-07 8.69685E-19-1.36552E-18
 -1      3143 9.51900E-05-2.84480E-05-2.86053E-05-3.36620E-07 1.04909E-18-1.20322E-18
 -1      3144 9.51847E-05-2.84540E-05-2.85982E-05-3.23184E-07 9.46352E-19-1.75054E-18
 -1      3145 9.50993E-05-2.82497E-05-2.86490E-05-4.54189E-07 7.65394E-19-1.75102E-18
 -1      3146 9.51279E-05-2.83249E-05-2.86321E-05-3.98448E-07 1.00043E-18-1.63848E-18
 -1      3147 9.51056E-05-2.83207E-05-2.86208E-05-3.65662E-07 1.07215E-18-1.28748E-18
 -1      3148 9.49685E-05-2.80429E-05-2.86819E-05-5.81035E-07 6.88195E-20-1.28330E-18
 -1      3149 9.50215E-05-2.81498E-05-2.86625E-05-4.99709E-07 3.69787E-19-1.54961E-18
 -1      3150 9.49813E-05-2.81356E-05-2.86455E-05-4.36575E-07 3.48656E-19-1.18153E-18
 -1      3151 9.47298E-05-2.77140E-05-2.87211E-05-7.72663E-07-3.25237E-19-1.19128E-18
 -1      3152 9.48350E-05-2.78860E-05-2.86972E-05-6.48185E-07 1.02467E-20-1.52277E-18
 -1      3153 9.47772E-05-2.78650E-05-2.86723E-05-5.39212E-07 1.00525E-19-8.34563E-19
 -1      3154 9.43154E-05-2.72077E-05-2.87620E-05-1.03417E-06-5.07286E-19-1.36063E-18
 -1      3155 9.45072E-05-2.74742E-05-2.87358E-05-8.60096E-07-2.69726E-19-1.37922E-18
 -1      3156 9.44324E-05-2.74500E-05-2.86991E-05-6.74758E-07-2.69704E-19-1.93798E-18
 -1      3157 9.36106E-05-2.64315E-05-2.87960E-05-1.37076E-06-5.23865E-19-1.76937E-18
 -1      3158 9.39500E-05-2.68417E-05-2.87716E-05-1.13787E-06-2.28470E-19-1.46317E-18
 -1      3159 9.38652E-05-2.68254E-05-2.87185E-05-8.30572E-07-1.23928E-19-1.85419E-18
 -1      3160 9.24332E-05-2.52549E-05-2.88022E-05-1.77045E-06-1.22082E-18-2.04794E-18
 -1      3161 9.30191E-05-2.58785E-05-2.87906E-05-1.47633E-06-9.70337E-19-2.40668E-18
 -1      3162 9.29440E-05-2.58918E-05-2.87153E-05-9.76207E-07-6.53884E-19-2.41738E-18
 -1      3163 9.05024E-05-2.35062E-05-2.87364E-05-2.18239E-06-7.59279E-19-1.84608E-18
 -1      3164 9.14917E-05-2.44346E-05-2.87619E-05-1.84290E-06-9.26912E-19-1.93836E-18
 -1      3165 9.14712E-05-2.45194E-05-2.86590E-05-1.04219E-06-1.08615E-18-2.28273E-18
 -1      3166 8.74016E-05-2.09838E-05-2.85094E-05-2.48067E-06-1.10700E-19-1.70972E-18
 -1      3167 8.90330E-05-2.23233E-05-2.86224E-05-2.14957E-06-6.00282E-19-1.75430E-18
 -1      3168 8.91600E-05-2.25539E-05-2.84905E-05-8.88262E-07-3.78704E-19-1.15386E-18
 -1      3169 8.25388E-05-1.75074E-05-2.79470E-05-2.41536E-06 4.56379E-19-7.44961E-19
 -1      3170 8.51594E-05-1.93493E-05-2.82487E-05-2.21081E-06 2.21835E-19-1.48216E-18
 -1      3171 8.56110E-05-1.98470E-05-2.80985E-05-2.56689E-07-4.29510E-19-1.46693E-18
 -1      3172 7.51227E-05-1.30511E-05-2.67146E-05-1.57188E-06 1.36088E-18-6.67998E-19
 -1      3173 7.92039E-05-1.53924E-05-2.74035E-05-1.69773E-06 1.21181E-18-5.45935E-19
 -1      3174 8.02955E-05-1.63302E-05-2.72784E-05 1.28390E-06 4.43867E-19-1.39356E-18
 -1      3175 6.43058E-05-8.08053E-06-2.41482E-05 6.22728E-07 1.63384E-18-5.88556E-19
 -1      3176 7.03062E-05-1.05776E-05-2.56339E-05-1.36957E-07 1.70768E-18-3.89450E-19
 -1      3177 7.25523E-05-1.21812E-05-2.56535E-05 4.37732E-06 1.28648E-18-5.23170E-19
 -1      3178 5.31931E-05-4.48456E-06-2.07283E-05 2.05350E-06 2.60401E-18-1.11639E-18
 -1      3179 5.95590E-05-6.26372E-06-2.28724E-05 1.04694E-06 1.76649E-18-1.17145E-18
 -1      3180 6.34477E-05-8.31608E-06-2.32433E-05 7.86886E-06 2.05788E-18-7.51808E-19
 -1      3181 5.29855E-05-5.10980E-06-1.99807E-05 1.02876E-05 2.79580E-18-3.24546E-19
 -1      3182 1.03082E-04-3.61815E-05-2.86021E-05-1.48049E-05-5.35909E-19 8.31266E-19
 -1      3183 1.00284E-04-3.42635E-05-2.83141E-05-1.67122E-05 4.06181E-20 1.10440E-18
 -1      3184 1.05831E-04-3.78821E-05-2.91092E-05-9.12355E-06 3.90595E-19 1.39718E-19
 -1      3185 1.04828E-04-3.71604E-05-2.89701E-05-1.16422E-05-6.52224E-19 8.24374E-19
 -1      3186 1.06010E-04-3.88173E-05-2.88647E-05-1.39764E-05-7.31094E-19 5.00491E-19
 -1      3187 7.56574E-05-1.25238E-05-2.70531E-05 4.73357E-06 1.86175E-19-2.80484E-18
 -1      3188 5.47121E-05-4.91720E-06-2.12857E-05 4.33559E-06-1.26221E-19-3.22974E-18
 -1      3189 4.48152E-05-4.18740E-06-1.70365E-05 5.62282E-06 2.77959E-19-3.65283E-18
 -1      3190 4.19777E-05-3.93735E-06-1.54138E-05-9.34648E-06 1.68745E-19-4.91554E-18
 -1      3191 5.81651E-05-6.12864E-06-2.17287E-05-3.73148E-06-4.32840E-19-3.85374E-18
 -1      3192 9.64034E-05-3.13615E-05-2.77351E-05-1.87522E-05 6.17926E-19 1.19307E-18
 -1      3193 9.19364E-05-2.83487E-05-2.73560E-05-1.89497E-05 6.48066E-19 2.56929E-19
 -1      3194 9.96493E-05-3.50179E-05-2.78007E-05-1.97470E-05 5.85842E-20 3.67558E-19
 -1      3195 1.05629E-04-3.74209E-05-2.92540E-05-3.73013E-06 6.49486E-19-1.53370E-18
 -1      3196 1.05904E-04-3.75484E-05-2.92487E-05-6.08294E-06 6.89910E-20-2.98434E-19
 -1      3197 1.07918E-04-3.93308E-05-2.94247E-05-7.49176E-06 4.09936E-19-4.52386E-19
 -1      3198 1.03711E-04-3.58295E-05-2.91302E-05 6.11275E-07 7.08503E-19-1.79866E-18
 -1      3199 1.04701E-04-3.64283E-05-2.92185E-05-1.26194E-06 8.34377E-19-2.38829E-18
 -1      3200 1.06832E-04-3.79104E-05-2.95384E-05-1.89639E-06 3.96174E-19-1.81722E-18
 -1      3201 8.90280E-05-3.83213E-05-2.16769E-05 4.19105E-05 1.78856E-18 9.88911E-20
 -1      3202 7.17147E-05-2.76858E-05-1.83486E-05 4.13928E-05 1.71561E-18-1.67501E-19
 -1      3203 1.23722E-04-1.16634E-05-4.84564E-05 9.54957E-06 1.54054E-19-6.45386E-19
 -1      3204 1.20575E-04-6.51572E-06-4.93442E-05 3.60747E-06 8.56562E-19-3.81469E-19
 -1      3205 9.56608E-05-2.79653E-05-2.90171E-05-4.59787E-07 9.35212E-19-1.42905E-18
 -1      3206 9.56978E-05-2.76720E-05-2.91425E-05-1.34471E-07 1.02897E-18-1.40663E-18
 -1      3207 9.59306E-05-2.80166E-05-2.91095E-05-4.57787E-07 7.92052E-19-1.35292E-18
 -1      3208 9.72810E-05-4.40406E-05-2.22219E-05-4.27342E-05 4.19864E-19 1.73914E-18
 -1      3209 1.10674E-04-5.09748E-05-2.56438E-05-3.76422E-05 9.58206E-19 1.50444E-18
 -1      3210 9.34701E-05-1.98395E-05-3.15521E-05-6.23955E-06-1.68534E-18-2.94339E-18
 -1      3211 7.70249E-05-1.58863E-05-2.60708E-05-1.12710E-05-1.46138E-18-2.10367E-18
 -1      3212 7.42059E-05-1.35090E-05-2.61189E-05-6.26496E-06-1.40469E-18-2.24335E-18
 -1      3213 9.54898E-05-2.55563E-05-2.99587E-05-2.14142E-06-1.26932E-18-2.21573E-18
 -1      3214 9.55317E-05-2.62559E-05-2.97018E-05-1.32767E-06-1.12809E-18-2.14634E-18
 -1      3215 9.57029E-05-2.61916E-05-2.97916E-05-1.16670E-06-9.42520E-19-2.15334E-18
 -1      3216 9.23399E-05-1.83038E-05-3.17449E-05 1.80129E-06 1.02505E-18-3.05700E-18
 -1      3217 9.22222E-05-1.81050E-05-3.17762E-05 1.04698E-06 7.59049E-19-3.00758E-18
 -1      3218 8.65107E-05-2.36896E-05-2.67240E-05-1.81895E-05 1.19129E-18-1.13512E-19
 -1      3219 8.16718E-05-2.02966E-05-2.64166E-05-1.57227E-05 7.79535E-21-1.43195E-18
 -1      3220 7.72383E-05-1.80934E-05-2.52742E-05-1.65377E-05 1.31826E-19-8.30321E-19
 -1      3221 8.89232E-05-2.73848E-05-2.64241E-05-2.17032E-05 1.21013E-18-1.52731E-19
 -1      3222 5.80655E-05-1.89196E-05-1.65231E-05 3.75890E-05 1.34218E-18-1.81636E-18
 -1      3223 4.67560E-05-1.00180E-05-1.53733E-05 2.64226E-05 2.16367E-18-8.19293E-19
 -1      3224 5.12473E-05-8.84114E-06-1.78097E-05 2.11722E-05 2.26475E-18-6.15264E-19
 -1      3225 7.01085E-05-2.31730E-05-1.96618E-05 3.55268E-05 2.03248E-18-3.77883E-19
 -1      3226 1.37271E-04-3.94945E-05-4.24933E-05-8.71858E-06-9.38936E-19 1.96618E-19
 -1      3227 1.39453E-04-4.81529E-05-3.90333E-05-1.70643E-06-3.21978E-19-2.85238E-19
 -1      3228 1.19935E-04-6.43060E-06-4.91041E-05-3.09706E-06 5.45066E-19-8.08130E-19
 -1      3229 1.22567E-04-1.05098E-05-4.82677E-05-9.56389E-06-3.16579E-20-9.10560E-19
 -1      3230 1.37933E-04-5.50391E-05-3.60500E-05 8.55982E-06 7.14651E-20 2.73565E-19
 -1      3231 1.33549E-04-5.68202E-05-3.26076E-05 1.75586E-05-1.71253E-19 1.09783E-18
 -1      3232 1.23976E-04-5.60490E-05-2.93785E-05 2.82180E-05 6.62274E-20 1.24570E-18
 -1      3233 1.08579E-04-4.88908E-05-2.53065E-05 3.63583E-05 3.82647E-19 3.87888E-19
 -1      3234 1.00159E-04-3.30504E-05-2.87497E-05 4.68451E-06-1.29315E-19 5.77335E-20
 -1      3235 9.21636E-05-1.80072E-05-3.17942E-05 3.96949E-07 5.52039E-19-3.01971E-18
 -1      3236 9.21620E-05-1.80054E-05-3.17945E-05-3.70985E-07 2.24706E-19-3.03011E-18
 -1      3237 9.31166E-05-1.95907E-05-3.14936E-05 6.20045E-07 5.98673E-19-2.75411E-18
 -1      3238 1.20713E-04-1.67831E-05-4.48177E-05-1.09283E-05 4.71056E-19-2.49954E-19
 -1      3239 9.56658E-05-2.61040E-05-2.98141E-05 1.22708E-06 1.26694E-18-1.66798E-18
 -1      3240 9.55279E-05-2.61790E-05-2.97280E-05 1.42238E-06 1.33709E-18-1.69445E-18
 -1      3241 9.51848E-05-2.46710E-05-3.02373E-05-2.86967E-06-1.43566E-18-2.28564E-18
 -1      3242 9.52677E-05-2.45416E-05-3.03051E-05-2.53342E-06-1.34176E-18-2.30139E-18
 -1      3243 9.50245E-05-2.37155E-05-3.05620E-05-3.91356E-06-1.62131E-18-2.38536E-18
 -1      3244 1.30471E-04-3.46437E-05-4.12600E-05-1.10963E-05-8.70273E-19 4.85562E-19
 -1      3245 7.16390E-05-1.10980E-05-2.57353E-05-1.32841E-06-5.27113E-19-3.31971E-18
 -1      3246 9.30280E-05-1.94840E-05-3.15276E-05-3.61967E-06-9.49301E-19-3.07583E-18
 -1      3247 9.33995E-05-2.01502E-05-3.14163E-05-4.23334E-06-1.13301E-18-3.20733E-18
 -1      3248 9.40327E-05-2.14026E-05-3.11347E-05-5.00450E-06-1.64933E-18-2.75383E-18
 -1      3249 1.24947E-04-1.59751E-05-4.71858E-05 1.13130E-05 1.29437E-19-8.87929E-19
 -1      3250 1.18386E-04-1.29796E-05-4.53184E-05 9.65582E-06 1.06880E-18-1.98020E-19
 -1      3251 1.25788E-04-2.08794E-05-4.52815E-05 1.23548E-05-2.27164E-19-1.20347E-18
 -1      3252 9.55010E-05-2.57090E-05-2.98858E-05 1.99578E-06 1.35929E-18-1.49197E-18
 -1      3253 1.26098E-04-5.42572E-05-3.07398E-05 2.00500E-05-7.93564E-20 5.22778E-19
 -1      3254 1.34924E-04-4.98654E-05-3.65084E-05 1.33296E-06 2.37225E-19 3.40984E-19
 -1      3255 1.00958E-04-4.38756E-05-2.42819E-05 3.72521E-05 1.31073E-18-4.24906E-19
 -1      3256 9.20362E-05-3.65165E-05-2.37190E-05 3.51575E-05 1.53374E-18-6.78315E-19
 -1      3257 1.09046E-04-4.60734E-05-2.68775E-05 2.91709E-05 3.64080E-19-1.00744E-19
 -1      3258 1.01084E-04-3.38537E-05-2.88349E-05 3.60742E-06-1.16627E-19-2.76010E-19
 -1      3259 1.02376E-04-3.46720E-05-2.89807E-05 2.35311E-06 2.53883E-19 3.40592E-20
 -1      3260 1.16388E-04-8.80134E-06-4.64272E-05 1.50020E-07 3.48078E-19-7.19809E-19
 -1      3261 9.58858E-05-2.72761E-05-2.94071E-05 1.96522E-07 1.01463E-18-1.51630E-18
 -1      3262 4.76007E-05-6.72772E-06-1.73048E-05-1.48110E-05 8.89881E-20-4.75588E-18
 -1      3263 5.84690E-05-1.88813E-05-1.65373E-05-3.46828E-05 1.65701E-19-6.60156E-19
 -1      3264 1.18881E-04-5.42169E-05-2.74555E-05-3.26267E-05 1.76956E-18 1.32560E-18
 -1      3265 1.24767E-04-5.54907E-05-2.97238E-05-2.55117E-05 1.34376E-18-1.25739E-18
 -1      3266 1.10489E-04-4.88477E-05-2.64122E-05-3.31642E-05 1.80513E-18 5.96841E-19
 -1      3267 8.89898E-05-3.75762E-05-2.16907E-05-4.07309E-05 1.46643E-20 1.52302E-18
 -1      3268 1.40964E-04-5.67566E-05-3.61830E-05-1.10203E-05-4.92444E-19-2.35994E-18
 -1      3269 1.39508E-04-5.24900E-05-3.74897E-05-3.46957E-06-2.51516E-19-3.14117E-18
 -1      3270 1.34615E-04-5.70517E-05-3.32877E-05-1.57228E-05-1.88703E-19-1.93624E-18
 -1      3271 6.77404E-05-1.08195E-05-2.43951E-05-6.83480E-06 8.09975E-20-4.16130E-18
 -1      3272 1.38043E-04-4.30381E-05-4.09020E-05 5.86170E-06-4.93714E-19-8.61591E-19
 -1      3273 1.40265E-04-3.80594E-05-4.41410E-05 8.83900E-06-8.54444E-20-1.19728E-18
 -1      3274 1.32996E-04-3.16628E-05-4.36637E-05 1.22358E-05-9.15854E-20-1.28643E-18
 -1      3275 9.25137E-05-1.85957E-05-3.16899E-05 2.41109E-06 1.21101E-18-2.94649E-18
 -1      3276 9.33271E-05-1.99734E-05-3.14186E-05 1.79548E-06 1.02343E-18-2.77139E-18
 -1      3277 9.27530E-05-1.90084E-05-3.16236E-05 3.11546E-06 1.50887E-18-2.69620E-18
 -1      3278 9.25069E-05-1.85820E-05-3.16922E-05-2.38133E-06-4.38861E-19-2.85480E-18
 -1      3279 9.27391E-05-1.89865E-05-3.16264E-05-3.09387E-06-7.66499E-19-2.96875E-18
 -1      3280 9.37181E-05-2.07375E-05-3.12640E-05-2.80004E-06-8.63822E-19-2.85238E-18
 -1      3281 9.34027E-05-2.01617E-05-3.14170E-05 4.24875E-06 1.97700E-18-2.23430E-18
 -1      3282 9.30374E-05-1.95060E-05-3.15241E-05 3.64376E-06 1.70372E-18-2.45870E-18
 -1      3283 9.37402E-05-2.07480E-05-3.12610E-05 2.83509E-06 1.49004E-18-2.37437E-18
 -1      3284 1.04279E-04-3.57534E-05-2.93439E-05 2.21873E-06 2.85551E-19-9.14716E-19
 -1      3285 1.01491E-04-3.37060E-05-2.90656E-05 4.81569E-06 6.29608E-19 5.87935E-20
 -1      3286 9.44754E-05-2.22866E-05-3.09103E-05 3.78897E-06 1.80886E-18-1.88419E-18
 -1      3287 9.22201E-05-1.80993E-05-3.17772E-05-1.01827E-06-5.95270E-21-3.04547E-18
 -1      3288 9.23337E-05-1.82933E-05-3.17466E-05-1.77306E-06-2.91546E-19-2.92124E-18
 -1      3289 9.33142E-05-1.99625E-05-3.14207E-05-1.76134E-06-3.88615E-19-2.75495E-18
 -1      3290 1.10589E-04-4.08157E-05-2.99343E-05-5.06512E-06 2.54379E-19-1.50883E-18
 -1      3291 1.10832E-04-4.12184E-05-2.97749E-05-8.17460E-06 5.24397E-19-2.06276E-19
 -1      3292 9.58097E-05-2.61974E-05-2.98495E-05 9.14473E-07 1.07635E-18-1.83603E-18
 -1      3293 9.56862E-05-2.54496E-05-3.00832E-05 1.54294E-06 1.29378E-18-1.78307E-18
 -1      3294 9.59672E-05-2.90044E-05-2.86982E-05-9.58202E-07 1.84265E-19-7.39033E-19
 -1      3295 9.60078E-05-2.89440E-05-2.87389E-05-9.53294E-07 2.18447E-19-7.75399E-19
 -1      3296 9.61563E-05-2.78168E-05-2.92809E-05 2.53778E-07-7.49273E-19-1.72662E-18
 -1      3297 9.61516E-05-2.81361E-05-2.91541E-05 5.07408E-07-6.97491E-19-1.71330E-18
 -1      3298 9.61602E-05-2.84000E-05-2.90344E-05 6.69768E-07-5.88881E-19-1.61688E-18
 -1      3299 9.61298E-05-2.85989E-05-2.89442E-05 8.05435E-07-2.47267E-19-1.58169E-18
 -1      3300 9.63476E-05-2.82075E-05-2.92045E-05 4.84148E-07-5.53588E-19-1.51320E-18
 -1      3301 9.60962E-05-2.87541E-05-2.88569E-05 8.81947E-07-2.53129E-19-1.63834E-18
 -1      3302 9.60553E-05-2.88701E-05-2.87945E-05 9.36487E-07-3.00934E-19-1.66803E-18
 -1      3303 9.63245E-05-2.86821E-05-2.89916E-05 7.41593E-07-3.20920E-19-1.39134E-18
 -1      3304 9.59997E-05-2.89515E-05-2.87324E-05 9.54820E-07-1.62339E-19-1.85396E-18
 -1      3305 9.59563E-05-2.90111E-05-2.86907E-05 9.56657E-07-2.24380E-19-1.69219E-18
 -1      3306 9.62376E-05-2.89567E-05-2.88369E-05 8.52945E-07-2.79228E-19-1.92892E-18
 -1      3307 9.58915E-05-2.90433E-05-2.86477E-05 9.38283E-07-4.20295E-19-1.55490E-18
 -1      3308 9.58498E-05-2.90655E-05-2.86211E-05 9.08402E-07-5.20417E-19-1.13267E-18
 -1      3309 9.61197E-05-2.90945E-05-2.87272E-05 8.66891E-07-2.78821E-19-2.11668E-18
 -1      3310 9.57836E-05-2.90661E-05-2.85924E-05 8.69155E-07-5.95802E-19-9.39644E-19
 -1      3311 9.57455E-05-2.90642E-05-2.85767E-05 8.22466E-07-4.41983E-19-7.56604E-19
 -1      3312 9.59910E-05-2.91414E-05-2.86517E-05 8.20792E-07-3.28796E-19-1.53522E-18
 -1      3313 9.56826E-05-2.90453E-05-2.85586E-05 7.73514E-07-4.60660E-19-1.02054E-18
 -1      3314 9.56491E-05-2.90287E-05-2.85504E-05 7.20241E-07-3.67257E-19-1.14880E-18
 -1      3315 9.58640E-05-2.91302E-05-2.86018E-05 7.41873E-07-5.94558E-19-1.54516E-18
 -1      3316 9.55918E-05-2.89989E-05-2.85399E-05 6.69144E-07-6.02585E-19-1.34624E-18
 -1      3317 9.55629E-05-2.89740E-05-2.85369E-05 6.16025E-07-8.84218E-19-1.29611E-18
 -1      3318 9.57456E-05-2.90838E-05-2.85707E-05 6.49148E-07-7.65729E-19-1.41379E-18
 -1      3319 9.55123E-05-2.89390E-05-2.85317E-05 5.67675E-07-1.11730E-18-1.48142E-18
 -1      3320 9.54877E-05-2.89101E-05-2.85321E-05 5.18935E-07-9.45210E-19-1.53019E-18
 -1      3321 9.56391E-05-2.90180E-05-2.85530E-05 5.55358E-07-8.44956E-19-1.22970E-18
 -1      3322 9.54438E-05-2.88736E-05-2.85305E-05 4.76335E-07-6.02547E-19-1.86877E-18
 -1      3323 9.54233E-05-2.88439E-05-2.85330E-05 4.34430E-07-6.55575E-19-1.59024E-18
 -1      3324 9.55457E-05-2.89435E-05-2.85447E-05 4.68672E-07-9.81457E-19-1.70365E-18
 -1      3325 9.53859E-05-2.88084E-05-2.85337E-05 3.99291E-07-7.98649E-19-1.64729E-18
 -1      3326 9.53690E-05-2.87799E-05-2.85373E-05 3.65456E-07-7.72435E-19-1.59289E-18
 -1      3327 9.54653E-05-2.88674E-05-2.85426E-05 3.94063E-07-6.69838E-19-2.14398E-18
 -1      3328 9.53376E-05-2.87472E-05-2.85392E-05 3.38652E-07-5.42131E-19-1.47506E-18
 -1      3329 9.53245E-05-2.87216E-05-2.85432E-05 3.13264E-07-2.81142E-19-1.28062E-18
 -1      3330 9.53971E-05-2.87947E-05-2.85444E-05 3.34363E-07-4.32742E-19-1.83057E-18
 -1      3331 9.52990E-05-2.86935E-05-2.85457E-05 2.95141E-07-1.87204E-19-1.06527E-18
 -1      3332 9.52901E-05-2.86728E-05-2.85495E-05 2.77935E-07 1.91886E-19-1.02308E-18
 -1      3333 9.53406E-05-2.87291E-05-2.85482E-05 2.91042E-07-1.81968E-19-1.22836E-18
 -1      3334 9.52713E-05-2.86514E-05-2.85518E-05 2.68496E-07-1.11644E-19-6.71772E-19
 -1      3335 9.52679E-05-2.86381E-05-2.85548E-05 2.58628E-07 8.17942E-20-9.77442E-19
 -1      3336 9.52966E-05-2.86749E-05-2.85526E-05 2.64745E-07 1.31117E-19-7.90733E-19
 -1      3337 9.52578E-05-2.86265E-05-2.85564E-05 2.57595E-07 2.50334E-19-9.58817E-19
 -1      3338 9.52626E-05-2.86247E-05-2.85583E-05 2.53546E-07 2.60673E-19-1.02724E-18
 -1      3339 9.52674E-05-2.86377E-05-2.85561E-05 2.55591E-07 7.03351E-20-1.03916E-18
 -1      3340 9.52652E-05-2.86280E-05-2.85587E-05 2.60263E-07 3.18421E-19-9.66727E-19
 -1      3341 9.52829E-05-2.86436E-05-2.85589E-05 2.59552E-07 5.32511E-19-1.22737E-18
 -1      3342 9.52590E-05-2.86260E-05-2.85578E-05 2.63219E-07 3.35294E-19-9.48265E-19
 -1      3343 9.53051E-05-2.86693E-05-2.85576E-05 2.72675E-07 3.04509E-19-1.12023E-18
 -1      3344 9.53430E-05-2.87109E-05-2.85557E-05 2.71346E-07 9.49468E-20-1.17940E-18
 -1      3345 9.52821E-05-2.86529E-05-2.85567E-05 2.86484E-07 3.26286E-19-8.05201E-19
 -1      3346 9.53960E-05-2.87700E-05-2.85525E-05 2.88210E-07-9.41034E-20-1.40771E-18
 -1      3347 9.54648E-05-2.88496E-05-2.85484E-05 2.80014E-07-4.44193E-19-1.11430E-18
 -1      3348 9.53544E-05-2.87381E-05-2.85521E-05 3.22653E-07 9.22930E-20-1.07203E-18
 -1      3349 9.55648E-05-2.89568E-05-2.85435E-05 2.95510E-07-5.23802E-19-7.73280E-19
 -1      3350 9.56788E-05-2.90894E-05-2.85373E-05 2.70717E-07-2.18333E-19-2.05031E-19
 -1      3351 9.55029E-05-2.89086E-05-2.85440E-05 3.65783E-07 1.36040E-19-1.90553E-18
 -1      3352 9.58485E-05-2.92634E-05-2.85318E-05 2.75469E-07-4.32687E-19-3.33652E-19
 -1      3353 9.60257E-05-2.94664E-05-2.85247E-05 2.19290E-07 2.23014E-19-1.13456E-19
 -1      3354 9.57660E-05-2.92006E-05-2.85337E-05 4.03889E-07-4.07407E-19-6.08198E-19
 -1      3355 9.62937E-05-2.97275E-05-2.85210E-05 1.96952E-07 8.10990E-19-1.09221E-19
 -1      3356 9.65536E-05-3.00172E-05-2.85157E-05 8.77012E-08 1.01262E-18 9.13805E-20
 -1      3357 9.61950E-05-2.96568E-05-2.85246E-05 4.14371E-07 5.55926E-19-2.77591E-19
 -1      3358 9.69527E-05-3.03837E-05-2.85186E-05 1.13896E-08 8.99936E-19-7.98937E-20
 -1      3359 9.73117E-05-3.07689E-05-2.85201E-05-1.81045E-07 3.87172E-19 4.65408E-19
 -1      3360 9.68517E-05-3.03215E-05-2.85244E-05 3.57381E-07 9.18825E-19-1.26058E-18
 -1      3361 9.78722E-05-3.12479E-05-2.85381E-05-3.52472E-07 4.52007E-20 6.47658E-19
 -1      3362 9.83347E-05-3.17179E-05-2.85548E-05-6.66435E-07 5.03543E-19 1.13172E-18
 -1      3363 9.78008E-05-3.12267E-05-2.85468E-05 1.67520E-07 7.12006E-19-3.29095E-19
 -1      3364 9.90715E-05-3.22903E-05-2.86011E-05-9.89968E-07 3.70118E-20 1.00906E-18
 -1      3365 9.96166E-05-3.27983E-05-2.86457E-05-1.46736E-06-4.57736E-19 1.13485E-18
 -1      3366 9.90909E-05-3.23662E-05-2.86141E-05-2.53528E-07 3.40709E-19 5.92177E-19
 -1      3367 1.00507E-04-3.33975E-05-2.87392E-05-2.00988E-06-8.01537E-19 1.32595E-18
 -1      3368 1.01071E-04-3.38399E-05-2.88283E-05-2.68179E-06 1.28344E-19 1.29636E-18
 -1      3369 1.00720E-04-3.36554E-05-2.87603E-05-1.03639E-06-3.41400E-19 8.08295E-19
 -1      3370 1.02027E-04-3.43288E-05-2.89931E-05-3.49819E-06 1.76224E-19 6.24729E-19
 -1      3371 1.02493E-04-3.45316E-05-2.91454E-05-4.35674E-06-2.96629E-19 1.28132E-19
 -1      3372 1.02584E-04-3.48773E-05-2.90313E-05-2.32006E-06-1.15054E-19-5.53074E-21
 -1      3373 1.03330E-04-3.46900E-05-2.94064E-05-5.43937E-06-6.80319E-20 1.80561E-19
 -1      3374 1.03535E-04-3.44239E-05-2.96371E-05-6.39221E-06-2.58365E-20 5.62307E-21
 -1      3375 1.04415E-04-3.56332E-05-2.94810E-05-4.18523E-06-2.69598E-19-9.02876E-19
 -1      3376 1.03992E-04-3.39868E-05-3.00102E-05-7.59593E-06 4.12191E-19-1.66200E-19
 -1      3377 1.03776E-04-3.30392E-05-3.03216E-05-8.42511E-06-1.00885E-19-2.33383E-19
 -1      3378 1.05764E-04-3.53673E-05-3.01561E-05-6.51540E-06-1.08830E-20-3.92716E-19
 -1      3379 1.03579E-04-3.17923E-05-3.07991E-05-9.39883E-06-6.32058E-19 6.15475E-19
 -1      3380 1.02878E-04-3.01105E-05-3.11693E-05-9.74549E-06-9.41238E-20 6.07382E-19
 -1      3381 1.06072E-04-3.34931E-05-3.10702E-05-8.85136E-06 1.46085E-19-5.81723E-20
 -1      3382 1.01959E-04-2.81180E-05-3.17005E-05-9.95364E-06-6.79064E-19-4.21205E-20
 -1      3383 1.00934E-04-2.59963E-05-3.20728E-05-9.43831E-06-1.64889E-18-5.08150E-19
 -1      3384 1.04968E-04-2.98209E-05-3.21654E-05-1.02607E-05-6.36187E-19-3.73366E-19
 -1      3385 9.95875E-05-2.37779E-05-3.25558E-05-8.37287E-06-1.78031E-18-2.89326E-19
 -1      3386 9.86357E-05-2.18974E-05-3.28439E-05-6.83596E-06-5.90609E-19-4.31113E-19
 -1      3387 1.02629E-04-2.49403E-05-3.32716E-05-9.64207E-06-1.24094E-18 2.27028E-19
 -1      3388 9.75692E-05-2.02932E-05-3.31477E-05-4.52171E-06 2.20483E-19-1.14992E-18
 -1      3389 9.71013E-05-1.94196E-05-3.32679E-05-2.19966E-06 1.11858E-19-1.43292E-18
 -1      3390 1.00198E-04-2.05224E-05-3.41501E-05-6.26633E-06-3.24113E-19-1.00541E-18
 -1      3391 9.69954E-05-1.92766E-05-3.32953E-05 7.57759E-07-3.51386E-21-1.25109E-18
 -1      3392 9.72398E-05-1.97982E-05-3.32184E-05 3.10954E-06-2.20311E-20-1.13961E-18
 -1      3393 9.89433E-05-1.84300E-05-3.45135E-05-7.80470E-07 9.00932E-20-2.18447E-18
 -1      3394 9.80966E-05-2.10765E-05-3.29682E-05 5.68950E-06 4.62040E-19-1.08054E-18
 -1      3395 9.89494E-05-2.27951E-05-3.26986E-05 7.41864E-06 1.38712E-18-4.64324E-19
 -1      3396 9.97045E-05-1.99100E-05-3.41888E-05 4.85009E-06-3.54298E-20-1.00512E-18
 -1      3397 1.00241E-04-2.49144E-05-3.22330E-05 8.73640E-06 2.43904E-18-1.18634E-18
 -1      3398 1.01215E-04-2.69900E-05-3.18651E-05 9.46202E-06 2.62228E-18-8.44144E-19
 -1      3399 1.01934E-04-2.38038E-05-3.34557E-05 8.74632E-06 1.29106E-18-1.30904E-18
 -1      3400 1.02181E-04-2.90273E-05-3.13305E-05 9.47479E-06 2.06618E-18-5.94074E-19
 -1      3401 1.02874E-04-3.07661E-05-3.09451E-05 9.27598E-06 2.03155E-18-5.65467E-19
 -1      3402 1.04259E-04-2.86024E-05-3.23795E-05 9.87754E-06 2.21431E-18-8.99836E-19
 -1      3403 1.03107E-04-3.20937E-05-3.04382E-05 8.40556E-06 1.90733E-18-1.54565E-18
 -1      3404 1.03284E-04-3.31169E-05-3.00886E-05 7.66091E-06 1.27534E-18-9.55015E-19
 -1      3405 1.05475E-04-3.24809E-05-3.12516E-05 8.77374E-06 1.79939E-18 2.62208E-19
 -1      3406 1.02696E-04-3.34856E-05-2.96740E-05 6.63705E-06 1.23825E-18-9.65492E-19
 -1      3407 1.02432E-04-3.38634E-05-2.93851E-05 5.75270E-06 1.21108E-18-3.40682E-19
 -1      3408 1.03537E-04-3.47709E-05-2.94950E-05 4.70895E-06 1.13740E-18-4.93640E-19
 -1      3409 1.05042E-04-3.43600E-05-3.02640E-05 6.72950E-06 1.00787E-18-1.19150E-18
 -1      3410 9.58620E-05-2.90660E-05-2.86261E-05-9.14739E-07-1.79623E-19-6.36048E-19
 -1      3411 9.59036E-05-2.90409E-05-2.86539E-05-9.42210E-07 1.51919E-19-5.82857E-19
 -1      3412 9.61313E-05-2.90897E-05-2.87342E-05-8.68487E-07 1.09254E-19-8.20281E-19
 -1      3413 9.61331E-05-2.85816E-05-2.89530E-05-7.94991E-07 3.01926E-19-8.98308E-19
 -1      3414 9.61623E-05-2.83777E-05-2.90447E-05-6.54565E-07 5.66006E-19-1.05689E-18
 -1      3415 9.57586E-05-2.90694E-05-2.85800E-05-8.31088E-07 2.15442E-20-7.75709E-19
 -1      3416 9.57965E-05-2.90692E-05-2.85965E-05-8.76519E-07-1.58727E-19-5.85415E-19
 -1      3417 9.60041E-05-2.91431E-05-2.86566E-05-8.26128E-07 5.49747E-20-7.26202E-19
 -1      3418 9.56632E-05-2.90371E-05-2.85528E-05-7.29729E-07 2.63692E-19-9.12217E-19
 -1      3419 9.56963E-05-2.90523E-05-2.85614E-05-7.82545E-07 1.95939E-19-7.77608E-19
 -1      3420 9.58781E-05-2.91362E-05-2.86054E-05-7.49273E-07 1.90482E-19-6.31684E-19
 -1      3421 9.55782E-05-2.89842E-05-2.85390E-05-6.25618E-07-6.63559E-20-9.93183E-19
 -1      3422 9.56065E-05-2.90084E-05-2.85421E-05-6.78690E-07 1.65302E-19-9.66492E-19
 -1      3423 9.57607E-05-2.90926E-05-2.85735E-05-6.57602E-07 2.01173E-19-5.84980E-19
 -1      3424 9.55044E-05-2.89205E-05-2.85348E-05-5.28434E-07 3.54752E-20-8.09074E-19
 -1      3425 9.55282E-05-2.89494E-05-2.85340E-05-5.77172E-07 1.47326E-20-9.56535E-19
 -1      3426 9.56553E-05-2.90281E-05-2.85557E-05-5.64319E-07-2.56323E-20-8.22020E-19
 -1      3427 9.54407E-05-2.88516E-05-2.85371E-05-4.44191E-07 4.59397E-19-9.85172E-19
 -1      3428 9.54608E-05-2.88830E-05-2.85337E-05-4.85734E-07 4.22908E-19-7.73304E-19
 -1      3429 9.55628E-05-2.89528E-05-2.85481E-05-4.77950E-07 3.69011E-19-1.07681E-18
 -1      3430 9.53853E-05-2.87801E-05-2.85441E-05-3.76480E-07 3.90003E-19-1.18690E-18
 -1      3431 9.54026E-05-2.88131E-05-2.85389E-05-4.09074E-07 5.56877E-19-1.18579E-18
 -1      3432 9.54820E-05-2.88724E-05-2.85477E-05-4.03719E-07 5.35143E-19-1.19349E-18
 -1      3433 9.53347E-05-2.87056E-05-2.85545E-05-3.27384E-07 5.99111E-19-1.29682E-18
 -1      3434 9.53509E-05-2.87405E-05-2.85479E-05-3.49909E-07 4.01913E-19-1.29127E-18
 -1      3435 9.54103E-05-2.87891E-05-2.85524E-05-3.44587E-07 5.50111E-19-2.05352E-18
 -1      3436 9.52842E-05-2.86248E-05-2.85675E-05-2.98122E-07 9.14524E-19-1.09863E-18
 -1      3437 9.53014E-05-2.86636E-05-2.85598E-05-3.09752E-07 9.82689E-19-1.18865E-18
 -1      3438 9.53435E-05-2.87019E-05-2.85609E-05-3.01972E-07 8.15652E-19-1.72283E-18
 -1      3439 9.52265E-05-2.85314E-05-2.85830E-05-2.89430E-07 1.01565E-18-1.31816E-18
 -1      3440 9.52483E-05-2.85775E-05-2.85741E-05-2.89397E-07 1.18873E-18-1.11182E-18
 -1      3441 9.52754E-05-2.86066E-05-2.85722E-05-2.76150E-07 9.80238E-19-1.21021E-18
 -1      3442 9.51507E-05-2.84150E-05-2.86007E-05-3.01626E-07 1.00361E-18-1.47450E-18
 -1      3443 9.51826E-05-2.84740E-05-2.85906E-05-2.89127E-07 9.64951E-19-1.61104E-18
 -1      3444 9.51971E-05-2.84959E-05-2.85857E-05-2.66300E-07 1.22014E-18-1.19956E-18
 -1      3445 9.50397E-05-2.82592E-05-2.86204E-05-3.34138E-07 8.37142E-19-1.05396E-18
 -1      3446 9.50907E-05-2.83400E-05-2.86091E-05-3.08531E-07 8.47783E-19-1.30174E-18
 -1      3447 9.50956E-05-2.83576E-05-2.86008E-05-2.70050E-07 6.49593E-19-8.34019E-19
 -1      3448 9.48783E-05-2.80530E-05-2.86404E-05-3.81764E-07 1.82638E-19-1.11834E-18
 -1      3449 9.49565E-05-2.81615E-05-2.86286E-05-3.45008E-07 5.62186E-19-1.28476E-18
 -1      3450 9.49557E-05-2.81791E-05-2.86162E-05-2.81948E-07 6.96702E-19-1.07728E-18
 -1      3451 9.46112E-05-2.77413E-05-2.86610E-05-4.43209E-07 2.16397E-20-1.11026E-18
 -1      3452 9.47468E-05-2.79076E-05-2.86484E-05-3.92857E-07-2.78992E-20-1.30836E-18
 -1      3453 9.47475E-05-2.79332E-05-2.86309E-05-2.93281E-07 2.74776E-19-1.29592E-18
 -1      3454 9.41827E-05-2.72827E-05-2.86765E-05-5.00914E-07-1.02941E-19-1.16930E-18
 -1      3455 9.44071E-05-2.75296E-05-2.86661E-05-4.43935E-07 1.92287E-19-8.90132E-19
 -1      3456 9.44215E-05-2.75759E-05-2.86417E-05-2.85821E-07 1.34543E-19-1.16734E-18
 -1      3457 9.35000E-05-2.66085E-05-2.86774E-05-5.22514E-07 2.13459E-19-1.45785E-18
 -1      3458 9.38671E-05-2.69738E-05-2.86744E-05-4.72467E-07 2.17568E-19-1.12837E-18
 -1      3459 9.39180E-05-2.70636E-05-2.86417E-05-2.25174E-07 1.31488E-19-7.48652E-19
 -1      3460 9.24250E-05-2.56283E-05-2.86445E-05-4.43660E-07-1.10482E-18-1.90344E-18
 -1      3461 9.30171E-05-2.61620E-05-2.86598E-05-4.30435E-07-6.00487E-20-1.96132E-18
 -1      3462 9.31459E-05-2.63337E-05-2.86179E-05-4.96620E-08 3.28634E-19-1.12372E-18
 -1      3463 9.07603E-05-2.42336E-05-2.85415E-05-1.44005E-07-9.72481E-19-1.99345E-18
 -1      3464 9.16989E-05-2.49965E-05-2.85961E-05-2.27279E-07-1.46936E-18-1.95915E-18
 -1      3465 9.19788E-05-2.53133E-05-2.85467E-05 3.48726E-07-1.07691E-18-1.43208E-18
 -1      3466 8.82356E-05-2.23154E-05-2.83018E-05 5.89584E-07-1.02401E-18-1.67240E-18
 -1      3467 8.96939E-05-2.33693E-05-2.84351E-05 2.99401E-07-5.30745E-19-1.98767E-18
 -1      3468 9.02516E-05-2.39332E-05-2.83865E-05 1.15282E-06-8.63036E-19-1.81254E-18
 -1      3469 8.45033E-05-1.98098E-05-2.78060E-05 2.11306E-06-2.16771E-19-1.95972E-18
 -1      3470 8.67167E-05-2.11938E-05-2.80904E-05 1.42605E-06-7.90279E-19-1.75680E-18
 -1      3471 8.77664E-05-2.21617E-05-2.80650E-05 2.65990E-06-7.99888E-19-1.69529E-18
 -1      3472 7.91502E-05-1.67929E-05-2.68435E-05 4.98116E-06 3.46253E-19-1.40543E-18
 -1      3473 8.24243E-05-1.84743E-05-2.74100E-05 3.59619E-06 1.04438E-19-1.92527E-18
 -1      3474 8.43207E-05-2.00750E-05-2.74615E-05 5.33029E-06 3.78960E-20-2.55817E-18
 -1      3475 7.18545E-05-1.36960E-05-2.50405E-05 9.99776E-06 1.36489E-18-1.23438E-18
 -1      3476 7.64475E-05-1.54349E-05-2.61302E-05 7.46605E-06 7.83055E-19-1.24691E-18
 -1      3477 7.97801E-05-1.79777E-05-2.63783E-05 9.83005E-06 4.25510E-19-2.15538E-18
 -1      3478 1.08037E-04-3.82838E-05-2.99472E-05 5.05102E-07 1.02601E-19-1.65432E-18
 -1      3479 1.09411E-04-3.93181E-05-2.99862E-05-1.97596E-06 2.67279E-19-1.83285E-18
 -1      3480 1.11973E-04-4.10539E-05-3.04026E-05-2.43663E-06-2.45340E-19-1.26569E-18
 -1      3481 1.10421E-04-4.18312E-05-2.93805E-05-1.24003E-05 8.97742E-19 1.24087E-18
 -1      3482 1.08510E-04-4.08750E-05-2.89407E-05-1.58039E-05 1.24561E-19 1.09905E-18
 -1      3483 1.13336E-04-4.35146E-05-2.99659E-05-9.81654E-06 1.58133E-18 4.03246E-19
 -1      3484 9.52259E-05-2.48768E-05-3.01537E-05 3.03054E-06 1.63652E-18-1.47195E-18
 -1      3485 9.61509E-05-2.81072E-05-2.91663E-05-4.87460E-07 5.82801E-19-1.25775E-18
 -1      3486 9.61542E-05-2.77802E-05-2.92952E-05-2.27330E-07 6.63303E-19-1.31702E-18
 -1      3487 9.63471E-05-2.81779E-05-2.92168E-05-4.66745E-07 5.05679E-19-1.32834E-18
 -1      3488 9.40100E-05-2.13419E-05-3.11378E-05-4.33357E-06-1.42415E-18-2.84333E-18
 -1      3489 6.27105E-05-9.76585E-06-2.26144E-05-1.01061E-05-2.15656E-19-3.53027E-18
 -1      3490 5.59928E-05-8.44034E-06-2.03134E-05-1.32818E-05-5.04090E-19-3.51635E-18
 -1      3491 6.72844E-05-1.27067E-05-2.32152E-05-1.55237E-05-3.41076E-19-2.26782E-18
 -1      3492 1.12249E-04-1.02507E-05-4.39759E-05 3.75323E-06 6.07905E-19-1.01317E-18
 -1      3493 1.11479E-04-9.53847E-06-4.38377E-05-3.08242E-06 2.50510E-19-6.96248E-19
 -1      3494 1.05350E-04-3.59986E-05-2.96960E-05 3.16758E-06 1.03835E-18-7.49386E-19
 -1      3495 9.56640E-05-2.55098E-05-3.00627E-05-1.49895E-06-9.52217E-19-2.18419E-18
 -1      3496 9.58236E-05-2.62487E-05-2.98272E-05-8.71378E-07-8.20812E-19-2.15014E-18
 -1      3497 9.52298E-05-2.45124E-05-3.03278E-05 2.90286E-06 1.67229E-18-1.77545E-18
 -1      3498 1.23340E-04-3.00915E-05-4.03477E-05-1.28346E-05-9.95436E-19 3.47098E-19
 -1      3499 1.28196E-04-3.80820E-05-3.84776E-05-1.03302E-05-1.24384E-18-1.77864E-19
 -1      3500 1.05317E-04-3.94557E-05-2.81058E-05-2.03727E-05-3.49967E-19 5.65808E-20
 -1      3501 1.00426E-04-3.64993E-05-2.74109E-05-2.28073E-05 7.56308E-19-6.35766E-19
 -1      3502 1.09758E-04-4.30330E-05-2.86510E-05-1.90518E-05 1.20873E-18 9.01382E-19
 -1      3503 9.60231E-05-2.69000E-05-2.96161E-05-4.42185E-07-6.70827E-19-2.04476E-18
 -1      3504 9.60748E-05-2.73941E-05-2.94417E-05-2.52790E-08-6.27582E-19-1.88682E-18
 -1      3505 9.62583E-05-2.74482E-05-2.94909E-05 2.16982E-08-5.86553E-19-1.92581E-18
 -1      3506 9.60655E-05-2.73483E-05-2.94582E-05 6.13228E-08 7.31822E-19-1.47506E-18
 -1      3507 9.60198E-05-2.68462E-05-2.96349E-05 4.87597E-07 8.36814E-19-1.65077E-18
 -1      3508 9.59654E-05-2.62283E-05-2.98904E-05 7.51914E-07 9.53476E-19-1.60420E-18
 -1      3509 9.62460E-05-2.73954E-05-2.95073E-05 6.85581E-09 5.75764E-19-1.48635E-18
 -1      3510 5.69939E-05-1.37601E-05-1.81515E-05-2.70373E-05-2.95562E-19-1.37505E-18
 -1      3511 6.84298E-05-2.28527E-05-1.95098E-05-3.55377E-05-1.26896E-19 7.46977E-19
 -1      3512 1.27320E-04-5.32277E-05-3.20588E-05 1.26196E-05-1.70889E-19 3.98019E-19
 -1      3513 1.19916E-04-5.09839E-05-2.94269E-05 2.07955E-05-2.71021E-19 4.48087E-19
 -1      3514 1.30898E-04-4.60357E-05-3.67629E-05-3.92535E-06-3.56045E-19-1.11114E-18
 -1      3515 1.31292E-04-5.08817E-05-3.42421E-05 4.00933E-06-6.69950E-20-2.25298E-19
 -1      3516 8.22872E-05-3.07622E-05-2.15740E-05-3.72614E-05-1.06091E-19 1.59390E-18
 -1      3517 9.60085E-05-3.90841E-05-2.44559E-05-3.50982E-05 4.38035E-19-1.97332E-19
 -1      3518 7.88187E-05-2.57899E-05-2.25529E-05-3.15299E-05-1.23349E-19 4.48636E-19
 -1      3519 9.60614E-05-2.88596E-05-2.88016E-05-9.31992E-07 3.14876E-19-8.02713E-19
 -1      3520 9.61017E-05-2.87399E-05-2.88652E-05-8.74330E-07 2.61918E-19-7.56709E-19
 -1      3521 9.63287E-05-2.86629E-05-2.90017E-05-7.32127E-07 2.76143E-19-1.01783E-18
 -1      3522 9.62464E-05-2.89446E-05-2.88458E-05-8.49387E-07 2.60560E-19-9.33677E-19
 -1      3523 9.44937E-05-2.24218E-05-3.08807E-05-3.33436E-06-1.22500E-18-2.72488E-18
 -1      3524 1.14176E-04-1.36490E-05-4.33701E-05-8.87061E-06 4.00673E-19-9.73109E-19
 -1      3525 1.18942E-04-2.07009E-05-4.20742E-05-1.30477E-05 5.72277E-19-1.94923E-19
 -1      3526 9.48922E-05-2.35091E-05-3.06012E-05 2.65266E-06 1.53278E-18-1.98090E-18
 -1      3527 9.49779E-05-2.35743E-05-3.06079E-05 2.23976E-06 1.42288E-18-1.84764E-18
 -1      3528 9.45395E-05-2.25010E-05-3.08656E-05-2.68452E-06-9.63856E-19-2.67242E-18
 -1      3529 9.50355E-05-2.36715E-05-3.05885E-05-2.70372E-06-1.19624E-18-2.57515E-18
 -1      3530 9.53364E-05-2.46290E-05-3.03111E-05-1.95771E-06-1.04323E-18-2.45098E-18
 -1      3531 6.23655E-05-1.47822E-05-2.00442E-05 2.75194E-05 2.34993E-18-7.78159E-19
 -1      3532 5.56775E-05-9.16785E-06-1.98024E-05 1.83549E-05 2.14307E-18-4.26587E-19
 -1      3533 6.14330E-05-1.04853E-05-2.17668E-05 1.63657E-05 2.33205E-18-9.44177E-19
 -1      3534 9.38392E-05-2.10181E-05-3.12206E-05 8.01849E-07 6.73847E-19-2.43097E-18
 -1      3535 9.37906E-05-2.09206E-05-3.12396E-05 2.40394E-07 3.47538E-19-2.63998E-18
 -1      3536 9.31117E-05-1.95862E-05-3.14943E-05-5.95065E-07 8.14126E-20-2.81859E-18
 -1      3537 9.59779E-05-2.62805E-05-2.98684E-05-7.08041E-07-7.35879E-19-2.15339E-18
 -1      3538 1.27168E-04-3.13442E-05-4.12545E-05 1.18678E-05 1.86030E-19-1.47132E-18
 -1      3539 1.27072E-04-2.61778E-05-4.35391E-05 1.31298E-05-1.78618E-19-1.11446E-18
 -1      3540 1.20798E-04-2.16874E-05-4.26046E-05 1.26140E-05 4.27778E-19-4.09382E-19
 -1      3541 1.07490E-04-3.70766E-05-3.01697E-05 3.33167E-06 1.12295E-18-1.10893E-18
 -1      3542 6.47533E-05-1.12177E-05-2.29883E-05 1.36987E-05 2.27950E-18-8.03940E-19
 -1      3543 6.92452E-05-1.27324E-05-2.42245E-05 1.21248E-05 2.10485E-18-7.04255E-19
 -1      3544 7.49141E-05-1.64727E-05-2.48933E-05 1.52397E-05 1.18840E-18-1.70642E-18
 -1      3545 6.95823E-05-1.53398E-05-2.30000E-05 2.07633E-05 2.28579E-18-1.30139E-18
 -1      3546 1.25651E-04-4.11878E-05-3.62599E-05-7.03172E-06-1.36759E-18-9.52555E-19
 -1      3547 7.32956E-05-1.76341E-05-2.37685E-05-2.07449E-05 2.95026E-19-9.57002E-19
 -1      3548 1.12692E-04-1.19940E-05-4.34793E-05 6.05599E-06 4.35322E-19-1.49207E-19
 -1      3549 1.08423E-04-1.21788E-05-4.12267E-05 3.52797E-06-1.25229E-19-7.67690E-19
 -1      3550 1.13560E-04-1.46944E-05-4.25126E-05 8.59257E-06 6.55074E-19 5.83270E-19
 -1      3551 1.14533E-04-4.84466E-05-2.83219E-05 2.37398E-05-4.33443E-20 3.72483E-19
 -1      3552 1.07103E-04-4.33767E-05-2.72891E-05 2.48709E-05 6.18413E-19-1.83674E-19
 -1      3553 1.17024E-04-4.76576E-05-2.96269E-05 1.62052E-05-5.49769E-19-2.56364E-19
 -1      3554 1.03496E-04-4.32458E-05-2.55050E-05-3.32256E-05 1.41846E-18-8.11166E-20
 -1      3555 1.09927E-04-4.67286E-05-2.70310E-05-2.95399E-05 2.24355E-18-9.02583E-19
 -1      3556 9.64450E-05-3.75178E-05-2.52326E-05-3.16344E-05 1.06168E-18-1.78120E-18
 -1      3557 1.28995E-04-5.61463E-05-3.11670E-05-2.02179E-05 4.07595E-19-1.28389E-18
 -1      3558 1.30506E-04-5.43340E-05-3.26655E-05-1.32209E-05 1.62524E-20-1.37399E-18
 -1      3559 1.21615E-04-5.28141E-05-2.94478E-05-2.31603E-05 1.42456E-18-2.88885E-19
 -1      3560 1.34400E-04-5.08462E-05-3.59233E-05-2.48021E-06-6.09857E-19-2.01223E-18
 -1      3561 1.37670E-04-4.81300E-05-3.85589E-05 2.31266E-06-2.99373E-19-2.09222E-18
 -1      3562 1.32914E-04-4.20601E-05-3.90421E-05 7.34800E-06 1.56820E-19-2.18206E-18
 -1      3563 9.54493E-05-2.46652E-05-3.03305E-05-1.62577E-06-8.03931E-19-2.39263E-18
 -1      3564 9.40607E-05-2.14753E-05-3.11221E-05 1.75651E-06 1.11799E-18-2.56351E-18
 -1      3565 9.39237E-05-2.11874E-05-3.11801E-05 1.24261E-06 8.49429E-19-2.61808E-18
 -1      3566 9.45864E-05-2.23556E-05-3.09372E-05 8.27275E-07 7.12760E-19-2.28317E-18
 -1      3567 8.23509E-05-2.96489E-05-2.24821E-05 3.48009E-05 1.91122E-18 1.09320E-19
 -1      3568 7.06766E-05-2.13276E-05-2.09652E-05 3.15248E-05 1.95732E-18-6.34692E-19
 -1      3569 7.45771E-05-2.12347E-05-2.26449E-05 2.74220E-05 2.37748E-18-5.11145E-19
 -1      3570 1.17582E-04-2.59798E-05-3.93470E-05-1.22697E-05-6.49826E-19-1.06712E-18
 -1      3571 9.32337E-05-3.24197E-05-2.58527E-05-2.67922E-05 8.50095E-19-1.08152E-18
 -1      3572 8.54287E-05-2.74393E-05-2.49483E-05-2.65259E-05 1.29595E-18-2.60674E-19
 -1      3573 9.25496E-05-3.46747E-05-2.46368E-05 3.09151E-05 1.20681E-18-1.64222E-18
 -1      3574 1.10121E-04-1.38644E-05-4.13841E-05-5.51125E-06 1.43122E-19-1.11257E-18
 -1      3575 1.25969E-04-4.98052E-05-3.26201E-05 6.41261E-06-5.26209E-19-1.13866E-18
 -1      3576 5.52793E-05-1.08842E-05-1.85719E-05-2.22579E-05-6.34692E-19-2.13452E-18
 -1      3577 9.43741E-05-2.21182E-05-3.09773E-05-2.35972E-06-8.09634E-19-2.58687E-18
 -1      3578 9.49379E-05-2.33085E-05-3.06926E-05-1.80737E-06-7.74562E-19-2.41235E-18
 -1      3579 9.41548E-05-2.16445E-05-3.10759E-05-1.93763E-06-5.15539E-19-2.42828E-18
 -1      3580 6.47390E-05-1.49398E-05-2.12090E-05-2.35832E-05-4.83073E-19-1.07616E-18
 -1      3581 9.63228E-05-2.70849E-05-2.96708E-05-1.77764E-07-4.81680E-19-1.82287E-18
 -1      3582 9.64111E-05-2.75823E-05-2.95033E-05 1.22133E-07-4.90102E-19-1.81877E-18
 -1      3583 1.11527E-04-2.20937E-05-3.84815E-05-1.15934E-05-5.54661E-19-4.57108E-19
 -1      3584 1.16015E-04-2.94257E-05-3.70799E-05-1.21361E-05-1.53865E-18-1.27292E-18
 -1      3585 9.62714E-05-2.91727E-05-2.87562E-05-7.62257E-07 3.53118E-20-1.07984E-18
 -1      3586 9.63346E-05-2.91189E-05-2.88047E-05-7.63531E-07 1.84690E-19-1.05304E-18
 -1      3587 1.20548E-04-3.73517E-05-3.57815E-05-9.69659E-06-1.22475E-18-1.65444E-19
 -1      3588 1.23996E-04-4.34588E-05-3.43787E-05-4.78709E-06-6.83145E-19-4.82412E-19
 -1      3589 9.37929E-05-2.09190E-05-3.12401E-05-2.20591E-07 2.30343E-19-2.69647E-18
 -1      3590 9.38355E-05-2.10140E-05-3.12210E-05-7.81270E-07-3.25238E-20-2.63329E-18
 -1      3591 9.45093E-05-2.21866E-05-3.09786E-05 9.68786E-09 2.88638E-19-2.45388E-18
 -1      3592 9.65199E-05-2.85930E-05-2.91077E-05 5.86022E-07-3.15620E-19-1.28551E-18
 -1      3593 9.64877E-05-2.87908E-05-2.90148E-05 6.81498E-07-2.28667E-19-1.37420E-18
 -1      3594 9.64460E-05-2.89423E-05-2.89274E-05 7.24157E-07-2.91277E-19-1.47082E-18
 -1      3595 9.63914E-05-2.90520E-05-2.88603E-05 7.59563E-07-3.91966E-19-1.66499E-18
 -1      3596 9.66146E-05-2.88713E-05-2.90341E-05 5.92114E-07-3.77192E-19-1.30362E-18
 -1      3597 9.63225E-05-2.91266E-05-2.87963E-05 7.63065E-07-2.87362E-19-1.67107E-18
 -1      3598 9.62582E-05-2.91764E-05-2.87491E-05 7.59402E-07-1.91239E-19-1.56621E-18
 -1      3599 9.65047E-05-2.91241E-05-2.88791E-05 6.52254E-07-3.33728E-19-1.43122E-18
 -1      3600 9.61773E-05-2.91996E-05-2.87034E-05 7.38671E-07-3.42627E-19-1.36950E-18
 -1      3601 9.61114E-05-2.92098E-05-2.86713E-05 7.11711E-07-4.70405E-19-1.41413E-18
 -1      3602 9.63562E-05-2.92389E-05-2.87665E-05 6.48102E-07-3.41850E-19-1.07089E-18
 -1      3603 9.60282E-05-2.92003E-05-2.86397E-05 6.77778E-07-4.74481E-19-1.43434E-18
 -1      3604 9.59653E-05-2.91857E-05-2.86188E-05 6.38835E-07-5.28965E-19-1.29466E-18
 -1      3605 9.61935E-05-2.92622E-05-2.86867E-05 6.05106E-07-4.73087E-19-1.22201E-18
 -1      3606 9.58856E-05-2.91565E-05-2.85978E-05 5.99466E-07-6.28064E-19-1.18095E-18
 -1      3607 9.58283E-05-2.91272E-05-2.85850E-05 5.56336E-07-7.67060E-19-8.55358E-19
 -1      3608 9.60321E-05-2.92280E-05-2.86320E-05 5.41845E-07-3.92651E-19-1.08639E-18
 -1      3609 9.57553E-05-2.90874E-05-2.85718E-05 5.16776E-07-9.52504E-19-6.40954E-19
 -1      3610 9.57046E-05-2.90505E-05-2.85649E-05 4.74620E-07-9.74995E-19-7.62820E-19
 -1      3611 9.58809E-05-2.91599E-05-2.85962E-05 4.71291E-07-6.20543E-19-8.05926E-19
 -1      3612 9.56396E-05-2.90060E-05-2.85573E-05 4.38275E-07-1.29428E-18-8.19708E-19
 -1      3613 9.55956E-05-2.89661E-05-2.85544E-05 4.00368E-07-1.04669E-18-1.09132E-18
 -1      3614 9.57443E-05-2.90742E-05-2.85742E-05 4.02169E-07-1.04613E-18-5.99320E-19
 -1      3615 9.55388E-05-2.89209E-05-2.85507E-05 3.69393E-07-8.64300E-19-1.27544E-18
 -1      3616 9.55012E-05-2.88813E-05-2.85504E-05 3.37717E-07-7.39475E-19-1.22328E-18
 -1      3617 9.56237E-05-2.89816E-05-2.85619E-05 3.40177E-07-1.05316E-18-8.42693E-19
 -1      3618 9.54523E-05-2.88379E-05-2.85493E-05 3.13485E-07-3.07055E-19-1.45314E-18
 -1      3619 9.54207E-05-2.88007E-05-2.85505E-05 2.89183E-07-1.84726E-19-1.22540E-18
 -1      3620 9.55189E-05-2.88892E-05-2.85564E-05 2.89023E-07-6.65601E-19-9.16485E-19
 -1      3621 9.53791E-05-2.87611E-05-2.85509E-05 2.72673E-07 7.06532E-21-1.23201E-18
 -1      3622 9.53535E-05-2.87282E-05-2.85528E-05 2.56384E-07 3.91517E-20-6.32542E-19
 -1      3623 9.54291E-05-2.88019E-05-2.85551E-05 2.51273E-07 7.08236E-20-8.01853E-19
 -1      3624 9.53191E-05-2.86943E-05-2.85539E-05 2.48486E-07 2.14077E-19-2.73344E-19
 -1      3625 9.53003E-05-2.86680E-05-2.85558E-05 2.40577E-07 2.73150E-19-2.78881E-19
 -1      3626 9.53534E-05-2.87236E-05-2.85562E-05 2.29066E-07 3.13278E-19-4.22826E-19
 -1      3627 9.52739E-05-2.86424E-05-2.85567E-05 2.42341E-07-1.71349E-19-2.91736E-19
 -1      3628 9.52638E-05-2.86260E-05-2.85580E-05 2.43029E-07 1.68716E-19-5.40129E-19
 -1      3629 9.52927E-05-2.86588E-05-2.85579E-05 2.24700E-07 3.04678E-19 6.46457E-20
 -1      3630 9.52480E-05-2.86127E-05-2.85583E-05 2.55839E-07 2.23672E-19-5.68010E-19
 -1      3631 9.52507E-05-2.86115E-05-2.85584E-05 2.65195E-07 4.94632E-20-6.20614E-19
 -1      3632 9.52500E-05-2.86141E-05-2.85589E-05 2.41134E-07-9.70548E-21 1.75801E-19
 -1      3633 9.52507E-05-2.86168E-05-2.85574E-05 2.90825E-07 2.33942E-19-8.92879E-19
 -1      3634 9.52731E-05-2.86388E-05-2.85560E-05 3.08582E-07 3.81168E-19-8.69029E-19
 -1      3635 9.52328E-05-2.85999E-05-2.85580E-05 2.82334E-07 3.70352E-20-8.79023E-19
 -1      3636 9.52980E-05-2.86726E-05-2.85533E-05 3.49026E-07 2.17326E-19-8.37005E-19
 -1      3637 9.53514E-05-2.87295E-05-2.85501E-05 3.74104E-07 1.94839E-19-8.65516E-19
 -1      3638 9.52548E-05-2.86324E-05-2.85543E-05 3.53301E-07 1.32821E-19-1.23095E-18
 -1      3639 9.54158E-05-2.88062E-05-2.85458E-05 4.30983E-07 1.73689E-19-1.22298E-18
 -1      3640 9.55167E-05-2.89144E-05-2.85410E-05 4.60520E-07 2.25732E-19-1.13518E-18
 -1      3641 9.53394E-05-2.87364E-05-2.85472E-05 4.59545E-07-2.14483E-20-3.26816E-19
 -1      3642 9.56429E-05-2.90538E-05-2.85356E-05 5.33702E-07 9.63522E-20-9.44403E-19
 -1      3643 9.58139E-05-2.92349E-05-2.85303E-05 5.61338E-07 3.94767E-20-1.95098E-19
 -1      3644 9.55228E-05-2.89474E-05-2.85372E-05 6.05355E-07 3.89674E-19-2.61961E-19
 -1      3645 9.60338E-05-2.94624E-05-2.85258E-05 6.46266E-07 1.31090E-19-5.74327E-20
 -1      3646 9.63040E-05-2.97418E-05-2.85226E-05 6.59368E-07 7.61216E-19 9.52097E-20
 -1      3647 9.58583E-05-2.93138E-05-2.85269E-05 7.89997E-07 4.09096E-19 3.09064E-20
 -1      3648 9.66597E-05-3.00870E-05-2.85229E-05 7.42454E-07 6.81628E-19-7.27103E-19
 -1      3649 9.70623E-05-3.04902E-05-2.85270E-05 7.18112E-07 6.02479E-19-6.04286E-19
 -1      3650 9.64192E-05-2.98959E-05-2.85217E-05 1.00055E-06 3.15315E-19-3.84947E-19
 -1      3651 9.76049E-05-3.09818E-05-2.85396E-05 7.69700E-07 8.67928E-19-3.18338E-19
 -1      3652 9.81707E-05-3.15255E-05-2.85597E-05 6.69832E-07 1.03467E-18-4.43895E-19
 -1      3653 9.72993E-05-3.07608E-05-2.85334E-05 1.19995E-06 8.51550E-19 9.65740E-20
 -1      3654 9.89534E-05-3.21794E-05-2.85977E-05 6.34856E-07 6.90706E-19-9.50586E-21
 -1      3655 9.96973E-05-3.28545E-05-2.86483E-05 4.02370E-07 4.25062E-19 3.71245E-20
 -1      3656 9.86050E-05-3.19660E-05-2.85823E-05 1.30945E-06 9.65971E-19-9.69580E-20
 -1      3657 1.00757E-04-3.36519E-05-2.87325E-05 1.91819E-07-2.10534E-19 6.32059E-19
 -1      3658 1.01656E-04-3.43955E-05-2.88344E-05-2.47926E-07 2.36962E-20 1.06778E-18
 -1      3659 1.00431E-04-3.35234E-05-2.87030E-05 1.18737E-06 6.24928E-19 2.94456E-20
 -1      3660 1.02978E-04-3.52468E-05-2.89952E-05-7.53924E-07-2.40747E-19 5.08776E-19
 -1      3661 1.03942E-04-3.59079E-05-2.91758E-05-1.47411E-06-4.85091E-19-1.55969E-19
 -1      3662 1.02811E-04-3.53365E-05-2.89489E-05 6.17010E-07-2.45284E-19 5.99216E-19
 -1      3663 1.05413E-04-3.66139E-05-2.94529E-05-2.40305E-06-2.63225E-19-4.91725E-19
 -1      3664 1.06252E-04-3.69179E-05-2.97429E-05-3.43283E-06 6.86171E-20-2.87859E-22
 -1      3665 1.05630E-04-3.71077E-05-2.93939E-05-6.72953E-07-4.82715E-19 5.91203E-19
 -1      3666 1.07585E-04-3.71163E-05-3.01798E-05-4.82901E-06-2.14731E-19-7.44496E-19
 -1      3667 1.08025E-04-3.66943E-05-3.06013E-05-6.05108E-06-3.90725E-19-5.84254E-19
 -1      3668 1.08505E-04-3.82283E-05-3.01303E-05-2.92014E-06-6.41009E-19-1.35967E-19
 -1      3669 1.08816E-04-3.59865E-05-3.12227E-05-7.73529E-06 1.89510E-19-1.39863E-18
 -1      3670 1.08582E-04-3.44684E-05-3.17751E-05-8.85601E-06 3.98220E-19-1.19613E-18
 -1      3671 1.10709E-04-3.78109E-05-3.12409E-05-6.02174E-06-4.02075E-19-1.73546E-18
 -1      3672 1.08312E-04-3.24495E-05-3.25645E-05-1.02135E-05-2.88742E-19-4.81884E-19
 -1      3673 1.07340E-04-2.99031E-05-3.31723E-05-1.05613E-05-1.06857E-18-7.27353E-19
 -1      3674 1.11295E-04-3.48003E-05-3.27402E-05-9.38109E-06-1.01768E-20-1.49133E-18
 -1      3675 1.07167E-04-2.69236E-05-3.44558E-05-1.10202E-05-1.03674E-18-8.10965E-19
 -1      3676 1.05672E-04-2.37268E-05-3.50962E-05-1.01396E-05-8.55305E-19-3.15007E-19
 -1      3677 1.00912E-04-1.69296E-05-3.60084E-05-2.32509E-06 6.61149E-20-9.07981E-19
 -1      3678 1.00653E-04-1.66355E-05-3.59854E-05 5.85868E-07-1.02600E-19-8.41154E-19
 -1      3679 1.03333E-04-1.60424E-05-3.74451E-05 3.92021E-06 3.42337E-20 4.28367E-19
 -1      3680 1.04294E-04-1.79070E-05-3.71065E-05 6.64313E-06-2.58044E-19 3.34113E-19
 -1      3681 1.06620E-04-2.84775E-05-3.34647E-05 1.01821E-05 2.47816E-18-6.13239E-19
 -1      3682 1.07729E-04-3.11887E-05-3.28537E-05 1.00543E-05 2.38474E-18-4.21650E-19
 -1      3683 1.08060E-04-3.33471E-05-3.20405E-05 8.70877E-06 1.64720E-18-1.21584E-18
 -1      3684 1.08275E-04-3.49803E-05-3.14625E-05 7.73038E-06 1.08844E-18-7.49283E-19
 -1      3685 1.10947E-04-3.36901E-05-3.31170E-05 9.32071E-06 1.51171E-18-7.93769E-19
 -1      3686 1.08546E-04-3.61955E-05-3.10310E-05 6.08468E-06 1.11149E-18-8.18420E-19
 -1      3687 1.07940E-04-3.67169E-05-3.05565E-05 5.00369E-06 1.43971E-18-8.83349E-19
 -1      3688 1.11154E-04-3.90161E-05-3.08605E-05 2.52774E-06 7.74056E-19-4.25288E-19
 -1      3689 1.11617E-04-3.73732E-05-3.17658E-05 6.11978E-06 1.47417E-18-1.42220E-18
 -1      3690 9.58450E-05-2.91367E-05-2.85881E-05-5.65278E-07 5.52866E-20-8.32079E-19
 -1      3691 9.59018E-05-2.91648E-05-2.86011E-05-6.07861E-07 8.87268E-20-1.09412E-18
 -1      3692 9.61261E-05-2.92125E-05-2.86764E-05-7.17688E-07 4.93537E-20-1.10875E-18
 -1      3693 9.61914E-05-2.91995E-05-2.87095E-05-7.43141E-07-1.60180E-20-1.12155E-18
 -1      3694 9.63706E-05-2.92361E-05-2.87738E-05-6.51556E-07 4.27501E-20-1.54120E-18
 -1      3695 9.57221E-05-2.90608E-05-2.85679E-05-4.84200E-07 1.10864E-19-1.01372E-18
 -1      3696 9.57723E-05-2.90974E-05-2.85748E-05-5.25971E-07 2.59899E-19-7.48758E-19
 -1      3697 9.58984E-05-2.91696E-05-2.85995E-05-4.80619E-07 8.70264E-20-1.05119E-18
 -1      3698 9.56133E-05-2.89751E-05-2.85581E-05-4.10277E-07 5.57258E-19-1.31166E-18
 -1      3699 9.56571E-05-2.90159E-05-2.85605E-05-4.47834E-07 3.86351E-19-1.19106E-18
 -1      3700 9.57620E-05-2.90842E-05-2.85775E-05-4.12160E-07 5.18837E-19-1.25813E-18
 -1      3701 9.55175E-05-2.88849E-05-2.85558E-05-3.47543E-07 5.64466E-19-1.61436E-18
 -1      3702 9.55559E-05-2.89277E-05-2.85551E-05-3.78855E-07 7.13442E-19-1.39434E-18
 -1      3703 9.56408E-05-2.89892E-05-2.85660E-05-3.50126E-07 6.01226E-19-1.49798E-18
 -1      3704 9.54316E-05-2.87923E-05-2.85589E-05-2.98040E-07 5.91773E-19-1.58917E-18
 -1      3705 9.54662E-05-2.88366E-05-2.85559E-05-3.22026E-07 4.63742E-19-1.61091E-18
 -1      3706 9.55333E-05-2.88900E-05-2.85621E-05-2.97577E-07 6.24546E-19-1.79139E-18
 -1      3707 9.53506E-05-2.86957E-05-2.85658E-05-2.62290E-07 7.18150E-19-1.01033E-18
 -1      3708 9.53841E-05-2.87425E-05-2.85611E-05-2.78571E-07 7.29854E-19-1.17985E-18
 -1      3709 9.54357E-05-2.87881E-05-2.85637E-05-2.55669E-07 4.28633E-19-1.13527E-18
 -1      3710 9.52675E-05-2.85907E-05-2.85754E-05-2.39438E-07 1.11305E-18-9.54066E-19
 -1      3711 9.53037E-05-2.86426E-05-2.85696E-05-2.48248E-07 1.04481E-18-9.81358E-19
 -1      3712 9.53427E-05-2.86817E-05-2.85691E-05-2.23885E-07 7.15526E-19-9.92804E-19
 -1      3713 9.51723E-05-2.84695E-05-2.85870E-05-2.26962E-07 1.06262E-18-1.01866E-18
 -1      3714 9.52165E-05-2.85309E-05-2.85802E-05-2.29276E-07 1.20610E-18-9.90861E-19
 -1      3715 9.52464E-05-2.85659E-05-2.85770E-05-1.99856E-07 1.10000E-18-1.42238E-18
 -1      3716 9.50503E-05-2.83197E-05-2.85996E-05-2.19698E-07 4.75449E-19-1.19083E-18
 -1      3717 9.51107E-05-2.83975E-05-2.85923E-05-2.17783E-07 1.07320E-18-9.19801E-19
 -1      3718 9.51362E-05-2.84326E-05-2.85863E-05-1.78666E-07 9.36505E-19-1.11017E-18
 -1      3719 9.48907E-05-2.81352E-05-2.86112E-05-2.09345E-07 5.88624E-19-1.21354E-18
 -1      3720 9.49737E-05-2.82328E-05-2.86043E-05-2.07104E-07 5.03428E-19-1.33933E-18
 -1      3721 9.50013E-05-2.82745E-05-2.85955E-05-1.52343E-07 5.65441E-19-1.35057E-18
 -1      3722 9.46479E-05-2.78736E-05-2.86210E-05-1.78952E-07 3.24674E-19-1.03329E-18
 -1      3723 9.47800E-05-2.80144E-05-2.86150E-05-1.84011E-07 6.29416E-19-9.67560E-19
 -1      3724 9.48196E-05-2.80727E-05-2.86030E-05-1.06300E-07 4.19047E-19-7.20234E-19
 -1      3725 9.42850E-05-2.75102E-05-2.86238E-05-9.99876E-08 1.24602E-19-1.13734E-18
 -1      3726 9.44888E-05-2.77082E-05-2.86216E-05-1.26608E-07 4.14386E-20-1.10495E-18
 -1      3727 9.45574E-05-2.77997E-05-2.86060E-05-1.38636E-08 2.70488E-19-9.66250E-19
 -1      3728 9.37409E-05-2.70040E-05-2.86119E-05 7.69588E-08 5.10625E-19-2.06214E-18
 -1      3729 9.40549E-05-2.72825E-05-2.86179E-05 3.42520E-09 3.91026E-19-1.51498E-18
 -1      3730 9.41802E-05-2.74337E-05-2.85989E-05 1.66037E-07 3.43701E-19-1.72244E-18
 -1      3731 9.29325E-05-2.63072E-05-2.85707E-05 4.35478E-07-4.55976E-19-1.23516E-18
 -1      3732 9.34112E-05-2.66938E-05-2.85936E-05 2.70836E-07 6.28615E-20-1.66752E-18
 -1      3733 9.36383E-05-2.69458E-05-2.85727E-05 5.01686E-07 4.46440E-21-2.13607E-18
 -1      3734 9.17538E-05-2.53744E-05-2.84753E-05 1.11303E-06-1.06237E-18-1.40178E-18
 -1      3735 9.24702E-05-2.58961E-05-2.85301E-05 7.82558E-07-6.96072E-19-1.10875E-18
 -1      3736 9.28718E-05-2.63119E-05-2.85119E-05 1.10185E-06-7.08060E-19-1.56969E-18
 -1      3737 9.00826E-05-2.41847E-05-2.82832E-05 2.32857E-06-2.56966E-19-1.60539E-18
 -1      3738 9.11285E-05-2.48563E-05-2.83962E-05 1.71025E-06-3.87105E-19-1.60090E-18
 -1      3739 9.18193E-05-2.55297E-05-2.83916E-05 2.13491E-06-5.64896E-19-2.08649E-18
 -1      3740 8.78048E-05-2.27866E-05-2.79255E-05 4.41656E-06-1.22879E-19-2.67404E-18
 -1      3741 8.92826E-05-2.35868E-05-2.81402E-05 3.31965E-06-2.39297E-19-2.14265E-18
 -1      3742 9.04393E-05-2.46515E-05-2.81724E-05 3.85186E-06 3.38089E-19-2.18167E-18
 -1      3743 8.48721E-05-2.13813E-05-2.72929E-05 7.86082E-06-1.71140E-19-2.85550E-18
 -1      3744 8.68713E-05-2.22100E-05-2.76807E-05 6.00227E-06-2.60997E-19-2.94694E-18
 -1      3745 8.87587E-05-2.38441E-05-2.77962E-05 6.60643E-06 1.02493E-19-2.83264E-18
 -1      3746 8.15259E-05-2.05035E-05-2.62280E-05 1.33084E-05 9.27828E-19-2.88095E-18
 -1      3747 8.39635E-05-2.10818E-05-2.68947E-05 1.02999E-05 7.03424E-19-2.41524E-18
 -1      3748 8.69727E-05-2.34809E-05-2.71838E-05 1.08505E-05 9.06478E-20-2.82659E-18
 -1      3749 1.13524E-04-4.13863E-05-3.09646E-05-2.25128E-07-2.64403E-19-1.86103E-18
 -1      3750 1.15236E-04-4.29241E-05-3.09309E-05-3.14968E-06-1.87234E-19-1.82624E-18
 -1      3751 1.14191E-04-4.08376E-05-3.14337E-05 1.77221E-06 6.92886E-19-8.75018E-19
 -1      3752 9.44803E-05-2.23271E-05-3.09267E-05 2.54092E-06 1.48274E-18-2.14091E-18
 -1      3753 9.42212E-05-2.18090E-05-3.10374E-05 2.14483E-06 1.23820E-18-2.37218E-18
 -1      3754 1.16583E-04-4.51358E-05-3.06528E-05-7.52259E-06 6.01109E-19-1.38101E-18
 -1      3755 1.16393E-04-4.57816E-05-3.02022E-05-1.17893E-05 1.48150E-18 4.24767E-19
 -1      3756 1.18418E-04-4.53999E-05-3.12875E-05-5.07603E-06-3.59327E-20-1.69517E-18
 -1      3757 9.65108E-05-2.83008E-05-2.92368E-05-4.71448E-07 2.78785E-19-1.64819E-18
 -1      3758 9.64970E-05-2.79694E-05-2.93642E-05-2.85129E-07 3.21050E-19-1.73124E-18
 -1      3759 9.59811E-05-2.91926E-05-2.86226E-05-6.46685E-07 2.45969E-19-1.05785E-18
 -1      3760 9.60434E-05-2.92053E-05-2.86440E-05-6.84728E-07 1.58865E-19-8.79061E-19
 -1      3761 9.62094E-05-2.92657E-05-2.86920E-05-6.11388E-07 9.31928E-20-1.61449E-18
 -1      3762 9.60490E-05-2.92355E-05-2.86361E-05-5.49978E-07 2.76797E-19-1.25898E-18
 -1      3763 9.53607E-05-2.44258E-05-3.04079E-05 1.55362E-06 1.16949E-18-1.81574E-18
 -1      3764 9.65011E-05-2.80063E-05-2.93503E-05 3.03026E-07-4.61493E-19-1.69310E-18
 -1      3765 9.65120E-05-2.83298E-05-2.92246E-05 4.85137E-07-3.55321E-19-1.39510E-18
 -1      3766 9.65544E-05-2.76816E-05-2.95163E-05 1.41009E-07-3.64170E-19-1.43989E-18
 -1      3767 9.53809E-05-2.43437E-05-3.04521E-05-1.49453E-06-7.10001E-19-2.39880E-18
 -1      3768 9.57066E-05-2.52092E-05-3.02125E-05-1.06093E-06-6.34148E-19-2.27043E-18
 -1      3769 9.52586E-05-2.39480E-05-3.05602E-05-1.25697E-06-5.30208E-19-1.90909E-18
 -1      3770 9.87460E-05-3.77568E-05-2.61367E-05-2.84569E-05 8.82072E-19-1.75795E-18
 -1      3771 9.39084E-05-2.11457E-05-3.11895E-05-1.11727E-06-8.49529E-20-2.63099E-18
 -1      3772 9.40425E-05-2.14249E-05-3.11337E-05-1.63307E-06-2.97119E-19-2.62398E-18
 -1      3773 9.47157E-05-2.26855E-05-3.08570E-05-1.26846E-06-2.90158E-19-2.30278E-18
 -1      3774 9.45743E-05-2.23295E-05-3.09450E-05-7.04613E-07-6.92671E-20-2.55736E-18
 -1      3775 9.80776E-05-3.73919E-05-2.60726E-05 2.71731E-05 5.46998E-19-1.96291E-18
 -1      3776 8.93161E-05-3.07938E-05-2.50277E-05 2.68932E-05 7.17544E-19-1.92993E-18
 -1      3777 1.23879E-04-4.72029E-05-3.30746E-05 1.02080E-06-9.18147E-19-9.85106E-19
 -1      3778 1.21339E-04-4.81554E-05-3.12947E-05 7.84474E-06-5.15836E-19-1.33889E-18
 -1      3779 9.59676E-05-2.58922E-05-3.00338E-05-7.98781E-07-5.42163E-19-2.17363E-18
 -1      3780 9.61708E-05-2.66002E-05-2.98203E-05-3.70835E-07-5.16302E-19-2.01453E-18
 -1      3781 9.63119E-05-2.67147E-05-2.98243E-05-2.57703E-07-3.28400E-19-1.57005E-18
 -1      3782 9.59229E-05-2.55645E-05-3.01500E-05-7.12543E-07-3.72986E-19-1.84980E-18
 -1      3783 9.48060E-05-2.28735E-05-3.08098E-05 1.55821E-06 1.09963E-18-2.28539E-18
 -1      3784 9.57647E-05-2.52561E-05-3.02007E-05 1.08339E-06 9.44553E-19-1.72734E-18
 -1      3785 9.53349E-05-2.42097E-05-3.04949E-05 1.33756E-06 1.04818E-18-1.97995E-18
 -1      3786 1.10764E-04-2.92220E-05-3.49034E-05-1.15196E-05-8.61330E-19-5.22931E-19
 -1      3787 1.16217E-04-3.35245E-05-3.54966E-05-1.13117E-05-9.97580E-19-9.64553E-19
 -1      3788 9.51174E-05-2.35481E-05-3.06851E-05 8.32589E-07 8.46161E-19-2.25674E-18
 -1      3789 9.50523E-05-2.33742E-05-3.07262E-05 4.76294E-07 5.89891E-19-2.11444E-18
 -1      3790 9.65156E-05-2.91135E-05-2.88883E-05-6.51572E-07 1.25256E-20-1.54617E-18
 -1      3791 9.64011E-05-2.90405E-05-2.88694E-05-7.57873E-07 1.23937E-19-1.37776E-18
 -1      3792 9.64538E-05-2.89272E-05-2.89371E-05-7.19458E-07 1.62699E-19-1.36992E-18
 -1      3793 1.20360E-04-4.36384E-05-3.29077E-05-2.48373E-06-8.85443E-19-3.04836E-19
 -1      3794 8.28414E-05-2.62624E-05-2.42416E-05 2.70417E-05 1.38937E-18-2.29125E-18
 -1      3795 7.47061E-05-1.99938E-05-2.34276E-05 2.37930E-05 2.17198E-18-2.07068E-18
 -1      3796 7.75809E-05-2.01677E-05-2.44866E-05 2.05903E-05 1.67994E-18-1.92844E-18
 -1      3797 8.95099E-05-2.92889E-05-2.56473E-05 2.35643E-05 2.37103E-20-2.76129E-18
 -1      3798 9.66487E-05-2.84175E-05-2.92424E-05 4.34765E-07-2.54015E-19-1.26495E-18
 -1      3799 1.28695E-04-3.68150E-05-3.95844E-05 1.05048E-05 5.11476E-19-1.46910E-18
 -1      3800 1.23111E-04-3.07495E-05-3.95828E-05 1.23242E-05 3.02470E-19-2.95562E-19
 -1      3801 1.28486E-04-4.11950E-05-3.75168E-05 7.16125E-06 7.65308E-19-1.21805E-18
 -1      3802 1.02855E-04-2.06244E-05-3.53348E-05-8.14743E-06-8.37527E-19-8.63831E-19
 -1      3803 1.01669E-04-1.83590E-05-3.57078E-05-5.90976E-06-1.08301E-19-1.01528E-18
 -1      3804 1.08988E-04-1.85779E-05-3.87723E-05 9.03027E-06 5.84162E-19 2.15864E-18
 -1      3805 1.04670E-04-2.20379E-05-3.53639E-05 9.07297E-06 4.40166E-19 7.86000E-19
 -1      3806 9.60023E-05-2.60751E-05-2.99770E-05 6.22798E-07 7.56896E-19-1.71005E-18
 -1      3807 1.06238E-04-2.51432E-05-3.48164E-05 1.02344E-05 1.64589E-18 8.11689E-19
 -1      3808 1.14984E-04-3.61397E-05-3.38236E-05-9.07906E-06-3.68856E-20-1.43843E-19
 -1      3809 9.65472E-05-2.76372E-05-2.95317E-05-1.21209E-07 4.51638E-19-1.86920E-18
 -1      3810 9.64056E-05-2.75440E-05-2.95193E-05-9.98695E-08 4.89323E-19-1.70795E-18
 -1      3811 9.63250E-05-2.70403E-05-2.96866E-05 2.04858E-07 6.28500E-19-1.57170E-18
 -1      3812 1.09861E-04-2.71289E-05-3.54142E-05 1.10802E-05 1.75135E-18 1.39754E-18
 -1      3813 1.07730E-04-2.22315E-05-3.66777E-05-9.99853E-06-1.06094E-18-6.95353E-19
 -1      3814 9.65225E-05-2.85678E-05-2.91195E-05-5.75173E-07 2.28502E-19-1.56023E-18
 -1      3815 9.66482E-05-2.83861E-05-2.92555E-05-4.23183E-07 2.67578E-19-2.00963E-18
 -1      3816 9.64927E-05-2.87696E-05-2.90262E-05-6.73386E-07 1.95849E-19-1.48226E-18
 -1      3817 1.16284E-04-4.70717E-05-2.96827E-05-1.62421E-05 2.40155E-18 1.18695E-18
 -1      3818 1.12856E-04-4.58096E-05-2.86945E-05-2.12366E-05 2.84363E-18-5.68222E-19
 -1      3819 1.13881E-04-2.04843E-05-4.02484E-05 1.11018E-05 1.10099E-18 1.43590E-18
 -1      3820 1.18580E-04-4.77601E-05-3.04045E-05 1.10874E-05-6.83763E-19-1.61845E-18
 -1      3821 1.13798E-04-4.51114E-05-2.94140E-05 1.36408E-05-8.03924E-19-1.61885E-18
 -1      3822 1.17702E-04-4.54513E-05-3.09439E-05 5.38896E-06-9.56391E-19-1.36865E-18
 -1      3823 7.84087E-05-1.99380E-05-2.50849E-05 1.78975E-05 7.50033E-19-1.92720E-18
 -1      3824 8.07500E-05-2.03974E-05-2.57982E-05 1.54246E-05 3.21128E-19-2.94710E-18
 -1      3825 8.53866E-05-2.37663E-05-2.64104E-05 1.56926E-05 7.17252E-19-2.87461E-18
 -1      3826 8.37706E-05-2.43165E-05-2.54787E-05 2.06531E-05 2.81284E-19-2.95940E-18
 -1      3827 1.18653E-04-5.06828E-05-2.90610E-05-2.29936E-05 3.03418E-18 4.47596E-19
 -1      3828 1.22308E-04-5.18741E-05-3.03504E-05-1.80168E-05 2.13198E-18 5.04861E-20
 -1      3829 7.59758E-05-2.03583E-05-2.35096E-05-2.45891E-05 4.75205E-19-7.51980E-19
 -1      3830 1.31919E-04-5.29031E-05-3.39099E-05-7.13887E-06-6.16379E-19-2.35819E-18
 -1      3831 1.30162E-04-4.87265E-05-3.49322E-05-9.09344E-07-1.63545E-19-2.53500E-18
 -1      3832 1.26636E-04-5.20082E-05-3.19620E-05-1.16942E-05 6.70572E-19-1.70134E-18
 -1      3833 1.03572E-04-1.64591E-05-3.73276E-05-4.49494E-06-4.53970E-19 1.65032E-19
 -1      3834 9.52326E-05-2.38795E-05-3.05835E-05 1.07620E-06 8.85364E-19-2.33970E-18
 -1      3835 1.05928E-04-1.44413E-05-3.92985E-05-4.24334E-06-2.63970E-19 7.57585E-19
 -1      3836 1.08509E-04-1.80129E-05-3.88154E-05-9.72089E-06-6.04398E-19-9.34185E-20
 -1      3837 1.03903E-04-3.97211E-05-2.73966E-05 2.19145E-05 5.95610E-19-2.99319E-19
 -1      3838 1.11095E-04-4.62828E-05-2.77726E-05-2.64440E-05 2.25613E-18-8.50805E-19
 -1      3839 9.50291E-05-2.33046E-05-3.07472E-05 1.94437E-07 4.55003E-19-2.22860E-18
 -1      3840 9.50275E-05-2.33034E-05-3.07468E-05-1.79558E-07 2.18982E-19-2.48401E-18
 -1      3841 9.55588E-05-2.43407E-05-3.05066E-05 2.48927E-07 5.00958E-19-2.11219E-18
 -1      3842 1.19758E-04-4.86367E-05-3.04547E-05-1.37037E-05 1.34607E-18-1.50242E-19
 -1      3843 9.67541E-05-2.82548E-05-2.93545E-05 2.86282E-07-3.21228E-19-1.36805E-18
 -1      3844 9.67636E-05-2.85576E-05-2.92336E-05 4.00653E-07-1.24722E-19-1.46730E-18
 -1      3845 9.66612E-05-2.91116E-05-2.89480E-05 5.21820E-07-2.89438E-19-1.44761E-18
 -1      3846 9.65932E-05-2.92049E-05-2.88808E-05 5.40121E-07-2.78316E-19-1.33267E-18
 -1      3847 9.65113E-05-2.92641E-05-2.88188E-05 5.33772E-07-2.71629E-19-1.22716E-18
 -1      3848 9.64309E-05-2.92987E-05-2.87704E-05 5.26755E-07-1.92014E-19-1.06473E-18
 -1      3849 9.66448E-05-2.92595E-05-2.88812E-05 4.16369E-07-2.19971E-19-1.33015E-18
 -1      3850 9.63380E-05-2.93090E-05-2.87256E-05 5.07599E-07-3.84592E-19-9.89839E-19
 -1      3851 9.62550E-05-2.93054E-05-2.86918E-05 4.85800E-07-4.96933E-19-1.04894E-18
 -1      3852 9.64708E-05-2.93389E-05-2.87728E-05 4.03521E-07-2.59742E-19-1.04722E-18
 -1      3853 9.61608E-05-2.92848E-05-2.86604E-05 4.60265E-07-2.61338E-19-8.65547E-19
 -1      3854 9.60812E-05-2.92578E-05-2.86375E-05 4.31253E-07-1.97365E-19-7.51335E-19
 -1      3855 9.62849E-05-2.93338E-05-2.86953E-05 3.70589E-07-1.10578E-19-7.15280E-19
 -1      3856 9.59918E-05-2.92191E-05-2.86163E-05 4.03824E-07-5.66231E-19-7.76807E-19
 -1      3857 9.59188E-05-2.91790E-05-2.86017E-05 3.72831E-07-7.19554E-19-8.12002E-19
 -1      3858 9.61027E-05-2.92766E-05-2.86415E-05 3.28037E-07-4.58173E-19-7.52520E-19
 -1      3859 9.58371E-05-2.91310E-05-2.85880E-05 3.46536E-07-7.45554E-19-8.24407E-19
 -1      3860 9.57721E-05-2.90846E-05-2.85793E-05 3.17069E-07-9.46641E-19-6.97261E-19
 -1      3861 9.59331E-05-2.91899E-05-2.86058E-05 2.83174E-07-6.57640E-19-7.39944E-19
 -1      3862 9.56994E-05-2.90330E-05-2.85712E-05 2.93939E-07-1.04036E-18-9.60403E-19
 -1      3863 9.56425E-05-2.89847E-05-2.85666E-05 2.68317E-07-8.02695E-19-9.62586E-19
 -1      3864 9.57801E-05-2.90887E-05-2.85833E-05 2.41021E-07-9.15467E-19-7.06245E-19
 -1      3865 9.55787E-05-2.89332E-05-2.85623E-05 2.49789E-07-5.70576E-19-6.72884E-19
 -1      3866 9.55296E-05-2.88861E-05-2.85606E-05 2.29594E-07-5.49374E-19-4.17875E-19
 -1      3867 9.56447E-05-2.89830E-05-2.85703E-05 2.05105E-07-5.82803E-19-5.71804E-19
 -1      3868 9.54739E-05-2.88370E-05-2.85588E-05 2.16874E-07-1.57716E-19 4.06528E-20
 -1      3869 9.54322E-05-2.87930E-05-2.85588E-05 2.03336E-07 4.91018E-19-1.13679E-19
 -1      3870 9.55263E-05-2.88790E-05-2.85639E-05 1.78200E-07-1.57118E-20 7.72154E-20
 -1      3871 9.53839E-05-2.87480E-05-2.85585E-05 1.97754E-07 6.57853E-19 3.24048E-19
 -1      3872 9.53494E-05-2.87091E-05-2.85592E-05 1.92079E-07 7.63668E-19 6.08201E-19
 -1      3873 9.54232E-05-2.87808E-05-2.85617E-05 1.63028E-07 8.72435E-19 9.96362E-19
 -1      3874 9.53081E-05-2.86701E-05-2.85595E-05 1.95434E-07 4.57886E-19 4.98577E-19
 -1      3875 9.52816E-05-2.86385E-05-2.85603E-05 1.99103E-07 2.69714E-19 3.91047E-19
 -1      3876 9.53342E-05-2.86916E-05-2.85616E-05 1.62974E-07 4.84182E-19 9.98415E-19
 -1      3877 9.52479E-05-2.86081E-05-2.85604E-05 2.14026E-07 6.16152E-20 5.14932E-19
 -1      3878 9.52320E-05-2.85876E-05-2.85606E-05 2.29060E-07 1.01907E-19 5.48169E-19
 -1      3879 9.52593E-05-2.86157E-05-2.85621E-05 1.82836E-07 1.30436E-19 6.40098E-19
 -1      3880 9.52085E-05-2.85701E-05-2.85599E-05 2.59433E-07-9.70545E-20 8.93146E-20
 -1      3881 9.52083E-05-2.85669E-05-2.85588E-05 2.88559E-07-2.53409E-19-2.80237E-19
 -1      3882 9.52014E-05-2.85593E-05-2.85616E-05 2.29709E-07-1.21621E-19 7.02006E-19
 -1      3883 9.52004E-05-2.85695E-05-2.85566E-05 3.39784E-07 1.59861E-20-4.08419E-19
 -1      3884 9.52251E-05-2.85931E-05-2.85540E-05 3.86468E-07 8.86495E-20-4.34111E-19
 -1      3885 9.51681E-05-2.85335E-05-2.85588E-05 3.13794E-07-1.94321E-19 5.94152E-19
 -1      3886 9.52429E-05-2.86272E-05-2.85500E-05 4.65650E-07 2.41203E-19-2.56653E-19
 -1      3887 9.53073E-05-2.86922E-05-2.85456E-05 5.33722E-07 8.96503E-20-1.21289E-19
 -1      3888 9.51744E-05-2.85561E-05-2.85527E-05 4.49096E-07 1.74089E-19 2.67494E-19
 -1      3889 9.53682E-05-2.87751E-05-2.85397E-05 6.49246E-07 9.31265E-20 6.36116E-19
 -1      3890 9.54947E-05-2.89028E-05-2.85342E-05 7.41809E-07 7.72396E-19 5.73231E-19
 -1      3891 9.52469E-05-2.86556E-05-2.85426E-05 6.53502E-07 5.88223E-19 4.94187E-19
 -1      3892 9.56259E-05-2.90594E-05-2.85271E-05 9.01829E-07 2.35602E-19-3.90608E-19
 -1      3893 9.58465E-05-2.92785E-05-2.85222E-05 1.01885E-06 8.80560E-20-3.12330E-19
 -1      3894 9.54290E-05-2.88750E-05-2.85290E-05 9.47298E-07-4.11347E-21 3.61533E-19
 -1      3895 9.60894E-05-2.95427E-05-2.85162E-05 1.22769E-06 3.83547E-19-4.02927E-19
 -1      3896 9.64468E-05-2.98896E-05-2.85158E-05 1.36152E-06 9.20128E-19-1.48891E-19
 -1      3897 9.57878E-05-2.92761E-05-2.85147E-05 1.34862E-06 4.13655E-19-4.55494E-19
 -1      3898 9.68599E-05-3.03039E-05-2.85160E-05 1.61259E-06 1.06105E-18 9.67592E-20
 -1      3899 9.74062E-05-3.08190E-05-2.85276E-05 1.74057E-06 1.10891E-18 4.89670E-19
 -1      3900 9.64216E-05-2.99424E-05-2.85063E-05 1.86330E-06 1.25711E-18 2.85969E-19
 -1      3901 9.80667E-05-3.14300E-05-2.85440E-05 2.00444E-06 1.01601E-18 5.91618E-19
 -1      3902 9.88564E-05-3.21472E-05-2.85806E-05 2.07820E-06 1.30806E-18 6.94733E-19
 -1      3903 9.74658E-05-3.09760E-05-2.85184E-05 2.46590E-06 1.37049E-18 1.36066E-19
 -1      3904 9.98561E-05-3.29927E-05-2.86309E-05 2.28393E-06 7.44976E-19-3.10005E-20
 -1      3905 1.00929E-04-3.39178E-05-2.87143E-05 2.21781E-06 2.14111E-19 2.21277E-19
 -1      3906 9.90908E-05-3.24831E-05-2.85779E-05 3.06963E-06 6.93848E-19 5.94114E-20
 -1      3907 1.02345E-04-3.49882E-05-2.88307E-05 2.22532E-06 1.27880E-19-2.43677E-19
 -1      3908 1.03685E-04-3.60461E-05-2.89939E-05 1.89449E-06-6.32516E-20 1.46975E-19
 -1      3909 1.01478E-04-3.45235E-05-2.87348E-05 3.46841E-06 2.48209E-19-9.46542E-19
 -1      3910 1.05547E-04-3.72471E-05-2.92225E-05 1.50696E-06-9.35070E-20 6.87114E-19
 -1      3911 1.07044E-04-3.82405E-05-2.95094E-05 7.56849E-07-2.31926E-19 3.44008E-19
 -1      3912 1.04740E-04-3.70310E-05-2.90700E-05 3.32498E-06 3.04002E-19-7.12694E-19
 -1      3913 1.09226E-04-3.92826E-05-2.99195E-05-3.01433E-07-1.06666E-18 7.32705E-19
 -1      3914 1.10594E-04-3.97677E-05-3.03905E-05-1.58752E-06-1.43221E-18-8.76588E-20
 -1      3915 1.08824E-04-3.96541E-05-2.97061E-05 2.12683E-06-6.87190E-19-1.72402E-19
 -1      3916 1.15381E-04-3.85468E-05-3.29229E-05-7.58903E-06-9.20520E-20-5.24169E-19
 -1      3917 9.56708E-05-2.47353E-05-3.03873E-05 6.94119E-07 7.43887E-19-2.12220E-18
 -1      3918 1.05482E-04-1.42554E-05-3.92000E-05 2.03259E-06-2.13227E-19 1.69241E-18
 -1      3919 9.60278E-05-2.56990E-05-3.01454E-05 5.65502E-07 7.32985E-19-2.06849E-18
 -1      3920 9.59410E-05-2.53658E-05-3.02475E-05 4.13229E-07 6.08580E-19-1.96620E-18
 -1      3921 9.61395E-05-2.61993E-05-2.99748E-05 4.63545E-07 7.54628E-19-1.84305E-18
 -1      3922 1.14739E-04-3.84862E-05-3.26648E-05 6.32725E-06 1.44642E-18-1.53787E-19
 -1      3923 1.14756E-04-3.99783E-05-3.21119E-05 4.23699E-06 1.33255E-18-2.39561E-19
 -1      3924 1.17668E-04-4.24132E-05-3.22332E-05 1.80241E-06 1.04977E-18-1.25096E-18
 -1      3925 9.64462E-05-2.92972E-05-2.87776E-05-5.30964E-07-8.12968E-20-1.72163E-18
 -1      3926 9.65258E-05-2.92587E-05-2.88273E-05-5.36230E-07 7.05473E-20-1.73342E-18
 -1      3927 9.56587E-05-2.89919E-05-2.85706E-05-2.77845E-07 5.28588E-19-1.05632E-18
 -1      3928 9.57163E-05-2.90418E-05-2.85746E-05-3.03663E-07 6.59154E-19-1.21113E-18
 -1      3929 9.55420E-05-2.88861E-05-2.85661E-05-2.36327E-07 6.63973E-19-1.25156E-18
 -1      3930 9.55935E-05-2.89375E-05-2.85668E-05-2.57757E-07 7.05424E-19-1.16616E-18
 -1      3931 9.56593E-05-2.89889E-05-2.85740E-05-2.13175E-07 7.86876E-19-9.28458E-19
 -1      3932 9.54355E-05-2.87784E-05-2.85668E-05-2.02691E-07 1.06384E-19-7.54285E-19
 -1      3933 9.54831E-05-2.88310E-05-2.85653E-05-2.19580E-07 4.21272E-19-1.21604E-18
 -1      3934 9.55365E-05-2.88774E-05-2.85689E-05-1.80806E-07 3.79414E-19-9.32211E-19
 -1      3935 9.53333E-05-2.86667E-05-2.85712E-05-1.75342E-07 9.64013E-19-9.64320E-19
 -1      3936 9.53803E-05-2.87219E-05-2.85680E-05-1.88427E-07 4.32079E-19-8.93584E-19
 -1      3937 9.54237E-05-2.87641E-05-2.85688E-05-1.52754E-07 2.78758E-19-8.52464E-19
 -1      3938 9.52272E-05-2.85464E-05-2.85777E-05-1.50497E-07 1.10157E-18-9.38800E-19
 -1      3939 9.52783E-05-2.86070E-05-2.85736E-05-1.61643E-07 1.35052E-18-8.86156E-19
 -1      3940 9.53152E-05-2.86472E-05-2.85720E-05-1.26169E-07 9.84275E-19-7.74043E-19
 -1      3941 9.51065E-05-2.84098E-05-2.85851E-05-1.21115E-07 8.48491E-19-8.50862E-19
 -1      3942 9.51680E-05-2.84802E-05-2.85807E-05-1.33950E-07 8.23931E-19-7.87689E-19
 -1      3943 9.52029E-05-2.85225E-05-2.85769E-05-9.54678E-08 9.39562E-19-4.50851E-19
 -1      3944 9.49650E-05-2.82555E-05-2.85915E-05-7.83641E-08 3.70229E-19-8.61183E-19
 -1      3945 9.50410E-05-2.83367E-05-2.85877E-05-9.73368E-08 8.65722E-19-9.19984E-19
 -1      3946 9.50806E-05-2.83876E-05-2.85819E-05-5.25404E-08 8.85857E-19-4.54755E-19
 -1      3947 9.47697E-05-2.80544E-05-2.85955E-05 1.16680E-09 4.75048E-19-8.22308E-19
 -1      3948 9.48800E-05-2.81626E-05-2.85931E-05-3.62888E-08 3.36941E-19-8.72586E-19
 -1      3949 9.49337E-05-2.82311E-05-2.85853E-05 1.82353E-08 4.25323E-19-4.55255E-19
 -1      3950 9.45019E-05-2.77970E-05-2.85932E-05 1.47635E-07 2.15285E-19-1.14206E-18
 -1      3951 9.46596E-05-2.79380E-05-2.85944E-05 7.56198E-08 5.13002E-19-7.34517E-19
 -1      3952 9.47431E-05-2.80397E-05-2.85848E-05 1.43990E-07 3.25366E-19-1.01363E-18
 -1      3953 9.41303E-05-2.74661E-05-2.85790E-05 4.11779E-07 4.02102E-19-1.55905E-18
 -1      3954 9.43574E-05-2.76502E-05-2.85871E-05 2.77583E-07 3.63106E-19-1.36927E-18
 -1      3955 9.44948E-05-2.78084E-05-2.85766E-05 3.62844E-07 3.89773E-19-1.29483E-18
 -1      3956 9.36186E-05-2.70480E-05-2.85436E-05 8.73175E-07-3.47935E-19-1.02870E-18
 -1      3957 9.39427E-05-2.72841E-05-2.85643E-05 6.32743E-07 2.02009E-19-1.36828E-18
 -1      3958 9.41710E-05-2.75330E-05-2.85548E-05 7.35303E-07 1.97362E-19-1.22203E-18
 -1      3959 9.29321E-05-2.65432E-05-2.84722E-05 1.65300E-06-8.79828E-19-1.08820E-18
 -1      3960 9.33843E-05-2.68329E-05-2.85148E-05 1.23797E-06-7.97463E-19-9.29392E-19
 -1      3961 9.37593E-05-2.72219E-05-2.85108E-05 1.35164E-06-4.95238E-19-9.99012E-19
 -1      3962 9.20540E-05-2.59885E-05-2.83419E-05 2.92930E-06-1.46428E-19-1.67033E-18
 -1      3963 9.26612E-05-2.63144E-05-2.84210E-05 2.23719E-06-4.95614E-19-1.65930E-18
 -1      3964 9.32648E-05-2.69118E-05-2.84318E-05 2.34158E-06-3.56926E-19-1.01518E-18
 -1      3965 9.10191E-05-2.54941E-05-2.81195E-05 4.95112E-06 6.39296E-19-1.91552E-18
 -1      3966 9.17877E-05-2.57995E-05-2.82571E-05 3.83542E-06 5.52034E-19-1.81921E-18
 -1      3967 9.27351E-05-2.66943E-05-2.83002E-05 3.88216E-06 2.70520E-19-1.71386E-18
 -1      3968 8.99771E-05-2.53051E-05-2.77614E-05 8.04103E-06-5.09791E-21-2.19798E-18
 -1      3969 9.08593E-05-2.54625E-05-2.79879E-05 6.30696E-06 5.60187E-19-1.80079E-18
 -1      3970 9.23052E-05-2.67584E-05-2.80952E-05 6.19655E-06 4.96309E-19-1.83451E-18
 -1      3971 8.93812E-05-2.59375E-05-2.72278E-05 1.25410E-05 6.47164E-19-3.08699E-18
 -1      3972 9.01346E-05-2.56713E-05-2.75731E-05 9.98061E-06 1.40295E-19-2.51864E-18
 -1      3973 9.22716E-05-2.74356E-05-2.77996E-05 9.51256E-06 7.03612E-19-1.87954E-18
 -1      3974 1.14629E-04-3.64132E-05-3.35450E-05 7.94337E-06 1.00280E-18 4.45134E-19
 -1      3975 9.57896E-05-2.90944E-05-2.85826E-05-3.27114E-07 6.14131E-19-1.05585E-18
 -1      3976 9.58547E-05-2.91410E-05-2.85912E-05-3.56278E-07 4.65356E-19-9.35469E-19
 -1      3977 9.57965E-05-2.90978E-05-2.85865E-05-2.50734E-07 6.95080E-19-1.03372E-18
 -1      3978 9.65864E-05-2.73881E-05-2.96554E-05 1.97830E-09-3.64639E-19-1.46365E-18
 -1      3979 9.66805E-05-2.78606E-05-2.94977E-05 1.91961E-07-4.58020E-19-1.37733E-18
 -1      3980 9.67817E-05-2.79885E-05-2.94820E-05 1.68815E-07-3.50903E-19-1.51394E-18
 -1      3981 9.51907E-05-2.37588E-05-3.06233E-05-1.09817E-06-4.04242E-19-1.86029E-18
 -1      3982 9.56179E-05-2.46903E-05-3.03920E-05-8.17256E-07-4.56328E-19-1.66348E-18
 -1      3983 9.51142E-05-2.35374E-05-3.06788E-05-8.54884E-07-1.57258E-19-2.13662E-18
 -1      3984 1.05342E-04-1.34920E-05-3.95463E-05-5.77271E-07-1.04695E-19 4.92980E-19
 -1      3985 1.07868E-04-4.20293E-05-2.83181E-05 1.78438E-05 2.81440E-20-6.80396E-19
 -1      3986 1.00086E-04-3.63852E-05-2.72774E-05 1.98016E-05 1.16123E-19-8.24471E-19
 -1      3987 9.67571E-05-2.87984E-05-2.91229E-05 4.48976E-07-2.64339E-19-1.33351E-18
 -1      3988 9.67165E-05-2.89782E-05-2.90318E-05 5.06556E-07-4.16302E-19-1.41305E-18
 -1      3989 9.67819E-05-2.90507E-05-2.90289E-05 3.94700E-07-3.37128E-19-1.39042E-18
 -1      3990 1.13235E-04-3.95982E-05-3.16100E-05-4.80317E-06-7.49598E-19-7.20433E-19
 -1      3991 1.17121E-04-4.12708E-05-3.25629E-05-4.52356E-06-6.45476E-19 7.75118E-19
 -1      3992 1.17773E-04-4.39428E-05-3.15376E-05 3.03537E-07-1.26583E-18 5.40408E-19
 -1      3993 1.12457E-04-4.00860E-05-3.09530E-05-3.18479E-06-1.13576E-18-4.05677E-19
 -1      3994 1.16587E-04-2.90252E-05-3.76087E-05 1.12892E-05 6.62962E-19 9.32593E-19
 -1      3995 1.17117E-04-3.34077E-05-3.59047E-05 1.09218E-05 5.83718E-19-9.31538E-20
 -1      3996 9.59365E-05-2.91889E-05-2.86050E-05-3.82296E-07-2.19960E-21-1.20805E-18
 -1      3997 9.60093E-05-2.92282E-05-2.86199E-05-4.12707E-07-1.67330E-20-1.21455E-18
 -1      3998 9.59502E-05-2.91994E-05-2.86090E-05-2.92675E-07 1.73797E-19-1.06332E-18
 -1      3999 1.04709E-04-4.13988E-05-2.70049E-05-2.67579E-05 1.48288E-18-2.47975E-18
 -1      4000 9.66205E-05-2.88506E-05-2.90454E-05-5.86274E-07-1.27630E-20-2.03643E-18
 -1      4001 9.43421E-05-3.24750E-05-2.66266E-05 2.11532E-05 2.40782E-19-2.07891E-18
 -1      4002 8.85386E-05-2.79662E-05-2.59486E-05 2.11212E-05 5.65210E-19-2.76702E-18
 -1      4003 8.92926E-05-2.73732E-05-2.64364E-05 1.84206E-05 6.51190E-19-2.69580E-18
 -1      4004 1.28801E-04-4.54520E-05-3.58325E-05 3.87901E-06 8.61237E-19-1.49121E-18
 -1      4005 1.25080E-04-4.04861E-05-3.63439E-05 7.35936E-06 1.10057E-18-9.15047E-19
 -1      4006 1.26518E-04-4.72090E-05-3.40212E-05-4.11447E-07 1.05509E-18-2.44328E-18
 -1      4007 9.60986E-05-2.92658E-05-2.86416E-05-4.39543E-07 2.04002E-19-1.15942E-18
 -1      4008 9.61779E-05-2.92911E-05-2.86649E-05-4.67712E-07 2.44509E-19-1.22981E-18
 -1      4009 9.61200E-05-2.92846E-05-2.86455E-05-3.36441E-07 2.74057E-19-1.19500E-18
 -1      4010 1.10179E-04-4.21360E-05-2.90874E-05 1.26000E-05-3.67851E-19-1.94958E-18
 -1      4011 1.12940E-04-4.13965E-05-3.07097E-05-3.17996E-07-1.44196E-18 1.00480E-18
 -1      4012 9.63650E-05-2.67208E-05-2.98521E-05 1.78106E-07 5.80451E-19-1.97830E-18
 -1      4013 9.92890E-05-3.48679E-05-2.74949E-05 1.76336E-05 1.18379E-19-6.78023E-19
 -1      4014 9.66607E-05-2.78131E-05-2.95114E-05-1.75448E-07 3.38139E-19-1.84153E-18
 -1      4015 9.65739E-05-2.73320E-05-2.96703E-05 2.44554E-08 4.19327E-19-1.86615E-18
 -1      4016 9.64839E-05-2.68931E-05-2.98268E-05 1.03400E-07 4.88348E-19-1.92248E-18
 -1      4017 9.63542E-05-2.93106E-05-2.87318E-05-5.12986E-07-1.33867E-19-1.72617E-18
 -1      4018 9.64866E-05-2.93380E-05-2.87799E-05-4.08181E-07-2.27120E-19-1.69177E-18
 -1      4019 9.62717E-05-2.93097E-05-2.86971E-05-4.92402E-07 3.67998E-20-1.66645E-18
 -1      4020 9.66048E-05-2.91955E-05-2.88898E-05-5.41010E-07-1.22930E-19-1.84640E-18
 -1      4021 9.66707E-05-2.90986E-05-2.89576E-05-5.20556E-07-2.24456E-19-2.07381E-18
 -1      4022 9.66572E-05-2.92512E-05-2.88900E-05-4.18288E-07-1.28654E-19-2.28140E-18
 -1      4023 1.20331E-04-4.47283E-05-3.24777E-05-2.65565E-07-2.78470E-19-1.17902E-18
 -1      4024 1.22338E-04-4.71397E-05-3.22115E-05-4.54561E-06 2.01792E-19-1.71879E-18
 -1      4025 9.68448E-05-2.86526E-05-2.92256E-05 3.19557E-07-3.42416E-19-1.36960E-18
 -1      4026 9.62898E-05-2.61216E-05-3.00600E-05 2.13005E-07 4.52684E-19-1.89845E-18
 -1      4027 9.59286E-05-2.52796E-05-3.02871E-05 2.75784E-07 4.96751E-19-1.95365E-18
 -1      4028 9.59151E-05-2.52149E-05-3.03073E-05 7.67451E-08 3.27363E-19-2.10030E-18
 -1      4029 1.15001E-04-2.44974E-05-3.89041E-05 1.20616E-05 7.86920E-19 5.02754E-19
 -1      4030 1.15439E-04-4.36141E-05-3.07850E-05 3.04661E-06-9.61527E-19-1.71804E-19
 -1      4031 9.64517E-05-2.69403E-05-2.97928E-05-1.05791E-07-1.33505E-19-1.42316E-18
 -1      4032 9.65722E-05-2.71112E-05-2.97657E-05-4.42554E-08-1.93249E-19-1.51927E-18
 -1      4033 9.63042E-05-2.64412E-05-2.99422E-05-3.02922E-07-7.66705E-20-1.56380E-18
 -1      4034 9.58765E-05-2.53103E-05-3.02455E-05-6.63599E-07-4.19823E-19-1.61458E-18
 -1      4035 9.61203E-05-2.59570E-05-3.00709E-05-4.22634E-07-2.21220E-19-1.65658E-18
 -1      4036 9.62549E-05-2.61704E-05-3.00332E-05-2.68867E-07-2.02155E-19-1.60806E-18
 -1      4037 9.58316E-05-2.51198E-05-3.03055E-05-5.38274E-07-2.74749E-19-1.77707E-18
 -1      4038 9.50300E-05-2.33235E-05-3.07385E-05-3.89824E-07 4.48828E-20-2.45563E-18
 -1      4039 9.50814E-05-2.34506E-05-3.07081E-05-6.60054E-07-9.31648E-21-2.35409E-18
 -1      4040 9.55581E-05-2.44076E-05-3.04826E-05-5.22144E-07-4.04796E-20-2.03982E-18
 -1      4041 9.55515E-05-2.43083E-05-3.05172E-05-1.65807E-07 2.25502E-19-2.29453E-18
 -1      4042 1.24174E-04-5.07050E-05-3.14824E-05-1.21324E-05 1.41431E-18-1.39199E-18
 -1      4043 1.20955E-04-4.32302E-05-3.32711E-05 2.61555E-06 1.02903E-18-3.66812E-19
 -1      4044 1.23461E-04-4.93013E-05-3.19382E-05-7.95812E-06 1.53439E-19-2.63356E-18
 -1      4045 8.88194E-05-2.65775E-05-2.66803E-05 1.63637E-05 3.34148E-19-2.66420E-18
 -1      4046 8.95988E-05-2.63401E-05-2.70374E-05 1.42275E-05 3.73425E-19-2.71190E-18
 -1      4047 9.26235E-05-2.86843E-05-2.74662E-05 1.31329E-05 1.03017E-19-3.05487E-18
 -1      4048 9.31442E-05-3.01234E-05-2.70844E-05 1.67959E-05 3.74076E-19-1.65863E-18
 -1      4049 9.67416E-05-2.82082E-05-2.93680E-05-2.81930E-07 4.06283E-19-1.85737E-18
 -1      4050 9.67531E-05-2.79220E-05-2.94973E-05-1.63890E-07 3.49030E-19-1.60485E-18
 -1      4051 9.67544E-05-2.85190E-05-2.92468E-05-3.98092E-07 1.87718E-19-1.98032E-18
 -1      4052 9.65804E-05-2.93563E-05-2.88094E-05 2.81700E-07-2.78130E-19-1.20101E-18
 -1      4053 9.64888E-05-2.93721E-05-2.87631E-05 2.77433E-07-2.12635E-19-1.12316E-18
 -1      4054 9.63881E-05-2.93679E-05-2.87221E-05 2.63141E-07-9.17451E-20-1.20357E-18
 -1      4055 9.62947E-05-2.93499E-05-2.86894E-05 2.50674E-07-5.86057E-20-9.08844E-19
 -1      4056 9.64773E-05-2.93901E-05-2.87544E-05 1.48012E-07-1.65777E-19-1.23376E-18
 -1      4057 9.61956E-05-2.93189E-05-2.86607E-05 2.35556E-07-1.94174E-19-1.12422E-18
 -1      4058 9.61066E-05-2.92808E-05-2.86385E-05 2.19207E-07-4.99229E-19-1.04256E-18
 -1      4059 9.62797E-05-2.93557E-05-2.86842E-05 1.33189E-07-2.40273E-19-1.38125E-18
 -1      4060 9.60140E-05-2.92346E-05-2.86191E-05 2.04768E-07-7.57027E-19-1.17463E-18
 -1      4061 9.59325E-05-2.91857E-05-2.86047E-05 1.87578E-07-6.78733E-19-1.17987E-18
 -1      4062 9.60899E-05-2.92781E-05-2.86358E-05 1.16011E-07-5.95119E-19-1.66465E-18
 -1      4063 9.58487E-05-2.91322E-05-2.85923E-05 1.74881E-07-4.93980E-19-1.05257E-18
 -1      4064 9.57760E-05-2.90788E-05-2.85836E-05 1.59005E-07-6.36554E-19-7.68005E-19
 -1      4065 9.59151E-05-2.91772E-05-2.86038E-05 9.90705E-08-3.81247E-19-1.87130E-18
 -1      4066 9.57015E-05-2.90228E-05-2.85762E-05 1.48889E-07-5.57833E-19-1.85939E-19
 -1      4067 9.56376E-05-2.89687E-05-2.85715E-05 1.35956E-07-3.66681E-20 2.36633E-19
 -1      4068 9.57582E-05-2.90660E-05-2.85839E-05 8.43906E-08-2.14221E-20-5.75075E-19
 -1      4069 9.55718E-05-2.89133E-05-2.85677E-05 1.29291E-07 2.01661E-19 5.80005E-19
 -1      4070 9.55160E-05-2.88609E-05-2.85657E-05 1.20752E-07 6.16746E-19 1.16895E-18
 -1      4071 9.56192E-05-2.89523E-05-2.85727E-05 7.38769E-08 5.31597E-19 9.40016E-19
 -1      4072 9.54576E-05-2.88078E-05-2.85642E-05 1.18719E-07 7.34829E-19 1.41624E-18
 -1      4073 9.54092E-05-2.87586E-05-2.85638E-05 1.16194E-07 1.23016E-18 1.55206E-18
 -1      4074 9.54961E-05-2.88410E-05-2.85674E-05 6.98186E-08 8.95693E-19 1.02201E-18
 -1      4075 9.53568E-05-2.87090E-05-2.85636E-05 1.20621E-07 6.48532E-19 9.68054E-19
 -1      4076 9.53154E-05-2.86643E-05-2.85638E-05 1.26286E-07-7.00228E-20 6.51819E-19
 -1      4077 9.53863E-05-2.87345E-05-2.85658E-05 7.55020E-08 5.48381E-19 8.66686E-20
 -1      4078 9.52678E-05-2.86194E-05-2.85641E-05 1.40098E-07-3.95834E-20 8.64330E-19
 -1      4079 9.52340E-05-2.85814E-05-2.85643E-05 1.57065E-07 2.07454E-19 4.64439E-19
 -1      4080 9.52871E-05-2.86347E-05-2.85660E-05 9.60371E-08 2.38244E-19-9.31317E-20
 -1      4081 9.51910E-05-2.85430E-05-2.85641E-05 1.84861E-07-1.82124E-19 7.69913E-19
 -1      4082 9.51672E-05-2.85151E-05-2.85635E-05 2.17856E-07-3.27189E-19 7.37162E-19
 -1      4083 9.51968E-05-2.85440E-05-2.85663E-05 1.39300E-07 2.02116E-19 4.98645E-19
 -1      4084 9.51300E-05-2.84872E-05-2.85623E-05 2.66428E-07-3.29806E-19 8.26580E-19
 -1      4085 9.51218E-05-2.84754E-05-2.85602E-05 3.22052E-07-1.64990E-19 5.87714E-19
 -1      4086 9.51164E-05-2.84673E-05-2.85651E-05 2.17440E-07-4.21062E-19 7.07866E-19
 -1      4087 9.50947E-05-2.84648E-05-2.85570E-05 4.01430E-07-1.75619E-19 8.14263E-19
 -1      4088 9.51121E-05-2.84794E-05-2.85531E-05 4.88690E-07 3.98751E-19 8.77611E-19
 -1      4089 9.50508E-05-2.84137E-05-2.85609E-05 3.48407E-07 2.11000E-19 1.25341E-18
 -1      4090 9.51044E-05-2.84977E-05-2.85472E-05 6.12614E-07 8.42625E-19 1.97541E-19
 -1      4091 9.51646E-05-2.85552E-05-2.85412E-05 7.42841E-07 6.56352E-19 4.83292E-19
 -1      4092 9.50128E-05-2.84002E-05-2.85521E-05 5.57752E-07 5.09702E-19 1.18518E-18
 -1      4093 9.51934E-05-2.86213E-05-2.85323E-05 9.29011E-07 1.95832E-19 8.73370E-19
 -1      4094 9.53237E-05-2.87471E-05-2.85246E-05 1.11480E-06-1.34504E-19 8.45023E-19
 -1      4095 9.50273E-05-2.84559E-05-2.85372E-05 8.79850E-07 5.25278E-19 3.29803E-19
 -1      4096 9.54193E-05-2.88904E-05-2.85128E-05 1.38374E-06-2.59020E-19 6.37224E-19
 -1      4097 9.56609E-05-2.91216E-05-2.85054E-05 1.63589E-06 7.46726E-19 9.61363E-19
 -1      4098 9.51396E-05-2.86287E-05-2.85158E-05 1.35760E-06 1.32667E-19 1.37686E-18
 -1      4099 9.58729E-05-2.93860E-05-2.84925E-05 2.00700E-06 1.03162E-18 3.14267E-19
 -1      4100 9.62845E-05-2.97734E-05-2.84899E-05 2.32787E-06 1.14717E-18-2.81638E-19
 -1      4101 9.54260E-05-2.89939E-05-2.84891E-05 2.03817E-06 7.03373E-19 2.45348E-19
 -1      4102 9.66905E-05-3.02195E-05-2.84808E-05 2.81004E-06 8.12684E-19-1.17632E-19
 -1      4103 9.73497E-05-3.08266E-05-2.84922E-05 3.18138E-06 1.11438E-18-5.05569E-19
 -1      4104 9.60096E-05-2.96625E-05-2.84628E-05 2.96098E-06 6.19901E-19-7.17965E-19
 -1      4105 9.80630E-05-3.15309E-05-2.84982E-05 3.75418E-06 8.45980E-19-9.24570E-19
 -1      4106 9.90665E-05-3.24216E-05-2.85410E-05 4.11433E-06 3.57172E-20-8.84850E-19
 -1      4107 9.70780E-05-3.07863E-05-2.84521E-05 4.13190E-06 7.91623E-19-9.07621E-19
 -1      4108 1.00239E-04-3.34899E-05-2.85826E-05 4.71807E-06-1.84771E-19-6.87555E-19
 -1      4109 1.01683E-04-3.47002E-05-2.86899E-05 4.90824E-06 1.22118E-19-6.84277E-19
 -1      4110 9.88797E-05-3.25161E-05-2.84868E-05 5.49152E-06-1.82205E-19-1.04001E-18
 -1      4111 1.03455E-04-3.61047E-05-2.88184E-05 5.36763E-06 4.25359E-19-1.31476E-18
 -1      4112 1.05417E-04-3.76126E-05-2.90401E-05 5.20732E-06 1.18961E-19-1.38724E-18
 -1      4113 1.01764E-04-3.50448E-05-2.86180E-05 6.87040E-06-2.39690E-19-7.44021E-19
 -1      4114 9.54082E-05-2.87458E-05-2.85694E-05-9.76372E-08 3.51306E-19-8.76998E-19
 -1      4115 9.54634E-05-2.88027E-05-2.85687E-05-1.09569E-07 6.28362E-20-8.90337E-19
 -1      4116 9.55243E-05-2.88605E-05-2.85697E-05-1.19549E-07 9.41680E-20-5.11665E-19
 -1      4117 9.55832E-05-2.89169E-05-2.85710E-05-1.32332E-07 5.45256E-19-6.48130E-19
 -1      4118 9.55038E-05-2.88428E-05-2.85700E-05-6.39196E-08 1.69012E-19-7.15041E-19
 -1      4119 1.02599E-04-3.73178E-05-2.81144E-05 1.48703E-05-7.07177E-19-1.20705E-18
 -1      4120 9.76137E-05-3.34020E-05-2.75048E-05 1.62494E-05-2.73978E-19-7.07985E-19
 -1      4121 9.71342E-05-3.23980E-05-2.76781E-05 1.43920E-05-6.63404E-19-1.15553E-18
 -1      4122 9.67934E-05-2.77626E-05-2.95848E-05 6.28208E-08-2.68182E-19-1.52981E-18
 -1      4123 9.68734E-05-2.81852E-05-2.94385E-05 1.65119E-07-2.17312E-19-1.49434E-18
 -1      4124 9.56504E-05-2.89747E-05-2.85746E-05-1.42411E-07 6.75585E-19-6.14576E-19
 -1      4125 9.57157E-05-2.90306E-05-2.85790E-05-1.56863E-07 8.01623E-19-6.92324E-19
 -1      4126 9.56304E-05-2.89589E-05-2.85749E-05-7.99238E-08 8.09814E-19-4.31431E-19
 -1      4127 9.69115E-05-2.85271E-05-2.93072E-05 1.86977E-07-2.15052E-19-1.27130E-18
 -1      4128 9.69097E-05-2.87897E-05-2.91942E-05 2.50997E-07-2.97915E-19-1.29745E-18
 -1      4129 9.69229E-05-2.83260E-05-2.94003E-05 9.20384E-08-1.60935E-19-1.36534E-18
 -1      4130 9.52965E-05-2.86290E-05-2.85719E-05-7.27941E-08 7.12941E-19-7.16305E-19
 -1      4131 9.53513E-05-2.86875E-05-2.85700E-05-8.58525E-08 5.42923E-19-8.57893E-19
 -1      4132 9.53876E-05-2.87275E-05-2.85693E-05-4.47516E-08 3.08013E-19-8.76835E-19
 -1      4133 9.51817E-05-2.85067E-05-2.85757E-05-3.80189E-08 5.51061E-19-4.79290E-19
 -1      4134 9.52406E-05-2.85690E-05-2.85733E-05-5.59664E-08 7.68244E-19-6.21364E-19
 -1      4135 9.52765E-05-2.86121E-05-2.85709E-05-1.74088E-08 5.54663E-19-6.92261E-19
 -1      4136 9.50619E-05-2.83812E-05-2.85789E-05 1.43455E-08 6.19020E-19-3.95464E-19
 -1      4137 9.51269E-05-2.84462E-05-2.85769E-05-1.23913E-08 5.24775E-19-6.71449E-19
 -1      4138 9.51677E-05-2.84979E-05-2.85731E-05 2.51416E-08 6.31099E-19-7.21008E-19
 -1      4139 9.49153E-05-2.82346E-05-2.85799E-05 1.07445E-07 4.72087E-19-2.90963E-19
 -1      4140 9.49996E-05-2.83123E-05-2.85793E-05 5.90492E-08 9.32113E-19-8.19815E-20
 -1      4141 9.50526E-05-2.83797E-05-2.85743E-05 9.62637E-08 4.74904E-19-1.66377E-19
 -1      4142 9.47371E-05-2.80687E-05-2.85762E-05 2.67521E-07-2.06271E-20-3.98726E-19
 -1      4143 9.48458E-05-2.81587E-05-2.85784E-05 1.83132E-07 1.05219E-19-5.94915E-19
 -1      4144 9.49231E-05-2.82546E-05-2.85726E-05 2.18896E-07 3.77438E-19 1.62526E-19
 -1      4145 9.45180E-05-2.78832E-05-2.85639E-05 5.37795E-07 3.17260E-19-6.90951E-19
 -1      4146 9.46600E-05-2.79865E-05-2.85712E-05 3.93259E-07 3.86716E-19-2.09025E-19
 -1      4147 9.47790E-05-2.81286E-05-2.85655E-05 4.23333E-07 1.47725E-19 2.26056E-19
 -1      4148 9.42540E-05-2.76865E-05-2.85378E-05 9.82507E-07 8.01305E-20-7.26546E-19
 -1      4149 9.44370E-05-2.77994E-05-2.85535E-05 7.41449E-07 3.04821E-19-6.88022E-19
 -1      4150 9.46233E-05-2.80128E-05-2.85496E-05 7.55898E-07 1.90912E-19 2.48097E-19
 -1      4151 9.39548E-05-2.75058E-05-2.84903E-05 1.69354E-06-7.29591E-19-1.11079E-18
 -1      4152 9.41814E-05-2.76149E-05-2.85193E-05 1.30306E-06-3.96200E-19-1.06369E-18
 -1      4153 9.44712E-05-2.79332E-05-2.85208E-05 1.28193E-06 1.22486E-19-2.04767E-19
 -1      4154 9.36613E-05-2.74042E-05-2.84114E-05 2.79581E-06-3.93940E-19-1.06189E-18
 -1      4155 9.39196E-05-2.74767E-05-2.84605E-05 2.18252E-06-4.94322E-19-1.05005E-18
 -1      4156 9.43618E-05-2.79424E-05-2.84740E-05 2.08876E-06-6.26981E-19-1.40850E-18
 -1      4157 9.34756E-05-2.75079E-05-2.82897E-05 4.44658E-06 9.95030E-19-1.69835E-18
 -1      4158 9.37219E-05-2.74770E-05-2.83673E-05 3.51551E-06 7.60854E-19-1.19651E-18
 -1      4159 9.43785E-05-2.81376E-05-2.84044E-05 3.28384E-06 4.39570E-19-1.74190E-18
 -1      4160 9.36077E-05-2.80455E-05-2.81158E-05 6.81877E-06 1.96278E-19-1.65620E-18
 -1      4161 9.37413E-05-2.77900E-05-2.82304E-05 5.46116E-06 3.98001E-19-1.65574E-18
 -1      4162 9.46806E-05-2.86856E-05-2.83103E-05 4.98057E-06 4.44122E-19-1.45596E-18
 -1      4163 9.44767E-05-2.93891E-05-2.79025E-05 1.00563E-05 5.72584E-19-1.31037E-18
 -1      4164 9.42681E-05-2.87231E-05-2.80483E-05 8.18873E-06 5.57336E-19-1.51486E-18
 -1      4165 9.55681E-05-2.98598E-05-2.82016E-05 7.26214E-06 4.50976E-19-1.60717E-18
 -1      4166 1.21403E-04-3.92085E-05-3.52468E-05 7.46956E-06 7.50819E-19-2.95664E-19
 -1      4167 9.57910E-05-2.90876E-05-2.85863E-05-1.68045E-07 7.65942E-19-6.07421E-19
 -1      4168 9.58644E-05-2.91414E-05-2.85950E-05-1.84092E-07 6.94313E-19-4.96869E-19
 -1      4169 9.57715E-05-2.90746E-05-2.85861E-05-9.55126E-08 9.00815E-19-3.18159E-19
 -1      4170 9.67233E-05-2.89596E-05-2.90428E-05-5.03462E-07-7.63682E-20-1.88047E-18
 -1      4171 9.67606E-05-2.87719E-05-2.91354E-05-4.43171E-07 3.20002E-20-1.90264E-18
 -1      4172 9.67895E-05-2.90331E-05-2.90397E-05-3.93406E-07-8.58341E-20-2.15971E-18
 -1      4173 1.13362E-04-4.27369E-05-3.01909E-05 4.38874E-06-8.29424E-19-5.36278E-19
 -1      4174 9.68783E-05-2.89935E-05-2.90927E-05 2.56201E-07-3.29621E-19-1.15219E-18
 -1      4175 9.68262E-05-2.91420E-05-2.90069E-05 2.88190E-07-2.37653E-19-1.13323E-18
 -1      4176 9.69333E-05-2.88838E-05-2.91666E-05 1.36418E-07-1.59074E-19-1.08846E-18
 -1      4177 9.59486E-05-2.91950E-05-2.86077E-05-1.96725E-07 2.19713E-19-7.12890E-19
 -1      4178 9.60306E-05-2.92434E-05-2.86224E-05-2.13456E-07 1.05074E-19-7.18392E-19
 -1      4179 9.59296E-05-2.91863E-05-2.86064E-05-1.11854E-07 3.36172E-19-5.65285E-19
 -1      4180 1.11569E-04-4.26850E-05-2.96146E-05 8.52292E-06 3.49864E-20-1.41756E-18
 -1      4181 1.06740E-04-3.96494E-05-2.86948E-05 1.21169E-05 1.62168E-19-1.34613E-18
 -1      4182 1.05159E-04-3.81140E-05-2.86486E-05 1.10339E-05-1.91712E-19-8.89276E-19
 -1      4183 1.10101E-04-4.08011E-05-2.96886E-05 4.71534E-06-2.03486E-19-1.35730E-18
 -1      4184 9.65094E-05-2.68245E-05-2.98685E-05 5.66961E-08 3.44872E-19-1.84756E-18
 -1      4185 9.67536E-05-2.92480E-05-2.89300E-05 2.83078E-07-4.48031E-19-9.17817E-19
 -1      4186 9.66739E-05-2.93170E-05-2.88662E-05 2.92978E-07-3.78768E-19-1.12176E-18
 -1      4187 9.68323E-05-2.92019E-05-2.89873E-05 1.55255E-07-3.30269E-19-9.00558E-19
 -1      4188 9.61231E-05-2.92889E-05-2.86422E-05-2.27336E-07 1.03317E-19-1.09213E-18
 -1      4189 9.62129E-05-2.93257E-05-2.86650E-05-2.42926E-07 8.91490E-20-1.32200E-18
 -1      4190 9.61053E-05-2.92862E-05-2.86393E-05-1.28910E-07-2.34598E-19-9.40015E-19
 -1      4191 1.07759E-04-3.92901E-05-2.92748E-05 5.50939E-06 3.74242E-19-1.45289E-18
 -1      4192 1.05839E-04-3.84910E-05-2.89594E-05 7.87145E-06 4.56394E-19-1.47400E-18
 -1      4193 9.66941E-05-2.73775E-05-2.97085E-05 3.03919E-08-2.17988E-19-1.63882E-18
 -1      4194 9.67746E-05-2.75706E-05-2.96579E-05 1.89593E-08-7.25515E-20-1.53925E-18
 -1      4195 9.65667E-05-2.69331E-05-2.98449E-05-7.55774E-08-5.37233E-20-1.65042E-18
 -1      4196 9.63019E-05-2.93384E-05-2.87005E-05-3.77369E-07-2.14494E-19-1.88809E-18
 -1      4197 9.66859E-05-2.93100E-05-2.88751E-05-2.95497E-07-3.55242E-19-1.59340E-18
 -1      4198 9.67669E-05-2.92373E-05-2.89394E-05-2.84131E-07-2.02503E-19-1.76067E-18
 -1      4199 9.68390E-05-2.86146E-05-2.92393E-05-3.22278E-07 1.19234E-19-1.61730E-18
 -1      4200 9.51626E-05-3.00483E-05-2.78409E-05 1.11307E-05 2.23234E-19-1.19018E-18
 -1      4201 9.67710E-05-3.12771E-05-2.80865E-05 9.78998E-06-2.06775E-19-3.35033E-20
 -1      4202 9.52944E-05-3.06562E-05-2.76880E-05 1.27483E-05-2.25724E-19-1.24972E-18
 -1      4203 1.25974E-04-4.79582E-05-3.33666E-05-2.20535E-06 9.71819E-19-2.59192E-18
 -1      4204 9.66690E-05-2.93524E-05-2.88529E-05 1.56966E-07-4.54126E-19-1.16660E-18
 -1      4205 9.68527E-05-2.81294E-05-2.94572E-05-1.71885E-07 1.79788E-19-1.49548E-18
 -1      4206 9.67816E-05-2.77041E-05-2.96012E-05-5.39907E-08 3.23531E-19-1.56177E-18
 -1      4207 9.66062E-05-2.70329E-05-2.98166E-05 2.33598E-08 2.12311E-19-1.68523E-18
 -1      4208 9.59086E-05-2.51937E-05-3.03134E-05-2.49739E-08 3.33383E-19-2.03929E-18
 -1      4209 9.59123E-05-2.51991E-05-3.03091E-05-1.77815E-07 2.12223E-19-2.01421E-18
 -1      4210 9.62772E-05-2.60084E-05-3.01061E-05 2.18583E-08 1.98050E-19-1.98361E-18
 -1      4211 9.58212E-05-2.50457E-05-3.03360E-05-3.84740E-07-7.60581E-20-1.87030E-18
 -1      4212 9.65033E-05-2.93725E-05-2.87696E-05-2.82197E-07-3.09554E-19-1.51152E-18
 -1      4213 9.65967E-05-2.93534E-05-2.88170E-05-2.85261E-07-2.91584E-19-1.50169E-18
 -1      4214 9.66817E-05-2.93467E-05-2.88613E-05-1.67264E-07-4.49605E-19-1.23756E-18
 -1      4215 9.90702E-05-3.38167E-05-2.80571E-05 1.22766E-05-7.86134E-19 6.10393E-20
 -1      4216 9.63031E-05-2.93612E-05-2.86878E-05 1.71024E-09-2.16636E-19-1.42242E-18
 -1      4217 9.62030E-05-2.93277E-05-2.86593E-05-2.02316E-09-2.79660E-19-1.37980E-18
 -1      4218 9.61104E-05-2.92840E-05-2.86384E-05 1.06372E-09-4.21665E-19-1.28460E-18
 -1      4219 9.60172E-05-2.92361E-05-2.86193E-05-3.29890E-09-3.33662E-19-1.53293E-18
 -1      4220 9.59327E-05-2.91829E-05-2.86058E-05 3.15484E-10-4.00045E-22-1.31838E-18
 -1      4221 9.58485E-05-2.91281E-05-2.85935E-05-3.86074E-09 3.86003E-19-8.00098E-19
 -1      4222 9.57728E-05-2.90708E-05-2.85855E-05 1.17762E-10 5.31430E-19-6.17176E-19
 -1      4223 9.56981E-05-2.90137E-05-2.85783E-05-3.09967E-09 6.79770E-19 4.00421E-20
 -1      4224 9.56305E-05-2.89555E-05-2.85742E-05 1.55637E-09 6.48705E-19-1.41463E-19
 -1      4225 9.55646E-05-2.88986E-05-2.85705E-05 2.11813E-10 6.43497E-19-2.86460E-20
 -1      4226 9.55035E-05-2.88410E-05-2.85691E-05 6.48329E-09 3.86663E-19-1.69950E-19
 -1      4227 9.54451E-05-2.87858E-05-2.85677E-05 8.31248E-09 4.63169E-19-5.06737E-19
 -1      4228 9.53882E-05-2.87290E-05-2.85679E-05 1.80362E-08 4.59596E-19-4.83960E-19
 -1      4229 9.53359E-05-2.86761E-05-2.85678E-05 2.50675E-08 4.84693E-19-7.24745E-19
 -1      4230 9.52805E-05-2.86197E-05-2.85688E-05 4.13963E-08 6.43833E-19-8.00325E-19
 -1      4231 9.52331E-05-2.85695E-05-2.85692E-05 5.69465E-08 5.00007E-19-3.15366E-19
 -1      4232 9.51791E-05-2.85159E-05-2.85700E-05 8.34798E-08 3.91037E-19-1.35013E-19
 -1      4233 9.51363E-05-2.84695E-05-2.85701E-05 1.12195E-07 1.41767E-19-2.84135E-21
 -1      4234 9.50757E-05-2.84130E-05-2.85700E-05 1.59475E-07-1.00570E-19 5.24723E-19
 -1      4235 9.50391E-05-2.83729E-05-2.85690E-05 2.09185E-07 1.58911E-19 8.72122E-19
 -1      4236 9.49727E-05-2.83172E-05-2.85669E-05 2.88559E-07 1.02193E-19 9.61784E-19
 -1      4237 9.49467E-05-2.82889E-05-2.85639E-05 3.70491E-07 3.24887E-19 1.10743E-18
 -1      4238 9.48744E-05-2.82379E-05-2.85587E-05 5.00275E-07 1.21016E-19 1.03164E-18
 -1      4239 9.48687E-05-2.82318E-05-2.85528E-05 6.30318E-07 3.28632E-19 6.78209E-19
 -1      4240 9.47950E-05-2.81943E-05-2.85427E-05 8.36597E-07 6.46596E-19 6.27602E-20
 -1      4241 9.48274E-05-2.82287E-05-2.85333E-05 1.03608E-06 5.55765E-19 2.16593E-19
 -1      4242 9.47654E-05-2.82229E-05-2.85163E-05 1.35413E-06 1.07053E-19 2.81683E-19
 -1      4243 9.48669E-05-2.83284E-05-2.85032E-05 1.64960E-06 1.16783E-19 2.72056E-19
 -1      4244 9.48461E-05-2.83878E-05-2.84774E-05 2.12375E-06 1.35895E-19-5.80483E-19
 -1      4245 9.50676E-05-2.86135E-05-2.84614E-05 2.54434E-06 5.61131E-19-1.29360E-18
 -1      4246 9.51460E-05-2.87960E-05-2.84258E-05 3.22353E-06 7.81469E-19-1.88256E-18
 -1      4247 9.55666E-05-2.92155E-05-2.84108E-05 3.79374E-06 3.70398E-19-1.44698E-18
 -1      4248 9.58491E-05-2.96164E-05-2.83677E-05 4.71679E-06 3.50083E-19-1.31674E-18
 -1      4249 9.65794E-05-3.03296E-05-2.83633E-05 5.44140E-06 3.66693E-19-1.68235E-18
 -1      4250 9.72550E-05-3.11182E-05-2.83239E-05 6.58633E-06 4.90277E-19-1.23385E-18
 -1      4251 9.83550E-05-3.22143E-05-2.83299E-05 7.51120E-06 2.37283E-19-7.54944E-19
 -1      4252 1.00028E-04-3.37519E-05-2.84045E-05 8.34829E-06-2.74326E-20-5.92464E-19
 -1      4253 9.69096E-05-2.87634E-05-2.92072E-05-2.48272E-07-9.10240E-21-1.51000E-18
 -1      4254 9.69077E-05-2.84842E-05-2.93220E-05-1.89225E-07 1.08607E-19-1.41426E-18
 -1      4255 9.69168E-05-2.82771E-05-2.94185E-05-9.93340E-08 4.31296E-20-1.44726E-18
 -1      4256 9.69405E-05-2.83171E-05-2.94111E-05-1.05055E-08-9.93379E-20-1.47654E-18
 -1      4257 9.69738E-05-2.86415E-05-2.92813E-05 1.24133E-08-1.31369E-19-1.32395E-18
 -1      4258 1.21686E-04-4.26776E-05-3.38184E-05 4.39434E-06 1.66625E-18 5.75387E-20
 -1      4259 9.68323E-05-2.91266E-05-2.90172E-05-2.88122E-07-5.71058E-20-1.76600E-18
 -1      4260 9.68878E-05-2.89722E-05-2.91046E-05-2.54384E-07-3.93942E-20-1.53667E-18
 -1      4261 9.69359E-05-2.88581E-05-2.91791E-05-1.42463E-07-4.42976E-21-1.20291E-18
 -1      4262 9.68412E-05-2.91872E-05-2.89980E-05-1.63913E-07-1.31851E-19-1.32289E-18
 -1      4263 1.24483E-04-4.48021E-05-3.42068E-05 2.44862E-06 1.11014E-18-1.62524E-19
 -1      4264 9.61698E-05-2.58237E-05-3.01443E-05-2.21274E-07-2.57002E-20-1.70716E-18
 -1      4265 9.69571E-05-2.88792E-05-2.91758E-05-4.48538E-09-1.40406E-19-1.22400E-18
 -1      4266 9.69217E-05-2.90711E-05-2.90754E-05 8.02710E-09-1.42010E-19-1.23326E-18
 -1      4267 9.63107E-05-2.93551E-05-2.86943E-05-2.57261E-07-2.14296E-19-1.44643E-18
 -1      4268 9.64053E-05-2.93709E-05-2.87278E-05-2.68766E-07-4.18955E-19-1.64924E-18
 -1      4269 9.64918E-05-2.93912E-05-2.87607E-05-1.59492E-07-2.65458E-19-1.28271E-18
 -1      4270 9.62952E-05-2.93612E-05-2.86890E-05-1.45535E-07-1.29985E-19-1.50656E-18
 -1      4271 1.02749E-04-3.62229E-05-2.84590E-05 1.03277E-05-5.81751E-19-5.43196E-19
 -1      4272 9.65028E-05-2.93945E-05-2.87591E-05 1.82654E-09-2.11998E-19-1.33125E-18
 -1      4273 9.64007E-05-2.93865E-05-2.87185E-05-2.67692E-10-2.53346E-19-1.31249E-18
 -1      4274 9.66957E-05-2.93549E-05-2.88589E-05 1.02912E-09-4.13600E-19-1.12679E-18
 -1      4275 9.66001E-05-2.93885E-05-2.88026E-05 1.92681E-09-3.21715E-19-1.37492E-18
 -1      4276 9.68590E-05-2.92012E-05-2.89951E-05-9.98853E-10-2.36475E-19-1.08168E-18
 -1      4277 9.67835E-05-2.92991E-05-2.89190E-05 4.63621E-09-3.42174E-19-9.80475E-19
 -1      4278 9.63514E-05-2.63190E-05-3.00151E-05-1.05296E-07 8.64750E-20-1.71106E-18
 -1      4279 9.68761E-05-2.79143E-05-2.95521E-05 1.48028E-08 3.28951E-20-1.59989E-18
 -1      4280 9.64767E-05-2.65991E-05-2.99457E-05-3.13993E-08 8.01260E-20-1.70598E-18
 -1      4281 9.67865E-05-2.75554E-05-2.96709E-05-2.72121E-08 8.27927E-20-1.61045E-18
 -1      4282 9.65028E-05-2.66474E-05-2.99386E-05 2.81365E-08 1.13770E-19-1.83270E-18
 -1      4283 1.00756E-04-3.44767E-05-2.83929E-05 9.29245E-06-4.62189E-19-1.21547E-19
 -3
    1PSTEP                         4           1           1          
  100CL  101 1.000000000        4283                     0    1           1
 -4  ERROR       1    1
 -5  STR(%)      1    1    0    0
 -1         1 1.63238E+01
 -1         2 2.44396E+01
 -1         3 5.43806E-01
 -1         4 7.15587E-02
 -1         5 1.33042E+01
 -1         6 1.31440E+01
 -1         7 1.31440E+01
 -1         8 3.66519E+00
 -1         9 1.82642E+00
 -1        10 1.28953E+00
 -1        11 1.04643E+00
 -1        12 8.99771E-01
 -1        13 8.08411E-01
 -1        14 7.52743E-01
 -1        15 7.53382E-01
 -1        16 8.10044E-01
 -1        17 8.96795E-01
 -1        18 1.04767E+00
 -1        19 1.29760E+00
 -1        20 1.84620E+00
 -1        21 3.70847E+00
 -1        22 1.33042E+01
 -1        23 1.31440E+01
 -1        24 4.31708E+00
 -1        25 3.34052E+00
 -1        26 2.11124E+00
 -1        27 1.36253E+00
 -1        28 1.01420E+00
 -1        29 7.75294E-01
 -1        30 5.95405E-01
 -1        31 4.54950E-01
 -1        32 3.46655E-01
 -1        33 2.67234E-01
 -1        34 2.03065E-01
 -1        35 1.52030E-01
 -1        36 1.12073E-01
 -1        37 8.35064E-02
 -1        38 6.72708E-02
 -1        39 5.36719E-02
 -1        40 4.27226E-02
 -1        41 3.43083E-02
 -1        42 2.82279E-02
 -1        43 2.41982E-02
 -1        44 2.45382E-02
 -1        45 3.04261E-02
 -1        46 3.82031E-02
 -1        47 4.68431E-02
 -1        48 6.74889E-02
 -1        49 9.82039E-02
 -1        50 1.33468E-01
 -1        51 1.99869E-01
 -1        52 3.09816E-01
 -1        53 4.48300E-01
 -1        54 6.08190E-01
 -1        55 8.29539E-01
 -1        56 1.19049E+00
 -1        57 1.60895E+00
 -1        58 2.08474E+00
 -1        59 2.47150E+00
 -1        60 2.66836E+00
 -1        61 2.66836E+00
 -1        62 2.68030E+00
 -1        63 2.68030E+00
 -1        64 2.54261E+00
 -1        65 2.19433E+00
 -1        66 1.72894E+00
 -1        67 1.26430E+00
 -1        68 8.77192E-01
 -1        69 7.35841E-01
 -1        70 5.59207E-01
 -1        71 3.86341E-01
 -1        72 1.33042E+01
 -1        73 4.28612E+00
 -1        74 3.39822E+00
 -1        75 2.15584E+00
 -1        76 1.39068E+00
 -1        77 1.02773E+00
 -1        78 7.85399E-01
 -1        79 6.03274E-01
 -1        80 4.61124E-01
 -1        81 3.50988E-01
 -1        82 2.70758E-01
 -1        83 2.05892E-01
 -1        84 1.54284E-01
 -1        85 1.09848E-01
 -1        86 8.46256E-02
 -1        87 6.77827E-02
 -1        88 5.34796E-02
 -1        89 4.17233E-02
 -1        90 3.24449E-02
 -1        91 2.55705E-02
 -1        92 2.25193E-02
 -1        93 3.07919E-02
 -1        94 4.54624E-02
 -1        95 6.75685E-02
 -1        96 1.03607E-01
 -1        97 1.59327E-01
 -1        98 2.67334E-01
 -1        99 4.34108E-01
 -1       100 6.96922E-01
 -1       101 1.09476E+00
 -1       102 1.65726E+00
 -1       103 2.36686E+00
 -1       104 3.53390E+00
 -1       105 5.12887E+00
 -1       106 6.96545E+00
 -1       107 7.86874E+00
 -1       108 7.86874E+00
 -1       109 6.49644E+00
 -1       110 1.35950E+01
 -1       111 1.97127E+01
 -1       112 1.97127E+01
 -1       113 1.80258E+01
 -1       114 7.60945E+00
 -1       115 5.47612E+00
 -1       116 6.21563E+00
 -1       117 6.21563E+00
 -1       118 5.04226E+00
 -1       119 3.76227E+00
 -1       120 3.09367E+00
 -1       121 2.37241E+00
 -1       122 1.42580E+00
 -1       123 3.72383E-01
 -1       124 2.38480E-01
 -1       125 2.97711E-01
 -1       126 3.66117E-01
 -1       127 3.66117E-01
 -1       128 2.75613E-01
 -1       129 1.06113E-01
 -1       130 1.45477E-01
 -1       131 1.80168E-01
 -1       132 1.80168E-01
 -1       133 1.71101E-01
 -1       134 1.38042E-01
 -1       135 8.68363E-02
 -1       136 4.70988E-02
 -1       137 1.15904E-01
 -1       138 2.32905E-01
 -1       139 2.56772E+01
 -1       140 2.56772E+01
 -1       141 3.97337E+01
 -1       142 3.97337E+01
 -1       143 1.68601E+01
 -1       144 1.42403E+01
 -1       145 1.46829E+01
 -1       146 1.46829E+01
 -1       147 1.41346E+01
 -1       148 2.06993E+01
 -1       149 4.80598E+01
 -1       150 4.80598E+01
 -1       151 2.65887E+01
 -1       152 2.58185E+01
 -1       153 2.45775E+01
 -1       154 2.78038E+01
 -1       155 3.11857E+01
 -1       156 3.07194E+01
 -1       157 1.25848E+01
 -1       158 1.21772E+01
 -1       159 1.21772E+01
 -1       160 1.24041E+01
 -1       161 1.24041E+01
 -1       162 1.23466E+01
 -1       163 4.28810E+01
 -1       164 4.28810E+01
 -1       165 2.44396E+01
 -1       166 6.07973E+00
 -1       167 2.30018E+00
 -1       168 1.50800E+00
 -1       169 1.15804E+00
 -1       170 9.73367E-01
 -1       171 8.64105E-01
 -1       172 7.95247E-01
 -1       173 7.53382E-01
 -1       174 7.96304E-01
 -1       175 8.62967E-01
 -1       176 9.75316E-01
 -1       177 1.16283E+00
 -1       178 1.51556E+00
 -1       179 2.32553E+00
 -1       180 6.19575E+00
 -1       181 4.31708E+00
 -1       182 3.34052E+00
 -1       183 2.11124E+00
 -1       184 1.44672E+00
 -1       185 1.02491E+00
 -1       186 7.75294E-01
 -1       187 5.95405E-01
 -1       188 4.67254E-01
 -1       189 3.66818E-01
 -1       190 2.87878E-01
 -1       191 2.30471E-01
 -1       192 1.81462E-01
 -1       193 1.40639E-01
 -1       194 1.07328E-01
 -1       195 8.06309E-02
 -1       196 5.95686E-02
 -1       197 4.31663E-02
 -1       198 3.43083E-02
 -1       199 2.82279E-02
 -1       200 2.41982E-02
 -1       201 2.18214E-02
 -1       202 2.45382E-02
 -1       203 3.04261E-02
 -1       204 3.82031E-02
 -1       205 4.68431E-02
 -1       206 6.74889E-02
 -1       207 9.82039E-02
 -1       208 1.36987E-01
 -1       209 2.14367E-01
 -1       210 3.49526E-01
 -1       211 5.28814E-01
 -1       212 7.50482E-01
 -1       213 1.00343E+00
 -1       214 1.28842E+00
 -1       215 1.64917E+00
 -1       216 2.08474E+00
 -1       217 2.47150E+00
 -1       218 2.66836E+00
 -1       219 2.60901E+00
 -1       220 2.68030E+00
 -1       221 2.54261E+00
 -1       222 2.19433E+00
 -1       223 1.72894E+00
 -1       224 1.34134E+00
 -1       225 1.00478E+00
 -1       226 7.35841E-01
 -1       227 5.59207E-01
 -1       228 3.86341E-01
 -1       229 4.28612E+00
 -1       230 3.39822E+00
 -1       231 2.15584E+00
 -1       232 1.46658E+00
 -1       233 1.04188E+00
 -1       234 7.85399E-01
 -1       235 6.03274E-01
 -1       236 4.72708E-01
 -1       237 3.71341E-01
 -1       238 2.90966E-01
 -1       239 2.33195E-01
 -1       240 1.83861E-01
 -1       241 1.39924E-01
 -1       242 1.10812E-01
 -1       243 8.38357E-02
 -1       244 6.27602E-02
 -1       245 4.66993E-02
 -1       246 3.48182E-02
 -1       247 2.74235E-02
 -1       248 2.33917E-02
 -1       249 2.72083E-02
 -1       250 3.67689E-02
 -1       251 5.36941E-02
 -1       252 8.19382E-02
 -1       253 1.21022E-01
 -1       254 1.96134E-01
 -1       255 3.31033E-01
 -1       256 5.72695E-01
 -1       257 9.72661E-01
 -1       258 1.60968E+00
 -1       259 2.56422E+00
 -1       260 3.86094E+00
 -1       261 5.36421E+00
 -1       262 6.64687E+00
 -1       263 7.27942E+00
 -1       264 9.14933E+00
 -1       265 8.21010E+00
 -1       266 1.35950E+01
 -1       267 1.97127E+01
 -1       268 1.80258E+01
 -1       269 9.16023E+00
 -1       270 6.01191E+00
 -1       271 8.81791E+00
 -1       272 7.02494E+00
 -1       273 6.43615E+00
 -1       274 5.36025E+00
 -1       275 3.86454E+00
 -1       276 2.42261E+00
 -1       277 1.56598E+00
 -1       278 7.63095E-01
 -1       279 3.94580E-01
 -1       280 7.52987E-01
 -1       281 9.42046E-01
 -1       282 9.42046E-01
 -1       283 8.36743E-01
 -1       284 4.39195E-01
 -1       285 4.12808E-01
 -1       286 4.67647E-01
 -1       287 4.67647E-01
 -1       288 4.47761E-01
 -1       289 3.76452E-01
 -1       290 2.62270E-01
 -1       291 1.33365E-01
 -1       292 2.71295E-01
 -1       293 2.87005E+01
 -1       294 2.87005E+01
 -1       295 3.52968E+01
 -1       296 3.97337E+01
 -1       297 1.68601E+01
 -1       298 1.30994E+01
 -1       299 1.56743E+01
 -1       300 1.56743E+01
 -1       301 1.49262E+01
 -1       302 1.33904E+01
 -1       303 2.17950E+01
 -1       304 4.80598E+01
 -1       305 2.87061E+01
 -1       306 3.31035E+01
 -1       307 3.31035E+01
 -1       308 2.59799E+01
 -1       309 3.11857E+01
 -1       310 3.11857E+01
 -1       311 1.25848E+01
 -1       312 1.12418E+01
 -1       313 1.21772E+01
 -1       314 1.20946E+01
 -1       315 1.24041E+01
 -1       316 1.23466E+01
 -1       317 1.17653E+01
 -1       318 1.63238E+01
 -1       319 4.28810E+01
 -1       320 3.80210E+01
 -1       321 2.74961E+01
 -1       322 9.41188E+00
 -1       323 2.71295E-01
 -1       324 1.04950E+00
 -1       325 2.48160E+00
 -1       326 7.95325E-01
 -1       327 6.94888E-01
 -1       328 6.31618E-01
 -1       329 5.87231E-01
 -1       330 5.89017E-01
 -1       331 6.32430E-01
 -1       332 6.98691E-01
 -1       333 7.93233E-01
 -1       334 9.21824E-01
 -1       335 1.08675E+00
 -1       336 2.48373E+00
 -1       337 1.72879E+00
 -1       338 1.26683E+00
 -1       339 9.06361E-01
 -1       340 6.54991E-01
 -1       341 5.37895E-01
 -1       342 4.40549E-01
 -1       343 3.54608E-01
 -1       344 2.88262E-01
 -1       345 2.32350E-01
 -1       346 1.84047E-01
 -1       347 1.47769E-01
 -1       348 1.17467E-01
 -1       349 9.17519E-02
 -1       350 7.03990E-02
 -1       351 5.29626E-02
 -1       352 3.88947E-02
 -1       353 2.76247E-02
 -1       354 2.30340E-02
 -1       355 1.97808E-02
 -1       356 1.73797E-02
 -1       357 2.02349E-02
 -1       358 2.29875E-02
 -1       359 2.40852E-02
 -1       360 3.10334E-02
 -1       361 5.76801E-02
 -1       362 1.11165E-01
 -1       363 1.90139E-01
 -1       364 2.99633E-01
 -1       365 4.42253E-01
 -1       366 6.16183E-01
 -1       367 8.13212E-01
 -1       368 1.06413E+00
 -1       369 1.31821E+00
 -1       370 1.56844E+00
 -1       371 1.81794E+00
 -1       372 1.95863E+00
 -1       373 1.96129E+00
 -1       374 1.94018E+00
 -1       375 1.96843E+00
 -1       376 1.85561E+00
 -1       377 1.62139E+00
 -1       378 1.33188E+00
 -1       379 1.06282E+00
 -1       380 7.82889E-01
 -1       381 5.55669E-01
 -1       382 3.56151E-01
 -1       383 1.28397E+00
 -1       384 1.73432E+00
 -1       385 9.20426E-01
 -1       386 6.65315E-01
 -1       387 5.42885E-01
 -1       388 4.45082E-01
 -1       389 3.58570E-01
 -1       390 2.91259E-01
 -1       391 2.35042E-01
 -1       392 1.86381E-01
 -1       393 1.48235E-01
 -1       394 1.20825E-01
 -1       395 9.49142E-02
 -1       396 7.35349E-02
 -1       397 5.62589E-02
 -1       398 4.25523E-02
 -1       399 3.18072E-02
 -1       400 2.33917E-02
 -1       401 2.26154E-02
 -1       402 2.73614E-02
 -1       403 3.76052E-02
 -1       404 6.43323E-02
 -1       405 1.06025E-01
 -1       406 1.75151E-01
 -1       407 2.89452E-01
 -1       408 4.75129E-01
 -1       409 7.73634E-01
 -1       410 1.24683E+00
 -1       411 1.98268E+00
 -1       412 3.09740E+00
 -1       413 4.72338E+00
 -1       414 6.97057E+00
 -1       415 9.56453E+00
 -1       416 1.06157E+01
 -1       417 2.74119E+01
 -1       418 1.86263E+01
 -1       419 1.15935E+01
 -1       420 8.79992E+00
 -1       421 6.60000E+00
 -1       422 5.02883E+00
 -1       423 3.29067E+00
 -1       424 1.92204E+00
 -1       425 7.70818E-01
 -1       426 1.58047E+00
 -1       427 1.13951E+00
 -1       428 1.58047E+00
 -1       429 1.48175E+00
 -1       430 1.04556E+00
 -1       431 6.51016E-01
 -1       432 7.12937E-01
 -1       433 7.12937E-01
 -1       434 6.44959E-01
 -1       435 5.99775E-01
 -1       436 4.78671E-01
 -1       437 3.04345E-01
 -1       438 2.42225E-01
 -1       439 2.38770E+01
 -1       440 4.52046E+01
 -1       441 9.11139E-01
 -1       442 1.07212E+01
 -1       443 1.42910E+01
 -1       444 2.87061E+01
 -1       445 3.34208E+01
 -1       446 4.37844E+01
 -1       447 4.37844E+01
 -1       448 2.73182E+01
 -1       449 2.02743E+01
 -1       450 1.21318E+01
 -1       451 7.22591E+00
 -1       452 8.96397E+00
 -1       453 1.04154E+01
 -1       454 1.08361E+01
 -1       455 1.02878E+01
 -1       456 8.01879E+00
 -1       457 7.90661E+00
 -1       458 1.50296E+01
 -1       459 2.61602E+01
 -1       460 2.45942E+01
 -1       461 4.52046E+01
 -1       462 7.98949E+00
 -1       463 8.70120E+00
 -1       464 1.19562E+01
 -1       465 4.28027E+00
 -1       466 1.03366E+01
 -1       467 2.45942E+01
 -1       468 4.86563E-01
 -1       469 5.14663E-01
 -1       470 4.30627E-01
 -1       471 4.56785E-01
 -1       472 4.86775E-01
 -1       473 5.11836E-01
 -1       474 5.12981E-01
 -1       475 5.12981E-01
 -1       476 8.19722E-01
 -1       477 8.03499E-01
 -1       478 8.73258E-01
 -1       479 7.01153E-01
 -1       480 5.87669E-01
 -1       481 4.74979E-01
 -1       482 3.75894E-01
 -1       483 3.21322E-01
 -1       484 2.70811E-01
 -1       485 2.22848E-01
 -1       486 1.83500E-01
 -1       487 1.49037E-01
 -1       488 1.18774E-01
 -1       489 9.29658E-02
 -1       490 7.36373E-02
 -1       491 5.71671E-02
 -1       492 4.33247E-02
 -1       493 3.18522E-02
 -1       494 2.24564E-02
 -1       495 1.66200E-02
 -1       496 1.44945E-02
 -1       497 1.27437E-02
 -1       498 1.39060E-02
 -1       499 1.69810E-02
 -1       500 2.51695E-02
 -1       501 4.49665E-02
 -1       502 8.04484E-02
 -1       503 1.35935E-01
 -1       504 2.18152E-01
 -1       505 3.28210E-01
 -1       506 4.70388E-01
 -1       507 6.65832E-01
 -1       508 8.85443E-01
 -1       509 1.10345E+00
 -1       510 1.28205E+00
 -1       511 1.42461E+00
 -1       512 1.52655E+00
 -1       513 1.53392E+00
 -1       514 1.46087E+00
 -1       515 1.51583E+00
 -1       516 1.52367E+00
 -1       517 1.43452E+00
 -1       518 1.27363E+00
 -1       519 1.08868E+00
 -1       520 8.50261E-01
 -1       521 5.98994E-01
 -1       522 3.88683E-01
 -1       523 5.91502E-01
 -1       524 1.26078E+01
 -1       525 4.80144E-01
 -1       526 3.80410E-01
 -1       527 3.23823E-01
 -1       528 2.73321E-01
 -1       529 2.25209E-01
 -1       530 1.85435E-01
 -1       531 1.50394E-01
 -1       532 1.22056E-01
 -1       533 9.61041E-02
 -1       534 7.63338E-02
 -1       535 5.98960E-02
 -1       536 4.61118E-02
 -1       537 3.46246E-02
 -1       538 2.49163E-02
 -1       539 1.95276E-02
 -1       540 2.20161E-02
 -1       541 3.03691E-02
 -1       542 5.10471E-02
 -1       543 8.07517E-02
 -1       544 1.26666E-01
 -1       545 1.97514E-01
 -1       546 3.09956E-01
 -1       547 5.12475E-01
 -1       548 8.52288E-01
 -1       549 1.42406E+00
 -1       550 2.33744E+00
 -1       551 3.91973E+00
 -1       552 6.60992E+00
 -1       553 9.91737E+00
 -1       554 1.61723E+01
 -1       555 1.17374E+01
 -1       556 1.92204E+00
 -1       557 2.22193E+00
 -1       558 1.94547E+00
 -1       559 2.41535E+00
 -1       560 1.35676E+00
 -1       561 1.06909E+00
 -1       562 1.06909E+00
 -1       563 8.89961E-01
 -1       564 8.13531E-01
 -1       565 6.98291E-01
 -1       566 5.30505E-01
 -1       567 3.66815E-01
 -1       568 2.73182E+01
 -1       569 3.34208E+01
 -1       570 7.71501E+00
 -1       571 1.98264E+01
 -1       572 3.85798E+00
 -1       573 6.75139E+00
 -1       574 7.96510E-01
 -1       575 4.57455E-01
 -1       576 6.50870E-01
 -1       577 1.64301E+01
 -1       578 4.52046E+01
 -1       579 1.87509E+01
 -1       580 4.37844E+01
 -1       581 8.40756E+00
 -1       582 1.17972E+01
 -1       583 6.32146E+00
 -1       584 4.01839E+00
 -1       585 6.57293E+00
 -1       586 8.06700E+00
 -1       587 5.78848E+00
 -1       588 1.21841E+01
 -1       589 2.74119E+01
 -1       590 1.75334E+01
 -1       591 5.31167E-01
 -1       592 2.41535E+00
 -1       593 1.66299E+01
 -1       594 4.06976E+00
 -1       595 4.00298E+00
 -1       596 3.58470E-01
 -1       597 3.42255E-01
 -1       598 3.60418E-01
 -1       599 3.42571E-01
 -1       600 3.87908E-01
 -1       601 5.31167E-01
 -1       602 2.94084E-01
 -1       603 3.95879E-01
 -1       604 3.82841E-01
 -1       605 3.41551E-01
 -1       606 2.91606E-01
 -1       607 2.41550E-01
 -1       608 2.10243E-01
 -1       609 1.77354E-01
 -1       610 1.45917E-01
 -1       611 1.17494E-01
 -1       612 9.33422E-02
 -1       613 7.37765E-02
 -1       614 5.71671E-02
 -1       615 4.33247E-02
 -1       616 3.25320E-02
 -1       617 2.36589E-02
 -1       618 1.63224E-02
 -1       619 1.08258E-02
 -1       620 1.02251E-02
 -1       621 1.14033E-02
 -1       622 1.69810E-02
 -1       623 2.52795E-02
 -1       624 4.26692E-02
 -1       625 7.69253E-02
 -1       626 1.31580E-01
 -1       627 2.11536E-01
 -1       628 3.18578E-01
 -1       629 4.51226E-01
 -1       630 6.00815E-01
 -1       631 7.49657E-01
 -1       632 9.20082E-01
 -1       633 1.11940E+00
 -1       634 1.25157E+00
 -1       635 1.31617E+00
 -1       636 1.35556E+00
 -1       637 1.29699E+00
 -1       638 1.26690E+00
 -1       639 1.34561E+00
 -1       640 1.30732E+00
 -1       641 1.23734E+00
 -1       642 1.10931E+00
 -1       643 9.19866E-01
 -1       644 7.47408E-01
 -1       645 6.22751E-01
 -1       646 1.87725E+01
 -1       647 3.82486E-01
 -1       648 2.44002E-01
 -1       649 2.11905E-01
 -1       650 1.79052E-01
 -1       651 1.48103E-01
 -1       652 1.20347E-01
 -1       653 9.60477E-02
 -1       654 7.64459E-02
 -1       655 5.98960E-02
 -1       656 4.61118E-02
 -1       657 3.46246E-02
 -1       658 2.49163E-02
 -1       659 1.66305E-02
 -1       660 1.45575E-02
 -1       661 1.83956E-02
 -1       662 3.25365E-02
 -1       663 5.66058E-02
 -1       664 9.46237E-02
 -1       665 1.56936E-01
 -1       666 2.59867E-01
 -1       667 4.24925E-01
 -1       668 6.88757E-01
 -1       669 1.11097E+00
 -1       670 1.79387E+00
 -1       671 2.92715E+00
 -1       672 4.90940E+00
 -1       673 7.12070E+00
 -1       674 1.06231E+01
 -1       675 1.92075E+00
 -1       676 4.02732E-01
 -1       677 1.37039E+01
 -1       678 3.33671E+00
 -1       679 4.23491E+00
 -1       680 2.42846E+00
 -1       681 1.65536E+00
 -1       682 1.29082E+00
 -1       683 1.03522E+00
 -1       684 8.90818E-01
 -1       685 7.47408E-01
 -1       686 1.05804E+01
 -1       687 1.85650E+01
 -1       688 3.60418E-01
 -1       689 5.74582E+00
 -1       690 1.02232E+01
 -1       691 5.97728E+00
 -1       692 3.59088E-01
 -1       693 5.11673E+00
 -1       694 7.75448E+00
 -1       695 7.36675E+00
 -1       696 3.80854E+00
 -1       697 3.49488E+00
 -1       698 1.69482E+01
 -1       699 3.43662E-01
 -1       700 5.20319E+00
 -1       701 1.00360E+01
 -1       702 1.61723E+01
 -1       703 3.33296E-01
 -1       704 3.42441E-01
 -1       705 3.57702E-01
 -1       706 3.79655E-01
 -1       707 3.74955E+00
 -1       708 1.13356E+01
 -1       709 9.95564E+00
 -1       710 4.28913E+00
 -1       711 2.90281E+00
 -1       712 3.54512E+00
 -1       713 3.35802E-01
 -1       714 2.69570E-01
 -1       715 3.49488E+00
 -1       716 1.97729E-01
 -1       717 5.43759E+00
 -1       718 2.53556E-01
 -1       719 2.54042E-01
 -1       720 2.46896E-01
 -1       721 2.24850E-01
 -1       722 1.96205E-01
 -1       723 1.69652E-01
 -1       724 1.48156E-01
 -1       725 1.25547E-01
 -1       726 1.03750E-01
 -1       727 8.38306E-02
 -1       728 6.62741E-02
 -1       729 5.11823E-02
 -1       730 3.84174E-02
 -1       731 2.77023E-02
 -1       732 1.86926E-02
 -1       733 1.13892E-02
 -1       734 6.46451E-03
 -1       735 7.93306E-03
 -1       736 1.44499E-02
 -1       737 2.52795E-02
 -1       738 4.12802E-02
 -1       739 6.55711E-02
 -1       740 1.05764E-01
 -1       741 1.77615E-01
 -1       742 2.78526E-01
 -1       743 4.10772E-01
 -1       744 5.70072E-01
 -1       745 7.41608E-01
 -1       746 8.98275E-01
 -1       747 1.05525E+00
 -1       748 1.15987E+00
 -1       749 1.28282E+00
 -1       750 1.44401E+00
 -1       751 1.49449E+00
 -1       752 1.31509E+00
 -1       753 1.56052E+00
 -1       754 1.46156E+00
 -1       755 1.30134E+00
 -1       756 1.18077E+00
 -1       757 1.10641E+00
 -1       758 9.40537E-01
 -1       759 1.70654E-01
 -1       760 9.76761E+00
 -1       761 2.26140E-01
 -1       762 1.49679E-01
 -1       763 1.27843E-01
 -1       764 1.05972E-01
 -1       765 8.58508E-02
 -1       766 6.80847E-02
 -1       767 5.27922E-02
 -1       768 3.98401E-02
 -1       769 2.89318E-02
 -1       770 1.96698E-02
 -1       771 1.21648E-02
 -1       772 1.42936E-02
 -1       773 2.65413E-02
 -1       774 4.38567E-02
 -1       775 7.36923E-02
 -1       776 1.17432E-01
 -1       777 1.83115E-01
 -1       778 2.80863E-01
 -1       779 4.24147E-01
 -1       780 6.75791E-01
 -1       781 1.12962E+00
 -1       782 1.85782E+00
 -1       783 2.96542E+00
 -1       784 4.15986E+00
 -1       785 6.69167E+00
 -1       786 2.63360E+00
 -1       787 1.90610E+00
 -1       788 9.54008E+00
 -1       789 3.41480E+00
 -1       790 1.32696E+00
 -1       791 1.16084E+00
 -1       792 7.49701E+00
 -1       793 4.14182E+00
 -1       794 2.47542E-01
 -1       795 8.43680E+00
 -1       796 5.66138E+00
 -1       797 2.31253E-01
 -1       798 2.88654E-01
 -1       799 6.09385E+00
 -1       800 1.09676E+01
 -1       801 2.55241E+00
 -1       802 4.24462E+00
 -1       803 4.06633E+00
 -1       804 5.51502E+00
 -1       805 2.81284E-01
 -1       806 2.32741E-01
 -1       807 2.62025E-01
 -1       808 2.81665E-01
 -1       809 3.04841E+00
 -1       810 5.14677E+00
 -1       811 9.40537E-01
 -1       812 4.10495E+00
 -1       813 3.37326E+00
 -1       814 2.90281E+00
 -1       815 2.88654E-01
 -1       816 2.88899E-01
 -1       817 2.80996E-01
 -1       818 2.88899E-01
 -1       819 1.50064E+00
 -1       820 1.60836E-01
 -1       821 1.38619E-01
 -1       822 1.81130E-01
 -1       823 1.73622E-01
 -1       824 1.57694E-01
 -1       825 1.37799E-01
 -1       826 1.21411E-01
 -1       827 1.04771E-01
 -1       828 8.79450E-02
 -1       829 7.20527E-02
 -1       830 5.76897E-02
 -1       831 4.50839E-02
 -1       832 3.42138E-02
 -1       833 2.48934E-02
 -1       834 1.68297E-02
 -1       835 1.04826E-02
 -1       836 7.47497E-03
 -1       837 1.12386E-02
 -1       838 1.93288E-02
 -1       839 3.49905E-02
 -1       840 6.09946E-02
 -1       841 1.01295E-01
 -1       842 1.58033E-01
 -1       843 2.32786E-01
 -1       844 3.22630E-01
 -1       845 4.72362E-01
 -1       846 6.65651E-01
 -1       847 8.72403E-01
 -1       848 1.05525E+00
 -1       849 1.25631E+00
 -1       850 1.35837E+00
 -1       851 1.81941E+00
 -1       852 2.37463E+00
 -1       853 1.73818E+00
 -1       854 2.91887E+00
 -1       855 2.68890E+00
 -1       856 1.79742E+00
 -1       857 1.41778E+00
 -1       858 1.37381E+00
 -1       859 1.62864E+00
 -1       860 1.21695E-01
 -1       861 1.74308E-01
 -1       862 1.05236E-01
 -1       863 8.84405E-02
 -1       864 7.25164E-02
 -1       865 5.80791E-02
 -1       866 4.53821E-02
 -1       867 3.44352E-02
 -1       868 2.50990E-02
 -1       869 1.71575E-02
 -1       870 1.75119E-02
 -1       871 2.05584E-02
 -1       872 3.11270E-02
 -1       873 5.02147E-02
 -1       874 7.64990E-02
 -1       875 1.25930E-01
 -1       876 2.04522E-01
 -1       877 3.26535E-01
 -1       878 5.10145E-01
 -1       879 7.73079E-01
 -1       880 1.30640E+00
 -1       881 2.20527E+00
 -1       882 3.40185E+00
 -1       883 1.62864E+00
 -1       884 2.64669E+00
 -1       885 1.81222E-01
 -1       886 7.12138E+00
 -1       887 3.24817E+00
 -1       888 1.39843E-01
 -1       889 2.53715E+00
 -1       890 3.37143E+00
 -1       891 1.73428E-01
 -1       892 1.73336E-01
 -1       893 8.40485E+00
 -1       894 2.73074E+00
 -1       895 2.40734E+00
 -1       896 6.66384E+00
 -1       897 1.59215E-01
 -1       898 3.05342E+00
 -1       899 1.44453E-01
 -1       900 8.59685E+00
 -1       901 2.17769E-01
 -1       902 2.98861E+00
 -1       903 5.20852E+00
 -1       904 3.04841E+00
 -1       905 3.42227E+00
 -1       906 3.83402E+00
 -1       907 3.58688E+00
 -1       908 2.53714E+00
 -1       909 2.17769E-01
 -1       910 6.62400E+00
 -1       911 1.90770E-01
 -1       912 1.22459E-01
 -1       913 2.37463E+00
 -1       914 1.12748E-01
 -1       915 2.53715E+00
 -1       916 2.19109E-01
 -1       917 1.34115E-01
 -1       918 1.25165E-01
 -1       919 1.11753E-01
 -1       920 9.67419E-02
 -1       921 8.41909E-02
 -1       922 7.12013E-02
 -1       923 5.87461E-02
 -1       924 4.73636E-02
 -1       925 3.72737E-02
 -1       926 2.84663E-02
 -1       927 2.07586E-02
 -1       928 1.61780E-02
 -1       929 1.37678E-02
 -1       930 1.33744E-02
 -1       931 1.93283E-02
 -1       932 3.32041E-02
 -1       933 5.16610E-02
 -1       934 8.06398E-02
 -1       935 1.33492E-01
 -1       936 2.12814E-01
 -1       937 3.21686E-01
 -1       938 4.56350E-01
 -1       939 6.04861E-01
 -1       940 8.28184E-01
 -1       941 1.04960E+00
 -1       942 1.25631E+00
 -1       943 1.77086E+00
 -1       944 2.53715E+00
 -1       945 2.91887E+00
 -1       946 2.72217E+00
 -1       947 1.41778E+00
 -1       948 1.62864E+00
 -1       949 7.18553E-02
 -1       950 9.75109E-02
 -1       951 5.92319E-02
 -1       952 4.76580E-02
 -1       953 3.74162E-02
 -1       954 2.85982E-02
 -1       955 2.11975E-02
 -1       956 1.96823E-02
 -1       957 2.08554E-02
 -1       958 2.70275E-02
 -1       959 4.18069E-02
 -1       960 6.36168E-02
 -1       961 9.72782E-02
 -1       962 1.47193E-01
 -1       963 2.17863E-01
 -1       964 3.73084E-01
 -1       965 6.20836E-01
 -1       966 9.86408E-01
 -1       967 1.45655E+00
 -1       968 2.20527E+00
 -1       969 1.72503E+00
 -1       970 2.06211E-01
 -1       971 1.79556E+00
 -1       972 1.34643E-01
 -1       973 8.49446E-02
 -1       974 1.34997E-01
 -1       975 1.19451E-01
 -1       976 2.19109E-01
 -1       977 3.84883E+00
 -1       978 1.89376E+00
 -1       979 9.35789E-02
 -1       980 1.44411E-01
 -1       981 1.53205E-01
 -1       982 1.25345E-01
 -1       983 4.57220E+00
 -1       984 2.72217E+00
 -1       985 2.52667E+00
 -1       986 2.98861E+00
 -1       987 1.21661E-01
 -1       988 1.34464E-01
 -1       989 2.67765E+00
 -1       990 2.29629E+00
 -1       991 3.08620E+00
 -1       992 2.73830E+00
 -1       993 1.54542E-01
 -1       994 1.01044E-01
 -1       995 9.69546E-02
 -1       996 8.75610E-02
 -1       997 7.63025E-02
 -1       998 6.46019E-02
 -1       999 5.42013E-02
 -1      1000 4.48372E-02
 -1      1001 3.63085E-02
 -1      1002 2.87557E-02
 -1      1003 2.35300E-02
 -1      1004 2.04732E-02
 -1      1005 1.83779E-02
 -1      1006 1.77124E-02
 -1      1007 2.13211E-02
 -1      1008 3.10034E-02
 -1      1009 5.08721E-02
 -1      1010 8.34426E-02
 -1      1011 1.32383E-01
 -1      1012 1.98983E-01
 -1      1013 2.82140E-01
 -1      1014 4.04341E-01
 -1      1015 5.96682E-01
 -1      1016 8.28184E-01
 -1      1017 1.04960E+00
 -1      1018 1.38006E+00
 -1      1019 1.01850E-01
 -1      1020 2.72217E+00
 -1      1021 8.82013E-02
 -1      1022 3.61582E-02
 -1      1023 2.85471E-02
 -1      1024 2.40451E-02
 -1      1025 2.11903E-02
 -1      1026 2.12015E-02
 -1      1027 2.43293E-02
 -1      1028 3.36628E-02
 -1      1029 4.64418E-02
 -1      1030 6.56307E-02
 -1      1031 1.10337E-01
 -1      1032 1.81336E-01
 -1      1033 2.88951E-01
 -1      1034 4.42523E-01
 -1      1035 6.42708E-01
 -1      1036 1.01689E+00
 -1      1037 1.45655E+00
 -1      1038 4.48608E-02
 -1      1039 8.90815E-02
 -1      1040 1.37789E-01
 -1      1041 3.04613E+00
 -1      1042 1.02384E-01
 -1      1043 1.77086E+00
 -1      1044 5.44079E-02
 -1      1045 2.47921E+00
 -1      1046 1.85840E+00
 -1      1047 6.51204E-02
 -1      1048 8.51027E-02
 -1      1049 7.69343E-02
 -1      1050 9.67692E-02
 -1      1051 1.79556E+00
 -1      1052 1.03766E-01
 -1      1053 6.75526E-02
 -1      1054 9.48228E-02
 -1      1055 1.54542E-01
 -1      1056 1.88462E+00
 -1      1057 9.68194E-02
 -1      1058 6.72763E-02
 -1      1059 6.14204E-02
 -1      1060 5.41470E-02
 -1      1061 4.65561E-02
 -1      1062 3.93582E-02
 -1      1063 3.29924E-02
 -1      1064 2.76893E-02
 -1      1065 2.35300E-02
 -1      1066 2.21303E-02
 -1      1067 2.48188E-02
 -1      1068 3.30351E-02
 -1      1069 4.77871E-02
 -1      1070 7.16670E-02
 -1      1071 1.07982E-01
 -1      1072 1.60123E-01
 -1      1073 2.29936E-01
 -1      1074 3.19148E-01
 -1      1075 4.81049E-01
 -1      1076 6.76802E-01
 -1      1077 1.37896E+00
 -1      1078 1.45065E+00
 -1      1079 2.49097E-02
 -1      1080 2.93863E-02
 -1      1081 1.92607E+00
 -1      1082 6.51357E-02
 -1      1083 3.54053E-02
 -1      1084 7.41952E-02
 -1      1085 2.23267E-02
 -1      1086 2.48188E-02
 -1      1087 3.30351E-02
 -1      1088 4.77871E-02
 -1      1089 7.16670E-02
 -1      1090 1.07982E-01
 -1      1091 1.60123E-01
 -1      1092 2.29936E-01
 -1      1093 3.19148E-01
 -1      1094 4.83199E-01
 -1      1095 7.90452E-01
 -1      1096 1.41184E+00
 -1      1097 4.26507E-02
 -1      1098 1.02473E-01
 -1      1099 7.56615E-02
 -1      1100 5.07384E-02
 -1      1101 1.85703E+00
 -1      1102 7.32070E-02
 -1      1103 5.91014E-02
 -1      1104 4.82522E-02
 -1      1105 7.56615E-02
 -1      1106 1.47044E+00
 -1      1107 6.62545E-02
 -1      1108 1.03766E-01
 -1      1109 7.32070E-02
 -1      1110 7.37098E-02
 -1      1111 7.56615E-02
 -1      1112 6.70468E-02
 -1      1113 1.31440E+01
 -1      1114 8.40459E+00
 -1      1115 2.74581E+00
 -1      1116 1.55798E+00
 -1      1117 1.16798E+00
 -1      1118 9.73098E-01
 -1      1119 8.54091E-01
 -1      1120 7.80577E-01
 -1      1121 7.53062E-01
 -1      1122 7.81713E-01
 -1      1123 8.53419E-01
 -1      1124 9.72233E-01
 -1      1125 1.17263E+00
 -1      1126 1.57190E+00
 -1      1127 2.77734E+00
 -1      1128 8.50632E+00
 -1      1129 1.33042E+01
 -1      1130 1.31440E+01
 -1      1131 8.73053E+00
 -1      1132 3.82880E+00
 -1      1133 2.72588E+00
 -1      1134 1.73688E+00
 -1      1135 1.18836E+00
 -1      1136 8.94747E-01
 -1      1137 6.85349E-01
 -1      1138 5.25178E-01
 -1      1139 4.00802E-01
 -1      1140 3.06944E-01
 -1      1141 2.35150E-01
 -1      1142 1.77547E-01
 -1      1143 1.32051E-01
 -1      1144 9.77898E-02
 -1      1145 7.53886E-02
 -1      1146 6.04714E-02
 -1      1147 4.81973E-02
 -1      1148 3.85155E-02
 -1      1149 3.12681E-02
 -1      1150 2.62130E-02
 -1      1151 2.43682E-02
 -1      1152 2.74821E-02
 -1      1153 3.43146E-02
 -1      1154 4.25231E-02
 -1      1155 5.71660E-02
 -1      1156 8.28464E-02
 -1      1157 1.15836E-01
 -1      1158 1.66668E-01
 -1      1159 2.54842E-01
 -1      1160 3.79058E-01
 -1      1161 5.28245E-01
 -1      1162 7.18864E-01
 -1      1163 1.01001E+00
 -1      1164 1.39972E+00
 -1      1165 1.84684E+00
 -1      1166 2.27812E+00
 -1      1167 2.56993E+00
 -1      1168 2.66836E+00
 -1      1169 2.67433E+00
 -1      1170 2.68030E+00
 -1      1171 2.61145E+00
 -1      1172 2.36847E+00
 -1      1173 1.96163E+00
 -1      1174 1.49662E+00
 -1      1175 1.07075E+00
 -1      1176 8.06516E-01
 -1      1177 6.47524E-01
 -1      1178 4.72774E-01
 -1      1179 2.28950E-01
 -1      1180 1.33042E+01
 -1      1181 8.79515E+00
 -1      1182 3.84217E+00
 -1      1183 2.77703E+00
 -1      1184 1.77326E+00
 -1      1185 1.20921E+00
 -1      1186 9.06565E-01
 -1      1187 6.94336E-01
 -1      1188 5.32199E-01
 -1      1189 4.06056E-01
 -1      1190 3.10873E-01
 -1      1191 2.38325E-01
 -1      1192 1.80088E-01
 -1      1193 1.32066E-01
 -1      1194 9.72369E-02
 -1      1195 7.62042E-02
 -1      1196 6.06312E-02
 -1      1197 4.76014E-02
 -1      1198 3.70841E-02
 -1      1199 2.90077E-02
 -1      1200 2.40449E-02
 -1      1201 2.66556E-02
 -1      1202 3.81271E-02
 -1      1203 5.65155E-02
 -1      1204 8.55879E-02
 -1      1205 1.31467E-01
 -1      1206 2.13331E-01
 -1      1207 3.50721E-01
 -1      1208 5.65515E-01
 -1      1209 8.95842E-01
 -1      1210 1.37601E+00
 -1      1211 2.01206E+00
 -1      1212 2.95038E+00
 -1      1213 4.33139E+00
 -1      1214 6.04716E+00
 -1      1215 7.41709E+00
 -1      1216 7.86874E+00
 -1      1217 7.18259E+00
 -1      1218 1.00457E+01
 -1      1219 1.66538E+01
 -1      1220 1.97127E+01
 -1      1221 1.88692E+01
 -1      1222 1.28176E+01
 -1      1223 6.54279E+00
 -1      1224 5.84588E+00
 -1      1225 6.21563E+00
 -1      1226 5.62895E+00
 -1      1227 4.40227E+00
 -1      1228 3.42797E+00
 -1      1229 2.73304E+00
 -1      1230 1.89911E+00
 -1      1231 9.84804E-01
 -1      1232 4.58095E-01
 -1      1233 3.05431E-01
 -1      1234 2.68096E-01
 -1      1235 3.31914E-01
 -1      1236 3.66117E-01
 -1      1237 3.20865E-01
 -1      1238 1.90863E-01
 -1      1239 1.25795E-01
 -1      1240 1.62823E-01
 -1      1241 1.80168E-01
 -1      1242 1.75634E-01
 -1      1243 1.54571E-01
 -1      1244 1.12439E-01
 -1      1245 6.69675E-02
 -1      1246 8.15013E-02
 -1      1247 1.74404E-01
 -1      1248 1.52232E-01
 -1      1249 2.50584E+01
 -1      1250 2.56772E+01
 -1      1251 3.27055E+01
 -1      1252 3.97337E+01
 -1      1253 2.82969E+01
 -1      1254 1.55502E+01
 -1      1255 1.44616E+01
 -1      1256 1.46829E+01
 -1      1257 1.44087E+01
 -1      1258 1.74169E+01
 -1      1259 3.43795E+01
 -1      1260 4.80598E+01
 -1      1261 3.73243E+01
 -1      1262 2.62036E+01
 -1      1263 2.51980E+01
 -1      1264 2.61906E+01
 -1      1265 2.94947E+01
 -1      1266 3.09525E+01
 -1      1267 2.16521E+01
 -1      1268 1.23810E+01
 -1      1269 1.21772E+01
 -1      1270 1.22907E+01
 -1      1271 1.24041E+01
 -1      1272 1.23754E+01
 -1      1273 1.43352E+01
 -1      1274 2.96024E+01
 -1      1275 4.28810E+01
 -1      1276 3.36603E+01
 -1      1277 2.44396E+01
 -1      1278 1.31440E+01
 -1      1279 4.87246E+00
 -1      1280 9.61186E+00
 -1      1281 2.06330E+00
 -1      1282 2.98268E+00
 -1      1283 4.18995E+00
 -1      1284 1.39877E+00
 -1      1285 1.66721E+00
 -1      1286 1.90409E+00
 -1      1287 1.10223E+00
 -1      1288 1.22379E+00
 -1      1289 1.33302E+00
 -1      1290 9.36569E-01
 -1      1291 1.00990E+00
 -1      1292 1.06570E+00
 -1      1293 8.36258E-01
 -1      1294 8.81938E-01
 -1      1295 9.18736E-01
 -1      1296 7.73995E-01
 -1      1297 8.01829E-01
 -1      1298 8.29676E-01
 -1      1299 7.53382E-01
 -1      1300 7.53062E-01
 -1      1301 7.74314E-01
 -1      1302 8.03174E-01
 -1      1303 7.74843E-01
 -1      1304 7.74843E-01
 -1      1305 8.79881E-01
 -1      1306 8.36505E-01
 -1      1307 8.29636E-01
 -1      1308 1.01149E+00
 -1      1309 9.36055E-01
 -1      1310 9.19141E-01
 -1      1311 1.23021E+00
 -1      1312 1.10525E+00
 -1      1313 1.06907E+00
 -1      1314 1.68088E+00
 -1      1315 1.40658E+00
 -1      1316 1.33920E+00
 -1      1317 3.01700E+00
 -1      1318 2.08586E+00
 -1      1319 1.92054E+00
 -1      1320 9.74996E+00
 -1      1321 4.95211E+00
 -1      1322 4.26064E+00
 -1      1323 1.33042E+01
 -1      1324 8.73053E+00
 -1      1325 4.31708E+00
 -1      1326 3.82880E+00
 -1      1327 3.34052E+00
 -1      1328 3.82880E+00
 -1      1329 2.72588E+00
 -1      1330 2.11124E+00
 -1      1331 2.72588E+00
 -1      1332 1.77898E+00
 -1      1333 1.40463E+00
 -1      1334 1.77898E+00
 -1      1335 1.19372E+00
 -1      1336 1.01955E+00
 -1      1337 1.23582E+00
 -1      1338 8.94747E-01
 -1      1339 7.75294E-01
 -1      1340 9.00101E-01
 -1      1341 6.85349E-01
 -1      1342 5.95405E-01
 -1      1343 6.85349E-01
 -1      1344 5.31330E-01
 -1      1345 4.61102E-01
 -1      1346 5.31330E-01
 -1      1347 4.10884E-01
 -1      1348 3.56736E-01
 -1      1349 4.17036E-01
 -1      1350 3.17266E-01
 -1      1351 2.77556E-01
 -1      1352 3.27348E-01
 -1      1353 2.48853E-01
 -1      1354 2.16768E-01
 -1      1355 2.59174E-01
 -1      1356 1.92264E-01
 -1      1357 1.66746E-01
 -1      1358 2.05967E-01
 -1      1359 1.46335E-01
 -1      1360 1.26356E-01
 -1      1361 1.61051E-01
 -1      1362 1.09701E-01
 -1      1363 9.54174E-02
 -1      1364 1.23984E-01
 -1      1365 8.20686E-02
 -1      1366 7.39508E-02
 -1      1367 9.39796E-02
 -1      1368 6.34197E-02
 -1      1369 5.66203E-02
 -1      1370 7.00997E-02
 -1      1371 4.84191E-02
 -1      1372 4.29444E-02
 -1      1373 5.13675E-02
 -1      1374 3.85155E-02
 -1      1375 3.43083E-02
 -1      1376 3.87373E-02
 -1      1377 3.12681E-02
 -1      1378 2.82279E-02
 -1      1379 3.12681E-02
 -1      1380 2.62130E-02
 -1      1381 2.41982E-02
 -1      1382 2.62130E-02
 -1      1383 2.30098E-02
 -1      1384 2.31798E-02
 -1      1385 2.30098E-02
 -1      1386 2.45382E-02
 -1      1387 2.74821E-02
 -1      1388 2.31798E-02
 -1      1389 3.04261E-02
 -1      1390 3.43146E-02
 -1      1391 2.74821E-02
 -1      1392 3.82031E-02
 -1      1393 4.25231E-02
 -1      1394 3.43146E-02
 -1      1395 4.68431E-02
 -1      1396 5.71660E-02
 -1      1397 4.25231E-02
 -1      1398 6.74889E-02
 -1      1399 8.28464E-02
 -1      1400 5.71660E-02
 -1      1401 9.82039E-02
 -1      1402 1.15836E-01
 -1      1403 8.28464E-02
 -1      1404 1.35227E-01
 -1      1405 1.68428E-01
 -1      1406 1.17595E-01
 -1      1407 2.07118E-01
 -1      1408 2.62091E-01
 -1      1409 1.75677E-01
 -1      1410 3.29671E-01
 -1      1411 3.98913E-01
 -1      1412 2.81947E-01
 -1      1413 4.88557E-01
 -1      1414 5.68502E-01
 -1      1415 4.39170E-01
 -1      1416 6.79336E-01
 -1      1417 7.90010E-01
 -1      1418 6.39648E-01
 -1      1419 9.16484E-01
 -1      1420 1.09696E+00
 -1      1421 8.76956E-01
 -1      1422 1.23945E+00
 -1      1423 1.44869E+00
 -1      1424 1.14593E+00
 -1      1425 1.62906E+00
 -1      1426 1.86695E+00
 -1      1427 1.46880E+00
 -1      1428 2.08474E+00
 -1      1429 2.27812E+00
 -1      1430 1.86695E+00
 -1      1431 2.47150E+00
 -1      1432 2.56993E+00
 -1      1433 2.27812E+00
 -1      1434 2.66836E+00
 -1      1435 2.66836E+00
 -1      1436 2.56993E+00
 -1      1437 2.63869E+00
 -1      1438 2.64465E+00
 -1      1439 2.63869E+00
 -1      1440 2.68030E+00
 -1      1441 2.68030E+00
 -1      1442 2.64465E+00
 -1      1443 2.61145E+00
 -1      1444 2.54261E+00
 -1      1445 2.61145E+00
 -1      1446 2.36847E+00
 -1      1447 2.19433E+00
 -1      1448 2.36847E+00
 -1      1449 1.96163E+00
 -1      1450 1.72894E+00
 -1      1451 1.96163E+00
 -1      1452 1.53514E+00
 -1      1453 1.30282E+00
 -1      1454 1.53514E+00
 -1      1455 1.13454E+00
 -1      1456 9.40986E-01
 -1      1457 1.17306E+00
 -1      1458 8.06516E-01
 -1      1459 7.35841E-01
 -1      1460 8.70310E-01
 -1      1461 6.47524E-01
 -1      1462 5.59207E-01
 -1      1463 6.47524E-01
 -1      1464 4.72774E-01
 -1      1465 3.86341E-01
 -1      1466 4.72774E-01
 -1      1467 3.09623E-01
 -1      1468 3.09623E-01
 -1      1469 4.28612E+00
 -1      1470 8.79515E+00
 -1      1471 3.39822E+00
 -1      1472 3.84217E+00
 -1      1473 3.84217E+00
 -1      1474 2.15584E+00
 -1      1475 2.77703E+00
 -1      1476 2.77703E+00
 -1      1477 1.42863E+00
 -1      1478 1.81121E+00
 -1      1479 1.81121E+00
 -1      1480 1.03481E+00
 -1      1481 1.21628E+00
 -1      1482 1.25423E+00
 -1      1483 7.85399E-01
 -1      1484 9.06565E-01
 -1      1485 9.13639E-01
 -1      1486 6.03274E-01
 -1      1487 6.94336E-01
 -1      1488 6.94336E-01
 -1      1489 4.66916E-01
 -1      1490 5.37991E-01
 -1      1491 5.37991E-01
 -1      1492 3.61164E-01
 -1      1493 4.16232E-01
 -1      1494 4.22024E-01
 -1      1495 2.80862E-01
 -1      1496 3.20977E-01
 -1      1497 3.31153E-01
 -1      1498 2.19544E-01
 -1      1499 2.51977E-01
 -1      1500 2.62081E-01
 -1      1501 1.69072E-01
 -1      1502 1.94877E-01
 -1      1503 2.08528E-01
 -1      1504 1.24886E-01
 -1      1505 1.47104E-01
 -1      1506 1.61892E-01
 -1      1507 9.77186E-02
 -1      1508 1.10330E-01
 -1      1509 1.25368E-01
 -1      1510 7.58092E-02
 -1      1511 8.42307E-02
 -1      1512 9.73236E-02
 -1      1513 5.81199E-02
 -1      1514 6.52714E-02
 -1      1515 7.32979E-02
 -1      1516 4.42113E-02
 -1      1517 5.00894E-02
 -1      1518 5.47297E-02
 -1      1519 3.36316E-02
 -1      1520 3.82707E-02
 -1      1521 4.07587E-02
 -1      1522 2.64970E-02
 -1      1523 2.99342E-02
 -1      1524 3.11208E-02
 -1      1525 2.29555E-02
 -1      1526 2.44811E-02
 -1      1527 2.54076E-02
 -1      1528 2.90001E-02
 -1      1529 2.48638E-02
 -1      1530 2.53000E-02
 -1      1531 4.11156E-02
 -1      1532 3.37804E-02
 -1      1533 3.19886E-02
 -1      1534 6.06313E-02
 -1      1535 4.95782E-02
 -1      1536 4.52315E-02
 -1      1537 9.27727E-02
 -1      1538 7.47533E-02
 -1      1539 6.78161E-02
 -1      1540 1.40175E-01
 -1      1541 1.12315E-01
 -1      1542 1.01480E-01
 -1      1543 2.31734E-01
 -1      1544 1.77731E-01
 -1      1545 1.58578E-01
 -1      1546 3.82570E-01
 -1      1547 2.99183E-01
 -1      1548 2.63583E-01
 -1      1549 6.34809E-01
 -1      1550 5.03402E-01
 -1      1551 4.51864E-01
 -1      1552 1.03371E+00
 -1      1553 8.34792E-01
 -1      1554 7.72678E-01
 -1      1555 1.63347E+00
 -1      1556 1.35222E+00
 -1      1557 1.29117E+00
 -1      1558 2.46554E+00
 -1      1559 2.11074E+00
 -1      1560 2.08695E+00
 -1      1561 3.69742E+00
 -1      1562 3.11390E+00
 -1      1563 3.21258E+00
 -1      1564 5.24654E+00
 -1      1565 4.44906E+00
 -1      1566 4.61258E+00
 -1      1567 6.80616E+00
 -1      1568 5.88787E+00
 -1      1569 6.00554E+00
 -1      1570 7.57408E+00
 -1      1571 7.12244E+00
 -1      1572 6.96315E+00
 -1      1573 8.50903E+00
 -1      1574 8.50903E+00
 -1      1575 8.21438E+00
 -1      1576 7.35327E+00
 -1      1577 8.03942E+00
 -1      1578 8.67971E+00
 -1      1579 1.66538E+01
 -1      1580 1.35950E+01
 -1      1581 1.97127E+01
 -1      1582 1.97127E+01
 -1      1583 1.66538E+01
 -1      1584 1.80258E+01
 -1      1585 1.88692E+01
 -1      1586 1.88692E+01
 -1      1587 8.38484E+00
 -1      1588 1.35930E+01
 -1      1589 5.74402E+00
 -1      1590 6.81068E+00
 -1      1591 7.58607E+00
 -1      1592 7.51677E+00
 -1      1593 7.14702E+00
 -1      1594 7.41491E+00
 -1      1595 6.62029E+00
 -1      1596 6.62029E+00
 -1      1597 7.92143E+00
 -1      1598 5.73921E+00
 -1      1599 6.32589E+00
 -1      1600 6.73055E+00
 -1      1601 4.56126E+00
 -1      1602 5.20126E+00
 -1      1603 5.89820E+00
 -1      1604 3.47911E+00
 -1      1605 3.81341E+00
 -1      1606 4.61239E+00
 -1      1607 2.39751E+00
 -1      1608 2.75814E+00
 -1      1609 3.14358E+00
 -1      1610 1.49589E+00
 -1      1611 1.96920E+00
 -1      1612 1.99429E+00
 -1      1613 6.53451E-01
 -1      1614 1.09445E+00
 -1      1615 1.16454E+00
 -1      1616 5.67739E-01
 -1      1617 3.16530E-01
 -1      1618 3.83482E-01
 -1      1619 5.78838E-01
 -1      1620 5.25349E-01
 -1      1621 4.95733E-01
 -1      1622 5.73784E-01
 -1      1623 6.54082E-01
 -1      1624 6.19879E-01
 -1      1625 8.47517E-01
 -1      1626 6.54082E-01
 -1      1627 6.54082E-01
 -1      1628 9.42046E-01
 -1      1629 5.56178E-01
 -1      1630 6.01430E-01
 -1      1631 8.89394E-01
 -1      1632 2.72654E-01
 -1      1633 3.57404E-01
 -1      1634 6.37969E-01
 -1      1635 2.79143E-01
 -1      1636 2.59460E-01
 -1      1637 4.26002E-01
 -1      1638 3.23907E-01
 -1      1639 3.06562E-01
 -1      1640 4.40227E-01
 -1      1641 3.23907E-01
 -1      1642 3.23907E-01
 -1      1643 4.67647E-01
 -1      1644 3.09431E-01
 -1      1645 3.13965E-01
 -1      1646 4.57704E-01
 -1      1647 2.57247E-01
 -1      1648 2.73777E-01
 -1      1649 4.12107E-01
 -1      1650 1.74553E-01
 -1      1651 2.00156E-01
 -1      1652 3.19361E-01
 -1      1653 9.02321E-02
 -1      1654 1.10101E-01
 -1      1655 1.97818E-01
 -1      1656 1.93600E-01
 -1      1657 1.59197E-01
 -1      1658 2.02330E-01
 -1      1659 2.71889E+01
 -1      1660 2.65700E+01
 -1      1661 2.71889E+01
 -1      1662 2.71889E+01
 -1      1663 3.75153E+01
 -1      1664 3.04870E+01
 -1      1665 3.97337E+01
 -1      1666 3.97337E+01
 -1      1667 1.68601E+01
 -1      1668 2.82969E+01
 -1      1669 1.36699E+01
 -1      1670 1.49798E+01
 -1      1671 1.51786E+01
 -1      1672 1.49573E+01
 -1      1673 1.51786E+01
 -1      1674 1.51786E+01
 -1      1675 1.45304E+01
 -1      1676 1.48045E+01
 -1      1677 1.70448E+01
 -1      1678 1.37625E+01
 -1      1679 3.49274E+01
 -1      1680 2.12471E+01
 -1      1681 4.80598E+01
 -1      1682 4.80598E+01
 -1      1683 2.76474E+01
 -1      1684 3.83829E+01
 -1      1685 2.94610E+01
 -1      1686 2.98461E+01
 -1      1687 2.88405E+01
 -1      1688 2.94610E+01
 -1      1689 2.68918E+01
 -1      1690 2.52787E+01
 -1      1691 3.11857E+01
 -1      1692 2.94947E+01
 -1      1693 3.09525E+01
 -1      1694 3.11857E+01
 -1      1695 1.25848E+01
 -1      1696 2.16521E+01
 -1      1697 1.17095E+01
 -1      1698 1.19133E+01
 -1      1699 1.21772E+01
 -1      1700 1.21772E+01
 -1      1701 1.22494E+01
 -1      1702 1.21359E+01
 -1      1703 1.24041E+01
 -1      1704 1.24041E+01
 -1      1705 1.23466E+01
 -1      1706 1.23754E+01
 -1      1707 1.40445E+01
 -1      1708 1.20559E+01
 -1      1709 2.96024E+01
 -1      1710 1.63238E+01
 -1      1711 4.28810E+01
 -1      1712 4.28810E+01
 -1      1713 3.12303E+01
 -1      1714 4.04510E+01
 -1      1715 2.59678E+01
 -1      1716 2.59678E+01
 -1      1717 9.74996E+00
 -1      1718 1.35930E+01
 -1      1719 1.15035E+01
 -1      1720 7.95416E+00
 -1      1721 8.81099E+00
 -1      1722 3.19987E+01
 -1      1723 2.80983E+01
 -1      1724 2.87005E+01
 -1      1725 2.52100E-01
 -1      1726 1.93600E-01
 -1      1727 2.71295E-01
 -1      1728 3.75153E+01
 -1      1729 2.82969E+01
 -1      1730 1.49798E+01
 -1      1731 1.43868E+01
 -1      1732 1.56743E+01
 -1      1733 1.53002E+01
 -1      1734 1.41583E+01
 -1      1735 1.75927E+01
 -1      1736 3.49274E+01
 -1      1737 3.83829E+01
 -1      1738 3.09048E+01
 -1      1739 3.31035E+01
 -1      1740 2.95417E+01
 -1      1741 2.85828E+01
 -1      1742 3.11857E+01
 -1      1743 2.18852E+01
 -1      1744 1.19133E+01
 -1      1745 1.17095E+01
 -1      1746 1.21359E+01
 -1      1747 1.22494E+01
 -1      1748 1.23754E+01
 -1      1749 1.20559E+01
 -1      1750 1.40445E+01
 -1      1751 2.96024E+01
 -1      1752 4.04510E+01
 -1      1753 3.27585E+01
 -1      1754 9.61186E+00
 -1      1755 1.15035E+01
 -1      1756 1.27875E+00
 -1      1757 1.67484E+00
 -1      1758 2.39089E+00
 -1      1759 4.28066E+00
 -1      1760 1.76555E+00
 -1      1761 8.84346E-01
 -1      1762 9.76680E-01
 -1      1763 7.79497E-01
 -1      1764 8.34127E-01
 -1      1765 7.45106E-01
 -1      1766 7.13432E-01
 -1      1767 7.47862E-01
 -1      1768 6.63253E-01
 -1      1769 6.70307E-01
 -1      1770 6.91239E-01
 -1      1771 6.09425E-01
 -1      1772 6.92660E-01
 -1      1773 6.71199E-01
 -1      1774 5.88124E-01
 -1      1775 7.47698E-01
 -1      1776 7.14367E-01
 -1      1777 6.10723E-01
 -1      1778 8.37003E-01
 -1      1779 7.80829E-01
 -1      1780 6.65560E-01
 -1      1781 9.78032E-01
 -1      1782 8.84275E-01
 -1      1783 7.45962E-01
 -1      1784 1.21869E+00
 -1      1785 1.04233E+00
 -1      1786 8.57529E-01
 -1      1787 1.70614E+00
 -1      1788 1.30116E+00
 -1      1789 1.00429E+00
 -1      1790 4.33974E+00
 -1      1791 2.40463E+00
 -1      1792 1.78524E+00
 -1      1793 1.11298E+01
 -1      1794 1.55626E+01
 -1      1795 5.19840E+00
 -1      1796 5.24094E+00
 -1      1797 2.53466E+00
 -1      1798 1.92001E+00
 -1      1799 1.68903E+00
 -1      1800 1.35678E+00
 -1      1801 1.49781E+00
 -1      1802 1.17654E+00
 -1      1803 9.65635E-01
 -1      1804 1.08659E+00
 -1      1805 8.39950E-01
 -1      1806 7.15142E-01
 -1      1807 7.80676E-01
 -1      1808 6.56594E-01
 -1      1809 5.66650E-01
 -1      1810 5.96443E-01
 -1      1811 5.17977E-01
 -1      1812 4.53902E-01
 -1      1813 4.89222E-01
 -1      1814 4.10931E-01
 -1      1815 3.60713E-01
 -1      1816 3.97579E-01
 -1      1817 3.27540E-01
 -1      1818 2.88070E-01
 -1      1819 3.21435E-01
 -1      1820 2.60114E-01
 -1      1821 2.31410E-01
 -1      1822 2.60306E-01
 -1      1823 2.07259E-01
 -1      1824 1.82754E-01
 -1      1825 2.08198E-01
 -1      1826 1.64615E-01
 -1      1827 1.44204E-01
 -1      1828 1.65908E-01
 -1      1829 1.29053E-01
 -1      1830 1.12398E-01
 -1      1831 1.32618E-01
 -1      1832 9.95401E-02
 -1      1833 8.61914E-02
 -1      1834 1.04609E-01
 -1      1835 7.55149E-02
 -1      1836 6.49838E-02
 -1      1837 8.10754E-02
 -1      1838 5.62656E-02
 -1      1839 4.80645E-02
 -1      1840 6.16808E-02
 -1      1841 4.10305E-02
 -1      1842 3.66015E-02
 -1      1843 4.59286E-02
 -1      1844 3.09665E-02
 -1      1845 2.79263E-02
 -1      1846 3.32597E-02
 -1      1847 2.56310E-02
 -1      1848 2.36161E-02
 -1      1849 2.53294E-02
 -1      1850 2.19895E-02
 -1      1851 2.08011E-02
 -1      1852 2.14074E-02
 -1      1853 1.96006E-02
 -1      1854 2.09589E-02
 -1      1855 1.85802E-02
 -1      1856 2.23865E-02
 -1      1857 2.53305E-02
 -1      1858 1.88073E-02
 -1      1859 2.67068E-02
 -1      1860 3.05953E-02
 -1      1861 2.16112E-02
 -1      1862 3.11441E-02
 -1      1863 3.54641E-02
 -1      1864 2.35363E-02
 -1      1865 3.89382E-02
 -1      1866 4.92612E-02
 -1      1867 2.75593E-02
 -1      1868 6.25845E-02
 -1      1869 7.79420E-02
 -1      1870 4.43568E-02
 -1      1871 1.04684E-01
 -1      1872 1.24076E-01
 -1      1873 8.44223E-02
 -1      1874 1.63563E-01
 -1      1875 2.02253E-01
 -1      1876 1.50652E-01
 -1      1877 2.57000E-01
 -1      1878 3.24580E-01
 -1      1879 2.44886E-01
 -1      1880 3.95890E-01
 -1      1881 4.85534E-01
 -1      1882 3.70943E-01
 -1      1883 5.72499E-01
 -1      1884 6.83333E-01
 -1      1885 5.29218E-01
 -1      1886 7.81847E-01
 -1      1887 9.08321E-01
 -1      1888 7.14698E-01
 -1      1889 1.03378E+00
 -1      1890 1.17628E+00
 -1      1891 9.38672E-01
 -1      1892 1.30332E+00
 -1      1893 1.48369E+00
 -1      1894 1.19117E+00
 -1      1895 1.60880E+00
 -1      1896 1.82659E+00
 -1      1897 1.44332E+00
 -1      1898 1.95134E+00
 -1      1899 2.14472E+00
 -1      1900 1.69319E+00
 -1      1901 2.21507E+00
 -1      1902 2.31350E+00
 -1      1903 1.88829E+00
 -1      1904 2.31483E+00
 -1      1905 2.28515E+00
 -1      1906 1.95996E+00
 -1      1907 2.27459E+00
 -1      1908 2.31024E+00
 -1      1909 1.95073E+00
 -1      1910 2.32437E+00
 -1      1911 2.25552E+00
 -1      1912 1.95431E+00
 -1      1913 2.19911E+00
 -1      1914 2.02497E+00
 -1      1915 1.91202E+00
 -1      1916 1.90786E+00
 -1      1917 1.67516E+00
 -1      1918 1.73850E+00
 -1      1919 1.53041E+00
 -1      1920 1.33661E+00
 -1      1921 1.47663E+00
 -1      1922 1.20208E+00
 -1      1923 1.03380E+00
 -1      1924 1.19735E+00
 -1      1925 8.93834E-01
 -1      1926 7.59365E-01
 -1      1927 9.22855E-01
 -1      1928 6.45755E-01
 -1      1929 5.57438E-01
 -1      1930 6.69279E-01
 -1      1931 4.57679E-01
 -1      1932 3.71246E-01
 -1      1933 4.55910E-01
 -1      1934 1.37528E+00
 -1      1935 1.71991E+00
 -1      1936 1.94508E+00
 -1      1937 2.56627E+00
 -1      1938 1.50915E+00
 -1      1939 9.81153E-01
 -1      1940 1.19350E+00
 -1      1941 1.10220E+00
 -1      1942 7.25357E-01
 -1      1943 8.53598E-01
 -1      1944 7.92871E-01
 -1      1945 5.73079E-01
 -1      1946 6.64142E-01
 -1      1947 6.04100E-01
 -1      1948 4.58895E-01
 -1      1949 5.24178E-01
 -1      1950 4.93983E-01
 -1      1951 3.64955E-01
 -1      1952 4.15639E-01
 -1      1953 4.01826E-01
 -1      1954 2.91112E-01
 -1      1955 3.31300E-01
 -1      1956 3.24914E-01
 -1      1957 2.34118E-01
 -1      1958 2.63004E-01
 -1      1959 2.63150E-01
 -1      1960 1.85121E-01
 -1      1961 2.09788E-01
 -1      1962 2.10711E-01
 -1      1963 1.44080E-01
 -1      1964 1.66048E-01
 -1      1965 1.67308E-01
 -1      1966 1.15819E-01
 -1      1967 1.30375E-01
 -1      1968 1.34530E-01
 -1      1969 8.93749E-02
 -1      1970 1.02863E-01
 -1      1971 1.07870E-01
 -1      1972 6.81475E-02
 -1      1973 7.86853E-02
 -1      1974 8.42245E-02
 -1      1975 5.14791E-02
 -1      1976 5.95095E-02
 -1      1977 6.48969E-02
 -1      1978 3.86852E-02
 -1      1979 4.46258E-02
 -1      1980 4.94056E-02
 -1      1981 2.96153E-02
 -1      1982 3.33127E-02
 -1      1983 3.71797E-02
 -1      1984 2.33917E-02
 -1      1985 2.54076E-02
 -1      1986 2.75994E-02
 -1      1987 2.49118E-02
 -1      1988 2.30036E-02
 -1      1989 2.30036E-02
 -1      1990 3.20651E-02
 -1      1991 2.72848E-02
 -1      1992 2.49884E-02
 -1      1993 4.56496E-02
 -1      1994 3.71870E-02
 -1      1995 3.24833E-02
 -1      1996 7.31352E-02
 -1      1997 5.90132E-02
 -1      1998 5.09687E-02
 -1      1999 1.13524E-01
 -1      2000 9.39817E-02
 -1      2001 8.51788E-02
 -1      2002 1.85642E-01
 -1      2003 1.48086E-01
 -1      2004 1.40588E-01
 -1      2005 3.10243E-01
 -1      2006 2.42793E-01
 -1      2007 2.32302E-01
 -1      2008 5.23912E-01
 -1      2009 4.03081E-01
 -1      2010 3.82291E-01
 -1      2011 8.73148E-01
 -1      2012 6.73165E-01
 -1      2013 6.24382E-01
 -1      2014 1.42826E+00
 -1      2015 1.10975E+00
 -1      2016 1.01023E+00
 -1      2017 2.27345E+00
 -1      2018 1.79618E+00
 -1      2019 1.61476E+00
 -1      2020 3.47917E+00
 -1      2021 2.83081E+00
 -1      2022 2.54004E+00
 -1      2023 5.04380E+00
 -1      2024 4.29216E+00
 -1      2025 3.91039E+00
 -1      2026 6.80872E+00
 -1      2027 6.16739E+00
 -1      2028 5.84698E+00
 -1      2029 8.42198E+00
 -1      2030 8.10570E+00
 -1      2031 8.26755E+00
 -1      2032 9.88251E+00
 -1      2033 8.94756E+00
 -1      2034 1.00901E+01
 -1      2035 3.13544E+01
 -1      2036 2.80562E+01
 -1      2037 1.68500E+01
 -1      2038 1.76935E+01
 -1      2039 1.40191E+01
 -1      2040 1.34182E+01
 -1      2041 1.73194E+01
 -1      2042 1.42606E+01
 -1      2043 1.02057E+01
 -1      2044 8.80268E+00
 -1      2045 7.61804E+00
 -1      2046 7.91243E+00
 -1      2047 5.98012E+00
 -1      2048 6.51807E+00
 -1      2049 7.69996E+00
 -1      2050 4.44669E+00
 -1      2051 5.19454E+00
 -1      2052 5.81441E+00
 -1      2053 2.85664E+00
 -1      2054 3.57760E+00
 -1      2055 4.15975E+00
 -1      2056 1.74401E+00
 -1      2057 2.17233E+00
 -1      2058 2.60636E+00
 -1      2059 7.66957E-01
 -1      2060 1.16840E+00
 -1      2061 1.34643E+00
 -1      2062 5.82699E-01
 -1      2063 1.26126E+00
 -1      2064 1.16673E+00
 -1      2065 9.46251E-01
 -1      2066 7.67048E-01
 -1      2067 9.55166E-01
 -1      2068 1.35999E+00
 -1      2069 1.26126E+00
 -1      2070 1.26126E+00
 -1      2071 1.58047E+00
 -1      2072 1.15925E+00
 -1      2073 1.21190E+00
 -1      2074 1.53111E+00
 -1      2075 7.42378E-01
 -1      2076 9.41152E-01
 -1      2077 1.26366E+00
 -1      2078 5.31912E-01
 -1      2079 5.45106E-01
 -1      2080 8.48288E-01
 -1      2081 5.90292E-01
 -1      2082 5.62872E-01
 -1      2083 6.81976E-01
 -1      2084 5.90292E-01
 -1      2085 5.90292E-01
 -1      2086 7.12937E-01
 -1      2087 5.46360E-01
 -1      2088 5.56303E-01
 -1      2089 6.78948E-01
 -1      2090 4.88114E-01
 -1      2091 5.23768E-01
 -1      2092 6.22367E-01
 -1      2093 3.70471E-01
 -1      2094 4.27562E-01
 -1      2095 5.39223E-01
 -1      2096 2.18855E-01
 -1      2097 2.83307E-01
 -1      2098 3.91508E-01
 -1      2099 2.56760E-01
 -1      2100 1.87795E-01
 -1      2101 2.73285E-01
 -1      2102 3.18053E+01
 -1      2103 2.95869E+01
 -1      2104 3.28818E-01
 -1      2105 3.69526E+01
 -1      2106 3.63503E+01
 -1      2107 1.03459E+00
 -1      2108 1.20957E+00
 -1      2109 9.80319E-01
 -1      2110 8.53232E-01
 -1      2111 8.87307E+00
 -1      2112 9.76956E+00
 -1      2113 9.76056E+00
 -1      2114 1.55756E+01
 -1      2115 2.70124E+01
 -1      2116 3.33430E+01
 -1      2117 2.02106E+01
 -1      2118 2.87061E+01
 -1      2119 3.83829E+01
 -1      2120 3.32621E+01
 -1      2121 3.10634E+01
 -1      2122 3.84439E+01
 -1      2123 3.84439E+01
 -1      2124 3.48821E+01
 -1      2125 3.84439E+01
 -1      2126 4.37844E+01
 -1      2127 2.92519E+01
 -1      2128 2.66490E+01
 -1      2129 2.57300E+01
 -1      2130 2.57300E+01
 -1      2131 1.23583E+01
 -1      2132 2.16588E+01
 -1      2133 9.23387E+00
 -1      2134 9.90533E+00
 -1      2135 1.05706E+01
 -1      2136 1.01029E+01
 -1      2137 1.12550E+01
 -1      2138 1.12963E+01
 -1      2139 1.16201E+01
 -1      2140 1.14654E+01
 -1      2141 1.13172E+01
 -1      2142 1.13460E+01
 -1      2143 9.89203E+00
 -1      2144 1.01827E+01
 -1      2145 9.15331E+00
 -1      2146 1.21152E+01
 -1      2147 9.83594E+00
 -1      2148 2.89553E+01
 -1      2149 1.56767E+01
 -1      2150 3.20906E+01
 -1      2151 3.45206E+01
 -1      2152 2.60452E+01
 -1      2153 3.13076E+01
 -1      2154 3.38493E+00
 -1      2155 3.69526E+01
 -1      2156 3.69526E+01
 -1      2157 8.57486E+00
 -1      2158 1.05444E+01
 -1      2159 1.24248E+01
 -1      2160 7.00070E+00
 -1      2161 3.39934E+00
 -1      2162 3.13723E-01
 -1      2163 1.68500E+01
 -1      2164 4.52046E+01
 -1      2165 2.91106E+00
 -1      2166 1.11481E+01
 -1      2167 9.05654E+00
 -1      2168 2.10519E+00
 -1      2169 2.10903E+00
 -1      2170 2.94098E+00
 -1      2171 3.63082E+01
 -1      2172 2.56444E+01
 -1      2173 1.00832E+01
 -1      2174 1.05528E+01
 -1      2175 1.11573E+01
 -1      2176 1.52912E+01
 -1      2177 9.79147E+00
 -1      2178 1.90840E+01
 -1      2179 3.55513E+01
 -1      2180 1.12860E+01
 -1      2181 3.13723E-01
 -1      2182 3.48994E+01
 -1      2183 3.86026E+01
 -1      2184 2.53772E+01
 -1      2185 2.05949E+01
 -1      2186 8.02277E+00
 -1      2187 6.14953E+00
 -1      2188 6.09344E+00
 -1      2189 1.05620E+01
 -1      2190 1.06257E+01
 -1      2191 9.68966E+00
 -1      2192 8.09494E+00
 -1      2193 9.67886E+00
 -1      2194 1.62031E+01
 -1      2195 3.10634E+01
 -1      2196 2.36662E+01
 -1      2197 1.10458E+01
 -1      2198 1.18137E+01
 -1      2199 1.60658E+01
 -1      2200 1.18635E+01
 -1      2201 9.51891E+00
 -1      2202 1.44814E+01
 -1      2203 2.37963E+01
 -1      2204 1.14681E+01
 -1      2205 2.99188E-01
 -1      2206 3.48994E+01
 -1      2207 2.45942E+01
 -1      2208 5.59091E-01
 -1      2209 5.90725E-01
 -1      2210 6.04775E-01
 -1      2211 6.54994E-01
 -1      2212 5.00613E-01
 -1      2213 5.09822E-01
 -1      2214 5.08929E-01
 -1      2215 5.44607E-01
 -1      2216 5.22901E-01
 -1      2217 4.43706E-01
 -1      2218 5.92733E-01
 -1      2219 5.59602E-01
 -1      2220 4.71780E-01
 -1      2221 6.52535E-01
 -1      2222 6.05263E-01
 -1      2223 4.99305E-01
 -1      2224 7.17402E-01
 -1      2225 6.53107E-01
 -1      2226 5.12408E-01
 -1      2227 7.99868E-01
 -1      2228 7.17402E-01
 -1      2229 5.12981E-01
 -1      2230 1.65173E+00
 -1      2231 9.53238E-01
 -1      2232 6.66351E-01
 -1      2233 1.27702E+00
 -1      2234 1.26614E+00
 -1      2235 1.03516E+00
 -1      2236 1.67743E+00
 -1      2237 1.30102E+00
 -1      2238 8.38378E-01
 -1      2239 9.61379E-01
 -1      2240 9.83990E-01
 -1      2241 8.03757E-01
 -1      2242 7.52326E-01
 -1      2243 7.47015E-01
 -1      2244 6.21330E-01
 -1      2245 6.44411E-01
 -1      2246 5.64985E-01
 -1      2247 5.06437E-01
 -1      2248 5.31324E-01
 -1      2249 4.56894E-01
 -1      2250 4.08222E-01
 -1      2251 4.25437E-01
 -1      2252 3.80936E-01
 -1      2253 3.37965E-01
 -1      2254 3.48608E-01
 -1      2255 3.12710E-01
 -1      2256 2.79537E-01
 -1      2257 2.96067E-01
 -1      2258 2.55555E-01
 -1      2259 2.27599E-01
 -1      2260 2.46830E-01
 -1      2261 2.07925E-01
 -1      2262 1.83773E-01
 -1      2263 2.03174E-01
 -1      2264 1.66542E-01
 -1      2265 1.48403E-01
 -1      2266 1.66269E-01
 -1      2267 1.33271E-01
 -1      2268 1.18120E-01
 -1      2269 1.33905E-01
 -1      2270 1.05216E-01
 -1      2271 9.23588E-02
 -1      2272 1.05870E-01
 -1      2273 8.26946E-02
 -1      2274 7.20182E-02
 -1      2275 8.33016E-02
 -1      2276 6.37830E-02
 -1      2277 5.50648E-02
 -1      2278 6.54022E-02
 -1      2279 4.81437E-02
 -1      2280 4.11097E-02
 -1      2281 5.02459E-02
 -1      2282 3.53734E-02
 -1      2283 2.97385E-02
 -1      2284 3.75885E-02
 -1      2285 2.50405E-02
 -1      2286 2.27452E-02
 -1      2287 2.71543E-02
 -1      2288 1.98270E-02
 -1      2289 1.82004E-02
 -1      2290 1.95382E-02
 -1      2291 1.71376E-02
 -1      2292 1.59371E-02
 -1      2293 1.55573E-02
 -1      2294 1.50617E-02
 -1      2295 1.64893E-02
 -1      2296 1.36191E-02
 -1      2297 1.70705E-02
 -1      2298 1.84468E-02
 -1      2299 1.33249E-02
 -1      2300 1.99842E-02
 -1      2301 2.05331E-02
 -1      2302 1.54435E-02
 -1      2303 2.46273E-02
 -1      2304 2.81015E-02
 -1      2305 2.10752E-02
 -1      2306 3.80000E-02
 -1      2307 5.13233E-02
 -1      2308 3.50680E-02
 -1      2309 6.90642E-02
 -1      2310 9.58065E-02
 -1      2311 6.27074E-02
 -1      2312 1.23550E-01
 -1      2313 1.63037E-01
 -1      2314 1.08192E-01
 -1      2315 2.04146E-01
 -1      2316 2.58893E-01
 -1      2317 1.77044E-01
 -1      2318 3.13921E-01
 -1      2319 3.85231E-01
 -1      2320 2.73181E-01
 -1      2321 4.56320E-01
 -1      2322 5.43286E-01
 -1      2323 3.99299E-01
 -1      2324 6.41008E-01
 -1      2325 7.39522E-01
 -1      2326 5.68110E-01
 -1      2327 8.49327E-01
 -1      2328 9.74787E-01
 -1      2329 7.75637E-01
 -1      2330 1.08379E+00
 -1      2331 1.21083E+00
 -1      2332 9.94447E-01
 -1      2333 1.30013E+00
 -1      2334 1.42524E+00
 -1      2335 1.19275E+00
 -1      2336 1.49652E+00
 -1      2337 1.62128E+00
 -1      2338 1.35333E+00
 -1      2339 1.67225E+00
 -1      2340 1.74259E+00
 -1      2341 1.47558E+00
 -1      2342 1.74628E+00
 -1      2343 1.74761E+00
 -1      2344 1.53024E+00
 -1      2345 1.71108E+00
 -1      2346 1.70052E+00
 -1      2347 1.49739E+00
 -1      2348 1.72800E+00
 -1      2349 1.74213E+00
 -1      2350 1.48835E+00
 -1      2351 1.74605E+00
 -1      2352 1.68964E+00
 -1      2353 1.51975E+00
 -1      2354 1.64507E+00
 -1      2355 1.52796E+00
 -1      2356 1.47910E+00
 -1      2357 1.44751E+00
 -1      2358 1.30276E+00
 -1      2359 1.35408E+00
 -1      2360 1.21028E+00
 -1      2361 1.07575E+00
 -1      2362 1.18116E+00
 -1      2363 9.56541E-01
 -1      2364 8.16575E-01
 -1      2365 9.69473E-01
 -1      2366 6.90942E-01
 -1      2367 5.77332E-01
 -1      2368 7.24628E-01
 -1      2369 4.72176E-01
 -1      2370 3.72417E-01
 -1      2371 3.15454E-01
 -1      2372 4.93839E-01
 -1      2373 6.28409E-01
 -1      2374 7.55964E-01
 -1      2375 1.07039E+01
 -1      2376 1.16645E+01
 -1      2377 5.11514E-01
 -1      2378 5.72730E-01
 -1      2379 5.35823E-01
 -1      2380 4.12746E-01
 -1      2381 4.61647E-01
 -1      2382 4.30277E-01
 -1      2383 3.41197E-01
 -1      2384 3.84452E-01
 -1      2385 3.52116E-01
 -1      2386 2.82290E-01
 -1      2387 3.15945E-01
 -1      2388 2.98572E-01
 -1      2389 2.30125E-01
 -1      2390 2.58234E-01
 -1      2391 2.49265E-01
 -1      2392 1.85908E-01
 -1      2393 2.10238E-01
 -1      2394 2.05322E-01
 -1      2395 1.49315E-01
 -1      2396 1.68387E-01
 -1      2397 1.67915E-01
 -1      2398 1.21440E-01
 -1      2399 1.35145E-01
 -1      2400 1.36225E-01
 -1      2401 9.55091E-02
 -1      2402 1.08465E-01
 -1      2403 1.09080E-01
 -1      2404 7.49343E-02
 -1      2405 8.56240E-02
 -1      2406 8.62190E-02
 -1      2407 5.80775E-02
 -1      2408 6.67154E-02
 -1      2409 6.81149E-02
 -1      2410 4.43320E-02
 -1      2411 5.11854E-02
 -1      2412 5.30039E-02
 -1      2413 3.32159E-02
 -1      2414 3.85885E-02
 -1      2415 4.03682E-02
 -1      2416 2.41540E-02
 -1      2417 2.83617E-02
 -1      2418 2.97705E-02
 -1      2419 2.10715E-02
 -1      2420 2.14597E-02
 -1      2421 2.22220E-02
 -1      2422 2.46887E-02
 -1      2423 2.23158E-02
 -1      2424 2.07719E-02
 -1      2425 3.39871E-02
 -1      2426 2.88652E-02
 -1      2427 2.61926E-02
 -1      2428 5.76897E-02
 -1      2429 4.43262E-02
 -1      2430 4.07081E-02
 -1      2431 9.33885E-02
 -1      2432 7.25420E-02
 -1      2433 6.58994E-02
 -1      2434 1.50908E-01
 -1      2435 1.16345E-01
 -1      2436 1.03709E-01
 -1      2437 2.43483E-01
 -1      2438 1.86333E-01
 -1      2439 1.62090E-01
 -1      2440 3.92543E-01
 -1      2441 2.99704E-01
 -1      2442 2.53735E-01
 -1      2443 6.43054E-01
 -1      2444 4.93802E-01
 -1      2445 4.11215E-01
 -1      2446 1.04956E+00
 -1      2447 8.12961E-01
 -1      2448 6.82381E-01
 -1      2449 1.70337E+00
 -1      2450 1.33544E+00
 -1      2451 1.13817E+00
 -1      2452 2.71742E+00
 -1      2453 2.16006E+00
 -1      2454 1.88075E+00
 -1      2455 4.32156E+00
 -1      2456 3.50857E+00
 -1      2457 3.12859E+00
 -1      2458 6.79025E+00
 -1      2459 5.66665E+00
 -1      2460 5.26483E+00
 -1      2461 9.74095E+00
 -1      2462 8.44397E+00
 -1      2463 8.26365E+00
 -1      2464 1.33940E+01
 -1      2465 1.28684E+01
 -1      2466 1.30448E+01
 -1      2467 9.87425E+00
 -1      2468 9.16870E+00
 -1      2469 1.02687E+01
 -1      2470 1.21726E+01
 -1      2471 1.34643E+00
 -1      2472 1.92204E+00
 -1      2473 1.53078E+00
 -1      2474 1.85184E+00
 -1      2475 1.90120E+00
 -1      2476 1.49552E+00
 -1      2477 1.71361E+00
 -1      2478 2.08370E+00
 -1      2479 1.99791E+00
 -1      2480 1.99791E+00
 -1      2481 2.31864E+00
 -1      2482 1.00389E+00
 -1      2483 1.20116E+00
 -1      2484 1.65112E+00
 -1      2485 8.91012E-01
 -1      2486 8.60052E-01
 -1      2487 1.21292E+00
 -1      2488 8.91012E-01
 -1      2489 8.91012E-01
 -1      2490 1.06909E+00
 -1      2491 7.67460E-01
 -1      2492 8.01449E-01
 -1      2493 9.79524E-01
 -1      2494 7.06653E-01
 -1      2495 7.29245E-01
 -1      2496 8.51746E-01
 -1      2497 5.88481E-01
 -1      2498 6.49033E-01
 -1      2499 7.55911E-01
 -1      2500 4.17425E-01
 -1      2501 5.04588E-01
 -1      2502 6.14398E-01
 -1      2503 3.04520E-01
 -1      2504 3.35580E-01
 -1      2505 4.48660E-01
 -1      2506 3.77749E-01
 -1      2507 2.73182E+01
 -1      2508 3.55513E+01
 -1      2509 3.86026E+01
 -1      2510 3.34208E+01
 -1      2511 9.00142E+00
 -1      2512 9.27556E+00
 -1      2513 1.58913E+01
 -1      2514 1.52211E+01
 -1      2515 3.57432E+00
 -1      2516 4.44340E+00
 -1      2517 5.89011E+00
 -1      2518 6.67569E+00
 -1      2519 5.30468E+00
 -1      2520 2.03311E+01
 -1      2521 1.04024E+00
 -1      2522 1.26542E+00
 -1      2523 8.08116E-01
 -1      2524 5.22343E-01
 -1      2525 5.44536E-01
 -1      2526 4.72009E-01
 -1      2527 4.44041E-01
 -1      2528 7.85648E-01
 -1      2529 9.67422E-01
 -1      2530 7.23690E-01
 -1      2531 6.21186E-01
 -1      2532 1.11403E+01
 -1      2533 1.83522E+01
 -1      2534 2.18741E+01
 -1      2535 4.52046E+01
 -1      2536 4.52046E+01
 -1      2537 2.16726E+01
 -1      2538 2.24556E+01
 -1      2539 4.37844E+01
 -1      2540 4.37844E+01
 -1      2541 1.17186E+01
 -1      2542 8.15709E+00
 -1      2543 2.66236E+01
 -1      2544 2.42663E+01
 -1      2545 1.19645E+01
 -1      2546 1.60358E+01
 -1      2547 6.77369E+00
 -1      2548 9.22664E+00
 -1      2549 6.49118E+00
 -1      2550 5.62215E+00
 -1      2551 8.49414E+00
 -1      2552 7.76845E+00
 -1      2553 9.45155E+00
 -1      2554 9.24118E+00
 -1      2555 6.90364E+00
 -1      2556 8.03816E+00
 -1      2557 1.91722E+01
 -1      2558 1.36069E+01
 -1      2559 2.74119E+01
 -1      2560 3.63082E+01
 -1      2561 2.07052E+01
 -1      2562 2.24727E+01
 -1      2563 1.29423E+01
 -1      2564 1.77352E+01
 -1      2565 1.45634E+01
 -1      2566 5.22915E-01
 -1      2567 6.63246E-01
 -1      2568 7.21153E-01
 -1      2569 8.92198E-01
 -1      2570 2.60636E+00
 -1      2571 1.50706E+01
 -1      2572 1.41273E+01
 -1      2573 3.63082E+01
 -1      2574 1.79994E+01
 -1      2575 3.48994E+01
 -1      2576 9.24440E+00
 -1      2577 1.99791E+00
 -1      2578 1.77743E+00
 -1      2579 2.16870E+00
 -1      2580 2.41535E+00
 -1      2581 2.18741E+01
 -1      2582 3.86026E+01
 -1      2583 2.06120E+01
 -1      2584 2.06120E+01
 -1      2585 1.76904E+01
 -1      2586 2.66236E+01
 -1      2587 7.89100E+00
 -1      2588 5.98819E+00
 -1      2589 4.17502E+00
 -1      2590 6.23866E+00
 -1      2591 2.24727E+01
 -1      2592 1.54675E+01
 -1      2593 6.01089E+00
 -1      2594 4.89573E+00
 -1      2595 4.14163E+00
 -1      2596 7.31997E+00
 -1      2597 5.29566E+00
 -1      2598 5.16993E+00
 -1      2599 9.05934E+00
 -1      2600 1.02958E+01
 -1      2601 3.55513E+01
 -1      2602 1.41137E+01
 -1      2603 6.75174E+00
 -1      2604 2.89001E+00
 -1      2605 4.22622E-01
 -1      2606 4.07628E-01
 -1      2607 3.99520E-01
 -1      2608 3.86441E-01
 -1      2609 3.50362E-01
 -1      2610 4.36699E-01
 -1      2611 4.36127E-01
 -1      2612 4.27776E-01
 -1      2613 4.27776E-01
 -1      2614 3.51495E-01
 -1      2615 6.03815E-01
 -1      2616 4.50444E-01
 -1      2617 3.65240E-01
 -1      2618 5.92209E-01
 -1      2619 7.02212E-01
 -1      2620 6.67333E-01
 -1      2621 3.08954E-01
 -1      2622 3.37247E-01
 -1      2623 5.48516E-01
 -1      2624 4.91774E-01
 -1      2625 4.85255E-01
 -1      2626 4.28910E-01
 -1      2627 3.89360E-01
 -1      2628 4.08265E-01
 -1      2629 3.58722E-01
 -1      2630 3.62196E-01
 -1      2631 3.33750E-01
 -1      2632 3.06464E-01
 -1      2633 3.16578E-01
 -1      2634 2.81436E-01
 -1      2635 2.56181E-01
 -1      2636 2.66578E-01
 -1      2637 2.40527E-01
 -1      2638 2.16545E-01
 -1      2639 2.25896E-01
 -1      2640 2.00101E-01
 -1      2641 1.80427E-01
 -1      2642 1.93798E-01
 -1      2643 1.64708E-01
 -1      2644 1.47477E-01
 -1      2645 1.61636E-01
 -1      2646 1.33266E-01
 -1      2647 1.18134E-01
 -1      2648 1.31706E-01
 -1      2649 1.06058E-01
 -1      2650 9.31540E-02
 -1      2651 1.05418E-01
 -1      2652 8.33711E-02
 -1      2653 7.37069E-02
 -1      2654 8.35593E-02
 -1      2655 6.54022E-02
 -1      2656 5.71671E-02
 -1      2657 6.54718E-02
 -1      2658 5.02459E-02
 -1      2659 4.33247E-02
 -1      2660 5.02459E-02
 -1      2661 3.79284E-02
 -1      2662 3.21921E-02
 -1      2663 3.79284E-02
 -1      2664 2.77556E-02
 -1      2665 2.30576E-02
 -1      2666 2.80955E-02
 -1      2667 1.93894E-02
 -1      2668 1.64712E-02
 -1      2669 1.99907E-02
 -1      2670 1.37229E-02
 -1      2671 1.26601E-02
 -1      2672 1.35741E-02
 -1      2673 1.23598E-02
 -1      2674 1.14844E-02
 -1      2675 1.05254E-02
 -1      2676 1.20735E-02
 -1      2677 1.26547E-02
 -1      2678 1.08142E-02
 -1      2679 1.54435E-02
 -1      2680 1.69810E-02
 -1      2681 1.41921E-02
 -1      2682 2.11302E-02
 -1      2683 2.52245E-02
 -1      2684 2.11302E-02
 -1      2685 3.39193E-02
 -1      2686 4.38178E-02
 -1      2687 3.39743E-02
 -1      2688 6.09459E-02
 -1      2689 7.86868E-02
 -1      2690 5.97972E-02
 -1      2691 1.06014E-01
 -1      2692 1.33758E-01
 -1      2693 1.04253E-01
 -1      2694 1.73735E-01
 -1      2695 2.14844E-01
 -1      2696 1.71558E-01
 -1      2697 2.68365E-01
 -1      2698 3.23394E-01
 -1      2699 2.65057E-01
 -1      2700 3.89718E-01
 -1      2701 4.60807E-01
 -1      2702 3.84902E-01
 -1      2703 5.35601E-01
 -1      2704 6.33324E-01
 -1      2705 5.26021E-01
 -1      2706 7.07745E-01
 -1      2707 8.17550E-01
 -1      2708 6.75236E-01
 -1      2709 9.02762E-01
 -1      2710 1.01177E+00
 -1      2711 8.34870E-01
 -1      2712 1.11143E+00
 -1      2713 1.20072E+00
 -1      2714 1.01974E+00
 -1      2715 1.26681E+00
 -1      2716 1.33809E+00
 -1      2717 1.18549E+00
 -1      2718 1.37039E+00
 -1      2719 1.42136E+00
 -1      2720 1.28387E+00
 -1      2721 1.44106E+00
 -1      2722 1.44474E+00
 -1      2723 1.33587E+00
 -1      2724 1.41546E+00
 -1      2725 1.37893E+00
 -1      2726 1.32628E+00
 -1      2727 1.36388E+00
 -1      2728 1.39136E+00
 -1      2729 1.28195E+00
 -1      2730 1.43072E+00
 -1      2731 1.43464E+00
 -1      2732 1.30626E+00
 -1      2733 1.41550E+00
 -1      2734 1.37092E+00
 -1      2735 1.32647E+00
 -1      2736 1.33593E+00
 -1      2737 1.25549E+00
 -1      2738 1.27233E+00
 -1      2739 1.19147E+00
 -1      2740 1.09900E+00
 -1      2741 1.17333E+00
 -1      2742 1.00427E+00
 -1      2743 8.85063E-01
 -1      2744 1.01459E+00
 -1      2745 7.98835E-01
 -1      2746 6.73201E-01
 -1      2747 8.33637E-01
 -1      2748 6.10873E-01
 -1      2749 5.05717E-01
 -1      2750 4.94783E-01
 -1      2751 6.85080E-01
 -1      2752 2.00099E+01
 -1      2753 2.30922E+01
 -1      2754 3.19885E+01
 -1      2755 4.31315E-01
 -1      2756 4.86994E-01
 -1      2757 2.58661E-01
 -1      2758 2.83912E-01
 -1      2759 2.69043E-01
 -1      2760 2.18557E-01
 -1      2761 2.42613E-01
 -1      2762 2.27953E-01
 -1      2763 1.82244E-01
 -1      2764 2.02131E-01
 -1      2765 1.95479E-01
 -1      2766 1.49249E-01
 -1      2767 1.66769E-01
 -1      2768 1.63578E-01
 -1      2769 1.21201E-01
 -1      2770 1.35370E-01
 -1      2771 1.34225E-01
 -1      2772 9.60759E-02
 -1      2773 1.09052E-01
 -1      2774 1.08197E-01
 -1      2775 7.63899E-02
 -1      2776 8.62750E-02
 -1      2777 8.62468E-02
 -1      2778 5.98960E-02
 -1      2779 6.81149E-02
 -1      2780 6.81710E-02
 -1      2781 4.61118E-02
 -1      2782 5.30039E-02
 -1      2783 5.30039E-02
 -1      2784 3.46246E-02
 -1      2785 4.03682E-02
 -1      2786 4.03682E-02
 -1      2787 2.49163E-02
 -1      2788 2.97705E-02
 -1      2789 2.97705E-02
 -1      2790 1.80791E-02
 -1      2791 2.07734E-02
 -1      2792 2.07734E-02
 -1      2793 1.82868E-02
 -1      2794 1.70426E-02
 -1      2795 1.55940E-02
 -1      2796 2.43824E-02
 -1      2797 2.02059E-02
 -1      2798 1.64766E-02
 -1      2799 4.17918E-02
 -1      2800 3.14528E-02
 -1      2801 2.54661E-02
 -1      2802 6.86787E-02
 -1      2803 5.38265E-02
 -1      2804 4.45711E-02
 -1      2805 1.10645E-01
 -1      2806 8.76877E-02
 -1      2807 7.56147E-02
 -1      2808 1.77225E-01
 -1      2809 1.41801E-01
 -1      2810 1.25780E-01
 -1      2811 2.84911E-01
 -1      2812 2.28691E-01
 -1      2813 2.08401E-01
 -1      2814 4.68700E-01
 -1      2815 3.67440E-01
 -1      2816 3.42396E-01
 -1      2817 7.70523E-01
 -1      2818 6.00616E-01
 -1      2819 5.56841E-01
 -1      2820 1.26751E+00
 -1      2821 9.81631E-01
 -1      2822 8.99865E-01
 -1      2823 2.06565E+00
 -1      2824 1.60896E+00
 -1      2825 1.45242E+00
 -1      2826 3.42344E+00
 -1      2827 2.63229E+00
 -1      2828 2.36051E+00
 -1      2829 5.75966E+00
 -1      2830 4.41457E+00
 -1      2831 3.91827E+00
 -1      2832 8.51903E+00
 -1      2833 6.86531E+00
 -1      2834 6.01505E+00
 -1      2835 1.33977E+01
 -1      2836 1.02702E+01
 -1      2837 8.87191E+00
 -1      2838 1.49492E+00
 -1      2839 1.63876E+00
 -1      2840 7.21153E-01
 -1      2841 6.03116E-01
 -1      2842 5.51942E-01
 -1      2843 3.99305E-01
 -1      2844 4.66949E-01
 -1      2845 1.50670E+01
 -1      2846 2.05110E+01
 -1      2847 2.64109E+00
 -1      2848 2.77932E+00
 -1      2849 3.22842E+00
 -1      2850 3.32513E+00
 -1      2851 3.78581E+00
 -1      2852 1.89261E+00
 -1      2853 2.18697E+00
 -1      2854 2.17461E+00
 -1      2855 1.36222E+00
 -1      2856 1.36222E+00
 -1      2857 1.78805E+00
 -1      2858 1.09039E+00
 -1      2859 1.17996E+00
 -1      2860 1.47309E+00
 -1      2861 9.24375E-01
 -1      2862 9.62589E-01
 -1      2863 1.16302E+00
 -1      2864 7.94554E-01
 -1      2865 8.52175E-01
 -1      2866 9.63018E-01
 -1      2867 6.38957E-01
 -1      2868 7.22849E-01
 -1      2869 8.19113E-01
 -1      2870 8.66590E+00
 -1      2871 1.11589E+01
 -1      2872 3.18848E+01
 -1      2873 2.15796E+01
 -1      2874 2.47965E+01
 -1      2875 4.36127E-01
 -1      2876 4.23597E-01
 -1      2877 3.59444E-01
 -1      2878 3.60418E-01
 -1      2879 4.80190E+00
 -1      2880 6.24860E+00
 -1      2881 8.16311E+00
 -1      2882 1.10102E+01
 -1      2883 1.33267E+01
 -1      2884 6.84614E+00
 -1      2885 7.02214E+00
 -1      2886 4.22826E-01
 -1      2887 4.36876E-01
 -1      2888 5.45261E+00
 -1      2889 6.41587E+00
 -1      2890 9.96931E+00
 -1      2891 8.08102E+00
 -1      2892 6.84410E+00
 -1      2893 9.58199E+00
 -1      2894 3.91346E+00
 -1      2895 5.06500E+00
 -1      2896 5.58764E+00
 -1      2897 5.03391E+00
 -1      2898 3.75664E+00
 -1      2899 3.13666E+00
 -1      2900 2.21332E+01
 -1      2901 3.03663E+01
 -1      2902 3.62036E-01
 -1      2903 4.11903E-01
 -1      2904 3.18873E-01
 -1      2905 6.63509E+00
 -1      2906 5.88806E+00
 -1      2907 1.43935E+01
 -1      2908 1.11101E+01
 -1      2909 1.56901E+01
 -1      2910 2.47965E+01
 -1      2911 1.61723E+01
 -1      2912 1.33977E+01
 -1      2913 2.99784E+01
 -1      2914 4.92083E-01
 -1      2915 5.64903E-01
 -1      2916 3.60602E-01
 -1      2917 3.42348E-01
 -1      2918 3.86534E-01
 -1      2919 3.99948E-01
 -1      2920 4.07578E-01
 -1      2921 4.22133E-01
 -1      2922 3.58395E-01
 -1      2923 3.50071E-01
 -1      2924 4.34903E+00
 -1      2925 1.65602E+01
 -1      2926 5.31167E-01
 -1      2927 4.47159E-01
 -1      2928 4.55411E-01
 -1      2929 3.69372E-01
 -1      2930 2.88258E+00
 -1      2931 3.08245E+00
 -1      2932 3.08245E+00
 -1      2933 3.99223E+00
 -1      2934 1.46764E+01
 -1      2935 1.52549E+01
 -1      2936 1.19636E+01
 -1      2937 5.76628E-01
 -1      2938 3.63074E-01
 -1      2939 1.79649E+01
 -1      2940 1.39827E+01
 -1      2941 1.49503E+01
 -1      2942 1.43533E+01
 -1      2943 9.99582E+00
 -1      2944 1.32928E+01
 -1      2945 6.34835E+00
 -1      2946 4.17945E+00
 -1      2947 6.02181E+00
 -1      2948 3.65171E+00
 -1      2949 3.59154E+00
 -1      2950 3.45290E+00
 -1      2951 3.48629E+00
 -1      2952 8.89524E+00
 -1      2953 4.66680E+00
 -1      2954 4.33092E+00
 -1      2955 3.77405E+00
 -1      2956 1.86687E+01
 -1      2957 1.53260E+01
 -1      2958 6.85080E-01
 -1      2959 5.54700E+00
 -1      2960 3.80376E+00
 -1      2961 4.74769E+00
 -1      2962 8.79498E+00
 -1      2963 5.59023E+00
 -1      2964 4.63652E-01
 -1      2965 4.93336E-01
 -1      2966 3.34549E-01
 -1      2967 3.59144E-01
 -1      2968 3.28739E-01
 -1      2969 3.06071E-01
 -1      2970 3.01433E-01
 -1      2971 3.14994E-01
 -1      2972 4.34903E+00
 -1      2973 3.49488E+00
 -1      2974 2.04817E-01
 -1      2975 2.20865E-01
 -1      2976 5.59171E+00
 -1      2977 8.00900E+00
 -1      2978 2.98609E-01
 -1      2979 3.18021E-01
 -1      2980 3.18442E-01
 -1      2981 2.97796E-01
 -1      2982 2.94223E-01
 -1      2983 2.69251E-01
 -1      2984 2.50469E-01
 -1      2985 2.58228E-01
 -1      2986 2.33200E-01
 -1      2987 2.35873E-01
 -1      2988 2.18877E-01
 -1      2989 2.03224E-01
 -1      2990 2.10527E-01
 -1      2991 1.89947E-01
 -1      2992 1.73503E-01
 -1      2993 1.82929E-01
 -1      2994 1.62755E-01
 -1      2995 1.47036E-01
 -1      2996 1.58904E-01
 -1      2997 1.35732E-01
 -1      2998 1.21521E-01
 -1      2999 1.36851E-01
 -1      3000 1.10622E-01
 -1      3001 9.85459E-02
 -1      3002 1.14648E-01
 -1      3003 8.85864E-02
 -1      3004 7.88036E-02
 -1      3005 9.37902E-02
 -1      3006 7.00253E-02
 -1      3007 6.17206E-02
 -1      3008 7.50524E-02
 -1      3009 5.41747E-02
 -1      3010 4.72535E-02
 -1      3011 5.87282E-02
 -1      3012 4.08711E-02
 -1      3013 3.54747E-02
 -1      3014 4.47998E-02
 -1      3015 3.01171E-02
 -1      3016 2.56806E-02
 -1      3017 3.30599E-02
 -1      3018 2.11758E-02
 -1      3019 1.75075E-02
 -1      3020 2.31975E-02
 -1      3021 1.38558E-02
 -1      3022 1.11075E-02
 -1      3023 1.50409E-02
 -1      3024 8.64513E-03
 -1      3025 8.34482E-03
 -1      3026 8.92686E-03
 -1      3027 9.07909E-03
 -1      3028 9.66817E-03
 -1      3029 7.19878E-03
 -1      3030 1.29266E-02
 -1      3031 1.57155E-02
 -1      3032 1.11915E-02
 -1      3033 2.11302E-02
 -1      3034 2.52795E-02
 -1      3035 1.98647E-02
 -1      3036 3.32798E-02
 -1      3037 4.19747E-02
 -1      3038 3.32798E-02
 -1      3039 5.41201E-02
 -1      3040 7.12482E-02
 -1      3041 5.34256E-02
 -1      3042 9.13448E-02
 -1      3043 1.18672E-01
 -1      3044 8.56677E-02
 -1      3045 1.54598E-01
 -1      3046 1.94576E-01
 -1      3047 1.41690E-01
 -1      3048 2.45031E-01
 -1      3049 2.98552E-01
 -1      3050 2.28070E-01
 -1      3051 3.64675E-01
 -1      3052 4.30999E-01
 -1      3053 3.44649E-01
 -1      3054 5.10649E-01
 -1      3055 5.85443E-01
 -1      3056 4.90422E-01
 -1      3057 6.71211E-01
 -1      3058 7.45632E-01
 -1      3059 6.55840E-01
 -1      3060 8.23966E-01
 -1      3061 9.09179E-01
 -1      3062 8.19941E-01
 -1      3063 9.87668E-01
 -1      3064 1.08733E+00
 -1      3065 9.76765E-01
 -1      3066 1.13964E+00
 -1      3067 1.20572E+00
 -1      3068 1.10756E+00
 -1      3069 1.26720E+00
 -1      3070 1.29950E+00
 -1      3071 1.22135E+00
 -1      3072 1.38009E+00
 -1      3073 1.39979E+00
 -1      3074 1.36341E+00
 -1      3075 1.42503E+00
 -1      3076 1.39574E+00
 -1      3077 1.46925E+00
 -1      3078 1.30604E+00
 -1      3079 1.29099E+00
 -1      3080 1.40479E+00
 -1      3081 1.41371E+00
 -1      3082 1.45306E+00
 -1      3083 1.43780E+00
 -1      3084 1.40358E+00
 -1      3085 1.38444E+00
 -1      3086 1.51104E+00
 -1      3087 1.30433E+00
 -1      3088 1.26934E+00
 -1      3089 1.38145E+00
 -1      3090 1.20906E+00
 -1      3091 1.14504E+00
 -1      3092 1.24106E+00
 -1      3093 1.10786E+00
 -1      3094 1.01314E+00
 -1      3095 1.14359E+00
 -1      3096 9.30201E-01
 -1      3097 8.43973E-01
 -1      3098 1.02347E+00
 -1      3099 7.47408E-01
 -1      3100 1.74853E-01
 -1      3101 1.91279E-01
 -1      3102 1.84191E-01
 -1      3103 1.29700E+01
 -1      3104 1.01954E+01
 -1      3105 1.33579E+01
 -1      3106 2.35071E-01
 -1      3107 2.60112E-01
 -1      3108 2.11934E-01
 -1      3109 1.48891E-01
 -1      3110 1.64366E-01
 -1      3111 1.60166E-01
 -1      3112 1.24095E-01
 -1      3113 1.37973E-01
 -1      3114 1.38761E-01
 -1      3115 1.01010E-01
 -1      3116 1.13159E-01
 -1      3117 1.16907E-01
 -1      3118 8.11484E-02
 -1      3119 9.09492E-02
 -1      3120 9.59112E-02
 -1      3121 6.39903E-02
 -1      3122 7.22653E-02
 -1      3123 7.69677E-02
 -1      3124 4.94520E-02
 -1      3125 5.63441E-02
 -1      3126 6.04384E-02
 -1      3127 3.72324E-02
 -1      3128 4.29760E-02
 -1      3129 4.63162E-02
 -1      3130 2.69240E-02
 -1      3131 3.17782E-02
 -1      3132 3.43860E-02
 -1      3133 1.81502E-02
 -1      3134 2.22930E-02
 -1      3135 2.43008E-02
 -1      3136 1.33611E-02
 -1      3137 1.43976E-02
 -1      3138 1.59173E-02
 -1      3139 1.63446E-02
 -1      3140 1.44255E-02
 -1      3141 1.32292E-02
 -1      3142 2.95389E-02
 -1      3143 2.24685E-02
 -1      3144 2.04175E-02
 -1      3145 5.02312E-02
 -1      3146 3.81966E-02
 -1      3147 3.51990E-02
 -1      3148 8.41580E-02
 -1      3149 6.51490E-02
 -1      3150 5.87745E-02
 -1      3151 1.37184E-01
 -1      3152 1.06028E-01
 -1      3153 9.55621E-02
 -1      3154 2.21491E-01
 -1      3155 1.70025E-01
 -1      3156 1.50273E-01
 -1      3157 3.52894E-01
 -1      3158 2.70365E-01
 -1      3159 2.31989E-01
 -1      3160 5.56452E-01
 -1      3161 4.24536E-01
 -1      3162 3.52505E-01
 -1      3163 8.93382E-01
 -1      3164 6.82274E-01
 -1      3165 5.49969E-01
 -1      3166 1.46174E+00
 -1      3167 1.12030E+00
 -1      3168 9.02706E-01
 -1      3169 2.39249E+00
 -1      3170 1.82584E+00
 -1      3171 1.49372E+00
 -1      3172 3.93741E+00
 -1      3173 2.94629E+00
 -1      3174 2.41162E+00
 -1      3175 5.64028E+00
 -1      3176 4.53463E+00
 -1      3177 3.56264E+00
 -1      3178 8.65740E+00
 -1      3179 6.90619E+00
 -1      3180 5.42577E+00
 -1      3181 8.22964E+00
 -1      3182 2.14448E+00
 -1      3183 2.27718E+00
 -1      3184 1.59846E+00
 -1      3185 1.78073E+00
 -1      3186 2.26985E+00
 -1      3187 4.99037E+00
 -1      3188 1.00602E+01
 -1      3189 1.41563E+01
 -1      3190 1.40525E+01
 -1      3191 7.48884E+00
 -1      3192 2.66778E+00
 -1      3193 2.92163E+00
 -1      3194 3.02420E+00
 -1      3195 1.18109E+00
 -1      3196 1.30889E+00
 -1      3197 1.61653E+00
 -1      3198 1.02583E+00
 -1      3199 1.09803E+00
 -1      3200 1.24390E+00
 -1      3201 8.86011E+00
 -1      3202 1.06005E+01
 -1      3203 4.62927E+00
 -1      3204 5.05955E+00
 -1      3205 2.70813E-01
 -1      3206 2.95602E-01
 -1      3207 2.36841E-01
 -1      3208 9.23640E+00
 -1      3209 8.09564E+00
 -1      3210 4.55411E-01
 -1      3211 4.49904E+00
 -1      3212 4.94815E+00
 -1      3213 3.13566E-01
 -1      3214 3.07047E-01
 -1      3215 2.42648E-01
 -1      3216 3.23562E-01
 -1      3217 3.15455E-01
 -1      3218 4.26115E+00
 -1      3219 4.71528E+00
 -1      3220 5.87761E+00
 -1      3221 4.75432E+00
 -1      3222 1.23358E+01
 -1      3223 1.39579E+01
 -1      3224 1.03676E+01
 -1      3225 9.23232E+00
 -1      3226 3.02364E+00
 -1      3227 3.18047E+00
 -1      3228 5.11095E+00
 -1      3229 4.72390E+00
 -1      3230 3.93743E+00
 -1      3231 5.71654E+00
 -1      3232 6.44088E+00
 -1      3233 7.86912E+00
 -1      3234 8.43973E-01
 -1      3235 3.11769E-01
 -1      3236 3.11862E-01
 -1      3237 2.84969E-01
 -1      3238 3.86975E+00
 -1      3239 2.43148E-01
 -1      3240 3.07614E-01
 -1      3241 3.28952E-01
 -1      3242 2.46639E-01
 -1      3243 3.32378E-01
 -1      3244 3.02364E+00
 -1      3245 4.83625E+00
 -1      3246 3.20377E-01
 -1      3247 3.30660E-01
 -1      3248 3.91194E-01
 -1      3249 4.08257E+00
 -1      3250 3.59511E+00
 -1      3251 3.29676E+00
 -1      3252 2.84271E-01
 -1      3253 4.79067E+00
 -1      3254 3.30937E+00
 -1      3255 7.68500E+00
 -1      3256 6.32189E+00
 -1      3257 5.33090E+00
 -1      3258 8.43973E-01
 -1      3259 9.15677E-01
 -1      3260 4.19322E+00
 -1      3261 2.50549E-01
 -1      3262 1.04378E+01
 -1      3263 1.06456E+01
 -1      3264 5.92972E+00
 -1      3265 4.19704E+00
 -1      3266 6.27087E+00
 -1      3267 9.19622E+00
 -1      3268 3.72151E+00
 -1      3269 3.13804E+00
 -1      3270 3.83120E+00
 -1      3271 5.54949E+00
 -1      3272 2.90281E+00
 -1      3273 3.45290E+00
 -1      3274 3.22397E+00
 -1      3275 3.23562E-01
 -1      3276 2.88654E-01
 -1      3277 3.24536E-01
 -1      3278 3.23301E-01
 -1      3279 3.23994E-01
 -1      3280 2.85282E-01
 -1      3281 3.20707E-01
 -1      3282 3.20707E-01
 -1      3283 2.84825E-01
 -1      3284 1.05069E+00
 -1      3285 9.40537E-01
 -1      3286 2.75283E-01
 -1      3287 3.15670E-01
 -1      3288 3.23301E-01
 -1      3289 2.88899E-01
 -1      3290 1.41380E+00
 -1      3291 1.70337E+00
 -1      3292 2.07196E-01
 -1      3293 1.96788E-01
 -1      3294 1.44149E-01
 -1      3295 1.54637E-01
 -1      3296 2.14013E-01
 -1      3297 2.02990E-01
 -1      3298 1.99236E-01
 -1      3299 1.84913E-01
 -1      3300 1.77376E-01
 -1      3301 1.76950E-01
 -1      3302 1.63673E-01
 -1      3303 1.65658E-01
 -1      3304 1.53726E-01
 -1      3305 1.42977E-01
 -1      3306 1.47746E-01
 -1      3307 1.34784E-01
 -1      3308 1.23479E-01
 -1      3309 1.29605E-01
 -1      3310 1.15159E-01
 -1      3311 1.04260E-01
 -1      3312 1.13091E-01
 -1      3313 9.58473E-02
 -1      3314 8.58878E-02
 -1      3315 9.63581E-02
 -1      3316 7.79417E-02
 -1      3317 6.91634E-02
 -1      3318 7.99989E-02
 -1      3319 6.19819E-02
 -1      3320 5.44360E-02
 -1      3321 6.48712E-02
 -1      3322 4.81331E-02
 -1      3323 4.17506E-02
 -1      3324 5.13868E-02
 -1      3325 3.63156E-02
 -1      3326 3.09580E-02
 -1      3327 3.96488E-02
 -1      3328 2.62978E-02
 -1      3329 2.17930E-02
 -1      3330 2.95536E-02
 -1      3331 1.77612E-02
 -1      3332 1.41095E-02
 -1      3333 2.08615E-02
 -1      3334 1.09359E-02
 -1      3335 8.47356E-03
 -1      3336 1.36562E-02
 -1      3337 6.96974E-03
 -1      3338 7.70401E-03
 -1      3339 8.97879E-03
 -1      3340 9.58582E-03
 -1      3341 1.28443E-02
 -1      3342 9.35677E-03
 -1      3343 1.68893E-02
 -1      3344 2.23041E-02
 -1      3345 1.52837E-02
 -1      3346 3.01350E-02
 -1      3347 3.81353E-02
 -1      3348 2.71596E-02
 -1      3349 5.11374E-02
 -1      3350 6.32828E-02
 -1      3351 4.79925E-02
 -1      3352 8.34332E-02
 -1      3353 1.03530E-01
 -1      3354 8.11450E-02
 -1      3355 1.31899E-01
 -1      3356 1.67824E-01
 -1      3357 1.29664E-01
 -1      3358 2.05201E-01
 -1      3359 2.55656E-01
 -1      3360 1.95409E-01
 -1      3361 3.00578E-01
 -1      3362 3.66701E-01
 -1      3363 2.77708E-01
 -1      3364 4.41567E-01
 -1      3365 5.21217E-01
 -1      3366 3.97496E-01
 -1      3367 6.17861E-01
 -1      3368 7.03629E-01
 -1      3369 5.69006E-01
 -1      3370 8.07005E-01
 -1      3371 8.85339E-01
 -1      3372 7.69027E-01
 -1      3373 9.76765E-01
 -1      3374 1.05525E+00
 -1      3375 9.63829E-01
 -1      3376 1.15578E+00
 -1      3377 1.20809E+00
 -1      3378 1.15578E+00
 -1      3379 1.25912E+00
 -1      3380 1.32060E+00
 -1      3381 1.30734E+00
 -1      3382 1.55112E+00
 -1      3383 1.63171E+00
 -1      3384 1.58889E+00
 -1      3385 1.90932E+00
 -1      3386 1.93456E+00
 -1      3387 2.09702E+00
 -1      3388 1.61633E+00
 -1      3389 1.52663E+00
 -1      3390 2.05641E+00
 -1      3391 2.11698E+00
 -1      3392 2.23969E+00
 -1      3393 2.32852E+00
 -1      3394 2.12471E+00
 -1      3395 2.07523E+00
 -1      3396 2.80388E+00
 -1      3397 1.62949E+00
 -1      3398 1.54938E+00
 -1      3399 2.24316E+00
 -1      3400 1.35956E+00
 -1      3401 1.29928E+00
 -1      3402 1.60760E+00
 -1      3403 1.27729E+00
 -1      3404 1.24011E+00
 -1      3405 1.39580E+00
 -1      3406 1.36753E+00
 -1      3407 1.28459E+00
 -1      3408 1.28459E+00
 -1      3409 1.50123E+00
 -1      3410 1.24769E-01
 -1      3411 1.35687E-01
 -1      3412 1.30157E-01
 -1      3413 1.86018E-01
 -1      3414 2.00224E-01
 -1      3415 1.05604E-01
 -1      3416 1.16539E-01
 -1      3417 1.13465E-01
 -1      3418 8.71457E-02
 -1      3419 9.72061E-02
 -1      3420 9.68382E-02
 -1      3421 7.03005E-02
 -1      3422 7.91836E-02
 -1      3423 8.04785E-02
 -1      3424 5.54357E-02
 -1      3425 6.30819E-02
 -1      3426 6.52978E-02
 -1      3427 4.26111E-02
 -1      3428 4.90871E-02
 -1      3429 5.17306E-02
 -1      3430 3.16835E-02
 -1      3431 3.71377E-02
 -1      3432 3.99086E-02
 -1      3433 2.23844E-02
 -1      3434 2.70154E-02
 -1      3435 2.97671E-02
 -1      3436 1.46611E-02
 -1      3437 1.84137E-02
 -1      3438 2.11283E-02
 -1      3439 1.59028E-02
 -1      3440 1.48384E-02
 -1      3441 1.73347E-02
 -1      3442 2.35499E-02
 -1      3443 1.74260E-02
 -1      3444 1.90352E-02
 -1      3445 3.74918E-02
 -1      3446 2.88342E-02
 -1      3447 2.58427E-02
 -1      3448 6.19535E-02
 -1      3449 4.70357E-02
 -1      3450 4.06708E-02
 -1      3451 9.69654E-02
 -1      3452 7.50957E-02
 -1      3453 6.33569E-02
 -1      3454 1.54522E-01
 -1      3455 1.21681E-01
 -1      3456 1.01215E-01
 -1      3457 2.42692E-01
 -1      3458 1.93819E-01
 -1      3459 1.65226E-01
 -1      3460 3.75341E-01
 -1      3461 3.03699E-01
 -1      3462 2.65528E-01
 -1      3463 5.92968E-01
 -1      3464 4.67146E-01
 -1      3465 4.18340E-01
 -1      3466 9.51350E-01
 -1      3467 7.24435E-01
 -1      3468 6.41612E-01
 -1      3469 1.58211E+00
 -1      3470 1.21801E+00
 -1      3471 1.03974E+00
 -1      3472 2.58535E+00
 -1      3473 2.03155E+00
 -1      3474 1.75584E+00
 -1      3475 3.78085E+00
 -1      3476 3.18364E+00
 -1      3477 2.80356E+00
 -1      3478 1.39474E+00
 -1      3479 1.47780E+00
 -1      3480 1.56464E+00
 -1      3481 2.27640E+00
 -1      3482 2.64015E+00
 -1      3483 2.07367E+00
 -1      3484 3.02686E-01
 -1      3485 2.03681E-01
 -1      3486 2.14382E-01
 -1      3487 1.77765E-01
 -1      3488 3.20840E-01
 -1      3489 6.27948E+00
 -1      3490 8.33073E+00
 -1      3491 6.39138E+00
 -1      3492 3.69499E+00
 -1      3493 3.74640E+00
 -1      3494 1.39474E+00
 -1      3495 1.85548E-01
 -1      3496 1.96943E-01
 -1      3497 2.51155E-01
 -1      3498 3.01602E+00
 -1      3499 2.54478E+00
 -1      3500 3.00252E+00
 -1      3501 3.39312E+00
 -1      3502 3.00906E+00
 -1      3503 2.13735E-01
 -1      3504 2.10162E-01
 -1      3505 1.77279E-01
 -1      3506 2.10439E-01
 -1      3507 2.13446E-01
 -1      3508 1.67086E-01
 -1      3509 1.77279E-01
 -1      3510 9.87022E+00
 -1      3511 9.18025E+00
 -1      3512 3.39853E+00
 -1      3513 4.12288E+00
 -1      3514 2.47987E+00
 -1      3515 3.23684E+00
 -1      3516 8.30974E+00
 -1      3517 7.55032E+00
 -1      3518 7.53435E+00
 -1      3519 1.64935E-01
 -1      3520 1.78472E-01
 -1      3521 1.66762E-01
 -1      3522 1.48917E-01
 -1      3523 2.71845E-01
 -1      3524 3.64902E+00
 -1      3525 3.27415E+00
 -1      3526 2.56868E-01
 -1      3527 2.20916E-01
 -1      3528 2.13059E-01
 -1      3529 2.03239E-01
 -1      3530 1.87853E-01
 -1      3531 9.78224E+00
 -1      3532 9.18223E+00
 -1      3533 7.64426E+00
 -1      3534 2.53212E-01
 -1      3535 2.49527E-01
 -1      3536 2.85092E-01
 -1      3537 1.56636E-01
 -1      3538 2.94571E+00
 -1      3539 3.26687E+00
 -1      3540 3.01851E+00
 -1      3541 1.62864E+00
 -1      3542 5.95010E+00
 -1      3543 4.68419E+00
 -1      3544 4.30519E+00
 -1      3545 6.90269E+00
 -1      3546 2.47225E+00
 -1      3547 6.60761E+00
 -1      3548 3.59511E+00
 -1      3549 3.14829E+00
 -1      3550 3.04841E+00
 -1      3551 4.46865E+00
 -1      3552 4.28452E+00
 -1      3553 3.07650E+00
 -1      3554 6.13541E+00
 -1      3555 3.96949E+00
 -1      3556 5.24893E+00
 -1      3557 3.93801E+00
 -1      3558 3.48007E+00
 -1      3559 3.84591E+00
 -1      3560 2.95520E+00
 -1      3561 2.71998E+00
 -1      3562 2.71998E+00
 -1      3563 1.42148E-01
 -1      3564 2.53212E-01
 -1      3565 2.53212E-01
 -1      3566 2.17769E-01
 -1      3567 7.06050E+00
 -1      3568 8.79581E+00
 -1      3569 7.61042E+00
 -1      3570 2.79529E+00
 -1      3571 5.03932E+00
 -1      3572 6.37884E+00
 -1      3573 5.88538E+00
 -1      3574 3.15080E+00
 -1      3575 2.56904E+00
 -1      3576 9.22848E+00
 -1      3577 2.36218E-01
 -1      3578 1.67611E-01
 -1      3579 2.39835E-01
 -1      3580 7.76311E+00
 -1      3581 1.47944E-01
 -1      3582 1.51794E-01
 -1      3583 2.71403E+00
 -1      3584 2.45589E+00
 -1      3585 1.17221E-01
 -1      3586 1.25684E-01
 -1      3587 2.53715E+00
 -1      3588 2.47225E+00
 -1      3589 2.50196E-01
 -1      3590 2.54004E-01
 -1      3591 2.18439E-01
 -1      3592 1.53869E-01
 -1      3593 1.45905E-01
 -1      3594 1.41429E-01
 -1      3595 1.31482E-01
 -1      3596 1.29640E-01
 -1      3597 1.24776E-01
 -1      3598 1.16582E-01
 -1      3599 1.18459E-01
 -1      3600 1.09077E-01
 -1      3601 1.00757E-01
 -1      3602 1.04248E-01
 -1      3603 9.44811E-02
 -1      3604 8.60680E-02
 -1      3605 9.04664E-02
 -1      3606 7.95731E-02
 -1      3607 7.16270E-02
 -1      3608 7.76961E-02
 -1      3609 6.53994E-02
 -1      3610 5.82179E-02
 -1      3611 6.49737E-02
 -1      3612 5.25266E-02
 -1      3613 4.62237E-02
 -1      3614 5.30548E-02
 -1      3615 4.11788E-02
 -1      3616 3.57438E-02
 -1      3617 4.23186E-02
 -1      3618 3.13401E-02
 -1      3619 2.66798E-02
 -1      3620 3.28700E-02
 -1      3621 2.28260E-02
 -1      3622 1.87942E-02
 -1      3623 2.46125E-02
 -1      3624 1.65039E-02
 -1      3625 1.33303E-02
 -1      3626 1.84683E-02
 -1      3627 1.21252E-02
 -1      3628 1.06214E-02
 -1      3629 1.49729E-02
 -1      3630 1.04247E-02
 -1      3631 1.23065E-02
 -1      3632 1.35711E-02
 -1      3633 1.52835E-02
 -1      3634 1.93285E-02
 -1      3635 1.63514E-02
 -1      3636 2.62664E-02
 -1      3637 3.40973E-02
 -1      3638 2.62662E-02
 -1      3639 4.33258E-02
 -1      3640 5.63278E-02
 -1      3641 4.24326E-02
 -1      3642 7.08172E-02
 -1      3643 9.09675E-02
 -1      3644 6.61504E-02
 -1      3645 1.17393E-01
 -1      3646 1.45762E-01
 -1      3647 1.07066E-01
 -1      3648 1.85423E-01
 -1      3649 2.22800E-01
 -1      3650 1.73153E-01
 -1      3651 2.77236E-01
 -1      3652 3.22158E-01
 -1      3653 2.67250E-01
 -1      3654 3.89490E-01
 -1      3655 4.64356E-01
 -1      3656 3.89018E-01
 -1      3657 5.38611E-01
 -1      3658 6.35256E-01
 -1      3659 5.30605E-01
 -1      3660 7.46917E-01
 -1      3661 8.50293E-01
 -1      3662 7.16522E-01
 -1      3663 9.60999E-01
 -1      3664 1.05242E+00
 -1      3665 9.38890E-01
 -1      3666 1.15578E+00
 -1      3667 1.25631E+00
 -1      3668 1.15295E+00
 -1      3669 1.51358E+00
 -1      3670 1.56462E+00
 -1      3671 1.51358E+00
 -1      3672 1.94776E+00
 -1      3673 2.17828E+00
 -1      3674 2.15401E+00
 -1      3675 2.09702E+00
 -1      3676 2.37463E+00
 -1      3677 2.32852E+00
 -1      3678 2.91887E+00
 -1      3679 2.98364E+00
 -1      3680 2.86865E+00
 -1      3681 2.25980E+00
 -1      3682 2.06998E+00
 -1      3683 1.41778E+00
 -1      3684 1.39580E+00
 -1      3685 2.06998E+00
 -1      3686 1.50123E+00
 -1      3687 1.62864E+00
 -1      3688 1.62864E+00
 -1      3689 1.52321E+00
 -1      3690 7.21859E-02
 -1      3691 8.01479E-02
 -1      3692 1.01373E-01
 -1      3693 1.09603E-01
 -1      3694 1.05129E-01
 -1      3695 5.86555E-02
 -1      3696 6.58742E-02
 -1      3697 6.55436E-02
 -1      3698 4.65201E-02
 -1      3699 5.28686E-02
 -1      3700 5.34450E-02
 -1      3701 3.59257E-02
 -1      3702 4.13992E-02
 -1      3703 4.25371E-02
 -1      3704 2.68486E-02
 -1      3705 3.15167E-02
 -1      3706 3.30072E-02
 -1      3707 1.91775E-02
 -1      3708 2.31483E-02
 -1      3709 2.48978E-02
 -1      3710 1.85971E-02
 -1      3711 1.84199E-02
 -1      3712 2.04399E-02
 -1      3713 2.07069E-02
 -1      3714 1.91836E-02
 -1      3715 2.02688E-02
 -1      3716 2.90772E-02
 -1      3717 2.37929E-02
 -1      3718 2.39414E-02
 -1      3719 4.60108E-02
 -1      3720 3.64669E-02
 -1      3721 3.44172E-02
 -1      3722 7.00579E-02
 -1      3723 5.69157E-02
 -1      3724 5.27118E-02
 -1      3725 1.11604E-01
 -1      3726 8.68886E-02
 -1      3727 8.04475E-02
 -1      3728 1.75858E-01
 -1      3729 1.36562E-01
 -1      3730 1.22236E-01
 -1      3731 2.72199E-01
 -1      3732 2.11193E-01
 -1      3733 1.82528E-01
 -1      3734 4.41615E-01
 -1      3735 3.49809E-01
 -1      3736 2.95473E-01
 -1      3737 6.96957E-01
 -1      3738 5.65491E-01
 -1      3739 4.96960E-01
 -1      3740 1.14640E+00
 -1      3741 8.79743E-01
 -1      3742 8.03622E-01
 -1      3743 1.83091E+00
 -1      3744 1.38147E+00
 -1      3745 1.22148E+00
 -1      3746 2.80356E+00
 -1      3747 2.20527E+00
 -1      3748 1.83091E+00
 -1      3749 1.67684E+00
 -1      3750 1.61284E+00
 -1      3751 1.67684E+00
 -1      3752 2.43604E-01
 -1      3753 2.47433E-01
 -1      3754 1.64810E+00
 -1      3755 2.22113E+00
 -1      3756 1.76030E+00
 -1      3757 1.54475E-01
 -1      3758 1.57932E-01
 -1      3759 8.66926E-02
 -1      3760 9.50903E-02
 -1      3761 9.12277E-02
 -1      3762 7.84000E-02
 -1      3763 1.83524E-01
 -1      3764 1.58063E-01
 -1      3765 1.54309E-01
 -1      3766 1.28728E-01
 -1      3767 1.31952E-01
 -1      3768 1.29647E-01
 -1      3769 1.55111E-01
 -1      3770 5.01764E+00
 -1      3771 2.54004E-01
 -1      3772 2.54004E-01
 -1      3773 2.04939E-01
 -1      3774 2.19109E-01
 -1      3775 4.49780E+00
 -1      3776 5.23641E+00
 -1      3777 2.15055E+00
 -1      3778 2.31225E+00
 -1      3779 1.16711E-01
 -1      3780 1.33504E-01
 -1      3781 1.08019E-01
 -1      3782 1.06515E-01
 -1      3783 2.11990E-01
 -1      3784 1.52624E-01
 -1      3785 1.75311E-01
 -1      3786 2.45589E+00
 -1      3787 2.53715E+00
 -1      3788 1.85487E-01
 -1      3789 1.85487E-01
 -1      3790 1.19046E-01
 -1      3791 1.31982E-01
 -1      3792 1.42280E-01
 -1      3793 2.21545E+00
 -1      3794 5.59810E+00
 -1      3795 6.58453E+00
 -1      3796 4.89036E+00
 -1      3797 4.21051E+00
 -1      3798 1.34556E-01
 -1      3799 2.81249E+00
 -1      3800 2.85539E+00
 -1      3801 2.62965E+00
 -1      3802 2.45065E+00
 -1      3803 2.13243E+00
 -1      3804 3.01851E+00
 -1      3805 2.83876E+00
 -1      3806 1.58873E-01
 -1      3807 2.39302E+00
 -1      3808 2.53715E+00
 -1      3809 1.28152E-01
 -1      3810 1.51441E-01
 -1      3811 1.47498E-01
 -1      3812 2.85539E+00
 -1      3813 2.45065E+00
 -1      3814 1.54386E-01
 -1      3815 1.34553E-01
 -1      3816 1.46840E-01
 -1      3817 2.66217E+00
 -1      3818 3.02454E+00
 -1      3819 3.01851E+00
 -1      3820 2.51351E+00
 -1      3821 2.85928E+00
 -1      3822 2.09503E+00
 -1      3823 4.14736E+00
 -1      3824 3.24402E+00
 -1      3825 2.64573E+00
 -1      3826 3.82920E+00
 -1      3827 3.39130E+00
 -1      3828 3.13226E+00
 -1      3829 7.24935E+00
 -1      3830 3.05578E+00
 -1      3831 2.63772E+00
 -1      3832 3.16259E+00
 -1      3833 2.72277E+00
 -1      3834 1.81090E-01
 -1      3835 2.88742E+00
 -1      3836 2.79005E+00
 -1      3837 3.63555E+00
 -1      3838 3.73819E+00
 -1      3839 1.86155E-01
 -1      3840 1.86825E-01
 -1      3841 1.53873E-01
 -1      3842 2.23661E+00
 -1      3843 1.18020E-01
 -1      3844 1.17580E-01
 -1      3845 1.11060E-01
 -1      3846 1.04354E-01
 -1      3847 9.96572E-02
 -1      3848 9.21514E-02
 -1      3849 9.22578E-02
 -1      3850 8.65222E-02
 -1      3851 8.02467E-02
 -1      3852 8.19317E-02
 -1      3853 7.43964E-02
 -1      3854 6.79016E-02
 -1      3855 7.04522E-02
 -1      3856 6.27013E-02
 -1      3857 5.64737E-02
 -1      3858 5.94016E-02
 -1      3859 5.17917E-02
 -1      3860 4.61004E-02
 -1      3861 4.95193E-02
 -1      3862 4.18360E-02
 -1      3863 3.67911E-02
 -1      3864 4.05728E-02
 -1      3865 3.30147E-02
 -1      3866 2.86110E-02
 -1      3867 3.25321E-02
 -1      3868 2.59982E-02
 -1      3869 2.21443E-02
 -1      3870 2.61429E-02
 -1      3871 2.06159E-02
 -1      3872 1.83256E-02
 -1      3873 2.20016E-02
 -1      3874 1.72779E-02
 -1      3875 1.60728E-02
 -1      3876 1.94255E-02
 -1      3877 1.57401E-02
 -1      3878 1.55434E-02
 -1      3879 1.80451E-02
 -1      3880 1.73478E-02
 -1      3881 2.03247E-02
 -1      3882 1.95168E-02
 -1      3883 2.51659E-02
 -1      3884 3.21038E-02
 -1      3885 2.61623E-02
 -1      3886 4.20381E-02
 -1      3887 5.12666E-02
 -1      3888 4.09378E-02
 -1      3889 6.75518E-02
 -1      3890 8.20412E-02
 -1      3891 6.71574E-02
 -1      3892 1.06511E-01
 -1      3893 1.32937E-01
 -1      3894 1.07913E-01
 -1      3895 1.66237E-01
 -1      3896 2.05898E-01
 -1      3897 1.65683E-01
 -1      3898 2.47477E-01
 -1      3899 3.01913E-01
 -1      3900 2.40561E-01
 -1      3901 3.63014E-01
 -1      3902 4.30346E-01
 -1      3903 3.43241E-01
 -1      3904 5.26516E-01
 -1      3905 6.00771E-01
 -1      3906 5.00512E-01
 -1      3907 7.16522E-01
 -1      3908 8.28184E-01
 -1      3909 7.12433E-01
 -1      3910 9.38890E-01
 -1      3911 1.04960E+00
 -1      3912 9.38890E-01
 -1      3913 1.21483E+00
 -1      3914 1.31818E+00
 -1      3915 1.21483E+00
 -1      3916 2.15401E+00
 -1      3917 1.48808E-01
 -1      3918 2.98364E+00
 -1      3919 1.23131E-01
 -1      3920 1.27527E-01
 -1      3921 1.33036E-01
 -1      3922 2.06998E+00
 -1      3923 2.17541E+00
 -1      3924 2.22360E+00
 -1      3925 9.28561E-02
 -1      3926 1.00475E-01
 -1      3927 3.67872E-02
 -1      3928 4.19081E-02
 -1      3929 2.85727E-02
 -1      3930 3.29817E-02
 -1      3931 3.23527E-02
 -1      3932 2.26213E-02
 -1      3933 2.63216E-02
 -1      3934 2.62961E-02
 -1      3935 2.04363E-02
 -1      3936 2.11939E-02
 -1      3937 2.26177E-02
 -1      3938 2.10284E-02
 -1      3939 2.04419E-02
 -1      3940 2.11959E-02
 -1      3941 2.56784E-02
 -1      3942 2.25923E-02
 -1      3943 2.27654E-02
 -1      3944 3.77349E-02
 -1      3945 3.03451E-02
 -1      3946 2.89960E-02
 -1      3947 5.50293E-02
 -1      3948 4.41244E-02
 -1      3949 4.00523E-02
 -1      3950 8.14545E-02
 -1      3951 6.46238E-02
 -1      3952 5.60363E-02
 -1      3953 1.28765E-01
 -1      3954 1.03808E-01
 -1      3955 8.79841E-02
 -1      3956 1.99600E-01
 -1      3957 1.64265E-01
 -1      3958 1.45837E-01
 -1      3959 3.31017E-01
 -1      3960 2.53407E-01
 -1      3961 2.35143E-01
 -1      3962 5.31679E-01
 -1      3963 4.07803E-01
 -1      3964 3.65737E-01
 -1      3965 8.14558E-01
 -1      3966 6.31772E-01
 -1      3967 5.42616E-01
 -1      3968 1.23672E+00
 -1      3969 1.00165E+00
 -1      3970 8.29797E-01
 -1      3971 1.83091E+00
 -1      3972 1.45655E+00
 -1      3973 1.23672E+00
 -1      3974 2.72217E+00
 -1      3975 4.62594E-02
 -1      3976 5.20463E-02
 -1      3977 4.05095E-02
 -1      3978 1.05770E-01
 -1      3979 1.12039E-01
 -1      3980 9.50628E-02
 -1      3981 1.64280E-01
 -1      3982 1.28620E-01
 -1      3983 1.78449E-01
 -1      3984 3.08352E+00
 -1      3985 3.23420E+00
 -1      3986 3.44748E+00
 -1      3987 1.18250E-01
 -1      3988 1.13774E-01
 -1      3989 9.96695E-02
 -1      3990 1.77086E+00
 -1      3991 2.15401E+00
 -1      3992 1.83231E+00
 -1      3993 1.51358E+00
 -1      3994 2.85539E+00
 -1      3995 2.72217E+00
 -1      3996 5.68199E-02
 -1      3997 6.31316E-02
 -1      3998 4.96343E-02
 -1      3999 3.60273E+00
 -1      4000 1.29904E-01
 -1      4001 3.16402E+00
 -1      4002 3.52570E+00
 -1      4003 2.78270E+00
 -1      4004 2.19777E+00
 -1      4005 2.29028E+00
 -1      4006 2.29835E+00
 -1      4007 6.84879E-02
 -1      4008 7.50325E-02
 -1      4009 5.97642E-02
 -1      4010 2.67121E+00
 -1      4011 1.57546E+00
 -1      4012 1.11755E-01
 -1      4013 2.76267E+00
 -1      4014 1.09873E-01
 -1      4015 1.03382E-01
 -1      4016 9.34763E-02
 -1      4017 8.72226E-02
 -1      4018 8.25678E-02
 -1      4019 8.09394E-02
 -1      4020 1.04759E-01
 -1      4021 1.11057E-01
 -1      4022 9.24852E-02
 -1      4023 1.76030E+00
 -1      4024 1.79556E+00
 -1      4025 1.01714E-01
 -1      4026 1.02808E-01
 -1      4027 1.28486E-01
 -1      4028 1.29154E-01
 -1      4029 2.98861E+00
 -1      4030 2.03358E+00
 -1      4031 9.50057E-02
 -1      4032 7.83171E-02
 -1      4033 8.05658E-02
 -1      4034 1.07137E-01
 -1      4035 9.42009E-02
 -1      4036 8.11877E-02
 -1      4037 1.16306E-01
 -1      4038 1.86825E-01
 -1      4039 1.86825E-01
 -1      4040 1.46165E-01
 -1      4041 1.54542E-01
 -1      4042 2.70798E+00
 -1      4043 2.25887E+00
 -1      4044 2.26693E+00
 -1      4045 2.48541E+00
 -1      4046 2.04494E+00
 -1      4047 1.67058E+00
 -1      4048 2.18191E+00
 -1      4049 1.15731E-01
 -1      4050 9.09610E-02
 -1      4051 1.15641E-01
 -1      4052 7.74187E-02
 -1      4053 7.17894E-02
 -1      4054 6.88614E-02
 -1      4055 6.30111E-02
 -1      4056 6.43484E-02
 -1      4057 5.93744E-02
 -1      4058 5.41742E-02
 -1      4059 5.77837E-02
 -1      4060 5.03787E-02
 -1      4061 4.56966E-02
 -1      4062 5.03515E-02
 -1      4063 4.20977E-02
 -1      4064 3.78333E-02
 -1      4065 4.29571E-02
 -1      4066 3.46504E-02
 -1      4067 3.08741E-02
 -1      4068 3.61753E-02
 -1      4069 2.82225E-02
 -1      4070 2.56097E-02
 -1      4071 3.03408E-02
 -1      4072 2.35300E-02
 -1      4073 2.20016E-02
 -1      4074 2.56097E-02
 -1      4075 2.13018E-02
 -1      4076 2.02541E-02
 -1      4077 2.28302E-02
 -1      4078 2.15983E-02
 -1      4079 2.12656E-02
 -1      4080 2.34746E-02
 -1      4081 2.53738E-02
 -1      4082 2.71781E-02
 -1      4083 2.89269E-02
 -1      4084 3.45541E-02
 -1      4085 3.93953E-02
 -1      4086 4.04111E-02
 -1      4087 5.13352E-02
 -1      4088 6.12696E-02
 -1      4089 5.97270E-02
 -1      4090 7.94272E-02
 -1      4091 9.57125E-02
 -1      4092 8.98247E-02
 -1      4093 1.21783E-01
 -1      4094 1.46253E-01
 -1      4095 1.34053E-01
 -1      4096 1.81159E-01
 -1      4097 2.14460E-01
 -1      4098 1.95030E-01
 -1      4099 2.59066E-01
 -1      4100 3.00644E-01
 -1      4101 2.74542E-01
 -1      4102 3.81595E-01
 -1      4103 4.42695E-01
 -1      4104 4.00099E-01
 -1      4105 5.40572E-01
 -1      4106 6.36742E-01
 -1      4107 5.78926E-01
 -1      4108 9.87823E-01
 -1      4109 1.10357E+00
 -1      4110 1.02788E+00
 -1      4111 1.13942E+00
 -1      4112 1.25012E+00
 -1      4113 1.41481E+00
 -1      4114 2.30500E-02
 -1      4115 2.44774E-02
 -1      4116 2.67157E-02
 -1      4117 2.89667E-02
 -1      4118 2.71480E-02
 -1      4119 2.48610E+00
 -1      4120 2.20264E+00
 -1      4121 1.90534E+00
 -1      4122 7.71086E-02
 -1      4123 8.30899E-02
 -1      4124 3.19762E-02
 -1      4125 3.57817E-02
 -1      4126 3.23958E-02
 -1      4127 8.76197E-02
 -1      4128 8.82898E-02
 -1      4129 6.96654E-02
 -1      4130 2.17641E-02
 -1      4131 2.17585E-02
 -1      4132 2.36182E-02
 -1      4133 2.45740E-02
 -1      4134 2.30101E-02
 -1      4135 2.35727E-02
 -1      4136 3.33490E-02
 -1      4137 2.86822E-02
 -1      4138 2.89269E-02
 -1      4139 4.71145E-02
 -1      4140 4.07249E-02
 -1      4141 4.04111E-02
 -1      4142 6.86489E-02
 -1      4143 5.90544E-02
 -1      4144 5.97270E-02
 -1      4145 1.09160E-01
 -1      4146 8.68066E-02
 -1      4147 8.98247E-02
 -1      4148 1.70730E-01
 -1      4149 1.35230E-01
 -1      4150 1.34053E-01
 -1      4151 2.59443E-01
 -1      4152 2.05636E-01
 -1      4153 1.95030E-01
 -1      4154 3.80835E-01
 -1      4155 3.04049E-01
 -1      4156 2.74542E-01
 -1      4157 5.62954E-01
 -1      4158 4.62861E-01
 -1      4159 4.01174E-01
 -1      4160 9.03669E-01
 -1      4161 7.16580E-01
 -1      4162 6.36826E-01
 -1      4163 1.43419E+00
 -1      4164 1.21436E+00
 -1      4165 1.10115E+00
 -1      4166 2.72217E+00
 -1      4167 3.94044E-02
 -1      4168 4.37557E-02
 -1      4169 3.90280E-02
 -1      4170 1.13909E-01
 -1      4171 1.18468E-01
 -1      4172 9.96209E-02
 -1      4173 1.83817E+00
 -1      4174 8.90230E-02
 -1      4175 8.63081E-02
 -1      4176 7.49284E-02
 -1      4177 4.77996E-02
 -1      4178 5.25732E-02
 -1      4179 4.66946E-02
 -1      4180 2.07666E+00
 -1      4181 2.45158E+00
 -1      4182 1.89155E+00
 -1      4183 1.61854E+00
 -1      4184 9.44344E-02
 -1      4185 8.50808E-02
 -1      4186 8.03840E-02
 -1      4187 7.44343E-02
 -1      4188 5.67547E-02
 -1      4189 6.21109E-02
 -1      4190 5.49199E-02
 -1      4191 1.45331E+00
 -1      4192 1.65384E+00
 -1      4193 6.86669E-02
 -1      4194 5.66939E-02
 -1      4195 5.79024E-02
 -1      4196 7.10273E-02
 -1      4197 8.19314E-02
 -1      4198 8.62154E-02
 -1      4199 9.96461E-02
 -1      4200 1.46349E+00
 -1      4201 1.44114E+00
 -1      4202 1.67753E+00
 -1      4203 2.26693E+00
 -1      4204 7.02417E-02
 -1      4205 8.15369E-02
 -1      4206 7.56786E-02
 -1      4207 8.50103E-02
 -1      4208 1.29154E-01
 -1      4209 1.29154E-01
 -1      4210 1.03766E-01
 -1      4211 1.24682E-01
 -1      4212 7.50706E-02
 -1      4213 8.07041E-02
 -1      4214 7.44343E-02
 -1      4215 1.69826E+00
 -1      4216 6.02609E-02
 -1      4217 5.66242E-02
 -1      4218 5.24427E-02
 -1      4219 4.86472E-02
 -1      4220 4.46034E-02
 -1      4221 4.10044E-02
 -1      4222 3.73817E-02
 -1      4223 3.41988E-02
 -1      4224 3.11893E-02
 -1      4225 2.85378E-02
 -1      4226 2.62995E-02
 -1      4227 2.42199E-02
 -1      4228 2.29283E-02
 -1      4229 2.22285E-02
 -1      4230 2.34746E-02
 -1      4231 2.48188E-02
 -1      4232 2.89269E-02
 -1      4233 3.30351E-02
 -1      4234 4.04111E-02
 -1      4235 4.77871E-02
 -1      4236 5.97270E-02
 -1      4237 7.16670E-02
 -1      4238 8.98247E-02
 -1      4239 1.07982E-01
 -1      4240 1.34053E-01
 -1      4241 1.60123E-01
 -1      4242 1.95030E-01
 -1      4243 2.29936E-01
 -1      4244 2.74542E-01
 -1      4245 3.19148E-01
 -1      4246 4.01174E-01
 -1      4247 4.82124E-01
 -1      4248 6.35751E-01
 -1      4249 7.33627E-01
 -1      4250 1.04432E+00
 -1      4251 1.39540E+00
 -1      4252 1.43125E+00
 -1      4253 8.80912E-02
 -1      4254 8.52646E-02
 -1      4255 6.99821E-02
 -1      4256 6.94228E-02
 -1      4257 7.39525E-02
 -1      4258 2.29028E+00
 -1      4259 8.62154E-02
 -1      4260 8.90671E-02
 -1      4261 7.46857E-02
 -1      4262 7.56615E-02
 -1      4263 1.82698E+00
 -1      4264 9.92944E-02
 -1      4265 7.49284E-02
 -1      4266 7.56615E-02
 -1      4267 6.60836E-02
 -1      4268 7.19906E-02
 -1      4269 7.01269E-02
 -1      4270 6.30741E-02
 -1      4271 1.68836E+00
 -1      4272 6.71616E-02
 -1      4273 6.42336E-02
 -1      4274 7.32070E-02
 -1      4275 7.02417E-02
 -1      4276 7.56615E-02
 -1      4277 7.44343E-02
 -1      4278 8.56593E-02
 -1      4279 6.56951E-02
 -1      4280 7.60091E-02
 -1      4281 5.72533E-02
 -1      4282 7.60091E-02
 -1      4283 1.46054E+00
 -3
 9999
