    1C
    1UUSER                                                              
    1UDATE              27.october.2022                                 
    1UTIME              00:33:19                                        
    1UHOST                                                              
    1UPGM               CalculiX                                        
    1UVERSION           Version 2.17                             
    1UCOMPILETIME       Thu Jul 23 21:43:50 CEST 2020                    
    1UDIR                                                               
    1UDBN                                                               
    1UMAT    1SOLIDMATERIAL                                             
    2C                          4251                                     1
 -1         1 1.08745E+02 4.41118E+01 0.00000E+00
 -1         2 1.15706E+02 3.71119E+01 0.00000E+00
 -1         3 1.50000E+02 0.00000E+00 0.00000E+00
 -1         4 1.50000E+02 5.00000E+01 0.00000E+00
 -1         5 0.00000E+00 0.00000E+00 0.00000E+00
 -1         6 0.00000E+00 5.00000E+01 0.00000E+00
 -1         7 0.00000E+00 4.70500E+01 0.00000E+00
 -1         8 0.00000E+00 4.41000E+01 0.00000E+00
 -1         9 0.00000E+00 4.11500E+01 0.00000E+00
 -1        10 0.00000E+00 3.82000E+01 0.00000E+00
 -1        11 0.00000E+00 3.52500E+01 0.00000E+00
 -1        12 0.00000E+00 3.23500E+01 0.00000E+00
 -1        13 0.00000E+00 2.94000E+01 0.00000E+00
 -1        14 0.00000E+00 2.64500E+01 0.00000E+00
 -1        15 0.00000E+00 2.35000E+01 0.00000E+00
 -1        16 0.00000E+00 2.05500E+01 0.00000E+00
 -1        17 0.00000E+00 1.76000E+01 0.00000E+00
 -1        18 0.00000E+00 1.47000E+01 0.00000E+00
 -1        19 0.00000E+00 1.17500E+01 0.00000E+00
 -1        20 0.00000E+00 8.80000E+00 0.00000E+00
 -1        21 0.00000E+00 5.85000E+00 0.00000E+00
 -1        22 0.00000E+00 2.90000E+00 0.00000E+00
 -1        23 3.00000E+00 5.00000E+01 0.00000E+00
 -1        24 6.00000E+00 5.00000E+01 0.00000E+00
 -1        25 9.00000E+00 5.00000E+01 0.00000E+00
 -1        26 1.20000E+01 5.00000E+01 0.00000E+00
 -1        27 1.50000E+01 5.00000E+01 0.00000E+00
 -1        28 1.80000E+01 5.00000E+01 0.00000E+00
 -1        29 2.10000E+01 5.00000E+01 0.00000E+00
 -1        30 2.40000E+01 5.00000E+01 0.00000E+00
 -1        31 2.70000E+01 5.00000E+01 0.00000E+00
 -1        32 3.00000E+01 5.00000E+01 0.00000E+00
 -1        33 3.30000E+01 5.00000E+01 0.00000E+00
 -1        34 3.60000E+01 5.00000E+01 0.00000E+00
 -1        35 3.90000E+01 5.00000E+01 0.00000E+00
 -1        36 4.20000E+01 5.00000E+01 0.00000E+00
 -1        37 4.50000E+01 5.00000E+01 0.00000E+00
 -1        38 4.78500E+01 5.00000E+01 0.00000E+00
 -1        39 5.08500E+01 5.00000E+01 0.00000E+00
 -1        40 5.38500E+01 5.00000E+01 0.00000E+00
 -1        41 5.68500E+01 5.00000E+01 0.00000E+00
 -1        42 5.98500E+01 5.00000E+01 0.00000E+00
 -1        43 6.28500E+01 5.00000E+01 0.00000E+00
 -1        44 6.58500E+01 5.00000E+01 0.00000E+00
 -1        45 6.88500E+01 5.00000E+01 0.00000E+00
 -1        46 7.18500E+01 5.00000E+01 0.00000E+00
 -1        47 7.48500E+01 5.00000E+01 0.00000E+00
 -1        48 7.78500E+01 5.00000E+01 0.00000E+00
 -1        49 8.08500E+01 5.00000E+01 0.00000E+00
 -1        50 8.38500E+01 5.00000E+01 0.00000E+00
 -1        51 8.68500E+01 5.00000E+01 0.00000E+00
 -1        52 8.98500E+01 5.00000E+01 0.00000E+00
 -1        53 9.27000E+01 5.00000E+01 0.00000E+00
 -1        54 9.57000E+01 5.00000E+01 0.00000E+00
 -1        55 9.87000E+01 5.00000E+01 0.00000E+00
 -1        56 1.01550E+02 5.00000E+01 0.00000E+00
 -1        57 1.04550E+02 5.00000E+01 0.00000E+00
 -1        58 1.07250E+02 5.00000E+01 0.00000E+00
 -1        59 1.09650E+02 5.00000E+01 0.00000E+00
 -1        60 1.11900E+02 5.00000E+01 0.00000E+00
 -1        61 1.14450E+02 5.00000E+01 0.00000E+00
 -1        62 1.17450E+02 5.00000E+01 0.00000E+00
 -1        63 1.20300E+02 5.00000E+01 0.00000E+00
 -1        64 1.23150E+02 5.00000E+01 0.00000E+00
 -1        65 1.26150E+02 5.00000E+01 0.00000E+00
 -1        66 1.29150E+02 5.00000E+01 0.00000E+00
 -1        67 1.32150E+02 5.00000E+01 0.00000E+00
 -1        68 1.35150E+02 5.00000E+01 0.00000E+00
 -1        69 1.38150E+02 5.00000E+01 0.00000E+00
 -1        70 1.41150E+02 5.00000E+01 0.00000E+00
 -1        71 1.44150E+02 5.00000E+01 0.00000E+00
 -1        72 1.47150E+02 5.00000E+01 0.00000E+00
 -1        73 3.15000E+00 0.00000E+00 0.00000E+00
 -1        74 6.15000E+00 0.00000E+00 0.00000E+00
 -1        75 9.15000E+00 0.00000E+00 0.00000E+00
 -1        76 1.21500E+01 0.00000E+00 0.00000E+00
 -1        77 1.51500E+01 0.00000E+00 0.00000E+00
 -1        78 1.81500E+01 0.00000E+00 0.00000E+00
 -1        79 2.11500E+01 0.00000E+00 0.00000E+00
 -1        80 2.41500E+01 0.00000E+00 0.00000E+00
 -1        81 2.71500E+01 0.00000E+00 0.00000E+00
 -1        82 3.01500E+01 0.00000E+00 0.00000E+00
 -1        83 3.31500E+01 0.00000E+00 0.00000E+00
 -1        84 3.61500E+01 0.00000E+00 0.00000E+00
 -1        85 3.91500E+01 0.00000E+00 0.00000E+00
 -1        86 4.21500E+01 0.00000E+00 0.00000E+00
 -1        87 4.51500E+01 0.00000E+00 0.00000E+00
 -1        88 4.81500E+01 0.00000E+00 0.00000E+00
 -1        89 5.11500E+01 0.00000E+00 0.00000E+00
 -1        90 5.41500E+01 0.00000E+00 0.00000E+00
 -1        91 5.71500E+01 0.00000E+00 0.00000E+00
 -1        92 6.01500E+01 0.00000E+00 0.00000E+00
 -1        93 6.31500E+01 0.00000E+00 0.00000E+00
 -1        94 6.61500E+01 0.00000E+00 0.00000E+00
 -1        95 6.91500E+01 0.00000E+00 0.00000E+00
 -1        96 7.21500E+01 0.00000E+00 0.00000E+00
 -1        97 7.51500E+01 0.00000E+00 0.00000E+00
 -1        98 7.81500E+01 0.00000E+00 0.00000E+00
 -1        99 8.11500E+01 0.00000E+00 0.00000E+00
 -1       100 8.41500E+01 0.00000E+00 0.00000E+00
 -1       101 8.71500E+01 0.00000E+00 0.00000E+00
 -1       102 9.01500E+01 0.00000E+00 0.00000E+00
 -1       103 9.31500E+01 0.00000E+00 0.00000E+00
 -1       104 9.61500E+01 0.00000E+00 0.00000E+00
 -1       105 9.91500E+01 0.00000E+00 0.00000E+00
 -1       106 1.02150E+02 0.00000E+00 0.00000E+00
 -1       107 1.05150E+02 0.00000E+00 0.00000E+00
 -1       108 1.08150E+02 0.00000E+00 0.00000E+00
 -1       109 1.11150E+02 0.00000E+00 0.00000E+00
 -1       110 1.14150E+02 0.00000E+00 0.00000E+00
 -1       111 1.17150E+02 0.00000E+00 0.00000E+00
 -1       112 1.20150E+02 0.00000E+00 0.00000E+00
 -1       113 1.23150E+02 0.00000E+00 0.00000E+00
 -1       114 1.26150E+02 0.00000E+00 0.00000E+00
 -1       115 1.29150E+02 0.00000E+00 0.00000E+00
 -1       116 1.32150E+02 0.00000E+00 0.00000E+00
 -1       117 1.35150E+02 0.00000E+00 0.00000E+00
 -1       118 1.38150E+02 0.00000E+00 0.00000E+00
 -1       119 1.41150E+02 0.00000E+00 0.00000E+00
 -1       120 1.44150E+02 0.00000E+00 0.00000E+00
 -1       121 1.47150E+02 0.00000E+00 0.00000E+00
 -1       122 1.50000E+02 2.95000E+00 0.00000E+00
 -1       123 1.50000E+02 5.90000E+00 0.00000E+00
 -1       124 1.50000E+02 8.85000E+00 0.00000E+00
 -1       125 1.50000E+02 1.18000E+01 0.00000E+00
 -1       126 1.50000E+02 1.47500E+01 0.00000E+00
 -1       127 1.50000E+02 1.76500E+01 0.00000E+00
 -1       128 1.50000E+02 2.06000E+01 0.00000E+00
 -1       129 1.50000E+02 2.35500E+01 0.00000E+00
 -1       130 1.50000E+02 2.65000E+01 0.00000E+00
 -1       131 1.50000E+02 2.94500E+01 0.00000E+00
 -1       132 1.50000E+02 3.24000E+01 0.00000E+00
 -1       133 1.50000E+02 3.53000E+01 0.00000E+00
 -1       134 1.50000E+02 3.82500E+01 0.00000E+00
 -1       135 1.50000E+02 4.12000E+01 0.00000E+00
 -1       136 1.50000E+02 4.41500E+01 0.00000E+00
 -1       137 1.50000E+02 4.71000E+01 0.00000E+00
 -1       138 1.15537E+02 3.55828E+01 0.00000E+00
 -1       139 1.15085E+02 3.42286E+01 0.00000E+00
 -1       140 1.14349E+02 3.29697E+01 0.00000E+00
 -1       141 1.13171E+02 3.17207E+01 0.00000E+00
 -1       142 1.11978E+02 3.09237E+01 0.00000E+00
 -1       143 1.10660E+02 3.03902E+01 0.00000E+00
 -1       144 1.09269E+02 3.01346E+01 0.00000E+00
 -1       145 1.07715E+02 3.01824E+01 0.00000E+00
 -1       146 1.06287E+02 3.05434E+01 0.00000E+00
 -1       147 1.04915E+02 3.12277E+01 0.00000E+00
 -1       148 1.03731E+02 3.21884E+01 0.00000E+00
 -1       149 1.02787E+02 3.33751E+01 0.00000E+00
 -1       150 1.02139E+02 3.46886E+01 0.00000E+00
 -1       151 1.01774E+02 3.61428E+01 0.00000E+00
 -1       152 1.01725E+02 3.76197E+01 0.00000E+00
 -1       153 1.01966E+02 3.90013E+01 0.00000E+00
 -1       154 1.02496E+02 4.03415E+01 0.00000E+00
 -1       155 1.03273E+02 4.15255E+01 0.00000E+00
 -1       156 1.04344E+02 4.25866E+01 0.00000E+00
 -1       157 1.05727E+02 4.34463E+01 0.00000E+00
 -1       158 1.07282E+02 4.39653E+01 0.00000E+00
 -1       159 1.10097E+02 4.39725E+01 0.00000E+00
 -1       160 1.11514E+02 4.35243E+01 0.00000E+00
 -1       161 1.12692E+02 4.28665E+01 0.00000E+00
 -1       162 1.13747E+02 4.19694E+01 0.00000E+00
 -1       163 1.14581E+02 4.09179E+01 0.00000E+00
 -1       164 1.15190E+02 3.97502E+01 0.00000E+00
 -1       165 1.15576E+02 3.84580E+01 0.00000E+00
 -1       166 2.59800E+00 4.55750E+01 0.00000E+00
 -1       167 2.59800E+00 4.26250E+01 0.00000E+00
 -1       168 2.59800E+00 3.96750E+01 0.00000E+00
 -1       169 2.59800E+00 3.67250E+01 0.00000E+00
 -1       170 2.59800E+00 3.38250E+01 0.00000E+00
 -1       171 2.59800E+00 3.08750E+01 0.00000E+00
 -1       172 2.59800E+00 2.79250E+01 0.00000E+00
 -1       173 2.59800E+00 2.49750E+01 0.00000E+00
 -1       174 2.59800E+00 2.20250E+01 0.00000E+00
 -1       175 2.59800E+00 1.90750E+01 0.00000E+00
 -1       176 2.59800E+00 1.61750E+01 0.00000E+00
 -1       177 2.59800E+00 1.32250E+01 0.00000E+00
 -1       178 2.59800E+00 1.02750E+01 0.00000E+00
 -1       179 2.59800E+00 7.32500E+00 0.00000E+00
 -1       180 2.59800E+00 4.37500E+00 0.00000E+00
 -1       181 2.87400E+00 2.18750E+00 0.00000E+00
 -1       182 4.50000E+00 4.74020E+01 0.00000E+00
 -1       183 7.50000E+00 4.74020E+01 0.00000E+00
 -1       184 1.05000E+01 4.74020E+01 0.00000E+00
 -1       185 1.35000E+01 4.74020E+01 0.00000E+00
 -1       186 1.65000E+01 4.74020E+01 0.00000E+00
 -1       187 1.95000E+01 4.74020E+01 0.00000E+00
 -1       188 2.25000E+01 4.74020E+01 0.00000E+00
 -1       189 2.55000E+01 4.74020E+01 0.00000E+00
 -1       190 2.85000E+01 4.74020E+01 0.00000E+00
 -1       191 3.15000E+01 4.74020E+01 0.00000E+00
 -1       192 3.45000E+01 4.74020E+01 0.00000E+00
 -1       193 3.75000E+01 4.74020E+01 0.00000E+00
 -1       194 4.05000E+01 4.74020E+01 0.00000E+00
 -1       195 4.35000E+01 4.74020E+01 0.00000E+00
 -1       196 4.63500E+01 4.74020E+01 0.00000E+00
 -1       197 4.93500E+01 4.74020E+01 0.00000E+00
 -1       198 5.23500E+01 4.74020E+01 0.00000E+00
 -1       199 5.53500E+01 4.74020E+01 0.00000E+00
 -1       200 5.83500E+01 4.74020E+01 0.00000E+00
 -1       201 6.13500E+01 4.74020E+01 0.00000E+00
 -1       202 6.43500E+01 4.74020E+01 0.00000E+00
 -1       203 6.73500E+01 4.74020E+01 0.00000E+00
 -1       204 7.03500E+01 4.74020E+01 0.00000E+00
 -1       205 7.33500E+01 4.74020E+01 0.00000E+00
 -1       206 7.63500E+01 4.74020E+01 0.00000E+00
 -1       207 7.93500E+01 4.74020E+01 0.00000E+00
 -1       208 8.23500E+01 4.74020E+01 0.00000E+00
 -1       209 8.53500E+01 4.74020E+01 0.00000E+00
 -1       210 8.83500E+01 4.74020E+01 0.00000E+00
 -1       211 9.12000E+01 4.74020E+01 0.00000E+00
 -1       212 9.42000E+01 4.74020E+01 0.00000E+00
 -1       213 9.72000E+01 4.74020E+01 0.00000E+00
 -1       214 1.00050E+02 4.74020E+01 0.00000E+00
 -1       215 1.03050E+02 4.74020E+01 0.00000E+00
 -1       216 1.05750E+02 4.74020E+01 0.00000E+00
 -1       217 1.08150E+02 4.74020E+01 0.00000E+00
 -1       218 1.10400E+02 4.74020E+01 0.00000E+00
 -1       219 1.12950E+02 4.74020E+01 0.00000E+00
 -1       220 1.15950E+02 4.74020E+01 0.00000E+00
 -1       221 1.18800E+02 4.74020E+01 0.00000E+00
 -1       222 1.21650E+02 4.74020E+01 0.00000E+00
 -1       223 1.24650E+02 4.74020E+01 0.00000E+00
 -1       224 1.27650E+02 4.74020E+01 0.00000E+00
 -1       225 1.30650E+02 4.74020E+01 0.00000E+00
 -1       226 1.33650E+02 4.74020E+01 0.00000E+00
 -1       227 1.36650E+02 4.74020E+01 0.00000E+00
 -1       228 1.39650E+02 4.74020E+01 0.00000E+00
 -1       229 1.42650E+02 4.74020E+01 0.00000E+00
 -1       230 1.45650E+02 4.74020E+01 0.00000E+00
 -1       231 5.87400E+00 2.18750E+00 0.00000E+00
 -1       232 8.87400E+00 2.18750E+00 0.00000E+00
 -1       233 1.18740E+01 2.18750E+00 0.00000E+00
 -1       234 1.48740E+01 2.18750E+00 0.00000E+00
 -1       235 1.78740E+01 2.18750E+00 0.00000E+00
 -1       236 2.08740E+01 2.18750E+00 0.00000E+00
 -1       237 2.38740E+01 2.18750E+00 0.00000E+00
 -1       238 2.68740E+01 2.18750E+00 0.00000E+00
 -1       239 2.98740E+01 2.18750E+00 0.00000E+00
 -1       240 3.28740E+01 2.18750E+00 0.00000E+00
 -1       241 3.58740E+01 2.18750E+00 0.00000E+00
 -1       242 3.88740E+01 2.18750E+00 0.00000E+00
 -1       243 4.18740E+01 2.18750E+00 0.00000E+00
 -1       244 4.48740E+01 2.18750E+00 0.00000E+00
 -1       245 4.78740E+01 2.18750E+00 0.00000E+00
 -1       246 5.08740E+01 2.18750E+00 0.00000E+00
 -1       247 5.38740E+01 2.18750E+00 0.00000E+00
 -1       248 5.68740E+01 2.18750E+00 0.00000E+00
 -1       249 5.98740E+01 2.18750E+00 0.00000E+00
 -1       250 6.28740E+01 2.18750E+00 0.00000E+00
 -1       251 6.58740E+01 2.18750E+00 0.00000E+00
 -1       252 6.88740E+01 2.18750E+00 0.00000E+00
 -1       253 7.18740E+01 2.18750E+00 0.00000E+00
 -1       254 7.48740E+01 2.18750E+00 0.00000E+00
 -1       255 7.78740E+01 2.18750E+00 0.00000E+00
 -1       256 8.08740E+01 2.18750E+00 0.00000E+00
 -1       257 8.38740E+01 2.18750E+00 0.00000E+00
 -1       258 8.68740E+01 2.18750E+00 0.00000E+00
 -1       259 8.98740E+01 2.18750E+00 0.00000E+00
 -1       260 9.28740E+01 2.18750E+00 0.00000E+00
 -1       261 9.58740E+01 2.18750E+00 0.00000E+00
 -1       262 9.88740E+01 2.18750E+00 0.00000E+00
 -1       263 1.01874E+02 2.18750E+00 0.00000E+00
 -1       264 1.04874E+02 2.18750E+00 0.00000E+00
 -1       265 1.07874E+02 2.18750E+00 0.00000E+00
 -1       266 1.10874E+02 2.18750E+00 0.00000E+00
 -1       267 1.13874E+02 2.18750E+00 0.00000E+00
 -1       268 1.16874E+02 2.18750E+00 0.00000E+00
 -1       269 1.19874E+02 2.18750E+00 0.00000E+00
 -1       270 1.22874E+02 2.18750E+00 0.00000E+00
 -1       271 1.25874E+02 2.18750E+00 0.00000E+00
 -1       272 1.28874E+02 2.18750E+00 0.00000E+00
 -1       273 1.31874E+02 2.18750E+00 0.00000E+00
 -1       274 1.34874E+02 2.18750E+00 0.00000E+00
 -1       275 1.37874E+02 2.18750E+00 0.00000E+00
 -1       276 1.40874E+02 2.18750E+00 0.00000E+00
 -1       277 1.43874E+02 2.18750E+00 0.00000E+00
 -1       278 1.46874E+02 2.18750E+00 0.00000E+00
 -1       279 1.47402E+02 4.42500E+00 0.00000E+00
 -1       280 1.47402E+02 7.37500E+00 0.00000E+00
 -1       281 1.47402E+02 1.03250E+01 0.00000E+00
 -1       282 1.47402E+02 1.32750E+01 0.00000E+00
 -1       283 1.47402E+02 1.61750E+01 0.00000E+00
 -1       284 1.47402E+02 1.91250E+01 0.00000E+00
 -1       285 1.47402E+02 2.20750E+01 0.00000E+00
 -1       286 1.47402E+02 2.50250E+01 0.00000E+00
 -1       287 1.47402E+02 2.79750E+01 0.00000E+00
 -1       288 1.47402E+02 3.09250E+01 0.00000E+00
 -1       289 1.47402E+02 3.38250E+01 0.00000E+00
 -1       290 1.47402E+02 3.67750E+01 0.00000E+00
 -1       291 1.47402E+02 3.97250E+01 0.00000E+00
 -1       292 1.47402E+02 4.26750E+01 0.00000E+00
 -1       293 1.16993E+02 3.61957E+01 0.00000E+00
 -1       294 1.16461E+02 3.45216E+01 0.00000E+00
 -1       295 1.15836E+02 3.29451E+01 0.00000E+00
 -1       296 1.14947E+02 3.12259E+01 0.00000E+00
 -1       297 1.13248E+02 3.03141E+01 0.00000E+00
 -1       298 1.11806E+02 2.94555E+01 0.00000E+00
 -1       299 1.10184E+02 2.90699E+01 0.00000E+00
 -1       300 1.08450E+02 2.87792E+01 0.00000E+00
 -1       301 1.06684E+02 2.91062E+01 0.00000E+00
 -1       302 1.05022E+02 2.97257E+01 0.00000E+00
 -1       303 1.03559E+02 3.07665E+01 0.00000E+00
 -1       304 1.02310E+02 3.20273E+01 0.00000E+00
 -1       305 1.01376E+02 3.34954E+01 0.00000E+00
 -1       306 1.00699E+02 3.50998E+01 0.00000E+00
 -1       307 1.00454E+02 3.68383E+01 0.00000E+00
 -1       308 1.00651E+02 3.85191E+01 0.00000E+00
 -1       309 1.01026E+02 4.01478E+01 0.00000E+00
 -1       310 1.01871E+02 4.15988E+01 0.00000E+00
 -1       311 1.02956E+02 4.29174E+01 0.00000E+00
 -1       312 1.04307E+02 4.41884E+01 0.00000E+00
 -1       313 1.06041E+02 4.50942E+01 0.00000E+00
 -1       314 1.07884E+02 4.53283E+01 0.00000E+00
 -1       315 1.09545E+02 4.52481E+01 0.00000E+00
 -1       316 1.11221E+02 4.50641E+01 0.00000E+00
 -1       317 1.12694E+02 4.42540E+01 0.00000E+00
 -1       318 1.14113E+02 4.34691E+01 0.00000E+00
 -1       319 1.14948E+02 4.24176E+01 0.00000E+00
 -1       320 1.15961E+02 4.08946E+01 0.00000E+00
 -1       321 1.16545E+02 3.94508E+01 0.00000E+00
 -1       322 1.16848E+02 3.79021E+01 0.00000E+00
 -1       323 1.47402E+02 4.56250E+01 0.00000E+00
 -1       324 5.19600E+00 4.11500E+01 0.00000E+00
 -1       325 5.19600E+00 4.41000E+01 0.00000E+00
 -1       326 5.19600E+00 3.52750E+01 0.00000E+00
 -1       327 5.19600E+00 3.23250E+01 0.00000E+00
 -1       328 5.19600E+00 2.93750E+01 0.00000E+00
 -1       329 5.19600E+00 2.64250E+01 0.00000E+00
 -1       330 5.19600E+00 2.34750E+01 0.00000E+00
 -1       331 5.19600E+00 2.05250E+01 0.00000E+00
 -1       332 5.19600E+00 1.76250E+01 0.00000E+00
 -1       333 5.19600E+00 1.46750E+01 0.00000E+00
 -1       334 5.19600E+00 1.17250E+01 0.00000E+00
 -1       335 5.19600E+00 8.77500E+00 0.00000E+00
 -1       336 5.19600E+00 5.82500E+00 0.00000E+00
 -1       337 5.53500E+00 4.00625E+00 0.00000E+00
 -1       338 8.53500E+00 4.00625E+00 0.00000E+00
 -1       339 1.16603E+02 4.24203E+01 0.00000E+00
 -1       340 9.00000E+00 4.48040E+01 0.00000E+00
 -1       341 1.20000E+01 4.48040E+01 0.00000E+00
 -1       342 1.50000E+01 4.48040E+01 0.00000E+00
 -1       343 1.80000E+01 4.48040E+01 0.00000E+00
 -1       344 2.10000E+01 4.48040E+01 0.00000E+00
 -1       345 2.40000E+01 4.48040E+01 0.00000E+00
 -1       346 2.70000E+01 4.48040E+01 0.00000E+00
 -1       347 3.00000E+01 4.48040E+01 0.00000E+00
 -1       348 3.30000E+01 4.48040E+01 0.00000E+00
 -1       349 3.60000E+01 4.48040E+01 0.00000E+00
 -1       350 3.90000E+01 4.48040E+01 0.00000E+00
 -1       351 4.20000E+01 4.48040E+01 0.00000E+00
 -1       352 4.48500E+01 4.48040E+01 0.00000E+00
 -1       353 4.78500E+01 4.48040E+01 0.00000E+00
 -1       354 5.08500E+01 4.48040E+01 0.00000E+00
 -1       355 5.38500E+01 4.48040E+01 0.00000E+00
 -1       356 5.68500E+01 4.48040E+01 0.00000E+00
 -1       357 5.98500E+01 4.48040E+01 0.00000E+00
 -1       358 6.28500E+01 4.48040E+01 0.00000E+00
 -1       359 6.58500E+01 4.48040E+01 0.00000E+00
 -1       360 6.88500E+01 4.48040E+01 0.00000E+00
 -1       361 7.18500E+01 4.48040E+01 0.00000E+00
 -1       362 7.48500E+01 4.48040E+01 0.00000E+00
 -1       363 7.78500E+01 4.48040E+01 0.00000E+00
 -1       364 8.08500E+01 4.48040E+01 0.00000E+00
 -1       365 8.38500E+01 4.48040E+01 0.00000E+00
 -1       366 8.68500E+01 4.48040E+01 0.00000E+00
 -1       367 8.97000E+01 4.48040E+01 0.00000E+00
 -1       368 9.27000E+01 4.48040E+01 0.00000E+00
 -1       369 9.57000E+01 4.48040E+01 0.00000E+00
 -1       370 9.85500E+01 4.48040E+01 0.00000E+00
 -1       371 1.14450E+02 4.53517E+01 0.00000E+00
 -1       372 1.17375E+02 4.50166E+01 0.00000E+00
 -1       373 1.20225E+02 4.50166E+01 0.00000E+00
 -1       374 1.23225E+02 4.50166E+01 0.00000E+00
 -1       375 1.26225E+02 4.50166E+01 0.00000E+00
 -1       376 1.29225E+02 4.50166E+01 0.00000E+00
 -1       377 1.32225E+02 4.50166E+01 0.00000E+00
 -1       378 1.35225E+02 4.50166E+01 0.00000E+00
 -1       379 1.38225E+02 4.50166E+01 0.00000E+00
 -1       380 1.41225E+02 4.50166E+01 0.00000E+00
 -1       381 1.44225E+02 4.50166E+01 0.00000E+00
 -1       382 1.15350E+01 4.00625E+00 0.00000E+00
 -1       383 1.17665E+02 3.31322E+01 0.00000E+00
 -1       384 1.45350E+01 4.00625E+00 0.00000E+00
 -1       385 1.75350E+01 4.00625E+00 0.00000E+00
 -1       386 2.05350E+01 4.00625E+00 0.00000E+00
 -1       387 2.35350E+01 4.00625E+00 0.00000E+00
 -1       388 2.65350E+01 4.00625E+00 0.00000E+00
 -1       389 2.95350E+01 4.00625E+00 0.00000E+00
 -1       390 3.25350E+01 4.00625E+00 0.00000E+00
 -1       391 3.55350E+01 4.00625E+00 0.00000E+00
 -1       392 3.85350E+01 4.00625E+00 0.00000E+00
 -1       393 4.15350E+01 4.00625E+00 0.00000E+00
 -1       394 4.45350E+01 4.00625E+00 0.00000E+00
 -1       395 4.75350E+01 4.00625E+00 0.00000E+00
 -1       396 5.05350E+01 4.00625E+00 0.00000E+00
 -1       397 5.35350E+01 4.00625E+00 0.00000E+00
 -1       398 5.65350E+01 4.00625E+00 0.00000E+00
 -1       399 5.95350E+01 4.00625E+00 0.00000E+00
 -1       400 6.25350E+01 4.00625E+00 0.00000E+00
 -1       401 6.55350E+01 4.00625E+00 0.00000E+00
 -1       402 6.85350E+01 4.00625E+00 0.00000E+00
 -1       403 7.15350E+01 4.00625E+00 0.00000E+00
 -1       404 7.45350E+01 4.00625E+00 0.00000E+00
 -1       405 7.75350E+01 4.00625E+00 0.00000E+00
 -1       406 8.05350E+01 4.00625E+00 0.00000E+00
 -1       407 8.35350E+01 4.00625E+00 0.00000E+00
 -1       408 8.65350E+01 4.00625E+00 0.00000E+00
 -1       409 8.95350E+01 4.00625E+00 0.00000E+00
 -1       410 9.25350E+01 4.00625E+00 0.00000E+00
 -1       411 9.55350E+01 4.00625E+00 0.00000E+00
 -1       412 9.85350E+01 4.00625E+00 0.00000E+00
 -1       413 1.01535E+02 4.00625E+00 0.00000E+00
 -1       414 1.04535E+02 4.00625E+00 0.00000E+00
 -1       415 1.07535E+02 4.00625E+00 0.00000E+00
 -1       416 1.10535E+02 4.00625E+00 0.00000E+00
 -1       417 1.13535E+02 4.00625E+00 0.00000E+00
 -1       418 1.16535E+02 4.00625E+00 0.00000E+00
 -1       419 1.19535E+02 4.00625E+00 0.00000E+00
 -1       420 1.22535E+02 4.00625E+00 0.00000E+00
 -1       421 1.25535E+02 4.00625E+00 0.00000E+00
 -1       422 1.28535E+02 4.00625E+00 0.00000E+00
 -1       423 1.31535E+02 4.00625E+00 0.00000E+00
 -1       424 1.34535E+02 4.00625E+00 0.00000E+00
 -1       425 1.37535E+02 4.00625E+00 0.00000E+00
 -1       426 1.40535E+02 4.00625E+00 0.00000E+00
 -1       427 1.43535E+02 4.00625E+00 0.00000E+00
 -1       428 1.45469E+02 4.21562E+00 0.00000E+00
 -1       429 1.44804E+02 1.18000E+01 0.00000E+00
 -1       430 1.44804E+02 8.85000E+00 0.00000E+00
 -1       431 1.45136E+02 6.53281E+00 0.00000E+00
 -1       432 1.44804E+02 1.47000E+01 0.00000E+00
 -1       433 1.44804E+02 1.76500E+01 0.00000E+00
 -1       434 1.44804E+02 2.06000E+01 0.00000E+00
 -1       435 1.44804E+02 2.35500E+01 0.00000E+00
 -1       436 1.44804E+02 2.65000E+01 0.00000E+00
 -1       437 1.44804E+02 2.94500E+01 0.00000E+00
 -1       438 1.44804E+02 3.23500E+01 0.00000E+00
 -1       439 1.44804E+02 3.53000E+01 0.00000E+00
 -1       440 1.44804E+02 3.82500E+01 0.00000E+00
 -1       441 1.44804E+02 4.12000E+01 0.00000E+00
 -1       442 1.16776E+02 3.14130E+01 0.00000E+00
 -1       443 1.18296E+02 3.71663E+01 0.00000E+00
 -1       444 1.15769E+02 4.34718E+01 0.00000E+00
 -1       445 1.17968E+02 3.89253E+01 0.00000E+00
 -1       446 5.19600E+00 3.82125E+01 0.00000E+00
 -1       447 1.14750E+02 2.95541E+01 0.00000E+00
 -1       448 1.13308E+02 2.86955E+01 0.00000E+00
 -1       449 1.11314E+02 2.79201E+01 0.00000E+00
 -1       450 1.09559E+02 2.74810E+01 0.00000E+00
 -1       451 1.07285E+02 2.74210E+01 0.00000E+00
 -1       452 1.05400E+02 2.82014E+01 0.00000E+00
 -1       453 1.03491E+02 2.91216E+01 0.00000E+00
 -1       454 1.01835E+02 3.03078E+01 0.00000E+00
 -1       455 1.00749E+02 3.20657E+01 0.00000E+00
 -1       456 9.98434E+01 3.37939E+01 0.00000E+00
 -1       457 9.90443E+01 3.57526E+01 0.00000E+00
 -1       458 9.89324E+01 3.78690E+01 0.00000E+00
 -1       459 9.95752E+01 3.96239E+01 0.00000E+00
 -1       460 9.99664E+01 4.17368E+01 0.00000E+00
 -1       461 1.01283E+02 4.31879E+01 0.00000E+00
 -1       462 1.02457E+02 4.48024E+01 0.00000E+00
 -1       463 1.04419E+02 4.60872E+01 0.00000E+00
 -1       464 1.17532E+02 4.06901E+01 0.00000E+00
 -1       465 1.18198E+02 3.48064E+01 0.00000E+00
 -1       466 1.16579E+02 2.97412E+01 0.00000E+00
 -1       467 7.79400E+00 3.08500E+01 0.00000E+00
 -1       468 7.79400E+00 3.38000E+01 0.00000E+00
 -1       469 7.79400E+00 2.49500E+01 0.00000E+00
 -1       470 7.79400E+00 2.20000E+01 0.00000E+00
 -1       471 7.79400E+00 1.91000E+01 0.00000E+00
 -1       472 7.79400E+00 1.61500E+01 0.00000E+00
 -1       473 7.79400E+00 1.32000E+01 0.00000E+00
 -1       474 7.79400E+00 1.02500E+01 0.00000E+00
 -1       475 7.79400E+00 7.30000E+00 0.00000E+00
 -1       476 8.16450E+00 5.65312E+00 0.00000E+00
 -1       477 1.19415E+02 4.02194E+01 0.00000E+00
 -1       478 1.05000E+01 4.22060E+01 0.00000E+00
 -1       479 1.35000E+01 4.22060E+01 0.00000E+00
 -1       480 1.65000E+01 4.22060E+01 0.00000E+00
 -1       481 1.95000E+01 4.22060E+01 0.00000E+00
 -1       482 2.25000E+01 4.22060E+01 0.00000E+00
 -1       483 2.55000E+01 4.22060E+01 0.00000E+00
 -1       484 2.85000E+01 4.22060E+01 0.00000E+00
 -1       485 3.15000E+01 4.22060E+01 0.00000E+00
 -1       486 3.45000E+01 4.22060E+01 0.00000E+00
 -1       487 3.75000E+01 4.22060E+01 0.00000E+00
 -1       488 4.05000E+01 4.22060E+01 0.00000E+00
 -1       489 4.33500E+01 4.22060E+01 0.00000E+00
 -1       490 4.63500E+01 4.22060E+01 0.00000E+00
 -1       491 4.93500E+01 4.22060E+01 0.00000E+00
 -1       492 5.23500E+01 4.22060E+01 0.00000E+00
 -1       493 5.53500E+01 4.22060E+01 0.00000E+00
 -1       494 5.83500E+01 4.22060E+01 0.00000E+00
 -1       495 6.13500E+01 4.22060E+01 0.00000E+00
 -1       496 6.43500E+01 4.22060E+01 0.00000E+00
 -1       497 6.73500E+01 4.22060E+01 0.00000E+00
 -1       498 7.03500E+01 4.22060E+01 0.00000E+00
 -1       499 7.33500E+01 4.22060E+01 0.00000E+00
 -1       500 7.63500E+01 4.22060E+01 0.00000E+00
 -1       501 7.93500E+01 4.22060E+01 0.00000E+00
 -1       502 8.23500E+01 4.22060E+01 0.00000E+00
 -1       503 8.53500E+01 4.22060E+01 0.00000E+00
 -1       504 8.82000E+01 4.22060E+01 0.00000E+00
 -1       505 9.12000E+01 4.22060E+01 0.00000E+00
 -1       506 9.42000E+01 4.22060E+01 0.00000E+00
 -1       507 9.70500E+01 4.22060E+01 0.00000E+00
 -1       508 1.19742E+02 3.84603E+01 0.00000E+00
 -1       509 1.11645E+01 5.65312E+00 0.00000E+00
 -1       510 1.21725E+02 4.29663E+01 0.00000E+00
 -1       511 1.24725E+02 4.27988E+01 0.00000E+00
 -1       512 1.27725E+02 4.27988E+01 0.00000E+00
 -1       513 1.30725E+02 4.27988E+01 0.00000E+00
 -1       514 1.33725E+02 4.27988E+01 0.00000E+00
 -1       515 1.36725E+02 4.27988E+01 0.00000E+00
 -1       516 1.39725E+02 4.27988E+01 0.00000E+00
 -1       517 1.42264E+02 4.19994E+01 0.00000E+00
 -1       518 1.60350E+01 6.60425E+00 0.00000E+00
 -1       519 1.35997E+01 6.12869E+00 0.00000E+00
 -1       520 2.20350E+01 6.60425E+00 0.00000E+00
 -1       521 2.50350E+01 6.60425E+00 0.00000E+00
 -1       522 2.80350E+01 6.60425E+00 0.00000E+00
 -1       523 3.10350E+01 6.60425E+00 0.00000E+00
 -1       524 3.40350E+01 6.60425E+00 0.00000E+00
 -1       525 3.70350E+01 6.60425E+00 0.00000E+00
 -1       526 4.00350E+01 6.60425E+00 0.00000E+00
 -1       527 4.30350E+01 6.60425E+00 0.00000E+00
 -1       528 4.60350E+01 6.60425E+00 0.00000E+00
 -1       529 4.90350E+01 6.60425E+00 0.00000E+00
 -1       530 5.20350E+01 6.60425E+00 0.00000E+00
 -1       531 5.50350E+01 6.60425E+00 0.00000E+00
 -1       532 5.80350E+01 6.60425E+00 0.00000E+00
 -1       533 6.10350E+01 6.60425E+00 0.00000E+00
 -1       534 6.40350E+01 6.60425E+00 0.00000E+00
 -1       535 6.70350E+01 6.60425E+00 0.00000E+00
 -1       536 7.00350E+01 6.60425E+00 0.00000E+00
 -1       537 7.30350E+01 6.60425E+00 0.00000E+00
 -1       538 7.60350E+01 6.60425E+00 0.00000E+00
 -1       539 7.90350E+01 6.60425E+00 0.00000E+00
 -1       540 8.20350E+01 6.60425E+00 0.00000E+00
 -1       541 8.50350E+01 6.60425E+00 0.00000E+00
 -1       542 8.80350E+01 6.60425E+00 0.00000E+00
 -1       543 9.10350E+01 6.60425E+00 0.00000E+00
 -1       544 9.40350E+01 6.60425E+00 0.00000E+00
 -1       545 9.70350E+01 6.60425E+00 0.00000E+00
 -1       546 1.00035E+02 6.60425E+00 0.00000E+00
 -1       547 1.03035E+02 6.60425E+00 0.00000E+00
 -1       548 1.06035E+02 6.60425E+00 0.00000E+00
 -1       549 1.09035E+02 6.60425E+00 0.00000E+00
 -1       550 1.12035E+02 6.60425E+00 0.00000E+00
 -1       551 1.15035E+02 6.60425E+00 0.00000E+00
 -1       552 1.18035E+02 6.60425E+00 0.00000E+00
 -1       553 1.21035E+02 6.60425E+00 0.00000E+00
 -1       554 1.24035E+02 6.60425E+00 0.00000E+00
 -1       555 1.27035E+02 6.60425E+00 0.00000E+00
 -1       556 1.30035E+02 6.60425E+00 0.00000E+00
 -1       557 1.33035E+02 6.60425E+00 0.00000E+00
 -1       558 1.36035E+02 6.60425E+00 0.00000E+00
 -1       559 1.39035E+02 6.60425E+00 0.00000E+00
 -1       560 1.42035E+02 6.60425E+00 0.00000E+00
 -1       561 1.42206E+02 1.61750E+01 0.00000E+00
 -1       562 1.42206E+02 1.91250E+01 0.00000E+00
 -1       563 1.42206E+02 1.03250E+01 0.00000E+00
 -1       564 1.42206E+02 1.32500E+01 0.00000E+00
 -1       565 1.42206E+02 2.20750E+01 0.00000E+00
 -1       566 1.42206E+02 2.50250E+01 0.00000E+00
 -1       567 1.42206E+02 2.79750E+01 0.00000E+00
 -1       568 1.42206E+02 3.08750E+01 0.00000E+00
 -1       569 1.42206E+02 3.38250E+01 0.00000E+00
 -1       570 1.42206E+02 3.67750E+01 0.00000E+00
 -1       571 1.42235E+02 3.93872E+01 0.00000E+00
 -1       572 1.18893E+02 3.14077E+01 0.00000E+00
 -1       573 1.08465E+02 2.58202E+01 0.00000E+00
 -1       574 1.19425E+02 3.30818E+01 0.00000E+00
 -1       575 1.90350E+01 6.60425E+00 0.00000E+00
 -1       576 1.18800E+02 4.33015E+01 0.00000E+00
 -1       577 7.84800E+00 4.16780E+01 0.00000E+00
 -1       578 1.18431E+02 4.22871E+01 0.00000E+00
 -1       579 7.79400E+00 2.79000E+01 0.00000E+00
 -1       580 1.14778E+02 2.78670E+01 0.00000E+00
 -1       581 1.12811E+02 2.70217E+01 0.00000E+00
 -1       582 1.05686E+02 2.62266E+01 0.00000E+00
 -1       583 1.03701E+02 2.71164E+01 0.00000E+00
 -1       584 1.01566E+02 2.81842E+01 0.00000E+00
 -1       585 9.98328E+01 3.02855E+01 0.00000E+00
 -1       586 9.89270E+01 3.20138E+01 0.00000E+00
 -1       587 9.80886E+01 3.42203E+01 0.00000E+00
 -1       588 9.72756E+01 3.67201E+01 0.00000E+00
 -1       589 9.78793E+01 3.92499E+01 0.00000E+00
 -1       590 9.94163E+01 4.35584E+01 0.00000E+00
 -1       591 1.10792E+02 2.62806E+01 0.00000E+00
 -1       592 1.19960E+02 3.59151E+01 0.00000E+00
 -1       593 7.79400E+00 3.67375E+01 0.00000E+00
 -1       594 1.16607E+02 2.80541E+01 0.00000E+00
 -1       595 1.18696E+02 2.97359E+01 0.00000E+00
 -1       596 7.82100E+00 3.92077E+01 0.00000E+00
 -1       597 9.79196E+01 4.10231E+01 0.00000E+00
 -1       598 1.03920E+01 2.05500E+01 0.00000E+00
 -1       599 1.03920E+01 2.35000E+01 0.00000E+00
 -1       600 1.03920E+01 1.46750E+01 0.00000E+00
 -1       601 1.03920E+01 1.17250E+01 0.00000E+00
 -1       602 1.03920E+01 8.77500E+00 0.00000E+00
 -1       603 1.07782E+01 7.21406E+00 0.00000E+00
 -1       604 1.03920E+01 3.23250E+01 0.00000E+00
 -1       605 1.50000E+01 3.96080E+01 0.00000E+00
 -1       606 1.80000E+01 3.96080E+01 0.00000E+00
 -1       607 2.10000E+01 3.96080E+01 0.00000E+00
 -1       608 2.40000E+01 3.96080E+01 0.00000E+00
 -1       609 2.70000E+01 3.96080E+01 0.00000E+00
 -1       610 3.00000E+01 3.96080E+01 0.00000E+00
 -1       611 3.30000E+01 3.96080E+01 0.00000E+00
 -1       612 3.60000E+01 3.96080E+01 0.00000E+00
 -1       613 3.90000E+01 3.96080E+01 0.00000E+00
 -1       614 4.18500E+01 3.96080E+01 0.00000E+00
 -1       615 4.48500E+01 3.96080E+01 0.00000E+00
 -1       616 4.78500E+01 3.96080E+01 0.00000E+00
 -1       617 5.08500E+01 3.96080E+01 0.00000E+00
 -1       618 5.38500E+01 3.96080E+01 0.00000E+00
 -1       619 5.68500E+01 3.96080E+01 0.00000E+00
 -1       620 5.98500E+01 3.96080E+01 0.00000E+00
 -1       621 6.28500E+01 3.96080E+01 0.00000E+00
 -1       622 6.58500E+01 3.96080E+01 0.00000E+00
 -1       623 6.88500E+01 3.96080E+01 0.00000E+00
 -1       624 7.18500E+01 3.96080E+01 0.00000E+00
 -1       625 7.48500E+01 3.96080E+01 0.00000E+00
 -1       626 7.78500E+01 3.96080E+01 0.00000E+00
 -1       627 8.08500E+01 3.96080E+01 0.00000E+00
 -1       628 8.38500E+01 3.96080E+01 0.00000E+00
 -1       629 8.67000E+01 3.96080E+01 0.00000E+00
 -1       630 8.97000E+01 3.96080E+01 0.00000E+00
 -1       631 9.27000E+01 3.96080E+01 0.00000E+00
 -1       632 2.65350E+01 9.20225E+00 0.00000E+00
 -1       633 1.29225E+02 4.02458E+01 0.00000E+00
 -1       634 1.32225E+02 4.02458E+01 0.00000E+00
 -1       635 1.35225E+02 4.02458E+01 0.00000E+00
 -1       636 1.38225E+02 4.02458E+01 0.00000E+00
 -1       637 1.40230E+02 3.98165E+01 0.00000E+00
 -1       638 2.95350E+01 9.20225E+00 0.00000E+00
 -1       639 2.35350E+01 9.20225E+00 0.00000E+00
 -1       640 3.25350E+01 9.20225E+00 0.00000E+00
 -1       641 3.55350E+01 9.20225E+00 0.00000E+00
 -1       642 3.85350E+01 9.20225E+00 0.00000E+00
 -1       643 4.15350E+01 9.20225E+00 0.00000E+00
 -1       644 4.45350E+01 9.20225E+00 0.00000E+00
 -1       645 4.75350E+01 9.20225E+00 0.00000E+00
 -1       646 5.05350E+01 9.20225E+00 0.00000E+00
 -1       647 5.35350E+01 9.20225E+00 0.00000E+00
 -1       648 5.65350E+01 9.20225E+00 0.00000E+00
 -1       649 5.95350E+01 9.20225E+00 0.00000E+00
 -1       650 6.25350E+01 9.20225E+00 0.00000E+00
 -1       651 6.55350E+01 9.20225E+00 0.00000E+00
 -1       652 6.85350E+01 9.20225E+00 0.00000E+00
 -1       653 7.15350E+01 9.20225E+00 0.00000E+00
 -1       654 7.45350E+01 9.20225E+00 0.00000E+00
 -1       655 7.75350E+01 9.20225E+00 0.00000E+00
 -1       656 8.05350E+01 9.20225E+00 0.00000E+00
 -1       657 8.35350E+01 9.20225E+00 0.00000E+00
 -1       658 8.65350E+01 9.20225E+00 0.00000E+00
 -1       659 8.95350E+01 9.20225E+00 0.00000E+00
 -1       660 9.25350E+01 9.20225E+00 0.00000E+00
 -1       661 9.55350E+01 9.20225E+00 0.00000E+00
 -1       662 9.85350E+01 9.20225E+00 0.00000E+00
 -1       663 1.01535E+02 9.20225E+00 0.00000E+00
 -1       664 1.04535E+02 9.20225E+00 0.00000E+00
 -1       665 1.07535E+02 9.20225E+00 0.00000E+00
 -1       666 1.10535E+02 9.20225E+00 0.00000E+00
 -1       667 1.13535E+02 9.20225E+00 0.00000E+00
 -1       668 1.16535E+02 9.20225E+00 0.00000E+00
 -1       669 1.19535E+02 9.20225E+00 0.00000E+00
 -1       670 1.22535E+02 9.20225E+00 0.00000E+00
 -1       671 1.25535E+02 9.20225E+00 0.00000E+00
 -1       672 1.28535E+02 9.20225E+00 0.00000E+00
 -1       673 1.31535E+02 9.20225E+00 0.00000E+00
 -1       674 1.34535E+02 9.20225E+00 0.00000E+00
 -1       675 1.37535E+02 9.20225E+00 0.00000E+00
 -1       676 1.39870E+02 9.76363E+00 0.00000E+00
 -1       677 1.39608E+02 2.35500E+01 0.00000E+00
 -1       678 1.39608E+02 1.76500E+01 0.00000E+00
 -1       679 1.39608E+02 2.65000E+01 0.00000E+00
 -1       680 1.39608E+02 2.06000E+01 0.00000E+00
 -1       681 1.21113E+02 3.16234E+01 0.00000E+00
 -1       682 1.39608E+02 2.94000E+01 0.00000E+00
 -1       683 1.39608E+02 3.23500E+01 0.00000E+00
 -1       684 1.39608E+02 3.53000E+01 0.00000E+00
 -1       685 1.21894E+02 3.73625E+01 0.00000E+00
 -1       686 1.23111E+02 4.08355E+01 0.00000E+00
 -1       687 9.91180E+01 2.79301E+01 0.00000E+00
 -1       688 1.04730E+01 3.97357E+01 0.00000E+00
 -1       689 1.06803E+02 2.41605E+01 0.00000E+00
 -1       690 1.26225E+02 4.02458E+01 0.00000E+00
 -1       691 1.12392E+02 2.50410E+01 0.00000E+00
 -1       692 1.27365E+01 3.96719E+01 0.00000E+00
 -1       693 1.03920E+01 1.76125E+01 0.00000E+00
 -1       694 1.09994E+02 2.42035E+01 0.00000E+00
 -1       695 1.21543E+02 3.41491E+01 0.00000E+00
 -1       696 1.03787E+02 2.46476E+01 0.00000E+00
 -1       697 1.01652E+02 2.57154E+01 0.00000E+00
 -1       698 9.77124E+01 3.02756E+01 0.00000E+00
 -1       699 9.68740E+01 3.24822E+01 0.00000E+00
 -1       700 9.58917E+01 3.48880E+01 0.00000E+00
 -1       701 9.55832E+01 3.84609E+01 0.00000E+00
 -1       702 1.21100E+02 3.96229E+01 0.00000E+00
 -1       703 1.14439E+02 2.59456E+01 0.00000E+00
 -1       704 1.03920E+01 3.52625E+01 0.00000E+00
 -1       705 1.03920E+01 2.64500E+01 0.00000E+00
 -1       706 9.52256E+01 3.98819E+01 0.00000E+00
 -1       707 1.16268E+02 2.61327E+01 0.00000E+00
 -1       708 2.05350E+01 9.20225E+00 0.00000E+00
 -1       709 1.20472E+02 4.19902E+01 0.00000E+00
 -1       710 1.75350E+01 9.20225E+00 0.00000E+00
 -1       711 1.20916E+02 2.99517E+01 0.00000E+00
 -1       712 1.43194E+01 8.91630E+00 0.00000E+00
 -1       713 1.39870E+02 1.26886E+01 0.00000E+00
 -1       714 1.39919E+02 3.75583E+01 0.00000E+00
 -1       715 1.39739E+02 1.51693E+01 0.00000E+00
 -1       716 1.03920E+01 2.93875E+01 0.00000E+00
 -1       717 9.41993E+01 3.66288E+01 0.00000E+00
 -1       718 9.30577E+01 3.81871E+01 0.00000E+00
 -1       719 1.29900E+01 1.02500E+01 0.00000E+00
 -1       720 1.29900E+01 1.32000E+01 0.00000E+00
 -1       721 3.10350E+01 1.18003E+01 0.00000E+00
 -1       722 1.95000E+01 3.70100E+01 0.00000E+00
 -1       723 2.25000E+01 3.70100E+01 0.00000E+00
 -1       724 2.55000E+01 3.70100E+01 0.00000E+00
 -1       725 2.85000E+01 3.70100E+01 0.00000E+00
 -1       726 3.15000E+01 3.70100E+01 0.00000E+00
 -1       727 3.45000E+01 3.70100E+01 0.00000E+00
 -1       728 3.75000E+01 3.70100E+01 0.00000E+00
 -1       729 4.03500E+01 3.70100E+01 0.00000E+00
 -1       730 4.33500E+01 3.70100E+01 0.00000E+00
 -1       731 4.63500E+01 3.70100E+01 0.00000E+00
 -1       732 4.93500E+01 3.70100E+01 0.00000E+00
 -1       733 5.23500E+01 3.70100E+01 0.00000E+00
 -1       734 5.53500E+01 3.70100E+01 0.00000E+00
 -1       735 5.83500E+01 3.70100E+01 0.00000E+00
 -1       736 6.13500E+01 3.70100E+01 0.00000E+00
 -1       737 6.43500E+01 3.70100E+01 0.00000E+00
 -1       738 6.73500E+01 3.70100E+01 0.00000E+00
 -1       739 7.03500E+01 3.70100E+01 0.00000E+00
 -1       740 7.33500E+01 3.70100E+01 0.00000E+00
 -1       741 7.63500E+01 3.70100E+01 0.00000E+00
 -1       742 7.93500E+01 3.70100E+01 0.00000E+00
 -1       743 8.23500E+01 3.70100E+01 0.00000E+00
 -1       744 8.52000E+01 3.70100E+01 0.00000E+00
 -1       745 8.82000E+01 3.70100E+01 0.00000E+00
 -1       746 2.80350E+01 1.18003E+01 0.00000E+00
 -1       747 1.33725E+02 3.76478E+01 0.00000E+00
 -1       748 1.36725E+02 3.76478E+01 0.00000E+00
 -1       749 1.37010E+02 3.08750E+01 0.00000E+00
 -1       750 2.50350E+01 1.18003E+01 0.00000E+00
 -1       751 3.70350E+01 1.18003E+01 0.00000E+00
 -1       752 4.00350E+01 1.18003E+01 0.00000E+00
 -1       753 4.30350E+01 1.18003E+01 0.00000E+00
 -1       754 4.60350E+01 1.18003E+01 0.00000E+00
 -1       755 4.90350E+01 1.18003E+01 0.00000E+00
 -1       756 5.20350E+01 1.18003E+01 0.00000E+00
 -1       757 5.50350E+01 1.18003E+01 0.00000E+00
 -1       758 5.80350E+01 1.18003E+01 0.00000E+00
 -1       759 6.10350E+01 1.18003E+01 0.00000E+00
 -1       760 6.40350E+01 1.18003E+01 0.00000E+00
 -1       761 6.70350E+01 1.18003E+01 0.00000E+00
 -1       762 7.00350E+01 1.18003E+01 0.00000E+00
 -1       763 7.30350E+01 1.18003E+01 0.00000E+00
 -1       764 7.60350E+01 1.18003E+01 0.00000E+00
 -1       765 7.90350E+01 1.18003E+01 0.00000E+00
 -1       766 8.20350E+01 1.18003E+01 0.00000E+00
 -1       767 8.50350E+01 1.18003E+01 0.00000E+00
 -1       768 8.80350E+01 1.18003E+01 0.00000E+00
 -1       769 9.10350E+01 1.18003E+01 0.00000E+00
 -1       770 9.40350E+01 1.18003E+01 0.00000E+00
 -1       771 9.70350E+01 1.18003E+01 0.00000E+00
 -1       772 1.00035E+02 1.18003E+01 0.00000E+00
 -1       773 1.03035E+02 1.18003E+01 0.00000E+00
 -1       774 1.06035E+02 1.18003E+01 0.00000E+00
 -1       775 1.09035E+02 1.18003E+01 0.00000E+00
 -1       776 1.12035E+02 1.18003E+01 0.00000E+00
 -1       777 1.15035E+02 1.18003E+01 0.00000E+00
 -1       778 1.18035E+02 1.18003E+01 0.00000E+00
 -1       779 1.21035E+02 1.18003E+01 0.00000E+00
 -1       780 1.24035E+02 1.18003E+01 0.00000E+00
 -1       781 1.27035E+02 1.18003E+01 0.00000E+00
 -1       782 1.30035E+02 1.18003E+01 0.00000E+00
 -1       783 1.33035E+02 1.18003E+01 0.00000E+00
 -1       784 1.36035E+02 1.18003E+01 0.00000E+00
 -1       785 1.37953E+02 1.22444E+01 0.00000E+00
 -1       786 1.23905E+02 3.85751E+01 0.00000E+00
 -1       787 1.04968E+02 2.23800E+01 0.00000E+00
 -1       788 1.19042E+02 2.71673E+01 0.00000E+00
 -1       789 1.37010E+02 2.50250E+01 0.00000E+00
 -1       790 1.14312E+02 2.34649E+01 0.00000E+00
 -1       791 1.37010E+02 3.38250E+01 0.00000E+00
 -1       792 1.37010E+02 2.79500E+01 0.00000E+00
 -1       793 1.23757E+02 3.55329E+01 0.00000E+00
 -1       794 3.40350E+01 1.18003E+01 0.00000E+00
 -1       795 1.23514E+02 3.25142E+01 0.00000E+00
 -1       796 1.04325E+01 3.74991E+01 0.00000E+00
 -1       797 1.30725E+02 3.76478E+01 0.00000E+00
 -1       798 1.27725E+02 3.76478E+01 0.00000E+00
 -1       799 1.65000E+01 3.70100E+01 0.00000E+00
 -1       800 9.65129E+01 2.79628E+01 0.00000E+00
 -1       801 9.89257E+01 2.51528E+01 0.00000E+00
 -1       802 9.47950E+01 3.30368E+01 0.00000E+00
 -1       803 1.01727E+02 2.31981E+01 0.00000E+00
 -1       804 1.11914E+02 2.26273E+01 0.00000E+00
 -1       805 9.53766E+01 3.06507E+01 0.00000E+00
 -1       806 1.29900E+01 2.20250E+01 0.00000E+00
 -1       807 1.08422E+02 2.24671E+01 0.00000E+00
 -1       808 1.29900E+01 2.49750E+01 0.00000E+00
 -1       809 1.29900E+01 1.61375E+01 0.00000E+00
 -1       810 2.20350E+01 1.18003E+01 0.00000E+00
 -1       811 9.12000E+01 3.72226E+01 0.00000E+00
 -1       812 1.90350E+01 1.18003E+01 0.00000E+00
 -1       813 1.29900E+01 1.90875E+01 0.00000E+00
 -1       814 1.16141E+02 2.36519E+01 0.00000E+00
 -1       815 1.29900E+01 3.37938E+01 0.00000E+00
 -1       816 1.37010E+02 1.91250E+01 0.00000E+00
 -1       817 1.37010E+02 2.20750E+01 0.00000E+00
 -1       818 1.23318E+02 3.08424E+01 0.00000E+00
 -1       819 1.37141E+02 1.66443E+01 0.00000E+00
 -1       820 1.42365E+01 3.70739E+01 0.00000E+00
 -1       821 1.10342E+02 2.08909E+01 0.00000E+00
 -1       822 9.31026E+01 3.47776E+01 0.00000E+00
 -1       823 1.29900E+01 3.08563E+01 0.00000E+00
 -1       824 1.56971E+01 1.16471E+01 0.00000E+00
 -1       825 9.57824E+01 2.48947E+01 0.00000E+00
 -1       826 2.10000E+01 3.44120E+01 0.00000E+00
 -1       827 2.40000E+01 3.44120E+01 0.00000E+00
 -1       828 2.70000E+01 3.44120E+01 0.00000E+00
 -1       829 3.00000E+01 3.44120E+01 0.00000E+00
 -1       830 3.30000E+01 3.44120E+01 0.00000E+00
 -1       831 3.60000E+01 3.44120E+01 0.00000E+00
 -1       832 3.88500E+01 3.44120E+01 0.00000E+00
 -1       833 4.18500E+01 3.44120E+01 0.00000E+00
 -1       834 4.48500E+01 3.44120E+01 0.00000E+00
 -1       835 4.78500E+01 3.44120E+01 0.00000E+00
 -1       836 5.08500E+01 3.44120E+01 0.00000E+00
 -1       837 5.38500E+01 3.44120E+01 0.00000E+00
 -1       838 5.68500E+01 3.44120E+01 0.00000E+00
 -1       839 5.98500E+01 3.44120E+01 0.00000E+00
 -1       840 6.28500E+01 3.44120E+01 0.00000E+00
 -1       841 6.58500E+01 3.44120E+01 0.00000E+00
 -1       842 6.88500E+01 3.44120E+01 0.00000E+00
 -1       843 7.18500E+01 3.44120E+01 0.00000E+00
 -1       844 7.48500E+01 3.44120E+01 0.00000E+00
 -1       845 7.78500E+01 3.44120E+01 0.00000E+00
 -1       846 8.08500E+01 3.44120E+01 0.00000E+00
 -1       847 8.37000E+01 3.44120E+01 0.00000E+00
 -1       848 8.67000E+01 3.44120E+01 0.00000E+00
 -1       849 2.65350E+01 1.43982E+01 0.00000E+00
 -1       850 1.34010E+02 3.38250E+01 0.00000E+00
 -1       851 1.22134E+02 2.71088E+01 0.00000E+00
 -1       852 2.95350E+01 1.43982E+01 0.00000E+00
 -1       853 1.29225E+02 3.50948E+01 0.00000E+00
 -1       854 4.15350E+01 1.43982E+01 0.00000E+00
 -1       855 3.85350E+01 1.43982E+01 0.00000E+00
 -1       856 4.75350E+01 1.43982E+01 0.00000E+00
 -1       857 5.05350E+01 1.43982E+01 0.00000E+00
 -1       858 5.35350E+01 1.43982E+01 0.00000E+00
 -1       859 5.65350E+01 1.43982E+01 0.00000E+00
 -1       860 5.95350E+01 1.43982E+01 0.00000E+00
 -1       861 6.25350E+01 1.43982E+01 0.00000E+00
 -1       862 6.55350E+01 1.43982E+01 0.00000E+00
 -1       863 6.85350E+01 1.43982E+01 0.00000E+00
 -1       864 7.15350E+01 1.43982E+01 0.00000E+00
 -1       865 7.45350E+01 1.43982E+01 0.00000E+00
 -1       866 7.75350E+01 1.43982E+01 0.00000E+00
 -1       867 8.05350E+01 1.43982E+01 0.00000E+00
 -1       868 8.35350E+01 1.43982E+01 0.00000E+00
 -1       869 8.65350E+01 1.43982E+01 0.00000E+00
 -1       870 8.95350E+01 1.43982E+01 0.00000E+00
 -1       871 9.25350E+01 1.43982E+01 0.00000E+00
 -1       872 9.55350E+01 1.43982E+01 0.00000E+00
 -1       873 9.85350E+01 1.43982E+01 0.00000E+00
 -1       874 1.01535E+02 1.43982E+01 0.00000E+00
 -1       875 1.04535E+02 1.43982E+01 0.00000E+00
 -1       876 1.07535E+02 1.43982E+01 0.00000E+00
 -1       877 1.10535E+02 1.43982E+01 0.00000E+00
 -1       878 1.13535E+02 1.43982E+01 0.00000E+00
 -1       879 1.16535E+02 1.43982E+01 0.00000E+00
 -1       880 1.19535E+02 1.43982E+01 0.00000E+00
 -1       881 1.22535E+02 1.43982E+01 0.00000E+00
 -1       882 1.25535E+02 1.43982E+01 0.00000E+00
 -1       883 1.28535E+02 1.43982E+01 0.00000E+00
 -1       884 1.31535E+02 1.43982E+01 0.00000E+00
 -1       885 1.34535E+02 1.43982E+01 0.00000E+00
 -1       886 1.02764E+02 2.04762E+01 0.00000E+00
 -1       887 3.55350E+01 1.43982E+01 0.00000E+00
 -1       888 1.56971E+01 1.45846E+01 0.00000E+00
 -1       889 1.25846E+02 3.38461E+01 0.00000E+00
 -1       890 1.18916E+02 2.46866E+01 0.00000E+00
 -1       891 1.80000E+01 3.44120E+01 0.00000E+00
 -1       892 9.88397E+01 2.20449E+01 0.00000E+00
 -1       893 1.29900E+01 2.79188E+01 0.00000E+00
 -1       894 1.37547E+02 1.44444E+01 0.00000E+00
 -1       895 3.25350E+01 1.43982E+01 0.00000E+00
 -1       896 1.13789E+02 2.11105E+01 0.00000E+00
 -1       897 9.21513E+01 3.60001E+01 0.00000E+00
 -1       898 9.39020E+01 2.84432E+01 0.00000E+00
 -1       899 9.29311E+01 3.13185E+01 0.00000E+00
 -1       900 4.45350E+01 1.43982E+01 0.00000E+00
 -1       901 8.97000E+01 3.46246E+01 0.00000E+00
 -1       902 1.06747E+02 2.03740E+01 0.00000E+00
 -1       903 1.31617E+02 3.44599E+01 0.00000E+00
 -1       904 2.05350E+01 1.43982E+01 0.00000E+00
 -1       905 1.55880E+01 2.35000E+01 0.00000E+00
 -1       906 2.35350E+01 1.43982E+01 0.00000E+00
 -1       907 1.15618E+02 2.12975E+01 0.00000E+00
 -1       908 1.22008E+02 2.46281E+01 0.00000E+00
 -1       909 1.34412E+02 2.06000E+01 0.00000E+00
 -1       910 1.34412E+02 2.64875E+01 0.00000E+00
 -1       911 1.52535E+01 3.37299E+01 0.00000E+00
 -1       912 1.55880E+01 2.05625E+01 0.00000E+00
 -1       913 1.34412E+02 2.35438E+01 0.00000E+00
 -1       914 1.34543E+02 1.81193E+01 0.00000E+00
 -1       915 1.33688E+02 3.04976E+01 0.00000E+00
 -1       916 1.25649E+02 3.21743E+01 0.00000E+00
 -1       917 1.12217E+02 1.93740E+01 0.00000E+00
 -1       918 1.04542E+02 1.84701E+01 0.00000E+00
 -1       919 1.08836E+02 1.86031E+01 0.00000E+00
 -1       920 1.95000E+01 3.18140E+01 0.00000E+00
 -1       921 1.82160E+01 1.70875E+01 0.00000E+00
 -1       922 1.55880E+01 2.64438E+01 0.00000E+00
 -1       923 2.25000E+01 3.18140E+01 0.00000E+00
 -1       924 2.55000E+01 3.18140E+01 0.00000E+00
 -1       925 2.85000E+01 3.18140E+01 0.00000E+00
 -1       926 3.15000E+01 3.18140E+01 0.00000E+00
 -1       927 3.45000E+01 3.18140E+01 0.00000E+00
 -1       928 3.73500E+01 3.18140E+01 0.00000E+00
 -1       929 4.03500E+01 3.18140E+01 0.00000E+00
 -1       930 4.33500E+01 3.18140E+01 0.00000E+00
 -1       931 4.63500E+01 3.18140E+01 0.00000E+00
 -1       932 4.93500E+01 3.18140E+01 0.00000E+00
 -1       933 5.23500E+01 3.18140E+01 0.00000E+00
 -1       934 5.53500E+01 3.18140E+01 0.00000E+00
 -1       935 5.83500E+01 3.18140E+01 0.00000E+00
 -1       936 6.13500E+01 3.18140E+01 0.00000E+00
 -1       937 6.43500E+01 3.18140E+01 0.00000E+00
 -1       938 6.73500E+01 3.18140E+01 0.00000E+00
 -1       939 7.03500E+01 3.18140E+01 0.00000E+00
 -1       940 7.33500E+01 3.18140E+01 0.00000E+00
 -1       941 7.63500E+01 3.18140E+01 0.00000E+00
 -1       942 7.93500E+01 3.18140E+01 0.00000E+00
 -1       943 8.22000E+01 3.18140E+01 0.00000E+00
 -1       944 8.52000E+01 3.18140E+01 0.00000E+00
 -1       945 9.09691E+01 3.31496E+01 0.00000E+00
 -1       946 2.80350E+01 1.69963E+01 0.00000E+00
 -1       947 3.40350E+01 1.69963E+01 0.00000E+00
 -1       948 9.55396E+01 2.15693E+01 0.00000E+00
 -1       949 8.82000E+01 3.20266E+01 0.00000E+00
 -1       950 1.56030E+01 1.80875E+01 0.00000E+00
 -1       951 5.20350E+01 1.69963E+01 0.00000E+00
 -1       952 4.90350E+01 1.69963E+01 0.00000E+00
 -1       953 5.80350E+01 1.69963E+01 0.00000E+00
 -1       954 6.10350E+01 1.69963E+01 0.00000E+00
 -1       955 6.40350E+01 1.69963E+01 0.00000E+00
 -1       956 6.70350E+01 1.69963E+01 0.00000E+00
 -1       957 7.00350E+01 1.69963E+01 0.00000E+00
 -1       958 7.30350E+01 1.69963E+01 0.00000E+00
 -1       959 7.60350E+01 1.69963E+01 0.00000E+00
 -1       960 7.90350E+01 1.69963E+01 0.00000E+00
 -1       961 8.20350E+01 1.69963E+01 0.00000E+00
 -1       962 8.50350E+01 1.69963E+01 0.00000E+00
 -1       963 8.80350E+01 1.69963E+01 0.00000E+00
 -1       964 9.10350E+01 1.69963E+01 0.00000E+00
 -1       965 9.40350E+01 1.69963E+01 0.00000E+00
 -1       966 9.70350E+01 1.69963E+01 0.00000E+00
 -1       967 1.00035E+02 1.69963E+01 0.00000E+00
 -1       968 1.18035E+02 1.69963E+01 0.00000E+00
 -1       969 1.21035E+02 1.69963E+01 0.00000E+00
 -1       970 1.24035E+02 1.69963E+01 0.00000E+00
 -1       971 1.27035E+02 1.69963E+01 0.00000E+00
 -1       972 1.30035E+02 1.69963E+01 0.00000E+00
 -1       973 1.18392E+02 2.23322E+01 0.00000E+00
 -1       974 1.31296E+02 3.11325E+01 0.00000E+00
 -1       975 3.70350E+01 1.69963E+01 0.00000E+00
 -1       976 1.25160E+02 2.82044E+01 0.00000E+00
 -1       977 1.67535E+01 3.11319E+01 0.00000E+00
 -1       978 3.10350E+01 1.69963E+01 0.00000E+00
 -1       979 9.25466E+01 2.54525E+01 0.00000E+00
 -1       980 5.50350E+01 1.69963E+01 0.00000E+00
 -1       981 4.00350E+01 1.69963E+01 0.00000E+00
 -1       982 9.09551E+01 2.90497E+01 0.00000E+00
 -1       983 9.98375E+01 1.88481E+01 0.00000E+00
 -1       984 1.31493E+02 2.80312E+01 0.00000E+00
 -1       985 2.50350E+01 1.69963E+01 0.00000E+00
 -1       986 1.21485E+02 2.22737E+01 0.00000E+00
 -1       987 1.31883E+02 1.92224E+01 0.00000E+00
 -1       988 9.23038E+01 2.21271E+01 0.00000E+00
 -1       989 4.60350E+01 1.69963E+01 0.00000E+00
 -1       990 1.15035E+02 1.69963E+01 0.00000E+00
 -1       991 2.20350E+01 1.69963E+01 0.00000E+00
 -1       992 1.28421E+02 3.20758E+01 0.00000E+00
 -1       993 1.31493E+02 2.50875E+01 0.00000E+00
 -1       994 1.25033E+02 2.57237E+01 0.00000E+00
 -1       995 1.31688E+02 2.21549E+01 0.00000E+00
 -1       996 1.81860E+01 2.49719E+01 0.00000E+00
 -1       997 1.81860E+01 2.20344E+01 0.00000E+00
 -1       998 4.30350E+01 1.69963E+01 0.00000E+00
 -1       999 2.10000E+01 2.92160E+01 0.00000E+00
 -1      1000 2.40000E+01 2.92160E+01 0.00000E+00
 -1      1001 2.70000E+01 2.92160E+01 0.00000E+00
 -1      1002 3.00000E+01 2.92160E+01 0.00000E+00
 -1      1003 3.30000E+01 2.92160E+01 0.00000E+00
 -1      1004 3.58500E+01 2.92160E+01 0.00000E+00
 -1      1005 3.88500E+01 2.92160E+01 0.00000E+00
 -1      1006 4.18500E+01 2.92160E+01 0.00000E+00
 -1      1007 4.48500E+01 2.92160E+01 0.00000E+00
 -1      1008 4.78500E+01 2.92160E+01 0.00000E+00
 -1      1009 5.08500E+01 2.92160E+01 0.00000E+00
 -1      1010 5.38500E+01 2.92160E+01 0.00000E+00
 -1      1011 5.68500E+01 2.92160E+01 0.00000E+00
 -1      1012 5.98500E+01 2.92160E+01 0.00000E+00
 -1      1013 6.28500E+01 2.92160E+01 0.00000E+00
 -1      1014 6.58500E+01 2.92160E+01 0.00000E+00
 -1      1015 6.88500E+01 2.92160E+01 0.00000E+00
 -1      1016 7.18500E+01 2.92160E+01 0.00000E+00
 -1      1017 7.48500E+01 2.92160E+01 0.00000E+00
 -1      1018 7.78500E+01 2.92160E+01 0.00000E+00
 -1      1019 8.07000E+01 2.92160E+01 0.00000E+00
 -1      1020 8.37000E+01 2.92160E+01 0.00000E+00
 -1      1021 1.28802E+02 2.94167E+01 0.00000E+00
 -1      1022 3.25350E+01 1.95942E+01 0.00000E+00
 -1      1023 1.82010E+01 1.95609E+01 0.00000E+00
 -1      1024 1.25535E+02 1.95942E+01 0.00000E+00
 -1      1025 5.05350E+01 1.95942E+01 0.00000E+00
 -1      1026 6.25350E+01 1.95942E+01 0.00000E+00
 -1      1027 5.95350E+01 1.95942E+01 0.00000E+00
 -1      1028 6.85350E+01 1.95942E+01 0.00000E+00
 -1      1029 7.15350E+01 1.95942E+01 0.00000E+00
 -1      1030 7.45350E+01 1.95942E+01 0.00000E+00
 -1      1031 7.75350E+01 1.95942E+01 0.00000E+00
 -1      1032 8.05350E+01 1.95942E+01 0.00000E+00
 -1      1033 8.35350E+01 1.95942E+01 0.00000E+00
 -1      1034 8.65350E+01 1.95942E+01 0.00000E+00
 -1      1035 8.95350E+01 1.95942E+01 0.00000E+00
 -1      1036 1.19535E+02 1.95942E+01 0.00000E+00
 -1      1037 1.28535E+02 1.95942E+01 0.00000E+00
 -1      1038 3.85350E+01 1.95942E+01 0.00000E+00
 -1      1039 5.35350E+01 1.95942E+01 0.00000E+00
 -1      1040 1.22535E+02 1.95942E+01 0.00000E+00
 -1      1041 6.55350E+01 1.95942E+01 0.00000E+00
 -1      1042 8.67000E+01 2.94286E+01 0.00000E+00
 -1      1043 5.65350E+01 1.95942E+01 0.00000E+00
 -1      1044 8.93749E+01 2.61999E+01 0.00000E+00
 -1      1045 1.88430E+01 2.83929E+01 0.00000E+00
 -1      1046 2.20200E+01 1.94697E+01 0.00000E+00
 -1      1047 2.95350E+01 1.95942E+01 0.00000E+00
 -1      1048 3.55350E+01 1.95942E+01 0.00000E+00
 -1      1049 2.65350E+01 1.95942E+01 0.00000E+00
 -1      1050 4.75350E+01 1.95942E+01 0.00000E+00
 -1      1051 1.28802E+02 2.64729E+01 0.00000E+00
 -1      1052 2.07840E+01 2.35031E+01 0.00000E+00
 -1      1053 4.15350E+01 1.95942E+01 0.00000E+00
 -1      1054 1.24510E+02 2.33693E+01 0.00000E+00
 -1      1055 2.08920E+01 2.63596E+01 0.00000E+00
 -1      1056 1.26943E+02 2.95287E+01 0.00000E+00
 -1      1057 5.50350E+01 2.21922E+01 0.00000E+00
 -1      1058 2.55000E+01 2.66180E+01 0.00000E+00
 -1      1059 2.85000E+01 2.66180E+01 0.00000E+00
 -1      1060 3.15000E+01 2.66180E+01 0.00000E+00
 -1      1061 3.43500E+01 2.66180E+01 0.00000E+00
 -1      1062 3.73500E+01 2.66180E+01 0.00000E+00
 -1      1063 4.03500E+01 2.66180E+01 0.00000E+00
 -1      1064 4.33500E+01 2.66180E+01 0.00000E+00
 -1      1065 4.63500E+01 2.66180E+01 0.00000E+00
 -1      1066 4.93500E+01 2.66180E+01 0.00000E+00
 -1      1067 5.23500E+01 2.66180E+01 0.00000E+00
 -1      1068 5.53500E+01 2.66180E+01 0.00000E+00
 -1      1069 5.83500E+01 2.66180E+01 0.00000E+00
 -1      1070 6.13500E+01 2.66180E+01 0.00000E+00
 -1      1071 6.43500E+01 2.66180E+01 0.00000E+00
 -1      1072 6.73500E+01 2.66180E+01 0.00000E+00
 -1      1073 7.03500E+01 2.66180E+01 0.00000E+00
 -1      1074 7.33500E+01 2.66180E+01 0.00000E+00
 -1      1075 7.63500E+01 2.66180E+01 0.00000E+00
 -1      1076 7.92000E+01 2.66180E+01 0.00000E+00
 -1      1077 8.22000E+01 2.66180E+01 0.00000E+00
 -1      1078 8.52000E+01 2.68306E+01 0.00000E+00
 -1      1079 2.14020E+01 2.14864E+01 0.00000E+00
 -1      1080 4.45350E+01 1.95942E+01 0.00000E+00
 -1      1081 7.30350E+01 2.21922E+01 0.00000E+00
 -1      1082 7.00350E+01 2.21922E+01 0.00000E+00
 -1      1083 7.90350E+01 2.21922E+01 0.00000E+00
 -1      1084 8.20350E+01 2.21922E+01 0.00000E+00
 -1      1085 8.50350E+01 2.21922E+01 0.00000E+00
 -1      1086 8.80350E+01 2.21922E+01 0.00000E+00
 -1      1087 1.28474E+02 2.28914E+01 0.00000E+00
 -1      1088 5.20350E+01 2.21922E+01 0.00000E+00
 -1      1089 5.80350E+01 2.21922E+01 0.00000E+00
 -1      1090 2.31960E+01 2.64888E+01 0.00000E+00
 -1      1091 3.10350E+01 2.21922E+01 0.00000E+00
 -1      1092 7.60350E+01 2.21922E+01 0.00000E+00
 -1      1093 6.10350E+01 2.21922E+01 0.00000E+00
 -1      1094 2.35770E+01 2.32560E+01 0.00000E+00
 -1      1095 3.40350E+01 2.21922E+01 0.00000E+00
 -1      1096 4.90350E+01 2.21922E+01 0.00000E+00
 -1      1097 6.70350E+01 2.21922E+01 0.00000E+00
 -1      1098 4.00350E+01 2.21922E+01 0.00000E+00
 -1      1099 2.80350E+01 2.21922E+01 0.00000E+00
 -1      1100 6.40350E+01 2.21922E+01 0.00000E+00
 -1      1101 3.70350E+01 2.21922E+01 0.00000E+00
 -1      1102 4.48500E+01 2.40200E+01 0.00000E+00
 -1      1103 2.41950E+01 2.12392E+01 0.00000E+00
 -1      1104 4.24425E+01 2.31061E+01 0.00000E+00
 -1      1105 0.00000E+00 4.85250E+01 0.00000E+00
 -1      1106 0.00000E+00 4.55750E+01 0.00000E+00
 -1      1107 0.00000E+00 4.26250E+01 0.00000E+00
 -1      1108 0.00000E+00 3.96750E+01 0.00000E+00
 -1      1109 0.00000E+00 3.67250E+01 0.00000E+00
 -1      1110 0.00000E+00 3.38000E+01 0.00000E+00
 -1      1111 0.00000E+00 3.08750E+01 0.00000E+00
 -1      1112 0.00000E+00 2.79250E+01 0.00000E+00
 -1      1113 0.00000E+00 2.49750E+01 0.00000E+00
 -1      1114 0.00000E+00 2.20250E+01 0.00000E+00
 -1      1115 0.00000E+00 1.90750E+01 0.00000E+00
 -1      1116 0.00000E+00 1.61500E+01 0.00000E+00
 -1      1117 0.00000E+00 1.32250E+01 0.00000E+00
 -1      1118 0.00000E+00 1.02750E+01 0.00000E+00
 -1      1119 0.00000E+00 7.32500E+00 0.00000E+00
 -1      1120 0.00000E+00 4.37500E+00 0.00000E+00
 -1      1121 0.00000E+00 1.45000E+00 0.00000E+00
 -1      1122 1.50000E+00 5.00000E+01 0.00000E+00
 -1      1123 4.50000E+00 5.00000E+01 0.00000E+00
 -1      1124 7.50000E+00 5.00000E+01 0.00000E+00
 -1      1125 1.05000E+01 5.00000E+01 0.00000E+00
 -1      1126 1.35000E+01 5.00000E+01 0.00000E+00
 -1      1127 1.65000E+01 5.00000E+01 0.00000E+00
 -1      1128 1.95000E+01 5.00000E+01 0.00000E+00
 -1      1129 2.25000E+01 5.00000E+01 0.00000E+00
 -1      1130 2.55000E+01 5.00000E+01 0.00000E+00
 -1      1131 2.85000E+01 5.00000E+01 0.00000E+00
 -1      1132 3.15000E+01 5.00000E+01 0.00000E+00
 -1      1133 3.45000E+01 5.00000E+01 0.00000E+00
 -1      1134 3.75000E+01 5.00000E+01 0.00000E+00
 -1      1135 4.05000E+01 5.00000E+01 0.00000E+00
 -1      1136 4.35000E+01 5.00000E+01 0.00000E+00
 -1      1137 4.64250E+01 5.00000E+01 0.00000E+00
 -1      1138 4.93500E+01 5.00000E+01 0.00000E+00
 -1      1139 5.23500E+01 5.00000E+01 0.00000E+00
 -1      1140 5.53500E+01 5.00000E+01 0.00000E+00
 -1      1141 5.83500E+01 5.00000E+01 0.00000E+00
 -1      1142 6.13500E+01 5.00000E+01 0.00000E+00
 -1      1143 6.43500E+01 5.00000E+01 0.00000E+00
 -1      1144 6.73500E+01 5.00000E+01 0.00000E+00
 -1      1145 7.03500E+01 5.00000E+01 0.00000E+00
 -1      1146 7.33500E+01 5.00000E+01 0.00000E+00
 -1      1147 7.63500E+01 5.00000E+01 0.00000E+00
 -1      1148 7.93500E+01 5.00000E+01 0.00000E+00
 -1      1149 8.23500E+01 5.00000E+01 0.00000E+00
 -1      1150 8.53500E+01 5.00000E+01 0.00000E+00
 -1      1151 8.83500E+01 5.00000E+01 0.00000E+00
 -1      1152 9.12750E+01 5.00000E+01 0.00000E+00
 -1      1153 9.42000E+01 5.00000E+01 0.00000E+00
 -1      1154 9.72000E+01 5.00000E+01 0.00000E+00
 -1      1155 1.00125E+02 5.00000E+01 0.00000E+00
 -1      1156 1.03050E+02 5.00000E+01 0.00000E+00
 -1      1157 1.05900E+02 5.00000E+01 0.00000E+00
 -1      1158 1.08450E+02 5.00000E+01 0.00000E+00
 -1      1159 1.10775E+02 5.00000E+01 0.00000E+00
 -1      1160 1.13175E+02 5.00000E+01 0.00000E+00
 -1      1161 1.15950E+02 5.00000E+01 0.00000E+00
 -1      1162 1.18875E+02 5.00000E+01 0.00000E+00
 -1      1163 1.21725E+02 5.00000E+01 0.00000E+00
 -1      1164 1.24650E+02 5.00000E+01 0.00000E+00
 -1      1165 1.27650E+02 5.00000E+01 0.00000E+00
 -1      1166 1.30650E+02 5.00000E+01 0.00000E+00
 -1      1167 1.33650E+02 5.00000E+01 0.00000E+00
 -1      1168 1.36650E+02 5.00000E+01 0.00000E+00
 -1      1169 1.39650E+02 5.00000E+01 0.00000E+00
 -1      1170 1.42650E+02 5.00000E+01 0.00000E+00
 -1      1171 1.45650E+02 5.00000E+01 0.00000E+00
 -1      1172 1.48575E+02 5.00000E+01 0.00000E+00
 -1      1173 1.57500E+00 0.00000E+00 0.00000E+00
 -1      1174 4.65000E+00 0.00000E+00 0.00000E+00
 -1      1175 7.65000E+00 0.00000E+00 0.00000E+00
 -1      1176 1.06500E+01 0.00000E+00 0.00000E+00
 -1      1177 1.36500E+01 0.00000E+00 0.00000E+00
 -1      1178 1.66500E+01 0.00000E+00 0.00000E+00
 -1      1179 1.96500E+01 0.00000E+00 0.00000E+00
 -1      1180 2.26500E+01 0.00000E+00 0.00000E+00
 -1      1181 2.56500E+01 0.00000E+00 0.00000E+00
 -1      1182 2.86500E+01 0.00000E+00 0.00000E+00
 -1      1183 3.16500E+01 0.00000E+00 0.00000E+00
 -1      1184 3.46500E+01 0.00000E+00 0.00000E+00
 -1      1185 3.76500E+01 0.00000E+00 0.00000E+00
 -1      1186 4.06500E+01 0.00000E+00 0.00000E+00
 -1      1187 4.36500E+01 0.00000E+00 0.00000E+00
 -1      1188 4.66500E+01 0.00000E+00 0.00000E+00
 -1      1189 4.96500E+01 0.00000E+00 0.00000E+00
 -1      1190 5.26500E+01 0.00000E+00 0.00000E+00
 -1      1191 5.56500E+01 0.00000E+00 0.00000E+00
 -1      1192 5.86500E+01 0.00000E+00 0.00000E+00
 -1      1193 6.16500E+01 0.00000E+00 0.00000E+00
 -1      1194 6.46500E+01 0.00000E+00 0.00000E+00
 -1      1195 6.76500E+01 0.00000E+00 0.00000E+00
 -1      1196 7.06500E+01 0.00000E+00 0.00000E+00
 -1      1197 7.36500E+01 0.00000E+00 0.00000E+00
 -1      1198 7.66500E+01 0.00000E+00 0.00000E+00
 -1      1199 7.96500E+01 0.00000E+00 0.00000E+00
 -1      1200 8.26500E+01 0.00000E+00 0.00000E+00
 -1      1201 8.56500E+01 0.00000E+00 0.00000E+00
 -1      1202 8.86500E+01 0.00000E+00 0.00000E+00
 -1      1203 9.16500E+01 0.00000E+00 0.00000E+00
 -1      1204 9.46500E+01 0.00000E+00 0.00000E+00
 -1      1205 9.76500E+01 0.00000E+00 0.00000E+00
 -1      1206 1.00650E+02 0.00000E+00 0.00000E+00
 -1      1207 1.03650E+02 0.00000E+00 0.00000E+00
 -1      1208 1.06650E+02 0.00000E+00 0.00000E+00
 -1      1209 1.09650E+02 0.00000E+00 0.00000E+00
 -1      1210 1.12650E+02 0.00000E+00 0.00000E+00
 -1      1211 1.15650E+02 0.00000E+00 0.00000E+00
 -1      1212 1.18650E+02 0.00000E+00 0.00000E+00
 -1      1213 1.21650E+02 0.00000E+00 0.00000E+00
 -1      1214 1.24650E+02 0.00000E+00 0.00000E+00
 -1      1215 1.27650E+02 0.00000E+00 0.00000E+00
 -1      1216 1.30650E+02 0.00000E+00 0.00000E+00
 -1      1217 1.33650E+02 0.00000E+00 0.00000E+00
 -1      1218 1.36650E+02 0.00000E+00 0.00000E+00
 -1      1219 1.39650E+02 0.00000E+00 0.00000E+00
 -1      1220 1.42650E+02 0.00000E+00 0.00000E+00
 -1      1221 1.45650E+02 0.00000E+00 0.00000E+00
 -1      1222 1.48575E+02 0.00000E+00 0.00000E+00
 -1      1223 1.50000E+02 1.47500E+00 0.00000E+00
 -1      1224 1.50000E+02 4.42500E+00 0.00000E+00
 -1      1225 1.50000E+02 7.37500E+00 0.00000E+00
 -1      1226 1.50000E+02 1.03250E+01 0.00000E+00
 -1      1227 1.50000E+02 1.32750E+01 0.00000E+00
 -1      1228 1.50000E+02 1.62000E+01 0.00000E+00
 -1      1229 1.50000E+02 1.91250E+01 0.00000E+00
 -1      1230 1.50000E+02 2.20750E+01 0.00000E+00
 -1      1231 1.50000E+02 2.50250E+01 0.00000E+00
 -1      1232 1.50000E+02 2.79750E+01 0.00000E+00
 -1      1233 1.50000E+02 3.09250E+01 0.00000E+00
 -1      1234 1.50000E+02 3.38500E+01 0.00000E+00
 -1      1235 1.50000E+02 3.67750E+01 0.00000E+00
 -1      1236 1.50000E+02 3.97250E+01 0.00000E+00
 -1      1237 1.50000E+02 4.26750E+01 0.00000E+00
 -1      1238 1.50000E+02 4.56250E+01 0.00000E+00
 -1      1239 1.50000E+02 4.85500E+01 0.00000E+00
 -1      1240 1.15664E+02 3.63427E+01 0.00000E+00
 -1      1241 1.15346E+02 3.48941E+01 0.00000E+00
 -1      1242 1.14750E+02 3.35799E+01 0.00000E+00
 -1      1243 1.13799E+02 3.23089E+01 0.00000E+00
 -1      1244 1.12595E+02 3.12915E+01 0.00000E+00
 -1      1245 1.11333E+02 3.06234E+01 0.00000E+00
 -1      1246 1.09971E+02 3.02272E+01 0.00000E+00
 -1      1247 1.08491E+02 3.01152E+01 0.00000E+00
 -1      1248 1.06992E+02 3.03252E+01 0.00000E+00
 -1      1249 1.05582E+02 3.08479E+01 0.00000E+00
 -1      1250 1.04296E+02 3.16757E+01 0.00000E+00
 -1      1251 1.03227E+02 3.27561E+01 0.00000E+00
 -1      1252 1.02429E+02 3.40148E+01 0.00000E+00
 -1      1253 1.01917E+02 3.54059E+01 0.00000E+00
 -1      1254 1.01710E+02 3.68799E+01 0.00000E+00
 -1      1255 1.01811E+02 3.83166E+01 0.00000E+00
 -1      1256 1.02196E+02 3.96850E+01 0.00000E+00
 -1      1257 1.02855E+02 4.09532E+01 0.00000E+00
 -1      1258 1.03780E+02 4.20850E+01 0.00000E+00
 -1      1259 1.05011E+02 4.30568E+01 0.00000E+00
 -1      1260 1.06489E+02 4.37515E+01 0.00000E+00
 -1      1261 1.08009E+02 4.40771E+01 0.00000E+00
 -1      1262 1.09424E+02 4.40750E+01 0.00000E+00
 -1      1263 1.10817E+02 4.37861E+01 0.00000E+00
 -1      1264 1.12119E+02 4.32239E+01 0.00000E+00
 -1      1265 1.13242E+02 4.24441E+01 0.00000E+00
 -1      1266 1.14189E+02 4.14637E+01 0.00000E+00
 -1      1267 1.14913E+02 4.03484E+01 0.00000E+00
 -1      1268 1.15414E+02 3.91134E+01 0.00000E+00
 -1      1269 1.15674E+02 3.77881E+01 0.00000E+00
 -1      1270 1.50000E+00 4.85250E+01 0.00000E+00
 -1      1271 1.29900E+00 4.48375E+01 0.00000E+00
 -1      1272 1.29900E+00 4.63125E+01 0.00000E+00
 -1      1273 1.29900E+00 4.18875E+01 0.00000E+00
 -1      1274 1.29900E+00 4.33625E+01 0.00000E+00
 -1      1275 2.59800E+00 4.41000E+01 0.00000E+00
 -1      1276 1.29900E+00 3.89375E+01 0.00000E+00
 -1      1277 1.29900E+00 4.04125E+01 0.00000E+00
 -1      1278 2.59800E+00 4.11500E+01 0.00000E+00
 -1      1279 1.29900E+00 3.59875E+01 0.00000E+00
 -1      1280 1.29900E+00 3.74625E+01 0.00000E+00
 -1      1281 2.59800E+00 3.82000E+01 0.00000E+00
 -1      1282 1.29900E+00 3.30875E+01 0.00000E+00
 -1      1283 1.29900E+00 3.45375E+01 0.00000E+00
 -1      1284 2.59800E+00 3.52750E+01 0.00000E+00
 -1      1285 1.29900E+00 3.01375E+01 0.00000E+00
 -1      1286 1.29900E+00 3.16125E+01 0.00000E+00
 -1      1287 2.59800E+00 3.23500E+01 0.00000E+00
 -1      1288 1.29900E+00 2.71875E+01 0.00000E+00
 -1      1289 1.29900E+00 2.86625E+01 0.00000E+00
 -1      1290 2.59800E+00 2.94000E+01 0.00000E+00
 -1      1291 1.29900E+00 2.42375E+01 0.00000E+00
 -1      1292 1.29900E+00 2.57125E+01 0.00000E+00
 -1      1293 2.59800E+00 2.64500E+01 0.00000E+00
 -1      1294 1.29900E+00 2.12875E+01 0.00000E+00
 -1      1295 1.29900E+00 2.27625E+01 0.00000E+00
 -1      1296 2.59800E+00 2.35000E+01 0.00000E+00
 -1      1297 1.29900E+00 1.83375E+01 0.00000E+00
 -1      1298 1.29900E+00 1.98125E+01 0.00000E+00
 -1      1299 2.59800E+00 2.05500E+01 0.00000E+00
 -1      1300 1.29900E+00 1.54375E+01 0.00000E+00
 -1      1301 1.29900E+00 1.68875E+01 0.00000E+00
 -1      1302 2.59800E+00 1.76250E+01 0.00000E+00
 -1      1303 1.29900E+00 1.24875E+01 0.00000E+00
 -1      1304 1.29900E+00 1.39625E+01 0.00000E+00
 -1      1305 2.59800E+00 1.47000E+01 0.00000E+00
 -1      1306 1.29900E+00 9.53750E+00 0.00000E+00
 -1      1307 1.29900E+00 1.10125E+01 0.00000E+00
 -1      1308 2.59800E+00 1.17500E+01 0.00000E+00
 -1      1309 1.29900E+00 6.58750E+00 0.00000E+00
 -1      1310 1.29900E+00 8.06250E+00 0.00000E+00
 -1      1311 2.59800E+00 8.80000E+00 0.00000E+00
 -1      1312 1.29900E+00 3.63750E+00 0.00000E+00
 -1      1313 1.29900E+00 5.11250E+00 0.00000E+00
 -1      1314 2.59800E+00 5.85000E+00 0.00000E+00
 -1      1315 1.43700E+00 1.09375E+00 0.00000E+00
 -1      1316 1.43700E+00 2.54375E+00 0.00000E+00
 -1      1317 2.73600E+00 3.28125E+00 0.00000E+00
 -1      1318 3.01200E+00 1.09375E+00 0.00000E+00
 -1      1319 3.75000E+00 4.87010E+01 0.00000E+00
 -1      1320 5.25000E+00 4.87010E+01 0.00000E+00
 -1      1321 6.75000E+00 4.87010E+01 0.00000E+00
 -1      1322 8.25000E+00 4.87010E+01 0.00000E+00
 -1      1323 6.00000E+00 4.74020E+01 0.00000E+00
 -1      1324 9.75000E+00 4.87010E+01 0.00000E+00
 -1      1325 1.12500E+01 4.87010E+01 0.00000E+00
 -1      1326 9.00000E+00 4.74020E+01 0.00000E+00
 -1      1327 1.27500E+01 4.87010E+01 0.00000E+00
 -1      1328 1.42500E+01 4.87010E+01 0.00000E+00
 -1      1329 1.20000E+01 4.74020E+01 0.00000E+00
 -1      1330 1.57500E+01 4.87010E+01 0.00000E+00
 -1      1331 1.72500E+01 4.87010E+01 0.00000E+00
 -1      1332 1.50000E+01 4.74020E+01 0.00000E+00
 -1      1333 1.87500E+01 4.87010E+01 0.00000E+00
 -1      1334 2.02500E+01 4.87010E+01 0.00000E+00
 -1      1335 1.80000E+01 4.74020E+01 0.00000E+00
 -1      1336 2.17500E+01 4.87010E+01 0.00000E+00
 -1      1337 2.32500E+01 4.87010E+01 0.00000E+00
 -1      1338 2.10000E+01 4.74020E+01 0.00000E+00
 -1      1339 2.47500E+01 4.87010E+01 0.00000E+00
 -1      1340 2.62500E+01 4.87010E+01 0.00000E+00
 -1      1341 2.40000E+01 4.74020E+01 0.00000E+00
 -1      1342 2.77500E+01 4.87010E+01 0.00000E+00
 -1      1343 2.92500E+01 4.87010E+01 0.00000E+00
 -1      1344 2.70000E+01 4.74020E+01 0.00000E+00
 -1      1345 3.07500E+01 4.87010E+01 0.00000E+00
 -1      1346 3.22500E+01 4.87010E+01 0.00000E+00
 -1      1347 3.00000E+01 4.74020E+01 0.00000E+00
 -1      1348 3.37500E+01 4.87010E+01 0.00000E+00
 -1      1349 3.52500E+01 4.87010E+01 0.00000E+00
 -1      1350 3.30000E+01 4.74020E+01 0.00000E+00
 -1      1351 3.67500E+01 4.87010E+01 0.00000E+00
 -1      1352 3.82500E+01 4.87010E+01 0.00000E+00
 -1      1353 3.60000E+01 4.74020E+01 0.00000E+00
 -1      1354 3.97500E+01 4.87010E+01 0.00000E+00
 -1      1355 4.12500E+01 4.87010E+01 0.00000E+00
 -1      1356 3.90000E+01 4.74020E+01 0.00000E+00
 -1      1357 4.27500E+01 4.87010E+01 0.00000E+00
 -1      1358 4.42500E+01 4.87010E+01 0.00000E+00
 -1      1359 4.20000E+01 4.74020E+01 0.00000E+00
 -1      1360 4.56750E+01 4.87010E+01 0.00000E+00
 -1      1361 4.71000E+01 4.87010E+01 0.00000E+00
 -1      1362 4.49250E+01 4.74020E+01 0.00000E+00
 -1      1363 4.86000E+01 4.87010E+01 0.00000E+00
 -1      1364 5.01000E+01 4.87010E+01 0.00000E+00
 -1      1365 4.78500E+01 4.74020E+01 0.00000E+00
 -1      1366 5.16000E+01 4.87010E+01 0.00000E+00
 -1      1367 5.31000E+01 4.87010E+01 0.00000E+00
 -1      1368 5.08500E+01 4.74020E+01 0.00000E+00
 -1      1369 5.46000E+01 4.87010E+01 0.00000E+00
 -1      1370 5.61000E+01 4.87010E+01 0.00000E+00
 -1      1371 5.38500E+01 4.74020E+01 0.00000E+00
 -1      1372 5.76000E+01 4.87010E+01 0.00000E+00
 -1      1373 5.91000E+01 4.87010E+01 0.00000E+00
 -1      1374 5.68500E+01 4.74020E+01 0.00000E+00
 -1      1375 6.06000E+01 4.87010E+01 0.00000E+00
 -1      1376 6.21000E+01 4.87010E+01 0.00000E+00
 -1      1377 5.98500E+01 4.74020E+01 0.00000E+00
 -1      1378 6.36000E+01 4.87010E+01 0.00000E+00
 -1      1379 6.51000E+01 4.87010E+01 0.00000E+00
 -1      1380 6.28500E+01 4.74020E+01 0.00000E+00
 -1      1381 6.66000E+01 4.87010E+01 0.00000E+00
 -1      1382 6.81000E+01 4.87010E+01 0.00000E+00
 -1      1383 6.58500E+01 4.74020E+01 0.00000E+00
 -1      1384 6.96000E+01 4.87010E+01 0.00000E+00
 -1      1385 7.11000E+01 4.87010E+01 0.00000E+00
 -1      1386 6.88500E+01 4.74020E+01 0.00000E+00
 -1      1387 7.26000E+01 4.87010E+01 0.00000E+00
 -1      1388 7.41000E+01 4.87010E+01 0.00000E+00
 -1      1389 7.18500E+01 4.74020E+01 0.00000E+00
 -1      1390 7.56000E+01 4.87010E+01 0.00000E+00
 -1      1391 7.71000E+01 4.87010E+01 0.00000E+00
 -1      1392 7.48500E+01 4.74020E+01 0.00000E+00
 -1      1393 7.86000E+01 4.87010E+01 0.00000E+00
 -1      1394 8.01000E+01 4.87010E+01 0.00000E+00
 -1      1395 7.78500E+01 4.74020E+01 0.00000E+00
 -1      1396 8.16000E+01 4.87010E+01 0.00000E+00
 -1      1397 8.31000E+01 4.87010E+01 0.00000E+00
 -1      1398 8.08500E+01 4.74020E+01 0.00000E+00
 -1      1399 8.46000E+01 4.87010E+01 0.00000E+00
 -1      1400 8.61000E+01 4.87010E+01 0.00000E+00
 -1      1401 8.38500E+01 4.74020E+01 0.00000E+00
 -1      1402 8.76000E+01 4.87010E+01 0.00000E+00
 -1      1403 8.91000E+01 4.87010E+01 0.00000E+00
 -1      1404 8.68500E+01 4.74020E+01 0.00000E+00
 -1      1405 9.05250E+01 4.87010E+01 0.00000E+00
 -1      1406 9.19500E+01 4.87010E+01 0.00000E+00
 -1      1407 8.97750E+01 4.74020E+01 0.00000E+00
 -1      1408 9.34500E+01 4.87010E+01 0.00000E+00
 -1      1409 9.49500E+01 4.87010E+01 0.00000E+00
 -1      1410 9.27000E+01 4.74020E+01 0.00000E+00
 -1      1411 9.64500E+01 4.87010E+01 0.00000E+00
 -1      1412 9.79500E+01 4.87010E+01 0.00000E+00
 -1      1413 9.57000E+01 4.74020E+01 0.00000E+00
 -1      1414 9.93750E+01 4.87010E+01 0.00000E+00
 -1      1415 1.00800E+02 4.87010E+01 0.00000E+00
 -1      1416 9.86250E+01 4.74020E+01 0.00000E+00
 -1      1417 1.02300E+02 4.87010E+01 0.00000E+00
 -1      1418 1.03800E+02 4.87010E+01 0.00000E+00
 -1      1419 1.01550E+02 4.74020E+01 0.00000E+00
 -1      1420 1.05150E+02 4.87010E+01 0.00000E+00
 -1      1421 1.06500E+02 4.87010E+01 0.00000E+00
 -1      1422 1.04400E+02 4.74020E+01 0.00000E+00
 -1      1423 1.07700E+02 4.87010E+01 0.00000E+00
 -1      1424 1.08900E+02 4.87010E+01 0.00000E+00
 -1      1425 1.06950E+02 4.74020E+01 0.00000E+00
 -1      1426 1.10025E+02 4.87010E+01 0.00000E+00
 -1      1427 1.11150E+02 4.87010E+01 0.00000E+00
 -1      1428 1.09275E+02 4.74020E+01 0.00000E+00
 -1      1429 1.12425E+02 4.87010E+01 0.00000E+00
 -1      1430 1.13700E+02 4.87010E+01 0.00000E+00
 -1      1431 1.11675E+02 4.74020E+01 0.00000E+00
 -1      1432 1.15200E+02 4.87010E+01 0.00000E+00
 -1      1433 1.16700E+02 4.87010E+01 0.00000E+00
 -1      1434 1.14450E+02 4.74020E+01 0.00000E+00
 -1      1435 1.18125E+02 4.87010E+01 0.00000E+00
 -1      1436 1.19550E+02 4.87010E+01 0.00000E+00
 -1      1437 1.17375E+02 4.74020E+01 0.00000E+00
 -1      1438 1.20975E+02 4.87010E+01 0.00000E+00
 -1      1439 1.22400E+02 4.87010E+01 0.00000E+00
 -1      1440 1.20225E+02 4.74020E+01 0.00000E+00
 -1      1441 1.23900E+02 4.87010E+01 0.00000E+00
 -1      1442 1.25400E+02 4.87010E+01 0.00000E+00
 -1      1443 1.23150E+02 4.74020E+01 0.00000E+00
 -1      1444 1.26900E+02 4.87010E+01 0.00000E+00
 -1      1445 1.28400E+02 4.87010E+01 0.00000E+00
 -1      1446 1.26150E+02 4.74020E+01 0.00000E+00
 -1      1447 1.29900E+02 4.87010E+01 0.00000E+00
 -1      1448 1.31400E+02 4.87010E+01 0.00000E+00
 -1      1449 1.29150E+02 4.74020E+01 0.00000E+00
 -1      1450 1.32900E+02 4.87010E+01 0.00000E+00
 -1      1451 1.34400E+02 4.87010E+01 0.00000E+00
 -1      1452 1.32150E+02 4.74020E+01 0.00000E+00
 -1      1453 1.35900E+02 4.87010E+01 0.00000E+00
 -1      1454 1.37400E+02 4.87010E+01 0.00000E+00
 -1      1455 1.35150E+02 4.74020E+01 0.00000E+00
 -1      1456 1.38900E+02 4.87010E+01 0.00000E+00
 -1      1457 1.40400E+02 4.87010E+01 0.00000E+00
 -1      1458 1.38150E+02 4.74020E+01 0.00000E+00
 -1      1459 1.41900E+02 4.87010E+01 0.00000E+00
 -1      1460 1.43400E+02 4.87010E+01 0.00000E+00
 -1      1461 1.41150E+02 4.74020E+01 0.00000E+00
 -1      1462 1.44900E+02 4.87010E+01 0.00000E+00
 -1      1463 1.46400E+02 4.87010E+01 0.00000E+00
 -1      1464 1.44150E+02 4.74020E+01 0.00000E+00
 -1      1465 1.48575E+02 4.85500E+01 0.00000E+00
 -1      1466 6.01200E+00 1.09375E+00 0.00000E+00
 -1      1467 4.51200E+00 1.09375E+00 0.00000E+00
 -1      1468 4.37400E+00 2.18750E+00 0.00000E+00
 -1      1469 9.01200E+00 1.09375E+00 0.00000E+00
 -1      1470 7.51200E+00 1.09375E+00 0.00000E+00
 -1      1471 7.37400E+00 2.18750E+00 0.00000E+00
 -1      1472 1.20120E+01 1.09375E+00 0.00000E+00
 -1      1473 1.05120E+01 1.09375E+00 0.00000E+00
 -1      1474 1.03740E+01 2.18750E+00 0.00000E+00
 -1      1475 1.50120E+01 1.09375E+00 0.00000E+00
 -1      1476 1.35120E+01 1.09375E+00 0.00000E+00
 -1      1477 1.33740E+01 2.18750E+00 0.00000E+00
 -1      1478 1.80120E+01 1.09375E+00 0.00000E+00
 -1      1479 1.65120E+01 1.09375E+00 0.00000E+00
 -1      1480 1.63740E+01 2.18750E+00 0.00000E+00
 -1      1481 2.10120E+01 1.09375E+00 0.00000E+00
 -1      1482 1.95120E+01 1.09375E+00 0.00000E+00
 -1      1483 1.93740E+01 2.18750E+00 0.00000E+00
 -1      1484 2.40120E+01 1.09375E+00 0.00000E+00
 -1      1485 2.25120E+01 1.09375E+00 0.00000E+00
 -1      1486 2.23740E+01 2.18750E+00 0.00000E+00
 -1      1487 2.70120E+01 1.09375E+00 0.00000E+00
 -1      1488 2.55120E+01 1.09375E+00 0.00000E+00
 -1      1489 2.53740E+01 2.18750E+00 0.00000E+00
 -1      1490 3.00120E+01 1.09375E+00 0.00000E+00
 -1      1491 2.85120E+01 1.09375E+00 0.00000E+00
 -1      1492 2.83740E+01 2.18750E+00 0.00000E+00
 -1      1493 3.30120E+01 1.09375E+00 0.00000E+00
 -1      1494 3.15120E+01 1.09375E+00 0.00000E+00
 -1      1495 3.13740E+01 2.18750E+00 0.00000E+00
 -1      1496 3.60120E+01 1.09375E+00 0.00000E+00
 -1      1497 3.45120E+01 1.09375E+00 0.00000E+00
 -1      1498 3.43740E+01 2.18750E+00 0.00000E+00
 -1      1499 3.90120E+01 1.09375E+00 0.00000E+00
 -1      1500 3.75120E+01 1.09375E+00 0.00000E+00
 -1      1501 3.73740E+01 2.18750E+00 0.00000E+00
 -1      1502 4.20120E+01 1.09375E+00 0.00000E+00
 -1      1503 4.05120E+01 1.09375E+00 0.00000E+00
 -1      1504 4.03740E+01 2.18750E+00 0.00000E+00
 -1      1505 4.50120E+01 1.09375E+00 0.00000E+00
 -1      1506 4.35120E+01 1.09375E+00 0.00000E+00
 -1      1507 4.33740E+01 2.18750E+00 0.00000E+00
 -1      1508 4.80120E+01 1.09375E+00 0.00000E+00
 -1      1509 4.65120E+01 1.09375E+00 0.00000E+00
 -1      1510 4.63740E+01 2.18750E+00 0.00000E+00
 -1      1511 5.10120E+01 1.09375E+00 0.00000E+00
 -1      1512 4.95120E+01 1.09375E+00 0.00000E+00
 -1      1513 4.93740E+01 2.18750E+00 0.00000E+00
 -1      1514 5.40120E+01 1.09375E+00 0.00000E+00
 -1      1515 5.25120E+01 1.09375E+00 0.00000E+00
 -1      1516 5.23740E+01 2.18750E+00 0.00000E+00
 -1      1517 5.70120E+01 1.09375E+00 0.00000E+00
 -1      1518 5.55120E+01 1.09375E+00 0.00000E+00
 -1      1519 5.53740E+01 2.18750E+00 0.00000E+00
 -1      1520 6.00120E+01 1.09375E+00 0.00000E+00
 -1      1521 5.85120E+01 1.09375E+00 0.00000E+00
 -1      1522 5.83740E+01 2.18750E+00 0.00000E+00
 -1      1523 6.30120E+01 1.09375E+00 0.00000E+00
 -1      1524 6.15120E+01 1.09375E+00 0.00000E+00
 -1      1525 6.13740E+01 2.18750E+00 0.00000E+00
 -1      1526 6.60120E+01 1.09375E+00 0.00000E+00
 -1      1527 6.45120E+01 1.09375E+00 0.00000E+00
 -1      1528 6.43740E+01 2.18750E+00 0.00000E+00
 -1      1529 6.90120E+01 1.09375E+00 0.00000E+00
 -1      1530 6.75120E+01 1.09375E+00 0.00000E+00
 -1      1531 6.73740E+01 2.18750E+00 0.00000E+00
 -1      1532 7.20120E+01 1.09375E+00 0.00000E+00
 -1      1533 7.05120E+01 1.09375E+00 0.00000E+00
 -1      1534 7.03740E+01 2.18750E+00 0.00000E+00
 -1      1535 7.50120E+01 1.09375E+00 0.00000E+00
 -1      1536 7.35120E+01 1.09375E+00 0.00000E+00
 -1      1537 7.33740E+01 2.18750E+00 0.00000E+00
 -1      1538 7.80120E+01 1.09375E+00 0.00000E+00
 -1      1539 7.65120E+01 1.09375E+00 0.00000E+00
 -1      1540 7.63740E+01 2.18750E+00 0.00000E+00
 -1      1541 8.10120E+01 1.09375E+00 0.00000E+00
 -1      1542 7.95120E+01 1.09375E+00 0.00000E+00
 -1      1543 7.93740E+01 2.18750E+00 0.00000E+00
 -1      1544 8.40120E+01 1.09375E+00 0.00000E+00
 -1      1545 8.25120E+01 1.09375E+00 0.00000E+00
 -1      1546 8.23740E+01 2.18750E+00 0.00000E+00
 -1      1547 8.70120E+01 1.09375E+00 0.00000E+00
 -1      1548 8.55120E+01 1.09375E+00 0.00000E+00
 -1      1549 8.53740E+01 2.18750E+00 0.00000E+00
 -1      1550 9.00120E+01 1.09375E+00 0.00000E+00
 -1      1551 8.85120E+01 1.09375E+00 0.00000E+00
 -1      1552 8.83740E+01 2.18750E+00 0.00000E+00
 -1      1553 9.30120E+01 1.09375E+00 0.00000E+00
 -1      1554 9.15120E+01 1.09375E+00 0.00000E+00
 -1      1555 9.13740E+01 2.18750E+00 0.00000E+00
 -1      1556 9.60120E+01 1.09375E+00 0.00000E+00
 -1      1557 9.45120E+01 1.09375E+00 0.00000E+00
 -1      1558 9.43740E+01 2.18750E+00 0.00000E+00
 -1      1559 9.90120E+01 1.09375E+00 0.00000E+00
 -1      1560 9.75120E+01 1.09375E+00 0.00000E+00
 -1      1561 9.73740E+01 2.18750E+00 0.00000E+00
 -1      1562 1.02012E+02 1.09375E+00 0.00000E+00
 -1      1563 1.00512E+02 1.09375E+00 0.00000E+00
 -1      1564 1.00374E+02 2.18750E+00 0.00000E+00
 -1      1565 1.05012E+02 1.09375E+00 0.00000E+00
 -1      1566 1.03512E+02 1.09375E+00 0.00000E+00
 -1      1567 1.03374E+02 2.18750E+00 0.00000E+00
 -1      1568 1.08012E+02 1.09375E+00 0.00000E+00
 -1      1569 1.06512E+02 1.09375E+00 0.00000E+00
 -1      1570 1.06374E+02 2.18750E+00 0.00000E+00
 -1      1571 1.11012E+02 1.09375E+00 0.00000E+00
 -1      1572 1.09512E+02 1.09375E+00 0.00000E+00
 -1      1573 1.09374E+02 2.18750E+00 0.00000E+00
 -1      1574 1.14012E+02 1.09375E+00 0.00000E+00
 -1      1575 1.12512E+02 1.09375E+00 0.00000E+00
 -1      1576 1.12374E+02 2.18750E+00 0.00000E+00
 -1      1577 1.17012E+02 1.09375E+00 0.00000E+00
 -1      1578 1.15512E+02 1.09375E+00 0.00000E+00
 -1      1579 1.15374E+02 2.18750E+00 0.00000E+00
 -1      1580 1.20012E+02 1.09375E+00 0.00000E+00
 -1      1581 1.18512E+02 1.09375E+00 0.00000E+00
 -1      1582 1.18374E+02 2.18750E+00 0.00000E+00
 -1      1583 1.23012E+02 1.09375E+00 0.00000E+00
 -1      1584 1.21512E+02 1.09375E+00 0.00000E+00
 -1      1585 1.21374E+02 2.18750E+00 0.00000E+00
 -1      1586 1.26012E+02 1.09375E+00 0.00000E+00
 -1      1587 1.24512E+02 1.09375E+00 0.00000E+00
 -1      1588 1.24374E+02 2.18750E+00 0.00000E+00
 -1      1589 1.29012E+02 1.09375E+00 0.00000E+00
 -1      1590 1.27512E+02 1.09375E+00 0.00000E+00
 -1      1591 1.27374E+02 2.18750E+00 0.00000E+00
 -1      1592 1.32012E+02 1.09375E+00 0.00000E+00
 -1      1593 1.30512E+02 1.09375E+00 0.00000E+00
 -1      1594 1.30374E+02 2.18750E+00 0.00000E+00
 -1      1595 1.35012E+02 1.09375E+00 0.00000E+00
 -1      1596 1.33512E+02 1.09375E+00 0.00000E+00
 -1      1597 1.33374E+02 2.18750E+00 0.00000E+00
 -1      1598 1.38012E+02 1.09375E+00 0.00000E+00
 -1      1599 1.36512E+02 1.09375E+00 0.00000E+00
 -1      1600 1.36374E+02 2.18750E+00 0.00000E+00
 -1      1601 1.41012E+02 1.09375E+00 0.00000E+00
 -1      1602 1.39512E+02 1.09375E+00 0.00000E+00
 -1      1603 1.39374E+02 2.18750E+00 0.00000E+00
 -1      1604 1.44012E+02 1.09375E+00 0.00000E+00
 -1      1605 1.42512E+02 1.09375E+00 0.00000E+00
 -1      1606 1.42374E+02 2.18750E+00 0.00000E+00
 -1      1607 1.47012E+02 1.09375E+00 0.00000E+00
 -1      1608 1.45512E+02 1.09375E+00 0.00000E+00
 -1      1609 1.45374E+02 2.18750E+00 0.00000E+00
 -1      1610 1.48575E+02 1.47500E+00 0.00000E+00
 -1      1611 1.48701E+02 5.16250E+00 0.00000E+00
 -1      1612 1.48701E+02 3.68750E+00 0.00000E+00
 -1      1613 1.48701E+02 8.11250E+00 0.00000E+00
 -1      1614 1.48701E+02 6.63750E+00 0.00000E+00
 -1      1615 1.47402E+02 5.90000E+00 0.00000E+00
 -1      1616 1.48701E+02 1.10625E+01 0.00000E+00
 -1      1617 1.48701E+02 9.58750E+00 0.00000E+00
 -1      1618 1.47402E+02 8.85000E+00 0.00000E+00
 -1      1619 1.48701E+02 1.40125E+01 0.00000E+00
 -1      1620 1.48701E+02 1.25375E+01 0.00000E+00
 -1      1621 1.47402E+02 1.18000E+01 0.00000E+00
 -1      1622 1.48701E+02 1.69125E+01 0.00000E+00
 -1      1623 1.48701E+02 1.54625E+01 0.00000E+00
 -1      1624 1.47402E+02 1.47250E+01 0.00000E+00
 -1      1625 1.48701E+02 1.98625E+01 0.00000E+00
 -1      1626 1.48701E+02 1.83875E+01 0.00000E+00
 -1      1627 1.47402E+02 1.76500E+01 0.00000E+00
 -1      1628 1.48701E+02 2.28125E+01 0.00000E+00
 -1      1629 1.48701E+02 2.13375E+01 0.00000E+00
 -1      1630 1.47402E+02 2.06000E+01 0.00000E+00
 -1      1631 1.48701E+02 2.57625E+01 0.00000E+00
 -1      1632 1.48701E+02 2.42875E+01 0.00000E+00
 -1      1633 1.47402E+02 2.35500E+01 0.00000E+00
 -1      1634 1.48701E+02 2.87125E+01 0.00000E+00
 -1      1635 1.48701E+02 2.72375E+01 0.00000E+00
 -1      1636 1.47402E+02 2.65000E+01 0.00000E+00
 -1      1637 1.48701E+02 3.16625E+01 0.00000E+00
 -1      1638 1.48701E+02 3.01875E+01 0.00000E+00
 -1      1639 1.47402E+02 2.94500E+01 0.00000E+00
 -1      1640 1.48701E+02 3.45625E+01 0.00000E+00
 -1      1641 1.48701E+02 3.31125E+01 0.00000E+00
 -1      1642 1.47402E+02 3.23750E+01 0.00000E+00
 -1      1643 1.48701E+02 3.75125E+01 0.00000E+00
 -1      1644 1.48701E+02 3.60375E+01 0.00000E+00
 -1      1645 1.47402E+02 3.53000E+01 0.00000E+00
 -1      1646 1.48701E+02 4.04625E+01 0.00000E+00
 -1      1647 1.48701E+02 3.89875E+01 0.00000E+00
 -1      1648 1.47402E+02 3.82500E+01 0.00000E+00
 -1      1649 1.48701E+02 4.34125E+01 0.00000E+00
 -1      1650 1.48701E+02 4.19375E+01 0.00000E+00
 -1      1651 1.47402E+02 4.12000E+01 0.00000E+00
 -1      1652 1.16265E+02 3.58892E+01 0.00000E+00
 -1      1653 1.16350E+02 3.66538E+01 0.00000E+00
 -1      1654 1.15773E+02 3.43751E+01 0.00000E+00
 -1      1655 1.15999E+02 3.50522E+01 0.00000E+00
 -1      1656 1.15093E+02 3.29574E+01 0.00000E+00
 -1      1657 1.15461E+02 3.35869E+01 0.00000E+00
 -1      1658 1.14059E+02 3.14733E+01 0.00000E+00
 -1      1659 1.14648E+02 3.20978E+01 0.00000E+00
 -1      1660 1.12613E+02 3.06189E+01 0.00000E+00
 -1      1661 1.13210E+02 3.10174E+01 0.00000E+00
 -1      1662 1.11233E+02 2.99228E+01 0.00000E+00
 -1      1663 1.11892E+02 3.01896E+01 0.00000E+00
 -1      1664 1.09727E+02 2.96023E+01 0.00000E+00
 -1      1665 1.10422E+02 2.97301E+01 0.00000E+00
 -1      1666 1.08083E+02 2.94808E+01 0.00000E+00
 -1      1667 1.08860E+02 2.94569E+01 0.00000E+00
 -1      1668 1.06485E+02 2.98248E+01 0.00000E+00
 -1      1669 1.07199E+02 2.96443E+01 0.00000E+00
 -1      1670 1.04968E+02 3.04767E+01 0.00000E+00
 -1      1671 1.05654E+02 3.01345E+01 0.00000E+00
 -1      1672 1.03645E+02 3.14774E+01 0.00000E+00
 -1      1673 1.04237E+02 3.09971E+01 0.00000E+00
 -1      1674 1.02549E+02 3.27012E+01 0.00000E+00
 -1      1675 1.03020E+02 3.21078E+01 0.00000E+00
 -1      1676 1.01758E+02 3.40920E+01 0.00000E+00
 -1      1677 1.02082E+02 3.34352E+01 0.00000E+00
 -1      1678 1.01237E+02 3.56213E+01 0.00000E+00
 -1      1679 1.01419E+02 3.48942E+01 0.00000E+00
 -1      1680 1.01089E+02 3.72290E+01 0.00000E+00
 -1      1681 1.01114E+02 3.64905E+01 0.00000E+00
 -1      1682 1.01309E+02 3.87602E+01 0.00000E+00
 -1      1683 1.01188E+02 3.80694E+01 0.00000E+00
 -1      1684 1.01761E+02 4.02446E+01 0.00000E+00
 -1      1685 1.01496E+02 3.95746E+01 0.00000E+00
 -1      1686 1.02572E+02 4.15622E+01 0.00000E+00
 -1      1687 1.02183E+02 4.09701E+01 0.00000E+00
 -1      1688 1.03650E+02 4.27520E+01 0.00000E+00
 -1      1689 1.03114E+02 4.22215E+01 0.00000E+00
 -1      1690 1.05017E+02 4.38174E+01 0.00000E+00
 -1      1691 1.04326E+02 4.33875E+01 0.00000E+00
 -1      1692 1.06661E+02 4.45298E+01 0.00000E+00
 -1      1693 1.05884E+02 4.42703E+01 0.00000E+00
 -1      1694 1.08315E+02 4.47200E+01 0.00000E+00
 -1      1695 1.07583E+02 4.46468E+01 0.00000E+00
 -1      1696 1.09821E+02 4.46103E+01 0.00000E+00
 -1      1697 1.09145E+02 4.46800E+01 0.00000E+00
 -1      1698 1.11367E+02 4.42942E+01 0.00000E+00
 -1      1699 1.10659E+02 4.45183E+01 0.00000E+00
 -1      1700 1.12693E+02 4.35603E+01 0.00000E+00
 -1      1701 1.12104E+02 4.38892E+01 0.00000E+00
 -1      1702 1.13930E+02 4.27193E+01 0.00000E+00
 -1      1703 1.13403E+02 4.31678E+01 0.00000E+00
 -1      1704 1.14765E+02 4.16678E+01 0.00000E+00
 -1      1705 1.14347E+02 4.21935E+01 0.00000E+00
 -1      1706 1.14531E+02 4.29434E+01 0.00000E+00
 -1      1707 1.15575E+02 4.03224E+01 0.00000E+00
 -1      1708 1.15271E+02 4.09063E+01 0.00000E+00
 -1      1709 1.16060E+02 3.89544E+01 0.00000E+00
 -1      1710 1.15867E+02 3.96005E+01 0.00000E+00
 -1      1711 1.16277E+02 3.75070E+01 0.00000E+00
 -1      1712 1.16212E+02 3.81800E+01 0.00000E+00
 -1      1713 1.47825E+02 4.72510E+01 0.00000E+00
 -1      1714 1.16149E+02 3.37333E+01 0.00000E+00
 -1      1715 1.48437E+02 2.56875E+00 0.00000E+00
 -1      1716 1.47138E+02 3.30625E+00 0.00000E+00
 -1      1717 1.16921E+02 3.70489E+01 0.00000E+00
 -1      1718 1.16727E+02 3.53586E+01 0.00000E+00
 -1      1719 1.48701E+02 4.63625E+01 0.00000E+00
 -1      1720 1.48701E+02 4.48875E+01 0.00000E+00
 -1      1721 1.47402E+02 4.41500E+01 0.00000E+00
 -1      1722 1.15392E+02 3.20855E+01 0.00000E+00
 -1      1723 1.14098E+02 3.07700E+01 0.00000E+00
 -1      1724 1.12527E+02 2.98848E+01 0.00000E+00
 -1      1725 1.10995E+02 2.92627E+01 0.00000E+00
 -1      1726 1.09317E+02 2.89246E+01 0.00000E+00
 -1      1727 1.07567E+02 2.89427E+01 0.00000E+00
 -1      1728 1.05853E+02 2.94159E+01 0.00000E+00
 -1      1729 1.04290E+02 3.02461E+01 0.00000E+00
 -1      1730 1.02934E+02 3.13969E+01 0.00000E+00
 -1      1731 1.01843E+02 3.27613E+01 0.00000E+00
 -1      1732 1.01038E+02 3.42976E+01 0.00000E+00
 -1      1733 1.00577E+02 3.59690E+01 0.00000E+00
 -1      1734 1.00553E+02 3.76787E+01 0.00000E+00
 -1      1735 1.00838E+02 3.93335E+01 0.00000E+00
 -1      1736 1.01448E+02 4.08733E+01 0.00000E+00
 -1      1737 1.02413E+02 4.22581E+01 0.00000E+00
 -1      1738 1.03631E+02 4.35529E+01 0.00000E+00
 -1      1739 1.05174E+02 4.46413E+01 0.00000E+00
 -1      1740 1.06962E+02 4.52113E+01 0.00000E+00
 -1      1741 1.08715E+02 4.52882E+01 0.00000E+00
 -1      1742 1.10383E+02 4.51561E+01 0.00000E+00
 -1      1743 1.11957E+02 4.46591E+01 0.00000E+00
 -1      1744 1.13404E+02 4.38616E+01 0.00000E+00
 -1      1745 1.16253E+02 4.01727E+01 0.00000E+00
 -1      1746 1.16696E+02 3.86764E+01 0.00000E+00
 -1      1747 2.79900E+00 4.77875E+01 0.00000E+00
 -1      1748 1.15454E+02 4.16561E+01 0.00000E+00
 -1      1749 3.89700E+00 4.04125E+01 0.00000E+00
 -1      1750 3.89700E+00 4.18875E+01 0.00000E+00
 -1      1751 3.89700E+00 4.33625E+01 0.00000E+00
 -1      1752 3.89700E+00 4.48375E+01 0.00000E+00
 -1      1753 5.19600E+00 4.26250E+01 0.00000E+00
 -1      1754 3.89700E+00 3.45500E+01 0.00000E+00
 -1      1755 3.89700E+00 3.60000E+01 0.00000E+00
 -1      1756 3.89700E+00 3.16000E+01 0.00000E+00
 -1      1757 3.89700E+00 3.30750E+01 0.00000E+00
 -1      1758 5.19600E+00 3.38000E+01 0.00000E+00
 -1      1759 3.89700E+00 2.86500E+01 0.00000E+00
 -1      1760 3.89700E+00 3.01250E+01 0.00000E+00
 -1      1761 5.19600E+00 3.08500E+01 0.00000E+00
 -1      1762 3.89700E+00 2.57000E+01 0.00000E+00
 -1      1763 3.89700E+00 2.71750E+01 0.00000E+00
 -1      1764 5.19600E+00 2.79000E+01 0.00000E+00
 -1      1765 3.89700E+00 2.27500E+01 0.00000E+00
 -1      1766 3.89700E+00 2.42250E+01 0.00000E+00
 -1      1767 5.19600E+00 2.49500E+01 0.00000E+00
 -1      1768 3.89700E+00 1.98000E+01 0.00000E+00
 -1      1769 3.89700E+00 2.12750E+01 0.00000E+00
 -1      1770 5.19600E+00 2.20000E+01 0.00000E+00
 -1      1771 3.89700E+00 1.69000E+01 0.00000E+00
 -1      1772 3.89700E+00 1.83500E+01 0.00000E+00
 -1      1773 5.19600E+00 1.90750E+01 0.00000E+00
 -1      1774 3.89700E+00 1.39500E+01 0.00000E+00
 -1      1775 3.89700E+00 1.54250E+01 0.00000E+00
 -1      1776 5.19600E+00 1.61500E+01 0.00000E+00
 -1      1777 3.89700E+00 1.10000E+01 0.00000E+00
 -1      1778 3.89700E+00 1.24750E+01 0.00000E+00
 -1      1779 5.19600E+00 1.32000E+01 0.00000E+00
 -1      1780 3.89700E+00 8.05000E+00 0.00000E+00
 -1      1781 3.89700E+00 9.52500E+00 0.00000E+00
 -1      1782 5.19600E+00 1.02500E+01 0.00000E+00
 -1      1783 3.89700E+00 5.10000E+00 0.00000E+00
 -1      1784 3.89700E+00 6.57500E+00 0.00000E+00
 -1      1785 5.19600E+00 7.30000E+00 0.00000E+00
 -1      1786 4.20450E+00 3.09687E+00 0.00000E+00
 -1      1787 4.06650E+00 4.19063E+00 0.00000E+00
 -1      1788 5.36550E+00 4.91563E+00 0.00000E+00
 -1      1789 5.70450E+00 3.09687E+00 0.00000E+00
 -1      1790 3.54900E+00 4.64885E+01 0.00000E+00
 -1      1791 8.70450E+00 3.09687E+00 0.00000E+00
 -1      1792 7.20450E+00 3.09687E+00 0.00000E+00
 -1      1793 7.03500E+00 4.00625E+00 0.00000E+00
 -1      1794 1.16282E+02 4.16574E+01 0.00000E+00
 -1      1795 1.15776E+02 4.24190E+01 0.00000E+00
 -1      1796 8.25000E+00 4.61030E+01 0.00000E+00
 -1      1797 9.75000E+00 4.61030E+01 0.00000E+00
 -1      1798 1.12500E+01 4.61030E+01 0.00000E+00
 -1      1799 1.27500E+01 4.61030E+01 0.00000E+00
 -1      1800 1.05000E+01 4.48040E+01 0.00000E+00
 -1      1801 1.42500E+01 4.61030E+01 0.00000E+00
 -1      1802 1.57500E+01 4.61030E+01 0.00000E+00
 -1      1803 1.35000E+01 4.48040E+01 0.00000E+00
 -1      1804 1.72500E+01 4.61030E+01 0.00000E+00
 -1      1805 1.87500E+01 4.61030E+01 0.00000E+00
 -1      1806 1.65000E+01 4.48040E+01 0.00000E+00
 -1      1807 2.02500E+01 4.61030E+01 0.00000E+00
 -1      1808 2.17500E+01 4.61030E+01 0.00000E+00
 -1      1809 1.95000E+01 4.48040E+01 0.00000E+00
 -1      1810 2.32500E+01 4.61030E+01 0.00000E+00
 -1      1811 2.47500E+01 4.61030E+01 0.00000E+00
 -1      1812 2.25000E+01 4.48040E+01 0.00000E+00
 -1      1813 2.62500E+01 4.61030E+01 0.00000E+00
 -1      1814 2.77500E+01 4.61030E+01 0.00000E+00
 -1      1815 2.55000E+01 4.48040E+01 0.00000E+00
 -1      1816 2.92500E+01 4.61030E+01 0.00000E+00
 -1      1817 3.07500E+01 4.61030E+01 0.00000E+00
 -1      1818 2.85000E+01 4.48040E+01 0.00000E+00
 -1      1819 3.22500E+01 4.61030E+01 0.00000E+00
 -1      1820 3.37500E+01 4.61030E+01 0.00000E+00
 -1      1821 3.15000E+01 4.48040E+01 0.00000E+00
 -1      1822 3.52500E+01 4.61030E+01 0.00000E+00
 -1      1823 3.67500E+01 4.61030E+01 0.00000E+00
 -1      1824 3.45000E+01 4.48040E+01 0.00000E+00
 -1      1825 3.82500E+01 4.61030E+01 0.00000E+00
 -1      1826 3.97500E+01 4.61030E+01 0.00000E+00
 -1      1827 3.75000E+01 4.48040E+01 0.00000E+00
 -1      1828 4.12500E+01 4.61030E+01 0.00000E+00
 -1      1829 4.27500E+01 4.61030E+01 0.00000E+00
 -1      1830 4.05000E+01 4.48040E+01 0.00000E+00
 -1      1831 4.41750E+01 4.61030E+01 0.00000E+00
 -1      1832 4.56000E+01 4.61030E+01 0.00000E+00
 -1      1833 4.34250E+01 4.48040E+01 0.00000E+00
 -1      1834 4.71000E+01 4.61030E+01 0.00000E+00
 -1      1835 4.86000E+01 4.61030E+01 0.00000E+00
 -1      1836 4.63500E+01 4.48040E+01 0.00000E+00
 -1      1837 5.01000E+01 4.61030E+01 0.00000E+00
 -1      1838 5.16000E+01 4.61030E+01 0.00000E+00
 -1      1839 4.93500E+01 4.48040E+01 0.00000E+00
 -1      1840 5.31000E+01 4.61030E+01 0.00000E+00
 -1      1841 5.46000E+01 4.61030E+01 0.00000E+00
 -1      1842 5.23500E+01 4.48040E+01 0.00000E+00
 -1      1843 5.61000E+01 4.61030E+01 0.00000E+00
 -1      1844 5.76000E+01 4.61030E+01 0.00000E+00
 -1      1845 5.53500E+01 4.48040E+01 0.00000E+00
 -1      1846 5.91000E+01 4.61030E+01 0.00000E+00
 -1      1847 6.06000E+01 4.61030E+01 0.00000E+00
 -1      1848 5.83500E+01 4.48040E+01 0.00000E+00
 -1      1849 6.21000E+01 4.61030E+01 0.00000E+00
 -1      1850 6.36000E+01 4.61030E+01 0.00000E+00
 -1      1851 6.13500E+01 4.48040E+01 0.00000E+00
 -1      1852 6.51000E+01 4.61030E+01 0.00000E+00
 -1      1853 6.66000E+01 4.61030E+01 0.00000E+00
 -1      1854 6.43500E+01 4.48040E+01 0.00000E+00
 -1      1855 6.81000E+01 4.61030E+01 0.00000E+00
 -1      1856 6.96000E+01 4.61030E+01 0.00000E+00
 -1      1857 6.73500E+01 4.48040E+01 0.00000E+00
 -1      1858 7.11000E+01 4.61030E+01 0.00000E+00
 -1      1859 7.26000E+01 4.61030E+01 0.00000E+00
 -1      1860 7.03500E+01 4.48040E+01 0.00000E+00
 -1      1861 7.41000E+01 4.61030E+01 0.00000E+00
 -1      1862 7.56000E+01 4.61030E+01 0.00000E+00
 -1      1863 7.33500E+01 4.48040E+01 0.00000E+00
 -1      1864 7.71000E+01 4.61030E+01 0.00000E+00
 -1      1865 7.86000E+01 4.61030E+01 0.00000E+00
 -1      1866 7.63500E+01 4.48040E+01 0.00000E+00
 -1      1867 8.01000E+01 4.61030E+01 0.00000E+00
 -1      1868 8.16000E+01 4.61030E+01 0.00000E+00
 -1      1869 7.93500E+01 4.48040E+01 0.00000E+00
 -1      1870 8.31000E+01 4.61030E+01 0.00000E+00
 -1      1871 8.46000E+01 4.61030E+01 0.00000E+00
 -1      1872 8.23500E+01 4.48040E+01 0.00000E+00
 -1      1873 8.61000E+01 4.61030E+01 0.00000E+00
 -1      1874 8.76000E+01 4.61030E+01 0.00000E+00
 -1      1875 8.53500E+01 4.48040E+01 0.00000E+00
 -1      1876 8.90250E+01 4.61030E+01 0.00000E+00
 -1      1877 9.04500E+01 4.61030E+01 0.00000E+00
 -1      1878 8.82750E+01 4.48040E+01 0.00000E+00
 -1      1879 9.19500E+01 4.61030E+01 0.00000E+00
 -1      1880 9.34500E+01 4.61030E+01 0.00000E+00
 -1      1881 9.12000E+01 4.48040E+01 0.00000E+00
 -1      1882 9.49500E+01 4.61030E+01 0.00000E+00
 -1      1883 9.64500E+01 4.61030E+01 0.00000E+00
 -1      1884 9.42000E+01 4.48040E+01 0.00000E+00
 -1      1885 9.78750E+01 4.61030E+01 0.00000E+00
 -1      1886 9.93000E+01 4.61030E+01 0.00000E+00
 -1      1887 9.71250E+01 4.48040E+01 0.00000E+00
 -1      1888 1.08848E+02 4.63251E+01 0.00000E+00
 -1      1889 1.09973E+02 4.63251E+01 0.00000E+00
 -1      1890 1.13700E+02 4.63769E+01 0.00000E+00
 -1      1891 1.15200E+02 4.63769E+01 0.00000E+00
 -1      1892 1.16662E+02 4.62093E+01 0.00000E+00
 -1      1893 1.18088E+02 4.62093E+01 0.00000E+00
 -1      1894 1.19512E+02 4.62093E+01 0.00000E+00
 -1      1895 1.20938E+02 4.62093E+01 0.00000E+00
 -1      1896 1.18800E+02 4.50166E+01 0.00000E+00
 -1      1897 1.22438E+02 4.62093E+01 0.00000E+00
 -1      1898 1.23938E+02 4.62093E+01 0.00000E+00
 -1      1899 1.21725E+02 4.50166E+01 0.00000E+00
 -1      1900 1.25438E+02 4.62093E+01 0.00000E+00
 -1      1901 1.26938E+02 4.62093E+01 0.00000E+00
 -1      1902 1.24725E+02 4.50166E+01 0.00000E+00
 -1      1903 1.28438E+02 4.62093E+01 0.00000E+00
 -1      1904 1.29938E+02 4.62093E+01 0.00000E+00
 -1      1905 1.27725E+02 4.50166E+01 0.00000E+00
 -1      1906 1.31438E+02 4.62093E+01 0.00000E+00
 -1      1907 1.32938E+02 4.62093E+01 0.00000E+00
 -1      1908 1.30725E+02 4.50166E+01 0.00000E+00
 -1      1909 1.34438E+02 4.62093E+01 0.00000E+00
 -1      1910 1.35938E+02 4.62093E+01 0.00000E+00
 -1      1911 1.33725E+02 4.50166E+01 0.00000E+00
 -1      1912 1.37438E+02 4.62093E+01 0.00000E+00
 -1      1913 1.38938E+02 4.62093E+01 0.00000E+00
 -1      1914 1.36725E+02 4.50166E+01 0.00000E+00
 -1      1915 1.40438E+02 4.62093E+01 0.00000E+00
 -1      1916 1.41938E+02 4.62093E+01 0.00000E+00
 -1      1917 1.39725E+02 4.50166E+01 0.00000E+00
 -1      1918 1.43438E+02 4.62093E+01 0.00000E+00
 -1      1919 1.44938E+02 4.62093E+01 0.00000E+00
 -1      1920 1.42725E+02 4.50166E+01 0.00000E+00
 -1      1921 1.17045E+01 3.09687E+00 0.00000E+00
 -1      1922 1.02045E+01 3.09687E+00 0.00000E+00
 -1      1923 1.00350E+01 4.00625E+00 0.00000E+00
 -1      1924 1.16751E+02 3.30387E+01 0.00000E+00
 -1      1925 1.17063E+02 3.38269E+01 0.00000E+00
 -1      1926 1.47045E+01 3.09687E+00 0.00000E+00
 -1      1927 1.32045E+01 3.09687E+00 0.00000E+00
 -1      1928 1.30350E+01 4.00625E+00 0.00000E+00
 -1      1929 1.77045E+01 3.09687E+00 0.00000E+00
 -1      1930 1.62045E+01 3.09687E+00 0.00000E+00
 -1      1931 1.60350E+01 4.00625E+00 0.00000E+00
 -1      1932 2.07045E+01 3.09687E+00 0.00000E+00
 -1      1933 1.92045E+01 3.09687E+00 0.00000E+00
 -1      1934 1.90350E+01 4.00625E+00 0.00000E+00
 -1      1935 2.37045E+01 3.09687E+00 0.00000E+00
 -1      1936 2.22045E+01 3.09687E+00 0.00000E+00
 -1      1937 2.20350E+01 4.00625E+00 0.00000E+00
 -1      1938 2.67045E+01 3.09687E+00 0.00000E+00
 -1      1939 2.52045E+01 3.09687E+00 0.00000E+00
 -1      1940 2.50350E+01 4.00625E+00 0.00000E+00
 -1      1941 2.97045E+01 3.09687E+00 0.00000E+00
 -1      1942 2.82045E+01 3.09687E+00 0.00000E+00
 -1      1943 2.80350E+01 4.00625E+00 0.00000E+00
 -1      1944 3.27045E+01 3.09687E+00 0.00000E+00
 -1      1945 3.12045E+01 3.09687E+00 0.00000E+00
 -1      1946 3.10350E+01 4.00625E+00 0.00000E+00
 -1      1947 3.57045E+01 3.09687E+00 0.00000E+00
 -1      1948 3.42045E+01 3.09687E+00 0.00000E+00
 -1      1949 3.40350E+01 4.00625E+00 0.00000E+00
 -1      1950 3.87045E+01 3.09687E+00 0.00000E+00
 -1      1951 3.72045E+01 3.09687E+00 0.00000E+00
 -1      1952 3.70350E+01 4.00625E+00 0.00000E+00
 -1      1953 4.17045E+01 3.09687E+00 0.00000E+00
 -1      1954 4.02045E+01 3.09687E+00 0.00000E+00
 -1      1955 4.00350E+01 4.00625E+00 0.00000E+00
 -1      1956 4.47045E+01 3.09687E+00 0.00000E+00
 -1      1957 4.32045E+01 3.09687E+00 0.00000E+00
 -1      1958 4.30350E+01 4.00625E+00 0.00000E+00
 -1      1959 4.77045E+01 3.09687E+00 0.00000E+00
 -1      1960 4.62045E+01 3.09687E+00 0.00000E+00
 -1      1961 4.60350E+01 4.00625E+00 0.00000E+00
 -1      1962 5.07045E+01 3.09687E+00 0.00000E+00
 -1      1963 4.92045E+01 3.09687E+00 0.00000E+00
 -1      1964 4.90350E+01 4.00625E+00 0.00000E+00
 -1      1965 5.37045E+01 3.09687E+00 0.00000E+00
 -1      1966 5.22045E+01 3.09687E+00 0.00000E+00
 -1      1967 5.20350E+01 4.00625E+00 0.00000E+00
 -1      1968 5.67045E+01 3.09687E+00 0.00000E+00
 -1      1969 5.52045E+01 3.09687E+00 0.00000E+00
 -1      1970 5.50350E+01 4.00625E+00 0.00000E+00
 -1      1971 5.97045E+01 3.09687E+00 0.00000E+00
 -1      1972 5.82045E+01 3.09687E+00 0.00000E+00
 -1      1973 5.80350E+01 4.00625E+00 0.00000E+00
 -1      1974 6.27045E+01 3.09687E+00 0.00000E+00
 -1      1975 6.12045E+01 3.09687E+00 0.00000E+00
 -1      1976 6.10350E+01 4.00625E+00 0.00000E+00
 -1      1977 6.57045E+01 3.09687E+00 0.00000E+00
 -1      1978 6.42045E+01 3.09687E+00 0.00000E+00
 -1      1979 6.40350E+01 4.00625E+00 0.00000E+00
 -1      1980 6.87045E+01 3.09687E+00 0.00000E+00
 -1      1981 6.72045E+01 3.09687E+00 0.00000E+00
 -1      1982 6.70350E+01 4.00625E+00 0.00000E+00
 -1      1983 7.17045E+01 3.09687E+00 0.00000E+00
 -1      1984 7.02045E+01 3.09687E+00 0.00000E+00
 -1      1985 7.00350E+01 4.00625E+00 0.00000E+00
 -1      1986 7.47045E+01 3.09687E+00 0.00000E+00
 -1      1987 7.32045E+01 3.09687E+00 0.00000E+00
 -1      1988 7.30350E+01 4.00625E+00 0.00000E+00
 -1      1989 7.77045E+01 3.09687E+00 0.00000E+00
 -1      1990 7.62045E+01 3.09687E+00 0.00000E+00
 -1      1991 7.60350E+01 4.00625E+00 0.00000E+00
 -1      1992 8.07045E+01 3.09687E+00 0.00000E+00
 -1      1993 7.92045E+01 3.09687E+00 0.00000E+00
 -1      1994 7.90350E+01 4.00625E+00 0.00000E+00
 -1      1995 8.37045E+01 3.09687E+00 0.00000E+00
 -1      1996 8.22045E+01 3.09687E+00 0.00000E+00
 -1      1997 8.20350E+01 4.00625E+00 0.00000E+00
 -1      1998 8.67045E+01 3.09687E+00 0.00000E+00
 -1      1999 8.52045E+01 3.09687E+00 0.00000E+00
 -1      2000 8.50350E+01 4.00625E+00 0.00000E+00
 -1      2001 8.97045E+01 3.09687E+00 0.00000E+00
 -1      2002 8.82045E+01 3.09687E+00 0.00000E+00
 -1      2003 8.80350E+01 4.00625E+00 0.00000E+00
 -1      2004 9.27045E+01 3.09687E+00 0.00000E+00
 -1      2005 9.12045E+01 3.09687E+00 0.00000E+00
 -1      2006 9.10350E+01 4.00625E+00 0.00000E+00
 -1      2007 9.57045E+01 3.09687E+00 0.00000E+00
 -1      2008 9.42045E+01 3.09687E+00 0.00000E+00
 -1      2009 9.40350E+01 4.00625E+00 0.00000E+00
 -1      2010 9.87045E+01 3.09687E+00 0.00000E+00
 -1      2011 9.72045E+01 3.09687E+00 0.00000E+00
 -1      2012 9.70350E+01 4.00625E+00 0.00000E+00
 -1      2013 1.01704E+02 3.09687E+00 0.00000E+00
 -1      2014 1.00204E+02 3.09687E+00 0.00000E+00
 -1      2015 1.00035E+02 4.00625E+00 0.00000E+00
 -1      2016 1.04704E+02 3.09687E+00 0.00000E+00
 -1      2017 1.03204E+02 3.09687E+00 0.00000E+00
 -1      2018 1.03035E+02 4.00625E+00 0.00000E+00
 -1      2019 1.07704E+02 3.09687E+00 0.00000E+00
 -1      2020 1.06204E+02 3.09687E+00 0.00000E+00
 -1      2021 1.06035E+02 4.00625E+00 0.00000E+00
 -1      2022 1.10704E+02 3.09687E+00 0.00000E+00
 -1      2023 1.09204E+02 3.09687E+00 0.00000E+00
 -1      2024 1.09035E+02 4.00625E+00 0.00000E+00
 -1      2025 1.13704E+02 3.09687E+00 0.00000E+00
 -1      2026 1.12204E+02 3.09687E+00 0.00000E+00
 -1      2027 1.12035E+02 4.00625E+00 0.00000E+00
 -1      2028 1.16704E+02 3.09687E+00 0.00000E+00
 -1      2029 1.15204E+02 3.09687E+00 0.00000E+00
 -1      2030 1.15035E+02 4.00625E+00 0.00000E+00
 -1      2031 1.19704E+02 3.09687E+00 0.00000E+00
 -1      2032 1.18204E+02 3.09687E+00 0.00000E+00
 -1      2033 1.18035E+02 4.00625E+00 0.00000E+00
 -1      2034 1.22704E+02 3.09687E+00 0.00000E+00
 -1      2035 1.21204E+02 3.09687E+00 0.00000E+00
 -1      2036 1.21035E+02 4.00625E+00 0.00000E+00
 -1      2037 1.25704E+02 3.09687E+00 0.00000E+00
 -1      2038 1.24204E+02 3.09687E+00 0.00000E+00
 -1      2039 1.24035E+02 4.00625E+00 0.00000E+00
 -1      2040 1.28704E+02 3.09687E+00 0.00000E+00
 -1      2041 1.27204E+02 3.09687E+00 0.00000E+00
 -1      2042 1.27035E+02 4.00625E+00 0.00000E+00
 -1      2043 1.31704E+02 3.09687E+00 0.00000E+00
 -1      2044 1.30204E+02 3.09687E+00 0.00000E+00
 -1      2045 1.30035E+02 4.00625E+00 0.00000E+00
 -1      2046 1.34704E+02 3.09687E+00 0.00000E+00
 -1      2047 1.33204E+02 3.09687E+00 0.00000E+00
 -1      2048 1.33035E+02 4.00625E+00 0.00000E+00
 -1      2049 1.37704E+02 3.09687E+00 0.00000E+00
 -1      2050 1.36204E+02 3.09687E+00 0.00000E+00
 -1      2051 1.36035E+02 4.00625E+00 0.00000E+00
 -1      2052 1.40704E+02 3.09687E+00 0.00000E+00
 -1      2053 1.39204E+02 3.09687E+00 0.00000E+00
 -1      2054 1.39035E+02 4.00625E+00 0.00000E+00
 -1      2055 1.43704E+02 3.09687E+00 0.00000E+00
 -1      2056 1.42204E+02 3.09687E+00 0.00000E+00
 -1      2057 1.42035E+02 4.00625E+00 0.00000E+00
 -1      2058 1.46171E+02 3.20156E+00 0.00000E+00
 -1      2059 1.44671E+02 3.20156E+00 0.00000E+00
 -1      2060 1.44502E+02 4.11094E+00 0.00000E+00
 -1      2061 1.46435E+02 4.32031E+00 0.00000E+00
 -1      2062 1.46103E+02 1.25375E+01 0.00000E+00
 -1      2063 1.46103E+02 1.10625E+01 0.00000E+00
 -1      2064 1.46103E+02 9.58750E+00 0.00000E+00
 -1      2065 1.46103E+02 8.11250E+00 0.00000E+00
 -1      2066 1.44804E+02 1.03250E+01 0.00000E+00
 -1      2067 1.46269E+02 6.95391E+00 0.00000E+00
 -1      2068 1.46269E+02 5.47891E+00 0.00000E+00
 -1      2069 1.45302E+02 5.37422E+00 0.00000E+00
 -1      2070 1.44970E+02 7.69141E+00 0.00000E+00
 -1      2071 1.46103E+02 1.54375E+01 0.00000E+00
 -1      2072 1.46103E+02 1.39875E+01 0.00000E+00
 -1      2073 1.44804E+02 1.32500E+01 0.00000E+00
 -1      2074 1.46103E+02 1.83875E+01 0.00000E+00
 -1      2075 1.46103E+02 1.69125E+01 0.00000E+00
 -1      2076 1.44804E+02 1.61750E+01 0.00000E+00
 -1      2077 1.46103E+02 2.13375E+01 0.00000E+00
 -1      2078 1.46103E+02 1.98625E+01 0.00000E+00
 -1      2079 1.44804E+02 1.91250E+01 0.00000E+00
 -1      2080 1.46103E+02 2.42875E+01 0.00000E+00
 -1      2081 1.46103E+02 2.28125E+01 0.00000E+00
 -1      2082 1.44804E+02 2.20750E+01 0.00000E+00
 -1      2083 1.46103E+02 2.72375E+01 0.00000E+00
 -1      2084 1.46103E+02 2.57625E+01 0.00000E+00
 -1      2085 1.44804E+02 2.50250E+01 0.00000E+00
 -1      2086 1.46103E+02 3.01875E+01 0.00000E+00
 -1      2087 1.46103E+02 2.87125E+01 0.00000E+00
 -1      2088 1.44804E+02 2.79750E+01 0.00000E+00
 -1      2089 1.46103E+02 3.30875E+01 0.00000E+00
 -1      2090 1.46103E+02 3.16375E+01 0.00000E+00
 -1      2091 1.44804E+02 3.09000E+01 0.00000E+00
 -1      2092 1.46103E+02 3.60375E+01 0.00000E+00
 -1      2093 1.46103E+02 3.45625E+01 0.00000E+00
 -1      2094 1.44804E+02 3.38250E+01 0.00000E+00
 -1      2095 1.46103E+02 3.89875E+01 0.00000E+00
 -1      2096 1.46103E+02 3.75125E+01 0.00000E+00
 -1      2097 1.44804E+02 3.67750E+01 0.00000E+00
 -1      2098 1.46103E+02 4.19375E+01 0.00000E+00
 -1      2099 1.46103E+02 4.04625E+01 0.00000E+00
 -1      2100 1.44804E+02 3.97250E+01 0.00000E+00
 -1      2101 1.15862E+02 3.13194E+01 0.00000E+00
 -1      2102 1.16306E+02 3.21791E+01 0.00000E+00
 -1      2103 1.17221E+02 3.22726E+01 0.00000E+00
 -1      2104 1.46526E+02 4.65135E+01 0.00000E+00
 -1      2105 4.84800E+00 4.57510E+01 0.00000E+00
 -1      2106 1.17645E+02 3.66810E+01 0.00000E+00
 -1      2107 1.17572E+02 3.75342E+01 0.00000E+00
 -1      2108 1.15358E+02 4.29447E+01 0.00000E+00
 -1      2109 1.14941E+02 4.34705E+01 0.00000E+00
 -1      2110 1.16186E+02 4.29460E+01 0.00000E+00
 -1      2111 1.17408E+02 3.84137E+01 0.00000E+00
 -1      2112 1.17257E+02 3.91881E+01 0.00000E+00
 -1      2113 3.89700E+00 3.74688E+01 0.00000E+00
 -1      2114 3.89700E+00 3.89437E+01 0.00000E+00
 -1      2115 5.19600E+00 3.96813E+01 0.00000E+00
 -1      2116 5.19600E+00 3.67438E+01 0.00000E+00
 -1      2117 1.13999E+02 2.99341E+01 0.00000E+00
 -1      2118 1.14849E+02 3.03900E+01 0.00000E+00
 -1      2119 1.12557E+02 2.90755E+01 0.00000E+00
 -1      2120 1.13278E+02 2.95048E+01 0.00000E+00
 -1      2121 1.14029E+02 2.91248E+01 0.00000E+00
 -1      2122 1.10749E+02 2.84950E+01 0.00000E+00
 -1      2123 1.11560E+02 2.86878E+01 0.00000E+00
 -1      2124 1.09005E+02 2.81301E+01 0.00000E+00
 -1      2125 1.09872E+02 2.82754E+01 0.00000E+00
 -1      2126 1.06984E+02 2.82636E+01 0.00000E+00
 -1      2127 1.07868E+02 2.81001E+01 0.00000E+00
 -1      2128 1.05211E+02 2.89636E+01 0.00000E+00
 -1      2129 1.06042E+02 2.86538E+01 0.00000E+00
 -1      2130 1.03525E+02 2.99440E+01 0.00000E+00
 -1      2131 1.04256E+02 2.94236E+01 0.00000E+00
 -1      2132 1.02072E+02 3.11675E+01 0.00000E+00
 -1      2133 1.02697E+02 3.05371E+01 0.00000E+00
 -1      2134 1.01063E+02 3.27805E+01 0.00000E+00
 -1      2135 1.01530E+02 3.20465E+01 0.00000E+00
 -1      2136 1.00271E+02 3.44468E+01 0.00000E+00
 -1      2137 1.00610E+02 3.36447E+01 0.00000E+00
 -1      2138 9.97491E+01 3.62954E+01 0.00000E+00
 -1      2139 9.98719E+01 3.54262E+01 0.00000E+00
 -1      2140 9.97918E+01 3.81940E+01 0.00000E+00
 -1      2141 9.96931E+01 3.73536E+01 0.00000E+00
 -1      2142 1.00300E+02 3.98859E+01 0.00000E+00
 -1      2143 1.00113E+02 3.90715E+01 0.00000E+00
 -1      2144 1.00919E+02 4.16678E+01 0.00000E+00
 -1      2145 1.00496E+02 4.09423E+01 0.00000E+00
 -1      2146 1.02119E+02 4.30527E+01 0.00000E+00
 -1      2147 1.01577E+02 4.23934E+01 0.00000E+00
 -1      2148 1.03382E+02 4.44954E+01 0.00000E+00
 -1      2149 1.02706E+02 4.38599E+01 0.00000E+00
 -1      2150 1.05230E+02 4.55907E+01 0.00000E+00
 -1      2151 1.04363E+02 4.51378E+01 0.00000E+00
 -1      2152 1.06817E+02 4.63652E+01 0.00000E+00
 -1      2153 1.05895E+02 4.62481E+01 0.00000E+00
 -1      2154 1.08017E+02 4.63652E+01 0.00000E+00
 -1      2155 1.10811E+02 4.62331E+01 0.00000E+00
 -1      2156 1.14282E+02 4.44104E+01 0.00000E+00
 -1      2157 1.13572E+02 4.48029E+01 0.00000E+00
 -1      2158 1.17038E+02 4.00705E+01 0.00000E+00
 -1      2159 1.16746E+02 4.07924E+01 0.00000E+00
 -1      2160 1.17329E+02 3.46640E+01 0.00000E+00
 -1      2161 1.17596E+02 3.55010E+01 0.00000E+00
 -1      2162 1.17931E+02 3.39693E+01 0.00000E+00
 -1      2163 1.12086E+02 4.62331E+01 0.00000E+00
 -1      2164 1.45814E+02 4.53208E+01 0.00000E+00
 -1      2165 1.18132E+02 3.80458E+01 0.00000E+00
 -1      2166 6.34800E+00 4.57510E+01 0.00000E+00
 -1      2167 7.09800E+00 4.44520E+01 0.00000E+00
 -1      2168 1.17750E+02 3.98077E+01 0.00000E+00
 -1      2169 1.12836E+02 4.52079E+01 0.00000E+00
 -1      2170 1.17068E+02 4.15552E+01 0.00000E+00
 -1      2171 1.00503E+02 4.48032E+01 0.00000E+00
 -1      2172 1.01253E+02 4.61022E+01 0.00000E+00
 -1      2173 1.02753E+02 4.61022E+01 0.00000E+00
 -1      2174 1.03734E+02 4.67446E+01 0.00000E+00
 -1      2175 1.05084E+02 4.67446E+01 0.00000E+00
 -1      2176 1.15912E+02 4.51842E+01 0.00000E+00
 -1      2177 1.45814E+02 4.38458E+01 0.00000E+00
 -1      2178 1.08422E+02 2.74510E+01 0.00000E+00
 -1      2179 1.44514E+02 4.31083E+01 0.00000E+00
 -1      2180 1.15763E+02 3.04835E+01 0.00000E+00
 -1      2181 1.16678E+02 3.05771E+01 0.00000E+00
 -1      2182 1.15665E+02 2.96477E+01 0.00000E+00
 -1      2183 1.18247E+02 3.59863E+01 0.00000E+00
 -1      2184 1.15109E+02 4.44118E+01 0.00000E+00
 -1      2185 1.03438E+02 4.54448E+01 0.00000E+00
 -1      2186 1.01870E+02 4.39952E+01 0.00000E+00
 -1      2187 1.00625E+02 4.24623E+01 0.00000E+00
 -1      2188 9.97708E+01 4.06803E+01 0.00000E+00
 -1      2189 9.92538E+01 3.87464E+01 0.00000E+00
 -1      2190 9.89883E+01 3.68108E+01 0.00000E+00
 -1      2191 9.94439E+01 3.47733E+01 0.00000E+00
 -1      2192 1.00296E+02 3.29298E+01 0.00000E+00
 -1      2193 1.01292E+02 3.11867E+01 0.00000E+00
 -1      2194 1.02663E+02 2.97147E+01 0.00000E+00
 -1      2195 1.04445E+02 2.86615E+01 0.00000E+00
 -1      2196 1.06343E+02 2.78112E+01 0.00000E+00
 -1      2197 1.12311E+02 2.83078E+01 0.00000E+00
 -1      2198 1.10437E+02 2.77006E+01 0.00000E+00
 -1      2199 6.49500E+00 3.01125E+01 0.00000E+00
 -1      2200 6.49500E+00 3.15875E+01 0.00000E+00
 -1      2201 6.49500E+00 3.30625E+01 0.00000E+00
 -1      2202 6.49500E+00 3.45375E+01 0.00000E+00
 -1      2203 7.79400E+00 3.23250E+01 0.00000E+00
 -1      2204 6.49500E+00 2.42125E+01 0.00000E+00
 -1      2205 6.49500E+00 2.56875E+01 0.00000E+00
 -1      2206 6.49500E+00 2.12625E+01 0.00000E+00
 -1      2207 6.49500E+00 2.27375E+01 0.00000E+00
 -1      2208 7.79400E+00 2.34750E+01 0.00000E+00
 -1      2209 6.49500E+00 1.83625E+01 0.00000E+00
 -1      2210 6.49500E+00 1.98125E+01 0.00000E+00
 -1      2211 7.79400E+00 2.05500E+01 0.00000E+00
 -1      2212 6.49500E+00 1.54125E+01 0.00000E+00
 -1      2213 6.49500E+00 1.68875E+01 0.00000E+00
 -1      2214 7.79400E+00 1.76250E+01 0.00000E+00
 -1      2215 6.49500E+00 1.24625E+01 0.00000E+00
 -1      2216 6.49500E+00 1.39375E+01 0.00000E+00
 -1      2217 7.79400E+00 1.46750E+01 0.00000E+00
 -1      2218 6.49500E+00 9.51250E+00 0.00000E+00
 -1      2219 6.49500E+00 1.09875E+01 0.00000E+00
 -1      2220 7.79400E+00 1.17250E+01 0.00000E+00
 -1      2221 6.49500E+00 6.56250E+00 0.00000E+00
 -1      2222 6.49500E+00 8.03750E+00 0.00000E+00
 -1      2223 7.79400E+00 8.77500E+00 0.00000E+00
 -1      2224 6.84975E+00 4.82969E+00 0.00000E+00
 -1      2225 6.68025E+00 5.73906E+00 0.00000E+00
 -1      2226 7.97925E+00 6.47656E+00 0.00000E+00
 -1      2227 8.34975E+00 4.82969E+00 0.00000E+00
 -1      2228 1.18692E+02 3.95724E+01 0.00000E+00
 -1      2229 1.18474E+02 4.04548E+01 0.00000E+00
 -1      2230 9.75000E+00 4.35050E+01 0.00000E+00
 -1      2231 1.12500E+01 4.35050E+01 0.00000E+00
 -1      2232 1.27500E+01 4.35050E+01 0.00000E+00
 -1      2233 1.42500E+01 4.35050E+01 0.00000E+00
 -1      2234 1.20000E+01 4.22060E+01 0.00000E+00
 -1      2235 1.57500E+01 4.35050E+01 0.00000E+00
 -1      2236 1.72500E+01 4.35050E+01 0.00000E+00
 -1      2237 1.50000E+01 4.22060E+01 0.00000E+00
 -1      2238 1.87500E+01 4.35050E+01 0.00000E+00
 -1      2239 2.02500E+01 4.35050E+01 0.00000E+00
 -1      2240 1.80000E+01 4.22060E+01 0.00000E+00
 -1      2241 2.17500E+01 4.35050E+01 0.00000E+00
 -1      2242 2.32500E+01 4.35050E+01 0.00000E+00
 -1      2243 2.10000E+01 4.22060E+01 0.00000E+00
 -1      2244 2.47500E+01 4.35050E+01 0.00000E+00
 -1      2245 2.62500E+01 4.35050E+01 0.00000E+00
 -1      2246 2.40000E+01 4.22060E+01 0.00000E+00
 -1      2247 2.77500E+01 4.35050E+01 0.00000E+00
 -1      2248 2.92500E+01 4.35050E+01 0.00000E+00
 -1      2249 2.70000E+01 4.22060E+01 0.00000E+00
 -1      2250 3.07500E+01 4.35050E+01 0.00000E+00
 -1      2251 3.22500E+01 4.35050E+01 0.00000E+00
 -1      2252 3.00000E+01 4.22060E+01 0.00000E+00
 -1      2253 3.37500E+01 4.35050E+01 0.00000E+00
 -1      2254 3.52500E+01 4.35050E+01 0.00000E+00
 -1      2255 3.30000E+01 4.22060E+01 0.00000E+00
 -1      2256 3.67500E+01 4.35050E+01 0.00000E+00
 -1      2257 3.82500E+01 4.35050E+01 0.00000E+00
 -1      2258 3.60000E+01 4.22060E+01 0.00000E+00
 -1      2259 3.97500E+01 4.35050E+01 0.00000E+00
 -1      2260 4.12500E+01 4.35050E+01 0.00000E+00
 -1      2261 3.90000E+01 4.22060E+01 0.00000E+00
 -1      2262 4.26750E+01 4.35050E+01 0.00000E+00
 -1      2263 4.41000E+01 4.35050E+01 0.00000E+00
 -1      2264 4.19250E+01 4.22060E+01 0.00000E+00
 -1      2265 4.56000E+01 4.35050E+01 0.00000E+00
 -1      2266 4.71000E+01 4.35050E+01 0.00000E+00
 -1      2267 4.48500E+01 4.22060E+01 0.00000E+00
 -1      2268 4.86000E+01 4.35050E+01 0.00000E+00
 -1      2269 5.01000E+01 4.35050E+01 0.00000E+00
 -1      2270 4.78500E+01 4.22060E+01 0.00000E+00
 -1      2271 5.16000E+01 4.35050E+01 0.00000E+00
 -1      2272 5.31000E+01 4.35050E+01 0.00000E+00
 -1      2273 5.08500E+01 4.22060E+01 0.00000E+00
 -1      2274 5.46000E+01 4.35050E+01 0.00000E+00
 -1      2275 5.61000E+01 4.35050E+01 0.00000E+00
 -1      2276 5.38500E+01 4.22060E+01 0.00000E+00
 -1      2277 5.76000E+01 4.35050E+01 0.00000E+00
 -1      2278 5.91000E+01 4.35050E+01 0.00000E+00
 -1      2279 5.68500E+01 4.22060E+01 0.00000E+00
 -1      2280 6.06000E+01 4.35050E+01 0.00000E+00
 -1      2281 6.21000E+01 4.35050E+01 0.00000E+00
 -1      2282 5.98500E+01 4.22060E+01 0.00000E+00
 -1      2283 6.36000E+01 4.35050E+01 0.00000E+00
 -1      2284 6.51000E+01 4.35050E+01 0.00000E+00
 -1      2285 6.28500E+01 4.22060E+01 0.00000E+00
 -1      2286 6.66000E+01 4.35050E+01 0.00000E+00
 -1      2287 6.81000E+01 4.35050E+01 0.00000E+00
 -1      2288 6.58500E+01 4.22060E+01 0.00000E+00
 -1      2289 6.96000E+01 4.35050E+01 0.00000E+00
 -1      2290 7.11000E+01 4.35050E+01 0.00000E+00
 -1      2291 6.88500E+01 4.22060E+01 0.00000E+00
 -1      2292 7.26000E+01 4.35050E+01 0.00000E+00
 -1      2293 7.41000E+01 4.35050E+01 0.00000E+00
 -1      2294 7.18500E+01 4.22060E+01 0.00000E+00
 -1      2295 7.56000E+01 4.35050E+01 0.00000E+00
 -1      2296 7.71000E+01 4.35050E+01 0.00000E+00
 -1      2297 7.48500E+01 4.22060E+01 0.00000E+00
 -1      2298 7.86000E+01 4.35050E+01 0.00000E+00
 -1      2299 8.01000E+01 4.35050E+01 0.00000E+00
 -1      2300 7.78500E+01 4.22060E+01 0.00000E+00
 -1      2301 8.16000E+01 4.35050E+01 0.00000E+00
 -1      2302 8.31000E+01 4.35050E+01 0.00000E+00
 -1      2303 8.08500E+01 4.22060E+01 0.00000E+00
 -1      2304 8.46000E+01 4.35050E+01 0.00000E+00
 -1      2305 8.61000E+01 4.35050E+01 0.00000E+00
 -1      2306 8.38500E+01 4.22060E+01 0.00000E+00
 -1      2307 8.75250E+01 4.35050E+01 0.00000E+00
 -1      2308 8.89500E+01 4.35050E+01 0.00000E+00
 -1      2309 8.67750E+01 4.22060E+01 0.00000E+00
 -1      2310 9.04500E+01 4.35050E+01 0.00000E+00
 -1      2311 9.19500E+01 4.35050E+01 0.00000E+00
 -1      2312 8.97000E+01 4.22060E+01 0.00000E+00
 -1      2313 9.34500E+01 4.35050E+01 0.00000E+00
 -1      2314 9.49500E+01 4.35050E+01 0.00000E+00
 -1      2315 9.27000E+01 4.22060E+01 0.00000E+00
 -1      2316 9.63750E+01 4.35050E+01 0.00000E+00
 -1      2317 9.78000E+01 4.35050E+01 0.00000E+00
 -1      2318 9.56250E+01 4.22060E+01 0.00000E+00
 -1      2319 1.16572E+02 4.42442E+01 0.00000E+00
 -1      2320 1.19019E+02 3.78133E+01 0.00000E+00
 -1      2321 1.18855E+02 3.86928E+01 0.00000E+00
 -1      2322 1.19579E+02 3.93398E+01 0.00000E+00
 -1      2323 1.13497E+01 4.82969E+00 0.00000E+00
 -1      2324 9.84975E+00 4.82969E+00 0.00000E+00
 -1      2325 9.66450E+00 5.65312E+00 0.00000E+00
 -1      2326 1.20975E+02 4.39915E+01 0.00000E+00
 -1      2327 1.22475E+02 4.39915E+01 0.00000E+00
 -1      2328 1.23975E+02 4.39077E+01 0.00000E+00
 -1      2329 1.25475E+02 4.39077E+01 0.00000E+00
 -1      2330 1.26975E+02 4.39077E+01 0.00000E+00
 -1      2331 1.28475E+02 4.39077E+01 0.00000E+00
 -1      2332 1.26225E+02 4.27988E+01 0.00000E+00
 -1      2333 1.29975E+02 4.39077E+01 0.00000E+00
 -1      2334 1.31475E+02 4.39077E+01 0.00000E+00
 -1      2335 1.29225E+02 4.27988E+01 0.00000E+00
 -1      2336 1.32975E+02 4.39077E+01 0.00000E+00
 -1      2337 1.34475E+02 4.39077E+01 0.00000E+00
 -1      2338 1.32225E+02 4.27988E+01 0.00000E+00
 -1      2339 1.35975E+02 4.39077E+01 0.00000E+00
 -1      2340 1.37475E+02 4.39077E+01 0.00000E+00
 -1      2341 1.35225E+02 4.27988E+01 0.00000E+00
 -1      2342 1.38975E+02 4.39077E+01 0.00000E+00
 -1      2343 1.40475E+02 4.39077E+01 0.00000E+00
 -1      2344 1.38225E+02 4.27988E+01 0.00000E+00
 -1      2345 1.41745E+02 4.35080E+01 0.00000E+00
 -1      2346 1.43245E+02 4.35080E+01 0.00000E+00
 -1      2347 1.43534E+02 4.15997E+01 0.00000E+00
 -1      2348 1.40995E+02 4.23991E+01 0.00000E+00
 -1      2349 1.67850E+01 5.30525E+00 0.00000E+00
 -1      2350 1.52850E+01 5.30525E+00 0.00000E+00
 -1      2351 1.40674E+01 5.06747E+00 0.00000E+00
 -1      2352 1.25674E+01 5.06747E+00 0.00000E+00
 -1      2353 1.23821E+01 5.89091E+00 0.00000E+00
 -1      2354 1.48174E+01 6.36647E+00 0.00000E+00
 -1      2355 2.27850E+01 5.30525E+00 0.00000E+00
 -1      2356 2.12850E+01 5.30525E+00 0.00000E+00
 -1      2357 2.57850E+01 5.30525E+00 0.00000E+00
 -1      2358 2.42850E+01 5.30525E+00 0.00000E+00
 -1      2359 2.35350E+01 6.60425E+00 0.00000E+00
 -1      2360 2.87850E+01 5.30525E+00 0.00000E+00
 -1      2361 2.72850E+01 5.30525E+00 0.00000E+00
 -1      2362 2.65350E+01 6.60425E+00 0.00000E+00
 -1      2363 3.17850E+01 5.30525E+00 0.00000E+00
 -1      2364 3.02850E+01 5.30525E+00 0.00000E+00
 -1      2365 2.95350E+01 6.60425E+00 0.00000E+00
 -1      2366 3.47850E+01 5.30525E+00 0.00000E+00
 -1      2367 3.32850E+01 5.30525E+00 0.00000E+00
 -1      2368 3.25350E+01 6.60425E+00 0.00000E+00
 -1      2369 3.77850E+01 5.30525E+00 0.00000E+00
 -1      2370 3.62850E+01 5.30525E+00 0.00000E+00
 -1      2371 3.55350E+01 6.60425E+00 0.00000E+00
 -1      2372 4.07850E+01 5.30525E+00 0.00000E+00
 -1      2373 3.92850E+01 5.30525E+00 0.00000E+00
 -1      2374 3.85350E+01 6.60425E+00 0.00000E+00
 -1      2375 4.37850E+01 5.30525E+00 0.00000E+00
 -1      2376 4.22850E+01 5.30525E+00 0.00000E+00
 -1      2377 4.15350E+01 6.60425E+00 0.00000E+00
 -1      2378 4.67850E+01 5.30525E+00 0.00000E+00
 -1      2379 4.52850E+01 5.30525E+00 0.00000E+00
 -1      2380 4.45350E+01 6.60425E+00 0.00000E+00
 -1      2381 4.97850E+01 5.30525E+00 0.00000E+00
 -1      2382 4.82850E+01 5.30525E+00 0.00000E+00
 -1      2383 4.75350E+01 6.60425E+00 0.00000E+00
 -1      2384 5.27850E+01 5.30525E+00 0.00000E+00
 -1      2385 5.12850E+01 5.30525E+00 0.00000E+00
 -1      2386 5.05350E+01 6.60425E+00 0.00000E+00
 -1      2387 5.57850E+01 5.30525E+00 0.00000E+00
 -1      2388 5.42850E+01 5.30525E+00 0.00000E+00
 -1      2389 5.35350E+01 6.60425E+00 0.00000E+00
 -1      2390 5.87850E+01 5.30525E+00 0.00000E+00
 -1      2391 5.72850E+01 5.30525E+00 0.00000E+00
 -1      2392 5.65350E+01 6.60425E+00 0.00000E+00
 -1      2393 6.17850E+01 5.30525E+00 0.00000E+00
 -1      2394 6.02850E+01 5.30525E+00 0.00000E+00
 -1      2395 5.95350E+01 6.60425E+00 0.00000E+00
 -1      2396 6.47850E+01 5.30525E+00 0.00000E+00
 -1      2397 6.32850E+01 5.30525E+00 0.00000E+00
 -1      2398 6.25350E+01 6.60425E+00 0.00000E+00
 -1      2399 6.77850E+01 5.30525E+00 0.00000E+00
 -1      2400 6.62850E+01 5.30525E+00 0.00000E+00
 -1      2401 6.55350E+01 6.60425E+00 0.00000E+00
 -1      2402 7.07850E+01 5.30525E+00 0.00000E+00
 -1      2403 6.92850E+01 5.30525E+00 0.00000E+00
 -1      2404 6.85350E+01 6.60425E+00 0.00000E+00
 -1      2405 7.37850E+01 5.30525E+00 0.00000E+00
 -1      2406 7.22850E+01 5.30525E+00 0.00000E+00
 -1      2407 7.15350E+01 6.60425E+00 0.00000E+00
 -1      2408 7.67850E+01 5.30525E+00 0.00000E+00
 -1      2409 7.52850E+01 5.30525E+00 0.00000E+00
 -1      2410 7.45350E+01 6.60425E+00 0.00000E+00
 -1      2411 7.97850E+01 5.30525E+00 0.00000E+00
 -1      2412 7.82850E+01 5.30525E+00 0.00000E+00
 -1      2413 7.75350E+01 6.60425E+00 0.00000E+00
 -1      2414 8.27850E+01 5.30525E+00 0.00000E+00
 -1      2415 8.12850E+01 5.30525E+00 0.00000E+00
 -1      2416 8.05350E+01 6.60425E+00 0.00000E+00
 -1      2417 8.57850E+01 5.30525E+00 0.00000E+00
 -1      2418 8.42850E+01 5.30525E+00 0.00000E+00
 -1      2419 8.35350E+01 6.60425E+00 0.00000E+00
 -1      2420 8.87850E+01 5.30525E+00 0.00000E+00
 -1      2421 8.72850E+01 5.30525E+00 0.00000E+00
 -1      2422 8.65350E+01 6.60425E+00 0.00000E+00
 -1      2423 9.17850E+01 5.30525E+00 0.00000E+00
 -1      2424 9.02850E+01 5.30525E+00 0.00000E+00
 -1      2425 8.95350E+01 6.60425E+00 0.00000E+00
 -1      2426 9.47850E+01 5.30525E+00 0.00000E+00
 -1      2427 9.32850E+01 5.30525E+00 0.00000E+00
 -1      2428 9.25350E+01 6.60425E+00 0.00000E+00
 -1      2429 9.77850E+01 5.30525E+00 0.00000E+00
 -1      2430 9.62850E+01 5.30525E+00 0.00000E+00
 -1      2431 9.55350E+01 6.60425E+00 0.00000E+00
 -1      2432 1.00785E+02 5.30525E+00 0.00000E+00
 -1      2433 9.92850E+01 5.30525E+00 0.00000E+00
 -1      2434 9.85350E+01 6.60425E+00 0.00000E+00
 -1      2435 1.03785E+02 5.30525E+00 0.00000E+00
 -1      2436 1.02285E+02 5.30525E+00 0.00000E+00
 -1      2437 1.01535E+02 6.60425E+00 0.00000E+00
 -1      2438 1.06785E+02 5.30525E+00 0.00000E+00
 -1      2439 1.05285E+02 5.30525E+00 0.00000E+00
 -1      2440 1.04535E+02 6.60425E+00 0.00000E+00
 -1      2441 1.09785E+02 5.30525E+00 0.00000E+00
 -1      2442 1.08285E+02 5.30525E+00 0.00000E+00
 -1      2443 1.07535E+02 6.60425E+00 0.00000E+00
 -1      2444 1.12785E+02 5.30525E+00 0.00000E+00
 -1      2445 1.11285E+02 5.30525E+00 0.00000E+00
 -1      2446 1.10535E+02 6.60425E+00 0.00000E+00
 -1      2447 1.15785E+02 5.30525E+00 0.00000E+00
 -1      2448 1.14285E+02 5.30525E+00 0.00000E+00
 -1      2449 1.13535E+02 6.60425E+00 0.00000E+00
 -1      2450 1.18785E+02 5.30525E+00 0.00000E+00
 -1      2451 1.17285E+02 5.30525E+00 0.00000E+00
 -1      2452 1.16535E+02 6.60425E+00 0.00000E+00
 -1      2453 1.21785E+02 5.30525E+00 0.00000E+00
 -1      2454 1.20285E+02 5.30525E+00 0.00000E+00
 -1      2455 1.19535E+02 6.60425E+00 0.00000E+00
 -1      2456 1.24785E+02 5.30525E+00 0.00000E+00
 -1      2457 1.23285E+02 5.30525E+00 0.00000E+00
 -1      2458 1.22535E+02 6.60425E+00 0.00000E+00
 -1      2459 1.27785E+02 5.30525E+00 0.00000E+00
 -1      2460 1.26285E+02 5.30525E+00 0.00000E+00
 -1      2461 1.25535E+02 6.60425E+00 0.00000E+00
 -1      2462 1.30785E+02 5.30525E+00 0.00000E+00
 -1      2463 1.29285E+02 5.30525E+00 0.00000E+00
 -1      2464 1.28535E+02 6.60425E+00 0.00000E+00
 -1      2465 1.33785E+02 5.30525E+00 0.00000E+00
 -1      2466 1.32285E+02 5.30525E+00 0.00000E+00
 -1      2467 1.31535E+02 6.60425E+00 0.00000E+00
 -1      2468 1.36785E+02 5.30525E+00 0.00000E+00
 -1      2469 1.35285E+02 5.30525E+00 0.00000E+00
 -1      2470 1.34535E+02 6.60425E+00 0.00000E+00
 -1      2471 1.39785E+02 5.30525E+00 0.00000E+00
 -1      2472 1.38285E+02 5.30525E+00 0.00000E+00
 -1      2473 1.37535E+02 6.60425E+00 0.00000E+00
 -1      2474 1.42785E+02 5.30525E+00 0.00000E+00
 -1      2475 1.41285E+02 5.30525E+00 0.00000E+00
 -1      2476 1.40535E+02 6.60425E+00 0.00000E+00
 -1      2477 1.44336E+02 5.26953E+00 0.00000E+00
 -1      2478 1.43505E+02 1.69125E+01 0.00000E+00
 -1      2479 1.43505E+02 1.54375E+01 0.00000E+00
 -1      2480 1.43505E+02 1.98625E+01 0.00000E+00
 -1      2481 1.43505E+02 1.83875E+01 0.00000E+00
 -1      2482 1.42206E+02 1.76500E+01 0.00000E+00
 -1      2483 1.43505E+02 1.10625E+01 0.00000E+00
 -1      2484 1.43505E+02 9.58750E+00 0.00000E+00
 -1      2485 1.43505E+02 1.39750E+01 0.00000E+00
 -1      2486 1.43505E+02 1.25250E+01 0.00000E+00
 -1      2487 1.42206E+02 1.17875E+01 0.00000E+00
 -1      2488 1.42206E+02 1.47125E+01 0.00000E+00
 -1      2489 1.43505E+02 2.28125E+01 0.00000E+00
 -1      2490 1.43505E+02 2.13375E+01 0.00000E+00
 -1      2491 1.42206E+02 2.06000E+01 0.00000E+00
 -1      2492 1.43505E+02 2.57625E+01 0.00000E+00
 -1      2493 1.43505E+02 2.42875E+01 0.00000E+00
 -1      2494 1.42206E+02 2.35500E+01 0.00000E+00
 -1      2495 1.43505E+02 2.87125E+01 0.00000E+00
 -1      2496 1.43505E+02 2.72375E+01 0.00000E+00
 -1      2497 1.42206E+02 2.65000E+01 0.00000E+00
 -1      2498 1.43505E+02 3.16125E+01 0.00000E+00
 -1      2499 1.43505E+02 3.01625E+01 0.00000E+00
 -1      2500 1.42206E+02 2.94250E+01 0.00000E+00
 -1      2501 1.43505E+02 3.45625E+01 0.00000E+00
 -1      2502 1.43505E+02 3.30875E+01 0.00000E+00
 -1      2503 1.42206E+02 3.23500E+01 0.00000E+00
 -1      2504 1.43505E+02 3.75125E+01 0.00000E+00
 -1      2505 1.43505E+02 3.60375E+01 0.00000E+00
 -1      2506 1.42206E+02 3.53000E+01 0.00000E+00
 -1      2507 1.43520E+02 4.02936E+01 0.00000E+00
 -1      2508 1.43520E+02 3.88186E+01 0.00000E+00
 -1      2509 1.42221E+02 3.80811E+01 0.00000E+00
 -1      2510 1.42250E+02 4.06933E+01 0.00000E+00
 -1      2511 1.17834E+02 3.14103E+01 0.00000E+00
 -1      2512 1.18279E+02 3.22700E+01 0.00000E+00
 -1      2513 1.07875E+02 2.66206E+01 0.00000E+00
 -1      2514 1.09012E+02 2.66506E+01 0.00000E+00
 -1      2515 1.18545E+02 3.31070E+01 0.00000E+00
 -1      2516 1.18811E+02 3.39441E+01 0.00000E+00
 -1      2517 1.19159E+02 3.22448E+01 0.00000E+00
 -1      2518 1.97850E+01 5.30525E+00 0.00000E+00
 -1      2519 1.82850E+01 5.30525E+00 0.00000E+00
 -1      2520 1.75350E+01 6.60425E+00 0.00000E+00
 -1      2521 2.05350E+01 6.60425E+00 0.00000E+00
 -1      2522 1.18088E+02 4.41590E+01 0.00000E+00
 -1      2523 1.19512E+02 4.41590E+01 0.00000E+00
 -1      2524 6.52200E+00 4.28890E+01 0.00000E+00
 -1      2525 8.42400E+00 4.32410E+01 0.00000E+00
 -1      2526 9.17400E+00 4.19420E+01 0.00000E+00
 -1      2527 6.52200E+00 4.14140E+01 0.00000E+00
 -1      2528 1.17982E+02 4.14886E+01 0.00000E+00
 -1      2529 1.17517E+02 4.23537E+01 0.00000E+00
 -1      2530 6.49500E+00 2.71625E+01 0.00000E+00
 -1      2531 6.49500E+00 2.86375E+01 0.00000E+00
 -1      2532 7.79400E+00 2.93750E+01 0.00000E+00
 -1      2533 7.79400E+00 2.64250E+01 0.00000E+00
 -1      2534 1.14043E+02 2.82812E+01 0.00000E+00
 -1      2535 1.14764E+02 2.87106E+01 0.00000E+00
 -1      2536 1.12063E+02 2.74709E+01 0.00000E+00
 -1      2537 1.13059E+02 2.78586E+01 0.00000E+00
 -1      2538 1.05543E+02 2.72140E+01 0.00000E+00
 -1      2539 1.06486E+02 2.68238E+01 0.00000E+00
 -1      2540 1.03596E+02 2.81190E+01 0.00000E+00
 -1      2541 1.04550E+02 2.76589E+01 0.00000E+00
 -1      2542 1.01701E+02 2.92460E+01 0.00000E+00
 -1      2543 1.02528E+02 2.86529E+01 0.00000E+00
 -1      2544 1.00291E+02 3.11756E+01 0.00000E+00
 -1      2545 1.00834E+02 3.02966E+01 0.00000E+00
 -1      2546 9.93852E+01 3.29038E+01 0.00000E+00
 -1      2547 9.98381E+01 3.20397E+01 0.00000E+00
 -1      2548 9.93799E+01 3.11496E+01 0.00000E+00
 -1      2549 9.85664E+01 3.49865E+01 0.00000E+00
 -1      2550 9.89660E+01 3.40071E+01 0.00000E+00
 -1      2551 9.81040E+01 3.72945E+01 0.00000E+00
 -1      2552 9.81600E+01 3.62364E+01 0.00000E+00
 -1      2553 9.87273E+01 3.94369E+01 0.00000E+00
 -1      2554 9.84058E+01 3.85594E+01 0.00000E+00
 -1      2555 1.00350E+02 4.33731E+01 0.00000E+00
 -1      2556 9.96914E+01 4.26476E+01 0.00000E+00
 -1      2557 1.10176E+02 2.68808E+01 0.00000E+00
 -1      2558 1.11053E+02 2.71004E+01 0.00000E+00
 -1      2559 1.19079E+02 3.53607E+01 0.00000E+00
 -1      2560 1.19128E+02 3.65407E+01 0.00000E+00
 -1      2561 1.13794E+02 2.74443E+01 0.00000E+00
 -1      2562 7.79400E+00 3.52687E+01 0.00000E+00
 -1      2563 6.49500E+00 3.60062E+01 0.00000E+00
 -1      2564 6.49500E+00 3.74750E+01 0.00000E+00
 -1      2565 1.23225E+02 4.28826E+01 0.00000E+00
 -1      2566 1.18923E+02 4.12532E+01 0.00000E+00
 -1      2567 1.17284E+02 4.33866E+01 0.00000E+00
 -1      2568 1.09629E+02 2.60504E+01 0.00000E+00
 -1      2569 1.15692E+02 2.79605E+01 0.00000E+00
 -1      2570 1.15679E+02 2.88041E+01 0.00000E+00
 -1      2571 1.16593E+02 2.88976E+01 0.00000E+00
 -1      2572 1.19851E+02 3.71877E+01 0.00000E+00
 -1      2573 1.20262E+02 4.31339E+01 0.00000E+00
 -1      2574 1.43586E+02 6.56853E+00 0.00000E+00
 -1      2575 1.43419E+02 7.72713E+00 0.00000E+00
 -1      2576 1.17736E+02 3.05744E+01 0.00000E+00
 -1      2577 1.18795E+02 3.05718E+01 0.00000E+00
 -1      2578 1.17638E+02 2.97386E+01 0.00000E+00
 -1      2579 1.07076E+02 2.60234E+01 0.00000E+00
 -1      2580 1.19693E+02 3.44985E+01 0.00000E+00
 -1      2581 9.75775E+01 3.79850E+01 0.00000E+00
 -1      2582 9.85078E+01 3.31170E+01 0.00000E+00
 -1      2583 1.00700E+02 2.92349E+01 0.00000E+00
 -1      2584 1.02634E+02 2.76503E+01 0.00000E+00
 -1      2585 1.04694E+02 2.66715E+01 0.00000E+00
 -1      2586 6.50850E+00 3.87101E+01 0.00000E+00
 -1      2587 6.50850E+00 4.01789E+01 0.00000E+00
 -1      2588 7.83450E+00 4.04429E+01 0.00000E+00
 -1      2589 7.80750E+00 3.79726E+01 0.00000E+00
 -1      2590 1.11802E+02 2.66511E+01 0.00000E+00
 -1      2591 9.99164E+01 4.39960E+01 0.00000E+00
 -1      2592 9.76821E+01 3.54702E+01 0.00000E+00
 -1      2593 9.89430E+01 4.13799E+01 0.00000E+00
 -1      2594 9.87474E+01 4.03235E+01 0.00000E+00
 -1      2595 1.42120E+02 8.46463E+00 0.00000E+00
 -1      2596 9.86680E+01 4.22907E+01 0.00000E+00
 -1      2597 9.78995E+01 4.01365E+01 0.00000E+00
 -1      2598 9.09300E+00 1.98250E+01 0.00000E+00
 -1      2599 9.09300E+00 2.12750E+01 0.00000E+00
 -1      2600 9.09300E+00 2.27500E+01 0.00000E+00
 -1      2601 9.09300E+00 2.42250E+01 0.00000E+00
 -1      2602 1.03920E+01 2.20250E+01 0.00000E+00
 -1      2603 9.09300E+00 1.39375E+01 0.00000E+00
 -1      2604 9.09300E+00 1.54125E+01 0.00000E+00
 -1      2605 9.09300E+00 1.09875E+01 0.00000E+00
 -1      2606 9.09300E+00 1.24625E+01 0.00000E+00
 -1      2607 1.03920E+01 1.32000E+01 0.00000E+00
 -1      2608 9.09300E+00 8.03750E+00 0.00000E+00
 -1      2609 9.09300E+00 9.51250E+00 0.00000E+00
 -1      2610 1.03920E+01 1.02500E+01 0.00000E+00
 -1      2611 9.47138E+00 6.43359E+00 0.00000E+00
 -1      2612 9.28613E+00 7.25703E+00 0.00000E+00
 -1      2613 1.05851E+01 7.99453E+00 0.00000E+00
 -1      2614 1.09714E+01 6.43359E+00 0.00000E+00
 -1      2615 9.09300E+00 3.15875E+01 0.00000E+00
 -1      2616 9.09300E+00 3.30625E+01 0.00000E+00
 -1      2617 1.42500E+01 4.09070E+01 0.00000E+00
 -1      2618 1.57500E+01 4.09070E+01 0.00000E+00
 -1      2619 1.72500E+01 4.09070E+01 0.00000E+00
 -1      2620 1.87500E+01 4.09070E+01 0.00000E+00
 -1      2621 1.65000E+01 3.96080E+01 0.00000E+00
 -1      2622 2.02500E+01 4.09070E+01 0.00000E+00
 -1      2623 2.17500E+01 4.09070E+01 0.00000E+00
 -1      2624 1.95000E+01 3.96080E+01 0.00000E+00
 -1      2625 2.32500E+01 4.09070E+01 0.00000E+00
 -1      2626 2.47500E+01 4.09070E+01 0.00000E+00
 -1      2627 2.25000E+01 3.96080E+01 0.00000E+00
 -1      2628 2.62500E+01 4.09070E+01 0.00000E+00
 -1      2629 2.77500E+01 4.09070E+01 0.00000E+00
 -1      2630 2.55000E+01 3.96080E+01 0.00000E+00
 -1      2631 2.92500E+01 4.09070E+01 0.00000E+00
 -1      2632 3.07500E+01 4.09070E+01 0.00000E+00
 -1      2633 2.85000E+01 3.96080E+01 0.00000E+00
 -1      2634 3.22500E+01 4.09070E+01 0.00000E+00
 -1      2635 3.37500E+01 4.09070E+01 0.00000E+00
 -1      2636 3.15000E+01 3.96080E+01 0.00000E+00
 -1      2637 3.52500E+01 4.09070E+01 0.00000E+00
 -1      2638 3.67500E+01 4.09070E+01 0.00000E+00
 -1      2639 3.45000E+01 3.96080E+01 0.00000E+00
 -1      2640 3.82500E+01 4.09070E+01 0.00000E+00
 -1      2641 3.97500E+01 4.09070E+01 0.00000E+00
 -1      2642 3.75000E+01 3.96080E+01 0.00000E+00
 -1      2643 4.11750E+01 4.09070E+01 0.00000E+00
 -1      2644 4.26000E+01 4.09070E+01 0.00000E+00
 -1      2645 4.04250E+01 3.96080E+01 0.00000E+00
 -1      2646 4.41000E+01 4.09070E+01 0.00000E+00
 -1      2647 4.56000E+01 4.09070E+01 0.00000E+00
 -1      2648 4.33500E+01 3.96080E+01 0.00000E+00
 -1      2649 4.71000E+01 4.09070E+01 0.00000E+00
 -1      2650 4.86000E+01 4.09070E+01 0.00000E+00
 -1      2651 4.63500E+01 3.96080E+01 0.00000E+00
 -1      2652 5.01000E+01 4.09070E+01 0.00000E+00
 -1      2653 5.16000E+01 4.09070E+01 0.00000E+00
 -1      2654 4.93500E+01 3.96080E+01 0.00000E+00
 -1      2655 5.31000E+01 4.09070E+01 0.00000E+00
 -1      2656 5.46000E+01 4.09070E+01 0.00000E+00
 -1      2657 5.23500E+01 3.96080E+01 0.00000E+00
 -1      2658 5.61000E+01 4.09070E+01 0.00000E+00
 -1      2659 5.76000E+01 4.09070E+01 0.00000E+00
 -1      2660 5.53500E+01 3.96080E+01 0.00000E+00
 -1      2661 5.91000E+01 4.09070E+01 0.00000E+00
 -1      2662 6.06000E+01 4.09070E+01 0.00000E+00
 -1      2663 5.83500E+01 3.96080E+01 0.00000E+00
 -1      2664 6.21000E+01 4.09070E+01 0.00000E+00
 -1      2665 6.36000E+01 4.09070E+01 0.00000E+00
 -1      2666 6.13500E+01 3.96080E+01 0.00000E+00
 -1      2667 6.51000E+01 4.09070E+01 0.00000E+00
 -1      2668 6.66000E+01 4.09070E+01 0.00000E+00
 -1      2669 6.43500E+01 3.96080E+01 0.00000E+00
 -1      2670 6.81000E+01 4.09070E+01 0.00000E+00
 -1      2671 6.96000E+01 4.09070E+01 0.00000E+00
 -1      2672 6.73500E+01 3.96080E+01 0.00000E+00
 -1      2673 7.11000E+01 4.09070E+01 0.00000E+00
 -1      2674 7.26000E+01 4.09070E+01 0.00000E+00
 -1      2675 7.03500E+01 3.96080E+01 0.00000E+00
 -1      2676 7.41000E+01 4.09070E+01 0.00000E+00
 -1      2677 7.56000E+01 4.09070E+01 0.00000E+00
 -1      2678 7.33500E+01 3.96080E+01 0.00000E+00
 -1      2679 7.71000E+01 4.09070E+01 0.00000E+00
 -1      2680 7.86000E+01 4.09070E+01 0.00000E+00
 -1      2681 7.63500E+01 3.96080E+01 0.00000E+00
 -1      2682 8.01000E+01 4.09070E+01 0.00000E+00
 -1      2683 8.16000E+01 4.09070E+01 0.00000E+00
 -1      2684 7.93500E+01 3.96080E+01 0.00000E+00
 -1      2685 8.31000E+01 4.09070E+01 0.00000E+00
 -1      2686 8.46000E+01 4.09070E+01 0.00000E+00
 -1      2687 8.23500E+01 3.96080E+01 0.00000E+00
 -1      2688 8.60250E+01 4.09070E+01 0.00000E+00
 -1      2689 8.74500E+01 4.09070E+01 0.00000E+00
 -1      2690 8.52750E+01 3.96080E+01 0.00000E+00
 -1      2691 8.89500E+01 4.09070E+01 0.00000E+00
 -1      2692 9.04500E+01 4.09070E+01 0.00000E+00
 -1      2693 8.82000E+01 3.96080E+01 0.00000E+00
 -1      2694 9.19500E+01 4.09070E+01 0.00000E+00
 -1      2695 9.34500E+01 4.09070E+01 0.00000E+00
 -1      2696 9.12000E+01 3.96080E+01 0.00000E+00
 -1      2697 2.72850E+01 7.90325E+00 0.00000E+00
 -1      2698 2.57850E+01 7.90325E+00 0.00000E+00
 -1      2699 1.28475E+02 4.15223E+01 0.00000E+00
 -1      2700 1.29975E+02 4.15223E+01 0.00000E+00
 -1      2701 1.31475E+02 4.15223E+01 0.00000E+00
 -1      2702 1.32975E+02 4.15223E+01 0.00000E+00
 -1      2703 1.30725E+02 4.02458E+01 0.00000E+00
 -1      2704 1.34475E+02 4.15223E+01 0.00000E+00
 -1      2705 1.35975E+02 4.15223E+01 0.00000E+00
 -1      2706 1.33725E+02 4.02458E+01 0.00000E+00
 -1      2707 1.37475E+02 4.15223E+01 0.00000E+00
 -1      2708 1.38975E+02 4.15223E+01 0.00000E+00
 -1      2709 1.36725E+02 4.02458E+01 0.00000E+00
 -1      2710 1.39978E+02 4.13076E+01 0.00000E+00
 -1      2711 1.41247E+02 4.09079E+01 0.00000E+00
 -1      2712 1.41233E+02 3.96018E+01 0.00000E+00
 -1      2713 1.39228E+02 4.00312E+01 0.00000E+00
 -1      2714 3.02850E+01 7.90325E+00 0.00000E+00
 -1      2715 2.87850E+01 7.90325E+00 0.00000E+00
 -1      2716 2.80350E+01 9.20225E+00 0.00000E+00
 -1      2717 2.42850E+01 7.90325E+00 0.00000E+00
 -1      2718 2.27850E+01 7.90325E+00 0.00000E+00
 -1      2719 2.50350E+01 9.20225E+00 0.00000E+00
 -1      2720 3.32850E+01 7.90325E+00 0.00000E+00
 -1      2721 3.17850E+01 7.90325E+00 0.00000E+00
 -1      2722 3.10350E+01 9.20225E+00 0.00000E+00
 -1      2723 3.62850E+01 7.90325E+00 0.00000E+00
 -1      2724 3.47850E+01 7.90325E+00 0.00000E+00
 -1      2725 3.40350E+01 9.20225E+00 0.00000E+00
 -1      2726 3.92850E+01 7.90325E+00 0.00000E+00
 -1      2727 3.77850E+01 7.90325E+00 0.00000E+00
 -1      2728 3.70350E+01 9.20225E+00 0.00000E+00
 -1      2729 4.22850E+01 7.90325E+00 0.00000E+00
 -1      2730 4.07850E+01 7.90325E+00 0.00000E+00
 -1      2731 4.00350E+01 9.20225E+00 0.00000E+00
 -1      2732 4.52850E+01 7.90325E+00 0.00000E+00
 -1      2733 4.37850E+01 7.90325E+00 0.00000E+00
 -1      2734 4.30350E+01 9.20225E+00 0.00000E+00
 -1      2735 4.82850E+01 7.90325E+00 0.00000E+00
 -1      2736 4.67850E+01 7.90325E+00 0.00000E+00
 -1      2737 4.60350E+01 9.20225E+00 0.00000E+00
 -1      2738 5.12850E+01 7.90325E+00 0.00000E+00
 -1      2739 4.97850E+01 7.90325E+00 0.00000E+00
 -1      2740 4.90350E+01 9.20225E+00 0.00000E+00
 -1      2741 5.42850E+01 7.90325E+00 0.00000E+00
 -1      2742 5.27850E+01 7.90325E+00 0.00000E+00
 -1      2743 5.20350E+01 9.20225E+00 0.00000E+00
 -1      2744 5.72850E+01 7.90325E+00 0.00000E+00
 -1      2745 5.57850E+01 7.90325E+00 0.00000E+00
 -1      2746 5.50350E+01 9.20225E+00 0.00000E+00
 -1      2747 6.02850E+01 7.90325E+00 0.00000E+00
 -1      2748 5.87850E+01 7.90325E+00 0.00000E+00
 -1      2749 5.80350E+01 9.20225E+00 0.00000E+00
 -1      2750 6.32850E+01 7.90325E+00 0.00000E+00
 -1      2751 6.17850E+01 7.90325E+00 0.00000E+00
 -1      2752 6.10350E+01 9.20225E+00 0.00000E+00
 -1      2753 6.62850E+01 7.90325E+00 0.00000E+00
 -1      2754 6.47850E+01 7.90325E+00 0.00000E+00
 -1      2755 6.40350E+01 9.20225E+00 0.00000E+00
 -1      2756 6.92850E+01 7.90325E+00 0.00000E+00
 -1      2757 6.77850E+01 7.90325E+00 0.00000E+00
 -1      2758 6.70350E+01 9.20225E+00 0.00000E+00
 -1      2759 7.22850E+01 7.90325E+00 0.00000E+00
 -1      2760 7.07850E+01 7.90325E+00 0.00000E+00
 -1      2761 7.00350E+01 9.20225E+00 0.00000E+00
 -1      2762 7.52850E+01 7.90325E+00 0.00000E+00
 -1      2763 7.37850E+01 7.90325E+00 0.00000E+00
 -1      2764 7.30350E+01 9.20225E+00 0.00000E+00
 -1      2765 7.82850E+01 7.90325E+00 0.00000E+00
 -1      2766 7.67850E+01 7.90325E+00 0.00000E+00
 -1      2767 7.60350E+01 9.20225E+00 0.00000E+00
 -1      2768 8.12850E+01 7.90325E+00 0.00000E+00
 -1      2769 7.97850E+01 7.90325E+00 0.00000E+00
 -1      2770 7.90350E+01 9.20225E+00 0.00000E+00
 -1      2771 8.42850E+01 7.90325E+00 0.00000E+00
 -1      2772 8.27850E+01 7.90325E+00 0.00000E+00
 -1      2773 8.20350E+01 9.20225E+00 0.00000E+00
 -1      2774 8.72850E+01 7.90325E+00 0.00000E+00
 -1      2775 8.57850E+01 7.90325E+00 0.00000E+00
 -1      2776 8.50350E+01 9.20225E+00 0.00000E+00
 -1      2777 9.02850E+01 7.90325E+00 0.00000E+00
 -1      2778 8.87850E+01 7.90325E+00 0.00000E+00
 -1      2779 8.80350E+01 9.20225E+00 0.00000E+00
 -1      2780 9.32850E+01 7.90325E+00 0.00000E+00
 -1      2781 9.17850E+01 7.90325E+00 0.00000E+00
 -1      2782 9.10350E+01 9.20225E+00 0.00000E+00
 -1      2783 9.62850E+01 7.90325E+00 0.00000E+00
 -1      2784 9.47850E+01 7.90325E+00 0.00000E+00
 -1      2785 9.40350E+01 9.20225E+00 0.00000E+00
 -1      2786 9.92850E+01 7.90325E+00 0.00000E+00
 -1      2787 9.77850E+01 7.90325E+00 0.00000E+00
 -1      2788 9.70350E+01 9.20225E+00 0.00000E+00
 -1      2789 1.02285E+02 7.90325E+00 0.00000E+00
 -1      2790 1.00785E+02 7.90325E+00 0.00000E+00
 -1      2791 1.00035E+02 9.20225E+00 0.00000E+00
 -1      2792 1.05285E+02 7.90325E+00 0.00000E+00
 -1      2793 1.03785E+02 7.90325E+00 0.00000E+00
 -1      2794 1.03035E+02 9.20225E+00 0.00000E+00
 -1      2795 1.08285E+02 7.90325E+00 0.00000E+00
 -1      2796 1.06785E+02 7.90325E+00 0.00000E+00
 -1      2797 1.06035E+02 9.20225E+00 0.00000E+00
 -1      2798 1.11285E+02 7.90325E+00 0.00000E+00
 -1      2799 1.09785E+02 7.90325E+00 0.00000E+00
 -1      2800 1.09035E+02 9.20225E+00 0.00000E+00
 -1      2801 1.14285E+02 7.90325E+00 0.00000E+00
 -1      2802 1.12785E+02 7.90325E+00 0.00000E+00
 -1      2803 1.12035E+02 9.20225E+00 0.00000E+00
 -1      2804 1.17285E+02 7.90325E+00 0.00000E+00
 -1      2805 1.15785E+02 7.90325E+00 0.00000E+00
 -1      2806 1.15035E+02 9.20225E+00 0.00000E+00
 -1      2807 1.20285E+02 7.90325E+00 0.00000E+00
 -1      2808 1.18785E+02 7.90325E+00 0.00000E+00
 -1      2809 1.18035E+02 9.20225E+00 0.00000E+00
 -1      2810 1.23285E+02 7.90325E+00 0.00000E+00
 -1      2811 1.21785E+02 7.90325E+00 0.00000E+00
 -1      2812 1.21035E+02 9.20225E+00 0.00000E+00
 -1      2813 1.26285E+02 7.90325E+00 0.00000E+00
 -1      2814 1.24785E+02 7.90325E+00 0.00000E+00
 -1      2815 1.24035E+02 9.20225E+00 0.00000E+00
 -1      2816 1.29285E+02 7.90325E+00 0.00000E+00
 -1      2817 1.27785E+02 7.90325E+00 0.00000E+00
 -1      2818 1.27035E+02 9.20225E+00 0.00000E+00
 -1      2819 1.32285E+02 7.90325E+00 0.00000E+00
 -1      2820 1.30785E+02 7.90325E+00 0.00000E+00
 -1      2821 1.30035E+02 9.20225E+00 0.00000E+00
 -1      2822 1.35285E+02 7.90325E+00 0.00000E+00
 -1      2823 1.33785E+02 7.90325E+00 0.00000E+00
 -1      2824 1.33035E+02 9.20225E+00 0.00000E+00
 -1      2825 1.38285E+02 7.90325E+00 0.00000E+00
 -1      2826 1.36785E+02 7.90325E+00 0.00000E+00
 -1      2827 1.36035E+02 9.20225E+00 0.00000E+00
 -1      2828 1.40953E+02 8.18394E+00 0.00000E+00
 -1      2829 1.39453E+02 8.18394E+00 0.00000E+00
 -1      2830 1.38703E+02 9.48294E+00 0.00000E+00
 -1      2831 1.41038E+02 1.00443E+01 0.00000E+00
 -1      2832 1.40907E+02 2.42875E+01 0.00000E+00
 -1      2833 1.40907E+02 2.28125E+01 0.00000E+00
 -1      2834 1.40907E+02 1.83875E+01 0.00000E+00
 -1      2835 1.40907E+02 1.69125E+01 0.00000E+00
 -1      2836 1.40907E+02 2.72375E+01 0.00000E+00
 -1      2837 1.40907E+02 2.57625E+01 0.00000E+00
 -1      2838 1.39608E+02 2.50250E+01 0.00000E+00
 -1      2839 1.40907E+02 2.13375E+01 0.00000E+00
 -1      2840 1.40907E+02 1.98625E+01 0.00000E+00
 -1      2841 1.39608E+02 1.91250E+01 0.00000E+00
 -1      2842 1.39608E+02 2.20750E+01 0.00000E+00
 -1      2843 1.20003E+02 3.15156E+01 0.00000E+00
 -1      2844 1.20269E+02 3.23526E+01 0.00000E+00
 -1      2845 1.40907E+02 3.01375E+01 0.00000E+00
 -1      2846 1.40907E+02 2.86875E+01 0.00000E+00
 -1      2847 1.39608E+02 2.79500E+01 0.00000E+00
 -1      2848 1.40907E+02 3.30875E+01 0.00000E+00
 -1      2849 1.40907E+02 3.16125E+01 0.00000E+00
 -1      2850 1.39608E+02 3.08750E+01 0.00000E+00
 -1      2851 1.40907E+02 3.60375E+01 0.00000E+00
 -1      2852 1.40907E+02 3.45625E+01 0.00000E+00
 -1      2853 1.39608E+02 3.38250E+01 0.00000E+00
 -1      2854 1.20927E+02 3.66388E+01 0.00000E+00
 -1      2855 1.20818E+02 3.79114E+01 0.00000E+00
 -1      2856 1.22418E+02 4.19009E+01 0.00000E+00
 -1      2857 1.23918E+02 4.18171E+01 0.00000E+00
 -1      2858 1.17702E+02 4.28609E+01 0.00000E+00
 -1      2859 9.94754E+01 2.91078E+01 0.00000E+00
 -1      2860 1.00342E+02 2.80572E+01 0.00000E+00
 -1      2861 9.16050E+00 4.07069E+01 0.00000E+00
 -1      2862 1.04865E+01 4.09709E+01 0.00000E+00
 -1      2863 9.14700E+00 3.94717E+01 0.00000E+00
 -1      2864 1.06245E+02 2.51935E+01 0.00000E+00
 -1      2865 1.07634E+02 2.49904E+01 0.00000E+00
 -1      2866 1.25475E+02 4.15223E+01 0.00000E+00
 -1      2867 1.26975E+02 4.15223E+01 0.00000E+00
 -1      2868 1.27725E+02 4.02458E+01 0.00000E+00
 -1      2869 1.11592E+02 2.56608E+01 0.00000E+00
 -1      2870 1.12602E+02 2.60314E+01 0.00000E+00
 -1      2871 1.16182E+01 4.09389E+01 0.00000E+00
 -1      2872 1.31182E+01 4.09389E+01 0.00000E+00
 -1      2873 1.38682E+01 3.96399E+01 0.00000E+00
 -1      2874 1.16047E+01 3.97038E+01 0.00000E+00
 -1      2875 9.09300E+00 1.68813E+01 0.00000E+00
 -1      2876 9.09300E+00 1.83563E+01 0.00000E+00
 -1      2877 1.03920E+01 1.90812E+01 0.00000E+00
 -1      2878 1.03920E+01 1.61437E+01 0.00000E+00
 -1      2879 1.09229E+02 2.50119E+01 0.00000E+00
 -1      2880 1.10393E+02 2.52421E+01 0.00000E+00
 -1      2881 1.20484E+02 3.36155E+01 0.00000E+00
 -1      2882 1.20751E+02 3.50321E+01 0.00000E+00
 -1      2883 1.03744E+02 2.58820E+01 0.00000E+00
 -1      2884 1.04737E+02 2.54371E+01 0.00000E+00
 -1      2885 1.01609E+02 2.69498E+01 0.00000E+00
 -1      2886 1.02676E+02 2.64159E+01 0.00000E+00
 -1      2887 1.02719E+02 2.51815E+01 0.00000E+00
 -1      2888 9.83197E+01 3.11447E+01 0.00000E+00
 -1      2889 9.87726E+01 3.02805E+01 0.00000E+00
 -1      2890 9.74813E+01 3.33513E+01 0.00000E+00
 -1      2891 9.79005E+01 3.22480E+01 0.00000E+00
 -1      2892 9.72932E+01 3.13789E+01 0.00000E+00
 -1      2893 9.65837E+01 3.58041E+01 0.00000E+00
 -1      2894 9.69901E+01 3.45542E+01 0.00000E+00
 -1      2895 9.67313E+01 3.88554E+01 0.00000E+00
 -1      2896 9.64294E+01 3.75905E+01 0.00000E+00
 -1      2897 1.20421E+02 3.90416E+01 0.00000E+00
 -1      2898 1.20258E+02 3.99211E+01 0.00000E+00
 -1      2899 1.13625E+02 2.64836E+01 0.00000E+00
 -1      2900 1.14608E+02 2.69063E+01 0.00000E+00
 -1      2901 9.09300E+00 3.45313E+01 0.00000E+00
 -1      2902 9.09300E+00 3.60000E+01 0.00000E+00
 -1      2903 1.03920E+01 3.37938E+01 0.00000E+00
 -1      2904 1.03920E+01 2.49750E+01 0.00000E+00
 -1      2905 9.09300E+00 2.57000E+01 0.00000E+00
 -1      2906 9.09300E+00 2.71750E+01 0.00000E+00
 -1      2907 9.39628E+01 3.97449E+01 0.00000E+00
 -1      2908 9.47128E+01 4.10439E+01 0.00000E+00
 -1      2909 1.15523E+02 2.69998E+01 0.00000E+00
 -1      2910 1.16437E+02 2.70934E+01 0.00000E+00
 -1      2911 1.15353E+02 2.60391E+01 0.00000E+00
 -1      2912 2.20350E+01 9.20225E+00 0.00000E+00
 -1      2913 2.12850E+01 7.90325E+00 0.00000E+00
 -1      2914 1.97850E+01 7.90325E+00 0.00000E+00
 -1      2915 9.61378E+01 4.10439E+01 0.00000E+00
 -1      2916 1.19944E+02 4.11048E+01 0.00000E+00
 -1      2917 1.19452E+02 4.21386E+01 0.00000E+00
 -1      2918 1.82850E+01 7.90325E+00 0.00000E+00
 -1      2919 1.67850E+01 7.90325E+00 0.00000E+00
 -1      2920 1.90350E+01 9.20225E+00 0.00000E+00
 -1      2921 1.19806E+02 2.98438E+01 0.00000E+00
 -1      2922 1.19905E+02 3.06797E+01 0.00000E+00
 -1      2923 1.21015E+02 3.07875E+01 0.00000E+00
 -1      2924 1.51772E+01 7.76028E+00 0.00000E+00
 -1      2925 1.39596E+01 7.52250E+00 0.00000E+00
 -1      2926 1.41038E+02 1.15068E+01 0.00000E+00
 -1      2927 1.39870E+02 1.12261E+01 0.00000E+00
 -1      2928 1.41038E+02 1.29693E+01 0.00000E+00
 -1      2929 1.13416E+02 2.54933E+01 0.00000E+00
 -1      2930 9.82332E+01 4.28822E+01 0.00000E+00
 -1      2931 9.74848E+01 4.16145E+01 0.00000E+00
 -1      2932 1.17651E+02 2.88950E+01 0.00000E+00
 -1      2933 1.21497E+02 3.84927E+01 0.00000E+00
 -1      2934 1.21718E+02 3.57558E+01 0.00000E+00
 -1      2935 1.41077E+02 3.84727E+01 0.00000E+00
 -1      2936 1.41063E+02 3.71666E+01 0.00000E+00
 -1      2937 1.39764E+02 3.64291E+01 0.00000E+00
 -1      2938 1.40075E+02 3.86874E+01 0.00000E+00
 -1      2939 9.65524E+01 3.95659E+01 0.00000E+00
 -1      2940 9.54044E+01 3.91714E+01 0.00000E+00
 -1      2941 1.24668E+02 4.05406E+01 0.00000E+00
 -1      2942 1.18616E+02 4.27943E+01 0.00000E+00
 -1      2943 9.84152E+01 2.91029E+01 0.00000E+00
 -1      2944 9.63828E+01 3.36851E+01 0.00000E+00
 -1      2945 1.11193E+02 2.46223E+01 0.00000E+00
 -1      2946 1.00385E+02 2.68228E+01 0.00000E+00
 -1      2947 1.20786E+02 4.08065E+01 0.00000E+00
 -1      2948 1.59272E+01 9.05928E+00 0.00000E+00
 -1      2949 1.19636E+02 4.26458E+01 0.00000E+00
 -1      2950 1.40973E+02 1.56722E+01 0.00000E+00
 -1      2951 1.40973E+02 1.42097E+01 0.00000E+00
 -1      2952 1.39805E+02 1.39290E+01 0.00000E+00
 -1      2953 1.39674E+02 1.64097E+01 0.00000E+00
 -1      2954 1.05295E+02 2.44041E+01 0.00000E+00
 -1      2955 9.09300E+00 2.86437E+01 0.00000E+00
 -1      2956 9.09300E+00 3.01187E+01 0.00000E+00
 -1      2957 1.03920E+01 3.08563E+01 0.00000E+00
 -1      2958 1.03920E+01 2.79188E+01 0.00000E+00
 -1      2959 9.65726E+01 4.04525E+01 0.00000E+00
 -1      2960 1.21328E+02 3.28863E+01 0.00000E+00
 -1      2961 1.08399E+02 2.41820E+01 0.00000E+00
 -1      2962 9.57375E+01 3.66745E+01 0.00000E+00
 -1      2963 9.50455E+01 3.57584E+01 0.00000E+00
 -1      2964 9.48913E+01 3.75449E+01 0.00000E+00
 -1      2965 1.21098E+02 4.24782E+01 0.00000E+00
 -1      2966 1.21791E+02 4.14128E+01 0.00000E+00
 -1      2967 9.28788E+01 3.88975E+01 0.00000E+00
 -1      2968 9.41416E+01 3.90345E+01 0.00000E+00
 -1      2969 9.43205E+01 3.83240E+01 0.00000E+00
 -1      2970 1.16910E+01 9.51250E+00 0.00000E+00
 -1      2971 1.16910E+01 1.09875E+01 0.00000E+00
 -1      2972 1.16910E+01 1.24625E+01 0.00000E+00
 -1      2973 1.16910E+01 1.39375E+01 0.00000E+00
 -1      2974 1.29900E+01 1.17250E+01 0.00000E+00
 -1      2975 1.21890E+01 6.67137E+00 0.00000E+00
 -1      2976 3.17850E+01 1.05013E+01 0.00000E+00
 -1      2977 3.02850E+01 1.05013E+01 0.00000E+00
 -1      2978 1.87500E+01 3.83090E+01 0.00000E+00
 -1      2979 2.02500E+01 3.83090E+01 0.00000E+00
 -1      2980 2.17500E+01 3.83090E+01 0.00000E+00
 -1      2981 2.32500E+01 3.83090E+01 0.00000E+00
 -1      2982 2.10000E+01 3.70100E+01 0.00000E+00
 -1      2983 2.47500E+01 3.83090E+01 0.00000E+00
 -1      2984 2.62500E+01 3.83090E+01 0.00000E+00
 -1      2985 2.40000E+01 3.70100E+01 0.00000E+00
 -1      2986 2.77500E+01 3.83090E+01 0.00000E+00
 -1      2987 2.92500E+01 3.83090E+01 0.00000E+00
 -1      2988 2.70000E+01 3.70100E+01 0.00000E+00
 -1      2989 3.07500E+01 3.83090E+01 0.00000E+00
 -1      2990 3.22500E+01 3.83090E+01 0.00000E+00
 -1      2991 3.00000E+01 3.70100E+01 0.00000E+00
 -1      2992 3.37500E+01 3.83090E+01 0.00000E+00
 -1      2993 3.52500E+01 3.83090E+01 0.00000E+00
 -1      2994 3.30000E+01 3.70100E+01 0.00000E+00
 -1      2995 3.67500E+01 3.83090E+01 0.00000E+00
 -1      2996 3.82500E+01 3.83090E+01 0.00000E+00
 -1      2997 3.60000E+01 3.70100E+01 0.00000E+00
 -1      2998 3.96750E+01 3.83090E+01 0.00000E+00
 -1      2999 4.11000E+01 3.83090E+01 0.00000E+00
 -1      3000 3.89250E+01 3.70100E+01 0.00000E+00
 -1      3001 4.26000E+01 3.83090E+01 0.00000E+00
 -1      3002 4.41000E+01 3.83090E+01 0.00000E+00
 -1      3003 4.18500E+01 3.70100E+01 0.00000E+00
 -1      3004 4.56000E+01 3.83090E+01 0.00000E+00
 -1      3005 4.71000E+01 3.83090E+01 0.00000E+00
 -1      3006 4.48500E+01 3.70100E+01 0.00000E+00
 -1      3007 4.86000E+01 3.83090E+01 0.00000E+00
 -1      3008 5.01000E+01 3.83090E+01 0.00000E+00
 -1      3009 4.78500E+01 3.70100E+01 0.00000E+00
 -1      3010 5.16000E+01 3.83090E+01 0.00000E+00
 -1      3011 5.31000E+01 3.83090E+01 0.00000E+00
 -1      3012 5.08500E+01 3.70100E+01 0.00000E+00
 -1      3013 5.46000E+01 3.83090E+01 0.00000E+00
 -1      3014 5.61000E+01 3.83090E+01 0.00000E+00
 -1      3015 5.38500E+01 3.70100E+01 0.00000E+00
 -1      3016 5.76000E+01 3.83090E+01 0.00000E+00
 -1      3017 5.91000E+01 3.83090E+01 0.00000E+00
 -1      3018 5.68500E+01 3.70100E+01 0.00000E+00
 -1      3019 6.06000E+01 3.83090E+01 0.00000E+00
 -1      3020 6.21000E+01 3.83090E+01 0.00000E+00
 -1      3021 5.98500E+01 3.70100E+01 0.00000E+00
 -1      3022 6.36000E+01 3.83090E+01 0.00000E+00
 -1      3023 6.51000E+01 3.83090E+01 0.00000E+00
 -1      3024 6.28500E+01 3.70100E+01 0.00000E+00
 -1      3025 6.66000E+01 3.83090E+01 0.00000E+00
 -1      3026 6.81000E+01 3.83090E+01 0.00000E+00
 -1      3027 6.58500E+01 3.70100E+01 0.00000E+00
 -1      3028 6.96000E+01 3.83090E+01 0.00000E+00
 -1      3029 7.11000E+01 3.83090E+01 0.00000E+00
 -1      3030 6.88500E+01 3.70100E+01 0.00000E+00
 -1      3031 7.26000E+01 3.83090E+01 0.00000E+00
 -1      3032 7.41000E+01 3.83090E+01 0.00000E+00
 -1      3033 7.18500E+01 3.70100E+01 0.00000E+00
 -1      3034 7.56000E+01 3.83090E+01 0.00000E+00
 -1      3035 7.71000E+01 3.83090E+01 0.00000E+00
 -1      3036 7.48500E+01 3.70100E+01 0.00000E+00
 -1      3037 7.86000E+01 3.83090E+01 0.00000E+00
 -1      3038 8.01000E+01 3.83090E+01 0.00000E+00
 -1      3039 7.78500E+01 3.70100E+01 0.00000E+00
 -1      3040 8.16000E+01 3.83090E+01 0.00000E+00
 -1      3041 8.31000E+01 3.83090E+01 0.00000E+00
 -1      3042 8.08500E+01 3.70100E+01 0.00000E+00
 -1      3043 8.45250E+01 3.83090E+01 0.00000E+00
 -1      3044 8.59500E+01 3.83090E+01 0.00000E+00
 -1      3045 8.37750E+01 3.70100E+01 0.00000E+00
 -1      3046 8.74500E+01 3.83090E+01 0.00000E+00
 -1      3047 8.89500E+01 3.83090E+01 0.00000E+00
 -1      3048 8.67000E+01 3.70100E+01 0.00000E+00
 -1      3049 1.25488E+01 8.06518E+00 0.00000E+00
 -1      3050 1.22105E+02 4.02292E+01 0.00000E+00
 -1      3051 2.87850E+01 1.05013E+01 0.00000E+00
 -1      3052 2.72850E+01 1.05013E+01 0.00000E+00
 -1      3053 2.95350E+01 1.18003E+01 0.00000E+00
 -1      3054 1.32975E+02 3.89468E+01 0.00000E+00
 -1      3055 1.34475E+02 3.89468E+01 0.00000E+00
 -1      3056 1.35975E+02 3.89468E+01 0.00000E+00
 -1      3057 1.37475E+02 3.89468E+01 0.00000E+00
 -1      3058 1.35225E+02 3.76478E+01 0.00000E+00
 -1      3059 1.38309E+02 3.16125E+01 0.00000E+00
 -1      3060 1.38309E+02 3.01375E+01 0.00000E+00
 -1      3061 2.57850E+01 1.05013E+01 0.00000E+00
 -1      3062 2.42850E+01 1.05013E+01 0.00000E+00
 -1      3063 2.65350E+01 1.18003E+01 0.00000E+00
 -1      3064 3.77850E+01 1.05013E+01 0.00000E+00
 -1      3065 3.62850E+01 1.05013E+01 0.00000E+00
 -1      3066 4.07850E+01 1.05013E+01 0.00000E+00
 -1      3067 3.92850E+01 1.05013E+01 0.00000E+00
 -1      3068 3.85350E+01 1.18003E+01 0.00000E+00
 -1      3069 4.37850E+01 1.05013E+01 0.00000E+00
 -1      3070 4.22850E+01 1.05013E+01 0.00000E+00
 -1      3071 4.15350E+01 1.18003E+01 0.00000E+00
 -1      3072 4.67850E+01 1.05013E+01 0.00000E+00
 -1      3073 4.52850E+01 1.05013E+01 0.00000E+00
 -1      3074 4.45350E+01 1.18003E+01 0.00000E+00
 -1      3075 4.97850E+01 1.05013E+01 0.00000E+00
 -1      3076 4.82850E+01 1.05013E+01 0.00000E+00
 -1      3077 4.75350E+01 1.18003E+01 0.00000E+00
 -1      3078 5.27850E+01 1.05013E+01 0.00000E+00
 -1      3079 5.12850E+01 1.05013E+01 0.00000E+00
 -1      3080 5.05350E+01 1.18003E+01 0.00000E+00
 -1      3081 5.57850E+01 1.05013E+01 0.00000E+00
 -1      3082 5.42850E+01 1.05013E+01 0.00000E+00
 -1      3083 5.35350E+01 1.18003E+01 0.00000E+00
 -1      3084 5.87850E+01 1.05013E+01 0.00000E+00
 -1      3085 5.72850E+01 1.05013E+01 0.00000E+00
 -1      3086 5.65350E+01 1.18003E+01 0.00000E+00
 -1      3087 6.17850E+01 1.05013E+01 0.00000E+00
 -1      3088 6.02850E+01 1.05013E+01 0.00000E+00
 -1      3089 5.95350E+01 1.18003E+01 0.00000E+00
 -1      3090 6.47850E+01 1.05013E+01 0.00000E+00
 -1      3091 6.32850E+01 1.05013E+01 0.00000E+00
 -1      3092 6.25350E+01 1.18003E+01 0.00000E+00
 -1      3093 6.77850E+01 1.05013E+01 0.00000E+00
 -1      3094 6.62850E+01 1.05013E+01 0.00000E+00
 -1      3095 6.55350E+01 1.18003E+01 0.00000E+00
 -1      3096 7.07850E+01 1.05013E+01 0.00000E+00
 -1      3097 6.92850E+01 1.05013E+01 0.00000E+00
 -1      3098 6.85350E+01 1.18003E+01 0.00000E+00
 -1      3099 7.37850E+01 1.05013E+01 0.00000E+00
 -1      3100 7.22850E+01 1.05013E+01 0.00000E+00
 -1      3101 7.15350E+01 1.18003E+01 0.00000E+00
 -1      3102 7.67850E+01 1.05013E+01 0.00000E+00
 -1      3103 7.52850E+01 1.05013E+01 0.00000E+00
 -1      3104 7.45350E+01 1.18003E+01 0.00000E+00
 -1      3105 7.97850E+01 1.05013E+01 0.00000E+00
 -1      3106 7.82850E+01 1.05013E+01 0.00000E+00
 -1      3107 7.75350E+01 1.18003E+01 0.00000E+00
 -1      3108 8.27850E+01 1.05013E+01 0.00000E+00
 -1      3109 8.12850E+01 1.05013E+01 0.00000E+00
 -1      3110 8.05350E+01 1.18003E+01 0.00000E+00
 -1      3111 8.57850E+01 1.05013E+01 0.00000E+00
 -1      3112 8.42850E+01 1.05013E+01 0.00000E+00
 -1      3113 8.35350E+01 1.18003E+01 0.00000E+00
 -1      3114 8.87850E+01 1.05013E+01 0.00000E+00
 -1      3115 8.72850E+01 1.05013E+01 0.00000E+00
 -1      3116 8.65350E+01 1.18003E+01 0.00000E+00
 -1      3117 9.17850E+01 1.05013E+01 0.00000E+00
 -1      3118 9.02850E+01 1.05013E+01 0.00000E+00
 -1      3119 8.95350E+01 1.18003E+01 0.00000E+00
 -1      3120 9.47850E+01 1.05013E+01 0.00000E+00
 -1      3121 9.32850E+01 1.05013E+01 0.00000E+00
 -1      3122 9.25350E+01 1.18003E+01 0.00000E+00
 -1      3123 9.77850E+01 1.05013E+01 0.00000E+00
 -1      3124 9.62850E+01 1.05013E+01 0.00000E+00
 -1      3125 9.55350E+01 1.18003E+01 0.00000E+00
 -1      3126 1.00785E+02 1.05013E+01 0.00000E+00
 -1      3127 9.92850E+01 1.05013E+01 0.00000E+00
 -1      3128 9.85350E+01 1.18003E+01 0.00000E+00
 -1      3129 1.03785E+02 1.05013E+01 0.00000E+00
 -1      3130 1.02285E+02 1.05013E+01 0.00000E+00
 -1      3131 1.01535E+02 1.18003E+01 0.00000E+00
 -1      3132 1.06785E+02 1.05013E+01 0.00000E+00
 -1      3133 1.05285E+02 1.05013E+01 0.00000E+00
 -1      3134 1.04535E+02 1.18003E+01 0.00000E+00
 -1      3135 1.09785E+02 1.05013E+01 0.00000E+00
 -1      3136 1.08285E+02 1.05013E+01 0.00000E+00
 -1      3137 1.07535E+02 1.18003E+01 0.00000E+00
 -1      3138 1.12785E+02 1.05013E+01 0.00000E+00
 -1      3139 1.11285E+02 1.05013E+01 0.00000E+00
 -1      3140 1.10535E+02 1.18003E+01 0.00000E+00
 -1      3141 1.15785E+02 1.05013E+01 0.00000E+00
 -1      3142 1.14285E+02 1.05013E+01 0.00000E+00
 -1      3143 1.13535E+02 1.18003E+01 0.00000E+00
 -1      3144 1.18785E+02 1.05013E+01 0.00000E+00
 -1      3145 1.17285E+02 1.05013E+01 0.00000E+00
 -1      3146 1.16535E+02 1.18003E+01 0.00000E+00
 -1      3147 1.21785E+02 1.05013E+01 0.00000E+00
 -1      3148 1.20285E+02 1.05013E+01 0.00000E+00
 -1      3149 1.19535E+02 1.18003E+01 0.00000E+00
 -1      3150 1.24785E+02 1.05013E+01 0.00000E+00
 -1      3151 1.23285E+02 1.05013E+01 0.00000E+00
 -1      3152 1.22535E+02 1.18003E+01 0.00000E+00
 -1      3153 1.27785E+02 1.05013E+01 0.00000E+00
 -1      3154 1.26285E+02 1.05013E+01 0.00000E+00
 -1      3155 1.25535E+02 1.18003E+01 0.00000E+00
 -1      3156 1.30785E+02 1.05013E+01 0.00000E+00
 -1      3157 1.29285E+02 1.05013E+01 0.00000E+00
 -1      3158 1.28535E+02 1.18003E+01 0.00000E+00
 -1      3159 1.33785E+02 1.05013E+01 0.00000E+00
 -1      3160 1.32285E+02 1.05013E+01 0.00000E+00
 -1      3161 1.31535E+02 1.18003E+01 0.00000E+00
 -1      3162 1.36785E+02 1.05013E+01 0.00000E+00
 -1      3163 1.35285E+02 1.05013E+01 0.00000E+00
 -1      3164 1.34535E+02 1.18003E+01 0.00000E+00
 -1      3165 1.38912E+02 1.10040E+01 0.00000E+00
 -1      3166 1.37744E+02 1.07233E+01 0.00000E+00
 -1      3167 1.36994E+02 1.20223E+01 0.00000E+00
 -1      3168 1.38912E+02 1.24665E+01 0.00000E+00
 -1      3169 1.22502E+02 3.90990E+01 0.00000E+00
 -1      3170 1.23508E+02 3.97053E+01 0.00000E+00
 -1      3171 1.22899E+02 3.79688E+01 0.00000E+00
 -1      3172 1.04377E+02 2.35138E+01 0.00000E+00
 -1      3173 1.05886E+02 2.32703E+01 0.00000E+00
 -1      3174 1.17824E+02 2.76107E+01 0.00000E+00
 -1      3175 1.18869E+02 2.84516E+01 0.00000E+00
 -1      3176 1.38309E+02 2.57625E+01 0.00000E+00
 -1      3177 1.38309E+02 2.42875E+01 0.00000E+00
 -1      3178 1.13352E+02 2.42530E+01 0.00000E+00
 -1      3179 1.14375E+02 2.47052E+01 0.00000E+00
 -1      3180 1.38309E+02 3.45625E+01 0.00000E+00
 -1      3181 1.38309E+02 3.30875E+01 0.00000E+00
 -1      3182 1.37010E+02 3.23500E+01 0.00000E+00
 -1      3183 1.38309E+02 2.86750E+01 0.00000E+00
 -1      3184 1.38309E+02 2.72250E+01 0.00000E+00
 -1      3185 1.37010E+02 2.64875E+01 0.00000E+00
 -1      3186 1.37010E+02 2.94125E+01 0.00000E+00
 -1      3187 1.22650E+02 3.48410E+01 0.00000E+00
 -1      3188 1.22825E+02 3.64477E+01 0.00000E+00
 -1      3189 3.47850E+01 1.05013E+01 0.00000E+00
 -1      3190 3.32850E+01 1.05013E+01 0.00000E+00
 -1      3191 3.55350E+01 1.18003E+01 0.00000E+00
 -1      3192 1.25065E+02 3.94105E+01 0.00000E+00
 -1      3193 1.22314E+02 3.20688E+01 0.00000E+00
 -1      3194 1.22528E+02 3.33317E+01 0.00000E+00
 -1      3195 9.11325E+00 3.71183E+01 0.00000E+00
 -1      3196 9.12675E+00 3.83534E+01 0.00000E+00
 -1      3197 1.04528E+01 3.86174E+01 0.00000E+00
 -1      3198 1.04122E+01 3.63808E+01 0.00000E+00
 -1      3199 1.29975E+02 3.89468E+01 0.00000E+00
 -1      3200 1.31475E+02 3.89468E+01 0.00000E+00
 -1      3201 1.32225E+02 3.76478E+01 0.00000E+00
 -1      3202 1.26975E+02 3.89468E+01 0.00000E+00
 -1      3203 1.28475E+02 3.89468E+01 0.00000E+00
 -1      3204 1.29225E+02 3.76478E+01 0.00000E+00
 -1      3205 1.57500E+01 3.83090E+01 0.00000E+00
 -1      3206 1.72500E+01 3.83090E+01 0.00000E+00
 -1      3207 1.80000E+01 3.70100E+01 0.00000E+00
 -1      3208 9.71126E+01 2.91192E+01 0.00000E+00
 -1      3209 9.78155E+01 2.79465E+01 0.00000E+00
 -1      3210 9.90219E+01 2.65415E+01 0.00000E+00
 -1      3211 1.00289E+02 2.54341E+01 0.00000E+00
 -1      3212 9.53433E+01 3.39624E+01 0.00000E+00
 -1      3213 9.58345E+01 3.27595E+01 0.00000E+00
 -1      3214 1.01690E+02 2.44567E+01 0.00000E+00
 -1      3215 1.02757E+02 2.39228E+01 0.00000E+00
 -1      3216 1.10954E+02 2.34154E+01 0.00000E+00
 -1      3217 1.12153E+02 2.38342E+01 0.00000E+00
 -1      3218 1.13113E+02 2.30461E+01 0.00000E+00
 -1      3219 9.61253E+01 3.15664E+01 0.00000E+00
 -1      3220 9.65445E+01 3.04631E+01 0.00000E+00
 -1      3221 1.16910E+01 2.12875E+01 0.00000E+00
 -1      3222 1.16910E+01 2.27625E+01 0.00000E+00
 -1      3223 1.07613E+02 2.33138E+01 0.00000E+00
 -1      3224 1.09208E+02 2.33353E+01 0.00000E+00
 -1      3225 9.89832E+01 4.41812E+01 0.00000E+00
 -1      3226 1.16910E+01 2.42375E+01 0.00000E+00
 -1      3227 1.16910E+01 2.57125E+01 0.00000E+00
 -1      3228 1.29900E+01 2.35000E+01 0.00000E+00
 -1      3229 1.29900E+01 1.46687E+01 0.00000E+00
 -1      3230 1.16910E+01 1.54063E+01 0.00000E+00
 -1      3231 1.16910E+01 1.68750E+01 0.00000E+00
 -1      3232 9.77193E+01 2.65578E+01 0.00000E+00
 -1      3233 1.00326E+02 2.41754E+01 0.00000E+00
 -1      3234 3.25350E+01 1.18003E+01 0.00000E+00
 -1      3235 1.17655E+02 2.66500E+01 0.00000E+00
 -1      3236 2.27850E+01 1.05013E+01 0.00000E+00
 -1      3237 2.12850E+01 1.05013E+01 0.00000E+00
 -1      3238 2.35350E+01 1.18003E+01 0.00000E+00
 -1      3239 1.36547E+01 9.58315E+00 0.00000E+00
 -1      3240 1.18841E+01 8.73203E+00 0.00000E+00
 -1      3241 9.04500E+01 3.84153E+01 0.00000E+00
 -1      3242 9.19500E+01 3.84153E+01 0.00000E+00
 -1      3243 1.97850E+01 1.05013E+01 0.00000E+00
 -1      3244 1.82850E+01 1.05013E+01 0.00000E+00
 -1      3245 2.05350E+01 1.18003E+01 0.00000E+00
 -1      3246 1.16910E+01 1.98188E+01 0.00000E+00
 -1      3247 1.29900E+01 2.05562E+01 0.00000E+00
 -1      3248 1.16910E+01 1.83500E+01 0.00000E+00
 -1      3249 1.15290E+02 2.47988E+01 0.00000E+00
 -1      3250 1.16204E+02 2.48923E+01 0.00000E+00
 -1      3251 1.15227E+02 2.35584E+01 0.00000E+00
 -1      3252 1.16910E+01 3.30594E+01 0.00000E+00
 -1      3253 1.16910E+01 3.45281E+01 0.00000E+00
 -1      3254 1.19979E+02 2.85595E+01 0.00000E+00
 -1      3255 1.39072E+02 3.89020E+01 0.00000E+00
 -1      3256 1.23635E+02 3.40236E+01 0.00000E+00
 -1      3257 1.23831E+02 3.70540E+01 0.00000E+00
 -1      3258 1.38309E+02 1.98625E+01 0.00000E+00
 -1      3259 1.38309E+02 1.83875E+01 0.00000E+00
 -1      3260 1.03348E+02 2.27890E+01 0.00000E+00
 -1      3261 1.38322E+02 3.76030E+01 0.00000E+00
 -1      3262 1.37010E+02 2.35500E+01 0.00000E+00
 -1      3263 1.38309E+02 2.28125E+01 0.00000E+00
 -1      3264 1.38309E+02 2.13375E+01 0.00000E+00
 -1      3265 1.22215E+02 3.12329E+01 0.00000E+00
 -1      3266 1.23416E+02 3.16783E+01 0.00000E+00
 -1      3267 1.22117E+02 3.03970E+01 0.00000E+00
 -1      3268 1.06695E+02 2.24236E+01 0.00000E+00
 -1      3269 1.15845E+01 3.85855E+01 0.00000E+00
 -1      3270 1.38375E+02 1.71472E+01 0.00000E+00
 -1      3271 1.38440E+02 1.59068E+01 0.00000E+00
 -1      3272 1.37076E+02 1.78847E+01 0.00000E+00
 -1      3273 1.25815E+02 3.81115E+01 0.00000E+00
 -1      3274 1.46182E+01 3.83409E+01 0.00000E+00
 -1      3275 1.53682E+01 3.70419E+01 0.00000E+00
 -1      3276 1.34865E+01 3.83729E+01 0.00000E+00
 -1      3277 1.10168E+02 2.25472E+01 0.00000E+00
 -1      3278 1.11128E+02 2.17591E+01 0.00000E+00
 -1      3279 1.09382E+02 2.16790E+01 0.00000E+00
 -1      3280 9.36285E+01 3.74079E+01 0.00000E+00
 -1      3281 9.44972E+01 3.48328E+01 0.00000E+00
 -1      3282 9.39488E+01 3.39072E+01 0.00000E+00
 -1      3283 9.36510E+01 3.57032E+01 0.00000E+00
 -1      3284 9.59448E+01 2.93067E+01 0.00000E+00
 -1      3285 9.50858E+01 3.18437E+01 0.00000E+00
 -1      3286 1.38167E+02 3.64739E+01 0.00000E+00
 -1      3287 1.16910E+01 3.01219E+01 0.00000E+00
 -1      3288 1.16910E+01 3.15906E+01 0.00000E+00
 -1      3289 1.29900E+01 3.23250E+01 0.00000E+00
 -1      3290 1.36867E+02 3.57364E+01 0.00000E+00
 -1      3291 1.66160E+01 1.04247E+01 0.00000E+00
 -1      3292 1.50083E+01 1.02817E+01 0.00000E+00
 -1      3293 8.97000E+01 3.71163E+01 0.00000E+00
 -1      3294 1.43435E+01 1.09485E+01 0.00000E+00
 -1      3295 1.73660E+01 1.17237E+01 0.00000E+00
 -1      3296 9.61476E+01 2.64287E+01 0.00000E+00
 -1      3297 9.73540E+01 2.50238E+01 0.00000E+00
 -1      3298 2.02500E+01 3.57110E+01 0.00000E+00
 -1      3299 2.17500E+01 3.57110E+01 0.00000E+00
 -1      3300 9.21288E+01 3.77048E+01 0.00000E+00
 -1      3301 1.43435E+01 1.24235E+01 0.00000E+00
 -1      3302 2.32500E+01 3.57110E+01 0.00000E+00
 -1      3303 2.47500E+01 3.57110E+01 0.00000E+00
 -1      3304 2.25000E+01 3.44120E+01 0.00000E+00
 -1      3305 2.62500E+01 3.57110E+01 0.00000E+00
 -1      3306 2.77500E+01 3.57110E+01 0.00000E+00
 -1      3307 2.55000E+01 3.44120E+01 0.00000E+00
 -1      3308 2.92500E+01 3.57110E+01 0.00000E+00
 -1      3309 3.07500E+01 3.57110E+01 0.00000E+00
 -1      3310 2.85000E+01 3.44120E+01 0.00000E+00
 -1      3311 3.22500E+01 3.57110E+01 0.00000E+00
 -1      3312 3.37500E+01 3.57110E+01 0.00000E+00
 -1      3313 3.15000E+01 3.44120E+01 0.00000E+00
 -1      3314 3.52500E+01 3.57110E+01 0.00000E+00
 -1      3315 3.67500E+01 3.57110E+01 0.00000E+00
 -1      3316 3.45000E+01 3.44120E+01 0.00000E+00
 -1      3317 3.81750E+01 3.57110E+01 0.00000E+00
 -1      3318 3.96000E+01 3.57110E+01 0.00000E+00
 -1      3319 3.74250E+01 3.44120E+01 0.00000E+00
 -1      3320 4.11000E+01 3.57110E+01 0.00000E+00
 -1      3321 4.26000E+01 3.57110E+01 0.00000E+00
 -1      3322 4.03500E+01 3.44120E+01 0.00000E+00
 -1      3323 4.41000E+01 3.57110E+01 0.00000E+00
 -1      3324 4.56000E+01 3.57110E+01 0.00000E+00
 -1      3325 4.33500E+01 3.44120E+01 0.00000E+00
 -1      3326 4.71000E+01 3.57110E+01 0.00000E+00
 -1      3327 4.86000E+01 3.57110E+01 0.00000E+00
 -1      3328 4.63500E+01 3.44120E+01 0.00000E+00
 -1      3329 5.01000E+01 3.57110E+01 0.00000E+00
 -1      3330 5.16000E+01 3.57110E+01 0.00000E+00
 -1      3331 4.93500E+01 3.44120E+01 0.00000E+00
 -1      3332 5.31000E+01 3.57110E+01 0.00000E+00
 -1      3333 5.46000E+01 3.57110E+01 0.00000E+00
 -1      3334 5.23500E+01 3.44120E+01 0.00000E+00
 -1      3335 5.61000E+01 3.57110E+01 0.00000E+00
 -1      3336 5.76000E+01 3.57110E+01 0.00000E+00
 -1      3337 5.53500E+01 3.44120E+01 0.00000E+00
 -1      3338 5.91000E+01 3.57110E+01 0.00000E+00
 -1      3339 6.06000E+01 3.57110E+01 0.00000E+00
 -1      3340 5.83500E+01 3.44120E+01 0.00000E+00
 -1      3341 6.21000E+01 3.57110E+01 0.00000E+00
 -1      3342 6.36000E+01 3.57110E+01 0.00000E+00
 -1      3343 6.13500E+01 3.44120E+01 0.00000E+00
 -1      3344 6.51000E+01 3.57110E+01 0.00000E+00
 -1      3345 6.66000E+01 3.57110E+01 0.00000E+00
 -1      3346 6.43500E+01 3.44120E+01 0.00000E+00
 -1      3347 6.81000E+01 3.57110E+01 0.00000E+00
 -1      3348 6.96000E+01 3.57110E+01 0.00000E+00
 -1      3349 6.73500E+01 3.44120E+01 0.00000E+00
 -1      3350 7.11000E+01 3.57110E+01 0.00000E+00
 -1      3351 7.26000E+01 3.57110E+01 0.00000E+00
 -1      3352 7.03500E+01 3.44120E+01 0.00000E+00
 -1      3353 7.41000E+01 3.57110E+01 0.00000E+00
 -1      3354 7.56000E+01 3.57110E+01 0.00000E+00
 -1      3355 7.33500E+01 3.44120E+01 0.00000E+00
 -1      3356 7.71000E+01 3.57110E+01 0.00000E+00
 -1      3357 7.86000E+01 3.57110E+01 0.00000E+00
 -1      3358 7.63500E+01 3.44120E+01 0.00000E+00
 -1      3359 8.01000E+01 3.57110E+01 0.00000E+00
 -1      3360 8.16000E+01 3.57110E+01 0.00000E+00
 -1      3361 7.93500E+01 3.44120E+01 0.00000E+00
 -1      3362 8.30250E+01 3.57110E+01 0.00000E+00
 -1      3363 8.44500E+01 3.57110E+01 0.00000E+00
 -1      3364 8.22750E+01 3.44120E+01 0.00000E+00
 -1      3365 8.59500E+01 3.57110E+01 0.00000E+00
 -1      3366 8.74500E+01 3.57110E+01 0.00000E+00
 -1      3367 8.52000E+01 3.44120E+01 0.00000E+00
 -1      3368 2.72850E+01 1.30992E+01 0.00000E+00
 -1      3369 2.57850E+01 1.30992E+01 0.00000E+00
 -1      3370 1.35367E+02 3.57364E+01 0.00000E+00
 -1      3371 1.35510E+02 3.38250E+01 0.00000E+00
 -1      3372 1.33867E+02 3.57364E+01 0.00000E+00
 -1      3373 1.20588E+02 2.71380E+01 0.00000E+00
 -1      3374 1.21525E+02 2.85302E+01 0.00000E+00
 -1      3375 3.02850E+01 1.30992E+01 0.00000E+00
 -1      3376 2.87850E+01 1.30992E+01 0.00000E+00
 -1      3377 2.80350E+01 1.43982E+01 0.00000E+00
 -1      3378 1.28475E+02 3.63713E+01 0.00000E+00
 -1      3379 1.29975E+02 3.63713E+01 0.00000E+00
 -1      3380 1.37010E+02 2.06000E+01 0.00000E+00
 -1      3381 4.22850E+01 1.30992E+01 0.00000E+00
 -1      3382 4.07850E+01 1.30992E+01 0.00000E+00
 -1      3383 3.92850E+01 1.30992E+01 0.00000E+00
 -1      3384 3.77850E+01 1.30992E+01 0.00000E+00
 -1      3385 4.00350E+01 1.43982E+01 0.00000E+00
 -1      3386 4.82850E+01 1.30992E+01 0.00000E+00
 -1      3387 4.67850E+01 1.30992E+01 0.00000E+00
 -1      3388 5.12850E+01 1.30992E+01 0.00000E+00
 -1      3389 4.97850E+01 1.30992E+01 0.00000E+00
 -1      3390 4.90350E+01 1.43982E+01 0.00000E+00
 -1      3391 5.42850E+01 1.30992E+01 0.00000E+00
 -1      3392 5.27850E+01 1.30992E+01 0.00000E+00
 -1      3393 5.20350E+01 1.43982E+01 0.00000E+00
 -1      3394 5.72850E+01 1.30992E+01 0.00000E+00
 -1      3395 5.57850E+01 1.30992E+01 0.00000E+00
 -1      3396 5.50350E+01 1.43982E+01 0.00000E+00
 -1      3397 6.02850E+01 1.30992E+01 0.00000E+00
 -1      3398 5.87850E+01 1.30992E+01 0.00000E+00
 -1      3399 5.80350E+01 1.43982E+01 0.00000E+00
 -1      3400 6.32850E+01 1.30992E+01 0.00000E+00
 -1      3401 6.17850E+01 1.30992E+01 0.00000E+00
 -1      3402 6.10350E+01 1.43982E+01 0.00000E+00
 -1      3403 6.62850E+01 1.30992E+01 0.00000E+00
 -1      3404 6.47850E+01 1.30992E+01 0.00000E+00
 -1      3405 6.40350E+01 1.43982E+01 0.00000E+00
 -1      3406 6.92850E+01 1.30992E+01 0.00000E+00
 -1      3407 6.77850E+01 1.30992E+01 0.00000E+00
 -1      3408 6.70350E+01 1.43982E+01 0.00000E+00
 -1      3409 7.22850E+01 1.30992E+01 0.00000E+00
 -1      3410 7.07850E+01 1.30992E+01 0.00000E+00
 -1      3411 7.00350E+01 1.43982E+01 0.00000E+00
 -1      3412 7.52850E+01 1.30992E+01 0.00000E+00
 -1      3413 7.37850E+01 1.30992E+01 0.00000E+00
 -1      3414 7.30350E+01 1.43982E+01 0.00000E+00
 -1      3415 7.82850E+01 1.30992E+01 0.00000E+00
 -1      3416 7.67850E+01 1.30992E+01 0.00000E+00
 -1      3417 7.60350E+01 1.43982E+01 0.00000E+00
 -1      3418 8.12850E+01 1.30992E+01 0.00000E+00
 -1      3419 7.97850E+01 1.30992E+01 0.00000E+00
 -1      3420 7.90350E+01 1.43982E+01 0.00000E+00
 -1      3421 8.42850E+01 1.30992E+01 0.00000E+00
 -1      3422 8.27850E+01 1.30992E+01 0.00000E+00
 -1      3423 8.20350E+01 1.43982E+01 0.00000E+00
 -1      3424 8.72850E+01 1.30992E+01 0.00000E+00
 -1      3425 8.57850E+01 1.30992E+01 0.00000E+00
 -1      3426 8.50350E+01 1.43982E+01 0.00000E+00
 -1      3427 9.02850E+01 1.30992E+01 0.00000E+00
 -1      3428 8.87850E+01 1.30992E+01 0.00000E+00
 -1      3429 8.80350E+01 1.43982E+01 0.00000E+00
 -1      3430 9.32850E+01 1.30992E+01 0.00000E+00
 -1      3431 9.17850E+01 1.30992E+01 0.00000E+00
 -1      3432 9.10350E+01 1.43982E+01 0.00000E+00
 -1      3433 9.62850E+01 1.30992E+01 0.00000E+00
 -1      3434 9.47850E+01 1.30992E+01 0.00000E+00
 -1      3435 9.40350E+01 1.43982E+01 0.00000E+00
 -1      3436 9.92850E+01 1.30992E+01 0.00000E+00
 -1      3437 9.77850E+01 1.30992E+01 0.00000E+00
 -1      3438 9.70350E+01 1.43982E+01 0.00000E+00
 -1      3439 1.02285E+02 1.30992E+01 0.00000E+00
 -1      3440 1.00785E+02 1.30992E+01 0.00000E+00
 -1      3441 1.00035E+02 1.43982E+01 0.00000E+00
 -1      3442 1.05285E+02 1.30992E+01 0.00000E+00
 -1      3443 1.03785E+02 1.30992E+01 0.00000E+00
 -1      3444 1.03035E+02 1.43982E+01 0.00000E+00
 -1      3445 1.08285E+02 1.30992E+01 0.00000E+00
 -1      3446 1.06785E+02 1.30992E+01 0.00000E+00
 -1      3447 1.06035E+02 1.43982E+01 0.00000E+00
 -1      3448 1.11285E+02 1.30992E+01 0.00000E+00
 -1      3449 1.09785E+02 1.30992E+01 0.00000E+00
 -1      3450 1.09035E+02 1.43982E+01 0.00000E+00
 -1      3451 1.14285E+02 1.30992E+01 0.00000E+00
 -1      3452 1.12785E+02 1.30992E+01 0.00000E+00
 -1      3453 1.12035E+02 1.43982E+01 0.00000E+00
 -1      3454 1.17285E+02 1.30992E+01 0.00000E+00
 -1      3455 1.15785E+02 1.30992E+01 0.00000E+00
 -1      3456 1.15035E+02 1.43982E+01 0.00000E+00
 -1      3457 1.20285E+02 1.30992E+01 0.00000E+00
 -1      3458 1.18785E+02 1.30992E+01 0.00000E+00
 -1      3459 1.18035E+02 1.43982E+01 0.00000E+00
 -1      3460 1.23285E+02 1.30992E+01 0.00000E+00
 -1      3461 1.21785E+02 1.30992E+01 0.00000E+00
 -1      3462 1.21035E+02 1.43982E+01 0.00000E+00
 -1      3463 1.26285E+02 1.30992E+01 0.00000E+00
 -1      3464 1.24785E+02 1.30992E+01 0.00000E+00
 -1      3465 1.24035E+02 1.43982E+01 0.00000E+00
 -1      3466 1.29285E+02 1.30992E+01 0.00000E+00
 -1      3467 1.27785E+02 1.30992E+01 0.00000E+00
 -1      3468 1.27035E+02 1.43982E+01 0.00000E+00
 -1      3469 1.32285E+02 1.30992E+01 0.00000E+00
 -1      3470 1.30785E+02 1.30992E+01 0.00000E+00
 -1      3471 1.30035E+02 1.43982E+01 0.00000E+00
 -1      3472 1.35285E+02 1.30992E+01 0.00000E+00
 -1      3473 1.33785E+02 1.30992E+01 0.00000E+00
 -1      3474 1.33035E+02 1.43982E+01 0.00000E+00
 -1      3475 1.25741E+02 3.65904E+01 0.00000E+00
 -1      3476 1.02245E+02 2.18371E+01 0.00000E+00
 -1      3477 1.03866E+02 2.14281E+01 0.00000E+00
 -1      3478 1.36132E+01 3.54338E+01 0.00000E+00
 -1      3479 1.23142E+01 3.61682E+01 0.00000E+00
 -1      3480 1.35510E+02 3.23500E+01 0.00000E+00
 -1      3481 3.62850E+01 1.30992E+01 0.00000E+00
 -1      3482 3.47850E+01 1.30992E+01 0.00000E+00
 -1      3483 3.70350E+01 1.43982E+01 0.00000E+00
 -1      3484 1.56971E+01 1.31158E+01 0.00000E+00
 -1      3485 1.43435E+01 1.38923E+01 0.00000E+00
 -1      3486 1.43435E+01 1.53610E+01 0.00000E+00
 -1      3487 1.24680E+02 3.31801E+01 0.00000E+00
 -1      3488 1.24801E+02 3.46895E+01 0.00000E+00
 -1      3489 1.17592E+02 2.54096E+01 0.00000E+00
 -1      3490 1.18979E+02 2.59269E+01 0.00000E+00
 -1      3491 1.17528E+02 2.41693E+01 0.00000E+00
 -1      3492 1.23345E+01 3.72865E+01 0.00000E+00
 -1      3493 1.72500E+01 3.57110E+01 0.00000E+00
 -1      3494 1.87500E+01 3.57110E+01 0.00000E+00
 -1      3495 1.95000E+01 3.44120E+01 0.00000E+00
 -1      3496 9.88827E+01 2.35989E+01 0.00000E+00
 -1      3497 1.00283E+02 2.26215E+01 0.00000E+00
 -1      3498 1.16910E+01 2.71844E+01 0.00000E+00
 -1      3499 1.16910E+01 2.86531E+01 0.00000E+00
 -1      3500 1.29900E+01 2.93875E+01 0.00000E+00
 -1      3501 1.38643E+02 1.48068E+01 0.00000E+00
 -1      3502 1.38709E+02 1.35665E+01 0.00000E+00
 -1      3503 1.37750E+02 1.33444E+01 0.00000E+00
 -1      3504 1.37344E+02 1.55443E+01 0.00000E+00
 -1      3505 3.32850E+01 1.30992E+01 0.00000E+00
 -1      3506 3.17850E+01 1.30992E+01 0.00000E+00
 -1      3507 3.10350E+01 1.43982E+01 0.00000E+00
 -1      3508 1.73660E+01 1.31924E+01 0.00000E+00
 -1      3509 1.12851E+02 2.18689E+01 0.00000E+00
 -1      3510 1.14051E+02 2.22877E+01 0.00000E+00
 -1      3511 9.26045E+01 3.70936E+01 0.00000E+00
 -1      3512 9.31753E+01 3.63144E+01 0.00000E+00
 -1      3513 9.26269E+01 3.53888E+01 0.00000E+00
 -1      3514 9.16757E+01 3.66114E+01 0.00000E+00
 -1      3515 9.46393E+01 2.95469E+01 0.00000E+00
 -1      3516 9.52074E+01 2.82030E+01 0.00000E+00
 -1      3517 9.38630E+01 3.21776E+01 0.00000E+00
 -1      3518 9.41539E+01 3.09846E+01 0.00000E+00
 -1      3519 4.52850E+01 1.30992E+01 0.00000E+00
 -1      3520 4.37850E+01 1.30992E+01 0.00000E+00
 -1      3521 4.30350E+01 1.43982E+01 0.00000E+00
 -1      3522 4.60350E+01 1.43982E+01 0.00000E+00
 -1      3523 8.89500E+01 3.58173E+01 0.00000E+00
 -1      3524 9.04500E+01 3.59236E+01 0.00000E+00
 -1      3525 8.82000E+01 3.45183E+01 0.00000E+00
 -1      3526 1.05857E+02 2.13770E+01 0.00000E+00
 -1      3527 1.07584E+02 2.14205E+01 0.00000E+00
 -1      3528 1.31171E+02 3.60539E+01 0.00000E+00
 -1      3529 1.32671E+02 3.60539E+01 0.00000E+00
 -1      3530 1.32814E+02 3.41425E+01 0.00000E+00
 -1      3531 1.30421E+02 3.47774E+01 0.00000E+00
 -1      3532 1.26786E+02 3.57469E+01 0.00000E+00
 -1      3533 2.12850E+01 1.30992E+01 0.00000E+00
 -1      3534 1.97850E+01 1.30992E+01 0.00000E+00
 -1      3535 1.81160E+01 1.44914E+01 0.00000E+00
 -1      3536 1.08544E+02 2.06324E+01 0.00000E+00
 -1      3537 9.48422E+01 2.66689E+01 0.00000E+00
 -1      3538 1.42890E+01 2.27625E+01 0.00000E+00
 -1      3539 1.42890E+01 2.42375E+01 0.00000E+00
 -1      3540 2.42850E+01 1.30992E+01 0.00000E+00
 -1      3541 2.27850E+01 1.30992E+01 0.00000E+00
 -1      3542 2.50350E+01 1.43982E+01 0.00000E+00
 -1      3543 1.00802E+02 2.12605E+01 0.00000E+00
 -1      3544 1.27536E+02 3.44705E+01 0.00000E+00
 -1      3545 3.40350E+01 1.43982E+01 0.00000E+00
 -1      3546 1.29900E+01 1.76125E+01 0.00000E+00
 -1      3547 1.14965E+02 2.23812E+01 0.00000E+00
 -1      3548 1.15880E+02 2.24747E+01 0.00000E+00
 -1      3549 1.14703E+02 2.12040E+01 0.00000E+00
 -1      3550 1.20525E+02 2.58977E+01 0.00000E+00
 -1      3551 1.22071E+02 2.58684E+01 0.00000E+00
 -1      3552 1.20462E+02 2.46573E+01 0.00000E+00
 -1      3553 1.22726E+02 2.89756E+01 0.00000E+00
 -1      3554 1.35711E+02 2.13375E+01 0.00000E+00
 -1      3555 1.35711E+02 1.98625E+01 0.00000E+00
 -1      3556 1.35711E+02 2.72188E+01 0.00000E+00
 -1      3557 1.35711E+02 2.57563E+01 0.00000E+00
 -1      3558 1.41217E+01 3.37618E+01 0.00000E+00
 -1      3559 1.47450E+01 3.54019E+01 0.00000E+00
 -1      3560 1.58767E+01 3.53699E+01 0.00000E+00
 -1      3561 1.36791E+02 1.31223E+01 0.00000E+00
 -1      3562 1.42890E+01 1.98250E+01 0.00000E+00
 -1      3563 1.42890E+01 2.12938E+01 0.00000E+00
 -1      3564 1.55880E+01 2.20313E+01 0.00000E+00
 -1      3565 1.29900E+01 2.64469E+01 0.00000E+00
 -1      3566 1.35711E+02 2.42844E+01 0.00000E+00
 -1      3567 1.35711E+02 2.28094E+01 0.00000E+00
 -1      3568 1.34412E+02 2.20719E+01 0.00000E+00
 -1      3569 1.34412E+02 2.50156E+01 0.00000E+00
 -1      3570 1.34478E+02 1.93597E+01 0.00000E+00
 -1      3571 1.35777E+02 1.86222E+01 0.00000E+00
 -1      3572 1.35842E+02 1.73818E+01 0.00000E+00
 -1      3573 1.33849E+02 3.21613E+01 0.00000E+00
 -1      3574 1.35349E+02 3.06863E+01 0.00000E+00
 -1      3575 1.24483E+02 3.15084E+01 0.00000E+00
 -1      3576 1.24582E+02 3.23443E+01 0.00000E+00
 -1      3577 1.25748E+02 3.30102E+01 0.00000E+00
 -1      3578 1.35349E+02 2.92238E+01 0.00000E+00
 -1      3579 1.66268E+01 3.40709E+01 0.00000E+00
 -1      3580 9.73110E+01 2.34698E+01 0.00000E+00
 -1      3581 9.34165E+01 2.98808E+01 0.00000E+00
 -1      3582 1.11279E+02 2.01325E+01 0.00000E+00
 -1      3583 1.12065E+02 2.10007E+01 0.00000E+00
 -1      3584 1.13003E+02 2.02422E+01 0.00000E+00
 -1      3585 1.41217E+01 3.22931E+01 0.00000E+00
 -1      3586 9.30168E+01 3.30480E+01 0.00000E+00
 -1      3587 1.03653E+02 1.94731E+01 0.00000E+00
 -1      3588 1.04755E+02 2.04251E+01 0.00000E+00
 -1      3589 1.05644E+02 1.94220E+01 0.00000E+00
 -1      3590 1.36041E+02 1.44213E+01 0.00000E+00
 -1      3591 1.07791E+02 1.94885E+01 0.00000E+00
 -1      3592 1.09589E+02 1.97470E+01 0.00000E+00
 -1      3593 1.87500E+01 3.31130E+01 0.00000E+00
 -1      3594 2.02500E+01 3.31130E+01 0.00000E+00
 -1      3595 1.93755E+01 1.57429E+01 0.00000E+00
 -1      3596 1.69566E+01 1.58360E+01 0.00000E+00
 -1      3597 1.42890E+01 2.57094E+01 0.00000E+00
 -1      3598 1.42890E+01 2.71812E+01 0.00000E+00
 -1      3599 1.55880E+01 2.49719E+01 0.00000E+00
 -1      3600 2.17500E+01 3.31130E+01 0.00000E+00
 -1      3601 2.32500E+01 3.31130E+01 0.00000E+00
 -1      3602 2.10000E+01 3.18140E+01 0.00000E+00
 -1      3603 2.47500E+01 3.31130E+01 0.00000E+00
 -1      3604 2.62500E+01 3.31130E+01 0.00000E+00
 -1      3605 2.40000E+01 3.18140E+01 0.00000E+00
 -1      3606 2.77500E+01 3.31130E+01 0.00000E+00
 -1      3607 2.92500E+01 3.31130E+01 0.00000E+00
 -1      3608 2.70000E+01 3.18140E+01 0.00000E+00
 -1      3609 3.07500E+01 3.31130E+01 0.00000E+00
 -1      3610 3.22500E+01 3.31130E+01 0.00000E+00
 -1      3611 3.00000E+01 3.18140E+01 0.00000E+00
 -1      3612 3.37500E+01 3.31130E+01 0.00000E+00
 -1      3613 3.52500E+01 3.31130E+01 0.00000E+00
 -1      3614 3.30000E+01 3.18140E+01 0.00000E+00
 -1      3615 3.66750E+01 3.31130E+01 0.00000E+00
 -1      3616 3.81000E+01 3.31130E+01 0.00000E+00
 -1      3617 3.59250E+01 3.18140E+01 0.00000E+00
 -1      3618 3.96000E+01 3.31130E+01 0.00000E+00
 -1      3619 4.11000E+01 3.31130E+01 0.00000E+00
 -1      3620 3.88500E+01 3.18140E+01 0.00000E+00
 -1      3621 4.26000E+01 3.31130E+01 0.00000E+00
 -1      3622 4.41000E+01 3.31130E+01 0.00000E+00
 -1      3623 4.18500E+01 3.18140E+01 0.00000E+00
 -1      3624 4.56000E+01 3.31130E+01 0.00000E+00
 -1      3625 4.71000E+01 3.31130E+01 0.00000E+00
 -1      3626 4.48500E+01 3.18140E+01 0.00000E+00
 -1      3627 4.86000E+01 3.31130E+01 0.00000E+00
 -1      3628 5.01000E+01 3.31130E+01 0.00000E+00
 -1      3629 4.78500E+01 3.18140E+01 0.00000E+00
 -1      3630 5.16000E+01 3.31130E+01 0.00000E+00
 -1      3631 5.31000E+01 3.31130E+01 0.00000E+00
 -1      3632 5.08500E+01 3.18140E+01 0.00000E+00
 -1      3633 5.46000E+01 3.31130E+01 0.00000E+00
 -1      3634 5.61000E+01 3.31130E+01 0.00000E+00
 -1      3635 5.38500E+01 3.18140E+01 0.00000E+00
 -1      3636 5.76000E+01 3.31130E+01 0.00000E+00
 -1      3637 5.91000E+01 3.31130E+01 0.00000E+00
 -1      3638 5.68500E+01 3.18140E+01 0.00000E+00
 -1      3639 6.06000E+01 3.31130E+01 0.00000E+00
 -1      3640 6.21000E+01 3.31130E+01 0.00000E+00
 -1      3641 5.98500E+01 3.18140E+01 0.00000E+00
 -1      3642 6.36000E+01 3.31130E+01 0.00000E+00
 -1      3643 6.51000E+01 3.31130E+01 0.00000E+00
 -1      3644 6.28500E+01 3.18140E+01 0.00000E+00
 -1      3645 6.66000E+01 3.31130E+01 0.00000E+00
 -1      3646 6.81000E+01 3.31130E+01 0.00000E+00
 -1      3647 6.58500E+01 3.18140E+01 0.00000E+00
 -1      3648 6.96000E+01 3.31130E+01 0.00000E+00
 -1      3649 7.11000E+01 3.31130E+01 0.00000E+00
 -1      3650 6.88500E+01 3.18140E+01 0.00000E+00
 -1      3651 7.26000E+01 3.31130E+01 0.00000E+00
 -1      3652 7.41000E+01 3.31130E+01 0.00000E+00
 -1      3653 7.18500E+01 3.18140E+01 0.00000E+00
 -1      3654 7.56000E+01 3.31130E+01 0.00000E+00
 -1      3655 7.71000E+01 3.31130E+01 0.00000E+00
 -1      3656 7.48500E+01 3.18140E+01 0.00000E+00
 -1      3657 7.86000E+01 3.31130E+01 0.00000E+00
 -1      3658 8.01000E+01 3.31130E+01 0.00000E+00
 -1      3659 7.78500E+01 3.18140E+01 0.00000E+00
 -1      3660 8.15250E+01 3.31130E+01 0.00000E+00
 -1      3661 8.29500E+01 3.31130E+01 0.00000E+00
 -1      3662 8.07750E+01 3.18140E+01 0.00000E+00
 -1      3663 8.44500E+01 3.31130E+01 0.00000E+00
 -1      3664 8.59500E+01 3.31130E+01 0.00000E+00
 -1      3665 8.37000E+01 3.18140E+01 0.00000E+00
 -1      3666 9.20359E+01 3.39636E+01 0.00000E+00
 -1      3667 9.19501E+01 3.22340E+01 0.00000E+00
 -1      3668 1.34050E+02 2.84925E+01 0.00000E+00
 -1      3669 2.87850E+01 1.56973E+01 0.00000E+00
 -1      3670 2.72850E+01 1.56973E+01 0.00000E+00
 -1      3671 3.47850E+01 1.56973E+01 0.00000E+00
 -1      3672 3.32850E+01 1.56973E+01 0.00000E+00
 -1      3673 9.09257E+01 3.53124E+01 0.00000E+00
 -1      3674 9.56610E+01 2.32320E+01 0.00000E+00
 -1      3675 9.71897E+01 2.18071E+01 0.00000E+00
 -1      3676 8.74500E+01 3.32193E+01 0.00000E+00
 -1      3677 8.89500E+01 3.33256E+01 0.00000E+00
 -1      3678 8.67000E+01 3.19203E+01 0.00000E+00
 -1      3679 1.56501E+01 1.63360E+01 0.00000E+00
 -1      3680 1.42965E+01 1.71125E+01 0.00000E+00
 -1      3681 1.42965E+01 1.85875E+01 0.00000E+00
 -1      3682 1.69095E+01 1.75875E+01 0.00000E+00
 -1      3683 5.27850E+01 1.56973E+01 0.00000E+00
 -1      3684 5.12850E+01 1.56973E+01 0.00000E+00
 -1      3685 4.97850E+01 1.56973E+01 0.00000E+00
 -1      3686 4.82850E+01 1.56973E+01 0.00000E+00
 -1      3687 5.05350E+01 1.69963E+01 0.00000E+00
 -1      3688 5.87850E+01 1.56973E+01 0.00000E+00
 -1      3689 5.72850E+01 1.56973E+01 0.00000E+00
 -1      3690 6.17850E+01 1.56973E+01 0.00000E+00
 -1      3691 6.02850E+01 1.56973E+01 0.00000E+00
 -1      3692 5.95350E+01 1.69963E+01 0.00000E+00
 -1      3693 6.47850E+01 1.56973E+01 0.00000E+00
 -1      3694 6.32850E+01 1.56973E+01 0.00000E+00
 -1      3695 6.25350E+01 1.69963E+01 0.00000E+00
 -1      3696 6.77850E+01 1.56973E+01 0.00000E+00
 -1      3697 6.62850E+01 1.56973E+01 0.00000E+00
 -1      3698 6.55350E+01 1.69963E+01 0.00000E+00
 -1      3699 7.07850E+01 1.56973E+01 0.00000E+00
 -1      3700 6.92850E+01 1.56973E+01 0.00000E+00
 -1      3701 6.85350E+01 1.69963E+01 0.00000E+00
 -1      3702 7.37850E+01 1.56973E+01 0.00000E+00
 -1      3703 7.22850E+01 1.56973E+01 0.00000E+00
 -1      3704 7.15350E+01 1.69963E+01 0.00000E+00
 -1      3705 7.67850E+01 1.56973E+01 0.00000E+00
 -1      3706 7.52850E+01 1.56973E+01 0.00000E+00
 -1      3707 7.45350E+01 1.69963E+01 0.00000E+00
 -1      3708 7.97850E+01 1.56973E+01 0.00000E+00
 -1      3709 7.82850E+01 1.56973E+01 0.00000E+00
 -1      3710 7.75350E+01 1.69963E+01 0.00000E+00
 -1      3711 8.27850E+01 1.56973E+01 0.00000E+00
 -1      3712 8.12850E+01 1.56973E+01 0.00000E+00
 -1      3713 8.05350E+01 1.69963E+01 0.00000E+00
 -1      3714 8.57850E+01 1.56973E+01 0.00000E+00
 -1      3715 8.42850E+01 1.56973E+01 0.00000E+00
 -1      3716 8.35350E+01 1.69963E+01 0.00000E+00
 -1      3717 8.87850E+01 1.56973E+01 0.00000E+00
 -1      3718 8.72850E+01 1.56973E+01 0.00000E+00
 -1      3719 8.65350E+01 1.69963E+01 0.00000E+00
 -1      3720 9.17850E+01 1.56973E+01 0.00000E+00
 -1      3721 9.02850E+01 1.56973E+01 0.00000E+00
 -1      3722 8.95350E+01 1.69963E+01 0.00000E+00
 -1      3723 9.47850E+01 1.56973E+01 0.00000E+00
 -1      3724 9.32850E+01 1.56973E+01 0.00000E+00
 -1      3725 9.25350E+01 1.69963E+01 0.00000E+00
 -1      3726 9.77850E+01 1.56973E+01 0.00000E+00
 -1      3727 9.62850E+01 1.56973E+01 0.00000E+00
 -1      3728 9.55350E+01 1.69963E+01 0.00000E+00
 -1      3729 1.00785E+02 1.56973E+01 0.00000E+00
 -1      3730 9.92850E+01 1.56973E+01 0.00000E+00
 -1      3731 9.85350E+01 1.69963E+01 0.00000E+00
 -1      3732 1.04539E+02 1.64342E+01 0.00000E+00
 -1      3733 1.03039E+02 1.64342E+01 0.00000E+00
 -1      3734 1.06039E+02 1.64342E+01 0.00000E+00
 -1      3735 1.09685E+02 1.65007E+01 0.00000E+00
 -1      3736 1.08185E+02 1.65007E+01 0.00000E+00
 -1      3737 1.12876E+02 1.68861E+01 0.00000E+00
 -1      3738 1.11376E+02 1.68861E+01 0.00000E+00
 -1      3739 1.18785E+02 1.56973E+01 0.00000E+00
 -1      3740 1.17285E+02 1.56973E+01 0.00000E+00
 -1      3741 1.21785E+02 1.56973E+01 0.00000E+00
 -1      3742 1.20285E+02 1.56973E+01 0.00000E+00
 -1      3743 1.19535E+02 1.69963E+01 0.00000E+00
 -1      3744 1.24785E+02 1.56973E+01 0.00000E+00
 -1      3745 1.23285E+02 1.56973E+01 0.00000E+00
 -1      3746 1.22535E+02 1.69963E+01 0.00000E+00
 -1      3747 1.27785E+02 1.56973E+01 0.00000E+00
 -1      3748 1.26285E+02 1.56973E+01 0.00000E+00
 -1      3749 1.25535E+02 1.69963E+01 0.00000E+00
 -1      3750 1.30785E+02 1.56973E+01 0.00000E+00
 -1      3751 1.29285E+02 1.56973E+01 0.00000E+00
 -1      3752 1.28535E+02 1.69963E+01 0.00000E+00
 -1      3753 2.20350E+01 1.43982E+01 0.00000E+00
 -1      3754 1.17267E+02 2.29921E+01 0.00000E+00
 -1      3755 1.18654E+02 2.35094E+01 0.00000E+00
 -1      3756 1.17005E+02 2.18149E+01 0.00000E+00
 -1      3757 1.32653E+02 3.24787E+01 0.00000E+00
 -1      3758 1.32492E+02 3.08150E+01 0.00000E+00
 -1      3759 1.31457E+02 3.27962E+01 0.00000E+00
 -1      3760 3.77850E+01 1.56973E+01 0.00000E+00
 -1      3761 3.62850E+01 1.56973E+01 0.00000E+00
 -1      3762 3.55350E+01 1.69963E+01 0.00000E+00
 -1      3763 1.23647E+02 2.76566E+01 0.00000E+00
 -1      3764 1.24239E+02 2.95234E+01 0.00000E+00
 -1      3765 1.60035E+01 3.24309E+01 0.00000E+00
 -1      3766 1.73768E+01 3.27719E+01 0.00000E+00
 -1      3767 1.81268E+01 3.14729E+01 0.00000E+00
 -1      3768 3.17850E+01 1.56973E+01 0.00000E+00
 -1      3769 3.02850E+01 1.56973E+01 0.00000E+00
 -1      3770 2.95350E+01 1.69963E+01 0.00000E+00
 -1      3771 1.35838E+02 1.55213E+01 0.00000E+00
 -1      3772 9.32243E+01 2.69478E+01 0.00000E+00
 -1      3773 9.41645E+01 2.51736E+01 0.00000E+00
 -1      3774 5.57850E+01 1.56973E+01 0.00000E+00
 -1      3775 5.42850E+01 1.56973E+01 0.00000E+00
 -1      3776 5.65350E+01 1.69963E+01 0.00000E+00
 -1      3777 1.48717E+01 3.09941E+01 0.00000E+00
 -1      3778 4.07850E+01 1.56973E+01 0.00000E+00
 -1      3779 3.92850E+01 1.56973E+01 0.00000E+00
 -1      3780 3.85350E+01 1.69963E+01 0.00000E+00
 -1      3781 9.19431E+01 3.01841E+01 0.00000E+00
 -1      3782 9.24285E+01 2.87464E+01 0.00000E+00
 -1      3783 9.93386E+01 2.04465E+01 0.00000E+00
 -1      3784 1.01301E+02 1.96622E+01 0.00000E+00
 -1      3785 1.32591E+02 2.92644E+01 0.00000E+00
 -1      3786 1.32953E+02 2.72594E+01 0.00000E+00
 -1      3787 1.34539E+02 1.62588E+01 0.00000E+00
 -1      3788 9.03346E+01 3.38871E+01 0.00000E+00
 -1      3789 9.15602E+01 3.45748E+01 0.00000E+00
 -1      3790 1.55955E+01 1.93250E+01 0.00000E+00
 -1      3791 1.48717E+01 2.95253E+01 0.00000E+00
 -1      3792 1.61707E+01 2.87878E+01 0.00000E+00
 -1      3793 2.57850E+01 1.56973E+01 0.00000E+00
 -1      3794 2.42850E+01 1.56973E+01 0.00000E+00
 -1      3795 2.65350E+01 1.69963E+01 0.00000E+00
 -1      3796 1.19938E+02 2.23029E+01 0.00000E+00
 -1      3797 1.20200E+02 2.34801E+01 0.00000E+00
 -1      3798 1.21746E+02 2.34509E+01 0.00000E+00
 -1      3799 1.31395E+02 2.95818E+01 0.00000E+00
 -1      3800 1.33039E+02 1.62588E+01 0.00000E+00
 -1      3801 9.09621E+01 3.10996E+01 0.00000E+00
 -1      3802 8.95846E+01 3.25881E+01 0.00000E+00
 -1      3803 1.33148E+02 1.99112E+01 0.00000E+00
 -1      3804 1.33213E+02 1.86709E+01 0.00000E+00
 -1      3805 3.25350E+01 1.69963E+01 0.00000E+00
 -1      3806 9.40431E+01 2.35109E+01 0.00000E+00
 -1      3807 9.39217E+01 2.18482E+01 0.00000E+00
 -1      3808 9.24252E+01 2.37898E+01 0.00000E+00
 -1      3809 4.75350E+01 1.69963E+01 0.00000E+00
 -1      3810 4.67850E+01 1.56973E+01 0.00000E+00
 -1      3811 4.52850E+01 1.56973E+01 0.00000E+00
 -1      3812 1.02289E+02 1.77332E+01 0.00000E+00
 -1      3813 1.15785E+02 1.56973E+01 0.00000E+00
 -1      3814 1.14285E+02 1.56973E+01 0.00000E+00
 -1      3815 2.27850E+01 1.56973E+01 0.00000E+00
 -1      3816 2.12850E+01 1.56973E+01 0.00000E+00
 -1      3817 2.35350E+01 1.69963E+01 0.00000E+00
 -1      3818 1.10526E+02 1.89885E+01 0.00000E+00
 -1      3819 1.27133E+02 3.29609E+01 0.00000E+00
 -1      3820 1.28823E+02 3.35853E+01 0.00000E+00
 -1      3821 5.35350E+01 1.69963E+01 0.00000E+00
 -1      3822 1.32953E+02 2.57875E+01 0.00000E+00
 -1      3823 1.32953E+02 2.43156E+01 0.00000E+00
 -1      3824 1.31493E+02 2.65593E+01 0.00000E+00
 -1      3825 1.25405E+02 3.01894E+01 0.00000E+00
 -1      3826 9.17508E+01 2.72511E+01 0.00000E+00
 -1      3827 1.27035E+02 3.21251E+01 0.00000E+00
 -1      3828 1.23584E+02 2.64162E+01 0.00000E+00
 -1      3829 1.25096E+02 2.69640E+01 0.00000E+00
 -1      3830 1.23521E+02 2.51759E+01 0.00000E+00
 -1      3831 1.33050E+02 2.28493E+01 0.00000E+00
 -1      3832 1.33050E+02 2.13775E+01 0.00000E+00
 -1      3833 1.31786E+02 2.06887E+01 0.00000E+00
 -1      3834 1.31591E+02 2.36212E+01 0.00000E+00
 -1      3835 1.30019E+02 3.32679E+01 0.00000E+00
 -1      3836 9.62873E+01 1.92828E+01 0.00000E+00
 -1      3837 9.79374E+01 1.95206E+01 0.00000E+00
 -1      3838 1.68870E+01 2.42359E+01 0.00000E+00
 -1      3839 1.68870E+01 2.57078E+01 0.00000E+00
 -1      3840 2.01255E+01 1.70419E+01 0.00000E+00
 -1      3841 1.68870E+01 2.12984E+01 0.00000E+00
 -1      3842 1.68870E+01 2.27672E+01 0.00000E+00
 -1      3843 1.81860E+01 2.35031E+01 0.00000E+00
 -1      3844 1.06689E+02 1.85366E+01 0.00000E+00
 -1      3845 1.13626E+02 1.81851E+01 0.00000E+00
 -1      3846 1.14412E+02 1.90534E+01 0.00000E+00
 -1      3847 4.37850E+01 1.56973E+01 0.00000E+00
 -1      3848 4.22850E+01 1.56973E+01 0.00000E+00
 -1      3849 4.15350E+01 1.69963E+01 0.00000E+00
 -1      3850 4.45350E+01 1.69963E+01 0.00000E+00
 -1      3851 1.16535E+02 1.69963E+01 0.00000E+00
 -1      3852 2.02500E+01 3.05150E+01 0.00000E+00
 -1      3853 2.17500E+01 3.05150E+01 0.00000E+00
 -1      3854 2.32500E+01 3.05150E+01 0.00000E+00
 -1      3855 2.47500E+01 3.05150E+01 0.00000E+00
 -1      3856 2.25000E+01 2.92160E+01 0.00000E+00
 -1      3857 2.62500E+01 3.05150E+01 0.00000E+00
 -1      3858 2.77500E+01 3.05150E+01 0.00000E+00
 -1      3859 2.55000E+01 2.92160E+01 0.00000E+00
 -1      3860 2.92500E+01 3.05150E+01 0.00000E+00
 -1      3861 3.07500E+01 3.05150E+01 0.00000E+00
 -1      3862 2.85000E+01 2.92160E+01 0.00000E+00
 -1      3863 3.22500E+01 3.05150E+01 0.00000E+00
 -1      3864 3.37500E+01 3.05150E+01 0.00000E+00
 -1      3865 3.15000E+01 2.92160E+01 0.00000E+00
 -1      3866 3.51750E+01 3.05150E+01 0.00000E+00
 -1      3867 3.66000E+01 3.05150E+01 0.00000E+00
 -1      3868 3.44250E+01 2.92160E+01 0.00000E+00
 -1      3869 3.81000E+01 3.05150E+01 0.00000E+00
 -1      3870 3.96000E+01 3.05150E+01 0.00000E+00
 -1      3871 3.73500E+01 2.92160E+01 0.00000E+00
 -1      3872 4.11000E+01 3.05150E+01 0.00000E+00
 -1      3873 4.26000E+01 3.05150E+01 0.00000E+00
 -1      3874 4.03500E+01 2.92160E+01 0.00000E+00
 -1      3875 4.41000E+01 3.05150E+01 0.00000E+00
 -1      3876 4.56000E+01 3.05150E+01 0.00000E+00
 -1      3877 4.33500E+01 2.92160E+01 0.00000E+00
 -1      3878 4.71000E+01 3.05150E+01 0.00000E+00
 -1      3879 4.86000E+01 3.05150E+01 0.00000E+00
 -1      3880 4.63500E+01 2.92160E+01 0.00000E+00
 -1      3881 5.01000E+01 3.05150E+01 0.00000E+00
 -1      3882 5.16000E+01 3.05150E+01 0.00000E+00
 -1      3883 4.93500E+01 2.92160E+01 0.00000E+00
 -1      3884 5.31000E+01 3.05150E+01 0.00000E+00
 -1      3885 5.46000E+01 3.05150E+01 0.00000E+00
 -1      3886 5.23500E+01 2.92160E+01 0.00000E+00
 -1      3887 5.61000E+01 3.05150E+01 0.00000E+00
 -1      3888 5.76000E+01 3.05150E+01 0.00000E+00
 -1      3889 5.53500E+01 2.92160E+01 0.00000E+00
 -1      3890 5.91000E+01 3.05150E+01 0.00000E+00
 -1      3891 6.06000E+01 3.05150E+01 0.00000E+00
 -1      3892 5.83500E+01 2.92160E+01 0.00000E+00
 -1      3893 6.21000E+01 3.05150E+01 0.00000E+00
 -1      3894 6.36000E+01 3.05150E+01 0.00000E+00
 -1      3895 6.13500E+01 2.92160E+01 0.00000E+00
 -1      3896 6.51000E+01 3.05150E+01 0.00000E+00
 -1      3897 6.66000E+01 3.05150E+01 0.00000E+00
 -1      3898 6.43500E+01 2.92160E+01 0.00000E+00
 -1      3899 6.81000E+01 3.05150E+01 0.00000E+00
 -1      3900 6.96000E+01 3.05150E+01 0.00000E+00
 -1      3901 6.73500E+01 2.92160E+01 0.00000E+00
 -1      3902 7.11000E+01 3.05150E+01 0.00000E+00
 -1      3903 7.26000E+01 3.05150E+01 0.00000E+00
 -1      3904 7.03500E+01 2.92160E+01 0.00000E+00
 -1      3905 7.41000E+01 3.05150E+01 0.00000E+00
 -1      3906 7.56000E+01 3.05150E+01 0.00000E+00
 -1      3907 7.33500E+01 2.92160E+01 0.00000E+00
 -1      3908 7.71000E+01 3.05150E+01 0.00000E+00
 -1      3909 7.86000E+01 3.05150E+01 0.00000E+00
 -1      3910 7.63500E+01 2.92160E+01 0.00000E+00
 -1      3911 8.00250E+01 3.05150E+01 0.00000E+00
 -1      3912 8.14500E+01 3.05150E+01 0.00000E+00
 -1      3913 7.92750E+01 2.92160E+01 0.00000E+00
 -1      3914 8.29500E+01 3.05150E+01 0.00000E+00
 -1      3915 8.44500E+01 3.05150E+01 0.00000E+00
 -1      3916 8.22000E+01 2.92160E+01 0.00000E+00
 -1      3917 1.30049E+02 3.02746E+01 0.00000E+00
 -1      3918 1.30148E+02 2.87239E+01 0.00000E+00
 -1      3919 3.32850E+01 1.82952E+01 0.00000E+00
 -1      3920 3.17850E+01 1.82952E+01 0.00000E+00
 -1      3921 1.69020E+01 1.88242E+01 0.00000E+00
 -1      3922 1.68945E+01 2.00617E+01 0.00000E+00
 -1      3923 1.81935E+01 2.07977E+01 0.00000E+00
 -1      3924 1.82085E+01 1.83242E+01 0.00000E+00
 -1      3925 1.26285E+02 1.82952E+01 0.00000E+00
 -1      3926 1.24785E+02 1.82952E+01 0.00000E+00
 -1      3927 5.12850E+01 1.82952E+01 0.00000E+00
 -1      3928 4.97850E+01 1.82952E+01 0.00000E+00
 -1      3929 6.32850E+01 1.82952E+01 0.00000E+00
 -1      3930 6.17850E+01 1.82952E+01 0.00000E+00
 -1      3931 6.02850E+01 1.82952E+01 0.00000E+00
 -1      3932 5.87850E+01 1.82952E+01 0.00000E+00
 -1      3933 6.10350E+01 1.95942E+01 0.00000E+00
 -1      3934 6.92850E+01 1.82952E+01 0.00000E+00
 -1      3935 6.77850E+01 1.82952E+01 0.00000E+00
 -1      3936 7.22850E+01 1.82952E+01 0.00000E+00
 -1      3937 7.07850E+01 1.82952E+01 0.00000E+00
 -1      3938 7.00350E+01 1.95942E+01 0.00000E+00
 -1      3939 7.52850E+01 1.82952E+01 0.00000E+00
 -1      3940 7.37850E+01 1.82952E+01 0.00000E+00
 -1      3941 7.30350E+01 1.95942E+01 0.00000E+00
 -1      3942 7.82850E+01 1.82952E+01 0.00000E+00
 -1      3943 7.67850E+01 1.82952E+01 0.00000E+00
 -1      3944 7.60350E+01 1.95942E+01 0.00000E+00
 -1      3945 8.12850E+01 1.82952E+01 0.00000E+00
 -1      3946 7.97850E+01 1.82952E+01 0.00000E+00
 -1      3947 7.90350E+01 1.95942E+01 0.00000E+00
 -1      3948 8.42850E+01 1.82952E+01 0.00000E+00
 -1      3949 8.27850E+01 1.82952E+01 0.00000E+00
 -1      3950 8.20350E+01 1.95942E+01 0.00000E+00
 -1      3951 8.72850E+01 1.82952E+01 0.00000E+00
 -1      3952 8.57850E+01 1.82952E+01 0.00000E+00
 -1      3953 8.50350E+01 1.95942E+01 0.00000E+00
 -1      3954 9.02850E+01 1.82952E+01 0.00000E+00
 -1      3955 8.87850E+01 1.82952E+01 0.00000E+00
 -1      3956 8.80350E+01 1.95942E+01 0.00000E+00
 -1      3957 9.31694E+01 1.95617E+01 0.00000E+00
 -1      3958 9.16694E+01 1.95617E+01 0.00000E+00
 -1      3959 9.47873E+01 1.92828E+01 0.00000E+00
 -1      3960 1.20285E+02 1.82952E+01 0.00000E+00
 -1      3961 1.18785E+02 1.82952E+01 0.00000E+00
 -1      3962 1.29285E+02 1.82952E+01 0.00000E+00
 -1      3963 1.27785E+02 1.82952E+01 0.00000E+00
 -1      3964 1.27035E+02 1.95942E+01 0.00000E+00
 -1      3965 1.32289E+02 1.75578E+01 0.00000E+00
 -1      3966 3.92850E+01 1.82952E+01 0.00000E+00
 -1      3967 3.77850E+01 1.82952E+01 0.00000E+00
 -1      3968 8.95775E+01 3.05382E+01 0.00000E+00
 -1      3969 1.17576E+02 2.04459E+01 0.00000E+00
 -1      3970 1.18964E+02 2.09632E+01 0.00000E+00
 -1      3971 5.42850E+01 1.82952E+01 0.00000E+00
 -1      3972 5.27850E+01 1.82952E+01 0.00000E+00
 -1      3973 5.20350E+01 1.95942E+01 0.00000E+00
 -1      3974 1.23285E+02 1.82952E+01 0.00000E+00
 -1      3975 1.21785E+02 1.82952E+01 0.00000E+00
 -1      3976 1.21035E+02 1.95942E+01 0.00000E+00
 -1      3977 1.24035E+02 1.95942E+01 0.00000E+00
 -1      3978 1.29858E+02 3.16041E+01 0.00000E+00
 -1      3979 6.62850E+01 1.82952E+01 0.00000E+00
 -1      3980 6.47850E+01 1.82952E+01 0.00000E+00
 -1      3981 6.40350E+01 1.95942E+01 0.00000E+00
 -1      3982 6.70350E+01 1.95942E+01 0.00000E+00
 -1      3983 8.59500E+01 3.06213E+01 0.00000E+00
 -1      3984 8.74500E+01 3.07276E+01 0.00000E+00
 -1      3985 8.52000E+01 2.93223E+01 0.00000E+00
 -1      3986 5.72850E+01 1.82952E+01 0.00000E+00
 -1      3987 5.57850E+01 1.82952E+01 0.00000E+00
 -1      3988 5.50350E+01 1.95942E+01 0.00000E+00
 -1      3989 9.01650E+01 2.76248E+01 0.00000E+00
 -1      3990 9.09608E+01 2.58262E+01 0.00000E+00
 -1      3991 1.72155E+01 2.74183E+01 0.00000E+00
 -1      3992 1.77983E+01 2.97624E+01 0.00000E+00
 -1      3993 1.91715E+01 3.01035E+01 0.00000E+00
 -1      3994 1.85145E+01 2.66824E+01 0.00000E+00
 -1      3995 2.20275E+01 1.82330E+01 0.00000E+00
 -1      3996 2.01180E+01 1.82786E+01 0.00000E+00
 -1      3997 2.01105E+01 1.95153E+01 0.00000E+00
 -1      3998 1.01399E+02 1.87362E+01 0.00000E+00
 -1      3999 3.02850E+01 1.82952E+01 0.00000E+00
 -1      4000 2.87850E+01 1.82952E+01 0.00000E+00
 -1      4001 3.10350E+01 1.95942E+01 0.00000E+00
 -1      4002 3.62850E+01 1.82952E+01 0.00000E+00
 -1      4003 3.47850E+01 1.82952E+01 0.00000E+00
 -1      4004 3.40350E+01 1.95942E+01 0.00000E+00
 -1      4005 3.70350E+01 1.95942E+01 0.00000E+00
 -1      4006 1.28611E+02 3.07462E+01 0.00000E+00
 -1      4007 8.88275E+01 2.92392E+01 0.00000E+00
 -1      4008 2.72850E+01 1.82952E+01 0.00000E+00
 -1      4009 2.57850E+01 1.82952E+01 0.00000E+00
 -1      4010 2.80350E+01 1.95942E+01 0.00000E+00
 -1      4011 1.20510E+02 2.09340E+01 0.00000E+00
 -1      4012 1.15326E+02 1.91469E+01 0.00000E+00
 -1      4013 9.08394E+01 2.41635E+01 0.00000E+00
 -1      4014 4.82850E+01 1.82952E+01 0.00000E+00
 -1      4015 4.67850E+01 1.82952E+01 0.00000E+00
 -1      4016 4.90350E+01 1.95942E+01 0.00000E+00
 -1      4017 1.30959E+02 1.81093E+01 0.00000E+00
 -1      4018 1.30209E+02 1.94083E+01 0.00000E+00
 -1      4019 1.16826E+02 1.91469E+01 0.00000E+00
 -1      4020 2.35275E+01 1.82330E+01 0.00000E+00
 -1      4021 5.80350E+01 1.95942E+01 0.00000E+00
 -1      4022 9.99362E+01 1.79222E+01 0.00000E+00
 -1      4023 9.84362E+01 1.79222E+01 0.00000E+00
 -1      4024 1.99215E+01 2.88045E+01 0.00000E+00
 -1      4025 1.28802E+02 2.79448E+01 0.00000E+00
 -1      4026 1.30148E+02 2.72521E+01 0.00000E+00
 -1      4027 1.30148E+02 2.57802E+01 0.00000E+00
 -1      4028 8.80375E+01 2.78143E+01 0.00000E+00
 -1      4029 1.94850E+01 2.27687E+01 0.00000E+00
 -1      4030 1.94850E+01 2.42375E+01 0.00000E+00
 -1      4031 4.07850E+01 1.82952E+01 0.00000E+00
 -1      4032 4.00350E+01 1.95942E+01 0.00000E+00
 -1      4033 4.22850E+01 1.82952E+01 0.00000E+00
 -1      4034 1.26918E+02 2.60983E+01 0.00000E+00
 -1      4035 1.26981E+02 2.73387E+01 0.00000E+00
 -1      4036 1.23259E+02 2.39987E+01 0.00000E+00
 -1      4037 1.24772E+02 2.45465E+01 0.00000E+00
 -1      4038 1.22997E+02 2.28215E+01 0.00000E+00
 -1      4039 1.95390E+01 2.56657E+01 0.00000E+00
 -1      4040 1.98675E+01 2.73762E+01 0.00000E+00
 -1      4041 2.09460E+01 2.77878E+01 0.00000E+00
 -1      4042 2.08380E+01 2.49313E+01 0.00000E+00
 -1      4043 1.30112E+02 2.08746E+01 0.00000E+00
 -1      4044 1.26296E+02 3.08515E+01 0.00000E+00
 -1      4045 1.27682E+02 3.08022E+01 0.00000E+00
 -1      4046 1.27872E+02 2.94727E+01 0.00000E+00
 -1      4047 1.26051E+02 2.88665E+01 0.00000E+00
 -1      4048 5.57850E+01 2.08932E+01 0.00000E+00
 -1      4049 5.42850E+01 2.08932E+01 0.00000E+00
 -1      4050 2.47500E+01 2.79170E+01 0.00000E+00
 -1      4051 2.62500E+01 2.79170E+01 0.00000E+00
 -1      4052 2.77500E+01 2.79170E+01 0.00000E+00
 -1      4053 2.92500E+01 2.79170E+01 0.00000E+00
 -1      4054 2.70000E+01 2.66180E+01 0.00000E+00
 -1      4055 3.07500E+01 2.79170E+01 0.00000E+00
 -1      4056 3.22500E+01 2.79170E+01 0.00000E+00
 -1      4057 3.00000E+01 2.66180E+01 0.00000E+00
 -1      4058 3.36750E+01 2.79170E+01 0.00000E+00
 -1      4059 3.51000E+01 2.79170E+01 0.00000E+00
 -1      4060 3.29250E+01 2.66180E+01 0.00000E+00
 -1      4061 3.66000E+01 2.79170E+01 0.00000E+00
 -1      4062 3.81000E+01 2.79170E+01 0.00000E+00
 -1      4063 3.58500E+01 2.66180E+01 0.00000E+00
 -1      4064 3.96000E+01 2.79170E+01 0.00000E+00
 -1      4065 4.11000E+01 2.79170E+01 0.00000E+00
 -1      4066 3.88500E+01 2.66180E+01 0.00000E+00
 -1      4067 4.26000E+01 2.79170E+01 0.00000E+00
 -1      4068 4.41000E+01 2.79170E+01 0.00000E+00
 -1      4069 4.18500E+01 2.66180E+01 0.00000E+00
 -1      4070 4.56000E+01 2.79170E+01 0.00000E+00
 -1      4071 4.71000E+01 2.79170E+01 0.00000E+00
 -1      4072 4.48500E+01 2.66180E+01 0.00000E+00
 -1      4073 4.86000E+01 2.79170E+01 0.00000E+00
 -1      4074 5.01000E+01 2.79170E+01 0.00000E+00
 -1      4075 4.78500E+01 2.66180E+01 0.00000E+00
 -1      4076 5.16000E+01 2.79170E+01 0.00000E+00
 -1      4077 5.31000E+01 2.79170E+01 0.00000E+00
 -1      4078 5.08500E+01 2.66180E+01 0.00000E+00
 -1      4079 5.46000E+01 2.79170E+01 0.00000E+00
 -1      4080 5.61000E+01 2.79170E+01 0.00000E+00
 -1      4081 5.38500E+01 2.66180E+01 0.00000E+00
 -1      4082 5.76000E+01 2.79170E+01 0.00000E+00
 -1      4083 5.91000E+01 2.79170E+01 0.00000E+00
 -1      4084 5.68500E+01 2.66180E+01 0.00000E+00
 -1      4085 6.06000E+01 2.79170E+01 0.00000E+00
 -1      4086 6.21000E+01 2.79170E+01 0.00000E+00
 -1      4087 5.98500E+01 2.66180E+01 0.00000E+00
 -1      4088 6.36000E+01 2.79170E+01 0.00000E+00
 -1      4089 6.51000E+01 2.79170E+01 0.00000E+00
 -1      4090 6.28500E+01 2.66180E+01 0.00000E+00
 -1      4091 6.66000E+01 2.79170E+01 0.00000E+00
 -1      4092 6.81000E+01 2.79170E+01 0.00000E+00
 -1      4093 6.58500E+01 2.66180E+01 0.00000E+00
 -1      4094 6.96000E+01 2.79170E+01 0.00000E+00
 -1      4095 7.11000E+01 2.79170E+01 0.00000E+00
 -1      4096 6.88500E+01 2.66180E+01 0.00000E+00
 -1      4097 7.26000E+01 2.79170E+01 0.00000E+00
 -1      4098 7.41000E+01 2.79170E+01 0.00000E+00
 -1      4099 7.18500E+01 2.66180E+01 0.00000E+00
 -1      4100 7.56000E+01 2.79170E+01 0.00000E+00
 -1      4101 7.71000E+01 2.79170E+01 0.00000E+00
 -1      4102 7.48500E+01 2.66180E+01 0.00000E+00
 -1      4103 7.85250E+01 2.79170E+01 0.00000E+00
 -1      4104 7.99500E+01 2.79170E+01 0.00000E+00
 -1      4105 7.77750E+01 2.66180E+01 0.00000E+00
 -1      4106 8.14500E+01 2.79170E+01 0.00000E+00
 -1      4107 8.29500E+01 2.79170E+01 0.00000E+00
 -1      4108 8.07000E+01 2.66180E+01 0.00000E+00
 -1      4109 8.44500E+01 2.80233E+01 0.00000E+00
 -1      4110 8.59500E+01 2.81296E+01 0.00000E+00
 -1      4111 8.37000E+01 2.67243E+01 0.00000E+00
 -1      4112 1.98015E+01 2.05237E+01 0.00000E+00
 -1      4113 1.97940E+01 2.17604E+01 0.00000E+00
 -1      4114 2.10930E+01 2.24948E+01 0.00000E+00
 -1      4115 2.17110E+01 2.04781E+01 0.00000E+00
 -1      4116 4.52850E+01 1.82952E+01 0.00000E+00
 -1      4117 4.37850E+01 1.82952E+01 0.00000E+00
 -1      4118 4.30350E+01 1.95942E+01 0.00000E+00
 -1      4119 4.60350E+01 1.95942E+01 0.00000E+00
 -1      4120 7.37850E+01 2.08932E+01 0.00000E+00
 -1      4121 7.22850E+01 2.08932E+01 0.00000E+00
 -1      4122 7.07850E+01 2.08932E+01 0.00000E+00
 -1      4123 6.92850E+01 2.08932E+01 0.00000E+00
 -1      4124 7.15350E+01 2.21922E+01 0.00000E+00
 -1      4125 7.97850E+01 2.08932E+01 0.00000E+00
 -1      4126 7.82850E+01 2.08932E+01 0.00000E+00
 -1      4127 8.27850E+01 2.08932E+01 0.00000E+00
 -1      4128 8.12850E+01 2.08932E+01 0.00000E+00
 -1      4129 8.05350E+01 2.21922E+01 0.00000E+00
 -1      4130 8.57850E+01 2.08932E+01 0.00000E+00
 -1      4131 8.42850E+01 2.08932E+01 0.00000E+00
 -1      4132 8.35350E+01 2.21922E+01 0.00000E+00
 -1      4133 8.87850E+01 2.08932E+01 0.00000E+00
 -1      4134 8.72850E+01 2.08932E+01 0.00000E+00
 -1      4135 8.65350E+01 2.21922E+01 0.00000E+00
 -1      4136 9.09194E+01 2.08607E+01 0.00000E+00
 -1      4137 1.30081E+02 2.25232E+01 0.00000E+00
 -1      4138 1.28504E+02 2.12428E+01 0.00000E+00
 -1      4139 1.27004E+02 2.12428E+01 0.00000E+00
 -1      4140 1.26754E+02 2.43075E+01 0.00000E+00
 -1      4141 1.28638E+02 2.46822E+01 0.00000E+00
 -1      4142 2.42775E+01 1.95320E+01 0.00000E+00
 -1      4143 5.27850E+01 2.08932E+01 0.00000E+00
 -1      4144 5.12850E+01 2.08932E+01 0.00000E+00
 -1      4145 5.35350E+01 2.21922E+01 0.00000E+00
 -1      4146 8.72875E+01 2.65153E+01 0.00000E+00
 -1      4147 1.29984E+02 2.39894E+01 0.00000E+00
 -1      4148 5.87850E+01 2.08932E+01 0.00000E+00
 -1      4149 5.72850E+01 2.08932E+01 0.00000E+00
 -1      4150 5.65350E+01 2.21922E+01 0.00000E+00
 -1      4151 1.22010E+02 2.09340E+01 0.00000E+00
 -1      4152 2.20980E+01 2.78524E+01 0.00000E+00
 -1      4153 2.35980E+01 2.78524E+01 0.00000E+00
 -1      4154 2.43480E+01 2.65534E+01 0.00000E+00
 -1      4155 2.20440E+01 2.64242E+01 0.00000E+00
 -1      4156 3.17850E+01 2.08932E+01 0.00000E+00
 -1      4157 3.02850E+01 2.08932E+01 0.00000E+00
 -1      4158 7.67850E+01 2.08932E+01 0.00000E+00
 -1      4159 7.52850E+01 2.08932E+01 0.00000E+00
 -1      4160 7.75350E+01 2.21922E+01 0.00000E+00
 -1      4161 1.27872E+02 2.80008E+01 0.00000E+00
 -1      4162 6.17850E+01 2.08932E+01 0.00000E+00
 -1      4163 6.02850E+01 2.08932E+01 0.00000E+00
 -1      4164 5.95350E+01 2.21922E+01 0.00000E+00
 -1      4165 9.01694E+01 2.21597E+01 0.00000E+00
 -1      4166 1.23522E+02 2.14818E+01 0.00000E+00
 -1      4167 2.24895E+01 2.23712E+01 0.00000E+00
 -1      4168 2.21805E+01 2.33795E+01 0.00000E+00
 -1      4169 3.47850E+01 2.08932E+01 0.00000E+00
 -1      4170 3.32850E+01 2.08932E+01 0.00000E+00
 -1      4171 3.25350E+01 2.21922E+01 0.00000E+00
 -1      4172 4.97850E+01 2.08932E+01 0.00000E+00
 -1      4173 4.82850E+01 2.08932E+01 0.00000E+00
 -1      4174 5.05350E+01 2.21922E+01 0.00000E+00
 -1      4175 6.85350E+01 2.21922E+01 0.00000E+00
 -1      4176 6.77850E+01 2.08932E+01 0.00000E+00
 -1      4177 6.62850E+01 2.08932E+01 0.00000E+00
 -1      4178 7.45350E+01 2.21922E+01 0.00000E+00
 -1      4179 4.07850E+01 2.08932E+01 0.00000E+00
 -1      4180 3.92850E+01 2.08932E+01 0.00000E+00
 -1      4181 1.26492E+02 2.31303E+01 0.00000E+00
 -1      4182 2.87850E+01 2.08932E+01 0.00000E+00
 -1      4183 2.72850E+01 2.08932E+01 0.00000E+00
 -1      4184 2.95350E+01 2.21922E+01 0.00000E+00
 -1      4185 1.25022E+02 2.14818E+01 0.00000E+00
 -1      4186 2.22345E+01 2.48078E+01 0.00000E+00
 -1      4187 8.87050E+01 2.41961E+01 0.00000E+00
 -1      4188 8.66175E+01 2.45114E+01 0.00000E+00
 -1      4189 6.47850E+01 2.08932E+01 0.00000E+00
 -1      4190 6.32850E+01 2.08932E+01 0.00000E+00
 -1      4191 6.55350E+01 2.21922E+01 0.00000E+00
 -1      4192 6.25350E+01 2.21922E+01 0.00000E+00
 -1      4193 3.85350E+01 2.21922E+01 0.00000E+00
 -1      4194 3.77850E+01 2.08932E+01 0.00000E+00
 -1      4195 3.62850E+01 2.08932E+01 0.00000E+00
 -1      4196 2.97675E+01 2.44051E+01 0.00000E+00
 -1      4197 3.12675E+01 2.44051E+01 0.00000E+00
 -1      4198 3.27675E+01 2.44051E+01 0.00000E+00
 -1      4199 3.41925E+01 2.44051E+01 0.00000E+00
 -1      4200 3.56925E+01 2.44051E+01 0.00000E+00
 -1      4201 3.71925E+01 2.44051E+01 0.00000E+00
 -1      4202 3.86925E+01 2.44051E+01 0.00000E+00
 -1      4203 4.01925E+01 2.44051E+01 0.00000E+00
 -1      4204 4.41000E+01 2.53190E+01 0.00000E+00
 -1      4205 4.56000E+01 2.53190E+01 0.00000E+00
 -1      4206 4.76925E+01 2.44051E+01 0.00000E+00
 -1      4207 4.91925E+01 2.44051E+01 0.00000E+00
 -1      4208 5.06925E+01 2.44051E+01 0.00000E+00
 -1      4209 5.21925E+01 2.44051E+01 0.00000E+00
 -1      4210 5.36925E+01 2.44051E+01 0.00000E+00
 -1      4211 5.51925E+01 2.44051E+01 0.00000E+00
 -1      4212 5.66925E+01 2.44051E+01 0.00000E+00
 -1      4213 5.81925E+01 2.44051E+01 0.00000E+00
 -1      4214 5.96925E+01 2.44051E+01 0.00000E+00
 -1      4215 6.11925E+01 2.44051E+01 0.00000E+00
 -1      4216 6.26925E+01 2.44051E+01 0.00000E+00
 -1      4217 6.41925E+01 2.44051E+01 0.00000E+00
 -1      4218 6.56925E+01 2.44051E+01 0.00000E+00
 -1      4219 6.71925E+01 2.44051E+01 0.00000E+00
 -1      4220 6.86925E+01 2.44051E+01 0.00000E+00
 -1      4221 7.01925E+01 2.44051E+01 0.00000E+00
 -1      4222 7.16925E+01 2.44051E+01 0.00000E+00
 -1      4223 7.31925E+01 2.44051E+01 0.00000E+00
 -1      4224 7.46925E+01 2.44051E+01 0.00000E+00
 -1      4225 7.61925E+01 2.44051E+01 0.00000E+00
 -1      4226 7.76925E+01 2.44051E+01 0.00000E+00
 -1      4227 7.91175E+01 2.44051E+01 0.00000E+00
 -1      4228 8.06175E+01 2.44051E+01 0.00000E+00
 -1      4229 8.21175E+01 2.44051E+01 0.00000E+00
 -1      4230 8.36175E+01 2.44051E+01 0.00000E+00
 -1      4231 8.51175E+01 2.45114E+01 0.00000E+00
 -1      4232 2.31075E+01 2.03545E+01 0.00000E+00
 -1      4233 2.27985E+01 2.13628E+01 0.00000E+00
 -1      4234 2.33865E+01 2.48724E+01 0.00000E+00
 -1      4235 4.19888E+01 2.13502E+01 0.00000E+00
 -1      4236 4.12388E+01 2.26492E+01 0.00000E+00
 -1      4237 4.13963E+01 2.48621E+01 0.00000E+00
 -1      4238 4.34888E+01 2.13502E+01 0.00000E+00
 -1      4239 2.53650E+01 2.04167E+01 0.00000E+00
 -1      4240 2.67675E+01 2.44051E+01 0.00000E+00
 -1      4241 2.82675E+01 2.44051E+01 0.00000E+00
 -1      4242 2.61150E+01 2.17157E+01 0.00000E+00
 -1      4243 2.38860E+01 2.22476E+01 0.00000E+00
 -1      4244 4.69425E+01 2.31061E+01 0.00000E+00
 -1      4245 4.28963E+01 2.48621E+01 0.00000E+00
 -1      4246 2.45385E+01 2.49370E+01 0.00000E+00
 -1      4247 3.55350E+01 2.21922E+01 0.00000E+00
 -1      4248 2.58060E+01 2.27241E+01 0.00000E+00
 -1      4249 4.36463E+01 2.35631E+01 0.00000E+00
 -1      4250 4.61925E+01 2.18071E+01 0.00000E+00
 -1      4251 4.46925E+01 2.18071E+01 0.00000E+00
 -3
    3C                          2043                                     1
 -1       166    8    0    1
 -2         6         7        23      1105      1270      1122
 -1       167    8    0    1
 -2         7         8       166      1106      1271      1272
 -1       168    8    0    1
 -2         8         9       167      1107      1273      1274
 -1       169    8    0    1
 -2         8       167       166      1274      1275      1271
 -1       170    8    0    1
 -2         9        10       168      1108      1276      1277
 -1       171    8    0    1
 -2         9       168       167      1277      1278      1273
 -1       172    8    0    1
 -2        10        11       169      1109      1279      1280
 -1       173    8    0    1
 -2        10       169       168      1280      1281      1276
 -1       174    8    0    1
 -2        11        12       170      1110      1282      1283
 -1       175    8    0    1
 -2        11       170       169      1283      1284      1279
 -1       176    8    0    1
 -2        12        13       171      1111      1285      1286
 -1       177    8    0    1
 -2        12       171       170      1286      1287      1282
 -1       178    8    0    1
 -2        13        14       172      1112      1288      1289
 -1       179    8    0    1
 -2        13       172       171      1289      1290      1285
 -1       180    8    0    1
 -2        14        15       173      1113      1291      1292
 -1       181    8    0    1
 -2        14       173       172      1292      1293      1288
 -1       182    8    0    1
 -2        15        16       174      1114      1294      1295
 -1       183    8    0    1
 -2        15       174       173      1295      1296      1291
 -1       184    8    0    1
 -2        16        17       175      1115      1297      1298
 -1       185    8    0    1
 -2        16       175       174      1298      1299      1294
 -1       186    8    0    1
 -2        17        18       176      1116      1300      1301
 -1       187    8    0    1
 -2        17       176       175      1301      1302      1297
 -1       188    8    0    1
 -2        18        19       177      1117      1303      1304
 -1       189    8    0    1
 -2        18       177       176      1304      1305      1300
 -1       190    8    0    1
 -2        19        20       178      1118      1306      1307
 -1       191    8    0    1
 -2        19       178       177      1307      1308      1303
 -1       192    8    0    1
 -2        20        21       179      1119      1309      1310
 -1       193    8    0    1
 -2        20       179       178      1310      1311      1306
 -1       194    8    0    1
 -2        21        22       180      1120      1312      1313
 -1       195    8    0    1
 -2        21       180       179      1313      1314      1309
 -1       196    8    0    1
 -2        22         5       181      1121      1315      1316
 -1       197    8    0    1
 -2       180        22       181      1312      1316      1317
 -1       198    8    0    1
 -2         5        73       181      1173      1318      1315
 -1       199    8    0    1
 -2        24        23       182      1123      1319      1320
 -1       200    8    0    1
 -2        25        24       183      1124      1321      1322
 -1       201    8    0    1
 -2        24       182       183      1320      1323      1321
 -1       202    8    0    1
 -2        26        25       184      1125      1324      1325
 -1       203    8    0    1
 -2        25       183       184      1322      1326      1324
 -1       204    8    0    1
 -2        27        26       185      1126      1327      1328
 -1       205    8    0    1
 -2        26       184       185      1325      1329      1327
 -1       206    8    0    1
 -2        28        27       186      1127      1330      1331
 -1       207    8    0    1
 -2        27       185       186      1328      1332      1330
 -1       208    8    0    1
 -2        29        28       187      1128      1333      1334
 -1       209    8    0    1
 -2        28       186       187      1331      1335      1333
 -1       210    8    0    1
 -2        30        29       188      1129      1336      1337
 -1       211    8    0    1
 -2        29       187       188      1334      1338      1336
 -1       212    8    0    1
 -2        31        30       189      1130      1339      1340
 -1       213    8    0    1
 -2        30       188       189      1337      1341      1339
 -1       214    8    0    1
 -2        32        31       190      1131      1342      1343
 -1       215    8    0    1
 -2        31       189       190      1340      1344      1342
 -1       216    8    0    1
 -2        33        32       191      1132      1345      1346
 -1       217    8    0    1
 -2        32       190       191      1343      1347      1345
 -1       218    8    0    1
 -2        34        33       192      1133      1348      1349
 -1       219    8    0    1
 -2        33       191       192      1346      1350      1348
 -1       220    8    0    1
 -2        35        34       193      1134      1351      1352
 -1       221    8    0    1
 -2        34       192       193      1349      1353      1351
 -1       222    8    0    1
 -2        36        35       194      1135      1354      1355
 -1       223    8    0    1
 -2        35       193       194      1352      1356      1354
 -1       224    8    0    1
 -2        37        36       195      1136      1357      1358
 -1       225    8    0    1
 -2        36       194       195      1355      1359      1357
 -1       226    8    0    1
 -2        38        37       196      1137      1360      1361
 -1       227    8    0    1
 -2        37       195       196      1358      1362      1360
 -1       228    8    0    1
 -2        39        38       197      1138      1363      1364
 -1       229    8    0    1
 -2        38       196       197      1361      1365      1363
 -1       230    8    0    1
 -2        40        39       198      1139      1366      1367
 -1       231    8    0    1
 -2        39       197       198      1364      1368      1366
 -1       232    8    0    1
 -2        41        40       199      1140      1369      1370
 -1       233    8    0    1
 -2        40       198       199      1367      1371      1369
 -1       234    8    0    1
 -2        42        41       200      1141      1372      1373
 -1       235    8    0    1
 -2        41       199       200      1370      1374      1372
 -1       236    8    0    1
 -2        43        42       201      1142      1375      1376
 -1       237    8    0    1
 -2        42       200       201      1373      1377      1375
 -1       238    8    0    1
 -2        44        43       202      1143      1378      1379
 -1       239    8    0    1
 -2        43       201       202      1376      1380      1378
 -1       240    8    0    1
 -2        45        44       203      1144      1381      1382
 -1       241    8    0    1
 -2        44       202       203      1379      1383      1381
 -1       242    8    0    1
 -2        46        45       204      1145      1384      1385
 -1       243    8    0    1
 -2        45       203       204      1382      1386      1384
 -1       244    8    0    1
 -2        47        46       205      1146      1387      1388
 -1       245    8    0    1
 -2        46       204       205      1385      1389      1387
 -1       246    8    0    1
 -2        48        47       206      1147      1390      1391
 -1       247    8    0    1
 -2        47       205       206      1388      1392      1390
 -1       248    8    0    1
 -2        49        48       207      1148      1393      1394
 -1       249    8    0    1
 -2        48       206       207      1391      1395      1393
 -1       250    8    0    1
 -2        50        49       208      1149      1396      1397
 -1       251    8    0    1
 -2        49       207       208      1394      1398      1396
 -1       252    8    0    1
 -2        51        50       209      1150      1399      1400
 -1       253    8    0    1
 -2        50       208       209      1397      1401      1399
 -1       254    8    0    1
 -2        52        51       210      1151      1402      1403
 -1       255    8    0    1
 -2        51       209       210      1400      1404      1402
 -1       256    8    0    1
 -2        53        52       211      1152      1405      1406
 -1       257    8    0    1
 -2        52       210       211      1403      1407      1405
 -1       258    8    0    1
 -2        54        53       212      1153      1408      1409
 -1       259    8    0    1
 -2        53       211       212      1406      1410      1408
 -1       260    8    0    1
 -2        55        54       213      1154      1411      1412
 -1       261    8    0    1
 -2        54       212       213      1409      1413      1411
 -1       262    8    0    1
 -2        56        55       214      1155      1414      1415
 -1       263    8    0    1
 -2        55       213       214      1412      1416      1414
 -1       264    8    0    1
 -2        57        56       215      1156      1417      1418
 -1       265    8    0    1
 -2        56       214       215      1415      1419      1417
 -1       266    8    0    1
 -2        58        57       216      1157      1420      1421
 -1       267    8    0    1
 -2        57       215       216      1418      1422      1420
 -1       268    8    0    1
 -2        59        58       217      1158      1423      1424
 -1       269    8    0    1
 -2        58       216       217      1421      1425      1423
 -1       270    8    0    1
 -2        60        59       218      1159      1426      1427
 -1       271    8    0    1
 -2        59       217       218      1424      1428      1426
 -1       272    8    0    1
 -2        61        60       219      1160      1429      1430
 -1       273    8    0    1
 -2        60       218       219      1427      1431      1429
 -1       274    8    0    1
 -2        62        61       220      1161      1432      1433
 -1       275    8    0    1
 -2        61       219       220      1430      1434      1432
 -1       276    8    0    1
 -2        63        62       221      1162      1435      1436
 -1       277    8    0    1
 -2        62       220       221      1433      1437      1435
 -1       278    8    0    1
 -2        64        63       222      1163      1438      1439
 -1       279    8    0    1
 -2        63       221       222      1436      1440      1438
 -1       280    8    0    1
 -2        65        64       223      1164      1441      1442
 -1       281    8    0    1
 -2        64       222       223      1439      1443      1441
 -1       282    8    0    1
 -2        66        65       224      1165      1444      1445
 -1       283    8    0    1
 -2        65       223       224      1442      1446      1444
 -1       284    8    0    1
 -2        67        66       225      1166      1447      1448
 -1       285    8    0    1
 -2        66       224       225      1445      1449      1447
 -1       286    8    0    1
 -2        68        67       226      1167      1450      1451
 -1       287    8    0    1
 -2        67       225       226      1448      1452      1450
 -1       288    8    0    1
 -2        69        68       227      1168      1453      1454
 -1       289    8    0    1
 -2        68       226       227      1451      1455      1453
 -1       290    8    0    1
 -2        70        69       228      1169      1456      1457
 -1       291    8    0    1
 -2        69       227       228      1454      1458      1456
 -1       292    8    0    1
 -2        71        70       229      1170      1459      1460
 -1       293    8    0    1
 -2        70       228       229      1457      1461      1459
 -1       294    8    0    1
 -2        72        71       230      1171      1462      1463
 -1       295    8    0    1
 -2        71       229       230      1460      1464      1462
 -1       296    8    0    1
 -2         4        72       137      1172      1465      1239
 -1       297    8    0    1
 -2        73        74       231      1174      1466      1467
 -1       298    8    0    1
 -2        73       231       181      1467      1468      1318
 -1       299    8    0    1
 -2        74        75       232      1175      1469      1470
 -1       300    8    0    1
 -2        74       232       231      1470      1471      1466
 -1       301    8    0    1
 -2        75        76       233      1176      1472      1473
 -1       302    8    0    1
 -2        75       233       232      1473      1474      1469
 -1       303    8    0    1
 -2        76        77       234      1177      1475      1476
 -1       304    8    0    1
 -2        76       234       233      1476      1477      1472
 -1       305    8    0    1
 -2        77        78       235      1178      1478      1479
 -1       306    8    0    1
 -2        77       235       234      1479      1480      1475
 -1       307    8    0    1
 -2        78        79       236      1179      1481      1482
 -1       308    8    0    1
 -2        78       236       235      1482      1483      1478
 -1       309    8    0    1
 -2        79        80       237      1180      1484      1485
 -1       310    8    0    1
 -2        79       237       236      1485      1486      1481
 -1       311    8    0    1
 -2        80        81       238      1181      1487      1488
 -1       312    8    0    1
 -2        80       238       237      1488      1489      1484
 -1       313    8    0    1
 -2        81        82       239      1182      1490      1491
 -1       314    8    0    1
 -2        81       239       238      1491      1492      1487
 -1       315    8    0    1
 -2        82        83       240      1183      1493      1494
 -1       316    8    0    1
 -2        82       240       239      1494      1495      1490
 -1       317    8    0    1
 -2        83        84       241      1184      1496      1497
 -1       318    8    0    1
 -2        83       241       240      1497      1498      1493
 -1       319    8    0    1
 -2        84        85       242      1185      1499      1500
 -1       320    8    0    1
 -2        84       242       241      1500      1501      1496
 -1       321    8    0    1
 -2        85        86       243      1186      1502      1503
 -1       322    8    0    1
 -2        85       243       242      1503      1504      1499
 -1       323    8    0    1
 -2        86        87       244      1187      1505      1506
 -1       324    8    0    1
 -2        86       244       243      1506      1507      1502
 -1       325    8    0    1
 -2        87        88       245      1188      1508      1509
 -1       326    8    0    1
 -2        87       245       244      1509      1510      1505
 -1       327    8    0    1
 -2        88        89       246      1189      1511      1512
 -1       328    8    0    1
 -2        88       246       245      1512      1513      1508
 -1       329    8    0    1
 -2        89        90       247      1190      1514      1515
 -1       330    8    0    1
 -2        89       247       246      1515      1516      1511
 -1       331    8    0    1
 -2        90        91       248      1191      1517      1518
 -1       332    8    0    1
 -2        90       248       247      1518      1519      1514
 -1       333    8    0    1
 -2        91        92       249      1192      1520      1521
 -1       334    8    0    1
 -2        91       249       248      1521      1522      1517
 -1       335    8    0    1
 -2        92        93       250      1193      1523      1524
 -1       336    8    0    1
 -2        92       250       249      1524      1525      1520
 -1       337    8    0    1
 -2        93        94       251      1194      1526      1527
 -1       338    8    0    1
 -2        93       251       250      1527      1528      1523
 -1       339    8    0    1
 -2        94        95       252      1195      1529      1530
 -1       340    8    0    1
 -2        94       252       251      1530      1531      1526
 -1       341    8    0    1
 -2        95        96       253      1196      1532      1533
 -1       342    8    0    1
 -2        95       253       252      1533      1534      1529
 -1       343    8    0    1
 -2        96        97       254      1197      1535      1536
 -1       344    8    0    1
 -2        96       254       253      1536      1537      1532
 -1       345    8    0    1
 -2        97        98       255      1198      1538      1539
 -1       346    8    0    1
 -2        97       255       254      1539      1540      1535
 -1       347    8    0    1
 -2        98        99       256      1199      1541      1542
 -1       348    8    0    1
 -2        98       256       255      1542      1543      1538
 -1       349    8    0    1
 -2        99       100       257      1200      1544      1545
 -1       350    8    0    1
 -2        99       257       256      1545      1546      1541
 -1       351    8    0    1
 -2       100       101       258      1201      1547      1548
 -1       352    8    0    1
 -2       100       258       257      1548      1549      1544
 -1       353    8    0    1
 -2       101       102       259      1202      1550      1551
 -1       354    8    0    1
 -2       101       259       258      1551      1552      1547
 -1       355    8    0    1
 -2       102       103       260      1203      1553      1554
 -1       356    8    0    1
 -2       102       260       259      1554      1555      1550
 -1       357    8    0    1
 -2       103       104       261      1204      1556      1557
 -1       358    8    0    1
 -2       103       261       260      1557      1558      1553
 -1       359    8    0    1
 -2       104       105       262      1205      1559      1560
 -1       360    8    0    1
 -2       104       262       261      1560      1561      1556
 -1       361    8    0    1
 -2       105       106       263      1206      1562      1563
 -1       362    8    0    1
 -2       105       263       262      1563      1564      1559
 -1       363    8    0    1
 -2       106       107       264      1207      1565      1566
 -1       364    8    0    1
 -2       106       264       263      1566      1567      1562
 -1       365    8    0    1
 -2       107       108       265      1208      1568      1569
 -1       366    8    0    1
 -2       107       265       264      1569      1570      1565
 -1       367    8    0    1
 -2       108       109       266      1209      1571      1572
 -1       368    8    0    1
 -2       108       266       265      1572      1573      1568
 -1       369    8    0    1
 -2       109       110       267      1210      1574      1575
 -1       370    8    0    1
 -2       109       267       266      1575      1576      1571
 -1       371    8    0    1
 -2       110       111       268      1211      1577      1578
 -1       372    8    0    1
 -2       110       268       267      1578      1579      1574
 -1       373    8    0    1
 -2       111       112       269      1212      1580      1581
 -1       374    8    0    1
 -2       111       269       268      1581      1582      1577
 -1       375    8    0    1
 -2       112       113       270      1213      1583      1584
 -1       376    8    0    1
 -2       112       270       269      1584      1585      1580
 -1       377    8    0    1
 -2       113       114       271      1214      1586      1587
 -1       378    8    0    1
 -2       113       271       270      1587      1588      1583
 -1       379    8    0    1
 -2       114       115       272      1215      1589      1590
 -1       380    8    0    1
 -2       114       272       271      1590      1591      1586
 -1       381    8    0    1
 -2       115       116       273      1216      1592      1593
 -1       382    8    0    1
 -2       115       273       272      1593      1594      1589
 -1       383    8    0    1
 -2       116       117       274      1217      1595      1596
 -1       384    8    0    1
 -2       116       274       273      1596      1597      1592
 -1       385    8    0    1
 -2       117       118       275      1218      1598      1599
 -1       386    8    0    1
 -2       117       275       274      1599      1600      1595
 -1       387    8    0    1
 -2       118       119       276      1219      1601      1602
 -1       388    8    0    1
 -2       118       276       275      1602      1603      1598
 -1       389    8    0    1
 -2       119       120       277      1220      1604      1605
 -1       390    8    0    1
 -2       119       277       276      1605      1606      1601
 -1       391    8    0    1
 -2       120       121       278      1221      1607      1608
 -1       392    8    0    1
 -2       120       278       277      1608      1609      1604
 -1       393    8    0    1
 -2       121         3       122      1222      1223      1610
 -1       394    8    0    1
 -2       122       123       279      1224      1611      1612
 -1       395    8    0    1
 -2       123       124       280      1225      1613      1614
 -1       396    8    0    1
 -2       123       280       279      1614      1615      1611
 -1       397    8    0    1
 -2       124       125       281      1226      1616      1617
 -1       398    8    0    1
 -2       124       281       280      1617      1618      1613
 -1       399    8    0    1
 -2       125       126       282      1227      1619      1620
 -1       400    8    0    1
 -2       125       282       281      1620      1621      1616
 -1       401    8    0    1
 -2       126       127       283      1228      1622      1623
 -1       402    8    0    1
 -2       126       283       282      1623      1624      1619
 -1       403    8    0    1
 -2       127       128       284      1229      1625      1626
 -1       404    8    0    1
 -2       127       284       283      1626      1627      1622
 -1       405    8    0    1
 -2       128       129       285      1230      1628      1629
 -1       406    8    0    1
 -2       128       285       284      1629      1630      1625
 -1       407    8    0    1
 -2       129       130       286      1231      1631      1632
 -1       408    8    0    1
 -2       129       286       285      1632      1633      1628
 -1       409    8    0    1
 -2       130       131       287      1232      1634      1635
 -1       410    8    0    1
 -2       130       287       286      1635      1636      1631
 -1       411    8    0    1
 -2       131       132       288      1233      1637      1638
 -1       412    8    0    1
 -2       131       288       287      1638      1639      1634
 -1       413    8    0    1
 -2       132       133       289      1234      1640      1641
 -1       414    8    0    1
 -2       132       289       288      1641      1642      1637
 -1       415    8    0    1
 -2       133       134       290      1235      1643      1644
 -1       416    8    0    1
 -2       133       290       289      1644      1645      1640
 -1       417    8    0    1
 -2       134       135       291      1236      1646      1647
 -1       418    8    0    1
 -2       134       291       290      1647      1648      1643
 -1       419    8    0    1
 -2       135       136       292      1237      1649      1650
 -1       420    8    0    1
 -2       135       292       291      1650      1651      1646
 -1       421    8    0    1
 -2         2       138       293      1240      1652      1653
 -1       422    8    0    1
 -2       138       139       294      1241      1654      1655
 -1       423    8    0    1
 -2       139       140       295      1242      1656      1657
 -1       424    8    0    1
 -2       140       141       296      1243      1658      1659
 -1       425    8    0    1
 -2       141       142       297      1244      1660      1661
 -1       426    8    0    1
 -2       142       143       298      1245      1662      1663
 -1       427    8    0    1
 -2       143       144       299      1246      1664      1665
 -1       428    8    0    1
 -2       144       145       300      1247      1666      1667
 -1       429    8    0    1
 -2       145       146       301      1248      1668      1669
 -1       430    8    0    1
 -2       146       147       302      1249      1670      1671
 -1       431    8    0    1
 -2       147       148       303      1250      1672      1673
 -1       432    8    0    1
 -2       148       149       304      1251      1674      1675
 -1       433    8    0    1
 -2       149       150       305      1252      1676      1677
 -1       434    8    0    1
 -2       150       151       306      1253      1678      1679
 -1       435    8    0    1
 -2       151       152       307      1254      1680      1681
 -1       436    8    0    1
 -2       152       153       308      1255      1682      1683
 -1       437    8    0    1
 -2       153       154       309      1256      1684      1685
 -1       438    8    0    1
 -2       154       155       310      1257      1686      1687
 -1       439    8    0    1
 -2       155       156       311      1258      1688      1689
 -1       440    8    0    1
 -2       156       157       312      1259      1690      1691
 -1       441    8    0    1
 -2       157       158       313      1260      1692      1693
 -1       442    8    0    1
 -2       158         1       314      1261      1694      1695
 -1       443    8    0    1
 -2         1       159       315      1262      1696      1697
 -1       444    8    0    1
 -2       159       160       316      1263      1698      1699
 -1       445    8    0    1
 -2       160       161       317      1264      1700      1701
 -1       446    8    0    1
 -2       161       162       318      1265      1702      1703
 -1       447    8    0    1
 -2       162       163       319      1266      1704      1705
 -1       448    8    0    1
 -2       162       319       318      1705      1706      1702
 -1       449    8    0    1
 -2       163       164       320      1267      1707      1708
 -1       450    8    0    1
 -2       164       165       321      1268      1709      1710
 -1       451    8    0    1
 -2       165         2       322      1269      1711      1712
 -1       452    8    0    1
 -2       137        72       230      1465      1463      1713
 -1       453    8    0    1
 -2       294       139       295      1654      1657      1714
 -1       454    8    0    1
 -2       121       122       278      1610      1715      1607
 -1       455    8    0    1
 -2       122       279       278      1612      1716      1715
 -1       456    8    0    1
 -2         2       293       322      1653      1717      1711
 -1       457    8    0    1
 -2       293       138       294      1652      1655      1718
 -1       458    8    0    1
 -2       136       137       323      1238      1719      1720
 -1       459    8    0    1
 -2       136       323       292      1720      1721      1649
 -1       460    8    0    1
 -2       140       296       295      1659      1722      1656
 -1       461    8    0    1
 -2       141       297       296      1661      1723      1658
 -1       462    8    0    1
 -2       142       298       297      1663      1724      1660
 -1       463    8    0    1
 -2       143       299       298      1665      1725      1662
 -1       464    8    0    1
 -2       144       300       299      1667      1726      1664
 -1       465    8    0    1
 -2       145       301       300      1669      1727      1666
 -1       466    8    0    1
 -2       146       302       301      1671      1728      1668
 -1       467    8    0    1
 -2       147       303       302      1673      1729      1670
 -1       468    8    0    1
 -2       148       304       303      1675      1730      1672
 -1       469    8    0    1
 -2       149       305       304      1677      1731      1674
 -1       470    8    0    1
 -2       150       306       305      1679      1732      1676
 -1       471    8    0    1
 -2       151       307       306      1681      1733      1678
 -1       472    8    0    1
 -2       152       308       307      1683      1734      1680
 -1       473    8    0    1
 -2       153       309       308      1685      1735      1682
 -1       474    8    0    1
 -2       154       310       309      1687      1736      1684
 -1       475    8    0    1
 -2       155       311       310      1689      1737      1686
 -1       476    8    0    1
 -2       156       312       311      1691      1738      1688
 -1       477    8    0    1
 -2       157       313       312      1693      1739      1690
 -1       478    8    0    1
 -2       158       314       313      1695      1740      1692
 -1       479    8    0    1
 -2         1       315       314      1697      1741      1694
 -1       480    8    0    1
 -2       159       316       315      1699      1742      1696
 -1       481    8    0    1
 -2       160       317       316      1701      1743      1698
 -1       482    8    0    1
 -2       161       318       317      1703      1744      1700
 -1       483    8    0    1
 -2       320       164       321      1707      1710      1745
 -1       484    8    0    1
 -2       165       322       321      1712      1746      1709
 -1       485    8    0    1
 -2        23         7       166      1270      1272      1747
 -1       486    8    0    1
 -2       163       320       319      1708      1748      1704
 -1       487    8    0    1
 -2       167       168       324      1278      1749      1750
 -1       488    8    0    1
 -2       166       167       325      1275      1751      1752
 -1       489    8    0    1
 -2       167       324       325      1750      1753      1751
 -1       490    8    0    1
 -2       169       170       326      1284      1754      1755
 -1       491    8    0    1
 -2       170       171       327      1287      1756      1757
 -1       492    8    0    1
 -2       170       327       326      1757      1758      1754
 -1       493    8    0    1
 -2       171       172       328      1290      1759      1760
 -1       494    8    0    1
 -2       171       328       327      1760      1761      1756
 -1       495    8    0    1
 -2       172       173       329      1293      1762      1763
 -1       496    8    0    1
 -2       172       329       328      1763      1764      1759
 -1       497    8    0    1
 -2       173       174       330      1296      1765      1766
 -1       498    8    0    1
 -2       173       330       329      1766      1767      1762
 -1       499    8    0    1
 -2       174       175       331      1299      1768      1769
 -1       500    8    0    1
 -2       174       331       330      1769      1770      1765
 -1       501    8    0    1
 -2       175       176       332      1302      1771      1772
 -1       502    8    0    1
 -2       175       332       331      1772      1773      1768
 -1       503    8    0    1
 -2       176       177       333      1305      1774      1775
 -1       504    8    0    1
 -2       176       333       332      1775      1776      1771
 -1       505    8    0    1
 -2       177       178       334      1308      1777      1778
 -1       506    8    0    1
 -2       177       334       333      1778      1779      1774
 -1       507    8    0    1
 -2       178       179       335      1311      1780      1781
 -1       508    8    0    1
 -2       178       335       334      1781      1782      1777
 -1       509    8    0    1
 -2       179       180       336      1314      1783      1784
 -1       510    8    0    1
 -2       179       336       335      1784      1785      1780
 -1       511    8    0    1
 -2       180       181       337      1317      1786      1787
 -1       512    8    0    1
 -2       336       180       337      1783      1787      1788
 -1       513    8    0    1
 -2       181       231       337      1468      1789      1786
 -1       514    8    0    1
 -2       182        23       166      1319      1747      1790
 -1       515    8    0    1
 -2       231       232       338      1471      1791      1792
 -1       516    8    0    1
 -2       231       338       337      1792      1793      1789
 -1       517    8    0    1
 -2       319       320       339      1748      1794      1795
 -1       518    8    0    1
 -2       184       183       340      1326      1796      1797
 -1       519    8    0    1
 -2       185       184       341      1329      1798      1799
 -1       520    8    0    1
 -2       184       340       341      1797      1800      1798
 -1       521    8    0    1
 -2       186       185       342      1332      1801      1802
 -1       522    8    0    1
 -2       185       341       342      1799      1803      1801
 -1       523    8    0    1
 -2       187       186       343      1335      1804      1805
 -1       524    8    0    1
 -2       186       342       343      1802      1806      1804
 -1       525    8    0    1
 -2       188       187       344      1338      1807      1808
 -1       526    8    0    1
 -2       187       343       344      1805      1809      1807
 -1       527    8    0    1
 -2       189       188       345      1341      1810      1811
 -1       528    8    0    1
 -2       188       344       345      1808      1812      1810
 -1       529    8    0    1
 -2       190       189       346      1344      1813      1814
 -1       530    8    0    1
 -2       189       345       346      1811      1815      1813
 -1       531    8    0    1
 -2       191       190       347      1347      1816      1817
 -1       532    8    0    1
 -2       190       346       347      1814      1818      1816
 -1       533    8    0    1
 -2       192       191       348      1350      1819      1820
 -1       534    8    0    1
 -2       191       347       348      1817      1821      1819
 -1       535    8    0    1
 -2       193       192       349      1353      1822      1823
 -1       536    8    0    1
 -2       192       348       349      1820      1824      1822
 -1       537    8    0    1
 -2       194       193       350      1356      1825      1826
 -1       538    8    0    1
 -2       193       349       350      1823      1827      1825
 -1       539    8    0    1
 -2       195       194       351      1359      1828      1829
 -1       540    8    0    1
 -2       194       350       351      1826      1830      1828
 -1       541    8    0    1
 -2       196       195       352      1362      1831      1832
 -1       542    8    0    1
 -2       195       351       352      1829      1833      1831
 -1       543    8    0    1
 -2       197       196       353      1365      1834      1835
 -1       544    8    0    1
 -2       196       352       353      1832      1836      1834
 -1       545    8    0    1
 -2       198       197       354      1368      1837      1838
 -1       546    8    0    1
 -2       197       353       354      1835      1839      1837
 -1       547    8    0    1
 -2       199       198       355      1371      1840      1841
 -1       548    8    0    1
 -2       198       354       355      1838      1842      1840
 -1       549    8    0    1
 -2       200       199       356      1374      1843      1844
 -1       550    8    0    1
 -2       199       355       356      1841      1845      1843
 -1       551    8    0    1
 -2       201       200       357      1377      1846      1847
 -1       552    8    0    1
 -2       200       356       357      1844      1848      1846
 -1       553    8    0    1
 -2       202       201       358      1380      1849      1850
 -1       554    8    0    1
 -2       201       357       358      1847      1851      1849
 -1       555    8    0    1
 -2       203       202       359      1383      1852      1853
 -1       556    8    0    1
 -2       202       358       359      1850      1854      1852
 -1       557    8    0    1
 -2       204       203       360      1386      1855      1856
 -1       558    8    0    1
 -2       203       359       360      1853      1857      1855
 -1       559    8    0    1
 -2       205       204       361      1389      1858      1859
 -1       560    8    0    1
 -2       204       360       361      1856      1860      1858
 -1       561    8    0    1
 -2       206       205       362      1392      1861      1862
 -1       562    8    0    1
 -2       205       361       362      1859      1863      1861
 -1       563    8    0    1
 -2       207       206       363      1395      1864      1865
 -1       564    8    0    1
 -2       206       362       363      1862      1866      1864
 -1       565    8    0    1
 -2       208       207       364      1398      1867      1868
 -1       566    8    0    1
 -2       207       363       364      1865      1869      1867
 -1       567    8    0    1
 -2       209       208       365      1401      1870      1871
 -1       568    8    0    1
 -2       208       364       365      1868      1872      1870
 -1       569    8    0    1
 -2       210       209       366      1404      1873      1874
 -1       570    8    0    1
 -2       209       365       366      1871      1875      1873
 -1       571    8    0    1
 -2       211       210       367      1407      1876      1877
 -1       572    8    0    1
 -2       210       366       367      1874      1878      1876
 -1       573    8    0    1
 -2       212       211       368      1410      1879      1880
 -1       574    8    0    1
 -2       211       367       368      1877      1881      1879
 -1       575    8    0    1
 -2       213       212       369      1413      1882      1883
 -1       576    8    0    1
 -2       212       368       369      1880      1884      1882
 -1       577    8    0    1
 -2       214       213       370      1416      1885      1886
 -1       578    8    0    1
 -2       213       369       370      1883      1887      1885
 -1       579    8    0    1
 -2       218       217       315      1428      1888      1889
 -1       580    8    0    1
 -2       220       219       371      1434      1890      1891
 -1       581    8    0    1
 -2       221       220       372      1437      1892      1893
 -1       582    8    0    1
 -2       222       221       373      1440      1894      1895
 -1       583    8    0    1
 -2       221       372       373      1893      1896      1894
 -1       584    8    0    1
 -2       223       222       374      1443      1897      1898
 -1       585    8    0    1
 -2       222       373       374      1895      1899      1897
 -1       586    8    0    1
 -2       224       223       375      1446      1900      1901
 -1       587    8    0    1
 -2       223       374       375      1898      1902      1900
 -1       588    8    0    1
 -2       225       224       376      1449      1903      1904
 -1       589    8    0    1
 -2       224       375       376      1901      1905      1903
 -1       590    8    0    1
 -2       226       225       377      1452      1906      1907
 -1       591    8    0    1
 -2       225       376       377      1904      1908      1906
 -1       592    8    0    1
 -2       227       226       378      1455      1909      1910
 -1       593    8    0    1
 -2       226       377       378      1907      1911      1909
 -1       594    8    0    1
 -2       228       227       379      1458      1912      1913
 -1       595    8    0    1
 -2       227       378       379      1910      1914      1912
 -1       596    8    0    1
 -2       229       228       380      1461      1915      1916
 -1       597    8    0    1
 -2       228       379       380      1913      1917      1915
 -1       598    8    0    1
 -2       230       229       381      1464      1918      1919
 -1       599    8    0    1
 -2       229       380       381      1916      1920      1918
 -1       600    8    0    1
 -2       232       233       382      1474      1921      1922
 -1       601    8    0    1
 -2       232       382       338      1922      1923      1791
 -1       602    8    0    1
 -2       294       295       383      1714      1924      1925
 -1       603    8    0    1
 -2       233       234       384      1477      1926      1927
 -1       604    8    0    1
 -2       233       384       382      1927      1928      1921
 -1       605    8    0    1
 -2       234       235       385      1480      1929      1930
 -1       606    8    0    1
 -2       234       385       384      1930      1931      1926
 -1       607    8    0    1
 -2       235       236       386      1483      1932      1933
 -1       608    8    0    1
 -2       235       386       385      1933      1934      1929
 -1       609    8    0    1
 -2       236       237       387      1486      1935      1936
 -1       610    8    0    1
 -2       236       387       386      1936      1937      1932
 -1       611    8    0    1
 -2       237       238       388      1489      1938      1939
 -1       612    8    0    1
 -2       237       388       387      1939      1940      1935
 -1       613    8    0    1
 -2       238       239       389      1492      1941      1942
 -1       614    8    0    1
 -2       238       389       388      1942      1943      1938
 -1       615    8    0    1
 -2       239       240       390      1495      1944      1945
 -1       616    8    0    1
 -2       239       390       389      1945      1946      1941
 -1       617    8    0    1
 -2       240       241       391      1498      1947      1948
 -1       618    8    0    1
 -2       240       391       390      1948      1949      1944
 -1       619    8    0    1
 -2       241       242       392      1501      1950      1951
 -1       620    8    0    1
 -2       241       392       391      1951      1952      1947
 -1       621    8    0    1
 -2       242       243       393      1504      1953      1954
 -1       622    8    0    1
 -2       242       393       392      1954      1955      1950
 -1       623    8    0    1
 -2       243       244       394      1507      1956      1957
 -1       624    8    0    1
 -2       243       394       393      1957      1958      1953
 -1       625    8    0    1
 -2       244       245       395      1510      1959      1960
 -1       626    8    0    1
 -2       244       395       394      1960      1961      1956
 -1       627    8    0    1
 -2       245       246       396      1513      1962      1963
 -1       628    8    0    1
 -2       245       396       395      1963      1964      1959
 -1       629    8    0    1
 -2       246       247       397      1516      1965      1966
 -1       630    8    0    1
 -2       246       397       396      1966      1967      1962
 -1       631    8    0    1
 -2       247       248       398      1519      1968      1969
 -1       632    8    0    1
 -2       247       398       397      1969      1970      1965
 -1       633    8    0    1
 -2       248       249       399      1522      1971      1972
 -1       634    8    0    1
 -2       248       399       398      1972      1973      1968
 -1       635    8    0    1
 -2       249       250       400      1525      1974      1975
 -1       636    8    0    1
 -2       249       400       399      1975      1976      1971
 -1       637    8    0    1
 -2       250       251       401      1528      1977      1978
 -1       638    8    0    1
 -2       250       401       400      1978      1979      1974
 -1       639    8    0    1
 -2       251       252       402      1531      1980      1981
 -1       640    8    0    1
 -2       251       402       401      1981      1982      1977
 -1       641    8    0    1
 -2       252       253       403      1534      1983      1984
 -1       642    8    0    1
 -2       252       403       402      1984      1985      1980
 -1       643    8    0    1
 -2       253       254       404      1537      1986      1987
 -1       644    8    0    1
 -2       253       404       403      1987      1988      1983
 -1       645    8    0    1
 -2       254       255       405      1540      1989      1990
 -1       646    8    0    1
 -2       254       405       404      1990      1991      1986
 -1       647    8    0    1
 -2       255       256       406      1543      1992      1993
 -1       648    8    0    1
 -2       255       406       405      1993      1994      1989
 -1       649    8    0    1
 -2       256       257       407      1546      1995      1996
 -1       650    8    0    1
 -2       256       407       406      1996      1997      1992
 -1       651    8    0    1
 -2       257       258       408      1549      1998      1999
 -1       652    8    0    1
 -2       257       408       407      1999      2000      1995
 -1       653    8    0    1
 -2       258       259       409      1552      2001      2002
 -1       654    8    0    1
 -2       258       409       408      2002      2003      1998
 -1       655    8    0    1
 -2       259       260       410      1555      2004      2005
 -1       656    8    0    1
 -2       259       410       409      2005      2006      2001
 -1       657    8    0    1
 -2       260       261       411      1558      2007      2008
 -1       658    8    0    1
 -2       260       411       410      2008      2009      2004
 -1       659    8    0    1
 -2       261       262       412      1561      2010      2011
 -1       660    8    0    1
 -2       261       412       411      2011      2012      2007
 -1       661    8    0    1
 -2       262       263       413      1564      2013      2014
 -1       662    8    0    1
 -2       262       413       412      2014      2015      2010
 -1       663    8    0    1
 -2       263       264       414      1567      2016      2017
 -1       664    8    0    1
 -2       263       414       413      2017      2018      2013
 -1       665    8    0    1
 -2       264       265       415      1570      2019      2020
 -1       666    8    0    1
 -2       264       415       414      2020      2021      2016
 -1       667    8    0    1
 -2       265       266       416      1573      2022      2023
 -1       668    8    0    1
 -2       265       416       415      2023      2024      2019
 -1       669    8    0    1
 -2       266       267       417      1576      2025      2026
 -1       670    8    0    1
 -2       266       417       416      2026      2027      2022
 -1       671    8    0    1
 -2       267       268       418      1579      2028      2029
 -1       672    8    0    1
 -2       267       418       417      2029      2030      2025
 -1       673    8    0    1
 -2       268       269       419      1582      2031      2032
 -1       674    8    0    1
 -2       268       419       418      2032      2033      2028
 -1       675    8    0    1
 -2       269       270       420      1585      2034      2035
 -1       676    8    0    1
 -2       269       420       419      2035      2036      2031
 -1       677    8    0    1
 -2       270       271       421      1588      2037      2038
 -1       678    8    0    1
 -2       270       421       420      2038      2039      2034
 -1       679    8    0    1
 -2       271       272       422      1591      2040      2041
 -1       680    8    0    1
 -2       271       422       421      2041      2042      2037
 -1       681    8    0    1
 -2       272       273       423      1594      2043      2044
 -1       682    8    0    1
 -2       272       423       422      2044      2045      2040
 -1       683    8    0    1
 -2       273       274       424      1597      2046      2047
 -1       684    8    0    1
 -2       273       424       423      2047      2048      2043
 -1       685    8    0    1
 -2       274       275       425      1600      2049      2050
 -1       686    8    0    1
 -2       274       425       424      2050      2051      2046
 -1       687    8    0    1
 -2       275       276       426      1603      2052      2053
 -1       688    8    0    1
 -2       275       426       425      2053      2054      2049
 -1       689    8    0    1
 -2       276       277       427      1606      2055      2056
 -1       690    8    0    1
 -2       276       427       426      2056      2057      2052
 -1       691    8    0    1
 -2       277       278       428      1609      2058      2059
 -1       692    8    0    1
 -2       427       277       428      2055      2059      2060
 -1       693    8    0    1
 -2       278       279       428      1716      2061      2058
 -1       694    8    0    1
 -2       281       282       429      1621      2062      2063
 -1       695    8    0    1
 -2       280       281       430      1618      2064      2065
 -1       696    8    0    1
 -2       281       429       430      2063      2066      2064
 -1       697    8    0    1
 -2       279       280       431      1615      2067      2068
 -1       698    8    0    1
 -2       428       279       431      2061      2068      2069
 -1       699    8    0    1
 -2       280       430       431      2065      2070      2067
 -1       700    8    0    1
 -2       282       283       432      1624      2071      2072
 -1       701    8    0    1
 -2       282       432       429      2072      2073      2062
 -1       702    8    0    1
 -2       283       284       433      1627      2074      2075
 -1       703    8    0    1
 -2       283       433       432      2075      2076      2071
 -1       704    8    0    1
 -2       284       285       434      1630      2077      2078
 -1       705    8    0    1
 -2       284       434       433      2078      2079      2074
 -1       706    8    0    1
 -2       285       286       435      1633      2080      2081
 -1       707    8    0    1
 -2       285       435       434      2081      2082      2077
 -1       708    8    0    1
 -2       286       287       436      1636      2083      2084
 -1       709    8    0    1
 -2       286       436       435      2084      2085      2080
 -1       710    8    0    1
 -2       287       288       437      1639      2086      2087
 -1       711    8    0    1
 -2       287       437       436      2087      2088      2083
 -1       712    8    0    1
 -2       288       289       438      1642      2089      2090
 -1       713    8    0    1
 -2       288       438       437      2090      2091      2086
 -1       714    8    0    1
 -2       289       290       439      1645      2092      2093
 -1       715    8    0    1
 -2       289       439       438      2093      2094      2089
 -1       716    8    0    1
 -2       290       291       440      1648      2095      2096
 -1       717    8    0    1
 -2       290       440       439      2096      2097      2092
 -1       718    8    0    1
 -2       291       292       441      1651      2098      2099
 -1       719    8    0    1
 -2       291       441       440      2099      2100      2095
 -1       720    8    0    1
 -2       295       296       442      1722      2101      2102
 -1       721    8    0    1
 -2       295       442       383      2102      2103      1924
 -1       722    8    0    1
 -2       323       137       230      1719      1713      2104
 -1       723    8    0    1
 -2       182       166       325      1790      1752      2105
 -1       724    8    0    1
 -2       322       293       443      1717      2106      2107
 -1       725    8    0    1
 -2       318       319       444      1706      2108      2109
 -1       726    8    0    1
 -2       319       339       444      1795      2110      2108
 -1       727    8    0    1
 -2       321       322       445      1746      2111      2112
 -1       728    8    0    1
 -2       168       169       446      1281      2113      2114
 -1       729    8    0    1
 -2       324       168       446      1749      2114      2115
 -1       730    8    0    1
 -2       169       326       446      1755      2116      2113
 -1       731    8    0    1
 -2       296       297       447      1723      2117      2118
 -1       732    8    0    1
 -2       297       298       448      1724      2119      2120
 -1       733    8    0    1
 -2       297       448       447      2120      2121      2117
 -1       734    8    0    1
 -2       298       299       449      1725      2122      2123
 -1       735    8    0    1
 -2       299       300       450      1726      2124      2125
 -1       736    8    0    1
 -2       300       301       451      1727      2126      2127
 -1       737    8    0    1
 -2       301       302       452      1728      2128      2129
 -1       738    8    0    1
 -2       302       303       453      1729      2130      2131
 -1       739    8    0    1
 -2       303       304       454      1730      2132      2133
 -1       740    8    0    1
 -2       304       305       455      1731      2134      2135
 -1       741    8    0    1
 -2       305       306       456      1732      2136      2137
 -1       742    8    0    1
 -2       306       307       457      1733      2138      2139
 -1       743    8    0    1
 -2       307       308       458      1734      2140      2141
 -1       744    8    0    1
 -2       308       309       459      1735      2142      2143
 -1       745    8    0    1
 -2       309       310       460      1736      2144      2145
 -1       746    8    0    1
 -2       310       311       461      1737      2146      2147
 -1       747    8    0    1
 -2       311       312       462      1738      2148      2149
 -1       748    8    0    1
 -2       312       313       463      1739      2150      2151
 -1       749    8    0    1
 -2       313       314       216      1740      2152      2153
 -1       750    8    0    1
 -2       314       315       217      1741      1888      2154
 -1       751    8    0    1
 -2       315       316       218      1742      2155      1889
 -1       752    8    0    1
 -2       317       318       371      1744      2156      2157
 -1       753    8    0    1
 -2       320       321       464      1745      2158      2159
 -1       754    8    0    1
 -2       293       294       465      1718      2160      2161
 -1       755    8    0    1
 -2       294       383       465      1925      2162      2160
 -1       756    8    0    1
 -2       218       316       219      2155      2163      1431
 -1       757    8    0    1
 -2       323       230       381      2104      1919      2164
 -1       758    8    0    1
 -2       216       314       217      2152      2154      1425
 -1       759    8    0    1
 -2       322       443       445      2107      2165      2111
 -1       760    8    0    1
 -2       340       183       325      1796      2166      2167
 -1       761    8    0    1
 -2       321       445       464      2112      2168      2158
 -1       762    8    0    1
 -2       219       316       371      2163      2169      1890
 -1       763    8    0    1
 -2       339       320       464      1794      2159      2170
 -1       764    8    0    1
 -2       183       182       325      1323      2105      2166
 -1       765    8    0    1
 -2       214       370       462      1886      2171      2172
 -1       766    8    0    1
 -2       215       214       462      1419      2172      2173
 -1       767    8    0    1
 -2       216       215       463      1422      2174      2175
 -1       768    8    0    1
 -2       220       371       372      1891      2176      1892
 -1       769    8    0    1
 -2       323       381       292      2164      2177      1721
 -1       770    8    0    1
 -2       450       300       451      2124      2127      2178
 -1       771    8    0    1
 -2       441       292       381      2098      2177      2179
 -1       772    8    0    1
 -2       442       296       466      2101      2180      2181
 -1       773    8    0    1
 -2       296       447       466      2118      2182      2180
 -1       774    8    0    1
 -2       443       293       465      2106      2161      2183
 -1       775    8    0    1
 -2       318       444       371      2109      2184      2156
 -1       776    8    0    1
 -2       463       313       216      2150      2153      2175
 -1       777    8    0    1
 -2       462       312       463      2148      2151      2185
 -1       778    8    0    1
 -2       461       311       462      2146      2149      2186
 -1       779    8    0    1
 -2       460       310       461      2144      2147      2187
 -1       780    8    0    1
 -2       459       309       460      2142      2145      2188
 -1       781    8    0    1
 -2       458       308       459      2140      2143      2189
 -1       782    8    0    1
 -2       457       307       458      2138      2141      2190
 -1       783    8    0    1
 -2       456       306       457      2136      2139      2191
 -1       784    8    0    1
 -2       455       305       456      2134      2137      2192
 -1       785    8    0    1
 -2       454       304       455      2132      2135      2193
 -1       786    8    0    1
 -2       453       303       454      2130      2133      2194
 -1       787    8    0    1
 -2       452       302       453      2128      2131      2195
 -1       788    8    0    1
 -2       451       301       452      2126      2129      2196
 -1       789    8    0    1
 -2       448       298       449      2119      2123      2197
 -1       790    8    0    1
 -2       449       299       450      2122      2125      2198
 -1       791    8    0    1
 -2       215       462       463      2173      2185      2174
 -1       792    8    0    1
 -2       327       328       467      1761      2199      2200
 -1       793    8    0    1
 -2       326       327       468      1758      2201      2202
 -1       794    8    0    1
 -2       327       467       468      2200      2203      2201
 -1       795    8    0    1
 -2       329       330       469      1767      2204      2205
 -1       796    8    0    1
 -2       330       331       470      1770      2206      2207
 -1       797    8    0    1
 -2       330       470       469      2207      2208      2204
 -1       798    8    0    1
 -2       331       332       471      1773      2209      2210
 -1       799    8    0    1
 -2       331       471       470      2210      2211      2206
 -1       800    8    0    1
 -2       332       333       472      1776      2212      2213
 -1       801    8    0    1
 -2       332       472       471      2213      2214      2209
 -1       802    8    0    1
 -2       333       334       473      1779      2215      2216
 -1       803    8    0    1
 -2       333       473       472      2216      2217      2212
 -1       804    8    0    1
 -2       334       335       474      1782      2218      2219
 -1       805    8    0    1
 -2       334       474       473      2219      2220      2215
 -1       806    8    0    1
 -2       335       336       475      1785      2221      2222
 -1       807    8    0    1
 -2       335       475       474      2222      2223      2218
 -1       808    8    0    1
 -2       336       337       476      1788      2224      2225
 -1       809    8    0    1
 -2       475       336       476      2221      2225      2226
 -1       810    8    0    1
 -2       337       338       476      1793      2227      2224
 -1       811    8    0    1
 -2       464       445       477      2168      2228      2229
 -1       812    8    0    1
 -2       341       340       478      1800      2230      2231
 -1       813    8    0    1
 -2       342       341       479      1803      2232      2233
 -1       814    8    0    1
 -2       341       478       479      2231      2234      2232
 -1       815    8    0    1
 -2       343       342       480      1806      2235      2236
 -1       816    8    0    1
 -2       342       479       480      2233      2237      2235
 -1       817    8    0    1
 -2       344       343       481      1809      2238      2239
 -1       818    8    0    1
 -2       343       480       481      2236      2240      2238
 -1       819    8    0    1
 -2       345       344       482      1812      2241      2242
 -1       820    8    0    1
 -2       344       481       482      2239      2243      2241
 -1       821    8    0    1
 -2       346       345       483      1815      2244      2245
 -1       822    8    0    1
 -2       345       482       483      2242      2246      2244
 -1       823    8    0    1
 -2       347       346       484      1818      2247      2248
 -1       824    8    0    1
 -2       346       483       484      2245      2249      2247
 -1       825    8    0    1
 -2       348       347       485      1821      2250      2251
 -1       826    8    0    1
 -2       347       484       485      2248      2252      2250
 -1       827    8    0    1
 -2       349       348       486      1824      2253      2254
 -1       828    8    0    1
 -2       348       485       486      2251      2255      2253
 -1       829    8    0    1
 -2       350       349       487      1827      2256      2257
 -1       830    8    0    1
 -2       349       486       487      2254      2258      2256
 -1       831    8    0    1
 -2       351       350       488      1830      2259      2260
 -1       832    8    0    1
 -2       350       487       488      2257      2261      2259
 -1       833    8    0    1
 -2       352       351       489      1833      2262      2263
 -1       834    8    0    1
 -2       351       488       489      2260      2264      2262
 -1       835    8    0    1
 -2       353       352       490      1836      2265      2266
 -1       836    8    0    1
 -2       352       489       490      2263      2267      2265
 -1       837    8    0    1
 -2       354       353       491      1839      2268      2269
 -1       838    8    0    1
 -2       353       490       491      2266      2270      2268
 -1       839    8    0    1
 -2       355       354       492      1842      2271      2272
 -1       840    8    0    1
 -2       354       491       492      2269      2273      2271
 -1       841    8    0    1
 -2       356       355       493      1845      2274      2275
 -1       842    8    0    1
 -2       355       492       493      2272      2276      2274
 -1       843    8    0    1
 -2       357       356       494      1848      2277      2278
 -1       844    8    0    1
 -2       356       493       494      2275      2279      2277
 -1       845    8    0    1
 -2       358       357       495      1851      2280      2281
 -1       846    8    0    1
 -2       357       494       495      2278      2282      2280
 -1       847    8    0    1
 -2       359       358       496      1854      2283      2284
 -1       848    8    0    1
 -2       358       495       496      2281      2285      2283
 -1       849    8    0    1
 -2       360       359       497      1857      2286      2287
 -1       850    8    0    1
 -2       359       496       497      2284      2288      2286
 -1       851    8    0    1
 -2       361       360       498      1860      2289      2290
 -1       852    8    0    1
 -2       360       497       498      2287      2291      2289
 -1       853    8    0    1
 -2       362       361       499      1863      2292      2293
 -1       854    8    0    1
 -2       361       498       499      2290      2294      2292
 -1       855    8    0    1
 -2       363       362       500      1866      2295      2296
 -1       856    8    0    1
 -2       362       499       500      2293      2297      2295
 -1       857    8    0    1
 -2       364       363       501      1869      2298      2299
 -1       858    8    0    1
 -2       363       500       501      2296      2300      2298
 -1       859    8    0    1
 -2       365       364       502      1872      2301      2302
 -1       860    8    0    1
 -2       364       501       502      2299      2303      2301
 -1       861    8    0    1
 -2       366       365       503      1875      2304      2305
 -1       862    8    0    1
 -2       365       502       503      2302      2306      2304
 -1       863    8    0    1
 -2       367       366       504      1878      2307      2308
 -1       864    8    0    1
 -2       366       503       504      2305      2309      2307
 -1       865    8    0    1
 -2       368       367       505      1881      2310      2311
 -1       866    8    0    1
 -2       367       504       505      2308      2312      2310
 -1       867    8    0    1
 -2       369       368       506      1884      2313      2314
 -1       868    8    0    1
 -2       368       505       506      2311      2315      2313
 -1       869    8    0    1
 -2       370       369       507      1887      2316      2317
 -1       870    8    0    1
 -2       369       506       507      2314      2318      2316
 -1       871    8    0    1
 -2       372       371       444      2176      2184      2319
 -1       872    8    0    1
 -2       445       443       508      2165      2320      2321
 -1       873    8    0    1
 -2       445       508       477      2321      2322      2228
 -1       874    8    0    1
 -2       338       382       509      1923      2323      2324
 -1       875    8    0    1
 -2       338       509       476      2324      2325      2227
 -1       876    8    0    1
 -2       374       373       510      1899      2326      2327
 -1       877    8    0    1
 -2       375       374       511      1902      2328      2329
 -1       878    8    0    1
 -2       376       375       512      1905      2330      2331
 -1       879    8    0    1
 -2       375       511       512      2329      2332      2330
 -1       880    8    0    1
 -2       377       376       513      1908      2333      2334
 -1       881    8    0    1
 -2       376       512       513      2331      2335      2333
 -1       882    8    0    1
 -2       378       377       514      1911      2336      2337
 -1       883    8    0    1
 -2       377       513       514      2334      2338      2336
 -1       884    8    0    1
 -2       379       378       515      1914      2339      2340
 -1       885    8    0    1
 -2       378       514       515      2337      2341      2339
 -1       886    8    0    1
 -2       380       379       516      1917      2342      2343
 -1       887    8    0    1
 -2       379       515       516      2340      2344      2342
 -1       888    8    0    1
 -2       381       380       517      1920      2345      2346
 -1       889    8    0    1
 -2       441       381       517      2179      2346      2347
 -1       890    8    0    1
 -2       380       516       517      2343      2348      2345
 -1       891    8    0    1
 -2       384       385       518      1931      2349      2350
 -1       892    8    0    1
 -2       382       384       519      1928      2351      2352
 -1       893    8    0    1
 -2       509       382       519      2323      2352      2353
 -1       894    8    0    1
 -2       384       518       519      2350      2354      2351
 -1       895    8    0    1
 -2       386       387       520      1937      2355      2356
 -1       896    8    0    1
 -2       387       388       521      1940      2357      2358
 -1       897    8    0    1
 -2       387       521       520      2358      2359      2355
 -1       898    8    0    1
 -2       388       389       522      1943      2360      2361
 -1       899    8    0    1
 -2       388       522       521      2361      2362      2357
 -1       900    8    0    1
 -2       389       390       523      1946      2363      2364
 -1       901    8    0    1
 -2       389       523       522      2364      2365      2360
 -1       902    8    0    1
 -2       390       391       524      1949      2366      2367
 -1       903    8    0    1
 -2       390       524       523      2367      2368      2363
 -1       904    8    0    1
 -2       391       392       525      1952      2369      2370
 -1       905    8    0    1
 -2       391       525       524      2370      2371      2366
 -1       906    8    0    1
 -2       392       393       526      1955      2372      2373
 -1       907    8    0    1
 -2       392       526       525      2373      2374      2369
 -1       908    8    0    1
 -2       393       394       527      1958      2375      2376
 -1       909    8    0    1
 -2       393       527       526      2376      2377      2372
 -1       910    8    0    1
 -2       394       395       528      1961      2378      2379
 -1       911    8    0    1
 -2       394       528       527      2379      2380      2375
 -1       912    8    0    1
 -2       395       396       529      1964      2381      2382
 -1       913    8    0    1
 -2       395       529       528      2382      2383      2378
 -1       914    8    0    1
 -2       396       397       530      1967      2384      2385
 -1       915    8    0    1
 -2       396       530       529      2385      2386      2381
 -1       916    8    0    1
 -2       397       398       531      1970      2387      2388
 -1       917    8    0    1
 -2       397       531       530      2388      2389      2384
 -1       918    8    0    1
 -2       398       399       532      1973      2390      2391
 -1       919    8    0    1
 -2       398       532       531      2391      2392      2387
 -1       920    8    0    1
 -2       399       400       533      1976      2393      2394
 -1       921    8    0    1
 -2       399       533       532      2394      2395      2390
 -1       922    8    0    1
 -2       400       401       534      1979      2396      2397
 -1       923    8    0    1
 -2       400       534       533      2397      2398      2393
 -1       924    8    0    1
 -2       401       402       535      1982      2399      2400
 -1       925    8    0    1
 -2       401       535       534      2400      2401      2396
 -1       926    8    0    1
 -2       402       403       536      1985      2402      2403
 -1       927    8    0    1
 -2       402       536       535      2403      2404      2399
 -1       928    8    0    1
 -2       403       404       537      1988      2405      2406
 -1       929    8    0    1
 -2       403       537       536      2406      2407      2402
 -1       930    8    0    1
 -2       404       405       538      1991      2408      2409
 -1       931    8    0    1
 -2       404       538       537      2409      2410      2405
 -1       932    8    0    1
 -2       405       406       539      1994      2411      2412
 -1       933    8    0    1
 -2       405       539       538      2412      2413      2408
 -1       934    8    0    1
 -2       406       407       540      1997      2414      2415
 -1       935    8    0    1
 -2       406       540       539      2415      2416      2411
 -1       936    8    0    1
 -2       407       408       541      2000      2417      2418
 -1       937    8    0    1
 -2       407       541       540      2418      2419      2414
 -1       938    8    0    1
 -2       408       409       542      2003      2420      2421
 -1       939    8    0    1
 -2       408       542       541      2421      2422      2417
 -1       940    8    0    1
 -2       409       410       543      2006      2423      2424
 -1       941    8    0    1
 -2       409       543       542      2424      2425      2420
 -1       942    8    0    1
 -2       410       411       544      2009      2426      2427
 -1       943    8    0    1
 -2       410       544       543      2427      2428      2423
 -1       944    8    0    1
 -2       411       412       545      2012      2429      2430
 -1       945    8    0    1
 -2       411       545       544      2430      2431      2426
 -1       946    8    0    1
 -2       412       413       546      2015      2432      2433
 -1       947    8    0    1
 -2       412       546       545      2433      2434      2429
 -1       948    8    0    1
 -2       413       414       547      2018      2435      2436
 -1       949    8    0    1
 -2       413       547       546      2436      2437      2432
 -1       950    8    0    1
 -2       414       415       548      2021      2438      2439
 -1       951    8    0    1
 -2       414       548       547      2439      2440      2435
 -1       952    8    0    1
 -2       415       416       549      2024      2441      2442
 -1       953    8    0    1
 -2       415       549       548      2442      2443      2438
 -1       954    8    0    1
 -2       416       417       550      2027      2444      2445
 -1       955    8    0    1
 -2       416       550       549      2445      2446      2441
 -1       956    8    0    1
 -2       417       418       551      2030      2447      2448
 -1       957    8    0    1
 -2       417       551       550      2448      2449      2444
 -1       958    8    0    1
 -2       418       419       552      2033      2450      2451
 -1       959    8    0    1
 -2       418       552       551      2451      2452      2447
 -1       960    8    0    1
 -2       419       420       553      2036      2453      2454
 -1       961    8    0    1
 -2       419       553       552      2454      2455      2450
 -1       962    8    0    1
 -2       420       421       554      2039      2456      2457
 -1       963    8    0    1
 -2       420       554       553      2457      2458      2453
 -1       964    8    0    1
 -2       421       422       555      2042      2459      2460
 -1       965    8    0    1
 -2       421       555       554      2460      2461      2456
 -1       966    8    0    1
 -2       422       423       556      2045      2462      2463
 -1       967    8    0    1
 -2       422       556       555      2463      2464      2459
 -1       968    8    0    1
 -2       423       424       557      2048      2465      2466
 -1       969    8    0    1
 -2       423       557       556      2466      2467      2462
 -1       970    8    0    1
 -2       424       425       558      2051      2468      2469
 -1       971    8    0    1
 -2       424       558       557      2469      2470      2465
 -1       972    8    0    1
 -2       425       426       559      2054      2471      2472
 -1       973    8    0    1
 -2       425       559       558      2472      2473      2468
 -1       974    8    0    1
 -2       426       427       560      2057      2474      2475
 -1       975    8    0    1
 -2       426       560       559      2475      2476      2471
 -1       976    8    0    1
 -2       427       428       431      2060      2069      2477
 -1       977    8    0    1
 -2       432       433       561      2076      2478      2479
 -1       978    8    0    1
 -2       433       434       562      2079      2480      2481
 -1       979    8    0    1
 -2       433       562       561      2481      2482      2478
 -1       980    8    0    1
 -2       430       429       563      2066      2483      2484
 -1       981    8    0    1
 -2       429       432       564      2073      2485      2486
 -1       982    8    0    1
 -2       563       429       564      2483      2486      2487
 -1       983    8    0    1
 -2       432       561       564      2479      2488      2485
 -1       984    8    0    1
 -2       434       435       565      2082      2489      2490
 -1       985    8    0    1
 -2       434       565       562      2490      2491      2480
 -1       986    8    0    1
 -2       435       436       566      2085      2492      2493
 -1       987    8    0    1
 -2       435       566       565      2493      2494      2489
 -1       988    8    0    1
 -2       436       437       567      2088      2495      2496
 -1       989    8    0    1
 -2       436       567       566      2496      2497      2492
 -1       990    8    0    1
 -2       437       438       568      2091      2498      2499
 -1       991    8    0    1
 -2       437       568       567      2499      2500      2495
 -1       992    8    0    1
 -2       438       439       569      2094      2501      2502
 -1       993    8    0    1
 -2       438       569       568      2502      2503      2498
 -1       994    8    0    1
 -2       439       440       570      2097      2504      2505
 -1       995    8    0    1
 -2       439       570       569      2505      2506      2501
 -1       996    8    0    1
 -2       440       441       571      2100      2507      2508
 -1       997    8    0    1
 -2       570       440       571      2504      2508      2509
 -1       998    8    0    1
 -2       441       517       571      2347      2510      2507
 -1       999    8    0    1
 -2       383       442       572      2103      2511      2512
 -1      1000    8    0    1
 -2       450       451       573      2178      2513      2514
 -1      1001    8    0    1
 -2       465       383       574      2162      2515      2516
 -1      1002    8    0    1
 -2       383       572       574      2512      2517      2515
 -1      1003    8    0    1
 -2       385       386       575      1934      2518      2519
 -1      1004    8    0    1
 -2       518       385       575      2349      2519      2520
 -1      1005    8    0    1
 -2       386       520       575      2356      2521      2518
 -1      1006    8    0    1
 -2       373       372       576      1896      2522      2523
 -1      1007    8    0    1
 -2       340       325       577      2167      2524      2525
 -1      1008    8    0    1
 -2       478       340       577      2230      2525      2526
 -1      1009    8    0    1
 -2       325       324       577      1753      2527      2524
 -1      1010    8    0    1
 -2       339       464       578      2170      2528      2529
 -1      1011    8    0    1
 -2       328       329       579      1764      2530      2531
 -1      1012    8    0    1
 -2       467       328       579      2199      2531      2532
 -1      1013    8    0    1
 -2       329       469       579      2205      2533      2530
 -1      1014    8    0    1
 -2       447       448       580      2121      2534      2535
 -1      1015    8    0    1
 -2       448       449       581      2197      2536      2537
 -1      1016    8    0    1
 -2       451       452       582      2196      2538      2539
 -1      1017    8    0    1
 -2       452       453       583      2195      2540      2541
 -1      1018    8    0    1
 -2       453       454       584      2194      2542      2543
 -1      1019    8    0    1
 -2       454       455       585      2193      2544      2545
 -1      1020    8    0    1
 -2       455       456       586      2192      2546      2547
 -1      1021    8    0    1
 -2       455       586       585      2547      2548      2544
 -1      1022    8    0    1
 -2       456       457       587      2191      2549      2550
 -1      1023    8    0    1
 -2       457       458       588      2190      2551      2552
 -1      1024    8    0    1
 -2       458       459       589      2189      2553      2554
 -1      1025    8    0    1
 -2       460       461       590      2187      2555      2556
 -1      1026    8    0    1
 -2       316       317       371      1743      2157      2169
 -1      1027    8    0    1
 -2       449       450       591      2198      2557      2558
 -1      1028    8    0    1
 -2       443       465       592      2183      2559      2560
 -1      1029    8    0    1
 -2       580       448       581      2534      2537      2561
 -1      1030    8    0    1
 -2       326       468       593      2202      2562      2563
 -1      1031    8    0    1
 -2       326       593       446      2563      2564      2116
 -1      1032    8    0    1
 -2       374       510       511      2327      2565      2328
 -1      1033    8    0    1
 -2       578       464       477      2528      2229      2566
 -1      1034    8    0    1
 -2       372       444       576      2319      2567      2522
 -1      1035    8    0    1
 -2       591       450       573      2557      2514      2568
 -1      1036    8    0    1
 -2       447       580       594      2535      2569      2570
 -1      1037    8    0    1
 -2       447       594       466      2570      2571      2182
 -1      1038    8    0    1
 -2       508       443       592      2320      2560      2572
 -1      1039    8    0    1
 -2       510       373       576      2326      2523      2573
 -1      1040    8    0    1
 -2       427       431       560      2477      2574      2474
 -1      1041    8    0    1
 -2       431       430       560      2070      2575      2574
 -1      1042    8    0    1
 -2       572       442       595      2511      2576      2577
 -1      1043    8    0    1
 -2       442       466       595      2181      2578      2576
 -1      1044    8    0    1
 -2       573       451       582      2513      2539      2579
 -1      1045    8    0    1
 -2       465       574       592      2516      2580      2559
 -1      1046    8    0    1
 -2       588       458       589      2551      2554      2581
 -1      1047    8    0    1
 -2       586       456       587      2546      2550      2582
 -1      1048    8    0    1
 -2       584       454       585      2542      2545      2583
 -1      1049    8    0    1
 -2       583       453       584      2540      2543      2584
 -1      1050    8    0    1
 -2       582       452       583      2538      2541      2585
 -1      1051    8    0    1
 -2       324       446       596      2115      2586      2587
 -1      1052    8    0    1
 -2       577       324       596      2527      2587      2588
 -1      1053    8    0    1
 -2       446       593       596      2564      2589      2586
 -1      1054    8    0    1
 -2       581       449       591      2536      2558      2590
 -1      1055    8    0    1
 -2       462       370       461      2171      2591      2186
 -1      1056    8    0    1
 -2       587       457       588      2549      2552      2592
 -1      1057    8    0    1
 -2       459       460       597      2188      2593      2594
 -1      1058    8    0    1
 -2       560       430       563      2575      2484      2595
 -1      1059    8    0    1
 -2       597       460       590      2593      2556      2596
 -1      1060    8    0    1
 -2       459       597       589      2594      2597      2553
 -1      1061    8    0    1
 -2       470       471       598      2211      2598      2599
 -1      1062    8    0    1
 -2       469       470       599      2208      2600      2601
 -1      1063    8    0    1
 -2       470       598       599      2599      2602      2600
 -1      1064    8    0    1
 -2       472       473       600      2217      2603      2604
 -1      1065    8    0    1
 -2       473       474       601      2220      2605      2606
 -1      1066    8    0    1
 -2       473       601       600      2606      2607      2603
 -1      1067    8    0    1
 -2       474       475       602      2223      2608      2609
 -1      1068    8    0    1
 -2       474       602       601      2609      2610      2605
 -1      1069    8    0    1
 -2       475       476       603      2226      2611      2612
 -1      1070    8    0    1
 -2       602       475       603      2608      2612      2613
 -1      1071    8    0    1
 -2       476       509       603      2325      2614      2611
 -1      1072    8    0    1
 -2       468       467       604      2203      2615      2616
 -1      1073    8    0    1
 -2       480       479       605      2237      2617      2618
 -1      1074    8    0    1
 -2       481       480       606      2240      2619      2620
 -1      1075    8    0    1
 -2       480       605       606      2618      2621      2619
 -1      1076    8    0    1
 -2       482       481       607      2243      2622      2623
 -1      1077    8    0    1
 -2       481       606       607      2620      2624      2622
 -1      1078    8    0    1
 -2       483       482       608      2246      2625      2626
 -1      1079    8    0    1
 -2       482       607       608      2623      2627      2625
 -1      1080    8    0    1
 -2       484       483       609      2249      2628      2629
 -1      1081    8    0    1
 -2       483       608       609      2626      2630      2628
 -1      1082    8    0    1
 -2       485       484       610      2252      2631      2632
 -1      1083    8    0    1
 -2       484       609       610      2629      2633      2631
 -1      1084    8    0    1
 -2       486       485       611      2255      2634      2635
 -1      1085    8    0    1
 -2       485       610       611      2632      2636      2634
 -1      1086    8    0    1
 -2       487       486       612      2258      2637      2638
 -1      1087    8    0    1
 -2       486       611       612      2635      2639      2637
 -1      1088    8    0    1
 -2       488       487       613      2261      2640      2641
 -1      1089    8    0    1
 -2       487       612       613      2638      2642      2640
 -1      1090    8    0    1
 -2       489       488       614      2264      2643      2644
 -1      1091    8    0    1
 -2       488       613       614      2641      2645      2643
 -1      1092    8    0    1
 -2       490       489       615      2267      2646      2647
 -1      1093    8    0    1
 -2       489       614       615      2644      2648      2646
 -1      1094    8    0    1
 -2       491       490       616      2270      2649      2650
 -1      1095    8    0    1
 -2       490       615       616      2647      2651      2649
 -1      1096    8    0    1
 -2       492       491       617      2273      2652      2653
 -1      1097    8    0    1
 -2       491       616       617      2650      2654      2652
 -1      1098    8    0    1
 -2       493       492       618      2276      2655      2656
 -1      1099    8    0    1
 -2       492       617       618      2653      2657      2655
 -1      1100    8    0    1
 -2       494       493       619      2279      2658      2659
 -1      1101    8    0    1
 -2       493       618       619      2656      2660      2658
 -1      1102    8    0    1
 -2       495       494       620      2282      2661      2662
 -1      1103    8    0    1
 -2       494       619       620      2659      2663      2661
 -1      1104    8    0    1
 -2       496       495       621      2285      2664      2665
 -1      1105    8    0    1
 -2       495       620       621      2662      2666      2664
 -1      1106    8    0    1
 -2       497       496       622      2288      2667      2668
 -1      1107    8    0    1
 -2       496       621       622      2665      2669      2667
 -1      1108    8    0    1
 -2       498       497       623      2291      2670      2671
 -1      1109    8    0    1
 -2       497       622       623      2668      2672      2670
 -1      1110    8    0    1
 -2       499       498       624      2294      2673      2674
 -1      1111    8    0    1
 -2       498       623       624      2671      2675      2673
 -1      1112    8    0    1
 -2       500       499       625      2297      2676      2677
 -1      1113    8    0    1
 -2       499       624       625      2674      2678      2676
 -1      1114    8    0    1
 -2       501       500       626      2300      2679      2680
 -1      1115    8    0    1
 -2       500       625       626      2677      2681      2679
 -1      1116    8    0    1
 -2       502       501       627      2303      2682      2683
 -1      1117    8    0    1
 -2       501       626       627      2680      2684      2682
 -1      1118    8    0    1
 -2       503       502       628      2306      2685      2686
 -1      1119    8    0    1
 -2       502       627       628      2683      2687      2685
 -1      1120    8    0    1
 -2       504       503       629      2309      2688      2689
 -1      1121    8    0    1
 -2       503       628       629      2686      2690      2688
 -1      1122    8    0    1
 -2       505       504       630      2312      2691      2692
 -1      1123    8    0    1
 -2       504       629       630      2689      2693      2691
 -1      1124    8    0    1
 -2       506       505       631      2315      2694      2695
 -1      1125    8    0    1
 -2       505       630       631      2692      2696      2694
 -1      1126    8    0    1
 -2       521       522       632      2362      2697      2698
 -1      1127    8    0    1
 -2       513       512       633      2335      2699      2700
 -1      1128    8    0    1
 -2       514       513       634      2338      2701      2702
 -1      1129    8    0    1
 -2       513       633       634      2700      2703      2701
 -1      1130    8    0    1
 -2       515       514       635      2341      2704      2705
 -1      1131    8    0    1
 -2       514       634       635      2702      2706      2704
 -1      1132    8    0    1
 -2       516       515       636      2344      2707      2708
 -1      1133    8    0    1
 -2       515       635       636      2705      2709      2707
 -1      1134    8    0    1
 -2       517       516       637      2348      2710      2711
 -1      1135    8    0    1
 -2       571       517       637      2510      2711      2712
 -1      1136    8    0    1
 -2       516       636       637      2708      2713      2710
 -1      1137    8    0    1
 -2       522       523       638      2365      2714      2715
 -1      1138    8    0    1
 -2       522       638       632      2715      2716      2697
 -1      1139    8    0    1
 -2       520       521       639      2359      2717      2718
 -1      1140    8    0    1
 -2       521       632       639      2698      2719      2717
 -1      1141    8    0    1
 -2       523       524       640      2368      2720      2721
 -1      1142    8    0    1
 -2       523       640       638      2721      2722      2714
 -1      1143    8    0    1
 -2       524       525       641      2371      2723      2724
 -1      1144    8    0    1
 -2       524       641       640      2724      2725      2720
 -1      1145    8    0    1
 -2       525       526       642      2374      2726      2727
 -1      1146    8    0    1
 -2       525       642       641      2727      2728      2723
 -1      1147    8    0    1
 -2       526       527       643      2377      2729      2730
 -1      1148    8    0    1
 -2       526       643       642      2730      2731      2726
 -1      1149    8    0    1
 -2       527       528       644      2380      2732      2733
 -1      1150    8    0    1
 -2       527       644       643      2733      2734      2729
 -1      1151    8    0    1
 -2       528       529       645      2383      2735      2736
 -1      1152    8    0    1
 -2       528       645       644      2736      2737      2732
 -1      1153    8    0    1
 -2       529       530       646      2386      2738      2739
 -1      1154    8    0    1
 -2       529       646       645      2739      2740      2735
 -1      1155    8    0    1
 -2       530       531       647      2389      2741      2742
 -1      1156    8    0    1
 -2       530       647       646      2742      2743      2738
 -1      1157    8    0    1
 -2       531       532       648      2392      2744      2745
 -1      1158    8    0    1
 -2       531       648       647      2745      2746      2741
 -1      1159    8    0    1
 -2       532       533       649      2395      2747      2748
 -1      1160    8    0    1
 -2       532       649       648      2748      2749      2744
 -1      1161    8    0    1
 -2       533       534       650      2398      2750      2751
 -1      1162    8    0    1
 -2       533       650       649      2751      2752      2747
 -1      1163    8    0    1
 -2       534       535       651      2401      2753      2754
 -1      1164    8    0    1
 -2       534       651       650      2754      2755      2750
 -1      1165    8    0    1
 -2       535       536       652      2404      2756      2757
 -1      1166    8    0    1
 -2       535       652       651      2757      2758      2753
 -1      1167    8    0    1
 -2       536       537       653      2407      2759      2760
 -1      1168    8    0    1
 -2       536       653       652      2760      2761      2756
 -1      1169    8    0    1
 -2       537       538       654      2410      2762      2763
 -1      1170    8    0    1
 -2       537       654       653      2763      2764      2759
 -1      1171    8    0    1
 -2       538       539       655      2413      2765      2766
 -1      1172    8    0    1
 -2       538       655       654      2766      2767      2762
 -1      1173    8    0    1
 -2       539       540       656      2416      2768      2769
 -1      1174    8    0    1
 -2       539       656       655      2769      2770      2765
 -1      1175    8    0    1
 -2       540       541       657      2419      2771      2772
 -1      1176    8    0    1
 -2       540       657       656      2772      2773      2768
 -1      1177    8    0    1
 -2       541       542       658      2422      2774      2775
 -1      1178    8    0    1
 -2       541       658       657      2775      2776      2771
 -1      1179    8    0    1
 -2       542       543       659      2425      2777      2778
 -1      1180    8    0    1
 -2       542       659       658      2778      2779      2774
 -1      1181    8    0    1
 -2       543       544       660      2428      2780      2781
 -1      1182    8    0    1
 -2       543       660       659      2781      2782      2777
 -1      1183    8    0    1
 -2       544       545       661      2431      2783      2784
 -1      1184    8    0    1
 -2       544       661       660      2784      2785      2780
 -1      1185    8    0    1
 -2       545       546       662      2434      2786      2787
 -1      1186    8    0    1
 -2       545       662       661      2787      2788      2783
 -1      1187    8    0    1
 -2       546       547       663      2437      2789      2790
 -1      1188    8    0    1
 -2       546       663       662      2790      2791      2786
 -1      1189    8    0    1
 -2       547       548       664      2440      2792      2793
 -1      1190    8    0    1
 -2       547       664       663      2793      2794      2789
 -1      1191    8    0    1
 -2       548       549       665      2443      2795      2796
 -1      1192    8    0    1
 -2       548       665       664      2796      2797      2792
 -1      1193    8    0    1
 -2       549       550       666      2446      2798      2799
 -1      1194    8    0    1
 -2       549       666       665      2799      2800      2795
 -1      1195    8    0    1
 -2       550       551       667      2449      2801      2802
 -1      1196    8    0    1
 -2       550       667       666      2802      2803      2798
 -1      1197    8    0    1
 -2       551       552       668      2452      2804      2805
 -1      1198    8    0    1
 -2       551       668       667      2805      2806      2801
 -1      1199    8    0    1
 -2       552       553       669      2455      2807      2808
 -1      1200    8    0    1
 -2       552       669       668      2808      2809      2804
 -1      1201    8    0    1
 -2       553       554       670      2458      2810      2811
 -1      1202    8    0    1
 -2       553       670       669      2811      2812      2807
 -1      1203    8    0    1
 -2       554       555       671      2461      2813      2814
 -1      1204    8    0    1
 -2       554       671       670      2814      2815      2810
 -1      1205    8    0    1
 -2       555       556       672      2464      2816      2817
 -1      1206    8    0    1
 -2       555       672       671      2817      2818      2813
 -1      1207    8    0    1
 -2       556       557       673      2467      2819      2820
 -1      1208    8    0    1
 -2       556       673       672      2820      2821      2816
 -1      1209    8    0    1
 -2       557       558       674      2470      2822      2823
 -1      1210    8    0    1
 -2       557       674       673      2823      2824      2819
 -1      1211    8    0    1
 -2       558       559       675      2473      2825      2826
 -1      1212    8    0    1
 -2       558       675       674      2826      2827      2822
 -1      1213    8    0    1
 -2       559       560       676      2476      2828      2829
 -1      1214    8    0    1
 -2       675       559       676      2825      2829      2830
 -1      1215    8    0    1
 -2       560       563       676      2595      2831      2828
 -1      1216    8    0    1
 -2       565       566       677      2494      2832      2833
 -1      1217    8    0    1
 -2       561       562       678      2482      2834      2835
 -1      1218    8    0    1
 -2       566       567       679      2497      2836      2837
 -1      1219    8    0    1
 -2       566       679       677      2837      2838      2832
 -1      1220    8    0    1
 -2       562       565       680      2491      2839      2840
 -1      1221    8    0    1
 -2       678       562       680      2834      2840      2841
 -1      1222    8    0    1
 -2       565       677       680      2833      2842      2839
 -1      1223    8    0    1
 -2       574       572       681      2517      2843      2844
 -1      1224    8    0    1
 -2       567       568       682      2500      2845      2846
 -1      1225    8    0    1
 -2       567       682       679      2846      2847      2836
 -1      1226    8    0    1
 -2       568       569       683      2503      2848      2849
 -1      1227    8    0    1
 -2       568       683       682      2849      2850      2845
 -1      1228    8    0    1
 -2       569       570       684      2506      2851      2852
 -1      1229    8    0    1
 -2       569       684       683      2852      2853      2848
 -1      1230    8    0    1
 -2       508       592       685      2572      2854      2855
 -1      1231    8    0    1
 -2       511       510       686      2565      2856      2857
 -1      1232    8    0    1
 -2       444       339       576      2110      2858      2567
 -1      1233    8    0    1
 -2       584       585       687      2583      2859      2860
 -1      1234    8    0    1
 -2       478       577       688      2526      2861      2862
 -1      1235    8    0    1
 -2       577       596       688      2588      2863      2861
 -1      1236    8    0    1
 -2       573       582       689      2579      2864      2865
 -1      1237    8    0    1
 -2       512       511       690      2332      2866      2867
 -1      1238    8    0    1
 -2       512       690       633      2867      2868      2699
 -1      1239    8    0    1
 -2       581       591       691      2590      2869      2870
 -1      1240    8    0    1
 -2       479       478       692      2234      2871      2872
 -1      1241    8    0    1
 -2       605       479       692      2617      2872      2873
 -1      1242    8    0    1
 -2       478       688       692      2862      2874      2871
 -1      1243    8    0    1
 -2       471       472       693      2214      2875      2876
 -1      1244    8    0    1
 -2       598       471       693      2598      2876      2877
 -1      1245    8    0    1
 -2       472       600       693      2604      2878      2875
 -1      1246    8    0    1
 -2       591       573       694      2568      2879      2880
 -1      1247    8    0    1
 -2       592       574       695      2580      2881      2882
 -1      1248    8    0    1
 -2       582       583       696      2585      2883      2884
 -1      1249    8    0    1
 -2       583       584       697      2584      2885      2886
 -1      1250    8    0    1
 -2       583       697       696      2886      2887      2883
 -1      1251    8    0    1
 -2       585       586       698      2548      2888      2889
 -1      1252    8    0    1
 -2       586       587       699      2582      2890      2891
 -1      1253    8    0    1
 -2       586       699       698      2891      2892      2888
 -1      1254    8    0    1
 -2       587       588       700      2592      2893      2894
 -1      1255    8    0    1
 -2       588       589       701      2581      2895      2896
 -1      1256    8    0    1
 -2       477       508       702      2322      2897      2898
 -1      1257    8    0    1
 -2       580       581       703      2561      2899      2900
 -1      1258    8    0    1
 -2       593       468       704      2562      2901      2902
 -1      1259    8    0    1
 -2       468       604       704      2616      2903      2901
 -1      1260    8    0    1
 -2       469       599       705      2601      2904      2905
 -1      1261    8    0    1
 -2       469       705       579      2905      2906      2533
 -1      1262    8    0    1
 -2       506       631       706      2695      2907      2908
 -1      1263    8    0    1
 -2       594       580       707      2569      2909      2910
 -1      1264    8    0    1
 -2       580       703       707      2900      2911      2909
 -1      1265    8    0    1
 -2       520       639       708      2718      2912      2913
 -1      1266    8    0    1
 -2       520       708       575      2913      2914      2521
 -1      1267    8    0    1
 -2       507       506       706      2318      2908      2915
 -1      1268    8    0    1
 -2       578       477       709      2566      2916      2917
 -1      1269    8    0    1
 -2       518       575       710      2520      2918      2919
 -1      1270    8    0    1
 -2       575       708       710      2914      2920      2918
 -1      1271    8    0    1
 -2       572       595       711      2577      2921      2922
 -1      1272    8    0    1
 -2       572       711       681      2922      2923      2843
 -1      1273    8    0    1
 -2       519       518       712      2354      2924      2925
 -1      1274    8    0    1
 -2       676       563       713      2831      2926      2927
 -1      1275    8    0    1
 -2       563       564       713      2487      2928      2926
 -1      1276    8    0    1
 -2       703       581       691      2899      2870      2929
 -1      1277    8    0    1
 -2       597       590       507      2596      2930      2931
 -1      1278    8    0    1
 -2       595       466       594      2578      2571      2932
 -1      1279    8    0    1
 -2       508       685       702      2855      2933      2897
 -1      1280    8    0    1
 -2       685       592       695      2854      2882      2934
 -1      1281    8    0    1
 -2       570       571       714      2509      2935      2936
 -1      1282    8    0    1
 -2       684       570       714      2851      2936      2937
 -1      1283    8    0    1
 -2       571       637       714      2712      2938      2935
 -1      1284    8    0    1
 -2       701       589       706      2895      2939      2940
 -1      1285    8    0    1
 -2       511       686       690      2857      2941      2866
 -1      1286    8    0    1
 -2       576       339       578      2858      2529      2942
 -1      1287    8    0    1
 -2       687       585       698      2859      2889      2943
 -1      1288    8    0    1
 -2       699       587       700      2890      2894      2944
 -1      1289    8    0    1
 -2       591       694       691      2880      2945      2869
 -1      1290    8    0    1
 -2       697       584       687      2885      2860      2946
 -1      1291    8    0    1
 -2       709       477       702      2916      2898      2947
 -1      1292    8    0    1
 -2       518       710       712      2919      2948      2924
 -1      1293    8    0    1
 -2       576       578       709      2942      2917      2949
 -1      1294    8    0    1
 -2       564       561       715      2488      2950      2951
 -1      1295    8    0    1
 -2       713       564       715      2928      2951      2952
 -1      1296    8    0    1
 -2       561       678       715      2835      2953      2950
 -1      1297    8    0    1
 -2       689       582       696      2864      2884      2954
 -1      1298    8    0    1
 -2       467       579       716      2532      2955      2956
 -1      1299    8    0    1
 -2       604       467       716      2615      2956      2957
 -1      1300    8    0    1
 -2       579       705       716      2906      2958      2955
 -1      1301    8    0    1
 -2       597       507       706      2931      2915      2959
 -1      1302    8    0    1
 -2       695       574       681      2881      2844      2960
 -1      1303    8    0    1
 -2       573       689       694      2865      2961      2879
 -1      1304    8    0    1
 -2       700       588       717      2893      2962      2963
 -1      1305    8    0    1
 -2       588       701       717      2896      2964      2962
 -1      1306    8    0    1
 -2       589       597       706      2597      2959      2939
 -1      1307    8    0    1
 -2       510       576       709      2573      2949      2965
 -1      1308    8    0    1
 -2       510       709       686      2965      2966      2856
 -1      1309    8    0    1
 -2       706       631       718      2907      2967      2968
 -1      1310    8    0    1
 -2       706       718       701      2968      2969      2940
 -1      1311    8    0    1
 -2       601       602       719      2610      2970      2971
 -1      1312    8    0    1
 -2       600       601       720      2607      2972      2973
 -1      1313    8    0    1
 -2       601       719       720      2971      2974      2972
 -1      1314    8    0    1
 -2       603       509       519      2614      2353      2975
 -1      1315    8    0    1
 -2       638       640       721      2722      2976      2977
 -1      1316    8    0    1
 -2       607       606       722      2624      2978      2979
 -1      1317    8    0    1
 -2       608       607       723      2627      2980      2981
 -1      1318    8    0    1
 -2       607       722       723      2979      2982      2980
 -1      1319    8    0    1
 -2       609       608       724      2630      2983      2984
 -1      1320    8    0    1
 -2       608       723       724      2981      2985      2983
 -1      1321    8    0    1
 -2       610       609       725      2633      2986      2987
 -1      1322    8    0    1
 -2       609       724       725      2984      2988      2986
 -1      1323    8    0    1
 -2       611       610       726      2636      2989      2990
 -1      1324    8    0    1
 -2       610       725       726      2987      2991      2989
 -1      1325    8    0    1
 -2       612       611       727      2639      2992      2993
 -1      1326    8    0    1
 -2       611       726       727      2990      2994      2992
 -1      1327    8    0    1
 -2       613       612       728      2642      2995      2996
 -1      1328    8    0    1
 -2       612       727       728      2993      2997      2995
 -1      1329    8    0    1
 -2       614       613       729      2645      2998      2999
 -1      1330    8    0    1
 -2       613       728       729      2996      3000      2998
 -1      1331    8    0    1
 -2       615       614       730      2648      3001      3002
 -1      1332    8    0    1
 -2       614       729       730      2999      3003      3001
 -1      1333    8    0    1
 -2       616       615       731      2651      3004      3005
 -1      1334    8    0    1
 -2       615       730       731      3002      3006      3004
 -1      1335    8    0    1
 -2       617       616       732      2654      3007      3008
 -1      1336    8    0    1
 -2       616       731       732      3005      3009      3007
 -1      1337    8    0    1
 -2       618       617       733      2657      3010      3011
 -1      1338    8    0    1
 -2       617       732       733      3008      3012      3010
 -1      1339    8    0    1
 -2       619       618       734      2660      3013      3014
 -1      1340    8    0    1
 -2       618       733       734      3011      3015      3013
 -1      1341    8    0    1
 -2       620       619       735      2663      3016      3017
 -1      1342    8    0    1
 -2       619       734       735      3014      3018      3016
 -1      1343    8    0    1
 -2       621       620       736      2666      3019      3020
 -1      1344    8    0    1
 -2       620       735       736      3017      3021      3019
 -1      1345    8    0    1
 -2       622       621       737      2669      3022      3023
 -1      1346    8    0    1
 -2       621       736       737      3020      3024      3022
 -1      1347    8    0    1
 -2       623       622       738      2672      3025      3026
 -1      1348    8    0    1
 -2       622       737       738      3023      3027      3025
 -1      1349    8    0    1
 -2       624       623       739      2675      3028      3029
 -1      1350    8    0    1
 -2       623       738       739      3026      3030      3028
 -1      1351    8    0    1
 -2       625       624       740      2678      3031      3032
 -1      1352    8    0    1
 -2       624       739       740      3029      3033      3031
 -1      1353    8    0    1
 -2       626       625       741      2681      3034      3035
 -1      1354    8    0    1
 -2       625       740       741      3032      3036      3034
 -1      1355    8    0    1
 -2       627       626       742      2684      3037      3038
 -1      1356    8    0    1
 -2       626       741       742      3035      3039      3037
 -1      1357    8    0    1
 -2       628       627       743      2687      3040      3041
 -1      1358    8    0    1
 -2       627       742       743      3038      3042      3040
 -1      1359    8    0    1
 -2       629       628       744      2690      3043      3044
 -1      1360    8    0    1
 -2       628       743       744      3041      3045      3043
 -1      1361    8    0    1
 -2       630       629       745      2693      3046      3047
 -1      1362    8    0    1
 -2       629       744       745      3044      3048      3046
 -1      1363    8    0    1
 -2       603       519       712      2975      2925      3049
 -1      1364    8    0    1
 -2       686       709       702      2966      2947      3050
 -1      1365    8    0    1
 -2       632       638       746      2716      3051      3052
 -1      1366    8    0    1
 -2       638       721       746      2977      3053      3051
 -1      1367    8    0    1
 -2       635       634       747      2706      3054      3055
 -1      1368    8    0    1
 -2       636       635       748      2709      3056      3057
 -1      1369    8    0    1
 -2       635       747       748      3055      3058      3056
 -1      1370    8    0    1
 -2       682       683       749      2850      3059      3060
 -1      1371    8    0    1
 -2       639       632       750      2719      3061      3062
 -1      1372    8    0    1
 -2       632       746       750      3052      3063      3061
 -1      1373    8    0    1
 -2       641       642       751      2728      3064      3065
 -1      1374    8    0    1
 -2       642       643       752      2731      3066      3067
 -1      1375    8    0    1
 -2       642       752       751      3067      3068      3064
 -1      1376    8    0    1
 -2       643       644       753      2734      3069      3070
 -1      1377    8    0    1
 -2       643       753       752      3070      3071      3066
 -1      1378    8    0    1
 -2       644       645       754      2737      3072      3073
 -1      1379    8    0    1
 -2       644       754       753      3073      3074      3069
 -1      1380    8    0    1
 -2       645       646       755      2740      3075      3076
 -1      1381    8    0    1
 -2       645       755       754      3076      3077      3072
 -1      1382    8    0    1
 -2       646       647       756      2743      3078      3079
 -1      1383    8    0    1
 -2       646       756       755      3079      3080      3075
 -1      1384    8    0    1
 -2       647       648       757      2746      3081      3082
 -1      1385    8    0    1
 -2       647       757       756      3082      3083      3078
 -1      1386    8    0    1
 -2       648       649       758      2749      3084      3085
 -1      1387    8    0    1
 -2       648       758       757      3085      3086      3081
 -1      1388    8    0    1
 -2       649       650       759      2752      3087      3088
 -1      1389    8    0    1
 -2       649       759       758      3088      3089      3084
 -1      1390    8    0    1
 -2       650       651       760      2755      3090      3091
 -1      1391    8    0    1
 -2       650       760       759      3091      3092      3087
 -1      1392    8    0    1
 -2       651       652       761      2758      3093      3094
 -1      1393    8    0    1
 -2       651       761       760      3094      3095      3090
 -1      1394    8    0    1
 -2       652       653       762      2761      3096      3097
 -1      1395    8    0    1
 -2       652       762       761      3097      3098      3093
 -1      1396    8    0    1
 -2       653       654       763      2764      3099      3100
 -1      1397    8    0    1
 -2       653       763       762      3100      3101      3096
 -1      1398    8    0    1
 -2       654       655       764      2767      3102      3103
 -1      1399    8    0    1
 -2       654       764       763      3103      3104      3099
 -1      1400    8    0    1
 -2       655       656       765      2770      3105      3106
 -1      1401    8    0    1
 -2       655       765       764      3106      3107      3102
 -1      1402    8    0    1
 -2       656       657       766      2773      3108      3109
 -1      1403    8    0    1
 -2       656       766       765      3109      3110      3105
 -1      1404    8    0    1
 -2       657       658       767      2776      3111      3112
 -1      1405    8    0    1
 -2       657       767       766      3112      3113      3108
 -1      1406    8    0    1
 -2       658       659       768      2779      3114      3115
 -1      1407    8    0    1
 -2       658       768       767      3115      3116      3111
 -1      1408    8    0    1
 -2       659       660       769      2782      3117      3118
 -1      1409    8    0    1
 -2       659       769       768      3118      3119      3114
 -1      1410    8    0    1
 -2       660       661       770      2785      3120      3121
 -1      1411    8    0    1
 -2       660       770       769      3121      3122      3117
 -1      1412    8    0    1
 -2       661       662       771      2788      3123      3124
 -1      1413    8    0    1
 -2       661       771       770      3124      3125      3120
 -1      1414    8    0    1
 -2       662       663       772      2791      3126      3127
 -1      1415    8    0    1
 -2       662       772       771      3127      3128      3123
 -1      1416    8    0    1
 -2       663       664       773      2794      3129      3130
 -1      1417    8    0    1
 -2       663       773       772      3130      3131      3126
 -1      1418    8    0    1
 -2       664       665       774      2797      3132      3133
 -1      1419    8    0    1
 -2       664       774       773      3133      3134      3129
 -1      1420    8    0    1
 -2       665       666       775      2800      3135      3136
 -1      1421    8    0    1
 -2       665       775       774      3136      3137      3132
 -1      1422    8    0    1
 -2       666       667       776      2803      3138      3139
 -1      1423    8    0    1
 -2       666       776       775      3139      3140      3135
 -1      1424    8    0    1
 -2       667       668       777      2806      3141      3142
 -1      1425    8    0    1
 -2       667       777       776      3142      3143      3138
 -1      1426    8    0    1
 -2       668       669       778      2809      3144      3145
 -1      1427    8    0    1
 -2       668       778       777      3145      3146      3141
 -1      1428    8    0    1
 -2       669       670       779      2812      3147      3148
 -1      1429    8    0    1
 -2       669       779       778      3148      3149      3144
 -1      1430    8    0    1
 -2       670       671       780      2815      3150      3151
 -1      1431    8    0    1
 -2       670       780       779      3151      3152      3147
 -1      1432    8    0    1
 -2       671       672       781      2818      3153      3154
 -1      1433    8    0    1
 -2       671       781       780      3154      3155      3150
 -1      1434    8    0    1
 -2       672       673       782      2821      3156      3157
 -1      1435    8    0    1
 -2       672       782       781      3157      3158      3153
 -1      1436    8    0    1
 -2       673       674       783      2824      3159      3160
 -1      1437    8    0    1
 -2       673       783       782      3160      3161      3156
 -1      1438    8    0    1
 -2       674       675       784      2827      3162      3163
 -1      1439    8    0    1
 -2       674       784       783      3163      3164      3159
 -1      1440    8    0    1
 -2       675       676       785      2830      3165      3166
 -1      1441    8    0    1
 -2       784       675       785      3162      3166      3167
 -1      1442    8    0    1
 -2       676       713       785      2927      3168      3165
 -1      1443    8    0    1
 -2       686       702       786      3050      3169      3170
 -1      1444    8    0    1
 -2       702       685       786      2933      3171      3169
 -1      1445    8    0    1
 -2       689       696       787      2954      3172      3173
 -1      1446    8    0    1
 -2       595       594       788      2932      3174      3175
 -1      1447    8    0    1
 -2       677       679       789      2838      3176      3177
 -1      1448    8    0    1
 -2       703       691       790      2929      3178      3179
 -1      1449    8    0    1
 -2       683       684       791      2853      3180      3181
 -1      1450    8    0    1
 -2       683       791       749      3181      3182      3059
 -1      1451    8    0    1
 -2       679       682       792      2847      3183      3184
 -1      1452    8    0    1
 -2       789       679       792      3176      3184      3185
 -1      1453    8    0    1
 -2       682       749       792      3060      3186      3183
 -1      1454    8    0    1
 -2       685       695       793      2934      3187      3188
 -1      1455    8    0    1
 -2       640       641       794      2725      3189      3190
 -1      1456    8    0    1
 -2       641       751       794      3065      3191      3189
 -1      1457    8    0    1
 -2       690       686       786      2941      3170      3192
 -1      1458    8    0    1
 -2       695       681       795      2960      3193      3194
 -1      1459    8    0    1
 -2       596       593       796      2589      3195      3196
 -1      1460    8    0    1
 -2       688       596       796      2863      3196      3197
 -1      1461    8    0    1
 -2       593       704       796      2902      3198      3195
 -1      1462    8    0    1
 -2       634       633       797      2703      3199      3200
 -1      1463    8    0    1
 -2       634       797       747      3200      3201      3054
 -1      1464    8    0    1
 -2       633       690       798      2868      3202      3203
 -1      1465    8    0    1
 -2       633       798       797      3203      3204      3199
 -1      1466    8    0    1
 -2       606       605       799      2621      3205      3206
 -1      1467    8    0    1
 -2       606       799       722      3206      3207      2978
 -1      1468    8    0    1
 -2       687       698       800      2943      3208      3209
 -1      1469    8    0    1
 -2       697       687       801      2946      3210      3211
 -1      1470    8    0    1
 -2       699       700       802      2944      3212      3213
 -1      1471    8    0    1
 -2       696       697       803      2887      3214      3215
 -1      1472    8    0    1
 -2       691       694       804      2945      3216      3217
 -1      1473    8    0    1
 -2       691       804       790      3217      3218      3178
 -1      1474    8    0    1
 -2       698       699       805      2892      3219      3220
 -1      1475    8    0    1
 -2       599       598       806      2602      3221      3222
 -1      1476    8    0    1
 -2       694       689       807      2961      3223      3224
 -1      1477    8    0    1
 -2       461       370       590      2591      3225      2555
 -1      1478    8    0    1
 -2       590       370       507      3225      2317      2930
 -1      1479    8    0    1
 -2       705       599       808      2904      3226      3227
 -1      1480    8    0    1
 -2       599       806       808      3222      3228      3226
 -1      1481    8    0    1
 -2       600       720       809      2973      3229      3230
 -1      1482    8    0    1
 -2       600       809       693      3230      3231      2878
 -1      1483    8    0    1
 -2       687       800       801      3209      3232      3210
 -1      1484    8    0    1
 -2       803       697       801      3214      3211      3233
 -1      1485    8    0    1
 -2       721       640       794      2976      3190      3234
 -1      1486    8    0    1
 -2       594       707       788      2910      3235      3174
 -1      1487    8    0    1
 -2       708       639       810      2912      3236      3237
 -1      1488    8    0    1
 -2       639       750       810      3062      3238      3236
 -1      1489    8    0    1
 -2       603       712       719      3049      3239      3240
 -1      1490    8    0    1
 -2       631       630       811      2696      3241      3242
 -1      1491    8    0    1
 -2       710       708       812      2920      3243      3244
 -1      1492    8    0    1
 -2       708       810       812      3237      3245      3243
 -1      1493    8    0    1
 -2       806       598       813      3221      3246      3247
 -1      1494    8    0    1
 -2       598       693       813      2877      3248      3246
 -1      1495    8    0    1
 -2       707       703       814      2911      3249      3250
 -1      1496    8    0    1
 -2       703       790       814      3179      3251      3249
 -1      1497    8    0    1
 -2       704       604       815      2903      3252      3253
 -1      1498    8    0    1
 -2       711       595       788      2921      3175      3254
 -1      1499    8    0    1
 -2       637       636       714      2713      3255      2938
 -1      1500    8    0    1
 -2       695       795       793      3194      3256      3187
 -1      1501    8    0    1
 -2       685       793       786      3188      3257      3171
 -1      1502    8    0    1
 -2       678       680       816      2841      3258      3259
 -1      1503    8    0    1
 -2       787       696       803      3172      3215      3260
 -1      1504    8    0    1
 -2       714       636       748      3255      3057      3261
 -1      1505    8    0    1
 -2       677       789       817      3177      3262      3263
 -1      1506    8    0    1
 -2       677       817       680      3263      3264      2842
 -1      1507    8    0    1
 -2       795       681       818      3193      3265      3266
 -1      1508    8    0    1
 -2       681       711       818      2923      3267      3265
 -1      1509    8    0    1
 -2       689       787       807      3173      3268      3223
 -1      1510    8    0    1
 -2       688       796       692      3197      3269      2874
 -1      1511    8    0    1
 -2       715       678       819      2953      3270      3271
 -1      1512    8    0    1
 -2       678       816       819      3259      3272      3270
 -1      1513    8    0    1
 -2       798       690       786      3202      3192      3273
 -1      1514    8    0    1
 -2       799       605       820      3205      3274      3275
 -1      1515    8    0    1
 -2       605       692       820      2873      3276      3274
 -1      1516    8    0    1
 -2       804       694       821      3216      3277      3278
 -1      1517    8    0    1
 -2       694       807       821      3224      3279      3277
 -1      1518    8    0    1
 -2       701       718       717      2969      3280      2964
 -1      1519    8    0    1
 -2       802       700       822      3212      3281      3282
 -1      1520    8    0    1
 -2       700       717       822      2963      3283      3281
 -1      1521    8    0    1
 -2       800       698       805      3208      3220      3284
 -1      1522    8    0    1
 -2       699       802       805      3213      3285      3219
 -1      1523    8    0    1
 -2       684       714       748      2937      3261      3286
 -1      1524    8    0    1
 -2       604       716       823      2957      3287      3288
 -1      1525    8    0    1
 -2       604       823       815      3288      3289      3252
 -1      1526    8    0    1
 -2       684       748       791      3286      3290      3180
 -1      1527    8    0    1
 -2       712       710       824      2948      3291      3292
 -1      1528    8    0    1
 -2       811       630       745      3241      3047      3293
 -1      1529    8    0    1
 -2       719       712       824      3239      3292      3294
 -1      1530    8    0    1
 -2       710       812       824      3244      3295      3291
 -1      1531    8    0    1
 -2       801       800       825      3232      3296      3297
 -1      1532    8    0    1
 -2       723       722       826      2982      3298      3299
 -1      1533    8    0    1
 -2       631       811       718      3242      3300      2967
 -1      1534    8    0    1
 -2       719       824       720      3294      3301      2974
 -1      1535    8    0    1
 -2       724       723       827      2985      3302      3303
 -1      1536    8    0    1
 -2       723       826       827      3299      3304      3302
 -1      1537    8    0    1
 -2       725       724       828      2988      3305      3306
 -1      1538    8    0    1
 -2       724       827       828      3303      3307      3305
 -1      1539    8    0    1
 -2       726       725       829      2991      3308      3309
 -1      1540    8    0    1
 -2       725       828       829      3306      3310      3308
 -1      1541    8    0    1
 -2       727       726       830      2994      3311      3312
 -1      1542    8    0    1
 -2       726       829       830      3309      3313      3311
 -1      1543    8    0    1
 -2       728       727       831      2997      3314      3315
 -1      1544    8    0    1
 -2       727       830       831      3312      3316      3314
 -1      1545    8    0    1
 -2       729       728       832      3000      3317      3318
 -1      1546    8    0    1
 -2       728       831       832      3315      3319      3317
 -1      1547    8    0    1
 -2       730       729       833      3003      3320      3321
 -1      1548    8    0    1
 -2       729       832       833      3318      3322      3320
 -1      1549    8    0    1
 -2       731       730       834      3006      3323      3324
 -1      1550    8    0    1
 -2       730       833       834      3321      3325      3323
 -1      1551    8    0    1
 -2       732       731       835      3009      3326      3327
 -1      1552    8    0    1
 -2       731       834       835      3324      3328      3326
 -1      1553    8    0    1
 -2       733       732       836      3012      3329      3330
 -1      1554    8    0    1
 -2       732       835       836      3327      3331      3329
 -1      1555    8    0    1
 -2       734       733       837      3015      3332      3333
 -1      1556    8    0    1
 -2       733       836       837      3330      3334      3332
 -1      1557    8    0    1
 -2       735       734       838      3018      3335      3336
 -1      1558    8    0    1
 -2       734       837       838      3333      3337      3335
 -1      1559    8    0    1
 -2       736       735       839      3021      3338      3339
 -1      1560    8    0    1
 -2       735       838       839      3336      3340      3338
 -1      1561    8    0    1
 -2       737       736       840      3024      3341      3342
 -1      1562    8    0    1
 -2       736       839       840      3339      3343      3341
 -1      1563    8    0    1
 -2       738       737       841      3027      3344      3345
 -1      1564    8    0    1
 -2       737       840       841      3342      3346      3344
 -1      1565    8    0    1
 -2       739       738       842      3030      3347      3348
 -1      1566    8    0    1
 -2       738       841       842      3345      3349      3347
 -1      1567    8    0    1
 -2       740       739       843      3033      3350      3351
 -1      1568    8    0    1
 -2       739       842       843      3348      3352      3350
 -1      1569    8    0    1
 -2       741       740       844      3036      3353      3354
 -1      1570    8    0    1
 -2       740       843       844      3351      3355      3353
 -1      1571    8    0    1
 -2       742       741       845      3039      3356      3357
 -1      1572    8    0    1
 -2       741       844       845      3354      3358      3356
 -1      1573    8    0    1
 -2       743       742       846      3042      3359      3360
 -1      1574    8    0    1
 -2       742       845       846      3357      3361      3359
 -1      1575    8    0    1
 -2       744       743       847      3045      3362      3363
 -1      1576    8    0    1
 -2       743       846       847      3360      3364      3362
 -1      1577    8    0    1
 -2       745       744       848      3048      3365      3366
 -1      1578    8    0    1
 -2       744       847       848      3363      3367      3365
 -1      1579    8    0    1
 -2       750       746       849      3063      3368      3369
 -1      1580    8    0    1
 -2       791       748       850      3290      3370      3371
 -1      1581    8    0    1
 -2       748       747       850      3058      3372      3370
 -1      1582    8    0    1
 -2       711       788       851      3254      3373      3374
 -1      1583    8    0    1
 -2       746       721       852      3053      3375      3376
 -1      1584    8    0    1
 -2       746       852       849      3376      3377      3368
 -1      1585    8    0    1
 -2       797       798       853      3204      3378      3379
 -1      1586    8    0    1
 -2       816       680       817      3258      3264      3380
 -1      1587    8    0    1
 -2       752       753       854      3071      3381      3382
 -1      1588    8    0    1
 -2       751       752       855      3068      3383      3384
 -1      1589    8    0    1
 -2       752       854       855      3382      3385      3383
 -1      1590    8    0    1
 -2       754       755       856      3077      3386      3387
 -1      1591    8    0    1
 -2       755       756       857      3080      3388      3389
 -1      1592    8    0    1
 -2       755       857       856      3389      3390      3386
 -1      1593    8    0    1
 -2       756       757       858      3083      3391      3392
 -1      1594    8    0    1
 -2       756       858       857      3392      3393      3388
 -1      1595    8    0    1
 -2       757       758       859      3086      3394      3395
 -1      1596    8    0    1
 -2       757       859       858      3395      3396      3391
 -1      1597    8    0    1
 -2       758       759       860      3089      3397      3398
 -1      1598    8    0    1
 -2       758       860       859      3398      3399      3394
 -1      1599    8    0    1
 -2       759       760       861      3092      3400      3401
 -1      1600    8    0    1
 -2       759       861       860      3401      3402      3397
 -1      1601    8    0    1
 -2       760       761       862      3095      3403      3404
 -1      1602    8    0    1
 -2       760       862       861      3404      3405      3400
 -1      1603    8    0    1
 -2       761       762       863      3098      3406      3407
 -1      1604    8    0    1
 -2       761       863       862      3407      3408      3403
 -1      1605    8    0    1
 -2       762       763       864      3101      3409      3410
 -1      1606    8    0    1
 -2       762       864       863      3410      3411      3406
 -1      1607    8    0    1
 -2       763       764       865      3104      3412      3413
 -1      1608    8    0    1
 -2       763       865       864      3413      3414      3409
 -1      1609    8    0    1
 -2       764       765       866      3107      3415      3416
 -1      1610    8    0    1
 -2       764       866       865      3416      3417      3412
 -1      1611    8    0    1
 -2       765       766       867      3110      3418      3419
 -1      1612    8    0    1
 -2       765       867       866      3419      3420      3415
 -1      1613    8    0    1
 -2       766       767       868      3113      3421      3422
 -1      1614    8    0    1
 -2       766       868       867      3422      3423      3418
 -1      1615    8    0    1
 -2       767       768       869      3116      3424      3425
 -1      1616    8    0    1
 -2       767       869       868      3425      3426      3421
 -1      1617    8    0    1
 -2       768       769       870      3119      3427      3428
 -1      1618    8    0    1
 -2       768       870       869      3428      3429      3424
 -1      1619    8    0    1
 -2       769       770       871      3122      3430      3431
 -1      1620    8    0    1
 -2       769       871       870      3431      3432      3427
 -1      1621    8    0    1
 -2       770       771       872      3125      3433      3434
 -1      1622    8    0    1
 -2       770       872       871      3434      3435      3430
 -1      1623    8    0    1
 -2       771       772       873      3128      3436      3437
 -1      1624    8    0    1
 -2       771       873       872      3437      3438      3433
 -1      1625    8    0    1
 -2       772       773       874      3131      3439      3440
 -1      1626    8    0    1
 -2       772       874       873      3440      3441      3436
 -1      1627    8    0    1
 -2       773       774       875      3134      3442      3443
 -1      1628    8    0    1
 -2       773       875       874      3443      3444      3439
 -1      1629    8    0    1
 -2       774       775       876      3137      3445      3446
 -1      1630    8    0    1
 -2       774       876       875      3446      3447      3442
 -1      1631    8    0    1
 -2       775       776       877      3140      3448      3449
 -1      1632    8    0    1
 -2       775       877       876      3449      3450      3445
 -1      1633    8    0    1
 -2       776       777       878      3143      3451      3452
 -1      1634    8    0    1
 -2       776       878       877      3452      3453      3448
 -1      1635    8    0    1
 -2       777       778       879      3146      3454      3455
 -1      1636    8    0    1
 -2       777       879       878      3455      3456      3451
 -1      1637    8    0    1
 -2       778       779       880      3149      3457      3458
 -1      1638    8    0    1
 -2       778       880       879      3458      3459      3454
 -1      1639    8    0    1
 -2       779       780       881      3152      3460      3461
 -1      1640    8    0    1
 -2       779       881       880      3461      3462      3457
 -1      1641    8    0    1
 -2       780       781       882      3155      3463      3464
 -1      1642    8    0    1
 -2       780       882       881      3464      3465      3460
 -1      1643    8    0    1
 -2       781       782       883      3158      3466      3467
 -1      1644    8    0    1
 -2       781       883       882      3467      3468      3463
 -1      1645    8    0    1
 -2       782       783       884      3161      3469      3470
 -1      1646    8    0    1
 -2       782       884       883      3470      3471      3466
 -1      1647    8    0    1
 -2       783       784       885      3164      3472      3473
 -1      1648    8    0    1
 -2       783       885       884      3473      3474      3469
 -1      1649    8    0    1
 -2       798       786       793      3273      3257      3475
 -1      1650    8    0    1
 -2       787       803       886      3260      3476      3477
 -1      1651    8    0    1
 -2       602       603       719      2613      3240      2970
 -1      1652    8    0    1
 -2       704       815       820      3253      3478      3479
 -1      1653    8    0    1
 -2       749       791       850      3182      3371      3480
 -1      1654    8    0    1
 -2       794       751       887      3191      3481      3482
 -1      1655    8    0    1
 -2       751       855       887      3384      3483      3481
 -1      1656    8    0    1
 -2       720       824       888      3301      3484      3485
 -1      1657    8    0    1
 -2       720       888       809      3485      3486      3229
 -1      1658    8    0    1
 -2       793       795       889      3256      3487      3488
 -1      1659    8    0    1
 -2       788       707       890      3235      3489      3490
 -1      1660    8    0    1
 -2       707       814       890      3250      3491      3489
 -1      1661    8    0    1
 -2       796       704       820      3198      3479      3492
 -1      1662    8    0    1
 -2       722       799       891      3207      3493      3494
 -1      1663    8    0    1
 -2       722       891       826      3494      3495      3298
 -1      1664    8    0    1
 -2       803       801       892      3233      3496      3497
 -1      1665    8    0    1
 -2       692       796       820      3269      3492      3276
 -1      1666    8    0    1
 -2       716       705       893      2958      3498      3499
 -1      1667    8    0    1
 -2       716       893       823      3499      3500      3287
 -1      1668    8    0    1
 -2       713       715       894      2952      3501      3502
 -1      1669    8    0    1
 -2       785       713       894      3168      3502      3503
 -1      1670    8    0    1
 -2       715       819       894      3271      3504      3501
 -1      1671    8    0    1
 -2       721       794       895      3234      3505      3506
 -1      1672    8    0    1
 -2       721       895       852      3506      3507      3375
 -1      1673    8    0    1
 -2       824       812       888      3295      3508      3484
 -1      1674    8    0    1
 -2       790       804       896      3218      3509      3510
 -1      1675    8    0    1
 -2       717       718       897      3280      3511      3512
 -1      1676    8    0    1
 -2       822       717       897      3283      3512      3513
 -1      1677    8    0    1
 -2       718       811       897      3300      3514      3511
 -1      1678    8    0    1
 -2       800       805       898      3284      3515      3516
 -1      1679    8    0    1
 -2       805       802       899      3285      3517      3518
 -1      1680    8    0    1
 -2       753       754       900      3074      3519      3520
 -1      1681    8    0    1
 -2       854       753       900      3381      3520      3521
 -1      1682    8    0    1
 -2       754       856       900      3387      3522      3519
 -1      1683    8    0    1
 -2       811       745       901      3293      3523      3524
 -1      1684    8    0    1
 -2       745       848       901      3366      3525      3523
 -1      1685    8    0    1
 -2       807       787       902      3268      3526      3527
 -1      1686    8    0    1
 -2       747       797       903      3201      3528      3529
 -1      1687    8    0    1
 -2       850       747       903      3372      3529      3530
 -1      1688    8    0    1
 -2       797       853       903      3379      3531      3528
 -1      1689    8    0    1
 -2       798       793       889      3475      3488      3532
 -1      1690    8    0    1
 -2       812       810       904      3245      3533      3534
 -1      1691    8    0    1
 -2       888       812       904      3508      3534      3535
 -1      1692    8    0    1
 -2       807       902       821      3527      3536      3279
 -1      1693    8    0    1
 -2       800       898       825      3516      3537      3296
 -1      1694    8    0    1
 -2       808       806       905      3228      3538      3539
 -1      1695    8    0    1
 -2       810       750       906      3238      3540      3541
 -1      1696    8    0    1
 -2       750       849       906      3369      3542      3540
 -1      1697    8    0    1
 -2       803       892       886      3497      3543      3476
 -1      1698    8    0    1
 -2       798       889       853      3532      3544      3378
 -1      1699    8    0    1
 -2       794       887       895      3482      3545      3505
 -1      1700    8    0    1
 -2       813       693       809      3248      3231      3546
 -1      1701    8    0    1
 -2       814       790       907      3251      3547      3548
 -1      1702    8    0    1
 -2       790       896       907      3510      3549      3547
 -1      1703    8    0    1
 -2       851       788       908      3373      3550      3551
 -1      1704    8    0    1
 -2       788       890       908      3490      3552      3550
 -1      1705    8    0    1
 -2       711       851       818      3374      3553      3267
 -1      1706    8    0    1
 -2       816       817       909      3380      3554      3555
 -1      1707    8    0    1
 -2       789       792       910      3185      3556      3557
 -1      1708    8    0    1
 -2       820       815       911      3478      3558      3559
 -1      1709    8    0    1
 -2       820       911       799      3559      3560      3275
 -1      1710    8    0    1
 -2       784       785       894      3167      3503      3561
 -1      1711    8    0    1
 -2       806       813       912      3247      3562      3563
 -1      1712    8    0    1
 -2       806       912       905      3563      3564      3538
 -1      1713    8    0    1
 -2       705       808       893      3227      3565      3498
 -1      1714    8    0    1
 -2       817       789       913      3262      3566      3567
 -1      1715    8    0    1
 -2       909       817       913      3554      3567      3568
 -1      1716    8    0    1
 -2       789       910       913      3557      3569      3566
 -1      1717    8    0    1
 -2       816       909       914      3555      3570      3571
 -1      1718    8    0    1
 -2       816       914       819      3571      3572      3272
 -1      1719    8    0    1
 -2       749       850       915      3480      3573      3574
 -1      1720    8    0    1
 -2       795       818       916      3266      3575      3576
 -1      1721    8    0    1
 -2       795       916       889      3576      3577      3487
 -1      1722    8    0    1
 -2       792       749       915      3186      3574      3578
 -1      1723    8    0    1
 -2       891       799       911      3493      3560      3579
 -1      1724    8    0    1
 -2       892       801       825      3496      3297      3580
 -1      1725    8    0    1
 -2       898       805       899      3515      3518      3581
 -1      1726    8    0    1
 -2       804       821       917      3278      3582      3583
 -1      1727    8    0    1
 -2       804       917       896      3583      3584      3509
 -1      1728    8    0    1
 -2       815       823       911      3289      3585      3558
 -1      1729    8    0    1
 -2       802       822       899      3282      3586      3517
 -1      1730    8    0    1
 -2       787       886       918      3477      3587      3588
 -1      1731    8    0    1
 -2       787       918       902      3588      3589      3526
 -1      1732    8    0    1
 -2       784       894       885      3561      3590      3472
 -1      1733    8    0    1
 -2       821       902       919      3536      3591      3592
 -1      1734    8    0    1
 -2       826       891       920      3495      3593      3594
 -1      1735    8    0    1
 -2       888       904       921      3535      3595      3596
 -1      1736    8    0    1
 -2       893       808       922      3565      3597      3598
 -1      1737    8    0    1
 -2       808       905       922      3539      3599      3597
 -1      1738    8    0    1
 -2       827       826       923      3304      3600      3601
 -1      1739    8    0    1
 -2       826       920       923      3594      3602      3600
 -1      1740    8    0    1
 -2       828       827       924      3307      3603      3604
 -1      1741    8    0    1
 -2       827       923       924      3601      3605      3603
 -1      1742    8    0    1
 -2       829       828       925      3310      3606      3607
 -1      1743    8    0    1
 -2       828       924       925      3604      3608      3606
 -1      1744    8    0    1
 -2       830       829       926      3313      3609      3610
 -1      1745    8    0    1
 -2       829       925       926      3607      3611      3609
 -1      1746    8    0    1
 -2       831       830       927      3316      3612      3613
 -1      1747    8    0    1
 -2       830       926       927      3610      3614      3612
 -1      1748    8    0    1
 -2       832       831       928      3319      3615      3616
 -1      1749    8    0    1
 -2       831       927       928      3613      3617      3615
 -1      1750    8    0    1
 -2       833       832       929      3322      3618      3619
 -1      1751    8    0    1
 -2       832       928       929      3616      3620      3618
 -1      1752    8    0    1
 -2       834       833       930      3325      3621      3622
 -1      1753    8    0    1
 -2       833       929       930      3619      3623      3621
 -1      1754    8    0    1
 -2       835       834       931      3328      3624      3625
 -1      1755    8    0    1
 -2       834       930       931      3622      3626      3624
 -1      1756    8    0    1
 -2       836       835       932      3331      3627      3628
 -1      1757    8    0    1
 -2       835       931       932      3625      3629      3627
 -1      1758    8    0    1
 -2       837       836       933      3334      3630      3631
 -1      1759    8    0    1
 -2       836       932       933      3628      3632      3630
 -1      1760    8    0    1
 -2       838       837       934      3337      3633      3634
 -1      1761    8    0    1
 -2       837       933       934      3631      3635      3633
 -1      1762    8    0    1
 -2       839       838       935      3340      3636      3637
 -1      1763    8    0    1
 -2       838       934       935      3634      3638      3636
 -1      1764    8    0    1
 -2       840       839       936      3343      3639      3640
 -1      1765    8    0    1
 -2       839       935       936      3637      3641      3639
 -1      1766    8    0    1
 -2       841       840       937      3346      3642      3643
 -1      1767    8    0    1
 -2       840       936       937      3640      3644      3642
 -1      1768    8    0    1
 -2       842       841       938      3349      3645      3646
 -1      1769    8    0    1
 -2       841       937       938      3643      3647      3645
 -1      1770    8    0    1
 -2       843       842       939      3352      3648      3649
 -1      1771    8    0    1
 -2       842       938       939      3646      3650      3648
 -1      1772    8    0    1
 -2       844       843       940      3355      3651      3652
 -1      1773    8    0    1
 -2       843       939       940      3649      3653      3651
 -1      1774    8    0    1
 -2       845       844       941      3358      3654      3655
 -1      1775    8    0    1
 -2       844       940       941      3652      3656      3654
 -1      1776    8    0    1
 -2       846       845       942      3361      3657      3658
 -1      1777    8    0    1
 -2       845       941       942      3655      3659      3657
 -1      1778    8    0    1
 -2       847       846       943      3364      3660      3661
 -1      1779    8    0    1
 -2       846       942       943      3658      3662      3660
 -1      1780    8    0    1
 -2       848       847       944      3367      3663      3664
 -1      1781    8    0    1
 -2       847       943       944      3661      3665      3663
 -1      1782    8    0    1
 -2       899       822       945      3586      3666      3667
 -1      1783    8    0    1
 -2       910       792       915      3556      3578      3668
 -1      1784    8    0    1
 -2       849       852       946      3377      3669      3670
 -1      1785    8    0    1
 -2       895       887       947      3545      3671      3672
 -1      1786    8    0    1
 -2       811       901       897      3524      3673      3514
 -1      1787    8    0    1
 -2       892       825       948      3580      3674      3675
 -1      1788    8    0    1
 -2       901       848       949      3525      3676      3677
 -1      1789    8    0    1
 -2       848       944       949      3664      3678      3676
 -1      1790    8    0    1
 -2       809       888       950      3486      3679      3680
 -1      1791    8    0    1
 -2       813       809       950      3546      3680      3681
 -1      1792    8    0    1
 -2       888       921       950      3596      3682      3679
 -1      1793    8    0    1
 -2       857       858       951      3393      3683      3684
 -1      1794    8    0    1
 -2       856       857       952      3390      3685      3686
 -1      1795    8    0    1
 -2       857       951       952      3684      3687      3685
 -1      1796    8    0    1
 -2       859       860       953      3399      3688      3689
 -1      1797    8    0    1
 -2       860       861       954      3402      3690      3691
 -1      1798    8    0    1
 -2       860       954       953      3691      3692      3688
 -1      1799    8    0    1
 -2       861       862       955      3405      3693      3694
 -1      1800    8    0    1
 -2       861       955       954      3694      3695      3690
 -1      1801    8    0    1
 -2       862       863       956      3408      3696      3697
 -1      1802    8    0    1
 -2       862       956       955      3697      3698      3693
 -1      1803    8    0    1
 -2       863       864       957      3411      3699      3700
 -1      1804    8    0    1
 -2       863       957       956      3700      3701      3696
 -1      1805    8    0    1
 -2       864       865       958      3414      3702      3703
 -1      1806    8    0    1
 -2       864       958       957      3703      3704      3699
 -1      1807    8    0    1
 -2       865       866       959      3417      3705      3706
 -1      1808    8    0    1
 -2       865       959       958      3706      3707      3702
 -1      1809    8    0    1
 -2       866       867       960      3420      3708      3709
 -1      1810    8    0    1
 -2       866       960       959      3709      3710      3705
 -1      1811    8    0    1
 -2       867       868       961      3423      3711      3712
 -1      1812    8    0    1
 -2       867       961       960      3712      3713      3708
 -1      1813    8    0    1
 -2       868       869       962      3426      3714      3715
 -1      1814    8    0    1
 -2       868       962       961      3715      3716      3711
 -1      1815    8    0    1
 -2       869       870       963      3429      3717      3718
 -1      1816    8    0    1
 -2       869       963       962      3718      3719      3714
 -1      1817    8    0    1
 -2       870       871       964      3432      3720      3721
 -1      1818    8    0    1
 -2       870       964       963      3721      3722      3717
 -1      1819    8    0    1
 -2       871       872       965      3435      3723      3724
 -1      1820    8    0    1
 -2       871       965       964      3724      3725      3720
 -1      1821    8    0    1
 -2       872       873       966      3438      3726      3727
 -1      1822    8    0    1
 -2       872       966       965      3727      3728      3723
 -1      1823    8    0    1
 -2       873       874       967      3441      3729      3730
 -1      1824    8    0    1
 -2       873       967       966      3730      3731      3726
 -1      1825    8    0    1
 -2       874       875       918      3444      3732      3733
 -1      1826    8    0    1
 -2       875       876       918      3447      3734      3732
 -1      1827    8    0    1
 -2       876       877       919      3450      3735      3736
 -1      1828    8    0    1
 -2       877       878       917      3453      3737      3738
 -1      1829    8    0    1
 -2       879       880       968      3459      3739      3740
 -1      1830    8    0    1
 -2       880       881       969      3462      3741      3742
 -1      1831    8    0    1
 -2       880       969       968      3742      3743      3739
 -1      1832    8    0    1
 -2       881       882       970      3465      3744      3745
 -1      1833    8    0    1
 -2       881       970       969      3745      3746      3741
 -1      1834    8    0    1
 -2       882       883       971      3468      3747      3748
 -1      1835    8    0    1
 -2       882       971       970      3748      3749      3744
 -1      1836    8    0    1
 -2       883       884       972      3471      3750      3751
 -1      1837    8    0    1
 -2       883       972       971      3751      3752      3747
 -1      1838    8    0    1
 -2       904       810       906      3533      3541      3753
 -1      1839    8    0    1
 -2       890       814       973      3491      3754      3755
 -1      1840    8    0    1
 -2       814       907       973      3548      3756      3754
 -1      1841    8    0    1
 -2       915       850       974      3573      3757      3758
 -1      1842    8    0    1
 -2       850       903       974      3530      3759      3757
 -1      1843    8    0    1
 -2       887       855       975      3483      3760      3761
 -1      1844    8    0    1
 -2       887       975       947      3761      3762      3671
 -1      1845    8    0    1
 -2       818       851       976      3553      3763      3764
 -1      1846    8    0    1
 -2       891       911       977      3579      3765      3766
 -1      1847    8    0    1
 -2       891       977       920      3766      3767      3593
 -1      1848    8    0    1
 -2       852       895       978      3507      3768      3769
 -1      1849    8    0    1
 -2       852       978       946      3769      3770      3669
 -1      1850    8    0    1
 -2       894       819       885      3504      3771      3590
 -1      1851    8    0    1
 -2       825       898       979      3537      3772      3773
 -1      1852    8    0    1
 -2       858       859       980      3396      3774      3775
 -1      1853    8    0    1
 -2       859       953       980      3689      3776      3774
 -1      1854    8    0    1
 -2       911       823       977      3585      3777      3765
 -1      1855    8    0    1
 -2       855       854       981      3385      3778      3779
 -1      1856    8    0    1
 -2       855       981       975      3779      3780      3760
 -1      1857    8    0    1
 -2       898       899       982      3581      3781      3782
 -1      1858    8    0    1
 -2       886       892       983      3543      3783      3784
 -1      1859    8    0    1
 -2       910       915       984      3668      3785      3786
 -1      1860    8    0    1
 -2       885       819       914      3771      3572      3787
 -1      1861    8    0    1
 -2       897       901       945      3673      3788      3789
 -1      1862    8    0    1
 -2       813       950       912      3681      3790      3562
 -1      1863    8    0    1
 -2       977       823       893      3777      3500      3791
 -1      1864    8    0    1
 -2       893       922       977      3598      3792      3791
 -1      1865    8    0    1
 -2       906       849       985      3542      3793      3794
 -1      1866    8    0    1
 -2       849       946       985      3670      3795      3793
 -1      1867    8    0    1
 -2       890       973       986      3755      3796      3797
 -1      1868    8    0    1
 -2       890       986       908      3797      3798      3552
 -1      1869    8    0    1
 -2       984       915       974      3785      3758      3799
 -1      1870    8    0    1
 -2       885       914       884      3787      3800      3474
 -1      1871    8    0    1
 -2       899       945       982      3667      3801      3781
 -1      1872    8    0    1
 -2       945       901       949      3788      3677      3802
 -1      1873    8    0    1
 -2       914       909       987      3570      3803      3804
 -1      1874    8    0    1
 -2       895       947       978      3672      3805      3768
 -1      1875    8    0    1
 -2       948       825       988      3674      3806      3807
 -1      1876    8    0    1
 -2       825       979       988      3773      3808      3806
 -1      1877    8    0    1
 -2       856       952       989      3686      3809      3810
 -1      1878    8    0    1
 -2       856       989       900      3810      3811      3522
 -1      1879    8    0    1
 -2       874       918       967      3733      3812      3729
 -1      1880    8    0    1
 -2       878       879       990      3456      3813      3814
 -1      1881    8    0    1
 -2       904       906       991      3753      3815      3816
 -1      1882    8    0    1
 -2       906       985       991      3794      3817      3815
 -1      1883    8    0    1
 -2       821       919       917      3592      3818      3582
 -1      1884    8    0    1
 -2       853       889       992      3544      3819      3820
 -1      1885    8    0    1
 -2       951       858       980      3683      3775      3821
 -1      1886    8    0    1
 -2       913       910       993      3569      3822      3823
 -1      1887    8    0    1
 -2       910       984       993      3786      3824      3822
 -1      1888    8    0    1
 -2       916       818       976      3575      3764      3825
 -1      1889    8    0    1
 -2       898       982       979      3782      3826      3772
 -1      1890    8    0    1
 -2       889       916       992      3577      3827      3819
 -1      1891    8    0    1
 -2       976       851       994      3763      3828      3829
 -1      1892    8    0    1
 -2       851       908       994      3551      3830      3828
 -1      1893    8    0    1
 -2       909       913       995      3568      3831      3832
 -1      1894    8    0    1
 -2       987       909       995      3803      3832      3833
 -1      1895    8    0    1
 -2       913       993       995      3823      3834      3831
 -1      1896    8    0    1
 -2       853       992       903      3820      3835      3531
 -1      1897    8    0    1
 -2       892       948       966      3675      3836      3837
 -1      1898    8    0    1
 -2       922       905       996      3599      3838      3839
 -1      1899    8    0    1
 -2       921       904       991      3595      3816      3840
 -1      1900    8    0    1
 -2       905       912       997      3564      3841      3842
 -1      1901    8    0    1
 -2       905       997       996      3842      3843      3838
 -1      1902    8    0    1
 -2       822       897       945      3513      3789      3666
 -1      1903    8    0    1
 -2       902       918       919      3589      3844      3591
 -1      1904    8    0    1
 -2       896       917       990      3584      3845      3846
 -1      1905    8    0    1
 -2       854       900       998      3521      3847      3848
 -1      1906    8    0    1
 -2       981       854       998      3778      3848      3849
 -1      1907    8    0    1
 -2       900       989       998      3811      3850      3847
 -1      1908    8    0    1
 -2       990       879       968      3813      3740      3851
 -1      1909    8    0    1
 -2       923       920       999      3602      3852      3853
 -1      1910    8    0    1
 -2       924       923      1000      3605      3854      3855
 -1      1911    8    0    1
 -2       923       999      1000      3853      3856      3854
 -1      1912    8    0    1
 -2       925       924      1001      3608      3857      3858
 -1      1913    8    0    1
 -2       924      1000      1001      3855      3859      3857
 -1      1914    8    0    1
 -2       926       925      1002      3611      3860      3861
 -1      1915    8    0    1
 -2       925      1001      1002      3858      3862      3860
 -1      1916    8    0    1
 -2       927       926      1003      3614      3863      3864
 -1      1917    8    0    1
 -2       926      1002      1003      3861      3865      3863
 -1      1918    8    0    1
 -2       928       927      1004      3617      3866      3867
 -1      1919    8    0    1
 -2       927      1003      1004      3864      3868      3866
 -1      1920    8    0    1
 -2       929       928      1005      3620      3869      3870
 -1      1921    8    0    1
 -2       928      1004      1005      3867      3871      3869
 -1      1922    8    0    1
 -2       930       929      1006      3623      3872      3873
 -1      1923    8    0    1
 -2       929      1005      1006      3870      3874      3872
 -1      1924    8    0    1
 -2       931       930      1007      3626      3875      3876
 -1      1925    8    0    1
 -2       930      1006      1007      3873      3877      3875
 -1      1926    8    0    1
 -2       932       931      1008      3629      3878      3879
 -1      1927    8    0    1
 -2       931      1007      1008      3876      3880      3878
 -1      1928    8    0    1
 -2       933       932      1009      3632      3881      3882
 -1      1929    8    0    1
 -2       932      1008      1009      3879      3883      3881
 -1      1930    8    0    1
 -2       934       933      1010      3635      3884      3885
 -1      1931    8    0    1
 -2       933      1009      1010      3882      3886      3884
 -1      1932    8    0    1
 -2       935       934      1011      3638      3887      3888
 -1      1933    8    0    1
 -2       934      1010      1011      3885      3889      3887
 -1      1934    8    0    1
 -2       936       935      1012      3641      3890      3891
 -1      1935    8    0    1
 -2       935      1011      1012      3888      3892      3890
 -1      1936    8    0    1
 -2       937       936      1013      3644      3893      3894
 -1      1937    8    0    1
 -2       936      1012      1013      3891      3895      3893
 -1      1938    8    0    1
 -2       938       937      1014      3647      3896      3897
 -1      1939    8    0    1
 -2       937      1013      1014      3894      3898      3896
 -1      1940    8    0    1
 -2       939       938      1015      3650      3899      3900
 -1      1941    8    0    1
 -2       938      1014      1015      3897      3901      3899
 -1      1942    8    0    1
 -2       940       939      1016      3653      3902      3903
 -1      1943    8    0    1
 -2       939      1015      1016      3900      3904      3902
 -1      1944    8    0    1
 -2       941       940      1017      3656      3905      3906
 -1      1945    8    0    1
 -2       940      1016      1017      3903      3907      3905
 -1      1946    8    0    1
 -2       942       941      1018      3659      3908      3909
 -1      1947    8    0    1
 -2       941      1017      1018      3906      3910      3908
 -1      1948    8    0    1
 -2       943       942      1019      3662      3911      3912
 -1      1949    8    0    1
 -2       942      1018      1019      3909      3913      3911
 -1      1950    8    0    1
 -2       944       943      1020      3665      3914      3915
 -1      1951    8    0    1
 -2       943      1019      1020      3912      3916      3914
 -1      1952    8    0    1
 -2       919       918       876      3844      3734      3736
 -1      1953    8    0    1
 -2       984       974      1021      3799      3917      3918
 -1      1954    8    0    1
 -2       978       947      1022      3805      3919      3920
 -1      1955    8    0    1
 -2       912       950      1023      3790      3921      3922
 -1      1956    8    0    1
 -2       997       912      1023      3841      3922      3923
 -1      1957    8    0    1
 -2       950       921      1023      3682      3924      3921
 -1      1958    8    0    1
 -2       970       971      1024      3749      3925      3926
 -1      1959    8    0    1
 -2       952       951      1025      3687      3927      3928
 -1      1960    8    0    1
 -2       954       955      1026      3695      3929      3930
 -1      1961    8    0    1
 -2       953       954      1027      3692      3931      3932
 -1      1962    8    0    1
 -2       954      1026      1027      3930      3933      3931
 -1      1963    8    0    1
 -2       956       957      1028      3701      3934      3935
 -1      1964    8    0    1
 -2       957       958      1029      3704      3936      3937
 -1      1965    8    0    1
 -2       957      1029      1028      3937      3938      3934
 -1      1966    8    0    1
 -2       958       959      1030      3707      3939      3940
 -1      1967    8    0    1
 -2       958      1030      1029      3940      3941      3936
 -1      1968    8    0    1
 -2       959       960      1031      3710      3942      3943
 -1      1969    8    0    1
 -2       959      1031      1030      3943      3944      3939
 -1      1970    8    0    1
 -2       960       961      1032      3713      3945      3946
 -1      1971    8    0    1
 -2       960      1032      1031      3946      3947      3942
 -1      1972    8    0    1
 -2       961       962      1033      3716      3948      3949
 -1      1973    8    0    1
 -2       961      1033      1032      3949      3950      3945
 -1      1974    8    0    1
 -2       962       963      1034      3719      3951      3952
 -1      1975    8    0    1
 -2       962      1034      1033      3952      3953      3948
 -1      1976    8    0    1
 -2       963       964      1035      3722      3954      3955
 -1      1977    8    0    1
 -2       963      1035      1034      3955      3956      3951
 -1      1978    8    0    1
 -2       964       965       988      3725      3957      3958
 -1      1979    8    0    1
 -2       965       966       948      3728      3836      3959
 -1      1980    8    0    1
 -2       878       990       917      3814      3845      3737
 -1      1981    8    0    1
 -2       919       877       917      3735      3738      3818
 -1      1982    8    0    1
 -2       968       969      1036      3743      3960      3961
 -1      1983    8    0    1
 -2       971       972      1037      3752      3962      3963
 -1      1984    8    0    1
 -2       971      1037      1024      3963      3964      3925
 -1      1985    8    0    1
 -2       972       884       914      3750      3800      3965
 -1      1986    8    0    1
 -2       975       981      1038      3780      3966      3967
 -1      1987    8    0    1
 -2       982       945       949      3801      3802      3968
 -1      1988    8    0    1
 -2       973       907      1036      3756      3969      3970
 -1      1989    8    0    1
 -2       951       980      1039      3821      3971      3972
 -1      1990    8    0    1
 -2       951      1039      1025      3972      3973      3927
 -1      1991    8    0    1
 -2       969       970      1040      3746      3974      3975
 -1      1992    8    0    1
 -2      1036       969      1040      3960      3975      3976
 -1      1993    8    0    1
 -2       970      1024      1040      3926      3977      3974
 -1      1994    8    0    1
 -2       974       903       992      3759      3835      3978
 -1      1995    8    0    1
 -2       955       956      1041      3698      3979      3980
 -1      1996    8    0    1
 -2      1026       955      1041      3929      3980      3981
 -1      1997    8    0    1
 -2       956      1028      1041      3935      3982      3979
 -1      1998    8    0    1
 -2       949       944      1042      3678      3983      3984
 -1      1999    8    0    1
 -2       944      1020      1042      3915      3985      3983
 -1      2000    8    0    1
 -2       980       953      1043      3776      3986      3987
 -1      2001    8    0    1
 -2       980      1043      1039      3987      3988      3971
 -1      2002    8    0    1
 -2       979       982      1044      3826      3989      3990
 -1      2003    8    0    1
 -2       977       922      1045      3792      3991      3992
 -1      2004    8    0    1
 -2       920       977      1045      3767      3992      3993
 -1      2005    8    0    1
 -2       922       996      1045      3839      3994      3991
 -1      2006    8    0    1
 -2       921       991      1046      3840      3995      3996
 -1      2007    8    0    1
 -2       921      1046      1023      3996      3997      3924
 -1      2008    8    0    1
 -2       918       886       967      3587      3998      3812
 -1      2009    8    0    1
 -2       946       978      1047      3770      3999      4000
 -1      2010    8    0    1
 -2       978      1022      1047      3920      4001      3999
 -1      2011    8    0    1
 -2       947       975      1048      3762      4002      4003
 -1      2012    8    0    1
 -2      1022       947      1048      3919      4003      4004
 -1      2013    8    0    1
 -2       975      1038      1048      3967      4005      4002
 -1      2014    8    0    1
 -2       974       992      1021      3978      4006      3917
 -1      2015    8    0    1
 -2       982       949      1042      3968      3984      4007
 -1      2016    8    0    1
 -2       985       946      1049      3795      4008      4009
 -1      2017    8    0    1
 -2       946      1047      1049      4000      4010      4008
 -1      2018    8    0    1
 -2       986       973      1036      3796      3970      4011
 -1      2019    8    0    1
 -2       907       896       990      3549      3846      4012
 -1      2020    8    0    1
 -2       988       979      1044      3808      3990      4013
 -1      2021    8    0    1
 -2       989       952      1050      3809      4014      4015
 -1      2022    8    0    1
 -2       952      1025      1050      3928      4016      4014
 -1      2023    8    0    1
 -2       914       987       972      3804      4017      3965
 -1      2024    8    0    1
 -2       972       987      1037      4017      4018      3962
 -1      2025    8    0    1
 -2       907       990       968      4012      3851      4019
 -1      2026    8    0    1
 -2       907       968      1036      4019      3961      3969
 -1      2027    8    0    1
 -2       991       985      1046      3817      4020      3995
 -1      2028    8    0    1
 -2       953      1027      1043      3932      4021      3986
 -1      2029    8    0    1
 -2       988       965       948      3957      3959      3807
 -1      2030    8    0    1
 -2       966       967       983      3731      4022      4023
 -1      2031    8    0    1
 -2       999       920      1045      3852      3993      4024
 -1      2032    8    0    1
 -2       984      1021      1051      3918      4025      4026
 -1      2033    8    0    1
 -2       984      1051       993      4026      4027      3824
 -1      2034    8    0    1
 -2       982      1042      1044      4007      4028      3989
 -1      2035    8    0    1
 -2       967       886       983      3998      3784      4022
 -1      2036    8    0    1
 -2       996       997      1052      3843      4029      4030
 -1      2037    8    0    1
 -2      1038       981      1053      3966      4031      4032
 -1      2038    8    0    1
 -2       981       998      1053      3849      4033      4031
 -1      2039    8    0    1
 -2       976       994      1051      3829      4034      4035
 -1      2040    8    0    1
 -2       994       908      1054      3830      4036      4037
 -1      2041    8    0    1
 -2       908       986      1054      3798      4038      4036
 -1      2042    8    0    1
 -2      1045       996      1055      3994      4039      4040
 -1      2043    8    0    1
 -2       999      1045      1055      4024      4040      4041
 -1      2044    8    0    1
 -2       996      1052      1055      4030      4042      4039
 -1      2045    8    0    1
 -2       987       995      1037      3833      4043      4018
 -1      2046    8    0    1
 -2       966       983       892      4023      3783      3837
 -1      2047    8    0    1
 -2       992       916      1056      3827      4044      4045
 -1      2048    8    0    1
 -2      1021       992      1056      4006      4045      4046
 -1      2049    8    0    1
 -2       916       976      1056      3825      4047      4044
 -1      2050    8    0    1
 -2      1039      1043      1057      3988      4048      4049
 -1      2051    8    0    1
 -2      1001      1000      1058      3859      4050      4051
 -1      2052    8    0    1
 -2      1002      1001      1059      3862      4052      4053
 -1      2053    8    0    1
 -2      1001      1058      1059      4051      4054      4052
 -1      2054    8    0    1
 -2      1003      1002      1060      3865      4055      4056
 -1      2055    8    0    1
 -2      1002      1059      1060      4053      4057      4055
 -1      2056    8    0    1
 -2      1004      1003      1061      3868      4058      4059
 -1      2057    8    0    1
 -2      1003      1060      1061      4056      4060      4058
 -1      2058    8    0    1
 -2      1005      1004      1062      3871      4061      4062
 -1      2059    8    0    1
 -2      1004      1061      1062      4059      4063      4061
 -1      2060    8    0    1
 -2      1006      1005      1063      3874      4064      4065
 -1      2061    8    0    1
 -2      1005      1062      1063      4062      4066      4064
 -1      2062    8    0    1
 -2      1007      1006      1064      3877      4067      4068
 -1      2063    8    0    1
 -2      1006      1063      1064      4065      4069      4067
 -1      2064    8    0    1
 -2      1008      1007      1065      3880      4070      4071
 -1      2065    8    0    1
 -2      1007      1064      1065      4068      4072      4070
 -1      2066    8    0    1
 -2      1009      1008      1066      3883      4073      4074
 -1      2067    8    0    1
 -2      1008      1065      1066      4071      4075      4073
 -1      2068    8    0    1
 -2      1010      1009      1067      3886      4076      4077
 -1      2069    8    0    1
 -2      1009      1066      1067      4074      4078      4076
 -1      2070    8    0    1
 -2      1011      1010      1068      3889      4079      4080
 -1      2071    8    0    1
 -2      1010      1067      1068      4077      4081      4079
 -1      2072    8    0    1
 -2      1012      1011      1069      3892      4082      4083
 -1      2073    8    0    1
 -2      1011      1068      1069      4080      4084      4082
 -1      2074    8    0    1
 -2      1013      1012      1070      3895      4085      4086
 -1      2075    8    0    1
 -2      1012      1069      1070      4083      4087      4085
 -1      2076    8    0    1
 -2      1014      1013      1071      3898      4088      4089
 -1      2077    8    0    1
 -2      1013      1070      1071      4086      4090      4088
 -1      2078    8    0    1
 -2      1015      1014      1072      3901      4091      4092
 -1      2079    8    0    1
 -2      1014      1071      1072      4089      4093      4091
 -1      2080    8    0    1
 -2      1016      1015      1073      3904      4094      4095
 -1      2081    8    0    1
 -2      1015      1072      1073      4092      4096      4094
 -1      2082    8    0    1
 -2      1017      1016      1074      3907      4097      4098
 -1      2083    8    0    1
 -2      1016      1073      1074      4095      4099      4097
 -1      2084    8    0    1
 -2      1018      1017      1075      3910      4100      4101
 -1      2085    8    0    1
 -2      1017      1074      1075      4098      4102      4100
 -1      2086    8    0    1
 -2      1019      1018      1076      3913      4103      4104
 -1      2087    8    0    1
 -2      1018      1075      1076      4101      4105      4103
 -1      2088    8    0    1
 -2      1020      1019      1077      3916      4106      4107
 -1      2089    8    0    1
 -2      1019      1076      1077      4104      4108      4106
 -1      2090    8    0    1
 -2      1042      1020      1078      3985      4109      4110
 -1      2091    8    0    1
 -2      1020      1077      1078      4107      4111      4109
 -1      2092    8    0    1
 -2       997      1023      1079      3923      4112      4113
 -1      2093    8    0    1
 -2      1052       997      1079      4029      4113      4114
 -1      2094    8    0    1
 -2      1023      1046      1079      3997      4115      4112
 -1      2095    8    0    1
 -2       998       989      1080      3850      4116      4117
 -1      2096    8    0    1
 -2      1053       998      1080      4033      4117      4118
 -1      2097    8    0    1
 -2       989      1050      1080      4015      4119      4116
 -1      2098    8    0    1
 -2      1029      1030      1081      3941      4120      4121
 -1      2099    8    0    1
 -2      1028      1029      1082      3938      4122      4123
 -1      2100    8    0    1
 -2      1029      1081      1082      4121      4124      4122
 -1      2101    8    0    1
 -2      1031      1032      1083      3947      4125      4126
 -1      2102    8    0    1
 -2      1032      1033      1084      3950      4127      4128
 -1      2103    8    0    1
 -2      1032      1084      1083      4128      4129      4125
 -1      2104    8    0    1
 -2      1033      1034      1085      3953      4130      4131
 -1      2105    8    0    1
 -2      1033      1085      1084      4131      4132      4127
 -1      2106    8    0    1
 -2      1034      1035      1086      3956      4133      4134
 -1      2107    8    0    1
 -2      1034      1086      1085      4134      4135      4130
 -1      2108    8    0    1
 -2       964       988      1035      3958      4136      3954
 -1      2109    8    0    1
 -2      1037       995      1087      4043      4137      4138
 -1      2110    8    0    1
 -2      1024      1037      1087      3964      4138      4139
 -1      2111    8    0    1
 -2      1051       994      1087      4034      4140      4141
 -1      2112    8    0    1
 -2      1046       985      1049      4020      4009      4142
 -1      2113    8    0    1
 -2      1025      1039      1088      3973      4143      4144
 -1      2114    8    0    1
 -2      1039      1057      1088      4049      4145      4143
 -1      2115    8    0    1
 -2      1044      1042      1078      4028      4110      4146
 -1      2116    8    0    1
 -2       995       993      1087      3834      4147      4137
 -1      2117    8    0    1
 -2      1043      1027      1089      4021      4148      4149
 -1      2118    8    0    1
 -2      1043      1089      1057      4149      4150      4048
 -1      2119    8    0    1
 -2       993      1051      1087      4027      4141      4147
 -1      2120    8    0    1
 -2       986      1036      1040      4011      3976      4151
 -1      2121    8    0    1
 -2      1000       999      1090      3856      4152      4153
 -1      2122    8    0    1
 -2      1058      1000      1090      4050      4153      4154
 -1      2123    8    0    1
 -2       999      1055      1090      4041      4155      4152
 -1      2124    8    0    1
 -2      1047      1022      1091      4001      4156      4157
 -1      2125    8    0    1
 -2      1030      1031      1092      3944      4158      4159
 -1      2126    8    0    1
 -2      1031      1083      1092      4126      4160      4158
 -1      2127    8    0    1
 -2       976      1051      1056      4035      4161      4047
 -1      2128    8    0    1
 -2      1027      1026      1093      3933      4162      4163
 -1      2129    8    0    1
 -2      1027      1093      1089      4163      4164      4148
 -1      2130    8    0    1
 -2      1035       988      1086      4136      4165      4133
 -1      2131    8    0    1
 -2       986      1040      1054      4151      4166      4038
 -1      2132    8    0    1
 -2      1052      1079      1094      4114      4167      4168
 -1      2133    8    0    1
 -2      1022      1048      1095      4004      4169      4170
 -1      2134    8    0    1
 -2      1022      1095      1091      4170      4171      4156
 -1      2135    8    0    1
 -2      1050      1025      1096      4016      4172      4173
 -1      2136    8    0    1
 -2      1025      1088      1096      4144      4174      4172
 -1      2137    8    0    1
 -2      1028      1082      1097      4123      4175      4176
 -1      2138    8    0    1
 -2      1028      1097      1041      4176      4177      3982
 -1      2139    8    0    1
 -2      1051      1021      1056      4025      4046      4161
 -1      2140    8    0    1
 -2      1081      1030      1092      4120      4159      4178
 -1      2141    8    0    1
 -2      1038      1053      1098      4032      4179      4180
 -1      2142    8    0    1
 -2      1087       994      1054      4140      4037      4181
 -1      2143    8    0    1
 -2      1049      1047      1099      4010      4182      4183
 -1      2144    8    0    1
 -2      1047      1091      1099      4157      4184      4182
 -1      2145    8    0    1
 -2      1040      1024      1054      3977      4185      4166
 -1      2146    8    0    1
 -2      1055      1052      1094      4042      4168      4186
 -1      2147    8    0    1
 -2      1086       988      1044      4165      4013      4187
 -1      2148    8    0    1
 -2      1054      1024      1087      4185      4139      4181
 -1      2149    8    0    1
 -2      1086      1044      1078      4187      4146      4188
 -1      2150    8    0    1
 -2      1026      1041      1100      3981      4189      4190
 -1      2151    8    0    1
 -2      1041      1097      1100      4177      4191      4189
 -1      2152    8    0    1
 -2      1026      1100      1093      4190      4192      4162
 -1      2153    8    0    1
 -2      1038      1098      1101      4180      4193      4194
 -1      2154    8    0    1
 -2      1038      1101      1048      4194      4195      4005
 -1      2155    8    0    1
 -2      1060      1059      1091      4057      4196      4197
 -1      2156    8    0    1
 -2      1061      1060      1095      4060      4198      4199
 -1      2157    8    0    1
 -2      1062      1061      1101      4063      4200      4201
 -1      2158    8    0    1
 -2      1063      1062      1098      4066      4202      4203
 -1      2159    8    0    1
 -2      1065      1064      1102      4072      4204      4205
 -1      2160    8    0    1
 -2      1066      1065      1096      4075      4206      4207
 -1      2161    8    0    1
 -2      1067      1066      1088      4078      4208      4209
 -1      2162    8    0    1
 -2      1068      1067      1057      4081      4210      4211
 -1      2163    8    0    1
 -2      1069      1068      1089      4084      4212      4213
 -1      2164    8    0    1
 -2      1070      1069      1093      4087      4214      4215
 -1      2165    8    0    1
 -2      1071      1070      1100      4090      4216      4217
 -1      2166    8    0    1
 -2      1072      1071      1097      4093      4218      4219
 -1      2167    8    0    1
 -2      1073      1072      1082      4096      4220      4221
 -1      2168    8    0    1
 -2      1074      1073      1081      4099      4222      4223
 -1      2169    8    0    1
 -2      1075      1074      1092      4102      4224      4225
 -1      2170    8    0    1
 -2      1076      1075      1083      4105      4226      4227
 -1      2171    8    0    1
 -2      1077      1076      1084      4108      4228      4229
 -1      2172    8    0    1
 -2      1078      1077      1085      4111      4230      4231
 -1      2173    8    0    1
 -2      1079      1046      1103      4115      4232      4233
 -1      2174    8    0    1
 -2      1085      1086      1078      4135      4188      4231
 -1      2175    8    0    1
 -2      1082      1081      1073      4124      4222      4221
 -1      2176    8    0    1
 -2      1093      1100      1070      4192      4216      4215
 -1      2177    8    0    1
 -2      1082      1072      1097      4220      4219      4175
 -1      2178    8    0    1
 -2      1084      1085      1077      4132      4230      4229
 -1      2179    8    0    1
 -2      1083      1084      1076      4129      4228      4227
 -1      2180    8    0    1
 -2      1055      1094      1090      4186      4234      4155
 -1      2181    8    0    1
 -2      1057      1089      1068      4150      4212      4211
 -1      2182    8    0    1
 -2      1083      1075      1092      4226      4225      4160
 -1      2183    8    0    1
 -2      1098      1053      1104      4179      4235      4236
 -1      2184    8    0    1
 -2      1063      1098      1104      4203      4236      4237
 -1      2185    8    0    1
 -2      1053      1080      1104      4118      4238      4235
 -1      2186    8    0    1
 -2      1081      1092      1074      4178      4224      4223
 -1      2187    8    0    1
 -2      1046      1049      1103      4142      4239      4232
 -1      2188    8    0    1
 -2      1088      1057      1067      4145      4210      4209
 -1      2189    8    0    1
 -2      1088      1066      1096      4208      4207      4174
 -1      2190    8    0    1
 -2      1098      1062      1101      4202      4201      4193
 -1      2191    8    0    1
 -2      1059      1058      1099      4054      4240      4241
 -1      2192    8    0    1
 -2      1093      1069      1089      4214      4213      4164
 -1      2193    8    0    1
 -2      1091      1059      1099      4196      4241      4184
 -1      2194    8    0    1
 -2      1060      1091      1095      4197      4171      4198
 -1      2195    8    0    1
 -2      1103      1049      1099      4239      4183      4242
 -1      2196    8    0    1
 -2      1079      1103      1094      4233      4243      4167
 -1      2197    8    0    1
 -2      1065      1102      1096      4205      4244      4206
 -1      2198    8    0    1
 -2      1064      1063      1104      4069      4237      4245
 -1      2199    8    0    1
 -2      1071      1100      1097      4217      4191      4218
 -1      2200    8    0    1
 -2      1090      1094      1058      4234      4246      4154
 -1      2201    8    0    1
 -2      1095      1048      1101      4169      4195      4247
 -1      2202    8    0    1
 -2      1101      1061      1095      4200      4199      4247
 -1      2203    8    0    1
 -2      1094      1103      1099      4243      4242      4248
 -1      2204    8    0    1
 -2      1058      1094      1099      4246      4248      4240
 -1      2205    8    0    1
 -2      1064      1104      1102      4245      4249      4204
 -1      2206    8    0    1
 -2      1050      1096      1102      4173      4244      4250
 -1      2207    8    0    1
 -2      1050      1102      1080      4250      4251      4119
 -1      2208    8    0    1
 -2      1080      1102      1104      4251      4249      4238
 -3
    1PSTEP                         1           1           1          
  100CL  101 1.000000000        4251                     0    1           1
 -4  DISP        4    1
 -5  D1          1    2    1    0
 -5  D2          1    2    2    0
 -5  D3          1    2    3    0
 -5  ALL         1    2    0    0    1ALL
 -1         1 1.14960E-02-2.36590E-03-2.60443E-14
 -1         2 1.37723E-02-1.14786E-03-2.85485E-14
 -1         3 1.36624E-02-2.04526E-03-4.42359E-14
 -1         4 1.69378E-02-3.36875E-03-4.32317E-14
 -1         5 0.00000E+00 0.00000E+00 0.00000E+00
 -1         6 0.00000E+00 0.00000E+00 0.00000E+00
 -1         7 0.00000E+00 0.00000E+00 0.00000E+00
 -1         8 0.00000E+00 0.00000E+00 0.00000E+00
 -1         9 0.00000E+00 0.00000E+00 0.00000E+00
 -1        10 0.00000E+00 0.00000E+00 0.00000E+00
 -1        11 0.00000E+00 0.00000E+00 0.00000E+00
 -1        12 0.00000E+00 0.00000E+00 0.00000E+00
 -1        13 0.00000E+00 0.00000E+00 0.00000E+00
 -1        14 0.00000E+00 0.00000E+00 0.00000E+00
 -1        15 0.00000E+00 0.00000E+00 0.00000E+00
 -1        16 0.00000E+00 0.00000E+00 0.00000E+00
 -1        17 0.00000E+00 0.00000E+00 0.00000E+00
 -1        18 0.00000E+00 0.00000E+00 0.00000E+00
 -1        19 0.00000E+00 0.00000E+00 0.00000E+00
 -1        20 0.00000E+00 0.00000E+00 0.00000E+00
 -1        21 0.00000E+00 0.00000E+00 0.00000E+00
 -1        22 0.00000E+00 0.00000E+00 0.00000E+00
 -1        23 3.95225E-04-2.52084E-04 9.52065E-19
 -1        24 6.89619E-04-3.95229E-04-6.39984E-17
 -1        25 9.60230E-04-4.94347E-04-1.92829E-16
 -1        26 1.22490E-03-5.64246E-04-3.83808E-16
 -1        27 1.48846E-03-6.14326E-04-6.35817E-16
 -1        28 1.75309E-03-6.50088E-04-9.45953E-16
 -1        29 2.01978E-03-6.75305E-04-1.31028E-15
 -1        30 2.28893E-03-6.92715E-04-1.72781E-15
 -1        31 2.56060E-03-7.04368E-04-2.19855E-15
 -1        32 2.83466E-03-7.11814E-04-2.71666E-15
 -1        33 3.11088E-03-7.16225E-04-3.27891E-15
 -1        34 3.38899E-03-7.18478E-04-3.88093E-15
 -1        35 3.66872E-03-7.19217E-04-4.52190E-15
 -1        36 3.94980E-03-7.18907E-04-5.19976E-15
 -1        37 4.23200E-03-7.17868E-04-5.91617E-15
 -1        38 4.50094E-03-7.16395E-04-6.62928E-15
 -1        39 4.78481E-03-7.14450E-04-7.41263E-15
 -1        40 5.06937E-03-7.12154E-04-8.22989E-15
 -1        41 5.35460E-03-7.09503E-04-9.08083E-15
 -1        42 5.64053E-03-7.06451E-04-9.95838E-15
 -1        43 5.92734E-03-7.02913E-04-1.08607E-14
 -1        44 6.21530E-03-6.98782E-04-1.17925E-14
 -1        45 6.50494E-03-6.93941E-04-1.27518E-14
 -1        46 6.79708E-03-6.88301E-04-1.37331E-14
 -1        47 7.09308E-03-6.81883E-04-1.47271E-14
 -1        48 7.39506E-03-6.74980E-04-1.57318E-14
 -1        49 7.70646E-03-6.68518E-04-1.67439E-14
 -1        50 8.03264E-03-6.64786E-04-1.77560E-14
 -1        51 8.38188E-03-6.68901E-04-1.87675E-14
 -1        52 8.76622E-03-6.91567E-04-1.97826E-14
 -1        53 9.17808E-03-7.49487E-04-2.07450E-14
 -1        54 9.67459E-03-8.84267E-04-2.17521E-14
 -1        55 1.02339E-02-1.14800E-03-2.27550E-14
 -1        56 1.07807E-02-1.55794E-03-2.37103E-14
 -1        57 1.12707E-02-2.10948E-03-2.47269E-14
 -1        58 1.15636E-02-2.51952E-03-2.56593E-14
 -1        59 1.17500E-02-2.63034E-03-2.65152E-14
 -1        60 1.19643E-02-2.49373E-03-2.73488E-14
 -1        61 1.23247E-02-2.19754E-03-2.83149E-14
 -1        62 1.28732E-02-1.89443E-03-2.94812E-14
 -1        63 1.34191E-02-1.76126E-03-3.06187E-14
 -1        64 1.39210E-02-1.76728E-03-3.17907E-14
 -1        65 1.43834E-02-1.87146E-03-3.30224E-14
 -1        66 1.47870E-02-2.03039E-03-3.42713E-14
 -1        67 1.51475E-02-2.21555E-03-3.55444E-14
 -1        68 1.54788E-02-2.41156E-03-3.68257E-14
 -1        69 1.57906E-02-2.61053E-03-3.81057E-14
 -1        70 1.60896E-02-2.80829E-03-3.93789E-14
 -1        71 1.63804E-02-3.00250E-03-4.06583E-14
 -1        72 1.66667E-02-3.19208E-03-4.19627E-14
 -1        73 4.13836E-04 2.61428E-04 3.66765E-17
 -1        74 7.03217E-04 4.03665E-04 3.35018E-17
 -1        75 9.74023E-04 5.00095E-04-1.17467E-17
 -1        76 1.23883E-03 5.68763E-04-1.01881E-16
 -1        77 1.50253E-03 6.18058E-04-2.39971E-16
 -1        78 1.76731E-03 6.53298E-04-4.25397E-16
 -1        79 2.03416E-03 6.78167E-04-6.57440E-16
 -1        80 2.30347E-03 6.95356E-04-9.30740E-16
 -1        81 2.57528E-03 7.06882E-04-1.24769E-15
 -1        82 2.84948E-03 7.14272E-04-1.61245E-15
 -1        83 3.12583E-03 7.18682E-04-2.02306E-15
 -1        84 3.40407E-03 7.20978E-04-2.47697E-15
 -1        85 3.68392E-03 7.21803E-04-2.97342E-15
 -1        86 3.96513E-03 7.21621E-04-3.51366E-15
 -1        87 4.24748E-03 7.20767E-04-4.09999E-15
 -1        88 4.53078E-03 7.19474E-04-4.73141E-15
 -1        89 4.81489E-03 7.17905E-04-5.40367E-15
 -1        90 5.09971E-03 7.16181E-04-6.11444E-15
 -1        91 5.38520E-03 7.14404E-04-6.86705E-15
 -1        92 5.67132E-03 7.12676E-04-7.65542E-15
 -1        93 5.95808E-03 7.11126E-04-8.47612E-15
 -1        94 6.24547E-03 7.09922E-04-9.32258E-15
 -1        95 6.53346E-03 7.09288E-04-1.02033E-14
 -1        96 6.82195E-03 7.09504E-04-1.11109E-14
 -1        97 7.11066E-03 7.10887E-04-1.20463E-14
 -1        98 7.39912E-03 7.13736E-04-1.30137E-14
 -1        99 7.68653E-03 7.18233E-04-1.40084E-14
 -1       100 7.97170E-03 7.24270E-04-1.50322E-14
 -1       101 8.25303E-03 7.31222E-04-1.60794E-14
 -1       102 8.52855E-03 7.37664E-04-1.71512E-14
 -1       103 8.79618E-03 7.41105E-04-1.82411E-14
 -1       104 9.05403E-03 7.37847E-04-1.93614E-14
 -1       105 9.30102E-03 7.23089E-04-2.05065E-14
 -1       106 9.53732E-03 6.91408E-04-2.16689E-14
 -1       107 9.76477E-03 6.37597E-04-2.28650E-14
 -1       108 9.98676E-03 5.57709E-04-2.40991E-14
 -1       109 1.02078E-02 4.49961E-04-2.53544E-14
 -1       110 1.04325E-02 3.15176E-04-2.66354E-14
 -1       111 1.06647E-02 1.56566E-04-2.79440E-14
 -1       112 1.09068E-02-2.10482E-05-2.92953E-14
 -1       113 1.11596E-02-2.12277E-04-3.06889E-14
 -1       114 1.14223E-02-4.12112E-04-3.21121E-14
 -1       115 1.16932E-02-6.16551E-04-3.35674E-14
 -1       116 1.19703E-02-8.22830E-04-3.50522E-14
 -1       117 1.22515E-02-1.02935E-03-3.65509E-14
 -1       118 1.25351E-02-1.23541E-03-3.80536E-14
 -1       119 1.28199E-02-1.44089E-03-3.95892E-14
 -1       120 1.31054E-02-1.64597E-03-4.11529E-14
 -1       121 1.33910E-02-1.85080E-03-4.27351E-14
 -1       122 1.38637E-02-2.12955E-03-4.42119E-14
 -1       123 1.40648E-02-2.21394E-03-4.41823E-14
 -1       124 1.42661E-02-2.29854E-03-4.41373E-14
 -1       125 1.44680E-02-2.38311E-03-4.40798E-14
 -1       126 1.46710E-02-2.46705E-03-4.40122E-14
 -1       127 1.48714E-02-2.54806E-03-4.39710E-14
 -1       128 1.50759E-02-2.62789E-03-4.39090E-14
 -1       129 1.52796E-02-2.70424E-03-4.38280E-14
 -1       130 1.54808E-02-2.77672E-03-4.37485E-14
 -1       131 1.56778E-02-2.84576E-03-4.36657E-14
 -1       132 1.58688E-02-2.91274E-03-4.35906E-14
 -1       133 1.60502E-02-2.97866E-03-4.35413E-14
 -1       134 1.62291E-02-3.04827E-03-4.34930E-14
 -1       135 1.64046E-02-3.12249E-03-4.34237E-14
 -1       136 1.65802E-02-3.20202E-03-4.33501E-14
 -1       137 1.67589E-02-3.28550E-03-4.32770E-14
 -1       138 1.36202E-02-9.48134E-04-2.84379E-14
 -1       139 1.33872E-02-7.65951E-04-2.82177E-14
 -1       140 1.30680E-02-5.89505E-04-2.78863E-14
 -1       141 1.26068E-02-3.99994E-04-2.73744E-14
 -1       142 1.21654E-02-2.64198E-04-2.68706E-14
 -1       143 1.16974E-02-1.55414E-04-2.63240E-14
 -1       144 1.12157E-02-7.80097E-05-2.57590E-14
 -1       145 1.06923E-02-3.21027E-05-2.51439E-14
 -1       146 1.02181E-02-2.82566E-05-2.45997E-14
 -1       147 9.76919E-03-6.52059E-05-2.41005E-14
 -1       148 9.38502E-03-1.40927E-04-2.36932E-14
 -1       149 9.08089E-03-2.51646E-04-2.33975E-14
 -1       150 8.87265E-03-3.88852E-04-2.32197E-14
 -1       151 8.75579E-03-5.56321E-04-2.31505E-14
 -1       152 8.74217E-03-7.46409E-04-2.31874E-14
 -1       153 8.82568E-03-9.50431E-04-2.33279E-14
 -1       154 9.01125E-03-1.18237E-03-2.35771E-14
 -1       155 9.29138E-03-1.43358E-03-2.39101E-14
 -1       156 9.69482E-03-1.71805E-03-2.43413E-14
 -1       157 1.02426E-02-2.01735E-03-2.48868E-14
 -1       158 1.08818E-02-2.25701E-03-2.54890E-14
 -1       159 1.20558E-02-2.35593E-03-2.65596E-14
 -1       160 1.26114E-02-2.23800E-03-2.70914E-14
 -1       161 1.30390E-02-2.07508E-03-2.75302E-14
 -1       162 1.33849E-02-1.88375E-03-2.79182E-14
 -1       163 1.36237E-02-1.69371E-03-2.82170E-14
 -1       164 1.37635E-02-1.51112E-03-2.84185E-14
 -1       165 1.38136E-02-1.32826E-03-2.85355E-14
 -1       166 2.40357E-04-1.25524E-04-2.13520E-17
 -1       167 2.25277E-04-9.46288E-05-2.72880E-17
 -1       168 2.19533E-04-7.27939E-05-2.94327E-17
 -1       169 2.16716E-04-5.51117E-05-2.97885E-17
 -1       170 2.15217E-04-3.99704E-05-2.92531E-17
 -1       171 2.14378E-04-2.59189E-05-2.81723E-17
 -1       172 2.13957E-04-1.26498E-05-2.69153E-17
 -1       173 2.13834E-04 2.63772E-07-2.58921E-17
 -1       174 2.13975E-04 1.31895E-05-2.48215E-17
 -1       175 2.14418E-04 2.64971E-05-2.31714E-17
 -1       176 2.15263E-04 4.03744E-05-2.09115E-17
 -1       177 2.16816E-04 5.58921E-05-1.76793E-17
 -1       178 2.19682E-04 7.37950E-05-1.31527E-17
 -1       179 2.25445E-04 9.60018E-05-6.11558E-18
 -1       180 2.39344E-04 1.27575E-04 4.61464E-18
 -1       181 2.97722E-04 1.85486E-04 1.64358E-17
 -1       182 4.53541E-04-2.56604E-04-5.07102E-17
 -1       183 7.52392E-04-3.77231E-04-1.56186E-16
 -1       184 1.03675E-03-4.61581E-04-3.20026E-16
 -1       185 1.31439E-03-5.21358E-04-5.41603E-16
 -1       186 1.58910E-03-5.63769E-04-8.20314E-16
 -1       187 1.86303E-03-5.93593E-04-1.15425E-15
 -1       188 2.13734E-03-6.14186E-04-1.54048E-15
 -1       189 2.41266E-03-6.28010E-04-1.97825E-15
 -1       190 2.68925E-03-6.36904E-04-2.46486E-15
 -1       191 2.96719E-03-6.42250E-04-2.99736E-15
 -1       192 3.24644E-03-6.45078E-04-3.57082E-15
 -1       193 3.52690E-03-6.46150E-04-4.18366E-15
 -1       194 3.80842E-03-6.46014E-04-4.83477E-15
 -1       195 4.09087E-03-6.45051E-04-5.52372E-15
 -1       196 4.35994E-03-6.43603E-04-6.21188E-15
 -1       197 4.64386E-03-6.41665E-04-6.97129E-15
 -1       198 4.92843E-03-6.39374E-04-7.76437E-15
 -1       199 5.21361E-03-6.36740E-04-8.58906E-15
 -1       200 5.49944E-03-6.33719E-04-9.44556E-15
 -1       201 5.78602E-03-6.30223E-04-1.03307E-14
 -1       202 6.07354E-03-6.26120E-04-1.12431E-14
 -1       203 6.36235E-03-6.21250E-04-1.21804E-14
 -1       204 6.65295E-03-6.15435E-04-1.31447E-14
 -1       205 6.94616E-03-6.08522E-04-1.41241E-14
 -1       206 7.24317E-03-6.00482E-04-1.51172E-14
 -1       207 7.54577E-03-5.91622E-04-1.61203E-14
 -1       208 7.85656E-03-5.83066E-04-1.71296E-14
 -1       209 8.17925E-03-5.77746E-04-1.81409E-14
 -1       210 8.51886E-03-5.82406E-04-1.91526E-14
 -1       211 8.86305E-03-6.09108E-04-2.01156E-14
 -1       212 9.25505E-03-6.87053E-04-2.11290E-14
 -1       213 9.68447E-03-8.62867E-04-2.21374E-14
 -1       214 1.01301E-02-1.17711E-03-2.30960E-14
 -1       215 1.06325E-02-1.69110E-03-2.41153E-14
 -1       216 1.10937E-02-2.21393E-03-2.50542E-14
 -1       217 1.14982E-02-2.51750E-03-2.59137E-14
 -1       218 1.18742E-02-2.52191E-03-2.67410E-14
 -1       219 1.23081E-02-2.25882E-03-2.77011E-14
 -1       220 1.28172E-02-1.88369E-03-2.88572E-14
 -1       221 1.32792E-02-1.67138E-03-2.99830E-14
 -1       222 1.37054E-02-1.62422E-03-3.11386E-14
 -1       223 1.41148E-02-1.70001E-03-3.23752E-14
 -1       224 1.44896E-02-1.84805E-03-3.36253E-14
 -1       225 1.48371E-02-2.03112E-03-3.48911E-14
 -1       226 1.51641E-02-2.22886E-03-3.61742E-14
 -1       227 1.54763E-02-2.43100E-03-3.74630E-14
 -1       228 1.57781E-02-2.63243E-03-3.87531E-14
 -1       229 1.60725E-02-2.83044E-03-4.00467E-14
 -1       230 1.63622E-02-3.02350E-03-4.13535E-14
 -1       231 6.04600E-04 3.31016E-04 1.93801E-18
 -1       232 8.93718E-04 4.32614E-04-5.22755E-17
 -1       233 1.17262E-03 5.04333E-04-1.49979E-16
 -1       234 1.44699E-03 5.55404E-04-2.93300E-16
 -1       235 1.71985E-03 5.91642E-04-4.82433E-16
 -1       236 1.99279E-03 6.17022E-04-7.17718E-16
 -1       237 2.26667E-03 6.34419E-04-9.97602E-16
 -1       238 2.54189E-03 6.45968E-04-1.32043E-15
 -1       239 2.81860E-03 6.53272E-04-1.68884E-15
 -1       240 3.09677E-03 6.57538E-04-2.10174E-15
 -1       241 3.37631E-03 6.59666E-04-2.55867E-15
 -1       242 3.65708E-03 6.60316E-04-3.05673E-15
 -1       243 3.93892E-03 6.59968E-04-3.59729E-15
 -1       244 4.22168E-03 6.58958E-04-4.18156E-15
 -1       245 4.50525E-03 6.57521E-04-4.81145E-15
 -1       246 4.78950E-03 6.55820E-04-5.48186E-15
 -1       247 5.07438E-03 6.53968E-04-6.19179E-15
 -1       248 5.35983E-03 6.52061E-04-6.94079E-15
 -1       249 5.64583E-03 6.50196E-04-7.72443E-15
 -1       250 5.93236E-03 6.48495E-04-8.54572E-15
 -1       251 6.21940E-03 6.47125E-04-9.39541E-15
 -1       252 6.50692E-03 6.46314E-04-1.02744E-14
 -1       253 6.79479E-03 6.46357E-04-1.11779E-14
 -1       254 7.08282E-03 6.47602E-04-1.21100E-14
 -1       255 7.37062E-03 6.50405E-04-1.30743E-14
 -1       256 7.65760E-03 6.55028E-04-1.40673E-14
 -1       257 7.94289E-03 6.61480E-04-1.50858E-14
 -1       258 8.22535E-03 6.69272E-04-1.61273E-14
 -1       259 8.50361E-03 6.77123E-04-1.71906E-14
 -1       260 8.77621E-03 6.82655E-04-1.82769E-14
 -1       261 9.04185E-03 6.82198E-04-1.93884E-14
 -1       262 9.29977E-03 6.70851E-04-2.05236E-14
 -1       263 9.55004E-03 6.42927E-04-2.16855E-14
 -1       264 9.79390E-03 5.92826E-04-2.28779E-14
 -1       265 1.00337E-02 5.16155E-04-2.40985E-14
 -1       266 1.02724E-02 4.10764E-04-2.53414E-14
 -1       267 1.05134E-02 2.77286E-04-2.66097E-14
 -1       268 1.07595E-02 1.18968E-04-2.79095E-14
 -1       269 1.10125E-02-5.91511E-05-2.92490E-14
 -1       270 1.12730E-02-2.51369E-04-3.06314E-14
 -1       271 1.15406E-02-4.52371E-04-3.20429E-14
 -1       272 1.18144E-02-6.57915E-04-3.34832E-14
 -1       273 1.20928E-02-8.65094E-04-3.49467E-14
 -1       274 1.23745E-02-1.07225E-03-3.64260E-14
 -1       275 1.26582E-02-1.27871E-03-3.79213E-14
 -1       276 1.29430E-02-1.48441E-03-3.94463E-14
 -1       277 1.32284E-02-1.68958E-03-4.10012E-14
 -1       278 1.35140E-02-1.89446E-03-4.25729E-14
 -1       279 1.37168E-02-1.99447E-03-4.28323E-14
 -1       280 1.39179E-02-2.07890E-03-4.28033E-14
 -1       281 1.41195E-02-2.16332E-03-4.27638E-14
 -1       282 1.43220E-02-2.24740E-03-4.27216E-14
 -1       283 1.45224E-02-2.32918E-03-4.26764E-14
 -1       284 1.47272E-02-2.41078E-03-4.26278E-14
 -1       285 1.49323E-02-2.49008E-03-4.25737E-14
 -1       286 1.51360E-02-2.56663E-03-4.25167E-14
 -1       287 1.53362E-02-2.64041E-03-4.24571E-14
 -1       288 1.55308E-02-2.71203E-03-4.24019E-14
 -1       289 1.57155E-02-2.78148E-03-4.23555E-14
 -1       290 1.58965E-02-2.85275E-03-4.23086E-14
 -1       291 1.60722E-02-2.92627E-03-4.22598E-14
 -1       292 1.62460E-02-3.00320E-03-4.22084E-14
 -1       293 1.37258E-02-1.16489E-03-2.90623E-14
 -1       294 1.34734E-02-1.02657E-03-2.87996E-14
 -1       295 1.31181E-02-8.75844E-04-2.85001E-14
 -1       296 1.26252E-02-6.84944E-04-2.80924E-14
 -1       297 1.21812E-02-4.11817E-04-2.73697E-14
 -1       298 1.17392E-02-2.11203E-04-2.67605E-14
 -1       299 1.13378E-02-5.67904E-05-2.60928E-14
 -1       300 1.09233E-02 3.75471E-05-2.53894E-14
 -1       301 1.05224E-02 3.59235E-05-2.47081E-14
 -1       302 1.01220E-02-3.99373E-05-2.40965E-14
 -1       303 9.71199E-03-1.64974E-04-2.35909E-14
 -1       304 9.33403E-03-3.05853E-04-2.31876E-14
 -1       305 9.01971E-03-4.35633E-04-2.29143E-14
 -1       306 8.80014E-03-5.49072E-04-2.27418E-14
 -1       307 8.70577E-03-6.46346E-04-2.27301E-14
 -1       308 8.75736E-03-7.55550E-04-2.28723E-14
 -1       309 8.94843E-03-8.90246E-04-2.30772E-14
 -1       310 9.26243E-03-1.10126E-03-2.34383E-14
 -1       311 9.69061E-03-1.38425E-03-2.38793E-14
 -1       312 1.02443E-02-1.74630E-03-2.44148E-14
 -1       313 1.08196E-02-2.15101E-03-2.50749E-14
 -1       314 1.13060E-02-2.41862E-03-2.57583E-14
 -1       315 1.17442E-02-2.46956E-03-2.63748E-14
 -1       316 1.21786E-02-2.34846E-03-2.70034E-14
 -1       317 1.26352E-02-2.10729E-03-2.75501E-14
 -1       318 1.30326E-02-1.85115E-03-2.80809E-14
 -1       319 1.33444E-02-1.67712E-03-2.83857E-14
 -1       320 1.36598E-02-1.47946E-03-2.87520E-14
 -1       321 1.38098E-02-1.35670E-03-2.89547E-14
 -1       322 1.38368E-02-1.25723E-03-2.90418E-14
 -1       323 1.64218E-02-3.08368E-03-4.21569E-14
 -1       324 4.55326E-04-1.64788E-04-9.77307E-17
 -1       325 4.74337E-04-2.13105E-04-8.97889E-17
 -1       326 4.40448E-04-9.40249E-05-1.00309E-16
 -1       327 4.37475E-04-6.49196E-05-9.83270E-17
 -1       328 4.35846E-04-3.79159E-05-9.56876E-17
 -1       329 4.35131E-04-1.20327E-05-9.25163E-17
 -1       330 4.35161E-04 1.35146E-05-8.90875E-17
 -1       331 4.35940E-04 3.94545E-05-8.44865E-17
 -1       332 4.37610E-04 6.61061E-05-7.87842E-17
 -1       333 4.40672E-04 9.53786E-05-7.11440E-17
 -1       334 4.46069E-04 1.28291E-04-6.09017E-17
 -1       335 4.55992E-04 1.67278E-04-4.69222E-17
 -1       336 4.75896E-04 2.16941E-04-2.71288E-17
 -1       337 5.32012E-04 2.69926E-04-1.55176E-17
 -1       338 8.24518E-04 3.73427E-04-7.54910E-17
 -1       339 1.34889E-02-1.50493E-03-2.90340E-14
 -1       340 8.48986E-04-3.53429E-04-2.54832E-16
 -1       341 1.13554E-03-4.23278E-04-4.49917E-16
 -1       342 1.41848E-03-4.73276E-04-6.99568E-16
 -1       343 1.69930E-03-5.08624E-04-1.00354E-15
 -1       344 1.97913E-03-5.33173E-04-1.35973E-15
 -1       345 2.25876E-03-5.49788E-04-1.76648E-15
 -1       346 2.53867E-03-5.60615E-04-2.22213E-15
 -1       347 2.81913E-03-5.67269E-04-2.72498E-15
 -1       348 3.10026E-03-5.70957E-04-3.27066E-15
 -1       349 3.38209E-03-5.72573E-04-3.85570E-15
 -1       350 3.66461E-03-5.72766E-04-4.47943E-15
 -1       351 3.94776E-03-5.71994E-04-5.14090E-15
 -1       352 4.21729E-03-5.70651E-04-5.80500E-15
 -1       353 4.50152E-03-5.68783E-04-6.53949E-15
 -1       354 4.78624E-03-5.66552E-04-7.30875E-15
 -1       355 5.07142E-03-5.63992E-04-8.11017E-15
 -1       356 5.35708E-03-5.61079E-04-8.94200E-15
 -1       357 5.64325E-03-5.57736E-04-9.80688E-15
 -1       358 5.93003E-03-5.53847E-04-1.06995E-14
 -1       359 6.21754E-03-5.49258E-04-1.16190E-14
 -1       360 6.50599E-03-5.43789E-04-1.25642E-14
 -1       361 6.79565E-03-5.37267E-04-1.35292E-14
 -1       362 7.08687E-03-5.29583E-04-1.45083E-14
 -1       363 7.38005E-03-5.20842E-04-1.55012E-14
 -1       364 7.67564E-03-5.11667E-04-1.65039E-14
 -1       365 7.97403E-03-5.03823E-04-1.75112E-14
 -1       366 8.27558E-03-5.01430E-04-1.85240E-14
 -1       367 8.56544E-03-5.12079E-04-1.94863E-14
 -1       368 8.87580E-03-5.52927E-04-2.04989E-14
 -1       369 9.19802E-03-6.54138E-04-2.15122E-14
 -1       370 9.53188E-03-8.53200E-04-2.24731E-14
 -1       371 1.27689E-02-1.92373E-03-2.82405E-14
 -1       372 1.32615E-02-1.61040E-03-2.93825E-14
 -1       373 1.36282E-02-1.51879E-03-3.05282E-14
 -1       374 1.39700E-02-1.56515E-03-3.17616E-14
 -1       375 1.42905E-02-1.69577E-03-3.30096E-14
 -1       376 1.46010E-02-1.86986E-03-3.42711E-14
 -1       377 1.49055E-02-2.06403E-03-3.55480E-14
 -1       378 1.52051E-02-2.26575E-03-3.68428E-14
 -1       379 1.55006E-02-2.46856E-03-3.81420E-14
 -1       380 1.57926E-02-2.66907E-03-3.94482E-14
 -1       381 1.60816E-02-2.86522E-03-4.07586E-14
 -1       382 1.11000E-03 4.47722E-04-1.77813E-16
 -1       383 1.32718E-02-1.09449E-03-2.92694E-14
 -1       384 1.39079E-03 5.00787E-04-3.24095E-16
 -1       385 1.66916E-03 5.38394E-04-5.15826E-16
 -1       386 1.94660E-03 5.64664E-04-7.53334E-16
 -1       387 2.22407E-03 5.82613E-04-1.03526E-15
 -1       388 2.50211E-03 5.94482E-04-1.36100E-15
 -1       389 2.78099E-03 6.01949E-04-1.73079E-15
 -1       390 3.06083E-03 6.06276E-04-2.14501E-15
 -1       391 3.34162E-03 6.08400E-04-2.60209E-15
 -1       392 3.62331E-03 6.09010E-04-3.09941E-15
 -1       393 3.90582E-03 6.08600E-04-3.63913E-15
 -1       394 4.18906E-03 6.07520E-04-4.22164E-15
 -1       395 4.47294E-03 6.06011E-04-4.84897E-15
 -1       396 4.75739E-03 6.04234E-04-5.51728E-15
 -1       397 5.04235E-03 6.02305E-04-6.22500E-15
 -1       398 5.32780E-03 6.00315E-04-6.97007E-15
 -1       399 5.61370E-03 5.98353E-04-7.75191E-15
 -1       400 5.90006E-03 5.96535E-04-8.57051E-15
 -1       401 6.18685E-03 5.95021E-04-9.41952E-15
 -1       402 6.47407E-03 5.94032E-04-1.02965E-14
 -1       403 6.76165E-03 5.93865E-04-1.11995E-14
 -1       404 7.04946E-03 5.94879E-04-1.21285E-14
 -1       405 7.33727E-03 5.97460E-04-1.30882E-14
 -1       406 7.62467E-03 6.01931E-04-1.40758E-14
 -1       407 7.91108E-03 6.08399E-04-1.50909E-14
 -1       408 8.19569E-03 6.16519E-04-1.61259E-14
 -1       409 8.47748E-03 6.25188E-04-1.71852E-14
 -1       410 8.75527E-03 6.32214E-04-1.82663E-14
 -1       411 9.02794E-03 6.34066E-04-1.93683E-14
 -1       412 9.29468E-03 6.25859E-04-2.04957E-14
 -1       413 9.55530E-03 6.01735E-04-2.16519E-14
 -1       414 9.81057E-03 5.55721E-04-2.28373E-14
 -1       415 1.00622E-02 4.82928E-04-2.40494E-14
 -1       416 1.03127E-02 3.80734E-04-2.52836E-14
 -1       417 1.05648E-02 2.49474E-04-2.65429E-14
 -1       418 1.08208E-02 9.23421E-05-2.78301E-14
 -1       419 1.10822E-02-8.54536E-05-2.91597E-14
 -1       420 1.13496E-02-2.77927E-04-3.05300E-14
 -1       421 1.16225E-02-4.79471E-04-3.19325E-14
 -1       422 1.19000E-02-6.85614E-04-3.33605E-14
 -1       423 1.21810E-02-8.93305E-04-3.48083E-14
 -1       424 1.24643E-02-1.10082E-03-3.62700E-14
 -1       425 1.27490E-02-1.30748E-03-3.77559E-14
 -1       426 1.30344E-02-1.51325E-03-3.92701E-14
 -1       427 1.33200E-02-1.71842E-03-4.08157E-14
 -1       428 1.35184E-02-1.85648E-03-4.18213E-14
 -1       429 1.39726E-02-2.02891E-03-4.14133E-14
 -1       430 1.37708E-02-1.94406E-03-4.14398E-14
 -1       431 1.36446E-02-1.90016E-03-4.16320E-14
 -1       432 1.41724E-02-2.11209E-03-4.13832E-14
 -1       433 1.43772E-02-2.19587E-03-4.13452E-14
 -1       434 1.45831E-02-2.27809E-03-4.13041E-14
 -1       435 1.47888E-02-2.35805E-03-4.12665E-14
 -1       436 1.49922E-02-2.43530E-03-4.12320E-14
 -1       437 1.51910E-02-2.50984E-03-4.11948E-14
 -1       438 1.53799E-02-2.58107E-03-4.11640E-14
 -1       439 1.55641E-02-2.65268E-03-4.11273E-14
 -1       440 1.57412E-02-2.72510E-03-4.10928E-14
 -1       441 1.59137E-02-2.80003E-03-4.10550E-14
 -1       442 1.28598E-02-9.27396E-04-2.88564E-14
 -1       443 1.38224E-02-1.26687E-03-2.96236E-14
 -1       444 1.32436E-02-1.63891E-03-2.87222E-14
 -1       445 1.38555E-02-1.30924E-03-2.95218E-14
 -1       446 4.45696E-04-1.26508E-04-1.00499E-16
 -1       447 1.22351E-02-5.85605E-04-2.79688E-14
 -1       448 1.18642E-02-3.63523E-04-2.73530E-14
 -1       449 1.14244E-02-1.17582E-04-2.65165E-14
 -1       450 1.10852E-02 2.25329E-05-2.57930E-14
 -1       451 1.06935E-02 8.32502E-05-2.48891E-14
 -1       452 1.03460E-02 2.44972E-05-2.41907E-14
 -1       453 9.95164E-03-1.11224E-04-2.35122E-14
 -1       454 9.56716E-03-2.71220E-04-2.29580E-14
 -1       455 9.19479E-03-4.16555E-04-2.26437E-14
 -1       456 8.90533E-03-5.22061E-04-2.23984E-14
 -1       457 8.71783E-03-5.89469E-04-2.22086E-14
 -1       458 8.70146E-03-6.37744E-04-2.22679E-14
 -1       459 8.83980E-03-7.22104E-04-2.25678E-14
 -1       460 9.16785E-03-8.39881E-04-2.28047E-14
 -1       461 9.57380E-03-1.08924E-03-2.33218E-14
 -1       462 1.00826E-02-1.40122E-03-2.38015E-14
 -1       463 1.06713E-02-1.88665E-03-2.45378E-14
 -1       464 1.37494E-02-1.37631E-03-2.93765E-14
 -1       465 1.35756E-02-1.19594E-03-2.95319E-14
 -1       466 1.25197E-02-8.13494E-04-2.87316E-14
 -1       467 6.65824E-04-7.51510E-05-2.05277E-16
 -1       468 6.69796E-04-1.15910E-04-2.09492E-16
 -1       469 6.63141E-04 1.07728E-06-1.93395E-16
 -1       470 6.63861E-04 3.87331E-05-1.85483E-16
 -1       471 6.66003E-04 7.67806E-05-1.75746E-16
 -1       472 6.70100E-04 1.17687E-04-1.63196E-16
 -1       473 6.77115E-04 1.62302E-04-1.47018E-16
 -1       474 6.89030E-04 2.12680E-04-1.26272E-16
 -1       475 7.09803E-04 2.71689E-04-9.86624E-17
 -1       476 7.63539E-04 3.20464E-04-8.96364E-17
 -1       477 1.38579E-02-1.35390E-03-3.01367E-14
 -1       478 9.62092E-04-3.25475E-04-3.60297E-16
 -1       479 1.24803E-03-3.81183E-04-5.83416E-16
 -1       480 1.53312E-03-4.21590E-04-8.59129E-16
 -1       481 1.81731E-03-4.50148E-04-1.18595E-15
 -1       482 2.10089E-03-4.69786E-04-1.56303E-15
 -1       483 2.38419E-03-4.82826E-04-1.98823E-15
 -1       484 2.66747E-03-4.91058E-04-2.46165E-15
 -1       485 2.95088E-03-4.95847E-04-2.97961E-15
 -1       486 3.23454E-03-4.98214E-04-3.53720E-15
 -1       487 3.51847E-03-4.98910E-04-4.13366E-15
 -1       488 3.80271E-03-4.98472E-04-4.76822E-15
 -1       489 4.07301E-03-4.97347E-04-5.40634E-15
 -1       490 4.35781E-03-4.95651E-04-6.11507E-15
 -1       491 4.64289E-03-4.93571E-04-6.86111E-15
 -1       492 4.92821E-03-4.91175E-04-7.64006E-15
 -1       493 5.21379E-03-4.88469E-04-8.44876E-15
 -1       494 5.49962E-03-4.85409E-04-9.29066E-15
 -1       495 5.78570E-03-4.81912E-04-1.01639E-14
 -1       496 6.07201E-03-4.77871E-04-1.10646E-14
 -1       497 6.35852E-03-4.73165E-04-1.19917E-14
 -1       498 6.64512E-03-4.67689E-04-1.29407E-14
 -1       499 6.93158E-03-4.61411E-04-1.39062E-14
 -1       500 7.21744E-03-4.54481E-04-1.48864E-14
 -1       501 7.50183E-03-4.47442E-04-1.58808E-14
 -1       502 7.78325E-03-4.41616E-04-1.68825E-14
 -1       503 8.05928E-03-4.39767E-04-1.78926E-14
 -1       504 8.31334E-03-4.46413E-04-1.88546E-14
 -1       505 8.56824E-03-4.71016E-04-1.98672E-14
 -1       506 8.80758E-03-5.28727E-04-2.08815E-14
 -1       507 9.02446E-03-6.39141E-04-2.18450E-14
 -1       508 1.38916E-02-1.33176E-03-3.02434E-14
 -1       509 1.05090E-03 3.95742E-04-1.94821E-16
 -1       510 1.38891E-02-1.46268E-03-3.11225E-14
 -1       511 1.41483E-02-1.56921E-03-3.23609E-14
 -1       512 1.44086E-02-1.72807E-03-3.36203E-14
 -1       513 1.46789E-02-1.91224E-03-3.48907E-14
 -1       514 1.49568E-02-2.10843E-03-3.61800E-14
 -1       515 1.52391E-02-2.30899E-03-3.74869E-14
 -1       516 1.55237E-02-2.50957E-03-3.88018E-14
 -1       517 1.57197E-02-2.65636E-03-3.99190E-14
 -1       518 1.50132E-03 4.50102E-04-4.82294E-16
 -1       519 1.27622E-03 4.28571E-04-3.22218E-16
 -1       520 2.06611E-03 5.02289E-04-9.78116E-16
 -1       521 2.34788E-03 5.16584E-04-1.29161E-15
 -1       522 2.62976E-03 5.25754E-04-1.64811E-15
 -1       523 2.91195E-03 5.31246E-04-2.04935E-15
 -1       524 3.19455E-03 5.34146E-04-2.49338E-15
 -1       525 3.47762E-03 5.35254E-04-2.97795E-15
 -1       526 3.76114E-03 5.35150E-04-3.50239E-15
 -1       527 4.04510E-03 5.34248E-04-4.06903E-15
 -1       528 4.32946E-03 5.32830E-04-4.67929E-15
 -1       529 4.61419E-03 5.31089E-04-5.33188E-15
 -1       530 4.89927E-03 5.29151E-04-6.02390E-15
 -1       531 5.18466E-03 5.27108E-04-6.75343E-15
 -1       532 5.47038E-03 5.25039E-04-7.51999E-15
 -1       533 5.75643E-03 5.23031E-04-8.32401E-15
 -1       534 6.04283E-03 5.21208E-04-9.15915E-15
 -1       535 6.32962E-03 5.19746E-04-1.00244E-14
 -1       536 6.61683E-03 5.18894E-04-1.09181E-14
 -1       537 6.90448E-03 5.18978E-04-1.18362E-14
 -1       538 7.19260E-03 5.20390E-04-1.27807E-14
 -1       539 7.48111E-03 5.23538E-04-1.37529E-14
 -1       540 7.76986E-03 5.28739E-04-1.47519E-14
 -1       541 8.05853E-03 5.36042E-04-1.57728E-14
 -1       542 8.34657E-03 5.44950E-04-1.68163E-14
 -1       543 8.63315E-03 5.54066E-04-1.78835E-14
 -1       544 8.91718E-03 5.60716E-04-1.89695E-14
 -1       545 9.19750E-03 5.60674E-04-2.00773E-14
 -1       546 9.47318E-03 5.48223E-04-2.12119E-14
 -1       547 9.74394E-03 5.16743E-04-2.23769E-14
 -1       548 1.00106E-02 4.59903E-04-2.35694E-14
 -1       549 1.02749E-02 3.73205E-04-2.47849E-14
 -1       550 1.05395E-02 2.55265E-04-2.60216E-14
 -1       551 1.08068E-02 1.08229E-04-2.72845E-14
 -1       552 1.10783E-02-6.28848E-05-2.85843E-14
 -1       553 1.13547E-02-2.51593E-04-2.99267E-14
 -1       554 1.16354E-02-4.51467E-04-3.13038E-14
 -1       555 1.19193E-02-6.57204E-04-3.27032E-14
 -1       556 1.22054E-02-8.65081E-04-3.41279E-14
 -1       557 1.24924E-02-1.07293E-03-3.55647E-14
 -1       558 1.27798E-02-1.27980E-03-3.70226E-14
 -1       559 1.30669E-02-1.48558E-03-3.85085E-14
 -1       560 1.33536E-02-1.69059E-03-4.00294E-14
 -1       561 1.40254E-02-1.98118E-03-4.00637E-14
 -1       562 1.42315E-02-2.06661E-03-4.00360E-14
 -1       563 1.36229E-02-1.81020E-03-4.00994E-14
 -1       564 1.38232E-02-1.89568E-03-4.00839E-14
 -1       565 1.44388E-02-2.15024E-03-4.00136E-14
 -1       566 1.46457E-02-2.23108E-03-3.99951E-14
 -1       567 1.48493E-02-2.30845E-03-3.99766E-14
 -1       568 1.50436E-02-2.38111E-03-3.99567E-14
 -1       569 1.52328E-02-2.45240E-03-3.99355E-14
 -1       570 1.54125E-02-2.52280E-03-3.99169E-14
 -1       571 1.55678E-02-2.58818E-03-3.99208E-14
 -1       572 1.30664E-02-1.11153E-03-2.97429E-14
 -1       573 1.08488E-02 8.17810E-05-2.53021E-14
 -1       574 1.33768E-02-1.21530E-03-3.00052E-14
 -1       575 1.78409E-03 4.80959E-04-7.07388E-16
 -1       576 1.35996E-02-1.45860E-03-2.99287E-14
 -1       577 7.05658E-04-2.49936E-04-2.08709E-16
 -1       578 1.36586E-02-1.42043E-03-2.97657E-14
 -1       579 6.63751E-04-3.65427E-05-2.00022E-16
 -1       580 1.19704E-02-5.05921E-04-2.79357E-14
 -1       581 1.15715E-02-2.47521E-04-2.71009E-14
 -1       582 1.04532E-02 8.00486E-05-2.42343E-14
 -1       583 1.01337E-02-1.73800E-05-2.35190E-14
 -1       584 9.75213E-03-1.69890E-04-2.27816E-14
 -1       585 9.32414E-03-3.55021E-04-2.22509E-14
 -1       586 9.04334E-03-4.60129E-04-2.20074E-14
 -1       587 8.78144E-03-5.38279E-04-2.18167E-14
 -1       588 8.65469E-03-5.64814E-04-2.16578E-14
 -1       589 8.75921E-03-6.16571E-04-2.19803E-14
 -1       590 9.43618E-03-8.72532E-04-2.27082E-14
 -1       591 1.12062E-02-4.37783E-05-2.62519E-14
 -1       592 1.37583E-02-1.30852E-03-3.02899E-14
 -1       593 6.76604E-04-1.60091E-04-2.11633E-16
 -1       594 1.22607E-02-7.18528E-04-2.86980E-14
 -1       595 1.27784E-02-1.00919E-03-2.96184E-14
 -1       596 6.88376E-04-2.02091E-04-2.11992E-16
 -1       597 8.93794E-03-6.54170E-04-2.20805E-14
 -1       598 8.99750E-04 7.40682E-05-3.12216E-16
 -1       599 8.97660E-04 2.51412E-05-3.26396E-16
 -1       600 9.11828E-04 1.78171E-04-2.72697E-16
 -1       601 9.24188E-04 2.36690E-04-2.45270E-16
 -1       602 9.43853E-04 3.01636E-04-2.10542E-16
 -1       603 9.95440E-04 3.47447E-04-2.04809E-16
 -1       604 9.03848E-04-1.22239E-04-3.54846E-16
 -1       605 1.36906E-03-3.35266E-04-7.20856E-16
 -1       606 1.65526E-03-3.66678E-04-1.01992E-15
 -1       607 1.94148E-03-3.88849E-04-1.36813E-15
 -1       608 2.22754E-03-4.03938E-04-1.76478E-15
 -1       609 2.51341E-03-4.13751E-04-2.20780E-15
 -1       610 2.79914E-03-4.19724E-04-2.69678E-15
 -1       611 3.08478E-03-4.22960E-04-3.22751E-15
 -1       612 3.37037E-03-4.24288E-04-3.79707E-15
 -1       613 3.65595E-03-4.24312E-04-4.40563E-15
 -1       614 3.92725E-03-4.23519E-04-5.01688E-15
 -1       615 4.21286E-03-4.22105E-04-5.69973E-15
 -1       616 4.49849E-03-4.20279E-04-6.41934E-15
 -1       617 4.78416E-03-4.18144E-04-7.17530E-15
 -1       618 5.06984E-03-4.15743E-04-7.96340E-15
 -1       619 5.35552E-03-4.13070E-04-8.78095E-15
 -1       620 5.64113E-03-4.10091E-04-9.63326E-15
 -1       621 5.92660E-03-4.06757E-04-1.05156E-14
 -1       622 6.21174E-03-4.03028E-04-1.14254E-14
 -1       623 6.49625E-03-3.98903E-04-1.23586E-14
 -1       624 6.77963E-03-3.94479E-04-1.33097E-14
 -1       625 7.06102E-03-3.90049E-04-1.42785E-14
 -1       626 7.33902E-03-3.86262E-04-1.52605E-14
 -1       627 7.61145E-03-3.84385E-04-1.62532E-14
 -1       628 7.87492E-03-3.86692E-04-1.72586E-14
 -1       629 8.11241E-03-3.96125E-04-1.82203E-14
 -1       630 8.34227E-03-4.19104E-04-1.92346E-14
 -1       631 8.54251E-03-4.62997E-04-2.02502E-14
 -1       632 2.47551E-03 4.48290E-04-1.55872E-15
 -1       633 1.44649E-02-1.77422E-03-3.42270E-14
 -1       634 1.47115E-02-1.95801E-03-3.55121E-14
 -1       635 1.49733E-02-2.15065E-03-3.68176E-14
 -1       636 1.52450E-02-2.34702E-03-3.81408E-14
 -1       637 1.54061E-02-2.46818E-03-3.90265E-14
 -1       638 2.76020E-03 4.55113E-04-1.94621E-15
 -1       639 2.19073E-03 4.37295E-04-1.21419E-15
 -1       640 3.04489E-03 4.58962E-04-2.37734E-15
 -1       641 3.32966E-03 4.60735E-04-2.84884E-15
 -1       642 3.61453E-03 4.61091E-04-3.36079E-15
 -1       643 3.89953E-03 4.60503E-04-3.91356E-15
 -1       644 4.18466E-03 4.59300E-04-4.50802E-15
 -1       645 4.46993E-03 4.57705E-04-5.14529E-15
 -1       646 4.75533E-03 4.55864E-04-5.82128E-15
 -1       647 5.04087E-03 4.53870E-04-6.53657E-15
 -1       648 5.32656E-03 4.51794E-04-7.28886E-15
 -1       649 5.61244E-03 4.49698E-04-8.07795E-15
 -1       650 5.89855E-03 4.47662E-04-8.90089E-15
 -1       651 6.18497E-03 4.45805E-04-9.75434E-15
 -1       652 6.47180E-03 4.44304E-04-1.06363E-14
 -1       653 6.75922E-03 4.43412E-04-1.15436E-14
 -1       654 7.04740E-03 4.43466E-04-1.24767E-14
 -1       655 7.33658E-03 4.44875E-04-1.34350E-14
 -1       656 7.62698E-03 4.48073E-04-1.44176E-14
 -1       657 7.91874E-03 4.53414E-04-1.54223E-14
 -1       658 8.21182E-03 4.60972E-04-1.64510E-14
 -1       659 8.50581E-03 4.70221E-04-1.75049E-14
 -1       660 8.79985E-03 4.79598E-04-1.85776E-14
 -1       661 9.09255E-03 4.85983E-04-1.96665E-14
 -1       662 9.38223E-03 4.84326E-04-2.07822E-14
 -1       663 9.66749E-03 4.67733E-04-2.19257E-14
 -1       664 9.94788E-03 4.28371E-04-2.30970E-14
 -1       665 1.02246E-02 3.59292E-04-2.42941E-14
 -1       666 1.05000E-02 2.56607E-04-2.55113E-14
 -1       667 1.07773E-02 1.20831E-04-2.67504E-14
 -1       668 1.10587E-02-4.33108E-05-2.80251E-14
 -1       669 1.13449E-02-2.28497E-04-2.93388E-14
 -1       670 1.16352E-02-4.27032E-04-3.06851E-14
 -1       671 1.19280E-02-6.32471E-04-3.20598E-14
 -1       672 1.22217E-02-8.40333E-04-3.34594E-14
 -1       673 1.25149E-02-1.04805E-03-3.48741E-14
 -1       674 1.28069E-02-1.25455E-03-3.63093E-14
 -1       675 1.30974E-02-1.45970E-03-3.77683E-14
 -1       676 1.33603E-02-1.63530E-03-3.89265E-14
 -1       677 1.42952E-02-2.02720E-03-3.87649E-14
 -1       678 1.38772E-02-1.85403E-03-3.87777E-14
 -1       679 1.45043E-02-2.10849E-03-3.87615E-14
 -1       680 1.40853E-02-1.94187E-03-3.87714E-14
 -1       681 1.32944E-02-1.25376E-03-3.06841E-14
 -1       682 1.47056E-02-2.18353E-03-3.87559E-14
 -1       683 1.49021E-02-2.25501E-03-3.87472E-14
 -1       684 1.50873E-02-2.32310E-03-3.87449E-14
 -1       685 1.39195E-02-1.39413E-03-3.11201E-14
 -1       686 1.40400E-02-1.46829E-03-3.16684E-14
 -1       687 9.43467E-03-2.36005E-04-2.18956E-14
 -1       688 9.39817E-04-2.67946E-04-3.65122E-16
 -1       689 1.05886E-02 1.18517E-04-2.45971E-14
 -1       690 1.42409E-02-1.60683E-03-3.29605E-14
 -1       691 1.13502E-02-1.56040E-04-2.68653E-14
 -1       692 1.15400E-03-3.05516E-04-5.28748E-16
 -1       693 9.04202E-04 1.24567E-04-2.94642E-16
 -1       694 1.09914E-02 2.75949E-05-2.58622E-14
 -1       695 1.36412E-02-1.34514E-03-3.09163E-14
 -1       696 1.01988E-02 6.77145E-05-2.34613E-14
 -1       697 9.88843E-03-4.12140E-05-2.27110E-14
 -1       698 9.09093E-03-3.81266E-04-2.15082E-14
 -1       699 8.83888E-03-4.68809E-04-2.13217E-14
 -1       700 8.64510E-03-5.05448E-04-2.11023E-14
 -1       701 8.63812E-03-5.25941E-04-2.11708E-14
 -1       702 1.39407E-02-1.38320E-03-3.08228E-14
 -1       703 1.17069E-02-3.83672E-04-2.77378E-14
 -1       704 9.11248E-04-1.75610E-04-3.59901E-16
 -1       705 8.97597E-04-2.31899E-05-3.38041E-16
 -1       706 8.69787E-03-5.26166E-04-2.11174E-14
 -1       707 1.19833E-02-5.80330E-04-2.85007E-14
 -1       708 1.90573E-03 4.20569E-04-9.12024E-16
 -1       709 1.38345E-02-1.41081E-03-3.05960E-14
 -1       710 1.62038E-03 3.96102E-04-6.53825E-16
 -1       711 1.30507E-02-1.17305E-03-3.05601E-14
 -1       712 1.31656E-03 3.65908E-04-4.20850E-16
 -1       713 1.35593E-02-1.72230E-03-3.89226E-14
 -1       714 1.52491E-02-2.39465E-03-3.88873E-14
 -1       715 1.37172E-02-1.78802E-03-3.88499E-14
 -1       716 8.99551E-04-7.18547E-05-3.47504E-16
 -1       717 8.54298E-03-4.78158E-04-2.06142E-14
 -1       718 8.51195E-03-4.60669E-04-2.03030E-14
 -1       719 1.17932E-03 3.12935E-04-3.63496E-16
 -1       720 1.16155E-03 2.43555E-04-4.04794E-16
 -1       721 2.89342E-03 3.82894E-04-2.25547E-15
 -1       722 1.78297E-03-3.08530E-04-1.18309E-15
 -1       723 2.07061E-03-3.24903E-04-1.55115E-15
 -1       724 2.35840E-03-3.35893E-04-1.96534E-15
 -1       725 2.64610E-03-3.42863E-04-2.42554E-15
 -1       726 2.93360E-03-3.46912E-04-2.92820E-15
 -1       727 3.22086E-03-3.48892E-04-3.47062E-15
 -1       728 3.50787E-03-3.49439E-04-4.05189E-15
 -1       729 3.78032E-03-3.49057E-04-4.63948E-15
 -1       730 4.06689E-03-3.48015E-04-5.29502E-15
 -1       731 4.35326E-03-3.46533E-04-5.98904E-15
 -1       732 4.63943E-03-3.44746E-04-6.71944E-15
 -1       733 4.92541E-03-3.42729E-04-7.48336E-15
 -1       734 5.21116E-03-3.40515E-04-8.28016E-15
 -1       735 5.49662E-03-3.38115E-04-9.10954E-15
 -1       736 5.78166E-03-3.35538E-04-9.97296E-15
 -1       737 6.06607E-03-3.32817E-04-1.08661E-14
 -1       738 6.34950E-03-3.30046E-04-1.17822E-14
 -1       739 6.63139E-03-3.27439E-04-1.27188E-14
 -1       740 6.91083E-03-3.25419E-04-1.36736E-14
 -1       741 7.18646E-03-3.24748E-04-1.46455E-14
 -1       742 7.45620E-03-3.26727E-04-1.56295E-14
 -1       743 7.71701E-03-3.33453E-04-1.66263E-14
 -1       744 7.95253E-03-3.47062E-04-1.75843E-14
 -1       745 8.18170E-03-3.73114E-04-1.85990E-14
 -1       746 2.60669E-03 3.78088E-04-1.83705E-15
 -1       747 1.47103E-02-2.00478E-03-3.61429E-14
 -1       748 1.49680E-02-2.19235E-03-3.74660E-14
 -1       749 1.45701E-02-2.06234E-03-3.75602E-14
 -1       750 2.31978E-03 3.70032E-04-1.46145E-15
 -1       751 3.46636E-03 3.86308E-04-3.21277E-15
 -1       752 3.75259E-03 3.86142E-04-3.75291E-15
 -1       753 4.03871E-03 3.85267E-04-4.33434E-15
 -1       754 4.32472E-03 3.83932E-04-4.95633E-15
 -1       755 4.61064E-03 3.82299E-04-5.61782E-15
 -1       756 4.89650E-03 3.80470E-04-6.31949E-15
 -1       757 5.18233E-03 3.78507E-04-7.05615E-15
 -1       758 5.46817E-03 3.76450E-04-7.83288E-15
 -1       759 5.75408E-03 3.74340E-04-8.64258E-15
 -1       760 6.04016E-03 3.72232E-04-9.48480E-15
 -1       761 6.32656E-03 3.70220E-04-1.03547E-14
 -1       762 6.61352E-03 3.68454E-04-1.12515E-14
 -1       763 6.90134E-03 3.67164E-04-1.21739E-14
 -1       764 7.19046E-03 3.66675E-04-1.31197E-14
 -1       765 7.48139E-03 3.67416E-04-1.40886E-14
 -1       766 7.77472E-03 3.69894E-04-1.50791E-14
 -1       767 8.07093E-03 3.74610E-04-1.60917E-14
 -1       768 8.37026E-03 3.81848E-04-1.71307E-14
 -1       769 8.67236E-03 3.91297E-04-1.81899E-14
 -1       770 8.97605E-03 4.01416E-04-1.92633E-14
 -1       771 9.27925E-03 4.08610E-04-2.03577E-14
 -1       772 9.57935E-03 4.06598E-04-2.14812E-14
 -1       773 9.87424E-03 3.86445E-04-2.26326E-14
 -1       774 1.01636E-02 3.38309E-04-2.38108E-14
 -1       775 1.04495E-02 2.54321E-04-2.50140E-14
 -1       776 1.07360E-02 1.32067E-04-2.62331E-14
 -1       777 1.10265E-02-2.46379E-05-2.74823E-14
 -1       778 1.13227E-02-2.07194E-04-2.87691E-14
 -1       779 1.16238E-02-4.05726E-04-3.00847E-14
 -1       780 1.19274E-02-6.11907E-04-3.14303E-14
 -1       781 1.22309E-02-8.20163E-04-3.28049E-14
 -1       782 1.25323E-02-1.02756E-03-3.41996E-14
 -1       783 1.28307E-02-1.23309E-03-3.56128E-14
 -1       784 1.31258E-02-1.43682E-03-3.70475E-14
 -1       785 1.33429E-02-1.57994E-03-3.79797E-14
 -1       786 1.40563E-02-1.48219E-03-3.19694E-14
 -1       787 1.03308E-02 1.40920E-04-2.38250E-14
 -1       788 1.24737E-02-8.91907E-04-2.96959E-14
 -1       789 1.41537E-02-1.90906E-03-3.75519E-14
 -1       790 1.15005E-02-2.85144E-04-2.76055E-14
 -1       791 1.47646E-02-2.12916E-03-3.75719E-14
 -1       792 1.43651E-02-1.98926E-03-3.75556E-14
 -1       793 1.38857E-02-1.45479E-03-3.18659E-14
 -1       794 3.17997E-03 3.85398E-04-2.71396E-15
 -1       795 1.35883E-02-1.39405E-03-3.17087E-14
 -1       796 9.23663E-04-2.20035E-04-3.64268E-16
 -1       797 1.44682E-02-1.82528E-03-3.48396E-14
 -1       798 1.42492E-02-1.65912E-03-3.35584E-14
 -1       799 1.49593E-03-2.85193E-04-8.62642E-16
 -1       800 9.11329E-03-2.65367E-04-2.09783E-14
 -1       801 9.53697E-03-8.77723E-05-2.16984E-14
 -1       802 8.66028E-03-4.44494E-04-2.06373E-14
 -1       803 9.93425E-03 6.46889E-05-2.26334E-14
 -1       804 1.11556E-02-7.36520E-05-2.65913E-14
 -1       805 8.83691E-03-3.80956E-04-2.07168E-14
 -1       806 1.13824E-03 5.90049E-05-4.87996E-16
 -1       807 1.07388E-02 1.04705E-04-2.51770E-14
 -1       808 1.13687E-03 1.15467E-06-5.06698E-16
 -1       809 1.14979E-03 1.79045E-04-4.38177E-16
 -1       810 2.03274E-03 3.57502E-04-1.12825E-15
 -1       811 8.38567E-03-4.17928E-04-1.96261E-14
 -1       812 1.74572E-03 3.38993E-04-8.37976E-16
 -1       813 1.14236E-03 1.17750E-04-4.65536E-16
 -1       814 1.17501E-02-4.55961E-04-2.83693E-14
 -1       815 1.14926E-03-1.76180E-04-5.43612E-16
 -1       816 1.37276E-02-1.73121E-03-3.75342E-14
 -1       817 1.39394E-02-1.82208E-03-3.75413E-14
 -1       818 1.33869E-02-1.33694E-03-3.15890E-14
 -1       819 1.35658E-02-1.66212E-03-3.75903E-14
 -1       820 1.28062E-03-2.63477E-04-6.52961E-16
 -1       821 1.09008E-02 4.35513E-05-2.58942E-14
 -1       822 8.49988E-03-4.34644E-04-2.01467E-14
 -1       823 1.14205E-03-1.15271E-04-5.34288E-16
 -1       824 1.42770E-03 3.12982E-04-5.63856E-16
 -1       825 9.15072E-03-1.13119E-04-2.05693E-14
 -1       826 1.91513E-03-2.47101E-04-1.34815E-15
 -1       827 2.20388E-03-2.58397E-04-1.73427E-15
 -1       828 2.49293E-03-2.65837E-04-2.16537E-15
 -1       829 2.78192E-03-2.70401E-04-2.64014E-15
 -1       830 3.07065E-03-2.72885E-04-3.15522E-15
 -1       831 3.35903E-03-2.73906E-04-3.70887E-15
 -1       832 3.63263E-03-2.73941E-04-4.27244E-15
 -1       833 3.92022E-03-2.73314E-04-4.90178E-15
 -1       834 4.20743E-03-2.72234E-04-5.57006E-15
 -1       835 4.49425E-03-2.70856E-04-6.27411E-15
 -1       836 4.78068E-03-2.69278E-04-7.01257E-15
 -1       837 5.06671E-03-2.67563E-04-7.78527E-15
 -1       838 5.35228E-03-2.65756E-04-8.59433E-15
 -1       839 5.63727E-03-2.63909E-04-9.43701E-15
 -1       840 5.92150E-03-2.62110E-04-1.03115E-14
 -1       841 6.20464E-03-2.60515E-04-1.12126E-14
 -1       842 6.48622E-03-2.59409E-04-1.21344E-14
 -1       843 6.76549E-03-2.59282E-04-1.30746E-14
 -1       844 7.04138E-03-2.60934E-04-1.40359E-14
 -1       845 7.31236E-03-2.65627E-04-1.50108E-14
 -1       846 7.57628E-03-2.75252E-04-1.59965E-14
 -1       847 7.81786E-03-2.91374E-04-1.69458E-14
 -1       848 8.05903E-03-3.18974E-04-1.79582E-14
 -1       849 2.45268E-03 3.00715E-04-1.72049E-15
 -1       850 1.45062E-02-1.95027E-03-3.62343E-14
 -1       851 1.28404E-02-1.11189E-03-3.10003E-14
 -1       852 2.74111E-03 3.06237E-04-2.12698E-15
 -1       853 1.42086E-02-1.70708E-03-3.41632E-14
 -1       854 3.89190E-03 3.10639E-04-4.15682E-15
 -1       855 3.60470E-03 3.11116E-04-3.58736E-15
 -1       856 4.46537E-03 3.08329E-04-5.41393E-15
 -1       857 4.75170E-03 3.06777E-04-6.09974E-15
 -1       858 5.03781E-03 3.05052E-04-6.82395E-15
 -1       859 5.32374E-03 3.03179E-04-7.58504E-15
 -1       860 5.60955E-03 3.01163E-04-8.38313E-15
 -1       861 5.89535E-03 2.99005E-04-9.21428E-15
 -1       862 6.18128E-03 2.96714E-04-1.00766E-14
 -1       863 6.46759E-03 2.94329E-04-1.09636E-14
 -1       864 6.75464E-03 2.91937E-04-1.18755E-14
 -1       865 7.04293E-03 2.89711E-04-1.28105E-14
 -1       866 7.33319E-03 2.87949E-04-1.37649E-14
 -1       867 7.62628E-03 2.87121E-04-1.47430E-14
 -1       868 7.92324E-03 2.87900E-04-1.57401E-14
 -1       869 8.22498E-03 2.91126E-04-1.67635E-14
 -1       870 8.53207E-03 2.97605E-04-1.78068E-14
 -1       871 8.84419E-03 3.07618E-04-1.88675E-14
 -1       872 9.15961E-03 3.19892E-04-1.99440E-14
 -1       873 9.47506E-03 3.30213E-04-2.10443E-14
 -1       874 9.78639E-03 3.30112E-04-2.21752E-14
 -1       875 1.00912E-02 3.06765E-04-2.33357E-14
 -1       876 1.03888E-02 2.47171E-04-2.45221E-14
 -1       877 1.06849E-02 1.43158E-04-2.57267E-14
 -1       878 1.09841E-02-4.19084E-06-2.69573E-14
 -1       879 1.12905E-02-1.85213E-04-2.82143E-14
 -1       880 1.16034E-02-3.86159E-04-2.95050E-14
 -1       881 1.19195E-02-5.95328E-04-3.08242E-14
 -1       882 1.22348E-02-8.05252E-04-3.21691E-14
 -1       883 1.25463E-02-1.01259E-03-3.35418E-14
 -1       884 1.28524E-02-1.21660E-03-3.49325E-14
 -1       885 1.31533E-02-1.41815E-03-3.63447E-14
 -1       886 1.00402E-02 1.68002E-04-2.29080E-14
 -1       887 3.31717E-03 3.10820E-04-3.06034E-15
 -1       888 1.41202E-03 2.39972E-04-6.11344E-16
 -1       889 1.38779E-02-1.52368E-03-3.27096E-14
 -1       890 1.21983E-02-7.48442E-04-2.95667E-14
 -1       891 1.62725E-03-2.30819E-04-1.00780E-15
 -1       892 9.57573E-03 5.68033E-05-2.15193E-14
 -1       893 1.13805E-03-5.65236E-05-5.22033E-16
 -1       894 1.34535E-02-1.62035E-03-3.77821E-14
 -1       895 3.02929E-03 3.09370E-04-2.57401E-15
 -1       896 1.13040E-02-1.77928E-04-2.73106E-14
 -1       897 8.43407E-03-4.26016E-04-1.98866E-14
 -1       898 8.80624E-03-2.74898E-04-2.00965E-14
 -1       899 8.59416E-03-3.61554E-04-1.99119E-14
 -1       900 4.17878E-03 3.09652E-04-4.76566E-15
 -1       901 8.28066E-03-3.64100E-04-1.89838E-14
 -1       902 1.04882E-02 1.63828E-04-2.44424E-14
 -1       903 1.43511E-02-1.82592E-03-3.51919E-14
 -1       904 1.87587E-03 2.78589E-04-1.03559E-15
 -1       905 1.38101E-03 3.40512E-05-7.03363E-16
 -1       906 2.16417E-03 2.91884E-04-1.35688E-15
 -1       907 1.15314E-02-3.25608E-04-2.80712E-14
 -1       908 1.25764E-02-9.82220E-04-3.08812E-14
 -1       909 1.35769E-02-1.61336E-03-3.63209E-14
 -1       910 1.40156E-02-1.79590E-03-3.63624E-14
 -1       911 1.36284E-03-1.94491E-04-7.35153E-16
 -1       912 1.38416E-03 9.97719E-05-6.76108E-16
 -1       913 1.37944E-02-1.70760E-03-3.63404E-14
 -1       914 1.34119E-02-1.54033E-03-3.63692E-14
 -1       915 1.42482E-02-1.85975E-03-3.60611E-14
 -1       916 1.37151E-02-1.48257E-03-3.25948E-14
 -1       917 1.10471E-02-3.52158E-05-2.66028E-14
 -1       918 1.01984E-02 2.18907E-04-2.35095E-14
 -1       919 1.06574E-02 1.36343E-04-2.52062E-14
 -1       920 1.76235E-03-1.72120E-04-1.15593E-15
 -1       921 1.64290E-03 1.95824E-04-8.61365E-16
 -1       922 1.38094E-03-3.13115E-05-7.26300E-16
 -1       923 2.05107E-03-1.82424E-04-1.51386E-15
 -1       924 2.34072E-03-1.89456E-04-1.91640E-15
 -1       925 2.63067E-03-1.93966E-04-2.36307E-15
 -1       926 2.92053E-03-1.96605E-04-2.85035E-15
 -1       927 3.21006E-03-1.97903E-04-3.37754E-15
 -1       928 3.48469E-03-1.98265E-04-3.91527E-15
 -1       929 3.77327E-03-1.98020E-04-4.52012E-15
 -1       930 4.06131E-03-1.97349E-04-5.16198E-15
 -1       931 4.34883E-03-1.96404E-04-5.83994E-15
 -1       932 4.63581E-03-1.95291E-04-6.55314E-15
 -1       933 4.92226E-03-1.94086E-04-7.30146E-15
 -1       934 5.20814E-03-1.92855E-04-8.08694E-15
 -1       935 5.49336E-03-1.91675E-04-8.90920E-15
 -1       936 5.77778E-03-1.90660E-04-9.76379E-15
 -1       937 6.06116E-03-1.89994E-04-1.06468E-14
 -1       938 6.34317E-03-1.89984E-04-1.15544E-14
 -1       939 6.62329E-03-1.91115E-04-1.24837E-14
 -1       940 6.90082E-03-1.94140E-04-1.34301E-14
 -1       941 7.17483E-03-2.00175E-04-1.43954E-14
 -1       942 7.44414E-03-2.10805E-04-1.53714E-14
 -1       943 7.69440E-03-2.27071E-04-1.63097E-14
 -1       944 7.95068E-03-2.53110E-04-1.73139E-14
 -1       945 8.38952E-03-3.64027E-04-1.93369E-14
 -1       946 2.58896E-03 2.29528E-04-1.99134E-15
 -1       947 3.16761E-03 2.34796E-04-2.90286E-15
 -1       948 9.18144E-03 4.09851E-05-2.03101E-14
 -1       949 8.19586E-03-2.95090E-04-1.83376E-14
 -1       950 1.39083E-03 1.56334E-04-6.50311E-16
 -1       951 4.89314E-03 2.31305E-04-6.58922E-15
 -1       952 4.60664E-03 2.32679E-04-5.87876E-15
 -1       953 5.46511E-03 2.28008E-04-8.12118E-15
 -1       954 5.75072E-03 2.26025E-04-8.94249E-15
 -1       955 6.03622E-03 2.23746E-04-9.79513E-15
 -1       956 6.32182E-03 2.21105E-04-1.06755E-14
 -1       957 6.60784E-03 2.18046E-04-1.15785E-14
 -1       958 6.89476E-03 2.14556E-04-1.25037E-14
 -1       959 7.18330E-03 2.10709E-04-1.34468E-14
 -1       960 7.47450E-03 2.06755E-04-1.44136E-14
 -1       961 7.76967E-03 2.03236E-04-1.54000E-14
 -1       962 8.07041E-03 2.01127E-04-1.64055E-14
 -1       963 8.37830E-03 2.01913E-04-1.74348E-14
 -1       964 8.69418E-03 2.07429E-04-1.84807E-14
 -1       965 9.01857E-03 2.19087E-04-1.95387E-14
 -1       966 9.34785E-03 2.36162E-04-2.06195E-14
 -1       967 9.67783E-03 2.53385E-04-2.17296E-14
 -1       968 1.15762E-02-3.65951E-04-2.89445E-14
 -1       969 1.19071E-02-5.81953E-04-3.02388E-14
 -1       970 1.22365E-02-7.95992E-04-3.15561E-14
 -1       971 1.25596E-02-1.00407E-03-3.29019E-14
 -1       972 1.28746E-02-1.20638E-03-3.42678E-14
 -1       973 1.19400E-02-5.93835E-04-2.92719E-14
 -1       974 1.40879E-02-1.74204E-03-3.50112E-14
 -1       975 3.45635E-03 2.35487E-04-3.41729E-15
 -1       976 1.32765E-02-1.33604E-03-3.23126E-14
 -1       977 1.49794E-03-1.42798E-04-8.64539E-16
 -1       978 2.87844E-03 2.32973E-04-2.42752E-15
 -1       979 8.76620E-03-1.38252E-04-1.94713E-14
 -1       980 5.17928E-03 2.29754E-04-7.33655E-15
 -1       981 3.74462E-03 2.35406E-04-3.97403E-15
 -1       982 8.49866E-03-2.59850E-04-1.91153E-14
 -1       983 9.68138E-03 1.91702E-04-2.17408E-14
 -1       984 1.38623E-02-1.67316E-03-3.50619E-14
 -1       985 2.29940E-03 2.23831E-04-1.59739E-15
 -1       986 1.23133E-02-8.32875E-04-3.05922E-14
 -1       987 1.32220E-02-1.40621E-03-3.51421E-14
 -1       988 8.80488E-03 4.39726E-06-1.92060E-14
 -1       989 4.31975E-03 2.33864E-04-5.20630E-15
 -1       990 1.12501E-02-1.58964E-04-2.76784E-14
 -1       991 2.01009E-03 2.15092E-04-1.24548E-15
 -1       992 1.39237E-02-1.61332E-03-3.37727E-14
 -1       993 1.36274E-02-1.58311E-03-3.50281E-14
 -1       994 1.30225E-02-1.22924E-03-3.22059E-14
 -1       995 1.34193E-02-1.49619E-03-3.50808E-14
 -1       996 1.62750E-03 1.51204E-06-9.57642E-16
 -1       997 1.62924E-03 7.30318E-05-9.25468E-16
 -1       998 4.03241E-03 2.34807E-04-4.57101E-15
 -1       999 1.90086E-03-1.09220E-04-1.30585E-15
 -1      1000 2.19038E-03-1.14669E-04-1.67984E-15
 -1      1001 2.48072E-03-1.18289E-04-2.09759E-15
 -1      1002 2.77126E-03-1.20526E-04-2.55757E-15
 -1      1003 3.06162E-03-1.21743E-04-3.05814E-15
 -1      1004 3.33706E-03-1.22224E-04-3.56991E-15
 -1      1005 3.62647E-03-1.22240E-04-4.14806E-15
 -1      1006 3.91527E-03-1.21920E-04-4.76359E-15
 -1      1007 4.20345E-03-1.21387E-04-5.41685E-15
 -1      1008 4.49100E-03-1.20731E-04-6.10424E-15
 -1      1009 4.77793E-03-1.20024E-04-6.82828E-15
 -1      1010 5.06422E-03-1.19334E-04-7.58804E-15
 -1      1011 5.34983E-03-1.18745E-04-8.38697E-15
 -1      1012 5.63466E-03-1.18373E-04-9.22237E-15
 -1      1013 5.91857E-03-1.18401E-04-1.00881E-14
 -1      1014 6.20137E-03-1.19114E-04-1.09798E-14
 -1      1015 6.48275E-03-1.20943E-04-1.18957E-14
 -1      1016 6.76236E-03-1.24528E-04-1.28270E-14
 -1      1017 7.03978E-03-1.30777E-04-1.37804E-14
 -1      1018 7.31457E-03-1.40912E-04-1.47485E-14
 -1      1019 7.57295E-03-1.55529E-04-1.56770E-14
 -1      1020 7.84230E-03-1.77772E-04-1.66698E-14
 -1      1021 1.37315E-02-1.56717E-03-3.38977E-14
 -1      1022 3.01837E-03 1.58546E-04-2.73930E-15
 -1      1023 1.63478E-03 1.33893E-04-8.95951E-16
 -1      1024 1.25766E-02-1.00268E-03-3.22831E-14
 -1      1025 4.74849E-03 1.57161E-04-6.35229E-15
 -1      1026 5.89165E-03 1.51153E-04-9.50958E-15
 -1      1027 5.60645E-03 1.53126E-04-8.66760E-15
 -1      1028 6.46159E-03 1.45479E-04-1.12814E-14
 -1      1029 6.74692E-03 1.41413E-04-1.21988E-14
 -1      1030 7.03319E-03 1.36290E-04-1.31346E-14
 -1      1031 7.32133E-03 1.30035E-04-1.40893E-14
 -1      1032 7.61267E-03 1.22810E-04-1.50649E-14
 -1      1033 7.90907E-03 1.15250E-04-1.60585E-14
 -1      1034 8.21290E-03 1.08785E-04-1.70723E-14
 -1      1035 8.52681E-03 1.05754E-04-1.81059E-14
 -1      1036 1.18939E-02-5.70323E-04-2.96726E-14
 -1      1037 1.29009E-02-1.20300E-03-3.36217E-14
 -1      1038 3.59733E-03 1.59653E-04-3.78659E-15
 -1      1039 5.03493E-03 1.56045E-04-7.08600E-15
 -1      1040 1.22400E-02-7.92528E-04-3.09658E-14
 -1      1041 6.17662E-03 1.48662E-04-1.03827E-14
 -1      1042 8.10668E-03-2.14065E-04-1.76883E-14
 -1      1043 5.32090E-03 1.54722E-04-7.85680E-15
 -1      1044 8.41852E-03-1.44380E-04-1.84214E-14
 -1      1045 1.69248E-03-8.33599E-05-1.05733E-15
 -1      1046 2.00190E-03 1.48347E-04-1.29005E-15
 -1      1047 2.72823E-03 1.56694E-04-2.27429E-15
 -1      1048 3.30811E-03 1.59433E-04-3.24314E-15
 -1      1049 2.43793E-03 1.53470E-04-1.85081E-15
 -1      1050 4.46154E-03 1.58106E-04-5.65568E-15
 -1      1051 1.34771E-02-1.47490E-03-3.38534E-14
 -1      1052 1.87715E-03 3.97475E-05-1.21446E-15
 -1      1053 3.88597E-03 1.59416E-04-4.37133E-15
 -1      1054 1.27548E-02-1.09394E-03-3.19255E-14
 -1      1055 1.88739E-03-3.44631E-05-1.26242E-15
 -1      1056 1.35742E-02-1.47452E-03-3.30969E-14
 -1      1057 5.17704E-03 8.11480E-05-7.59127E-15
 -1      1058 2.33275E-03-4.41223E-05-1.84436E-15
 -1      1059 2.62351E-03-4.52236E-05-2.27654E-15
 -1      1060 2.91432E-03-4.58411E-05-2.74913E-15
 -1      1061 3.19030E-03-4.61146E-05-3.23575E-15
 -1      1062 3.48030E-03-4.61717E-05-3.78633E-15
 -1      1063 3.76969E-03-4.60683E-05-4.37513E-15
 -1      1064 4.05842E-03-4.58708E-05-5.00157E-15
 -1      1065 4.34646E-03-4.56266E-05-5.66560E-15
 -1      1066 4.63386E-03-4.53780E-05-6.36516E-15
 -1      1067 4.92057E-03-4.51841E-05-7.09945E-15
 -1      1068 5.20661E-03-4.51109E-05-7.87295E-15
 -1      1069 5.49194E-03-4.52621E-05-8.68511E-15
 -1      1070 5.77648E-03-4.57945E-05-9.53121E-15
 -1      1071 6.06015E-03-4.69451E-05-1.04065E-14
 -1      1072 6.34284E-03-4.90633E-05-1.13084E-14
 -1      1073 6.62442E-03-5.26473E-05-1.22295E-14
 -1      1074 6.90484E-03-5.83763E-05-1.31669E-14
 -1      1075 7.18416E-03-6.71188E-05-1.41241E-14
 -1      1076 7.44881E-03-7.91421E-05-1.50456E-14
 -1      1077 7.72757E-03-9.66519E-05-1.60271E-14
 -1      1078 8.00554E-03-1.25926E-04-1.70396E-14
 -1      1079 1.93869E-03 9.33373E-05-1.25423E-15
 -1      1080 4.17403E-03 1.58868E-04-4.99481E-15
 -1      1081 6.88433E-03 6.46467E-05-1.28203E-14
 -1      1082 6.60033E-03 7.00345E-05-1.18894E-14
 -1      1083 7.45550E-03 4.78792E-05-1.47333E-14
 -1      1084 7.74531E-03 3.61837E-05-1.57165E-14
 -1      1085 8.04092E-03 2.29598E-05-1.67177E-14
 -1      1086 8.34590E-03 1.05985E-05-1.77395E-14
 -1      1087 1.31458E-02-1.32511E-03-3.36500E-14
 -1      1088 4.89083E-03 8.19396E-05-6.83266E-15
 -1      1089 5.46267E-03 8.01020E-05-8.38891E-15
 -1      1090 2.10974E-03-3.93836E-05-1.54047E-15
 -1      1091 2.87013E-03 8.25054E-05-2.57032E-15
 -1      1092 7.16904E-03 5.73642E-05-1.37692E-14
 -1      1093 5.74774E-03 7.86795E-05-9.22127E-15
 -1      1094 2.14680E-03 4.84736E-05-1.53919E-15
 -1      1095 3.16056E-03 8.32496E-05-3.06365E-15
 -1      1096 4.60403E-03 8.25522E-05-6.11269E-15
 -1      1097 6.31644E-03 7.39266E-05-1.09769E-14
 -1      1098 3.73986E-03 8.35746E-05-4.16794E-15
 -1      1099 2.57942E-03 8.11491E-05-2.11718E-15
 -1      1100 6.03230E-03 7.67026E-05-1.00851E-14
 -1      1101 3.45051E-03 8.35618E-05-3.59620E-15
 -1      1102 4.20244E-03 2.99433E-05-5.23493E-15
 -1      1103 2.20871E-03 1.04385E-04-1.58099E-15
 -1      1104 3.97126E-03 5.67253E-05-4.68737E-15
 -1      1105 0.00000E+00 0.00000E+00 0.00000E+00
 -1      1106 0.00000E+00 0.00000E+00 0.00000E+00
 -1      1107 0.00000E+00 0.00000E+00 0.00000E+00
 -1      1108 0.00000E+00 0.00000E+00 0.00000E+00
 -1      1109 0.00000E+00 0.00000E+00 0.00000E+00
 -1      1110 0.00000E+00 0.00000E+00 0.00000E+00
 -1      1111 0.00000E+00 0.00000E+00 0.00000E+00
 -1      1112 0.00000E+00 0.00000E+00 0.00000E+00
 -1      1113 0.00000E+00 0.00000E+00 0.00000E+00
 -1      1114 0.00000E+00 0.00000E+00 0.00000E+00
 -1      1115 0.00000E+00 0.00000E+00 0.00000E+00
 -1      1116 0.00000E+00 0.00000E+00 0.00000E+00
 -1      1117 0.00000E+00 0.00000E+00 0.00000E+00
 -1      1118 0.00000E+00 0.00000E+00 0.00000E+00
 -1      1119 0.00000E+00 0.00000E+00 0.00000E+00
 -1      1120 0.00000E+00 0.00000E+00 0.00000E+00
 -1      1121 0.00000E+00 0.00000E+00 0.00000E+00
 -1      1122 2.02762E-04-1.43054E-04-1.23328E-18
 -1      1123 5.37058E-04-3.30302E-04-4.04001E-17
 -1      1124 8.19884E-04-4.54140E-04-1.35525E-16
 -1      1125 1.08981E-03-5.37312E-04-2.95716E-16
 -1      1126 1.35537E-03-5.95537E-04-5.17354E-16
 -1      1127 1.62020E-03-6.36939E-04-7.98434E-16
 -1      1128 1.88622E-03-6.66269E-04-1.13548E-15
 -1      1129 2.15433E-03-6.86701E-04-1.52673E-15
 -1      1130 2.42484E-03-7.00556E-04-1.97109E-15
 -1      1131 2.69775E-03-7.09585E-04-2.46416E-15
 -1      1132 2.97291E-03-7.15115E-04-3.00442E-15
 -1      1133 3.25008E-03-7.18145E-04-3.58603E-15
 -1      1134 3.52900E-03-7.19417E-04-4.20759E-15
 -1      1135 3.80939E-03-7.19468E-04-4.86608E-15
 -1      1136 4.09102E-03-7.18679E-04-5.56314E-15
 -1      1137 4.36659E-03-7.17343E-04-6.27901E-15
 -1      1138 4.64298E-03-7.15594E-04-7.02686E-15
 -1      1139 4.92720E-03-7.13449E-04-7.82654E-15
 -1      1140 5.21210E-03-7.10967E-04-8.65998E-15
 -1      1141 5.49771E-03-7.08119E-04-9.52626E-15
 -1      1142 5.78412E-03-7.04829E-04-1.04148E-14
 -1      1143 6.07157E-03-7.00992E-04-1.13301E-14
 -1      1144 6.36047E-03-6.96474E-04-1.22749E-14
 -1      1145 6.65152E-03-6.91134E-04-1.32445E-14
 -1      1146 6.94581E-03-6.84866E-04-1.42310E-14
 -1      1147 7.24512E-03-6.77686E-04-1.52313E-14
 -1      1148 7.55223E-03-6.69946E-04-1.62395E-14
 -1      1149 7.87150E-03-6.62775E-04-1.72491E-14
 -1      1150 8.20960E-03-6.59075E-04-1.82615E-14
 -1      1151 8.57629E-03-6.65619E-04-1.92733E-14
 -1      1152 8.97404E-03-6.95911E-04-2.02624E-14
 -1      1153 9.42561E-03-7.77298E-04-2.12488E-14
 -1      1154 9.95339E-03-9.64612E-04-2.22521E-14
 -1      1155 1.05130E-02-1.30939E-03-2.32349E-14
 -1      1156 1.10464E-02-1.82950E-03-2.42251E-14
 -1      1157 1.14383E-02-2.37356E-03-2.52021E-14
 -1      1158 1.16593E-02-2.66109E-03-2.60951E-14
 -1      1159 1.18436E-02-2.62748E-03-2.69366E-14
 -1      1160 1.21243E-02-2.36753E-03-2.78319E-14
 -1      1161 1.25862E-02-2.01496E-03-2.88991E-14
 -1      1162 1.31447E-02-1.77748E-03-3.00574E-14
 -1      1163 1.36706E-02-1.71943E-03-3.12125E-14
 -1      1164 1.41519E-02-1.78730E-03-3.24112E-14
 -1      1165 1.45833E-02-1.93191E-03-3.36510E-14
 -1      1166 1.49648E-02-2.11281E-03-3.49128E-14
 -1      1167 1.53110E-02-2.30873E-03-3.61911E-14
 -1      1168 1.56330E-02-2.50926E-03-3.74668E-14
 -1      1169 1.59389E-02-2.70935E-03-3.87398E-14
 -1      1170 1.62341E-02-2.90627E-03-4.00186E-14
 -1      1171 1.65228E-02-3.09844E-03-4.13150E-14
 -1      1172 1.68014E-02-3.28127E-03-4.26017E-14
 -1      1173 2.28425E-04 1.60699E-04 1.83230E-17
 -1      1174 5.53818E-04 3.42121E-04 3.04119E-17
 -1      1175 8.34413E-04 4.61132E-04 5.65140E-18
 -1      1176 1.10398E-03 5.42315E-04-6.27211E-17
 -1      1177 1.36943E-03 5.99534E-04-1.77294E-16
 -1      1178 1.63433E-03 6.40312E-04-3.39233E-16
 -1      1179 1.90050E-03 6.69224E-04-5.48918E-16
 -1      1180 2.16877E-03 6.89386E-04-8.01225E-16
 -1      1181 2.43943E-03 7.03078E-04-1.09550E-15
 -1      1182 2.71249E-03 7.12025E-04-1.43546E-15
 -1      1183 2.98778E-03 7.17533E-04-1.82345E-15
 -1      1184 3.26508E-03 7.20589E-04-2.25571E-15
 -1      1185 3.54413E-03 7.21928E-04-2.73081E-15
 -1      1186 3.82465E-03 7.22085E-04-3.24938E-15
 -1      1187 4.10642E-03 7.21448E-04-3.81299E-15
 -1      1188 4.38923E-03 7.20288E-04-4.42262E-15
 -1      1189 4.67293E-03 7.18792E-04-5.07335E-15
 -1      1190 4.95739E-03 7.17094E-04-5.76393E-15
 -1      1191 5.24253E-03 7.15296E-04-6.49707E-15
 -1      1192 5.52833E-03 7.13494E-04-7.26846E-15
 -1      1193 5.81476E-03 7.11796E-04-8.07206E-15
 -1      1194 6.10182E-03 7.10347E-04-8.90337E-15
 -1      1195 6.38949E-03 7.09343E-04-9.76354E-15
 -1      1196 6.67770E-03 7.09043E-04-1.06600E-14
 -1      1197 6.96624E-03 7.09765E-04-1.15838E-14
 -1      1198 7.25476E-03 7.11847E-04-1.25354E-14
 -1      1199 7.54260E-03 7.15583E-04-1.35166E-14
 -1      1200 7.82878E-03 7.21080E-04-1.45255E-14
 -1      1201 8.11192E-03 7.28056E-04-1.55569E-14
 -1      1202 8.39025E-03 7.35569E-04-1.66172E-14
 -1      1203 8.66176E-03 7.41713E-04-1.76982E-14
 -1      1204 8.92449E-03 7.43377E-04-1.88052E-14
 -1      1205 9.17696E-03 7.36192E-04-1.99378E-14
 -1      1206 9.41871E-03 7.14816E-04-2.10895E-14
 -1      1207 9.65073E-03 6.73624E-04-2.22687E-14
 -1      1208 9.87562E-03 6.07727E-04-2.34831E-14
 -1      1209 1.00973E-02 5.14051E-04-2.47271E-14
 -1      1210 1.03203E-02 3.92085E-04-2.59992E-14
 -1      1211 1.05489E-02 2.44005E-04-2.72947E-14
 -1      1212 1.07862E-02 7.41218E-05-2.86271E-14
 -1      1213 1.10338E-02-1.12134E-04-2.99972E-14
 -1      1214 1.12915E-02-3.09296E-04-3.14051E-14
 -1      1215 1.15583E-02-5.12705E-04-3.28430E-14
 -1      1216 1.18322E-02-7.18934E-04-3.43117E-14
 -1      1217 1.21112E-02-9.25841E-04-3.58044E-14
 -1      1218 1.23935E-02-1.13237E-03-3.73059E-14
 -1      1219 1.26777E-02-1.33821E-03-3.88258E-14
 -1      1220 1.29627E-02-1.54349E-03-4.03756E-14
 -1      1221 1.32482E-02-1.74843E-03-4.19458E-14
 -1      1222 1.35268E-02-1.94806E-03-4.34892E-14
 -1      1223 1.37631E-02-2.08741E-03-4.42231E-14
 -1      1224 1.39642E-02-2.17171E-03-4.41980E-14
 -1      1225 1.41654E-02-2.25616E-03-4.41601E-14
 -1      1226 1.43669E-02-2.34069E-03-4.41106E-14
 -1      1227 1.45693E-02-2.42490E-03-4.40434E-14
 -1      1228 1.47711E-02-2.50732E-03-4.39888E-14
 -1      1229 1.49739E-02-2.58773E-03-4.39451E-14
 -1      1230 1.51784E-02-2.66583E-03-4.38750E-14
 -1      1231 1.53815E-02-2.74028E-03-4.37930E-14
 -1      1232 1.55811E-02-2.81112E-03-4.37140E-14
 -1      1233 1.57754E-02-2.87921E-03-4.36270E-14
 -1      1234 1.59615E-02-2.94575E-03-4.35626E-14
 -1      1235 1.61411E-02-3.01356E-03-4.35197E-14
 -1      1236 1.63174E-02-3.08550E-03-4.34582E-14
 -1      1237 1.64920E-02-3.16244E-03-4.33880E-14
 -1      1238 1.66685E-02-3.24415E-03-4.33098E-14
 -1      1239 1.68474E-02-3.32783E-03-4.32618E-14
 -1      1240 1.37536E-02-1.06544E-03-2.85079E-14
 -1      1241 1.35380E-02-8.95837E-04-2.83428E-14
 -1      1242 1.32330E-02-7.22033E-04-2.80699E-14
 -1      1243 1.28157E-02-5.25785E-04-2.76512E-14
 -1      1244 1.23456E-02-3.36348E-04-2.71341E-14
 -1      1245 1.18926E-02-1.86572E-04-2.66041E-14
 -1      1246 1.14340E-02-7.30795E-05-2.60505E-14
 -1      1247 1.09564E-02-5.40869E-06-2.54689E-14
 -1      1248 1.04815E-02 8.32588E-06-2.48907E-14
 -1      1249 1.00315E-02-3.21148E-05-2.43609E-14
 -1      1250 9.60991E-03-1.17065E-04-2.38956E-14
 -1      1251 9.24457E-03-2.31803E-04-2.35392E-14
 -1      1252 8.95968E-03-3.61814E-04-2.33018E-14
 -1      1253 8.76934E-03-5.02353E-04-2.31800E-14
 -1      1254 8.68760E-03-6.55890E-04-2.31603E-14
 -1      1255 8.72289E-03-8.23519E-04-2.32441E-14
 -1      1256 8.87312E-03-1.01766E-03-2.34400E-14
 -1      1257 9.13343E-03-1.24991E-03-2.37361E-14
 -1      1258 9.50302E-03-1.53028E-03-2.41179E-14
 -1      1259 9.99802E-03-1.86151E-03-2.46100E-14
 -1      1260 1.05935E-02-2.18240E-03-2.51920E-14
 -1      1261 1.12033E-02-2.38947E-03-2.57762E-14
 -1      1262 1.17647E-02-2.43724E-03-2.63166E-14
 -1      1263 1.23046E-02-2.34491E-03-2.68489E-14
 -1      1264 1.27913E-02-2.16068E-03-2.73318E-14
 -1      1265 1.31929E-02-1.94685E-03-2.77464E-14
 -1      1266 1.35085E-02-1.73574E-03-2.80949E-14
 -1      1267 1.37244E-02-1.54874E-03-2.83420E-14
 -1      1268 1.38419E-02-1.38204E-03-2.84928E-14
 -1      1269 1.38553E-02-1.22655E-03-2.85558E-14
 -1      1270 1.58734E-04-1.05126E-04-9.16151E-18
 -1      1271 1.12508E-04-5.69448E-05-1.71982E-17
 -1      1272 1.17556E-04-6.74888E-05-1.49349E-17
 -1      1273 1.08419E-04-4.34910E-05-2.05727E-17
 -1      1274 1.10283E-04-4.95952E-05-1.96783E-17
 -1      1275 2.26309E-04-1.07622E-04-4.62819E-17
 -1      1276 1.06849E-04-3.36234E-05-2.16434E-17
 -1      1277 1.07693E-04-3.83483E-05-2.14537E-17
 -1      1278 2.19105E-04-8.24812E-05-5.16487E-17
 -1      1279 1.06068E-04-2.53517E-05-2.19415E-17
 -1      1280 1.06502E-04-2.93846E-05-2.19958E-17
 -1      1281 2.15886E-04-6.32913E-05-5.35325E-17
 -1      1282 1.05658E-04-1.80934E-05-2.17383E-17
 -1      1283 1.05889E-04-2.16615E-05-2.19280E-17
 -1      1284 2.14214E-04-4.71920E-05-5.38442E-17
 -1      1285 1.05436E-04-1.12416E-05-2.12368E-17
 -1      1286 1.05560E-04-1.46267E-05-2.14265E-17
 -1      1287 2.13291E-04-3.27576E-05-5.30852E-17
 -1      1288 1.05336E-04-4.69249E-06-2.03966E-17
 -1      1289 1.05389E-04-7.94527E-06-2.05863E-17
 -1      1290 2.12791E-04-1.91954E-05-5.14725E-17
 -1      1291 1.05324E-04 1.73817E-06-1.96647E-17
 -1      1292 1.05322E-04-1.47455E-06-1.98816E-17
 -1      1293 2.12575E-04-6.16792E-06-4.97784E-17
 -1      1294 1.05397E-04 8.21845E-06-1.88787E-17
 -1      1295 1.05340E-04 4.95932E-06-1.91362E-17
 -1      1296 2.12583E-04 6.69809E-06-4.79759E-17
 -1      1297 1.05575E-04 1.49244E-05-1.76183E-17
 -1      1298 1.05447E-04 1.15250E-05-1.80113E-17
 -1      1299 2.12815E-04 1.97510E-05-4.55907E-17
 -1      1300 1.05910E-04 2.19419E-05-1.59378E-17
 -1      1301 1.05674E-04 1.83513E-05-1.64799E-17
 -1      1302 2.13328E-04 3.32509E-05-4.23516E-17
 -1      1303 1.06536E-04 2.98072E-05-1.36609E-17
 -1      1304 1.06095E-04 2.57308E-05-1.44063E-17
 -1      1305 2.14272E-04 4.77762E-05-3.80284E-17
 -1      1306 1.07735E-04 3.89057E-05-1.06387E-17
 -1      1307 1.06882E-04 3.41101E-05-1.17771E-17
 -1      1308 2.15986E-04 6.41849E-05-3.24990E-17
 -1      1309 1.10270E-04 5.03422E-05-5.90890E-18
 -1      1310 1.08436E-04 4.41599E-05-7.94178E-18
 -1      1311 2.19228E-04 8.36939E-05-2.47063E-17
 -1      1312 1.16933E-04 6.76069E-05 7.58942E-19
 -1      1313 1.12182E-04 5.77616E-05-2.34459E-18
 -1      1314 2.26314E-04 1.09428E-04-1.38371E-17
 -1      1315 1.57581E-04 1.09848E-04 1.03406E-17
 -1      1316 1.35664E-04 8.60785E-05 4.63496E-18
 -1      1317 2.56040E-04 1.52069E-04-1.47723E-18
 -1      1318 3.35091E-04 2.20714E-04 1.52059E-17
 -1      1319 4.06129E-04-2.53616E-04-4.08880E-17
 -1      1320 5.59767E-04-3.30209E-04-7.43492E-17
 -1      1321 7.07429E-04-3.91998E-04-1.24914E-16
 -1      1322 8.50969E-04-4.42240E-04-1.90806E-16
 -1      1323 5.97270E-04-3.25000E-04-1.12459E-16
 -1      1324 9.91253E-04-4.84050E-04-2.71484E-16
 -1      1325 1.12928E-03-5.18631E-04-3.67585E-16
 -1      1326 8.91092E-04-4.27478E-04-2.46764E-16
 -1      1327 1.26590E-03-5.47901E-04-4.78201E-16
 -1      1328 1.40162E-03-5.72347E-04-6.03575E-16
 -1      1329 1.17392E-03-4.98115E-04-4.39265E-16
 -1      1330 1.53691E-03-5.93063E-04-7.43532E-16
 -1      1331 1.67203E-03-6.10387E-04-8.97394E-16
 -1      1332 1.45106E-03-5.47734E-04-6.89309E-16
 -1      1333 1.80722E-03-6.24961E-04-1.06511E-15
 -1      1334 1.94261E-03-6.37080E-04-1.24620E-15
 -1      1335 1.72584E-03-5.82646E-04-9.95745E-16
 -1      1336 2.07831E-03-6.47156E-04-1.44036E-15
 -1      1337 2.21439E-03-6.55440E-04-1.64787E-15
 -1      1338 2.00018E-03-6.06907E-04-1.35551E-15
 -1      1339 2.35088E-03-6.62212E-04-1.86808E-15
 -1      1340 2.48781E-03-6.67679E-04-2.10076E-15
 -1      1341 2.27511E-03-6.23378E-04-1.76703E-15
 -1      1342 2.62520E-03-6.72041E-04-2.34583E-15
 -1      1343 2.76302E-03-6.75464E-04-2.60206E-15
 -1      1344 2.55111E-03-6.34164E-04-2.22894E-15
 -1      1345 2.90129E-03-6.78088E-04-2.86979E-15
 -1      1346 3.03997E-03-6.80046E-04-3.14841E-15
 -1      1347 2.82840E-03-6.40840E-04-2.73803E-15
 -1      1348 3.17906E-03-6.81437E-04-3.43725E-15
 -1      1349 3.31852E-03-6.82363E-04-3.73611E-15
 -1      1350 3.10700E-03-6.44587E-04-3.29077E-15
 -1      1351 3.45833E-03-6.82892E-04-4.04451E-15
 -1      1352 3.59848E-03-6.83102E-04-4.36223E-15
 -1      1353 3.38684E-03-6.46281E-04-3.88375E-15
 -1      1354 3.73893E-03-6.83039E-04-4.69004E-15
 -1      1355 3.87967E-03-6.82758E-04-5.02648E-15
 -1      1356 3.66781E-03-6.46560E-04-4.51535E-15
 -1      1357 4.02066E-03-6.82290E-04-5.37282E-15
 -1      1358 4.16190E-03-6.81673E-04-5.72888E-15
 -1      1359 3.94978E-03-6.45874E-04-5.18545E-15
 -1      1360 4.29628E-03-6.80963E-04-6.07534E-15
 -1      1361 4.43084E-03-6.80158E-04-6.42967E-15
 -1      1362 4.22553E-03-6.44572E-04-5.87438E-15
 -1      1363 4.57268E-03-6.79210E-04-6.81123E-15
 -1      1364 4.71470E-03-6.78179E-04-7.20111E-15
 -1      1365 4.50201E-03-6.42824E-04-6.59775E-15
 -1      1366 4.85689E-03-6.77059E-04-7.59913E-15
 -1      1367 4.99925E-03-6.75862E-04-8.00564E-15
 -1      1368 4.78625E-03-6.40673E-04-7.37408E-15
 -1      1369 5.14177E-03-6.74576E-04-8.42012E-15
 -1      1370 5.28447E-03-6.73206E-04-8.84296E-15
 -1      1371 5.07113E-03-6.38193E-04-8.18269E-15
 -1      1372 5.42735E-03-6.71732E-04-9.27337E-15
 -1      1373 5.57042E-03-6.70158E-04-9.71100E-15
 -1      1374 5.35665E-03-6.35361E-04-9.02373E-15
 -1      1375 5.71370E-03-6.68453E-04-1.01540E-14
 -1      1376 5.85723E-03-6.66622E-04-1.06029E-14
 -1      1377 5.64289E-03-6.32103E-04-9.89341E-15
 -1      1378 6.00103E-03-6.64621E-04-1.10601E-14
 -1      1379 6.14516E-03-6.62462E-04-1.15243E-14
 -1      1380 5.92999E-03-6.28300E-04-1.07919E-14
 -1      1381 6.28969E-03-6.60085E-04-1.19946E-14
 -1      1382 6.43468E-03-6.57515E-04-1.24715E-14
 -1      1383 6.21824E-03-6.23791E-04-1.17163E-14
 -1      1384 6.58025E-03-6.54670E-04-1.29542E-14
 -1      1385 6.72651E-03-6.51600E-04-1.34413E-14
 -1      1386 6.50808E-03-6.18379E-04-1.26659E-14
 -1      1387 6.87362E-03-6.48200E-04-1.39323E-14
 -1      1388 7.02177E-03-6.44567E-04-1.44281E-14
 -1      1389 6.80019E-03-6.11846E-04-1.36368E-14
 -1      1390 7.17120E-03-6.40570E-04-1.49258E-14
 -1      1391 7.32222E-03-6.36394E-04-1.54273E-14
 -1      1392 7.09559E-03-6.04005E-04-1.46225E-14
 -1      1393 7.47518E-03-6.31898E-04-1.59297E-14
 -1      1394 7.63053E-03-6.27423E-04-1.64321E-14
 -1      1395 7.39583E-03-5.94814E-04-1.56191E-14
 -1      1396 7.78880E-03-6.22882E-04-1.69357E-14
 -1      1397 7.95068E-03-6.18890E-04-1.74417E-14
 -1      1398 7.70311E-03-5.84663E-04-1.66246E-14
 -1      1399 8.11689E-03-6.15589E-04-1.79499E-14
 -1      1400 8.28842E-03-6.14086E-04-1.84557E-14
 -1      1401 8.02054E-03-5.75004E-04-1.76351E-14
 -1      1402 8.46620E-03-6.15167E-04-1.89611E-14
 -1      1403 8.65150E-03-6.20845E-04-1.94671E-14
 -1      1404 8.35229E-03-5.69766E-04-1.86483E-14
 -1      1405 8.83551E-03-6.32511E-04-1.99484E-14
 -1      1406 9.02850E-03-6.53382E-04-2.04294E-14
 -1      1407 8.69456E-03-5.77760E-04-1.96345E-14
 -1      1408 9.24225E-03-6.90051E-04-2.09346E-14
 -1      1409 9.46774E-03-7.47884E-04-2.14389E-14
 -1      1410 9.06115E-03-6.17162E-04-2.06209E-14
 -1      1411 9.70527E-03-8.35046E-04-2.19431E-14
 -1      1412 9.95394E-03-9.61648E-04-2.24476E-14
 -1      1413 9.46945E-03-7.27890E-04-2.16323E-14
 -1      1414 1.01992E-02-1.12586E-03-2.29247E-14
 -1      1415 1.04470E-02-1.33824E-03-2.34077E-14
 -1      1416 9.90686E-03-9.65234E-04-2.26169E-14
 -1      1417 1.07092E-02-1.60806E-03-2.39177E-14
 -1      1418 1.09585E-02-1.91233E-03-2.44310E-14
 -1      1419 1.03876E-02-1.39218E-03-2.36075E-14
 -1      1420 1.11673E-02-2.19057E-03-2.48986E-14
 -1      1421 1.13575E-02-2.42871E-03-2.53720E-14
 -1      1422 1.08792E-02-1.97096E-03-2.45897E-14
 -1      1423 1.15101E-02-2.58290E-03-2.57988E-14
 -1      1424 1.16594E-02-2.65125E-03-2.62285E-14
 -1      1425 1.13063E-02-2.44789E-03-2.54911E-14
 -1      1426 1.17960E-02-2.63820E-03-2.66403E-14
 -1      1427 1.19446E-02-2.55847E-03-2.70550E-14
 -1      1428 1.16820E-02-2.61379E-03-2.63365E-14
 -1      1429 1.21251E-02-2.40855E-03-2.75316E-14
 -1      1430 1.23229E-02-2.23329E-03-2.80149E-14
 -1      1431 1.20760E-02-2.44492E-03-2.72284E-14
 -1      1432 1.25743E-02-2.02819E-03-2.85915E-14
 -1      1433 1.28334E-02-1.85760E-03-2.91787E-14
 -1      1434 1.25512E-02-2.05437E-03-2.82844E-14
 -1      1435 1.30826E-02-1.74328E-03-2.97428E-14
 -1      1436 1.33257E-02-1.67600E-03-3.03151E-14
 -1      1437 1.30464E-02-1.72485E-03-2.94283E-14
 -1      1438 1.35614E-02-1.65171E-03-3.08901E-14
 -1      1439 1.37865E-02-1.66205E-03-3.14712E-14
 -1      1440 1.34927E-02-1.59588E-03-3.05686E-14
 -1      1441 1.40118E-02-1.70173E-03-3.20877E-14
 -1      1442 1.42251E-02-1.76304E-03-3.27054E-14
 -1      1443 1.39091E-02-1.62320E-03-3.17626E-14
 -1      1444 1.44274E-02-1.83933E-03-3.33269E-14
 -1      1445 1.46197E-02-1.92578E-03-3.39544E-14
 -1      1446 1.42993E-02-1.75004E-03-3.30035E-14
 -1      1447 1.48031E-02-2.01893E-03-3.45886E-14
 -1      1448 1.49790E-02-2.11612E-03-3.52242E-14
 -1      1449 1.46600E-02-1.92616E-03-3.42602E-14
 -1      1450 1.51484E-02-2.21590E-03-3.58620E-14
 -1      1451 1.53124E-02-2.31678E-03-3.65043E-14
 -1      1452 1.49976E-02-2.12312E-03-3.55353E-14
 -1      1453 1.54719E-02-2.41828E-03-3.71461E-14
 -1      1454 1.56276E-02-2.51954E-03-3.77833E-14
 -1      1455 1.53179E-02-2.32688E-03-3.68187E-14
 -1      1456 1.57801E-02-2.62043E-03-3.84242E-14
 -1      1457 1.59302E-02-2.72040E-03-3.90673E-14
 -1      1458 1.56256E-02-2.53087E-03-3.81081E-14
 -1      1459 1.60781E-02-2.81943E-03-3.97119E-14
 -1      1460 1.62244E-02-2.91715E-03-4.03595E-14
 -1      1461 1.59242E-02-2.73187E-03-3.93994E-14
 -1      1462 1.63693E-02-3.01361E-03-4.10114E-14
 -1      1463 1.65133E-02-3.10854E-03-4.16663E-14
 -1      1464 1.62167E-02-2.92809E-03-4.07023E-14
 -1      1465 1.67116E-02-3.23988E-03-4.26247E-14
 -1      1466 6.43096E-04 3.71982E-04 6.22061E-18
 -1      1467 4.92964E-04 3.03662E-04 1.58022E-17
 -1      1468 4.44895E-04 2.65862E-04 3.17129E-18
 -1      1469 9.28707E-04 4.71921E-04-4.47504E-17
 -1      1470 7.87834E-04 4.26439E-04-1.38913E-17
 -1      1471 7.44778E-04 3.90663E-04-3.09540E-17
 -1      1472 1.20362E-03 5.41321E-04-1.39415E-16
 -1      1473 1.06694E-03 5.09654E-04-8.64109E-17
 -1      1474 1.03084E-03 4.76091E-04-1.07485E-16
 -1      1475 1.47419E-03 5.90487E-04-2.80104E-16
 -1      1476 1.33912E-03 5.68043E-04-2.04020E-16
 -1      1477 1.30878E-03 5.35887E-04-2.28225E-16
 -1      1478 1.74376E-03 6.25363E-04-4.68037E-16
 -1      1479 1.60893E-03 6.09472E-04-3.68195E-16
 -1      1480 1.58304E-03 5.78147E-04-3.94853E-16
 -1      1481 2.01402E-03 6.49810E-04-7.01276E-16
 -1      1482 1.87872E-03 6.38718E-04-5.78950E-16
 -1      1483 1.85624E-03 6.07856E-04-6.07357E-16
 -1      1484 2.28576E-03 6.66572E-04-9.77083E-16
 -1      1485 2.14967E-03 6.59020E-04-8.33928E-16
 -1      1486 2.12981E-03 6.28391E-04-8.64651E-16
 -1      1487 2.55932E-03 6.77694E-04-1.29710E-15
 -1      1488 2.42230E-03 6.72737E-04-1.13151E-15
 -1      1489 2.40443E-03 6.42201E-04-1.16523E-15
 -1      1490 2.83474E-03 6.84717E-04-1.66318E-15
 -1      1491 2.69680E-03 6.81640E-04-1.47437E-15
 -1      1492 2.68043E-03 6.51112E-04-1.51039E-15
 -1      1493 3.11195E-03 6.88804E-04-2.07514E-15
 -1      1494 2.97313E-03 6.87069E-04-1.86366E-15
 -1      1495 2.95787E-03 6.56501E-04-1.90142E-15
 -1      1496 3.39076E-03 6.90825E-04-2.52910E-15
 -1      1497 3.25117E-03 6.90029E-04-2.29646E-15
 -1      1498 3.23672E-03 6.59395E-04-2.33567E-15
 -1      1499 3.67100E-03 6.91418E-04-3.02721E-15
 -1      1500 3.53072E-03 6.91268E-04-2.77304E-15
 -1      1501 3.51686E-03 6.60555E-04-2.81269E-15
 -1      1502 3.95245E-03 6.91045E-04-3.56803E-15
 -1      1503 3.81158E-03 6.91329E-04-3.29206E-15
 -1      1504 3.79815E-03 6.60537E-04-3.33246E-15
 -1      1505 4.23495E-03 6.90033E-04-4.15416E-15
 -1      1506 4.09358E-03 6.90603E-04-3.85526E-15
 -1      1507 4.08043E-03 6.59734E-04-3.89520E-15
 -1      1508 4.51833E-03 6.88609E-04-4.78341E-15
 -1      1509 4.37654E-03 6.89361E-04-4.46370E-15
 -1      1510 4.36358E-03 6.58420E-04-4.50303E-15
 -1      1511 4.80248E-03 6.86927E-04-5.45416E-15
 -1      1512 4.66031E-03 6.87791E-04-5.11395E-15
 -1      1513 4.64748E-03 6.56784E-04-5.15247E-15
 -1      1514 5.08730E-03 6.85100E-04-6.16442E-15
 -1      1515 4.94481E-03 6.86024E-04-5.80437E-15
 -1      1516 4.93203E-03 6.54954E-04-5.84270E-15
 -1      1517 5.37276E-03 6.83220E-04-6.91592E-15
 -1      1518 5.22995E-03 6.84159E-04-6.53531E-15
 -1      1519 5.21719E-03 6.53027E-04-6.57260E-15
 -1      1520 5.65880E-03 6.81384E-04-7.70229E-15
 -1      1521 5.51571E-03 6.82288E-04-7.30488E-15
 -1      1522 5.50291E-03 6.51092E-04-7.34001E-15
 -1      1523 5.94543E-03 6.79713E-04-8.52019E-15
 -1      1524 5.80205E-03 6.80518E-04-8.10699E-15
 -1      1525 5.78916E-03 6.49253E-04-8.14183E-15
 -1      1526 6.23262E-03 6.78374E-04-9.36680E-15
 -1      1527 6.08896E-03 6.78989E-04-8.94029E-15
 -1      1528 6.07594E-03 6.47650E-04-8.97519E-15
 -1      1529 6.52032E-03 6.77598E-04-1.02438E-14
 -1      1530 6.37641E-03 6.77901E-04-9.80158E-15
 -1      1531 6.36320E-03 6.46480E-04-9.83745E-15
 -1      1532 6.80838E-03 6.77681E-04-1.11532E-14
 -1      1533 6.66431E-03 6.77516E-04-1.06951E-14
 -1      1534 6.65086E-03 6.46011E-04-1.07299E-14
 -1      1535 7.09657E-03 6.78974E-04-1.20897E-14
 -1      1536 6.95248E-03 6.78164E-04-1.16177E-14
 -1      1537 6.93876E-03 6.46581E-04-1.16500E-14
 -1      1538 7.38442E-03 6.81836E-04-1.30527E-14
 -1      1539 7.24057E-03 6.80206E-04-1.25674E-14
 -1      1540 7.22659E-03 6.48571E-04-1.25987E-14
 -1      1541 7.67122E-03 6.86528E-04-1.40481E-14
 -1      1542 7.52800E-03 6.83970E-04-1.35465E-14
 -1      1543 7.51387E-03 6.52336E-04-1.35764E-14
 -1      1544 7.95596E-03 6.93053E-04-1.50659E-14
 -1      1545 7.81392E-03 6.89612E-04-1.45537E-14
 -1      1546 7.79987E-03 6.58080E-04-1.45808E-14
 -1      1547 8.23729E-03 7.00909E-04-1.61081E-14
 -1      1548 8.09714E-03 6.96916E-04-1.55848E-14
 -1      1549 8.08359E-03 6.65642E-04-1.56099E-14
 -1      1550 8.51362E-03 7.08780E-04-1.71772E-14
 -1      1551 8.37619E-03 7.05010E-04-1.66400E-14
 -1      1552 8.36380E-03 6.74222E-04-1.66629E-14
 -1      1553 8.78329E-03 7.14240E-04-1.82662E-14
 -1      1554 8.64940E-03 7.12054E-04-1.77190E-14
 -1      1555 8.63912E-03 6.82046E-04-1.77383E-14
 -1      1556 9.04485E-03 7.13554E-04-1.93837E-14
 -1      1557 8.91516E-03 7.14977E-04-1.88210E-14
 -1      1558 8.90818E-03 6.86090E-04-1.88376E-14
 -1      1559 9.29749E-03 7.01752E-04-2.05217E-14
 -1      1560 9.17231E-03 7.09396E-04-1.99498E-14
 -1      1561 9.16998E-03 6.81967E-04-1.99607E-14
 -1      1562 9.54141E-03 6.73102E-04-2.16860E-14
 -1      1563 9.42049E-03 6.89878E-04-2.11005E-14
 -1      1564 9.42420E-03 6.64173E-04-2.11099E-14
 -1      1565 9.77810E-03 6.22000E-04-2.28783E-14
 -1      1566 9.66053E-03 6.50627E-04-2.22771E-14
 -1      1567 9.67147E-03 6.26763E-04-2.22848E-14
 -1      1568 1.00103E-02 5.44107E-04-2.41018E-14
 -1      1569 9.89455E-03 5.86535E-04-2.34880E-14
 -1      1570 9.91354E-03 5.64423E-04-2.34897E-14
 -1      1571 1.02415E-02 4.37378E-04-2.53544E-14
 -1      1572 1.01258E-02 4.94308E-04-2.47244E-14
 -1      1573 1.01531E-02 4.73650E-04-2.47213E-14
 -1      1574 1.04754E-02 3.02574E-04-2.66302E-14
 -1      1575 1.03579E-02 3.73281E-04-2.59898E-14
 -1      1576 1.03933E-02 3.53626E-04-2.59797E-14
 -1      1577 1.07153E-02 1.43066E-04-2.79406E-14
 -1      1578 1.05944E-02 2.25586E-04-2.72810E-14
 -1      1579 1.06371E-02 2.06428E-04-2.72662E-14
 -1      1580 1.09630E-02-3.60186E-05-2.92850E-14
 -1      1581 1.08381E-02 5.56015E-05-2.86079E-14
 -1      1582 1.08867E-02 3.64826E-05-2.85878E-14
 -1      1583 1.12195E-02-2.28939E-04-3.06690E-14
 -1      1584 1.10902E-02-1.31099E-04-2.99726E-14
 -1      1585 1.11435E-02-1.50512E-04-2.99465E-14
 -1      1586 1.14842E-02-4.30388E-04-3.20870E-14
 -1      1587 1.13509E-02-3.28881E-04-3.13746E-14
 -1      1588 1.14076E-02-3.48773E-04-3.13435E-14
 -1      1589 1.17559E-02-6.36166E-04-3.35324E-14
 -1      1590 1.16193E-02-5.32934E-04-3.28053E-14
 -1      1591 1.16782E-02-5.53353E-04-3.27680E-14
 -1      1592 1.20331E-02-8.43426E-04-3.50030E-14
 -1      1593 1.18939E-02-7.39727E-04-3.42657E-14
 -1      1594 1.19542E-02-7.60625E-04-3.42189E-14
 -1      1595 1.23139E-02-1.05058E-03-3.64940E-14
 -1      1596 1.21731E-02-9.47068E-04-3.57467E-14
 -1      1597 1.22341E-02-9.68342E-04-3.56905E-14
 -1      1598 1.25972E-02-1.25699E-03-3.79982E-14
 -1      1599 1.24554E-02-1.15389E-03-3.72432E-14
 -1      1600 1.25166E-02-1.17542E-03-3.71794E-14
 -1      1601 1.28818E-02-1.46264E-03-3.95267E-14
 -1      1602 1.27394E-02-1.35990E-03-3.87575E-14
 -1      1603 1.28008E-02-1.38159E-03-3.86909E-14
 -1      1604 1.31670E-02-1.66778E-03-4.10818E-14
 -1      1605 1.30243E-02-1.56526E-03-4.03006E-14
 -1      1606 1.30858E-02-1.58703E-03-4.02266E-14
 -1      1607 1.34525E-02-1.87265E-03-4.26560E-14
 -1      1608 1.33097E-02-1.77024E-03-4.18678E-14
 -1      1609 1.33712E-02-1.79205E-03-4.17879E-14
 -1      1610 1.36274E-02-1.99020E-03-4.34746E-14
 -1      1611 1.38908E-02-2.10420E-03-4.35064E-14
 -1      1612 1.37902E-02-2.06203E-03-4.35210E-14
 -1      1613 1.40919E-02-2.18860E-03-4.34703E-14
 -1      1614 1.39913E-02-2.14639E-03-4.34895E-14
 -1      1615 1.38173E-02-2.03664E-03-4.28187E-14
 -1      1616 1.42936E-02-2.27289E-03-4.34225E-14
 -1      1617 1.41927E-02-2.23077E-03-4.34467E-14
 -1      1618 1.40185E-02-2.12101E-03-4.27836E-14
 -1      1619 1.44964E-02-2.35662E-03-4.33678E-14
 -1      1620 1.43949E-02-2.31486E-03-4.33968E-14
 -1      1621 1.42205E-02-2.20520E-03-4.27416E-14
 -1      1622 1.46970E-02-2.43775E-03-4.33212E-14
 -1      1623 1.45966E-02-2.39738E-03-4.33428E-14
 -1      1624 1.44220E-02-2.28807E-03-4.26982E-14
 -1      1625 1.49020E-02-2.51828E-03-4.32730E-14
 -1      1626 1.47995E-02-2.47832E-03-4.32981E-14
 -1      1627 1.46248E-02-2.36971E-03-4.26538E-14
 -1      1628 1.51068E-02-2.59610E-03-4.32070E-14
 -1      1629 1.50045E-02-2.55756E-03-4.32393E-14
 -1      1630 1.48302E-02-2.45013E-03-4.26029E-14
 -1      1631 1.53097E-02-2.67086E-03-4.31367E-14
 -1      1632 1.52086E-02-2.63387E-03-4.31716E-14
 -1      1633 1.50351E-02-2.52808E-03-4.25451E-14
 -1      1634 1.55085E-02-2.74276E-03-4.30691E-14
 -1      1635 1.54097E-02-2.70713E-03-4.31034E-14
 -1      1636 1.52376E-02-2.60331E-03-4.24875E-14
 -1      1637 1.57014E-02-2.81271E-03-4.29998E-14
 -1      1638 1.56058E-02-2.77790E-03-4.30342E-14
 -1      1639 1.54355E-02-2.67612E-03-4.24306E-14
 -1      1640 1.58842E-02-2.88105E-03-4.29478E-14
 -1      1641 1.57937E-02-2.84683E-03-4.29720E-14
 -1      1642 1.56253E-02-2.74678E-03-4.23789E-14
 -1      1643 1.60635E-02-2.95197E-03-4.29027E-14
 -1      1644 1.59746E-02-2.91623E-03-4.29267E-14
 -1      1645 1.58078E-02-2.81725E-03-4.23340E-14
 -1      1646 1.62384E-02-3.02595E-03-4.28462E-14
 -1      1647 1.61514E-02-2.98850E-03-4.28763E-14
 -1      1648 1.59854E-02-2.88971E-03-4.22898E-14
 -1      1649 1.64125E-02-3.10390E-03-4.27840E-14
 -1      1650 1.63253E-02-3.06442E-03-4.28161E-14
 -1      1651 1.61591E-02-2.96495E-03-4.22402E-14
 -1      1652 1.37155E-02-1.10530E-03-2.87482E-14
 -1      1653 1.38043E-02-1.15868E-03-2.88034E-14
 -1      1654 1.34436E-02-9.60200E-04-2.85116E-14
 -1      1655 1.35814E-02-1.02567E-03-2.86187E-14
 -1      1656 1.30716E-02-7.94929E-04-2.81979E-14
 -1      1657 1.32529E-02-8.78851E-04-2.83642E-14
 -1      1658 1.25613E-02-5.80614E-04-2.77388E-14
 -1      1659 1.28004E-02-6.97805E-04-2.79950E-14
 -1      1660 1.21208E-02-3.34206E-04-2.71240E-14
 -1      1661 1.23265E-02-4.31523E-04-2.73802E-14
 -1      1662 1.16812E-02-1.47357E-04-2.65434E-14
 -1      1663 1.18774E-02-2.30090E-04-2.68176E-14
 -1      1664 1.12730E-02-1.25885E-05-2.59353E-14
 -1      1665 1.14611E-02-6.68646E-05-2.62122E-14
 -1      1666 1.08470E-02 5.59383E-05-2.52885E-14
 -1      1667 1.10420E-02 3.63779E-05-2.55907E-14
 -1      1668 1.04365E-02 3.34931E-05-2.46789E-14
 -1      1669 1.06214E-02 5.32152E-05-2.49507E-14
 -1      1670 1.00214E-02-5.92286E-05-2.41180E-14
 -1      1671 1.02139E-02-8.26686E-06-2.43690E-14
 -1      1672 9.60645E-03-1.92192E-04-2.36515E-14
 -1      1673 9.79343E-03-1.26785E-04-2.38578E-14
 -1      1674 9.23175E-03-3.35765E-04-2.32995E-14
 -1      1675 9.39899E-03-2.69649E-04-2.34456E-14
 -1      1676 8.93255E-03-4.64506E-04-2.30723E-14
 -1      1677 9.05977E-03-4.07695E-04-2.31616E-14
 -1      1678 8.73367E-03-5.79573E-04-2.29558E-14
 -1      1679 8.81202E-03-5.30037E-04-2.29885E-14
 -1      1680 8.66652E-03-6.84607E-04-2.29648E-14
 -1      1681 8.67984E-03-6.36544E-04-2.29475E-14
 -1      1682 8.74190E-03-8.05094E-04-2.31007E-14
 -1      1683 8.69047E-03-7.47537E-04-2.30303E-14
 -1      1684 8.95782E-03-9.60819E-04-2.33278E-14
 -1      1685 8.84096E-03-8.80231E-04-2.32018E-14
 -1      1686 9.28956E-03-1.19029E-03-2.36745E-14
 -1      1687 9.12224E-03-1.07918E-03-2.35103E-14
 -1      1688 9.73656E-03-1.49838E-03-2.41093E-14
 -1      1689 9.51570E-03-1.34379E-03-2.38952E-14
 -1      1690 1.03006E-02-1.88365E-03-2.46528E-14
 -1      1691 1.00390E-02-1.69229E-03-2.43823E-14
 -1      1692 1.08810E-02-2.26712E-03-2.52884E-14
 -1      1693 1.06217E-02-2.10202E-03-2.49900E-14
 -1      1694 1.13838E-02-2.47855E-03-2.59096E-14
 -1      1695 1.11575E-02-2.40799E-03-2.56353E-14
 -1      1696 1.18415E-02-2.48182E-03-2.64806E-14
 -1      1697 1.16349E-02-2.50221E-03-2.62232E-14
 -1      1698 1.23080E-02-2.31465E-03-2.70635E-14
 -1      1699 1.20867E-02-2.41338E-03-2.67972E-14
 -1      1700 1.27664E-02-2.06879E-03-2.75541E-14
 -1      1701 1.25681E-02-2.18442E-03-2.73379E-14
 -1      1702 1.31631E-02-1.80526E-03-2.80128E-14
 -1      1703 1.29792E-02-1.92256E-03-2.78173E-14
 -1      1704 1.34808E-02-1.61965E-03-2.83181E-14
 -1      1705 1.33338E-02-1.71144E-03-2.81658E-14
 -1      1706 1.31696E-02-1.71099E-03-2.82477E-14
 -1      1707 1.37417E-02-1.44035E-03-2.85966E-14
 -1      1708 1.36465E-02-1.50882E-03-2.84963E-14
 -1      1709 1.38652E-02-1.31620E-03-2.87470E-14
 -1      1710 1.38225E-02-1.36978E-03-2.86897E-14
 -1      1711 1.38630E-02-1.21250E-03-2.87951E-14
 -1      1712 1.38801E-02-1.25865E-03-2.87872E-14
 -1      1713 1.65601E-02-3.15639E-03-4.23168E-14
 -1      1714 1.33140E-02-9.98019E-04-2.86533E-14
 -1      1715 1.36888E-02-2.01204E-03-4.33942E-14
 -1      1716 1.36154E-02-1.94446E-03-4.27041E-14
 -1      1717 1.38418E-02-1.21274E-03-2.90499E-14
 -1      1718 1.36452E-02-1.13038E-03-2.89309E-14
 -1      1719 1.65895E-02-3.18558E-03-4.27181E-14
 -1      1720 1.65005E-02-3.14434E-03-4.27506E-14
 -1      1721 1.63330E-02-3.04370E-03-4.21855E-14
 -1      1722 1.28577E-02-8.24082E-04-2.83018E-14
 -1      1723 1.23691E-02-5.69241E-04-2.77371E-14
 -1      1724 1.19138E-02-3.04479E-04-2.70692E-14
 -1      1725 1.15062E-02-1.00262E-04-2.64297E-14
 -1      1726 1.11165E-02 3.86140E-05-2.57516E-14
 -1      1727 1.07430E-02 8.19426E-05-2.50682E-14
 -1      1728 1.03614E-02 2.36692E-05-2.44225E-14
 -1      1729 9.96212E-03-1.06994E-04-2.38569E-14
 -1      1730 9.55259E-03-2.67689E-04-2.33948E-14
 -1      1731 9.17868E-03-4.17865E-04-2.30539E-14
 -1      1732 8.88085E-03-5.36702E-04-2.28341E-14
 -1      1733 8.69961E-03-6.20593E-04-2.27436E-14
 -1      1734 8.66939E-03-6.91972E-04-2.28052E-14
 -1      1735 8.79848E-03-7.85843E-04-2.29738E-14
 -1      1736 9.07482E-03-9.36129E-04-2.32570E-14
 -1      1737 9.47497E-03-1.18232E-03-2.36573E-14
 -1      1738 9.99515E-03-1.52799E-03-2.41463E-14
 -1      1739 1.05734E-02-1.96404E-03-2.47486E-14
 -1      1740 1.10881E-02-2.35316E-03-2.54235E-14
 -1      1741 1.15228E-02-2.52882E-03-2.60770E-14
 -1      1742 1.19364E-02-2.47409E-03-2.67028E-14
 -1      1743 1.23615E-02-2.24577E-03-2.72918E-14
 -1      1744 1.28002E-02-1.95563E-03-2.78301E-14
 -1      1745 1.37757E-02-1.36736E-03-2.88595E-14
 -1      1746 1.38812E-02-1.28024E-03-2.89976E-14
 -1      1747 2.77614E-04-1.72093E-04-3.44505E-17
 -1      1748 1.35206E-02-1.51601E-03-2.85818E-14
 -1      1749 3.32161E-04-1.16810E-04-8.01632E-17
 -1      1750 3.36265E-04-1.33022E-04-7.78728E-17
 -1      1751 3.42226E-04-1.52032E-04-7.43763E-17
 -1      1752 3.51778E-04-1.74059E-04-6.88875E-17
 -1      1753 4.58335E-04-1.88125E-04-1.13082E-16
 -1      1754 3.24560E-04-6.53830E-05-8.19250E-17
 -1      1755 3.25710E-04-7.66780E-05-8.21961E-17
 -1      1756 3.23067E-04-4.38897E-05-8.02987E-17
 -1      1757 3.23721E-04-5.43779E-05-8.13152E-17
 -1      1758 4.36503E-04-7.92901E-05-1.19845E-16
 -1      1759 3.22281E-04-2.37762E-05-7.79270E-17
 -1      1760 3.22614E-04-3.36868E-05-7.92687E-17
 -1      1761 4.34504E-04-5.13192E-05-1.17378E-16
 -1      1762 3.21986E-04-4.34889E-06-7.54469E-17
 -1      1763 3.22083E-04-1.39974E-05-7.67751E-17
 -1      1764 4.33481E-04-2.49325E-05-1.14248E-16
 -1      1765 3.22108E-04 1.49613E-05-7.25331E-17
 -1      1766 3.21994E-04 5.30274E-06-7.41188E-17
 -1      1767 4.33182E-04 7.38947E-07-1.10426E-16
 -1      1768 3.22674E-04 3.47029E-05-6.83996E-17
 -1      1769 3.22323E-04 2.47606E-05-7.06222E-17
 -1      1770 4.33538E-04 2.64390E-05-1.05642E-16
 -1      1771 3.23803E-04 5.51337E-05-6.32903E-17
 -1      1772 3.23140E-04 4.47743E-05-6.60957E-17
 -1      1773 4.34614E-04 5.26852E-05-9.94484E-17
 -1      1774 3.25861E-04 7.77794E-05-5.66631E-17
 -1      1775 3.24663E-04 6.62013E-05-6.03765E-17
 -1      1776 4.36670E-04 8.05571E-05-9.18861E-17
 -1      1777 3.29558E-04 1.03611E-04-4.77456E-17
 -1      1778 3.27401E-04 9.02663E-05-5.26516E-17
 -1      1779 4.40318E-04 1.11524E-04-8.19521E-17
 -1      1780 3.36639E-04 1.35098E-04-3.52095E-17
 -1      1781 3.32470E-04 1.18572E-04-4.21213E-17
 -1      1782 4.46834E-04 1.47301E-04-6.85080E-17
 -1      1783 3.52268E-04 1.77537E-04-1.80384E-17
 -1      1784 3.42795E-04 1.54698E-04-2.75116E-17
 -1      1785 4.59294E-04 1.91389E-04-5.03341E-17
 -1      1786 4.07691E-04 2.33645E-04-4.87891E-18
 -1      1787 3.78081E-04 2.02629E-04-1.29427E-17
 -1      1788 4.95861E-04 2.43967E-04-3.32986E-17
 -1      1789 5.58550E-04 3.02464E-04-1.82824E-17
 -1      1790 3.32487E-04-1.87252E-04-5.33021E-17
 -1      1791 8.53619E-04 4.07037E-04-7.62601E-17
 -1      1792 7.07197E-04 3.59306E-04-4.19857E-17
 -1      1793 6.73457E-04 3.28749E-04-5.17707E-17
 -1      1794 1.35791E-02-1.43349E-03-2.89075E-14
 -1      1795 1.34066E-02-1.52038E-03-2.87237E-14
 -1      1796 7.92773E-04-3.69624E-04-2.21055E-16
 -1      1797 9.38241E-04-4.11522E-04-3.03671E-16
 -1      1798 1.08124E-03-4.46802E-04-4.00437E-16
 -1      1799 1.22305E-03-4.76193E-04-5.11350E-16
 -1      1800 9.89670E-04-3.94481E-04-3.61934E-16
 -1      1801 1.36356E-03-5.01096E-04-6.36264E-16
 -1      1802 1.50333E-03-5.21819E-04-7.74974E-16
 -1      1803 1.27556E-03-4.53414E-04-5.83978E-16
 -1      1804 1.64255E-03-5.39299E-04-9.27494E-16
 -1      1805 1.78143E-03-5.53776E-04-1.09347E-15
 -1      1806 1.55811E-03-4.95064E-04-8.60626E-16
 -1      1807 1.92018E-03-5.65871E-04-1.27228E-15
 -1      1808 2.05886E-03-5.75789E-04-1.46392E-15
 -1      1809 1.83882E-03-5.24117E-04-1.19054E-15
 -1      1810 2.19762E-03-5.83954E-04-1.66833E-15
 -1      1811 2.33647E-03-5.90541E-04-1.88524E-15
 -1      1812 2.11878E-03-5.43964E-04-1.57154E-15
 -1      1813 2.47553E-03-5.95849E-04-2.11474E-15
 -1      1814 2.61475E-03-6.00021E-04-2.35588E-15
 -1      1815 2.39868E-03-5.57095E-04-2.00233E-15
 -1      1816 2.75423E-03-6.03272E-04-2.60831E-15
 -1      1817 2.89392E-03-6.05716E-04-2.87186E-15
 -1      1818 2.67893E-03-5.65368E-04-2.48072E-15
 -1      1819 3.03387E-03-6.07507E-04-3.14627E-15
 -1      1820 3.17404E-03-6.08734E-04-3.43096E-15
 -1      1821 2.95977E-03-5.70173E-04-3.00455E-15
 -1      1822 3.31446E-03-6.09507E-04-3.72528E-15
 -1      1823 3.45510E-03-6.09892E-04-4.02913E-15
 -1      1824 3.24127E-03-5.72543E-04-3.56909E-15
 -1      1825 3.59597E-03-6.09967E-04-4.34344E-15
 -1      1826 3.73704E-03-6.09780E-04-4.66669E-15
 -1      1827 3.52345E-03-5.73235E-04-4.17366E-15
 -1      1828 3.87831E-03-6.09381E-04-4.99993E-15
 -1      1829 4.01976E-03-6.08808E-04-5.34216E-15
 -1      1830 3.80629E-03-5.72789E-04-4.81658E-15
 -1      1831 4.15432E-03-6.08128E-04-5.67606E-15
 -1      1832 4.28901E-03-6.07339E-04-6.01839E-15
 -1      1833 4.08264E-03-5.71614E-04-5.47979E-15
 -1      1834 4.43095E-03-6.06404E-04-6.38647E-15
 -1      1835 4.57304E-03-6.05379E-04-6.76430E-15
 -1      1836 4.35951E-03-5.69938E-04-6.17814E-15
 -1      1837 4.71528E-03-6.04267E-04-7.15039E-15
 -1      1838 4.85766E-03-6.03078E-04-7.54475E-15
 -1      1839 4.64398E-03-5.67836E-04-6.92896E-15
 -1      1840 5.00018E-03-6.01803E-04-7.94749E-15
 -1      1841 5.14284E-03-6.00450E-04-8.35746E-15
 -1      1842 4.92894E-03-5.65408E-04-7.71442E-15
 -1      1843 5.28565E-03-5.98999E-04-8.77641E-15
 -1      1844 5.42861E-03-5.97453E-04-9.20252E-15
 -1      1845 5.21437E-03-5.62652E-04-8.53109E-15
 -1      1846 5.57173E-03-5.95785E-04-9.63521E-15
 -1      1847 5.71504E-03-5.93996E-04-1.00760E-14
 -1      1848 5.50031E-03-5.59511E-04-9.37927E-15
 -1      1849 5.85855E-03-5.92047E-04-1.05244E-14
 -1      1850 6.00229E-03-5.89941E-04-1.09783E-14
 -1      1851 5.78683E-03-5.55878E-04-1.02579E-14
 -1      1852 6.14628E-03-5.87626E-04-1.14395E-14
 -1      1853 6.29060E-03-5.85107E-04-1.19064E-14
 -1      1854 6.07403E-03-5.51605E-04-1.11637E-14
 -1      1855 6.43524E-03-5.82320E-04-1.23796E-14
 -1      1856 6.58035E-03-5.79278E-04-1.28580E-14
 -1      1857 6.36211E-03-5.46502E-04-1.20953E-14
 -1      1858 6.72588E-03-5.75902E-04-1.33417E-14
 -1      1859 6.87208E-03-5.72224E-04-1.38296E-14
 -1      1860 6.65131E-03-5.40353E-04-1.30492E-14
 -1      1861 7.01885E-03-5.68157E-04-1.43204E-14
 -1      1862 7.16657E-03-5.63762E-04-1.48147E-14
 -1      1863 6.94194E-03-5.32946E-04-1.40203E-14
 -1      1864 7.31506E-03-5.58974E-04-1.53129E-14
 -1      1865 7.46490E-03-5.53903E-04-1.58127E-14
 -1      1866 7.23440E-03-5.24153E-04-1.50065E-14
 -1      1867 7.61575E-03-5.48575E-04-1.63140E-14
 -1      1868 7.76849E-03-5.43191E-04-1.68162E-14
 -1      1869 7.52910E-03-5.14117E-04-1.60044E-14
 -1      1870 7.92252E-03-5.38027E-04-1.73207E-14
 -1      1871 8.07914E-03-5.33458E-04-1.78277E-14
 -1      1872 7.82640E-03-5.03660E-04-1.70084E-14
 -1      1873 8.23736E-03-5.30332E-04-1.83329E-14
 -1      1874 8.39902E-03-5.29418E-04-1.88382E-14
 -1      1875 8.12649E-03-4.95123E-04-1.80171E-14
 -1      1876 8.55448E-03-5.32392E-04-1.93202E-14
 -1      1877 8.71391E-03-5.40476E-04-1.98011E-14
 -1      1878 8.42182E-03-4.93918E-04-1.90044E-14
 -1      1879 8.88471E-03-5.58176E-04-2.03082E-14
 -1      1880 9.06104E-03-5.88897E-04-2.08135E-14
 -1      1881 8.72032E-03-5.10499E-04-1.99932E-14
 -1      1882 9.24333E-03-6.38462E-04-2.13169E-14
 -1      1883 9.43336E-03-7.15484E-04-2.18246E-14
 -1      1884 9.03359E-03-5.67973E-04-2.10050E-14
 -1      1885 9.62607E-03-8.18921E-04-2.23050E-14
 -1      1886 9.82887E-03-9.68395E-04-2.27855E-14
 -1      1887 9.35952E-03-7.01775E-04-2.19908E-14
 -1      1888 1.15779E-02-2.57728E-03-2.61538E-14
 -1      1889 1.18014E-02-2.56147E-03-2.65719E-14
 -1      1890 1.24981E-02-2.08965E-03-2.79821E-14
 -1      1891 1.27638E-02-1.87676E-03-2.85620E-14
 -1      1892 1.30307E-02-1.70775E-03-2.91291E-14
 -1      1893 1.32501E-02-1.60187E-03-2.96958E-14
 -1      1894 1.34590E-02-1.54987E-03-3.02666E-14
 -1      1895 1.36510E-02-1.53566E-03-3.08436E-14
 -1      1896 1.34480E-02-1.50575E-03-2.99635E-14
 -1      1897 1.38439E-02-1.55766E-03-3.14571E-14
 -1      1898 1.40276E-02-1.60566E-03-3.20753E-14
 -1      1899 1.38037E-02-1.49758E-03-3.11527E-14
 -1      1900 1.42046E-02-1.67297E-03-3.26950E-14
 -1      1901 1.43769E-02-1.75396E-03-3.33201E-14
 -1      1902 1.41317E-02-1.60208E-03-3.23881E-14
 -1      1903 1.45441E-02-1.84364E-03-3.39503E-14
 -1      1904 1.47085E-02-1.93953E-03-3.45858E-14
 -1      1905 1.44449E-02-1.76591E-03-3.36423E-14
 -1      1906 1.48687E-02-2.03875E-03-3.52270E-14
 -1      1907 1.50269E-02-2.14023E-03-3.58669E-14
 -1      1908 1.47515E-02-1.95751E-03-3.49117E-14
 -1      1909 1.51819E-02-2.24255E-03-3.65099E-14
 -1      1910 1.53351E-02-2.34519E-03-3.71572E-14
 -1      1911 1.50535E-02-2.16004E-03-3.61991E-14
 -1      1912 1.54861E-02-2.44751E-03-3.78013E-14
 -1      1913 1.56356E-02-2.54920E-03-3.84469E-14
 -1      1914 1.53514E-02-2.36507E-03-3.74932E-14
 -1      1915 1.57834E-02-2.64997E-03-3.90970E-14
 -1      1916 1.59302E-02-2.74957E-03-3.97507E-14
 -1      1917 1.56456E-02-2.56840E-03-3.87924E-14
 -1      1918 1.60757E-02-2.84791E-03-4.04057E-14
 -1      1919 1.62204E-02-2.94478E-03-4.10638E-14
 -1      1920 1.59364E-02-2.76774E-03-4.01036E-14
 -1      1921 1.13869E-03 4.79983E-04-1.77010E-16
 -1      1922 9.96916E-04 4.46765E-04-1.21254E-16
 -1      1923 9.64565E-04 4.17333E-04-1.33262E-16
 -1      1924 1.31932E-02-1.04494E-03-2.88878E-14
 -1      1925 1.33810E-02-1.10838E-03-2.90360E-14
 -1      1926 1.41782E-03 5.31423E-04-3.21859E-16
 -1      1927 1.27865E-03 5.08001E-04-2.43810E-16
 -1      1928 1.24903E-03 4.79881E-04-2.57715E-16
 -1      1929 1.69424E-03 5.67687E-04-5.13139E-16
 -1      1930 1.55619E-03 5.51209E-04-4.11780E-16
 -1      1931 1.52931E-03 5.24036E-04-4.27108E-16
 -1      1932 1.96985E-03 5.92947E-04-7.48831E-16
 -1      1933 1.83205E-03 5.81523E-04-6.25246E-16
 -1      1934 1.80759E-03 5.54987E-04-6.41807E-16
 -1      1935 2.24574E-03 6.10152E-04-1.02914E-15
 -1      1936 2.10771E-03 6.02431E-04-8.83611E-16
 -1      1937 2.08525E-03 5.76300E-04-9.01135E-16
 -1      1938 2.52246E-03 6.21480E-04-1.35338E-15
 -1      1939 2.38398E-03 6.16457E-04-1.18575E-15
 -1      1940 2.36312E-03 5.90572E-04-1.20475E-15
 -1      1941 2.80028E-03 6.28563E-04-1.72217E-15
 -1      1942 2.66123E-03 6.25482E-04-1.53198E-15
 -1      1943 2.64164E-03 5.99738E-04-1.55204E-15
 -1      1944 3.07927E-03 6.32620E-04-2.13557E-15
 -1      1945 2.93963E-03 6.30917E-04-1.92323E-15
 -1      1946 2.92103E-03 6.05242E-04-1.94377E-15
 -1      1947 3.35940E-03 6.34559E-04-2.59080E-15
 -1      1948 3.21920E-03 6.33816E-04-2.35803E-15
 -1      1949 3.20136E-03 6.08165E-04-2.37860E-15
 -1      1950 3.64058E-03 6.35045E-04-3.08981E-15
 -1      1951 3.49987E-03 6.34956E-04-2.83527E-15
 -1      1952 3.48260E-03 6.09301E-04-2.85599E-15
 -1      1953 3.92271E-03 6.34557E-04-3.63032E-15
 -1      1954 3.78154E-03 6.34903E-04-3.35464E-15
 -1      1955 3.76469E-03 6.09228E-04-3.37538E-15
 -1      1956 4.20567E-03 6.33429E-04-4.21470E-15
 -1      1957 4.06409E-03 6.34059E-04-3.91673E-15
 -1      1958 4.04756E-03 6.08354E-04-3.93694E-15
 -1      1959 4.48935E-03 6.31893E-04-4.84224E-15
 -1      1960 4.34743E-03 6.32703E-04-4.52344E-15
 -1      1961 4.33111E-03 6.06965E-04-4.54247E-15
 -1      1962 4.77368E-03 6.30104E-04-5.51115E-15
 -1      1963 4.63144E-03 6.31023E-04-5.17125E-15
 -1      1964 4.61526E-03 6.05251E-04-5.18952E-15
 -1      1965 5.05858E-03 6.28172E-04-6.21993E-15
 -1      1966 4.91606E-03 6.29150E-04-5.86106E-15
 -1      1967 4.89996E-03 6.03342E-04-5.87795E-15
 -1      1968 5.34401E-03 6.26184E-04-6.96723E-15
 -1      1969 5.20123E-03 6.27180E-04-6.58856E-15
 -1      1970 5.18516E-03 6.01334E-04-6.60438E-15
 -1      1971 5.62995E-03 6.24232E-04-7.75093E-15
 -1      1972 5.48692E-03 6.25198E-04-7.35448E-15
 -1      1973 5.47082E-03 5.99309E-04-7.36866E-15
 -1      1974 5.91637E-03 6.22431E-04-8.56848E-15
 -1      1975 5.77310E-03 6.23305E-04-8.15628E-15
 -1      1976 5.75694E-03 5.97365E-04-8.16899E-15
 -1      1977 6.20327E-03 6.20945E-04-9.41592E-15
 -1      1978 6.05976E-03 6.21638E-04-8.98827E-15
 -1      1979 6.04350E-03 5.95635E-04-9.00132E-15
 -1      1980 6.49059E-03 6.20003E-04-1.02919E-14
 -1      1981 6.34688E-03 6.20392E-04-9.85052E-15
 -1      1982 6.33049E-03 5.94310E-04-9.86212E-15
 -1      1983 6.77823E-03 6.19910E-04-1.11975E-14
 -1      1984 6.63438E-03 6.19834E-04-1.07416E-14
 -1      1985 6.61785E-03 5.93653E-04-1.07532E-14
 -1      1986 7.06602E-03 6.21038E-04-1.21309E-14
 -1      1987 6.92212E-03 6.20305E-04-1.16597E-14
 -1      1988 6.90549E-03 5.94008E-04-1.16702E-14
 -1      1989 7.35362E-03 6.23784E-04-1.30899E-14
 -1      1990 7.20987E-03 6.22198E-04-1.26069E-14
 -1      1991 7.19323E-03 5.95773E-04-1.26150E-14
 -1      1992 7.64055E-03 6.28478E-04-1.40817E-14
 -1      1993 7.49722E-03 6.25890E-04-1.35823E-14
 -1      1994 7.48074E-03 5.99348E-04-1.35878E-14
 -1      1995 7.92607E-03 6.35221E-04-1.50940E-14
 -1      1996 7.78355E-03 6.31621E-04-1.45841E-14
 -1      1997 7.76754E-03 6.05008E-04-1.45881E-14
 -1      1998 8.20924E-03 6.43641E-04-1.61337E-14
 -1      1999 8.06804E-03 6.39291E-04-1.56119E-14
 -1      2000 8.05295E-03 6.12711E-04-1.56120E-14
 -1      2001 8.48890E-03 6.52577E-04-1.71950E-14
 -1      2002 8.34962E-03 6.48173E-04-1.66615E-14
 -1      2003 8.33606E-03 6.21817E-04-1.66607E-14
 -1      2004 8.76382E-03 6.59746E-04-1.82796E-14
 -1      2005 8.62707E-03 6.56583E-04-1.77341E-14
 -1      2006 8.61581E-03 6.30737E-04-1.77306E-14
 -1      2007 9.03287E-03 6.61501E-04-1.93873E-14
 -1      2008 8.89917E-03 6.61575E-04-1.88304E-14
 -1      2009 8.89106E-03 6.36620E-04-1.88228E-14
 -1      2010 9.29532E-03 6.52845E-04-2.05193E-14
 -1      2011 9.16496E-03 6.58802E-04-1.99507E-14
 -1      2012 9.16084E-03 6.35171E-04-1.99390E-14
 -1      2013 9.55118E-03 6.27855E-04-2.16782E-14
 -1      2014 9.42404E-03 6.42727E-04-2.10949E-14
 -1      2015 9.42463E-03 6.20824E-04-2.10805E-14
 -1      2016 9.80140E-03 5.80571E-04-2.28645E-14
 -1      2017 9.67688E-03 6.07276E-04-2.22680E-14
 -1      2018 9.68271E-03 5.87369E-04-2.22495E-14
 -1      2019 1.00479E-02 5.06213E-04-2.40791E-14
 -1      2020 9.92494E-03 5.46928E-04-2.34691E-14
 -1      2021 9.93628E-03 5.29059E-04-2.34476E-14
 -1      2022 1.02934E-02 4.02324E-04-2.53190E-14
 -1      2023 1.01706E-02 4.57944E-04-2.46953E-14
 -1      2024 1.01874E-02 4.41898E-04-2.46694E-14
 -1      2025 1.05407E-02 2.69408E-04-2.65844E-14
 -1      2026 1.04166E-02 3.39312E-04-2.59490E-14
 -1      2027 1.04388E-02 3.24668E-04-2.59182E-14
 -1      2028 1.07923E-02 1.10798E-04-2.78847E-14
 -1      2029 1.06658E-02 1.93013E-04-2.72303E-14
 -1      2030 1.06930E-02 1.79257E-04-2.71944E-14
 -1      2031 1.10497E-02-6.82233E-05-2.92175E-14
 -1      2032 1.09202E-02 2.34878E-05-2.85459E-14
 -1      2033 1.09518E-02 1.01378E-05-2.85046E-14
 -1      2034 1.13136E-02-2.61646E-04-3.05896E-14
 -1      2035 1.11808E-02-1.63466E-04-2.98987E-14
 -1      2036 1.12163E-02-1.76774E-04-2.98517E-14
 -1      2037 1.15836E-02-4.63877E-04-3.19965E-14
 -1      2038 1.14479E-02-3.61925E-04-3.12898E-14
 -1      2039 1.14865E-02-3.75409E-04-3.12367E-14
 -1      2040 1.18588E-02-6.70484E-04-3.34286E-14
 -1      2041 1.17206E-02-5.66814E-04-3.27093E-14
 -1      2042 1.17618E-02-5.80561E-04-3.26498E-14
 -1      2043 1.21381E-02-8.78465E-04-3.48825E-14
 -1      2044 1.19981E-02-7.74403E-04-3.41540E-14
 -1      2045 1.20410E-02-7.88409E-04-3.40887E-14
 -1      2046 1.24202E-02-1.08615E-03-3.63558E-14
 -1      2047 1.22789E-02-9.82385E-04-3.56183E-14
 -1      2048 1.23231E-02-9.96593E-04-3.55452E-14
 -1      2049 1.27041E-02-1.29291E-03-3.78495E-14
 -1      2050 1.25620E-02-1.18965E-03-3.70973E-14
 -1      2051 1.26070E-02-1.20399E-03-3.70192E-14
 -1      2052 1.29890E-02-1.49874E-03-3.93684E-14
 -1      2053 1.28465E-02-1.39592E-03-3.86070E-14
 -1      2054 1.28919E-02-1.41032E-03-3.85197E-14
 -1      2055 1.32743E-02-1.70396E-03-4.09120E-14
 -1      2056 1.31316E-02-1.60141E-03-4.01366E-14
 -1      2057 1.31773E-02-1.61582E-03-4.00478E-14
 -1      2058 1.35162E-02-1.87546E-03-4.21997E-14
 -1      2059 1.33734E-02-1.77301E-03-4.14150E-14
 -1      2060 1.34193E-02-1.78743E-03-4.13220E-14
 -1      2061 1.36176E-02-1.92546E-03-4.23281E-14
 -1      2062 1.41473E-02-2.13786E-03-4.20712E-14
 -1      2063 1.40461E-02-2.09575E-03-4.20879E-14
 -1      2064 1.39451E-02-2.05353E-03-4.21043E-14
 -1      2065 1.38444E-02-2.01130E-03-4.21226E-14
 -1      2066 1.38716E-02-1.98631E-03-4.14312E-14
 -1      2067 1.37812E-02-1.98946E-03-4.22192E-14
 -1      2068 1.36807E-02-1.94725E-03-4.22306E-14
 -1      2069 1.35815E-02-1.87825E-03-4.17291E-14
 -1      2070 1.37077E-02-1.92198E-03-4.15388E-14
 -1      2071 1.43475E-02-2.22017E-03-4.20315E-14
 -1      2072 1.42472E-02-2.17914E-03-4.20516E-14
 -1      2073 1.40723E-02-2.07031E-03-4.14030E-14
 -1      2074 1.45526E-02-2.30271E-03-4.19913E-14
 -1      2075 1.44499E-02-2.26165E-03-4.20106E-14
 -1      2076 1.42747E-02-2.15380E-03-4.13686E-14
 -1      2077 1.47584E-02-2.38339E-03-4.19448E-14
 -1      2078 1.46555E-02-2.34334E-03-4.19695E-14
 -1      2079 1.44803E-02-2.23683E-03-4.13318E-14
 -1      2080 1.49634E-02-2.46168E-03-4.18990E-14
 -1      2081 1.48611E-02-2.42286E-03-4.19222E-14
 -1      2082 1.46866E-02-2.31798E-03-4.12950E-14
 -1      2083 1.51655E-02-2.53736E-03-4.18523E-14
 -1      2084 1.50650E-02-2.49983E-03-4.18750E-14
 -1      2085 1.48917E-02-2.39666E-03-4.12583E-14
 -1      2086 1.53623E-02-2.61074E-03-4.18047E-14
 -1      2087 1.52647E-02-2.57426E-03-4.18274E-14
 -1      2088 1.50934E-02-2.47260E-03-4.12198E-14
 -1      2089 1.55489E-02-2.68144E-03-4.17625E-14
 -1      2090 1.54565E-02-2.64614E-03-4.17828E-14
 -1      2091 1.52875E-02-2.54549E-03-4.11826E-14
 -1      2092 1.57311E-02-2.75324E-03-4.17247E-14
 -1      2093 1.56409E-02-2.71721E-03-4.17437E-14
 -1      2094 1.54740E-02-2.61687E-03-4.11491E-14
 -1      2095 1.59069E-02-2.82648E-03-4.16850E-14
 -1      2096 1.58196E-02-2.78955E-03-4.17058E-14
 -1      2097 1.56542E-02-2.68879E-03-4.11181E-14
 -1      2098 1.60794E-02-2.90252E-03-4.16403E-14
 -1      2099 1.59933E-02-2.86409E-03-4.16614E-14
 -1      2100 1.58280E-02-2.76237E-03-4.10834E-14
 -1      2101 1.27180E-02-8.53025E-04-2.84781E-14
 -1      2102 1.29651E-02-9.54474E-04-2.86830E-14
 -1      2103 1.30678E-02-1.05497E-03-2.90647E-14
 -1      2104 1.63911E-02-3.05434E-03-4.17571E-14
 -1      2105 4.51621E-04-2.33536E-04-8.84980E-17
 -1      2106 1.38190E-02-1.23640E-03-2.93427E-14
 -1      2107 1.38759E-02-1.25058E-03-2.93299E-14
 -1      2108 1.32673E-02-1.59740E-03-2.85688E-14
 -1      2109 1.31125E-02-1.68764E-03-2.84137E-14
 -1      2110 1.33624E-02-1.51589E-03-2.88933E-14
 -1      2111 1.38934E-02-1.27088E-03-2.92820E-14
 -1      2112 1.38730E-02-1.29053E-03-2.92384E-14
 -1      2113 3.27212E-04-8.89850E-05-8.19657E-17
 -1      2114 3.29322E-04-1.02166E-04-8.14100E-17
 -1      2115 4.46358E-04-1.45152E-04-1.19073E-16
 -1      2116 4.40046E-04-1.09961E-04-1.20617E-16
 -1      2117 1.21578E-02-5.17502E-04-2.76739E-14
 -1      2118 1.23812E-02-6.66300E-04-2.80357E-14
 -1      2119 1.17591E-02-2.76857E-04-2.70575E-14
 -1      2120 1.19571E-02-3.95495E-04-2.73669E-14
 -1      2121 1.20078E-02-4.82062E-04-2.76637E-14
 -1      2122 1.13582E-02-5.05494E-05-2.63087E-14
 -1      2123 1.15257E-02-1.42503E-04-2.66413E-14
 -1      2124 1.10141E-02 7.52233E-05-2.56053E-14
 -1      2125 1.11770E-02 2.48699E-05-2.59508E-14
 -1      2126 1.06518E-02 9.60364E-05-2.48207E-14
 -1      2127 1.08081E-02 1.04221E-04-2.51575E-14
 -1      2128 1.02949E-02 4.05711E-06-2.41649E-14
 -1      2129 1.04646E-02 5.91975E-05-2.44714E-14
 -1      2130 9.89548E-03-1.58370E-04-2.35636E-14
 -1      2131 1.00829E-02-7.62491E-05-2.38194E-14
 -1      2132 9.49594E-03-3.34305E-04-2.30794E-14
 -1      2133 9.68414E-03-2.51851E-04-2.32817E-14
 -1      2134 9.11761E-03-4.77821E-04-2.27832E-14
 -1      2135 9.28578E-03-4.14761E-04-2.29187E-14
 -1      2136 8.83147E-03-5.74748E-04-2.25779E-14
 -1      2137 8.95520E-03-5.35800E-04-2.26607E-14
 -1      2138 8.67051E-03-6.28608E-04-2.24760E-14
 -1      2139 8.72518E-03-6.10390E-04-2.24812E-14
 -1      2140 8.68410E-03-6.71366E-04-2.25718E-14
 -1      2141 8.65629E-03-6.52235E-04-2.25030E-14
 -1      2142 8.86026E-03-7.52593E-04-2.28213E-14
 -1      2143 8.75503E-03-7.14449E-04-2.27196E-14
 -1      2144 9.21305E-03-8.96104E-04-2.31206E-14
 -1      2145 9.03978E-03-8.12302E-04-2.29404E-14
 -1      2146 9.65593E-03-1.17195E-03-2.35982E-14
 -1      2147 9.43033E-03-1.03474E-03-2.33811E-14
 -1      2148 1.02040E-02-1.53884E-03-2.41068E-14
 -1      2149 9.93681E-03-1.34124E-03-2.38405E-14
 -1      2150 1.07779E-02-2.04155E-03-2.48110E-14
 -1      2151 1.05235E-02-1.80811E-03-2.44830E-14
 -1      2152 1.11901E-02-2.38910E-03-2.54110E-14
 -1      2153 1.10059E-02-2.21828E-03-2.50742E-14
 -1      2154 1.14257E-02-2.53614E-03-2.58481E-14
 -1      2155 1.19619E-02-2.48725E-03-2.68844E-14
 -1      2156 1.28446E-02-1.84795E-03-2.81747E-14
 -1      2157 1.26530E-02-1.99771E-03-2.79103E-14
 -1      2158 1.38115E-02-1.32477E-03-2.91701E-14
 -1      2159 1.37235E-02-1.36298E-03-2.90716E-14
 -1      2160 1.35470E-02-1.16186E-03-2.91656E-14
 -1      2161 1.36859E-02-1.20333E-03-2.92947E-14
 -1      2162 1.34494E-02-1.18355E-03-2.94004E-14
 -1      2163 1.22086E-02-2.32748E-03-2.73634E-14
 -1      2164 1.62512E-02-2.97581E-03-4.14593E-14
 -1      2165 1.38936E-02-1.27490E-03-2.95725E-14
 -1      2166 6.00598E-04-2.95465E-04-1.39415E-16
 -1      2167 6.56419E-04-2.90024E-04-1.78934E-16
 -1      2168 1.38494E-02-1.30512E-03-2.94529E-14
 -1      2169 1.24588E-02-2.14700E-03-2.76348E-14
 -1      2170 1.36470E-02-1.38357E-03-2.92154E-14
 -1      2171 9.80461E-03-1.04178E-03-2.31336E-14
 -1      2172 1.01423E-02-1.24631E-03-2.34477E-14
 -1      2173 1.03961E-02-1.52768E-03-2.39623E-14
 -1      2174 1.06755E-02-1.78505E-03-2.43320E-14
 -1      2175 1.09188E-02-2.07556E-03-2.48051E-14
 -1      2176 1.30079E-02-1.70834E-03-2.88218E-14
 -1      2177 1.61637E-02-2.93527E-03-4.14828E-14
 -1      2178 1.08913E-02 1.01573E-04-2.53526E-14
 -1      2179 1.59968E-02-2.83209E-03-4.09130E-14
 -1      2180 1.25240E-02-7.93683E-04-2.84164E-14
 -1      2181 1.26628E-02-9.04754E-04-2.87975E-14
 -1      2182 1.23478E-02-7.28083E-04-2.83529E-14
 -1      2183 1.37555E-02-1.24889E-03-2.95771E-14
 -1      2184 1.29822E-02-1.73706E-03-2.84959E-14
 -1      2185 1.04068E-02-1.62547E-03-2.41717E-14
 -1      2186 9.84276E-03-1.19532E-03-2.35604E-14
 -1      2187 9.35549E-03-9.03287E-04-2.30610E-14
 -1      2188 8.96201E-03-7.34908E-04-2.26837E-14
 -1      2189 8.71723E-03-6.54453E-04-2.24168E-14
 -1      2190 8.65265E-03-6.21107E-04-2.22405E-14
 -1      2191 8.77057E-03-5.91974E-04-2.23069E-14
 -1      2192 9.03890E-03-5.15720E-04-2.25242E-14
 -1      2193 9.40038E-03-3.83497E-04-2.28039E-14
 -1      2194 9.79629E-03-2.10462E-04-2.32424E-14
 -1      2195 1.01913E-02-3.26699E-05-2.38653E-14
 -1      2196 1.05535E-02 8.86548E-05-2.45576E-14
 -1      2197 1.16050E-02-2.19428E-04-2.69372E-14
 -1      2198 1.12311E-02-8.76442E-06-2.61605E-14
 -1      2199 5.47771E-04-5.53105E-05-1.65273E-16
 -1      2200 5.48812E-04-7.20256E-05-1.67238E-16
 -1      2201 5.50235E-04-8.93487E-05-1.68851E-16
 -1      2202 5.52104E-04-1.07327E-04-1.70098E-16
 -1      2203 6.65279E-04-9.55043E-05-2.26964E-16
 -1      2204 5.46382E-04 8.83146E-06-1.54987E-16
 -1      2205 5.46362E-04-7.00223E-06-1.57982E-16
 -1      2206 5.47138E-04 4.08349E-05-1.47966E-16
 -1      2207 5.46637E-04 2.47642E-05-1.51748E-16
 -1      2208 6.61313E-04 1.98987E-05-2.07706E-16
 -1      2209 5.48969E-04 7.34496E-05-1.39388E-16
 -1      2210 5.47904E-04 5.69606E-05-1.44023E-16
 -1      2211 6.62642E-04 5.77457E-05-1.98287E-16
 -1      2212 5.52367E-04 1.08917E-04-1.28451E-16
 -1      2213 5.50440E-04 9.08442E-05-1.34238E-16
 -1      2214 6.65509E-04 9.72061E-05-1.86442E-16
 -1      2215 5.58254E-04 1.48252E-04-1.13936E-16
 -1      2216 5.54934E-04 1.28026E-04-1.21661E-16
 -1      2217 6.70611E-04 1.39970E-04-1.71182E-16
 -1      2218 5.68636E-04 1.93856E-04-9.50168E-17
 -1      2219 5.62749E-04 1.70142E-04-1.05262E-16
 -1      2220 6.79272E-04 1.87527E-04-1.51558E-16
 -1      2221 5.88041E-04 2.49442E-04-7.00124E-17
 -1      2222 5.76900E-04 2.20182E-04-8.35242E-17
 -1      2223 6.94218E-04 2.42434E-04-1.26418E-16
 -1      2224 6.42191E-04 3.01262E-04-5.84249E-17
 -1      2225 6.14465E-04 2.73762E-04-6.53909E-17
 -1      2226 7.31578E-04 2.97772E-04-1.06672E-16
 -1      2227 7.88645E-04 3.49669E-04-9.47457E-17
 -1      2228 1.38875E-02-1.30531E-03-2.98341E-14
 -1      2229 1.38312E-02-1.31792E-03-2.97614E-14
 -1      2230 9.00876E-04-3.42766E-04-3.23404E-16
 -1      2231 1.04503E-03-3.76617E-04-4.21131E-16
 -1      2232 1.18834E-03-4.05452E-04-5.32465E-16
 -1      2233 1.33122E-03-4.29722E-04-6.57298E-16
 -1      2234 1.10274E-03-3.57762E-04-4.81860E-16
 -1      2235 1.47344E-03-4.50275E-04-7.94761E-16
 -1      2236 1.61527E-03-4.67402E-04-9.45804E-16
 -1      2237 1.38912E-03-4.05263E-04-7.30685E-16
 -1      2238 1.75673E-03-4.81781E-04-1.11003E-15
 -1      2239 1.89794E-03-4.93628E-04-1.28692E-15
 -1      2240 1.67431E-03-4.39058E-04-1.03139E-15
 -1      2241 2.03899E-03-5.03445E-04-1.47647E-15
 -1      2242 2.17993E-03-5.11411E-04-1.67824E-15
 -1      2243 1.95855E-03-4.62512E-04-1.38309E-15
 -1      2244 2.32084E-03-5.17890E-04-1.89261E-15
 -1      2245 2.46174E-03-5.23028E-04-2.11859E-15
 -1      2246 2.24222E-03-4.78296E-04-1.78471E-15
 -1      2247 2.60270E-03-5.27092E-04-2.35619E-15
 -1      2248 2.74371E-03-5.30197E-04-2.60518E-15
 -1      2249 2.52566E-03-4.88473E-04-2.23374E-15
 -1      2250 2.88482E-03-5.32539E-04-2.86464E-15
 -1      2251 3.02601E-03-5.34207E-04-3.13515E-15
 -1      2252 2.80910E-03-4.94613E-04-2.72774E-15
 -1      2253 3.16733E-03-5.35342E-04-3.41601E-15
 -1      2254 3.30875E-03-5.36012E-04-3.70645E-15
 -1      2255 3.09270E-03-4.97898E-04-3.26493E-15
 -1      2256 3.45030E-03-5.36317E-04-4.00628E-15
 -1      2257 3.59195E-03-5.36308E-04-4.31656E-15
 -1      2258 3.37654E-03-4.99203E-04-3.84180E-15
 -1      2259 3.73373E-03-5.36052E-04-4.63595E-15
 -1      2260 3.87561E-03-5.35587E-04-4.96471E-15
 -1      2261 3.66065E-03-4.99160E-04-4.45755E-15
 -1      2262 4.01051E-03-5.34991E-04-5.28589E-15
 -1      2263 4.14549E-03-5.34267E-04-5.61571E-15
 -1      2264 3.93793E-03-4.98245E-04-5.09429E-15
 -1      2265 4.28768E-03-5.33391E-04-5.97202E-15
 -1      2266 4.42997E-03-5.32415E-04-6.33707E-15
 -1      2267 4.21549E-03-4.96751E-04-5.76743E-15
 -1      2268 4.57236E-03-5.31349E-04-6.71045E-15
 -1      2269 4.71484E-03-5.30205E-04-7.09290E-15
 -1      2270 4.50044E-03-4.94796E-04-6.49384E-15
 -1      2271 4.85742E-03-5.28981E-04-7.48342E-15
 -1      2272 5.00009E-03-5.27683E-04-7.88242E-15
 -1      2273 4.78565E-03-4.92513E-04-7.25483E-15
 -1      2274 5.14285E-03-5.26299E-04-8.28946E-15
 -1      2275 5.28571E-03-5.24831E-04-8.70414E-15
 -1      2276 5.07112E-03-4.89929E-04-8.04944E-15
 -1      2277 5.42866E-03-5.23260E-04-9.12679E-15
 -1      2278 5.57173E-03-5.21583E-04-9.55651E-15
 -1      2279 5.35684E-03-4.87020E-04-8.87494E-15
 -1      2280 5.71489E-03-5.19773E-04-9.99423E-15
 -1      2281 5.85818E-03-5.17827E-04-1.04390E-14
 -1      2282 5.64283E-03-4.83712E-04-9.73295E-15
 -1      2283 6.00159E-03-5.15708E-04-1.08898E-14
 -1      2284 6.14514E-03-5.13414E-04-1.13485E-14
 -1      2285 5.92908E-03-4.79900E-04-1.06181E-14
 -1      2286 6.28882E-03-5.10901E-04-1.18128E-14
 -1      2287 6.43267E-03-5.08167E-04-1.22830E-14
 -1      2288 6.21556E-03-4.75450E-04-1.15315E-14
 -1      2289 6.57665E-03-5.05167E-04-1.27580E-14
 -1      2290 6.72085E-03-5.01900E-04-1.32381E-14
 -1      2291 6.50221E-03-4.70218E-04-1.24683E-14
 -1      2292 6.86514E-03-4.98334E-04-1.37222E-14
 -1      2293 7.00968E-03-4.94470E-04-1.42095E-14
 -1      2294 6.78887E-03-4.64088E-04-1.34254E-14
 -1      2295 7.15424E-03-4.90316E-04-1.47022E-14
 -1      2296 7.29906E-03-4.85878E-04-1.51980E-14
 -1      2297 7.07519E-03-4.57034E-04-1.43989E-14
 -1      2298 7.44374E-03-4.81272E-04-1.56942E-14
 -1      2299 7.58863E-03-4.76506E-04-1.61928E-14
 -1      2300 7.36048E-03-4.49268E-04-1.53854E-14
 -1      2301 7.73304E-03-4.71932E-04-1.66947E-14
 -1      2302 7.87753E-03-4.67572E-04-1.71984E-14
 -1      2303 7.64347E-03-4.41506E-04-1.63820E-14
 -1      2304 8.02099E-03-4.64238E-04-1.77026E-14
 -1      2305 8.16423E-03-4.62006E-04-1.82076E-14
 -1      2306 7.92204E-03-4.35456E-04-1.73871E-14
 -1      2307 8.29862E-03-4.62414E-04-1.86884E-14
 -1      2308 8.43255E-03-4.65447E-04-1.91706E-14
 -1      2309 8.18623E-03-4.34574E-04-1.83728E-14
 -1      2310 8.57100E-03-4.74209E-04-1.96774E-14
 -1      2311 8.70906E-03-4.89638E-04-2.01845E-14
 -1      2312 8.43891E-03-4.44661E-04-1.93612E-14
 -1      2313 8.84473E-03-5.15939E-04-2.06898E-14
 -1      2314 8.98220E-03-5.56343E-04-2.11951E-14
 -1      2315 8.68223E-03-4.77351E-04-2.03741E-14
 -1      2316 9.11412E-03-6.11977E-04-2.16767E-14
 -1      2317 9.25365E-03-6.93455E-04-2.21579E-14
 -1      2318 8.90518E-03-5.48085E-04-2.13617E-14
 -1      2319 1.32258E-02-1.57259E-03-2.90651E-14
 -1      2320 1.38970E-02-1.29769E-03-2.99350E-14
 -1      2321 1.39085E-02-1.29692E-03-2.98839E-14
 -1      2322 1.39161E-02-1.31978E-03-3.01954E-14
 -1      2323 1.07741E-03 4.24900E-04-1.99249E-16
 -1      2324 9.33514E-04 3.90413E-04-1.41719E-16
 -1      2325 9.04068E-04 3.63885E-04-1.48861E-16
 -1      2326 1.37757E-02-1.44911E-03-3.08322E-14
 -1      2327 1.39259E-02-1.48457E-03-3.14484E-14
 -1      2328 1.40722E-02-1.53946E-03-3.20683E-14
 -1      2329 1.42149E-02-1.61194E-03-3.26895E-14
 -1      2330 1.43566E-02-1.69476E-03-3.33178E-14
 -1      2331 1.44998E-02-1.78548E-03-3.39499E-14
 -1      2332 1.42813E-02-1.62978E-03-3.29935E-14
 -1      2333 1.46430E-02-1.88079E-03-3.45852E-14
 -1      2334 1.47875E-02-1.97974E-03-3.52268E-14
 -1      2335 1.45440E-02-1.80894E-03-3.42590E-14
 -1      2336 1.49319E-02-2.08033E-03-3.58718E-14
 -1      2337 1.50770E-02-2.18218E-03-3.65180E-14
 -1      2338 1.48170E-02-2.00396E-03-3.55404E-14
 -1      2339 1.52219E-02-2.28420E-03-3.71666E-14
 -1      2340 1.53670E-02-2.38618E-03-3.78161E-14
 -1      2341 1.50969E-02-2.20540E-03-3.68371E-14
 -1      2342 1.55116E-02-2.48759E-03-3.84688E-14
 -1      2343 1.56562E-02-2.58824E-03-3.91265E-14
 -1      2344 1.53806E-02-2.40792E-03-3.81451E-14
 -1      2345 1.57554E-02-2.66183E-03-3.96868E-14
 -1      2346 1.58990E-02-2.76038E-03-4.03487E-14
 -1      2347 1.58167E-02-2.72861E-03-4.04931E-14
 -1      2348 1.56216E-02-2.58270E-03-3.93637E-14
 -1      2349 1.58456E-03 4.96905E-04-5.13261E-16
 -1      2350 1.44362E-03 4.78597E-04-4.14287E-16
 -1      2351 1.33182E-03 4.67609E-04-3.36780E-16
 -1      2352 1.18983E-03 4.42399E-04-2.59043E-16
 -1      2353 1.16139E-03 4.16570E-04-2.66958E-16
 -1      2354 1.38728E-03 4.43066E-04-4.11143E-16
 -1      2355 2.14542E-03 5.44254E-04-1.02000E-15
 -1      2356 2.00542E-03 5.35624E-04-8.76686E-16
 -1      2357 2.42550E-03 5.56961E-04-1.33933E-15
 -1      2358 2.28545E-03 5.51315E-04-1.17412E-15
 -1      2359 2.20675E-03 5.11598E-04-1.14172E-15
 -1      2360 2.70595E-03 5.64965E-04-1.70251E-15
 -1      2361 2.56568E-03 5.61470E-04-1.51544E-15
 -1      2362 2.48871E-03 5.22823E-04-1.47668E-15
 -1      2363 2.98696E-03 5.69617E-04-2.10969E-15
 -1      2364 2.84639E-03 5.67648E-04-1.90054E-15
 -1      2365 2.77083E-03 5.29749E-04-1.85519E-15
 -1      2366 3.26863E-03 5.71920E-04-2.55885E-15
 -1      2367 3.12772E-03 5.71015E-04-2.32922E-15
 -1      2368 3.05328E-03 5.33625E-04-2.27739E-15
 -1      2369 3.55095E-03 5.72614E-04-3.05025E-15
 -1      2370 3.40972E-03 5.72434E-04-2.79913E-15
 -1      2371 3.33614E-03 5.35381E-04-2.74130E-15
 -1      2372 3.83391E-03 5.72229E-04-3.58303E-15
 -1      2373 3.69236E-03 5.72531E-04-3.31125E-15
 -1      2374 3.61945E-03 5.35693E-04-3.24593E-15
 -1      2375 4.11745E-03 5.71137E-04-4.15806E-15
 -1      2376 3.97562E-03 5.71753E-04-3.86506E-15
 -1      2377 3.90320E-03 5.35048E-04-3.79212E-15
 -1      2378 4.40152E-03 5.69595E-04-4.77652E-15
 -1      2379 4.25943E-03 5.70410E-04-4.46213E-15
 -1      2380 4.18736E-03 5.33782E-04-4.38099E-15
 -1      2381 4.68607E-03 5.67772E-04-5.43609E-15
 -1      2382 4.54374E-03 5.68710E-04-5.10120E-15
 -1      2383 4.47191E-03 5.32122E-04-5.01254E-15
 -1      2384 4.97105E-03 5.65786E-04-6.13577E-15
 -1      2385 4.82851E-03 5.66793E-04-5.78118E-15
 -1      2386 4.75681E-03 5.30222E-04-5.68454E-15
 -1      2387 5.25644E-03 5.63721E-04-6.87304E-15
 -1      2388 5.11369E-03 5.64758E-04-6.50016E-15
 -1      2389 5.04204E-03 5.28181E-04-6.39537E-15
 -1      2390 5.54222E-03 5.61659E-04-7.64796E-15
 -1      2391 5.39928E-03 5.62684E-04-7.25533E-15
 -1      2392 5.32759E-03 5.26079E-04-7.14363E-15
 -1      2393 5.82840E-03 5.59699E-04-8.45759E-15
 -1      2394 5.68526E-03 5.60659E-04-8.04855E-15
 -1      2395 5.61346E-03 5.23993E-04-7.92888E-15
 -1      2396 6.11496E-03 5.57982E-04-9.29797E-15
 -1      2397 5.97163E-03 5.58801E-04-8.87406E-15
 -1      2398 5.89967E-03 5.22025E-04-8.74711E-15
 -1      2399 6.40192E-03 5.56714E-04-1.01685E-14
 -1      2400 6.25840E-03 5.57279E-04-9.73010E-15
 -1      2401 6.18624E-03 5.20322E-04-9.59795E-15
 -1      2402 6.68926E-03 5.56175E-04-1.10675E-14
 -1      2403 6.54555E-03 5.56336E-04-1.06140E-14
 -1      2404 6.47320E-03 5.19099E-04-1.04767E-14
 -1      2405 6.97692E-03 5.56729E-04-1.19923E-14
 -1      2406 6.83306E-03 5.56296E-04-1.15256E-14
 -1      2407 6.76059E-03 5.18652E-04-1.13819E-14
 -1      2408 7.26479E-03 5.58792E-04-1.29418E-14
 -1      2409 7.12085E-03 5.57552E-04-1.24640E-14
 -1      2410 7.04842E-03 5.19358E-04-1.23133E-14
 -1      2411 7.55264E-03 5.62771E-04-1.39234E-14
 -1      2412 7.40875E-03 5.60527E-04-1.34292E-14
 -1      2413 7.33666E-03 5.21647E-04-1.32716E-14
 -1      2414 7.84012E-03 5.68924E-04-1.49257E-14
 -1      2415 7.69649E-03 5.65575E-04-1.44219E-14
 -1      2416 7.62524E-03 5.25931E-04-1.42567E-14
 -1      2417 8.12668E-03 5.77153E-04-1.59558E-14
 -1      2418 7.98360E-03 5.72809E-04-1.54379E-14
 -1      2419 7.91391E-03 5.32457E-04-1.52659E-14
 -1      2420 8.41156E-03 5.86694E-04-1.70075E-14
 -1      2421 8.26943E-03 5.81841E-04-1.64789E-14
 -1      2422 8.20228E-03 5.41079E-04-1.62982E-14
 -1      2423 8.69379E-03 5.95755E-04-1.80797E-14
 -1      2424 8.55311E-03 5.91439E-04-1.75400E-14
 -1      2425 8.48965E-03 5.50932E-04-1.73530E-14
 -1      2426 8.97228E-03 6.01178E-04-1.91756E-14
 -1      2427 8.83360E-03 5.99165E-04-1.86252E-14
 -1      2428 8.77510E-03 5.60030E-04-1.84294E-14
 -1      2429 9.24606E-03 5.98286E-04-2.02938E-14
 -1      2430 9.10982E-03 6.01102E-04-1.97310E-14
 -1      2431 9.05746E-03 5.64912E-04-1.95268E-14
 -1      2432 9.51458E-03 5.81113E-04-2.14411E-14
 -1      2433 9.38097E-03 5.91871E-04-2.08653E-14
 -1      2434 9.33563E-03 5.60487E-04-2.06495E-14
 -1      2435 9.77806E-03 5.43171E-04-2.26145E-14
 -1      2436 9.64685E-03 5.65114E-04-2.20244E-14
 -1      2437 9.60892E-03 5.40338E-04-2.18016E-14
 -1      2438 1.00377E-02 4.78708E-04-2.38149E-14
 -1      2439 9.90818E-03 5.14533E-04-2.32113E-14
 -1      2440 9.87754E-03 4.97645E-04-2.29785E-14
 -1      2441 1.02957E-02 3.84125E-04-2.50387E-14
 -1      2442 1.01667E-02 4.35290E-04-2.44234E-14
 -1      2443 1.01428E-02 4.26660E-04-2.41811E-14
 -1      2444 1.05546E-02 2.58949E-04-2.62894E-14
 -1      2445 1.04248E-02 3.25265E-04-2.56610E-14
 -1      2446 1.04070E-02 3.24246E-04-2.54070E-14
 -1      2447 1.08165E-02 1.05979E-04-2.75698E-14
 -1      2448 1.06850E-02 1.85669E-04-2.69258E-14
 -1      2449 1.06728E-02 1.90809E-04-2.66603E-14
 -1      2450 1.10832E-02-6.95168E-05-2.88853E-14
 -1      2451 1.09492E-02 2.06786E-05-2.82231E-14
 -1      2452 1.09422E-02 3.01745E-05-2.79435E-14
 -1      2453 1.13549E-02-2.61167E-04-3.02367E-14
 -1      2454 1.12184E-02-1.63704E-04-2.95555E-14
 -1      2455 1.12162E-02-1.51555E-04-2.92642E-14
 -1      2456 1.16314E-02-4.62843E-04-3.16237E-14
 -1      2457 1.14927E-02-3.61079E-04-3.09266E-14
 -1      2458 1.14949E-02-3.47595E-04-3.06211E-14
 -1      2459 1.19117E-02-6.69590E-04-3.30367E-14
 -1      2460 1.17712E-02-5.65823E-04-3.23272E-14
 -1      2461 1.17774E-02-5.51859E-04-3.20078E-14
 -1      2462 1.21948E-02-8.77995E-04-3.44690E-14
 -1      2463 1.20530E-02-7.73735E-04-3.37502E-14
 -1      2464 1.20626E-02-7.59741E-04-3.34176E-14
 -1      2465 1.24795E-02-1.08612E-03-3.59231E-14
 -1      2466 1.23370E-02-9.82166E-04-3.51951E-14
 -1      2467 1.23492E-02-9.68304E-04-3.48484E-14
 -1      2468 1.27651E-02-1.29317E-03-3.73977E-14
 -1      2469 1.26223E-02-1.18980E-03-3.66584E-14
 -1      2470 1.26364E-02-1.17606E-03-3.62998E-14
 -1      2471 1.30511E-02-1.49912E-03-3.88995E-14
 -1      2472 1.29081E-02-1.39628E-03-3.81445E-14
 -1      2473 1.29236E-02-1.38256E-03-3.77756E-14
 -1      2474 1.33370E-02-1.70433E-03-4.04278E-14
 -1      2475 1.31940E-02-1.60180E-03-3.96603E-14
 -1      2476 1.32104E-02-1.58799E-03-3.92762E-14
 -1      2477 1.34823E-02-1.80924E-03-4.12265E-14
 -1      2478 1.42017E-02-2.08831E-03-4.07119E-14
 -1      2479 1.40991E-02-2.04595E-03-4.07262E-14
 -1      2480 1.44079E-02-2.17208E-03-4.06818E-14
 -1      2481 1.43046E-02-2.13041E-03-4.06968E-14
 -1      2482 1.41284E-02-2.02384E-03-4.00624E-14
 -1      2483 1.37978E-02-1.91944E-03-4.07623E-14
 -1      2484 1.36970E-02-1.87679E-03-4.07720E-14
 -1      2485 1.39979E-02-2.00372E-03-4.07394E-14
 -1      2486 1.38981E-02-1.96178E-03-4.07515E-14
 -1      2487 1.37229E-02-1.85270E-03-4.01011E-14
 -1      2488 1.39241E-02-1.93825E-03-4.00841E-14
 -1      2489 1.46148E-02-2.25383E-03-4.06499E-14
 -1      2490 1.45114E-02-2.21327E-03-4.06650E-14
 -1      2491 1.43355E-02-2.10852E-03-4.00383E-14
 -1      2492 1.48202E-02-2.33285E-03-4.06239E-14
 -1      2493 1.47178E-02-2.29371E-03-4.06371E-14
 -1      2494 1.45431E-02-2.19090E-03-4.00171E-14
 -1      2495 1.50215E-02-2.40880E-03-4.05935E-14
 -1      2496 1.49215E-02-2.37118E-03-4.06075E-14
 -1      2497 1.47490E-02-2.27009E-03-3.99967E-14
 -1      2498 1.52130E-02-2.48077E-03-4.05652E-14
 -1      2499 1.51182E-02-2.44504E-03-4.05808E-14
 -1      2500 1.49484E-02-2.34505E-03-3.99754E-14
 -1      2501 1.53993E-02-2.55228E-03-4.05400E-14
 -1      2502 1.53072E-02-2.51660E-03-4.05513E-14
 -1      2503 1.51404E-02-2.41684E-03-3.99559E-14
 -1      2504 1.55771E-02-2.62381E-03-4.05183E-14
 -1      2505 1.54892E-02-2.58787E-03-4.05282E-14
 -1      2506 1.53247E-02-2.48735E-03-3.99383E-14
 -1      2507 1.57403E-02-2.69404E-03-4.04978E-14
 -1      2508 1.56550E-02-2.65693E-03-4.05118E-14
 -1      2509 1.54913E-02-2.55496E-03-3.99316E-14
 -1      2510 1.56439E-02-2.62156E-03-3.99291E-14
 -1      2511 1.29555E-02-1.06295E-03-2.92993E-14
 -1      2512 1.31612E-02-1.14134E-03-2.95059E-14
 -1      2513 1.07912E-02 1.18756E-04-2.51123E-14
 -1      2514 1.09534E-02 8.92986E-05-2.55599E-14
 -1      2515 1.33322E-02-1.19472E-03-2.96361E-14
 -1      2516 1.34913E-02-1.23581E-03-2.97654E-14
 -1      2517 1.32302E-02-1.19540E-03-2.98732E-14
 -1      2518 1.86532E-03 5.25038E-04-7.44183E-16
 -1      2519 1.72508E-03 5.12314E-04-6.23213E-16
 -1      2520 1.64190E-03 4.69039E-04-6.02207E-16
 -1      2521 1.92463E-03 4.94407E-04-8.49947E-16
 -1      2522 1.34389E-02-1.48165E-03-2.96654E-14
 -1      2523 1.36076E-02-1.44799E-03-3.02399E-14
 -1      2524 5.85028E-04-2.36865E-04-1.61817E-16
 -1      2525 7.70584E-04-3.01809E-04-2.49841E-16
 -1      2526 8.30115E-04-2.90920E-04-2.96719E-16
 -1      2527 5.75500E-04-2.09130E-04-1.66628E-16
 -1      2528 1.37177E-02-1.35276E-03-2.95796E-14
 -1      2529 1.35811E-02-1.40219E-03-2.94111E-14
 -1      2530 5.46577E-04-2.29181E-05-1.60828E-16
 -1      2531 5.47037E-04-3.89553E-05-1.63200E-16
 -1      2532 6.62497E-04-5.58305E-05-2.22112E-16
 -1      2533 6.61261E-04-1.77286E-05-2.15675E-16
 -1      2534 1.18784E-02-4.39811E-04-2.76446E-14
 -1      2535 1.20546E-02-5.58314E-04-2.79540E-14
 -1      2536 1.14697E-02-1.63058E-04-2.68110E-14
 -1      2537 1.16679E-02-2.96714E-04-2.72307E-14
 -1      2538 1.04439E-02 7.37819E-05-2.42323E-14
 -1      2539 1.05884E-02 1.11332E-04-2.45789E-14
 -1      2540 1.00974E-02-6.45523E-05-2.35290E-14
 -1      2541 1.02733E-02 1.41052E-05-2.38714E-14
 -1      2542 9.70723E-03-2.44101E-04-2.28770E-14
 -1      2543 9.89021E-03-1.57217E-04-2.31559E-14
 -1      2544 9.28613E-03-4.26427E-04-2.24509E-14
 -1      2545 9.46818E-03-3.51008E-04-2.26082E-14
 -1      2546 8.97372E-03-5.30684E-04-2.22084E-14
 -1      2547 9.12538E-03-4.85128E-04-2.23286E-14
 -1      2548 9.18898E-03-4.42902E-04-2.21318E-14
 -1      2549 8.72242E-03-5.86272E-04-2.20177E-14
 -1      2550 8.82513E-03-5.70396E-04-2.21108E-14
 -1      2551 8.64094E-03-5.95540E-04-2.19613E-14
 -1      2552 8.65106E-03-5.94151E-04-2.19331E-14
 -1      2553 8.76697E-03-6.36017E-04-2.22727E-14
 -1      2554 8.69115E-03-6.15073E-04-2.21241E-14
 -1      2555 9.51131E-03-9.22289E-04-2.30127E-14
 -1      2556 9.29984E-03-8.06523E-04-2.27548E-14
 -1      2557 1.11366E-02 2.30488E-05-2.60318E-14
 -1      2558 1.12807E-02-5.24652E-05-2.63907E-14
 -1      2559 1.37004E-02-1.27973E-03-2.99074E-14
 -1      2560 1.38248E-02-1.29149E-03-2.99528E-14
 -1      2561 1.17358E-02-3.69505E-04-2.75193E-14
 -1      2562 6.70212E-04-1.37984E-04-2.30027E-16
 -1      2563 5.54587E-04-1.26231E-04-1.70518E-16
 -1      2564 5.57803E-04-1.46208E-04-1.70409E-16
 -1      2565 1.40274E-02-1.48459E-03-3.17465E-14
 -1      2566 1.37948E-02-1.34137E-03-2.99603E-14
 -1      2567 1.34255E-02-1.47124E-03-2.93339E-14
 -1      2568 1.10160E-02 6.08582E-05-2.57872E-14
 -1      2569 1.20885E-02-6.25442E-04-2.83173E-14
 -1      2570 1.22072E-02-6.76744E-04-2.83367E-14
 -1      2571 1.23571E-02-7.86895E-04-2.87179E-14
 -1      2572 1.38792E-02-1.31971E-03-3.02670E-14
 -1      2573 1.37585E-02-1.40911E-03-3.05312E-14
 -1      2574 1.34992E-02-1.79529E-03-4.08328E-14
 -1      2575 1.35621E-02-1.81729E-03-4.07411E-14
 -1      2576 1.27914E-02-1.00681E-03-2.92380E-14
 -1      2577 1.29132E-02-1.08845E-03-2.96812E-14
 -1      2578 1.26338E-02-9.44056E-04-2.91753E-14
 -1      2579 1.06671E-02 1.24408E-04-2.47792E-14
 -1      2580 1.36111E-02-1.28925E-03-3.01451E-14
 -1      2581 8.65141E-03-5.79541E-04-2.18160E-14
 -1      2582 8.88981E-03-5.35453E-04-2.19147E-14
 -1      2583 9.56358E-03-2.87019E-04-2.25186E-14
 -1      2584 9.97599E-03-9.59085E-05-2.31571E-14
 -1      2585 1.03262E-02 5.19940E-05-2.38890E-14
 -1      2586 5.62594E-04-1.64542E-04-1.70409E-16
 -1      2587 5.68020E-04-1.87566E-04-1.68621E-16
 -1      2588 6.92609E-04-2.26412E-04-2.29160E-16
 -1      2589 6.78999E-04-1.81308E-04-2.30800E-16
 -1      2590 1.13596E-02-1.17196E-04-2.66818E-14
 -1      2591 9.57581E-03-9.07870E-04-2.28965E-14
 -1      2592 8.66955E-03-5.72552E-04-2.17362E-14
 -1      2593 9.02855E-03-6.92015E-04-2.24411E-14
 -1      2594 8.86678E-03-6.53050E-04-2.23230E-14
 -1      2595 1.34881E-02-1.75012E-03-4.00743E-14
 -1      2596 9.15097E-03-7.06664E-04-2.23925E-14
 -1      2597 8.81364E-03-6.06748E-04-2.20290E-14
 -1      2598 7.80175E-04 7.72868E-05-2.55804E-16
 -1      2599 7.78912E-04 5.54295E-05-2.62363E-16
 -1      2600 7.78065E-04 3.35220E-05-2.68286E-16
 -1      2601 7.77642E-04 1.18623E-05-2.73775E-16
 -1      2602 8.96472E-04 4.96350E-05-3.36387E-16
 -1      2603 7.91532E-04 1.73067E-04-2.19849E-16
 -1      2604 7.87520E-04 1.47656E-04-2.30556E-16
 -1      2605 8.03406E-04 2.28266E-04-1.94574E-16
 -1      2606 7.96784E-04 1.99870E-04-2.08126E-16
 -1      2607 9.14837E-04 2.07740E-04-2.74384E-16
 -1      2608 8.23210E-04 2.91160E-04-1.62400E-16
 -1      2609 8.12123E-04 2.58611E-04-1.79517E-16
 -1      2610 9.30130E-04 2.69809E-04-2.42712E-16
 -1      2611 8.75704E-04 3.39121E-04-1.54052E-16
 -1      2612 8.49082E-04 3.14206E-04-1.59229E-16
 -1      2613 9.66320E-04 3.26325E-04-2.21123E-16
 -1      2614 1.01993E-03 3.74059E-04-2.12815E-16
 -1      2615 7.81725E-04-9.79871E-05-2.94117E-16
 -1      2616 7.84042E-04-1.21340E-04-2.96760E-16
 -1      2617 1.30589E-03-3.60681E-04-6.68018E-16
 -1      2618 1.44912E-03-3.79974E-04-8.04763E-16
 -1      2619 1.59218E-03-3.96319E-04-9.54830E-16
 -1      2620 1.73513E-03-4.09958E-04-1.11738E-15
 -1      2621 1.51070E-03-3.53850E-04-8.80088E-16
 -1      2622 1.87792E-03-4.21362E-04-1.29225E-15
 -1      2623 2.02059E-03-4.30719E-04-1.47942E-15
 -1      2624 1.79739E-03-3.80187E-04-1.20349E-15
 -1      2625 2.16316E-03-4.38410E-04-1.67901E-15
 -1      2626 2.30564E-03-4.44589E-04-1.89048E-15
 -1      2627 2.08386E-03-3.98357E-04-1.57581E-15
 -1      2628 2.44806E-03-4.49548E-04-2.11342E-15
 -1      2629 2.59044E-03-4.53411E-04-2.34777E-15
 -1      2630 2.37006E-03-4.10395E-04-1.99558E-15
 -1      2631 2.73280E-03-4.56398E-04-2.59302E-15
 -1      2632 2.87514E-03-4.58605E-04-2.84878E-15
 -1      2633 2.65602E-03-4.17939E-04-2.46062E-15
 -1      2634 3.01750E-03-4.60196E-04-3.11590E-15
 -1      2635 3.15986E-03-4.61243E-04-3.39285E-15
 -1      2636 2.94182E-03-4.22258E-04-2.96967E-15
 -1      2637 3.30225E-03-4.61864E-04-3.67894E-15
 -1      2638 3.44466E-03-4.62115E-04-3.97536E-15
 -1      2639 3.22751E-03-4.24311E-04-3.51872E-15
 -1      2640 3.58711E-03-4.62079E-04-4.28123E-15
 -1      2641 3.72958E-03-4.61794E-04-4.59666E-15
 -1      2642 3.51314E-03-4.24810E-04-4.10749E-15
 -1      2643 3.86496E-03-4.61345E-04-4.90517E-15
 -1      2644 4.00037E-03-4.60745E-04-5.22207E-15
 -1      2645 3.79162E-03-4.24283E-04-4.71841E-15
 -1      2646 4.14296E-03-4.59987E-04-5.56566E-15
 -1      2647 4.28557E-03-4.59114E-04-5.91781E-15
 -1      2648 4.07010E-03-4.23089E-04-5.36604E-15
 -1      2649 4.42822E-03-4.58148E-04-6.27897E-15
 -1      2650 4.57091E-03-4.57099E-04-6.64886E-15
 -1      2651 4.35574E-03-4.21393E-04-6.06598E-15
 -1      2652 4.71364E-03-4.55976E-04-7.02785E-15
 -1      2653 4.85640E-03-4.54783E-04-7.41520E-15
 -1      2654 4.64141E-03-4.19357E-04-6.80299E-15
 -1      2655 4.99919E-03-4.53518E-04-7.81009E-15
 -1      2656 5.14202E-03-4.52182E-04-8.21409E-15
 -1      2657 4.92710E-03-4.17047E-04-7.57364E-15
 -1      2658 5.28488E-03-4.50765E-04-8.62595E-15
 -1      2659 5.42777E-03-4.49266E-04-9.04524E-15
 -1      2660 5.21280E-03-4.14474E-04-8.37759E-15
 -1      2661 5.57068E-03-4.47670E-04-9.47154E-15
 -1      2662 5.71361E-03-4.45970E-04-9.90598E-15
 -1      2663 5.49848E-03-4.11610E-04-9.21291E-15
 -1      2664 5.85654E-03-4.44150E-04-1.03481E-14
 -1      2665 5.99949E-03-4.42203E-04-1.07970E-14
 -1      2666 5.78406E-03-4.08405E-04-1.00790E-14
 -1      2667 6.14239E-03-4.40111E-04-1.12523E-14
 -1      2668 6.28528E-03-4.37866E-04-1.17140E-14
 -1      2669 6.06942E-03-4.04797E-04-1.09754E-14
 -1      2670 6.42806E-03-4.35460E-04-1.21814E-14
 -1      2671 6.57076E-03-4.32880E-04-1.26533E-14
 -1      2672 6.35432E-03-4.00745E-04-1.18946E-14
 -1      2673 6.71323E-03-4.30146E-04-1.31299E-14
 -1      2674 6.85550E-03-4.27238E-04-1.36109E-14
 -1      2675 6.63835E-03-3.96264E-04-1.28369E-14
 -1      2676 6.99734E-03-4.24230E-04-1.40967E-14
 -1      2677 7.13877E-03-4.21093E-04-1.45867E-14
 -1      2678 6.92083E-03-3.91495E-04-1.37963E-14
 -1      2679 7.27940E-03-4.18015E-04-1.50779E-14
 -1      2680 7.41927E-03-4.14942E-04-1.55717E-14
 -1      2681 7.20060E-03-3.86833E-04-1.47709E-14
 -1      2682 7.55776E-03-4.12276E-04-1.60706E-14
 -1      2683 7.69489E-03-4.09917E-04-1.65706E-14
 -1      2684 7.47581E-03-3.83125E-04-1.57592E-14
 -1      2685 7.82971E-03-4.08650E-04-1.70721E-14
 -1      2686 7.96225E-03-4.08272E-04-1.75761E-14
 -1      2687 7.74351E-03-3.81989E-04-1.67581E-14
 -1      2688 8.08476E-03-4.10078E-04-1.80555E-14
 -1      2689 8.20406E-03-4.13555E-04-1.85368E-14
 -1      2690 7.99307E-03-3.86071E-04-1.77383E-14
 -1      2691 8.32429E-03-4.21329E-04-1.90435E-14
 -1      2692 8.43941E-03-4.32557E-04-1.95518E-14
 -1      2693 8.22520E-03-3.99456E-04-1.87259E-14
 -1      2694 8.54689E-03-4.50913E-04-2.00585E-14
 -1      2695 8.64822E-03-4.75285E-04-2.05639E-14
 -1      2696 8.43670E-03-4.28930E-04-1.97412E-14
 -1      2697 2.55277E-03 4.88140E-04-1.61688E-15
 -1      2698 2.41102E-03 4.83811E-04-1.43636E-15
 -1      2699 1.44474E-02-1.74055E-03-3.39282E-14
 -1      2700 1.45724E-02-1.83343E-03-3.45665E-14
 -1      2701 1.47008E-02-1.92877E-03-3.52085E-14
 -1      2702 1.48332E-02-2.02682E-03-3.58546E-14
 -1      2703 1.45891E-02-1.85927E-03-3.48738E-14
 -1      2704 1.49678E-02-2.12583E-03-3.65050E-14
 -1      2705 1.51049E-02-2.22590E-03-3.71575E-14
 -1      2706 1.48423E-02-2.05024E-03-3.61697E-14
 -1      2707 1.52434E-02-2.32600E-03-3.78136E-14
 -1      2708 1.53832E-02-2.42614E-03-3.84721E-14
 -1      2709 1.51087E-02-2.24666E-03-3.74810E-14
 -1      2710 1.54653E-02-2.48744E-03-3.89149E-14
 -1      2711 1.55621E-02-2.56124E-03-3.94807E-14
 -1      2712 1.54871E-02-2.52781E-03-3.94780E-14
 -1      2713 1.53257E-02-2.40669E-03-3.85833E-14
 -1      2714 2.83633E-03 4.94076E-04-2.01103E-15
 -1      2715 2.69455E-03 4.91527E-04-1.80865E-15
 -1      2716 2.61765E-03 4.53020E-04-1.75997E-15
 -1      2717 2.26923E-03 4.78305E-04-1.26600E-15
 -1      2718 2.12740E-03 4.71490E-04-1.10696E-15
 -1      2719 2.33276E-03 4.44501E-04-1.39371E-15
 -1      2720 3.12003E-03 4.97260E-04-2.44713E-15
 -1      2721 2.97816E-03 4.95961E-04-2.22371E-15
 -1      2722 2.90244E-03 4.58038E-04-2.16888E-15
 -1      2723 3.40396E-03 4.98542E-04-2.92506E-15
 -1      2724 3.26197E-03 4.98101E-04-2.68123E-15
 -1      2725 3.18723E-03 4.60596E-04-2.61930E-15
 -1      2726 3.68814E-03 4.98538E-04-3.44372E-15
 -1      2727 3.54602E-03 4.98673E-04-3.17940E-15
 -1      2728 3.47210E-03 4.61463E-04-3.11116E-15
 -1      2729 3.97260E-03 4.97687E-04-4.00404E-15
 -1      2730 3.83034E-03 4.98199E-04-3.71854E-15
 -1      2731 3.75706E-03 4.61195E-04-3.64342E-15
 -1      2732 4.25732E-03 4.96292E-04-4.60691E-15
 -1      2733 4.11493E-03 4.97044E-04-4.30001E-15
 -1      2734 4.04214E-03 4.60185E-04-4.21831E-15
 -1      2735 4.54229E-03 4.94555E-04-5.25085E-15
 -1      2736 4.39977E-03 4.95457E-04-4.92382E-15
 -1      2737 4.32735E-03 4.58700E-04-4.83453E-15
 -1      2738 4.82749E-03 4.92606E-04-5.93453E-15
 -1      2739 4.68486E-03 4.93601E-04-5.58773E-15
 -1      2740 4.61269E-03 4.56916E-04-5.49086E-15
 -1      2741 5.11294E-03 4.90537E-04-6.65636E-15
 -1      2742 4.97019E-03 4.91583E-04-6.29027E-15
 -1      2743 4.89816E-03 4.54947E-04-6.18604E-15
 -1      2744 5.39862E-03 4.88415E-04-7.41588E-15
 -1      2745 5.25575E-03 4.89479E-04-7.03131E-15
 -1      2746 5.18377E-03 4.52868E-04-6.91857E-15
 -1      2747 5.68456E-03 4.86316E-04-8.21148E-15
 -1      2748 5.54155E-03 4.87358E-04-7.80951E-15
 -1      2749 5.46955E-03 4.50740E-04-7.68960E-15
 -1      2750 5.97079E-03 4.84339E-04-9.03871E-15
 -1      2751 5.82763E-03 4.85305E-04-8.62086E-15
 -1      2752 5.75553E-03 4.48631E-04-8.49478E-15
 -1      2753 6.25736E-03 4.82635E-04-9.89801E-15
 -1      2754 6.11403E-03 4.83442E-04-9.46496E-15
 -1      2755 6.04176E-03 4.46637E-04-9.33268E-15
 -1      2756 6.54436E-03 4.81422E-04-1.07852E-14
 -1      2757 6.40081E-03 4.81952E-04-1.03381E-14
 -1      2758 6.32835E-03 4.44904E-04-1.01995E-14
 -1      2759 6.83188E-03 4.81005E-04-1.16988E-14
 -1      2760 6.68806E-03 4.81094E-04-1.12389E-14
 -1      2761 6.61543E-03 4.43653E-04-1.10957E-14
 -1      2762 7.12003E-03 4.81770E-04-1.26360E-14
 -1      2763 6.97588E-03 4.81215E-04-1.21640E-14
 -1      2764 6.90317E-03 4.43186E-04-1.20150E-14
 -1      2765 7.40890E-03 4.84159E-04-1.36016E-14
 -1      2766 7.26438E-03 4.82734E-04-1.31148E-14
 -1      2767 7.19180E-03 4.43896E-04-1.29600E-14
 -1      2768 7.69854E-03 4.88592E-04-1.45901E-14
 -1      2769 7.55365E-03 4.86096E-04-1.40931E-14
 -1      2770 7.48154E-03 4.46236E-04-1.39293E-14
 -1      2771 7.98889E-03 4.95321E-04-1.56041E-14
 -1      2772 7.84367E-03 4.91662E-04-1.50946E-14
 -1      2773 7.77262E-03 4.50649E-04-1.49244E-14
 -1      2774 8.27963E-03 5.04184E-04-1.66415E-14
 -1      2775 8.13428E-03 4.99514E-04-1.61198E-14
 -1      2776 8.06510E-03 4.57418E-04-1.59421E-14
 -1      2777 8.57017E-03 5.14251E-04-1.76972E-14
 -1      2778 8.42503E-03 5.09160E-04-1.71660E-14
 -1      2779 8.35880E-03 4.66405E-04-1.69812E-14
 -1      2780 8.85950E-03 5.23380E-04-1.87779E-14
 -1      2781 8.71510E-03 5.19121E-04-1.82348E-14
 -1      2782 8.65310E-03 4.76660E-04-1.80422E-14
 -1      2783 9.14627E-03 5.27804E-04-1.98780E-14
 -1      2784 9.00331E-03 5.26486E-04-1.93262E-14
 -1      2785 8.94684E-03 4.85907E-04-1.91247E-14
 -1      2786 9.42913E-03 5.21967E-04-2.10064E-14
 -1      2787 9.28826E-03 5.26588E-04-2.04380E-14
 -1      2788 9.23840E-03 4.90046E-04-2.02291E-14
 -1      2789 9.70721E-03 4.98888E-04-2.21587E-14
 -1      2790 9.56875E-03 5.13062E-04-2.15793E-14
 -1      2791 9.52607E-03 4.82946E-04-2.13589E-14
 -1      2792 9.98071E-03 4.51290E-04-2.33392E-14
 -1      2793 9.84440E-03 4.78585E-04-2.27462E-14
 -1      2794 9.80878E-03 4.56894E-04-2.25158E-14
 -1      2795 1.02512E-02 3.73388E-04-2.45444E-14
 -1      2796 1.01161E-02 4.16388E-04-2.39387E-14
 -1      2797 1.00868E-02 4.04047E-04-2.36991E-14
 -1      2798 1.05212E-02 2.62588E-04-2.57713E-14
 -1      2799 1.03860E-02 3.22097E-04-2.51553E-14
 -1      2800 1.03622E-02 3.18587E-04-2.49070E-14
 -1      2801 1.07935E-02 1.20384E-04-2.70292E-14
 -1      2802 1.06569E-02 1.95156E-04-2.63974E-14
 -1      2803 1.06379E-02 1.98707E-04-2.61367E-14
 -1      2804 1.10701E-02-4.81849E-05-2.83186E-14
 -1      2805 1.09312E-02 3.89679E-05-2.76688E-14
 -1      2806 1.09168E-02 4.72297E-05-2.73980E-14
 -1      2807 1.13514E-02-2.36099E-04-2.96404E-14
 -1      2808 1.12101E-02-1.40197E-04-2.89750E-14
 -1      2809 1.12006E-02-1.29399E-04-2.86900E-14
 -1      2810 1.16368E-02-4.36203E-04-3.10003E-14
 -1      2811 1.14936E-02-3.35038E-04-3.03178E-14
 -1      2812 1.14891E-02-3.23223E-04-3.00182E-14
 -1      2813 1.19250E-02-6.42574E-04-3.23875E-14
 -1      2814 1.17807E-02-5.38903E-04-3.16906E-14
 -1      2815 1.17810E-02-5.26865E-04-3.13776E-14
 -1      2816 1.22146E-02-8.51084E-04-3.37945E-14
 -1      2817 1.20698E-02-7.46740E-04-3.30891E-14
 -1      2818 1.20747E-02-7.34738E-04-3.27624E-14
 -1      2819 1.25045E-02-1.05936E-03-3.52240E-14
 -1      2820 1.23597E-02-9.55333E-04-3.45058E-14
 -1      2821 1.23684E-02-9.43326E-04-3.41692E-14
 -1      2822 1.27940E-02-1.26640E-03-3.66753E-14
 -1      2823 1.26494E-02-1.16305E-03-3.59463E-14
 -1      2824 1.26612E-02-1.15089E-03-3.55970E-14
 -1      2825 1.30825E-02-1.47211E-03-3.81492E-14
 -1      2826 1.29384E-02-1.36940E-03-3.74083E-14
 -1      2827 1.29524E-02-1.35692E-03-3.70468E-14
 -1      2828 1.33573E-02-1.66242E-03-3.94829E-14
 -1      2829 1.32135E-02-1.56013E-03-3.87305E-14
 -1      2830 1.32290E-02-1.54737E-03-3.83572E-14
 -1      2831 1.34917E-02-1.72262E-03-3.95213E-14
 -1      2832 1.44717E-02-2.12915E-03-3.93920E-14
 -1      2833 1.43674E-02-2.08807E-03-3.93977E-14
 -1      2834 1.40549E-02-1.96040E-03-3.94204E-14
 -1      2835 1.39516E-02-1.91693E-03-3.94280E-14
 -1      2836 1.46783E-02-2.20831E-03-3.93772E-14
 -1      2837 1.45755E-02-2.16925E-03-3.93858E-14
 -1      2838 1.44009E-02-2.06852E-03-3.87746E-14
 -1      2839 1.42630E-02-2.04614E-03-3.94031E-14
 -1      2840 1.41588E-02-2.00354E-03-3.94103E-14
 -1      2841 1.39812E-02-1.89812E-03-3.87837E-14
 -1      2842 1.41907E-02-1.98499E-03-3.87793E-14
 -1      2843 1.31852E-02-1.21210E-03-3.02099E-14
 -1      2844 1.33369E-02-1.25914E-03-3.03404E-14
 -1      2845 1.48761E-02-2.28192E-03-3.93635E-14
 -1      2846 1.47781E-02-2.24560E-03-3.93700E-14
 -1      2847 1.46068E-02-2.14671E-03-3.87672E-14
 -1      2848 1.50686E-02-2.35302E-03-3.93515E-14
 -1      2849 1.49736E-02-2.31782E-03-3.93581E-14
 -1      2850 1.48063E-02-2.21975E-03-3.87603E-14
 -1      2851 1.52504E-02-2.42201E-03-3.93427E-14
 -1      2852 1.51609E-02-2.38758E-03-3.93439E-14
 -1      2853 1.49974E-02-2.28900E-03-3.87550E-14
 -1      2854 1.38700E-02-1.35719E-03-3.07030E-14
 -1      2855 1.39341E-02-1.35181E-03-3.06821E-14
 -1      2856 1.39898E-02-1.43601E-03-3.13996E-14
 -1      2857 1.40997E-02-1.49779E-03-3.20196E-14
 -1      2858 1.35380E-02-1.42087E-03-2.94930E-14
 -1      2859 9.40949E-03-3.18197E-04-2.20786E-14
 -1      2860 9.61271E-03-2.24110E-04-2.23431E-14
 -1      2861 8.19201E-04-2.63207E-04-2.99795E-16
 -1      2862 9.47197E-04-2.97901E-04-3.80555E-16
 -1      2863 8.10427E-04-2.37122E-04-3.01544E-16
 -1      2864 1.05471E-02 1.26054E-04-2.44298E-14
 -1      2865 1.07196E-02 1.29370E-04-2.49627E-14
 -1      2866 1.42134E-02-1.57017E-03-3.26662E-14
 -1      2867 1.43281E-02-1.65293E-03-3.32952E-14
 -1      2868 1.43561E-02-1.67960E-03-3.35968E-14
 -1      2869 1.12622E-02-7.78531E-05-2.65657E-14
 -1      2870 1.14261E-02-1.84710E-04-2.69882E-14
 -1      2871 1.05480E-03-3.19057E-04-4.58455E-16
 -1      2872 1.19811E-03-3.44646E-04-5.73245E-16
 -1      2873 1.25953E-03-3.22939E-04-6.37538E-16
 -1      2874 1.04427E-03-2.89289E-04-4.60434E-16
 -1      2875 7.84370E-04 1.23405E-04-2.39961E-16
 -1      2876 7.81981E-04 9.99728E-05-2.48337E-16
 -1      2877 8.99588E-04 9.93939E-05-3.20097E-16
 -1      2878 9.05330E-04 1.51524E-04-2.99592E-16
 -1      2879 1.09230E-02 8.52775E-05-2.55942E-14
 -1      2880 1.10791E-02 1.99815E-05-2.60667E-14
 -1      2881 1.35311E-02-1.30677E-03-3.04575E-14
 -1      2882 1.37209E-02-1.33981E-03-3.05964E-14
 -1      2883 1.02046E-02 3.60463E-05-2.35030E-14
 -1      2884 1.03455E-02 8.85534E-05-2.38616E-14
 -1      2885 9.85993E-03-1.09802E-04-2.27556E-14
 -1      2886 1.00379E-02-3.15149E-05-2.31273E-14
 -1      2887 1.00692E-02 2.27071E-05-2.30937E-14
 -1      2888 9.07822E-03-4.50107E-04-2.17622E-14
 -1      2889 9.21508E-03-4.00103E-04-2.18815E-14
 -1      2890 8.80088E-03-5.28621E-04-2.15727E-14
 -1      2891 8.93254E-03-4.98247E-04-2.16658E-14
 -1      2892 8.95793E-03-4.53136E-04-2.14164E-14
 -1      2893 8.62224E-03-5.42480E-04-2.13772E-14
 -1      2894 8.69146E-03-5.43849E-04-2.14600E-14
 -1      2895 8.67170E-03-5.51307E-04-2.15735E-14
 -1      2896 8.61371E-03-5.43521E-04-2.14095E-14
 -1      2897 1.39436E-02-1.34196E-03-3.05352E-14
 -1      2898 1.39261E-02-1.34074E-03-3.04828E-14
 -1      2899 1.16119E-02-3.09375E-04-2.74207E-14
 -1      2900 1.17989E-02-4.42648E-04-2.78377E-14
 -1      2901 7.87095E-04-1.45490E-04-2.98779E-16
 -1      2902 7.90965E-04-1.70668E-04-2.99890E-16
 -1      2903 9.04877E-04-1.49081E-04-3.76299E-16
 -1      2904 8.95447E-04 9.75161E-07-3.49804E-16
 -1      2905 7.77612E-04-9.75079E-06-2.78735E-16
 -1      2906 7.77976E-04-3.13942E-05-2.83343E-16
 -1      2907 8.60657E-03-4.77584E-04-2.06814E-14
 -1      2908 8.73680E-03-5.05746E-04-2.09972E-14
 -1      2909 1.19446E-02-5.51502E-04-2.82189E-14
 -1      2910 1.20907E-02-6.56799E-04-2.86029E-14
 -1      2911 1.18221E-02-4.82421E-04-2.81199E-14
 -1      2912 2.04764E-03 4.31107E-04-1.07005E-15
 -1      2913 1.98548E-03 4.63049E-04-9.58543E-16
 -1      2914 1.84343E-03 4.52818E-04-8.20971E-16
 -1      2915 8.82308E-03-5.46714E-04-2.14789E-14
 -1      2916 1.38644E-02-1.35069E-03-3.03721E-14
 -1      2917 1.37619E-02-1.36907E-03-3.01864E-14
 -1      2918 1.70122E-03 4.40373E-04-6.94662E-16
 -1      2919 1.55876E-03 4.25519E-04-5.79371E-16
 -1      2920 1.76213E-03 4.11048E-04-7.90099E-16
 -1      2921 1.29125E-02-1.11660E-03-3.00883E-14
 -1      2922 1.30486E-02-1.16765E-03-3.01503E-14
 -1      2923 1.31743E-02-1.23362E-03-3.06179E-14
 -1      2924 1.40716E-03 4.10130E-04-4.65177E-16
 -1      2925 1.29349E-03 3.99438E-04-3.84716E-16
 -1      2926 1.35913E-02-1.76565E-03-3.95156E-14
 -1      2927 1.34596E-02-1.67846E-03-3.89351E-14
 -1      2928 1.36914E-02-1.80883E-03-3.95108E-14
 -1      2929 1.15016E-02-2.53412E-04-2.73042E-14
 -1      2930 9.20566E-03-6.96849E-04-2.22743E-14
 -1      2931 8.96692E-03-6.12576E-04-2.19613E-14
 -1      2932 1.25050E-02-8.89628E-04-2.91591E-14
 -1      2933 1.39692E-02-1.37617E-03-3.09708E-14
 -1      2934 1.38261E-02-1.38055E-03-3.10156E-14
 -1      2935 1.54085E-02-2.49039E-03-3.94103E-14
 -1      2936 1.53314E-02-2.45838E-03-3.94084E-14
 -1      2937 1.51699E-02-2.35810E-03-3.88216E-14
 -1      2938 1.53286E-02-2.43035E-03-3.89596E-14
 -1      2939 8.71177E-03-5.48208E-04-2.15482E-14
 -1      2940 8.64322E-03-5.12606E-04-2.11405E-14
 -1      2941 1.41513E-02-1.51876E-03-3.23151E-14
 -1      2942 1.36352E-02-1.39580E-03-2.98583E-14
 -1      2943 9.27407E-03-3.32644E-04-2.17042E-14
 -1      2944 8.71355E-03-5.10601E-04-2.12107E-14
 -1      2945 1.11524E-02-3.27002E-05-2.63701E-14
 -1      2946 9.68767E-03-1.47340E-04-2.23069E-14
 -1      2947 1.39222E-02-1.36682E-03-3.07110E-14
 -1      2948 1.46699E-03 3.84607E-04-5.43714E-16
 -1      2949 1.37383E-02-1.38804E-03-3.02680E-14
 -1      2950 1.38716E-02-1.88452E-03-3.94688E-14
 -1      2951 1.37704E-02-1.84119E-03-3.94752E-14
 -1      2952 1.36381E-02-1.75490E-03-3.88982E-14
 -1      2953 1.37970E-02-1.82089E-03-3.88280E-14
 -1      2954 1.04126E-02 1.22346E-04-2.40360E-14
 -1      2955 7.78758E-04-5.31739E-05-2.87368E-16
 -1      2956 7.79982E-04-7.53604E-05-2.90864E-16
 -1      2957 8.99319E-04-9.71214E-05-3.69740E-16
 -1      2958 8.96341E-04-4.75540E-05-3.60890E-16
 -1      2959 8.78877E-03-5.54303E-04-2.15975E-14
 -1      2960 1.34878E-02-1.32197E-03-3.07946E-14
 -1      2961 1.07915E-02 1.15076E-04-2.52354E-14
 -1      2962 8.58294E-03-5.21365E-04-2.11325E-14
 -1      2963 8.56697E-03-4.98763E-04-2.08545E-14
 -1      2964 8.56297E-03-4.96660E-04-2.08888E-14
 -1      2965 1.38698E-02-1.40563E-03-3.08631E-14
 -1      2966 1.39609E-02-1.40519E-03-3.11335E-14
 -1      2967 8.51070E-03-4.52708E-04-2.02739E-14
 -1      2968 8.58062E-03-4.78779E-04-2.07075E-14
 -1      2969 8.56022E-03-4.82680E-04-2.07331E-14
 -1      2970 1.05886E-03 3.11048E-04-2.95079E-16
 -1      2971 1.04863E-03 2.76340E-04-3.15665E-16
 -1      2972 1.04027E-03 2.43206E-04-3.34219E-16
 -1      2973 1.03364E-03 2.11471E-04-3.50590E-16
 -1      2974 1.16749E-03 2.79007E-04-3.98919E-16
 -1      2975 1.13367E-03 3.92093E-04-2.72758E-16
 -1      2976 2.96918E-03 4.21628E-04-2.32831E-15
 -1      2977 2.82628E-03 4.19872E-04-2.11170E-15
 -1      2978 1.71735E-03-3.39315E-04-1.11720E-15
 -1      2979 1.86102E-03-3.49696E-04-1.29019E-15
 -1      2980 2.00467E-03-3.58334E-04-1.47484E-15
 -1      2981 2.14832E-03-3.65385E-04-1.67198E-15
 -1      2982 1.92578E-03-3.18516E-04-1.37700E-15
 -1      2983 2.29192E-03-3.71128E-04-1.88037E-15
 -1      2984 2.43547E-03-3.75690E-04-2.10005E-15
 -1      2985 2.21381E-03-3.31866E-04-1.76756E-15
 -1      2986 2.57897E-03-3.79295E-04-2.33090E-15
 -1      2987 2.72241E-03-3.82043E-04-2.57262E-15
 -1      2988 2.50178E-03-3.40545E-04-2.20379E-15
 -1      2989 2.86580E-03-3.84107E-04-2.82566E-15
 -1      2990 3.00913E-03-3.85565E-04-3.08859E-15
 -1      2991 2.78954E-03-3.45795E-04-2.68453E-15
 -1      2992 3.15241E-03-3.86545E-04-3.36198E-15
 -1      2993 3.29565E-03-3.87105E-04-3.64440E-15
 -1      2994 3.07704E-03-3.48595E-04-3.20698E-15
 -1      2995 3.43885E-03-3.87341E-04-3.93659E-15
 -1      2996 3.58200E-03-3.87291E-04-4.23850E-15
 -1      2997 3.36426E-03-3.49687E-04-3.76863E-15
 -1      2998 3.71797E-03-3.87043E-04-4.53473E-15
 -1      2999 3.85391E-03-3.86621E-04-4.83951E-15
 -1      3000 3.64405E-03-3.49627E-04-4.35361E-15
 -1      3001 3.99697E-03-3.86035E-04-5.16861E-15
 -1      3002 4.14001E-03-3.85320E-04-5.50795E-15
 -1      3003 3.92361E-03-3.48823E-04-4.97458E-15
 -1      3004 4.28303E-03-3.84507E-04-5.85632E-15
 -1      3005 4.42602E-03-3.83605E-04-6.21374E-15
 -1      3006 4.21011E-03-3.47482E-04-5.64875E-15
 -1      3007 4.56899E-03-3.82631E-04-6.58071E-15
 -1      3008 4.71194E-03-3.81591E-04-6.95566E-15
 -1      3009 4.49641E-03-3.45787E-04-6.36058E-15
 -1      3010 4.85486E-03-3.80492E-04-7.33911E-15
 -1      3011 4.99776E-03-3.79335E-04-7.73070E-15
 -1      3012 4.78251E-03-3.43838E-04-7.10700E-15
 -1      3013 5.14063E-03-3.78120E-04-8.13129E-15
 -1      3014 5.28347E-03-3.76846E-04-8.54019E-15
 -1      3015 5.06840E-03-3.41682E-04-7.88739E-15
 -1      3016 5.42625E-03-3.75510E-04-8.95663E-15
 -1      3017 5.56899E-03-3.74107E-04-9.38000E-15
 -1      3018 5.35403E-03-3.39334E-04-8.70082E-15
 -1      3019 5.71164E-03-3.72636E-04-9.81126E-15
 -1      3020 5.85421E-03-3.71092E-04-1.02514E-14
 -1      3021 5.63931E-03-3.36795E-04-9.54649E-15
 -1      3022 5.99664E-03-3.69477E-04-1.06984E-14
 -1      3023 6.13892E-03-3.67787E-04-1.11514E-14
 -1      3024 5.92408E-03-3.34075E-04-1.04232E-14
 -1      3025 6.28097E-03-3.66039E-04-1.16110E-14
 -1      3026 6.42278E-03-3.64226E-04-1.20752E-14
 -1      3027 6.20805E-03-3.31222E-04-1.13279E-14
 -1      3028 6.56420E-03-3.62400E-04-1.25447E-14
 -1      3029 6.70520E-03-3.60548E-04-1.30180E-14
 -1      3030 6.49076E-03-3.28367E-04-1.22541E-14
 -1      3031 6.84557E-03-3.58783E-04-1.34965E-14
 -1      3032 6.98525E-03-3.57084E-04-1.39800E-14
 -1      3033 6.77147E-03-3.25799E-04-1.31987E-14
 -1      3034 7.12390E-03-3.55671E-04-1.44663E-14
 -1      3035 7.26141E-03-3.54506E-04-1.49552E-14
 -1      3036 7.04903E-03-3.24070E-04-1.41621E-14
 -1      3037 7.39731E-03-3.53992E-04-1.54492E-14
 -1      3038 7.53137E-03-3.54052E-04-1.59458E-14
 -1      3039 7.32167E-03-3.24163E-04-1.51404E-14
 -1      3040 7.66291E-03-3.55391E-04-1.64433E-14
 -1      3041 7.79156E-03-3.57829E-04-1.69443E-14
 -1      3042 7.58671E-03-3.27729E-04-1.61299E-14
 -1      3043 7.91025E-03-3.62288E-04-1.74223E-14
 -1      3044 8.02494E-03-3.68416E-04-1.79018E-14
 -1      3045 7.83409E-03-3.37041E-04-1.71051E-14
 -1      3046 8.14024E-03-3.78544E-04-1.84077E-14
 -1      3047 8.24898E-03-3.91492E-04-1.89153E-14
 -1      3048 8.06533E-03-3.55691E-04-1.80903E-14
 -1      3049 1.15334E-03 3.62312E-04-3.16275E-16
 -1      3050 1.40040E-02-1.40516E-03-3.12474E-14
 -1      3051 2.68333E-03 4.17449E-04-1.90530E-15
 -1      3052 2.54035E-03 4.14276E-04-1.70919E-15
 -1      3053 2.74978E-03 3.81507E-04-2.05300E-15
 -1      3054 1.47165E-02-1.97851E-03-3.58324E-14
 -1      3055 1.48436E-02-2.07365E-03-3.64866E-14
 -1      3056 1.49739E-02-2.16978E-03-3.71449E-14
 -1      3057 1.51073E-02-2.26713E-03-3.78054E-14
 -1      3058 1.48393E-02-2.09609E-03-3.68036E-14
 -1      3059 1.47378E-02-2.15797E-03-3.81649E-14
 -1      3060 1.46384E-02-2.12273E-03-3.81632E-14
 -1      3061 2.39732E-03 4.10162E-04-1.52324E-15
 -1      3062 2.25423E-03 4.04999E-04-1.34822E-15
 -1      3063 2.46280E-03 3.75370E-04-1.65611E-15
 -1      3064 3.54059E-03 4.24148E-04-3.29923E-15
 -1      3065 3.39777E-03 4.24046E-04-3.04153E-15
 -1      3066 3.82623E-03 4.23672E-04-3.84621E-15
 -1      3067 3.68342E-03 4.24013E-04-3.56742E-15
 -1      3068 3.60945E-03 3.86653E-04-3.49032E-15
 -1      3069 4.11185E-03 4.22550E-04-4.43408E-15
 -1      3070 3.96904E-03 4.23177E-04-4.13458E-15
 -1      3071 3.89566E-03 3.86015E-04-4.05093E-15
 -1      3072 4.39748E-03 4.21015E-04-5.06316E-15
 -1      3073 4.25467E-03 4.21824E-04-4.74338E-15
 -1      3074 4.18174E-03 3.84821E-04-4.65181E-15
 -1      3075 4.68313E-03 4.19218E-04-5.73192E-15
 -1      3076 4.54030E-03 4.20143E-04-5.39286E-15
 -1      3077 4.46772E-03 3.83270E-04-5.29412E-15
 -1      3078 4.96881E-03 4.17254E-04-6.43910E-15
 -1      3079 4.82597E-03 4.18254E-04-6.08109E-15
 -1      3080 4.75362E-03 3.81487E-04-5.97504E-15
 -1      3081 5.25456E-03 4.15186E-04-7.18388E-15
 -1      3082 5.11168E-03 4.16231E-04-6.80703E-15
 -1      3083 5.03947E-03 3.79550E-04-6.69485E-15
 -1      3084 5.54039E-03 4.13061E-04-7.96590E-15
 -1      3085 5.39746E-03 4.14128E-04-7.57005E-15
 -1      3086 5.32530E-03 3.77505E-04-7.45071E-15
 -1      3087 5.82638E-03 4.10939E-04-8.78068E-15
 -1      3088 5.68336E-03 4.11996E-04-8.36955E-15
 -1      3089 5.61115E-03 3.75387E-04-8.24374E-15
 -1      3090 6.11261E-03 4.08907E-04-9.62875E-15
 -1      3091 5.96946E-03 4.09906E-04-9.20099E-15
 -1      3092 5.89712E-03 3.73243E-04-9.06964E-15
 -1      3093 6.39922E-03 4.07103E-04-1.05045E-14
 -1      3094 6.25586E-03 4.07966E-04-1.00630E-14
 -1      3095 6.18333E-03 3.71143E-04-9.92633E-15
 -1      3096 6.68640E-03 4.05737E-04-1.14064E-14
 -1      3097 6.54273E-03 4.06348E-04-1.09515E-14
 -1      3098 6.46996E-03 3.69209E-04-1.08096E-14
 -1      3099 6.97444E-03 4.05105E-04-1.23330E-14
 -1      3100 6.83030E-03 4.05305E-04-1.18674E-14
 -1      3101 6.75728E-03 3.67634E-04-1.17184E-14
 -1      3102 7.26368E-03 4.05602E-04-1.32839E-14
 -1      3103 7.11890E-03 4.05180E-04-1.28050E-14
 -1      3104 7.04569E-03 3.66703E-04-1.26523E-14
 -1      3105 7.55451E-03 4.07698E-04-1.42587E-14
 -1      3106 7.40889E-03 4.06412E-04-1.37686E-14
 -1      3107 7.33567E-03 3.66808E-04-1.36080E-14
 -1      3108 7.84732E-03 4.11876E-04-1.52573E-14
 -1      3109 7.70068E-03 4.09489E-04-1.47551E-14
 -1      3110 7.62779E-03 3.68447E-04-1.45880E-14
 -1      3111 8.14235E-03 4.18487E-04-1.62802E-14
 -1      3112 7.99459E-03 4.14855E-04-1.57657E-14
 -1      3113 7.92262E-03 3.72174E-04-1.55905E-14
 -1      3114 8.43950E-03 4.27477E-04-1.73221E-14
 -1      3115 8.29073E-03 4.22702E-04-1.67986E-14
 -1      3116 8.22059E-03 3.78458E-04-1.66165E-14
 -1      3117 8.73812E-03 4.37944E-04-1.83865E-14
 -1      3118 8.58875E-03 4.32626E-04-1.78512E-14
 -1      3119 8.52168E-03 3.87406E-04-1.76635E-14
 -1      3120 9.03682E-03 4.47520E-04-1.94701E-14
 -1      3121 8.88762E-03 4.43077E-04-1.89251E-14
 -1      3122 8.82513E-03 3.98237E-04-1.87292E-14
 -1      3123 9.33357E-03 4.51728E-04-2.05781E-14
 -1      3124 9.18561E-03 4.50693E-04-2.00206E-14
 -1      3125 9.12923E-03 4.08498E-04-1.98144E-14
 -1      3126 9.62622E-03 4.43716E-04-2.17119E-14
 -1      3127 9.48051E-03 4.49808E-04-2.11422E-14
 -1      3128 9.43142E-03 4.13245E-04-2.09250E-14
 -1      3129 9.91349E-03 4.14790E-04-2.28715E-14
 -1      3130 9.77050E-03 4.32484E-04-2.22877E-14
 -1      3131 9.72905E-03 4.04631E-04-2.20625E-14
 -1      3132 1.01958E-02 3.56379E-04-2.40568E-14
 -1      3133 1.00550E-02 3.89790E-04-2.34609E-14
 -1      3134 1.00206E-02 3.72724E-04-2.32250E-14
 -1      3135 1.04759E-02 2.62552E-04-2.52663E-14
 -1      3136 1.03358E-02 3.14051E-04-2.46595E-14
 -1      3137 1.03071E-02 3.07894E-04-2.44152E-14
 -1      3138 1.07572E-02 1.32662E-04-2.65019E-14
 -1      3139 1.06160E-02 2.01921E-04-2.58805E-14
 -1      3140 1.05919E-02 2.04584E-04-2.56273E-14
 -1      3141 1.10429E-02-2.87727E-05-2.77662E-14
 -1      3142 1.08993E-02 5.53920E-05-2.71294E-14
 -1      3143 1.08793E-02 6.36270E-05-2.68656E-14
 -1      3144 1.13341E-02-2.13661E-04-2.90618E-14
 -1      3145 1.11878E-02-1.18910E-04-2.84106E-14
 -1      3146 1.11723E-02-1.08324E-04-2.81328E-14
 -1      3147 1.16298E-02-4.13092E-04-3.03923E-14
 -1      3148 1.14815E-02-3.12103E-04-2.97232E-14
 -1      3149 1.14712E-02-3.01289E-04-2.94335E-14
 -1      3150 1.19281E-02-6.19670E-04-3.17514E-14
 -1      3151 1.17788E-02-5.15873E-04-3.10686E-14
 -1      3152 1.17742E-02-5.05665E-04-3.07643E-14
 -1      3153 1.22267E-02-8.28359E-04-3.31363E-14
 -1      3154 1.20775E-02-7.23967E-04-3.24417E-14
 -1      3155 1.20784E-02-7.14317E-04-3.21236E-14
 -1      3156 1.25240E-02-1.03642E-03-3.45415E-14
 -1      3157 1.23756E-02-9.32553E-04-3.38364E-14
 -1      3158 1.23814E-02-9.23028E-04-3.35084E-14
 -1      3159 1.28191E-02-1.24281E-03-3.59683E-14
 -1      3160 1.26719E-02-1.13983E-03-3.52506E-14
 -1      3161 1.26817E-02-1.12995E-03-3.49119E-14
 -1      3162 1.31118E-02-1.44753E-03-3.74163E-14
 -1      3163 1.29658E-02-1.34534E-03-3.66896E-14
 -1      3164 1.29786E-02-1.33478E-03-3.63358E-14
 -1      3165 1.33519E-02-1.60699E-03-3.84614E-14
 -1      3166 1.32198E-02-1.51941E-03-3.78868E-14
 -1      3167 1.32345E-02-1.50825E-03-3.75224E-14
 -1      3168 1.34512E-02-1.65098E-03-3.84592E-14
 -1      3169 1.40195E-02-1.41485E-03-3.13978E-14
 -1      3170 1.40748E-02-1.46031E-03-3.18223E-14
 -1      3171 1.40067E-02-1.43102E-03-3.15459E-14
 -1      3172 1.02879E-02 1.22548E-04-2.36523E-14
 -1      3173 1.04677E-02 1.47766E-04-2.42227E-14
 -1      3174 1.23498E-02-8.24474E-04-2.91990E-14
 -1      3175 1.26032E-02-9.68096E-04-2.96607E-14
 -1      3176 1.43307E-02-2.00910E-03-3.81634E-14
 -1      3177 1.42248E-02-1.96775E-03-3.81639E-14
 -1      3178 1.14092E-02-2.10240E-04-2.72391E-14
 -1      3179 1.15745E-02-3.24938E-04-2.76731E-14
 -1      3180 1.49272E-02-2.22479E-03-3.81662E-14
 -1      3181 1.48342E-02-2.19179E-03-3.81646E-14
 -1      3182 1.46708E-02-2.09624E-03-3.75751E-14
 -1      3183 1.45372E-02-2.08634E-03-3.81622E-14
 -1      3184 1.44351E-02-2.04865E-03-3.81635E-14
 -1      3185 1.42608E-02-1.95045E-03-3.75602E-14
 -1      3186 1.44700E-02-2.02698E-03-3.75673E-14
 -1      3187 1.37853E-02-1.40961E-03-3.13877E-14
 -1      3188 1.39237E-02-1.42424E-03-3.14911E-14
 -1      3189 3.25492E-03 4.23632E-04-2.79351E-15
 -1      3190 3.11207E-03 4.22861E-04-2.55588E-15
 -1      3191 3.32308E-03 3.86432E-04-2.97052E-15
 -1      3192 1.41575E-02-1.53194E-03-3.24675E-14
 -1      3193 1.34548E-02-1.34238E-03-3.11920E-14
 -1      3194 1.36221E-02-1.38205E-03-3.13066E-14
 -1      3195 7.96611E-04-1.91111E-04-3.01462E-16
 -1      3196 8.02865E-04-2.14574E-04-3.01774E-16
 -1      3197 9.28577E-04-2.44792E-04-3.82913E-16
 -1      3198 9.14677E-04-1.98346E-04-3.80704E-16
 -1      3199 1.44765E-02-1.79514E-03-3.45388E-14
 -1      3200 1.45940E-02-1.88580E-03-3.51853E-14
 -1      3201 1.45902E-02-1.91105E-03-3.54962E-14
 -1      3202 1.42621E-02-1.62563E-03-3.32663E-14
 -1      3203 1.43656E-02-1.70886E-03-3.39007E-14
 -1      3204 1.43615E-02-1.73667E-03-3.42060E-14
 -1      3205 1.43028E-03-3.12154E-04-8.07392E-16
 -1      3206 1.57377E-03-3.26863E-04-9.56036E-16
 -1      3207 1.63802E-03-2.98976E-04-1.03300E-15
 -1      3208 9.11737E-03-3.40884E-04-2.12487E-14
 -1      3209 9.28075E-03-2.70327E-04-2.14402E-14
 -1      3210 9.51274E-03-1.69753E-04-2.18055E-14
 -1      3211 9.72769E-03-7.25428E-05-2.22133E-14
 -1      3212 8.63870E-03-4.87923E-04-2.08697E-14
 -1      3213 8.73697E-03-4.76200E-04-2.09803E-14
 -1      3214 9.93773E-03 1.68873E-05-2.26839E-14
 -1      3215 1.00823E-02 7.17685E-05-2.30584E-14
 -1      3216 1.10677E-02-1.91341E-06-2.62341E-14
 -1      3217 1.12320E-02-9.68318E-05-2.67348E-14
 -1      3218 1.13111E-02-1.60445E-04-2.71012E-14
 -1      3219 8.83933E-03-4.44198E-04-2.10222E-14
 -1      3220 8.96030E-03-4.04401E-04-2.11141E-14
 -1      3221 1.01654E-03 6.81521E-05-4.11577E-16
 -1      3222 1.01537E-03 4.11762E-05-4.20277E-16
 -1      3223 1.06737E-02 1.36722E-04-2.48974E-14
 -1      3224 1.08582E-02 9.13513E-05-2.55290E-14
 -1      3225 9.48962E-03-8.18075E-04-2.25893E-14
 -1      3226 1.01477E-03 1.44071E-05-4.28422E-16
 -1      3227 1.01473E-03-1.22632E-05-4.35863E-16
 -1      3228 1.13545E-03 3.01162E-05-5.14196E-16
 -1      3229 1.15306E-03 2.11731E-04-4.36961E-16
 -1      3230 1.02830E-03 1.81092E-04-3.65430E-16
 -1      3231 1.02412E-03 1.51769E-04-3.78874E-16
 -1      3232 9.33934E-03-1.90766E-04-2.13428E-14
 -1      3233 9.75714E-03-8.85715E-06-2.21716E-14
 -1      3234 3.03653E-03 3.84920E-04-2.49137E-15
 -1      3235 1.22134E-02-7.49502E-04-2.90994E-14
 -1      3236 2.11107E-03 3.98539E-04-1.18445E-15
 -1      3237 1.96785E-03 3.90645E-04-1.03120E-15
 -1      3238 2.17560E-03 3.65422E-04-1.30160E-15
 -1      3239 1.24576E-03 3.41182E-04-4.05193E-16
 -1      3240 1.08374E-03 3.33679E-04-2.92870E-16
 -1      3241 8.35210E-03-4.10895E-04-1.94285E-14
 -1      3242 8.44364E-03-4.33057E-04-1.99364E-14
 -1      3243 1.82457E-03 3.81001E-04-8.89114E-16
 -1      3244 1.68122E-03 3.69429E-04-7.57722E-16
 -1      3245 1.88825E-03 3.50281E-04-9.90757E-16
 -1      3246 1.01834E-03 9.54075E-05-4.01697E-16
 -1      3247 1.13811E-03 8.84980E-05-4.93176E-16
 -1      3248 1.02081E-03 1.23174E-04-3.90801E-16
 -1      3249 1.17059E-02-4.19513E-04-2.80563E-14
 -1      3250 1.18395E-02-5.15629E-04-2.84396E-14
 -1      3251 1.16093E-02-3.64149E-04-2.79902E-14
 -1      3252 1.02367E-03-1.49143E-04-4.62737E-16
 -1      3253 1.02773E-03-1.78387E-04-4.65746E-16
 -1      3254 1.27563E-02-1.05521E-03-3.01294E-14
 -1      3255 1.52491E-02-2.37003E-03-3.85134E-14
 -1      3256 1.37616E-02-1.43646E-03-3.17869E-14
 -1      3257 1.40034E-02-1.46696E-03-3.19199E-14
 -1      3258 1.39072E-02-1.83701E-03-3.81618E-14
 -1      3259 1.38027E-02-1.79204E-03-3.81625E-14
 -1      3260 1.01503E-02 1.20625E-04-2.32340E-14
 -1      3261 1.51085E-02-2.29217E-03-3.81780E-14
 -1      3262 1.40470E-02-1.86657E-03-3.75533E-14
 -1      3263 1.41186E-02-1.92512E-03-3.81632E-14
 -1      3264 1.40126E-02-1.88148E-03-3.81601E-14
 -1      3265 1.33424E-02-1.31086E-03-3.11308E-14
 -1      3266 1.34959E-02-1.37827E-03-3.16459E-14
 -1      3267 1.32264E-02-1.27348E-03-3.10719E-14
 -1      3268 1.05421E-02 1.54367E-04-2.45062E-14
 -1      3269 1.03536E-03-2.63309E-04-4.60447E-16
 -1      3270 1.37219E-02-1.75824E-03-3.81962E-14
 -1      3271 1.36418E-02-1.72447E-03-3.82300E-14
 -1      3272 1.36463E-02-1.69671E-03-3.75759E-14
 -1      3273 1.41594E-02-1.56111E-03-3.27673E-14
 -1      3274 1.32242E-03-3.00175E-04-7.03498E-16
 -1      3275 1.38646E-03-2.76193E-04-7.70814E-16
 -1      3276 1.21470E-03-2.86592E-04-6.06882E-16
 -1      3277 1.09398E-02 5.23938E-05-2.58879E-14
 -1      3278 1.10176E-02 4.82558E-06-2.62492E-14
 -1      3279 1.08207E-02 9.45946E-05-2.55434E-14
 -1      3280 8.50713E-03-4.65537E-04-2.04550E-14
 -1      3281 8.56133E-03-4.76447E-04-2.06245E-14
 -1      3282 8.56092E-03-4.49929E-04-2.03924E-14
 -1      3283 8.50264E-03-4.59359E-04-2.03791E-14
 -1      3284 8.97579E-03-3.43240E-04-2.08505E-14
 -1      3285 8.73663E-03-4.31357E-04-2.06785E-14
 -1      3286 1.50294E-02-2.25744E-03-3.81068E-14
 -1      3287 1.01809E-03-9.30220E-05-4.53996E-16
 -1      3288 1.02048E-03-1.20743E-04-4.58672E-16
 -1      3289 1.14328E-03-1.45940E-04-5.57348E-16
 -1      3290 1.48717E-02-2.16041E-03-3.75224E-14
 -1      3291 1.52224E-03 3.55853E-04-6.22495E-16
 -1      3292 1.36965E-03 3.41504E-04-5.04303E-16
 -1      3293 8.27936E-03-3.90208E-04-1.91090E-14
 -1      3294 1.30142E-03 3.16128E-04-4.71547E-16
 -1      3295 1.58523E-03 3.28698E-04-7.07659E-16
 -1      3296 9.14873E-03-1.97066E-04-2.07808E-14
 -1      3297 9.34998E-03-1.11029E-04-2.11395E-14
 -1      3298 1.84746E-03-2.79163E-04-1.28100E-15
 -1      3299 1.99167E-03-2.86620E-04-1.46337E-15
 -1      3300 8.43610E-03-4.33533E-04-1.99617E-14
 -1      3301 1.29227E-03 2.79647E-04-4.95426E-16
 -1      3302 2.13596E-03-2.92785E-04-1.65776E-15
 -1      3303 2.28031E-03-2.97778E-04-1.86321E-15
 -1      3304 2.05851E-03-2.54030E-04-1.55038E-15
 -1      3305 2.42465E-03-3.01799E-04-2.08016E-15
 -1      3306 2.56896E-03-3.04946E-04-2.30774E-15
 -1      3307 2.34770E-03-2.63165E-04-1.95867E-15
 -1      3308 2.71322E-03-3.07385E-04-2.54599E-15
 -1      3309 2.85742E-03-3.09191E-04-2.79503E-15
 -1      3310 2.63694E-03-2.68953E-04-2.41078E-15
 -1      3311 3.00153E-03-3.10494E-04-3.05441E-15
 -1      3312 3.14556E-03-3.11351E-04-3.32378E-15
 -1      3313 2.92596E-03-2.72292E-04-2.90474E-15
 -1      3314 3.28951E-03-3.11860E-04-3.60313E-15
 -1      3315 3.43336E-03-3.12062E-04-3.89165E-15
 -1      3316 3.21464E-03-2.73891E-04-3.43944E-15
 -1      3317 3.56995E-03-3.12037E-04-4.17419E-15
 -1      3318 3.70645E-03-3.11823E-04-4.46689E-15
 -1      3319 3.49571E-03-2.74288E-04-3.99878E-15
 -1      3320 3.85006E-03-3.11445E-04-4.78392E-15
 -1      3321 3.99358E-03-3.10927E-04-5.10923E-15
 -1      3322 3.77638E-03-2.73906E-04-4.59470E-15
 -1      3323 4.13703E-03-3.10306E-04-5.44446E-15
 -1      3324 4.28040E-03-3.09592E-04-5.78934E-15
 -1      3325 4.06383E-03-2.72976E-04-5.24334E-15
 -1      3326 4.42369E-03-3.08809E-04-6.14328E-15
 -1      3327 4.56691E-03-3.07962E-04-6.50580E-15
 -1      3328 4.35087E-03-2.71688E-04-5.92888E-15
 -1      3329 4.71006E-03-3.07066E-04-6.87724E-15
 -1      3330 4.85312E-03-3.06122E-04-7.25670E-15
 -1      3331 4.63753E-03-2.70163E-04-6.64972E-15
 -1      3332 4.99611E-03-3.05140E-04-7.64563E-15
 -1      3333 5.13901E-03-3.04118E-04-8.04330E-15
 -1      3334 4.92378E-03-2.68475E-04-7.40595E-15
 -1      3335 5.28181E-03-3.03064E-04-8.44814E-15
 -1      3336 5.42450E-03-3.01975E-04-8.86204E-15
 -1      3337 5.20961E-03-2.66673E-04-8.19718E-15
 -1      3338 5.56707E-03-3.00862E-04-9.28412E-15
 -1      3339 5.70949E-03-2.99721E-04-9.71360E-15
 -1      3340 5.49491E-03-2.64798E-04-9.02266E-15
 -1      3341 5.85172E-03-2.98572E-04-1.01510E-14
 -1      3342 5.99374E-03-2.97412E-04-1.05957E-14
 -1      3343 5.77955E-03-2.62913E-04-9.88012E-15
 -1      3344 6.13549E-03-2.96277E-04-1.10456E-14
 -1      3345 6.27693E-03-2.95169E-04-1.15025E-14
 -1      3346 6.06327E-03-2.61127E-04-1.07658E-14
 -1      3347 6.41794E-03-2.94155E-04-1.19652E-14
 -1      3348 6.55848E-03-2.93239E-04-1.24315E-14
 -1      3349 6.34566E-03-2.59648E-04-1.16764E-14
 -1      3350 6.69838E-03-2.92542E-04-1.29025E-14
 -1      3351 6.83754E-03-2.92072E-04-1.33792E-14
 -1      3352 6.62611E-03-2.58846E-04-1.26087E-14
 -1      3353 6.97575E-03-2.92041E-04-1.38598E-14
 -1      3354 7.11283E-03-2.92454E-04-1.43440E-14
 -1      3355 6.90369E-03-2.59347E-04-1.35584E-14
 -1      3356 7.24847E-03-2.93668E-04-1.48311E-14
 -1      3357 7.38241E-03-2.95676E-04-1.53234E-14
 -1      3358 7.17705E-03-2.62169E-04-1.45250E-14
 -1      3359 7.51424E-03-2.99057E-04-1.58180E-14
 -1      3360 7.64350E-03-3.03758E-04-1.63142E-14
 -1      3361 7.44428E-03-2.68894E-04-1.55050E-14
 -1      3362 7.76352E-03-3.10294E-04-1.67892E-14
 -1      3363 7.88014E-03-3.18665E-04-1.72669E-14
 -1      3364 7.69643E-03-2.81434E-04-1.64733E-14
 -1      3365 7.99882E-03-3.30787E-04-1.77711E-14
 -1      3366 8.11212E-03-3.45850E-04-1.82771E-14
 -1      3367 7.93702E-03-3.02932E-04-1.74517E-14
 -1      3368 2.52920E-03 3.40108E-04-1.79284E-15
 -1      3369 2.38522E-03 3.36413E-04-1.60202E-15
 -1      3370 1.47422E-02-2.06807E-03-3.68562E-14
 -1      3371 1.46362E-02-2.03817E-03-3.69089E-14
 -1      3372 1.46160E-02-1.97714E-03-3.61972E-14
 -1      3373 1.26541E-02-1.01938E-03-3.03506E-14
 -1      3374 1.29323E-02-1.15590E-03-3.07805E-14
 -1      3375 2.81699E-03 3.45186E-04-2.20346E-15
 -1      3376 2.67313E-03 3.43004E-04-1.99289E-15
 -1      3377 2.59643E-03 3.04438E-04-1.93105E-15
 -1      3378 1.42401E-02-1.68211E-03-3.38703E-14
 -1      3379 1.43470E-02-1.76306E-03-3.45117E-14
 -1      3380 1.38332E-02-1.77719E-03-3.75474E-14
 -1      3381 3.96536E-03 3.48235E-04-4.25834E-15
 -1      3382 3.82205E-03 3.48686E-04-3.96621E-15
 -1      3383 3.67867E-03 3.48984E-04-3.68373E-15
 -1      3384 3.53523E-03 3.49109E-04-3.41125E-15
 -1      3385 3.74825E-03 3.11193E-04-3.87979E-15
 -1      3386 4.53809E-03 3.45477E-04-5.52757E-15
 -1      3387 4.39498E-03 3.46277E-04-5.19509E-15
 -1      3388 4.82418E-03 3.43737E-04-6.22121E-15
 -1      3389 4.68115E-03 3.44630E-04-5.86987E-15
 -1      3390 4.60858E-03 3.07669E-04-5.76344E-15
 -1      3391 5.11014E-03 3.41847E-04-6.95180E-15
 -1      3392 4.96717E-03 3.42810E-04-6.58157E-15
 -1      3393 4.89480E-03 3.05994E-04-6.46885E-15
 -1      3394 5.39600E-03 3.39836E-04-7.71947E-15
 -1      3395 5.25308E-03 3.40856E-04-7.33087E-15
 -1      3396 5.18082E-03 3.04166E-04-7.21057E-15
 -1      3397 5.68184E-03 3.37726E-04-8.52297E-15
 -1      3398 5.53892E-03 3.38793E-04-8.11722E-15
 -1      3399 5.46668E-03 3.02196E-04-7.99014E-15
 -1      3400 5.96776E-03 3.35541E-04-9.35912E-15
 -1      3401 5.82479E-03 3.36640E-04-8.93705E-15
 -1      3402 5.75246E-03 3.00086E-04-8.80418E-15
 -1      3403 6.25392E-03 3.33332E-04-1.02248E-14
 -1      3404 6.11080E-03 3.34434E-04-9.78796E-15
 -1      3405 6.03829E-03 2.97836E-04-9.65042E-15
 -1      3406 6.54055E-03 3.31196E-04-1.11158E-14
 -1      3407 6.39716E-03 3.32245E-04-1.06681E-14
 -1      3408 6.32436E-03 2.95467E-04-1.05255E-14
 -1      3409 6.82802E-03 3.29298E-04-1.20326E-14
 -1      3410 6.68416E-03 3.30200E-04-1.15711E-14
 -1      3411 6.61098E-03 2.93041E-04-1.14249E-14
 -1      3412 7.11682E-03 3.27902E-04-1.29712E-14
 -1      3413 6.97222E-03 3.28510E-04-1.24994E-14
 -1      3414 6.89857E-03 2.90686E-04-1.23474E-14
 -1      3415 7.40760E-03 3.27400E-04-1.39331E-14
 -1      3416 7.26193E-03 3.27498E-04-1.34491E-14
 -1      3417 7.18778E-03 2.88640E-04-1.32919E-14
 -1      3418 7.70113E-03 3.28327E-04-1.49167E-14
 -1      3419 7.55399E-03 3.27630E-04-1.44224E-14
 -1      3420 7.47941E-03 2.87292E-04-1.42586E-14
 -1      3421 7.99821E-03 3.31340E-04-1.59253E-14
 -1      3422 7.84921E-03 3.29508E-04-1.54180E-14
 -1      3423 7.77446E-03 2.87235E-04-1.52478E-14
 -1      3424 8.29944E-03 3.37096E-04-1.69536E-14
 -1      3425 8.14832E-03 3.33819E-04-1.64369E-14
 -1      3426 8.07397E-03 2.89281E-04-1.62588E-14
 -1      3427 8.60489E-03 3.45942E-04-1.80016E-14
 -1      3428 8.45171E-03 3.41115E-04-1.74753E-14
 -1      3429 8.37875E-03 2.94351E-04-1.72899E-14
 -1      3430 8.91372E-03 3.57340E-04-1.90692E-14
 -1      3431 8.75905E-03 3.51424E-04-1.85334E-14
 -1      3432 8.68901E-03 3.03174E-04-1.83399E-14
 -1      3433 9.22379E-03 3.68782E-04-2.01576E-14
 -1      3434 9.06884E-03 3.63356E-04-1.96100E-14
 -1      3435 9.00371E-03 3.15547E-04-1.94084E-14
 -1      3436 9.53184E-03 3.74734E-04-2.12726E-14
 -1      3437 9.37832E-03 3.72988E-04-2.07124E-14
 -1      3438 9.32019E-03 3.28868E-04-2.05008E-14
 -1      3439 9.83463E-03 3.66020E-04-2.24117E-14
 -1      3440 9.68406E-03 3.72995E-04-2.18388E-14
 -1      3441 9.63438E-03 3.36821E-04-2.16164E-14
 -1      3442 1.01304E-02 3.31212E-04-2.35787E-14
 -1      3443 9.98325E-03 3.52775E-04-2.29919E-14
 -1      3444 9.94218E-03 3.28425E-04-2.27605E-14
 -1      3445 1.04208E-02 2.59003E-04-2.47703E-14
 -1      3446 1.02758E-02 3.00210E-04-2.41716E-14
 -1      3447 1.02421E-02 2.90089E-04-2.39307E-14
 -1      3448 1.07106E-02 1.44724E-04-2.59883E-14
 -1      3449 1.05653E-02 2.07113E-04-2.53759E-14
 -1      3450 1.05367E-02 2.08864E-04-2.51270E-14
 -1      3451 1.10045E-02-8.61170E-06-2.72284E-14
 -1      3452 1.08566E-02 7.24536E-05-2.66047E-14
 -1      3453 1.08320E-02 8.18767E-05-2.63466E-14
 -1      3454 1.13055E-02-1.91725E-04-2.85009E-14
 -1      3455 1.11541E-02-9.73343E-05-2.78612E-14
 -1      3456 1.11337E-02-8.53621E-05-2.75920E-14
 -1      3457 1.16125E-02-3.92524E-04-2.98037E-14
 -1      3458 1.14584E-02-2.90691E-04-2.91485E-14
 -1      3459 1.14435E-02-2.79651E-04-2.88681E-14
 -1      3460 1.19226E-02-6.01031E-04-3.11348E-14
 -1      3461 1.17674E-02-4.96351E-04-3.04656E-14
 -1      3462 1.17588E-02-4.87440E-04-3.01731E-14
 -1      3463 1.22322E-02-8.10759E-04-3.24943E-14
 -1      3464 1.20777E-02-7.06008E-04-3.18101E-14
 -1      3465 1.20756E-02-6.98799E-04-3.15030E-14
 -1      3466 1.25389E-02-1.01862E-03-3.38750E-14
 -1      3467 1.23861E-02-9.15000E-04-3.31821E-14
 -1      3468 1.23899E-02-9.08414E-04-3.28619E-14
 -1      3469 1.28414E-02-1.22376E-03-3.52785E-14
 -1      3470 1.26908E-02-1.12149E-03-3.45740E-14
 -1      3471 1.26993E-02-1.11453E-03-3.42410E-14
 -1      3472 1.31394E-02-1.42667E-03-3.67017E-14
 -1      3473 1.29910E-02-1.32544E-03-3.59876E-14
 -1      3474 1.30032E-02-1.31745E-03-3.56436E-14
 -1      3475 1.40789E-02-1.55059E-03-3.27136E-14
 -1      3476 1.00062E-02 1.27734E-04-2.27827E-14
 -1      3477 1.01937E-02 1.63819E-04-2.33785E-14
 -1      3478 1.21196E-03-2.19355E-04-6.15149E-16
 -1      3479 1.09232E-03-2.20437E-04-5.13532E-16
 -1      3480 1.45393E-02-2.00692E-03-3.69016E-14
 -1      3481 3.39172E-03 3.49001E-04-3.14949E-15
 -1      3482 3.24815E-03 3.48629E-04-2.89795E-15
 -1      3483 3.46083E-03 3.11395E-04-3.33106E-15
 -1      3484 1.41759E-03 2.77254E-04-6.02491E-16
 -1      3485 1.28466E-03 2.44389E-04-5.17002E-16
 -1      3486 1.27846E-03 2.10100E-04-5.36531E-16
 -1      3487 1.37476E-02-1.46732E-03-3.22092E-14
 -1      3488 1.38913E-02-1.49308E-03-3.22895E-14
 -1      3489 1.20755E-02-6.73886E-04-2.90361E-14
 -1      3490 1.23153E-02-8.26160E-04-2.96372E-14
 -1      3491 1.19587E-02-6.03977E-04-2.89720E-14
 -1      3492 1.09932E-03-2.45373E-04-5.15863E-16
 -1      3493 1.55967E-03-2.59550E-04-9.50778E-16
 -1      3494 1.70344E-03-2.70189E-04-1.11033E-15
 -1      3495 1.76983E-03-2.40465E-04-1.18772E-15
 -1      3496 9.57704E-03-1.42326E-05-2.16200E-14
 -1      3497 9.76477E-03 6.05125E-05-2.20865E-14
 -1      3498 1.01525E-03-3.89622E-05-4.42598E-16
 -1      3499 1.01634E-03-6.57907E-05-4.48629E-16
 -1      3500 1.13788E-03-8.60115E-05-5.46072E-16
 -1      3501 1.35855E-02-1.70416E-03-3.83298E-14
 -1      3502 1.35066E-02-1.67073E-03-3.83607E-14
 -1      3503 1.33980E-02-1.59978E-03-3.78946E-14
 -1      3504 1.35093E-02-1.64097E-03-3.77020E-14
 -1      3505 3.10450E-03 3.47911E-04-2.65620E-15
 -1      3506 2.96078E-03 3.46800E-04-2.42440E-15
 -1      3507 2.88489E-03 3.08551E-04-2.35666E-15
 -1      3508 1.57677E-03 2.90308E-04-7.35834E-16
 -1      3509 1.12214E-02-1.14036E-04-2.69555E-14
 -1      3510 1.13849E-02-2.19765E-04-2.74608E-14
 -1      3511 8.45209E-03-4.40776E-04-2.00938E-14
 -1      3512 8.47571E-03-4.51003E-04-2.02481E-14
 -1      3513 8.45178E-03-4.32492E-04-2.00162E-14
 -1      3514 8.39657E-03-4.19897E-04-1.97548E-14
 -1      3515 8.82735E-03-3.40219E-04-2.04092E-14
 -1      3516 8.95858E-03-2.85118E-04-2.05393E-14
 -1      3517 8.62391E-03-4.13391E-04-2.02748E-14
 -1      3518 8.70712E-03-3.85346E-04-2.03146E-14
 -1      3519 4.25182E-03 3.47010E-04-4.87276E-15
 -1      3520 4.10862E-03 3.47672E-04-4.56026E-15
 -1      3521 4.03534E-03 3.10375E-04-4.46813E-15
 -1      3522 4.32210E-03 3.09156E-04-5.09609E-15
 -1      3523 8.21987E-03-3.67044E-04-1.87897E-14
 -1      3524 8.31980E-03-3.91559E-04-1.93033E-14
 -1      3525 8.16698E-03-3.39806E-04-1.84690E-14
 -1      3526 1.04215E-02 1.72216E-04-2.41404E-14
 -1      3527 1.06138E-02 1.51563E-04-2.48183E-14
 -1      3528 1.44189E-02-1.82517E-03-3.50223E-14
 -1      3529 1.45371E-02-1.91200E-03-3.56736E-14
 -1      3530 1.44304E-02-1.88705E-03-3.57187E-14
 -1      3531 1.42827E-02-1.76506E-03-3.46836E-14
 -1      3532 1.40890E-02-1.59258E-03-3.31422E-14
 -1      3533 1.95314E-03 3.18842E-04-1.09545E-15
 -1      3534 1.80915E-03 3.10304E-04-9.48555E-16
 -1      3535 1.64217E-03 2.62357E-04-8.23180E-16
 -1      3536 1.06935E-02 1.33077E-04-2.51699E-14
 -1      3537 8.98503E-03-2.08371E-04-2.03360E-14
 -1      3538 1.25743E-03 4.77925E-05-6.06611E-16
 -1      3539 1.25670E-03 1.67330E-05-6.17738E-16
 -1      3540 2.24120E-03 3.31730E-04-1.42205E-15
 -1      3541 2.09716E-03 3.25951E-04-1.25358E-15
 -1      3542 2.30774E-03 2.97513E-04-1.54628E-15
 -1      3543 9.82448E-03 1.22887E-04-2.22188E-14
 -1      3544 1.40506E-02-1.61389E-03-3.34395E-14
 -1      3545 3.17304E-03 3.10665E-04-2.82380E-15
 -1      3546 1.14371E-03 1.48632E-04-4.67684E-16
 -1      3547 1.15027E-02-2.99800E-04-2.78439E-14
 -1      3548 1.16228E-02-3.83392E-04-2.82286E-14
 -1      3549 1.14072E-02-2.42475E-04-2.76971E-14
 -1      3550 1.25111E-02-9.47234E-04-3.02881E-14
 -1      3551 1.26982E-02-1.05461E-03-3.09433E-14
 -1      3552 1.23821E-02-8.75027E-04-3.02258E-14
 -1      3553 1.31146E-02-1.24414E-03-3.12967E-14
 -1      3554 1.37591E-02-1.71872E-03-3.69383E-14
 -1      3555 1.36524E-02-1.67190E-03-3.69356E-14
 -1      3556 1.41928E-02-1.89331E-03-3.69677E-14
 -1      3557 1.40848E-02-1.85243E-03-3.69606E-14
 -1      3558 1.25396E-03-1.86567E-04-6.53828E-16
 -1      3559 1.31921E-03-2.30207E-04-7.11738E-16
 -1      3560 1.42690E-03-2.39792E-04-8.15252E-16
 -1      3561 1.32891E-02-1.52861E-03-3.74285E-14
 -1      3562 1.26109E-03 1.10413E-04-5.81322E-16
 -1      3563 1.25889E-03 7.89352E-05-5.94698E-16
 -1      3564 1.38059E-03 6.70263E-05-7.05721E-16
 -1      3565 1.13537E-03-2.77215E-05-5.31761E-16
 -1      3566 1.39758E-02-1.80937E-03-3.69541E-14
 -1      3567 1.38670E-02-1.76464E-03-3.69470E-14
 -1      3568 1.36851E-02-1.66161E-03-3.63397E-14
 -1      3569 1.39056E-02-1.75355E-03-3.63613E-14
 -1      3570 1.34936E-02-1.57720E-03-3.63542E-14
 -1      3571 1.35702E-02-1.63631E-03-3.69612E-14
 -1      3572 1.34891E-02-1.60073E-03-3.69893E-14
 -1      3573 1.43831E-02-1.90686E-03-3.61584E-14
 -1      3574 1.44105E-02-1.96021E-03-3.68192E-14
 -1      3575 1.35625E-02-1.42063E-03-3.20931E-14
 -1      3576 1.36580E-02-1.44588E-03-3.21517E-14
 -1      3577 1.38071E-02-1.50959E-03-3.26569E-14
 -1      3578 1.43061E-02-1.92467E-03-3.68114E-14
 -1      3579 1.49322E-03-2.13795E-04-8.83150E-16
 -1      3580 9.37867E-03-3.19326E-05-2.10474E-14
 -1      3581 8.69393E-03-3.33014E-04-2.00043E-14
 -1      3582 1.09707E-02 1.83420E-05-2.62544E-14
 -1      3583 1.10920E-02-4.28914E-05-2.66049E-14
 -1      3584 1.11651E-02-9.23310E-05-2.69615E-14
 -1      3585 1.24968E-03-1.53977E-04-6.48570E-16
 -1      3586 8.52911E-03-4.10870E-04-2.00294E-14
 -1      3587 1.01301E-02 2.06609E-04-2.32183E-14
 -1      3588 1.02750E-02 1.89941E-04-2.36783E-14
 -1      3589 1.03462E-02 2.04048E-04-2.39837E-14
 -1      3590 1.33038E-02-1.51920E-03-3.70719E-14
 -1      3591 1.05771E-02 1.67199E-04-2.48291E-14
 -1      3592 1.07749E-02 1.05394E-04-2.55565E-14
 -1      3593 1.69308E-03-2.02696E-04-1.09747E-15
 -1      3594 1.83720E-03-2.09829E-04-1.26589E-15
 -1      3595 1.75770E-03 2.37476E-04-9.61349E-16
 -1      3596 1.52547E-03 2.20052E-04-7.45782E-16
 -1      3597 1.25666E-03-1.41978E-05-6.28078E-16
 -1      3598 1.25731E-03-4.51910E-05-6.37389E-16
 -1      3599 1.37900E-03 1.37280E-06-7.31281E-16
 -1      3600 1.98164E-03-2.15807E-04-1.44592E-15
 -1      3601 2.12631E-03-2.20742E-04-1.63751E-15
 -1      3602 1.90544E-03-1.78267E-04-1.34438E-15
 -1      3603 2.27110E-03-2.24787E-04-1.84014E-15
 -1      3604 2.41597E-03-2.28024E-04-2.05391E-15
 -1      3605 2.19496E-03-1.86786E-04-1.72433E-15
 -1      3606 2.56084E-03-2.30594E-04-2.27826E-15
 -1      3607 2.70568E-03-2.32563E-04-2.51275E-15
 -1      3608 2.48502E-03-1.92401E-04-2.14829E-15
 -1      3609 2.85047E-03-2.34050E-04-2.75831E-15
 -1      3610 2.99517E-03-2.35102E-04-3.01384E-15
 -1      3611 2.77513E-03-1.95832E-04-2.61472E-15
 -1      3612 3.13978E-03-2.35816E-04-3.27926E-15
 -1      3613 3.28427E-03-2.36225E-04-3.55481E-15
 -1      3614 3.06499E-03-1.97678E-04-3.12230E-15
 -1      3615 3.42144E-03-2.36399E-04-3.82536E-15
 -1      3616 3.55848E-03-2.36383E-04-4.10472E-15
 -1      3617 3.34717E-03-1.98399E-04-3.65471E-15
 -1      3618 3.70263E-03-2.36215E-04-4.40780E-15
 -1      3619 3.84665E-03-2.35905E-04-4.72178E-15
 -1      3620 3.62887E-03-1.98386E-04-4.22486E-15
 -1      3621 3.99055E-03-2.35493E-04-5.04512E-15
 -1      3622 4.13433E-03-2.34988E-04-5.37606E-15
 -1      3623 3.91725E-03-1.97863E-04-4.84778E-15
 -1      3624 4.27799E-03-2.34420E-04-5.71651E-15
 -1      3625 4.42153E-03-2.33790E-04-6.06622E-15
 -1      3626 4.20507E-03-1.97003E-04-5.50779E-15
 -1      3627 4.56495E-03-2.33120E-04-6.42559E-15
 -1      3628 4.70826E-03-2.32410E-04-6.79259E-15
 -1      3629 4.49236E-03-1.95931E-04-6.20313E-15
 -1      3630 4.85145E-03-2.31677E-04-7.16876E-15
 -1      3631 4.99451E-03-2.30919E-04-7.55448E-15
 -1      3632 4.77911E-03-1.94735E-04-6.93506E-15
 -1      3633 5.13743E-03-2.30151E-04-7.94849E-15
 -1      3634 5.28022E-03-2.29371E-04-8.35149E-15
 -1      3635 5.06529E-03-1.93480E-04-7.70201E-15
 -1      3636 5.42285E-03-2.28597E-04-8.76247E-15
 -1      3637 5.56530E-03-2.27830E-04-9.18249E-15
 -1      3638 5.35086E-03-1.92233E-04-8.50504E-15
 -1      3639 5.70755E-03-2.27094E-04-9.60989E-15
 -1      3640 5.84958E-03-2.26394E-04-1.00447E-14
 -1      3641 5.63570E-03-1.91083E-04-9.34131E-15
 -1      3642 5.99133E-03-2.25773E-04-1.04872E-14
 -1      3643 6.13277E-03-2.25238E-04-1.09347E-14
 -1      3644 5.91962E-03-1.90172E-04-1.02094E-14
 -1      3645 6.27383E-03-2.24860E-04-1.13891E-14
 -1      3646 6.41444E-03-2.24657E-04-1.18495E-14
 -1      3647 6.20233E-03-1.89737E-04-1.11042E-14
 -1      3648 6.55451E-03-2.24742E-04-1.23148E-14
 -1      3649 6.69394E-03-2.25145E-04-1.27844E-14
 -1      3650 6.48340E-03-1.90165E-04-1.20220E-14
 -1      3651 6.83261E-03-2.26049E-04-1.32577E-14
 -1      3652 6.97036E-03-2.27494E-04-1.37362E-14
 -1      3653 6.76220E-03-1.92069E-04-1.29584E-14
 -1      3654 7.10704E-03-2.29768E-04-1.42187E-14
 -1      3655 7.24240E-03-2.32924E-04-1.47044E-14
 -1      3656 7.03788E-03-1.96387E-04-1.39130E-14
 -1      3657 7.37630E-03-2.37392E-04-1.51932E-14
 -1      3658 7.50835E-03-2.43229E-04-1.56858E-14
 -1      3659 7.30935E-03-2.04495E-04-1.48831E-14
 -1      3660 7.63199E-03-2.50618E-04-1.61583E-14
 -1      3661 7.75335E-03-2.59811E-04-1.66314E-14
 -1      3662 7.56870E-03-2.17884E-04-1.58417E-14
 -1      3663 7.87868E-03-2.72253E-04-1.71331E-14
 -1      3664 8.00070E-03-2.87512E-04-1.76363E-14
 -1      3665 7.82138E-03-2.39020E-04-1.68141E-14
 -1      3666 8.43806E-03-4.03289E-04-1.97421E-14
 -1      3667 8.47901E-03-3.71151E-04-1.96235E-14
 -1      3668 1.41342E-02-1.83089E-03-3.62205E-14
 -1      3669 2.66446E-03 2.68354E-04-2.07237E-15
 -1      3670 2.51985E-03 2.65909E-04-1.86765E-15
 -1      3671 3.24215E-03 2.73186E-04-2.99436E-15
 -1      3672 3.09787E-03 2.72573E-04-2.74851E-15
 -1      3673 8.35033E-03-3.95089E-04-1.94342E-14
 -1      3674 9.18081E-03-3.71131E-05-2.04489E-14
 -1      3675 9.38363E-03 4.51004E-05-2.09222E-14
 -1      3676 8.11879E-03-3.08576E-04-1.81485E-14
 -1      3677 8.23185E-03-3.33047E-04-1.86619E-14
 -1      3678 8.07122E-03-2.73878E-04-1.78272E-14
 -1      3679 1.39902E-03 1.98378E-04-6.46469E-16
 -1      3680 1.26811E-03 1.69969E-04-5.53634E-16
 -1      3681 1.26431E-03 1.37349E-04-5.69382E-16
 -1      3682 1.51502E-03 1.76664E-04-7.66775E-16
 -1      3683 4.96549E-03 2.68270E-04-6.71835E-15
 -1      3684 4.82238E-03 2.69087E-04-6.35542E-15
 -1      3685 4.67919E-03 2.69860E-04-6.00110E-15
 -1      3686 4.53592E-03 2.70592E-04-5.65639E-15
 -1      3687 4.74993E-03 2.32078E-04-6.24071E-15
 -1      3688 5.53732E-03 2.64596E-04-8.26319E-15
 -1      3689 5.39444E-03 2.65581E-04-7.86323E-15
 -1      3690 5.82300E-03 2.62476E-04-9.08858E-15
 -1      3691 5.68017E-03 2.63563E-04-8.67180E-15
 -1      3692 5.60794E-03 2.27052E-04-8.53859E-15
 -1      3693 6.10870E-03 2.60132E-04-9.94444E-15
 -1      3694 5.96584E-03 2.61334E-04-9.51241E-15
 -1      3695 5.89347E-03 2.24910E-04-9.37426E-15
 -1      3696 6.39464E-03 2.57546E-04-1.08271E-14
 -1      3697 6.25162E-03 2.58868E-04-1.03820E-14
 -1      3698 6.17897E-03 2.22436E-04-1.02396E-14
 -1      3699 6.68118E-03 2.54734E-04-1.17346E-14
 -1      3700 6.53781E-03 2.56162E-04-1.12777E-14
 -1      3701 6.46472E-03 2.19567E-04-1.11304E-14
 -1      3702 6.96884E-03 2.51777E-04-1.26625E-14
 -1      3703 6.82483E-03 2.53258E-04-1.21965E-14
 -1      3704 6.75111E-03 2.16259E-04-1.20454E-14
 -1      3705 7.25839E-03 2.48873E-04-1.36130E-14
 -1      3706 7.11333E-03 2.50287E-04-1.31354E-14
 -1      3707 7.03875E-03 2.12534E-04-1.29797E-14
 -1      3708 7.55082E-03 2.46413E-04-1.45839E-14
 -1      3709 7.40418E-03 2.47535E-04-1.40954E-14
 -1      3710 7.32854E-03 2.08544E-04-1.39340E-14
 -1      3711 7.84737E-03 2.45061E-04-1.55777E-14
 -1      3712 7.69851E-03 2.45516E-04-1.50779E-14
 -1      3713 7.62167E-03 2.04675E-04-1.49112E-14
 -1      3714 8.14938E-03 2.45826E-04-1.65920E-14
 -1      3715 7.99764E-03 2.45064E-04-1.60825E-14
 -1      3716 7.91968E-03 2.01688E-04-1.59080E-14
 -1      3717 8.45794E-03 2.50001E-04-1.76256E-14
 -1      3718 8.30285E-03 2.47373E-04-1.71072E-14
 -1      3719 8.22425E-03 2.00871E-04-1.69253E-14
 -1      3720 8.77334E-03 2.58813E-04-1.86762E-14
 -1      3721 8.61486E-03 2.53736E-04-1.81486E-14
 -1      3722 8.53674E-03 2.04025E-04-1.79616E-14
 -1      3723 9.09460E-03 2.72546E-04-1.97478E-14
 -1      3724 8.93357E-03 2.65218E-04-1.92103E-14
 -1      3725 8.85774E-03 2.12945E-04-1.90147E-14
 -1      3726 9.41823E-03 2.88693E-04-2.08429E-14
 -1      3727 9.25654E-03 2.80726E-04-2.02917E-14
 -1      3728 9.18618E-03 2.28880E-04-2.00867E-14
 -1      3729 9.73918E-03 2.99667E-04-2.19603E-14
 -1      3730 9.57944E-03 2.95521E-04-2.13978E-14
 -1      3731 9.51760E-03 2.48879E-04-2.11814E-14
 -1      3732 1.01491E-02 2.70133E-04-2.34327E-14
 -1      3733 9.99299E-03 2.79286E-04-2.28530E-14
 -1      3734 1.03033E-02 2.50389E-04-2.40177E-14
 -1      3735 1.06729E-02 1.48160E-04-2.54741E-14
 -1      3736 1.05216E-02 1.99846E-04-2.48709E-14
 -1      3737 1.10129E-02-1.45537E-05-2.67879E-14
 -1      3738 1.08576E-02 6.59329E-05-2.61737E-14
 -1      3739 1.15869E-02-3.72482E-04-2.92344E-14
 -1      3740 1.14264E-02-2.68087E-04-2.85918E-14
 -1      3741 1.19107E-02-5.86164E-04-3.05387E-14
 -1      3742 1.17487E-02-4.79126E-04-2.98828E-14
 -1      3743 1.17374E-02-4.70519E-04-2.95991E-14
 -1      3744 1.22336E-02-7.98843E-04-3.18712E-14
 -1      3745 1.20727E-02-6.92970E-04-3.12026E-14
 -1      3746 1.20691E-02-6.88098E-04-3.09052E-14
 -1      3747 1.25515E-02-1.00704E-03-3.32267E-14
 -1      3748 1.23934E-02-9.03552E-04-3.25462E-14
 -1      3749 1.23968E-02-9.00276E-04-3.22365E-14
 -1      3750 1.28626E-02-1.21052E-03-3.46062E-14
 -1      3751 1.27080E-02-1.10928E-03-3.39132E-14
 -1      3752 1.27169E-02-1.10578E-03-3.35902E-14
 -1      3753 2.01905E-03 2.86739E-04-1.20369E-15
 -1      3754 1.18338E-02-5.25879E-04-2.88260E-14
 -1      3755 1.20520E-02-6.70465E-04-2.94277E-14
 -1      3756 1.17223E-02-4.54368E-04-2.86791E-14
 -1      3757 1.43040E-02-1.84624E-03-3.56329E-14
 -1      3758 1.41695E-02-1.80120E-03-3.55439E-14
 -1      3759 1.42276E-02-1.78662E-03-3.51089E-14
 -1      3760 3.53039E-03 2.73624E-04-3.51567E-15
 -1      3761 3.38633E-03 2.73527E-04-3.24986E-15
 -1      3762 3.31178E-03 2.35532E-04-3.16744E-15
 -1      3763 1.30636E-02-1.23805E-03-3.16595E-14
 -1      3764 1.33268E-02-1.34580E-03-3.19488E-14
 -1      3765 1.42839E-03-1.70012E-04-8.16404E-16
 -1      3766 1.56044E-03-1.86586E-04-9.51753E-16
 -1      3767 1.62848E-03-1.58111E-04-1.02136E-15
 -1      3768 2.95349E-03 2.71602E-04-2.51275E-15
 -1      3769 2.80901E-03 2.70232E-04-2.28734E-15
 -1      3770 2.73323E-03 2.31911E-04-2.21646E-15
 -1      3771 1.33592E-02-1.54071E-03-3.69798E-14
 -1      3772 8.79526E-03-2.13319E-04-1.97870E-14
 -1      3773 8.95805E-03-1.35826E-04-2.00230E-14
 -1      3774 5.25152E-03 2.66519E-04-7.47225E-15
 -1      3775 5.10854E-03 2.67417E-04-7.09076E-15
 -1      3776 5.32223E-03 2.28929E-04-7.73562E-15
 -1      3777 1.31745E-03-1.30079E-04-7.07130E-16
 -1      3778 3.81819E-03 2.73291E-04-4.07866E-15
 -1      3779 3.67435E-03 2.73539E-04-3.79225E-15
 -1      3780 3.60038E-03 2.35739E-04-3.70358E-15
 -1      3781 8.54771E-03-3.17494E-04-1.95138E-14
 -1      3782 8.64736E-03-2.76800E-04-1.96062E-14
 -1      3783 9.64406E-03 1.31337E-04-2.16396E-14
 -1      3784 9.86671E-03 1.84037E-04-2.23356E-14
 -1      3785 1.40604E-02-1.76888E-03-3.55749E-14
 -1      3786 1.39388E-02-1.73481E-03-3.57170E-14
 -1      3787 1.32810E-02-1.47894E-03-3.63656E-14
 -1      3788 8.32498E-03-3.66682E-04-1.91598E-14
 -1      3789 8.39740E-03-3.99975E-04-1.96119E-14
 -1      3790 1.38556E-03 1.28350E-04-6.78561E-16
 -1      3791 1.31481E-03-9.75900E-05-6.99649E-16
 -1      3792 1.43668E-03-8.58628E-05-8.11295E-16
 -1      3793 2.37521E-03 2.62759E-04-1.67273E-15
 -1      3794 2.23057E-03 2.58824E-04-1.48818E-15
 -1      3795 2.44350E-03 2.27514E-04-1.80211E-15
 -1      3796 1.21203E-02-7.16829E-04-2.99363E-14
 -1      3797 1.22456E-02-7.94992E-04-3.00823E-14
 -1      3798 1.24345E-02-9.10318E-04-3.07405E-14
 -1      3799 1.39785E-02-1.71135E-03-3.50473E-14
 -1      3800 1.31303E-02-1.37997E-03-3.56612E-14
 -1      3801 8.43465E-03-3.23893E-04-1.92275E-14
 -1      3802 8.29055E-03-3.31500E-04-1.88385E-14
 -1      3803 1.33998E-02-1.51107E-03-3.57397E-14
 -1      3804 1.33171E-02-1.47321E-03-3.57612E-14
 -1      3805 3.02271E-03 2.34397E-04-2.67199E-15
 -1      3806 8.98413E-03-5.77898E-05-1.98923E-14
 -1      3807 8.99574E-03 1.82841E-05-1.97630E-14
 -1      3808 8.79329E-03-7.05236E-05-1.93421E-14
 -1      3809 4.46322E-03 2.33389E-04-5.54922E-15
 -1      3810 4.39257E-03 2.71270E-04-5.32164E-15
 -1      3811 4.24912E-03 2.71896E-04-4.99614E-15
 -1      3812 9.94195E-03 2.46481E-04-2.26219E-14
 -1      3813 1.12675E-02-1.67093E-04-2.79558E-14
 -1      3814 1.11109E-02-7.20948E-05-2.73271E-14
 -1      3815 2.08597E-03 2.53942E-04-1.31507E-15
 -1      3816 1.94150E-03 2.48010E-04-1.15224E-15
 -1      3817 2.15380E-03 2.20461E-04-1.42930E-15
 -1      3818 1.08474E-02 7.26640E-05-2.59068E-14
 -1      3819 1.39039E-02-1.57160E-03-3.32454E-14
 -1      3820 1.40781E-02-1.66323E-03-3.39809E-14
 -1      3821 5.03625E-03 2.30593E-04-6.96970E-15
 -1      3822 1.38244E-02-1.69139E-03-3.57029E-14
 -1      3823 1.37107E-02-1.64549E-03-3.56900E-14
 -1      3824 1.37457E-02-1.63134E-03-3.50563E-14
 -1      3825 1.35037E-02-1.42419E-03-3.24590E-14
 -1      3826 8.63111E-03-2.10968E-04-1.92947E-14
 -1      3827 1.38241E-02-1.55114E-03-3.31888E-14
 -1      3828 1.29278E-02-1.17823E-03-3.16038E-14
 -1      3829 1.31471E-02-1.29006E-03-3.22636E-14
 -1      3830 1.27998E-02-1.11534E-03-3.15461E-14
 -1      3831 1.36083E-02-1.60365E-03-3.57209E-14
 -1      3832 1.34979E-02-1.55466E-03-3.57077E-14
 -1      3833 1.33187E-02-1.45194E-03-3.51218E-14
 -1      3834 1.35222E-02-1.54159E-03-3.50657E-14
 -1      3835 1.41466E-02-1.71945E-03-3.44898E-14
 -1      3836 9.28166E-03 1.44186E-04-2.04734E-14
 -1      3837 9.47455E-03 1.50751E-04-2.10833E-14
 -1      3838 1.50235E-03 1.86595E-05-8.41341E-16
 -1      3839 1.50231E-03-1.57739E-05-8.54893E-16
 -1      3840 1.82508E-03 2.06957E-04-1.05852E-15
 -1      3841 1.50482E-03 8.76645E-05-8.11336E-16
 -1      3842 1.50318E-03 5.30750E-05-8.26813E-16
 -1      3843 1.62657E-03 3.73464E-05-9.58015E-16
 -1      3844 1.04314E-02 2.03182E-04-2.43593E-14
 -1      3845 1.11458E-02-8.86698E-05-2.71458E-14
 -1      3846 1.12691E-02-1.62524E-04-2.75014E-14
 -1      3847 4.10558E-03 2.72449E-04-4.68012E-15
 -1      3848 3.96194E-03 2.72924E-04-4.37465E-15
 -1      3849 3.88847E-03 2.35324E-04-4.27973E-15
 -1      3850 4.17607E-03 2.34495E-04-4.89513E-15
 -1      3851 1.14077E-02-2.55015E-04-2.83173E-14
 -1      3852 1.83002E-03-1.41610E-04-1.24601E-15
 -1      3853 1.97455E-03-1.45821E-04-1.42306E-15
 -1      3854 2.11939E-03-1.49319E-04-1.61167E-15
 -1      3855 2.26444E-03-1.52178E-04-1.81106E-15
 -1      3856 2.04446E-03-1.12505E-04-1.50207E-15
 -1      3857 2.40961E-03-1.54488E-04-2.02160E-15
 -1      3858 2.55485E-03-1.56307E-04-2.24229E-15
 -1      3859 2.33469E-03-1.16953E-04-1.89748E-15
 -1      3860 2.70008E-03-1.57723E-04-2.47381E-15
 -1      3861 2.84526E-03-1.58772E-04-2.71557E-15
 -1      3862 2.62537E-03-1.19794E-04-2.33606E-15
 -1      3863 2.99038E-03-1.59535E-04-2.96697E-15
 -1      3864 3.13538E-03-1.60034E-04-3.22897E-15
 -1      3865 2.91601E-03-1.21439E-04-2.81543E-15
 -1      3866 3.27303E-03-1.60324E-04-3.48717E-15
 -1      3867 3.41055E-03-1.60446E-04-3.75387E-15
 -1      3868 3.19905E-03-1.22211E-04-3.32195E-15
 -1      3869 3.55517E-03-1.60443E-04-4.04444E-15
 -1      3870 3.69965E-03-1.60314E-04-4.34432E-15
 -1      3871 3.48159E-03-1.22411E-04-3.86636E-15
 -1      3872 3.84398E-03-1.60097E-04-4.65383E-15
 -1      3873 3.98815E-03-1.59797E-04-4.97324E-15
 -1      3874 3.77078E-03-1.22211E-04-4.46285E-15
 -1      3875 4.13218E-03-1.59443E-04-5.30066E-15
 -1      3876 4.27605E-03-1.59035E-04-5.63707E-15
 -1      3877 4.05933E-03-1.21746E-04-5.09602E-15
 -1      3878 4.41978E-03-1.58597E-04-5.98306E-15
 -1      3879 4.56336E-03-1.58128E-04-6.33833E-15
 -1      3880 4.34724E-03-1.21120E-04-5.76592E-15
 -1      3881 4.70679E-03-1.57647E-04-6.70280E-15
 -1      3882 4.85007E-03-1.57151E-04-7.07575E-15
 -1      3883 4.63451E-03-1.20408E-04-6.47251E-15
 -1      3884 4.99320E-03-1.56660E-04-7.45733E-15
 -1      3885 5.13616E-03-1.56172E-04-7.84859E-15
 -1      3886 4.92115E-03-1.19681E-04-7.21538E-15
 -1      3887 5.27895E-03-1.55708E-04-8.24862E-15
 -1      3888 5.42156E-03-1.55270E-04-8.65756E-15
 -1      3889 5.20711E-03-1.19010E-04-7.99389E-15
 -1      3890 5.56397E-03-1.54886E-04-9.07533E-15
 -1      3891 5.70616E-03-1.54563E-04-9.50035E-15
 -1      3892 5.49235E-03-1.18488E-04-8.81004E-15
 -1      3893 5.84811E-03-1.54341E-04-9.93319E-15
 -1      3894 5.98977E-03-1.54236E-04-1.03736E-14
 -1      3895 5.77673E-03-1.18264E-04-9.65912E-15
 -1      3896 6.13112E-03-1.54310E-04-1.08195E-14
 -1      3897 6.27210E-03-1.54588E-04-1.12716E-14
 -1      3898 6.06008E-03-1.18563E-04-1.05363E-14
 -1      3899 6.41267E-03-1.55167E-04-1.17293E-14
 -1      3900 6.55274E-03-1.56087E-04-1.21928E-14
 -1      3901 6.34216E-03-1.19742E-04-1.14381E-14
 -1      3902 6.69228E-03-1.57493E-04-1.26613E-14
 -1      3903 6.83116E-03-1.59445E-04-1.31325E-14
 -1      3904 6.62262E-03-1.22336E-04-1.23631E-14
 -1      3905 6.96935E-03-1.62154E-04-1.36087E-14
 -1      3906 7.10667E-03-1.65703E-04-1.40899E-14
 -1      3907 6.90104E-03-1.27129E-04-1.33045E-14
 -1      3908 7.24312E-03-1.70389E-04-1.45730E-14
 -1      3909 7.37846E-03-1.76317E-04-1.50599E-14
 -1      3910 7.17698E-03-1.35217E-04-1.42639E-14
 -1      3911 7.50609E-03-1.83459E-04-1.55267E-14
 -1      3912 7.63249E-03-1.92167E-04-1.59969E-14
 -1      3913 7.44326E-03-1.47652E-04-1.52125E-14
 -1      3914 7.76450E-03-2.03475E-04-1.64941E-14
 -1      3915 7.89496E-03-2.17083E-04-1.69944E-14
 -1      3916 7.70671E-03-1.66207E-04-1.61741E-14
 -1      3917 1.39158E-02-1.65737E-03-3.44644E-14
 -1      3918 1.37968E-02-1.62160E-03-3.44874E-14
 -1      3919 3.09255E-03 1.96946E-04-2.83381E-15
 -1      3920 2.94769E-03 1.96196E-04-2.59367E-15
 -1      3921 1.51096E-03 1.46697E-04-7.82902E-16
 -1      3922 1.50759E-03 1.17029E-04-7.97851E-16
 -1      3923 1.63032E-03 1.03707E-04-9.26559E-16
 -1      3924 1.63714E-03 1.65266E-04-8.93870E-16
 -1      3925 1.25652E-02-1.00267E-03-3.25976E-14
 -1      3926 1.24011E-02-8.98976E-04-3.19314E-14
 -1      3927 4.82079E-03 1.94338E-04-6.48240E-15
 -1      3928 4.67747E-03 1.94955E-04-6.12588E-15
 -1      3929 5.96384E-03 1.87401E-04-9.66115E-15
 -1      3930 5.82121E-03 1.88541E-04-9.23407E-15
 -1      3931 5.67853E-03 1.89579E-04-8.81500E-15
 -1      3932 5.53578E-03 1.90533E-04-8.40373E-15
 -1      3933 5.74907E-03 1.52197E-04-9.09330E-15
 -1      3934 6.53456E-03 1.81548E-04-1.14360E-14
 -1      3935 6.39178E-03 1.83235E-04-1.09832E-14
 -1      3936 6.82068E-03 1.77639E-04-1.23561E-14
 -1      3937 6.67750E-03 1.79681E-04-1.18934E-14
 -1      3938 6.60411E-03 1.43501E-04-1.17417E-14
 -1      3939 7.10814E-03 1.72984E-04-1.32976E-14
 -1      3940 6.96418E-03 1.75393E-04-1.28249E-14
 -1      3941 6.88981E-03 1.38873E-04-1.26696E-14
 -1      3942 7.39797E-03 1.67672E-04-1.42574E-14
 -1      3943 7.25268E-03 1.70377E-04-1.37744E-14
 -1      3944 7.17690E-03 1.33104E-04-1.36160E-14
 -1      3945 7.69159E-03 1.62081E-04-1.52373E-14
 -1      3946 7.54420E-03 1.64841E-04-1.47443E-14
 -1      3947 7.46653E-03 1.26206E-04-1.45805E-14
 -1      3948 7.99082E-03 1.57083E-04-1.62388E-14
 -1      3949 7.84038E-03 1.59382E-04-1.57360E-14
 -1      3950 7.76032E-03 1.18535E-04-1.55654E-14
 -1      3951 8.29780E-03 1.54272E-04-1.72597E-14
 -1      3952 8.14323E-03 1.55197E-04-1.67471E-14
 -1      3953 8.06050E-03 1.11089E-04-1.65703E-14
 -1      3954 8.61459E-03 1.56136E-04-1.82941E-14
 -1      3955 8.45491E-03 1.54373E-04-1.77743E-14
 -1      3956 8.36968E-03 1.05913E-04-1.75915E-14
 -1      3957 8.92615E-03 1.13254E-04-1.93767E-14
 -1      3958 8.76002E-03 1.08451E-04-1.88493E-14
 -1      3959 9.11016E-03 1.33023E-04-1.99358E-14
 -1      3960 1.18952E-02-5.74076E-04-2.99614E-14
 -1      3961 1.17249E-02-4.62143E-04-2.93180E-14
 -1      3962 1.28857E-02-1.20417E-03-3.39515E-14
 -1      3963 1.27269E-02-1.10422E-03-3.32725E-14
 -1      3964 1.27383E-02-1.10475E-03-3.29597E-14
 -1      3965 1.31444E-02-1.37495E-03-3.53230E-14
 -1      3966 3.67078E-03 1.97754E-04-3.89368E-15
 -1      3967 3.52642E-03 1.97812E-04-3.61346E-15
 -1      3968 8.33350E-03-2.85751E-04-1.87263E-14
 -1      3969 1.17076E-02-4.47873E-04-2.88728E-14
 -1      3970 1.19064E-02-5.80294E-04-2.94788E-14
 -1      3971 5.10708E-03 1.92975E-04-7.22313E-15
 -1      3972 4.96399E-03 1.93681E-04-6.84838E-15
 -1      3973 4.89175E-03 1.56667E-04-6.72602E-15
 -1      3974 1.22341E-02-7.93011E-04-3.12691E-14
 -1      3975 1.20656E-02-6.84666E-04-3.06124E-14
 -1      3976 1.20625E-02-6.81971E-04-3.03252E-14
 -1      3977 1.24064E-02-8.99579E-04-3.16302E-14
 -1      3978 1.40072E-02-1.67842E-03-3.44002E-14
 -1      3979 6.24910E-03 1.84765E-04-1.05364E-14
 -1      3980 6.10646E-03 1.86148E-04-1.00953E-14
 -1      3981 6.03412E-03 1.49969E-04-9.94991E-15
 -1      3982 6.31904E-03 1.47134E-04-1.08354E-14
 -1      3983 8.02330E-03-2.35944E-04-1.75037E-14
 -1      3984 8.14930E-03-2.57720E-04-1.80152E-14
 -1      3985 7.97320E-03-1.96059E-04-1.71806E-14
 -1      3986 5.39297E-03 1.91408E-04-8.00144E-15
 -1      3987 5.25007E-03 1.92222E-04-7.60763E-15
 -1      3988 5.17796E-03 1.55440E-04-7.47884E-15
 -1      3989 8.46234E-03-2.06836E-04-1.87706E-14
 -1      3990 8.58964E-03-1.47986E-04-1.89465E-14
 -1      3991 1.53451E-03-5.64582E-05-9.00186E-16
 -1      3992 1.59330E-03-1.14530E-04-9.75836E-16
 -1      3993 1.72551E-03-1.27629E-04-1.12239E-15
 -1      3994 1.65803E-03-4.05851E-05-1.02338E-15
 -1      3995 2.00468E-03 1.82161E-04-1.28248E-15
 -1      3996 1.82058E-03 1.74446E-04-1.07935E-15
 -1      3997 1.81676E-03 1.42167E-04-1.09899E-15
 -1      3998 9.86367E-03 2.13734E-04-2.23317E-14
 -1      3999 2.80272E-03 1.95117E-04-2.36387E-15
 -1      4000 2.65769E-03 1.93675E-04-2.14428E-15
 -1      4001 2.87286E-03 1.58025E-04-2.51464E-15
 -1      4002 3.38193E-03 1.97713E-04-3.34341E-15
 -1      4003 3.23731E-03 1.97444E-04-3.08362E-15
 -1      4004 3.16295E-03 1.59303E-04-2.99858E-15
 -1      4005 3.45254E-03 1.59781E-04-3.52244E-15
 -1      4006 1.38322E-02-1.59527E-03-3.38463E-14
 -1      4007 8.29798E-03-2.39526E-04-1.84014E-14
 -1      4008 2.51261E-03 1.91772E-04-1.93492E-15
 -1      4009 2.36753E-03 1.89380E-04-1.73586E-15
 -1      4010 2.58245E-03 1.55603E-04-2.07056E-15
 -1      4011 1.20911E-02-6.99705E-04-3.01388E-14
 -1      4012 1.13761E-02-2.31659E-04-2.78859E-14
 -1      4013 8.61272E-03-7.99057E-05-1.88143E-14
 -1      4014 4.53405E-03 1.95525E-04-5.77869E-15
 -1      4015 4.39050E-03 1.96056E-04-5.44095E-15
 -1      4016 4.60504E-03 1.57712E-04-6.01063E-15
 -1      4017 1.30469E-02-1.30729E-03-3.47137E-14
 -1      4018 1.30620E-02-1.30552E-03-3.43871E-14
 -1      4019 1.15470E-02-3.43491E-04-2.85152E-14
 -1      4020 2.14947E-03 1.86270E-04-1.45474E-15
 -1      4021 5.46372E-03 1.53980E-04-8.26903E-15
 -1      4022 9.68653E-03 2.27388E-04-2.17461E-14
 -1      4023 9.51833E-03 2.15808E-04-2.11903E-14
 -1      4024 1.79527E-03-9.64569E-05-1.19365E-15
 -1      4025 1.36054E-02-1.52635E-03-3.38882E-14
 -1      4026 1.36739E-02-1.57775E-03-3.44689E-14
 -1      4027 1.35518E-02-1.53035E-03-3.44478E-14
 -1      4028 8.25552E-03-1.86572E-04-1.80561E-14
 -1      4029 1.75159E-03 5.72799E-05-1.08026E-15
 -1      4030 1.75071E-03 2.01280E-05-1.09843E-15
 -1      4031 3.81499E-03 1.97583E-04-4.18352E-15
 -1      4032 3.74155E-03 1.59714E-04-4.08641E-15
 -1      4033 3.95907E-03 1.97305E-04-4.48342E-15
 -1      4034 1.32543E-02-1.35865E-03-3.30358E-14
 -1      4035 1.33746E-02-1.40897E-03-3.30849E-14
 -1      4036 1.26617E-02-1.04270E-03-3.14048E-14
 -1      4037 1.28839E-02-1.16629E-03-3.20711E-14
 -1      4038 1.25307E-02-9.68896E-04-3.12639E-14
 -1      4039 1.75582E-03-1.59563E-05-1.12039E-15
 -1      4040 1.78837E-03-5.97591E-05-1.17389E-15
 -1      4041 1.89257E-03-7.19537E-05-1.29980E-15
 -1      4042 1.88069E-03 2.69260E-06-1.25400E-15
 -1      4043 1.31600E-02-1.35306E-03-3.43641E-14
 -1      4044 1.36461E-02-1.48603E-03-3.28535E-14
 -1      4045 1.37581E-02-1.55109E-03-3.34478E-14
 -1      4046 1.36554E-02-1.52464E-03-3.35079E-14
 -1      4047 1.34304E-02-1.41361E-03-3.27129E-14
 -1      4048 5.24891E-03 1.18003E-04-7.73680E-15
 -1      4049 5.10593E-03 1.18570E-04-7.34936E-15
 -1      4050 2.26034E-03-7.99142E-05-1.77687E-15
 -1      4051 2.40568E-03-8.11514E-05-1.98349E-15
 -1      4052 2.55112E-03-8.21393E-05-2.20103E-15
 -1      4053 2.69656E-03-8.28927E-05-2.42886E-15
 -1      4054 2.47737E-03-4.48238E-05-2.06917E-15
 -1      4055 2.84199E-03-8.34593E-05-2.66668E-15
 -1      4056 2.98734E-03-8.38559E-05-2.91463E-15
 -1      4057 2.76837E-03-4.56472E-05-2.52069E-15
 -1      4058 3.12533E-03-8.41127E-05-3.15955E-15
 -1      4059 3.26320E-03-8.42578E-05-3.41411E-15
 -1      4060 3.05192E-03-4.60649E-05-3.00042E-15
 -1      4061 3.40820E-03-8.43249E-05-3.69114E-15
 -1      4062 3.55304E-03-8.43061E-05-3.97752E-15
 -1      4063 3.33505E-03-4.62116E-05-3.51825E-15
 -1      4064 3.69772E-03-8.42302E-05-4.27425E-15
 -1      4065 3.84224E-03-8.40969E-05-4.57994E-15
 -1      4066 3.62485E-03-4.61710E-05-4.08802E-15
 -1      4067 3.98659E-03-8.39308E-05-4.89466E-15
 -1      4068 4.13076E-03-8.37272E-05-5.21840E-15
 -1      4069 3.91398E-03-4.60077E-05-4.69523E-15
 -1      4070 4.27478E-03-8.35084E-05-5.55141E-15
 -1      4071 4.41862E-03-8.32692E-05-5.89393E-15
 -1      4072 4.20242E-03-4.57709E-05-5.33971E-15
 -1      4073 4.56231E-03-8.30278E-05-6.24574E-15
 -1      4074 4.70582E-03-8.27828E-05-6.60631E-15
 -1      4075 4.49018E-03-4.55061E-05-6.02121E-15
 -1      4076 4.84917E-03-8.25517E-05-6.97660E-15
 -1      4077 4.99235E-03-8.23328E-05-7.35520E-15
 -1      4078 4.77726E-03-4.52699E-05-6.73947E-15
 -1      4079 5.13535E-03-8.21463E-05-7.74329E-15
 -1      4080 5.27818E-03-8.19944E-05-8.14041E-15
 -1      4081 5.06366E-03-4.51165E-05-7.49440E-15
 -1      4082 5.42081E-03-8.19033E-05-8.54750E-15
 -1      4083 5.56325E-03-8.18798E-05-8.96277E-15
 -1      4084 5.34935E-03-4.51300E-05-8.28656E-15
 -1      4085 5.70547E-03-8.19613E-05-9.38540E-15
 -1      4086 5.84746E-03-8.21611E-05-9.81639E-15
 -1      4087 5.63429E-03-4.54380E-05-9.11356E-15
 -1      4088 5.98919E-03-8.25341E-05-1.02540E-14
 -1      4089 6.13066E-03-8.31026E-05-1.06981E-14
 -1      4090 5.91839E-03-4.62356E-05-9.97209E-15
 -1      4091 6.27182E-03-8.39477E-05-1.11490E-14
 -1      4092 6.41264E-03-8.51028E-05-1.16049E-14
 -1      4093 6.20154E-03-4.78155E-05-1.08592E-14
 -1      4094 6.55311E-03-8.66856E-05-1.20655E-14
 -1      4095 6.69318E-03-8.87428E-05-1.25320E-14
 -1      4096 6.48362E-03-5.06049E-05-1.17699E-14
 -1      4097 6.83284E-03-9.14397E-05-1.30028E-14
 -1      4098 6.97204E-03-9.48371E-05-1.34764E-14
 -1      4099 6.76452E-03-5.52041E-05-1.26990E-14
 -1      4100 7.11080E-03-9.91559E-05-1.39550E-14
 -1      4101 7.24906E-03-1.04470E-04-1.44366E-14
 -1      4102 7.04424E-03-6.24156E-05-1.36456E-14
 -1      4103 7.38004E-03-1.10682E-04-1.48982E-14
 -1      4104 7.51060E-03-1.18097E-04-1.53633E-14
 -1      4105 7.31600E-03-7.29138E-05-1.45846E-14
 -1      4106 7.64785E-03-1.27473E-04-1.58557E-14
 -1      4107 7.78480E-03-1.38508E-04-1.63517E-14
 -1      4108 7.58738E-03-8.78631E-05-1.55365E-14
 -1      4109 7.92091E-03-1.54297E-04-1.68582E-14
 -1      4110 8.05664E-03-1.72169E-04-1.73677E-14
 -1      4111 7.86556E-03-1.11740E-04-1.65352E-14
 -1      4112 1.78501E-03 1.15197E-04-1.08216E-15
 -1      4113 1.78238E-03 8.34685E-05-1.09903E-15
 -1      4114 1.90656E-03 6.65465E-05-1.24926E-15
 -1      4115 1.96901E-03 1.21010E-04-1.28708E-15
 -1      4116 4.24682E-03 1.96530E-04-5.11231E-15
 -1      4117 4.10301E-03 1.96954E-04-4.79303E-15
 -1      4118 4.02996E-03 1.59276E-04-4.68999E-15
 -1      4119 4.31778E-03 1.58587E-04-5.33169E-15
 -1      4120 6.95843E-03 1.00035E-04-1.29824E-14
 -1      4121 6.81576E-03 1.02927E-04-1.25124E-14
 -1      4122 6.67334E-03 1.05477E-04-1.20486E-14
 -1      4123 6.53102E-03 1.07670E-04-1.15888E-14
 -1      4124 6.74218E-03 6.75165E-05-1.23559E-14
 -1      4125 7.53389E-03 8.42719E-05-1.49027E-14
 -1      4126 7.38893E-03 8.87987E-05-1.44172E-14
 -1      4127 7.82738E-03 7.41720E-05-1.58942E-14
 -1      4128 7.67991E-03 7.92853E-05-1.53960E-14
 -1      4129 7.59985E-03 4.18524E-05-1.52275E-14
 -1      4130 8.12794E-03 6.38344E-05-1.69012E-14
 -1      4131 7.97657E-03 6.88204E-05-1.63950E-14
 -1      4132 7.89244E-03 2.89113E-05-1.62212E-14
 -1      4133 8.43869E-03 5.56812E-05-1.79226E-14
 -1      4134 8.28187E-03 5.91997E-05-1.74107E-14
 -1      4135 8.19271E-03 1.50967E-05-1.72298E-14
 -1      4136 8.66850E-03 5.49076E-05-1.86589E-14
 -1      4137 1.32831E-02-1.41178E-03-3.43727E-14
 -1      4138 1.30190E-02-1.26523E-03-3.36467E-14
 -1      4139 1.28578E-02-1.16874E-03-3.29788E-14
 -1      4140 1.30794E-02-1.27831E-03-3.29281E-14
 -1      4141 1.33088E-02-1.40454E-03-3.37649E-14
 -1      4142 2.21886E-03 1.51996E-04-1.57227E-15
 -1      4143 4.96282E-03 1.19078E-04-6.97168E-15
 -1      4144 4.81957E-03 1.19542E-04-6.60325E-15
 -1      4145 5.03399E-03 8.15969E-05-7.21917E-15
 -1      4146 8.20801E-03-1.37858E-04-1.77302E-14
 -1      4147 1.33893E-02-1.45865E-03-3.43487E-14
 -1      4148 5.53448E-03 1.16659E-04-8.53867E-15
 -1      4149 5.39176E-03 1.17372E-04-8.13321E-15
 -1      4150 5.31991E-03 8.06877E-05-7.99680E-15
 -1      4151 1.22688E-02-8.12253E-04-3.07856E-14
 -1      4152 2.00376E-03-7.52336E-05-1.43726E-15
 -1      4153 2.14875E-03-7.69908E-05-1.62485E-15
 -1      4154 2.22027E-03-4.18760E-05-1.70396E-15
 -1      4155 1.99738E-03-3.70341E-05-1.41341E-15
 -1      4156 2.94363E-03 1.20654E-04-2.66795E-15
 -1      4157 2.79835E-03 1.19959E-04-2.43380E-15
 -1      4158 7.24486E-03 9.29958E-05-1.39347E-14
 -1      4159 7.10139E-03 9.67021E-05-1.34565E-14
 -1      4160 7.31187E-03 5.26788E-05-1.42534E-14
 -1      4161 1.35224E-02-1.47916E-03-3.34866E-14
 -1      4162 5.81958E-03 1.14926E-04-9.37504E-15
 -1      4163 5.67708E-03 1.15850E-04-8.95304E-15
 -1      4164 5.60525E-03 7.94702E-05-8.81127E-15
 -1      4165 8.57309E-03 3.06634E-06-1.84732E-14
 -1      4166 1.24863E-02-9.44976E-04-3.14562E-14
 -1      4167 2.04146E-03 7.15839E-05-1.40762E-15
 -1      4168 2.01073E-03 4.42240E-05-1.38701E-15
 -1      4169 3.23388E-03 1.21486E-04-3.16628E-15
 -1      4170 3.08881E-03 1.21160E-04-2.91211E-15
 -1      4171 3.01495E-03 8.30543E-05-2.82473E-15
 -1      4172 4.67618E-03 1.19960E-04-6.24420E-15
 -1      4173 4.53264E-03 1.20343E-04-5.89414E-15
 -1      4174 4.74747E-03 8.22970E-05-6.48006E-15
 -1      4175 6.45832E-03 7.21406E-05-1.14342E-14
 -1      4176 6.38879E-03 1.09581E-04-1.11339E-14
 -1      4177 6.24655E-03 1.11219E-04-1.06846E-14
 -1      4178 7.02642E-03 6.11609E-05-1.32951E-14
 -1      4179 3.81269E-03 1.21638E-04-4.28181E-15
 -1      4180 3.66822E-03 1.21739E-04-3.98814E-15
 -1      4181 1.29517E-02-1.21341E-03-3.27904E-14
 -1      4182 2.65300E-03 1.19012E-04-2.20937E-15
 -1      4183 2.50763E-03 1.17798E-04-1.99570E-15
 -1      4184 2.72420E-03 8.20510E-05-2.35163E-15
 -1      4185 1.26571E-02-1.04826E-03-3.21093E-14
 -1      4186 2.01542E-03 6.06444E-06-1.41440E-15
 -1      4187 8.38831E-03-6.93402E-05-1.80837E-14
 -1      4188 8.17325E-03-6.56791E-05-1.73901E-14
 -1      4189 6.10430E-03 1.12641E-04-1.02409E-14
 -1      4190 5.96198E-03 1.13864E-04-9.80380E-15
 -1      4191 6.17436E-03 7.54463E-05-1.05334E-14
 -1      4192 5.89005E-03 7.77941E-05-9.65742E-15
 -1      4193 3.59503E-03 8.36733E-05-3.88861E-15
 -1      4194 3.52359E-03 1.21754E-04-3.70400E-15
 -1      4195 3.37881E-03 1.21683E-04-3.42981E-15
 -1      4196 2.74551E-03 1.82681E-05-2.43791E-15
 -1      4197 2.89100E-03 1.84227E-05-2.67412E-15
 -1      4198 3.03640E-03 1.85262E-05-2.92079E-15
 -1      4199 3.17443E-03 1.86173E-05-3.16378E-15
 -1      4200 3.31959E-03 1.86730E-05-3.42926E-15
 -1      4201 3.46461E-03 1.87263E-05-3.70469E-15
 -1      4202 3.60946E-03 1.87474E-05-3.99058E-15
 -1      4203 3.75414E-03 1.87672E-05-4.28561E-15
 -1      4204 4.13022E-03-7.92664E-06-5.12978E-15
 -1      4205 4.27429E-03-7.88853E-06-5.45972E-15
 -1      4206 4.47500E-03 1.86445E-05-5.90108E-15
 -1      4207 4.61865E-03 1.85746E-05-6.25209E-15
 -1      4208 4.76214E-03 1.84734E-05-6.61148E-15
 -1      4209 4.90546E-03 1.83505E-05-6.98054E-15
 -1      4210 5.04862E-03 1.81816E-05-7.35858E-15
 -1      4211 5.19161E-03 1.79714E-05-7.74690E-15
 -1      4212 5.33443E-03 1.76919E-05-8.14346E-15
 -1      4213 5.47709E-03 1.73417E-05-8.54948E-15
 -1      4214 5.61957E-03 1.68854E-05-8.96489E-15
 -1      4215 5.76187E-03 1.63145E-05-9.38689E-15
 -1      4216 5.90400E-03 1.55826E-05-9.81647E-15
 -1      4217 6.04594E-03 1.46718E-05-1.02541E-14
 -1      4218 6.18771E-03 1.35212E-05-1.06984E-14
 -1      4219 6.32930E-03 1.21014E-05-1.11487E-14
 -1      4220 6.47073E-03 1.03342E-05-1.16052E-14
 -1      4221 6.61199E-03 8.17557E-06-1.20648E-14
 -1      4222 6.75316E-03 5.53070E-06-1.25294E-14
 -1      4223 6.89421E-03 2.33911E-06-1.30001E-14
 -1      4224 7.03528E-03-1.50242E-06-1.34742E-14
 -1      4225 7.17634E-03-6.07272E-06-1.39518E-14
 -1      4226 7.31767E-03-1.14552E-05-1.44348E-14
 -1      4227 7.45213E-03-1.74043E-05-1.48949E-14
 -1      4228 7.59433E-03-2.45598E-05-1.53847E-14
 -1      4229 7.73716E-03-3.27293E-05-1.58794E-14
 -1      4230 7.88133E-03-4.17403E-05-1.63768E-14
 -1      4231 8.02564E-03-5.50813E-05-1.68855E-14
 -1      4232 2.10410E-03 1.27165E-04-1.44652E-15
 -1      4233 2.07257E-03 9.92263E-05-1.42750E-15
 -1      4234 2.12678E-03 4.42467E-06-1.55603E-15
 -1      4235 3.92823E-03 1.08155E-04-4.54167E-15
 -1      4236 3.85541E-03 7.02046E-05-4.43596E-15
 -1      4237 3.87010E-03 5.38241E-06-4.54395E-15
 -1      4238 4.07243E-03 1.07967E-04-4.85331E-15
 -1      4239 2.32240E-03 1.29077E-04-1.72807E-15
 -1      4240 2.45447E-03 1.78531E-05-1.99587E-15
 -1      4241 2.59999E-03 1.80951E-05-2.21156E-15
 -1      4242 2.39313E-03 9.34299E-05-1.85344E-15
 -1      4243 2.17664E-03 7.65044E-05-1.57517E-15
 -1      4244 4.40329E-03 5.64019E-05-5.67860E-15
 -1      4245 4.01448E-03 5.40512E-06-4.85572E-15
 -1      4246 2.23830E-03 2.72328E-06-1.70369E-15
 -1      4247 3.30528E-03 8.35422E-05-3.33648E-15
 -1      4248 2.36213E-03 6.48474E-05-1.83191E-15
 -1      4249 4.08676E-03 4.33507E-05-4.96861E-15
 -1      4250 4.33177E-03 9.42428E-05-5.45760E-15
 -1      4251 4.18784E-03 9.44771E-05-5.12801E-15
 -3
    1PSTEP                         2           1           1          
  100CL  101 1.000000000        4251                     0    1           1
 -4  STRESS      6    1
 -5  SXX         1    4    1    1
 -5  SYY         1    4    2    2
 -5  SZZ         1    4    3    3
 -5  SXY         1    4    1    2
 -5  SYZ         1    4    2    3
 -5  SZX         1    4    3    1
 -1         1 8.82498E+01 1.56104E+00 6.99304E+00-2.20030E-01 1.13250E-13-2.44786E-12
 -1         2-7.51605E-01-2.75780E+01-3.50793E+00 1.12309E-02-1.13271E-12 7.97279E-15
 -1         3 2.00007E+01 9.96061E-04-3.08616E-04 9.23856E-04-4.24628E-13-5.47739E-13
 -1         4 1.99844E+01-1.62024E-02 3.24990E-02 1.61992E-02-4.83010E-14 3.93442E-13
 -1         5 3.27669E+01 6.14244E+00 2.74205E+00 6.22384E+00-2.06501E-14 1.33851E-12
 -1         6 3.59413E+01 1.23483E+01 5.21936E+00-8.75703E+00-8.42659E-14 8.17568E-13
 -1         7 2.07212E+01 6.10546E+00-1.46193E-01-4.69660E+00-1.15186E-14-7.91520E-14
 -1         8 1.96726E+01 5.93665E+00 5.07030E-02-3.27242E+00-1.19280E-14-3.02018E-13
 -1         9 1.91376E+01 5.77237E+00 4.90103E-02-2.52666E+00-9.30853E-15-3.94297E-13
 -1        10 1.88963E+01 5.69244E+00 5.12635E-02-1.95141E+00-2.67061E-15-4.07386E-13
 -1        11 1.87739E+01 5.65140E+00 5.04291E-02-1.45614E+00-1.75034E-15-3.95742E-13
 -1        12 1.87101E+01 5.62961E+00 4.87957E-02-1.01524E+00 2.47025E-15-3.73953E-13
 -1        13 1.86764E+01 5.61812E+00 4.74197E-02-5.95480E-01 9.10838E-16-3.50417E-13
 -1        14 1.86622E+01 5.61326E+00 4.66877E-02-1.91424E-01 4.05432E-15-3.28351E-13
 -1        15 1.86627E+01 5.61341E+00 4.67290E-02 2.07868E-01 9.70079E-15-3.09988E-13
 -1        16 1.86779E+01 5.61858E+00 4.75525E-02 6.12732E-01 8.42501E-15-2.93472E-13
 -1        17 1.87127E+01 5.63032E+00 4.90712E-02 1.03439E+00 9.70730E-15-2.59196E-13
 -1        18 1.87777E+01 5.65238E+00 5.08164E-02 1.47836E+00 9.93303E-15-2.01747E-13
 -1        19 1.89013E+01 5.69393E+00 5.17007E-02 1.97938E+00 1.60245E-14-1.27193E-13
 -1        20 1.91434E+01 5.77469E+00 4.91712E-02 2.56331E+00 1.66447E-14-6.14569E-15
 -1        21 1.96670E+01 5.94954E+00 4.58588E-02 3.30820E+00 1.72709E-14 2.26304E-13
 -1        22 2.12014E+01 6.38142E+00 1.39535E-01 4.52237E+00 6.78624E-15 6.01472E-13
 -1        23 2.32694E+01-1.30575E+00-9.17722E-01-8.33580E-01-5.76275E-14 5.55694E-13
 -1        24 1.94304E+01-1.08869E-01-3.30067E-01 6.49369E-02-1.57036E-14 3.26574E-13
 -1        25 1.86990E+01-5.84221E-02-7.50764E-02 6.21545E-02-1.16749E-14 8.60145E-14
 -1        26 1.84816E+01-2.29273E-02-7.87432E-03 3.37013E-02-6.96632E-15-1.04932E-13
 -1        27 1.84859E+01-1.21798E-02 1.37171E-03 2.29883E-02-1.55849E-14-2.41598E-13
 -1        28 1.85971E+01-6.44916E-03 1.75788E-03 1.65549E-02-2.49963E-15-3.27152E-13
 -1        29 1.87561E+01-3.20978E-03 1.70919E-03 1.23357E-02-1.48210E-16-3.80117E-13
 -1        30 1.89308E+01-1.30730E-03 1.89419E-03 9.33610E-03-2.03960E-15-5.19756E-13
 -1        31 1.91029E+01-1.85552E-04 2.06037E-03 7.08491E-03-5.53237E-15-5.23664E-13
 -1        32 1.92625E+01 4.53937E-04 2.09611E-03 5.34304E-03-1.90926E-14-5.68020E-13
 -1        33 1.94043E+01 7.84079E-04 2.00645E-03 3.97617E-03-7.24368E-15-5.88523E-13
 -1        34 1.95268E+01 9.11563E-04 1.82837E-03 2.89899E-03 1.08479E-15-5.63659E-13
 -1        35 1.96303E+01 9.04677E-04 1.59645E-03 2.05087E-03-2.16799E-14-5.79305E-13
 -1        36 1.97163E+01 8.10152E-04 1.33505E-03 1.38647E-03-1.23962E-15-6.10900E-13
 -1        37 1.97873E+01 6.16178E-04 1.03528E-03 8.32566E-04-1.79201E-14-7.12128E-13
 -1        38 1.98440E+01 4.64002E-04 7.90911E-04 4.76723E-04 1.47105E-15-6.23207E-13
 -1        39 1.98954E+01 1.69311E-04 4.65010E-04 1.45468E-04-2.12103E-14-5.37059E-13
 -1        40 1.99424E+01-1.69437E-04 1.09557E-04-1.15417E-04 1.64715E-14-4.97511E-13
 -1        41 1.99900E+01-6.12293E-04-3.27346E-04-3.21150E-04-3.15301E-14-5.42783E-13
 -1        42 2.00445E+01-1.21503E-03-9.14428E-04-4.72790E-04 1.54148E-14-4.15979E-13
 -1        43 2.01143E+01-2.06851E-03-1.76767E-03-5.47882E-04 2.11310E-14-2.21758E-13
 -1        44 2.02117E+01-3.31360E-03-3.08360E-03-4.79769E-04-1.55889E-14-3.73642E-13
 -1        45 2.03551E+01-5.16291E-03-5.19842E-03-1.13729E-04-3.34802E-15-4.34233E-13
 -1        46 2.05728E+01-7.92579E-03-8.69308E-03 8.81472E-04-8.24227E-15-5.97981E-13
 -1        47 2.09097E+01-1.20234E-02-1.45730E-02 3.18983E-03-3.16482E-14-5.93782E-13
 -1        48 2.14359E+01-1.79515E-02-2.45298E-02 8.19123E-03 1.58839E-14-6.06133E-13
 -1        49 2.22613E+01-2.60743E-02-4.11108E-02 1.85929E-02-5.14309E-14-3.83882E-13
 -1        50 2.35520E+01-3.59364E-02-6.68788E-02 3.94702E-02 1.82580E-14-5.35894E-13
 -1        51 2.55422E+01-4.55540E-02-9.98662E-02 7.88324E-02 9.37314E-15-4.17701E-13
 -1        52 2.84993E+01-4.22996E-02-1.17504E-01 1.52047E-01-8.86543E-14-4.95770E-13
 -1        53 3.23732E+01-1.49139E-02-6.28490E-02 2.37094E-01 4.41929E-14-5.44384E-13
 -1        54 3.71162E+01 5.97736E-02 1.85719E-01 2.98216E-01-6.52245E-15-4.23800E-13
 -1        55 4.05605E+01 1.33812E-01 6.35032E-01 6.30480E-02 5.57679E-14-3.76147E-13
 -1        56 3.87193E+01 1.27137E-01 6.91866E-01-6.61234E-01 4.67092E-14-7.48013E-14
 -1        57 2.85380E+01-3.20722E-02-6.42868E-01-1.62581E+00 1.11300E-14 5.98910E-13
 -1        58 1.75879E+01-8.82335E-02-2.36421E+00-9.53785E-01-8.71317E-14 6.61249E-13
 -1        59 1.61833E+01-2.41441E-01-2.58527E+00 7.70598E-01-4.38538E-14 5.52045E-13
 -1        60 2.37804E+01-1.59758E-01-1.33436E+00 1.58718E+00-2.60555E-15-1.89293E-14
 -1        61 3.47634E+01 6.99655E-02 2.87617E-01 1.20072E+00-1.66291E-14-5.55000E-13
 -1        62 4.04863E+01 1.47038E-01 7.39477E-01 1.74079E-01-8.74925E-14-1.04476E-12
 -1        63 3.90019E+01 1.09729E-01 3.85328E-01-2.52183E-01 2.35732E-14-8.43159E-13
 -1        64 3.47035E+01 1.49932E-02 3.88520E-02-2.80348E-01 6.96500E-14-2.70034E-13
 -1        65 3.01424E+01-3.30115E-02-1.02663E-01-1.92244E-01-4.53548E-14-3.86427E-14
 -1        66 2.65909E+01-4.48946E-02-1.11089E-01-1.09369E-01-6.59277E-14-1.25254E-13
 -1        67 2.41062E+01-3.95810E-02-8.04471E-02-5.78790E-02 3.50431E-14 5.82520E-14
 -1        68 2.24392E+01-3.02607E-02-5.10248E-02-3.03167E-02-6.39029E-15 4.22492E-13
 -1        69 2.13350E+01-2.22110E-02-3.20220E-02-1.66928E-02 1.24096E-13 9.34806E-13
 -1        70 2.06115E+01-1.69855E-02-2.30860E-02-9.65181E-03-1.20957E-13 6.25462E-13
 -1        71 2.01682E+01-1.26750E-02-2.02064E-02-2.41901E-03-7.04884E-14 3.72391E-13
 -1        72 1.99826E+01-5.44683E-04-6.24196E-03 9.29890E-03 3.57432E-14 6.83436E-13
 -1        73 2.10422E+01-4.05105E-01-9.80545E-01-3.11646E-01 2.02581E-14 1.28193E-12
 -1        74 1.93319E+01-6.60292E-02-2.90937E-01-5.40614E-02-3.15893E-15 1.07908E-12
 -1        75 1.86886E+01-2.04263E-02-6.39890E-02-2.02855E-02 7.47221E-15 9.18359E-13
 -1        76 1.84866E+01-9.87373E-03-8.88780E-03-1.54553E-02-1.11074E-14 7.84225E-13
 -1        77 1.84986E+01-5.17776E-03 7.85534E-04-1.23487E-02 9.94701E-15 6.50658E-13
 -1        78 1.86125E+01-2.62855E-03 1.66866E-03-1.01027E-02-4.68730E-15 5.64314E-13
 -1        79 1.87721E+01-1.15639E-03 1.82735E-03-8.35888E-03-1.09235E-14 6.24257E-13
 -1        80 1.89462E+01-2.95245E-04 2.04150E-03-6.92590E-03 2.16848E-15 7.32078E-13
 -1        81 1.91172E+01 1.99186E-04 2.18333E-03-5.69289E-03 3.47343E-15 6.59980E-13
 -1        82 1.92755E+01 4.62543E-04 2.18429E-03-4.61939E-03 1.96469E-14 4.80076E-13
 -1        83 1.94163E+01 5.76661E-04 2.05991E-03-3.68846E-03 3.04984E-16 3.88273E-13
 -1        84 1.95381E+01 5.93968E-04 1.84852E-03-2.88964E-03 1.84575E-14 3.88817E-13
 -1        85 1.96413E+01 5.49433E-04 1.58468E-03-2.21443E-03-1.09841E-14 2.61705E-13
 -1        86 1.97278E+01 4.67264E-04 1.29395E-03-1.65507E-03 2.57366E-14 1.09481E-13
 -1        87 1.98001E+01 3.65124E-04 9.94083E-04-1.20510E-03-1.08906E-14 2.00348E-14
 -1        88 1.98610E+01 2.57248E-04 6.98017E-04-8.60648E-04-2.84681E-14 4.26949E-14
 -1        89 1.99138E+01 1.57168E-04 4.17431E-04-6.21957E-04 1.54230E-14 2.22047E-15
 -1        90 1.99614E+01 8.03315E-05 1.67036E-04-4.94696E-04 3.57995E-14-2.89709E-13
 -1        91 2.00064E+01 4.66338E-05-3.02498E-05-4.90408E-04-5.00309E-14-4.09086E-13
 -1        92 2.00509E+01 8.26077E-05-1.37310E-04-6.25253E-04 1.61058E-14-7.87375E-14
 -1        93 2.00956E+01 2.22580E-04-9.66101E-05-9.15711E-04-2.25063E-14 5.81802E-14
 -1        94 2.01396E+01 5.07516E-04 1.74613E-04-1.36937E-03 3.17339E-14 1.53820E-13
 -1        95 2.01789E+01 9.79557E-04 7.84241E-04-1.96867E-03 1.24170E-14-3.23265E-13
 -1        96 2.02059E+01 1.66970E-03 1.85412E-03-2.64593E-03 2.38411E-14-3.52288E-13
 -1        97 2.02076E+01 2.57629E-03 3.48913E-03-3.25089E-03 2.68494E-14-1.48905E-13
 -1        98 2.01650E+01 3.63435E-03 5.71717E-03-3.51762E-03 1.28090E-14-1.53705E-13
 -1        99 2.00531E+01 4.68096E-03 8.39641E-03-3.04861E-03-6.81165E-14 1.21293E-13
 -1       100 1.98428E+01 5.43227E-03 1.11037E-02-1.34719E-03-7.00192E-14 4.22810E-13
 -1       101 1.95058E+01 5.49944E-03 1.30530E-02 2.06009E-03 3.01153E-15 2.26924E-13
 -1       102 1.90230E+01 4.47615E-03 1.31381E-02 7.38262E-03-2.41360E-14 7.68821E-14
 -1       103 1.83963E+01 2.10885E-03 1.02089E-02 1.42412E-02 1.78148E-14 1.97917E-13
 -1       104 1.76604E+01-1.49200E-03 3.61409E-03 2.14058E-02-7.30528E-14 2.25025E-13
 -1       105 1.68887E+01-5.71188E-03-6.14974E-03 2.68384E-02 1.24297E-14 5.10043E-13
 -1       106 1.61877E+01-9.51136E-03-1.70746E-02 2.82607E-02 7.42034E-14 4.92239E-13
 -1       107 1.56757E+01-1.17778E-02-2.60351E-02 2.41811E-02-2.68779E-14 1.89276E-13
 -1       108 1.54501E+01-1.18002E-02-3.00165E-02 1.48524E-02-2.14126E-14-2.22842E-13
 -1       109 1.55552E+01-9.59283E-03-2.75530E-02 2.45018E-03 2.70859E-14-4.35746E-13
 -1       110 1.59668E+01-5.88333E-03-1.95226E-02-9.74872E-03 2.67465E-14-9.13792E-14
 -1       111 1.66006E+01-1.75825E-03-8.65217E-03-1.87640E-02 6.75846E-14-2.93213E-13
 -1       112 1.73403E+01 1.78520E-03 1.79269E-03-2.30599E-02-1.26083E-13-2.40920E-13
 -1       113 1.80721E+01 4.14549E-03 9.38720E-03-2.28101E-02-1.61373E-14-4.98686E-13
 -1       114 1.87110E+01 5.18586E-03 1.32078E-02-1.93513E-02 1.36852E-13-6.21278E-13
 -1       115 1.92112E+01 5.11610E-03 1.36242E-02-1.43684E-02-7.12026E-14-6.77403E-13
 -1       116 1.95635E+01 4.31031E-03 1.16978E-02-9.28506E-03 3.10371E-14-8.27305E-13
 -1       117 1.97852E+01 3.15002E-03 8.58859E-03-5.00574E-03 2.16291E-14-6.45628E-13
 -1       118 1.99073E+01 1.97936E-03 5.25372E-03-1.97833E-03 4.63349E-15-7.27713E-13
 -1       119 1.99650E+01 1.10520E-03 2.49782E-03-3.86704E-04 9.55928E-14-8.56791E-13
 -1       120 1.99891E+01 6.32615E-04 9.35532E-04-8.58474E-06-3.24922E-14-8.28678E-13
 -1       121 1.99987E+01 2.91763E-06 3.85248E-04-2.02924E-04 1.16406E-13-8.74713E-13
 -1       122 1.99996E+01-2.01151E-03 5.12262E-04-7.07674E-04-4.03067E-13 1.98760E-13
 -1       123 1.99990E+01-1.43828E-02 9.17527E-06-2.15994E-03 5.05798E-13-1.15058E-13
 -1       124 1.99977E+01-2.39399E-02-2.30887E-03-2.49231E-03 8.59350E-13 3.33456E-13
 -1       125 1.99964E+01-4.34522E-03-4.90420E-03-1.27568E-03 1.45558E-12-1.02635E-13
 -1       126 1.99956E+01 7.08298E-02-6.67975E-03 1.45279E-03 7.93815E-13-1.11970E-13
 -1       127 1.99958E+01 2.15586E-01-6.88210E-03 4.73395E-03 1.17670E-13-1.76548E-13
 -1       128 1.99973E+01 4.34333E-01-4.83813E-03 8.16282E-03 1.26104E-12 2.63803E-13
 -1       129 2.00001E+01 7.01628E-01-4.75793E-04 1.03246E-02 1.71953E-12-1.11960E-13
 -1       130 2.00037E+01 9.69769E-01 5.59127E-03 1.00272E-02 1.80950E-12 1.26746E-13
 -1       131 2.00073E+01 1.17437E+00 1.18798E-02 6.45053E-03 2.09186E-12-8.48300E-14
 -1       132 2.00093E+01 1.25014E+00 1.60586E-02-5.86378E-04 1.09828E-12-4.01096E-13
 -1       133 2.00092E+01 1.15735E+00 1.59839E-02-8.78807E-03 6.59937E-14 4.12579E-13
 -1       134 2.00058E+01 8.94780E-01 9.60072E-03-1.65191E-02 5.31841E-13 5.35027E-15
 -1       135 1.99993E+01 5.25103E-01-2.94721E-03-1.96473E-02 3.64287E-13 6.60311E-14
 -1       136 1.99947E+01 1.70667E-01-1.51209E-02-1.09488E-02 6.37715E-13-1.13964E-13
 -1       137 1.99939E+01-2.64892E-03-3.63198E-03 1.15297E-02-4.20553E-13 3.53956E-14
 -1       138-1.32283E+00-1.96407E+01-2.95960E+00-3.63379E+00-1.52434E-13 5.44079E-14
 -1       139-1.02081E+00-6.60130E+00-2.03070E+00-2.11696E+00-1.27676E-15-1.93318E-13
 -1       140 4.71806E+00 5.83372E+00-7.60899E-01 5.49954E+00-2.98206E-13-2.21212E-13
 -1       141 2.06753E+01 1.27414E+01 8.19699E-01 1.60090E+01-1.76137E-13-7.88258E-14
 -1       142 4.05950E+01 1.08883E+01 2.12297E+00 2.04168E+01 2.16493E-15-8.00471E-14
 -1       143 5.92038E+01 5.41772E+00 3.05752E+00 1.66122E+01 4.25909E-14 1.40554E-13
 -1       144 7.01304E+01 1.26267E+00 3.56133E+00 5.20828E+00-8.97893E-15 2.05932E-13
 -1       145 6.79716E+01 2.15966E+00 3.47264E+00-9.20548E+00 1.27366E-13-3.91104E-13
 -1       146 5.33746E+01 7.43487E+00 2.78727E+00-1.88412E+01 2.44763E-13-1.01769E-12
 -1       147 3.20194E+01 1.25136E+01 1.61681E+00-1.95882E+01 9.37528E-13-1.54654E-12
 -1       148 1.28448E+01 1.16021E+01 1.98597E-01-1.21740E+01 9.51850E-13-1.03750E-12
 -1       149 1.74214E+00 2.44545E+00-1.20104E+00-2.41009E+00 6.32272E-13-5.03930E-13
 -1       150-1.45583E+00-1.12173E+01-2.36682E+00 3.29446E+00 1.60205E-13-1.20959E-13
 -1       151-1.03347E+00-2.33743E+01-3.19144E+00 2.78550E+00 7.82818E-13-4.70110E-16
 -1       152-8.65905E-01-2.81526E+01-3.59302E+00-1.98412E+00 7.37743E-13-2.32106E-14
 -1       153-2.45796E+00-2.38838E+01-3.60933E+00-6.33675E+00-2.97484E-13-7.43156E-14
 -1       154-3.41136E+00-1.30558E+01-3.27189E+00-5.88447E+00-1.10600E-12-6.06792E-13
 -1       155 6.72040E-01-6.00161E-01-2.41114E+00 6.66437E-01-1.02385E-12-9.11604E-13
 -1       156 1.62813E+01 8.26919E+00-5.69678E-01 1.17566E+01-1.34803E-12-1.68932E-12
 -1       157 4.60382E+01 9.05108E+00 2.50953E+00 1.94730E+01-1.04650E-12-2.53142E-12
 -1       158 7.65122E+01 4.31265E+00 5.72688E+00 1.47085E+01-5.93380E-13-2.61885E-12
 -1       159 7.72755E+01 4.16732E+00 5.86500E+00-1.46538E+01 4.73580E-13-2.36733E-12
 -1       160 5.00135E+01 8.64691E+00 2.95870E+00-1.97365E+01 4.00069E-13-1.07281E-12
 -1       161 2.37782E+01 9.46682E+00 2.33171E-01-1.50139E+01 5.62606E-13-7.63500E-13
 -1       162 5.70932E+00 3.80205E+00-1.70598E+00-5.11324E+00 4.64295E-13-6.14508E-13
 -1       163-2.54648E+00-6.80636E+00-2.95596E+00 3.39072E+00-4.14557E-13-1.89848E-14
 -1       164-3.21544E+00-1.84180E+01-3.45339E+00 6.84355E+00-1.15907E-12 5.41692E-13
 -1       165-1.62419E+00-2.65879E+01-3.64321E+00 4.96796E+00-8.40369E-13 2.41823E-13
 -1       166 2.10115E+01 3.70179E+00-5.20866E-02-3.62329E+00-1.49311E-13-1.76529E-13
 -1       167 1.99907E+01 4.20980E+00-4.55682E-02-2.80934E+00-1.23858E-13-2.91794E-13
 -1       168 1.95108E+01 4.47645E+00-3.13338E-02-2.19652E+00-8.73667E-14-3.41517E-13
 -1       169 1.92680E+01 4.61507E+00-2.35053E-02-1.67494E+00-4.30879E-14-3.45182E-13
 -1       170 1.91372E+01 4.69686E+00-1.95383E-02-1.21923E+00-8.73553E-15-3.27769E-13
 -1       171 1.90632E+01 4.74794E+00-1.74392E-02-7.92196E-01 1.95792E-14-3.01095E-13
 -1       172 1.90259E+01 4.77588E+00-1.64246E-02-3.87061E-01 5.58679E-14-2.77427E-13
 -1       173 1.90149E+01 4.78444E+00-1.61311E-02 7.99075E-03 8.34739E-14-2.67637E-13
 -1       174 1.90275E+01 4.77462E+00-1.64629E-02 4.03384E-01 1.02900E-13-2.51756E-13
 -1       175 1.90667E+01 4.74506E+00-1.75158E-02 8.09555E-01 1.20746E-13-2.28951E-13
 -1       176 1.91414E+01 4.69263E+00-1.96820E-02 1.23099E+00 1.38180E-13-1.88155E-13
 -1       177 1.92770E+01 4.60558E+00-2.39748E-02 1.69757E+00 1.71487E-13-1.26024E-13
 -1       178 1.95246E+01 4.45960E+00-3.25704E-02 2.22520E+00 1.87944E-13-4.07001E-14
 -1       179 2.00127E+01 4.18416E+00-4.71215E-02 2.84725E+00 1.88207E-13 1.13295E-13
 -1       180 2.11351E+01 3.46342E+00-6.00237E-02 3.53561E+00 1.71320E-13 3.61051E-13
 -1       181 2.24196E+01 1.14343E+00-3.36522E-01 3.01433E+00 1.16498E-13 6.56253E-13
 -1       182 2.20355E+01 9.23654E-01-6.74585E-04-2.03493E+00-1.27048E-13 1.58727E-14
 -1       183 2.04965E+01 2.08740E-01-1.11123E-02-8.01628E-01-1.35544E-13-4.86573E-14
 -1       184 1.96978E+01 1.05619E-01 1.32299E-02-3.00940E-01-1.08051E-13-8.63502E-14
 -1       185 1.93441E+01 4.89648E-02 1.01744E-02-7.52095E-02-7.88287E-14-1.35630E-13
 -1       186 1.92071E+01 2.35000E-02 5.32152E-03 3.59486E-02-5.51623E-14-2.03496E-13
 -1       187 1.91900E+01 1.00617E-02 2.52001E-03 9.07084E-02-3.77392E-14-2.14907E-13
 -1       188 1.92370E+01 2.46124E-03 1.17489E-03 1.14376E-01-8.88820E-14-2.20611E-13
 -1       189 1.93160E+01-1.88191E-03 5.21108E-04 1.20136E-01-2.63794E-14-2.35280E-13
 -1       190 1.94076E+01-4.24137E-03 1.77080E-04 1.15613E-01-3.61489E-14-2.75074E-13
 -1       191 1.95006E+01-5.33605E-03-1.30458E-05 1.05536E-01-3.30424E-14-2.55500E-13
 -1       192 1.95884E+01-5.61163E-03-1.14458E-04 9.29428E-02-1.72776E-14-3.13378E-13
 -1       193 1.96679E+01-5.35787E-03-1.59060E-04 7.98135E-02-5.50375E-15-3.42783E-13
 -1       194 1.97379E+01-4.76391E-03-1.65159E-04 6.74413E-02-5.07524E-14-3.62716E-13
 -1       195 1.97987E+01-3.93703E-03-1.47637E-04 5.66730E-02-3.86580E-14-3.99534E-13
 -1       196 1.98492E+01-3.01192E-03-9.98975E-05 4.84724E-02 5.29221E-14-3.07557E-13
 -1       197 1.98967E+01-1.88736E-03-4.35215E-05 4.24786E-02 8.89958E-14-2.69019E-13
 -1       198 1.99409E+01-5.53467E-04 4.11445E-05 3.96704E-02 3.46736E-15-1.14369E-13
 -1       199 1.99854E+01 1.09300E-03 1.55957E-04 4.07822E-02-4.09105E-14-1.08719E-13
 -1       200 2.00346E+01 3.25428E-03 3.15102E-04 4.69280E-02-1.22644E-14-1.50349E-13
 -1       201 2.00946E+01 6.26778E-03 5.41535E-04 5.99033E-02 7.89230E-14-1.72115E-13
 -1       202 2.01733E+01 1.06816E-02 8.70382E-04 8.26127E-02-6.47803E-14-1.70684E-13
 -1       203 2.02825E+01 1.73754E-02 1.35217E-03 1.19725E-01-4.34022E-14-1.63270E-13
 -1       204 2.04387E+01 2.77450E-02 2.05206E-03 1.78673E-01-8.55028E-14-2.94843E-13
 -1       205 2.06664E+01 4.39628E-02 3.03293E-03 2.71120E-01-1.98194E-14-4.10348E-13
 -1       206 2.10006E+01 6.92730E-02 4.29354E-03 4.14978E-01-6.46078E-14-4.44674E-13
 -1       207 2.14911E+01 1.08086E-01 5.61402E-03 6.36627E-01 9.60061E-14-4.23532E-13
 -1       208 2.22050E+01 1.65025E-01 6.29572E-03 9.71772E-01-6.73086E-14-4.01333E-13
 -1       209 2.32255E+01 2.40465E-01 5.11359E-03 1.45929E+00-1.06064E-13-5.61283E-13
 -1       210 2.46368E+01 3.14274E-01 1.04450E-03 2.11531E+00-1.49004E-14-5.30447E-13
 -1       211 2.63932E+01 3.18998E-01-2.81514E-03 2.81862E+00 2.26741E-14-3.62691E-13
 -1       212 2.86620E+01 6.73436E-02 6.53287E-03 3.28876E+00 1.71608E-15-4.71989E-13
 -1       213 3.11967E+01-7.67138E-01 3.61755E-02 2.62658E+00-1.62197E-14-4.48256E-13
 -1       214 3.35659E+01-2.15841E+00 6.72466E-02-1.32343E-01 1.08427E-13-5.57895E-13
 -1       215 3.52081E+01-2.18703E+00-1.30118E-01-4.68377E+00 2.68362E-13-7.13293E-13
 -1       216 3.55491E+01 1.16535E+00-2.53947E-01-6.07862E+00-3.01148E-14-5.18738E-13
 -1       217 3.56497E+01 4.01972E+00-3.13527E-01-1.44192E+00-1.43385E-13-6.10283E-13
 -1       218 3.55758E+01 2.92259E+00-3.31736E-01 4.46334E+00-3.39700E-13-6.14744E-13
 -1       219 3.56367E+01-9.65972E-01-1.68063E-01 6.06170E+00-3.12653E-13-4.71793E-13
 -1       220 3.45084E+01-2.53723E+00 1.16322E-02 2.21693E+00-1.49335E-13-6.72707E-13
 -1       221 3.23313E+01-1.39362E+00 5.91164E-02-1.58227E+00 6.34284E-14-4.28465E-13
 -1       222 2.98856E+01-2.80846E-01 2.50574E-02-3.17523E+00 2.49934E-13-4.07705E-13
 -1       223 2.74186E+01 2.32828E-01-5.46599E-04-3.15518E+00 1.15304E-13-5.28577E-13
 -1       224 2.53132E+01 3.28383E-01-2.04023E-03-2.49895E+00 1.76013E-13-3.34804E-13
 -1       225 2.36500E+01 2.75379E-01 2.89580E-03-1.79478E+00 6.90030E-14-7.60921E-14
 -1       226 2.24082E+01 1.97096E-01 5.84713E-03-1.23504E+00 1.43400E-13-7.10461E-14
 -1       227 2.15135E+01 1.33651E-01 6.19424E-03-8.35641E-01 1.51562E-13 1.68921E-14
 -1       228 2.08847E+01 9.32099E-02 5.18472E-03-5.56928E-01-2.34388E-13-2.53057E-13
 -1       229 2.04573E+01 7.37030E-02 3.44713E-03-3.49764E-01-3.94879E-14 1.87962E-14
 -1       230 2.01755E+01 7.76966E-02 1.90965E-03-1.72886E-01-2.58121E-14-1.89391E-14
 -1       231 2.09646E+01 2.78201E-01-5.07281E-02 1.16487E+00 9.85635E-14 5.79517E-13
 -1       232 1.98692E+01 1.28421E-01 8.90105E-03 4.44393E-01 9.58062E-14 4.79020E-13
 -1       233 1.93631E+01 5.82017E-02 1.29004E-02 1.49998E-01 8.87641E-14 3.96375E-13
 -1       234 1.91542E+01 2.76420E-02 7.57825E-03 1.03510E-02 7.43418E-14 3.09602E-13
 -1       235 1.91051E+01 1.30911E-02 3.77089E-03-5.87647E-02 6.52007E-15 3.17173E-13
 -1       236 1.91415E+01 5.17145E-03 1.87414E-03-9.12956E-02-3.46570E-14 3.24965E-13
 -1       237 1.92214E+01 6.53902E-04 9.98062E-04-1.03259E-01-2.19474E-14 2.98882E-13
 -1       238 1.93201E+01-1.90872E-03 5.46229E-04-1.03328E-01 3.40301E-14 2.57880E-13
 -1       239 1.94231E+01-3.24922E-03 2.85395E-04-9.67378E-02 1.14530E-13 1.87036E-13
 -1       240 1.95221E+01-3.80433E-03 1.26289E-04-8.67919E-02-1.33676E-14 1.76571E-13
 -1       241 1.96125E+01-3.85064E-03 2.98461E-05-7.56239E-02 4.22035E-14 1.98035E-13
 -1       242 1.96926E+01-3.57178E-03-2.53848E-05-6.46125E-02 1.04051E-13 9.99825E-14
 -1       243 1.97622E+01-3.09289E-03-5.33199E-05-5.46303E-02 7.88463E-14-2.98517E-15
 -1       244 1.98223E+01-2.50089E-03-6.38766E-05-4.62011E-02 3.01447E-14-3.96961E-14
 -1       245 1.98743E+01-1.85902E-03-6.46429E-05-3.96006E-02 1.28424E-14-7.06839E-14
 -1       246 1.99201E+01-1.21941E-03-6.18991E-05-3.49129E-02 6.63328E-14-1.58327E-13
 -1       247 1.99617E+01-6.35439E-04-6.13024E-05-3.20472E-02 1.27982E-13-2.04889E-13
 -1       248 2.00008E+01-1.74995E-04-6.82774E-05-3.07145E-02-3.74548E-14-1.19635E-13
 -1       249 2.00386E+01 6.53980E-05-8.80580E-05-3.03643E-02-1.12325E-13-7.77965E-14
 -1       250 2.00754E+01-5.30617E-05-1.25233E-04-3.00788E-02-8.64961E-14-1.32613E-13
 -1       251 2.01100E+01-7.21140E-04-1.82583E-04-2.84365E-02 4.81049E-14-1.41916E-13
 -1       252 2.01394E+01-2.18004E-03-2.59086E-04-2.33678E-02 1.34435E-13-1.65544E-13
 -1       253 2.01575E+01-4.69644E-03-3.47239E-04-1.20574E-02 2.11715E-14-2.51752E-13
 -1       254 2.01549E+01-8.49691E-03-4.30482E-04 9.00912E-03-1.18806E-13-1.40439E-13
 -1       255 2.01180E+01-1.36433E-02-4.82391E-04 4.37085E-02-7.95640E-14 1.84533E-13
 -1       256 2.00299E+01-1.98413E-02-4.70544E-04 9.54699E-02-1.73019E-13 2.56595E-13
 -1       257 1.98711E+01-2.62049E-02-3.67162E-04 1.65842E-01-9.62896E-14 3.61911E-13
 -1       258 1.96237E+01-3.10654E-02-1.67280E-04 2.52454E-01 3.29098E-14 3.39234E-13
 -1       259 1.92764E+01-3.20063E-02 9.14335E-05 3.46792E-01 2.79204E-15 3.16872E-13
 -1       260 1.88320E+01-2.63661E-02 3.26158E-04 4.32812E-01-1.14474E-13 2.55578E-13
 -1       261 1.83147E+01-1.23396E-02 4.37535E-04 4.87980E-01-1.19579E-13 4.39932E-13
 -1       262 1.77736E+01 9.55384E-03 3.68733E-04 4.88131E-01 5.68294E-14 3.36841E-13
 -1       263 1.72794E+01 3.53888E-02 1.66421E-04 4.16077E-01 7.61392E-14 2.66940E-13
 -1       264 1.69112E+01 5.82701E-02-1.37076E-05 2.71132E-01-1.87806E-15 3.14661E-13
 -1       265 1.67355E+01 7.08160E-02-1.06821E-06 7.41343E-02 2.19867E-13 1.99378E-13
 -1       266 1.67853E+01 6.86214E-02 2.68297E-04-1.36595E-01 6.99109E-14 1.59580E-14
 -1       267 1.70488E+01 5.24880E-02 6.75282E-04-3.17826E-01-1.68912E-13-1.07063E-13
 -1       268 1.74733E+01 2.80232E-02 1.01100E-03-4.36533E-01 6.16358E-15-1.76083E-14
 -1       269 1.79827E+01 2.80486E-03 1.08971E-03-4.79874E-01 9.42053E-15 2.41639E-13
 -1       270 1.84996E+01-1.69904E-02 8.67206E-04-4.55679E-01 2.03716E-13 5.96947E-14
 -1       271 1.89632E+01-2.84310E-02 4.50497E-04-3.85153E-01 1.85660E-13-6.35342E-16
 -1       272 1.93377E+01-3.17119E-02-2.17829E-06-2.93244E-01-9.85629E-14 5.60795E-14
 -1       273 1.96120E+01-2.89170E-02-3.64189E-04-2.01229E-01 4.96710E-14 5.31361E-14
 -1       274 1.97938E+01-2.26632E-02-5.85240E-04-1.23228E-01-2.97277E-15-9.42883E-14
 -1       275 1.99015E+01-1.51850E-02-6.66539E-04-6.60118E-02 3.68947E-14 1.67373E-14
 -1       276 1.99576E+01-8.24445E-03-6.19653E-04-3.05656E-02 7.14605E-14 2.43643E-14
 -1       277 1.99831E+01-3.47826E-03-4.68158E-04-1.30143E-02-9.67584E-14-2.66567E-14
 -1       278 1.99944E+01-1.71443E-03-9.46487E-05-5.53139E-03 5.84946E-14 2.10550E-13
 -1       279 1.99976E+01-6.18696E-03 1.94203E-04-8.90712E-03 2.00171E-13 6.29070E-13
 -1       280 2.00047E+01-8.72803E-03 5.08652E-04-3.93595E-03 2.79038E-13 1.24560E-13
 -1       281 2.00132E+01 4.33225E-03 5.77674E-04 2.00683E-02 2.00299E-13 4.68912E-13
 -1       282 2.00205E+01 4.94410E-02 6.43217E-04 6.32887E-02 2.78722E-13-3.53403E-13
 -1       283 2.00234E+01 1.37390E-01 5.63274E-04 1.17764E-01 3.64797E-13-3.91153E-13
 -1       284 2.00199E+01 2.75257E-01 3.08616E-04 1.72105E-01 5.60575E-13 6.10702E-13
 -1       285 2.00088E+01 4.53085E-01-1.12869E-04 2.08137E-01 5.80733E-13 2.99724E-13
 -1       286 1.99909E+01 6.46870E-01-6.05921E-04 2.08037E-01 1.01050E-12 1.90361E-13
 -1       287 1.99698E+01 8.19795E-01-1.04943E-03 1.59554E-01 9.35874E-13-1.01874E-13
 -1       288 1.99516E+01 9.29586E-01-1.27685E-03 6.23281E-02 7.01642E-13-4.85705E-13
 -1       289 1.99440E+01 9.41658E-01-1.23334E-03-6.46697E-02 6.90609E-13-6.35592E-13
 -1       290 1.99531E+01 8.41839E-01-9.69860E-04-1.92467E-01 5.97807E-13 2.22490E-13
 -1       291 1.99817E+01 6.45408E-01-5.15022E-04-2.74975E-01 2.24091E-13-3.65119E-13
 -1       292 2.00241E+01 4.01536E-01 2.31903E-04-2.72123E-01-1.71148E-13-1.07644E-13
 -1       293-5.91598E-01-1.06140E+01-8.11402E-01 2.98844E+00-3.23880E-13 4.43534E-13
 -1       294 3.56557E+00-8.37265E+00-7.29200E-01 4.68419E+00-1.91097E-13-7.27335E-14
 -1       295 1.12094E+01-4.18419E+00-3.64581E-01 7.10780E+00 5.83422E-14-7.16649E-14
 -1       296 2.31245E+01-1.31543E+00 5.41975E-05 7.97055E+00-9.35918E-14 9.46465E-15
 -1       297 3.27513E+01 4.17524E+00 4.19301E-01 8.89544E+00-2.28220E-13-3.51774E-13
 -1       298 4.19041E+01 6.06980E+00 7.09988E-01 6.78620E+00-2.17149E-13-2.09749E-13
 -1       299 4.87186E+01 7.06363E+00 9.83315E-01 3.91032E+00-7.06796E-14-1.74943E-13
 -1       300 4.88719E+01 7.78364E+00 8.84294E-01-5.80456E-01 2.46969E-13-7.60884E-14
 -1       301 4.64469E+01 6.93765E+00 8.52617E-01-4.78613E+00 3.48249E-13-4.07091E-13
 -1       302 3.88063E+01 5.42243E+00 6.13141E-01-7.78340E+00 5.09984E-13-4.59160E-13
 -1       303 2.80652E+01 3.11491E+00 2.80753E-01-9.20355E+00 4.63046E-13-5.69766E-13
 -1       304 1.69804E+01-7.88224E-01-1.50559E-01-8.14606E+00 3.50997E-13-6.83786E-13
 -1       305 7.89014E+00-5.47257E+00-5.43226E-01-6.04272E+00 3.56770E-13-4.62887E-13
 -1       306 1.87217E+00-9.39644E+00-7.59887E-01-4.23115E+00 4.69375E-13-4.06480E-14
 -1       307-1.44743E+00-1.16969E+01-9.26455E-01-2.15094E+00-1.12160E-13-8.56260E-14
 -1       308-1.39033E+00-1.26165E+01-1.08983E+00-2.49067E-01-2.03795E-13-5.57859E-13
 -1       309 2.30809E+00-1.03381E+01-9.88554E-01 2.11266E+00-3.50664E-13-6.50299E-13
 -1       310 9.39604E+00-7.64344E+00-9.38589E-01 3.99925E+00-5.80869E-13-6.60097E-13
 -1       311 2.11915E+01-4.15513E+00-5.20824E-01 5.65335E+00-5.72209E-13-1.18849E-12
 -1       312 3.69210E+01-1.28457E+00 2.21822E-01 4.11010E+00-5.59025E-13-1.45928E-12
 -1       313 4.85632E+01 2.95523E+00 9.88953E-01 5.64862E-01-4.02414E-13-1.75615E-12
 -1       314 5.53513E+01 7.06136E+00 1.83942E+00 1.75261E-01-3.43753E-13-1.96132E-12
 -1       315 5.66971E+01 7.08867E+00 2.03290E+00-3.02274E-01 4.48808E-14-1.68149E-12
 -1       316 4.92038E+01 3.61193E+00 1.12988E+00-5.80426E-01-1.47105E-14-1.48559E-12
 -1       317 3.96381E+01 4.00712E-01 5.35425E-01-5.23291E+00 3.23297E-13-1.14914E-12
 -1       318 2.73649E+01-3.88256E+00-3.05845E-01-5.12929E+00 3.47056E-13-6.04183E-13
 -1       319 1.60844E+01-5.37824E+00-6.54225E-01-5.20169E+00 1.40443E-13-7.86510E-13
 -1       320 5.29406E+00-9.18260E+00-1.02969E+00-2.96609E+00-1.10634E-13-5.38751E-13
 -1       321 1.61264E-01-1.17559E+01-1.10553E+00-9.00871E-01-1.40388E-13 1.46411E-13
 -1       322-1.77126E+00-1.28180E+01-1.07428E+00 8.91533E-01-2.84986E-13-1.89737E-13
 -1       323 2.00677E+01 1.78970E-01 2.70271E-03-1.75830E-01-2.70959E-13-2.73314E-13
 -1       324 2.01380E+01 2.99936E+00-2.20022E-02-2.09759E+00-1.20274E-13-2.53420E-13
 -1       325 2.07539E+01 2.20746E+00-1.79348E-02-2.36501E+00-1.58635E-13-1.97783E-13
 -1       326 1.95838E+01 3.69141E+00-1.56031E-02-1.31710E+00-3.19869E-14-2.45894E-13
 -1       327 1.94604E+01 3.84858E+00-1.37162E-02-9.23617E-01-4.74198E-15-2.39382E-13
 -1       328 1.93911E+01 3.93966E+00-1.27204E-02-5.43885E-01 5.26242E-14-2.19053E-13
 -1       329 1.93604E+01 3.98109E+00-1.22947E-02-1.73442E-01 8.90111E-14-2.08626E-13
 -1       330 1.93617E+01 3.97949E+00-1.23106E-02 1.94058E-01 1.18966E-13-1.93632E-13
 -1       331 1.93952E+01 3.93457E+00-1.27566E-02 5.64915E-01 1.35637E-13-1.86850E-13
 -1       332 1.94661E+01 3.84121E+00-1.37710E-02 9.38761E-01 1.65112E-13-1.63226E-13
 -1       333 1.95931E+01 3.67874E+00-1.56970E-02 1.33282E+00 1.87475E-13-1.00790E-13
 -1       334 1.98085E+01 3.40990E+00-1.90798E-02 1.73844E+00 2.13938E-13-3.32850E-14
 -1       335 2.01744E+01 2.95152E+00-2.34137E-02 2.12387E+00 2.24857E-13 4.60691E-14
 -1       336 2.07601E+01 2.10592E+00-2.94089E-02 2.30618E+00 1.97709E-13 2.20820E-13
 -1       337 2.10938E+01 1.18615E+00-2.39390E-02 1.91418E+00 1.57993E-13 3.64826E-13
 -1       338 2.03780E+01 4.91798E-01 8.38884E-03 9.18444E-01 1.44142E-13 2.97344E-13
 -1       339 1.67817E+01-6.93055E+00-1.51664E-01-5.98819E+00-1.66672E-13-8.84032E-13
 -1       340 2.04795E+01 7.01625E-01 1.18626E-02-1.06049E+00-1.40365E-13-1.75110E-13
 -1       341 2.00532E+01 3.48723E-01 7.27209E-03-4.77797E-01-1.08904E-13-1.78931E-13
 -1       342 1.97929E+01 1.82509E-01 4.23313E-03-1.59552E-01-8.90350E-14-1.61519E-13
 -1       343 1.96531E+01 9.38715E-02 1.95439E-03 1.69866E-02-5.72268E-14-1.63835E-13
 -1       344 1.95950E+01 4.34416E-02 8.22591E-04 1.11418E-01-6.58361E-14-1.87606E-13
 -1       345 1.95883E+01 1.37654E-02 2.91675E-04 1.56724E-01-5.01669E-14-1.28966E-13
 -1       346 1.96119E+01-3.60547E-03 2.77787E-05 1.72293E-01-7.72067E-14-1.50269E-13
 -1       347 1.96517E+01-1.32464E-02-1.09543E-04 1.70179E-01-2.74496E-14-1.84772E-13
 -1       348 1.96985E+01-1.78765E-02-1.77212E-04 1.58167E-01-3.72067E-14-1.70700E-13
 -1       349 1.97467E+01-1.92183E-02-2.01686E-04 1.41398E-01-6.01274E-14-1.61158E-13
 -1       350 1.97932E+01-1.83957E-02-1.97443E-04 1.23296E-01-8.77392E-15-2.27204E-13
 -1       351 1.98362E+01-1.61174E-02-1.77122E-04 1.06171E-01-7.21580E-14-1.51980E-13
 -1       352 1.98739E+01-1.30401E-02-1.39493E-04 9.22326E-02 3.63864E-14-8.68278E-14
 -1       353 1.99105E+01-8.97470E-03-9.35945E-05 8.11991E-02 9.17417E-14-1.20748E-13
 -1       354 1.99453E+01-4.04915E-03-3.28322E-05 7.49252E-02 8.75929E-14-2.03263E-13
 -1       355 1.99799E+01 2.01528E-03 4.54824E-05 7.45998E-02 3.58459E-14-2.31390E-13
 -1       356 2.00169E+01 9.79879E-03 1.49791E-04 8.18203E-02-3.24661E-14-9.75236E-14
 -1       357 2.00593E+01 2.03039E-02 2.95337E-04 9.89628E-02 7.28892E-14-4.66806E-14
 -1       358 2.01109E+01 3.51522E-02 5.06699E-04 1.29682E-01-6.10945E-14-1.09029E-13
 -1       359 2.01765E+01 5.68951E-02 8.22262E-04 1.79622E-01-4.95543E-14-1.26860E-13
 -1       360 2.02622E+01 8.94738E-02 1.29972E-03 2.57428E-01-4.13923E-14-9.83457E-14
 -1       361 2.03749E+01 1.38839E-01 2.01944E-03 3.76132E-01-1.35550E-13-3.06653E-14
 -1       362 2.05222E+01 2.13621E-01 3.07511E-03 5.54912E-01-1.19739E-13-1.35170E-13
 -1       363 2.07108E+01 3.25360E-01 4.52703E-03 8.20888E-01-2.68177E-15-2.34593E-13
 -1       364 2.09435E+01 4.86704E-01 6.29026E-03 1.20981E+00-1.04038E-14-4.07530E-13
 -1       365 2.12145E+01 7.03262E-01 8.02091E-03 1.76259E+00-1.37317E-13-3.77631E-13
 -1       366 2.15075E+01 9.47235E-01 9.35903E-03 2.51115E+00-4.78012E-14-2.19909E-13
 -1       367 2.18025E+01 1.09959E+00 1.05394E-02 3.39328E+00 7.68396E-15-2.57427E-13
 -1       368 2.22209E+01 8.57991E-01 2.05897E-02 4.36699E+00-2.22387E-14-2.35981E-13
 -1       369 2.31283E+01-4.58917E-01 4.51386E-02 5.01142E+00-6.41848E-15-2.70260E-13
 -1       370 2.54917E+01-3.39418E+00 1.40145E-01 4.52647E+00 1.67019E-14-3.31239E-13
 -1       371 3.48046E+01-5.11899E+00-1.89623E-01 1.24570E+00-2.00166E-13-6.99371E-13
 -1       372 2.81023E+01-4.94997E+00 3.59138E-02-3.06003E+00 4.46795E-14-3.22809E-13
 -1       373 2.46682E+01-1.71280E+00 6.75875E-02-4.76583E+00 1.54699E-13-4.09872E-13
 -1       374 2.30181E+01 3.31695E-01 2.93247E-02-4.71138E+00 2.69622E-13-4.35355E-13
 -1       375 2.22661E+01 9.76740E-01 1.03554E-02-3.88876E+00 2.09600E-13-1.93325E-13
 -1       376 2.17794E+01 9.63174E-01 8.21567E-03-2.93876E+00 3.48004E-13-5.70996E-13
 -1       377 2.13636E+01 7.52299E-01 8.05761E-03-2.12002E+00 6.65358E-14-3.72683E-13
 -1       378 2.09944E+01 5.37067E-01 6.97827E-03-1.49365E+00 7.91726E-14-3.46757E-13
 -1       379 2.06813E+01 3.76674E-01 5.63458E-03-1.03750E+00 1.55854E-14-4.46825E-13
 -1       380 2.04278E+01 2.81437E-01 4.65438E-03-7.05691E-01-4.53296E-14-1.27275E-13
 -1       381 2.02248E+01 2.39278E-01 2.88225E-03-4.44930E-01-1.78144E-13-1.23361E-13
 -1       382 1.98802E+01 2.36935E-01 1.10682E-02 3.98769E-01 1.24986E-13 2.26048E-13
 -1       383 1.20998E+01-5.22195E+00 3.98661E-02 8.50035E+00-2.85771E-13 6.75085E-14
 -1       384 1.96001E+01 1.19924E-01 6.39528E-03 1.20861E-01 8.36638E-14 1.97629E-13
 -1       385 1.94687E+01 5.76755E-02 2.63952E-03-2.93371E-02 1.54471E-14 1.80579E-13
 -1       386 1.94294E+01 2.59309E-02 1.12851E-03-1.06555E-01-1.60713E-14 1.48940E-13
 -1       387 1.94458E+01 7.50661E-03 4.41224E-04-1.42036E-01-7.68571E-15 8.71590E-14
 -1       388 1.94927E+01-3.13277E-03 1.06048E-04-1.52848E-01 5.64143E-14 8.49191E-14
 -1       389 1.95541E+01-8.94956E-03-7.22811E-05-1.49262E-01 1.29510E-13 8.99378E-14
 -1       390 1.96201E+01-1.16704E-02-1.65388E-04-1.37779E-01 8.03486E-15 1.20289E-13
 -1       391 1.96847E+01-1.23792E-02-2.05677E-04-1.22627E-01 5.54870E-14 4.56779E-14
 -1       392 1.97449E+01-1.17916E-02-2.11845E-04-1.06570E-01 1.53539E-13 2.75338E-14
 -1       393 1.97991E+01-1.03950E-02-1.96337E-04-9.13951E-02 1.46146E-13 1.21373E-14
 -1       394 1.98473E+01-8.52920E-03-1.67990E-04-7.82082E-02 5.40127E-14-4.04983E-14
 -1       395 1.98901E+01-6.44269E-03-1.33485E-04-6.76334E-02 3.79358E-14-1.09488E-13
 -1       396 1.99285E+01-4.33854E-03-9.84323E-05-5.99234E-02 7.08324E-14-1.49525E-13
 -1       397 1.99636E+01-2.41837E-03-6.83332E-05-5.50042E-02 8.49720E-14-1.11529E-13
 -1       398 1.99968E+01-9.27237E-04-4.94176E-05-5.24524E-02 1.75309E-15-6.26099E-15
 -1       399 2.00288E+01-1.99879E-04-4.93420E-05-5.14078E-02-1.26285E-13-1.76748E-13
 -1       400 2.00599E+01-7.03422E-04-7.75760E-05-5.04218E-02 2.36983E-14-2.21589E-13
 -1       401 2.00895E+01-3.06497E-03-1.45126E-04-4.72601E-02 8.31791E-15-1.92824E-13
 -1       402 2.01156E+01-8.06070E-03-2.63142E-04-3.86949E-02 1.94816E-13-1.87366E-13
 -1       403 2.01341E+01-1.65281E-02-4.39866E-04-2.03712E-02 6.35985E-15-1.50667E-13
 -1       404 2.01389E+01-2.91493E-02-6.75499E-04 1.31123E-02-2.96490E-13 8.55466E-14
 -1       405 2.01206E+01-4.60506E-02-9.55304E-04 6.76926E-02-2.39335E-13 1.67311E-13
 -1       406 2.00675E+01-6.61994E-02-1.24209E-03 1.48636E-01-1.43618E-13 2.96654E-13
 -1       407 1.99656E+01-8.66791E-02-1.47277E-03 2.58412E-01-8.06166E-14 3.28053E-13
 -1       408 1.98007E+01-1.02110E-01-1.55953E-03 3.93656E-01 3.15485E-14 2.84419E-13
 -1       409 1.95622E+01-1.04771E-01-1.41106E-03 5.41770E-01 5.09849E-14 3.15531E-13
 -1       410 1.92479E+01-8.61691E-02-9.64676E-04 6.78625E-01-7.46488E-14 4.29203E-13
 -1       411 1.88707E+01-4.04745E-02-2.14472E-04 7.69717E-01-1.21899E-13 4.01544E-13
 -1       412 1.84629E+01 3.08532E-02 7.60777E-04 7.77060E-01 1.98350E-13 3.10440E-13
 -1       413 1.80767E+01 1.15514E-01 1.79890E-03 6.72118E-01-3.67200E-14 3.08249E-13
 -1       414 1.77752E+01 1.91413E-01 2.68990E-03 4.51024E-01 1.09651E-13 4.57429E-13
 -1       415 1.76164E+01 2.34350E-01 3.24125E-03 1.43762E-01 2.48970E-13 4.35472E-13
 -1       416 1.76327E+01 2.29247E-01 3.32140E-03-1.90698E-01 1.72534E-13 4.37968E-13
 -1       417 1.78190E+01 1.77792E-01 2.86518E-03-4.83590E-01-6.77110E-14 3.03872E-13
 -1       418 1.81346E+01 9.76575E-02 1.98905E-03-6.80596E-01-1.19413E-13 3.60706E-14
 -1       419 1.85181E+01 1.36453E-02 8.83567E-04-7.58828E-01-1.29904E-13 1.01374E-13
 -1       420 1.89070E+01-5.34610E-02-2.04512E-04-7.28630E-01 1.62261E-13 2.74188E-13
 -1       421 1.92538E+01-9.33153E-02-1.03874E-03-6.22405E-01 1.52183E-13 3.33072E-13
 -1       422 1.95317E+01-1.05963E-01-1.50936E-03-4.79337E-01-5.89112E-14 5.16931E-13
 -1       423 1.97332E+01-9.79478E-02-1.61933E-03-3.33439E-01 1.51871E-13 5.31745E-13
 -1       424 1.98647E+01-7.78688E-02-1.46501E-03-2.07726E-01 6.55355E-14 5.04193E-13
 -1       425 1.99405E+01-5.33517E-02-1.15934E-03-1.13665E-01-1.02606E-13 5.19878E-13
 -1       426 1.99770E+01-2.98544E-02-7.63378E-04-5.35310E-02 1.25790E-13 6.69997E-13
 -1       427 1.99912E+01-1.30850E-02-4.00244E-04-2.25009E-02-1.26236E-13 7.01102E-13
 -1       428 1.99961E+01-8.12436E-03-1.84871E-05-1.32995E-02-5.95879E-15 7.48956E-13
 -1       429 2.00689E+01-1.43358E-02 6.16821E-04 7.09881E-02 4.18261E-14 6.54514E-14
 -1       430 2.00376E+01-2.46779E-02 1.76553E-04 1.21965E-02 1.76758E-13 3.62288E-13
 -1       431 2.00117E+01-1.71538E-02 1.75739E-05-1.01900E-02-5.09365E-14 2.40511E-13
 -1       432 2.00888E+01 2.72128E-02 7.61745E-04 1.55992E-01 8.92476E-14-4.53040E-13
 -1       433 2.00879E+01 1.11029E-01 6.48702E-04 2.53181E-01 2.64344E-13 4.03447E-13
 -1       434 2.00594E+01 2.38712E-01 3.03234E-04 3.35673E-01 4.08881E-13 4.55651E-13
 -1       435 2.00023E+01 4.00976E-01-2.20318E-04 3.73260E-01 1.61708E-13 4.29999E-13
 -1       436 1.99251E+01 5.75668E-01-8.30294E-04 3.39088E-01 2.99264E-13-5.45733E-16
 -1       437 1.98463E+01 7.29201E-01-1.36638E-03 2.19993E-01 1.73932E-13-4.66854E-13
 -1       438 1.97934E+01 8.22639E-01-1.59966E-03 3.08468E-02 2.02126E-13-5.68308E-13
 -1       439 1.97917E+01 8.27642E-01-1.56634E-03-1.95605E-01 5.80630E-13 5.60220E-14
 -1       440 1.98608E+01 7.28251E-01-1.14455E-03-3.92970E-01 2.14219E-13-5.96305E-13
 -1       441 1.99939E+01 5.39322E-01-1.17501E-04-4.91134E-01-9.25811E-14-5.42752E-13
 -1       442 2.03508E+01-5.15078E+00 1.27142E-02 7.89777E+00-6.05072E-14-1.72796E-13
 -1       443 5.72822E-01-4.53579E+00-5.75865E-02 1.98750E+00 8.17506E-14 4.55469E-14
 -1       444 2.41026E+01-6.94053E+00-1.96501E-01-4.70462E+00-9.82547E-15-3.89744E-13
 -1       445 1.61603E+00-5.41353E+00-1.15526E-01-1.99414E+00-2.20032E-14-2.39253E-13
 -1       446 1.97914E+01 3.43257E+00-1.87217E-02-1.71976E+00-9.40880E-14-2.60392E-13
 -1       447 3.01522E+01-1.58710E+00 1.05661E-02 4.54966E+00-2.08188E-13-3.44946E-13
 -1       448 3.45401E+01 2.09064E+00 1.72946E-02 2.48073E+00-1.93592E-13-2.69507E-13
 -1       449 3.78793E+01 6.62064E+00 6.45286E-02 6.62427E-01-2.09499E-13-2.60555E-13
 -1       450 3.82450E+01 8.94049E+00 2.96135E-02-9.39104E-03 8.63198E-14-3.04763E-13
 -1       451 3.74692E+01 8.50591E+00-2.16143E-03 7.63688E-02 3.97515E-13-1.44933E-13
 -1       452 3.72011E+01 5.25241E+00 6.87626E-02-1.32212E+00 4.50487E-13-1.61662E-13
 -1       453 3.29082E+01 5.53629E-01 2.92562E-02-3.57341E+00 3.49202E-13-4.37900E-13
 -1       454 2.64701E+01-3.35218E+00 7.96541E-03-6.26839E+00 1.37348E-13-3.72716E-13
 -1       455 1.72645E+01-4.99797E+00-3.11813E-02-8.33000E+00 1.17989E-13-4.77826E-13
 -1       456 8.76939E+00-5.41242E+00-5.63558E-02-7.89561E+00 2.39420E-13-9.59996E-14
 -1       457 2.82021E+00-4.17520E+00 2.10336E-02-5.16660E+00-1.01724E-14-3.65485E-13
 -1       458 1.00745E+00-3.69798E+00 2.81725E-02-3.68550E-01-3.25655E-13-5.20389E-13
 -1       459 3.31926E+00-5.50237E+00-1.07034E-01 3.37307E+00-3.13055E-13-5.04236E-13
 -1       460 1.26353E+01-5.80676E+00-3.22388E-02 6.28153E+00-2.22433E-13-5.57568E-13
 -1       461 2.20774E+01-7.03506E+00-1.39100E-01 5.27843E+00-1.98924E-13-7.67414E-13
 -1       462 3.25493E+01-6.01291E+00-6.96483E-02 9.86754E-01-5.41650E-14-6.62637E-13
 -1       463 3.88285E+01-1.74254E+00-2.55361E-02-3.78414E+00 9.20097E-14-9.04804E-13
 -1       464 7.25280E+00-5.97877E+00-1.26180E-01-5.17700E+00 2.52826E-13-5.64729E-13
 -1       465 5.32506E+00-4.47994E+00 3.21989E-02 6.78597E+00-3.16414E-13 2.67841E-15
 -1       466 2.62107E+01-4.65979E+00 3.02176E-03 5.41757E+00-7.47041E-14-3.82784E-13
 -1       467 1.97328E+01 3.10423E+00-5.41184E-03-6.33707E-01 3.07075E-14-1.84065E-13
 -1       468 1.98294E+01 2.93027E+00-6.01811E-03-9.50534E-01-1.57036E-14-2.11817E-13
 -1       469 1.96647E+01 3.22712E+00-5.02651E-03 8.54534E-03 9.46564E-14-1.77861E-13
 -1       470 1.96832E+01 3.19415E+00-5.10527E-03 3.30037E-01 1.21066E-13-1.78217E-13
 -1       471 1.97371E+01 3.09730E+00-5.41797E-03 6.45300E-01 1.44690E-13-1.59355E-13
 -1       472 1.98357E+01 2.91939E+00-5.97717E-03 9.60668E-01 1.83761E-13-1.18189E-13
 -1       473 1.99917E+01 2.63339E+00-6.72655E-03 1.25582E+00 1.81023E-13-5.65058E-14
 -1       474 2.02177E+01 2.19293E+00-6.73862E-03 1.48725E+00 1.96559E-13 4.65665E-15
 -1       475 2.04822E+01 1.53457E+00-3.59564E-03 1.53288E+00 1.79713E-13 8.93107E-14
 -1       476 2.05349E+01 9.86084E-01 4.10436E-03 1.29247E+00 1.68266E-13 1.70911E-13
 -1       477 7.92030E+00-1.70564E+00 1.80833E-01-4.53784E+00 2.95784E-13-5.93664E-13
 -1       478 2.03490E+01 1.00125E+00 2.67282E-03-9.65035E-01-1.20178E-13-2.05052E-13
 -1       479 2.01793E+01 5.63222E-01 2.40286E-03-4.85798E-01-8.95136E-14-1.87875E-13
 -1       480 2.00312E+01 3.13063E-01 1.01149E-03-1.77018E-01-7.08527E-14-1.79553E-13
 -1       481 1.99286E+01 1.67531E-01 4.54943E-04 9.45246E-03-7.22909E-14-1.86649E-13
 -1       482 1.98683E+01 7.92579E-02 1.65389E-04 1.15514E-01-4.52730E-14-1.84651E-13
 -1       483 1.98400E+01 2.54041E-02 2.76528E-05 1.69336E-01-6.79222E-14-1.13047E-13
 -1       484 1.98335E+01-6.68876E-03-4.23125E-05 1.89877E-01-5.30430E-14-5.18359E-14
 -1       485 1.98409E+01-2.45703E-02-7.77644E-05 1.89992E-01-3.89856E-14-3.96386E-14
 -1       486 1.98563E+01-3.30182E-02-9.24756E-05 1.78445E-01-7.30499E-14-1.22406E-13
 -1       487 1.98760E+01-3.51670E-02-9.28427E-05 1.61225E-01-7.48441E-14-1.37860E-13
 -1       488 1.98972E+01-3.30705E-02-8.69321E-05 1.42448E-01-2.34450E-14-1.85589E-13
 -1       489 1.99178E+01-2.83931E-02-7.25431E-05 1.25726E-01 4.38368E-14-1.98910E-13
 -1       490 1.99393E+01-2.13294E-02-5.38123E-05 1.11293E-01 6.00138E-15-5.98001E-14
 -1       491 1.99605E+01-1.23255E-02-3.07073E-05 1.01686E-01 3.73768E-14-3.68087E-14
 -1       492 1.99817E+01-1.16647E-03-1.21982E-06 9.83918E-02-8.24020E-15-9.77691E-14
 -1       493 2.00036E+01 1.29055E-02 3.68373E-05 1.03090E-01 9.41099E-14-1.28774E-13
 -1       494 2.00268E+01 3.13255E-02 8.83192E-05 1.17986E-01 4.72292E-14-8.46598E-14
 -1       495 2.00519E+01 5.64571E-02 1.61406E-04 1.46218E-01-8.26918E-14-1.65536E-13
 -1       496 2.00787E+01 9.19906E-02 2.69120E-04 1.92357E-01-2.15526E-14-1.46647E-13
 -1       497 2.01058E+01 1.43523E-01 4.31653E-04 2.63049E-01-2.31637E-14-2.43947E-13
 -1       498 2.01292E+01 2.19324E-01 6.78738E-04 3.67787E-01-1.85430E-14-2.21339E-13
 -1       499 2.01403E+01 3.31160E-01 1.04909E-03 5.19733E-01-9.93057E-14-2.05299E-13
 -1       500 2.01216E+01 4.94714E-01 1.57928E-03 7.36346E-01-1.17857E-13-1.96840E-14
 -1       501 2.00416E+01 7.28181E-01 2.27740E-03 1.03930E+00-1.02108E-13-4.29408E-14
 -1       502 1.98474E+01 1.04558E+00 3.12902E-03 1.45295E+00-1.83162E-13-1.64734E-13
 -1       503 1.94572E+01 1.43645E+00 4.67224E-03 2.00022E+00-4.95697E-14-3.58276E-13
 -1       504 1.88148E+01 1.80365E+00 7.35330E-03 2.66525E+00 3.35175E-14-3.84253E-13
 -1       505 1.77914E+01 1.94249E+00 2.22090E-02 3.53356E+00 8.59150E-14-1.74405E-13
 -1       506 1.64744E+01 1.24164E+00 6.91051E-02 4.62088E+00-1.08398E-13-1.31728E-13
 -1       507 1.53767E+01-1.19917E+00 1.34056E-01 5.79447E+00-1.77289E-13-3.76081E-13
 -1       508 4.47113E+00-6.83707E-01 2.05805E-01-1.08094E+00 3.28987E-13-3.63584E-13
 -1       509 2.01682E+01 5.05373E-01 6.73022E-03 6.44504E-01 1.43526E-13 1.47029E-13
 -1       510 1.79966E+01-4.12028E-02 1.04879E-01-5.41213E+00 3.12656E-13-4.59608E-13
 -1       511 1.82244E+01 1.51747E+00 3.33874E-02-4.29799E+00 2.32954E-13-2.63214E-13
 -1       512 1.90430E+01 1.72675E+00 1.06383E-02-3.31555E+00-1.55321E-14-3.32595E-13
 -1       513 1.96272E+01 1.45707E+00 5.93234E-03-2.48900E+00 2.32469E-13-6.36840E-13
 -1       514 1.99560E+01 1.09330E+00 4.34228E-03-1.83357E+00 6.52728E-14-6.49426E-13
 -1       515 2.01023E+01 7.84896E-01 3.37842E-03-1.33174E+00-7.05718E-15-3.52135E-13
 -1       516 2.01366E+01 5.75574E-01 2.79539E-03-9.54011E-01 1.08354E-13-4.59404E-13
 -1       517 2.00357E+01 5.38830E-01 1.54287E-03-7.02898E-01 5.60115E-14-4.54746E-13
 -1       518 1.99251E+01 2.45472E-01 1.48556E-03 1.59411E-01 7.28250E-14 8.66208E-14
 -1       519 2.00118E+01 3.51344E-01 3.79025E-03 3.60365E-01 1.17445E-13 1.12909E-13
 -1       520 1.97530E+01 6.00752E-02 3.37632E-04-1.19759E-01 3.18061E-14 1.03342E-14
 -1       521 1.97347E+01 1.84741E-02 8.47030E-05-1.68382E-01 1.53043E-14-4.42108E-14
 -1       522 1.97413E+01-6.00781E-03-4.66411E-05-1.85712E-01 6.85555E-14-3.76845E-14
 -1       523 1.97625E+01-1.95117E-02-1.14974E-04-1.84156E-01 6.46219E-14 3.71725E-14
 -1       524 1.97912E+01-2.58172E-02-1.45278E-04-1.71965E-01 9.87680E-14 6.73081E-16
 -1       525 1.98227E+01-2.73896E-02-1.51381E-04-1.54676E-01 1.24407E-13-8.97179E-14
 -1       526 1.98543E+01-2.58982E-02-1.42120E-04-1.35982E-01 8.08996E-14-3.57476E-14
 -1       527 1.98846E+01-2.25005E-02-1.23616E-04-1.18291E-01 8.11136E-14 4.25292E-14
 -1       528 1.99128E+01-1.80237E-02-1.00273E-04-1.03100E-01 5.27873E-14 3.33146E-14
 -1       529 1.99391E+01-1.31007E-02-7.55367E-05-9.12371E-02 7.81893E-14 6.36763E-14
 -1       530 1.99638E+01-8.28748E-03-5.25229E-05-8.29924E-02 6.97951E-14 7.00963E-15
 -1       531 1.99875E+01-4.17545E-03-3.45696E-05-7.81552E-02 1.49325E-14 7.01334E-14
 -1       532 2.00108E+01-1.50530E-03-2.57419E-05-7.59616E-02-7.54794E-14 4.29556E-14
 -1       533 2.00345E+01-1.27565E-03-3.12827E-05-7.49539E-02-6.12597E-14 1.45499E-13
 -1       534 2.00590E+01-4.82888E-03-5.77579E-05-7.27620E-02 2.03814E-14 1.60837E-13
 -1       535 2.00841E+01-1.38741E-02-1.12733E-04-6.58382E-02 1.06527E-13 3.07032E-14
 -1       536 2.01095E+01-3.03758E-02-2.03580E-04-4.92134E-02 3.69415E-14 2.16659E-13
 -1       537 2.01333E+01-5.62036E-02-3.35036E-04-1.64043E-02-2.12838E-13 2.31585E-13
 -1       538 2.01527E+01-9.24120E-02-5.05141E-04 4.03106E-02-2.27673E-13 4.83724E-14
 -1       539 2.01626E+01-1.38051E-01-6.99895E-04 1.28929E-01-2.34866E-13 4.70927E-14
 -1       540 2.01552E+01-1.88548E-01-8.86305E-04 2.55707E-01-1.71794E-13-3.88926E-14
 -1       541 2.01199E+01-2.34030E-01-1.01248E-03 4.21801E-01-5.93941E-14 1.61226E-14
 -1       542 2.00433E+01-2.58489E-01-9.99927E-04 6.18682E-01-2.84840E-14 9.16232E-14
 -1       543 1.99120E+01-2.41401E-01-7.82868E-04 8.23275E-01-1.21900E-13 2.86345E-13
 -1       544 1.97177E+01-1.63645E-01-3.45996E-04 9.95401E-01-3.64474E-14 2.93476E-13
 -1       545 1.94651E+01-1.77996E-02 2.81709E-04 1.08158E+00 9.76448E-14 1.36381E-13
 -1       546 1.91800E+01 1.80523E-01 1.00380E-03 1.02838E+00-3.04232E-14 2.63431E-13
 -1       547 1.89115E+01 3.87392E-01 1.65590E-03 8.04986E-01 5.65977E-14 4.41069E-13
 -1       548 1.87213E+01 5.41141E-01 2.07068E-03 4.26176E-01 1.52775E-13 5.17844E-13
 -1       549 1.86606E+01 5.88456E-01 2.20858E-03-4.05233E-02 1.01195E-13 6.37543E-13
 -1       550 1.87455E+01 5.11953E-01 1.96196E-03-4.94518E-01 2.22684E-13 6.33450E-13
 -1       551 1.89503E+01 3.38891E-01 1.49115E-03-8.39935E-01 2.21934E-13 5.61013E-13
 -1       552 1.92188E+01 1.27456E-01 8.28017E-04-1.02057E+00-2.06331E-13 5.34655E-13
 -1       553 1.94900E+01-6.24047E-02 5.87796E-05-1.03404E+00-1.63344E-13 4.88064E-13
 -1       554 1.97197E+01-1.92617E-01-5.79785E-04-9.19251E-01 1.81898E-13 5.58689E-13
 -1       555 1.98873E+01-2.53054E-01-9.82886E-04-7.32412E-01 1.01445E-13 5.22038E-13
 -1       556 1.99919E+01-2.54370E-01-1.12318E-03-5.26277E-01 1.66657E-13 3.66106E-13
 -1       557 2.00445E+01-2.16775E-01-1.04260E-03-3.38855E-01 6.97457E-14 5.39609E-13
 -1       558 2.00594E+01-1.60296E-01-8.84808E-04-1.91131E-01-8.17778E-14 6.56408E-13
 -1       559 2.00509E+01-1.01235E-01-7.48310E-04-9.09106E-02-3.44641E-17 6.47162E-13
 -1       560 2.00315E+01-5.01774E-02-3.95259E-04-3.38137E-02-1.70963E-14 7.97562E-13
 -1       561 2.01961E+01-6.16471E-02 4.43323E-04 2.65633E-01 4.23115E-13 9.91213E-14
 -1       562 2.01689E+01 2.05185E-02 2.24609E-04 4.02587E-01 2.09090E-13 5.79943E-13
 -1       563 2.01158E+01-8.56832E-02 3.67890E-04 3.18655E-02 8.01222E-14 1.83999E-13
 -1       564 2.01722E+01-9.23933E-02 4.75133E-04 1.33011E-01 1.60053E-14-1.53721E-13
 -1       565 2.00811E+01 1.58680E-01 2.14897E-05 5.04905E-01-3.82408E-15 2.66733E-13
 -1       566 1.99380E+01 3.43984E-01-2.48450E-04 5.30739E-01-5.10509E-14 1.48403E-13
 -1       567 1.97662E+01 5.50340E-01-4.94213E-04 4.45613E-01-1.42409E-13-1.25842E-13
 -1       568 1.96165E+01 7.32128E-01-7.07043E-04 2.44537E-01 4.91812E-14-6.07091E-13
 -1       569 1.95418E+01 8.46695E-01-5.78239E-04-5.20756E-02 2.89356E-13-4.40823E-14
 -1       570 1.95994E+01 8.45170E-01-8.33093E-04-3.76596E-01 1.25671E-14-6.97640E-13
 -1       571 1.97760E+01 7.33977E-01-5.72436E-04-6.02648E-01-1.29513E-13-8.27218E-13
 -1       572 1.85537E+01-4.63217E+00 1.06016E-01 7.83051E+00-1.15068E-13-1.32682E-13
 -1       573 3.18473E+01 8.70086E+00-1.88991E-01 1.76526E-01 1.82368E-13-5.77810E-14
 -1       574 1.27025E+01-3.28540E+00 1.67872E-01 8.06318E+00-1.31353E-14-1.73681E-14
 -1       575 1.98106E+01 1.29343E-01 8.97031E-04-2.06985E-02 2.55579E-14 5.53495E-14
 -1       576 1.99303E+01-3.70534E+00 1.40105E-01-5.91137E+00 1.29494E-13-7.23990E-13
 -1       577 2.03897E+01 1.78147E+00-5.27707E-03-1.53893E+00-1.31203E-13-2.19473E-13
 -1       578 1.55747E+01-3.96321E+00 1.49450E-01-6.37130E+00 1.45703E-13-2.96353E-13
 -1       579 1.96802E+01 3.19855E+00-5.13438E-03-3.12894E-01 7.76224E-14-1.76728E-13
 -1       580 3.12204E+01-1.10312E+00-9.43099E-02 1.10963E+00-1.72281E-13-9.62008E-14
 -1       581 3.30453E+01 3.51861E+00-1.23923E-01-8.17419E-01-5.14172E-14-1.50172E-13
 -1       582 3.21378E+01 5.83766E+00-1.74945E-01 1.50614E+00 3.81889E-13-1.92332E-13
 -1       583 3.21488E+01 1.48947E+00-1.24319E-01 5.11404E-01 4.24494E-13-8.18026E-14
 -1       584 2.96738E+01-3.04402E+00-4.64240E-02-2.35084E+00 3.33154E-14-2.30704E-13
 -1       585 2.34201E+01-5.27190E+00 1.95437E-02-6.64586E+00 2.73323E-14-2.92030E-13
 -1       586 1.67051E+01-4.69986E+00 1.07887E-01-8.38552E+00-6.73073E-15-4.74745E-13
 -1       587 8.77765E+00-2.73681E+00 1.56837E-01-7.35847E+00-1.40436E-13-1.78857E-13
 -1       588 4.85598E+00-1.93425E-01 2.21547E-01-2.77407E+00-3.54106E-13-4.85029E-13
 -1       589 5.51086E+00-1.11733E+00 2.01089E-01 2.66467E+00-2.82954E-13-6.38337E-13
 -1       590 2.14020E+01-4.62296E+00 1.23800E-01 5.66098E+00-1.14589E-13-4.94361E-13
 -1       591 3.27696E+01 7.31060E+00-1.71946E-01-1.17165E+00-9.67004E-14-8.12614E-14
 -1       592 5.39108E+00-8.76391E-01 1.92848E-01 4.41676E+00 1.38826E-13 4.80033E-14
 -1       593 1.99798E+01 2.65246E+00-6.47553E-03-1.24426E+00-5.40996E-14-2.30919E-13
 -1       594 2.85646E+01-3.90088E+00-1.45602E-02 2.71118E+00-8.34749E-14-1.19987E-13
 -1       595 2.31877E+01-5.11066E+00 1.59065E-02 6.02900E+00-8.25798E-14-5.56388E-13
 -1       596 2.01642E+01 2.29073E+00-5.99234E-03-1.44202E+00-9.19382E-14-2.34657E-13
 -1       597 1.06783E+01-1.85443E+00 1.67926E-01 5.46234E+00-3.84033E-13-4.94674E-13
 -1       598 1.99598E+01 2.44995E+00-1.60075E-03 3.93633E-01 1.32556E-13-1.54402E-13
 -1       599 1.99279E+01 2.52492E+00-1.50862E-03 1.35507E-01 9.87564E-14-1.75454E-13
 -1       600 2.01197E+01 2.04663E+00-1.72773E-03 8.49563E-01 1.68526E-13-9.34423E-14
 -1       601 2.02403E+01 1.68328E+00-1.09705E-03 9.96674E-01 1.70032E-13-2.47842E-14
 -1       602 2.03338E+01 1.19687E+00 1.45918E-04 1.00846E+00 1.54951E-13 2.37751E-14
 -1       603 2.03105E+01 8.32745E-01 5.84268E-03 8.55864E-01 1.56540E-13 8.61965E-14
 -1       604 2.00187E+01 2.30530E+00-1.68928E-03-6.29577E-01 2.32591E-14-1.64945E-13
 -1       605 2.02426E+01 6.94622E-01 5.10644E-04-4.08175E-01-6.40847E-14-1.59122E-13
 -1       606 2.01713E+01 4.03354E-01 1.55497E-04-1.48932E-01-6.87581E-14-1.48959E-13
 -1       607 2.01053E+01 2.20205E-01 6.15845E-05 1.72684E-02-3.64127E-14-1.16839E-13
 -1       608 2.00544E+01 1.03625E-01 8.52819E-06 1.15466E-01-2.45445E-14-5.28198E-14
 -1       609 2.00189E+01 3.06141E-02-1.40798E-05 1.66692E-01-2.32159E-14-5.36628E-14
 -1       610 1.99962E+01-1.32967E-02-2.51228E-05 1.86843E-01-2.97541E-14-1.37530E-14
 -1       611 1.99833E+01-3.75372E-02-3.03351E-05 1.87516E-01-1.18489E-13-5.56273E-15
 -1       612 1.99773E+01-4.84258E-02-3.04679E-05 1.77003E-01-1.02752E-13 2.82266E-14
 -1       613 1.99762E+01-5.02239E-02-2.98552E-05 1.61173E-01-8.67454E-14-5.68940E-14
 -1       614 1.99782E+01-4.61650E-02-2.70988E-05 1.44936E-01-3.38367E-14-3.34003E-14
 -1       615 1.99825E+01-3.75345E-02-2.01003E-05 1.29408E-01 5.05559E-14-7.41478E-14
 -1       616 1.99882E+01-2.53582E-02-1.42732E-05 1.17600E-01 6.61885E-14-1.14963E-13
 -1       617 1.99946E+01-9.84447E-03-6.22709E-06 1.11224E-01 1.53470E-14-5.22023E-14
 -1       618 2.00011E+01 9.57388E-03 3.68858E-06 1.11868E-01-7.83969E-14-1.17973E-13
 -1       619 2.00067E+01 3.43244E-02 1.64341E-05 1.21259E-01 3.65160E-15-2.00299E-13
 -1       620 2.00099E+01 6.69099E-02 3.36443E-05 1.41519E-01-9.09003E-14-2.83952E-13
 -1       621 2.00077E+01 1.11268E-01 5.79917E-05 1.75407E-01-1.73004E-14-3.28216E-13
 -1       622 1.99949E+01 1.73295E-01 9.36753E-05 2.26541E-01 1.55588E-14-1.60337E-13
 -1       623 1.99624E+01 2.61513E-01 1.46935E-04 2.99507E-01 3.41624E-15-2.29469E-13
 -1       624 1.98947E+01 3.87775E-01 2.25421E-04 3.99747E-01-7.34359E-14-2.65773E-13
 -1       625 1.97658E+01 5.67620E-01 3.33508E-04 5.32951E-01 1.17102E-14-1.45723E-13
 -1       626 1.95340E+01 8.19336E-01 4.62554E-04 7.03646E-01-1.20699E-13-1.07131E-13
 -1       627 1.91331E+01 1.15961E+00 5.99737E-04 9.12885E-01-1.29447E-13-1.17870E-13
 -1       628 1.84628E+01 1.59144E+00 1.32198E-03 1.15448E+00-1.42627E-13-5.11998E-14
 -1       629 1.74472E+01 2.05480E+00 3.01822E-03 1.40751E+00-2.22580E-14 1.20614E-14
 -1       630 1.58062E+01 2.47196E+00 1.35915E-02 1.69825E+00 9.09147E-14-5.79645E-14
 -1       631 1.33153E+01 2.45774E+00 4.51746E-02 2.05967E+00-1.29188E-13-3.45710E-13
 -1       632 1.99422E+01 2.61834E-02 8.06734E-06-1.71992E-01 5.16771E-14-8.73902E-14
 -1       633 1.71386E+01 2.17788E+00 6.82552E-03-1.97905E+00-2.12617E-13-3.52355E-13
 -1       634 1.83402E+01 1.71933E+00 1.67928E-03-1.58574E+00 5.28952E-14-3.83829E-13
 -1       635 1.90905E+01 1.28130E+00 7.84677E-04-1.24953E+00 2.80384E-14-5.97107E-13
 -1       636 1.95353E+01 9.47706E-01 7.55652E-04-9.66207E-01 1.30502E-13-7.33721E-13
 -1       637 1.96707E+01 8.18851E-01 1.28817E-03-7.66921E-01-7.29912E-14-7.36496E-13
 -1       638 1.99268E+01-1.12257E-02-2.50108E-05-1.91163E-01 2.42895E-14-7.37682E-14
 -1       639 1.99739E+01 8.88142E-02 6.49684E-05-1.21450E-01 5.03792E-14-8.24293E-14
 -1       640 1.99226E+01-3.18217E-02-4.16647E-05-1.90848E-01 8.36737E-14-5.55638E-14
 -1       641 1.99256E+01-4.11415E-02-4.80706E-05-1.79408E-01 1.46571E-13 2.11449E-14
 -1       642 1.99330E+01-4.29667E-02-4.78558E-05-1.62627E-01 6.22549E-14 2.43130E-14
 -1       643 1.99428E+01-3.99265E-02-4.33277E-05-1.44426E-01 6.58491E-14 5.99824E-14
 -1       644 1.99538E+01-3.38818E-02-3.63608E-05-1.27396E-01 3.56646E-14 5.40573E-14
 -1       645 1.99654E+01-2.62026E-02-2.82390E-05-1.13154E-01 3.00037E-14 1.13599E-13
 -1       646 1.99773E+01-1.79897E-02-2.00702E-05-1.02585E-01 7.27829E-14 1.53078E-13
 -1       647 1.99897E+01-1.02739E-02-1.28933E-05-9.59639E-02 2.88401E-15 1.78835E-13
 -1       648 2.00030E+01-4.21555E-03-7.88453E-06-9.29806E-02-4.28427E-15 1.60735E-13
 -1       649 2.00180E+01-1.29876E-03-6.65976E-06-9.26616E-02-6.46664E-14 4.19554E-14
 -1       650 2.00357E+01-3.50725E-03-1.13318E-05-9.31911E-02-2.87412E-14 3.16254E-14
 -1       651 2.00575E+01-1.34397E-02-2.45873E-05-9.16452E-02 4.16857E-14-2.10556E-14
 -1       652 2.00854E+01-3.42786E-02-4.95154E-05-8.36674E-02-3.32641E-14 8.96284E-14
 -1       653 2.01213E+01-6.94729E-02-8.90784E-05-6.31617E-02-3.26091E-14 1.78310E-13
 -1       654 2.01673E+01-1.21933E-01-1.45146E-04-2.21502E-02-1.60483E-13 2.10525E-13
 -1       655 2.02243E+01-1.92508E-01-2.16622E-04 4.89379E-02-1.81944E-13 1.49537E-13
 -1       656 2.02912E+01-2.77608E-01-2.97106E-04 1.60121E-01-2.04284E-13 5.62239E-14
 -1       657 2.03623E+01-3.66143E-01-3.65018E-04 3.19297E-01-2.69273E-14-5.71238E-14
 -1       658 2.04256E+01-4.36703E-01-3.96053E-04 5.27741E-01-1.35629E-13 7.60455E-14
 -1       659 2.04612E+01-4.56775E-01-3.11536E-04 7.73549E-01-1.42944E-13 1.76580E-13
 -1       660 2.04431E+01-3.87625E-01-9.98559E-05 1.02400E+00-7.25781E-14 9.66560E-14
 -1       661 2.03483E+01-1.98600E-01 1.27102E-04 1.22132E+00 6.30593E-14 1.24142E-13
 -1       662 2.01715E+01 1.11404E-01 3.29132E-04 1.28943E+00 5.85145E-14 2.12608E-13
 -1       663 1.99404E+01 4.92954E-01 5.38784E-04 1.15630E+00-7.12611E-14 2.96322E-14
 -1       664 1.97203E+01 8.43170E-01 6.49714E-04 7.93835E-01-5.17609E-14 1.18498E-13
 -1       665 1.95920E+01 1.04155E+00 6.13874E-04 2.49897E-01 1.24781E-13 3.32509E-13
 -1       666 1.96071E+01 1.01282E+00 3.05620E-04-3.50506E-01 1.30352E-13 3.11720E-13
 -1       667 1.97584E+01 7.67841E-01 4.44429E-04-8.60012E-01 2.02969E-13 4.41502E-13
 -1       668 1.99840E+01 3.96792E-01 5.38370E-04-1.16842E+00-2.40548E-14 6.90626E-13
 -1       669 2.02024E+01 2.27510E-02 2.75597E-04-1.24639E+00-1.62751E-13 5.63829E-13
 -1       670 2.03561E+01-2.62074E-01-9.84674E-06-1.13692E+00 8.94844E-14 4.16318E-13
 -1       671 2.04253E+01-4.19972E-01-2.59353E-04-9.16527E-01 3.05081E-13 4.81632E-13
 -1       672 2.04207E+01-4.59963E-01-3.90327E-04-6.59992E-01 2.86741E-13 4.68882E-13
 -1       673 2.03667E+01-4.15448E-01-3.79202E-04-4.21477E-01-4.93382E-14 4.98293E-13
 -1       674 2.02888E+01-3.25758E-01-3.43472E-04-2.30044E-01-1.47724E-13 6.97051E-13
 -1       675 2.02054E+01-2.20991E-01-3.21883E-04-9.70696E-02 3.33169E-14 7.41237E-13
 -1       676 2.01643E+01-1.53560E-01-5.59273E-05-1.74307E-02-1.10067E-13 5.96832E-13
 -1       677 2.00585E+01 6.92150E-02-8.63377E-05 7.07600E-01-1.43240E-13 2.78151E-13
 -1       678 2.03344E+01-2.07369E-01 2.57207E-05 3.97902E-01 1.73780E-13-2.83248E-14
 -1       679 1.97837E+01 3.19943E-01-1.85977E-04 7.14981E-01-2.01035E-13-1.25499E-13
 -1       680 2.02492E+01-1.10557E-01 5.52598E-05 5.82515E-01-1.57676E-13 3.07275E-13
 -1       681 1.68089E+01-2.71679E+00 9.70083E-02 6.90498E+00-2.13895E-13-2.37678E-13
 -1       682 1.94913E+01 5.97746E-01 7.44023E-05 5.62785E-01-1.79329E-13-3.47080E-13
 -1       683 1.92631E+01 8.45099E-01-4.44080E-04 2.42111E-01 1.59256E-13-4.27631E-14
 -1       684 1.91988E+01 9.85853E-01-1.51165E-03-1.87288E-01-2.14974E-13-4.29451E-13
 -1       685 7.88480E+00 1.59760E+00 1.63461E-01 1.01244E+00 5.22768E-13-2.05738E-13
 -1       686 1.35629E+01 1.71259E+00 9.34243E-02-3.75391E+00 3.60586E-13-1.45207E-13
 -1       687 2.63594E+01-4.52847E+00-1.00645E-02-3.51359E+00-1.08002E-13-8.84882E-14
 -1       688 2.02873E+01 1.45667E+00 1.19248E-03-1.01221E+00-1.00203E-13-1.94991E-13
 -1       689 2.82826E+01 6.61765E+00-1.52600E-01 1.40030E+00 4.55025E-13-1.26777E-13
 -1       690 1.53046E+01 2.43869E+00 2.50365E-02-2.44818E+00-2.09091E-14-3.39393E-13
 -1       691 2.96331E+01 4.45154E+00-1.50461E-01-2.02545E+00-2.39322E-14 1.78465E-13
 -1       692 2.02839E+01 1.00219E+00-1.05269E-03-6.79480E-01-8.90428E-14-1.69462E-13
 -1       693 2.00236E+01 2.29541E+00-1.68409E-03 6.37339E-01 1.46571E-13-1.07222E-13
 -1       694 2.82814E+01 7.05334E+00-1.65220E-01-9.90609E-01 1.60975E-13-5.45553E-14
 -1       695 1.10026E+01-4.40404E-01 1.45991E-01 5.81850E+00 2.33202E-13-2.93522E-13
 -1       696 2.88151E+01 2.50798E+00-1.25224E-01 2.11840E+00 2.44901E-13-2.34604E-14
 -1       697 2.90956E+01-1.20647E+00-6.00154E-02 6.18322E-01-1.41206E-15-1.37314E-13
 -1       698 2.08953E+01-4.43302E+00 5.46324E-02-6.68321E+00-1.62148E-13-2.24517E-13
 -1       699 1.46861E+01-2.61876E+00 1.15354E-01-7.41229E+00-2.42306E-13-2.87090E-13
 -1       700 9.64824E+00 1.32945E-01 1.49913E-01-5.09131E+00-3.46424E-13-4.23876E-13
 -1       701 8.46585E+00 1.65886E+00 1.73575E-01 8.94513E-01-2.94200E-13-4.33389E-13
 -1       702 8.90701E+00 7.83772E-01 1.77705E-01-2.98336E+00 4.48941E-13-3.17038E-13
 -1       703 3.00570E+01 6.36210E-01-1.17273E-01-1.21122E+00-2.95007E-14 1.01030E-14
 -1       704 2.01189E+01 2.05650E+00-6.03825E-04-8.44016E-01-2.36242E-14-1.91211E-13
 -1       705 1.99272E+01 2.52616E+00-1.50616E-03-1.26972E-01 7.78511E-14-1.85080E-13
 -1       706 1.08341E+01 1.66300E+00 1.53692E-01 2.93819E+00-2.83103E-13-6.26159E-13
 -1       707 2.88609E+01-2.13394E+00-4.43061E-02 1.05587E-01-1.04347E-13 2.69378E-13
 -1       708 2.00274E+01 1.90129E-01 2.03655E-04-2.28567E-02 6.56429E-14-4.98516E-14
 -1       709 1.47133E+01-9.11220E-01 1.67906E-01-5.64336E+00 2.17444E-13-2.95146E-13
 -1       710 2.01073E+01 3.50013E-01 4.42933E-04 1.47715E-01 7.73498E-14 1.29978E-14
 -1       711 2.04970E+01-3.77529E+00 2.89107E-02 6.03481E+00-3.88254E-13-5.24310E-13
 -1       712 2.01986E+01 6.08669E-01 2.10304E-03 4.30295E-01 1.03017E-13 2.91537E-14
 -1       713 2.02644E+01-2.01175E-01 2.97669E-04 9.73663E-02 2.17367E-13 2.78937E-14
 -1       714 1.93822E+01 9.51401E-01 4.54961E-04-5.20808E-01-1.41059E-13-1.02559E-12
 -1       715 2.03239E+01-2.22198E-01 2.16063E-04 2.35174E-01 3.95692E-13-7.74690E-14
 -1       716 1.99568E+01 2.45541E+00-1.60775E-03-3.83647E-01 6.21547E-14-1.46660E-13
 -1       717 1.02415E+01 1.98744E+00 1.16152E-01-1.78945E+00-2.76415E-13-2.17402E-13
 -1       718 1.18242E+01 2.53384E+00 7.66259E-02 4.60713E-01-2.95791E-13-4.09024E-13
 -1       719 2.02762E+01 9.52085E-01 7.21522E-04 6.40009E-01 1.26797E-13-1.25896E-15
 -1       720 2.02694E+01 1.30460E+00 1.26842E-04 6.30742E-01 1.42180E-13-4.80888E-14
 -1       721 2.00614E+01-2.05675E-02-1.12565E-05-1.80037E-01 1.83510E-14-1.09751E-13
 -1       722 2.02636E+01 4.45956E-01 1.78998E-05-1.00663E-01-2.48115E-14-1.15224E-13
 -1       723 2.02240E+01 2.43394E-01 1.59175E-06 3.23547E-02-1.08115E-14-1.09589E-13
 -1       724 2.01824E+01 1.10630E-01-1.01723E-05 1.12271E-01-8.76480E-15-7.01089E-14
 -1       725 2.01446E+01 2.63283E-02-1.02072E-05 1.54144E-01-1.80730E-14-8.89439E-14
 -1       726 2.01124E+01-2.42679E-02-9.88020E-06 1.70262E-01-3.00832E-14-6.96675E-14
 -1       727 2.00862E+01-5.14699E-02-8.32508E-06 1.70103E-01-7.75570E-14 9.75011E-17
 -1       728 2.00653E+01-6.24844E-02-7.84757E-06 1.60707E-01-1.21818E-13 5.17817E-14
 -1       729 2.00497E+01-6.25926E-02-9.08665E-06 1.47853E-01-2.06115E-14 6.57109E-14
 -1       730 2.00370E+01-5.50381E-02-4.90153E-06 1.33687E-01-6.87605E-15 6.89056E-14
 -1       731 2.00271E+01-4.16406E-02-4.55935E-06 1.21438E-01 6.79910E-14 7.72826E-14
 -1       732 2.00189E+01-2.34339E-02-3.16118E-06 1.12994E-01 4.93896E-14-1.62999E-14
 -1       733 2.00112E+01-4.35564E-04-1.51349E-06 1.09814E-01-1.19717E-13-1.72053E-13
 -1       734 2.00021E+01 2.83289E-02 3.91794E-07 1.13123E-01-5.40192E-14-2.14787E-13
 -1       735 1.99890E+01 6.49344E-02 2.51181E-06 1.24036E-01-7.06268E-14-2.67965E-13
 -1       736 1.99679E+01 1.12789E-01 4.91035E-06 1.43597E-01 5.20451E-16-1.43562E-13
 -1       737 1.99324E+01 1.76981E-01 7.75712E-06 1.72669E-01 6.28819E-14-1.60417E-13
 -1       738 1.98725E+01 2.64706E-01 1.12519E-05 2.11596E-01-3.49748E-14-2.10548E-13
 -1       739 1.97724E+01 3.85643E-01 1.50480E-05 2.59451E-01-4.84724E-15-1.40125E-13
 -1       740 1.96077E+01 5.51988E-01 1.50519E-05 3.12636E-01 6.94050E-15-2.09977E-13
 -1       741 1.93409E+01 7.77484E-01-3.66757E-06 3.62497E-01-8.87437E-14-3.03829E-13
 -1       742 1.89162E+01 1.07418E+00-7.08112E-05 3.91763E-01 3.23469E-15-1.54423E-13
 -1       743 1.82511E+01 1.44472E+00 1.44539E-04 3.68690E-01-1.05730E-13-3.14540E-14
 -1       744 1.72899E+01 1.84677E+00 8.97833E-04 2.57186E-01-2.84035E-14-6.53021E-14
 -1       745 1.57816E+01 2.25234E+00 7.78151E-03-1.79698E-02 1.25696E-14-2.32457E-13
 -1       746 2.00893E+01 2.56513E-02-5.77568E-06-1.63378E-01 1.01965E-14-7.88965E-14
 -1       747 1.80039E+01 1.64251E+00 4.76231E-04-6.41133E-01-1.90196E-13-2.15247E-13
 -1       748 1.88148E+01 1.26039E+00 7.13466E-05-6.19280E-01-3.19343E-13-2.67764E-13
 -1       749 1.90493E+01 7.45362E-01-7.14645E-04 7.05582E-01 1.25814E-13-2.29877E-13
 -1       750 2.01256E+01 1.02781E-01 9.05884E-07-1.19159E-01 7.08031E-14-1.04933E-13
 -1       751 2.00260E+01-5.60478E-02-1.36841E-05-1.68962E-01 1.00063E-13-7.34891E-14
 -1       752 2.00158E+01-5.68791E-02-1.27676E-05-1.53933E-01 1.08885E-14-6.57853E-14
 -1       753 2.00091E+01-5.14306E-02-1.05248E-05-1.37960E-01-1.82360E-14-1.16553E-14
 -1       754 2.00050E+01-4.21560E-02-8.08527E-06-1.23476E-01-9.38065E-15 7.73306E-14
 -1       755 2.00031E+01-3.09237E-02-5.82606E-06-1.12028E-01 3.23160E-14 4.00942E-14
 -1       756 2.00030E+01-1.93054E-02-3.76484E-06-1.04481E-01 1.35589E-14 2.09767E-13
 -1       757 2.00049E+01-8.86297E-03-1.85602E-06-1.01140E-01 5.13118E-14 1.41496E-13
 -1       758 2.00095E+01-1.44306E-03-5.30010E-07-1.01755E-01-3.77765E-14 1.10426E-13
 -1       759 2.00179E+01 5.52118E-04-2.37131E-07-1.05432E-01-2.41778E-14 2.50040E-14
 -1       760 2.00324E+01-6.08038E-03-1.71480E-06-1.10429E-01 4.13546E-14-2.32097E-14
 -1       761 2.00560E+01-2.54760E-02-5.97308E-06-1.13831E-01-1.65367E-13 1.91670E-13
 -1       762 2.00934E+01-6.25834E-02-1.43631E-05-1.11125E-01-1.26260E-13 2.51694E-13
 -1       763 2.01501E+01-1.22567E-01-2.85154E-05-9.56884E-02-1.57944E-13 4.68486E-13
 -1       764 2.02326E+01-2.09405E-01-5.08080E-05-5.83489E-02-1.48855E-13 3.96735E-13
 -1       765 2.03468E+01-3.23299E-01-8.40128E-05 1.27124E-02-3.30243E-14 2.35311E-13
 -1       766 2.04950E+01-4.56648E-01-1.31489E-04 1.31088E-01-1.29095E-13 6.54855E-14
 -1       767 2.06721E+01-5.88931E-01-1.63401E-04 3.09245E-01-1.40086E-13 1.19194E-13
 -1       768 2.08609E+01-6.82316E-01-1.70654E-04 5.52593E-01-2.00745E-13 1.14729E-13
 -1       769 2.10278E+01-6.80362E-01 6.91522E-05 8.49457E-01-1.21030E-13 1.72722E-13
 -1       770 2.11250E+01-5.18464E-01 5.05531E-04 1.15661E+00-7.14768E-14 1.17142E-13
 -1       771 2.11073E+01-1.54421E-01 4.42346E-04 1.39116E+00-4.34924E-14 1.11312E-13
 -1       772 2.09601E+01 3.94467E-01 1.65336E-04 1.43997E+00 2.00934E-13 1.20760E-13
 -1       773 2.07288E+01 1.01062E+00 1.31984E-04 1.20066E+00 2.98607E-15-5.45527E-14
 -1       774 2.05206E+01 1.49652E+00 1.33564E-03 6.58257E-01-9.94251E-15-1.69990E-13
 -1       775 2.04480E+01 1.64860E+00-4.85978E-04-6.79356E-02-7.78830E-14-1.54692E-13
 -1       776 2.05589E+01 1.40329E+00-3.98611E-04-7.67979E-01-1.24557E-13 1.93714E-13
 -1       777 2.07843E+01 8.65430E-01 3.40910E-04-1.24560E+00 4.00946E-15 4.06644E-13
 -1       778 2.10038E+01 2.45275E-01 1.95201E-04-1.40806E+00-4.33568E-14 2.71011E-13
 -1       779 2.11232E+01-2.69688E-01 1.22712E-04-1.30181E+00 2.98434E-14-9.90541E-16
 -1       780 2.11108E+01-5.85682E-01-5.49938E-05-1.03534E+00 1.57419E-13 1.09681E-13
 -1       781 2.09903E+01-7.00450E-01-1.85496E-04-7.19192E-01 4.83410E-14 3.24508E-13
 -1       782 2.08100E+01-6.65018E-01-2.25935E-04-4.28119E-01 5.78827E-14 7.18799E-13
 -1       783 2.06130E+01-5.42481E-01-1.99375E-04-2.02153E-01-1.64103E-13 7.11701E-13
 -1       784 2.04311E+01-3.86633E-01-1.37923E-04-4.61206E-02 5.32681E-14 3.67394E-13
 -1       785 2.03463E+01-2.94300E-01 6.34360E-05 4.03632E-02 8.15527E-14 2.77369E-13
 -1       786 1.15377E+01 2.46282E+00 9.33376E-02-1.06625E+00 2.67904E-13-2.38937E-13
 -1       787 2.62358E+01 3.95615E+00-7.51389E-02 2.06378E+00 3.18755E-13 7.47883E-14
 -1       788 2.59715E+01-4.28538E+00 7.66866E-03 3.00432E+00-2.98042E-13-3.57266E-14
 -1       789 1.99655E+01-1.02143E-02-1.09026E-04 9.78942E-01-5.45988E-14-5.59973E-14
 -1       790 2.73985E+01 1.71404E+00-7.54781E-02-2.09778E+00-5.72355E-14 1.68329E-13
 -1       791 1.87748E+01 1.07199E+00 4.04717E-03 2.07616E-01-2.22221E-13-5.93048E-13
 -1       792 1.95076E+01 3.46060E-01-1.51295E-03 9.55793E-01 1.86344E-13-8.23342E-15
 -1       793 1.13759E+01 1.65163E+00 8.02317E-02 2.85154E+00 3.36883E-13-1.47809E-13
 -1       794 2.00408E+01-4.55389E-02-1.31818E-05-1.79417E-01 6.07684E-14-1.31637E-13
 -1       795 1.51231E+01-4.63707E-01 6.78106E-02 5.21466E+00-1.44986E-13-8.70611E-13
 -1       796 2.02093E+01 1.78777E+00 5.81394E-04-9.60265E-01-6.21944E-14-1.92637E-13
 -1       797 1.67718E+01 2.06377E+00 1.53201E-04-5.50588E-01-5.79443E-14-1.49388E-14
 -1       798 1.48605E+01 2.51789E+00 2.06821E-02-3.73239E-01-2.27975E-13-1.38221E-14
 -1       799 2.02899E+01 7.49987E-01-4.20262E-05-3.03009E-01-6.47572E-14-1.28834E-13
 -1       800 2.33469E+01-3.97495E+00 5.68071E-03-4.30336E+00-1.97670E-13-1.54326E-13
 -1       801 2.68030E+01-3.02590E+00-1.66592E-02-7.01037E-01-1.56100E-13-2.41974E-13
 -1       802 1.39269E+01-5.92201E-01 7.90002E-02-5.68251E+00-3.42794E-13-3.69576E-13
 -1       803 2.70263E+01 2.25727E-01-4.21389E-02 1.79532E+00 1.20575E-13 3.37421E-14
 -1       804 2.64121E+01 4.49966E+00-8.46457E-02-1.89078E+00 2.00239E-13-3.35608E-14
 -1       805 1.85003E+01-2.58965E+00 5.03785E-02-6.07993E+00-3.25196E-13-2.26754E-13
 -1       806 2.01383E+01 1.88954E+00-3.42804E-04 1.98824E-01 1.14874E-13-1.37453E-13
 -1       807 2.59976E+01 6.28019E+00-8.76490E-02 2.39026E-01 3.45293E-13-2.64788E-14
 -1       808 2.01265E+01 1.92816E+00-2.44528E-04 3.22205E-03 7.01751E-14-1.61170E-13
 -1       809 2.02194E+01 1.58259E+00-1.95009E-04 5.33490E-01 1.27655E-13-8.48440E-14
 -1       810 2.01706E+01 2.25039E-01 4.81134E-05-3.39925E-02 9.77206E-14-5.14013E-14
 -1       811 1.35167E+01 2.50345E+00 3.37447E-02-3.24560E-01-1.77929E-13-4.30192E-13
 -1       812 2.02228E+01 4.08697E-01-1.63399E-04 1.09290E-01 8.84802E-14-3.82392E-14
 -1       813 2.01700E+01 1.77630E+00-5.40459E-04 3.80136E-01 1.18688E-13-1.18871E-13
 -1       814 2.72563E+01-4.91781E-01-3.61583E-02-1.42780E+00-4.08822E-14-4.08163E-14
 -1       815 2.02135E+01 1.59255E+00-1.14768E-03-5.28050E-01-1.07756E-15-1.34829E-13
 -1       816 2.05032E+01-4.02225E-01 6.80240E-05 5.69822E-01-3.52956E-14-1.59420E-13
 -1       817 2.03160E+01-2.68571E-01-9.57905E-05 8.22888E-01-1.71992E-13 4.51057E-13
 -1       818 1.78228E+01-1.75847E+00 2.74520E-02 5.41289E+00-4.64906E-13-7.55801E-13
 -1       819 2.05312E+01-4.20319E-01 1.13251E-04 3.46972E-01 2.00217E-14-1.38500E-13
 -1       820 2.02906E+01 1.05724E+00-2.11626E-04-5.08672E-01-4.27199E-14-1.28053E-13
 -1       821 2.46485E+01 4.88141E+00-3.94098E-02-9.27304E-01 1.48332E-13-2.15810E-13
 -1       822 1.26811E+01 1.31906E+00 5.08531E-02-3.42119E+00-2.52076E-13-4.75578E-13
 -1       823 2.01715E+01 1.78372E+00 8.06917E-04-3.79521E-01 4.45091E-14-1.40044E-13
 -1       824 2.02649E+01 7.29195E-01 4.76924E-04 3.57678E-01 1.11309E-13-5.37179E-14
 -1       825 2.44528E+01-3.20289E+00 1.17132E-03-1.86118E+00-2.70358E-13-9.08991E-14
 -1       826 2.03306E+01 4.44095E-01-2.76678E-05-5.10020E-02 2.54954E-15-4.26086E-14
 -1       827 2.03055E+01 2.37564E-01-6.77242E-06 4.55244E-02 8.94714E-15-4.08740E-14
 -1       828 2.02693E+01 1.00164E-01-8.33696E-06 1.03479E-01-8.67592E-15-3.38863E-14
 -1       829 2.02297E+01 1.28003E-02-7.04609E-06 1.33247E-01-2.52900E-14-3.49708E-14
 -1       830 2.01910E+01-3.88128E-02-4.65971E-06 1.43796E-01-5.46119E-14-1.40734E-13
 -1       831 2.01555E+01-6.51432E-02-2.80736E-06 1.42286E-01-9.63585E-14-8.44455E-14
 -1       832 2.01254E+01-7.37594E-02-4.66108E-06 1.34631E-01-4.19731E-14-1.10134E-13
 -1       833 2.00978E+01-7.07148E-02-3.15978E-08 1.23824E-01 3.65362E-14-4.41988E-14
 -1       834 2.00738E+01-5.87295E-02-9.93864E-07 1.12990E-01 4.57118E-14 2.14603E-14
 -1       835 2.00525E+01-4.00267E-02-1.67829E-06 1.04097E-01-2.07894E-14-4.55530E-15
 -1       836 2.00324E+01-1.55486E-02-2.12315E-06 9.84630E-02-1.43068E-13-1.03385E-13
 -1       837 2.00115E+01 1.48782E-02-2.29814E-06 9.69115E-02-1.46998E-13-1.61166E-13
 -1       838 1.99871E+01 5.24966E-02-2.76868E-06 9.98035E-02-6.42536E-14-1.11844E-13
 -1       839 1.99552E+01 9.96899E-02-3.78902E-06 1.06938E-01 4.88316E-14-6.44261E-14
 -1       840 1.99099E+01 1.60113E-01-5.42827E-06 1.17276E-01-2.53672E-14 1.89348E-14
 -1       841 1.98424E+01 2.38826E-01-7.73502E-06 1.28376E-01-1.20653E-15 1.57188E-14
 -1       842 1.97403E+01 3.42312E-01-1.08581E-05 1.35402E-01-1.41856E-14-6.55390E-14
 -1       843 1.95848E+01 4.78102E-01-1.62177E-05 1.29484E-01 5.84169E-14 1.93225E-14
 -1       844 1.93496E+01 6.53516E-01-3.31354E-05 9.51650E-02-8.63774E-14 6.00648E-14
 -1       845 1.89981E+01 8.72636E-01-8.97789E-05 6.69023E-03 6.52916E-15 1.91831E-14
 -1       846 1.84805E+01 1.12993E+00-9.49030E-05-1.78020E-01 5.50436E-14-5.64785E-14
 -1       847 1.77762E+01 1.38749E+00-1.43274E-04-4.98071E-01-1.11676E-13-1.06118E-13
 -1       848 1.67370E+01 1.61343E+00 2.46591E-03-1.07145E+00-1.74463E-13-2.84982E-13
 -1       849 2.02299E+01 9.95300E-02-5.72072E-07-1.12239E-01 5.24599E-14-5.81580E-14
 -1       850 1.80129E+01 1.29394E+00 3.16986E-04 5.56617E-01-1.40222E-13-9.41211E-13
 -1       851 2.30283E+01-3.39616E+00 2.19043E-02 3.68528E+00-4.19067E-13 7.84997E-14
 -1       852 2.01912E+01 1.57984E-02-5.47651E-06-1.45540E-01 3.13975E-14-6.93503E-14
 -1       853 1.59319E+01 1.83441E+00 6.25512E-03 1.06102E+00-1.90302E-13-6.17474E-13
 -1       854 2.00733E+01-6.74256E-02-8.56265E-07-1.33697E-01-1.08030E-14 4.33666E-14
 -1       855 2.00963E+01-6.90129E-02-1.60317E-06-1.46221E-01 3.34324E-14 7.57550E-15
 -1       856 2.00385E+01-4.57516E-02 2.39659E-06-1.10181E-01-1.19613E-14-1.46140E-14
 -1       857 2.00258E+01-3.07843E-02 1.01801E-06-1.02689E-01-8.91720E-14 2.28010E-14
 -1       858 2.00158E+01-1.57604E-02 1.13114E-06-9.93889E-02 2.82996E-15 6.99527E-14
 -1       859 2.00090E+01-2.77123E-03 1.42849E-06-1.00774E-01 4.36016E-14 7.34438E-14
 -1       860 2.00062E+01 5.63262E-03 1.94733E-06-1.06946E-01 1.10285E-14-7.88086E-14
 -1       861 2.00097E+01 6.05628E-03 2.50679E-06-1.17537E-01-2.98134E-14-5.06855E-14
 -1       862 2.00227E+01-6.05761E-03 2.85830E-06-1.31483E-01-1.25829E-13 1.43423E-14
 -1       863 2.00509E+01-3.65958E-02 2.52662E-06-1.46624E-01-2.16387E-13-8.45222E-14
 -1       864 2.01019E+01-9.25947E-02 5.70553E-07-1.59060E-01-2.48536E-13-5.90230E-14
 -1       865 2.01859E+01-1.81381E-01-4.63226E-06-1.62237E-01-1.67901E-13 4.25809E-14
 -1       866 2.03151E+01-3.08534E-01-1.94445E-05-1.45790E-01-6.36695E-14 6.93271E-15
 -1       867 2.05012E+01-4.73996E-01-5.84729E-05-9.44214E-02-1.23417E-13 6.02793E-14
 -1       868 2.07517E+01-6.65671E-01-1.52878E-04 1.22676E-02-2.04617E-13 1.89270E-13
 -1       869 2.10614E+01-8.50793E-01-2.73045E-04 1.96648E-01-2.39083E-13 3.69559E-13
 -1       870 2.14071E+01-9.70712E-01-4.32104E-04 4.75001E-01-1.36661E-13 2.90730E-13
 -1       871 2.17311E+01-9.29152E-01 1.84545E-04 8.42373E-01 3.95493E-14 1.83324E-13
 -1       872 2.19588E+01-6.31156E-01 9.11469E-04 1.23907E+00-9.04246E-15-2.73480E-14
 -1       873 2.19959E+01-1.12097E-03 1.46021E-04 1.54182E+00 2.16632E-14-3.44052E-14
 -1       874 2.18285E+01 8.77990E-01 3.90435E-03 1.55737E+00 2.20193E-13 2.24896E-13
 -1       875 2.15789E+01 1.76757E+00 4.18557E-03 1.18608E+00 6.88022E-14 1.19235E-13
 -1       876 2.13421E+01 2.34720E+00-1.23764E-03 3.63162E-01-8.22584E-15-7.02129E-16
 -1       877 2.13644E+01 2.25115E+00-7.52958E-04-5.44519E-01-2.38852E-13-1.20929E-13
 -1       878 2.16355E+01 1.57514E+00 6.32010E-03-1.26165E+00-1.53767E-13-2.54577E-13
 -1       879 2.18969E+01 6.55833E-01-3.57753E-04-1.55550E+00-1.83999E-14-2.97613E-13
 -1       880 2.20208E+01-1.88724E-01-1.40463E-04-1.44773E+00-1.88467E-14-2.20556E-13
 -1       881 2.19389E+01-7.43727E-01-8.26295E-05-1.10209E+00-3.96927E-14 1.98488E-14
 -1       882 2.16872E+01-9.74601E-01-7.03788E-05-6.94618E-01-1.33215E-13 1.72785E-13
 -1       883 2.13505E+01-9.60191E-01-4.20997E-04-3.38701E-01-9.68982E-14 3.11256E-13
 -1       884 2.10134E+01-8.06225E-01 4.75533E-04-7.60406E-02 1.33980E-13-4.41986E-14
 -1       885 2.07001E+01-5.88248E-01-1.21259E-03 8.87004E-02-6.61420E-14-2.97998E-13
 -1       886 2.49277E+01 1.64523E+00-2.25628E-02 2.05469E+00 2.59138E-13 4.95116E-14
 -1       887 2.01235E+01-5.96092E-02-1.11251E-06-1.55528E-01 3.61064E-14-5.26902E-14
 -1       888 2.03091E+01 9.73053E-01 1.20820E-04 3.55632E-01 1.11369E-13-3.98540E-14
 -1       889 1.45641E+01 1.19357E+00 2.30509E-02 3.06846E+00-3.81180E-13-7.63235E-13
 -1       890 2.62871E+01-2.92953E+00-1.91543E-02 6.30045E-01-2.49342E-13 2.50419E-13
 -1       891 2.03333E+01 7.45478E-01 7.29390E-05-1.97044E-01-3.16301E-14-5.43353E-14
 -1       892 2.55561E+01-1.49936E+00-7.97585E-03 9.63498E-01-3.48722E-14-1.74602E-13
 -1       893 2.01391E+01 1.89039E+00-2.81394E-04-1.95324E-01 5.94027E-14-1.79603E-13
 -1       894 2.04555E+01-3.65365E-01 2.40712E-04 1.71854E-01 1.28173E-13 1.10683E-14
 -1       895 2.01553E+01-3.38247E-02-2.17114E-06-1.57298E-01 6.16357E-14-4.22256E-14
 -1       896 2.52937E+01 2.41486E+00-3.33185E-02-2.04212E+00 8.43787E-14-4.55577E-14
 -1       897 1.27703E+01 2.08696E+00 3.58174E-02-1.80256E+00-2.48205E-13-4.66409E-13
 -1       898 2.08466E+01-2.58458E+00 1.11609E-02-4.41286E+00-2.21976E-13-1.86627E-13
 -1       899 1.69553E+01-7.56113E-01 3.30146E-02-4.85171E+00-1.39626E-13-3.09653E-13
 -1       900 2.00542E+01-5.87212E-02 1.74239E-06-1.20982E-01-5.87547E-14 5.04652E-14
 -1       901 1.52280E+01 1.72988E+00 1.62114E-02-1.88354E+00-2.24706E-13-4.51525E-13
 -1       902 2.42970E+01 4.55471E+00-4.13889E-02 1.03801E+00 3.72350E-13-3.72295E-14
 -1       903 1.71305E+01 1.58031E+00 6.55161E-03 7.79411E-01-3.60340E-13-7.49022E-13
 -1       904 2.03025E+01 4.26150E-01 2.59339E-04 6.08459E-02 1.13256E-13-5.53850E-14
 -1       905 2.02747E+01 1.40683E+00-2.61187E-05 6.92166E-02 8.26186E-14-1.28597E-13
 -1       906 2.02684E+01 2.31010E-01-8.60108E-05-4.73476E-02 8.27776E-14-6.10111E-14
 -1       907 2.55069E+01 7.48968E-01-2.41564E-02-1.93731E+00-1.26598E-13-5.08617E-14
 -1       908 2.41733E+01-3.07113E+00-8.49133E-04 1.80810E+00-4.27816E-13 2.83957E-13
 -1       909 2.07085E+01-6.46328E-01 7.17401E-04 8.13454E-01 2.46318E-13 2.70224E-13
 -1       910 1.97716E+01-7.60136E-02 3.70735E-04 1.36534E+00-7.68129E-14 3.19324E-13
 -1       911 2.02974E+01 1.17799E+00-1.24979E-04-3.65012E-01-3.47390E-14-9.27548E-14
 -1       912 2.02845E+01 1.33855E+00-3.56698E-05 1.95992E-01 1.19223E-13-1.28628E-13
 -1       913 2.03572E+01-4.53285E-01-5.39636E-04 1.15904E+00-1.32047E-13 5.88178E-14
 -1       914 2.08032E+01-6.79973E-01 7.99048E-04 5.01562E-01 2.41987E-13-2.76537E-13
 -1       915 1.86969E+01 6.28668E-01 4.27377E-03 1.32680E+00 1.43165E-13-3.04708E-13
 -1       916 1.62332E+01 1.20008E-01 2.95592E-02 4.00409E+00-4.09004E-13-1.11850E-12
 -1       917 2.38164E+01 3.24124E+00-2.51814E-02-1.52181E+00 1.37494E-13-4.10408E-13
 -1       918 2.33697E+01 2.68061E+00-1.63208E-02 1.64102E+00 2.54491E-13 5.54131E-14
 -1       919 2.31489E+01 4.00646E+00-2.31603E-02-4.01025E-02 1.50772E-13-1.95848E-13
 -1       920 2.03728E+01 6.94294E-01 8.26562E-05-1.07244E-01-1.59877E-14-3.08378E-14
 -1       921 2.03524E+01 7.87964E-01-5.31697E-04 1.69265E-01 1.00376E-13-7.69345E-14
 -1       922 2.02741E+01 1.40823E+00-4.65693E-04-6.66538E-02 6.49047E-14-1.85051E-13
 -1       923 2.03796E+01 4.06353E-01-4.58275E-05-1.22980E-02-1.97211E-15-3.09028E-14
 -1       924 2.03594E+01 2.07850E-01-1.03977E-05 5.00642E-02-2.60360E-15-6.07179E-14
 -1       925 2.03241E+01 7.56348E-02-4.50983E-06 8.66070E-02-9.87812E-15-7.83042E-14
 -1       926 2.02819E+01-7.45925E-03-4.43493E-06 1.04488E-01-5.36595E-14-8.77632E-14
 -1       927 2.02382E+01-5.48983E-02-1.32488E-06 1.09721E-01-1.55518E-14-2.68781E-14
 -1       928 2.01981E+01-7.64196E-02-2.55297E-06 1.07463E-01-3.83234E-14 6.32886E-14
 -1       929 2.01589E+01-8.15615E-02 1.93020E-06 1.01012E-01 3.10387E-14 1.07365E-13
 -1       930 2.01234E+01-7.38961E-02 1.47457E-06 9.30255E-02 3.29758E-14 9.31369E-14
 -1       931 2.00911E+01-5.70811E-02-8.45973E-07 8.53569E-02-7.33707E-15 3.35379E-14
 -1       932 2.00610E+01-3.32579E-02-3.69783E-06 7.91125E-02-4.25101E-14 5.23664E-14
 -1       933 2.00313E+01-3.24076E-03-4.69905E-06 7.48093E-02-1.09741E-13 1.12105E-13
 -1       934 1.99995E+01 3.31610E-02-6.39378E-06 7.23474E-02-9.02112E-14 1.72921E-13
 -1       935 1.99624E+01 7.70937E-02-8.93009E-06 7.08182E-02-1.09727E-14 1.66858E-13
 -1       936 1.99151E+01 1.30590E-01-1.19327E-05 6.81892E-02 1.12003E-13 9.41623E-14
 -1       937 1.98514E+01 1.96447E-01-1.46600E-05 6.07154E-02 4.55794E-14 1.08826E-13
 -1       938 1.97627E+01 2.77942E-01-1.55736E-05 4.19805E-02 1.17166E-14 1.98111E-13
 -1       939 1.96371E+01 3.78161E-01-1.20157E-05 1.44086E-03 3.36774E-14 2.49635E-13
 -1       940 1.94599E+01 4.98548E-01-1.87643E-06-7.76773E-02-3.89847E-14 9.10436E-14
 -1       941 1.92127E+01 6.36020E-01 5.41063E-06-2.21225E-01-4.72873E-14-1.56123E-14
 -1       942 1.88752E+01 7.77337E-01-4.14114E-06-4.68342E-01-1.16985E-14-4.12250E-14
 -1       943 1.84540E+01 8.87305E-01-3.12742E-04-8.47818E-01-1.00328E-13-2.49110E-13
 -1       944 1.79047E+01 9.13856E-01-3.01766E-04-1.47037E+00-2.34070E-13-2.31789E-13
 -1       945 1.54973E+01 9.13633E-01 2.50196E-02-3.27789E+00-1.37647E-13-3.35646E-13
 -1       946 2.02988E+01 8.08861E-02 1.73252E-05-9.77830E-02 4.33729E-14-4.85435E-14
 -1       947 2.02156E+01-4.94989E-02 9.15652E-06-1.25857E-01 2.90559E-14-1.54199E-14
 -1       948 2.40868E+01-2.08515E+00 3.21841E-03-6.00016E-02-1.94198E-13-3.80508E-13
 -1       949 1.71525E+01 8.35590E-01 1.22345E-02-2.36881E+00-2.71874E-13-1.16345E-13
 -1       950 2.02964E+01 1.22882E+00 4.12624E-05 2.84241E-01 1.01357E-13-1.30613E-13
 -1       951 2.00344E+01-2.49040E-02 3.12989E-06-8.75640E-02 1.72196E-14 6.16292E-14
 -1       952 2.00556E+01-4.38185E-02 3.89955E-06-9.04461E-02-4.03017E-14 9.51036E-14
 -1       953 2.00019E+01 9.41106E-03 2.02655E-06-9.67618E-02 4.82597E-14-6.47964E-14
 -1       954 1.99924E+01 1.92007E-02 1.41263E-06-1.10616E-01-2.76570E-14 3.30186E-14
 -1       955 1.99908E+01 1.86774E-02 1.20281E-06-1.31657E-01-3.71635E-14-2.62929E-14
 -1       956 2.00019E+01 1.89632E-03 1.49963E-06-1.60264E-01-1.88040E-13-1.19319E-13
 -1       957 2.00336E+01-3.89756E-02 2.32575E-06-1.95951E-01-2.10472E-13-4.69662E-14
 -1       958 2.00974E+01-1.13549E-01 3.43083E-06-2.36424E-01-2.53987E-13-2.24977E-13
 -1       959 2.02090E+01-2.32260E-01 4.14140E-06-2.75985E-01-1.84356E-13-1.29151E-13
 -1       960 2.03878E+01-4.03841E-01-1.32565E-05-3.03157E-01-1.25218E-13 2.15690E-14
 -1       961 2.06550E+01-6.30055E-01-1.03269E-04-2.97494E-01-2.13841E-13 2.74595E-16
 -1       962 2.10271E+01-8.95787E-01-4.15570E-04-2.27020E-01-1.70513E-13-1.70840E-13
 -1       963 2.15042E+01-1.15237E+00-1.43717E-04-4.81167E-02-2.65018E-13-2.21216E-13
 -1       964 2.20530E+01-1.30426E+00-3.37227E-03 2.89006E-01-1.76515E-13 3.44698E-14
 -1       965 2.26192E+01-1.22454E+00-2.95468E-04 7.79742E-01 4.47666E-14 1.10013E-13
 -1       966 2.29618E+01-7.12547E-01-3.14642E-03 1.32847E+00 1.60512E-13 1.52748E-13
 -1       967 2.30415E+01 2.57404E-01-6.22538E-03 1.72238E+00-4.56512E-14 6.35207E-14
 -1       968 2.30913E+01-1.77193E-03 2.95407E-03-1.60976E+00-1.25990E-13-4.66235E-13
 -1       969 2.29402E+01-9.06104E-01-7.31353E-04-1.13205E+00-3.25372E-13-2.98976E-13
 -1       970 2.25150E+01-1.30373E+00-1.22894E-04-5.72716E-01-2.22921E-13-2.08364E-13
 -1       971 2.19733E+01-1.31469E+00-5.45654E-04-1.23189E-01-5.91148E-14-9.78066E-14
 -1       972 2.14366E+01-1.10373E+00 3.78117E-04 1.74670E-01 9.98958E-14-3.33252E-13
 -1       973 2.56951E+01-1.55174E+00-2.07998E-02-8.36887E-01-1.36361E-13-1.26252E-13
 -1       974 1.80806E+01 6.75823E-01-8.06335E-04 1.82369E+00-2.76450E-13-4.08845E-13
 -1       975 2.01760E+01-7.25990E-02 9.11942E-06-1.22993E-01 2.51958E-14 1.71248E-14
 -1       976 2.03618E+01-1.89894E+00 9.83732E-03 3.82513E+00-1.45224E-13-2.75789E-14
 -1       977 2.03326E+01 1.08102E+00-1.12963E-04-2.12183E-01 1.58940E-14-6.55734E-14
 -1       978 2.02574E+01-1.75155E-03-9.76718E-07-1.19391E-01 1.59489E-14-2.06458E-14
 -1       979 2.21594E+01-2.35762E+00 3.14556E-03-2.56553E+00-2.55476E-13-3.33218E-14
 -1       980 2.00163E+01-6.34886E-03 2.95545E-06-8.93658E-02 8.30432E-14-2.70447E-14
 -1       981 2.01400E+01-7.87123E-02 5.07080E-06-1.15241E-01-1.74292E-14-4.49453E-14
 -1       982 1.91404E+01-1.02842E+00 1.09728E-02-3.68581E+00-2.34184E-13-1.21893E-13
 -1       983 2.38879E+01 4.74287E-02-7.10970E-03 1.62868E+00 1.14609E-13 8.67431E-14
 -1       984 1.93788E+01-1.52499E-01 2.70657E-04 1.97797E+00-3.57207E-13 2.76724E-13
 -1       985 2.03351E+01 2.09674E-01-2.75829E-04-5.32144E-02 7.20181E-14-6.11276E-14
 -1       986 2.44701E+01-2.38776E+00 6.62224E-03 3.14918E-01-3.58977E-13-1.28268E-13
 -1       987 2.11587E+01-9.96593E-01-1.19130E-03 6.42329E-01 1.75071E-13-2.13075E-13
 -1       988 2.28782E+01-2.14337E+00 8.69206E-03-1.01923E+00-1.10558E-13-5.21842E-13
 -1       989 2.00800E+01-6.07648E-02 9.59515E-06-9.69010E-02-1.26420E-14 9.10012E-14
 -1       990 2.28603E+01 1.34540E+00-8.48309E-03-1.71536E+00-1.28465E-14-6.45420E-13
 -1       991 2.03566E+01 4.12085E-01 7.17245E-04 2.03248E-02 1.00752E-13-6.19620E-14
 -1       992 1.69753E+01 7.32011E-01-1.29235E-03 2.62908E+00-2.94933E-13-9.42292E-13
 -1       993 2.03814E+01-7.21172E-01 7.68629E-04 1.70200E+00-1.46585E-13 6.05212E-14
 -1       994 2.20106E+01-2.34373E+00 9.86378E-05 2.70464E+00-3.01462E-13 1.18309E-13
 -1       995 2.09657E+01-9.80439E-01-8.86339E-04 1.18710E+00-1.48263E-14 3.34659E-14
 -1       996 2.03664E+01 1.00054E+00-1.36121E-04 1.27223E-03 7.08014E-14-1.51665E-13
 -1       997 2.03661E+01 9.69890E-01-7.76794E-05 7.91463E-02 9.00351E-14-8.31521E-14
 -1       998 2.01081E+01-7.34543E-02 7.55342E-06-1.05789E-01-6.27125E-14 6.71192E-14
 -1       999 2.04066E+01 6.06267E-01 1.71984E-05-4.13839E-02 2.98872E-14-9.08491E-14
 -1      1000 2.04117E+01 3.43468E-01 6.79944E-05 9.40476E-03 5.65987E-16-7.68280E-14
 -1      1001 2.03897E+01 1.61150E-01-4.61510E-05 4.17989E-02-1.71972E-14-3.97160E-14
 -1      1002 2.03517E+01 4.20490E-02-3.55342E-05 6.04710E-02-1.31611E-14-3.41082E-14
 -1      1003 2.03061E+01-3.08185E-02-1.60089E-05 6.86763E-02-1.45637E-14-7.34269E-14
 -1      1004 2.02607E+01-6.88963E-02-1.31891E-05 7.01804E-02 3.45480E-14-3.78795E-14
 -1      1005 2.02141E+01-8.53981E-02-3.01406E-06 6.77784E-02 2.57851E-14 5.75353E-15
 -1      1006 2.01703E+01-8.47301E-02 2.57808E-06 6.32410E-02 4.08927E-15 1.65605E-14
 -1      1007 2.01299E+01-7.21036E-02-9.72370E-08 5.80520E-02 6.75329E-15 2.00089E-14
 -1      1008 2.00924E+01-5.08537E-02-7.29931E-06 5.30024E-02-3.18117E-14 1.93369E-14
 -1      1009 2.00565E+01-2.29486E-02-6.29604E-06 4.81861E-02-6.30285E-14 3.44429E-14
 -1      1010 2.00203E+01 1.07837E-02-1.09239E-05 4.33570E-02-5.57349E-14 1.24613E-13
 -1      1011 1.99814E+01 5.02162E-02-1.58698E-05 3.72878E-02-5.64753E-14 1.48864E-13
 -1      1012 1.99364E+01 9.58905E-02-2.11682E-05 2.76660E-02-5.34587E-14 1.26408E-13
 -1      1013 1.98813E+01 1.48637E-01-2.48172E-05 1.05644E-02 1.27232E-13 3.31552E-14
 -1      1014 1.98110E+01 2.09116E-01-2.31511E-05-2.03432E-02 1.24137E-13 5.08543E-14
 -1      1015 1.97198E+01 2.77007E-01-9.30570E-06-7.48666E-02 7.56179E-14 7.77156E-14
 -1      1016 1.96015E+01 3.49577E-01 2.81864E-05-1.67719E-01-1.38136E-14 3.77650E-14
 -1      1017 1.94513E+01 4.19205E-01 1.13341E-04-3.20247E-01-2.00337E-13 3.68005E-14
 -1      1018 1.92684E+01 4.68871E-01 2.31361E-04-5.62211E-01-4.89923E-14-1.64389E-13
 -1      1019 1.90721E+01 4.69335E-01 3.56815E-04-9.09303E-01-1.12907E-13-1.39081E-13
 -1      1020 1.88752E+01 3.66982E-01 1.11820E-03-1.44124E+00-1.33817E-13-7.13097E-14
 -1      1021 1.87441E+01-2.57693E-01-3.91083E-03 2.77679E+00-1.06719E-13-8.47994E-14
 -1      1022 2.02939E+01-2.40107E-02-8.03660E-06-8.58346E-02 2.34427E-14-6.82891E-14
 -1      1023 2.03635E+01 8.99389E-01 2.24366E-04 1.32112E-01 8.33135E-14-1.45445E-13
 -1      1024 2.26624E+01-1.75479E+00-4.09026E-04 2.68608E-01-2.47809E-13-2.51871E-13
 -1      1025 2.00582E+01-3.58068E-02 1.03150E-05-6.65747E-02-1.44609E-14-1.54504E-13
 -1      1026 1.99662E+01 4.23639E-02 1.18690E-05-1.13576E-01 9.13310E-16-7.71671E-14
 -1      1027 1.99834E+01 2.94477E-02 7.47438E-06-9.01144E-02-3.32606E-14 7.22816E-14
 -1      1028 1.99617E+01 2.57686E-02 4.09090E-05-1.98041E-01-1.33312E-13-1.28429E-13
 -1      1029 1.99905E+01-2.09324E-02 7.32226E-05-2.64153E-01-1.74393E-13-2.47653E-13
 -1      1030 2.00587E+01-1.09454E-01 1.25792E-04-3.47699E-01-2.92973E-13-1.68558E-13
 -1      1031 2.01882E+01-2.54946E-01 2.06736E-04-4.45266E-01-3.01639E-13-1.50038E-13
 -1      1032 2.04086E+01-4.72311E-01 2.74296E-04-5.45415E-01-1.24119E-13-1.08931E-13
 -1      1033 2.07568E+01-7.70343E-01 2.69267E-04-6.21297E-01-1.87851E-13-2.57347E-13
 -1      1034 2.12636E+01-1.13287E+00-6.16274E-04-6.23498E-01-2.32900E-13-7.85635E-14
 -1      1035 2.19623E+01-1.51466E+00 4.28973E-05-4.95627E-01-2.96555E-13-1.87494E-13
 -1      1036 2.41566E+01-1.08643E+00 3.75245E-04-1.11874E+00-2.78592E-13-4.25826E-13
 -1      1037 2.18456E+01-1.44518E+00-1.24986E-03 6.00525E-01 4.24265E-14-1.03975E-13
 -1      1038 2.02027E+01-8.29260E-02 1.70014E-05-8.47893E-02 7.75349E-15 9.75889E-15
 -1      1039 2.00304E+01-1.27576E-02 7.00115E-06-6.84709E-02 5.92651E-14-8.89359E-14
 -1      1040 2.35072E+01-1.72731E+00 1.12700E-03-3.28055E-01-4.16935E-13-3.18504E-13
 -1      1041 1.99569E+01 4.35498E-02 2.19333E-05-1.48642E-01-8.10880E-14-8.84608E-14
 -1      1042 1.86195E+01 1.37475E-01-3.73926E-04-2.20998E+00-2.08550E-13-2.11783E-13
 -1      1043 2.00053E+01 9.88539E-03 6.45247E-06-7.57678E-02 5.08327E-14 1.60972E-14
 -1      1044 2.05764E+01-1.32896E+00-4.74455E-03-2.50517E+00-8.22989E-14-1.38646E-13
 -1      1045 2.03822E+01 8.75147E-01 3.02088E-05-7.60153E-02 4.16042E-14-1.17567E-13
 -1      1046 2.04006E+01 4.72033E-01 1.69788E-04 2.18066E-02 7.22106E-14-9.89021E-14
 -1      1047 2.03385E+01 5.11500E-02-1.75421E-05-7.48653E-02 2.19559E-14-2.15935E-15
 -1      1048 2.02476E+01-6.54242E-02 7.15834E-06-8.79892E-02-1.61964E-14-7.54299E-14
 -1      1049 2.03760E+01 1.70342E-01-1.08893E-04-5.01735E-02 4.36703E-14-4.39351E-14
 -1      1050 2.00891E+01-5.72764E-02-5.09699E-05-6.88858E-02-1.46960E-14-1.55156E-13
 -1      1051 2.03780E+01-1.06944E+00 5.86100E-04 2.41243E+00 7.05858E-14-1.56048E-14
 -1      1052 2.04158E+01 6.67457E-01 3.94862E-04 1.82330E-02 6.75883E-14-7.08368E-14
 -1      1053 2.01610E+01-8.38291E-02 3.83774E-05-7.91909E-02-1.90140E-14 1.15286E-14
 -1      1054 2.30307E+01-2.41920E+00-3.58003E-03 1.51835E+00-4.14507E-13-9.89771E-14
 -1      1055 2.04191E+01 6.56246E-01 1.48495E-04-1.43794E-02 6.05580E-14-1.49192E-13
 -1      1056 1.87745E+01-7.11695E-01 4.68524E-03 3.45578E+00 8.00384E-14-3.21011E-13
 -1      1057 2.00158E+01 6.01499E-03-2.13845E-05-4.67173E-02 3.99856E-15-8.52554E-14
 -1      1058 2.04263E+01 2.62602E-01-2.16494E-04 9.99024E-03 4.31986E-14-8.38427E-14
 -1      1059 2.03980E+01 1.07544E-01 1.82559E-04 2.05692E-02 1.33866E-14-7.63133E-14
 -1      1060 2.03554E+01 6.37991E-03 7.67351E-05 2.56072E-02-2.04867E-14-1.71789E-14
 -1      1061 2.03090E+01-5.05952E-02 8.28926E-05 2.74747E-02-5.91435E-15-2.78381E-14
 -1      1062 2.02588E+01-8.09298E-02 7.74939E-05 2.74613E-02 3.27432E-14-4.52383E-14
 -1      1063 2.02096E+01-8.92560E-02 1.25070E-05 2.61719E-02 4.85893E-14 5.91050E-15
 -1      1064 2.01638E+01-8.27315E-02 2.40616E-05 2.41972E-02-3.37496E-14 4.68383E-14
 -1      1065 2.01218E+01-6.60632E-02 2.93574E-05 2.12138E-02 1.76956E-14 7.53149E-15
 -1      1066 2.00821E+01-4.13502E-02 1.02434E-05 1.78299E-02 3.94032E-14 3.18113E-14
 -1      1067 2.00437E+01-1.10450E-02 2.30847E-05 1.34352E-02 7.50565E-15 7.77248E-14
 -1      1068 2.00049E+01 2.36187E-02 1.62075E-05 6.40419E-03 3.79261E-14 1.28381E-13
 -1      1069 1.99636E+01 6.20447E-02 6.14082E-06-5.35474E-03-1.29175E-14 2.62912E-13
 -1      1070 1.99176E+01 1.03546E-01-1.10093E-05-2.53418E-02-9.21869E-14 3.54509E-13
 -1      1071 1.98646E+01 1.46892E-01-4.13392E-05-5.89656E-02 6.99297E-15 1.21387E-13
 -1      1072 1.98029E+01 1.89477E-01-9.42855E-05-1.14257E-01-3.72934E-14-1.33899E-13
 -1      1073 1.97322E+01 2.26053E-01-1.84051E-04-2.02687E-01-2.02548E-14-2.17863E-13
 -1      1074 1.96558E+01 2.46766E-01-3.27894E-04-3.39886E-01-2.48833E-14-1.63040E-13
 -1      1075 1.95833E+01 2.34150E-01-4.83431E-04-5.46073E-01-1.84100E-13 1.89699E-15
 -1      1076 1.95365E+01 1.65349E-01-7.92970E-04-8.26915E-01-9.78215E-14-1.37241E-13
 -1      1077 1.95523E+01-9.12097E-03-9.15042E-04-1.23179E+00-7.87282E-14-2.65764E-13
 -1      1078 1.96345E+01-3.07362E-01 1.88028E-03-1.77731E+00-2.48139E-13-2.90003E-13
 -1      1079 2.04153E+01 5.73392E-01 9.65835E-05 2.67674E-02 7.15607E-14-1.06761E-13
 -1      1080 2.01233E+01-7.41815E-02-4.21412E-05-7.35893E-02-4.34679E-15-1.47077E-13
 -1      1081 1.99015E+01 3.10557E-02-1.46551E-05-3.51292E-01-1.56238E-13-2.09036E-13
 -1      1082 1.98899E+01 7.50465E-02-2.77937E-05-2.44003E-01-1.29190E-13-1.12147E-13
 -1      1083 2.00789E+01-2.27648E-01 1.22947E-04-6.78611E-01-2.52257E-13-3.69073E-13
 -1      1084 2.03162E+01-4.90205E-01 2.39692E-04-8.91951E-01-1.60877E-13-1.62763E-13
 -1      1085 2.07286E+01-8.81074E-01-1.37671E-03-1.10882E+00-1.62541E-13-1.10330E-13
 -1      1086 2.13793E+01-1.37008E+00 2.08003E-03-1.24218E+00-1.37401E-13-2.29542E-13
 -1      1087 2.16178E+01-1.55703E+00 1.81150E-03 1.49652E+00-6.22620E-14-2.22519E-14
 -1      1088 2.00491E+01-2.18350E-02-1.48712E-05-4.03224E-02 1.37723E-15-1.34664E-13
 -1      1089 1.99837E+01 3.39336E-02-2.33434E-05-5.93412E-02 1.47923E-14-1.60225E-13
 -1      1090 2.04299E+01 4.36545E-01 5.76228E-05-1.80820E-03 3.85201E-14-1.14717E-13
 -1      1091 2.03537E+01 1.67924E-02-2.87413E-05-4.18063E-02 7.03586E-14-9.64219E-14
 -1      1092 1.99548E+01-6.23927E-02 1.99137E-05-4.95602E-01-2.77276E-13-3.98246E-13
 -1      1093 1.99529E+01 5.94336E-02-2.58683E-05-8.09715E-02 6.45525E-15-2.30495E-13
 -1      1094 2.04334E+01 3.98049E-01 1.76977E-04 1.27160E-03 4.08197E-14-7.67561E-14
 -1      1095 2.03057E+01-4.64038E-02-5.23816E-06-4.60279E-02 1.61309E-14-6.32730E-14
 -1      1096 2.00842E+01-4.75250E-02 3.00107E-05-3.81066E-02-2.68985E-14-1.31162E-13
 -1      1097 1.99013E+01 8.69044E-02-3.03857E-05-1.67676E-01-8.90745E-14-2.07113E-13
 -1      1098 2.02088E+01-8.93192E-02-1.36657E-05-4.42068E-02-3.04858E-14-8.78953E-14
 -1      1099 2.03950E+01 1.19800E-01-1.50898E-04-3.19279E-02 1.71911E-14-6.63462E-14
 -1      1100 1.99244E+01 7.89199E-02-2.87152E-05-1.15408E-01-7.47596E-14-1.28168E-13
 -1      1101 2.02563E+01-7.88238E-02-2.78847E-05-4.62277E-02-2.40431E-14-5.84244E-14
 -1      1102 2.01440E+01-7.68330E-02 2.60139E-05-1.46658E-02 2.90842E-14-5.11526E-14
 -1      1103 2.04141E+01 3.32191E-01-2.15176E-04-1.04698E-02 5.50737E-14-7.70598E-14
 -1      1104 2.01768E+01-8.69682E-02-5.30255E-05-2.86849E-02 1.12139E-13-1.39340E-13
 -1      1105 2.79274E+01 9.07586E+00 2.32529E+00-6.71471E+00-2.40918E-14 3.55160E-13
 -1      1106 2.05406E+01 6.22451E+00 2.07726E-01-3.89677E+00-1.09912E-14-1.62634E-13
 -1      1107 1.94349E+01 5.85294E+00 7.48988E-02-2.88737E+00-6.07847E-15-3.41690E-13
 -1      1108 1.90264E+01 5.72601E+00 6.02720E-02-2.23551E+00-3.45904E-15-3.93782E-13
 -1      1109 1.88404E+01 5.66947E+00 5.78161E-02-1.70168E+00-1.53696E-15-3.95158E-13
 -1      1110 1.87461E+01 5.64049E+00 5.55708E-02-1.23433E+00 5.46438E-17-3.78585E-13
 -1      1111 1.86969E+01 5.62522E+00 5.37736E-02-8.04520E-01 7.07333E-16-3.58551E-13
 -1      1112 1.86728E+01 5.61760E+00 5.25191E-02-3.93055E-01 2.17708E-15-3.30568E-13
 -1      1113 1.86659E+01 5.61541E+00 5.21177E-02 8.20233E-03 2.10021E-15-3.10751E-13
 -1      1114 1.86738E+01 5.61793E+00 5.26309E-02 4.09858E-01 3.05073E-15-2.97017E-13
 -1      1115 1.86990E+01 5.62590E+00 5.40212E-02 8.22627E-01 3.71795E-15-2.71907E-13
 -1      1116 1.87497E+01 5.64180E+00 5.62293E-02 1.25497E+00 5.23973E-15-2.24883E-13
 -1      1117 1.88452E+01 5.67111E+00 5.85033E-02 1.72668E+00 6.51389E-15-1.57591E-13
 -1      1118 1.90321E+01 5.72786E+00 6.07025E-02 2.26780E+00 7.54258E-15-6.02643E-14
 -1      1119 1.94316E+01 5.85034E+00 6.95029E-02 2.92823E+00 9.53404E-15 1.15921E-13
 -1      1120 2.04531E+01 6.18185E+00 1.53001E-01 3.87805E+00 8.49321E-15 4.20015E-13
 -1      1121 2.52171E+01 7.99422E+00 1.43022E+00 5.84589E+00 1.31006E-14 9.47353E-13
 -1      1122 2.91180E+01 3.74628E+00 1.36954E+00-4.36863E+00-9.62841E-14 6.88838E-13
 -1      1123 2.03925E+01-1.70653E-01-6.24123E-01-1.48960E-01-3.77268E-14 4.87999E-13
 -1      1124 1.88659E+01-9.81403E-02-2.50118E-01 6.28413E-02-1.27415E-14 2.07537E-13
 -1      1125 1.85096E+01-4.96883E-02-6.40880E-02 4.13764E-02-1.24215E-14-1.64868E-14
 -1      1126 1.84451E+01-2.54155E-02-1.63979E-02 2.72726E-02-7.81862E-15-1.78472E-13
 -1      1127 1.85226E+01-1.34935E-02-5.33100E-03 1.93646E-02-1.56854E-14-2.98470E-13
 -1      1128 1.86679E+01-6.87077E-03-1.63900E-03 1.43318E-02-4.24801E-15-3.60368E-13
 -1      1129 1.88405E+01-3.00254E-03 4.57670E-04 1.08510E-02-5.25421E-15-4.38493E-13
 -1      1130 1.90172E+01-7.13660E-04 1.80910E-03 8.28141E-03-7.51352E-16-5.50518E-13
 -1      1131 1.91849E+01 6.11785E-04 2.57511E-03 6.30567E-03-1.36063E-14-5.45438E-13
 -1      1132 1.93365E+01 1.32377E-03 2.89299E-03 4.75484E-03-8.85129E-16-6.01967E-13
 -1      1133 1.94690E+01 1.63582E-03 2.89730E-03 3.52801E-03-1.19025E-14-5.72365E-13
 -1      1134 1.95819E+01 1.68446E-03 2.69548E-03 2.55698E-03 4.55842E-15-5.80129E-13
 -1      1135 1.96763E+01 1.55792E-03 2.36243E-03 1.79058E-03-1.55961E-14-6.08199E-13
 -1      1136 1.97543E+01 1.29871E-03 1.94067E-03 1.18530E-03-8.00423E-15-6.81666E-13
 -1      1137 1.98175E+01 1.04731E-03 1.51489E-03 6.70856E-04-5.00766E-16-6.81567E-13
 -1      1138 1.98708E+01 5.80628E-04 9.62479E-04 3.65960E-04-1.64761E-14-5.58144E-13
 -1      1139 1.99192E+01 7.17504E-05 3.47742E-04 7.37322E-05 8.31627E-15-5.21809E-13
 -1      1140 1.99654E+01-5.72425E-04-4.00809E-04-1.48970E-04-3.63269E-16-5.57771E-13
 -1      1141 2.00150E+01-1.42384E-03-1.37803E-03-3.05945E-04-2.39866E-15-5.02382E-13
 -1      1142 2.00751E+01-2.60211E-03-2.74403E-03-3.80312E-04 1.08944E-14-3.02575E-13
 -1      1143 2.01557E+01-4.29664E-03-4.76306E-03-3.18196E-04-8.12593E-15-2.75170E-13
 -1      1144 2.02715E+01-6.80001E-03-7.87011E-03 5.46290E-06 4.08517E-15-3.91496E-13
 -1      1145 2.04452E+01-1.05535E-02-1.27816E-02 8.54906E-04-1.59293E-14-5.49603E-13
 -1      1146 2.07118E+01-1.61988E-02-2.06722E-02 2.76683E-03-2.39695E-15-6.21408E-13
 -1      1147 2.11268E+01-2.46072E-02-3.34211E-02 6.80649E-03-2.20718E-14-5.98132E-13
 -1      1148 2.17780E+01-3.67915E-02-5.37929E-02 1.50379E-02 5.56976E-15-5.34470E-13
 -1      1149 2.28011E+01-5.34387E-02-8.48708E-02 3.12992E-02-4.60491E-14-4.46226E-13
 -1      1150 2.43982E+01-7.34206E-02-1.26390E-01 6.21873E-02 4.02473E-14-4.58550E-13
 -1      1151 2.68384E+01-8.69124E-02-1.62195E-01 1.16733E-01-3.68455E-14-4.35652E-13
 -1      1152 3.02802E+01-8.67087E-02-1.41306E-01 1.94780E-01-1.99268E-14-5.19862E-13
 -1      1153 3.47530E+01-1.74382E-02 4.73119E-02 2.69048E-01 1.75879E-14-4.09478E-13
 -1      1154 3.93406E+01 1.58319E-01 5.27441E-01 1.95923E-01 6.61624E-14-4.57072E-13
 -1      1155 4.07163E+01 4.45850E-01 9.84604E-01-2.90451E-01 7.35523E-15-2.90712E-13
 -1      1156 3.45392E+01 3.88760E-01 3.23974E-01-1.18971E+00 3.40561E-14 3.44391E-13
 -1      1157 2.21624E+01-2.13522E-01-1.76425E+00-1.38781E+00-4.22995E-14 6.84230E-13
 -1      1158 1.51098E+01-7.21229E-01-3.07173E+00-5.00846E-02-5.89112E-14 6.99094E-13
 -1      1159 1.90672E+01-6.62791E-01-2.31091E+00 1.22813E+00-8.88178E-15 2.00950E-13
 -1      1160 2.95879E+01 6.49636E-02-4.15367E-01 1.45631E+00 1.27676E-14-3.12972E-13
 -1      1161 3.88140E+01 4.79593E-01 8.67652E-01 7.03567E-01-2.23519E-14-7.55396E-13
 -1      1162 4.05390E+01 3.13713E-01 7.82351E-01-6.52635E-02-5.98063E-14-9.92872E-13
 -1      1163 3.70645E+01 7.54456E-02 2.56764E-01-2.72545E-01 4.63457E-14-6.88588E-13
 -1      1164 3.23264E+01-5.88669E-02-6.91854E-02-2.39492E-01 3.22854E-14 1.50407E-13
 -1      1165 2.81813E+01-9.01814E-02-1.62416E-01-1.53441E-01 6.60496E-15-1.25733E-13
 -1      1166 2.51822E+01-8.09297E-02-1.44029E-01-8.68397E-02-3.95916E-14 4.39232E-14
 -1      1167 2.31490E+01-6.16417E-02-1.01718E-01-4.68857E-02-2.90930E-14 1.82590E-13
 -1      1168 2.18010E+01-4.42018E-02-6.69065E-02-2.55591E-02 7.81723E-14 7.47034E-13
 -1      1169 2.09122E+01-3.21158E-02-4.57360E-02-1.44980E-02-2.43711E-14 8.21138E-13
 -1      1170 2.03411E+01-2.52347E-02-3.62733E-02-7.33472E-03-6.93707E-14 4.95563E-13
 -1      1171 2.00323E+01-2.52415E-02-2.89191E-02 4.07708E-03-4.54077E-14 5.07070E-13
 -1      1172 1.99771E+01 6.50087E-03 1.45720E-02 8.73379E-03 7.13680E-14 6.30188E-13
 -1      1173 2.77918E+01 5.25655E-01 3.76757E-01 1.96651E+00-1.46619E-14 1.35747E-12
 -1      1174 2.00854E+01-6.65841E-02-5.73732E-01 1.29460E-01 3.14332E-15 1.19296E-12
 -1      1175 1.89087E+01-4.10620E-02-1.93108E-01 1.92648E-02 2.28723E-15 1.01436E-12
 -1      1176 1.85294E+01-2.12888E-02-5.01813E-02 1.44313E-03-5.79007E-15 8.62518E-13
 -1      1177 1.84590E+01-1.23402E-02-1.31019E-02-4.07340E-03-3.27993E-15 7.37216E-13
 -1      1178 1.85350E+01-7.42493E-03-4.68220E-03-5.52585E-03 6.32762E-15 6.01654E-13
 -1      1179 1.86795E+01-4.36105E-03-2.03369E-03-5.72064E-03 2.95716E-16 5.79545E-13
 -1      1180 1.88512E+01-2.39220E-03-4.23305E-04-5.43973E-03-8.81353E-15 7.11309E-13
 -1      1181 1.90270E+01-1.12525E-03 7.04310E-04-4.94432E-03-9.04485E-15 7.11698E-13
 -1      1182 1.91938E+01-3.27672E-04 1.40811E-03-4.34605E-03 1.83193E-14 5.88172E-13
 -1      1183 1.93448E+01 1.47970E-04 1.75948E-03-3.71357E-03 1.23007E-14 4.27655E-13
 -1      1184 1.94769E+01 3.99872E-04 1.84937E-03-3.09072E-03-5.08147E-15 3.94822E-13
 -1      1185 1.95900E+01 4.95934E-04 1.75769E-03-2.50505E-03 7.84217E-16 3.39046E-13
 -1      1186 1.96850E+01 4.84236E-04 1.54515E-03-1.97350E-03-2.40201E-15 1.97392E-13
 -1      1187 1.97644E+01 3.99897E-04 1.25574E-03-1.50649E-03 1.47240E-14 4.90519E-14
 -1      1188 1.98309E+01 2.70374E-04 9.21855E-04-1.11137E-03-2.27418E-14 4.28962E-14
 -1      1189 1.98876E+01 1.20245E-04 5.70295E-04-7.95590E-04 5.52469E-15-4.75520E-15
 -1      1190 1.99375E+01-2.38826E-05 2.28913E-04-5.69683E-04 3.87240E-15-1.01278E-13
 -1      1191 1.99835E+01-1.28042E-04-6.55093E-05-4.49757E-04 4.37601E-14-3.79471E-13
 -1      1192 2.00281E+01-1.45295E-04-2.58104E-04-4.59089E-04-2.31134E-14-2.31537E-13
 -1      1193 2.00726E+01-1.05870E-05-2.66006E-04-6.27761E-04 8.49044E-15-5.30220E-14
 -1      1194 2.01173E+01 3.62118E-04 3.04446E-05-9.88709E-04-6.80159E-15 1.74951E-13
 -1      1195 2.01597E+01 1.07707E-03 7.91203E-04-1.56778E-03 2.28527E-14-9.14824E-14
 -1      1196 2.01945E+01 2.24304E-03 2.20708E-03-2.36491E-03 2.58593E-14-3.83181E-13
 -1      1197 2.02115E+01 3.94210E-03 4.46581E-03-3.32434E-03-1.21199E-14-2.37324E-13
 -1      1198 2.01949E+01 6.17503E-03 7.67998E-03-4.29471E-03 4.17191E-14-1.55007E-13
 -1      1199 2.01229E+01 8.78396E-03 1.17675E-02-4.98794E-03-3.26569E-14-2.20247E-14
 -1      1200 1.99679E+01 1.13682E-02 1.62934E-02-4.95806E-03-6.11390E-14 2.25638E-13
 -1      1201 1.97004E+01 1.32351E-02 2.03219E-02-3.63787E-03-3.13697E-14 4.35763E-13
 -1      1202 1.92949E+01 1.34593E-02 2.23867E-02-4.80321E-04-2.00018E-14 3.84606E-14
 -1      1203 1.87411E+01 1.11239E-02 2.07335E-02 4.77270E-03-7.45888E-15 1.60618E-13
 -1      1204 1.80549E+01 5.75114E-03 1.39386E-02 1.17466E-02 7.92259E-15 1.45235E-13
 -1      1205 1.72896E+01-2.21821E-03 1.80602E-03 1.91843E-02-1.72561E-14 3.25261E-13
 -1      1206 1.65361E+01-1.11972E-02-1.38695E-02 2.50447E-02-2.36364E-14 5.07268E-13
 -1      1207 1.59105E+01-1.88046E-02-2.93158E-02 2.71222E-02 2.06950E-14 3.39683E-13
 -1      1208 1.55256E+01-2.28050E-02-3.99820E-02 2.40320E-02-1.15524E-14 3.90764E-14
 -1      1209 1.54567E+01-2.21294E-02-4.24933E-02 1.60273E-02 3.11504E-14-3.87790E-13
 -1      1210 1.57158E+01-1.73457E-02-3.62698E-02 5.06637E-03 7.01717E-15-2.83206E-13
 -1      1211 1.62473E+01-1.02870E-02-2.37414E-02-5.95819E-03 7.27855E-14-1.14544E-13
 -1      1212 1.69474E+01-3.12733E-03-9.07178E-03-1.44384E-02-5.25915E-14-2.99944E-13
 -1      1213 1.76968E+01 2.50380E-03 3.74016E-03-1.89762E-02-3.15087E-15-3.29216E-13
 -1      1214 1.83931E+01 5.89149E-03 1.22758E-02-1.95829E-02 1.66008E-14-5.31762E-13
 -1      1215 1.89693E+01 7.11242E-03 1.60095E-02-1.72606E-02 7.82490E-15-7.04287E-13
 -1      1216 1.93983E+01 6.69619E-03 1.57782E-02-1.33638E-02 1.39065E-14-7.37061E-13
 -1      1217 1.96850E+01 5.29432E-03 1.29936E-02-9.10383E-03-9.14947E-15-8.52650E-13
 -1      1218 1.98546E+01 3.48498E-03 9.03799E-03-5.33019E-03 2.91220E-14-6.01736E-13
 -1      1219 1.99414E+01 1.81384E-03 5.10235E-03-2.56350E-03 4.51373E-14-8.00969E-13
 -1      1220 1.99796E+01 8.28294E-04 2.26266E-03-1.03561E-03 3.66209E-14-8.54901E-13
 -1      1221 1.99953E+01 6.67404E-04 1.08788E-03-5.69768E-04 6.11387E-14-9.30143E-13
 -1      1222 2.00000E+01 6.75826E-05 5.17458E-05 1.57024E-04-5.09148E-14-6.49576E-13
 -1      1223 1.99995E+01 7.98135E-05 6.74234E-06-9.15058E-05-5.86312E-13-8.65540E-14
 -1      1224 1.99997E+01-7.70273E-03 4.55072E-04-1.22388E-03 4.60344E-14 1.96181E-14
 -1      1225 1.99976E+01-2.26766E-02-2.29636E-03-2.24040E-03 7.03780E-13 3.13351E-15
 -1      1226 1.99948E+01-2.26953E-02-6.34862E-03-1.77496E-03 1.23799E-12 2.45430E-14
 -1      1227 1.99926E+01 2.04844E-02-9.86057E-03 1.40197E-04 1.36836E-12-7.36330E-14
 -1      1228 1.99916E+01 1.29071E-01-1.13672E-02 3.18084E-03 1.26360E-13-1.48728E-13
 -1      1229 1.99931E+01 3.13048E-01-9.68122E-03 6.43896E-03 7.46756E-13-3.62886E-14
 -1      1230 1.99970E+01 5.63123E-01-4.27370E-03 9.14481E-03 1.61272E-12 1.12033E-13
 -1      1231 2.00031E+01 8.41819E-01 4.41248E-03 1.00159E-02 1.75062E-12-5.51144E-14
 -1      1232 2.00103E+01 1.09087E+00 1.46229E-02 8.04593E-03 2.02327E-12 5.78300E-14
 -1      1233 2.00162E+01 1.24176E+00 2.32776E-02 2.85623E-03 1.78075E-12-3.32193E-13
 -1      1234 2.00189E+01 1.23698E+00 2.67976E-02-4.87187E-03 4.44058E-13-1.73635E-14
 -1      1235 2.00157E+01 1.05374E+00 2.17852E-02-1.26346E-02 2.31461E-13 1.81443E-13
 -1      1236 2.00066E+01 7.20221E-01 7.12362E-03-1.78005E-02 5.46800E-13 3.24301E-14
 -1      1237 1.99930E+01 3.32992E-01-1.34490E-02-1.57368E-02 6.17065E-13 5.70922E-14
 -1      1238 1.99854E+01 4.72576E-02-2.05443E-02 1.97514E-03 3.76245E-13-1.72668E-13
 -1      1239 2.00091E+01-2.08455E-02 1.61096E-02 5.91580E-03-6.16869E-13 2.46517E-13
 -1      1240-1.16436E+00-2.52447E+01-3.70041E+00-2.15625E+00-5.85310E-13-2.69229E-14
 -1      1241-1.50677E+00-1.41460E+01-2.87129E+00-3.59022E+00-2.22045E-15 7.21645E-14
 -1      1242 1.31687E+00-3.69741E-01-1.51139E+00 1.13370E+00-1.85851E-13-2.36033E-13
 -1      1243 1.22471E+01 1.00521E+01 1.20207E-01 1.08211E+01-2.40474E-13-2.26485E-14
 -1      1244 3.11000E+01 1.26480E+01 1.82211E+00 1.90353E+01-7.11653E-14-1.73861E-13
 -1      1245 5.12264E+01 8.81225E+00 3.14636E+00 1.92983E+01-2.94764E-14 6.88338E-14
 -1      1246 6.70189E+01 3.56214E+00 4.03563E+00 1.15267E+01 4.38816E-14 2.36366E-13
 -1      1247 7.15881E+01 1.90773E+00 4.26682E+00-2.10275E+00 2.88589E-14-1.09551E-13
 -1      1248 6.28589E+01 5.18975E+00 3.85494E+00-1.47776E+01 1.69420E-13-7.94920E-13
 -1      1249 4.37836E+01 1.07051E+01 2.70597E+00-2.01186E+01 6.38711E-13-1.27032E-12
 -1      1250 2.24674E+01 1.29225E+01 1.16391E+00-1.64024E+01 1.05405E-12-1.47615E-12
 -1      1251 6.81131E+00 7.49378E+00-4.93941E-01-7.10847E+00 6.95222E-13-7.24310E-13
 -1      1252-3.40933E-01-4.77265E+00-2.01873E+00 1.06818E+00 4.18332E-13-3.42060E-13
 -1      1253-1.49362E+00-1.85751E+01-3.19214E+00 3.65051E+00 3.36398E-13-1.98452E-14
 -1      1254-1.00485E+00-2.75770E+01-3.89711E+00 5.67979E-01 9.54126E-13-3.69357E-14
 -1      1255-1.73991E+00-2.78852E+01-4.13467E+00-4.56048E+00 2.95458E-13-3.81570E-14
 -1      1256-3.36876E+00-1.97444E+01-3.89948E+00-6.85412E+00-7.77267E-13-3.96294E-13
 -1      1257-2.17971E+00-7.45385E+00-3.23085E+00-3.43689E+00-1.14886E-12-7.43405E-13
 -1      1258 7.49331E+00 4.16037E+00-1.63820E+00 5.79178E+00-1.13221E-12-1.32361E-12
 -1      1259 3.10508E+01 9.65244E+00 1.23928E+00 1.63606E+01-1.22080E-12-2.13296E-12
 -1      1260 6.35803E+01 7.53602E+00 4.96840E+00 1.84465E+01-8.79963E-13-2.75779E-12
 -1      1261 8.68076E+01 3.28518E+00 7.68243E+00 7.87992E+00-2.32786E-13-2.44604E-12
 -1      1262 8.70137E+01 3.17357E+00 7.71630E+00-8.09866E+00 3.13215E-13-2.64888E-12
 -1      1263 6.58426E+01 7.29874E+00 5.26982E+00-1.83098E+01 4.26104E-13-1.77303E-12
 -1      1264 3.70762E+01 9.93936E+00 1.90552E+00-1.81807E+01 4.05675E-13-7.19425E-13
 -1      1265 1.39792E+01 7.02719E+00-8.19446E-01-9.92741E+00 4.26548E-13-7.54063E-13
 -1      1266 2.81609E-01-1.77994E+00-2.76577E+00-1.58809E-01 1.49214E-13-3.21076E-13
 -1      1267-3.46789E+00-1.35701E+01-3.62658E+00 5.91732E+00-1.03029E-12 3.01759E-13
 -1      1268-2.72767E+00-2.39724E+01-4.03481E+00 6.49636E+00-9.71112E-13 4.47586E-13
 -1      1269-1.24859E+00-2.89814E+01-4.11986E+00 2.68940E+00-1.10723E-12 1.38757E-13
 -1      1270 2.23359E+01 1.89167E+00-7.17618E-01-2.85197E+00-3.46112E-14 2.26319E-13
 -1      1271 2.03601E+01 4.69649E+00-4.73058E-02-3.31059E+00-7.49539E-14-2.47191E-13
 -1      1272 2.08575E+01 4.85259E+00-9.82868E-02-4.16722E+00-1.03750E-13-1.51115E-13
 -1      1273 1.95319E+01 4.99501E+00-1.94342E-02-2.65517E+00-6.62803E-14-3.69513E-13
 -1      1274 1.98312E+01 5.09299E+00 9.68992E-04-3.04506E+00-7.90618E-14-3.23616E-13
 -1      1275 2.05284E+01 3.95427E+00-2.48720E-02-3.07873E+00-1.27901E-13-2.18436E-13
 -1      1276 1.91855E+01 5.08425E+00-3.36537E-03-2.07127E+00-4.37740E-14-3.99025E-13
 -1      1277 1.93338E+01 5.13962E+00 1.05726E-02-2.36456E+00-5.67914E-14-3.89942E-13
 -1      1278 1.97554E+01 4.36729E+00-2.38021E-02-2.49157E+00-1.03424E-13-3.14568E-13
 -1      1279 1.90095E+01 5.13096E+00 3.47147E-03-1.56484E+00-2.13874E-14-3.96070E-13
 -1      1280 1.90876E+01 5.16072E+00 1.28226E-02-1.81486E+00-2.77903E-14-4.00631E-13
 -1      1281 1.93934E+01 4.55489E+00-1.95072E-02-1.93188E+00-6.25697E-14-3.40630E-13
 -1      1282 1.89156E+01 5.16064E+00 6.56240E-03-1.11724E+00-2.88831E-16-3.77443E-13
 -1      1283 1.89581E+01 5.17703E+00 1.27796E-02-1.33870E+00-7.70391E-15-3.85815E-13
 -1      1284 1.92059E+01 4.66134E+00-1.60438E-02-1.44499E+00-2.57546E-14-3.33174E-13
 -1      1285 1.88640E+01 5.18044E+00 8.18305E-03-6.93987E-01 1.39053E-14-3.50628E-13
 -1      1286 1.88870E+01 5.18932E+00 1.20043E-02-9.04191E-01 1.09929E-14-3.64781E-13
 -1      1287 1.91029E+01 4.72678E+00-1.39992E-02-1.00444E+00 4.09481E-15-3.16403E-13
 -1      1288 1.88400E+01 5.19239E+00 9.27929E-03-2.89377E-01 3.57875E-14-3.25455E-13
 -1      1289 1.88499E+01 5.19623E+00 1.10644E-02-4.91448E-01 2.54020E-14-3.35967E-13
 -1      1290 1.90470E+01 4.76581E+00-1.29252E-02-5.88950E-01 3.01920E-14-2.84568E-13
 -1      1291 1.88362E+01 5.19734E+00 1.02145E-02 1.07911E-01 5.26419E-14-3.08488E-13
 -1      1292 1.88359E+01 5.19721E+00 1.01433E-02-9.17013E-02 4.11734E-14-3.19562E-13
 -1      1293 1.90227E+01 4.78387E+00-1.24747E-02-1.89332E-01 6.60834E-14-2.70742E-13
 -1      1294 1.88515E+01 5.19586E+00 1.11561E-02 5.08236E-01 6.12232E-14-2.94055E-13
 -1      1295 1.88409E+01 5.19175E+00 9.21888E-03 3.05753E-01 5.87103E-14-3.05981E-13
 -1      1296 1.90235E+01 4.78324E+00-1.24922E-02 2.05448E-01 9.19484E-14-2.59598E-13
 -1      1297 1.88902E+01 5.18819E+00 1.20936E-02 9.22414E-01 7.09667E-14-2.66674E-13
 -1      1298 1.88664E+01 5.17915E+00 8.12907E-03 7.11283E-01 6.78606E-14-2.84717E-13
 -1      1299 1.90495E+01 4.76380E+00-1.29771E-02 6.05748E-01 1.06919E-13-2.35558E-13
 -1      1300 1.89621E+01 5.17521E+00 1.28983E-02 1.35556E+00 8.10333E-14-2.15385E-13
 -1      1301 1.89188E+01 5.15846E+00 6.44805E-03 1.13271E+00 7.87291E-14-2.47068E-13
 -1      1302 1.91070E+01 4.72336E+00-1.39996E-02 1.01900E+00 1.24559E-13-2.08396E-13
 -1      1303 1.90950E+01 5.15686E+00 1.29216E-02 1.84011E+00 1.04359E-13-1.45925E-13
 -1      1304 1.90153E+01 5.12644E+00 3.15318E-03 1.58735E+00 9.44037E-14-1.84137E-13
 -1      1305 1.92125E+01 4.65502E+00-1.61423E-02 1.46206E+00 1.44844E-13-1.52951E-13
 -1      1306 1.93446E+01 5.13327E+00 1.04592E-02 2.39719E+00 1.16029E-13-3.92256E-14
 -1      1307 1.91940E+01 5.07641E+00-4.14952E-03 2.09981E+00 1.09440E-13-1.04187E-13
 -1      1308 1.94054E+01 4.54254E+00-1.98960E-02 1.95743E+00 1.71518E-13-8.33569E-14
 -1      1309 1.98546E+01 5.09952E+00 6.07047E-03 3.08375E+00 1.14742E-13 1.53842E-13
 -1      1310 1.95437E+01 4.98465E+00-2.02117E-02 2.69657E+00 1.07102E-13 3.87398E-14
 -1      1311 1.97742E+01 4.34584E+00-2.46860E-02 2.52785E+00 1.78746E-13 4.30836E-14
 -1      1312 2.11028E+01 4.90650E+00 8.01523E-03 4.05331E+00 1.00614E-13 4.63046E-13
 -1      1313 2.03336E+01 4.73388E+00-4.80701E-02 3.41557E+00 9.60343E-14 2.79159E-13
 -1      1314 2.05627E+01 3.91590E+00-2.28521E-02 3.17825E+00 1.69104E-13 2.39767E-13
 -1      1315 2.72021E+01 3.20520E+00 9.28826E-01 4.58194E+00 3.87468E-14 9.70390E-13
 -1      1316 2.20197E+01 3.52210E+00-1.82103E-01 3.88459E+00 5.00711E-14 6.22669E-13
 -1      1317 2.21131E+01 2.56156E+00-3.24840E-02 3.45638E+00 1.53459E-13 5.18113E-13
 -1      1318 2.14266E+01 3.59563E-01-7.63629E-01 1.18359E+00 7.64111E-14 9.58400E-13
 -1      1319 2.21282E+01 1.95663E-01-4.01978E-01-1.36894E+00-8.74162E-14 2.78666E-13
 -1      1320 2.07430E+01 3.28759E-01-1.78600E-01-8.47446E-01-7.80001E-14 1.65631E-13
 -1      1321 2.01443E+01 1.61025E-01-8.03949E-02-4.20830E-01-7.21367E-14 1.28959E-13
 -1      1322 1.96502E+01 9.40501E-02-1.86663E-02-3.46018E-01-7.22547E-14 2.56531E-14
 -1      1323 2.10345E+01 4.15862E-01-1.02805E-01-1.33476E+00-1.41005E-13-1.56125E-14
 -1      1324 1.92796E+01 6.73805E-02 1.32177E-03-1.42999E-01-5.90222E-14-1.57513E-15
 -1      1325 1.91156E+01 4.27868E-02 1.26989E-02-1.24580E-01-5.93761E-14-8.97095E-14
 -1      1326 1.99579E+01 1.41394E-01-3.68733E-02-5.29720E-01-1.18388E-13-6.34735E-14
 -1      1327 1.89483E+01 3.26590E-02 1.31377E-02-3.16623E-02-4.33507E-14-1.17455E-13
 -1      1328 1.89245E+01 2.01292E-02 1.11972E-02-2.19581E-02-4.39527E-14-1.93172E-13
 -1      1329 1.94612E+01 5.78538E-02-9.18463E-03-1.81203E-01-1.00376E-13-9.95714E-14
 -1      1330 1.88648E+01 1.65832E-02 8.95575E-03 2.32903E-02-4.03080E-14-2.20280E-13
 -1      1331 1.89053E+01 9.47486E-03 6.59289E-03 2.81135E-02-2.97212E-14-2.64270E-13
 -1      1332 1.92424E+01 2.54507E-02-3.68027E-03-1.64804E-02-6.93404E-14-1.78205E-13
 -1      1333 1.89035E+01 8.18382E-03 4.80822E-03 5.01509E-02-1.72608E-14-2.63928E-13
 -1      1334 1.89732E+01 3.73508E-03 3.73510E-03 5.21587E-02-2.07349E-14-2.96081E-13
 -1      1335 1.91804E+01 1.07435E-02-2.29032E-03 6.51565E-02-4.20323E-14-2.20384E-13
 -1      1336 1.90019E+01 3.39000E-03 2.51836E-03 6.14733E-02-4.61612E-14-2.99605E-13
 -1      1337 1.90825E+01 4.75574E-04 2.26526E-03 6.18156E-02-5.10168E-14-3.68815E-13
 -1      1338 1.92039E+01 3.09019E-03-1.37589E-03 1.03662E-01-7.00214E-14-2.17244E-13
 -1      1339 1.91259E+01 5.76942E-04 1.37508E-03 6.38314E-02-7.29478E-15-3.76299E-13
 -1      1340 1.92072E+01-1.36577E-03 1.47493E-03 6.31993E-02-1.37644E-14-3.77681E-13
 -1      1341 1.92721E+01-1.11039E-03-6.00562E-04 1.17961E-01-6.03997E-14-2.37142E-13
 -1      1342 1.92561E+01-1.04414E-03 7.74451E-04 6.10461E-02-2.34397E-14-3.84955E-13
 -1      1343 1.93325E+01-2.33173E-03 9.97957E-04 5.98834E-02-3.09779E-14-4.06249E-13
 -1      1344 1.93604E+01-3.37438E-03-3.28774E-05 1.18314E-01-2.97910E-14-2.70700E-13
 -1      1345 1.93813E+01-1.90830E-03 4.30911E-04 5.54980E-02-2.81359E-14-4.04950E-13
 -1      1346 1.94500E+01-2.73753E-03 6.83609E-04 5.40963E-02-1.71597E-14-4.33166E-13
 -1      1347 1.94545E+01-4.45993E-03 3.24750E-04 1.10836E-01-3.85040E-14-2.64382E-13
 -1      1348 1.94956E+01-2.27942E-03 2.24411E-04 4.87211E-02-8.14258E-15-4.38290E-13
 -1      1349 1.95553E+01-2.78166E-03 4.69092E-04 4.72726E-02-4.02055E-15-4.44109E-13
 -1      1350 1.95459E+01-4.80055E-03 5.16039E-04 9.93777E-02-2.24200E-14-2.96234E-13
 -1      1351 1.95963E+01-2.32696E-03 1.01114E-04 4.17148E-02-1.06770E-14-4.34191E-13
 -1      1352 1.96471E+01-2.59351E-03 3.23893E-04 4.03440E-02-1.66280E-14-4.60197E-13
 -1      1353 1.96300E+01-4.66658E-03 5.88900E-04 8.64315E-02-1.62974E-14-3.33505E-13
 -1      1354 1.96830E+01-2.16165E-03 3.29344E-05 3.51293E-02-3.82164E-14-4.48396E-13
 -1      1355 1.97254E+01-2.25782E-03 2.29587E-04 3.39167E-02-2.55742E-14-4.70415E-13
 -1      1356 1.97049E+01-4.23237E-03 5.80889E-04 7.36214E-02-2.28944E-14-3.62644E-13
 -1      1357 1.97565E+01-1.84416E-03 5.33202E-06 2.93912E-02-1.67357E-14-4.82064E-13
 -1      1358 1.97917E+01-1.83170E-03 1.60137E-04 2.83845E-02-2.58435E-14-5.51548E-13
 -1      1359 1.97701E+01-3.61292E-03 5.15596E-04 6.20088E-02-5.06640E-14-3.78894E-13
 -1      1360 1.98173E+01-1.49586E-03-1.51283E-05 2.49421E-02 1.28342E-14-5.06911E-13
 -1      1361 1.98457E+01-1.34267E-03 1.56223E-04 2.42184E-02 2.83389E-14-4.95303E-13
 -1      1362 1.98254E+01-2.81924E-03 4.53590E-04 5.24788E-02 1.27787E-14-3.60057E-13
 -1      1363 1.98697E+01-9.66499E-04 2.43108E-05 2.16922E-02 4.80773E-14-4.38865E-13
 -1      1364 1.98956E+01-7.49018E-04 1.73995E-04 2.11995E-02 2.87793E-14-4.05033E-13
 -1      1365 1.98739E+01-2.04843E-03 2.88839E-04 4.53726E-02 7.55132E-14-3.00032E-13
 -1      1366 1.99178E+01-3.76922E-04 6.09125E-05 2.00053E-02-3.65701E-15-3.15606E-13
 -1      1367 1.99418E+01-5.28905E-05 2.22571E-04 1.98423E-02 5.57357E-15-3.16595E-13
 -1      1368 1.99191E+01-1.05678E-03 1.32182E-04 4.09392E-02 4.74379E-14-1.84199E-13
 -1      1369 1.99640E+01 3.65362E-04 1.20750E-04 2.02800E-02-2.44580E-14-2.84783E-13
 -1      1370 1.99885E+01 8.13021E-04 3.12191E-04 2.05159E-02-4.24442E-14-3.37088E-13
 -1      1371 1.99626E+01 1.22329E-04-6.25516E-05 4.00523E-02-2.09478E-14-9.66314E-14
 -1      1372 2.00131E+01 1.33745E-03 2.02034E-04 2.30493E-02-2.95983E-14-3.10124E-13
 -1      1373 2.00413E+01 1.95855E-03 4.53014E-04 2.38037E-02 6.18448E-15-2.63068E-13
 -1      1374 2.00085E+01 1.62681E-03-3.07872E-04 4.36228E-02-3.28337E-14-1.77261E-13
 -1      1375 2.00711E+01 2.68329E-03 3.06052E-04 2.91837E-02 4.78102E-14-2.70166E-13
 -1      1376 2.01074E+01 3.56242E-03 6.60136E-04 3.06562E-02 6.04788E-14-2.12595E-13
 -1      1377 2.00616E+01 3.68153E-03-6.29749E-04 5.30918E-02 4.00203E-14-1.55502E-13
 -1      1378 2.01467E+01 4.63836E-03 4.31028E-04 4.01019E-02-2.25982E-14-2.02474E-13
 -1      1379 2.01972E+01 5.91001E-03 9.51259E-04 4.26222E-02-5.17678E-14-2.87637E-13
 -1      1380 2.01290E+01 6.65784E-03-1.06997E-03 7.07884E-02 1.29246E-14-1.53800E-13
 -1      1381 2.02519E+01 7.58119E-03 5.63357E-04 5.80999E-02-4.27100E-14-2.60698E-13
 -1      1382 2.03262E+01 9.45086E-03 1.33799E-03 6.22079E-02-3.88170E-14-3.33091E-13
 -1      1383 2.02200E+01 1.11604E-02-1.69354E-03 1.00467E-01-5.23589E-14-1.28781E-13
 -1      1384 2.04047E+01 1.21129E-02 6.56586E-04 8.68570E-02-4.19773E-14-3.74130E-13
 -1      1385 2.05172E+01 1.48819E-02 1.79941E-03 9.34305E-02-2.94222E-14-4.54387E-13
 -1      1386 2.03486E+01 1.81645E-02-2.60148E-03 1.48128E-01-8.51676E-14-2.55070E-13
 -1      1387 2.06322E+01 1.91716E-02 5.81303E-04 1.32196E-01-2.24070E-14-4.88756E-13
 -1      1388 2.08055E+01 2.32523E-02 2.21327E-03 1.42649E-01-3.67796E-14-4.87875E-13
 -1      1389 2.05345E+01 2.92210E-02-3.95376E-03 2.23248E-01-4.20389E-14-3.62756E-13
 -1      1390 2.09753E+01 3.01711E-02 1.33987E-05 2.03151E-01-3.67232E-14-4.92756E-13
 -1      1391 2.12445E+01 3.60476E-02 2.20398E-03 2.19727E-01-3.13360E-14-4.91036E-13
 -1      1392 2.08067E+01 4.67195E-02-6.01157E-03 3.40516E-01-4.56818E-14-4.36766E-13
 -1      1393 2.14955E+01 4.70860E-02-1.77935E-03 3.13238E-01 4.05769E-14-5.25704E-13
 -1      1394 2.19147E+01 5.50854E-02 8.90618E-04 3.39386E-01 2.44796E-14-4.17909E-13
 -1      1395 2.12070E+01 7.40984E-02-9.20558E-03 5.21983E-01-1.34493E-14-4.31599E-13
 -1      1396 2.22831E+01 7.21803E-02-6.21030E-03 4.81230E-01-6.12514E-14-3.99606E-13
 -1      1397 2.29320E+01 8.16941E-02-3.26435E-03 5.21891E-01-5.91081E-14-5.10772E-13
 -1      1398 2.17935E+01 1.15522E-01-1.41845E-02 7.98702E-01 3.59157E-14-3.77384E-13
 -1      1399 2.34635E+01 1.06478E-01-1.52340E-02 7.28912E-01 3.50414E-16-5.51004E-13
 -1      1400 2.44500E+01 1.14154E-01-1.12608E-02 7.89767E-01-1.39194E-14-5.44731E-13
 -1      1401 2.26429E+01 1.73488E-01-2.15598E-02 1.20858E+00-1.12509E-13-4.74514E-13
 -1      1402 2.51931E+01 1.41658E-01-2.98883E-02 1.06871E+00-1.48857E-14-4.70235E-13
 -1      1403 2.66280E+01 1.40598E-01-1.99404E-02 1.15254E+00-6.82839E-14-5.09176E-13
 -1      1404 2.38447E+01 2.41001E-01-3.04291E-02 1.78116E+00-5.94802E-14-5.67163E-13
 -1      1405 2.75593E+01 1.56940E-01-3.97321E-02 1.45415E+00-4.68688E-14-4.59438E-13
 -1      1406 2.93833E+01 1.15346E-01-1.41278E-02 1.53894E+00 1.14058E-14-4.82489E-13
 -1      1407 2.54374E+01 2.74222E-01-3.38359E-02 2.46693E+00 7.19910E-15-4.38743E-13
 -1      1408 3.05921E+01 8.48386E-02-1.54407E-02 1.73299E+00 6.36418E-14-4.93411E-13
 -1      1409 3.27347E+01-5.34610E-02 4.52056E-02 1.77033E+00 5.14692E-15-4.33029E-13
 -1      1410 2.74758E+01 1.63663E-01-2.07600E-02 3.08290E+00 4.17309E-14-3.62731E-13
 -1      1411 3.40575E+01-2.20229E-01 9.50196E-02 1.46758E+00 3.19536E-15-4.42202E-13
 -1      1412 3.55204E+01-4.73264E-01 1.79963E-01 1.26559E+00 3.86913E-14-4.20037E-13
 -1      1413 2.99523E+01-3.36882E-01 3.33341E-02 3.05683E+00-9.11424E-15-4.84793E-13
 -1      1414 3.66338E+01-8.02322E-01 2.71859E-01 3.21850E-02 7.06518E-14-4.61499E-13
 -1      1415 3.58024E+01-9.34567E-01 2.13587E-01-5.27676E-01 8.66945E-14-4.03927E-13
 -1      1416 3.24614E+01-1.36186E+00 9.84512E-02 1.40546E+00 2.49384E-14-4.71634E-13
 -1      1417 3.64063E+01-1.11138E+00 1.89534E-01-2.54668E+00 2.11164E-13-3.23852E-13
 -1      1418 3.22063E+01-6.69660E-01-2.87070E-01-3.24155E+00 1.48381E-13-6.55587E-14
 -1      1419 3.46415E+01-2.08738E+00 1.10903E-01-2.46808E+00 2.27155E-13-6.51756E-13
 -1      1420 3.20176E+01 4.65765E-02-4.37942E-01-3.79912E+00 9.99201E-16-3.78031E-14
 -1      1421 2.75519E+01 9.31967E-01-9.77379E-01-3.41341E+00-1.02029E-13-1.55709E-14
 -1      1422 3.56668E+01-6.34601E-01-1.13661E-01-5.60525E+00 1.06359E-13-6.86590E-13
 -1      1423 2.75199E+01 1.60698E+00-1.03146E+00-1.27784E+00-1.32172E-13 5.57887E-14
 -1      1424 2.68233E+01 1.88628E+00-1.07708E+00-2.43963E-01-1.09024E-13 3.08087E-14
 -1      1425 3.61383E+01 2.90949E+00-6.95755E-02-3.80401E+00-1.00253E-13-5.00433E-13
 -1      1426 2.67675E+01 1.40994E+00-1.13263E+00 2.46242E+00-2.06613E-13-5.22499E-14
 -1      1427 2.98435E+01 9.70160E-01-6.88901E-01 3.01217E+00-1.98064E-13-2.85660E-13
 -1      1428 3.60786E+01 3.90483E+00-1.32121E-01 1.64688E+00-2.60125E-13-6.74433E-13
 -1      1429 3.00178E+01-6.56009E-02-6.13731E-01 3.79174E+00-2.05835E-13-3.09086E-13
 -1      1430 3.45217E+01-6.55422E-01-4.97687E-02 3.54132E+00-1.80800E-13-5.43121E-13
 -1      1431 3.58909E+01 8.71664E-01-2.00945E-01 5.69333E+00-3.62876E-13-5.76983E-13
 -1      1432 3.45114E+01-9.88916E-01 6.38295E-02 1.86685E+00-9.96911E-14-6.03961E-13
 -1      1433 3.69285E+01-1.08661E+00 2.68864E-01 1.10954E+00-1.36210E-13-8.83987E-13
 -1      1434 3.51720E+01-1.72971E+00-2.80029E-02 4.37461E+00-1.78357E-13-4.91954E-13
 -1      1435 3.59797E+01-7.19879E-01 2.13961E-01-5.91502E-01-5.59899E-14-7.59698E-13
 -1      1436 3.54106E+01-5.00120E-01 1.69702E-01-9.40417E-01 4.76286E-14-6.69048E-13
 -1      1437 3.35641E+01-1.81545E+00 1.39795E-01 1.75185E-01-9.97535E-14-6.40790E-13
 -1      1438 3.41901E+01-2.26328E-01 1.05796E-01-1.66437E+00 1.40759E-13-6.35006E-13
 -1      1439 3.23064E+01-4.60388E-02 3.11783E-02-1.71036E+00 1.18107E-13-4.69041E-13
 -1      1440 3.11875E+01-7.82748E-01 8.36598E-02-2.50290E+00 1.78232E-13-4.47187E-13
 -1      1441 3.09962E+01 4.98689E-02 8.42261E-03-1.71994E+00 9.35337E-14-4.04454E-13
 -1      1442 2.88922E+01 1.39656E-01-3.12844E-02-1.64450E+00-1.81719E-14-3.61586E-13
 -1      1443 2.86392E+01-3.94284E-02 3.91163E-03-3.22444E+00 2.09163E-13-3.92721E-13
 -1      1444 2.77647E+01 1.30676E-01-2.20219E-02-1.36668E+00 4.19803E-15-2.75252E-13
 -1      1445 2.60702E+01 1.56849E-01-3.39271E-02-1.27689E+00 4.12066E-14-3.08087E-13
 -1      1446 2.62975E+01 2.42412E-01-3.12183E-02-2.83986E+00 2.78258E-14-3.62609E-13
 -1      1447 2.51844E+01 1.24092E-01-1.74446E-02-9.75585E-01 4.22613E-14-8.92897E-14
 -1      1448 2.39704E+01 1.24195E-01-2.02336E-02-9.05525E-01 7.63296E-14 6.73003E-14
 -1      1449 2.43983E+01 2.62488E-01-3.32601E-02-2.14371E+00 1.97720E-13-3.02366E-13
 -1      1450 2.33153E+01 9.39403E-02-7.23697E-03-6.65867E-01 6.87159E-14-3.37612E-14
 -1      1451 2.24883E+01 8.71393E-02-8.87558E-03-6.17937E-01 8.32893E-14 1.68185E-13
 -1      1452 2.29543E+01 2.04137E-01-2.46078E-02-1.50882E+00 7.35835E-14-6.77470E-14
 -1      1453 2.20206E+01 6.55105E-02-7.71110E-04-4.47284E-01 1.10743E-13 2.67932E-13
 -1      1454 2.14683E+01 5.91331E-02-2.81738E-03-4.15801E-01 1.24278E-13 4.40490E-13
 -1      1455 2.19016E+01 1.41540E-01-1.62644E-02-1.03028E+00 2.51150E-13 1.42079E-14
 -1      1456 2.11422E+01 4.58530E-02 1.56861E-03-2.96992E-01-8.81864E-14 2.19595E-13
 -1      1457 2.07797E+01 4.20486E-02-8.09462E-04-2.75412E-01-2.60916E-13 5.04423E-14
 -1      1458 2.11543E+01 9.60983E-02-1.08448E-02-6.93144E-01-1.29321E-13-1.42826E-13
 -1      1459 2.05596E+01 3.52861E-02 9.08393E-04-1.87503E-01-3.73603E-14 2.84925E-13
 -1      1460 2.03373E+01 3.41041E-02-1.10460E-03-1.69899E-01-5.56881E-14 1.10784E-13
 -1      1461 2.06365E+01 6.98429E-02-8.42651E-03-4.52037E-01-1.22679E-13-1.35363E-13
 -1      1462 2.01964E+01 3.73440E-02-9.10702E-05-9.43920E-02 1.85557E-14 2.40604E-13
 -1      1463 2.00922E+01 3.21266E-02 2.67585E-04-7.48452E-02 3.46390E-14 3.42961E-13
 -1      1464 2.02932E+01 6.31966E-02-6.77290E-03-2.62658E-01 3.08824E-15-4.72649E-14
 -1      1465 2.00049E+01 1.16996E-02 2.51924E-03 9.87279E-04-3.62505E-13 4.52224E-13
 -1      1466 2.02595E+01 7.59952E-02-1.51824E-01 4.83559E-01 5.29368E-14 8.21093E-13
 -1      1467 2.15300E+01 2.16146E-01-2.29242E-01 7.21036E-01 5.50671E-14 9.10549E-13
 -1      1468 2.17289E+01 8.82362E-01-8.51955E-02 2.06504E+00 1.11952E-13 6.44831E-13
 -1      1469 1.93306E+01 3.27187E-02-2.12095E-02 1.86328E-01 5.44963E-14 6.91475E-13
 -1      1470 1.97523E+01 1.13489E-01-6.24427E-02 2.38318E-01 4.05301E-14 7.64544E-13
 -1      1471 2.03040E+01 1.88344E-01-5.46708E-02 7.86689E-01 9.27175E-14 5.42490E-13
 -1      1472 1.89495E+01 1.49059E-02 5.80333E-03 5.33313E-02 3.95708E-14 5.78225E-13
 -1      1473 1.90884E+01 5.17642E-02 1.32919E-03 7.94976E-02 4.71489E-14 6.42528E-13
 -1      1474 1.95584E+01 7.37706E-02-1.13843E-02 2.99204E-01 9.21381E-14 4.51243E-13
 -1      1475 1.88398E+01 7.01574E-03 6.98500E-03-9.16112E-03 4.01840E-14 4.82142E-13
 -1      1476 1.88543E+01 2.59394E-02 1.13228E-02 5.14220E-03 2.72937E-14 5.36141E-13
 -1      1477 1.92233E+01 3.16032E-02-2.24993E-03 8.32370E-02 7.56166E-14 3.55251E-13
 -1      1478 1.88663E+01 3.21057E-03 4.72166E-03-3.94238E-02 3.39247E-15 4.29573E-13
 -1      1479 1.88223E+01 1.38438E-02 8.53623E-03-3.12827E-02 1.81240E-14 4.61124E-13
 -1      1480 1.91073E+01 1.32693E-02-1.65735E-03-2.18573E-02 4.79378E-14 3.10701E-13
 -1      1481 1.89609E+01 1.06867E-03 3.25814E-03-5.28972E-02-9.42302E-15 4.57803E-13
 -1      1482 1.88902E+01 7.30099E-03 5.32023E-03-4.84029E-02-1.22359E-14 4.42360E-13
 -1      1483 1.91089E+01 4.55626E-03-1.68378E-03-7.33480E-02-1.76083E-14 3.35884E-13
 -1      1484 1.90859E+01-1.71214E-04 2.49808E-03-5.69347E-02-9.99835E-15 5.05536E-13
 -1      1485 1.90054E+01 3.48486E-03 3.41371E-03-5.46950E-02-3.55819E-14 4.61388E-13
 -1      1486 1.91721E+01-7.38577E-05-1.40843E-03-9.61297E-02-3.27052E-14 3.13543E-13
 -1      1487 1.92196E+01-8.68828E-04 2.03944E-03-5.55505E-02 2.56598E-14 4.50898E-13
 -1      1488 1.91389E+01 1.16564E-03 2.32709E-03-5.47219E-02 2.08335E-14 4.80874E-13
 -1      1489 1.92648E+01-2.57623E-03-1.02167E-03-1.02509E-01 9.83515E-15 2.93172E-13
 -1      1490 1.93495E+01-1.21716E-03 1.69357E-03-5.11951E-02 6.53411E-14 3.29514E-13
 -1      1491 1.92739E+01-2.21258E-04 1.65421E-03-5.12307E-02 5.65273E-14 4.08885E-13
 -1      1492 1.93679E+01-3.82282E-03-6.80665E-04-9.95039E-02 7.66966E-14 2.25890E-13
 -1      1493 1.94689E+01-1.33696E-03 1.39918E-03-4.54251E-02 9.38022E-15 2.88033E-13
 -1      1494 1.94011E+01-1.00014E-03 1.19567E-03-4.59583E-02 1.46839E-14 3.09752E-13
 -1      1495 1.94704E+01-4.29061E-03-4.23962E-04-9.14138E-02 5.62131E-14 1.73864E-13
 -1      1496 1.95748E+01-1.30769E-03 1.13960E-03-3.92451E-02 3.58076E-14 2.76547E-13
 -1      1497 1.95158E+01-1.37264E-03 8.65158E-04-4.00262E-02 9.27722E-15 2.94537E-13
 -1      1498 1.95661E+01-4.27041E-03-2.45870E-04-8.09786E-02-8.80372E-17 2.15487E-13
 -1      1499 1.96664E+01-1.18346E-03 9.10034E-04-3.33012E-02 4.97734E-14 1.83251E-13
 -1      1500 1.96161E+01-1.47176E-03 6.21436E-04-3.41592E-02 5.78500E-14 2.26807E-13
 -1      1501 1.96520E+01-3.94843E-03-1.31230E-04-6.99690E-02 7.29976E-14 1.46490E-13
 -1      1502 1.97444E+01-1.00177E-03 7.08056E-04-2.79983E-02 4.21619E-14 5.48407E-14
 -1      1503 1.97021E+01-1.38847E-03 4.40734E-04-2.88160E-02 2.62966E-14 1.22163E-13
 -1      1504 1.97272E+01-3.44836E-03-6.60797E-05-5.95210E-02 9.54189E-14 6.25668E-14
 -1      1505 1.98107E+01-7.89158E-04 5.31286E-04-2.35746E-02 9.21111E-15-1.23438E-14
 -1      1506 1.97751E+01-1.18651E-03 3.06954E-04-2.42732E-02 4.72695E-14 2.73833E-14
 -1      1507 1.97922E+01-2.85388E-03-3.93762E-05-5.03407E-02 6.31854E-14-2.21898E-14
 -1      1508 1.98673E+01-5.65684E-04 3.77155E-04-2.01501E-02-1.52026E-14-2.26612E-14
 -1      1509 1.98372E+01-9.12288E-04 2.07988E-04-2.06786E-02-6.54176E-15-1.89403E-14
 -1      1510 1.98483E+01-2.22282E-03-4.24066E-05-4.28340E-02 8.25240E-15-5.00148E-14
 -1      1511 1.99168E+01-3.49080E-04 2.43369E-04-1.77526E-02 4.49795E-14-9.21192E-14
 -1      1512 1.98906E+01-6.02920E-04 1.34046E-04-1.80819E-02 2.99204E-14-7.03924E-14
 -1      1513 1.98972E+01-1.59829E-03-6.76633E-05-3.71867E-02 4.97456E-14-1.23062E-13
 -1      1514 1.99615E+01-1.59054E-04 1.28796E-04-1.63239E-02 7.17393E-14-2.31838E-13
 -1      1515 1.99379E+01-2.93820E-04 7.67887E-05-1.64464E-02 7.24486E-14-9.17867E-14
 -1      1516 1.99408E+01-1.01877E-03-1.07401E-04-3.34013E-02 8.67036E-14-1.78068E-13
 -1      1517 2.00037E+01-2.19415E-05 3.47804E-05-1.57059E-02-5.55863E-14-2.53010E-13
 -1      1518 1.99814E+01-2.68201E-05 2.89149E-05-1.56400E-02 2.10640E-14-2.28676E-13
 -1      1519 1.99810E+01-5.28468E-04-1.51762E-04-3.12956E-02 7.70880E-14-2.06308E-13
 -1      1520 2.00448E+01 2.44458E-05-3.30957E-05-1.56044E-02-2.81720E-14-8.59555E-14
 -1      1521 2.00229E+01 1.41028E-04-1.58609E-05-1.54053E-02-8.35415E-14-2.34148E-13
 -1      1522 2.00194E+01-1.88302E-04-1.86399E-04-3.04605E-02-1.00582E-13-5.26630E-14
 -1      1523 2.00855E+01-7.35760E-05-6.28804E-05-1.55319E-02-6.00579E-14-4.60138E-14
 -1      1524 2.00637E+01 1.28434E-04-6.23713E-05-1.53092E-02-3.45486E-14-8.14534E-14
 -1      1525 2.00567E+01-8.70707E-05-1.89624E-04-3.01763E-02-7.37575E-14-8.30853E-14
 -1      1526 2.01245E+01-3.87934E-04-3.40642E-05-1.47321E-02 4.66107E-14 9.23046E-15
 -1      1527 2.01034E+01-1.77648E-04-1.12995E-04-1.46743E-02-1.77511E-15-3.44714E-14
 -1      1528 2.00927E+01-3.50971E-04-1.29419E-04-2.92926E-02-3.76234E-14-1.65878E-13
 -1      1529 2.01583E+01-1.00617E-03 8.37108E-05-1.21015E-02 7.26710E-14-2.16070E-13
 -1      1530 2.01398E+01-9.24272E-04-1.66053E-04-1.25033E-02 8.29913E-14-3.26946E-14
 -1      1531 2.01253E+01-1.14735E-03 3.87793E-05-2.60877E-02 1.00415E-13-1.31256E-13
 -1      1532 2.01800E+01-2.01911E-03 3.29084E-04-6.13550E-03 4.30183E-14-3.08865E-13
 -1      1533 2.01679E+01-2.28285E-03-2.13913E-04-7.42168E-03 3.86450E-14-2.51503E-13
 -1      1534 2.01502E+01-2.67507E-03 3.71667E-04-1.81448E-02 9.98899E-14-1.48173E-13
 -1      1535 2.01782E+01-3.49258E-03 7.41281E-04 5.04809E-03-4.15921E-14-1.63919E-13
 -1      1536 2.01789E+01-4.41777E-03-2.41738E-04 2.31719E-03-5.81472E-14-2.24164E-13
 -1      1537 2.01597E+01-5.12961E-03 9.31952E-04-2.32010E-03-6.55315E-14-2.20195E-13
 -1      1538 2.01367E+01-5.41758E-03 1.34200E-03 2.35264E-02-1.87380E-14 1.91223E-14
 -1      1539 2.01595E+01-7.42183E-03-2.28831E-04 1.86928E-02-5.69380E-15 1.21550E-14
 -1      1540 2.01426E+01-8.62851E-03 1.77236E-03 2.50771E-02-9.81981E-14 1.29836E-14
 -1      1541 2.00346E+01-7.63856E-03 2.10349E-03 5.11322E-02-1.39428E-13 2.01067E-13
 -1      1542 2.00914E+01-1.12111E-02-1.55500E-04 4.35521E-02-1.02576E-13 3.55942E-14
 -1      1543 2.00835E+01-1.30848E-02 2.90599E-03 6.77288E-02-1.09850E-13 2.12662E-13
 -1      1544 1.98480E+01-9.77312E-03 2.90477E-03 8.86747E-02-8.43373E-14 3.73378E-13
 -1      1545 1.99525E+01-1.53870E-02-1.80444E-05 7.79352E-02-8.34901E-14 2.43572E-13
 -1      1546 1.99640E+01-1.80332E-02 4.26257E-03 1.28206E-01-1.37856E-13 3.39209E-13
 -1      1547 1.95541E+01-1.11616E-02 3.49092E-03 1.34833E-01 2.52979E-14 3.23242E-13
 -1      1548 1.97195E+01-1.91058E-02 1.48461E-04 1.21078E-01-1.37407E-14 4.15239E-13
 -1      1549 1.97648E+01-2.24486E-02 5.64125E-03 2.06245E-01-4.09499E-14 3.84409E-13
 -1      1550 1.91388E+01-1.09179E-02 3.46988E-03 1.84954E-01 1.67531E-15 2.36429E-13
 -1      1551 1.93732E+01-2.10487E-02 2.47901E-04 1.69262E-01 1.44570E-14 3.11130E-13
 -1      1552 1.94703E+01-2.46660E-02 6.68365E-03 2.96606E-01 2.18406E-14 3.37906E-13
 -1      1553 1.86049E+01-8.16068E-03 2.39959E-03 2.30328E-01-6.31799E-14 2.47630E-13
 -1      1554 1.89067E+01-1.96245E-02 1.24156E-04 2.14977E-01-5.27577E-14 1.83333E-13
 -1      1555 1.90751E+01-2.25736E-02 6.91398E-03 3.87209E-01-3.15577E-14 2.09362E-13
 -1      1556 1.79825E+01-2.44305E-03-7.29586E-06 2.58804E-01-1.04971E-13 3.48300E-13
 -1      1557 1.83344E+01-1.35065E-02-3.87823E-04 2.47165E-01-3.50553E-14 2.77658E-13
 -1      1558 1.85915E+01-1.42519E-02 5.88370E-03 4.58865E-01-1.01404E-13 3.21916E-13
 -1      1559 1.73324E+01 5.74504E-03-3.60842E-03 2.57485E-01 3.40907E-14 4.40504E-13
 -1      1560 1.76994E+01-2.43396E-03-1.35573E-03 2.53320E-01-2.07464E-14 3.76990E-13
 -1      1561 1.80555E+01 9.46184E-04 3.40434E-03 4.88109E-01-5.61000E-14 4.64337E-13
 -1      1562 1.67422E+01 1.47115E-02-7.63832E-03 2.17427E-01 1.03421E-13 3.91171E-13
 -1      1563 1.70741E+01 1.20660E-02-2.62605E-03 2.23585E-01 3.17346E-14 3.76572E-13
 -1      1564 1.75277E+01 2.12623E-02-2.25195E-04 4.53892E-01 3.87281E-14 2.16339E-13
 -1      1565 1.63088E+01 2.19078E-02-1.08211E-02 1.38724E-01-4.33451E-14 2.63657E-13
 -1      1566 1.65503E+01 2.66200E-02-3.77819E-03 1.55704E-01 3.59205E-14 4.03091E-13
 -1      1567 1.70850E+01 4.21236E-02-4.17624E-03 3.46756E-01 5.61929E-14 2.99503E-13
 -1      1568 1.61120E+01 2.49408E-02-1.18829E-02 3.30489E-02 7.11761E-14 9.02924E-15
 -1      1569 1.62181E+01 3.70308E-02-4.26014E-03 5.82355E-02 9.42484E-14 1.96416E-13
 -1      1570 1.68029E+01 5.72737E-02-7.35830E-03 1.76357E-01 1.38996E-13 3.08909E-13
 -1      1571 1.61895E+01 2.27381E-02-1.02075E-02-7.87581E-02 6.69551E-14-2.01615E-13
 -1      1572 1.61397E+01 4.00657E-02-3.67631E-03-5.05093E-02 8.59191E-14-1.37988E-13
 -1      1573 1.67336E+01 6.13564E-02-8.90245E-03-2.78095E-02 1.66879E-13 1.00140E-13
 -1      1574 1.65236E+01 1.60895E-02-6.23875E-03-1.73617E-01-6.90147E-14-1.19330E-13
 -1      1575 1.63291E+01 3.49762E-02-2.04603E-03-1.48215E-01-7.48377E-14-2.20167E-13
 -1      1576 1.68891E+01 5.25846E-02-8.55581E-03-2.24704E-01-5.88913E-14 2.47350E-14
 -1      1577 1.70469E+01 7.25493E-03-1.25472E-03-2.34312E-01 2.72300E-14-9.81732E-14
 -1      1578 1.67470E+01 2.38040E-02 1.54022E-04-2.16334E-01-7.27738E-15-4.58748E-14
 -1      1579 1.72367E+01 3.37519E-02-6.73110E-03-3.75749E-01-9.22799E-14-1.26989E-13
 -1      1580 1.76651E+01-1.15705E-03 3.24090E-03-2.54652E-01-6.85687E-14-5.53949E-14
 -1      1581 1.73140E+01 1.02957E-02 2.23205E-03-2.46014E-01 5.26153E-14-5.99590E-14
 -1      1582 1.77103E+01 1.08761E-02-4.23047E-03-4.57643E-01 3.02002E-14 1.89842E-13
 -1      1583 1.82842E+01-7.27293E-03 6.19241E-03-2.39460E-01 1.17465E-13-2.14353E-13
 -1      1584 1.79351E+01-1.84871E-03 3.60817E-03-2.39383E-01 5.86806E-14-1.02661E-13
 -1      1585 1.82311E+01-9.65092E-03-1.83809E-03-4.67742E-01 1.02931E-13 1.19051E-13
 -1      1586 1.88319E+01-1.04004E-02 7.30131E-03-2.00450E-01 1.77967E-13-3.06609E-13
 -1      1587 1.85254E+01-1.02896E-02 4.05187E-03-2.06427E-01 3.81240E-14-2.31915E-13
 -1      1588 1.87280E+01-2.35997E-02-4.18102E-05-4.20605E-01 1.37412E-13 4.36534E-14
 -1      1589 1.92677E+01-1.08456E-02 6.87791E-03-1.51014E-01-9.89098E-14-3.83528E-13
 -1      1590 1.90260E+01-1.43818E-02 3.68852E-03-1.60035E-01 1.41616E-14-2.93434E-13
 -1      1591 1.91519E+01-2.97741E-02 1.00608E-03-3.39422E-01 7.46556E-14 5.82117E-14
 -1      1592 1.95812E+01-9.43422E-03 5.51620E-03-1.02332E-01 6.37771E-14-3.47897E-13
 -1      1593 1.94092E+01-1.47506E-02 2.83555E-03-1.11803E-01 2.55132E-14-2.53104E-13
 -1      1594 1.94791E+01-2.93496E-02 1.38862E-03-2.47401E-01-2.04680E-14 2.27843E-14
 -1      1595 1.97840E+01-7.07072E-03 3.79471E-03-6.16413E-02-2.65046E-14-4.12179E-13
 -1      1596 1.96743E+01-1.26093E-02 1.82552E-03-6.98007E-02-1.81972E-15-4.67433E-13
 -1      1597 1.97080E+01-2.46208E-02 1.28947E-03-1.62295E-01 2.42983E-14 8.27157E-15
 -1      1598 1.99005E+01-4.47031E-03 2.14050E-03-3.22743E-02-1.36375E-14-3.11892E-13
 -1      1599 1.98388E+01-9.19327E-03 8.99048E-04-3.82011E-02-1.32017E-14-3.05730E-13
 -1      1600 1.98522E+01-1.79062E-02 9.03668E-04-9.45739E-02-2.67442E-14-1.27491E-13
 -1      1601 1.99590E+01-2.20630E-03 8.68157E-04-1.45015E-02 1.00429E-13-4.24508E-13
 -1      1602 1.99288E+01-5.55515E-03 1.95293E-04-1.79782E-02 5.04538E-14-3.79470E-13
 -1      1603 1.99328E+01-1.10196E-02 4.22081E-04-4.81432E-02 6.01236E-14 9.20548E-14
 -1      1604 1.99851E+01-8.85427E-04 1.80607E-04-5.96582E-03-1.06467E-13-4.12603E-13
 -1      1605 1.99719E+01-2.69129E-03-1.96254E-04-7.54217E-03-3.04479E-14-4.10871E-13
 -1      1606 1.99723E+01-5.34611E-03 9.83975E-05-2.16406E-02-2.44171E-14-1.72505E-14
 -1      1607 1.99960E+01-7.00404E-04 3.36690E-05-2.65408E-03-3.45814E-15-4.23606E-13
 -1      1608 1.99906E+01-1.23515E-03-1.74314E-04-3.09524E-03 6.16403E-14-3.58502E-13
 -1      1609 1.99901E+01-1.95278E-03 2.56564E-04-9.14065E-03 9.17733E-14 1.02502E-13
 -1      1610 1.99988E+01-1.15898E-03 2.22618E-04-7.61826E-04-2.18796E-13-2.36836E-13
 -1      1611 1.99997E+01-9.31498E-03 5.83470E-04-5.07579E-03 3.29955E-13 2.66891E-13
 -1      1612 1.99987E+01-4.51433E-03 3.01505E-04-4.24680E-03 1.47815E-14 4.19641E-13
 -1      1613 2.00033E+01-1.31194E-02 4.23677E-04-2.00925E-03 5.19520E-13 2.32783E-13
 -1      1614 2.00013E+01-1.11573E-02 3.57084E-04-3.10456E-03 4.20225E-13 3.68535E-14
 -1      1615 2.00002E+01-9.74445E-03-4.77527E-04-7.23883E-03 2.20922E-13 2.16802E-13
 -1      1616 2.00072E+01 5.48434E-03 7.45125E-05 1.12917E-02 7.41871E-13 9.00073E-14
 -1      1617 2.00053E+01-7.10117E-03 1.22724E-05 7.92726E-03 5.52542E-13 4.55555E-13
 -1      1618 2.00072E+01-7.28690E-03-1.27468E-03 7.10488E-03 3.37996E-13 3.08412E-13
 -1      1619 2.00101E+01 6.66087E-02-3.10900E-04 3.45743E-02 5.84564E-13-2.20250E-13
 -1      1620 2.00089E+01 2.77622E-02-4.42160E-04 2.92272E-02 8.45047E-13-1.24978E-13
 -1      1621 2.00132E+01 1.86346E-02-2.56399E-03 4.08315E-02 2.14939E-13 2.74968E-14
 -1      1622 2.00106E+01 1.82193E-01-6.20633E-04 6.33287E-02 2.30748E-13-2.04523E-13
 -1      1623 2.00110E+01 1.11274E-01-7.90105E-04 5.72839E-02 5.25212E-13-2.78391E-13
 -1      1624 2.00172E+01 8.34079E-02-3.37840E-03 9.02427E-02 3.12266E-13-4.74523E-13
 -1      1625 2.00079E+01 3.57593E-01-7.61576E-04 9.13253E-02 8.73100E-13 4.71441E-13
 -1      1626 2.00102E+01 2.52913E-01-9.80124E-04 8.59072E-02 4.04384E-13 2.68593E-13
 -1      1627 2.00170E+01 1.96643E-01-3.42581E-03 1.45397E-01 4.32698E-13 1.56802E-13
 -1      1628 2.00017E+01 5.75295E-01-6.21620E-04 1.08834E-01 1.10979E-12 8.60710E-14
 -1      1629 2.00059E+01 4.49426E-01-8.47766E-04 1.06224E-01 8.90328E-13 3.31639E-13
 -1      1630 2.00111E+01 3.58027E-01-2.47005E-03 1.91533E-01 5.98480E-13 4.74168E-13
 -1      1631 1.99927E+01 8.00381E-01-1.65472E-04 1.06634E-01 1.38519E-12 1.11658E-13
 -1      1632 1.99982E+01 6.75752E-01-3.53634E-04 1.08644E-01 1.31469E-12-3.61538E-15
 -1      1633 1.99994E+01 5.50376E-01-3.98791E-04 2.10310E-01 8.33183E-13 2.01614E-13
 -1      1634 1.99830E+01 9.83886E-01 5.33901E-04 7.87085E-02 1.40435E-12-1.49919E-13
 -1      1635 1.99883E+01 8.90197E-01 4.65826E-04 8.62795E-02 1.37464E-12 1.78909E-14
 -1      1636 1.99839E+01 7.42274E-01 2.50900E-03 1.86389E-01 1.03176E-12 7.48609E-14
 -1      1637 1.99757E+01 1.07413E+00 1.23537E-03 2.56378E-02 9.30134E-13-5.16703E-13
 -1      1638 1.99790E+01 1.04087E+00 1.43697E-03 3.81330E-02 1.37776E-12-2.42054E-13
 -1      1639 1.99684E+01 8.92089E-01 5.55115E-03 1.13169E-01 8.50994E-13-2.89388E-13
 -1      1640 1.99742E+01 1.03557E+00 1.58143E-03-4.17541E-02 3.88033E-13-6.14266E-15
 -1      1641 1.99736E+01 1.07975E+00 2.04868E-03-2.73936E-02 8.53618E-13-5.24774E-13
 -1      1642 1.99585E+01 9.58175E-01 7.75883E-03-3.32518E-04 6.68490E-13-7.42745E-13
 -1      1643 1.99810E+01 8.61421E-01 1.05320E-03-1.07440E-01 4.55179E-13 8.10619E-14
 -1      1644 1.99756E+01 9.82661E-01 1.95656E-03-9.48237E-02 3.51142E-13 3.35213E-13
 -1      1645 1.99594E+01 9.14446E-01 7.94536E-03-1.29690E-01 6.37752E-13-7.74684E-15
 -1      1646 1.99961E+01 5.89536E-01-6.68131E-04-1.46647E-01 2.30704E-13-1.25643E-13
 -1      1647 1.99865E+01 7.57819E-01 5.34712E-04-1.41460E-01 3.83350E-13-1.72810E-13
 -1      1648 1.99750E+01 7.59083E-01 5.49996E-03-2.37295E-01 3.69910E-13-1.42518E-13
 -1      1649 2.00169E+01 2.99956E-01-2.60870E-03-1.36466E-01 1.45410E-13-7.98001E-14
 -1      1650 2.00059E+01 4.60987E-01-2.20531E-03-1.44815E-01 9.35675E-14 2.17969E-14
 -1      1651 2.00053E+01 5.25461E-01 7.64615E-04-2.79526E-01 3.79254E-14-2.10744E-13
 -1      1652-3.42132E-01-1.46596E+01-1.52536E+00 6.03794E-02-2.27374E-13 1.43163E-13
 -1      1653-5.54680E-01-1.81379E+01-1.85134E+00 1.28530E+00-6.75127E-13 1.85074E-13
 -1      1654 1.88860E+00-7.26823E+00-1.08707E+00 1.30035E+00-5.83977E-14-1.42081E-13
 -1      1655 9.29569E-01-1.31661E+01-1.67727E+00 4.80430E-01-1.58984E-13 4.65045E-14
 -1      1656 8.24074E+00 8.04261E-01-4.27037E-01 5.97246E+00-8.21565E-14-1.50768E-13
 -1      1657 4.73566E+00-4.96382E+00-1.21849E+00 2.76284E+00-9.41469E-14-2.23599E-13
 -1      1658 2.18232E+01 5.50675E+00 4.06144E-01 1.13221E+01-8.94840E-14 2.33147E-14
 -1      1659 1.40837E+01 2.12369E+00-4.60784E-01 7.35626E+00-1.87295E-13-6.46150E-14
 -1      1660 3.59203E+01 7.81414E+00 1.16352E+00 1.43761E+01-1.07692E-13-2.32703E-13
 -1      1661 2.64864E+01 7.97661E+00 3.53989E-01 1.27012E+01-2.86882E-13-2.24931E-13
 -1      1662 4.94134E+01 5.81189E+00 1.59531E+00 1.16013E+01-1.48534E-13-1.24345E-14
 -1      1663 4.10208E+01 7.54414E+00 1.02389E+00 1.33928E+01-1.45328E-13-1.67422E-13
 -1      1664 5.81767E+01 3.99130E+00 1.85784E+00 4.89544E+00-6.65024E-14 8.31002E-14
 -1      1665 5.33006E+01 5.50245E+00 1.57798E+00 9.87673E+00-3.35981E-14-2.73115E-14
 -1      1666 5.74346E+01 4.39047E+00 1.69301E+00-4.31604E+00 1.49714E-13-1.90514E-13
 -1      1667 5.84310E+01 4.10177E+00 1.76774E+00 1.81825E+00 8.73746E-14 6.03129E-14
 -1      1668 4.93713E+01 6.32481E+00 1.36897E+00-1.14378E+01 2.66023E-13-7.03881E-13
 -1      1669 5.58253E+01 4.47474E+00 1.74669E+00-7.23588E+00 2.67536E-13-3.94906E-13
 -1      1670 3.52864E+01 8.05450E+00 7.51922E-01-1.36294E+01 6.78846E-13-8.74190E-13
 -1      1671 4.49758E+01 6.52791E+00 1.43602E+00-1.31079E+01 4.34902E-13-7.34079E-13
 -1      1672 2.02711E+01 6.88412E+00-1.19055E-02-1.09921E+01 7.12430E-13-8.92175E-13
 -1      1673 2.94626E+01 7.98088E+00 8.73966E-01-1.39886E+01 7.39298E-13-1.12577E-12
 -1      1674 9.12587E+00 9.41782E-01-7.61666E-01-5.67937E+00 4.86278E-13-5.94746E-13
 -1      1675 1.49990E+01 5.48315E+00 1.30295E-01-9.74603E+00 6.47038E-13-8.09686E-13
 -1      1676 2.98440E+00-7.69230E+00-1.37168E+00-1.59247E+00 2.90878E-13-3.08087E-13
 -1      1677 5.36719E+00-1.46300E+00-6.44296E-01-4.07498E+00 4.86278E-13-4.73843E-13
 -1      1678 3.39874E-01-1.54364E+01-1.74536E+00-6.30904E-01 4.93383E-13 3.23630E-14
 -1      1679 8.98511E-01-1.00759E+01-1.24743E+00-6.48098E-01 3.32068E-13-6.30607E-14
 -1      1680-9.21689E-01-1.90958E+01-1.94605E+00-1.72001E+00 2.73642E-13-1.02585E-13
 -1      1681-7.30727E-01-1.69402E+01-1.70292E+00-3.76309E-02 3.66374E-13-2.83662E-14
 -1      1682-1.34585E+00-1.76632E+01-1.98654E+00-2.96160E+00-2.42584E-13-2.90351E-13
 -1      1683-9.79033E-01-1.94974E+01-2.02968E+00-1.39144E+00 2.04795E-13-2.46692E-13
 -1      1684 3.40921E-01-1.13710E+01-1.72492E+00-1.64557E+00-6.92779E-13-6.51840E-13
 -1      1685-1.32722E-01-1.61854E+01-2.05718E+00-2.03728E+00-3.30402E-13-3.95628E-13
 -1      1686 5.79123E+00-3.86556E+00-1.31706E+00 2.18175E+00-8.04246E-13-7.86704E-13
 -1      1687 2.75677E+00-9.59343E+00-1.98587E+00-6.37104E-01-8.11351E-13-6.08902E-13
 -1      1688 1.87303E+01 2.30278E+00-3.93442E-01 8.26965E+00-9.49019E-13-1.47615E-12
 -1      1689 1.06226E+01-2.13827E+00-1.53430E+00 3.70670E+00-8.04690E-13-1.12044E-12
 -1      1690 4.02706E+01 3.95586E+00 1.12162E+00 1.13266E+01-8.39884E-13-1.97464E-12
 -1      1691 2.66675E+01 2.85129E+00-4.32378E-01 8.43018E+00-9.66227E-13-1.53122E-12
 -1      1692 6.04870E+01 3.81745E+00 2.83406E+00 7.85735E+00-5.37816E-13-2.21712E-12
 -1      1693 4.72843E+01 4.88944E+00 1.27909E+00 9.87963E+00-7.06213E-13-2.16005E-12
 -1      1694 7.01927E+01 3.79292E+00 3.73317E+00 7.08564E-01-1.50879E-13-2.16585E-12
 -1      1695 6.48588E+01 4.52470E+00 3.02526E+00 6.61837E+00-4.41702E-13-2.19536E-12
 -1      1696 6.57928E+01 4.52959E+00 3.21270E+00-6.92133E+00 2.82052E-13-1.96598E-12
 -1      1697 7.06894E+01 3.78635E+00 3.81220E+00-1.09530E+00 1.06359E-13-1.97248E-12
 -1      1698 4.96897E+01 4.79746E+00 1.52844E+00-9.97543E+00 2.06168E-13-1.40266E-12
 -1      1699 6.15513E+01 3.78106E+00 2.94948E+00-7.96819E+00 2.04635E-13-1.86562E-12
 -1      1700 3.15301E+01 4.40990E+00 8.39406E-02-1.03402E+01 4.86833E-13-8.48432E-13
 -1      1701 4.36291E+01 4.91624E+00 1.55018E+00-1.21005E+01 3.57270E-13-1.09601E-12
 -1      1702 1.70037E+01-1.74857E-01-9.77092E-01-5.80740E+00 3.90354E-13-6.09290E-13
 -1      1703 2.56222E+01 2.77408E+00 5.93104E-02-9.57821E+00 4.44533E-13-7.02771E-13
 -1      1704 6.71428E+00-5.42317E+00-1.67727E+00-1.49476E+00-1.14797E-13-4.10338E-13
 -1      1705 1.15014E+01-4.59023E-01-8.79096E-01-5.05763E+00 3.43725E-13-7.06990E-13
 -1      1706 2.15772E+01-4.67659E+00-5.61749E-01-5.37106E+00 3.13194E-13-7.80820E-13
 -1      1707 9.35307E-01-1.29939E+01-2.06176E+00 1.72048E+00-5.88196E-13-3.90521E-14
 -1      1708 2.21652E+00-7.72577E+00-1.61502E+00 1.34906E-01-2.77556E-13-3.25129E-13
 -1      1709-7.27271E-01-1.82718E+01-2.11309E+00 2.10021E+00-4.97102E-13 1.64507E-13
 -1      1710-8.37764E-01-1.46389E+01-1.91348E+00 2.68660E+00-5.65881E-13 2.65427E-13
 -1      1711-9.81327E-01-1.93664E+01-1.95191E+00 7.47964E-01-7.35245E-13-6.99441E-14
 -1      1712-1.28089E+00-1.90038E+01-2.01956E+00 2.57879E+00-5.68934E-13 3.83027E-15
 -1      1713 2.00613E+01 5.40561E-02-2.89757E-03-7.56301E-02-1.20790E-13 3.19007E-14
 -1      1714 7.03943E+00-6.64840E+00-7.36939E-01 5.82451E+00-1.39555E-13-1.99549E-13
 -1      1715 1.99981E+01-2.10360E-03 4.67613E-04-3.15952E-03-1.88953E-13 1.92306E-13
 -1      1716 1.99957E+01-4.57797E-03-1.67817E-04-7.33661E-03 9.74483E-14 5.67765E-13
 -1      1717-1.69735E+00-1.26522E+01-1.33698E+00 1.92738E+00-2.96235E-13 1.64646E-13
 -1      1718 1.03350E+00-1.04685E+01-1.14213E+00 3.70972E+00-2.43250E-13 1.93678E-13
 -1      1719 2.00281E+01 8.99047E-02-2.29104E-04-7.37675E-02-1.14105E-13-2.13855E-13
 -1      1720 2.00256E+01 1.81811E-01-4.78445E-03-9.67894E-02 1.69765E-13-2.55656E-13
 -1      1721 2.00344E+01 2.80409E-01-4.36094E-03-2.26498E-01-2.29393E-13-2.13930E-13
 -1      1722 1.73133E+01-2.45115E+00-8.39823E-02 7.90439E+00 7.67164E-14 6.68354E-14
 -1      1723 2.78186E+01 1.53994E+00 2.47037E-01 8.21719E+00-2.16105E-13-1.63314E-13
 -1      1724 3.82422E+01 5.67243E+00 9.59923E-01 8.11516E+00-1.40166E-13-3.71259E-13
 -1      1725 4.64585E+01 7.23503E+00 1.36008E+00 5.52135E+00-1.85629E-13-1.32561E-13
 -1      1726 5.02940E+01 8.13316E+00 1.54269E+00 1.66356E+00 1.32727E-13-1.15852E-13
 -1      1727 4.90739E+01 8.12189E+00 1.47089E+00-2.72534E+00 2.93932E-13-1.74027E-13
 -1      1728 4.37640E+01 6.81278E+00 1.22657E+00-6.48287E+00 4.62727E-13-5.76983E-13
 -1      1729 3.41962E+01 4.76091E+00 7.86492E-01-8.74330E+00 5.06151E-13-4.42424E-13
 -1      1730 2.27316E+01 1.36701E+00 1.88657E-01-8.74452E+00 3.46834E-13-6.51035E-13
 -1      1731 1.22649E+01-3.31080E+00-4.33022E-01-7.05735E+00 3.06977E-13-5.88696E-13
 -1      1732 4.51836E+00-8.10475E+00-9.21431E-01-5.01315E+00 4.85056E-13-2.94556E-13
 -1      1733-2.84839E-01-1.14622E+01-1.22337E+00-3.15369E+00 1.65312E-13 4.99600E-14
 -1      1734-1.98890E+00-1.31771E+01-1.43904E+00-1.22888E+00-1.47528E-13-3.38396E-13
 -1      1735-8.74314E-02-1.24378E+01-1.44523E+00 7.65455E-01-2.39475E-13-6.02907E-13
 -1      1736 5.28216E+00-9.72136E+00-1.30896E+00 2.85759E+00-4.62075E-13-6.45768E-13
 -1      1737 1.48596E+01-6.20275E+00-9.15479E-01 4.75201E+00-6.19726E-13-9.05387E-13
 -1      1738 2.95469E+01-2.53447E+00 3.51422E-02 5.19930E+00-5.93525E-13-1.28675E-12
 -1      1739 4.43915E+01 1.46741E+00 1.20440E+00 2.52115E+00-4.52527E-13-1.70797E-12
 -1      1740 5.37950E+01 6.26419E+00 2.29851E+00 4.54353E-01-4.23994E-13-1.88427E-12
 -1      1741 5.88119E+01 8.47897E+00 3.09376E+00 1.48335E-01-1.36779E-13-1.88304E-12
 -1      1742 5.50362E+01 6.48722E+00 2.43790E+00-5.74490E-01-2.03171E-14-1.58940E-12
 -1      1743 4.55846E+01 2.87866E+00 1.39792E+00-3.41838E+00 1.74777E-13-1.38556E-12
 -1      1744 3.37098E+01-1.87437E+00 1.43868E-01-4.98504E+00 2.79998E-13-8.24230E-13
 -1      1745 2.20948E+00-1.12346E+01-1.41960E+00-1.76262E+00-8.70415E-14-1.66561E-13
 -1      1746-1.33113E+00-1.32732E+01-1.50208E+00 1.10854E-01-2.57405E-13-3.32512E-14
 -1      1747 2.29228E+01 2.00773E+00-2.67483E-02-2.77973E+00-1.03511E-13 1.58096E-13
 -1      1748 1.00550E+01-7.78743E+00-1.13303E+00-3.93525E+00-1.19238E-13-6.75238E-13
 -1      1749 1.98232E+01 3.71745E+00-3.49172E-02-2.15570E+00-9.92661E-14-2.73986E-13
 -1      1750 2.00527E+01 3.56062E+00-4.25075E-02-2.44299E+00-1.23495E-13-2.45096E-13
 -1      1751 2.03669E+01 3.17995E+00-4.50435E-02-2.58628E+00-1.36430E-13-2.10651E-13
 -1      1752 2.05839E+01 2.81612E+00-1.39077E-01-2.86460E+00-1.55192E-13-1.66471E-13
 -1      1753 2.04318E+01 2.68604E+00-3.71570E-03-2.22166E+00-1.38036E-13-2.15172E-13
 -1      1754 1.93549E+01 4.18886E+00-2.02014E-02-1.27052E+00-2.27305E-14-2.59386E-13
 -1      1755 1.94284E+01 4.14909E+00-1.71793E-02-1.49498E+00-3.87910E-14-2.67234E-13
 -1      1756 1.92581E+01 4.29472E+00-1.68179E-02-8.59663E-01 6.86148E-15-2.44279E-13
 -1      1757 1.93009E+01 4.27073E+00-1.43668E-02-1.07045E+00-7.69567E-15-2.57398E-13
 -1      1758 1.95267E+01 3.78289E+00-9.30139E-03-1.11949E+00-2.00744E-14-2.45755E-13
 -1      1759 1.92063E+01 4.35528E+00-1.48154E-02-4.66860E-01 5.05098E-14-2.28860E-13
 -1      1760 1.92284E+01 4.34241E+00-1.33256E-02-6.67118E-01 3.59467E-14-2.37432E-13
 -1      1761 1.94294E+01 3.90342E+00-9.22679E-03-7.33145E-01 2.56888E-14-2.30265E-13
 -1      1762 1.91868E+01 4.38097E+00-1.36711E-02-8.38556E-02 8.80278E-14-2.14656E-13
 -1      1763 1.91933E+01 4.37703E+00-1.32201E-02-2.79235E-01 7.56700E-14-2.21399E-13
 -1      1764 1.93789E+01 3.96806E+00-9.15890E-03-3.58373E-01 6.66211E-14-2.16029E-13
 -1      1765 1.91949E+01 4.37568E+00-1.31693E-02 2.97755E-01 1.12566E-13-2.03859E-13
 -1      1766 1.91873E+01 4.38014E+00-1.37539E-02 1.02207E-01 1.06695E-13-2.13430E-13
 -1      1767 1.93640E+01 3.98752E+00-9.14626E-03 1.02911E-02 1.04284E-13-2.02539E-13
 -1      1768 1.92323E+01 4.33847E+00-1.33266E-02 6.86372E-01 1.31565E-13-1.83700E-13
 -1      1769 1.92090E+01 4.35217E+00-1.49166E-02 4.85620E-01 1.20088E-13-1.98615E-13
 -1      1770 1.93815E+01 3.96480E+00-9.18437E-03 3.79191E-01 1.21417E-13-1.93146E-13
 -1      1771 1.93060E+01 4.26505E+00-1.44047E-02 1.08394E+00 1.53832E-13-1.55546E-13
 -1      1772 1.92625E+01 4.28951E+00-1.69761E-02 8.76007E-01 1.43278E-13-1.77126E-13
 -1      1773 1.94344E+01 3.89727E+00-9.19214E-03 7.51229E-01 1.50263E-13-1.73864E-13
 -1      1774 1.94378E+01 4.13783E+00-1.74159E-02 1.51391E+00 1.81105E-13-9.42788E-14
 -1      1775 1.93612E+01 4.18036E+00-2.05128E-02 1.28441E+00 1.62181E-13-1.26661E-13
 -1      1776 1.95343E+01 3.77325E+00-9.25441E-03 1.13490E+00 1.73496E-13-1.34238E-13
 -1      1777 1.96668E+01 3.92132E+00-2.53016E-02 1.97897E+00 2.02827E-13-2.12191E-14
 -1      1778 1.95343E+01 3.99818E+00-2.68982E-02 1.72161E+00 1.89875E-13-6.41084E-14
 -1      1779 1.97077E+01 3.56592E+00-8.87170E-03 1.53463E+00 1.94275E-13-6.74842E-14
 -1      1780 2.00787E+01 3.52277E+00-4.42878E-02 2.47547E+00 2.08143E-13 8.81517E-14
 -1      1781 1.98413E+01 3.68399E+00-3.78956E-02 2.18086E+00 2.00629E-13 1.61884E-14
 -1      1782 2.00023E+01 3.22122E+00-6.61855E-03 1.93145E+00 2.15584E-13 8.52790E-15
 -1      1783 2.09192E+01 2.66931E+00-6.21164E-02 2.85457E+00 1.86529E-13 3.01682E-13
 -1      1784 2.04128E+01 3.10025E+00-4.96517E-02 2.61245E+00 1.91644E-13 1.82791E-13
 -1      1785 2.04974E+01 2.60858E+00-1.02051E-03 2.23789E+00 2.10033E-13 1.35572E-13
 -1      1786 2.17299E+01 1.21133E+00-1.23335E-01 2.32827E+00 1.45599E-13 5.26579E-13
 -1      1787 2.12777E+01 2.27251E+00 3.42784E-03 2.74104E+00 1.68322E-13 3.79460E-13
 -1      1788 2.09595E+01 1.68882E+00-1.35989E-02 2.14492E+00 1.84587E-13 2.91996E-13
 -1      1789 2.09602E+01 7.78901E-01-6.04436E-02 1.52318E+00 1.30423E-13 4.78730E-13
 -1      1790 2.18224E+01 2.49038E+00 9.18499E-02-3.08624E+00-1.30047E-13-5.70100E-14
 -1      1791 2.01070E+01 2.96250E-01-8.12648E-03 6.58049E-01 1.33036E-13 3.90500E-13
 -1      1792 2.06493E+01 4.38095E-01-1.47485E-02 1.03356E+00 1.15595E-13 4.40257E-13
 -1      1793 2.07500E+01 8.50553E-01 6.99041E-03 1.40847E+00 1.38469E-13 3.38826E-13
 -1      1794 1.08532E+01-7.88480E+00-6.58465E-01-4.55843E+00-1.04028E-13-6.99360E-13
 -1      1795 1.66377E+01-6.21408E+00-3.06139E-01-5.56740E+00-4.45199E-14-8.58841E-13
 -1      1796 2.05536E+01 5.24370E-01 3.09213E-02-9.59945E-01-1.32266E-13-1.14354E-13
 -1      1797 2.01140E+01 3.65738E-01 6.82425E-03-6.54494E-01-1.14544E-13-1.41895E-13
 -1      1798 1.99178E+01 2.66258E-01 2.77467E-02-4.09712E-01-1.05529E-13-1.38285E-13
 -1      1799 1.97195E+01 1.84178E-01 1.04572E-02-2.66705E-01-8.79349E-14-1.57662E-13
 -1      1800 2.02188E+01 5.01293E-01-6.12502E-03-7.49759E-01-1.23807E-13-1.80957E-13
 -1      1801 1.95945E+01 1.37148E-01 1.70775E-02-1.29236E-01-8.68420E-14-1.56864E-13
 -1      1802 1.95124E+01 9.62347E-02 7.10407E-03-5.60432E-02-6.62066E-14-1.82507E-13
 -1      1803 1.98867E+01 2.52276E-01-5.89273E-03-3.10735E-01-1.06241E-13-1.70028E-13
 -1      1804 1.94454E+01 7.08228E-02 8.96027E-03 1.97571E-02-5.33633E-14-1.76260E-13
 -1      1805 1.94287E+01 4.84883E-02 4.20723E-03 5.72256E-02-4.07278E-14-1.87110E-13
 -1      1806 1.96988E+01 1.29602E-01-4.72011E-03-6.68350E-02-7.01952E-14-1.60237E-13
 -1      1807 1.94013E+01 3.37639E-02 4.38850E-03 9.72706E-02-5.59454E-14-1.93039E-13
 -1      1808 1.94201E+01 2.09769E-02 2.49507E-03 1.14784E-01-6.68953E-14-1.92823E-13
 -1      1809 1.96088E+01 6.33718E-02-3.52988E-03 6.68154E-02-6.72460E-14-1.88654E-13
 -1      1810 1.94176E+01 1.21202E-02 1.93972E-03 1.33511E-01-6.23807E-14-1.57815E-13
 -1      1811 1.94542E+01 4.74329E-03 1.49195E-03 1.39373E-01-4.12834E-14-1.70374E-13
 -1      1812 1.95825E+01 2.54673E-02-2.39257E-03 1.35659E-01-5.30760E-14-1.60011E-13
 -1      1813 1.94664E+01-5.78962E-04 6.02598E-04 1.45258E-01-6.09903E-14-1.94635E-13
 -1      1814 1.95107E+01-4.67166E-03 8.68751E-04 1.44306E-01-4.87364E-14-2.13053E-13
 -1      1815 1.95949E+01 3.36359E-03-1.47990E-03 1.65474E-01-7.72468E-14-1.47855E-13
 -1      1816 1.95306E+01-7.73360E-03-1.38203E-04 1.42605E-01-3.57211E-14-2.29076E-13
 -1      1817 1.95763E+01-9.74849E-03 4.69533E-04 1.37854E-01-2.09097E-14-2.04724E-13
 -1      1818 1.96292E+01-9.21838E-03-8.25253E-04 1.71803E-01-4.83731E-14-1.73562E-13
 -1      1819 1.95996E+01-1.13192E-02-5.34315E-04 1.31955E-01-3.66088E-14-2.08039E-13
 -1      1820 1.96432E+01-1.19955E-02 2.18960E-04 1.25354E-01-3.24832E-14-2.16869E-13
 -1      1821 1.96741E+01-1.57726E-02-3.87724E-04 1.64476E-01-2.63490E-14-1.96318E-13
 -1      1822 1.96671E+01-1.25707E-02-7.18507E-04 1.17489E-01-4.45253E-14-2.25435E-13
 -1      1823 1.97069E+01-1.23818E-02 7.46928E-05 1.10316E-01-1.79743E-14-2.68045E-13
 -1      1824 1.97226E+01-1.84162E-02-1.13380E-04 1.49908E-01-4.57428E-14-1.54340E-13
 -1      1825 1.97298E+01-1.22901E-02-7.68600E-04 1.01967E-01-1.25511E-14-2.99971E-13
 -1      1826 1.97650E+01-1.15409E-02 1.05938E-05 9.50651E-02-3.44513E-14-3.07197E-13
 -1      1827 1.97705E+01-1.85004E-02 4.32978E-05 1.32353E-01-3.77887E-14-2.27802E-13
 -1      1828 1.97863E+01-1.09937E-02-7.32739E-04 8.72285E-02-6.54813E-14-2.77056E-13
 -1      1829 1.98170E+01-9.88286E-03-9.61306E-06 8.11560E-02-6.90208E-14-2.72856E-13
 -1      1830 1.98154E+01-1.68979E-02 1.15129E-04 1.14652E-01-2.76588E-14-2.13308E-13
 -1      1831 1.98355E+01-9.12570E-03-6.62408E-04 7.48425E-02 5.55182E-15-2.96344E-13
 -1      1832 1.98612E+01-7.74247E-03 4.88123E-05 7.01838E-02 6.25706E-14-2.05847E-13
 -1      1833 1.98558E+01-1.41841E-02 1.63640E-04 9.90601E-02-3.64938E-14-1.17030E-13
 -1      1834 1.98793E+01-6.61668E-03-5.27742E-04 6.51391E-02 8.02435E-14-1.95993E-13
 -1      1835 1.99036E+01-4.98714E-03 1.65662E-04 6.17776E-02 1.00280E-13-1.87541E-13
 -1      1836 1.98927E+01-1.07598E-02 9.32453E-05 8.65405E-02 6.76742E-14-1.02018E-13
 -1      1837 1.99206E+01-3.61010E-03-3.90677E-04 5.88816E-02 8.04024E-14-2.13697E-13
 -1      1838 1.99434E+01-1.64658E-03 3.40252E-04 5.73991E-02 5.39155E-14-1.57581E-13
 -1      1839 1.99281E+01-6.39636E-03 2.77285E-05 7.78385E-02 8.55560E-14-1.48517E-13
 -1      1840 1.99604E+01 6.53197E-05-2.31851E-04 5.71640E-02 1.88841E-14-1.67695E-13
 -1      1841 1.99834E+01 2.50514E-03 6.02693E-04 5.80086E-02 2.50152E-15-1.36247E-13
 -1      1842 1.99623E+01-1.08923E-03-6.93588E-05 7.44827E-02 5.63772E-14-2.47568E-13
 -1      1843 2.00015E+01 4.71348E-03-5.65308E-05 6.11409E-02-4.58233E-14-1.38230E-13
 -1      1844 2.00271E+01 7.91201E-03 9.91727E-04 6.49834E-02-3.54857E-14-1.48949E-13
 -1      1845 1.99975E+01 5.59114E-03-1.94695E-04 7.78497E-02 6.56730E-15-1.45322E-13
 -1      1846 2.00478E+01 1.08978E-02 1.38495E-04 7.25448E-02 2.40680E-14-1.29402E-13
 -1      1847 2.00791E+01 1.53206E-02 1.56963E-03 8.04440E-02 7.74782E-14-1.36911E-13
 -1      1848 2.00364E+01 1.44226E-02-3.47661E-04 8.99085E-02 1.92621E-14-7.28417E-14
 -1      1849 2.01041E+01 1.95418E-02 3.58631E-04 9.40802E-02-1.74357E-14-1.35598E-13
 -1      1850 2.01455E+01 2.59294E-02 2.43280E-03 1.07723E-01-7.01471E-14-1.40145E-13
 -1      1851 2.00823E+01 2.66949E-02-5.26267E-04 1.13648E-01 1.78878E-14-8.47103E-14
 -1      1852 2.01771E+01 3.21109E-02 6.08244E-04 1.29992E-01-7.94997E-14-1.51523E-13
 -1      1853 2.02346E+01 4.16203E-02 3.72530E-03 1.52051E-01-3.00985E-14-1.27523E-13
 -1      1854 2.01396E+01 4.44641E-02-7.21970E-04 1.53682E-01-6.07634E-14-1.27565E-13
 -1      1855 2.02756E+01 5.08879E-02 8.83541E-04 1.86900E-01-3.95623E-14-1.55327E-13
 -1      1856 2.03579E+01 6.52959E-02 5.65219E-03 2.21569E-01-6.97966E-14-2.03724E-13
 -1      1857 2.02135E+01 7.09413E-02-9.10133E-04 2.17099E-01-4.79415E-14-1.43327E-13
 -1      1858 2.04115E+01 7.93606E-02 1.15564E-03 2.74994E-01-1.18447E-13-1.95148E-13
 -1      1859 2.05313E+01 1.01322E-01 8.48076E-03 3.28748E-01-7.67446E-14-2.10410E-13
 -1      1860 2.03106E+01 1.11042E-01-1.03418E-03 3.14663E-01-5.94212E-14-8.11880E-14
 -1      1861 2.06007E+01 1.22688E-01 1.33162E-03 4.09663E-01-6.11737E-14-3.20654E-13
 -1      1862 2.07762E+01 1.55968E-01 1.24976E-02 4.92249E-01-7.17091E-14-3.31176E-13
 -1      1863 2.04382E+01 1.72055E-01-9.83718E-04 4.62388E-01-1.65410E-13-7.49969E-14
 -1      1864 2.08642E+01 1.88021E-01 1.17453E-03 6.13428E-01-2.95137E-14-3.80048E-13
 -1      1865 2.11210E+01 2.37382E-01 1.78562E-02 7.38848E-01 8.87450E-14-3.43143E-13
 -1      1866 2.06040E+01 2.64146E-01-5.75417E-04 6.83328E-01-4.45082E-14-2.05850E-13
 -1      1867 2.12278E+01 2.83905E-01 1.84404E-04 9.17473E-01 4.73198E-14-3.88942E-13
 -1      1868 2.15996E+01 3.53680E-01 2.42358E-02 1.10400E+00-3.58637E-14-3.71513E-13
 -1      1869 2.08135E+01 3.99681E-01 4.38617E-04 1.00891E+00-1.02522E-15-3.20519E-13
 -1      1870 2.17216E+01 4.16453E-01-2.40384E-03 1.36044E+00-1.25223E-13-3.79939E-13
 -1      1871 2.22494E+01 5.05346E-01 3.04179E-02 1.62679E+00-1.83570E-13-4.44825E-13
 -1      1872 2.10671E+01 5.88415E-01 2.29890E-03 1.47775E+00-7.93966E-14-4.53882E-13
 -1      1873 2.23792E+01 5.75271E-01-7.10540E-03 1.97810E+00-1.02118E-13-3.93301E-13
 -1      1874 2.30991E+01 6.62753E-01 3.37549E-02 2.32897E+00-1.28664E-14-3.68225E-13
 -1      1875 2.13562E+01 8.21032E-01 5.09225E-03 2.12745E+00-9.08839E-14-2.89199E-13
 -1      1876 2.32253E+01 6.98343E-01-1.12792E-02 2.75059E+00 4.59034E-14-4.23660E-13
 -1      1877 2.41233E+01 7.12590E-01 3.23241E-02 3.11420E+00 3.80303E-14-3.26489E-13
 -1      1878 2.16636E+01 1.02567E+00 1.08262E-02 2.94360E+00 1.49533E-14-2.78886E-13
 -1      1879 2.43330E+01 6.25803E-01 1.86715E-03 3.58200E+00 2.92409E-14-3.26622E-13
 -1      1880 2.54709E+01 3.88199E-01 3.22945E-02 3.83023E+00-5.12090E-15-3.67102E-13
 -1      1881 2.20138E+01 9.89400E-01 1.28819E-02 3.88188E+00-3.41819E-14-2.74210E-13
 -1      1882 2.59807E+01-5.93808E-02 5.57206E-02 4.11643E+00-4.05578E-14-3.99694E-13
 -1      1883 2.72496E+01-8.31647E-01 3.32155E-02 3.82719E+00-2.76723E-14-4.11301E-13
 -1      1884 2.26122E+01 2.20464E-01 1.35388E-02 4.71813E+00 7.86871E-15-2.08798E-13
 -1      1885 2.85302E+01-1.80105E+00 1.48317E-01 3.46751E+00-4.95021E-14-3.51809E-13
 -1      1886 2.96689E+01-3.01542E+00 6.87011E-02 2.28085E+00 2.58404E-14-4.24563E-13
 -1      1887 2.40327E+01-1.94570E+00-1.52163E-02 4.86257E+00-3.09197E-14-2.81060E-13
 -1      1888 4.47814E+01 5.57151E+00 3.96224E-01-4.08563E-01-5.72875E-14-1.25615E-12
 -1      1889 4.50358E+01 4.95220E+00 5.44690E-01 1.88078E+00-1.42664E-13-1.15194E-12
 -1      1890 3.56000E+01-2.51586E+00-9.18284E-02 3.47217E+00-1.84540E-13-5.45508E-13
 -1      1891 3.51453E+01-4.11720E+00 7.64278E-03 1.61409E+00-1.57624E-13-6.15674E-13
 -1      1892 3.15766E+01-3.85249E+00 1.47803E-02-5.16973E-01-4.79616E-14-5.35266E-13
 -1      1893 3.04968E+01-2.95029E+00 1.55513E-01-2.25562E+00 9.17322E-14-3.26815E-13
 -1      1894 2.85957E+01-1.83009E+00 2.61204E-02-3.19723E+00 1.32519E-13-2.90826E-13
 -1      1895 2.74046E+01-7.99874E-01 1.07736E-01-3.92254E+00 1.92686E-13-3.60991E-13
 -1      1896 2.60873E+01-3.33240E+00-9.95586E-03-4.06799E+00 1.30146E-13-3.43239E-13
 -1      1897 2.64603E+01-1.23518E-01 2.08976E-02-3.95260E+00 2.85549E-13-3.41869E-13
 -1      1898 2.52589E+01 3.75912E-01 2.87106E-02-3.91673E+00 2.16670E-13-4.18113E-13
 -1      1899 2.37155E+01-6.98234E-01 4.34381E-03-4.80735E+00 2.00069E-13-4.61152E-13
 -1      1900 2.48493E+01 5.68899E-01 2.30175E-02-3.52712E+00 1.39311E-13-3.57343E-13
 -1      1901 2.37975E+01 6.74720E-01-5.06517E-03-3.18368E+00 1.70361E-13-2.19793E-13
 -1      1902 2.26168E+01 6.50709E-01 4.21495E-03-4.31764E+00 2.21760E-13-2.73582E-13
 -1      1903 2.35610E+01 6.61935E-01 2.78009E-02-2.73020E+00 3.68663E-13-4.95159E-13
 -1      1904 2.27179E+01 6.12987E-01-8.04626E-03-2.35725E+00 2.07001E-13-4.57951E-13
 -1      1905 2.20208E+01 9.69079E-01 4.90115E-03-3.41200E+00 2.32795E-13-3.01943E-13
 -1      1906 2.25267E+01 5.43661E-01 2.82768E-02-1.97159E+00 4.45824E-15-2.31100E-13
 -1      1907 2.18909E+01 4.62087E-01-3.83320E-03-1.66887E+00 4.24105E-14-1.68021E-13
 -1      1908 2.15657E+01 8.52551E-01 3.93314E-03-2.52223E+00 2.39806E-13-5.63565E-13
 -1      1909 2.17212E+01 3.94705E-01 2.44537E-02-1.37763E+00 1.63914E-13-1.90131E-13
 -1      1910 2.12605E+01 3.24742E-01-2.78653E-04-1.15721E+00 2.08143E-13-1.81618E-13
 -1      1911 2.11674E+01 6.37696E-01 2.41758E-03-1.79967E+00 1.05176E-13-2.72210E-13
 -1      1912 2.11143E+01 2.76013E-01 1.89646E-02-9.47375E-01-5.02541E-14-2.36995E-13
 -1      1913 2.07899E+01 2.28960E-01 1.88033E-03-7.90905E-01-1.51575E-13-1.86920E-13
 -1      1914 2.08236E+01 4.49861E-01 9.73198E-04-1.26003E+00-2.06441E-14-3.70537E-13
 -1      1915 2.06684E+01 2.01673E-01 1.37255E-02-6.37871E-01-3.28826E-14-4.01740E-14
 -1      1916 2.04464E+01 1.75818E-01 2.33349E-03-5.19756E-01-8.09504E-14 1.02727E-13
 -1      1917 2.05388E+01 3.21179E-01-6.75209E-04-8.67857E-01 4.76732E-14-3.40167E-13
 -1      1918 2.03508E+01 1.64228E-01 8.55601E-03-4.00915E-01-1.20111E-13 2.69195E-14
 -1      1919 2.02049E+01 1.55018E-01 1.41327E-03-3.03768E-01-1.27737E-13-1.49042E-13
 -1      1920 2.03118E+01 2.50092E-01-3.25825E-03-5.71964E-01-1.42242E-13-4.38283E-14
 -1      1921 1.96215E+01 1.38869E-01 7.34808E-03 2.57954E-01 1.13895E-13 3.11754E-13
 -1      1922 1.98868E+01 2.05294E-01 1.51378E-02 4.30924E-01 1.08823E-13 3.50383E-13
 -1      1923 2.01095E+01 3.64363E-01 6.09133E-03 6.56187E-01 1.33091E-13 2.62600E-13
 -1      1924 1.18136E+01-4.71742E+00-5.69717E-02 7.90123E+00-1.03029E-13-5.53446E-14
 -1      1925 7.82608E+00-6.59387E+00-3.51380E-01 6.65010E+00-2.58460E-13-5.13617E-14
 -1      1926 1.93791E+01 7.07973E-02 6.61540E-03 5.49799E-02 8.31757E-14 2.47601E-13
 -1      1927 1.94911E+01 1.02449E-01 1.36158E-02 1.43942E-01 8.77336E-14 2.95156E-13
 -1      1928 1.97152E+01 1.70845E-01 1.05613E-03 2.59345E-01 1.07870E-13 2.17116E-13
 -1      1929 1.92893E+01 3.61282E-02 4.35199E-03-4.96995E-02 2.90566E-15 2.57841E-13
 -1      1930 1.93189E+01 5.20470E-02 8.25701E-03-2.39389E-03 5.07389E-14 2.46476E-13
 -1      1931 1.95136E+01 8.06850E-02-2.48793E-03 4.41310E-02 5.11778E-14 1.89343E-13
 -1      1932 1.92881E+01 1.63410E-02 2.82765E-03-1.02463E-01-4.12483E-14 2.36668E-13
 -1      1933 1.92725E+01 2.52017E-02 4.31571E-03-7.77331E-02-1.55344E-14 2.57452E-13
 -1      1934 1.94335E+01 3.76315E-02-2.94141E-03-6.85986E-02-1.69287E-15 1.71798E-13
 -1      1935 1.93361E+01 4.74791E-03 1.98842E-03-1.24840E-01-2.90816E-15 2.00187E-13
 -1      1936 1.92973E+01 9.76870E-03 2.13427E-03-1.13275E-01-2.74976E-14 2.14112E-13
 -1      1937 1.94277E+01 1.38665E-02-2.34500E-03-1.24541E-01-1.70167E-14 1.19226E-13
 -1      1938 1.94087E+01-1.98638E-03 1.45999E-03-1.29403E-01 3.67095E-14 1.73467E-13
 -1      1939 1.93596E+01 7.40650E-04 9.54888E-04-1.25731E-01 1.80293E-14 1.98374E-13
 -1      1940 1.94630E+01 3.42090E-04-1.70456E-03-1.47474E-01 1.68937E-14 8.36757E-14
 -1      1941 1.94905E+01-5.67851E-03 1.08551E-03-1.23737E-01 1.24727E-13 1.41273E-13
 -1      1942 1.94388E+01-4.38350E-03 2.89775E-04-1.24729E-01 7.28814E-14 1.51635E-13
 -1      1943 1.95197E+01-7.17288E-03-1.18081E-03-1.50975E-01 9.33987E-14 8.31944E-14
 -1      1944 1.95727E+01-7.40488E-03 8.07550E-04-1.12648E-01-2.25992E-14 1.45122E-13
 -1      1945 1.95227E+01-7.01381E-03-8.78997E-05-1.16227E-01 6.15671E-14 1.52906E-13
 -1      1946 1.95850E+01-1.09496E-02-7.92083E-04-1.43384E-01 8.24093E-14 1.16450E-13
 -1      1947 1.96499E+01-7.84756E-03 6.00859E-04-9.92538E-02 4.80089E-14 1.21411E-13
 -1      1948 1.96041E+01-8.02109E-03-2.90593E-04-1.04050E-01 6.04172E-16 1.26000E-13
 -1      1949 1.96514E+01-1.23395E-02-5.16202E-04-1.30038E-01 1.98556E-14 9.82090E-14
 -1      1950 1.97198E+01-7.46001E-03 4.49975E-04-8.55854E-02 1.42373E-13 6.81108E-14
 -1      1951 1.96791E+01-7.97223E-03-3.81285E-04-9.06893E-02 1.04448E-13 1.15817E-13
 -1      1952 1.97144E+01-1.21984E-02-3.26763E-04-1.14423E-01 9.94102E-14 3.18295E-14
 -1      1953 1.97816E+01-6.55258E-03 3.43274E-04-7.29428E-02 1.26968E-13 7.53518E-15
 -1      1954 1.97461E+01-7.25033E-03-3.99694E-04-7.77570E-02 1.18020E-13 5.75958E-14
 -1      1955 1.97720E+01-1.10940E-02-2.01934E-04-9.88043E-02 1.53385E-13 2.47290E-14
 -1      1956 1.98356E+01-5.34293E-03 2.70976E-04-6.21207E-02 3.78430E-14-5.19545E-14
 -1      1957 1.98049E+01-6.12064E-03-3.72712E-04-6.62656E-02 7.29637E-14-2.55212E-14
 -1      1958 1.98234E+01-9.41472E-03-1.25088E-04-8.46253E-02 9.68115E-14-7.59654E-15
 -1      1959 1.98828E+01-3.99191E-03 2.23943E-04-5.35531E-02 1.40667E-14-9.24110E-14
 -1      1960 1.98563E+01-4.77348E-03-3.19459E-04-5.68064E-02 5.80035E-15-8.36821E-14
 -1      1961 1.98690E+01-7.43539E-03-8.36053E-05-7.27490E-02 3.88916E-14-9.06907E-14
 -1      1962 1.99249E+01-2.63362E-03 1.92532E-04-4.73948E-02 7.22883E-14-1.63175E-13
 -1      1963 1.99015E+01-3.35760E-03-2.54406E-04-4.96577E-02 5.95202E-14-1.26900E-13
 -1      1964 1.99095E+01-5.36643E-03-6.75867E-05-6.36138E-02 6.33610E-14-1.32655E-13
 -1      1965 1.99632E+01-1.40444E-03 1.65357E-04-4.35505E-02 9.18628E-14-1.61208E-13
 -1      1966 1.99420E+01-2.01040E-03-1.89684E-04-4.48378E-02 6.95559E-14-1.36638E-13
 -1      1967 1.99461E+01-3.39671E-03-6.87405E-05-5.73115E-02 8.74939E-14-1.37313E-13
 -1      1968 1.99992E+01-4.72974E-04 1.28005E-04-4.16489E-02-2.01066E-14-6.57580E-14
 -1      1969 1.99794E+01-8.88415E-04-1.36951E-04-4.21038E-02 6.14440E-14-9.79890E-14
 -1      1970 1.99802E+01-1.73586E-03-7.92635E-05-5.35986E-02 3.36823E-14-5.06807E-14
 -1      1971 2.00340E+01-7.07244E-05 6.19172E-05-4.09650E-02-1.45708E-13-1.31548E-13
 -1      1972 2.00150E+01-1.98938E-04-1.08949E-04-4.08989E-02-1.03448E-13-1.08082E-13
 -1      1973 2.00127E+01-6.57561E-04-9.06316E-05-5.18424E-02-6.15286E-14-7.52628E-14
 -1      1974 2.00678E+01-5.20042E-04-5.61440E-05-4.02894E-02-3.29408E-14-1.81914E-13
 -1      1975 2.00495E+01-2.30690E-04-1.20626E-04-4.02475E-02-6.29688E-14-1.32707E-13
 -1      1976 2.00444E+01-5.41809E-04-9.23071E-05-5.09009E-02-4.68038E-14-2.09401E-13
 -1      1977 2.00996E+01-2.25074E-03-2.53176E-04-3.77594E-02 3.06632E-14-2.05065E-13
 -1      1978 2.00826E+01-1.37751E-03-1.89481E-04-3.86062E-02-3.50335E-14-2.00875E-13
 -1      1979 2.00750E+01-1.90797E-03-7.02997E-05-4.89492E-02 1.87118E-14-2.09338E-13
 -1      1980 2.01268E+01-5.78889E-03-5.56399E-04-3.06830E-02 1.46127E-13-2.18534E-13
 -1      1981 2.01128E+01-4.14192E-03-3.34592E-04-3.36928E-02 1.23038E-13-1.50515E-13
 -1      1982 2.01033E+01-5.42187E-03-5.75399E-06-4.32745E-02 9.48279E-14-1.56288E-13
 -1      1983 2.01443E+01-1.16913E-02-9.85685E-04-1.54273E-02-8.83104E-15-2.16597E-13
 -1      1984 2.01364E+01-9.09595E-03-5.73573E-04-2.23473E-02 8.36896E-14-2.20558E-13
 -1      1985 2.01265E+01-1.18472E-02 1.25966E-04-3.01011E-02 1.17926E-13-2.22024E-13
 -1      1986 2.01443E+01-2.03896E-02-1.54104E-03 1.25085E-02-2.00057E-13-4.08869E-14
 -1      1987 2.01473E+01-1.67662E-02-9.16681E-04-5.16643E-04-1.64751E-13-1.49351E-13
 -1      1988 2.01394E+01-2.18979E-02 3.54690E-04-4.55582E-03-1.72648E-13-1.71148E-14
 -1      1989 2.01155E+01-3.19105E-02-2.18588E-03 5.80494E-02-1.92930E-13 1.70045E-13
 -1      1990 2.01359E+01-2.74048E-02-1.35773E-03 3.64792E-02-1.96631E-13 5.48894E-14
 -1      1991 2.01345E+01-3.59407E-02 7.11522E-04 3.90501E-02-2.51686E-13 1.83434E-13
 -1      1992 2.00434E+01-4.54619E-02-2.83072E-03 1.25508E-01-1.29339E-13 2.78691E-13
 -1      1993 2.00897E+01-4.06222E-02-1.86229E-03 9.32011E-02-9.55917E-14 2.38797E-13
 -1      1994 2.01011E+01-5.35145E-02 1.21888E-03 1.06380E-01-1.72299E-13 1.67442E-13
 -1      1995 1.99117E+01-5.89527E-02-3.32723E-03 2.16768E-01-1.02124E-13 3.18398E-13
 -1      1996 1.99931E+01-5.49084E-02-2.35643E-03 1.72659E-01-1.59625E-13 3.34714E-13
 -1      1997 2.00260E+01-7.26973E-02 1.87166E-03 2.01420E-01-1.42744E-13 3.83280E-13
 -1      1998 1.97048E+01-6.86418E-02-3.48685E-03 3.28716E-01 2.26490E-14 3.06865E-13
 -1      1999 1.98296E+01-6.71773E-02-2.71890E-03 2.74118E-01-3.25443E-14 3.16412E-13
 -1      2000 1.98950E+01-8.94959E-02 2.60934E-03 3.23901E-01-2.42501E-14 2.76474E-13
 -1      2001 1.94120E+01-6.93070E-02-3.14345E-03 4.50431E-01-1.41989E-14 3.02202E-13
 -1      2002 1.95851E+01-7.26479E-02-2.78805E-03 3.90410E-01 8.11417E-16 3.00829E-13
 -1      2003 1.96948E+01-9.76483E-02 3.28519E-03 4.66050E-01 3.19278E-14 3.01689E-13
 -1      2004 1.90340E+01-5.54137E-02-2.24816E-03 5.61413E-01-1.35978E-13 3.03630E-13
 -1      2005 1.92535E+01-6.55412E-02-2.38813E-03 5.05653E-01-6.18078E-14 2.26617E-13
 -1      2006 1.94182E+01-8.94782E-02 3.64528E-03 6.09644E-01 2.92414E-14 3.31166E-13
 -1      2007 1.85891E+01-2.35017E-02-9.51846E-04 6.32838E-01-9.53244E-14 3.85410E-13
 -1      2008 1.88431E+01-4.09981E-02-1.37663E-03 5.95020E-01-1.35181E-13 3.16574E-13
 -1      2009 1.90698E+01-5.83092E-02 3.37467E-03 7.25303E-01-1.31250E-13 4.52462E-13
 -1      2010 1.81176E+01 2.47719E-02 3.87213E-04 6.33647E-01 1.42951E-13 2.56593E-13
 -1      2011 1.83824E+01 1.95278E-03 2.80949E-04 6.28499E-01 5.60760E-15 3.81236E-13
 -1      2012 1.86718E+01-2.27224E-03 2.23461E-03 7.76397E-01 2.83165E-14 3.50133E-13
 -1      2013 1.76799E+01 8.05526E-02 1.34164E-03 5.41480E-01 3.42894E-14 2.54217E-13
 -1      2014 1.79222E+01 5.75577E-02 2.43173E-03 5.79542E-01 7.94902E-14 2.07403E-13
 -1      2015 1.82669E+01 7.18912E-02 2.49974E-04 7.28968E-01 1.43722E-13 2.80982E-13
 -1      2016 1.73463E+01 1.28957E-01 1.66727E-03 3.54974E-01 7.52094E-14 3.73672E-13
 -1      2017 1.75289E+01 1.12817E-01 4.68833E-03 4.36867E-01 8.67965E-14 4.32350E-13
 -1      2018 1.79144E+01 1.47832E-01-2.12603E-03 5.66081E-01-1.06699E-14 4.17380E-13
 -1      2019 1.71789E+01 1.54477E-01 1.47674E-03 1.00516E-01 2.68114E-13 3.33520E-13
 -1      2020 1.72699E+01 1.51209E-01 6.48562E-03 2.14033E-01 1.11617E-13 3.63389E-13
 -1      2021 1.76773E+01 2.03794E-01-4.10210E-03 3.00515E-01 1.67125E-13 3.92729E-13
 -1      2022 1.72111E+01 1.48246E-01 1.15997E-03-1.72676E-01 8.71668E-14 1.93244E-13
 -1      2023 1.71935E+01 1.59789E-01 7.25754E-03-4.99541E-02 1.99879E-13 2.84426E-13
 -1      2024 1.76027E+01 2.21458E-01-4.92202E-03-2.27717E-02 2.48923E-13 4.92129E-13
 -1      2025 1.74354E+01 1.12503E-01 1.07690E-03-4.08639E-01-1.26130E-13 5.39894E-14
 -1      2026 1.73129E+01 1.35567E-01 6.69466E-03-3.01834E-01-7.31359E-14 1.10393E-13
 -1      2027 1.77052E+01 1.94444E-01-4.41181E-03-3.38909E-01 3.19267E-14 3.57196E-13
 -1      2028 1.78056E+01 5.94895E-02 1.36106E-03-5.64275E-01-5.99351E-14-2.54241E-14
 -1      2029 1.76018E+01 8.70328E-02 4.91768E-03-4.92428E-01-1.58217E-13-5.81770E-14
 -1      2030 1.79610E+01 1.31759E-01-2.96215E-03-5.85377E-01-7.83796E-14 1.74662E-13
 -1      2031 1.82530E+01 5.33878E-03 1.82467E-03-6.22485E-01-5.66549E-14 2.08406E-13
 -1      2032 1.80037E+01 2.98702E-02 2.43712E-03-5.92997E-01-3.45034E-14 3.68924E-14
 -1      2033 1.83170E+01 5.32695E-02-1.31463E-03-7.23156E-01-1.50347E-13 5.43419E-14
 -1      2034 1.87071E+01-3.69762E-02 2.17306E-03-5.92979E-01 2.26706E-13 1.72089E-13
 -1      2035 1.84501E+01-2.04275E-02-7.83980E-05-6.01605E-01 9.20812E-14 2.74795E-13
 -1      2036 1.87094E+01-1.94071E-02-8.27830E-05-7.46264E-01-6.86305E-15 1.83062E-13
 -1      2037 1.91131E+01-6.13831E-02 2.23720E-03-5.02924E-01 1.72572E-13 1.31234E-13
 -1      2038 1.88793E+01-5.42338E-02-2.06948E-03-5.37990E-01 1.83312E-13 1.52096E-13
 -1      2039 1.90821E+01-7.11769E-02 5.52775E-04-6.76701E-01 1.96535E-13 2.60457E-13
 -1      2040 1.94395E+01-6.83777E-02 2.01199E-03-3.84487E-01-8.55618E-14 2.93213E-13
 -1      2041 1.92480E+01-6.92211E-02-3.25418E-03-4.32246E-01 5.22620E-14 2.59466E-13
 -1      2042 1.93973E+01-9.68195E-02 7.07150E-04-5.50803E-01 1.32192E-14 4.33678E-13
 -1      2043 1.96771E+01-6.24030E-02 1.61185E-03-2.65229E-01 5.41711E-14 2.07085E-13
 -1      2044 1.95347E+01-6.84752E-02-3.63107E-03-3.13906E-01 1.52278E-14 3.18088E-13
 -1      2045 1.96381E+01-9.92939E-02 5.90707E-04-4.05459E-01 9.28001E-14 5.41182E-13
 -1      2046 1.98331E+01-4.90255E-02 1.16646E-03-1.63551E-01 1.14521E-13 2.68091E-13
 -1      2047 1.97371E+01-5.74912E-02-3.38704E-03-2.05224E-01 4.18411E-14 2.96690E-13
 -1      2048 1.98045E+01-8.57943E-02 3.80626E-04-2.69226E-01 7.99833E-14 4.90543E-13
 -1      2049 1.99241E+01-3.30778E-02 7.81151E-04-8.83576E-02-2.53638E-15 2.02982E-13
 -1      2050 1.98659E+01-4.17514E-02-2.77677E-03-1.19099E-01-7.52295E-14 2.04637E-13
 -1      2051 1.99072E+01-6.42103E-02 1.54871E-04-1.59257E-01-4.85193E-14 5.23570E-13
 -1      2052 1.99695E+01-1.82114E-02 4.58019E-04-4.11938E-02 3.81190E-14 3.94152E-13
 -1      2053 1.99383E+01-2.54566E-02-2.00711E-03-6.01275E-02 1.27882E-13 4.17061E-13
 -1      2054 1.99621E+01-4.07859E-02 2.74016E-05-8.22135E-02 4.83596E-14 5.69955E-13
 -1      2055 1.99880E+01-7.80396E-03 1.13261E-04-1.74133E-02-1.20150E-13 3.00292E-13
 -1      2056 1.99740E+01-1.23238E-02-1.19673E-03-2.64887E-02-5.68817E-14 3.91247E-13
 -1      2057 1.99861E+01-2.14148E-02-1.50634E-04-3.70236E-02-2.39636E-14 6.79549E-13
 -1      2058 1.99948E+01-4.30036E-03 7.02094E-05-8.99359E-03 2.90012E-14 5.42668E-13
 -1      2059 1.99888E+01-6.60614E-03-6.32213E-04-1.33613E-02-4.20978E-14 3.56995E-13
 -1      2060 1.99946E+01-1.15969E-02-2.04759E-04-1.80599E-02-4.63059E-14 6.97822E-13
 -1      2061 1.99977E+01-5.93378E-03 6.46869E-04-1.08214E-02 6.74322E-14 7.82502E-13
 -1      2062 2.00487E+01 2.21124E-02 2.92108E-03 6.96084E-02 1.98769E-13-1.10288E-13
 -1      2063 2.00394E+01-2.92397E-03 5.39827E-04 4.41657E-02 8.02246E-14 3.97498E-13
 -1      2064 2.00294E+01-6.43940E-03 2.33339E-03 1.79096E-02 2.51011E-13 3.29722E-13
 -1      2065 2.00191E+01-1.53726E-02 1.36107E-04 4.09558E-03 2.33585E-13 2.84927E-13
 -1      2066 2.00508E+01-2.47925E-02-1.62472E-03 3.96227E-02 9.08835E-14 1.82418E-13
 -1      2067 2.00106E+01-1.05392E-02 1.49089E-03-6.48173E-03 6.91737E-14 1.41709E-13
 -1      2068 2.00028E+01-1.04179E-02 1.40850E-04-9.67622E-03-2.40747E-16 2.86939E-13
 -1      2069 2.00028E+01-1.28689E-02-1.95502E-04-1.23417E-02-9.80959E-15 3.71554E-13
 -1      2070 2.00258E+01-2.27630E-02-6.17148E-05 4.78322E-04 1.01644E-13 4.60087E-13
 -1      2071 2.00584E+01 8.67599E-02 2.67204E-03 1.39471E-01 2.63670E-13-3.83270E-13
 -1      2072 2.00546E+01 4.17772E-02 1.28418E-03 1.07650E-01 1.56024E-13-3.51719E-13
 -1      2073 2.00755E+01-8.61605E-04-2.22439E-03 1.12476E-01 4.09735E-14-2.49631E-13
 -1      2074 2.00534E+01 1.96234E-01 1.63166E-03 2.14702E-01 4.66132E-13 4.01772E-13
 -1      2075 2.00580E+01 1.28394E-01 1.80744E-03 1.82925E-01 2.48353E-13 4.66213E-14
 -1      2076 2.00846E+01 6.09494E-02-2.60545E-03 2.04556E-01 1.48475E-13-3.85705E-15
 -1      2077 2.00299E+01 3.46234E-01-2.23211E-04 2.72590E-01 4.85857E-13 3.43654E-13
 -1      2078 2.00445E+01 2.61024E-01 2.00800E-03 2.51457E-01 4.47245E-13 5.13201E-13
 -1      2079 2.00701E+01 1.67729E-01-2.55469E-03 2.95791E-01 3.87444E-13 4.55075E-13
 -1      2080 1.99890E+01 5.20533E-01-2.56372E-03 2.89311E-01 5.67922E-13 3.13471E-13
 -1      2081 2.00124E+01 4.29684E-01 1.67285E-03 2.89094E-01 3.73104E-13 3.80810E-13
 -1      2082 2.00287E+01 3.15976E-01-1.74970E-03 3.57274E-01 3.36084E-13 3.39013E-13
 -1      2083 1.99375E+01 6.90513E-01-4.80332E-03 2.45722E-01 7.00859E-13 2.09804E-15
 -1      2084 1.99652E+01 6.11302E-01 7.27100E-04 2.73562E-01 6.33628E-13 1.12199E-13
 -1      2085 1.99640E+01 4.89880E-01-1.41228E-04 3.60076E-01 1.65107E-13 1.89181E-13
 -1      2086 1.98896E+01 8.19544E-01-6.12642E-03 1.35809E-01 4.48829E-13-4.61273E-13
 -1      2087 1.99135E+01 7.71068E-01-7.78222E-04 1.91985E-01 5.56562E-13-2.06681E-13
 -1      2088 1.98892E+01 6.60673E-01 2.05478E-03 2.83645E-01 2.92524E-13-2.02187E-13
 -1      2089 1.98631E+01 8.71876E-01-5.87034E-03-2.28190E-02 4.78485E-13-6.83791E-13
 -1      2090 1.98735E+01 8.69071E-01-2.60802E-03 5.06999E-02 3.51878E-13-4.83845E-13
 -1      2091 1.98264E+01 7.90071E-01 4.24828E-03 1.28222E-01 1.25329E-13-5.48842E-13
 -1      2092 1.98734E+01 8.26969E-01-3.89421E-03-1.98866E-01 6.79738E-13 2.18326E-13
 -1      2093 1.98628E+01 8.75240E-01-4.26544E-03-1.24197E-01 6.51527E-13-2.38824E-13
 -1      2094 1.98011E+01 8.43176E-01 5.85586E-03-8.19445E-02 4.14368E-13-2.87588E-13
 -1      2095 1.99304E+01 6.83759E-01-3.96406E-04-3.36061E-01 3.22377E-13-3.94007E-13
 -1      2096 1.98953E+01 7.75353E-01-5.26590E-03-2.86632E-01 4.26461E-13-1.42943E-13
 -1      2097 1.98334E+01 7.95518E-01 5.71534E-03-2.97183E-01 3.45927E-13-2.12686E-13
 -1      2098 2.00235E+01 4.73485E-01 3.94999E-03-3.82016E-01-1.10203E-13-3.67790E-13
 -1      2099 1.99701E+01 5.85520E-01-5.34780E-03-3.77184E-01 1.04727E-13-6.41060E-13
 -1      2100 1.99337E+01 6.47657E-01 5.05392E-03-4.46554E-01 1.60379E-13-6.86281E-13
 -1      2101 2.13149E+01-3.31975E+00-6.99221E-02 7.82561E+00-4.68514E-14-1.26676E-13
 -1      2102 1.58494E+01-4.81336E+00-2.58835E-01 7.46857E+00 5.76206E-14-5.01543E-14
 -1      2103 1.62943E+01-5.25857E+00 4.90424E-02 8.28019E+00-1.69031E-13-4.35329E-14
 -1      2104 2.01225E+01 1.33014E-01 3.15923E-03-1.74757E-01-2.24199E-13-1.46042E-13
 -1      2105 2.15351E+01 1.76920E+00 7.84477E-02-2.36931E+00-1.40821E-13-9.56180E-14
 -1      2106 8.16644E-02-7.26410E+00-3.16954E-01 2.67009E+00-8.73190E-14 2.97318E-13
 -1      2107-4.11981E-01-8.42823E+00-4.74160E-01 1.18320E+00-1.01238E-13-1.72917E-13
 -1      2108 2.00509E+01-6.32989E+00-5.26441E-01-4.64771E+00 1.90181E-13-6.03684E-13
 -1      2109 2.53624E+01-5.39325E+00-3.13338E-01-4.85522E+00 2.08167E-13-4.34541E-13
 -1      2110 2.04691E+01-6.90604E+00-1.43352E-01-5.38673E+00-9.35918E-14-7.15261E-13
 -1      2111-6.68052E-02-8.76698E+00-5.09813E-01-3.82276E-01-1.43136E-13-2.28539E-13
 -1      2112 1.16335E+00-8.34941E+00-4.62017E-01-1.67811E+00-1.19016E-13-7.21645E-16
 -1      2113 1.95234E+01 4.01544E+00-2.56989E-02-1.70095E+00-6.52208E-14-2.81473E-13
 -1      2114 1.96519E+01 3.94205E+00-2.42996E-02-1.95635E+00-9.37583E-14-2.76511E-13
 -1      2115 1.99741E+01 3.25160E+00-8.18551E-03-1.90912E+00-1.08647E-13-2.62328E-13
 -1      2116 1.96941E+01 3.58250E+00-9.29910E-03-1.51743E+00-5.72155E-14-2.54220E-13
 -1      2117 3.14930E+01 1.34228E+00 2.95285E-01 6.73808E+00-2.13385E-13-3.63598E-13
 -1      2118 2.66648E+01-1.26470E+00-3.80529E-03 6.36357E+00-1.86740E-13-2.65676E-13
 -1      2119 3.77400E+01 4.13319E+00 2.92346E-01 4.67361E+00-1.25761E-13-3.50497E-13
 -1      2120 3.36418E+01 2.66224E+00 4.45949E-02 5.48064E+00-1.63036E-13-2.98095E-13
 -1      2121 3.26217E+01 3.71562E-01 1.24057E-01 3.55004E+00-2.30135E-13-2.33147E-13
 -1      2122 4.26921E+01 6.79447E+00 3.80590E-01 2.44259E+00-1.32006E-13-2.66454E-13
 -1      2123 3.95848E+01 6.01128E+00 1.79210E-01 3.42316E+00-1.63980E-13-2.40252E-13
 -1      2124 4.29213E+01 8.17605E+00 2.35212E-01 5.19538E-03 1.78191E-13-1.89480E-13
 -1      2125 4.30996E+01 7.76711E+00 3.40983E-01 1.53987E+00 6.68909E-14-2.34895E-13
 -1      2126 4.16458E+01 7.42725E+00 2.55927E-01-1.90783E+00 3.81528E-13-2.63511E-13
 -1      2127 4.25497E+01 8.02040E+00 2.59300E-01-5.66407E-01 3.66485E-13-1.23859E-13
 -1      2128 3.78066E+01 4.98278E+00 1.54048E-01-4.27651E+00 4.85750E-13-3.69371E-13
 -1      2129 4.12584E+01 6.04960E+00 3.24085E-01-3.21149E+00 4.08756E-13-3.19633E-13
 -1      2130 3.04508E+01 1.42896E+00-2.03668E-02-6.22277E+00 4.23855E-13-3.78142E-13
 -1      2131 3.54273E+01 3.04852E+00 2.69638E-01-5.72690E+00 3.95767E-13-4.40425E-13
 -1      2132 2.18205E+01-2.33750E+00-1.93106E-01-7.22675E+00 1.90403E-13-5.30243E-13
 -1      2133 2.71463E+01-2.06016E-01 1.58676E-01-7.63922E+00 2.68896E-13-4.65017E-13
 -1      2134 1.24698E+01-5.17630E+00-3.54800E-01-7.16579E+00 2.53131E-13-4.64628E-13
 -1      2135 1.71876E+01-2.87202E+00-1.70767E-02-8.24142E+00 2.28373E-13-5.47395E-13
 -1      2136 5.27910E+00-7.10900E+00-3.81601E-01-5.98586E+00 4.22440E-13-1.81244E-13
 -1      2137 8.58013E+00-5.34598E+00-1.70731E-01-7.12968E+00 3.44169E-13-3.01113E-13
 -1      2138 7.71341E-01-7.49641E+00-3.52014E-01-3.49479E+00-5.22082E-14-2.18603E-13
 -1      2139 2.55833E+00-6.52227E+00-2.23619E-01-4.96773E+00 2.65843E-13-2.08555E-13
 -1      2140 5.09505E-02-7.76929E+00-3.80399E-01-3.19452E-02-2.69881E-13-5.82756E-13
 -1      2141-1.35982E-01-7.21983E+00-3.01127E-01-1.47856E+00-2.44485E-13-3.10085E-13
 -1      2142 3.03225E+00-7.66822E+00-4.00415E-01 2.92841E+00-3.23075E-13-5.27411E-13
 -1      2143 9.12940E-01-8.69362E+00-5.31866E-01 1.42512E+00-2.51743E-13-5.39402E-13
 -1      2144 1.15826E+01-6.71702E+00-2.95335E-01 5.32456E+00-3.90132E-13-5.97494E-13
 -1      2145 7.50782E+00-7.69533E+00-4.61610E-01 4.28638E+00-3.09752E-13-5.76483E-13
 -1      2146 2.17389E+01-5.56995E+00-2.40894E-01 5.46196E+00-3.53939E-13-9.55236E-13
 -1      2147 1.56023E+01-7.19989E+00-6.09010E-01 4.77319E+00-3.68594E-13-7.35578E-13
 -1      2148 3.42148E+01-3.86548E+00-3.30531E-02 2.54462E+00-3.03813E-13-1.08968E-12
 -1      2149 2.71278E+01-5.39166E+00-4.10515E-01 3.26765E+00-2.96319E-13-9.27147E-13
 -1      2150 4.25754E+01 3.69033E-01 2.06527E-01-1.73537E+00-1.37695E-13-1.23590E-12
 -1      2151 3.77514E+01-1.76255E+00-9.51088E-02-4.85644E-01-1.66200E-13-1.17462E-12
 -1      2152 4.36536E+01 3.65662E+00 3.09332E-01-2.88603E+00-1.58429E-13-1.11855E-12
 -1      2153 4.07794E+01 1.55443E+00-1.39323E-01-3.52722E+00-1.90181E-13-1.05482E-12
 -1      2154 4.39561E+01 5.43686E+00 2.85997E-01-1.11715E+00-1.58873E-13-1.27864E-12
 -1      2155 4.18094E+01 3.56356E+00 1.32346E-01 2.46929E+00-1.46883E-13-1.00442E-12
 -1      2156 3.15348E+01-4.40607E+00-1.92744E-01-1.68865E+00 7.32747E-14-5.86198E-13
 -1      2157 3.69037E+01-3.34721E+00-7.33111E-02-1.37083E+00 4.12448E-14-9.34031E-13
 -1      2158 3.63719E+00-8.52937E+00-5.82841E-01-2.98335E+00 1.00475E-13-2.44471E-13
 -1      2159 6.69115E+00-7.41660E+00-3.96980E-01-4.25819E+00 4.78506E-14-5.04041E-13
 -1      2160 4.77633E+00-6.26079E+00-2.02179E-01 6.01815E+00-2.49467E-13-3.33067E-15
 -1      2161 2.40305E+00-7.15499E+00-3.09277E-01 4.77532E+00-3.18690E-13 3.17302E-13
 -1      2162 8.64443E+00-5.14539E+00-6.69859E-02 7.60593E+00-3.26739E-13-2.25930E-14
 -1      2163 4.15711E+01 4.98623E-01 2.02525E-01 3.33372E+00-1.40138E-13-9.11715E-13
 -1      2164 2.01467E+01 2.06843E-01 2.49265E-03-3.02780E-01-2.04758E-13-2.48845E-13
 -1      2165 8.13617E-01-5.38617E+00-2.59575E-01 3.82802E-02 1.32255E-14-1.88904E-13
 -1      2166 2.07500E+01 1.12033E+00-2.41301E-02-1.63558E+00-1.47882E-13-1.36946E-13
 -1      2167 2.06379E+01 1.35007E+00-1.80040E-02-1.69806E+00-1.55053E-13-1.79723E-13
 -1      2168 4.15681E+00-6.07876E+00-2.77535E-01-3.58298E+00 1.19238E-13-3.94462E-13
 -1      2169 4.07005E+01-9.08125E-01 2.86664E-01 7.45754E-01-6.33174E-14-1.06515E-12
 -1      2170 1.18234E+01-6.72348E+00-2.43368E-01-5.59660E+00 7.14429E-14-5.90306E-13
 -1      2171 2.82447E+01-5.01757E+00-5.05064E-02 2.81959E+00 7.02216E-15-4.55698E-13
 -1      2172 3.31178E+01-4.27315E+00 6.10251E-02 2.29920E-01 5.42344E-14-5.47173E-13
 -1      2173 3.43421E+01-3.91029E+00-8.70987E-02-1.98573E+00 1.12035E-13-6.99163E-13
 -1      2174 3.70570E+01-2.46499E+00-1.48320E-01-3.96735E+00 1.16934E-13-8.86680E-13
 -1      2175 3.79265E+01 5.69712E-01 2.42015E-01-4.71957E+00 9.54792E-15-7.36022E-13
 -1      2176 3.12050E+01-5.18881E+00-8.88198E-02-1.16383E+00-9.66449E-14-5.59552E-13
 -1      2177 2.01039E+01 3.17994E-01-1.79429E-03-3.58913E-01-1.42479E-13-1.53053E-13
 -1      2178 3.85807E+01 9.10742E+00 2.76662E-01 3.27479E-02 2.08611E-13-1.87999E-13
 -1      2179 2.01115E+01 3.96732E-01 4.14422E-03-4.81175E-01-2.05278E-13-2.38168E-13
 -1      2180 2.50005E+01-3.23407E+00 2.66039E-02 6.59612E+00-1.44829E-13-2.12275E-13
 -1      2181 2.37011E+01-4.69559E+00 1.55235E-01 6.79447E+00-1.15047E-13-3.01759E-13
 -1      2182 2.79084E+01-3.47367E+00-1.33531E-01 4.86570E+00-8.03246E-14-4.01040E-13
 -1      2183 2.64264E+00-4.89484E+00-1.38502E-01 4.47494E+00-1.02557E-13 2.27041E-13
 -1      2184 3.02437E+01-5.71760E+00 2.20366E-02-2.35260E+00-1.19960E-13-5.21694E-13
 -1      2185 3.66671E+01-3.73957E+00 1.91457E-01-1.54455E+00 4.02733E-14-8.86624E-13
 -1      2186 2.75155E+01-6.47435E+00-3.57787E-02 3.51425E+00-2.18381E-13-7.15927E-13
 -1      2187 1.72602E+01-6.68973E+00-1.57575E-01 5.69984E+00-1.66644E-13-6.35228E-13
 -1      2188 7.72241E+00-5.92869E+00-1.93166E-01 4.97272E+00-2.63622E-13-5.58442E-13
 -1      2189 1.84454E+00-5.02375E+00-2.17347E-01 1.42082E+00-3.19245E-13-5.54112E-13
 -1      2190 1.68441E+00-4.35889E+00-1.22040E-01-2.80136E+00-1.77205E-13-4.01068E-13
 -1      2191 5.57118E+00-5.21269E+00-1.45037E-01-6.52528E+00 1.39333E-13-2.05946E-13
 -1      2192 1.29417E+01-5.41205E+00-9.96468E-02-8.12415E+00 1.81577E-13-3.03722E-13
 -1      2193 2.20894E+01-4.16307E+00 4.39277E-02-7.48538E+00 8.48766E-14-4.22051E-13
 -1      2194 3.00341E+01-1.30369E+00 1.56122E-01-4.88336E+00 2.97540E-13-3.65374E-13
 -1      2195 3.56327E+01 3.19357E+00 2.70162E-01-2.50560E+00 4.07327E-13-3.79807E-13
 -1      2196 3.80324E+01 7.25009E+00 3.05298E-01-6.31156E-01 4.23883E-13-1.34670E-13
 -1      2197 3.68169E+01 4.62366E+00 2.52186E-01 1.63554E+00-1.91097E-13-2.85216E-13
 -1      2198 3.86866E+01 8.19415E+00 3.34076E-01 3.18294E-01-6.30607E-14-2.62346E-13
 -1      2199 1.95597E+01 3.51632E+00-1.11498E-02-5.91433E-01 4.31147E-14-1.98698E-13
 -1      2200 1.95954E+01 3.47037E+00-1.05157E-02-7.75786E-01 9.64696E-15-2.14192E-13
 -1      2201 1.96422E+01 3.38217E+00-1.28100E-02-9.40360E-01-8.86297E-15-2.25097E-13
 -1      2202 1.97031E+01 3.30144E+00-1.29056E-02-1.12957E+00-2.54617E-14-2.32338E-13
 -1      2203 1.97869E+01 3.03345E+00 2.05473E-04-7.92108E-01 6.41528E-15-2.01075E-13
 -1      2204 1.95121E+01 3.59902E+00-9.62134E-03 9.91597E-02 1.10553E-13-1.79545E-13
 -1      2205 1.95114E+01 3.59984E+00-9.63605E-03-8.02967E-02 8.78897E-14-1.92304E-13
 -1      2206 1.95383E+01 3.55962E+00-9.72281E-03 4.45162E-01 1.32271E-13-1.83450E-13
 -1      2207 1.95208E+01 3.58220E+00-1.01397E-02 2.64353E-01 1.18805E-13-1.83841E-13
 -1      2208 1.96783E+01 3.22185E+00-8.96292E-04 1.69291E-01 1.07985E-13-1.75663E-13
 -1      2209 1.96003E+01 3.46303E+00-1.06208E-02 7.89091E-01 1.57222E-13-1.63116E-13
 -1      2210 1.95639E+01 3.51008E+00-1.12138E-02 6.07663E-01 1.39644E-13-1.75974E-13
 -1      2211 1.97151E+01 3.15833E+00-5.01109E-04 4.87659E-01 1.32984E-13-1.68337E-13
 -1      2212 1.97112E+01 3.28913E+00-1.29829E-02 1.14236E+00 1.87583E-13-1.10689E-13
 -1      2213 1.96484E+01 3.37256E+00-1.29025E-02 9.53099E-01 1.71088E-13-1.41789E-13
 -1      2214 1.97923E+01 3.02463E+00 2.61501E-04 8.03240E-01 1.61184E-13-1.39924E-13
 -1      2215 1.98905E+01 3.00338E+00-1.83339E-02 1.48930E+00 2.01724E-13-3.92906E-14
 -1      2216 1.97910E+01 3.14457E+00-1.53035E-02 1.29902E+00 1.82036E-13-7.53972E-14
 -1      2217 1.99218E+01 2.79926E+00 1.89121E-03 1.10926E+00 1.79916E-13-9.23320E-14
 -1      2218 2.01692E+01 2.53832E+00-2.80485E-02 1.78901E+00 2.13356E-13 2.02026E-14
 -1      2219 2.00184E+01 2.78373E+00-1.71736E-02 1.62043E+00 2.07900E-13-2.00517E-14
 -1      2220 2.01166E+01 2.44711E+00 5.07788E-03 1.37534E+00 1.90807E-13-2.24473E-14
 -1      2221 2.05852E+01 1.78914E+00-2.83262E-02 1.88912E+00 1.86063E-13 1.51341E-13
 -1      2222 2.03626E+01 2.22577E+00-1.10566E-02 1.85026E+00 2.08588E-13 7.40710E-14
 -1      2223 2.03747E+01 1.90912E+00 9.80964E-03 1.52696E+00 1.90297E-13 4.75973E-14
 -1      2224 2.07913E+01 1.06453E+00-1.88002E-02 1.59094E+00 1.53995E-13 2.62535E-13
 -1      2225 2.06808E+01 1.53987E+00 2.74850E-03 1.79223E+00 1.76269E-13 1.98038E-13
 -1      2226 2.05115E+01 1.27775E+00 2.90766E-03 1.42079E+00 1.75278E-13 1.33887E-13
 -1      2227 2.04443E+01 7.39672E-01-3.15467E-03 1.10669E+00 1.55712E-13 2.31933E-13
 -1      2228 4.83274E+00-3.35396E+00 6.34874E-02-3.23258E+00 1.87739E-13-5.36127E-13
 -1      2229 7.59918E+00-3.75849E+00 5.47309E-02-4.94773E+00 3.09308E-13-7.02494E-13
 -1      2230 2.04142E+01 8.79752E-01 1.18815E-02-1.03149E+00-1.31366E-13-1.85427E-13
 -1      2231 2.02032E+01 6.47718E-01-4.04489E-03-7.15417E-01-1.16016E-13-1.92519E-13
 -1      2232 2.01356E+01 4.83432E-01 1.57583E-02-4.93816E-01-1.01009E-13-1.72295E-13
 -1      2233 1.99932E+01 3.55187E-01 1.96006E-05-3.17524E-01-8.61043E-14-1.70450E-13
 -1      2234 2.02528E+01 7.69457E-01-1.17203E-03-7.14861E-01-1.03246E-13-1.95195E-13
 -1      2235 1.99287E+01 2.67459E-01 1.09764E-02-1.76977E-01-7.04470E-14-1.56843E-13
 -1      2236 1.98478E+01 1.94146E-01 6.63062E-04-7.68831E-02-5.54691E-14-1.73871E-13
 -1      2237 2.00884E+01 4.28011E-01-3.90241E-03-3.24593E-01-8.14124E-14-1.81727E-13
 -1      2238 1.98025E+01 1.43360E-01 6.54357E-03 7.46268E-03-7.03658E-14-1.73928E-13
 -1      2239 1.97659E+01 9.99573E-02 7.13296E-04 6.25191E-02-7.11488E-14-1.89704E-13
 -1      2240 1.99652E+01 2.34643E-01-3.72416E-03-7.95440E-02-7.50157E-14-1.84464E-13
 -1      2241 1.97393E+01 6.93281E-02 3.68043E-03 1.09748E-01-5.45264E-14-1.78286E-13
 -1      2242 1.97311E+01 4.31808E-02 6.29506E-04 1.37425E-01-3.58592E-14-1.60258E-13
 -1      2243 1.98877E+01 1.19456E-01-2.98606E-03 6.52003E-02-5.92411E-14-1.84964E-13
 -1      2244 1.97190E+01 2.45047E-02 1.92312E-03 1.60705E-01-6.93117E-14-1.30914E-13
 -1      2245 1.97277E+01 8.90234E-03 5.14723E-04 1.71577E-01-7.38999E-14-1.22705E-13
 -1      2246 1.98468E+01 4.97044E-02-2.16679E-03 1.44170E-01-6.10166E-14-1.59522E-13
 -1      2247 1.97256E+01-2.24893E-03 8.37382E-04 1.79702E-01-5.64931E-14-9.14732E-14
 -1      2248 1.97437E+01-1.11169E-02 4.03478E-04 1.80428E-01-3.95531E-14-1.06020E-13
 -1      2249 1.98319E+01 7.68640E-03-1.47269E-03 1.80700E-01-5.19562E-14-7.43738E-14
 -1      2250 1.97478E+01-1.73513E-02 1.72095E-04 1.79331E-01-3.29266E-14-1.12805E-13
 -1      2251 1.97703E+01-2.18124E-02 3.12849E-04 1.74249E-01-2.40514E-14-1.10661E-13
 -1      2252 1.98342E+01-1.66286E-02-9.48618E-04 1.90586E-01-5.23778E-14-5.14262E-14
 -1      2253 1.97781E+01-2.47755E-02-2.20823E-04 1.67961E-01-3.59454E-14-1.40123E-13
 -1      2254 1.98019E+01-2.63243E-02 2.50088E-04 1.59957E-01-5.17455E-14-1.15513E-13
 -1      2255 1.98469E+01-2.93383E-02-5.77485E-04 1.84567E-01-4.95366E-14-8.49729E-14
 -1      2256 1.98115E+01-2.70967E-02-4.34313E-04 1.51221E-01-8.78051E-14-1.28322E-13
 -1      2257 1.98347E+01-2.67131E-02 2.18475E-04 1.42231E-01-3.82801E-14-1.53804E-13
 -1      2258 1.98653E+01-3.43437E-02-3.27794E-04 1.69977E-01-8.41577E-14-1.34042E-13
 -1      2259 1.98451E+01-2.60166E-02-5.32240E-04 1.32925E-01 1.47843E-15-1.80428E-13
 -1      2260 1.98668E+01-2.43390E-02 1.96644E-04 1.24255E-01-2.83316E-14-1.74633E-13
 -1      2261 1.98862E+01-3.41978E-02-1.69739E-04 1.51830E-01-5.03601E-14-1.64185E-13
 -1      2262 1.98766E+01-2.27703E-02-5.64680E-04 1.16101E-01-9.66122E-15-1.62505E-13
 -1      2263 1.98959E+01-2.02754E-02 2.30425E-04 1.08964E-01 4.18356E-14-7.86639E-14
 -1      2264 1.99075E+01-3.06786E-02-5.15584E-05 1.33986E-01-9.42643E-15-2.31058E-13
 -1      2265 1.99063E+01-1.78290E-02-5.29846E-04 1.01906E-01 1.34688E-14-5.52376E-14
 -1      2266 1.99251E+01-1.45366E-02 3.04852E-04 9.62892E-02 2.79216E-14-8.59932E-14
 -1      2267 1.99285E+01-2.48362E-02-4.57725E-05 1.18340E-01 5.09912E-14-1.23609E-13
 -1      2268 1.99352E+01-1.14093E-02-4.88191E-04 9.15628E-02 6.29549E-14-8.85001E-14
 -1      2269 1.99533E+01-7.36786E-03 4.14357E-04 8.84382E-02 7.31770E-14-1.02519E-13
 -1      2270 1.99498E+01-1.68254E-02-4.25185E-05 1.06257E-01 1.50573E-14-4.69671E-14
 -1      2271 1.99632E+01-3.48446E-03-4.40136E-04 8.67288E-02 3.81688E-14-1.64880E-13
 -1      2272 1.99815E+01 1.51094E-03 5.84558E-04 8.67523E-02 2.80036E-14-1.89337E-13
 -1      2273 1.99709E+01-6.80534E-03-6.36096E-05 9.97417E-02 9.12930E-15-5.04833E-14
 -1      2274 1.99917E+01 6.42038E-03-4.03646E-04 8.88447E-02 8.55650E-14-1.66649E-13
 -1      2275 2.00113E+01 1.28134E-02 8.39004E-04 9.28752E-02 3.42988E-14-1.11252E-13
 -1      2276 1.99922E+01 5.72055E-03-9.78466E-05 1.00365E-01 5.12458E-14-9.53311E-14
 -1      2277 2.00219E+01 1.92611E-02-3.97540E-04 9.98188E-02 1.94082E-14-6.98800E-14
 -1      2278 2.00445E+01 2.78161E-02 1.21320E-03 1.09107E-01 8.97395E-14-1.64551E-14
 -1      2279 2.00145E+01 2.18578E-02-1.30905E-04 1.10053E-01 5.46450E-14-1.38349E-13
 -1      2280 2.00557E+01 3.66520E-02-4.46706E-04 1.22415E-01 8.94467E-18-8.87262E-14
 -1      2281 2.00834E+01 4.85893E-02 1.75886E-03 1.38853E-01-4.52172E-14-1.10540E-13
 -1      2282 2.00384E+01 4.35182E-02-1.40261E-04 1.31459E-01-7.94520E-15-1.43480E-13
 -1      2283 2.00949E+01 6.11520E-02-5.88905E-04 1.60761E-01-3.84506E-14-1.47861E-13
 -1      2284 2.01303E+01 7.83560E-02 2.54823E-03 1.87227E-01-2.20448E-14-1.12676E-13
 -1      2285 2.00641E+01 7.37513E-02-8.67191E-05 1.68411E-01-4.79314E-14-1.81613E-13
 -1      2286 2.01412E+01 9.66980E-02-8.84130E-04 2.21030E-01-1.95277E-14-1.68976E-13
 -1      2287 2.01875E+01 1.22011E-01 3.67664E-03 2.61869E-01-3.15120E-14-1.34496E-13
 -1      2288 2.00911E+01 1.17246E-01 9.99344E-05 2.26486E-01-3.24587E-14-1.90261E-13
 -1      2289 2.01953E+01 1.49204E-01-1.42855E-03 3.12347E-01-2.93318E-14-1.22675E-13
 -1      2290 2.02564E+01 1.86799E-01 5.25747E-03 3.73995E-01-6.65301E-14-1.20688E-13
 -1      2291 2.01169E+01 1.81024E-01 5.44160E-04 3.13715E-01-3.41903E-15-2.26301E-13
 -1      2292 2.02561E+01 2.27286E-01-2.37513E-03 4.47920E-01-1.24295E-13-9.24750E-14
 -1      2293 2.03362E+01 2.83016E-01 7.39688E-03 5.39651E-01-1.22362E-13-1.04589E-13
 -1      2294 2.01358E+01 2.75271E-01 1.45895E-03 4.41384E-01-8.22973E-14-2.37385E-13
 -1      2295 2.03182E+01 3.42829E-01-3.96173E-03 6.46276E-01-1.30772E-13-5.26857E-14
 -1      2296 2.04210E+01 4.24214E-01 1.01275E-02 7.80842E-01-7.32426E-14-8.69848E-14
 -1      2297 2.01355E+01 4.14021E-01 3.18805E-03 6.24779E-01-1.05356E-13-1.37904E-13
 -1      2298 2.03685E+01 5.10521E-01-6.53305E-03 9.32172E-01-7.76094E-14-1.20544E-13
 -1      2299 2.04954E+01 6.25400E-01 1.32998E-02 1.12573E+00-5.58793E-14-1.45608E-13
 -1      2300 2.00933E+01 6.14751E-01 6.23993E-03 8.83489E-01-9.02757E-14-6.12371E-14
 -1      2301 2.03809E+01 7.43873E-01-1.04613E-02 1.33623E+00-9.13991E-14-2.87426E-13
 -1      2302 2.05291E+01 8.95214E-01 1.65229E-02 1.60609E+00-1.32311E-13-2.81873E-13
 -1      2303 1.99691E+01 8.94421E-01 1.12791E-02 1.24062E+00-1.59324E-13-6.41276E-14
 -1      2304 2.03126E+01 1.04189E+00-1.55392E-02 1.89127E+00-4.00110E-14-3.55983E-13
 -1      2305 2.04705E+01 1.21339E+00 1.94608E-02 2.24907E+00-3.16197E-14-2.50486E-13
 -1      2306 1.96989E+01 1.25577E+00 1.89924E-02 1.72035E+00-1.10292E-13-2.86785E-13
 -1      2307 2.01211E+01 1.34124E+00-2.11061E-02 2.60578E+00-1.16465E-14-2.67552E-13
 -1      2308 2.02920E+01 1.46616E+00 2.41026E-02 3.01290E+00 1.76768E-15-2.86435E-13
 -1      2309 1.92125E+01 1.64961E+00 3.23464E-02 2.32442E+00 6.15653E-15-3.53672E-13
 -1      2310 1.97654E+01 1.49291E+00-1.47180E-02 3.48584E+00-1.37108E-14-1.83401E-13
 -1      2311 1.99989E+01 1.40347E+00 4.61163E-02 3.93016E+00-8.78377E-15-2.02838E-13
 -1      2312 1.84095E+01 1.91510E+00 4.69195E-02 3.09121E+00 4.73382E-14-3.30620E-13
 -1      2313 1.93640E+01 1.05262E+00 2.52133E-02 4.51166E+00-6.68285E-14-1.14405E-13
 -1      2314 1.98435E+01 3.66101E-01 9.73617E-02 4.82519E+00-3.68802E-14-2.06925E-13
 -1      2315 1.72388E+01 1.65688E+00 7.28222E-02 4.06132E+00-1.56229E-14-9.31477E-14
 -1      2316 1.94358E+01-7.09213E-01 1.25257E-01 5.39550E+00-8.04842E-14-3.19217E-13
 -1      2317 2.03734E+01-2.46538E+00 1.02540E-01 5.38472E+00-7.15539E-14-3.31207E-13
 -1      2318 1.60145E+01 8.30982E-02 1.05227E-01 5.17852E+00-1.52801E-13-3.03257E-13
 -1      2319 2.64867E+01-6.00360E+00 1.58983E-02-3.77877E+00-3.12528E-14-3.64320E-13
 -1      2320 2.42264E+00-2.44815E+00 7.66447E-02 4.88458E-01 1.98863E-13-1.83908E-13
 -1      2321 3.22943E+00-2.91621E+00 1.01689E-01-1.65737E+00 1.23693E-13-3.66929E-13
 -1      2322 6.19569E+00-1.35688E+00 1.57056E-01-2.80234E+00 2.67050E-13-4.88443E-13
 -1      2323 2.00272E+01 3.63731E-01 4.57220E-03 5.16484E-01 1.34639E-13 1.86733E-13
 -1      2324 2.02737E+01 5.08273E-01 8.49531E-03 7.83250E-01 1.44707E-13 2.12582E-13
 -1      2325 2.03566E+01 7.53952E-01 1.18790E-02 9.65764E-01 1.54619E-13 1.56310E-13
 -1      2326 2.13258E+01-1.00668E+00 7.65656E-02-5.15256E+00 2.61791E-13-4.49467E-13
 -1      2327 2.05950E+01 2.68830E-01 9.63896E-02-5.01928E+00 3.22006E-13-4.86729E-13
 -1      2328 2.06246E+01 8.76157E-01 4.46041E-02-4.50492E+00 2.63062E-13-3.40852E-13
 -1      2329 2.02473E+01 1.26555E+00 1.03590E-02-4.10205E+00 2.28385E-13-2.19897E-13
 -1      2330 2.06611E+01 1.34786E+00 2.74336E-02-3.57780E+00 1.32592E-13-3.09411E-13
 -1      2331 2.03907E+01 1.32665E+00-1.36087E-02-3.13275E+00 9.36005E-14-3.44961E-13
 -1      2332 1.87024E+01 1.64630E+00 3.72888E-02-3.80106E+00 1.24842E-13-3.46886E-13
 -1      2333 2.07085E+01 1.22219E+00 2.19281E-02-2.69777E+00 3.15198E-13-6.20531E-13
 -1      2334 2.04761E+01 1.08068E+00-1.37237E-02-2.30706E+00 2.03444E-13-6.07798E-13
 -1      2335 1.94010E+01 1.61886E+00 2.97208E-02-2.89608E+00 5.36027E-14-4.21658E-13
 -1      2336 2.06670E+01 9.39672E-01 1.89513E-02-1.96905E+00 1.20562E-13-5.39916E-13
 -1      2337 2.04619E+01 7.94707E-01-9.64644E-03-1.66336E+00 7.73786E-14-4.40091E-13
 -1      2338 1.98339E+01 1.29054E+00 1.96070E-02-2.15534E+00 1.49967E-13-7.08558E-13
 -1      2339 2.05565E+01 6.76836E-01 1.54748E-02-1.40997E+00-4.59910E-14-4.18383E-13
 -1      2340 2.03846E+01 5.66418E-01-5.45197E-03-1.18262E+00 6.72873E-14-4.13491E-13
 -1      2341 2.00514E+01 9.46592E-01 1.19697E-02-1.57751E+00 1.32663E-15-4.82592E-13
 -1      2342 2.04189E+01 4.87843E-01 1.25397E-02-9.92412E-01 2.20526E-13-5.78859E-13
 -1      2343 2.02849E+01 4.19778E-01-1.31749E-04-8.24128E-01 5.41260E-14-4.48724E-13
 -1      2344 2.01273E+01 6.80095E-01 5.57487E-03-1.13858E+00 9.11948E-14-3.62198E-13
 -1      2345 2.02412E+01 4.22214E-01 1.02950E-02-7.11646E-01 1.13603E-15-3.63866E-13
 -1      2346 2.01453E+01 3.87448E-01 2.76092E-03-5.76005E-01-8.39652E-14-2.62734E-13
 -1      2347 1.99982E+01 5.25007E-01-7.42221E-03-5.93600E-01-8.33411E-14-3.39896E-13
 -1      2348 2.00653E+01 5.49097E-01-4.49990E-03-8.22365E-01 8.29024E-14-4.70490E-13
 -1      2349 1.97049E+01 1.44191E-01 3.02418E-03 5.88122E-02 4.49389E-14 1.19351E-13
 -1      2350 1.97779E+01 1.97273E-01 9.58144E-03 1.47645E-01 7.36880E-14 1.43229E-13
 -1      2351 1.98181E+01 2.30418E-01 6.18022E-03 2.34671E-01 9.87882E-14 1.54869E-13
 -1      2352 1.99571E+01 3.11121E-01 1.18688E-02 3.89425E-01 1.25347E-13 1.75230E-13
 -1      2353 2.00748E+01 4.19511E-01-1.97874E-03 5.00654E-01 1.32638E-13 1.32021E-13
 -1      2354 1.99508E+01 2.88489E-01-5.42361E-03 2.55201E-01 9.47866E-14 1.00992E-13
 -1      2355 1.96022E+01 3.11317E-02 1.33140E-03-1.33263E-01-4.94505E-16 2.89566E-14
 -1      2356 1.95988E+01 5.00078E-02 3.64428E-03-1.10567E-01 6.32944E-15 6.23885E-14
 -1      2357 1.96150E+01 6.21095E-03 8.89347E-04-1.62170E-01 4.49734E-14 1.22700E-14
 -1      2358 1.95945E+01 1.73895E-02 1.81245E-03-1.53703E-01 1.20753E-14 7.62164E-15
 -1      2359 1.97359E+01 3.64938E-02-2.29956E-03-1.45707E-01 2.49726E-14-1.16516E-14
 -1      2360 1.96480E+01-8.21227E-03 5.79322E-04-1.68469E-01 1.08496E-13 2.91494E-14
 -1      2361 1.96191E+01-1.88435E-03 7.21217E-04-1.68469E-01 7.78552E-14 2.97472E-14
 -1      2362 1.97331E+01 4.55019E-03-1.52257E-03-1.78061E-01 3.55272E-14-3.82695E-14
 -1      2363 1.96910E+01-1.58683E-02 3.64876E-04-1.61558E-01 5.07082E-14 6.14798E-14
 -1      2364 1.96590E+01-1.26818E-02 7.11654E-05-1.66345E-01 1.06866E-13 5.79294E-14
 -1      2365 1.97491E+01-1.36857E-02-9.47121E-04-1.85538E-01 7.54873E-14-3.59605E-15
 -1      2366 1.97374E+01-1.90821E-02 2.24880E-04-1.47629E-01 7.58173E-14-7.22011E-16
 -1      2367 1.97055E+01-1.79542E-02-3.02371E-04-1.54787E-01 5.46657E-14 5.94010E-14
 -1      2368 1.97754E+01-2.30917E-02-5.46331E-04-1.78386E-01 7.87553E-14 4.20252E-14
 -1      2369 1.97831E+01-1.93854E-02 1.42262E-04-1.30798E-01 1.21373E-13-3.98604E-14
 -1      2370 1.97531E+01-1.95961E-02-4.96354E-04-1.38732E-01 1.00332E-13-3.50821E-14
 -1      2371 1.98064E+01-2.67185E-02-2.80123E-04-1.63458E-01 1.23151E-13-6.90372E-14
 -1      2372 1.98261E+01-1.78214E-02 1.02787E-04-1.13776E-01 1.31677E-13-1.21827E-14
 -1      2373 1.97988E+01-1.88789E-02-5.73443E-04-1.21444E-01 1.12172E-13-1.91463E-14
 -1      2374 1.98385E+01-2.65795E-02-1.12910E-04-1.45341E-01 8.55462E-14-5.86235E-14
 -1      2375 1.98654E+01-1.51180E-02 9.43358E-05-9.83005E-02 7.47131E-14 1.07782E-14
 -1      2376 1.98410E+01-1.66782E-02-5.75918E-04-1.05047E-01 1.29946E-13 3.32561E-14
 -1      2377 1.98697E+01-2.40484E-02-1.68357E-05-1.27067E-01 9.53791E-14 9.61293E-15
 -1      2378 1.99010E+01-1.18021E-02 1.05799E-04-8.54154E-02 6.57331E-14-2.53280E-14
 -1      2379 1.98793E+01-1.36129E-02-5.32659E-04-9.08603E-02 6.61630E-14 1.87235E-14
 -1      2380 1.98990E+01-2.00879E-02 2.90942E-05-1.10576E-01 6.89053E-14 3.79446E-14
 -1      2381 1.99335E+01-8.28988E-03 1.25664E-04-7.56467E-02 5.47055E-14-2.35056E-14
 -1      2382 1.99139E+01-1.01464E-02-4.63393E-04-7.96236E-02 6.95996E-14-1.95053E-14
 -1      2383 1.99263E+01-1.54061E-02 4.07286E-05-9.70246E-02 5.71131E-14 2.62134E-14
 -1      2384 1.99635E+01-4.96713E-03 1.40277E-04-6.90875E-02 7.85192E-14-5.63195E-14
 -1      2385 1.99456E+01-6.66972E-03-3.81496E-04-7.16169E-02 7.40871E-14-5.32340E-14
 -1      2386 1.99517E+01-1.05799E-02 3.01274E-05-8.69675E-02 9.32353E-14 1.95183E-14
 -1      2387 1.99920E+01-2.26857E-03 1.31931E-04-6.54044E-02-1.12836E-14-6.30483E-15
 -1      2388 1.99752E+01-3.58132E-03-2.95895E-04-6.67044E-02 3.78715E-14 2.46892E-15
 -1      2389 1.99758E+01-6.16885E-03 6.64507E-06-8.04447E-02 2.78713E-14 4.88504E-14
 -1      2390 2.00196E+01-7.58216E-04 7.70619E-05-6.37646E-02-7.06435E-14-5.84173E-14
 -1      2391 2.00035E+01-1.36698E-03-2.12495E-04-6.42974E-02-7.63211E-15 2.20832E-15
 -1      2392 1.99992E+01-2.82571E-03-2.19036E-05-7.69733E-02-4.02780E-14 1.97366E-14
 -1      2393 2.00469E+01-1.20409E-03-5.50216E-05-6.26887E-02-2.97950E-14-3.92541E-14
 -1      2394 2.00314E+01-6.78680E-04-1.35385E-04-6.32401E-02-9.74355E-14-2.82896E-14
 -1      2395 2.00227E+01-1.40647E-03-4.83140E-05-7.54505E-02-7.33455E-14 8.15994E-14
 -1      2396 2.00736E+01-4.63092E-03-3.01916E-04-5.98418E-02 1.06696E-14-3.08583E-14
 -1      2397 2.00592E+01-2.40178E-03-6.79053E-05-6.16259E-02 4.43657E-14-2.37139E-14
 -1      2398 2.00469E+01-3.06618E-03-6.49695E-05-7.39732E-02-1.59670E-14 1.79927E-13
 -1      2399 2.00987E+01-1.23165E-02-7.04933E-04-5.17984E-02 1.35014E-13-1.05208E-13
 -1      2400 2.00865E+01-7.68642E-03-1.38696E-05-5.65658E-02 5.65203E-14-1.01376E-13
 -1      2401 2.00718E+01-9.31217E-03-6.24912E-05-6.95947E-02 7.79624E-14 8.57577E-14
 -1      2402 2.01198E+01-2.56741E-02-1.30085E-03-3.38585E-02 2.79174E-14 3.38828E-14
 -1      2403 2.01119E+01-1.78981E-02 2.07644E-05-4.39643E-02 1.19869E-13-1.81928E-14
 -1      2404 2.00974E+01-2.19593E-02-2.79029E-05-5.80658E-02 5.28350E-14 6.37034E-14
 -1      2405 2.01331E+01-4.59387E-02-2.10625E-03-5.15205E-05-2.80075E-13 1.22506E-13
 -1      2406 2.01327E+01-3.44180E-02 2.54858E-05-1.84072E-02-1.18605E-13 7.76607E-14
 -1      2407 2.01226E+01-4.28988E-02 5.78208E-05-3.36595E-02-7.65646E-14 2.53774E-13
 -1      2408 2.01325E+01-7.35662E-02-3.09295E-03 5.64521E-02-2.07379E-13 9.33961E-14
 -1      2409 2.01441E+01-5.82018E-02-1.78983E-05 2.66568E-02-2.50642E-13 1.18668E-13
 -1      2410 2.01451E+01-7.35644E-02 2.22349E-04 1.07491E-02-2.31037E-13 1.06346E-13
 -1      2411 2.01096E+01-1.07293E-01-4.15590E-03 1.42232E-01-2.26939E-13 1.18619E-13
 -1      2412 2.01391E+01-8.90173E-02-1.38205E-04 9.81762E-02-2.31432E-13 8.86833E-14
 -1      2413 2.01610E+01-1.13981E-01 5.02714E-04 8.30801E-02-2.11012E-13 6.22393E-14
 -1      2414 2.00540E+01-1.42939E-01-5.08310E-03 2.61513E-01-8.29267E-14 1.27419E-13
 -1      2415 2.01078E+01-1.24354E-01-3.73672E-04 2.01882E-01-1.72992E-13 1.49070E-13
 -1      2416 2.01637E+01-1.61372E-01 9.39623E-04 1.90576E-01-2.37660E-13 4.26148E-15
 -1      2417 1.99536E+01-1.72317E-01-5.54368E-03 4.12949E-01-6.24485E-14 1.25917E-13
 -1      2418 2.00381E+01-1.58211E-01-7.63661E-04 3.39552E-01-4.47771E-14 1.06398E-13
 -1      2419 2.01441E+01-2.08534E-01 1.55727E-03 3.37123E-01-6.50020E-14-3.30523E-14
 -1      2420 1.97969E+01-1.83033E-01-5.12920E-03 5.85622E-01 2.04173E-14 2.12903E-13
 -1      2421 1.99164E+01-1.80288E-01-1.31428E-03 5.05214E-01 8.77683E-15 1.78224E-13
 -1      2422 2.00899E+01-2.42620E-01 2.32397E-03 5.19264E-01-5.97416E-14 9.04042E-15
 -1      2423 1.95769E+01-1.60419E-01-3.49968E-03 7.55525E-01-4.99655E-14 4.30647E-13
 -1      2424 1.97310E+01-1.76645E-01-1.95475E-03 6.81067E-01-1.18000E-14 3.49422E-13
 -1      2425 1.99871E+01-2.45579E-01 3.08561E-03 7.21411E-01-9.28838E-14 2.22557E-13
 -1      2426 1.92957E+01-9.26309E-02-6.07391E-04 8.85032E-01-8.97007E-14 3.87400E-13
 -1      2427 1.94773E+01-1.33104E-01-2.47122E-03 8.35122E-01-5.67427E-14 4.48015E-13
 -1      2428 1.98239E+01-1.98025E-01 3.47266E-03 9.11973E-01-7.68516E-14 2.70725E-13
 -1      2429 1.89716E+01 2.16298E-02 3.09239E-03 9.28473E-01 1.46109E-13 2.20516E-13
 -1      2430 1.91647E+01-4.18565E-02-2.46468E-03 9.23689E-01-8.37552E-15 3.00669E-13
 -1      2431 1.95975E+01-8.72660E-02 2.97051E-03 1.04376E+00 1.37034E-14 2.43681E-13
 -1      2432 1.86420E+01 1.65913E-01 6.58062E-03 8.45509E-01-3.60306E-14 4.05789E-13
 -1      2433 1.88224E+01 9.04574E-02-1.45692E-03 9.01438E-01 1.30395E-13 3.15108E-13
 -1      2434 1.93227E+01 8.21342E-02 1.16696E-03 1.06249E+00 4.26423E-14 8.97394E-14
 -1      2435 1.83612E+01 3.05098E-01 8.61134E-03 6.20014E-01 4.48062E-14 4.14309E-13
 -1      2436 1.85009E+01 2.37665E-01 8.22588E-04 7.38861E-01-5.16674E-14 4.05635E-13
 -1      2437 1.90374E+01 2.80547E-01-1.84622E-03 9.24791E-01 1.38127E-16 4.07105E-13
 -1      2438 1.81872E+01 3.96036E-01 8.38998E-03 2.75661E-01 1.73876E-13 4.78983E-13
 -1      2439 1.82613E+01 3.58511E-01 4.05205E-03 4.41085E-01 1.10625E-13 4.68415E-13
 -1      2440 1.87996E+01 4.56337E-01-5.15896E-03 6.21746E-01 1.08342E-13 4.91064E-13
 -1      2441 1.81613E+01 4.06998E-01 6.16383E-03-1.23792E-01 1.51257E-13 5.93473E-13
 -1      2442 1.81559E+01 4.12734E-01 7.23015E-03 5.60029E-02 1.52133E-13 5.57199E-13
 -1      2443 1.86691E+01 5.54132E-01-7.18312E-03 1.94719E-01 1.21829E-13 5.13463E-13
 -1      2444 1.82905E+01 3.33868E-01 2.94021E-03-4.94291E-01 7.83418E-14 5.12747E-13
 -1      2445 1.82073E+01 3.80818E-01 9.02090E-03-3.37447E-01 1.51251E-13 5.55921E-13
 -1      2446 1.86819E+01 5.39866E-01-6.94262E-03-2.70616E-01 1.74436E-13 6.46377E-13
 -1      2447 1.85436E+01 2.02356E-01 7.37383E-05-7.62051E-01 3.73915E-14 3.14194E-13
 -1      2448 1.83996E+01 2.74081E-01 8.59619E-03-6.57249E-01 7.24574E-14 4.95900E-13
 -1      2449 1.88328E+01 4.18378E-01-4.51893E-03-6.74133E-01 2.37326E-13 5.85081E-13
 -1      2450 1.88637E+01 5.48948E-02-1.66268E-03-8.88843E-01-1.64018E-13 3.65282E-13
 -1      2451 1.86853E+01 1.28949E-01 6.04668E-03-8.47787E-01-1.37460E-13 3.24273E-13
 -1      2452 1.90782E+01 2.30744E-01-1.14232E-03-9.38441E-01-2.20727E-14 5.17193E-13
 -1      2453 1.91904E+01-6.95634E-02-2.23152E-03-8.79134E-01-4.54752E-14 3.90883E-13
 -1      2454 1.90055E+01-1.13978E-02 2.33643E-03-8.95640E-01-1.66725E-13 3.40583E-13
 -1      2455 1.93560E+01 3.39446E-02 1.57389E-03-1.03435E+00-2.02057E-13 5.29584E-13
 -1      2456 1.94776E+01-1.49114E-01-1.96739E-03-7.68396E-01 1.05343E-13 4.95684E-13
 -1      2457 1.93089E+01-1.15417E-01-1.26268E-03-8.24823E-01 1.07025E-13 4.28049E-13
 -1      2458 1.96116E+01-1.23816E-01 2.97177E-03-9.81233E-01 5.44302E-14 4.93604E-13
 -1      2459 1.97010E+01-1.80646E-01-1.32720E-03-6.03854E-01 6.79947E-15 5.19786E-13
 -1      2460 1.95624E+01-1.70845E-01-3.85970E-03-6.79353E-01 9.59374E-14 5.00632E-13
 -1      2461 1.98124E+01-2.18447E-01 3.15724E-03-8.27789E-01 1.24741E-13 5.54756E-13
 -1      2462 1.98557E+01-1.73779E-01-6.40218E-04-4.28488E-01 1.56992E-13 4.81272E-13
 -1      2463 1.97523E+01-1.81810E-01-5.15337E-03-5.05193E-01 8.17460E-14 4.45848E-13
 -1      2464 1.99483E+01-2.49655E-01 2.62229E-03-6.29214E-01 1.56057E-13 3.63726E-13
 -1      2465 1.99497E+01-1.43056E-01-6.04556E-05-2.72538E-01 6.51426E-14 5.54094E-13
 -1      2466 1.98798E+01-1.61311E-01-5.29483E-03-3.38498E-01 1.25352E-13 6.07482E-13
 -1      2467 2.00255E+01-2.32375E-01 1.83073E-03-4.31171E-01 1.03701E-13 4.90434E-13
 -1      2468 1.99969E+01-1.02097E-01 3.25619E-04-1.52154E-01-5.54062E-14 6.11154E-13
 -1      2469 1.99546E+01-1.23957E-01-4.69001E-03-2.01457E-01-6.51429E-14 6.21874E-13
 -1      2470 2.00575E+01-1.86247E-01 1.11699E-03-2.62988E-01-3.45817E-14 6.20433E-13
 -1      2471 2.00130E+01-6.11413E-02 6.93667E-04-7.14887E-02 1.06913E-13 6.32210E-13
 -1      2472 1.99906E+01-8.21600E-02-3.73773E-03-1.03393E-01-5.24819E-15 6.31130E-13
 -1      2473 2.00594E+01-1.29146E-01 6.57679E-04-1.38965E-01-1.62943E-14 5.69848E-13
 -1      2474 2.00104E+01-2.90577E-02 3.17009E-04-2.81118E-02-6.34684E-14 6.69790E-13
 -1      2475 2.00007E+01-4.37165E-02-2.55128E-03-4.45281E-02 5.38419E-14 7.21225E-13
 -1      2476 2.00449E+01-7.26010E-02 1.24177E-03-6.02573E-02-2.99434E-14 8.36471E-13
 -1      2477 2.00006E+01-1.66118E-02-7.97337E-04-1.66731E-02-5.16595E-14 4.66496E-13
 -1      2478 2.01428E+01 2.79827E-02 2.07839E-03 2.61487E-01 3.50378E-13 2.76529E-13
 -1      2479 2.01429E+01-1.41450E-02 1.29081E-03 2.09227E-01 2.24845E-13-2.13899E-13
 -1      2480 2.01106E+01 1.31109E-01 2.68743E-04 3.70262E-01 3.35933E-13 6.37586E-13
 -1      2481 2.01328E+01 7.01755E-02 2.45403E-03 3.25419E-01 3.00125E-13 4.92616E-13
 -1      2482 2.01793E+01-2.86099E-02-3.02111E-03 3.34724E-01 4.20927E-13 3.23078E-13
 -1      2483 2.00988E+01-4.64129E-02 3.24882E-03 5.42888E-02 5.17655E-14 3.55759E-14
 -1      2484 2.00734E+01-5.56550E-02-8.40833E-04 2.09782E-02 1.29326E-13 2.68872E-13
 -1      2485 2.01347E+01-2.88211E-02 3.00273E-03 1.47123E-01 1.09733E-14-3.72123E-13
 -1      2486 2.01183E+01-5.16647E-02 2.26812E-04 1.01273E-01-2.68583E-14-9.01898E-14
 -1      2487 2.01405E+01-9.54548E-02-2.42545E-03 8.09850E-02 2.03901E-14-2.13412E-15
 -1      2488 2.01816E+01-8.47141E-02-2.56016E-03 1.98486E-01 1.58983E-13-1.12652E-13
 -1      2489 2.00332E+01 2.78235E-01-2.24817E-03 4.38775E-01 1.30128E-13 3.00616E-13
 -1      2490 2.00787E+01 2.03820E-01 3.42968E-03 4.17425E-01 2.31911E-13 2.45829E-13
 -1      2491 2.01213E+01 8.21257E-02-3.23468E-03 4.56226E-01 2.66062E-14 4.03476E-13
 -1      2492 1.99189E+01 4.54638E-01-4.89414E-03 4.32777E-01 3.60985E-14 7.75729E-14
 -1      2493 1.99816E+01 3.77218E-01 3.80100E-03 4.49479E-01-6.55368E-15 3.08158E-13
 -1      2494 2.00070E+01 2.46533E-01-2.38048E-03 5.22261E-01-1.90966E-15 2.41986E-13
 -1      2495 1.97927E+01 6.31620E-01-6.71093E-03 3.28954E-01-1.43847E-14-2.81584E-13
 -1      2496 1.98575E+01 5.65765E-01 3.10541E-03 3.91207E-01 2.59440E-14-7.27257E-14
 -1      2497 1.98519E+01 4.47358E-01-4.46627E-04 4.93940E-01-7.54703E-14-2.55484E-14
 -1      2498 1.96944E+01 7.67919E-01-6.91914E-03 1.32825E-01 1.45092E-13-5.46910E-13
 -1      2499 1.97397E+01 7.29865E-01 1.07724E-03 2.32907E-01 1.33440E-13-5.84719E-13
 -1      2500 1.96941E+01 6.47745E-01 2.16424E-03 3.50328E-01-2.44926E-14-4.29838E-13
 -1      2501 1.96633E+01 8.28785E-01-5.12615E-03-1.28566E-01 3.88728E-13-1.52719E-14
 -1      2502 1.96687E+01 8.29337E-01-1.85558E-03-7.24620E-03 2.88905E-13-2.80137E-13
 -1      2503 1.95852E+01 8.02579E-01 5.15163E-03 9.94385E-02 1.65073E-13-2.64335E-13
 -1      2504 1.97356E+01 7.80495E-01-2.30181E-03-3.85653E-01 3.84174E-14-7.40867E-13
 -1      2505 1.96869E+01 8.27375E-01-4.98870E-03-2.79937E-01 2.84279E-13-2.51299E-13
 -1      2506 1.95772E+01 8.64113E-01 7.03235E-03-2.15617E-01 1.69890E-13-2.60455E-13
 -1      2507 1.98990E+01 6.33591E-01 1.03243E-03-5.45082E-01-8.59972E-14-5.33863E-13
 -1      2508 1.98033E+01 7.20053E-01-6.91962E-03-4.91848E-01-1.94443E-14-7.99378E-13
 -1      2509 1.96934E+01 8.05846E-01 6.21956E-03-4.93629E-01-1.17785E-13-8.93005E-13
 -1      2510 1.99202E+01 6.50823E-01 8.80825E-03-6.58303E-01 1.81008E-14-5.66740E-13
 -1      2511 1.92338E+01-4.99283E+00 1.26487E-02 7.88288E+00-9.99201E-14-1.54255E-13
 -1      2512 1.54527E+01-4.86627E+00 7.07997E-02 8.09201E+00-2.19325E-13 2.04003E-15
 -1      2513 3.44942E+01 8.58074E+00-1.42895E-01 2.90584E-01 2.35811E-13-9.60204E-14
 -1      2514 3.48980E+01 8.72952E+00-1.26977E-01-9.29181E-02 1.15963E-13-2.15772E-13
 -1      2515 1.23853E+01-4.23410E+00 8.78151E-02 8.31487E+00-2.01450E-13 1.45092E-13
 -1      2516 9.21686E+00-3.75616E+00 1.39588E-01 7.37748E+00-2.30205E-13-6.10068E-14
 -1      2517 1.57478E+01-4.06561E+00 1.29937E-01 7.93637E+00-4.44089E-14-5.06539E-15
 -1      2518 1.96252E+01 7.29124E-02 2.00082E-03-6.71912E-02 1.16898E-14 8.09932E-14
 -1      2519 1.96522E+01 1.04428E-01 6.69583E-03-2.07172E-02 2.22449E-14 1.13381E-13
 -1      2520 1.98500E+01 1.81224E-01-4.05723E-03 6.38585E-02 4.50310E-14 7.62090E-14
 -1      2521 1.97695E+01 9.03496E-02-3.24170E-03-7.28879E-02 3.18281E-14 1.97490E-14
 -1      2522 2.41120E+01-4.46344E+00 1.02220E-01-4.67905E+00 6.00076E-14-5.22735E-13
 -1      2523 2.24901E+01-2.45789E+00 1.84424E-01-5.24001E+00 1.71113E-13-5.90493E-13
 -1      2524 2.05455E+01 1.96833E+00-1.46565E-02-1.90996E+00-1.39184E-13-2.10082E-13
 -1      2525 2.04221E+01 1.24525E+00-5.98256E-03-1.31413E+00-1.43081E-13-1.91946E-13
 -1      2526 2.03768E+01 1.40007E+00 3.24347E-03-1.25209E+00-1.30466E-13-2.07961E-13
 -1      2527 2.02870E+01 2.37942E+00-7.53353E-03-1.83510E+00-1.22295E-13-2.36708E-13
 -1      2528 1.14648E+01-4.91350E+00 1.40066E-03-5.71824E+00 1.75637E-13-4.09062E-13
 -1      2529 1.62002E+01-5.43470E+00 2.39194E-02-6.08108E+00-1.75970E-14-5.96204E-13
 -1      2530 1.95187E+01 3.58522E+00-1.01082E-02-2.45431E-01 8.40921E-14-1.96739E-13
 -1      2531 1.95348E+01 3.56449E+00-9.68225E-03-4.26073E-01 6.39716E-14-1.96274E-13
 -1      2532 1.97112E+01 3.16392E+00-6.18622E-04-4.73275E-01 5.50414E-14-1.75693E-13
 -1      2533 1.96767E+01 3.22394E+00-9.36011E-04-1.52205E-01 8.02856E-14-1.83763E-13
 -1      2534 3.27288E+01 4.17557E-01-6.43840E-02 1.92677E+00-1.45748E-13-2.03726E-13
 -1      2535 3.07452E+01-1.30144E+00-4.59945E-02 2.77622E+00-2.05589E-13-1.71752E-13
 -1      2536 3.51995E+01 4.95672E+00-1.05272E-01 4.40382E-02-1.10606E-13-2.56711E-13
 -1      2537 3.38333E+01 2.81546E+00-7.04353E-02 7.28022E-01-1.16268E-13-2.08999E-13
 -1      2538 3.46016E+01 5.46593E+00-8.46263E-02 3.25575E-01 3.49609E-13-7.04714E-14
 -1      2539 3.44427E+01 7.03191E+00-2.01478E-01 6.89290E-01 3.36620E-13-1.05499E-13
 -1      2540 3.25476E+01 1.02310E+00-8.35634E-02-1.36885E+00 3.58935E-13-2.99094E-13
 -1      2541 3.42805E+01 3.22693E+00-1.32559E-01-4.79447E-01 4.27491E-13-1.12133E-13
 -1      2542 2.82547E+01-3.12710E+00 2.67302E-03-4.15131E+00 1.45217E-13-2.61235E-13
 -1      2543 3.09699E+01-1.44745E+00-9.56261E-02-3.01922E+00 2.16820E-13-3.29042E-13
 -1      2544 2.05515E+01-5.06351E+00 2.16314E-02-7.40994E+00 6.33937E-14-4.18526E-13
 -1      2545 2.45873E+01-4.48109E+00-8.57438E-02-6.52532E+00 1.04583E-13-3.19980E-13
 -1      2546 1.28763E+01-4.89087E+00 5.11588E-02-8.12454E+00 7.36078E-14-3.05006E-13
 -1      2547 1.68895E+01-4.92188E+00 1.31872E-02-8.42683E+00 6.01186E-14-5.32178E-13
 -1      2548 2.01963E+01-5.00588E+00 1.00082E-01-7.56408E+00 2.54796E-14-4.54334E-13
 -1      2549 5.82061E+00-3.32955E+00 1.03059E-01-6.18126E+00-1.34809E-13-2.73448E-13
 -1      2550 8.76243E+00-4.11751E+00 4.01718E-02-7.74075E+00 7.59393E-14-6.35325E-14
 -1      2551 3.05127E+00-1.84865E+00 1.69072E-01-1.49149E+00-3.34557E-13-4.69236E-13
 -1      2552 3.79435E+00-2.12523E+00 1.24936E-01-4.06374E+00-1.73972E-13-4.75064E-13
 -1      2553 4.55415E+00-3.30400E+00 6.89250E-02 3.14573E+00-3.44919E-13-6.16285E-13
 -1      2554 3.12117E+00-2.37515E+00 8.94645E-02 1.13124E+00-2.61666E-13-6.07236E-13
 -1      2555 2.18518E+01-5.95470E+00-1.53861E-02 5.24373E+00-1.11355E-13-6.17149E-13
 -1      2556 1.71818E+01-5.15269E+00 5.84853E-02 5.81068E+00-1.68088E-13-5.29327E-13
 -1      2557 3.51987E+01 8.00024E+00-1.64595E-01-4.56892E-01-1.05471E-14-2.53894E-13
 -1      2558 3.52431E+01 6.90803E+00-8.42257E-02-4.34496E-01-1.70142E-13-2.20240E-13
 -1      2559 5.15531E+00-2.71662E+00 6.30922E-02 5.66287E+00-4.25493E-14-2.16493E-15
 -1      2560 3.15295E+00-2.53230E+00 1.27158E-01 3.11035E+00 9.50073E-14 1.39444E-13
 -1      2561 3.24063E+01 1.22927E+00-4.36315E-02 1.27572E-01-9.35224E-14-7.73270E-14
 -1      2562 1.99121E+01 2.81388E+00 1.44307E-03-1.09937E+00-3.48909E-14-2.25013E-13
 -1      2563 1.97820E+01 3.16169E+00-1.46447E-02-1.28633E+00-3.72417E-14-2.44856E-13
 -1      2564 1.98786E+01 3.02510E+00-1.71865E-02-1.47552E+00-7.21881E-14-2.44955E-13
 -1      2565 1.80839E+01 7.31643E-01 3.84037E-02-4.86361E+00 3.19016E-13-3.45099E-13
 -1      2566 1.16735E+01-3.01598E+00 1.41907E-01-5.51685E+00 2.19408E-13-3.88967E-13
 -1      2567 2.16991E+01-5.55136E+00-5.43656E-02-5.33540E+00-6.55032E-15-5.83047E-13
 -1      2568 3.25861E+01 8.18159E+00-8.48188E-02-5.18714E-01 4.24105E-14-5.70030E-14
 -1      2569 2.97713E+01-2.54663E+00-7.70219E-02 1.84097E+00-1.51986E-13-1.01030E-13
 -1      2570 2.93320E+01-3.01121E+00-4.80811E-02 3.51097E+00-1.36655E-13-2.17909E-13
 -1      2571 2.75358E+01-4.05240E+00 8.30028E-02 4.05548E+00-2.06779E-14-2.85078E-13
 -1      2572 4.74864E+00-8.51308E-01 1.82371E-01 1.69885E+00 2.01360E-13-1.05693E-13
 -1      2573 1.87349E+01-1.80682E+00 6.53966E-02-5.70179E+00 2.00243E-13-5.56166E-13
 -1      2574 2.00223E+01-3.36551E-02-3.58619E-04-2.01968E-02 4.88590E-14 5.45341E-13
 -1      2575 2.00401E+01-3.67216E-02 1.38910E-03-9.01743E-03 1.43204E-13 5.64033E-13
 -1      2576 2.20489E+01-5.08890E+00 7.10271E-02 6.95064E+00-9.17322E-14-3.69940E-13
 -1      2577 2.10262E+01-4.78055E+00 1.19746E-01 7.03460E+00-7.50094E-14-3.68774E-13
 -1      2578 2.43354E+01-5.08557E+00-1.23080E-01 5.74285E+00-1.08163E-13-4.48461E-13
 -1      2579 3.23186E+01 7.48594E+00-9.33826E-02 8.91521E-01 2.92211E-13-1.33463E-13
 -1      2580 8.90013E+00-2.19644E+00 1.73202E-01 6.42708E+00 1.06720E-13-3.33622E-14
 -1      2581 4.81587E+00-7.73205E-01 1.60166E-01-7.82492E-02-2.81960E-13-5.33351E-13
 -1      2582 1.27361E+01-3.84483E+00 1.21674E-01-7.98014E+00-2.77278E-14-2.64289E-13
 -1      2583 2.68744E+01-4.26461E+00 3.64647E-02-4.62419E+00 2.10665E-14-2.29636E-13
 -1      2584 3.11904E+01-7.31179E-01 4.07184E-03-8.34009E-01 2.10981E-13-1.55598E-13
 -1      2585 3.24918E+01 3.79285E+00-2.71411E-02 1.00484E+00 4.28046E-13-1.65035E-13
 -1      2586 1.99851E+01 2.84555E+00-1.51088E-02-1.58897E+00-9.02530E-14-2.43014E-13
 -1      2587 2.01313E+01 2.61849E+00-2.23733E-02-1.75523E+00-1.08830E-13-2.54926E-13
 -1      2588 2.02833E+01 2.07072E+00 3.84615E-03-1.49728E+00-1.17142E-13-2.34084E-13
 -1      2589 2.00842E+01 2.49987E+00 3.88406E-03-1.34529E+00-6.90176E-14-2.30397E-13
 -1      2590 3.32208E+01 5.55846E+00-4.67350E-02-1.00205E+00-9.04554E-14-1.27481E-13
 -1      2591 2.39787E+01-5.35808E+00 2.50681E-02 4.68336E+00-8.00471E-14-5.45307E-13
 -1      2592 6.56848E+00-1.60372E+00 1.57816E-01-5.11351E+00-2.76446E-13-3.80362E-13
 -1      2593 1.14515E+01-3.89592E+00 1.69901E-02 5.92937E+00-3.22908E-13-5.42122E-13
 -1      2594 7.25201E+00-3.47579E+00 8.81071E-02 4.34055E+00-3.68733E-13-5.06650E-13
 -1      2595 2.00708E+01-7.31983E-02-2.01783E-03-4.79385E-03 4.18764E-14 5.14817E-13
 -1      2596 1.58985E+01-3.51331E+00 1.09667E-01 5.80179E+00-2.82052E-13-4.84973E-13
 -1      2597 8.10356E+00-1.59333E+00 1.35685E-01 4.14063E+00-3.89438E-13-5.46452E-13
 -1      2598 1.98447E+01 2.76553E+00-6.30443E-03 5.15767E-01 1.39144E-13-1.56180E-13
 -1      2599 1.98198E+01 2.81531E+00-5.70602E-03 3.64961E-01 1.27061E-13-1.68749E-13
 -1      2600 1.98029E+01 2.85284E+00-5.61960E-03 2.29553E-01 1.09462E-13-1.77555E-13
 -1      2601 1.97943E+01 2.86973E+00-5.42471E-03 7.49995E-02 1.00786E-13-1.75227E-13
 -1      2602 1.99492E+01 2.50169E+00 3.64018E-03 2.64856E-01 1.18062E-13-1.67415E-13
 -1      2603 2.00435E+01 2.32390E+00-1.09478E-02 1.04494E+00 1.78795E-13-8.12566E-14
 -1      2604 1.99790E+01 2.47347E+00-6.39851E-03 9.09624E-01 1.76514E-13-1.02470E-13
 -1      2605 2.02058E+01 1.91484E+00-1.51211E-02 1.22970E+00 1.80563E-13-9.07824E-15
 -1      2606 2.01234E+01 2.14711E+00-5.17695E-03 1.13230E+00 1.70104E-13-3.98136E-14
 -1      2607 2.01899E+01 1.89037E+00 7.42318E-03 9.27028E-01 1.75487E-13-5.51257E-14
 -1      2608 2.03874E+01 1.34875E+00-9.43648E-03 1.25491E+00 1.68751E-13 5.17451E-14
 -1      2609 2.02993E+01 1.68573E+00 6.71825E-04 1.25949E+00 1.71996E-13 2.39925E-14
 -1      2610 2.03043E+01 1.46599E+00 9.12801E-03 1.01300E+00 1.62407E-13 2.57335E-16
 -1      2611 2.04123E+01 8.99989E-01-6.23917E-04 1.06792E+00 1.59471E-13 1.25440E-13
 -1      2612 2.04036E+01 1.17821E+00 6.12612E-03 1.18719E+00 1.60304E-13 9.13076E-14
 -1      2613 2.03229E+01 1.02040E+00 3.32873E-03 9.33954E-01 1.59233E-13 6.16573E-14
 -1      2614 2.02410E+01 6.72586E-01 6.06366E-03 7.52014E-01 1.47419E-13 1.20084E-13
 -1      2615 1.98748E+01 2.69695E+00-6.13825E-03-6.35213E-01 2.93916E-14-1.78076E-13
 -1      2616 1.99178E+01 2.60686E+00-7.88890E-03-7.84603E-01-3.63994E-16-1.89828E-13
 -1      2617 2.02195E+01 6.44608E-01 7.04941E-03-4.53610E-01-8.01803E-14-1.75429E-13
 -1      2618 2.01378E+01 4.90287E-01-3.02999E-03-2.90630E-01-7.46733E-14-1.73455E-13
 -1      2619 2.01117E+01 3.73083E-01 6.58167E-03-1.68624E-01-7.83656E-14-1.60698E-13
 -1      2620 2.00516E+01 2.76465E-01-1.82053E-03-6.82606E-02-6.94125E-14-1.72407E-13
 -1      2621 2.01994E+01 5.42677E-01-1.86355E-03-2.73240E-01-7.04870E-14-1.57691E-13
 -1      2622 2.00253E+01 2.04650E-01 4.60983E-03 9.12396E-03-5.82689E-14-1.54342E-13
 -1      2623 1.99886E+01 1.43846E-01-8.60116E-04 6.75441E-02-4.93332E-14-1.68080E-13
 -1      2624 2.01301E+01 3.08469E-01-2.10482E-03-6.22938E-02-5.27995E-14-1.27866E-13
 -1      2625 1.99674E+01 9.87969E-02 2.96427E-03 1.12477E-01-3.66201E-14-1.37329E-13
 -1      2626 1.99487E+01 6.07848E-02-2.99983E-04 1.43260E-01-3.19563E-14-9.84898E-14
 -1      2627 2.00729E+01 1.59284E-01-1.91629E-03 6.87781E-02-3.24000E-14-9.60545E-14
 -1      2628 1.99336E+01 3.28278E-02 1.77860E-03 1.65950E-01-4.06638E-14-8.44058E-14
 -1      2629 1.99275E+01 9.69997E-03 1.32949E-05 1.78898E-01-4.13403E-14-6.58795E-14
 -1      2630 2.00313E+01 6.51413E-02-1.54587E-03 1.42694E-01-2.11135E-14-4.49386E-14
 -1      2631 1.99176E+01-6.98979E-03 9.56584E-04 1.86999E-01-4.90350E-14-2.83770E-14
 -1      2632 1.99195E+01-2.01986E-02 1.83305E-04 1.88845E-01-4.30382E-14-2.99599E-14
 -1      2633 2.00036E+01 7.23106E-03-1.16620E-03 1.77804E-01-2.81739E-14-2.84097E-14
 -1      2634 1.99137E+01-2.93266E-02 4.04231E-04 1.87896E-01-9.11675E-14-2.89138E-14
 -1      2635 1.99205E+01-3.58615E-02 2.73505E-04 1.83277E-01-1.06225E-13-6.47035E-14
 -1      2636 1.99869E+01-2.64155E-02-8.44835E-04 1.87803E-01-8.12756E-14-3.35307E-14
 -1      2637 1.99178E+01-3.98783E-02 4.61100E-05 1.77217E-01-1.11267E-13-6.04858E-14
 -1      2638 1.99272E+01-4.19086E-02 3.23763E-04 1.69326E-01-8.54252E-14-6.83151E-14
 -1      2639 1.99783E+01-4.36619E-02-5.95037E-04 1.82592E-01-9.55361E-14 2.46328E-14
 -1      2640 1.99265E+01-4.24760E-02-1.80016E-04 1.60927E-01-6.11312E-14-1.04472E-13
 -1      2641 1.99372E+01-4.14447E-02 3.38123E-04 1.51957E-01-5.52275E-14-9.74114E-14
 -1      2642 1.99754E+01-4.97790E-02-4.09655E-04 1.69210E-01-9.74250E-14-2.54576E-14
 -1      2643 1.99378E+01-3.97874E-02-3.14489E-04 1.43609E-01-4.59776E-14-9.67109E-14
 -1      2644 1.99484E+01-3.68303E-02 3.67519E-04 1.35468E-01-1.95006E-14-1.49032E-13
 -1      2645 1.99764E+01-4.84647E-02-2.62140E-04 1.53041E-01-6.14495E-14-2.47695E-14
 -1      2646 1.99501E+01-3.34167E-02-3.79345E-04 1.27540E-01 5.84716E-14-1.51352E-13
 -1      2647 1.99613E+01-2.87908E-02 4.09653E-04 1.20503E-01 5.25604E-14-1.16745E-13
 -1      2648 1.99797E+01-4.20554E-02-1.94386E-04 1.37057E-01 6.35544E-15-4.88278E-14
 -1      2649 1.99636E+01-2.40012E-02-4.23604E-04 1.14474E-01 1.39380E-14-7.59142E-14
 -1      2650 1.99748E+01-1.80180E-02 4.59668E-04 1.09820E-01 3.44975E-14-1.04691E-13
 -1      2651 1.99849E+01-3.15903E-02-1.33363E-04 1.23311E-01 5.61274E-14-1.03444E-13
 -1      2652 1.99773E+01-1.19316E-02-4.62366E-04 1.06510E-01 9.08995E-15-6.50870E-14
 -1      2653 1.99887E+01-4.47915E-03 5.38714E-04 1.05029E-01-2.05546E-14-9.02969E-14
 -1      2654 1.99910E+01-1.77084E-02-8.66403E-05 1.14151E-01 6.38041E-14-9.07345E-14
 -1      2655 1.99911E+01 3.14806E-03-5.17409E-04 1.05202E-01-3.96941E-14-9.52440E-14
 -1      2656 2.00030E+01 1.25181E-02 6.56513E-04 1.07757E-01 2.14107E-14-1.22657E-13
 -1      2657 1.99976E+01-2.15787E-04-3.99431E-05 1.11217E-01-4.59794E-14-7.71774E-14
 -1      2658 2.00048E+01 2.22818E-02-6.15111E-04 1.12268E-01 5.99922E-14-1.48967E-13
 -1      2659 2.00176E+01 3.44364E-02 8.24964E-04 1.19966E-01 2.20535E-14-1.82637E-13
 -1      2660 2.00038E+01 2.19044E-02 2.71573E-05 1.16156E-01-3.44690E-14-1.18950E-13
 -1      2661 2.00178E+01 4.73805E-02-7.89362E-04 1.29893E-01-3.57614E-14-1.81200E-13
 -1      2662 2.00318E+01 6.37402E-02 1.05630E-03 1.44270E-01-8.08528E-14-2.31585E-13
 -1      2663 2.00085E+01 5.06456E-02 1.45982E-04 1.30879E-01-3.14191E-14-2.73364E-13
 -1      2664 2.00289E+01 8.15214E-02-1.08766E-03 1.61058E-01-6.18926E-14-1.95979E-13
 -1      2665 2.00441E+01 1.04271E-01 1.36024E-03 1.84308E-01-4.48341E-15-2.04869E-13
 -1      2666 2.00094E+01 8.92731E-02 3.66672E-04 1.57817E-01-5.76083E-14-3.27746E-13
 -1      2667 2.00352E+01 1.29402E-01-1.57901E-03 2.09912E-01 6.00640E-15-1.21321E-13
 -1      2668 2.00511E+01 1.61784E-01 1.73710E-03 2.45153E-01-2.87049E-14-2.08305E-13
 -1      2669 2.00029E+01 1.42778E-01 7.71193E-04 2.00150E-01 8.39576E-15-2.72048E-13
 -1      2670 2.00313E+01 1.97964E-01-2.36407E-03 2.82160E-01 8.19630E-16-2.02606E-13
 -1      2671 2.00460E+01 2.44644E-01 2.16326E-03 3.33735E-01 3.19495E-14-1.95409E-13
 -1      2672 1.99820E+01 2.18495E-01 1.49334E-03 2.61976E-01-1.87885E-14-1.85785E-13
 -1      2673 2.00072E+01 2.97125E-01-3.58779E-03 3.85418E-01-6.26043E-14-2.47980E-13
 -1      2674 2.00161E+01 3.64535E-01 2.56426E-03 4.59153E-01-9.30127E-14-2.33833E-13
 -1      2675 1.99351E+01 3.26818E-01 2.74765E-03 3.48318E-01-4.28093E-14-2.85574E-13
 -1      2676 1.99448E+01 4.40390E-01-5.45515E-03 5.29363E-01-2.40501E-14-2.34814E-13
 -1      2677 1.99393E+01 5.36780E-01 2.77122E-03 6.32625E-01-3.28312E-14-1.11521E-13
 -1      2678 1.98424E+01 4.81781E-01 4.86678E-03 4.64781E-01-3.34347E-14-2.07504E-13
 -1      2679 1.98138E+01 6.44612E-01-8.24910E-03 7.25394E-01-1.21672E-13-5.49625E-14
 -1      2680 1.97775E+01 7.79107E-01 2.47949E-03 8.66661E-01-1.11470E-13-1.08473E-13
 -1      2681 1.96716E+01 7.00831E-01 8.34276E-03 6.16560E-01-3.81754E-14-1.20918E-13
 -1      2682 1.95643E+01 9.27123E-01-1.23243E-02 9.85484E-01-1.53925E-13-1.15900E-13
 -1      2683 1.94699E+01 1.10609E+00 1.26798E-03 1.17310E+00-1.82213E-13-1.70183E-13
 -1      2684 1.93711E+01 1.00225E+00 1.38660E-02 8.06549E-01-1.27848E-13-1.00269E-13
 -1      2685 1.91188E+01 1.29695E+00-1.77035E-02 1.32016E+00-1.51749E-13-4.44099E-14
 -1      2686 1.89225E+01 1.51421E+00-7.50642E-04 1.56027E+00-1.40745E-13-1.96590E-13
 -1      2687 1.88613E+01 1.39656E+00 2.23339E-02 1.03276E+00-1.05798E-13-6.76252E-14
 -1      2688 1.83906E+01 1.71357E+00-2.55991E-02 1.72920E+00-9.38179E-14-1.79927E-13
 -1      2689 1.80732E+01 1.92570E+00-1.43058E-03 2.00642E+00-5.27529E-15-2.19033E-13
 -1      2690 1.80544E+01 1.85950E+00 3.68813E-02 1.27908E+00-1.03180E-13-4.00140E-14
 -1      2691 1.72234E+01 2.09704E+00-3.00289E-02 2.22644E+00 4.30836E-14-2.68578E-13
 -1      2692 1.67126E+01 2.21014E+00 1.35036E-02 2.57674E+00 1.11151E-13-1.65295E-13
 -1      2693 1.67769E+01 2.31699E+00 5.67478E-02 1.55190E+00 2.62687E-14 2.17339E-14
 -1      2694 1.54385E+01 2.16297E+00-1.63639E-02 2.88413E+00 3.58619E-14-1.92978E-13
 -1      2695 1.47766E+01 1.90305E+00 7.44797E-02 3.31676E+00-1.17809E-13-2.38740E-13
 -1      2696 1.47634E+01 2.54386E+00 8.63746E-02 1.87602E+00 4.88151E-15-1.88877E-13
 -1      2697 1.98432E+01 8.01773E-03 2.14787E-04-1.79498E-01 4.41363E-14-6.72550E-14
 -1      2698 1.98428E+01 2.71277E-02 1.77968E-03-1.68055E-01 3.09523E-14-5.28284E-14
 -1      2699 1.80339E+01 1.95134E+00 7.70249E-03-2.62024E+00-1.26624E-13-4.02425E-13
 -1      2700 1.83286E+01 1.78303E+00-2.42272E-02-2.26620E+00-4.37129E-14-4.35370E-13
 -1      2701 1.89447E+01 1.59029E+00 2.58276E-03-2.02120E+00 1.02503E-13-5.68212E-13
 -1      2702 1.91119E+01 1.38126E+00-1.88524E-02-1.72972E+00 2.47897E-14-5.42761E-13
 -1      2703 1.78530E+01 1.98673E+00 4.12730E-02-1.77916E+00-1.00717E-13-4.02959E-13
 -1      2704 1.95006E+01 1.19240E+00 3.04799E-03-1.53354E+00 6.58167E-14-6.67322E-13
 -1      2705 1.95748E+01 1.01538E+00-1.26917E-02-1.30259E+00 6.43974E-14-4.94079E-13
 -1      2706 1.87843E+01 1.52475E+00 2.50566E-02-1.41518E+00 2.86289E-14-4.55965E-13
 -1      2707 1.98108E+01 8.70469E-01 3.99425E-03-1.14389E+00 5.55519E-14-4.96717E-13
 -1      2708 1.98305E+01 7.50790E-01-5.94698E-03-9.68656E-01 5.26955E-14-4.78484E-13
 -1      2709 1.93545E+01 1.12809E+00 1.52083E-02-1.10634E+00 6.83795E-14-6.78213E-13
 -1      2710 1.99060E+01 7.11623E-01 7.70076E-03-8.68870E-01-3.97403E-14-5.29388E-13
 -1      2711 1.98608E+01 6.73267E-01-3.16479E-04-7.36447E-01-5.01166E-14-5.59984E-13
 -1      2712 1.97127E+01 7.62754E-01-6.86541E-03-6.82746E-01-6.28691E-14-7.67361E-13
 -1      2713 1.96081E+01 8.87354E-01 4.53280E-03-8.61883E-01 5.02453E-14-6.62266E-13
 -1      2714 1.98456E+01-1.65157E-02 2.72302E-04-1.88052E-01 3.47678E-14-6.01829E-15
 -1      2715 1.98368E+01-5.67715E-03 8.75448E-04-1.87102E-01 4.15297E-14-4.88085E-14
 -1      2716 1.99303E+01 5.98603E-03-1.25932E-03-1.82620E-01 3.57050E-14-8.02798E-14
 -1      2717 1.98563E+01 5.01714E-02 6.19235E-05-1.45919E-01 2.94345E-14-4.14550E-14
 -1      2718 1.98700E+01 8.19401E-02 3.14784E-03-1.17361E-01 5.28970E-14-5.23109E-15
 -1      2719 1.99520E+01 5.52904E-02-1.76878E-03-1.48355E-01 5.57619E-14-8.55934E-14
 -1      2720 1.98575E+01-2.93484E-02 2.88540E-04-1.81630E-01 9.83589E-14-1.04969E-15
 -1      2721 1.98441E+01-2.40096E-02 2.88460E-04-1.86719E-01 6.20531E-14 1.12839E-14
 -1      2722 1.99219E+01-2.24925E-02-8.56044E-04-1.91628E-01 4.08239E-14-7.34073E-14
 -1      2723 1.98746E+01-3.43804E-02 2.88325E-04-1.67160E-01 1.36345E-13-2.86804E-14
 -1      2724 1.98592E+01-3.26931E-02-7.68783E-05-1.75275E-01 1.37596E-13 9.36141E-15
 -1      2725 1.99223E+01-3.70792E-02-5.57737E-04-1.85458E-01 1.37167E-13-3.04311E-14
 -1      2726 1.98940E+01-3.42722E-02 2.83787E-04-1.49362E-01 5.35163E-14 1.91990E-14
 -1      2727 1.98781E+01-3.49696E-02-2.89570E-04-1.58483E-01 7.96717E-14-4.43416E-15
 -1      2728 1.99283E+01-4.23984E-02-3.47089E-04-1.71148E-01 9.80552E-14 2.21698E-14
 -1      2729 1.99139E+01-3.08745E-02 2.80535E-04-1.31388E-01 5.53173E-14 5.06575E-14
 -1      2730 1.98985E+01-3.30735E-02-3.98874E-04-1.40186E-01 7.10349E-14 1.01443E-14
 -1      2731 1.99373E+01-4.16263E-02-2.05035E-04-1.53523E-01 6.07420E-14 3.07359E-14
 -1      2732 1.99335E+01-2.55050E-02 2.79950E-04-1.15270E-01 3.31253E-14 2.68150E-14
 -1      2733 1.99190E+01-2.85735E-02-4.39357E-04-1.22909E-01 4.73686E-14 4.63821E-14
 -1      2734 1.99480E+01-3.69845E-02-1.15048E-04-1.35821E-01 5.49886E-14 7.98299E-14
 -1      2735 1.99524E+01-1.91511E-02 2.80181E-04-1.02223E-01 5.43002E-14 9.76298E-14
 -1      2736 1.99388E+01-2.26077E-02-4.34299E-04-1.08232E-01 2.39413E-14 6.80401E-14
 -1      2737 1.99595E+01-3.00710E-02-6.44043E-05-1.20133E-01 3.24155E-14 4.32205E-14
 -1      2738 1.99707E+01-1.26382E-02 2.76141E-04-9.28257E-02 6.82657E-14 7.94813E-14
 -1      2739 1.99579E+01-1.60669E-02-3.98316E-04-9.70224E-02 8.83860E-14 1.16675E-13
 -1      2740 1.99713E+01-2.21072E-02-4.33628E-05-1.07703E-01 5.57031E-14 1.46659E-13
 -1      2741 1.99888E+01-6.78535E-03 2.58720E-04-8.71025E-02 2.72722E-14 1.43943E-13
 -1      2742 1.99765E+01-9.75403E-03-3.38802E-04-8.95732E-02 2.11606E-14 1.23795E-13
 -1      2743 1.99835E+01-1.41495E-02-4.56394E-05-9.91081E-02 3.60437E-14 1.66723E-13
 -1      2744 2.00071E+01-2.56241E-03 2.13789E-04-8.45089E-02-6.48436E-14 1.19063E-13
 -1      2745 1.99951E+01-4.54071E-03-2.56640E-04-8.56296E-02 2.57260E-14 1.27789E-13
 -1      2746 1.99963E+01-7.28715E-03-6.80941E-05-9.43312E-02 3.88737E-15 1.54913E-13
 -1      2747 2.00263E+01-1.24132E-03 1.21190E-04-8.38202E-02-4.56122E-14 7.40402E-14
 -1      2748 2.00143E+01-1.52285E-03-1.46945E-04-8.43255E-02-7.96429E-14 7.66315E-14
 -1      2749 2.00103E+01-2.83885E-03-1.10266E-04-9.27367E-02-3.95410E-14 1.05618E-13
 -1      2750 2.00473E+01-4.52522E-03-4.57985E-05-8.29342E-02-2.81884E-14 8.71470E-14
 -1      2751 2.00352E+01-2.16429E-03 2.06410E-07-8.40243E-02-2.40540E-14 9.19818E-14
 -1      2752 2.00265E+01-2.53770E-03-1.74135E-04-9.29395E-02-4.06823E-14 2.33965E-14
 -1      2753 2.00705E+01-1.46124E-02-3.19775E-04-7.86051E-02 8.58764E-14 8.58289E-14
 -1      2754 2.00585E+01-8.40187E-03 1.98224E-04-8.20776E-02 3.88484E-14 5.59948E-14
 -1      2755 2.00462E+01-8.67559E-03-2.62770E-04-9.25830E-02 7.23053E-15-4.47686E-14
 -1      2756 2.00968E+01-3.41136E-02-7.35907E-04-6.61610E-02-1.81294E-14 1.82587E-13
 -1      2757 2.00853E+01-2.26513E-02 4.60463E-04-7.45328E-02 3.57010E-14 9.03041E-14
 -1      2758 2.00708E+01-2.41439E-02-3.77682E-04-8.80420E-02 1.27525E-14 1.68850E-14
 -1      2759 2.01262E+01-6.56958E-02-1.32408E-03-3.93047E-02-1.07003E-13 2.33435E-13
 -1      2760 2.01162E+01-4.76113E-02 7.93319E-04-5.58611E-02 7.86047E-16 2.36797E-13
 -1      2761 2.01025E+01-5.22551E-02-5.13586E-04-7.41024E-02-4.91562E-14 1.41569E-13
 -1      2762 2.01581E+01-1.11283E-01-2.09369E-03 9.81621E-03-2.05931E-13 1.32468E-13
 -1      2763 2.01514E+01-8.57170E-02 1.18428E-03-1.88476E-02-1.48518E-13 2.35671E-13
 -1      2764 2.01433E+01-9.61747E-02-6.49608E-04-4.37287E-02-8.04074E-14 1.65271E-13
 -1      2765 2.01908E+01-1.70650E-01-3.00823E-03 8.99806E-02-2.00866E-13 8.26112E-14
 -1      2766 2.01898E+01-1.38066E-01 1.58446E-03 4.51156E-02-2.30764E-13 1.14727E-13
 -1      2767 2.01947E+01-1.57747E-01-7.37008E-04 1.18773E-02-1.81216E-13 1.95044E-13
 -1      2768 2.02196E+01-2.39356E-01-3.94805E-03 2.09304E-01-2.10977E-13 3.65092E-16
 -1      2769 2.02282E+01-2.02689E-01 1.88816E-03 1.44964E-01-1.63545E-13 4.86900E-14
 -1      2770 2.02569E+01-2.35527E-01-6.87020E-04 1.02582E-01-1.79053E-13 1.03313E-13
 -1      2771 2.02367E+01-3.06341E-01-4.67415E-03 3.72254E-01 1.01333E-14 2.75784E-14
 -1      2772 2.02597E+01-2.72249E-01 1.92417E-03 2.87662E-01-6.73283E-14-1.40971E-14
 -1      2773 2.03266E+01-3.22062E-01-3.69108E-04 2.37492E-01-1.28900E-13 3.09893E-14
 -1      2774 2.02298E+01-3.52114E-01-4.79852E-03 5.75102E-01-1.00768E-13 8.65655E-14
 -1      2775 2.02726E+01-3.31777E-01 1.46257E-03 4.74287E-01-7.65453E-14 8.69899E-14
 -1      2776 2.03954E+01-4.00963E-01 3.57202E-04 4.21434E-01-7.18627E-14-6.54444E-14
 -1      2777 2.01826E+01-3.49379E-01-3.82512E-03 8.00161E-01-1.32949E-13 1.78216E-13
 -1      2778 2.02501E+01-3.57701E-01 3.14066E-04 6.94522E-01-7.28987E-14 1.86061E-13
 -1      2779 2.04472E+01-4.45185E-01 1.57425E-03 6.49439E-01-1.52469E-13 1.62754E-13
 -1      2780 2.00787E+01-2.69014E-01-1.41228E-03 1.01067E+00-2.70982E-14 1.55768E-13
 -1      2781 2.01728E+01-3.20688E-01-1.55977E-03 9.20551E-01-1.07664E-13 1.65586E-13
 -1      2782 2.04588E+01-4.19151E-01 3.14771E-03 8.99570E-01-1.11623E-13 1.26609E-13
 -1      2783 1.99090E+01-9.30288E-02 2.30165E-03 1.15079E+00 8.39046E-14 1.40847E-13
 -1      2784 2.00256E+01-1.95026E-01-3.83083E-03 1.10386E+00 4.15289E-14 1.96864E-13
 -1      2785 2.04046E+01-2.88756E-01 4.39966E-03 1.12663E+00 1.96825E-14 1.03735E-13
 -1      2786 1.96831E+01 1.68531E-01 6.41382E-03 1.15576E+00-1.22300E-14 1.52341E-13
 -1      2787 1.98096E+01 2.58917E-02-5.59125E-03 1.18044E+00 8.98827E-14 1.90800E-13
 -1      2788 2.02682E+01-3.91187E-02 4.32436E-03 1.26312E+00 8.38589E-14 1.42627E-13
 -1      2789 1.94377E+01 4.64775E-01 9.25035E-03 9.74928E-01-7.92227E-15 2.59763E-13
 -1      2790 1.95531E+01 3.13107E-01-5.54794E-03 1.08856E+00-7.53717E-14 1.30000E-13
 -1      2791 2.00595E+01 3.04394E-01 2.11034E-03 1.23356E+00-1.22920E-14 9.49500E-14
 -1      2792 1.92336E+01 7.10611E-01 9.08029E-03 6.02813E-01 5.80820E-14 3.88205E-13
 -1      2793 1.93138E+01 5.96475E-01-2.88483E-03 7.98757E-01 8.54113E-15 2.95660E-13
 -1      2794 1.98259E+01 6.66171E-01-1.79664E-03 9.85606E-01-8.59605E-14 2.15335E-14
 -1      2795 1.91358E+01 8.20294E-01 5.66602E-03 9.87550E-02 1.02321E-13 4.78649E-13
 -1      2796 1.91614E+01 7.84999E-01 1.87554E-03 3.41592E-01 1.56061E-13 4.31746E-13
 -1      2797 1.96433E+01 9.35697E-01-5.90854E-03 5.28055E-01 7.66423E-14 2.79418E-13
 -1      2798 1.91794E+01 7.52542E-01 4.19221E-04-4.25072E-01 1.81490E-13 4.24397E-13
 -1      2799 1.91446E+01 8.09537E-01 6.69273E-03-1.89047E-01 1.15413E-13 5.28135E-13
 -1      2800 1.95841E+01 1.01873E+00-7.54842E-03-5.11611E-02 1.39341E-13 3.82672E-13
 -1      2801 1.93507E+01 5.32563E-01-3.95393E-03-8.48456E-01 2.75786E-13 4.76197E-13
 -1      2802 1.92650E+01 6.60711E-01 9.44762E-03-6.70209E-01 2.72956E-13 5.40842E-13
 -1      2803 1.96716E+01 8.84485E-01-5.42857E-03-6.12827E-01 1.49261E-13 2.80722E-13
 -1      2804 1.95935E+01 2.38506E-01-5.86678E-03-1.09012E+00-1.15955E-13 5.21729E-13
 -1      2805 1.94781E+01 3.92886E-01 8.92391E-03-9.98968E-01 1.24903E-13 6.18838E-13
 -1      2806 1.98687E+01 5.81553E-01-8.52549E-04-1.02527E+00 8.97572E-14 5.73245E-13
 -1      2807 1.98375E+01-3.92846E-02-5.40922E-03-1.13507E+00-1.95864E-13 4.45756E-13
 -1      2808 1.97168E+01 9.64551E-02 5.60274E-03-1.13096E+00-1.77140E-13 5.23558E-13
 -1      2809 2.00983E+01 2.12758E-01 2.86453E-03-1.21760E+00-8.61972E-14 6.61152E-13
 -1      2810 2.00309E+01-2.39158E-01-3.43658E-03-1.02378E+00 1.88609E-13 4.55645E-13
 -1      2811 1.99242E+01-1.48883E-01 1.37180E-03-1.08531E+00-2.51371E-14 4.43038E-13
 -1      2812 2.02881E+01-1.15020E-01 4.50158E-03-1.19857E+00-6.70447E-14 4.73561E-13
 -1      2813 2.01521E+01-3.40621E-01-1.15017E-03-8.21717E-01 2.06269E-13 4.49460E-13
 -1      2814 2.00699E+01-3.01407E-01-2.17078E-03-9.19203E-01 2.79080E-13 4.83396E-13
 -1      2815 2.03994E+01-3.36844E-01 4.15950E-03-1.02984E+00 2.00068E-13 4.22032E-13
 -1      2816 2.02048E+01-3.55452E-01 7.02046E-04-5.91859E-01 2.23853E-13 3.65500E-13
 -1      2817 2.01495E+01-3.58136E-01-4.29212E-03-6.98159E-01 1.97961E-13 4.07982E-13
 -1      2818 2.04292E+01-4.37219E-01 2.78300E-03-7.88391E-01 2.86395E-13 3.80403E-13
 -1      2819 2.02060E+01-3.11152E-01 1.82395E-03-3.79987E-01 5.06994E-14 4.18683E-13
 -1      2820 2.01744E+01-3.40413E-01-5.00825E-03-4.75875E-01 1.14570E-13 4.27874E-13
 -1      2821 2.03970E+01-4.36365E-01 1.32317E-03-5.38984E-01 1.15673E-13 5.15855E-13
 -1      2822 2.01754E+01-2.36844E-01 2.17496E-03-2.10967E-01-1.05981E-13 6.24901E-13
 -1      2823 2.01622E+01-2.78221E-01-4.73698E-03-2.86240E-01-4.70321E-14 5.47267E-13
 -1      2824 2.03289E+01-3.70227E-01 2.58589E-04-3.23320E-01-6.36919E-14 5.77216E-13
 -1      2825 2.01279E+01-1.56005E-01 1.26120E-03-9.40452E-02-1.31899E-14 6.28663E-13
 -1      2826 2.01285E+01-1.97356E-01-4.03623E-03-1.44302E-01-8.49776E-15 6.71458E-13
 -1      2827 2.02478E+01-2.73492E-01-1.11238E-04-1.60542E-01-7.61471E-14 7.53101E-13
 -1      2828 2.00948E+01-9.82926E-02 4.07894E-04-2.74427E-02-8.17414E-14 6.81867E-13
 -1      2829 2.01034E+01-1.33700E-01-3.43281E-03-5.65703E-02-8.56494E-14 6.64899E-13
 -1      2830 2.01904E+01-1.84428E-01 2.15207E-03-5.46889E-02-3.94998E-14 6.91926E-13
 -1      2831 2.01444E+01-1.13809E-01 3.06740E-03 8.88256E-03-1.27547E-14 3.81735E-13
 -1      2832 1.99848E+01 2.03846E-01-4.06413E-03 6.18616E-01-6.70708E-14 1.79196E-13
 -1      2833 2.00830E+01 1.21999E-01 5.55757E-03 6.02007E-01-1.70045E-14 4.01473E-13
 -1      2834 2.02506E+01-9.05550E-02 1.21903E-03 4.02427E-01 2.20751E-13 2.27439E-13
 -1      2835 2.02673E+01-1.30389E-01 1.76838E-03 3.30108E-01 3.34489E-13 1.08949E-13
 -1      2836 1.97570E+01 4.28650E-01-6.85095E-03 5.77530E-01-1.29431E-13-8.91566E-14
 -1      2837 1.98780E+01 3.40230E-01 6.50296E-03 6.18599E-01-1.00263E-13 5.71927E-14
 -1      2838 1.99170E+01 1.86857E-01-3.65371E-03 7.17917E-01-2.21318E-13 8.54498E-15
 -1      2839 2.01582E+01 2.49813E-02-9.72801E-04 5.44738E-01-8.00325E-14 3.76692E-13
 -1      2840 2.02164E+01-3.87993E-02 3.64001E-03 4.89194E-01-2.86258E-14 3.60663E-13
 -1      2841 2.02882E+01-1.69104E-01-4.28489E-03 4.91475E-01-2.27634E-14 7.62387E-14
 -1      2842 2.01489E+01-3.10508E-02-4.76418E-03 6.49034E-01-6.69642E-14 4.22942E-13
 -1      2843 1.74718E+01-3.72209E+00 4.32542E-02 7.34950E+00-1.77164E-13-1.41026E-13
 -1      2844 1.50281E+01-2.93584E+00 1.87470E-01 7.36056E+00-7.41490E-14-1.44801E-13
 -1      2845 1.95362E+01 6.55046E-01-8.23302E-03 3.99370E-01-6.22167E-14-5.28094E-13
 -1      2846 1.96454E+01 5.79622E-01 5.72503E-03 5.01203E-01-1.54884E-13-1.14104E-13
 -1      2847 1.96363E+01 4.57534E-01-4.80993E-04 6.46757E-01-2.00649E-13-1.06266E-13
 -1      2848 1.93915E+01 8.35563E-01-7.24708E-03 9.00841E-02 2.59958E-13-1.14405E-13
 -1      2849 1.94508E+01 7.89012E-01 2.57331E-03 2.44467E-01 7.68411E-14-2.80272E-13
 -1      2850 1.93814E+01 7.28923E-01 3.90737E-03 4.09922E-01-3.58132E-16-2.79652E-13
 -1      2851 1.94011E+01 9.10969E-01-3.69077E-03-2.89024E-01-9.83957E-14-4.41091E-13
 -1      2852 1.93730E+01 9.09561E-01-2.11546E-03-1.15304E-01 7.99484E-14-1.85233E-13
 -1      2853 1.92399E+01 9.28669E-01 6.18314E-03 3.10391E-02 3.73319E-14-2.15955E-13
 -1      2854 6.42245E+00 3.65256E-01 1.07026E-01 2.68605E+00 2.61798E-13-7.74381E-14
 -1      2855 6.28046E+00 5.07815E-01 1.97710E-01-7.30912E-02 4.77136E-13-3.09086E-13
 -1      2856 1.57036E+01 7.67777E-01 9.32330E-02-4.61212E+00 2.74128E-13-3.18023E-13
 -1      2857 1.58875E+01 1.65041E+00 5.29916E-02-4.02375E+00 2.63014E-13-1.99847E-13
 -1      2858 1.85661E+01-5.33792E+00 3.87476E-02-5.77589E+00-6.96665E-14-7.25919E-13
 -1      2859 2.51771E+01-4.67916E+00 1.09140E-01-4.95208E+00-6.38101E-14-9.87474E-14
 -1      2860 2.76207E+01-4.05663E+00-1.75770E-01-3.04898E+00-8.59521E-14-1.76685E-13
 -1      2861 2.03202E+01 1.60583E+00-8.90821E-03-1.25957E+00-1.13904E-13-2.08970E-13
 -1      2862 2.03057E+01 1.24161E+00 5.05841E-05-9.90820E-01-1.19795E-13-2.09435E-13
 -1      2863 2.02378E+01 1.86309E+00-8.65995E-04-1.23196E+00-8.92966E-14-2.06581E-13
 -1      2864 3.01919E+01 6.35812E+00-1.32116E-01 1.54058E+00 4.62436E-13-1.71169E-13
 -1      2865 2.99038E+01 7.58684E+00-2.15645E-01 7.20191E-01 3.65541E-13-7.96654E-14
 -1      2866 1.67004E+01 1.97353E+00 3.92750E-02-3.36335E+00 1.50631E-13-3.30846E-13
 -1      2867 1.71023E+01 2.04846E+00-1.57668E-02-2.94764E+00 5.41641E-14-3.07827E-13
 -1      2868 1.63753E+01 2.35732E+00 6.31582E-02-2.21023E+00-1.11892E-13-3.61318E-13
 -1      2869 3.10036E+01 5.78874E+00-2.18303E-01-1.54418E+00-5.85088E-14 1.41984E-13
 -1      2870 3.13404E+01 4.04377E+00-1.24190E-01-1.52496E+00-8.14626E-14 4.13558E-15
 -1      2871 2.03145E+01 1.01031E+00 3.25346E-03-8.19642E-01-9.29738E-14-2.01024E-13
 -1      2872 2.02243E+01 7.80041E-01-3.70916E-03-5.82384E-01-8.59115E-14-1.88632E-13
 -1      2873 2.02564E+01 8.58080E-01 1.10543E-03-5.41261E-01-7.89515E-14-1.53139E-13
 -1      2874 2.02842E+01 1.22532E+00-1.28743E-03-8.43481E-01-9.67888E-14-1.94795E-13
 -1      2875 1.99232E+01 2.59644E+00-7.91032E-03 7.93858E-01 1.68925E-13-1.09771E-13
 -1      2876 1.98794E+01 2.68860E+00-6.13252E-03 6.44984E-01 1.50120E-13-1.30668E-13
 -1      2877 1.99979E+01 2.38901E+00 4.28128E-03 5.16276E-01 1.39023E-13-1.32060E-13
 -1      2878 2.00794E+01 2.19129E+00 5.56567E-03 7.45156E-01 1.50284E-13-9.81696E-14
 -1      2879 2.99237E+01 7.88825E+00-2.01126E-01-3.48006E-01 1.26260E-13-2.84260E-14
 -1      2880 3.04732E+01 7.19643E+00-1.69161E-01-1.18409E+00 2.43139E-14-1.10467E-14
 -1      2881 1.15300E+01-1.97541E+00 5.94173E-02 6.97142E+00 1.64271E-13-2.25792E-13
 -1      2882 8.40119E+00-5.58591E-01 2.21256E-01 5.10112E+00 2.00256E-13-6.66134E-14
 -1      2883 3.04660E+01 2.10351E+00-9.86689E-02 1.41562E+00 3.64875E-13-1.27301E-13
 -1      2884 3.02133E+01 3.96743E+00-2.32830E-01 1.73628E+00 3.84193E-13-2.31482E-13
 -1      2885 2.95390E+01-1.88092E+00 2.97514E-02-6.85589E-01-2.92405E-14-2.49384E-13
 -1      2886 3.03139E+01-6.67393E-02-1.88799E-01 4.61660E-01 2.13038E-13-1.65770E-13
 -1      2887 2.90874E+01 6.64892E-01-5.65698E-02 1.38266E+00 1.41456E-13-9.46049E-14
 -1      2888 1.90136E+01-4.43549E+00 1.44030E-01-7.39703E+00-8.39190E-14-3.62002E-13
 -1      2889 2.17914E+01-4.97545E+00-7.56765E-02-6.73707E+00-9.28285E-14-2.57738E-13
 -1      2890 1.18759E+01-2.58122E+00 1.58804E-01-7.33687E+00-1.75346E-13-2.23876E-13
 -1      2891 1.54358E+01-3.75742E+00 3.32948E-02-7.94297E+00-1.20293E-13-2.99205E-13
 -1      2892 1.78712E+01-3.56319E+00 1.08055E-01-7.14683E+00-1.87322E-13-2.94487E-13
 -1      2893 7.23604E+00-7.60759E-04 1.64032E-01-4.00552E+00-3.48700E-13-4.35568E-13
 -1      2894 9.11275E+00-1.27374E+00 1.39099E-01-6.26409E+00-2.72254E-13-3.47666E-13
 -1      2895 7.02862E+00 4.08541E-01 2.19816E-01 1.74501E+00-2.82274E-13-5.16448E-13
 -1      2896 6.51093E+00 7.68108E-01 1.64630E-01-8.10090E-01-3.45243E-13-4.43423E-13
 -1      2897 6.69722E+00 6.60778E-02 1.74457E-01-1.98783E+00 3.95635E-13-3.98681E-13
 -1      2898 8.39681E+00-5.36815E-01 1.44842E-01-3.81053E+00 3.26808E-13-3.90771E-13
 -1      2899 3.13813E+01 1.93884E+00-1.76128E-01-9.40911E-01-7.26780E-14-8.75411E-14
 -1      2900 3.07010E+01-1.39410E-01-9.48854E-02-1.01864E-01-1.60913E-13-4.14668E-14
 -1      2901 1.99726E+01 2.48726E+00-6.10728E-03-9.01387E-01-1.64619E-14-2.01092E-13
 -1      2902 2.00364E+01 2.33886E+00-1.06027E-02-1.03450E+00-4.64502E-14-2.09952E-13
 -1      2903 2.00742E+01 2.20669E+00 6.61601E-03-7.39604E-01-1.67390E-15-1.77367E-13
 -1      2904 1.99328E+01 2.53921E+00 3.48809E-03 4.42569E-03 9.02716E-14-1.75788E-13
 -1      2905 1.97937E+01 2.87046E+00-5.49757E-03-6.21299E-02 9.10096E-14-1.84373E-13
 -1      2906 1.98009E+01 2.85586E+00-5.59335E-03-2.16798E-01 7.73719E-14-1.81518E-13
 -1      2907 1.23128E+01 2.10795E+00 1.57420E-01 2.44315E+00-2.25178E-13-5.12229E-13
 -1      2908 1.34740E+01 1.36718E+00 4.32381E-02 3.88296E+00-2.09312E-13-3.61294E-13
 -1      2909 3.00064E+01-1.74229E+00-9.41368E-02 6.19512E-01-1.69417E-13 5.62883E-14
 -1      2910 2.87340E+01-2.80768E+00 5.20920E-03 1.38309E+00-1.24162E-13 9.22595E-14
 -1      2911 2.94838E+01-7.27028E-01-6.38988E-02-6.03629E-01-4.19179E-14 1.34129E-13
 -1      2912 1.99923E+01 1.36430E-01-2.32051E-03-7.45685E-02 6.18742E-14-6.43379E-14
 -1      2913 1.98927E+01 1.19537E-01-2.66728E-04-7.26686E-02 5.04563E-14 2.74695E-15
 -1      2914 1.99284E+01 1.71239E-01 5.24014E-03-1.69708E-02 4.23680E-14 2.20521E-15
 -1      2915 1.29396E+01 2.70267E-01 1.65594E-01 4.36912E+00-2.36158E-13-4.98129E-13
 -1      2916 1.14187E+01-1.25271E+00 1.93379E-01-5.09094E+00 2.18436E-13-3.63820E-13
 -1      2917 1.51549E+01-2.55416E+00 1.29623E-01-6.04526E+00 2.16799E-13-3.13194E-13
 -1      2918 1.99618E+01 2.31578E-01-8.51902E-04 6.20108E-02 4.43891E-14 6.11470E-14
 -1      2919 2.00287E+01 3.14255E-01 8.06897E-03 1.59262E-01 6.84835E-14 6.23629E-14
 -1      2920 2.00559E+01 2.66492E-01-2.97186E-03 5.89844E-02 7.23189E-14-2.55309E-14
 -1      2921 2.15191E+01-4.56794E+00-9.33028E-02 6.06900E+00-2.29497E-13-5.17992E-13
 -1      2922 1.96753E+01-4.09277E+00 1.19640E-01 6.82672E+00-2.25389E-13-3.13170E-13
 -1      2923 1.86180E+01-3.20488E+00 6.27962E-02 6.51171E+00-2.94237E-13-3.71196E-13
 -1      2924 2.00703E+01 4.16330E-01 1.00390E-03 2.95649E-01 8.79873E-14 6.27834E-14
 -1      2925 2.01153E+01 4.95152E-01 8.21175E-03 4.01608E-01 1.03026E-13 6.94719E-14
 -1      2926 2.01876E+01-1.40940E-01 3.75383E-04 6.37783E-02 1.21842E-13 9.04884E-14
 -1      2927 2.02101E+01-1.84239E-01-3.21808E-03 3.77595E-02 5.09506E-14 2.89429E-13
 -1      2928 2.02219E+01-1.41346E-01 3.03204E-03 1.16848E-01 1.37371E-13-3.61722E-14
 -1      2929 3.00649E+01 2.55894E+00-9.01300E-02-1.65090E+00-5.20556E-14 5.11674E-14
 -1      2930 1.79727E+01-3.06400E+00 3.52676E-02 5.90032E+00-1.86462E-13-3.84082E-13
 -1      2931 1.31652E+01-1.42530E+00 2.15708E-01 5.54105E+00-2.63206E-13-4.65072E-13
 -1      2932 2.60609E+01-4.62655E+00 3.71969E-02 4.40442E+00-8.97060E-14-3.60614E-13
 -1      2933 8.41589E+00 1.17663E+00 1.93525E-01-9.63731E-01 5.29136E-13-3.13194E-13
 -1      2934 9.28313E+00 6.42442E-01 1.93403E-01 3.49672E+00 2.80651E-13-1.08330E-13
 -1      2935 1.95834E+01 8.39772E-01-1.85964E-03-5.64500E-01-1.20240E-13-1.05543E-12
 -1      2936 1.94865E+01 8.85026E-01-5.45953E-03-4.48516E-01-6.00894E-14-8.89707E-13
 -1      2937 1.92972E+01 9.80519E-01 5.02889E-03-3.64127E-01-2.31298E-13-5.90403E-13
 -1      2938 1.95137E+01 8.92833E-01 2.76015E-04-6.43491E-01-6.90424E-14-1.02580E-12
 -1      2939 8.45434E+00 4.37852E-01 2.20391E-01 2.70074E+00-2.67723E-13-6.28136E-13
 -1      2940 9.65093E+00 1.47822E+00 9.78881E-02 1.97962E+00-2.97672E-13-5.96245E-13
 -1      2941 1.44902E+01 2.09331E+00 5.85577E-02-3.09704E+00 1.77745E-13-2.80005E-13
 -1      2942 1.78708E+01-3.71940E+00 1.74757E-01-6.12308E+00 1.82326E-13-5.39790E-13
 -1      2943 2.38184E+01-4.53270E+00 6.07296E-02-5.19553E+00-1.10106E-13-8.98309E-14
 -1      2944 1.21047E+01-1.27533E+00 1.54822E-01-6.33183E+00-3.04451E-13-3.19259E-13
 -1      2945 2.91279E+01 5.86029E+00-1.16561E-01-1.53825E+00 6.67799E-14 9.97327E-14
 -1      2946 2.80012E+01-2.99430E+00-1.24367E-02-1.42409E+00-9.88185E-14-1.77483E-13
 -1      2947 1.17363E+01-1.31945E-01 1.69713E-01-4.44805E+00 2.69576E-13-2.98928E-13
 -1      2948 2.01393E+01 4.70305E-01-3.60991E-03 2.83967E-01 8.77266E-14 2.15550E-14
 -1      2949 1.72436E+01-2.44794E+00 9.74691E-02-5.77269E+00 2.50605E-13-5.66505E-13
 -1      2950 2.02625E+01-1.37317E-01 2.59507E-03 2.52148E-01 3.68117E-13 2.00026E-14
 -1      2951 2.02479E+01-1.54577E-01 9.44157E-04 1.82905E-01 2.31672E-13-1.22355E-13
 -1      2952 2.02911E+01-2.18364E-01-2.78620E-03 1.65223E-01 3.19699E-13-6.18539E-14
 -1      2953 2.03251E+01-2.22138E-01-3.45453E-03 3.15744E-01 2.67033E-13-1.90893E-15
 -1      2954 2.87235E+01 4.61436E+00-1.00385E-01 1.86063E+00 3.74978E-13-6.39072E-14
 -1      2955 1.98167E+01 2.82028E+00-5.76019E-03-3.51519E-01 7.33808E-14-1.57000E-13
 -1      2956 1.98413E+01 2.77180E+00-6.22744E-03-5.05115E-01 4.78708E-14-1.59888E-13
 -1      2957 1.99943E+01 2.39615E+00 4.22322E-03-5.07307E-01 4.39805E-14-1.59283E-13
 -1      2958 1.99476E+01 2.50517E+00 3.76059E-03-2.55809E-01 6.64048E-14-1.71588E-13
 -1      2959 1.05543E+01 5.19812E-02 1.36963E-01 4.17564E+00-2.96943E-13-5.30548E-13
 -1      2960 1.39920E+01-1.68303E+00 1.24834E-01 6.48464E+00 8.17402E-14-2.43389E-13
 -1      2961 2.83868E+01 7.03806E+00-1.36551E-01 2.14208E-01 2.93598E-13-1.13005E-13
 -1      2962 7.91538E+00 1.01915E+00 2.10753E-01-2.25810E+00-3.20938E-13-3.48305E-13
 -1      2963 9.84502E+00 1.07258E+00 1.10098E-01-3.30006E+00-3.14284E-13-2.94903E-13
 -1      2964 9.26784E+00 1.83230E+00 1.27924E-01-5.80632E-01-2.25514E-13-3.39478E-13
 -1      2965 1.64465E+01-3.48724E-01 1.83880E-01-5.43576E+00 2.46997E-13-3.44100E-13
 -1      2966 1.39098E+01 4.48771E-01 8.87538E-02-4.72498E+00 2.54019E-13-2.05849E-13
 -1      2967 1.23886E+01 2.38249E+00-1.97106E-02 1.28061E+00-2.16525E-13-4.05301E-13
 -1      2968 1.13215E+01 2.09955E+00 1.09117E-01 1.59359E+00-2.90995E-13-5.63632E-13
 -1      2969 1.03902E+01 2.17677E+00 1.90582E-01 6.11853E-01-2.83001E-13-4.76938E-13
 -1      2970 2.02860E+01 1.07348E+00-4.86180E-03 8.17575E-01 1.39110E-13 1.15077E-14
 -1      2971 2.02731E+01 1.31157E+00 2.83170E-03 8.23380E-01 1.47661E-13-1.00414E-14
 -1      2972 2.02372E+01 1.47796E+00-9.11685E-03 8.05004E-01 1.60119E-13-4.18595E-14
 -1      2973 2.02003E+01 1.66864E+00-9.81663E-04 7.44720E-01 1.55656E-13-6.46679E-14
 -1      2974 2.02854E+01 1.14517E+00 7.24614E-03 6.39948E-01 1.33795E-13-3.37358E-14
 -1      2975 2.01696E+01 5.80665E-01 6.44688E-03 6.01544E-01 1.34275E-13 9.69152E-14
 -1      2976 1.99929E+01-2.73657E-02 1.32084E-04-1.85851E-01 3.51588E-14-8.75400E-14
 -1      2977 1.99965E+01-1.31464E-02 8.98173E-04-1.84365E-01 1.28830E-14-9.67760E-14
 -1      2978 2.02240E+01 4.35346E-01 4.16655E-03-1.28188E-01-4.26445E-14-1.24869E-13
 -1      2979 2.01842E+01 3.25448E-01-2.34593E-03-4.12296E-02-2.10810E-14-9.84345E-14
 -1      2980 2.01703E+01 2.40198E-01 3.23655E-03 2.19043E-02-1.58145E-14-1.01781E-13
 -1      2981 2.01396E+01 1.68236E-01-1.33561E-03 7.44455E-02-1.94911E-14-7.48111E-14
 -1      2982 2.02396E+01 3.42925E-01-8.06131E-04-3.14266E-02-2.55216E-14-1.10500E-13
 -1      2983 2.01229E+01 1.13178E-01 2.27484E-03 1.11604E-01-4.01708E-14-5.50585E-14
 -1      2984 2.01014E+01 6.71752E-02-6.42043E-04 1.40014E-01-1.59325E-14-5.45011E-14
 -1      2985 2.01989E+01 1.75371E-01-1.00792E-03 7.42407E-02-1.49395E-14-8.89648E-14
 -1      2986 2.00851E+01 3.26094E-02 1.49131E-03 1.58740E-01-2.15915E-14-6.28014E-14
 -1      2987 2.00713E+01 4.41513E-03-1.93619E-04 1.70977E-01-1.90935E-14-4.98929E-14
 -1      2988 2.01597E+01 6.70674E-02-9.75233E-04 1.34540E-01-5.80398E-15-8.10155E-14
 -1      2989 2.00567E+01-1.61096E-02 8.94854E-04 1.77352E-01-4.15808E-14-4.77794E-14
 -1      2990 2.00487E+01-3.20415E-02 8.54009E-05 1.79311E-01-8.52073E-14-3.14596E-14
 -1      2991 2.01254E+01-1.26045E-04-8.51322E-04 1.63070E-01-2.96541E-14-8.94809E-14
 -1      2992 2.00363E+01-4.29131E-02 4.62846E-04 1.77980E-01-8.76833E-14 1.89054E-14
 -1      2993 2.00325E+01-5.04097E-02 2.55654E-04 1.73918E-01-7.51780E-14 2.53388E-14
 -1      2994 2.00968E+01-3.87876E-02-7.05263E-04 1.70704E-01-4.73279E-14-3.88893E-14
 -1      2995 2.00223E+01-5.46717E-02 1.56348E-04 1.68304E-01-1.26382E-13 3.40560E-14
 -1      2996 2.00214E+01-5.63531E-02 3.44787E-04 1.61236E-01-1.13692E-13-2.41534E-14
 -1      2997 2.00738E+01-5.76963E-02-5.65158E-04 1.65672E-01-1.09223E-13 1.27836E-15
 -1      2998 2.00135E+01-5.61357E-02-4.69165E-05 1.54193E-01-6.19435E-14-2.10995E-14
 -1      2999 2.00146E+01-5.40555E-02 4.01297E-04 1.46656E-01-1.82189E-14 6.75922E-15
 -1      3000 2.00560E+01-6.30691E-02-4.38965E-04 1.54377E-01-6.43971E-14 6.55409E-14
 -1      3001 2.00079E+01-5.07446E-02-1.84598E-04 1.39103E-01-2.58729E-14 1.11424E-14
 -1      3002 2.00104E+01-4.57406E-02 4.38507E-04 1.31799E-01-2.63652E-15 1.20801E-14
 -1      3003 2.00422E+01-5.92334E-02-3.38735E-04 1.40739E-01-1.83844E-14 6.98858E-14
 -1      3004 2.00049E+01-4.00048E-02-2.85601E-04 1.25322E-01 5.24919E-14 9.08311E-15
 -1      3005 2.00082E+01-3.27822E-02 4.59040E-04 1.19748E-01 8.31089E-14-2.16780E-14
 -1      3006 2.00312E+01-4.86428E-02-2.44708E-04 1.27439E-01 3.52325E-14 6.54003E-14
 -1      3007 2.00034E+01-2.50488E-02-3.74541E-04 1.15279E-01 6.87851E-14-5.65278E-14
 -1      3008 2.00073E+01-1.57772E-02 4.80474E-04 1.12321E-01 6.11406E-14-3.97849E-14
 -1      3009 2.00225E+01-3.27394E-02-1.52283E-04 1.17022E-01 4.40172E-14 3.09267E-14
 -1      3010 2.00026E+01-6.01077E-03-4.70144E-04 1.10577E-01-5.82257E-14-9.12191E-14
 -1      3011 2.00066E+01 5.56758E-03 5.05466E-04 1.11032E-01-1.27788E-13-1.71305E-13
 -1      3012 2.00148E+01-1.20345E-02-4.94805E-05 1.11155E-01-2.49661E-14-7.95289E-14
 -1      3013 2.00011E+01 1.78419E-02-5.96364E-04 1.12637E-01-6.66872E-14-1.66651E-13
 -1      3014 2.00048E+01 3.24634E-02 5.32857E-04 1.17344E-01-2.45339E-14-1.83673E-13
 -1      3015 2.00067E+01 1.39704E-02 8.29612E-05 1.11170E-01-9.42685E-14-2.16156E-13
 -1      3016 1.99971E+01 4.82226E-02-7.81547E-04 1.22906E-01-5.84485E-14-2.27691E-13
 -1      3017 1.99996E+01 6.71958E-02 5.53087E-04 1.32851E-01-9.77578E-14-2.31761E-13
 -1      3018 1.99961E+01 4.68305E-02 2.75417E-04 1.18234E-01-5.12354E-14-2.39292E-13
 -1      3019 1.99876E+01 8.80479E-02-1.06206E-03 1.42999E-01-7.92794E-14-2.31054E-13
 -1      3020 1.99876E+01 1.13412E-01 5.42670E-04 1.59414E-01-1.07064E-14-2.58168E-13
 -1      3021 1.99798E+01 8.93337E-02 5.74816E-04 1.33426E-01-4.24363E-14-1.98640E-13
 -1      3022 1.99680E+01 1.41792E-01-1.48614E-03 1.74781E-01 1.32052E-14-2.63868E-13
 -1      3023 1.99627E+01 1.76537E-01 4.53968E-04 1.99202E-01 5.81153E-14-1.74690E-13
 -1      3024 1.99527E+01 1.45801E-01 1.05390E-03 1.57707E-01 3.03352E-14-1.37639E-13
 -1      3025 1.99305E+01 2.15966E-01-2.11787E-03 2.20311E-01 2.53526E-15-1.68509E-13
 -1      3026 1.99152E+01 2.64294E-01 1.98133E-04 2.54557E-01-2.66728E-14-2.19624E-13
 -1      3027 1.99071E+01 2.22487E-01 1.82457E-03 1.91701E-01 2.14247E-14-1.95937E-13
 -1      3028 1.98622E+01 3.19656E-01-3.04096E-03 2.81547E-01-4.00467E-14-1.91885E-13
 -1      3029 1.98290E+01 3.87196E-01-3.81842E-04 3.27538E-01-5.01280E-14-2.06661E-13
 -1      3030 1.98305E+01 3.28004E-01 3.05601E-03 2.35158E-01-2.96555E-14-1.63169E-13
 -1      3031 1.97428E+01 4.64907E-01-4.36309E-03 3.59609E-01-2.56979E-14-2.21333E-13
 -1      3032 1.96782E+01 5.58681E-01-1.55022E-03 4.18867E-01-3.64414E-14-1.51549E-13
 -1      3033 1.97034E+01 4.73557E-01 4.99695E-03 2.85894E-01 2.09268E-14-1.73832E-13
 -1      3034 1.95400E+01 6.66434E-01-6.22522E-03 4.53323E-01-3.65069E-14-1.64488E-13
 -1      3035 1.94220E+01 7.94108E-01-3.72150E-03 5.25981E-01-1.02192E-13-2.22149E-13
 -1      3036 1.94962E+01 6.72510E-01 7.99959E-03 3.37914E-01-3.37801E-14-2.09727E-13
 -1      3037 1.92041E+01 9.39523E-01-8.81722E-03 5.56780E-01-8.05996E-14-1.58655E-13
 -1      3038 1.89982E+01 1.10694E+00-7.49023E-03 6.40019E-01-5.93848E-14-1.11202E-13
 -1      3039 1.91638E+01 9.38323E-01 1.25468E-02 3.78430E-01-5.48194E-14-2.85363E-13
 -1      3040 1.86596E+01 1.29451E+00-1.21336E-02 6.56011E-01-1.00676E-13-5.97456E-14
 -1      3041 1.83132E+01 1.49999E+00-1.29073E-02 7.41945E-01-1.18563E-13-9.94891E-14
 -1      3042 1.86397E+01 1.27885E+00 1.92577E-02 3.83647E-01-4.64438E-14-4.52329E-14
 -1      3043 1.78225E+01 1.70665E+00-1.74316E-02 7.27174E-01-9.78083E-14-1.18698E-13
 -1      3044 1.73004E+01 1.92162E+00-1.97207E-02 8.00381E-01 1.25590E-14-6.12327E-14
 -1      3045 1.78548E+01 1.67633E+00 2.99971E-02 3.17041E-01-6.93353E-14-5.82607E-14
 -1      3046 1.65325E+01 2.13706E+00-2.14364E-02 7.35536E-01 3.78161E-14-1.00491E-13
 -1      3047 1.57055E+01 2.33169E+00-1.29141E-02 7.86227E-01 5.97361E-14-8.69652E-14
 -1      3048 1.66646E+01 2.09480E+00 4.67164E-02 1.31070E-01 1.29855E-14-1.56909E-13
 -1      3049 2.02341E+01 7.17005E-01-1.32115E-03 6.33140E-01 1.33241E-13 4.88940E-14
 -1      3050 1.13573E+01 1.32120E+00 1.57646E-01-3.33094E+00 4.56940E-13-1.64396E-13
 -1      3051 2.00090E+01 5.07851E-03-9.76439E-05-1.77790E-01 8.88089E-15-9.78772E-14
 -1      3052 2.00193E+01 3.02577E-02 1.58014E-03-1.65885E-01 3.32265E-14-1.12569E-13
 -1      3053 2.00720E+01 1.30546E-03-9.52793E-04-1.72630E-01 4.43411E-15-7.47085E-14
 -1      3054 1.81339E+01 1.66144E+00-1.08487E-02-1.08972E+00-2.33572E-14-1.62660E-13
 -1      3055 1.85108E+01 1.44666E+00-1.69971E-02-9.61793E-01-1.45252E-13-3.46311E-13
 -1      3056 1.89303E+01 1.25196E+00-8.75859E-03-9.13811E-01-1.92680E-13-3.98023E-13
 -1      3057 1.91672E+01 1.08794E+00-9.22553E-03-8.00367E-01-5.77706E-14-5.65488E-13
 -1      3058 1.84896E+01 1.49092E+00 3.15204E-02-6.40886E-01-2.62223E-13-1.98287E-13
 -1      3059 1.91299E+01 7.87739E-01-1.02406E-02 4.65108E-01 9.07869E-14-1.41372E-13
 -1      3060 1.92926E+01 6.79412E-01 7.78371E-03 6.30805E-01-6.15862E-15-3.80541E-13
 -1      3061 2.00350E+01 6.09742E-02-4.82963E-04-1.46238E-01 6.57566E-14-1.04163E-13
 -1      3062 2.00547E+01 1.02226E-01 2.49378E-03-1.17784E-01 5.97948E-14-1.03069E-13
 -1      3063 2.01031E+01 6.26068E-02-1.18375E-03-1.42708E-01 4.51327E-14-1.14231E-13
 -1      3064 1.99801E+01-4.95663E-02 3.34653E-04-1.66047E-01 8.96087E-14-2.83786E-14
 -1      3065 1.99768E+01-4.77969E-02 1.03482E-04-1.73673E-01 1.10651E-13-1.67578E-14
 -1      3066 1.99799E+01-4.81653E-02 3.68628E-04-1.49383E-01 3.14590E-14-2.03670E-14
 -1      3067 1.99749E+01-4.96760E-02-1.01003E-04-1.57983E-01 4.81569E-14-4.64769E-14
 -1      3068 2.00196E+01-5.69464E-02-4.07573E-04-1.61552E-01 6.42923E-14-7.50293E-14
 -1      3069 1.99819E+01-4.22298E-02 3.81638E-04-1.32847E-01 8.34129E-15 5.29638E-14
 -1      3070 1.99762E+01-4.57960E-02-2.23821E-04-1.41043E-01 3.01777E-14 3.16863E-14
 -1      3071 2.00115E+01-5.44954E-02-2.95885E-04-1.45927E-01-6.43744E-15-3.01443E-14
 -1      3072 1.99856E+01-3.36427E-02 3.82548E-04-1.18461E-01 1.35097E-14 8.92220E-14
 -1      3073 1.99794E+01-3.83636E-02-2.89234E-04-1.25381E-01 2.78343E-14 7.45120E-14
 -1      3074 2.00064E+01-4.70312E-02-2.14383E-04-1.30616E-01-1.37599E-14 2.10996E-14
 -1      3075 1.99906E+01-2.38716E-02 3.75812E-04-1.07438E-01 6.62424E-14 1.19509E-13
 -1      3076 1.99841E+01-2.90297E-02-3.12683E-04-1.12594E-01 4.40585E-14 1.10511E-13
 -1      3077 2.00036E+01-3.67107E-02-1.61499E-04-1.17601E-01 1.02886E-14 5.66354E-14
 -1      3078 1.99967E+01-1.42114E-02 3.62209E-04-1.00346E-01-1.46458E-14 2.11192E-13
 -1      3079 1.99900E+01-1.91496E-02-3.02501E-04-1.03562E-01 3.29986E-14 1.66847E-13
 -1      3080 2.00026E+01-2.52464E-02-1.34485E-04-1.08079E-01 1.38553E-14 8.55275E-14
 -1      3081 2.00043E+01-6.02915E-03 3.38095E-04-9.71790E-02 2.47990E-14 1.22006E-13
 -1      3082 1.99972E+01-1.00227E-02-2.59356E-04-9.85782E-02 3.78590E-14 1.38982E-13
 -1      3083 2.00036E+01-1.42067E-02-1.36049E-04-1.02633E-01 4.36538E-14 2.35647E-13
 -1      3084 2.00141E+01-1.00698E-03 2.95059E-04-9.73255E-02-7.81322E-14 9.46789E-14
 -1      3085 2.00062E+01-3.14050E-03-1.76416E-04-9.73627E-02-2.27968E-14 1.04619E-13
 -1      3086 2.00068E+01-5.29894E-03-1.71706E-04-1.01293E-01-4.40403E-15 6.92749E-14
 -1      3087 2.00271E+01-1.36659E-03 2.19177E-04-9.94299E-02-4.33596E-14 5.84301E-14
 -1      3088 2.00181E+01-4.19830E-04-3.94082E-05-9.89742E-02-4.84990E-14 5.80986E-14
 -1      3089 2.00131E+01-6.57057E-04-2.52075E-04-1.03491E-01-3.00955E-14 1.06833E-13
 -1      3090 2.00453E+01-1.00489E-02 8.97900E-05-1.01159E-01 3.21573E-14-2.42370E-14
 -1      3091 2.00344E+01-4.41301E-03 1.73383E-04-1.01622E-01 1.90954E-14 2.45432E-14
 -1      3092 2.00243E+01-3.09806E-03-3.91767E-04-1.07922E-01 6.15927E-15-3.76096E-14
 -1      3093 2.00710E+01-3.07613E-02-1.21452E-04-9.88804E-02-8.04154E-14 1.15755E-13
 -1      3094 2.00576E+01-1.84356E-02 4.89058E-04-1.02373E-01-3.51070E-14 8.29629E-14
 -1      3095 2.00428E+01-1.63104E-02-6.07803E-04-1.12273E-01-4.78381E-14 6.68911E-14
 -1      3096 2.01075E+01-6.77511E-02-4.50600E-04-8.72854E-02-4.77514E-14 2.09048E-13
 -1      3097 2.00908E+01-4.65011E-02 9.34917E-04-9.67761E-02-4.41622E-14 1.78721E-13
 -1      3098 2.00726E+01-4.48567E-02-9.14546E-04-1.12852E-01-1.60551E-13 2.42841E-13
 -1      3099 2.01587E+01-1.25085E-01-9.38337E-04-5.90673E-02-1.89898E-13 3.34470E-13
 -1      3100 2.01379E+01-9.28851E-02 1.52731E-03-7.84646E-02-7.50853E-14 3.07766E-13
 -1      3101 2.01187E+01-9.38065E-02-1.31322E-03-1.04112E-01-1.12322E-13 3.39335E-13
 -1      3102 2.02282E+01-2.05146E-01-1.61913E-03-4.83477E-03-1.39901E-13 2.79933E-13
 -1      3103 2.02030E+01-1.61063E-01 2.25083E-03-3.88799E-02-1.62724E-13 3.21046E-13
 -1      3104 2.01872E+01-1.67720E-01-1.77388E-03-7.81742E-02-1.77918E-13 4.29293E-13
 -1      3105 2.03181E+01-3.06080E-01-2.49402E-03 8.63692E-02-1.64246E-13 9.69063E-14
 -1      3106 2.02895E+01-2.51727E-01 3.02585E-03 3.26074E-02-9.22224E-14 2.15150E-13
 -1      3107 2.02843E+01-2.68624E-01-2.20891E-03-2.45400E-02-7.79039E-14 3.43814E-13
 -1      3108 2.04270E+01-4.18136E-01-3.47133E-03 2.25343E-01-9.24519E-14 1.22464E-14
 -1      3109 2.03975E+01-3.59678E-01 3.66650E-03 1.47655E-01-1.71903E-13 5.22250E-14
 -1      3110 2.04147E+01-3.92660E-01-2.44218E-03 6.95582E-02-8.49255E-14 1.13538E-13
 -1      3111 2.05462E+01-5.19629E-01-4.30966E-03 4.18973E-01-1.46677E-13 4.88537E-14
 -1      3112 2.05214E+01-4.69829E-01 3.86828E-03 3.16204E-01-8.23679E-14 2.37546E-14
 -1      3113 2.05776E+01-5.25488E-01-2.19269E-03 2.17332E-01-1.23498E-13 1.20513E-13
 -1      3114 2.06575E+01-5.74210E-01-4.50008E-03 6.64008E-01-2.05101E-13 1.25135E-13
 -1      3115 2.06458E+01-5.53611E-01 3.18819E-03 5.41262E-01-1.60754E-13 1.12454E-13
 -1      3116 2.07626E+01-6.37575E-01-1.13929E-03 4.28020E-01-1.77302E-13 8.10428E-14
 -1      3117 2.07320E+01-5.33012E-01-3.26308E-03 9.38049E-01-1.03357E-13 1.25326E-13
 -1      3118 2.07436E+01-5.67864E-01 1.28379E-03 8.10721E-01-1.30296E-13 1.78710E-13
 -1      3119 2.09448E+01-6.81558E-01 1.01262E-03 6.99107E-01-1.72656E-13 1.46562E-13
 -1      3120 2.07353E+01-3.48092E-01-1.58905E-04 1.19000E+00-2.46558E-14 1.40032E-13
 -1      3121 2.07780E+01-4.61575E-01-2.01876E-03 1.08672E+00-5.59080E-14 1.20912E-13
 -1      3122 2.10833E+01-5.96516E-01 4.25198E-03 1.00390E+00-8.06713E-14 1.59913E-13
 -1      3123 2.06426E+01 7.79974E-04 4.47313E-03 1.33986E+00 5.21407E-14 2.05437E-13
 -1      3124 2.07164E+01-1.96772E-01-6.34249E-03 1.29954E+00 2.46298E-14 1.99187E-13
 -1      3125 2.11291E+01-3.29855E-01 7.10283E-03 1.27934E+00-4.95821E-14 1.28950E-13
 -1      3126 2.04588E+01 4.75207E-01 9.05897E-03 1.29468E+00 7.64824E-14 1.46119E-13
 -1      3127 2.05508E+01 2.22715E-01-9.79834E-03 1.35627E+00 1.14247E-13 2.41140E-13
 -1      3128 2.10479E+01 1.28017E-01 7.07364E-03 1.42676E+00 7.40574E-14 4.51801E-14
 -1      3129 2.02376E+01 9.56704E-01 1.10642E-02 9.92095E-01-3.70546E-14-7.51922E-14
 -1      3130 2.03224E+01 7.18871E-01-9.68881E-03 1.17207E+00-4.65077E-15-2.80483E-14
 -1      3131 2.08536E+01 7.06089E-01 2.99232E-03 1.33566E+00 1.27386E-13 7.48042E-14
 -1      3132 2.00668E+01 1.28385E+00 8.09382E-03 4.47505E-01 3.81304E-14-1.51360E-14
 -1      3133 2.01142E+01 1.14711E+00-5.01385E-03 7.25252E-01-1.13069E-14-5.11213E-14
 -1      3134 2.06246E+01 1.25564E+00-4.55516E-04 9.43512E-01-1.70280E-14-1.45078E-13
 -1      3135 2.00312E+01 1.32205E+00-5.05605E-05-2.12532E-01 6.46022E-14 1.20082E-13
 -1      3136 2.00259E+01 1.34173E+00 2.05220E-03 9.49472E-02 3.29256E-14 5.93677E-14
 -1      3137 2.04781E+01 1.56598E+00-5.70482E-03 3.00927E-01-3.54403E-14-1.93126E-13
 -1      3138 2.01509E+01 1.05936E+00-7.17376E-03-8.11546E-01 2.10782E-14 3.86926E-13
 -1      3139 2.00950E+01 1.22749E+00 8.57924E-03-5.52776E-01 2.64012E-14 2.83816E-13
 -1      3140 2.04986E+01 1.51952E+00-6.12733E-03-4.26244E-01-1.05741E-13-6.02220E-15
 -1      3141 2.03704E+01 5.97581E-01-1.02137E-02-1.19972E+00 6.87449E-15 5.19761E-13
 -1      3142 2.02835E+01 8.48488E-01 1.10350E-02-1.04750E+00 7.14040E-14 5.07364E-13
 -1      3143 2.06732E+01 1.13677E+00-4.76290E-04-1.02188E+00-6.64902E-14 3.51797E-13
 -1      3144 2.05888E+01 1.05269E-01-9.36652E-03-1.31914E+00-1.34237E-13 4.45937E-13
 -1      3145 2.05016E+01 3.50819E-01 8.22852E-03-1.28573E+00-1.09825E-13 5.24858E-13
 -1      3146 2.09053E+01 5.61120E-01 4.75887E-03-1.34141E+00-2.67220E-14 3.22320E-13
 -1      3147 2.07293E+01-2.83438E-01-5.65824E-03-1.21329E+00 6.10237E-14 1.90834E-13
 -1      3148 2.06648E+01-1.03726E-01 3.26187E-03-1.27410E+00-1.94932E-14 2.79300E-13
 -1      3149 2.10782E+01-4.59851E-03 7.13609E-03-1.36499E+00 1.93826E-14 1.56050E-13
 -1      3150 2.07633E+01-5.08755E-01-1.46125E-03-9.73006E-01 2.24106E-13 3.47968E-13
 -1      3151 2.07314E+01-4.15842E-01-1.22370E-03-1.08736E+00 1.36407E-13 2.87595E-13
 -1      3152 2.11287E+01-4.22046E-01 6.11031E-03-1.17292E+00 6.58325E-14 2.74734E-14
 -1      3153 2.07056E+01-5.77712E-01 1.73269E-03-6.89379E-01 1.82035E-13 4.98614E-13
 -1      3154 2.07041E+01-5.61118E-01-3.89278E-03-8.19160E-01 2.10949E-13 4.49256E-13
 -1      3155 2.10559E+01-6.40818E-01 3.24905E-03-8.77208E-01 1.18919E-13 1.12012E-13
 -1      3156 2.05914E+01-5.32641E-01 3.59892E-03-4.26323E-01-3.92187E-14 7.03638E-13
 -1      3157 2.06115E+01-5.68226E-01-4.73446E-03-5.45210E-01 2.33273E-13 6.55256E-13
 -1      3158 2.08993E+01-6.83292E-01 4.08042E-04-5.71494E-01 7.16840E-14 4.98160E-13
 -1      3159 2.04556E+01-4.25683E-01 4.05478E-03-2.17927E-01-1.40002E-13 7.08481E-13
 -1      3160 2.04871E+01-4.86475E-01-4.37395E-03-3.12274E-01-1.77795E-13 6.42861E-13
 -1      3161 2.07066E+01-6.05862E-01-1.59667E-03-3.11645E-01-9.69687E-14 7.62961E-13
 -1      3162 2.03201E+01-2.97438E-01 2.45020E-03-7.42878E-02 8.03847E-14 5.70673E-13
 -1      3163 2.03571E+01-3.62804E-01-3.52395E-03-1.37260E-01-7.91056E-14 6.25755E-13
 -1      3164 2.05166E+01-4.67257E-01-2.02672E-03-1.20275E-01-3.99655E-14 5.23265E-13
 -1      3165 2.02539E+01-2.21494E-01 4.51621E-04 1.00529E-02 8.92835E-15 4.86584E-13
 -1      3166 2.02728E+01-2.64220E-01-3.15121E-03-3.08604E-02 5.74429E-14 5.09530E-13
 -1      3167 2.03885E+01-3.42631E-01-7.33189E-04-8.03353E-04 3.29037E-14 2.48110E-13
 -1      3168 2.03092E+01-2.43152E-01 2.75292E-03 6.97685E-02 1.75343E-13 2.04143E-13
 -1      3169 1.01961E+01 1.68326E+00 1.18451E-01-2.00203E+00 3.76570E-13-2.80234E-13
 -1      3170 1.25918E+01 2.06513E+00 1.18459E-01-2.40794E+00 3.51151E-13-2.05058E-13
 -1      3171 9.68991E+00 1.97673E+00 8.41964E-02-1.61762E-02 4.04773E-13-3.05783E-13
 -1      3172 2.76129E+01 3.47005E+00-2.78072E-02 2.13478E+00 2.35409E-13 1.04666E-13
 -1      3173 2.71491E+01 5.08320E+00-1.78152E-01 1.67895E+00 3.88134E-13-3.57873E-14
 -1      3174 2.70264E+01-4.26746E+00-9.90945E-02 2.95389E+00-1.81161E-13-9.14407E-14
 -1      3175 2.48348E+01-4.47684E+00 1.06645E-01 4.44928E+00-1.55112E-13-3.12056E-13
 -1      3176 1.98549E+01 1.50217E-01-6.31117E-03 8.46643E-01-1.28193E-13-1.46677E-13
 -1      3177 2.00322E+01 4.19006E-02 8.65334E-03 8.36953E-01-1.32872E-13 8.32871E-14
 -1      3178 2.83827E+01 2.96902E+00-1.51289E-01-2.02421E+00-1.93734E-14 1.77899E-13
 -1      3179 2.87251E+01 1.25574E+00-8.20827E-02-1.70752E+00-2.94348E-14 1.55292E-13
 -1      3180 1.89692E+01 1.01474E+00-8.38338E-03 1.23949E-02-2.20744E-13-6.29629E-13
 -1      3181 1.90313E+01 9.55178E-01 3.36976E-03 2.22922E-01-6.31740E-15-1.77959E-13
 -1      3182 1.89168E+01 9.24445E-01 8.63181E-03 4.54926E-01-4.43587E-14-3.27492E-13
 -1      3183 1.94720E+01 4.62327E-01-1.05442E-02 7.53347E-01-6.15961E-14-2.10983E-13
 -1      3184 1.96674E+01 3.47787E-01 9.42242E-03 8.29487E-01-5.87350E-15-7.97553E-14
 -1      3185 1.97261E+01 1.58303E-01-5.88347E-03 9.79580E-01 1.52155E-13 4.49527E-14
 -1      3186 1.93002E+01 5.47679E-01 5.99332E-03 8.39928E-01 1.34794E-13-2.12026E-13
 -1      3187 1.09734E+01 5.36562E-01 4.01041E-02 4.32153E+00 1.66506E-13-3.10099E-13
 -1      3188 9.65780E+00 1.64781E+00 1.27359E-01 1.95779E+00 4.42511E-13-1.56944E-13
 -1      3189 1.99839E+01-4.38479E-02 2.64001E-04-1.79732E-01 1.00719E-13-5.87557E-14
 -1      3190 1.99833E+01-3.70775E-02 4.22412E-04-1.84316E-01 8.00119E-14-8.23679E-14
 -1      3191 2.00315E+01-5.14672E-02-5.53170E-04-1.74477E-01 7.07107E-14-1.12116E-13
 -1      3192 1.33801E+01 2.45236E+00 2.56620E-02-1.75773E+00 8.17662E-14-2.62415E-13
 -1      3193 1.57532E+01-1.65368E+00 1.65693E-02 6.06057E+00-1.75023E-13-5.68913E-13
 -1      3194 1.33452E+01-3.69918E-01 1.67317E-01 5.47029E+00 1.17413E-13-5.78260E-13
 -1      3195 2.00967E+01 2.20752E+00-5.58728E-03-1.10722E+00-5.92906E-14-2.12515E-13
 -1      3196 2.01709E+01 2.02385E+00-1.01772E-02-1.19089E+00-7.41651E-14-2.21316E-13
 -1      3197 2.02592E+01 1.64546E+00 9.02934E-03-9.91036E-01-7.67921E-14-1.94060E-13
 -1      3198 2.01793E+01 1.93965E+00 9.05119E-03-9.05216E-01-5.19691E-14-1.93211E-13
 -1      3199 1.68833E+01 2.09969E+00-1.47320E-02-1.23222E+00-1.48014E-13-9.08921E-14
 -1      3200 1.74925E+01 1.87544E+00-2.34712E-02-1.10348E+00-1.28918E-14-1.74104E-13
 -1      3201 1.75140E+01 1.90001E+00 4.45067E-02-6.05326E-01-1.05481E-13-1.75015E-13
 -1      3202 1.50744E+01 2.42212E+00 1.49404E-02-1.32122E+00-1.30456E-13-1.28926E-13
 -1      3203 1.59258E+01 2.28061E+00-2.22627E-02-1.21556E+00-1.39452E-13-1.83732E-13
 -1      3204 1.60145E+01 2.30402E+00 6.32695E-02-4.58546E-01-1.49057E-13-1.24367E-14
 -1      3205 2.02712E+01 7.31579E-01 3.80893E-03-3.58294E-01-5.83549E-14-1.41539E-13
 -1      3206 2.02290E+01 5.66979E-01-3.27930E-03-2.25471E-01-5.94521E-14-1.29727E-13
 -1      3207 2.02735E+01 5.95427E-01-2.10572E-04-1.97936E-01-4.35629E-14-1.21581E-13
 -1      3208 2.23833E+01-4.00099E+00 1.36599E-01-5.37445E+00-2.37442E-13-1.38517E-13
 -1      3209 2.44416E+01-4.46227E+00-1.51672E-01-4.02652E+00-1.26767E-13-1.40382E-13
 -1      3210 2.68628E+01-3.50482E+00 1.18246E-01-1.96818E+00-1.41284E-13-1.92714E-13
 -1      3211 2.76483E+01-2.37243E+00-1.68257E-01-1.43858E-01-8.98760E-14-1.34132E-13
 -1      3212 1.17824E+01-2.23263E-01 1.02686E-01-5.41113E+00-3.48749E-13-3.37078E-13
 -1      3213 1.41394E+01-1.65157E+00 4.44197E-02-6.55110E+00-2.91808E-13-2.95958E-13
 -1      3214 2.81522E+01-2.33277E-01 4.58279E-02 1.29800E+00 9.96633E-14 5.96745E-16
 -1      3215 2.77352E+01 1.16278E+00-1.69373E-01 1.84067E+00 1.46189E-13 4.67786E-14
 -1      3216 2.72626E+01 5.73261E+00-1.40769E-01-1.46464E+00 1.69337E-13-7.78336E-14
 -1      3217 2.80136E+01 4.54001E+00-1.01246E-01-2.00539E+00 9.45355E-14 7.14914E-14
 -1      3218 2.70322E+01 3.13457E+00-6.38284E-02-2.02998E+00 8.25104E-14 5.80438E-14
 -1      3219 1.68216E+01-2.48404E+00 1.47981E-01-6.65996E+00-3.12153E-13-3.19009E-13
 -1      3220 1.93732E+01-3.62450E+00-5.48611E-02-6.42583E+00-2.05384E-13-2.53193E-13
 -1      3221 2.00444E+01 2.16132E+00-4.33561E-03 2.92272E-01 1.25589E-13-1.46315E-13
 -1      3222 2.00313E+01 2.20019E+00-3.30642E-03 1.70585E-01 1.02621E-13-1.59865E-13
 -1      3223 2.71607E+01 6.57887E+00-7.99525E-02 8.20223E-01 3.74312E-13-3.74319E-14
 -1      3224 2.70981E+01 6.63939E+00-1.40165E-01-3.64155E-01 3.03466E-13-4.75340E-14
 -1      3225 2.39284E+01-3.77308E+00 2.99759E-01 5.03549E+00-1.40166E-15-4.30656E-13
 -1      3226 2.00241E+01 2.21902E+00-3.66713E-03 6.57930E-02 8.21607E-14-1.66405E-13
 -1      3227 2.00242E+01 2.21959E+00-3.58640E-03-5.80638E-02 7.04111E-14-1.67736E-13
 -1      3228 2.01382E+01 1.92335E+00 5.01709E-03 1.01146E-01 8.71249E-14-1.46812E-13
 -1      3229 2.02528E+01 1.46340E+00 7.03371E-03 5.85545E-01 1.33867E-13-5.91666E-14
 -1      3230 2.01580E+01 1.80113E+00-7.33376E-03 6.84865E-01 1.43080E-13-9.59757E-14
 -1      3231 2.01229E+01 1.93140E+00-2.61413E-03 5.89219E-01 1.34985E-13-9.77041E-14
 -1      3232 2.52913E+01-3.61172E+00 2.13469E-02-2.53888E+00-1.25375E-13-2.67800E-13
 -1      3233 2.70152E+01-1.49522E+00-3.94215E-02 5.77241E-01-2.14924E-14-1.09211E-13
 -1      3234 2.00485E+01-3.39772E-02-7.36492E-04-1.80278E-01 4.58301E-14-1.30003E-13
 -1      3235 2.74662E+01-3.35632E+00-2.19796E-02 1.54394E+00-2.23200E-13 2.78319E-14
 -1      3236 2.00732E+01 1.51447E-01-1.13240E-03-7.85778E-02 7.59000E-14-7.59222E-14
 -1      3237 2.01061E+01 2.16849E-01 3.85629E-03-2.51030E-02 9.64247E-14-4.09695E-14
 -1      3238 2.01429E+01 1.61866E-01-1.34932E-03-7.86699E-02 8.01329E-14-8.30635E-14
 -1      3239 2.02396E+01 7.72397E-01-1.17036E-04 5.33290E-01 1.20959E-13 1.10402E-14
 -1      3240 2.02867E+01 9.15406E-01 4.91435E-03 7.54356E-01 1.44048E-13 4.31620E-14
 -1      3241 1.45429E+01 2.46216E+00-1.77786E-02 7.66394E-01-3.39355E-14-2.23797E-13
 -1      3242 1.33370E+01 2.47567E+00 3.11774E-02 8.10160E-01-1.82662E-13-3.42438E-13
 -1      3243 2.01241E+01 2.95402E-01-1.86170E-03 4.28054E-02 7.89031E-14-4.41124E-14
 -1      3244 2.01753E+01 3.96897E-01 6.90812E-03 1.34861E-01 9.09505E-14-1.97783E-14
 -1      3245 2.01885E+01 3.18720E-01-1.30547E-03 3.38258E-02 9.48219E-14-3.76367E-14
 -1      3246 2.00652E+01 2.10596E+00-2.95907E-03 3.90577E-01 1.24592E-13-1.28505E-13
 -1      3247 2.01602E+01 1.84828E+00 5.09565E-03 2.90385E-01 1.19730E-13-1.31225E-13
 -1      3248 2.00903E+01 2.02559E+00-5.36628E-03 5.04269E-01 1.34107E-13-1.14648E-13
 -1      3249 2.85434E+01-3.89575E-02-1.04792E-01-1.27116E+00 3.70190E-14-1.74791E-14
 -1      3250 2.80510E+01-1.15090E+00-1.55335E-02-7.09356E-01-3.45002E-14 1.18072E-13
 -1      3251 2.73804E+01 6.39051E-01-3.04503E-02-1.78727E+00-6.26166E-14 1.20730E-13
 -1      3252 2.01193E+01 1.93872E+00-3.11420E-03-5.83424E-01 1.27271E-14-1.43440E-13
 -1      3253 2.01580E+01 1.80936E+00-6.64678E-03-6.83110E-01-4.51397E-15-1.67302E-13
 -1      3254 2.35034E+01-4.11522E+00 6.87366E-02 4.62441E+00-3.06755E-13-2.91950E-13
 -1      3255 1.94373E+01 9.47882E-01-2.79880E-03-7.35472E-01 2.58103E-14-9.22380E-13
 -1      3256 1.33157E+01 5.70029E-01 1.11438E-01 4.14936E+00 4.39371E-14-4.61894E-13
 -1      3257 1.14375E+01 2.07794E+00 1.18510E-01 9.08060E-01 3.68770E-13-1.53016E-13
 -1      3258 2.03736E+01-2.53213E-01 9.70162E-04 5.79275E-01-1.28900E-13 2.10515E-13
 -1      3259 2.04220E+01-2.99512E-01 2.33061E-03 4.81370E-01 3.31570E-14-2.00490E-14
 -1      3260 2.67413E+01 2.14624E+00-3.45358E-02 2.01950E+00 1.80859E-13 6.13953E-14
 -1      3261 1.91462E+01 1.09595E+00 8.79531E-03-5.63598E-01-2.40655E-13-5.56572E-13
 -1      3262 2.01331E+01-1.55036E-01-7.21950E-03 9.07108E-01-1.50761E-13 2.47553E-13
 -1      3263 2.01760E+01-9.87200E-02-2.09687E-03 7.66570E-01-2.27594E-13 3.59287E-13
 -1      3264 2.02944E+01-1.80059E-01 5.71065E-03 6.97693E-01-1.70570E-13 3.82563E-13
 -1      3265 1.74742E+01-2.12368E+00 1.33373E-01 6.03048E+00-3.93484E-13-4.61041E-13
 -1      3266 1.63750E+01-1.11321E+00 2.21305E-02 5.31792E+00-4.35259E-13-8.25000E-13
 -1      3267 1.88708E+01-2.85905E+00-6.40631E-02 5.77950E+00-4.17100E-13-5.39201E-13
 -1      3268 2.61369E+01 5.16672E+00-1.01192E-01 1.20095E+00 3.68469E-13 7.03604E-15
 -1      3269 2.02490E+01 1.38146E+00-4.24663E-03-8.22895E-01-8.35678E-14-1.72246E-13
 -1      3270 2.04331E+01-3.06856E-01 2.69709E-03 3.73877E-01 1.44596E-13-1.39391E-13
 -1      3271 2.04257E+01-3.18860E-01 3.75485E-04 2.90190E-01 2.25895E-13-8.20749E-14
 -1      3272 2.05086E+01-4.18224E-01-4.82688E-03 4.56912E-01-9.15807E-15-2.27115E-13
 -1      3273 1.33312E+01 2.53429E+00 6.52125E-02-7.25384E-01 4.93685E-14-4.41140E-14
 -1      3274 2.02593E+01 8.75991E-01-3.43681E-03-4.57797E-01-4.48159E-14-1.34968E-13
 -1      3275 2.02842E+01 9.11272E-01 3.76298E-04-4.02651E-01-6.28011E-14-1.31713E-13
 -1      3276 2.02935E+01 1.04621E+00 5.68834E-03-5.94749E-01-6.22488E-14-1.36029E-13
 -1      3277 2.63808E+01 5.79165E+00-9.90502E-02-9.58289E-01 2.02290E-13-1.10505E-13
 -1      3278 2.55333E+01 4.69554E+00-5.43277E-02-1.35175E+00 1.84436E-13-7.57068E-14
 -1      3279 2.53294E+01 5.62361E+00-3.40919E-02-4.04116E-01 2.34299E-13-1.74263E-13
 -1      3280 1.08695E+01 2.14790E+00 2.82795E-02-5.81810E-01-2.80528E-13-3.83568E-13
 -1      3281 1.13940E+01 7.97237E-01 1.45678E-01-4.18946E+00-3.05717E-13-4.72219E-13
 -1      3282 1.31109E+01 3.43767E-01 1.51194E-02-4.52231E+00-3.07291E-13-4.67536E-13
 -1      3283 1.14109E+01 1.63659E+00 7.06320E-02-2.62631E+00-3.08330E-13-2.55740E-13
 -1      3284 2.10155E+01-3.31030E+00 5.20436E-02-5.28522E+00-2.60438E-13-1.58821E-13
 -1      3285 1.63141E+01-1.61375E+00 9.64708E-02-5.96325E+00-3.59400E-13-3.25823E-13
 -1      3286 1.90081E+01 1.11929E+00 1.22588E-03-3.87389E-01-3.26534E-13-5.18549E-13
 -1      3287 2.00638E+01 2.11026E+00-3.11589E-03-3.84095E-01 5.49750E-14-1.44110E-13
 -1      3288 2.00882E+01 2.03482E+00-4.58410E-03-4.99397E-01 3.74549E-14-1.47722E-13
 -1      3289 2.01973E+01 1.70437E+00 5.04687E-03-4.56395E-01 1.74503E-14-1.28133E-13
 -1      3290 1.87310E+01 1.17721E+00-7.73316E-03-2.00514E-01-3.24736E-13-5.96695E-13
 -1      3291 2.01861E+01 5.26360E-01-3.28245E-03 2.49765E-01 9.78621E-14-4.26921E-14
 -1      3292 2.02384E+01 6.90317E-01 7.85118E-03 3.99440E-01 1.08483E-13-1.36331E-14
 -1      3293 1.48203E+01 2.45010E+00 7.29258E-02-1.67346E-01-8.23185E-14-3.25884E-13
 -1      3294 2.02556E+01 8.31135E-01-6.09894E-03 4.92091E-01 1.21634E-13-2.50806E-14
 -1      3295 2.02345E+01 5.52435E-01-5.77987E-03 2.26358E-01 1.05930E-13-5.41055E-14
 -1      3296 2.41809E+01-3.38232E+00 1.20762E-01-2.96378E+00-1.51962E-13-1.26942E-13
 -1      3297 2.53285E+01-3.31859E+00-1.27926E-01-1.39591E+00-1.74794E-13-1.77853E-13
 -1      3298 2.03009E+01 4.52411E-01 2.52379E-03-7.78407E-02-1.67412E-14-8.51059E-14
 -1      3299 2.02763E+01 3.37810E-01-2.17235E-03-9.35997E-03-2.75298E-15-8.19823E-14
 -1      3300 1.28528E+01 2.57963E+00 1.29894E-01 3.81040E-02-2.50806E-13-3.47021E-13
 -1      3301 2.02753E+01 1.01184E+00 1.80731E-03 4.98801E-01 1.21293E-13-4.20217E-14
 -1      3302 2.02684E+01 2.46595E-01 2.17503E-03 3.70010E-02-5.13898E-15-7.54194E-14
 -1      3303 2.02438E+01 1.69868E-01-1.31224E-03 7.91077E-02 7.56108E-15-5.41485E-14
 -1      3304 2.03160E+01 3.40050E-01-4.67318E-05-7.94670E-04 1.01442E-14-4.02956E-14
 -1      3305 2.02290E+01 1.09982E-01 1.63094E-03 1.06239E-01-4.96951E-15-4.84234E-14
 -1      3306 2.02073E+01 6.04579E-02-6.69814E-04 1.29161E-01-1.28893E-14-5.78169E-14
 -1      3307 2.02848E+01 1.67880E-01-4.18465E-04 7.59227E-02 3.49333E-17-3.13422E-14
 -1      3308 2.01897E+01 2.27953E-02 1.13548E-03 1.42390E-01-2.72457E-14-5.55184E-14
 -1      3309 2.01717E+01-7.40570E-03-2.25224E-04 1.52163E-01-1.81843E-14-4.37757E-14
 -1      3310 2.02468E+01 5.54782E-02-5.80251E-04 1.19357E-01-2.16211E-14-3.31098E-14
 -1      3311 2.01536E+01-2.94040E-02 7.28476E-04 1.56026E-01-2.90594E-14-1.00969E-13
 -1      3312 2.01394E+01-4.59901E-02 6.83880E-05 1.57370E-01-6.26378E-14-6.78374E-14
 -1      3313 2.02079E+01-1.39446E-02-6.19901E-04 1.39169E-01-3.69185E-14-1.03990E-13
 -1      3314 2.01222E+01-5.70417E-02 4.11418E-04 1.55452E-01-1.04287E-13-6.80720E-14
 -1      3315 2.01112E+01-6.40775E-02 2.47654E-04 1.51879E-01-9.97878E-14-2.80678E-14
 -1      3316 2.01711E+01-5.28224E-02-5.92734E-04 1.43425E-01-6.98461E-14-1.12801E-13
 -1      3317 2.00963E+01-6.74139E-02 1.86452E-04 1.47149E-01-6.16876E-14-9.95498E-15
 -1      3318 2.00883E+01-6.80495E-02 3.50389E-04 1.41589E-01-3.20322E-14 5.03453E-15
 -1      3319 2.01386E+01-7.01419E-02-5.38079E-04 1.38658E-01-5.81251E-14-1.08748E-13
 -1      3320 2.00744E+01-6.64516E-02 1.01060E-05 1.35463E-01-1.75519E-14 2.72759E-14
 -1      3321 2.00681E+01-6.24927E-02 4.03559E-04 1.29088E-01 1.31339E-14 2.91575E-14
 -1      3322 2.01101E+01-7.28245E-02-4.44490E-04 1.29282E-01-2.84939E-14-7.23782E-14
 -1      3323 2.00558E+01-5.69970E-02-1.19834E-04 1.23098E-01 3.83199E-14 6.38422E-14
 -1      3324 2.00511E+01-4.96309E-02 4.19017E-04 1.17499E-01 6.65464E-14 7.20225E-14
 -1      3325 2.00846E+01-6.51739E-02-3.49472E-04 1.18360E-01 5.66463E-14-1.21707E-14
 -1      3326 2.00399E+01-4.12054E-02-2.31872E-04 1.12642E-01 2.57818E-14 4.36744E-14
 -1      3327 2.00362E+01-3.10714E-02 4.11941E-04 1.08775E-01 1.08236E-14 2.20864E-15
 -1      3328 2.00623E+01-4.96991E-02-2.41768E-04 1.08428E-01 1.59899E-14-1.17404E-14
 -1      3329 2.00255E+01-2.00723E-02-3.38745E-04 1.05712E-01-4.96055E-14-6.73429E-14
 -1      3330 2.00221E+01-7.28205E-03 3.83749E-04 1.04298E-01-1.14605E-13-1.42691E-13
 -1      3331 2.00419E+01-2.79663E-02-1.14074E-04 1.01120E-01-8.82910E-14-2.11047E-14
 -1      3332 2.00110E+01 6.45469E-03-4.57371E-04 1.03461E-01-1.47759E-13-1.83089E-13
 -1      3333 2.00069E+01 2.23089E-02 3.28496E-04 1.05079E-01-1.35492E-13-1.94337E-13
 -1      3334 2.00219E+01-3.48920E-04 4.52276E-05 9.75009E-02-1.39183E-13-1.41674E-13
 -1      3335 1.99939E+01 3.94666E-02-6.05527E-04 1.06701E-01-7.21491E-14-1.56573E-13
 -1      3336 1.99879E+01 5.93378E-02 2.28305E-04 1.11830E-01-4.44122E-14-2.11043E-13
 -1      3337 1.99999E+01 3.38873E-02 2.59271E-04 9.81641E-02-9.99546E-14-1.56182E-13
 -1      3338 1.99710E+01 8.11833E-02-8.03033E-04 1.15917E-01-1.20587E-14-1.93956E-13
 -1      3339 1.99608E+01 1.06648E-01 4.84711E-05 1.24934E-01 3.85756E-14-1.04450E-13
 -1      3340 1.99725E+01 7.65921E-02 5.63081E-04 1.03197E-01-1.46507E-14-7.87971E-14
 -1      3341 1.99371E+01 1.35142E-01-1.07134E-03 1.31148E-01-1.29769E-14-8.62755E-14
 -1      3342 1.99195E+01 1.68512E-01-2.71915E-04 1.44238E-01 1.15182E-14-9.85743E-14
 -1      3343 1.99351E+01 1.30839E-01 1.00914E-03 1.11994E-01 2.31439E-14-2.92185E-14
 -1      3344 1.98847E+01 2.06448E-01-1.43230E-03 1.51663E-01 2.36144E-14-1.24362E-13
 -1      3345 1.98544E+01 2.50884E-01-8.34143E-04 1.68591E-01 2.58868E-15-1.30128E-13
 -1      3346 1.98805E+01 2.01068E-01 1.67412E-03 1.22847E-01-4.04550E-14 1.15332E-14
 -1      3347 1.98022E+01 3.02015E-01-1.90436E-03 1.75295E-01-3.07191E-14-1.35330E-13
 -1      3348 1.97509E+01 3.61560E-01-1.80037E-03 1.94955E-01 2.34856E-14-1.34306E-13
 -1      3349 1.97984E+01 2.93167E-01 2.66627E-03 1.32171E-01-2.89177E-15-2.06529E-14
 -1      3350 1.96722E+01 4.30591E-01-2.49549E-03 1.97266E-01 1.93592E-14-7.26133E-14
 -1      3351 1.95871E+01 5.09964E-01-3.42223E-03 2.16860E-01 8.25270E-15-1.55217E-13
 -1      3352 1.96737E+01 4.14310E-01 4.13209E-03 1.33200E-01 3.85866E-14-1.13704E-14
 -1      3353 1.94691E+01 6.02177E-01-3.19629E-03 2.08219E-01-2.89668E-14-8.21453E-14
 -1      3354 1.93302E+01 7.05973E-01-6.07772E-03 2.21911E-01-9.18342E-14-1.28187E-13
 -1      3355 1.94844E+01 5.72148E-01 6.25762E-03 1.13904E-01-2.52625E-15 3.89311E-14
 -1      3356 1.91552E+01 8.26054E-01-3.97515E-03 1.91191E-01-5.10786E-14-1.84186E-13
 -1      3357 1.89332E+01 9.56763E-01-1.03091E-02 1.88101E-01 2.07865E-14-6.29773E-14
 -1      3358 1.91999E+01 7.72666E-01 9.25619E-03 5.38717E-02-5.72334E-14 2.48873E-14
 -1      3359 1.86773E+01 1.10644E+00-4.63357E-03 1.17433E-01 4.99631E-14-7.35015E-14
 -1      3360 1.83292E+01 1.26079E+00-1.61901E-02 7.85767E-02-2.81697E-14 7.14267E-15
 -1      3361 1.87780E+01 1.01549E+00 1.33010E-02-8.01595E-02 4.93225E-14-2.27884E-14
 -1      3362 1.79812E+01 1.42215E+00-5.82077E-03-5.16802E-02-1.09975E-13-5.20502E-14
 -1      3363 1.74775E+01 1.57640E+00-2.46706E-02-1.45848E-01-7.00416E-14-7.41374E-14
 -1      3364 1.81823E+01 1.27831E+00 1.85813E-02-3.30984E-01-4.52614E-14-5.05204E-14
 -1      3365 1.69652E+01 1.74155E+00-5.31914E-03-3.83276E-01-8.06378E-14-1.22975E-13
 -1      3366 1.61847E+01 1.87702E+00-2.85360E-02-5.86412E-01-6.86781E-14-2.36562E-13
 -1      3367 1.73361E+01 1.52987E+00 2.76526E-02-7.70342E-01-1.49257E-13-1.94570E-13
 -1      3368 2.01601E+01 5.95982E-02-6.41827E-04-1.38194E-01 3.20079E-14-4.86711E-14
 -1      3369 2.01813E+01 1.06313E-01 1.86339E-03-1.13820E-01 6.28659E-14-8.70148E-14
 -1      3370 1.83610E+01 1.28681E+00-1.24614E-02-7.11819E-02-2.36252E-13-5.81171E-13
 -1      3371 1.84422E+01 1.17860E+00 9.61289E-03 3.69018E-01-1.62862E-13-7.61139E-13
 -1      3372 1.79372E+01 1.45422E+00-1.66475E-02-2.20737E-02-1.98276E-13-6.36532E-13
 -1      3373 2.42241E+01-3.90047E+00-5.58117E-02 3.39508E+00-3.63680E-13 8.41853E-14
 -1      3374 2.20824E+01-3.46781E+00 1.18865E-01 4.80801E+00-4.27852E-13-2.78468E-13
 -1      3375 2.01270E+01-4.20522E-03-2.02853E-04-1.63214E-01 2.22310E-14-7.70967E-14
 -1      3376 2.01430E+01 2.42727E-02 1.25869E-03-1.53033E-01 1.59231E-14-4.54932E-14
 -1      3377 2.02075E+01 5.65521E-02-7.21807E-04-1.29992E-01 3.78507E-14-5.40442E-14
 -1      3378 1.52818E+01 2.12404E+00-1.86472E-02 3.95775E-01-3.04097E-13-3.26447E-13
 -1      3379 1.62540E+01 1.95013E+00-2.23852E-02 2.26488E-01-8.60228E-14-2.83364E-13
 -1      3380 2.04048E+01-3.50112E-01-6.33592E-03 6.98762E-01-3.92384E-14 1.52098E-13
 -1      3381 2.00419E+01-5.90922E-02 3.96168E-04-1.36116E-01-1.88718E-14 2.79624E-14
 -1      3382 2.00452E+01-6.19192E-02-1.05722E-05-1.43469E-01-1.02059E-14 1.02949E-14
 -1      3383 2.00568E+01-6.28808E-02 3.47140E-04-1.50406E-01 2.72380E-14-2.28340E-14
 -1      3384 2.00621E+01-6.18218E-02 1.65171E-04-1.57067E-01 8.24254E-14-3.32000E-14
 -1      3385 2.00833E+01-6.87654E-02-4.32262E-04-1.40022E-01 1.00617E-14 8.56701E-15
 -1      3386 2.00213E+01-3.77294E-02 4.22905E-04-1.11324E-01 1.17463E-15-3.05536E-15
 -1      3387 2.00219E+01-4.42667E-02-1.99898E-04-1.16712E-01-3.11501E-14 4.39064E-14
 -1      3388 2.00149E+01-2.43831E-02 4.21507E-04-1.03782E-01-4.29319E-14 7.81090E-14
 -1      3389 2.00144E+01-3.12923E-02-2.38000E-04-1.07308E-01-3.80803E-14 3.01692E-14
 -1      3390 2.00315E+01-3.85148E-02-2.19822E-04-1.06276E-01-1.63258E-14 2.99244E-14
 -1      3391 2.00108E+01-1.16388E-02 4.20502E-04-1.00451E-01 2.57952E-14 1.38414E-13
 -1      3392 2.00094E+01-1.80249E-02-2.43936E-04-1.01918E-01 2.85720E-14 1.63008E-13
 -1      3393 2.00202E+01-2.34718E-02-1.94289E-04-1.00849E-01-6.90014E-14 2.95747E-14
 -1      3394 2.00097E+01-1.46356E-03 4.21754E-04-1.01457E-01 2.87089E-15 8.82669E-14
 -1      3395 2.00069E+01-6.28331E-03-2.12158E-04-1.00942E-01 3.62611E-14 1.24033E-13
 -1      3396 2.00119E+01-9.45382E-03-2.04057E-04-9.98795E-02 2.38044E-14 7.42197E-14
 -1      3397 2.00127E+01 3.65436E-03 4.23788E-04-1.06412E-01 8.58302E-15-4.49823E-14
 -1      3398 2.00080E+01 1.74979E-03-1.30281E-04-1.04294E-01 1.97896E-14 1.83037E-14
 -1      3399 2.00070E+01 1.20150E-03-2.66829E-04-1.03662E-01 4.09185E-14-1.38980E-14
 -1      3400 2.00217E+01 3.90070E-04 4.19375E-04-1.14270E-01 7.95670E-15-1.77917E-14
 -1      3401 2.00141E+01 3.21267E-03 2.43695E-05-1.11328E-01 8.00100E-15-9.72767E-15
 -1      3402 2.00070E+01 5.50009E-03-4.05033E-04-1.12069E-01-1.67185E-14-5.23781E-14
 -1      3403 2.00403E+01-1.56466E-02 3.92579E-04-1.23055E-01-1.76857E-13 1.21665E-13
 -1      3404 2.00283E+01-5.71759E-03 2.84483E-04-1.20616E-01-6.31084E-14 3.37575E-14
 -1      3405 2.00147E+01-5.65997E-04-6.48443E-04-1.24399E-01-9.77720E-14-4.42135E-14
 -1      3406 2.00733E+01-4.99396E-02 3.13542E-04-1.29436E-01-1.99897E-13 8.75330E-14
 -1      3407 2.00549E+01-2.99731E-02 6.92245E-04-1.29590E-01-2.06266E-13 6.05693E-14
 -1      3408 2.00344E+01-2.22591E-02-1.03159E-03-1.39060E-01-1.43717E-13-4.96998E-16
 -1      3409 2.01275E+01-1.08680E-01 1.31869E-04-1.28159E-01-1.95815E-13 2.17210E-13
 -1      3410 2.01000E+01-7.54506E-02 1.29442E-03-1.34007E-01-1.96244E-13 8.76439E-14
 -1      3411 2.00726E+01-6.60850E-02-1.58651E-03-1.53054E-01-2.29666E-13-1.03484E-13
 -1      3412 2.02111E+01-1.97626E-01-2.29688E-04-1.11342E-01-1.95352E-13 2.13685E-13
 -1      3413 2.01717E+01-1.48302E-01 2.12925E-03-1.27256E-01-1.88558E-13 2.23126E-13
 -1      3414 2.01382E+01-1.39260E-01-2.32684E-03-1.61201E-01-2.10187E-13 7.14065E-15
 -1      3415 2.03328E+01-3.19748E-01-8.73955E-04-6.78416E-02-3.07667E-14 1.24699E-13
 -1      3416 2.02791E+01-2.53264E-01 3.19616E-03-9.95774E-02-1.15585E-13 2.15304E-13
 -1      3417 2.02424E+01-2.48235E-01-3.21967E-03-1.55099E-01-1.35139E-13 8.17548E-14
 -1      3418 2.04996E+01-4.71147E-01-1.89809E-03 1.69011E-02-1.46772E-13 9.30690E-14
 -1      3419 2.04309E+01-3.90528E-01 4.40109E-03-3.75024E-02-5.29892E-14 1.76138E-13
 -1      3420 2.03975E+01-3.95692E-01-4.14156E-03-1.21969E-01-5.01484E-14-8.96792E-15
 -1      3421 2.07123E+01-6.35059E-01-3.26150E-03 1.59499E-01-1.49499E-13 1.76841E-13
 -1      3422 2.06314E+01-5.50732E-01 5.46850E-03 7.57109E-02-1.63867E-13 1.64410E-13
 -1      3423 2.06138E+01-5.75285E-01-4.80812E-03-4.39524E-02-1.99420E-13 1.16192E-13
 -1      3424 2.09599E+01-7.75313E-01-4.72347E-03 3.73909E-01-2.43497E-13 2.42181E-13
 -1      3425 2.08750E+01-7.08335E-01 5.93880E-03 2.57053E-01-2.06772E-13 2.60888E-13
 -1      3426 2.08937E+01-7.64128E-01-4.72425E-03 1.00622E-01-2.05798E-13 2.48317E-13
 -1      3427 2.12135E+01-8.31829E-01-5.50339E-03 6.62389E-01-1.26296E-13 2.32321E-13
 -1      3428 2.11393E+01-8.16047E-01 5.03811E-03 5.16597E-01-1.32339E-13 2.70941E-13
 -1      3429 2.12235E+01-9.15114E-01-3.36164E-03 3.31005E-01-1.94932E-13 3.74353E-13
 -1      3430 2.14232E+01-7.23082E-01-4.06965E-03 1.00127E+00-1.23299E-14 1.43100E-13
 -1      3431 2.13804E+01-8.02126E-01 2.52107E-03 8.45600E-01-3.55008E-14 1.73284E-13
 -1      3432 2.15660E+01-9.54916E-01-6.61671E-04 6.55311E-01-6.14208E-14 1.77678E-13
 -1      3433 2.15290E+01-3.76142E-01 3.48909E-04 1.31794E+00-6.43770E-14-9.99117E-15
 -1      3434 2.15324E+01-5.83858E-01-2.61444E-03 1.19251E+00-4.51499E-14-8.97896E-15
 -1      3435 2.18522E+01-7.76527E-01 5.45284E-03 1.03885E+00 3.87195E-14 9.15424E-14
 -1      3436 2.14835E+01 2.30159E-01 7.41772E-03 1.49203E+00 1.20034E-13-3.49667E-14
 -1      3437 2.15330E+01-1.07804E-01-1.06584E-02 1.45610E+00-3.50948E-14-2.65283E-14
 -1      3438 2.19964E+01-3.04206E-01 1.08042E-02 1.39972E+00 7.46907E-16-6.28617E-14
 -1      3439 2.12929E+01 9.93398E-01 1.30449E-02 1.37405E+00 1.32618E-13 1.34680E-13
 -1      3440 2.13709E+01 5.99105E-01-1.59043E-02 1.48829E+00 2.49551E-13 1.30245E-13
 -1      3441 2.19353E+01 4.62057E-01 1.08178E-02 1.57343E+00 1.19612E-13 1.04620E-13
 -1      3442 2.10592E+01 1.68164E+00 1.63803E-02 9.21163E-01 2.67037E-14 6.00475E-15
 -1      3443 2.11326E+01 1.34747E+00-1.35761E-02 1.18254E+00 3.75706E-14 4.82576E-14
 -1      3444 2.17151E+01 1.28636E+00-9.46676E-05 1.37790E+00 1.56419E-13 1.75177E-13
 -1      3445 2.09165E+01 1.98766E+00 2.56453E-03 1.49956E-01-5.28262E-14-6.67013E-14
 -1      3446 2.09224E+01 1.88350E+00-1.23027E-02 5.03286E-01 6.67457E-15-1.45127E-14
 -1      3447 2.14631E+01 2.12266E+00 1.14295E-02 7.95435E-01 3.14419E-14 3.03611E-14
 -1      3448 2.09580E+01 1.79072E+00-1.44458E-02-6.47886E-01-2.06783E-13 1.62229E-15
 -1      3449 2.09305E+01 1.95806E+00 4.21992E-03-3.03859E-01-1.76213E-13-1.11197E-13
 -1      3450 2.13990E+01 2.27361E+00 2.60052E-03-8.46477E-02-1.25592E-13-3.05979E-14
 -1      3451 2.11883E+01 1.18015E+00-1.54788E-02-1.24568E+00-1.12222E-13 4.12912E-14
 -1      3452 2.11140E+01 1.54115E+00 1.59365E-02-1.01473E+00-1.82647E-13-1.62102E-14
 -1      3453 2.15122E+01 1.92684E+00 5.83028E-03-9.29296E-01-2.11450E-13-2.21715E-13
 -1      3454 2.14274E+01 4.08398E-01-1.51876E-02-1.46874E+00 4.11498E-15-2.93653E-14
 -1      3455 2.13498E+01 8.02828E-01 1.15117E-02-1.39788E+00-2.41182E-14 4.26415E-14
 -1      3456 2.17856E+01 1.13069E+00 6.64617E-03-1.43154E+00-6.68228E-14-2.36504E-13
 -1      3457 2.15558E+01-2.55059E-01-9.26488E-03-1.36519E+00 2.38492E-15-1.33536E-14
 -1      3458 2.15143E+01 5.71903E-02 4.99627E-03-1.42891E+00 5.67630E-14 4.50847E-14
 -1      3459 2.19832E+01 2.47444E-01 1.10326E-02-1.51690E+00-9.45348E-15-2.85933E-13
 -1      3460 2.15182E+01-6.72165E-01-2.24628E-03-1.06474E+00 4.85328E-14 7.48978E-14
 -1      3461 2.15277E+01-4.95164E-01-1.32570E-03-1.20430E+00-2.89946E-14 1.82405E-14
 -1      3462 2.19987E+01-4.57218E-01 9.46488E-03-1.28110E+00-4.10894E-14-7.57381E-14
 -1      3463 2.13404E+01-8.32468E-01 2.92863E-03-7.07697E-01-9.27404E-14 2.22428E-13
 -1      3464 2.13943E+01-7.81799E-01-4.86448E-03-8.66457E-01 4.57207E-14 1.27229E-13
 -1      3465 2.18195E+01-8.56813E-01 4.46210E-03-8.97304E-01-6.57832E-14 8.88572E-14
 -1      3466 2.10875E+01-8.02049E-01 5.44994E-03-3.87024E-01-2.55278E-14 4.83310E-13
 -1      3467 2.11675E+01-8.38337E-01-5.59649E-03-5.29032E-01-3.32115E-14 3.78401E-13
 -1      3468 2.15147E+01-9.70292E-01-5.24594E-04-5.12392E-01-1.26688E-13 2.51578E-13
 -1      3469 2.08221E+01-6.57267E-01 7.99367E-03-1.47497E-01 2.28439E-14 3.02686E-13
 -1      3470 2.09067E+01-7.40332E-01-4.10417E-03-2.52362E-01 3.03413E-14 3.15000E-13
 -1      3471 2.11647E+01-8.86706E-01-4.72421E-03-2.01980E-01-5.05486E-14 2.04342E-13
 -1      3472 2.05710E+01-4.77453E-01 4.01644E-03 1.77445E-02-3.65719E-14 7.09931E-14
 -1      3473 2.06579E+01-5.75087E-01-3.67658E-03-5.41427E-02-8.79313E-14 2.36433E-13
 -1      3474 2.08454E+01-7.13072E-01-7.32201E-03 1.02840E-02 1.42030E-13-2.72130E-13
 -1      3475 1.30567E+01 2.17575E+00 2.32044E-02 1.11979E+00 1.08395E-13-8.48002E-14
 -1      3476 2.60581E+01 1.19237E+00 4.52770E-02 2.00540E+00 1.74194E-13 7.10404E-14
 -1      3477 2.54682E+01 2.69570E+00-8.83659E-02 2.00786E+00 2.48496E-13 9.99817E-14
 -1      3478 2.02587E+01 1.33432E+00 2.13696E-03-5.25850E-01-2.80853E-14-1.44814E-13
 -1      3479 2.02144E+01 1.53459E+00-2.05942E-03-6.80018E-01-3.14748E-14-1.56069E-13
 -1      3480 1.85612E+01 1.00129E+00-1.92278E-04 6.48619E-01 4.36125E-14-4.80599E-13
 -1      3481 2.00755E+01-5.81742E-02 2.51268E-04-1.62615E-01 6.65129E-14-6.12116E-14
 -1      3482 2.00836E+01-5.11925E-02 4.20829E-04-1.66714E-01 4.15798E-14-8.65226E-14
 -1      3483 2.01080E+01-6.49953E-02-5.23884E-04-1.51088E-01 3.89282E-14-1.33391E-14
 -1      3484 2.03000E+01 8.70079E-01 8.29086E-03 3.63227E-01 1.08744E-13-4.44052E-14
 -1      3485 2.02738E+01 1.12793E+00-7.19370E-03 4.87137E-01 1.26568E-13-4.57635E-14
 -1      3486 2.02666E+01 1.27509E+00-2.68941E-04 4.50082E-01 1.21223E-13-5.50456E-14
 -1      3487 1.47219E+01 2.85509E-01-8.49755E-04 4.14933E+00-2.93633E-13-8.19039E-13
 -1      3488 1.30499E+01 1.43046E+00 5.82887E-02 2.96013E+00-3.81492E-14-4.10408E-13
 -1      3489 2.74529E+01-2.67696E+00-7.62984E-02 4.42093E-01-2.21683E-13 2.80227E-13
 -1      3490 2.61332E+01-3.48081E+00 7.99691E-03 1.75461E+00-3.03090E-13 6.38760E-14
 -1      3491 2.69083E+01-1.80666E+00-1.82912E-02-4.23890E-01-1.85653E-13 1.30399E-13
 -1      3492 2.02438E+01 1.40032E+00-4.68430E-03-7.24682E-01-4.62895E-14-1.51008E-13
 -1      3493 2.03135E+01 7.53143E-01 1.65953E-03-2.50928E-01-5.47275E-14-1.01879E-13
 -1      3494 2.02959E+01 5.88382E-01-2.97819E-03-1.48502E-01-3.18318E-14-1.01713E-13
 -1      3495 2.03316E+01 5.93787E-01 7.57193E-04-1.21213E-01-2.12405E-14-4.47691E-14
 -1      3496 2.63183E+01-1.99361E+00 9.25780E-02 2.36194E-01-1.24546E-13-1.85612E-13
 -1      3497 2.61079E+01-8.67051E-01-1.22372E-01 1.28088E+00 3.56390E-14-4.37619E-14
 -1      3498 2.00287E+01 2.20259E+00-3.62844E-03-1.63092E-01 6.42670E-14-1.83643E-13
 -1      3499 2.00406E+01 2.16437E+00-5.08975E-03-2.82442E-01 5.53022E-14-1.57161E-13
 -1      3500 2.01640E+01 1.84949E+00 5.89465E-03-2.87864E-01 5.02456E-14-1.64881E-13
 -1      3501 2.03928E+01-2.88249E-01 2.96715E-03 2.03586E-01 2.50784E-13-1.23755E-14
 -1      3502 2.03578E+01-2.80476E-01 4.98362E-04 1.34553E-01 1.76843E-13 5.77235E-14
 -1      3503 2.04033E+01-3.30098E-01 4.87747E-04 1.05246E-01 1.31300E-13 1.84421E-13
 -1      3504 2.04975E+01-3.95633E-01 2.94519E-04 2.56092E-01 3.72500E-14-8.83195E-14
 -1      3505 2.00988E+01-4.06338E-02 8.02360E-05-1.68763E-01 7.19559E-14-8.78030E-14
 -1      3506 2.01104E+01-2.48882E-02 7.77394E-04-1.67609E-01 6.58777E-14-7.99078E-14
 -1      3507 2.01705E+01-1.00196E-02-6.95326E-04-1.52143E-01 4.27559E-14-5.85540E-14
 -1      3508 2.02707E+01 6.72085E-01-2.71996E-03 2.33938E-01 9.85831E-14-3.77982E-14
 -1      3509 2.58180E+01 3.41845E+00-7.33176E-02-1.96158E+00 2.11831E-13-9.12014E-14
 -1      3510 2.63675E+01 2.14406E+00-3.78812E-02-2.08389E+00 5.53030E-14-1.44121E-14
 -1      3511 1.22661E+01 2.28867E+00 5.96004E-02-6.99007E-01-3.17095E-13-3.66360E-13
 -1      3512 1.16961E+01 2.07148E+00 1.36420E-01-1.78942E+00-3.28694E-13-2.98206E-13
 -1      3513 1.25366E+01 1.63599E+00-3.06655E-02-2.55107E+00-2.67973E-13-4.07951E-13
 -1      3514 1.29898E+01 2.21498E+00-3.01430E-02-1.03632E+00-2.08711E-13-4.91968E-13
 -1      3515 1.98976E+01-2.43883E+00 1.21399E-01-5.15827E+00-2.81587E-13-1.61524E-13
 -1      3516 2.17618E+01-3.42391E+00-1.15327E-01-4.42847E+00-1.82129E-13-1.73618E-13
 -1      3517 1.56935E+01-5.46843E-01 1.48019E-01-5.24388E+00-2.26605E-13-3.99569E-13
 -1      3518 1.74454E+01-1.75273E+00-5.64863E-02-5.45316E+00-2.64247E-13-2.34077E-13
 -1      3519 2.00302E+01-4.99304E-02 4.17954E-04-1.22478E-01-6.17761E-14 5.35082E-14
 -1      3520 2.00320E+01-5.51717E-02-1.26824E-04-1.29259E-01-4.23398E-14 1.12322E-14
 -1      3521 2.00626E+01-6.34952E-02-3.44041E-04-1.27297E-01-2.47282E-14 6.91075E-14
 -1      3522 2.00455E+01-5.25580E-02-2.70742E-04-1.15465E-01-5.80181E-14 9.21731E-16
 -1      3523 1.54131E+01 1.98803E+00-8.04907E-03-9.06852E-01-1.51752E-13-3.97588E-13
 -1      3524 1.43453E+01 2.07840E+00 7.03933E-03-1.18478E+00-1.86655E-13-5.21066E-13
 -1      3525 1.60833E+01 1.72425E+00 4.58081E-02-1.45606E+00-2.24764E-13-3.69563E-13
 -1      3526 2.52796E+01 4.34727E+00-3.07111E-02 1.50731E+00 3.61058E-13 2.72820E-14
 -1      3527 2.51140E+01 5.31529E+00-9.33420E-02 6.39062E-01 3.29479E-13-2.35027E-14
 -1      3528 1.68787E+01 1.78137E+00-2.19269E-02 1.48664E-01-1.52126E-13-3.18830E-13
 -1      3529 1.74816E+01 1.58908E+00-2.70602E-02 4.47049E-02-2.52846E-13-4.78896E-13
 -1      3530 1.76834E+01 1.50177E+00 5.17754E-02 6.49760E-01-2.73147E-13-8.96225E-13
 -1      3531 1.66574E+01 1.76606E+00 5.61253E-02 9.03688E-01-2.64371E-13-5.93556E-13
 -1      3532 1.45804E+01 1.94760E+00 4.67692E-02 1.33840E+00-2.64566E-13-4.17992E-13
 -1      3533 2.02347E+01 3.18442E-01-3.14515E-03 1.39816E-02 9.40877E-14-4.32659E-14
 -1      3534 2.02712E+01 4.29186E-01 5.23786E-03 8.58693E-02 9.14049E-14-4.20778E-14
 -1      3535 2.03050E+01 6.82830E-01-1.21092E-03 2.00421E-01 1.07137E-13-4.56913E-14
 -1      3536 2.44880E+01 4.78734E+00-5.70924E-02 9.07007E-02 2.30579E-13-2.09130E-13
 -1      3537 2.28074E+01-2.95157E+00 2.94400E-02-3.17611E+00-1.94976E-13-1.87210E-13
 -1      3538 2.02023E+01 1.64032E+00-3.36537E-03 1.30219E-01 9.86336E-14-1.26289E-13
 -1      3539 2.01981E+01 1.66025E+00-2.67286E-03 3.95031E-02 7.67735E-14-1.55638E-13
 -1      3540 2.01969E+01 1.62412E-01-1.33969E-03-8.33901E-02 7.26955E-14-6.12880E-14
 -1      3541 2.02238E+01 2.35317E-01 2.60633E-03-3.84100E-02 8.02237E-14-5.68790E-14
 -1      3542 2.02458E+01 1.64057E-01-7.28274E-04-8.12402E-02 7.44087E-14-6.85427E-14
 -1      3543 2.53388E+01 6.08824E-02-1.32820E-02 1.59913E+00 1.27485E-13-3.40093E-14
 -1      3544 1.52688E+01 1.55175E+00 2.51911E-02 2.02380E+00-2.66927E-13-7.65749E-13
 -1      3545 2.01371E+01-4.75577E-02-6.16428E-04-1.56842E-01 4.92419E-14-4.01310E-14
 -1      3546 2.02002E+01 1.69629E+00 5.24549E-03 4.57981E-01 1.26423E-13-1.04776E-13
 -1      3547 2.63949E+01 1.15614E+00-7.98656E-02-1.94961E+00-1.31020E-13 1.27745E-14
 -1      3548 2.64143E+01 2.78721E-01 2.10492E-03-1.69919E+00-1.32661E-13-6.83724E-14
 -1      3549 2.54428E+01 1.62546E+00-1.33954E-02-2.03266E+00-3.19172E-14 8.44706E-14
 -1      3550 2.50324E+01-3.62384E+00 7.41035E-03 2.33377E+00-4.14903E-13 1.84130E-13
 -1      3551 2.35645E+01-3.23428E+00-1.07171E-02 2.72599E+00-4.20563E-13 2.65810E-13
 -1      3552 2.51939E+01-2.97810E+00 9.66023E-04 1.20984E+00-3.05457E-13 2.40403E-13
 -1      3553 2.06557E+01-2.68966E+00 5.25590E-02 4.65654E+00-3.78531E-13-3.68071E-13
 -1      3554 2.05072E+01-4.53081E-01 1.32501E-03 8.22298E-01 7.10335E-14 3.61153E-13
 -1      3555 2.06124E+01-5.17023E-01 4.26992E-03 6.87466E-01 1.47240E-13-9.39972E-14
 -1      3556 1.96073E+01 1.23952E-01-1.19525E-02 1.16561E+00 1.14569E-13 1.92058E-13
 -1      3557 1.99032E+01-2.19589E-02 1.53573E-02 1.16047E+00-1.39886E-14 1.42831E-13
 -1      3558 2.02530E+01 1.38858E+00-1.50442E-04-4.42782E-01-2.04088E-14-1.07866E-13
 -1      3559 2.02943E+01 1.12949E+00 1.17768E-03-4.41404E-01-4.61207E-14-1.26731E-13
 -1      3560 2.02929E+01 9.60822E-01-2.58380E-03-3.37745E-01-5.17026E-14-1.24245E-13
 -1      3561 2.04469E+01-3.81871E-01-9.68353E-04 6.39608E-02 9.21273E-14 2.19319E-13
 -1      3562 2.02213E+01 1.54849E+00-4.17150E-03 2.84054E-01 1.18227E-13-1.30384E-13
 -1      3563 2.02112E+01 1.60776E+00-1.90047E-03 2.01031E-01 1.21118E-13-1.30802E-13
 -1      3564 2.02850E+01 1.38700E+00 4.93111E-03 1.33467E-01 1.02035E-13-1.10416E-13
 -1      3565 2.01388E+01 1.92745E+00 6.24458E-03-9.64034E-02 6.48578E-14-1.70239E-13
 -1      3566 2.01434E+01-2.29960E-01-3.55438E-03 1.07218E+00-1.42239E-13-6.56842E-14
 -1      3567 2.03539E+01-3.46191E-01 8.39413E-03 9.84013E-01-1.01612E-13 2.86195E-13
 -1      3568 2.05240E+01-5.70269E-01-9.33531E-03 9.89346E-01 5.57811E-14 2.50210E-13
 -1      3569 2.00478E+01-2.89518E-01-1.23923E-02 1.26847E+00-1.21827E-13 1.59366E-13
 -1      3570 2.07449E+01-6.71266E-01-5.87431E-03 6.52311E-01 2.23941E-13-1.80987E-13
 -1      3571 2.06502E+01-5.28967E-01 3.53131E-03 5.31577E-01 1.04962E-13-4.35686E-13
 -1      3572 2.06586E+01-5.49265E-01-2.39484E-03 4.19013E-01 1.04255E-13-2.37337E-13
 -1      3573 1.83221E+01 9.50988E-01-5.49135E-03 9.68102E-01-8.02245E-14-5.86786E-13
 -1      3574 1.88529E+01 6.63126E-01-1.32683E-02 1.00620E+00 1.29390E-13-3.30926E-13
 -1      3575 1.67563E+01-8.40205E-01-4.45575E-02 4.71882E+00-4.10453E-13-1.00815E-12
 -1      3576 1.58222E+01-1.02265E-01 1.05363E-01 4.49574E+00-3.18100E-13-9.94513E-13
 -1      3577 1.54305E+01 6.14492E-01 2.44415E-02 3.53090E+00-5.07725E-13-9.38510E-13
 -1      3578 1.91505E+01 4.86999E-01 9.50775E-03 1.12514E+00 2.01694E-13-3.02689E-13
 -1      3579 2.03175E+01 9.64426E-01 2.33333E-03-2.80561E-01-3.32996E-14-7.31650E-14
 -1      3580 2.50884E+01-2.44973E+00-1.63737E-02-4.64855E-01-2.09971E-13-1.46659E-13
 -1      3581 1.89676E+01-1.69353E+00 4.22907E-02-4.66937E+00-2.51131E-13-2.26788E-13
 -1      3582 2.42377E+01 4.09039E+00-2.76195E-02-1.23891E+00 1.52496E-13-2.28428E-13
 -1      3583 2.51172E+01 3.79902E+00-5.25542E-02-1.69158E+00 1.93071E-13-1.53778E-13
 -1      3584 2.45917E+01 2.82311E+00-2.76280E-02-1.75055E+00 8.48210E-14-2.14202E-13
 -1      3585 2.02304E+01 1.47397E+00-3.03544E-03-3.73851E-01 5.74259E-15-1.05769E-13
 -1      3586 1.47641E+01 2.58597E-01 4.03153E-02-4.25906E+00-1.43045E-13-4.45192E-13
 -1      3587 2.41639E+01 2.25451E+00 9.96337E-03 1.80471E+00 2.56967E-13 5.52405E-14
 -1      3588 2.47488E+01 3.22509E+00-4.48380E-02 1.83012E+00 2.54463E-13 7.53980E-14
 -1      3589 2.37915E+01 3.55420E+00-4.93866E-02 1.34589E+00 2.97068E-13 3.70511E-14
 -1      3590 2.05665E+01-4.77680E-01-3.24630E-03 1.33927E-01-2.79991E-14-2.14005E-13
 -1      3591 2.37728E+01 4.37846E+00-7.29585E-04 5.25379E-01 2.79433E-13-1.33099E-13
 -1      3592 2.39049E+01 4.42480E+00-4.70704E-02-5.02621E-01 1.43795E-13-2.11337E-13
 -1      3593 2.03526E+01 7.22401E-01 2.71432E-04-1.53086E-01-2.03735E-14-2.75556E-14
 -1      3594 2.03496E+01 5.63798E-01-2.26868E-03-7.90917E-02-1.61638E-14-3.36402E-14
 -1      3595 2.03256E+01 5.98337E-01-2.86310E-03 1.14827E-01 1.12528E-13-6.85362E-14
 -1      3596 2.03284E+01 8.87056E-01 5.31613E-04 2.60858E-01 1.05622E-13-5.41620E-14
 -1      3597 2.01983E+01 1.65953E+00-2.90374E-03-3.40084E-02 6.90574E-14-1.75310E-13
 -1      3598 2.02032E+01 1.63787E+00-4.44135E-03-1.28235E-01 6.56832E-14-1.86089E-13
 -1      3599 2.02803E+01 1.42121E+00 5.06392E-03 2.35577E-03 6.95173E-14-1.61095E-13
 -1      3600 2.03572E+01 4.30050E-01 1.40876E-03-3.28454E-02-3.00655E-15-3.86981E-14
 -1      3601 2.03415E+01 3.17722E-01-1.74221E-03 1.64359E-02 4.64432E-15-6.04490E-14
 -1      3602 2.03771E+01 5.49199E-01 9.50326E-04-5.77249E-02-1.36528E-14-2.44523E-14
 -1      3603 2.03348E+01 2.26871E-01 1.34641E-03 4.65186E-02 5.22450E-16-5.69077E-14
 -1      3604 2.03141E+01 1.50956E-01-1.06418E-03 7.68530E-02-1.26420E-15-5.97437E-14
 -1      3605 2.03686E+01 3.06743E-01 2.85462E-04 2.01608E-02-1.65968E-15-5.03330E-14
 -1      3606 2.02989E+01 9.10954E-02 1.07016E-03 9.38847E-02-8.41166E-15-4.48639E-14
 -1      3607 2.02772E+01 4.22429E-02-5.31899E-04 1.10220E-01-1.93833E-14-4.61963E-14
 -1      3608 2.03402E+01 1.41132E-01-9.58708E-05 6.92734E-02-4.48472E-15-6.49005E-14
 -1      3609 2.02577E+01 4.97197E-03 7.87034E-04 1.17869E-01-4.65403E-14-6.36143E-14
 -1      3610 2.02371E+01-2.42588E-02-1.50879E-04 1.24537E-01-6.90223E-14-1.09359E-13
 -1      3611 2.03010E+01 3.33274E-02-3.53758E-04 9.62048E-02-3.80293E-14-8.61252E-14
 -1      3612 2.02161E+01-4.53376E-02 5.37607E-04 1.25944E-01-3.32756E-14-7.97751E-14
 -1      3613 2.01976E+01-6.05099E-02 1.04641E-04 1.26416E-01-4.51024E-14-3.22899E-14
 -1      3614 2.02580E+01-3.20083E-02-4.83348E-04 1.07531E-01-3.27984E-14-6.97030E-14
 -1      3615 2.01779E+01-6.97590E-02 3.45730E-04 1.24223E-01-7.70953E-14-2.37718E-15
 -1      3616 2.01626E+01-7.51575E-02 2.54205E-04 1.21444E-01-5.21676E-14-2.61149E-14
 -1      3617 2.02162E+01-6.63879E-02-5.34692E-04 1.08853E-01-2.98154E-14 6.33123E-15
 -1      3618 2.01431E+01-7.71703E-02 1.70173E-04 1.17322E-01-2.01596E-14-1.91743E-14
 -1      3619 2.01292E+01-7.59236E-02 3.32367E-04 1.12811E-01 3.33997E-14 3.86446E-15
 -1      3620 2.01767E+01-7.96883E-02-4.88020E-04 1.04354E-01-2.50771E-15 8.89743E-14
 -1      3621 2.01112E+01-7.21283E-02 3.97929E-05 1.08057E-01 6.50142E-14 1.31406E-14
 -1      3622 2.00993E+01-6.59273E-02 3.57168E-04 1.03346E-01 5.52228E-14 4.25237E-14
 -1      3623 2.01397E+01-7.83005E-02-4.24269E-04 9.70377E-02 3.11177E-14 9.73519E-14
 -1      3624 2.00828E+01-5.79846E-02-7.36173E-05 9.89311E-02 7.49474E-15 2.17660E-16
 -1      3625 2.00723E+01-4.80926E-02 3.40692E-04 9.49921E-02-2.51071E-14-1.00016E-14
 -1      3626 2.01061E+01-6.59261E-02-3.27966E-04 8.91455E-02 1.82247E-14 5.47738E-14
 -1      3627 2.00568E+01-3.69079E-02-1.75547E-04 9.14855E-02-3.01409E-14 2.77908E-15
 -1      3628 2.00470E+01-2.39422E-02 2.88219E-04 8.89584E-02-8.48721E-14 4.15431E-15
 -1      3629 2.00753E+01-4.54539E-02-2.03312E-04 8.21579E-02-2.83738E-14 1.62288E-14
 -1      3630 2.00317E+01-9.79705E-03-2.74654E-04 8.66392E-02-1.24681E-13 1.15715E-14
 -1      3631 2.00215E+01 6.19172E-03 1.94311E-04 8.59069E-02-1.09102E-13-1.68513E-14
 -1      3632 2.00459E+01-1.83613E-02-4.86532E-05 7.68714E-02-7.96501E-14 1.21437E-13
 -1      3633 2.00051E+01 2.35322E-02-3.77193E-04 8.47695E-02-9.36822E-14 1.31878E-14
 -1      3634 1.99930E+01 4.29968E-02 4.02093E-05 8.59470E-02-5.57272E-14 1.18921E-14
 -1      3635 2.00157E+01 1.50598E-02 1.49882E-04 7.35063E-02-1.10974E-13 1.45964E-13
 -1      3636 1.99740E+01 6.42850E-02-4.89225E-04 8.56192E-02-3.70118E-14 3.00735E-14
 -1      3637 1.99579E+01 8.81813E-02-2.06856E-04 8.84933E-02 2.96308E-14 6.05003E-14
 -1      3638 1.99820E+01 5.55010E-02 4.12380E-04 7.15660E-02-4.31810E-14 1.58205E-13
 -1      3639 1.99339E+01 1.14701E-01-6.11104E-04 8.80932E-02 8.52310E-14 4.52254E-14
 -1      3640 1.99108E+01 1.44489E-01-6.01506E-04 9.19620E-02 7.52538E-14 1.01216E-13
 -1      3641 1.99407E+01 1.04583E-01 7.68074E-04 6.95976E-02 4.67935E-14 1.45227E-13
 -1      3642 1.98788E+01 1.78071E-01-7.33596E-04 8.98288E-02 8.03385E-15 1.50174E-13
 -1      3643 1.98440E+01 2.15687E-01-1.22917E-03 9.31888E-02-3.23982E-15 1.74357E-13
 -1      3644 1.98866E+01 1.64769E-01 1.25843E-03 6.47443E-02 8.80304E-14 7.12216E-14
 -1      3645 1.97998E+01 2.58680E-01-8.30694E-04 8.64367E-02-1.11622E-14 1.64633E-13
 -1      3646 1.97465E+01 3.06409E-01-2.21726E-03 8.64456E-02-9.51844E-15 9.82734E-14
 -1      3647 1.98123E+01 2.39156E-01 1.93623E-03 5.19756E-02 8.51364E-15 1.65865E-13
 -1      3648 1.96848E+01 3.61502E-01-8.46947E-04 7.02758E-02 1.87549E-14 9.34301E-14
 -1      3649 1.96032E+01 4.21608E-01-3.74812E-03 6.18857E-02 7.66144E-14 1.76890E-13
 -1      3650 1.97077E+01 3.31004E-01 2.86162E-03 2.28872E-02 4.48586E-14 1.74179E-13
 -1      3651 1.95169E+01 4.91313E-01-6.79909E-04 2.85818E-02 3.60240E-14 5.73284E-14
 -1      3652 1.93928E+01 5.65174E-01-6.07374E-03 3.21520E-03-4.77368E-14 7.76010E-14
 -1      3653 1.95599E+01 4.42658E-01 4.08961E-03-3.60707E-02-6.60382E-15 2.22157E-13
 -1      3654 1.92738E+01 6.50662E-01-1.62566E-04-5.92342E-02-8.22380E-14 5.61124E-14
 -1      3655 1.90876E+01 7.36990E-01-9.51888E-03-1.15586E-01-2.96253E-14 5.30374E-14
 -1      3656 1.93522E+01 5.73377E-01 5.63861E-03-1.46060E-01-2.55123E-14 3.69409E-15
 -1      3657 1.89270E+01 8.35817E-01 1.00239E-03-2.25153E-01 2.73620E-15-3.79514E-15
 -1      3658 1.86532E+01 9.27971E-01-1.39083E-02-3.34907E-01 3.40586E-14-7.23645E-14
 -1      3659 1.90652E+01 7.15188E-01 7.37969E-03-3.39110E-01-4.50465E-14 9.20813E-16
 -1      3660 1.84552E+01 1.02414E+00 2.69381E-03-5.07531E-01-3.36199E-14-1.75488E-13
 -1      3661 1.80805E+01 1.09957E+00-2.06146E-02-6.88903E-01-7.95444E-14-1.89804E-13
 -1      3662 1.86906E+01 8.41656E-01 8.49185E-03-6.51089E-01-6.49061E-14-1.63206E-13
 -1      3663 1.78230E+01 1.17812E+00 6.33489E-03-9.75149E-01-1.43907E-13-1.94450E-13
 -1      3664 1.72698E+01 1.20961E+00-2.91072E-02-1.29448E+00-2.10722E-13-3.02458E-13
 -1      3665 1.82104E+01 9.16149E-01 1.07449E-02-1.14582E+00-1.45299E-13-2.60935E-13
 -1      3666 1.43637E+01 1.21984E+00 1.36748E-01-3.34331E+00-1.31230E-13-4.63359E-13
 -1      3667 1.59407E+01-5.15837E-03-6.40149E-02-4.08657E+00-1.19354E-13-3.42806E-13
 -1      3668 1.92311E+01 2.45423E-01-7.90992E-03 1.37239E+00 6.29947E-14-4.28514E-14
 -1      3669 2.02452E+01 4.60354E-02-5.84849E-04-1.22005E-01 4.37469E-14-4.83370E-14
 -1      3670 2.02671E+01 9.40098E-02 1.36613E-03-1.03741E-01 4.20788E-14-5.10550E-14
 -1      3671 2.01703E+01-5.51827E-02 9.69440E-05-1.41106E-01 3.91602E-14-4.23581E-14
 -1      3672 2.01871E+01-3.99080E-02 6.07799E-04-1.40701E-01 5.11545E-14-3.35279E-14
 -1      3673 1.41874E+01 1.96825E+00 8.49588E-02-1.86266E+00-1.74936E-13-5.04235E-13
 -1      3674 2.43248E+01-2.55194E+00 3.19596E-02-9.10784E-01-3.13595E-13-1.94873E-13
 -1      3675 2.47272E+01-1.90067E+00-4.16297E-02 3.83915E-01-1.26297E-13-2.65862E-13
 -1      3676 1.69167E+01 1.23220E+00 5.88137E-03-1.71047E+00-2.40663E-13-3.04905E-13
 -1      3677 1.61503E+01 1.21699E+00-2.16659E-02-2.17588E+00-2.44142E-13-3.00494E-13
 -1      3678 1.75835E+01 8.81880E-01 1.82305E-02-1.89694E+00-2.58108E-13-1.70646E-13
 -1      3679 2.03045E+01 1.11815E+00 3.18081E-03 3.22783E-01 1.12061E-13-7.74894E-14
 -1      3680 2.02497E+01 1.39563E+00-5.07407E-03 4.03963E-01 1.14681E-13-1.07237E-13
 -1      3681 2.02356E+01 1.49590E+00-9.17439E-04 3.34767E-01 1.07977E-13-1.25343E-13
 -1      3682 2.03253E+01 1.01246E+00 1.06384E-03 2.33095E-01 1.00350E-13-9.74703E-14
 -1      3683 2.00257E+01-1.95941E-02 4.47694E-04-9.37092E-02 1.14060E-14 4.41747E-14
 -1      3684 2.00301E+01-2.83006E-02-2.01751E-04-9.50565E-02-4.45245E-14 2.96783E-14
 -1      3685 2.00413E+01-3.66265E-02 4.31548E-04-9.68169E-02-5.28981E-14 6.16566E-14
 -1      3686 2.00472E+01-4.50791E-02-1.47764E-04-1.00171E-01-6.41170E-15 4.30023E-14
 -1      3687 2.00442E+01-3.46222E-02-2.40516E-04-8.88196E-02-2.03015E-14 8.69278E-14
 -1      3688 2.00048E+01 8.40081E-03 5.35363E-04-1.02119E-01 1.76201E-14-3.63527E-14
 -1      3689 2.00054E+01 2.73950E-03-2.18216E-04-9.87468E-02 7.05038E-14 8.77194E-15
 -1      3690 2.00020E+01 1.35743E-02 6.23199E-04-1.14424E-01-5.55295E-14-2.68498E-14
 -1      3691 1.99995E+01 1.18781E-02-1.58216E-04-1.08712E-01-3.08620E-14-1.80702E-15
 -1      3692 1.99964E+01 1.40389E-02-3.24353E-04-1.03401E-01-6.16928E-15-2.07371E-14
 -1      3693 2.00080E+01 7.29750E-03 7.43835E-04-1.32072E-01-1.01355E-13-7.47309E-14
 -1      3694 2.00007E+01 1.19927E-02-1.74090E-05-1.24400E-01-5.30392E-14-6.71858E-14
 -1      3695 1.99904E+01 1.85054E-02-5.23945E-04-1.20820E-01-2.55815E-14 3.11077E-14
 -1      3696 2.00282E+01-1.63980E-02 8.86138E-04-1.54193E-01-1.80958E-13-7.89327E-14
 -1      3697 2.00133E+01-2.08971E-03 2.49199E-04-1.45429E-01-1.18178E-13-6.76543E-14
 -1      3698 1.99943E+01 9.53076E-03-8.78381E-04-1.45635E-01-1.22571E-13-1.11604E-13
 -1      3699 2.00702E+01-6.50479E-02 1.01530E-03-1.78617E-01-2.43035E-13-1.14320E-13
 -1      3700 2.00442E+01-3.71069E-02 7.05026E-04-1.70423E-01-2.13809E-13-5.51454E-14
 -1      3701 2.00143E+01-1.98402E-02-1.44555E-03-1.77820E-01-1.87345E-13-5.23176E-14
 -1      3702 2.01450E+01-1.47291E-01 1.05645E-03-2.00929E-01-2.07285E-13-9.95146E-14
 -1      3703 2.01029E+01-1.01209E-01 1.43108E-03-1.96221E-01-2.73134E-13-1.34379E-13
 -1      3704 2.00599E+01-7.84075E-02-2.28646E-03-2.16038E-01-2.22519E-13-1.39027E-13
 -1      3705 2.02662E+01-2.71385E-01 8.71172E-04-2.13074E-01-1.14613E-13-2.91863E-14
 -1      3706 2.02027E+01-2.03056E-01 2.51552E-03-2.16634E-01-1.37451E-13-3.04135E-14
 -1      3707 2.01445E+01-1.76270E-01-3.44563E-03-2.56375E-01-2.41319E-13-2.21379E-13
 -1      3708 2.04493E+01-4.41983E-01 2.27683E-04-2.01585E-01-1.16852E-13 2.94355E-15
 -1      3709 2.03591E+01-3.49585E-01 4.01217E-03-2.20713E-01-7.47746E-14 1.31085E-14
 -1      3710 2.02857E+01-3.23046E-01-4.91758E-03-2.90367E-01-1.39038E-13-1.14894E-14
 -1      3711 2.07079E+01-6.54068E-01-1.17364E-03-1.45824E-01-2.65316E-13 4.38536E-14
 -1      3712 2.05886E+01-5.41581E-01 5.84880E-03-1.90670E-01-2.02064E-13 2.21308E-14
 -1      3713 2.05042E+01-5.23973E-01-6.59852E-03-3.02234E-01-1.68404E-13 3.16592E-14
 -1      3714 2.10469E+01-8.83403E-01-3.59353E-03-1.82221E-02-2.07961E-13 6.17985E-14
 -1      3715 2.09022E+01-7.65884E-01 7.62712E-03-1.00655E-01-2.29539E-13 1.56507E-14
 -1      3716 2.08196E+01-7.71874E-01-8.11622E-03-2.65832E-01-2.03148E-13-1.04405E-13
 -1      3717 2.14555E+01-1.07345E+00-5.59889E-03 2.10670E-01-2.18511E-13 2.96555E-14
 -1      3718 2.12955E+01-9.83423E-01 8.83279E-03 8.12238E-02-2.04011E-13 7.00809E-14
 -1      3719 2.12425E+01-1.03594E+00-8.82006E-03-1.43506E-01-2.11304E-13-2.36663E-13
 -1      3720 2.18795E+01-1.13432E+00-1.03487E-02 5.46003E-01-8.29520E-14 1.19549E-13
 -1      3721 2.17321E+01-1.12009E+00 7.02415E-03 3.75127E-01-1.46445E-13 1.61736E-13
 -1      3722 2.17400E+01-1.24237E+00-1.24108E-02 1.12900E-01-2.23633E-13-4.95064E-14
 -1      3723 2.22547E+01-9.25840E-01-8.50206E-03 9.93491E-01 5.14682E-14 1.61846E-13
 -1      3724 2.21755E+01-1.05919E+00 1.16408E-02 8.02235E-01 5.16105E-14 2.31883E-13
 -1      3725 2.23218E+01-1.29674E+00-1.22966E-02 5.20414E-01-9.50543E-14 4.57425E-14
 -1      3726 2.24814E+01-3.30406E-01 2.77861E-03 1.42046E+00 8.43685E-14 9.09270E-14
 -1      3727 2.24535E+01-6.84818E-01-2.89750E-03 1.26086E+00 7.90600E-14 1.13573E-13
 -1      3728 2.27652E+01-9.66323E-01-6.95683E-03 1.04695E+00 1.18731E-13 1.67745E-13
 -1      3729 2.24439E+01 6.42758E-01 1.44678E-02 1.64762E+00 3.49035E-14 1.81743E-13
 -1      3730 2.24915E+01 9.41826E-02-2.39806E-02 1.61339E+00-6.61097E-14 5.36347E-14
 -1      3731 2.30361E+01-2.26775E-01 4.53000E-03 1.50910E+00 4.76290E-14 9.15110E-14
 -1      3732 2.24352E+01 2.21127E+00-9.01111E-03 1.35814E+00 1.65247E-13 9.95662E-14
 -1      3733 2.25726E+01 1.65071E+00-1.86582E-02 1.59075E+00 2.57929E-13 1.07114E-13
 -1      3734 2.23314E+01 2.65875E+00 5.84478E-03 9.61329E-01 1.15047E-13-2.29417E-14
 -1      3735 2.22020E+01 3.09479E+00-1.19952E-02-3.05645E-01-3.21488E-14-1.82773E-13
 -1      3736 2.21832E+01 3.11398E+00-2.56472E-02 1.64805E-01 7.52768E-14-1.01836E-13
 -1      3737 2.26689E+01 2.31839E+00-1.86223E-02-1.36305E+00-4.44263E-15-4.09145E-13
 -1      3738 2.25383E+01 2.80860E+00-3.43708E-03-1.00218E+00-4.72096E-14-2.89159E-13
 -1      3739 2.25289E+01-1.26511E-01-1.58465E-02-1.51339E+00-9.82849E-14-4.35091E-13
 -1      3740 2.24988E+01 3.80985E-01 8.46438E-03-1.58540E+00-3.76233E-14-4.64303E-13
 -1      3741 2.24286E+01-8.31963E-01-3.31111E-03-1.11074E+00-1.38063E-13-2.17906E-13
 -1      3742 2.24728E+01-5.28324E-01-2.44963E-03-1.29466E+00-1.69099E-13-3.24254E-13
 -1      3743 2.30421E+01-4.31970E-01 1.25031E-02-1.38379E+00-2.47700E-13-3.24541E-13
 -1      3744 2.21052E+01-1.12723E+00 5.44018E-03-6.35995E-01-1.89331E-13-8.74666E-14
 -1      3745 2.22191E+01-1.02748E+00-7.53357E-03-8.40075E-01-1.09359E-13-1.43165E-13
 -1      3746 2.27323E+01-1.10318E+00 4.74093E-03-8.48078E-01-2.10920E-13-2.59701E-13
 -1      3747 2.16731E+01-1.11869E+00 8.36824E-03-2.36253E-01-7.82078E-14 1.22759E-14
 -1      3748 2.18262E+01-1.15633E+00-7.64375E-03-4.08202E-01-1.10794E-13 1.37476E-14
 -1      3749 2.22306E+01-1.31739E+00-3.70422E-03-3.40309E-01-2.02786E-13-1.37361E-13
 -1      3750 2.12431E+01-9.39595E-01 9.73863E-03 4.66506E-02 1.44154E-13-8.25393E-14
 -1      3751 2.13965E+01-1.04786E+00-6.06708E-03-7.95670E-02 3.74871E-14 7.67902E-15
 -1      3752 2.16884E+01-1.22033E+00-6.32524E-03 3.07130E-02 1.30497E-14-1.63476E-13
 -1      3753 2.02813E+01 3.29426E-01-6.14129E-04 5.88729E-03 9.41953E-14-6.66107E-14
 -1      3754 2.64040E+01-1.13398E+00-7.12665E-02-1.09106E+00-1.12309E-13-1.11626E-13
 -1      3755 2.60257E+01-2.14933E+00-2.86401E-03-1.35738E-01-1.72156E-13 3.08625E-14
 -1      3756 2.56957E+01-4.84047E-01-3.09026E-02-1.40723E+00-1.26125E-13-9.82443E-14
 -1      3757 1.79703E+01 9.80901E-01-1.89037E-02 1.18038E+00-1.88390E-13-8.06191E-13
 -1      3758 1.84484E+01 7.01040E-01 3.23540E-02 1.56204E+00-6.23144E-14-2.14703E-13
 -1      3759 1.75565E+01 1.08680E+00-1.82776E-02 1.34270E+00-3.18807E-13-7.59819E-13
 -1      3760 2.01369E+01-7.09417E-02 2.60216E-04-1.35011E-01 1.50906E-14-1.15834E-15
 -1      3761 2.01510E+01-6.50437E-02 3.59262E-04-1.38588E-01 3.11426E-14-2.49398E-14
 -1      3762 2.01938E+01-6.18146E-02-5.20363E-04-1.24714E-01 1.70855E-14 1.24276E-14
 -1      3763 2.14748E+01-2.72066E+00-4.62523E-02 3.80014E+00-2.99914E-13 9.85496E-15
 -1      3764 1.93507E+01-1.73150E+00 9.77051E-02 4.61318E+00-2.71101E-13-4.86544E-13
 -1      3765 2.03155E+01 1.13272E+00 1.34614E-03-2.85658E-01-9.10184E-15-6.97430E-14
 -1      3766 2.03305E+01 9.13318E-01-1.65736E-03-2.04413E-01-4.88572E-15-4.23513E-14
 -1      3767 2.03544E+01 8.90840E-01 2.18730E-03-1.58356E-01-3.15073E-15-3.62736E-14
 -1      3768 2.02069E+01-1.91213E-02-1.71280E-04-1.38736E-01 1.65088E-14-3.51416E-14
 -1      3769 2.02264E+01 9.65391E-03 9.12280E-04-1.31361E-01 3.26283E-14-5.10159E-14
 -1      3770 2.02758E+01 3.87371E-02-4.24389E-04-1.09362E-01 3.71655E-14-2.81282E-14
 -1      3771 2.06284E+01-5.01123E-01 3.93157E-03 2.18631E-01-8.98302E-14-1.58949E-13
 -1      3772 2.17167E+01-2.37204E+00 7.93215E-02-3.43449E+00-2.07412E-13-1.01185E-13
 -1      3773 2.31269E+01-2.82227E+00-4.42567E-02-2.24160E+00-2.82909E-13-5.46689E-14
 -1      3774 2.00133E+01-3.75146E-03 4.79154E-04-9.53017E-02 3.90014E-14 5.18438E-15
 -1      3775 2.00161E+01-1.15991E-02-2.26462E-04-9.43511E-02 3.55282E-14 2.04239E-14
 -1      3776 2.00085E+01 1.32521E-03-2.32083E-04-9.28113E-02 7.56994E-14-6.89532E-14
 -1      3777 2.02531E+01 1.41877E+00-1.39389E-03-2.93045E-01 3.37713E-14-1.10237E-13
 -1      3778 2.01074E+01-7.28708E-02 3.50464E-04-1.24845E-01-1.72072E-14-8.32285E-15
 -1      3779 2.01190E+01-7.33143E-02 1.68405E-04-1.30232E-01-6.02432E-15-3.89506E-14
 -1      3780 2.01563E+01-7.63133E-02-4.85745E-04-1.19248E-01 1.37462E-14-4.67027E-14
 -1      3781 1.83331E+01-7.96586E-01 1.15215E-01-4.19603E+00-2.18719E-13-1.62394E-13
 -1      3782 1.97262E+01-1.89079E+00-8.38701E-02-4.06472E+00-2.31218E-13-1.63525E-13
 -1      3783 2.47715E+01-6.19534E-01 1.91086E-02 1.34838E+00 1.04949E-13-9.27140E-14
 -1      3784 2.43882E+01 6.74309E-01-5.67406E-02 1.85366E+00 2.11349E-13 8.28049E-14
 -1      3785 1.89808E+01 2.40501E-01-9.08856E-03 1.66003E+00-8.45338E-14 2.97849E-14
 -1      3786 1.96290E+01-7.83755E-02 2.35696E-02 1.65694E+00-2.66374E-13 2.59907E-13
 -1      3787 2.07753E+01-6.32514E-01 4.56885E-03 2.85852E-01 1.28824E-13-1.55192E-13
 -1      3788 1.52326E+01 1.28511E+00-2.65688E-02-2.52438E+00-1.79217E-13-3.36925E-13
 -1      3789 1.41812E+01 1.50244E+00 4.54036E-02-2.58503E+00-1.42513E-13-4.60824E-13
 -1      3790 2.02962E+01 1.29575E+00 4.87216E-03 2.40816E-01 1.11424E-13-1.35327E-13
 -1      3791 2.02406E+01 1.47692E+00-1.23703E-03-2.14993E-01 4.57209E-14-1.36878E-13
 -1      3792 2.03073E+01 1.26311E+00 3.95007E-03-1.45425E-01 4.43437E-14-1.42064E-13
 -1      3793 2.02819E+01 1.52674E-01-1.10865E-03-8.29457E-02 5.76740E-14-5.76396E-14
 -1      3794 2.03056E+01 2.26598E-01 1.99085E-03-4.80371E-02 8.16838E-14-6.05521E-14
 -1      3795 2.03144E+01 1.46631E-01-7.47477E-05-7.71959E-02 4.81155E-14-5.52565E-14
 -1      3796 2.50828E+01-1.96152E+00 6.63808E-03-2.57747E-01-2.44987E-13-7.46599E-14
 -1      3797 2.53456E+01-2.66550E+00-7.60049E-03 4.81798E-01-2.53722E-13 3.04110E-14
 -1      3798 2.42773E+01-2.71405E+00-1.23977E-02 1.07588E+00-3.33190E-13 3.32428E-14
 -1      3799 1.87029E+01 2.13016E-01-2.22255E-02 1.92754E+00-3.14719E-13 2.37410E-14
 -1      3800 2.09273E+01-7.64951E-01-1.05580E-03 2.22920E-01 2.18103E-13-4.62623E-14
 -1      3801 1.72697E+01-1.36985E-01-1.10096E-02-3.58072E+00-2.46636E-13-1.58519E-13
 -1      3802 1.64587E+01 9.44171E-01 6.72719E-02-2.80357E+00-2.31744E-13-1.48420E-13
 -1      3803 2.09444E+01-8.03112E-01 8.61056E-03 7.22391E-01 2.33166E-13 6.04242E-15
 -1      3804 2.09832E+01-8.19297E-01 7.18582E-03 5.73433E-01 2.25716E-13-3.04728E-13
 -1      3805 2.02343E+01-2.64560E-02-5.14663E-04-1.23135E-01 2.65401E-14-1.52208E-14
 -1      3806 2.35981E+01-2.64704E+00 2.54332E-03-1.44762E+00-2.58607E-13-2.15887E-13
 -1      3807 2.34385E+01-2.12631E+00-1.07255E-03-5.37435E-01-1.87267E-13-4.47159E-13
 -1      3808 2.25790E+01-2.20813E+00 3.27112E-02-1.78358E+00-2.18801E-13-1.88227E-13
 -1      3809 2.00669E+01-5.26649E-02-3.02420E-04-9.35643E-02-1.33441E-14 9.92642E-14
 -1      3810 2.00599E+01-5.26965E-02 4.23629E-04-1.03836E-01-1.35488E-14 2.72882E-14
 -1      3811 2.00675E+01-5.98653E-02-7.27095E-05-1.08715E-01-2.73636E-14 6.33494E-14
 -1      3812 2.32631E+01 1.39436E+00-7.05717E-03 1.74691E+00 1.91408E-13 6.76265E-14
 -1      3813 2.23662E+01 9.36516E-01-2.71510E-02-1.61407E+00-3.16036E-14-4.49139E-13
 -1      3814 2.22718E+01 1.49803E+00 1.42437E-02-1.46006E+00-7.84147E-14-4.02442E-13
 -1      3815 2.03116E+01 3.15372E-01-2.10840E-03-1.42055E-02 9.49392E-14-6.44974E-14
 -1      3816 2.03321E+01 4.28493E-01 2.88901E-03 4.43747E-02 1.14611E-13-6.05988E-14
 -1      3817 2.03441E+01 3.04839E-01-1.51481E-03-1.85859E-02 9.46038E-14-5.76151E-14
 -1      3818 2.35049E+01 3.68831E+00-2.58449E-02-8.18580E-01 1.60979E-13-2.86520E-13
 -1      3819 1.58472E+01 9.81945E-01 1.47549E-02 2.82134E+00-3.49379E-13-8.85398E-13
 -1      3820 1.64387E+01 1.28276E+00 6.25248E-03 1.86841E+00-2.15848E-13-8.88026E-13
 -1      3821 2.00248E+01-1.58400E-02-2.11458E-04-8.82516E-02 5.12666E-14 4.20483E-14
 -1      3822 2.00396E+01-3.90288E-01-5.48651E-03 1.52954E+00-1.04112E-13 2.22411E-13
 -1      3823 2.03959E+01-5.66388E-01 1.19624E-02 1.41329E+00-1.26530E-13 1.23920E-13
 -1      3824 1.98566E+01-4.72859E-01-1.79500E-02 1.85927E+00-2.03367E-13 1.37221E-13
 -1      3825 1.83636E+01-9.35444E-01 3.08003E-02 4.02310E+00-2.71144E-13-5.90735E-13
 -1      3826 2.07566E+01-1.76265E+00 1.91310E-02-3.17336E+00-2.28520E-13-1.34031E-13
 -1      3827 1.65601E+01 3.91051E-01-2.41903E-02 3.29951E+00-3.60387E-13-9.95331E-13
 -1      3828 2.25425E+01-2.81375E+00 3.82199E-02 3.16067E+00-3.44376E-13 9.33567E-14
 -1      3829 2.10917E+01-2.13188E+00-2.59359E-02 3.28136E+00-1.85428E-13 3.46155E-14
 -1      3830 2.30950E+01-2.72535E+00 5.00509E-03 2.26909E+00-4.07214E-13 2.24897E-13
 -1      3831 2.06497E+01-6.97052E-01 3.07719E-03 1.17123E+00-5.48069E-14 3.96413E-14
 -1      3832 2.08402E+01-8.03733E-01 2.40541E-03 9.92326E-01 1.11327E-13 2.42440E-13
 -1      3833 2.10834E+01-1.00030E+00-1.04847E-03 9.04410E-01 8.64274E-14-1.55328E-14
 -1      3834 2.06541E+01-8.70856E-01-1.29543E-02 1.44001E+00-1.23777E-13-3.16936E-14
 -1      3835 1.69585E+01 1.16905E+00-1.48338E-02 1.66676E+00-3.37582E-13-1.00444E-12
 -1      3836 2.35715E+01-1.41850E+00-1.28631E-02 6.64394E-01 1.99142E-14-1.81773E-13
 -1      3837 2.42163E+01-1.02598E+00 1.22877E-02 1.17308E+00 8.22907E-14-6.69681E-14
 -1      3838 2.03181E+01 1.19614E+00-2.59473E-03 3.22808E-02 7.67863E-14-1.41057E-13
 -1      3839 2.03150E+01 1.19501E+00-3.99919E-03-2.87136E-02 6.04235E-14-1.64052E-13
 -1      3840 2.03544E+01 5.92806E-01-5.63097E-04 9.19126E-02 9.67412E-14-7.40988E-14
 -1      3841 2.03210E+01 1.14679E+00-3.28674E-03 1.33955E-01 1.06577E-13-1.05896E-13
 -1      3842 2.03198E+01 1.18294E+00-1.65052E-03 7.73774E-02 8.65327E-14-9.64748E-14
 -1      3843 2.03712E+01 9.98107E-01 4.28495E-03 4.12517E-02 7.74777E-14-1.10845E-13
 -1      3844 2.32799E+01 3.48634E+00-1.07513E-02 8.56493E-01 1.64450E-13-2.96395E-14
 -1      3845 2.33573E+01 2.25800E+00-8.21792E-03-1.65573E+00 5.92061E-14-5.87334E-13
 -1      3846 2.40045E+01 1.79364E+00-4.79251E-02-1.85556E+00-1.78572E-14-3.36878E-13
 -1      3847 2.00819E+01-6.56645E-02 4.00502E-04-1.13714E-01-5.84052E-14 6.82606E-14
 -1      3848 2.00913E+01-7.02669E-02 2.89335E-05-1.19389E-01-3.30889E-14 6.20546E-14
 -1      3849 2.01226E+01-7.66433E-02-4.33366E-04-1.10531E-01-4.42057E-14 1.77602E-14
 -1      3850 2.00929E+01-6.75721E-02-3.55039E-04-1.01265E-01-3.90016E-14 6.53532E-14
 -1      3851 2.30356E+01 6.86953E-01 1.43720E-02-1.70098E+00-3.73054E-14-5.69983E-13
 -1      3852 2.03883E+01 6.50900E-01-6.29720E-04-7.48681E-02 1.26194E-14-6.43549E-14
 -1      3853 2.03920E+01 5.03121E-01-1.39345E-03-2.74717E-02 1.88997E-14-4.20195E-14
 -1      3854 2.03963E+01 3.77432E-01 5.19477E-04-2.38965E-03 1.36828E-15-4.86770E-14
 -1      3855 2.03849E+01 2.72882E-01-1.12658E-03 2.95966E-02 3.81955E-15-5.53120E-14
 -1      3856 2.04098E+01 4.72971E-01 5.63850E-04-1.50792E-02 1.33621E-14-8.58337E-14
 -1      3857 2.03759E+01 1.87032E-01 6.71819E-04 4.51679E-02-1.48661E-14-6.07855E-14
 -1      3858 2.03568E+01 1.16638E-01-7.08165E-04 6.43618E-02-8.38679E-15-7.41133E-14
 -1      3859 2.04003E+01 2.51546E-01 3.31487E-04 2.64331E-02-4.56017E-15-5.69474E-14
 -1      3860 2.03393E+01 6.09185E-02 6.11957E-04 7.27198E-02-1.76383E-14-8.56868E-14
 -1      3861 2.03172E+01 1.62502E-02-3.03295E-04 8.27751E-02-2.49469E-14-5.92543E-14
 -1      3862 2.03692E+01 1.01052E-01-1.19066E-04 5.16415E-02-1.49107E-14-3.72922E-14
 -1      3863 2.02953E+01-1.76370E-02 5.00842E-04 8.58251E-02-2.36797E-14-7.89001E-14
 -1      3864 2.02728E+01-4.33515E-02-1.35122E-05 8.95837E-02-2.11554E-14-4.01666E-14
 -1      3865 2.03270E+01 4.80248E-03-3.78593E-04 6.48956E-02-7.79058E-15-4.88372E-14
 -1      3866 2.02506E+01-6.07148E-02 3.98469E-04 8.92621E-02 1.02943E-14-2.14381E-14
 -1      3867 2.02302E+01-7.27644E-02 1.65628E-04 8.92203E-02 1.03883E-14 1.74397E-14
 -1      3868 2.02814E+01-5.05872E-02-5.19965E-04 6.96680E-02 1.48744E-14-5.62894E-14
 -1      3869 2.02071E+01-8.02451E-02 2.63558E-04 8.70485E-02 6.39553E-15 3.92533E-14
 -1      3870 2.01873E+01-8.33532E-02 2.60767E-04 8.48115E-02 4.11489E-14 8.56285E-14
 -1      3871 2.02355E+01-7.79489E-02-5.24771E-04 6.90687E-02 2.84037E-14-2.58880E-14
 -1      3872 2.01654E+01-8.27557E-02 1.62449E-04 8.16579E-02 2.12358E-14 7.27981E-14
 -1      3873 2.01476E+01-7.90482E-02 2.92418E-04 7.85143E-02 1.09074E-14 5.66051E-14
 -1      3874 2.01905E+01-8.57574E-02-4.84235E-04 6.55460E-02 1.04927E-14 1.29169E-14
 -1      3875 2.01272E+01-7.28172E-02 7.11811E-05 7.51971E-02 2.95079E-15 7.89851E-14
 -1      3876 2.01111E+01-6.42621E-02 2.77721E-04 7.20131E-02 6.07166E-15 6.17524E-14
 -1      3877 2.01487E+01-7.89555E-02-4.06740E-04 6.06599E-02 1.20825E-14-4.93136E-16
 -1      3878 2.00921E+01-5.39461E-02-1.51815E-05 6.89543E-02-2.59031E-14 3.11901E-14
 -1      3879 2.00771E+01-4.17832E-02 2.18014E-04 6.62568E-02-4.53983E-14 1.29378E-14
 -1      3880 2.01101E+01-6.18658E-02-3.01802E-04 5.54961E-02-2.65227E-14 1.62678E-14
 -1      3881 2.00588E+01-2.81801E-02-9.31696E-05 6.35374E-02-5.57023E-14 3.71895E-14
 -1      3882 2.00440E+01-1.29417E-02 1.13879E-04 6.15740E-02-7.68458E-14 5.57351E-14
 -1      3883 2.00738E+01-3.71549E-02-1.65673E-04 5.05758E-02-4.28054E-14 9.29017E-15
 -1      3884 2.00257E+01 3.66394E-03-1.57794E-04 5.90893E-02-8.16001E-14 9.70244E-14
 -1      3885 2.00097E+01 2.18634E-02-5.28798E-05 5.77585E-02-1.00619E-13 1.29528E-13
 -1      3886 2.00383E+01-6.12877E-03 4.75640E-06 4.57772E-02-4.65040E-14 1.04629E-13
 -1      3887 1.99901E+01 4.16422E-02-2.07107E-04 5.49550E-02-7.90405E-14 1.65294E-13
 -1      3888 1.99712E+01 6.31102E-02-3.05935E-04 5.37293E-02-3.90944E-14 1.52481E-13
 -1      3889 2.00014E+01 3.06888E-02 2.18436E-04 4.03980E-02-6.51887E-14 1.47146E-13
 -1      3890 1.99487E+01 8.66366E-02-2.28738E-04 4.95285E-02-1.75935E-14 1.41196E-13
 -1      3891 1.99244E+01 1.11999E-01-6.86163E-04 4.72839E-02 4.99070E-14 8.36202E-14
 -1      3892 1.99602E+01 7.35274E-02 4.83499E-04 3.26757E-02-5.05783E-14 1.09717E-13
 -1      3893 1.98972E+01 1.40153E-01-1.95741E-04 3.98386E-02 1.00877E-13-1.98791E-15
 -1      3894 1.98640E+01 1.70215E-01-1.25416E-03 3.45444E-02 1.10731E-13-1.34425E-14
 -1      3895 1.99111E+01 1.23094E-01 8.15991E-04 1.95207E-02 2.72965E-14 8.94443E-14
 -1      3896 1.98299E+01 2.04032E-01-6.10635E-05 2.08566E-02 7.57764E-14 3.32556E-14
 -1      3897 1.97831E+01 2.39544E-01-2.09287E-03 9.08679E-03 5.45969E-14 1.02287E-13
 -1      3898 1.98495E+01 1.80152E-01 1.23148E-03-4.15240E-03 1.38298E-13 4.25431E-14
 -1      3899 1.97396E+01 2.79928E-01 2.55739E-04-1.55283E-02 6.60827E-14 9.23267E-14
 -1      3900 1.96728E+01 3.21131E-01-3.30749E-03-3.93261E-02 6.61717E-14 1.00195E-13
 -1      3901 1.97702E+01 2.44887E-01 1.73650E-03-4.63538E-02 9.02049E-14 6.19673E-14
 -1      3902 1.96174E+01 3.68268E-01 8.86000E-04-8.19572E-02-1.80596E-14 1.81164E-13
 -1      3903 1.95226E+01 4.14037E-01-5.01944E-03-1.26493E-01-6.94830E-14 1.03121E-13
 -1      3904 1.96672E+01 3.15765E-01 2.31145E-03-1.19269E-01 5.03634E-14 6.56555E-14
 -1      3905 1.94537E+01 4.66290E-01 2.03193E-03-1.97521E-01-1.19738E-13 6.49518E-14
 -1      3906 1.93207E+01 5.12671E-01-7.31537E-03-2.76045E-01-8.01411E-14-5.09419E-14
 -1      3907 1.95346E+01 3.87542E-01 2.87904E-03-2.40820E-01-1.21293E-13 5.68462E-14
 -1      3908 1.92392E+01 5.64471E-01 3.95071E-03-3.89894E-01-6.03086E-14-1.30335E-13
 -1      3909 1.90581E+01 6.02551E-01-9.79992E-03-5.22109E-01-2.74787E-14-8.24001E-14
 -1      3910 1.93690E+01 4.48149E-01 3.26041E-03-4.36344E-01-1.27702E-13-8.04325E-14
 -1      3911 1.89748E+01 6.39890E-01 6.79681E-03-6.88640E-01-6.96591E-14-1.51559E-13
 -1      3912 1.87460E+01 6.50072E-01-1.34644E-02-8.86642E-01-1.15667E-13-2.06747E-13
 -1      3913 1.91783E+01 4.71333E-01 2.39672E-03-7.30033E-01-7.61338E-14-1.34836E-13
 -1      3914 1.86668E+01 6.53970E-01 1.15512E-02-1.14513E+00-1.29395E-13-2.04327E-13
 -1      3915 1.83691E+01 6.02536E-01-1.77194E-02-1.46365E+00-2.01318E-13-1.81552E-13
 -1      3916 1.89781E+01 4.21317E-01 1.81296E-03-1.16609E+00-1.12487E-13-1.22800E-13
 -1      3917 1.83589E+01 2.25943E-01-1.08980E-02 2.29139E+00-2.60135E-13-2.10124E-13
 -1      3918 1.91400E+01-1.54976E-01 3.09190E-02 2.35988E+00-2.48093E-13 1.41476E-13
 -1      3919 2.02553E+01-3.74580E-02-6.42953E-05-1.06227E-01 2.26553E-14-4.73645E-14
 -1      3920 2.02771E+01-1.10068E-02 6.18696E-04-1.01770E-01 2.96148E-14-4.38451E-14
 -1      3921 2.03240E+01 1.05665E+00-3.50997E-03 2.05777E-01 8.93867E-14-1.54455E-13
 -1      3922 2.03242E+01 1.11454E+00-8.96792E-04 1.66859E-01 1.00760E-13-1.44669E-13
 -1      3923 2.03691E+01 9.46824E-01 4.18903E-03 1.06077E-01 9.34636E-14-1.11224E-13
 -1      3924 2.03608E+01 8.55041E-01 3.07709E-03 1.52328E-01 8.43646E-14-1.15872E-13
 -1      3925 2.23331E+01-1.48857E+00 1.79547E-02 5.54452E-02-1.18666E-13-2.00018E-13
 -1      3926 2.25740E+01-1.54028E+00-1.00346E-02-1.42370E-01-2.63600E-13-1.65025E-13
 -1      3927 2.00469E+01-2.96410E-02 4.24058E-04-7.73188E-02 6.96764E-15-3.66681E-14
 -1      3928 2.00571E+01-4.01447E-02-1.21392E-04-7.83581E-02-4.12107E-14-3.06651E-14
 -1      3929 1.99798E+01 3.20208E-02 8.98206E-04-1.23074E-01-5.95472E-15-1.25709E-14
 -1      3930 1.99793E+01 2.97652E-02-3.13584E-04-1.12068E-01 1.17328E-15-6.90887E-16
 -1      3931 1.99888E+01 2.55379E-02 6.84614E-04-1.00680E-01-5.57322E-14 4.63441E-14
 -1      3932 1.99926E+01 1.85554E-02-3.09636E-04-9.34541E-02-1.52276E-14-1.61447E-14
 -1      3933 1.99742E+01 3.57510E-02-2.45623E-04-1.01380E-01-3.05832E-14 1.87701E-14
 -1      3934 2.00005E+01-4.44428E-03 1.59692E-03-1.98109E-01-2.17142E-13-1.31747E-13
 -1      3935 1.99827E+01 1.28484E-02-4.25467E-05-1.78687E-01-2.07581E-13-1.15834E-13
 -1      3936 2.00481E+01-6.49209E-02 2.04760E-03-2.51996E-01-1.90567E-13-2.40127E-13
 -1      3937 2.00141E+01-3.04872E-02 3.84758E-04-2.29053E-01-1.78959E-13-1.70066E-13
 -1      3938 1.99723E+01 1.15529E-03-1.48915E-03-2.30207E-01-1.50935E-13-2.18743E-13
 -1      3939 2.01396E+01-1.68817E-01 2.45870E-03-3.14364E-01-2.75526E-13-1.80882E-13
 -1      3940 2.00819E+01-1.10944E-01 1.17592E-03-2.90180E-01-2.65347E-13-2.05736E-13
 -1      3941 2.00180E+01-6.74805E-02-2.51771E-03-3.04988E-01-2.24035E-13-1.93244E-13
 -1      3942 2.02956E+01-3.28536E-01 2.62564E-03-3.77757E-01-2.01403E-13-8.42575E-14
 -1      3943 2.02051E+01-2.40898E-01 2.51530E-03-3.57383E-01-2.63633E-13-1.28508E-13
 -1      3944 2.01126E+01-1.86091E-01-4.02711E-03-3.95718E-01-3.40263E-13-1.46415E-13
 -1      3945 2.05410E+01-5.53211E-01 2.08647E-03-4.26196E-01-1.57913E-13-6.94749E-14
 -1      3946 2.04085E+01-4.31578E-01 4.58279E-03-4.19044E-01-1.40886E-13-4.16057E-14
 -1      3947 2.02817E+01-3.69765E-01-6.09677E-03-4.95162E-01-1.54576E-13-7.41616E-14
 -1      3948 2.09018E+01-8.39861E-01 3.25801E-04-4.29868E-01-1.52750E-13-1.81256E-13
 -1      3949 2.07209E+01-6.87620E-01 7.43910E-03-4.51582E-01-1.91123E-13-1.05439E-13
 -1      3950 2.05582E+01-6.30733E-01-8.82121E-03-5.84798E-01-1.87874E-13-2.36344E-13
 -1      3951 2.13942E+01-1.15655E+00-2.56896E-03-3.42275E-01-2.75449E-13-1.63559E-13
 -1      3952 2.11666E+01-9.94243E-01 1.07526E-02-4.15691E-01-1.75223E-13-1.26684E-13
 -1      3953 2.09782E+01-9.65035E-01-1.18655E-02-6.26489E-01-2.01545E-13-1.82083E-13
 -1      3954 2.20531E+01-1.40803E+00 6.74060E-03-7.98996E-02-2.44195E-13-9.92531E-14
 -1      3955 2.17673E+01-1.30676E+00 1.64399E-02-2.58467E-01-3.09249E-13-1.45124E-13
 -1      3956 2.15712E+01-1.34377E+00-1.53789E-02-5.70998E-01-2.86882E-13-9.04634E-14
 -1      3957 2.28209E+01-1.70877E+00-4.80809E-03-5.48045E-02-6.51478E-14-3.65195E-13
 -1      3958 2.25101E+01-1.66629E+00 1.28464E-02-2.81639E-01-1.36988E-13-3.34296E-13
 -1      3959 2.34072E+01-1.61855E+00 1.99341E-02 3.92823E-01-4.39770E-14-2.17665E-13
 -1      3960 2.35456E+01-9.99950E-01-2.78048E-03-1.11913E+00-3.48710E-13-3.00458E-13
 -1      3961 2.36025E+01-5.31999E-01-4.60491E-03-1.35308E+00-1.86551E-13-3.26926E-13
 -1      3962 2.16561E+01-1.24047E+00 1.21427E-02 3.69640E-01 7.53991E-14-2.65665E-13
 -1      3963 2.19163E+01-1.40160E+00-7.27257E-03 2.44648E-01 7.22298E-14-6.19049E-14
 -1      3964 2.22022E+01-1.64519E+00-2.42541E-02 4.48506E-01-8.32841E-14-1.69090E-13
 -1      3965 2.11003E+01-9.03357E-01-4.26617E-03 3.55272E-01 1.93929E-13-3.00097E-13
 -1      3966 2.01721E+01-8.06796E-02 2.93183E-04-1.00424E-01 1.45082E-14 1.39034E-14
 -1      3967 2.01904E+01-7.69838E-02 2.95784E-04-1.03314E-01 3.68367E-14 3.14140E-14
 -1      3968 1.79903E+01-7.32940E-02-3.66398E-03-3.05951E+00-2.72963E-13-6.64755E-14
 -1      3969 2.48171E+01-2.63269E-01-1.24344E-02-1.52763E+00-1.65515E-13-2.18561E-13
 -1      3970 2.49678E+01-1.27531E+00 1.74994E-02-9.94428E-01-1.97554E-13-2.63298E-13
 -1      3971 2.00240E+01-8.71990E-03 4.66903E-04-7.91546E-02 7.32092E-14-3.84099E-14
 -1      3972 2.00324E+01-1.93585E-02-2.06369E-04-7.79655E-02 3.12781E-14-1.01212E-14
 -1      3973 2.00437E+01-2.45297E-02-2.09315E-04-6.73199E-02 2.19620E-14-1.23674E-13
 -1      3974 2.30220E+01-1.48546E+00 1.51966E-02-4.62152E-01-1.94768E-13-2.07879E-13
 -1      3975 2.32000E+01-1.32030E+00-1.14983E-02-7.30167E-01-3.20745E-13-2.13733E-13
 -1      3976 2.38131E+01-1.41249E+00-4.01404E-03-7.13810E-01-3.99171E-13-3.66992E-13
 -1      3977 2.30399E+01-1.77951E+00-1.98762E-02-9.05687E-03-3.34958E-13-3.12716E-13
 -1      3978 1.76433E+01 7.46848E-01 3.80855E-02 2.18038E+00-2.93409E-13-6.93998E-13
 -1      3979 1.99813E+01 2.45597E-02 1.20243E-03-1.55163E-01-1.34951E-13-7.18917E-14
 -1      3980 1.99742E+01 3.00272E-02-2.44165E-04-1.39980E-01-7.05449E-15-6.37357E-14
 -1      3981 1.99605E+01 4.26478E-02-4.47665E-04-1.30507E-01-1.65598E-14-1.19558E-13
 -1      3982 1.99573E+01 3.40126E-02-8.34003E-04-1.72588E-01-1.15559E-13-6.73985E-14
 -1      3983 1.82807E+01 5.61391E-01 1.72365E-02-1.82374E+00-2.42388E-13-2.22547E-13
 -1      3984 1.78319E+01 4.53807E-01-2.03776E-02-2.27195E+00-2.13994E-13-1.58058E-13
 -1      3985 1.87534E+01 2.44288E-01-4.68223E-03-1.80808E+00-1.96149E-13-1.28241E-13
 -1      3986 2.00043E+01 1.06421E-02 5.47304E-04-8.65147E-02 5.14343E-14-3.66861E-14
 -1      3987 2.00108E+01 1.06331E-03-2.67158E-04-8.25666E-02 1.02217E-13-3.34328E-14
 -1      3988 2.00174E+01-1.58898E-03-1.62395E-04-7.18492E-02 7.74935E-14-3.60273E-14
 -1      3989 1.99775E+01-1.11908E+00 4.12407E-02-3.03392E+00-1.30666E-13-1.62213E-13
 -1      3990 2.12149E+01-1.96711E+00-7.36506E-02-2.57463E+00-1.55923E-13-7.96828E-14
 -1      3991 2.03324E+01 1.14126E+00 1.33644E-03-7.82192E-02 5.55710E-14-1.54463E-13
 -1      3992 2.03506E+01 9.73979E-01-3.62337E-03-1.39601E-01 2.02742E-14-9.73127E-14
 -1      3993 2.03758E+01 7.89228E-01-2.61581E-05-9.15610E-02 1.17307E-14-7.22292E-14
 -1      3994 2.03805E+01 9.48740E-01 4.12534E-03-3.97255E-02 5.74623E-14-1.39103E-13
 -1      3995 2.03801E+01 4.50175E-01 2.60922E-03 2.21546E-02 8.23762E-14-8.79268E-14
 -1      3996 2.03740E+01 6.26377E-01-1.70903E-03 8.79564E-02 9.24581E-14-9.36054E-14
 -1      3997 2.03823E+01 6.80025E-01-2.45877E-04 7.64253E-02 7.63477E-14-1.16843E-13
 -1      3998 2.39391E+01 8.35018E-01-3.03576E-02 1.86467E+00 1.76433E-13 3.20282E-14
 -1      3999 2.02981E+01 2.33206E-02-4.17639E-04-9.73232E-02 2.26135E-14-2.12393E-14
 -1      4000 2.03203E+01 6.88225E-02 8.84184E-04-8.53867E-02 4.01775E-14-3.70424E-14
 -1      4001 2.03142E+01 1.28202E-02-3.91329E-04-8.07408E-02 3.17105E-14-3.47690E-14
 -1      4002 2.02125E+01-6.92281E-02 1.51917E-04-1.05907E-01 8.21652E-15-2.07978E-14
 -1      4003 2.02329E+01-5.61865E-02 4.52993E-04-1.06205E-01-5.16778E-16-3.51447E-14
 -1      4004 2.02686E+01-4.55048E-02-4.99245E-04-8.72137E-02-6.57304E-16-6.63602E-14
 -1      4005 2.02232E+01-7.49377E-02-5.16807E-04-8.65501E-02-8.00214E-15-4.65708E-14
 -1      4006 1.78590E+01 1.86893E-01-1.33069E-02 2.73682E+00-2.20625E-13-4.29387E-13
 -1      4007 1.87918E+01-4.09773E-01-8.61026E-03-2.93314E+00-1.78527E-13-1.91323E-13
 -1      4008 2.03369E+01 1.23082E-01-1.39531E-03-7.36811E-02 3.92668E-14-6.16106E-14
 -1      4009 2.03590E+01 1.95091E-01 1.84479E-03-5.15870E-02 6.10805E-14-6.49203E-14
 -1      4010 2.03554E+01 1.11831E-01-9.81147E-05-6.27032E-02 2.08128E-14-1.13531E-14
 -1      4011 2.43557E+01-1.76831E+00-1.10922E-02-4.19870E-01-3.23114E-13-3.43850E-13
 -1      4012 2.41403E+01 1.16622E+00-4.58744E-03-1.82662E+00-5.31485E-14-3.13689E-13
 -1      4013 2.18031E+01-1.79738E+00 1.30400E-02-1.84431E+00-6.52291E-14-2.38923E-13
 -1      4014 2.00728E+01-4.97496E-02 3.92835E-04-7.97522E-02-3.55136E-14 2.46062E-15
 -1      4015 2.00849E+01-5.89599E-02 6.10653E-07-8.23410E-02-1.68683E-14 1.50059E-14
 -1      4016 2.00723E+01-4.68394E-02-4.02331E-04-6.75931E-02-1.60604E-14-1.28025E-13
 -1      4017 2.12934E+01-1.06542E+00-5.82071E-03 4.19511E-01 8.54692E-14-3.21304E-13
 -1      4018 2.14666E+01-1.22827E+00-1.05932E-02 6.30588E-01 6.73581E-14-1.49049E-13
 -1      4019 2.42208E+01 3.10112E-01-1.91169E-02-1.74798E+00-1.28635E-13-2.41621E-13
 -1      4020 2.03678E+01 3.34303E-01-1.56903E-03-1.30951E-02 8.11551E-14-8.16527E-14
 -1      4021 1.99940E+01 1.95491E-02-1.65228E-04-8.25856E-02-4.83232E-15 4.12634E-14
 -1      4022 2.34823E+01 1.95709E-01 1.51443E-02 1.65434E+00 1.16313E-14 9.52693E-14
 -1      4023 2.33916E+01-3.52873E-01-1.04811E-02 1.47469E+00 1.08279E-13 1.07488E-13
 -1      4024 2.03937E+01 7.42776E-01 8.18741E-04-6.00689E-02 3.33682E-14-1.04532E-13
 -1      4025 1.96035E+01-7.04123E-01-3.80684E-03 2.61485E+00 4.95125E-14-6.62909E-14
 -1      4026 1.98256E+01-6.03960E-01-6.18071E-03 2.19051E+00-1.66879E-13 1.10529E-13
 -1      4027 2.04079E+01-8.55221E-01 2.08731E-02 2.04786E+00-8.27939E-14-1.91477E-14
 -1      4028 1.96161E+01-5.39662E-01 2.99704E-02-2.39404E+00-1.76939E-13-2.14328E-13
 -1      4029 2.03882E+01 8.10768E-01-2.60814E-03 4.65846E-02 7.47066E-14-8.12822E-14
 -1      4030 2.03901E+01 8.27232E-01-1.83981E-03 1.28104E-02 7.56074E-14-1.13138E-13
 -1      4031 2.01512E+01-8.09544E-02 1.33283E-04-9.68217E-02-3.03718E-14 8.08456E-15
 -1      4032 2.01799E+01-8.40428E-02-5.04707E-04-8.20116E-02-5.77846E-15 3.32728E-14
 -1      4033 2.01353E+01-7.83458E-02 3.90586E-04-9.29544E-02-4.47302E-14 4.15063E-14
 -1      4034 2.11092E+01-1.68720E+00-9.42741E-03 2.56678E+00-9.70894E-14-8.19830E-15
 -1      4035 2.04247E+01-1.42338E+00 3.04356E-02 3.05150E+00 2.20466E-14 2.57074E-14
 -1      4036 2.35786E+01-2.71406E+00 5.81957E-03 1.69278E+00-4.15259E-13-1.11606E-14
 -1      4037 2.25083E+01-2.40199E+00-1.25316E-02 2.12935E+00-3.65714E-13 3.76958E-14
 -1      4038 2.37408E+01-2.42457E+00-2.23765E-03 9.36708E-01-4.33403E-13-1.37433E-13
 -1      4039 2.03926E+01 8.25589E-01-4.09793E-04-1.13193E-02 6.75027E-14-1.52160E-13
 -1      4040 2.03962E+01 7.60044E-01-2.71700E-03-4.27992E-02 5.04015E-14-1.33970E-13
 -1      4041 2.04136E+01 6.38234E-01 1.74902E-03-2.69812E-02 4.05548E-14-1.26846E-13
 -1      4042 2.04209E+01 6.69085E-01 2.78187E-03 2.19382E-03 6.94505E-14-1.09753E-13
 -1      4043 2.14449E+01-1.20999E+00 1.36211E-02 9.05977E-01-5.91606E-15-2.14705E-14
 -1      4044 1.76086E+01-2.78369E-01 4.21596E-02 3.76183E+00-1.68814E-13-7.39915E-13
 -1      4045 1.79120E+01 8.73487E-03 2.41658E-02 3.08418E+00-1.55143E-13-4.75545E-13
 -1      4046 1.87496E+01-5.01229E-01-6.74569E-03 3.11295E+00 3.87021E-14-1.67703E-13
 -1      4047 1.94891E+01-1.36023E+00-2.66788E-02 3.64982E+00-2.18688E-14-2.43596E-13
 -1      4048 2.00113E+01 8.86382E-03 5.08549E-04-6.12014E-02 1.36361E-14-2.45011E-15
 -1      4049 2.00230E+01-4.18691E-03-3.06027E-04-5.74490E-02 4.14674E-14-4.80305E-14
 -1      4050 2.04188E+01 3.04348E-01 2.42578E-05 9.64936E-03 1.50420E-14-7.47208E-14
 -1      4051 2.04076E+01 2.11054E-01-4.40562E-04 2.61836E-02 1.41873E-14-5.16776E-14
 -1      4052 2.03933E+01 1.35456E-01 2.32675E-04 3.00235E-02 2.88712E-15-5.00254E-14
 -1      4053 2.03747E+01 7.42529E-02 5.39524E-05 4.11108E-02 6.19400E-15-4.74616E-14
 -1      4054 2.04097E+01 1.84244E-01-2.70878E-04 1.42245E-02 2.67464E-14-9.54222E-14
 -1      4055 2.03534E+01 2.51667E-02 2.66811E-04 4.19595E-02-2.64539E-14-1.56213E-14
 -1      4056 2.03309E+01-1.22602E-02 2.36803E-04 4.78866E-02-3.39690E-14-5.15893E-14
 -1      4057 2.03732E+01 5.44633E-02-9.14156E-04 2.23435E-02 2.28666E-15-2.90646E-14
 -1      4058 2.03077E+01-3.96730E-02 3.42177E-04 4.70956E-02-8.54399E-15-5.68287E-14
 -1      4059 2.02853E+01-5.95232E-02 3.44768E-04 4.95932E-02 2.22316E-14-6.14782E-14
 -1      4060 2.03284E+01-2.43483E-02-1.18338E-03 2.59515E-02-1.91185E-14-2.15353E-14
 -1      4061 2.02600E+01-7.42858E-02 2.82554E-04 4.79758E-02 3.59641E-14-4.43615E-14
 -1      4062 2.02369E+01-8.27802E-02 3.86433E-04 4.82976E-02 3.84103E-14-1.68073E-14
 -1      4063 2.02802E+01-6.79293E-02-1.15876E-03 2.69670E-02 1.85174E-14-5.69449E-14
 -1      4064 2.02124E+01-8.70472E-02 2.23570E-04 4.61773E-02 2.14297E-14 7.99735E-15
 -1      4065 2.01904E+01-8.68087E-02 2.69891E-04 4.50713E-02 2.93842E-14 4.29627E-14
 -1      4066 2.02315E+01-8.67188E-02-8.77970E-04 2.65695E-02 3.42009E-14-2.51188E-14
 -1      4067 2.01677E+01-8.34544E-02 1.99342E-04 4.31420E-02-1.08672E-14 5.47268E-14
 -1      4068 2.01473E+01-7.72392E-02 2.26860E-04 4.13903E-02-7.18257E-15 1.43824E-14
 -1      4069 2.01845E+01-8.69768E-02-6.29880E-04 2.51613E-02 1.81877E-14 4.44757E-14
 -1      4070 2.01262E+01-6.86826E-02 1.28186E-04 3.94666E-02 1.40228E-15-2.82867E-15
 -1      4071 2.01076E+01-5.81051E-02 2.57445E-04 3.76266E-02-3.81632E-15 2.12860E-14
 -1      4072 2.01409E+01-7.49000E-02-4.86872E-04 2.27278E-02-1.60689E-14 1.76862E-14
 -1      4073 2.00875E+01-4.60306E-02 5.28286E-05 3.52096E-02 6.00857E-15 5.86760E-14
 -1      4074 2.00694E+01-3.21354E-02 9.17780E-05 3.32281E-02-2.42918E-14 5.47231E-14
 -1      4075 2.01010E+01-5.43104E-02-3.22257E-04 1.94329E-02 3.06432E-14 1.20286E-14
 -1      4076 2.00503E+01-1.69447E-02 3.64402E-05 3.06939E-02-3.94557E-14 1.12140E-13
 -1      4077 2.00319E+01-4.81257E-04-9.05653E-05 2.83762E-02-2.19132E-14 1.29944E-13
 -1      4078 2.00623E+01-2.63591E-02-9.27788E-05 1.57262E-02 2.16294E-14 6.95039E-14
 -1      4079 2.00128E+01 1.72357E-02 1.06781E-05 2.49184E-02-1.16700E-14 1.94044E-13
 -1      4080 1.99927E+01 3.60229E-02-3.58782E-04 2.15889E-02-2.31826E-14 2.05041E-13
 -1      4081 2.00247E+01 6.55333E-03 2.68920E-04 1.01878E-02 1.68116E-14 1.04235E-13
 -1      4082 1.99727E+01 5.62572E-02 3.46476E-05 1.62116E-02-4.33877E-14 2.49980E-13
 -1      4083 1.99491E+01 7.72741E-02-7.45243E-04 1.06321E-02-5.48030E-14 2.73284E-13
 -1      4084 1.99858E+01 4.36609E-02 7.02910E-04 1.07223E-03 6.90711E-15 1.67255E-13
 -1      4085 1.99274E+01 1.00121E-01 1.41181E-04 1.70615E-03-8.84038E-14 3.09737E-13
 -1      4086 1.98979E+01 1.23247E-01-1.30214E-03-8.20415E-03 3.07701E-14 2.42454E-13
 -1      4087 1.99434E+01 8.43034E-02 1.20901E-03-1.43835E-02-4.90854E-14 3.74969E-13
 -1      4088 1.98737E+01 1.48742E-01 3.86168E-04-2.32112E-02 5.65556E-14 1.45007E-13
 -1      4089 1.98353E+01 1.73537E-01-2.09481E-03-4.07654E-02 7.57016E-14 1.03187E-13
 -1      4090 1.98954E+01 1.27547E-01 1.77949E-03-4.05735E-02-3.65678E-14 2.36838E-13
 -1      4091 1.98084E+01 2.01328E-01 8.57652E-04-6.56447E-02 8.95625E-14-2.97583E-14
 -1      4092 1.97575E+01 2.26559E-01-3.19520E-03-9.59138E-02 4.28384E-14-7.43914E-15
 -1      4093 1.98395E+01 1.71472E-01 2.37180E-03-8.41457E-02-1.50224E-14-4.06684E-14
 -1      4094 1.97286E+01 2.55363E-01 1.68971E-03-1.36141E-01 1.64729E-14-5.51745E-14
 -1      4095 1.96613E+01 2.78246E-01-4.66269E-03-1.86614E-01 1.39188E-14-1.18305E-13
 -1      4096 1.97747E+01 2.12089E-01 2.86861E-03-1.54779E-01-3.58817E-14-2.01460E-13
 -1      4097 1.96329E+01 3.04930E-01 3.07825E-03-2.49772E-01 1.35056E-14-1.19637E-13
 -1      4098 1.95458E+01 3.19941E-01-6.48768E-03-3.31098E-01-1.23607E-13-4.86518E-14
 -1      4099 1.97017E+01 2.41647E-01 3.01297E-03-2.65979E-01-1.19617E-14-2.27959E-13
 -1      4100 1.95240E+01 3.37760E-01 5.21588E-03-4.27166E-01-2.42563E-13 1.83043E-14
 -1      4101 1.94166E+01 3.35625E-01-8.09417E-03-5.54035E-01-1.27959E-13-3.05991E-14
 -1      4102 1.96257E+01 2.46113E-01 2.31793E-03-4.35546E-01-1.37010E-13-9.30855E-14
 -1      4103 1.94136E+01 3.33179E-01 8.20998E-03-6.86783E-01-4.06629E-14-1.36299E-13
 -1      4104 1.92931E+01 2.98498E-01-1.00891E-02-8.65097E-01-8.07587E-14-6.16223E-14
 -1      4105 1.95611E+01 2.04163E-01 1.48712E-04-6.77460E-01-1.21358E-13-1.69613E-14
 -1      4106 1.93269E+01 2.57035E-01 1.31412E-02-1.06002E+00-1.05704E-13-1.41076E-13
 -1      4107 1.92000E+01 1.58214E-01-1.17200E-02-1.32812E+00-9.30425E-14-7.69668E-14
 -1      4108 1.95344E+01 8.07446E-02-4.04640E-03-1.01843E+00-1.06858E-13-1.90447E-13
 -1      4109 1.92879E+01 6.86924E-02 2.33209E-02-1.58452E+00-1.96501E-13-1.33359E-13
 -1      4110 1.91445E+01-9.92667E-02-1.28730E-03-1.97425E+00-2.60547E-13-1.86297E-13
 -1      4111 1.95631E+01-1.65889E-01-1.32029E-02-1.48882E+00-1.55710E-13-3.05991E-13
 -1      4112 2.03861E+01 7.28569E-01-2.58839E-03 7.63257E-02 7.41365E-14-1.21673E-13
 -1      4113 2.03910E+01 7.65072E-01-8.95846E-04 5.43996E-02 7.78870E-14-9.76294E-14
 -1      4114 2.04174E+01 6.26254E-01 2.22823E-03 2.23225E-02 6.86751E-14-8.93980E-14
 -1      4115 2.04092E+01 5.29306E-01 1.72826E-03 2.51082E-02 6.17237E-14-1.10969E-13
 -1      4116 2.01024E+01-6.70157E-02 4.13726E-04-8.55048E-02-3.13976E-14-1.92539E-14
 -1      4117 2.01160E+01-7.37674E-02 7.85746E-06-8.92466E-02-4.39312E-14-1.23745E-14
 -1      4118 2.01404E+01-7.96696E-02-5.14927E-04-7.64043E-02-1.37434E-14-4.13656E-14
 -1      4119 2.01051E+01-6.63754E-02-4.49129E-04-7.12823E-02-7.70190E-15-1.67340E-13
 -1      4120 1.99888E+01-3.44954E-02 3.92243E-03-3.48303E-01-2.28692E-13-2.13095E-13
 -1      4121 1.99471E+01 7.04033E-04-1.38084E-03-3.05849E-01-1.86931E-13-2.17755E-13
 -1      4122 1.99463E+01 3.07368E-02 2.81855E-03-2.53177E-01-1.49164E-13-1.98707E-13
 -1      4123 1.99262E+01 4.63975E-02-1.35123E-03-2.20141E-01-9.20758E-14-1.53458E-13
 -1      4124 1.98968E+01 5.71687E-02 1.26032E-03-2.94398E-01-1.16749E-13-1.26959E-13
 -1      4125 2.02596E+01-3.44160E-01 6.37355E-03-6.09952E-01-1.26235E-13-1.71448E-13
 -1      4126 2.01383E+01-2.42661E-01 8.20195E-05-5.55463E-01-2.51589E-13-2.21355E-13
 -1      4127 2.05562E+01-6.26396E-01 6.89907E-03-7.54801E-01-1.53644E-13-1.89045E-13
 -1      4128 2.03706E+01-4.77101E-01 2.31105E-03-7.08329E-01-1.26274E-13-1.23424E-13
 -1      4129 2.01798E+01-3.56106E-01-4.06439E-03-7.80290E-01-2.06650E-13-2.99192E-13
 -1      4130 2.10166E+01-1.01014E+00 3.62341E-03-8.65071E-01-2.03060E-13-1.16485E-13
 -1      4131 2.07558E+01-8.08925E-01 6.15115E-03-8.47943E-01-1.66080E-13-1.35385E-13
 -1      4132 2.04848E+01-6.86709E-01-1.09013E-02-9.95976E-01-1.53499E-13-4.89010E-14
 -1      4133 2.16428E+01-1.45196E+00-7.28010E-03-8.85584E-01-2.31207E-13-2.03015E-13
 -1      4134 2.13427E+01-1.20519E+00 1.75060E-02-9.03832E-01-2.24792E-13-9.96031E-14
 -1      4135 2.09990E+01-1.15624E+00-2.30711E-02-1.17286E+00-1.96547E-13-1.71398E-13
 -1      4136 2.23588E+01-1.78604E+00 1.47677E-03-7.25700E-01-1.62642E-13-4.13220E-13
 -1      4137 2.12524E+01-1.27056E+00-9.02486E-03 1.35432E+00-3.40964E-14-3.95100E-14
 -1      4138 2.17880E+01-1.49109E+00 1.42139E-02 1.03557E+00-5.37916E-14-9.42032E-14
 -1      4139 2.22045E+01-1.68628E+00 1.12332E-02 9.00929E-01-1.41768E-13-1.41448E-13
 -1      4140 2.18521E+01-1.88630E+00 2.16829E-02 2.03365E+00-1.68036E-13 8.85941E-14
 -1      4141 2.09956E+01-1.36476E+00-1.63123E-02 1.97443E+00-2.65721E-14 4.92789E-14
 -1      4142 2.03876E+01 3.13808E-01-7.45406E-04-1.57134E-02 6.89860E-14-6.59509E-14
 -1      4143 2.00403E+01-1.65029E-02 4.36284E-04-5.44619E-02 4.95590E-14-9.82955E-14
 -1      4144 2.00537E+01-2.92522E-02-1.41348E-04-5.32091E-02 1.86600E-15-1.39144E-13
 -1      4145 2.00320E+01-7.90496E-03-9.39479E-05-4.33070E-02 7.74823E-15-6.81360E-14
 -1      4146 1.99690E+01-8.26714E-01-3.83551E-02-2.15186E+00-1.94692E-13-2.45342E-13
 -1      4147 2.09848E+01-1.14037E+00 2.51504E-03 1.62065E+00-1.14384E-13 2.01651E-15
 -1      4148 1.99846E+01 3.28160E-02 6.57836E-04-7.45777E-02-8.58896E-15-4.20271E-15
 -1      4149 1.99943E+01 2.06262E-02-4.80708E-04-6.74975E-02-8.40286E-15 1.62465E-14
 -1      4150 2.00001E+01 2.04458E-02 2.14264E-04-5.25984E-02-2.91616E-15-9.42444E-14
 -1      4151 2.40376E+01-2.00851E+00 2.45369E-02-1.84038E-02-5.17548E-13-2.90321E-13
 -1      4152 2.04180E+01 5.18509E-01-1.02004E-03-1.96116E-02 3.42017E-14-1.05634E-13
 -1      4153 2.04206E+01 3.90626E-01-2.05389E-04 4.29849E-03 1.66413E-14-9.79401E-14
 -1      4154 2.04267E+01 3.51736E-01 5.10973E-04 4.56595E-03 3.86236E-14-8.29702E-14
 -1      4155 2.04239E+01 5.43848E-01-4.10707E-04-8.97510E-03 5.34892E-14-1.35751E-13
 -1      4156 2.03232E+01-4.12809E-03-1.45675E-04-6.47951E-02 4.76389E-14-6.57980E-14
 -1      4157 2.03471E+01 3.57900E-02 7.88570E-04-5.73150E-02 5.10436E-14-5.34062E-14
 -1      4158 2.00836E+01-1.53153E-01 5.16940E-03-4.68938E-01-3.30206E-13-2.63027E-13
 -1      4159 2.00092E+01-8.96921E-02-1.02797E-03-4.18068E-01-2.93611E-13-2.63595E-13
 -1      4160 2.00094E+01-1.41229E-01-1.15877E-03-5.82160E-01-2.73932E-13-4.11917E-13
 -1      4161 1.96037E+01-8.98934E-01-6.36755E-03 2.93057E+00 1.44658E-13-1.15718E-13
 -1      4162 1.99612E+01 5.23750E-02 9.19528E-04-9.69947E-02-1.42880E-14-1.22340E-13
 -1      4163 1.99679E+01 4.25815E-02-6.85235E-04-8.55169E-02 7.38947E-15-5.34522E-14
 -1      4164 1.99694E+01 4.77128E-02 5.46170E-04-6.94318E-02 1.85791E-14-2.11209E-13
 -1      4165 2.19961E+01-1.81163E+00-3.30520E-02-1.18074E+00-5.99260E-14-3.60629E-13
 -1      4166 2.33700E+01-2.12444E+00-1.46613E-03 5.61298E-01-4.99289E-13-2.21357E-13
 -1      4167 2.04216E+01 4.83824E-01-1.34994E-03 1.26676E-02 6.87028E-14-8.54343E-14
 -1      4168 2.04229E+01 5.31222E-01-2.07518E-04 9.11663E-03 5.36079E-14-7.24178E-14
 -1      4169 2.02764E+01-5.59737E-02 1.05198E-04-6.78269E-02 4.84724E-15-7.83615E-14
 -1      4170 2.03006E+01-3.37754E-02 6.29857E-04-6.49826E-02 1.26764E-14-7.63974E-14
 -1      4171 2.03256E+01-1.68337E-02-1.25264E-03-4.51549E-02 3.54369E-14-7.44245E-14
 -1      4172 2.00719E+01-4.10548E-02 4.36397E-04-5.25060E-02-2.08462E-14-1.55834E-13
 -1      4173 2.00875E+01-5.25507E-02 1.54609E-04-5.33214E-02-1.78027E-14-1.75732E-13
 -1      4174 2.00657E+01-3.50724E-02-3.42104E-04-3.91241E-02-1.24723E-14-1.57005E-13
 -1      4175 1.98978E+01 8.43034E-02 1.36524E-03-2.03455E-01-1.19873E-13-2.03856E-13
 -1      4176 1.99355E+01 5.90836E-02 1.95788E-03-1.82212E-01-7.20240E-14-1.72229E-13
 -1      4177 1.99291E+01 6.19198E-02-1.15780E-03-1.57813E-01-1.06907E-13-1.53264E-13
 -1      4178 1.99264E+01-1.11172E-02 5.68137E-04-4.19264E-01-2.30809E-13-3.19078E-13
 -1      4179 2.01853E+01-8.57859E-02 4.89339E-04-6.17395E-02-1.19838E-14-4.71525E-14
 -1      4180 2.02062E+01-8.53044E-02 3.82003E-04-6.34874E-02-2.92810E-14-6.01955E-14
 -1      4181 2.22083E+01-1.97706E+00-2.36914E-02 1.52490E+00-2.17013E-13-7.17048E-14
 -1      4182 2.03656E+01 8.54516E-02-6.45401E-04-5.43324E-02 1.65207E-14-5.01506E-14
 -1      4183 2.03870E+01 1.52843E-01 2.10219E-03-4.02878E-02 3.06963E-14-5.27003E-14
 -1      4184 2.03705E+01 6.78510E-02-1.05553E-03-3.82099E-02 4.63835E-14-9.31065E-14
 -1      4185 2.29286E+01-2.03510E+00 2.46011E-02 8.41181E-01-3.38427E-13-1.27899E-13
 -1      4186 2.04258E+01 5.25377E-01-8.14401E-04-2.25484E-03 4.73379E-14-1.09595E-13
 -1      4187 2.10913E+01-1.32452E+00 2.80397E-02-1.84132E+00-4.76398E-14-2.09779E-13
 -1      4188 2.05737E+01-8.43297E-01 2.34942E-02-1.56519E+00-1.66577E-13-2.82967E-13
 -1      4189 1.99433E+01 6.32428E-02 1.33734E-03-1.31584E-01-1.01563E-13-1.13645E-13
 -1      4190 1.99451E+01 5.80949E-02-9.17591E-04-1.14394E-01 1.07947E-15-1.21490E-13
 -1      4191 1.99151E+01 8.53876E-02 1.18330E-03-1.39870E-01-1.05417E-13-1.62169E-13
 -1      4192 1.99404E+01 7.08727E-02 8.82088E-04-9.70629E-02-1.69326E-14-1.63299E-13
 -1      4193 2.02289E+01-8.56867E-02-1.18200E-03-4.59557E-02-3.61925E-14-6.13636E-14
 -1      4194 2.02295E+01-8.05233E-02 2.67842E-04-6.61141E-02-3.20774E-14-6.98010E-14
 -1      4195 2.02526E+01-7.09589E-02 5.07539E-04-6.61479E-02-2.51838E-14-1.00563E-13
 -1      4196 2.03803E+01 6.15563E-02 3.20951E-04-9.15035E-03 4.02475E-14-9.39171E-14
 -1      4197 2.03591E+01 1.45707E-02 1.06472E-03-6.78005E-03 3.82406E-14-6.76066E-14
 -1      4198 2.03353E+01-2.00769E-02 6.28363E-04-9.41773E-03 8.54031E-15-3.21828E-14
 -1      4199 2.03119E+01-4.62009E-02 1.04514E-03-8.12778E-03-2.78490E-15-1.56808E-14
 -1      4200 2.02870E+01-6.47108E-02 7.22929E-04-9.06764E-03-1.16962E-14-2.12497E-14
 -1      4201 2.02616E+01-7.82351E-02 8.82091E-04-8.48524E-03 4.72695E-15-3.89283E-14
 -1      4202 2.02372E+01-8.50656E-02 5.95328E-04-8.65318E-03-3.14259E-15-7.83364E-14
 -1      4203 2.02121E+01-8.83646E-02 5.01682E-04-8.49737E-03 1.81400E-14-5.88978E-14
 -1      4204 2.01551E+01-7.94121E-02 3.99319E-04 4.86840E-03-2.45694E-14 1.22387E-14
 -1      4205 2.01340E+01-7.13706E-02 3.82972E-04 3.70854E-03 1.28608E-15 5.74441E-15
 -1      4206 2.01039E+01-5.67028E-02 1.52072E-04-9.13578E-03 7.61858E-15-4.37866E-14
 -1      4207 2.00842E+01-4.42620E-02 1.39626E-04-1.00597E-02 2.30486E-14-6.09218E-14
 -1      4208 2.00664E+01-3.11983E-02 1.96347E-04-1.16150E-02 1.97292E-14-9.37307E-14
 -1      4209 2.00467E+01-1.66589E-02-1.03614E-04-1.35707E-02 2.31360E-15-5.19017E-14
 -1      4210 2.00296E+01-2.02062E-03 4.91631E-05-1.70564E-02 1.78676E-14-7.42637E-14
 -1      4211 2.00096E+01 1.41982E-02-4.16980E-04-2.05940E-02 2.81215E-14-6.39895E-14
 -1      4212 1.99932E+01 2.94667E-02-1.34055E-04-2.70452E-02 4.84958E-14-1.34374E-13
 -1      4213 1.99718E+01 4.67991E-02-8.25196E-04-3.32090E-02 3.47508E-14-1.02498E-13
 -1      4214 1.99559E+01 6.17819E-02-3.02495E-04-4.41042E-02 6.08832E-15-7.18454E-14
 -1      4215 1.99320E+01 7.94542E-02-1.35062E-03-5.46312E-02-5.21425E-14 2.42481E-14
 -1      4216 1.99173E+01 9.28654E-02-4.16415E-04-7.20156E-02-1.07099E-13 5.33754E-14
 -1      4217 1.98899E+01 1.09619E-01-2.01675E-03-8.95526E-02-4.04499E-14-2.12429E-14
 -1      4218 1.98778E+01 1.19456E-01-4.08683E-04-1.16183E-01-4.26245E-14-6.00987E-14
 -1      4219 1.98461E+01 1.33098E-01-2.82656E-03-1.44602E-01-1.02729E-13-1.30146E-13
 -1      4220 1.98400E+01 1.36196E-01-1.60091E-04-1.83992E-01-1.35900E-13-7.91878E-14
 -1      4221 1.98043E+01 1.42951E-01-3.72916E-03-2.28726E-01-9.38966E-14-9.72326E-14
 -1      4222 1.98099E+01 1.34419E-01 5.32645E-04-2.84958E-01-5.37625E-14-1.44626E-13
 -1      4223 1.97722E+01 1.28021E-01-4.56320E-03-3.53231E-01-7.48006E-14-1.72365E-13
 -1      4224 1.97993E+01 1.00566E-01 1.98416E-03-4.30320E-01-1.42592E-13-2.31095E-13
 -1      4225 1.97657E+01 7.11906E-02-4.92976E-03-5.31023E-01-1.89610E-13-2.52051E-13
 -1      4226 1.98288E+01 1.36398E-02 4.29394E-03-6.31779E-01-2.09619E-13-2.09873E-13
 -1      4227 1.98114E+01-5.00584E-02-4.48022E-03-7.66201E-01-2.11206E-13-2.72308E-13
 -1      4228 1.99328E+01-1.48721E-01 8.57777E-03-8.87353E-01-1.75732E-13-2.78579E-13
 -1      4229 1.99548E+01-2.72736E-01-1.73811E-03-1.07639E+00-1.13917E-13-2.64710E-13
 -1      4230 2.01689E+01-4.28604E-01 1.57751E-02-1.20702E+00-9.76839E-14-2.96471E-13
 -1      4231 2.02410E+01-6.16083E-01 6.94207E-03-1.46287E+00-1.74530E-13-2.15382E-13
 -1      4232 2.04073E+01 4.05682E-01 5.91842E-04 5.77096E-03 6.52542E-14-9.41749E-14
 -1      4233 2.04143E+01 4.57417E-01 1.15974E-03 1.06598E-02 6.97757E-14-9.09683E-14
 -1      4234 2.04333E+01 4.23587E-01 1.37208E-03 1.71073E-06 3.67412E-14-9.86362E-14
 -1      4235 2.01696E+01-8.48955E-02 1.30892E-04-5.34293E-02 6.17745E-14-7.25819E-14
 -1      4236 2.01904E+01-8.90509E-02-8.62856E-04-3.68264E-02 4.17850E-14-9.42072E-14
 -1      4237 2.01954E+01-8.76663E-02 5.14356E-04-1.24223E-03 7.10625E-14-7.54146E-14
 -1      4238 2.01510E+01-8.00391E-02 3.99668E-04-5.14902E-02 8.34143E-14-1.67198E-13
 -1      4239 2.03933E+01 2.45173E-01-2.00956E-03-3.13289E-02 5.23162E-14-6.08783E-14
 -1      4240 2.04154E+01 1.91875E-01 3.78491E-04-8.84177E-03 2.97130E-14-8.08399E-14
 -1      4241 2.04003E+01 1.18872E-01 8.76250E-04-3.54907E-03 9.67890E-15-8.65572E-14
 -1      4242 2.04030E+01 2.17942E-01-1.73381E-03-2.41283E-02 3.52284E-14-4.70999E-14
 -1      4243 2.04251E+01 3.69732E-01 1.76839E-03-3.95832E-03 4.80067E-14-7.17808E-14
 -1      4244 2.01119E+01-6.28592E-02-4.99734E-04-2.64632E-02-1.30577E-14-8.03817E-14
 -1      4245 2.01715E+01-8.45036E-02 2.34086E-04-1.67020E-03 2.64877E-14-5.48679E-14
 -1      4246 2.04305E+01 3.30385E-01-4.50088E-04 3.85825E-03 4.81110E-14-8.29843E-14
 -1      4247 2.02769E+01-6.46278E-02-1.34222E-03-4.71032E-02 3.06691E-15-6.93601E-14
 -1      4248 2.04136E+01 2.52385E-01-2.44543E-04-1.54391E-02 2.38873E-14-5.84814E-14
 -1      4249 2.01589E+01-8.25349E-02-5.46379E-04-2.17131E-02 8.88074E-14-9.12003E-14
 -1      4250 2.01171E+01-6.68522E-02 1.53257E-04-4.27576E-02 1.74878E-14-1.85825E-13
 -1      4251 2.01349E+01-7.51992E-02 8.53041E-05-4.41244E-02 5.85534E-14-1.45939E-13
 -3
    1PSTEP                         3           1           1          
  100CL  101 1.000000000        4251                     0    1           1
 -4  TOSTRAIN    6    1
 -5  EXX         1    4    1    1
 -5  EYY         1    4    2    2
 -5  EZZ         1    4    3    3
 -5  EXY         1    4    1    2
 -5  EYZ         1    4    2    3
 -5  EZX         1    4    3    1
 -1         1 4.08017E-04-1.28628E-04-9.50011E-05-1.36209E-06 7.01132E-19-1.51534E-17
 -1         2 4.08294E-05-1.25239E-04 2.37664E-05 6.95248E-08-7.01206E-18 4.92603E-20
 -1         3 9.52402E-05-2.85672E-05-2.85753E-05 5.71911E-09-2.62865E-18-3.39077E-18
 -1         4 9.51404E-05-2.86727E-05-2.83712E-05 1.00281E-07-2.99003E-19 2.43560E-18
 -1         5 1.43341E-04-2.14773E-05-4.25274E-05 3.85286E-05-1.27584E-19 8.28568E-18
 -1         6 1.46052E-04 2.57143E-10-4.41310E-05-5.42102E-05-5.21666E-19 5.06145E-18
 -1         7 9.01590E-05-3.19190E-07-3.90199E-05-2.90742E-05-7.13625E-20-4.89969E-19
 -1         8 8.51256E-05 9.36291E-08-3.63432E-05-2.02579E-05-7.38242E-20-1.86963E-18
 -1         9 8.28151E-05 7.80426E-08-3.53523E-05-1.56412E-05-5.76776E-20-2.44089E-18
 -1        10 8.17769E-05 3.89353E-08-3.48826E-05-1.20801E-05-1.65370E-20-2.52191E-18
 -1        11 8.12542E-05 1.95088E-08-3.46532E-05-9.01419E-06-1.08228E-20-2.44983E-18
 -1        12 8.09839E-05 9.21064E-09-3.45387E-05-6.28480E-06 1.52929E-20-2.31494E-18
 -1        13 8.08418E-05 4.60736E-09-3.44807E-05-3.68631E-06 5.63806E-21-2.16923E-18
 -1        14 8.07822E-05 2.75756E-09-3.44570E-05-1.18501E-06 2.50973E-20-2.03266E-18
 -1        15 8.07842E-05 2.74348E-09-3.44577E-05 1.28680E-06 6.00527E-20-1.91897E-18
 -1        16 8.08479E-05 4.53067E-09-3.44828E-05 3.79311E-06 5.21546E-20-1.81673E-18
 -1        17 8.09949E-05 8.43259E-09-3.45421E-05 6.40339E-06 6.00831E-20-1.60455E-18
 -1        18 8.12702E-05 1.82329E-08-3.46581E-05 9.15177E-06 6.14827E-20-1.24891E-18
 -1        19 8.17981E-05 3.82358E-08-3.48898E-05 1.22533E-05 9.91823E-20-7.87383E-19
 -1        20 8.28394E-05 8.05154E-08-3.53632E-05 1.58681E-05 1.03087E-19-3.80602E-20
 -1        21 8.50875E-05 1.69939E-07-3.63767E-05 2.04793E-05 1.07097E-19 1.40094E-18
 -1        22 9.16433E-05-9.93245E-08-3.87396E-05 2.79956E-05 4.20340E-20 3.72342E-18
 -1        23 1.13983E-04-3.81489E-05-3.57468E-05-5.16025E-06-3.56601E-19 3.43991E-18
 -1        24 9.31529E-05-2.78046E-05-2.91740E-05 4.01990E-07-9.72301E-20 2.02160E-18
 -1        25 8.92334E-05-2.68837E-05-2.69868E-05 3.84766E-07-7.22790E-20 5.32519E-19
 -1        26 8.80514E-05-2.65002E-05-2.64070E-05 2.08627E-07-4.31300E-20-6.49582E-19
 -1        27 8.80437E-05-2.64684E-05-2.63845E-05 1.42309E-07-9.64757E-20-1.49558E-18
 -1        28 8.85641E-05-2.66005E-05-2.65496E-05 1.02482E-07-1.54734E-20-2.02525E-18
 -1        29 8.93168E-05-2.68121E-05-2.67817E-05 7.63640E-08-9.17033E-22-2.35311E-18
 -1        30 9.01458E-05-2.70529E-05-2.70331E-05 5.77949E-08-1.26265E-20-3.21755E-18
 -1        31 9.09637E-05-2.72937E-05-2.72798E-05 4.38590E-08-3.42481E-20-3.24174E-18
 -1        32 9.17224E-05-2.75186E-05-2.75085E-05 3.30759E-08-1.18193E-19-3.51632E-18
 -1        33 9.23977E-05-2.77196E-05-2.77121E-05 2.46144E-08-4.48417E-20-3.64324E-18
 -1        34 9.29810E-05-2.78938E-05-2.78881E-05 1.79461E-08 6.71562E-21-3.48932E-18
 -1        35 9.34739E-05-2.80412E-05-2.80369E-05 1.26958E-08-1.34209E-19-3.58617E-18
 -1        36 9.38840E-05-2.81642E-05-2.81609E-05 8.58290E-09-7.67401E-21-3.78176E-18
 -1        37 9.42229E-05-2.82661E-05-2.82635E-05 5.15398E-09-1.10934E-19-4.40841E-18
 -1        38 9.44933E-05-2.83475E-05-2.83454E-05 2.95114E-09 9.10643E-21-3.85795E-18
 -1        39 9.47389E-05-2.84218E-05-2.84200E-05 9.00519E-10-1.31302E-19-3.32465E-18
 -1        40 9.49640E-05-2.84901E-05-2.84884E-05-7.14488E-10 1.01967E-19-3.07983E-18
 -1        41 9.51920E-05-2.85597E-05-2.85579E-05-1.98807E-09-1.95186E-19-3.36009E-18
 -1        42 9.54531E-05-2.86395E-05-2.86376E-05-2.92679E-09 9.54249E-20-2.57511E-18
 -1        43 9.57880E-05-2.87421E-05-2.87402E-05-3.39165E-09 1.30812E-19-1.37279E-18
 -1        44 9.62554E-05-2.88853E-05-2.88838E-05-2.97000E-09-9.65022E-20-2.31302E-18
 -1        45 9.69437E-05-2.90958E-05-2.90961E-05-7.04035E-10-2.07260E-20-2.68811E-18
 -1        46 9.79896E-05-2.94151E-05-2.94198E-05 5.45673E-09-5.10259E-20-3.70179E-18
 -1        47 9.96078E-05-2.99074E-05-2.99231E-05 1.97466E-08-1.95916E-19-3.67579E-18
 -1        48 1.02136E-04-3.06731E-05-3.07138E-05 5.07076E-08 9.83261E-20-3.75225E-18
 -1        49 1.06102E-04-3.18672E-05-3.19603E-05 1.15099E-07-3.18380E-19-2.37644E-18
 -1        50 1.12299E-04-3.37213E-05-3.39128E-05 2.44340E-07 1.13028E-19-3.31747E-18
 -1        51 1.21837E-04-3.65630E-05-3.68993E-05 4.88010E-07 5.80218E-20-2.58573E-18
 -1        52 1.35939E-04-4.07468E-05-4.12123E-05 9.41245E-07-5.48808E-19-3.06901E-18
 -1        53 1.54269E-04-4.62287E-05-4.65254E-05 1.46772E-06 2.73568E-19-3.37003E-18
 -1        54 1.76393E-04-5.30039E-05-5.22242E-05 1.84610E-06-4.03768E-20-2.62331E-18
 -1        55 1.92047E-04-5.82135E-05-5.51107E-05 3.90297E-07 3.45206E-19-2.32847E-18
 -1        56 1.83208E-04-5.56963E-05-5.22004E-05-4.09336E-06 2.89222E-19-4.62904E-19
 -1        57 1.36860E-04-4.00030E-05-4.37841E-05-1.00645E-05 6.88876E-20 3.70789E-18
 -1        58 8.72554E-05-2.21683E-05-3.62577E-05-5.90438E-06-5.39772E-19 4.09371E-18
 -1        59 8.11015E-05-2.05755E-05-3.50849E-05 4.77037E-06-2.71792E-19 3.41714E-18
 -1        60 1.15374E-04-3.28265E-05-4.00978E-05 9.82542E-06-1.61201E-20-1.16891E-19
 -1        61 1.65029E-04-4.97397E-05-4.83923E-05 7.43303E-06-1.02941E-19-3.43747E-18
 -1        62 1.91526E-04-5.81938E-05-5.45263E-05 1.07763E-06-5.41638E-19-6.46710E-18
 -1        63 1.85016E-04-5.57450E-05-5.40389E-05-1.56114E-06 1.45958E-19-5.21958E-18
 -1        64 1.65178E-04-4.95605E-05-4.94129E-05-1.73549E-06 4.31167E-19-1.67157E-18
 -1        65 1.43729E-04-4.30712E-05-4.35023E-05-1.19008E-06-2.80772E-19-2.39234E-19
 -1        66 1.26846E-04-3.80420E-05-3.84518E-05-6.77047E-07-4.08128E-19-7.75273E-19
 -1        67 1.14963E-04-3.45109E-05-3.47639E-05-3.58299E-07 2.16940E-19 3.60677E-19
 -1        68 1.06969E-04-3.21272E-05-3.22557E-05-1.87675E-07-3.95508E-20 2.61543E-18
 -1        69 1.01673E-04-3.05386E-05-3.05993E-05-1.03336E-07 7.68210E-19 5.78688E-18
 -1        70 9.82074E-05-2.94929E-05-2.95307E-05-5.97493E-08-7.48783E-19 3.87191E-18
 -1        71 9.60860E-05-2.88432E-05-2.88898E-05-1.49748E-08-4.36354E-19 2.30528E-18
 -1        72 9.51651E-05-2.85403E-05-2.85756E-05 5.75646E-08 2.21267E-19 4.23079E-18
 -1        73 1.02181E-04-3.05886E-05-3.41509E-05-1.92924E-06 1.25361E-19 7.93575E-18
 -1        74 9.25667E-05-2.75158E-05-2.89081E-05-3.34666E-07-1.95248E-20 6.68001E-18
 -1        75 8.91137E-05-2.67038E-05-2.69735E-05-1.25577E-07 4.62692E-20 5.68510E-18
 -1        76 8.80584E-05-2.64438E-05-2.64377E-05-9.56758E-08-6.87553E-20 4.85469E-18
 -1        77 8.80947E-05-2.64523E-05-2.64154E-05-7.64445E-08 6.15757E-20 4.02786E-18
 -1        78 8.86323E-05-2.66042E-05-2.65776E-05-6.25408E-08-2.90154E-20 3.49337E-18
 -1        79 8.93898E-05-2.68253E-05-2.68069E-05-5.17454E-08-6.76216E-20 3.86445E-18
 -1        80 9.02173E-05-2.70703E-05-2.70558E-05-4.28746E-08 1.34235E-20 4.53191E-18
 -1        81 9.10308E-05-2.73124E-05-2.73002E-05-3.52417E-08 2.15021E-20 4.08558E-18
 -1        82 9.17842E-05-2.75373E-05-2.75266E-05-2.85962E-08 1.21624E-19 2.97190E-18
 -1        83 9.24547E-05-2.77377E-05-2.77286E-05-2.28333E-08 1.88799E-21 2.40359E-18
 -1        84 9.30349E-05-2.79113E-05-2.79036E-05-1.78883E-08 1.14261E-19 2.40696E-18
 -1        85 9.35270E-05-2.80587E-05-2.80523E-05-1.37084E-08-6.79971E-20 1.62008E-18
 -1        86 9.39394E-05-2.81822E-05-2.81771E-05-1.02457E-08 1.59322E-19 6.77740E-19
 -1        87 9.42840E-05-2.82855E-05-2.82816E-05-7.46016E-09-6.74179E-20 1.24025E-19
 -1        88 9.45750E-05-2.83727E-05-2.83699E-05-5.32782E-09-1.76231E-19 2.64301E-19
 -1        89 9.48269E-05-2.84482E-05-2.84465E-05-3.85021E-09 9.54755E-20 1.37463E-20
 -1        90 9.50539E-05-2.85161E-05-2.85156E-05-3.06240E-09 2.21616E-19-1.79344E-18
 -1        91 9.52687E-05-2.85804E-05-2.85808E-05-3.03586E-09-3.09715E-19-2.53244E-18
 -1        92 9.54806E-05-2.86436E-05-2.86449E-05-3.87061E-09 9.97024E-20-4.87423E-19
 -1        93 9.56933E-05-2.87068E-05-2.87088E-05-5.66869E-09-1.39325E-19 3.60162E-19
 -1        94 9.59018E-05-2.87687E-05-2.87707E-05-8.47708E-09 1.96448E-19 9.52220E-19
 -1        95 9.60876E-05-2.88235E-05-2.88247E-05-1.21870E-08 7.68672E-20-2.00117E-18
 -1        96 9.62135E-05-2.88603E-05-2.88591E-05-1.63796E-08 1.47588E-19-2.18083E-18
 -1        97 9.62180E-05-2.88607E-05-2.88551E-05-2.01246E-08 1.66210E-19-9.21797E-19
 -1        98 9.60106E-05-2.87980E-05-2.87851E-05-2.17757E-08 7.92935E-20-9.51506E-19
 -1        99 9.54725E-05-2.86371E-05-2.86141E-05-1.88724E-08-4.21673E-19 7.50855E-19
 -1       100 9.44661E-05-2.83369E-05-2.83018E-05-8.33974E-09-4.33450E-19 2.61739E-18
 -1       101 9.28581E-05-2.78578E-05-2.78111E-05 1.27529E-08 1.86438E-20 1.40475E-18
 -1       102 9.05603E-05-2.71731E-05-2.71195E-05 4.57019E-08-1.49412E-19 4.75940E-19
 -1       103 8.75840E-05-2.62850E-05-2.62349E-05 8.81600E-08 1.10283E-19 1.22517E-18
 -1       104 8.40943E-05-2.52415E-05-2.52099E-05 1.32512E-07-4.52232E-19 1.39299E-18
 -1       105 8.04394E-05-2.41452E-05-2.41479E-05 1.66143E-07 7.69475E-20 3.15743E-18
 -1       106 7.71223E-05-2.31462E-05-2.31930E-05 1.74947E-07 4.59353E-19 3.04716E-18
 -1       107 7.47004E-05-2.24128E-05-2.25011E-05 1.49692E-07-1.66387E-19 1.17171E-18
 -1       108 7.36317E-05-2.20849E-05-2.21977E-05 9.19436E-08-1.32550E-19-1.37950E-18
 -1       109 7.41255E-05-2.22280E-05-2.23392E-05 1.51678E-08 1.67672E-19-2.69748E-18
 -1       110 7.60688E-05-2.28099E-05-2.28943E-05-6.03492E-08 1.65573E-19-5.65679E-19
 -1       111 7.90655E-05-2.37112E-05-2.37539E-05-1.16158E-07 4.18381E-19-1.81512E-18
 -1       112 8.25678E-05-2.47659E-05-2.47659E-05-1.42752E-07-7.80514E-19-1.49139E-18
 -1       113 8.60385E-05-2.58110E-05-2.57786E-05-1.41205E-07-9.98977E-20-3.08710E-18
 -1       114 8.90737E-05-2.67242E-05-2.66745E-05-1.19794E-07 8.47176E-19-3.84601E-18
 -1       115 9.14549E-05-2.74396E-05-2.73869E-05-8.89475E-08-4.40778E-19-4.19344E-18
 -1       116 9.31368E-05-2.79441E-05-2.78984E-05-5.74790E-08 1.92135E-19-5.12142E-18
 -1       117 9.41985E-05-2.82619E-05-2.82282E-05-3.09879E-08 1.33894E-19-3.99674E-18
 -1       118 9.47864E-05-2.84371E-05-2.84168E-05-1.22468E-08 2.86833E-20-4.50489E-18
 -1       119 9.50663E-05-2.85197E-05-2.85111E-05-2.39388E-09 5.91765E-19-5.30394E-18
 -1       120 9.51838E-05-2.85541E-05-2.85523E-05-5.31436E-11-2.01142E-19-5.12991E-18
 -1       121 9.52311E-05-2.85700E-05-2.85677E-05-1.25620E-09 7.20610E-19-5.41489E-18
 -1       122 9.52384E-05-2.85812E-05-2.85656E-05-4.38084E-09-2.49518E-18 1.23042E-18
 -1       123 9.52540E-05-2.86385E-05-2.85495E-05-1.33711E-08 3.13113E-18-7.12263E-19
 -1       124 9.52648E-05-2.86789E-05-2.85450E-05-1.54286E-08 5.31979E-18 2.06425E-18
 -1       125 9.52340E-05-2.85799E-05-2.85834E-05-7.89706E-09 9.01071E-18-6.35358E-19
 -1       126 9.51257E-05-2.82184E-05-2.86982E-05 8.99346E-09 4.91410E-18-6.93148E-19
 -1       127 9.49197E-05-2.75289E-05-2.89061E-05 2.93054E-08 7.28438E-19-1.09292E-18
 -1       128 9.46117E-05-2.64924E-05-2.92111E-05 5.05317E-08 7.80646E-18 1.63307E-18
 -1       129 9.42370E-05-2.52298E-05-2.95762E-05 6.39141E-08 1.06447E-17-6.93086E-19
 -1       130 9.38625E-05-2.39668E-05-2.99355E-05 6.20734E-08 1.12017E-17 7.84616E-19
 -1       131 9.35782E-05-2.30066E-05-3.02030E-05 3.99318E-08 1.29496E-17-5.25137E-19
 -1       132 9.34734E-05-2.26546E-05-3.02941E-05-3.62996E-09 6.79890E-18-2.48298E-18
 -1       133 9.36059E-05-2.30963E-05-3.01619E-05-5.44023E-08 4.08531E-19 2.55406E-18
 -1       134 9.39736E-05-2.43325E-05-2.98122E-05-1.02261E-07 3.29236E-18 3.31195E-20
 -1       135 9.44890E-05-2.60658E-05-2.93347E-05-1.21626E-07 2.25509E-18 4.08764E-19
 -1       136 9.49905E-05-2.77295E-05-2.88796E-05-6.77780E-08 3.94776E-18-7.05490E-19
 -1       137 9.52181E-05-2.85702E-05-2.85763E-05 7.13745E-08-2.60342E-18 2.19115E-19
 -1       138 2.59869E-05-8.74092E-05 1.58545E-05-2.24949E-05-9.43171E-19 3.36643E-19
 -1       139 7.47044E-06-2.70755E-05 1.21874E-06-1.31050E-05-7.19978E-21-1.19643E-18
 -1       140 1.52201E-05 2.21265E-05-1.86973E-05 3.40448E-05-1.84653E-18-1.36923E-18
 -1       141 7.90808E-05 2.99663E-05-4.38349E-05 9.91030E-05-1.09183E-18-4.90009E-19
 -1       142 1.74722E-04-9.17681E-06-6.34382E-05 1.26390E-04 1.35525E-20-4.95514E-19
 -1       143 2.69815E-04-6.31461E-05-7.77569E-05 1.02837E-04 2.63586E-19 8.71173E-19
 -1       144 3.27063E-04-9.92613E-05-8.50314E-05 3.22417E-05-5.53218E-20 1.27468E-18
 -1       145 3.15628E-04-9.17791E-05-8.36511E-05-5.69863E-05 7.88310E-19-2.42146E-18
 -1       146 2.39562E-04-4.48271E-05-7.35980E-05-1.16636E-04 1.51545E-18-6.29981E-18
 -1       147 1.32287E-04 1.15371E-05-5.59196E-05-1.21260E-04 5.80218E-18-9.57486E-18
 -1       148 4.43073E-05 3.66150E-05-3.39784E-05-7.53626E-05 5.89450E-18-6.42390E-18
 -1       149 6.51819E-06 1.08720E-05-1.17015E-05-1.49196E-05 3.91117E-18-3.11962E-18
 -1       150 1.24734E-05-4.79548E-05 6.83391E-06 2.03943E-05 9.89758E-19-7.48883E-19
 -1       151 3.30297E-05-1.05270E-04 1.96709E-05 1.72436E-05 4.84651E-18-2.85874E-21
 -1       152 4.12275E-05-1.27690E-04 2.43453E-05-1.22827E-05 4.56683E-18-1.44022E-19
 -1       153 2.75714E-05-1.05065E-04 2.04439E-05-3.92275E-05-1.84103E-18-4.60071E-19
 -1       154 7.08065E-06-5.26229E-05 7.94409E-06-3.64277E-05-6.84699E-18-3.75617E-18
 -1       155 7.50205E-06-3.73476E-07-1.15843E-05 4.12556E-06-6.33919E-18-5.64547E-18
 -1       156 6.65309E-05 1.69318E-05-3.77849E-05 7.27788E-05-8.34709E-18-1.04609E-17
 -1       157 2.02714E-04-2.62535E-05-6.67489E-05 1.20547E-04-6.47811E-18-1.56710E-17
 -1       158 3.50002E-04-9.69480E-05-8.81933E-05 9.10529E-05-3.67332E-18-1.62126E-17
 -1       159 3.53646E-04-9.89277E-05-8.84183E-05-9.07143E-05 2.93163E-18-1.46528E-17
 -1       160 2.21580E-04-3.44988E-05-6.97116E-05-1.22178E-04 2.47694E-18-6.64159E-18
 -1       161 9.93725E-05 1.07781E-05-4.63826E-05-9.29429E-05 3.48300E-18-4.72729E-18
 -1       162 2.41928E-05 1.23859E-05-2.17114E-05-3.16534E-05 2.87441E-18-3.80572E-18
 -1       163 1.82007E-06-2.45506E-05-7.14782E-07 2.09902E-05-2.56609E-18-1.16891E-19
 -1       164 1.59333E-05-7.81781E-05 1.44603E-05 4.23648E-05-7.17606E-18 3.35330E-18
 -1       165 3.54530E-05-1.19084E-04 2.29544E-05 3.07540E-05-5.20216E-18 1.49705E-18
 -1       166 9.48410E-05-1.23145E-05-3.55528E-05-2.24299E-05-9.24285E-19-1.09278E-18
 -1       167 8.92447E-05-8.44630E-06-3.47891E-05-1.73912E-05-7.66724E-19-1.80630E-18
 -1       168 8.65583E-05-6.51136E-06-3.44167E-05-1.35975E-05-5.40834E-19-2.11413E-18
 -1       169 8.51932E-05-5.51566E-06-3.42307E-05-1.03686E-05-2.66738E-19-2.13686E-18
 -1       170 8.44478E-05-4.94498E-06-3.41417E-05-7.54762E-06-5.40761E-20-2.02907E-18
 -1       171 8.40195E-05-4.59907E-06-3.40990E-05-4.90407E-06 1.21204E-19-1.86392E-18
 -1       172 8.38003E-05-4.41411E-06-3.40807E-05-2.39609E-06 3.45849E-19-1.71741E-18
 -1       173 8.37355E-05-4.35813E-06-3.40759E-05 4.94665E-08 5.16743E-19-1.65683E-18
 -1       174 8.38099E-05-4.42237E-06-3.40814E-05 2.49714E-06 6.37000E-19-1.55848E-18
 -1       175 8.40404E-05-4.61766E-06-3.41003E-05 5.01153E-06 7.47473E-19-1.41730E-18
 -1       176 8.44737E-05-4.97083E-06-3.41423E-05 7.62043E-06 8.55404E-19-1.16477E-18
 -1       177 8.52502E-05-5.57303E-06-3.42322E-05 1.05088E-05 1.06159E-18-7.80137E-19
 -1       178 8.66500E-05-6.60955E-06-3.44182E-05 1.37750E-05 1.16347E-18-2.51966E-19
 -1       179 8.93884E-05-8.59766E-06-3.47913E-05 1.76259E-05 1.16513E-18 7.01383E-19
 -1       180 9.57814E-05-1.36148E-05-3.54266E-05 2.18871E-05 1.06052E-18 2.23519E-18
 -1       181 1.05607E-04-2.61023E-05-3.52640E-05 1.86601E-05 7.21096E-19 4.06269E-18
 -1       182 1.03612E-04-2.70799E-05-3.28019E-05-1.25972E-05-7.86497E-19 9.83088E-20
 -1       183 9.73200E-05-2.82708E-05-2.96318E-05-4.96246E-06-8.39105E-19-3.01216E-19
 -1       184 9.36294E-05-2.76557E-05-2.82276E-05-1.86296E-06-6.68885E-19-5.34537E-19
 -1       185 9.20305E-05-2.74159E-05-2.76560E-05-4.65583E-07-4.87985E-19-8.39611E-19
 -1       186 9.14213E-05-2.73344E-05-2.74470E-05 2.22539E-07-3.41478E-19-1.25973E-18
 -1       187 9.13629E-05-2.73699E-05-2.74166E-05 5.61528E-07-2.33626E-19-1.33038E-18
 -1       188 9.15997E-05-2.74714E-05-2.74794E-05 7.08040E-07-5.50221E-19-1.36569E-18
 -1       189 9.19828E-05-2.76039E-05-2.75891E-05 7.43697E-07-1.63301E-19-1.45650E-18
 -1       190 9.24230E-05-2.77456E-05-2.77183E-05 7.15702E-07-2.23779E-19-1.70284E-18
 -1       191 9.28676E-05-2.78834E-05-2.78504E-05 6.53318E-07-2.04549E-19-1.58166E-18
 -1       192 9.32865E-05-2.80100E-05-2.79760E-05 5.75360E-07-1.06957E-19-1.93996E-18
 -1       193 9.36647E-05-2.81223E-05-2.80901E-05 4.94084E-07-3.40705E-20-2.12199E-18
 -1       194 9.39972E-05-2.82195E-05-2.81910E-05 4.17494E-07-3.14182E-19-2.24538E-18
 -1       195 9.42854E-05-2.83024E-05-2.82789E-05 3.50833E-07-2.39312E-19-2.47331E-18
 -1       196 9.45245E-05-2.83702E-05-2.83522E-05 3.00068E-07 3.27613E-19-1.90392E-18
 -1       197 9.47487E-05-2.84327E-05-2.84213E-05 2.62963E-07 5.50926E-19-1.66536E-18
 -1       198 9.49573E-05-2.84897E-05-2.84860E-05 2.45578E-07 2.14646E-20-7.07999E-19
 -1       199 9.51667E-05-2.85456E-05-2.85514E-05 2.52461E-07-2.53255E-19-6.73022E-19
 -1       200 9.53979E-05-2.86059E-05-2.86241E-05 2.90507E-07-7.59222E-20-9.30730E-19
 -1       201 9.56787E-05-2.86774E-05-2.87129E-05 3.70830E-07 4.88570E-19-1.06547E-18
 -1       202 9.60470E-05-2.87694E-05-2.88302E-05 5.11412E-07-4.01020E-19-1.05662E-18
 -1       203 9.65565E-05-2.88942E-05-2.89934E-05 7.41158E-07-2.68679E-19-1.01072E-18
 -1       204 9.72847E-05-2.90690E-05-2.92281E-05 1.10607E-06-5.29302E-19-1.82522E-18
 -1       205 9.83442E-05-2.93184E-05-2.95718E-05 1.67836E-06-1.22691E-19-2.54025E-18
 -1       206 9.98977E-05-2.96771E-05-3.00793E-05 2.56891E-06-3.99950E-19-2.75275E-18
 -1       207 1.02176E-04-3.01949E-05-3.08292E-05 3.94102E-06 5.94329E-19-2.62187E-18
 -1       208 1.05493E-04-3.09446E-05-3.19272E-05 6.01573E-06-4.16674E-19-2.48444E-18
 -1       209 1.10247E-04-3.20415E-05-3.34984E-05 9.03368E-06-6.56590E-19-3.47461E-18
 -1       210 1.16868E-04-3.37004E-05-3.56394E-05 1.30948E-05-9.22505E-20-3.28373E-18
 -1       211 1.25230E-04-3.61815E-05-3.81737E-05 1.74486E-05 1.40356E-19-2.24523E-18
 -1       212 1.36380E-04-4.06343E-05-4.10108E-05 2.03590E-05 1.06309E-20-2.92184E-18
 -1       213 1.49600E-04-4.82714E-05-4.32985E-05 1.62598E-05-1.00400E-19-2.77496E-18
 -1       214 1.62825E-04-5.83255E-05-4.45476E-05-8.19266E-07 6.71327E-19-3.45365E-18
 -1       215 1.70968E-04-6.05259E-05-4.77926E-05-2.89947E-05 1.66130E-18-4.41555E-18
 -1       216 1.67980E-04-4.48724E-05-5.36585E-05-3.76296E-05-1.87194E-19-3.21110E-18
 -1       217 1.64466E-04-3.13388E-05-5.81636E-05-8.92614E-06-8.87902E-19-3.77798E-18
 -1       218 1.65708E-04-3.64316E-05-5.65775E-05 2.76302E-05-2.10297E-18-3.80553E-18
 -1       219 1.71318E-04-5.52693E-05-5.03299E-05 3.75248E-05-1.93536E-18-2.92057E-18
 -1       220 1.67934E-04-6.13964E-05-4.56177E-05 1.37238E-05-9.24457E-19-4.16429E-18
 -1       221 1.55865E-04-5.29083E-05-4.39152E-05-9.79500E-06 3.92653E-19-2.65238E-18
 -1       222 1.42678E-04-4.40669E-05-4.21733E-05-1.96562E-05 1.54720E-18-2.52385E-18
 -1       223 1.30233E-04-3.80599E-05-3.95046E-05-1.95321E-05 7.13782E-19-3.27214E-18
 -1       224 1.20073E-04-3.45951E-05-3.66406E-05-1.54697E-05 1.08962E-18-2.07255E-18
 -1       225 1.12222E-04-3.24786E-05-3.41654E-05-1.11105E-05 4.27156E-19-4.71048E-19
 -1       226 1.06416E-04-3.10815E-05-3.22654E-05-7.64549E-06 8.87707E-19-4.39801E-19
 -1       227 1.02245E-04-3.01059E-05-3.08950E-05-5.17301E-06 9.38235E-19 1.04570E-19
 -1       228 9.93106E-05-2.93989E-05-2.99438E-05-3.44765E-06-1.45098E-18-1.56654E-18
 -1       229 9.73055E-05-2.88787E-05-2.93136E-05-2.16521E-06-2.44450E-19 1.16356E-19
 -1       230 9.59601E-05-2.84549E-05-2.89240E-05-1.07025E-06-1.59786E-19-1.17241E-19
 -1       231 9.95067E-05-2.85522E-05-3.05885E-05 7.21107E-06 6.10181E-19 3.58745E-18
 -1       232 9.44192E-05-2.77858E-05-2.85257E-05 2.75100E-06 5.93069E-19 2.96534E-18
 -1       233 9.21036E-05-2.74028E-05-2.76833E-05 9.28559E-07 5.49494E-19 2.45375E-18
 -1       234 9.11599E-05-2.72423E-05-2.73665E-05 6.40774E-08 4.60213E-19 1.91658E-18
 -1       235 9.09525E-05-2.72360E-05-2.72937E-05-3.63782E-07 4.03623E-20 1.96346E-18
 -1       236 9.11397E-05-2.73230E-05-2.73434E-05-5.65163E-07-2.14543E-19 2.01169E-18
 -1       237 9.15280E-05-2.74574E-05-2.74553E-05-6.39224E-07-1.35865E-19 1.85022E-18
 -1       238 9.20026E-05-2.76101E-05-2.75949E-05-6.39652E-07 2.10662E-19 1.59640E-18
 -1       239 9.24954E-05-2.77632E-05-2.77414E-05-5.98853E-07 7.08996E-19 1.15784E-18
 -1       240 9.29675E-05-2.79070E-05-2.78826E-05-5.37283E-07-8.27514E-20 1.09306E-18
 -1       241 9.33984E-05-2.80363E-05-2.80122E-05-4.68148E-07 2.61259E-19 1.22593E-18
 -1       242 9.37795E-05-2.81493E-05-2.81273E-05-3.99982E-07 6.44123E-19 6.18939E-19
 -1       243 9.41103E-05-2.82464E-05-2.82276E-05-3.38188E-07 4.88097E-19-1.84798E-20
 -1       244 9.43954E-05-2.83293E-05-2.83143E-05-2.86007E-07 1.86610E-19-2.45738E-19
 -1       245 9.46422E-05-2.84006E-05-2.83895E-05-2.45147E-07 7.95003E-20-4.37567E-19
 -1       246 9.48596E-05-2.84630E-05-2.84559E-05-2.16128E-07 4.10632E-19-9.80118E-19
 -1       247 9.50569E-05-2.85197E-05-2.85162E-05-1.98387E-07 7.92269E-19-1.26836E-18
 -1       248 9.52424E-05-2.85734E-05-2.85727E-05-1.90138E-07-2.31863E-19-7.40596E-19
 -1       249 9.54220E-05-2.86262E-05-2.86271E-05-1.87969E-07-6.95346E-19-4.81597E-19
 -1       250 9.55973E-05-2.86792E-05-2.86796E-05-1.86202E-07-5.35452E-19-8.20939E-19
 -1       251 9.57634E-05-2.87318E-05-2.87285E-05-1.76035E-07 2.97792E-19-8.78526E-19
 -1       252 9.59054E-05-2.87806E-05-2.87687E-05-1.44658E-07 8.32216E-19-1.02479E-18
 -1       253 9.59954E-05-2.88183E-05-2.87914E-05-7.46411E-08 1.31062E-19-1.55847E-18
 -1       254 9.59883E-05-2.88325E-05-2.87826E-05 5.57707E-08-7.35463E-19-8.69384E-19
 -1       255 9.58203E-05-2.88043E-05-2.87229E-05 2.70576E-07-4.92538E-19 1.14234E-18
 -1       256 9.54094E-05-2.87079E-05-2.85880E-05 5.91004E-07-1.07107E-18 1.58844E-18
 -1       257 9.46624E-05-2.85116E-05-2.83516E-05 1.02664E-06-5.96077E-19 2.24040E-18
 -1       258 9.34909E-05-2.81816E-05-2.79903E-05 1.56281E-06 2.03724E-19 2.10002E-18
 -1       259 9.18380E-05-2.76903E-05-2.74916E-05 2.14681E-06 1.72839E-20 1.96159E-18
 -1       260 8.97135E-05-2.70289E-05-2.68637E-05 2.67931E-06-7.08652E-19 1.58215E-18
 -1       261 8.72297E-05-2.62232E-05-2.61441E-05 3.02083E-06-7.40253E-19 2.72339E-18
 -1       262 8.46218E-05-2.53458E-05-2.54027E-05 3.02176E-06 3.51800E-19 2.08521E-18
 -1       263 8.22320E-05-2.45166E-05-2.47346E-05 2.57572E-06 4.71338E-19 1.65248E-18
 -1       264 8.04464E-05-2.38814E-05-2.42422E-05 1.67844E-06-1.16302E-20 1.94790E-18
 -1       265 7.95917E-05-2.35706E-05-2.40090E-05 4.58927E-07 1.36108E-18 1.23424E-18
 -1       266 7.98315E-05-2.36526E-05-2.40757E-05-8.45585E-07 4.32786E-19 9.87852E-20
 -1       267 8.11087E-05-2.41064E-05-2.44272E-05-1.96750E-06-1.04565E-18-6.62775E-19
 -1       268 8.31648E-05-2.48299E-05-2.49971E-05-2.70234E-06 3.81562E-20-1.09011E-19
 -1       269 8.56265E-05-2.56778E-05-2.56884E-05-2.97065E-06 5.83174E-20 1.49585E-18
 -1       270 8.81165E-05-2.65102E-05-2.63996E-05-2.82087E-06 1.26110E-18 3.69545E-19
 -1       271 9.03409E-05-2.72263E-05-2.70475E-05-2.38428E-06 1.14933E-18-3.93324E-21
 -1       272 9.21296E-05-2.77763E-05-2.75800E-05-1.81532E-06-6.10151E-19 3.47157E-19
 -1       273 9.34325E-05-2.81544E-05-2.79776E-05-1.24571E-06 3.07488E-19 3.28939E-19
 -1       274 9.42893E-05-2.83839E-05-2.82472E-05-7.62838E-07-1.84010E-20-5.83689E-19
 -1       275 9.47915E-05-2.85020E-05-2.84121E-05-4.08645E-07 2.28396E-19 1.03612E-19
 -1       276 9.50487E-05-2.85492E-05-2.85020E-05-1.89215E-07 4.42375E-19 1.50827E-19
 -1       277 9.51631E-05-2.85631E-05-2.85445E-05-8.05645E-08-5.98981E-19-1.65017E-19
 -1       278 9.52140E-05-2.85714E-05-2.85614E-05-3.42419E-08 3.62109E-19 1.30340E-18
 -1       279 9.52352E-05-2.85977E-05-2.85582E-05-5.51393E-08 1.23915E-18 3.89424E-18
 -1       280 9.52722E-05-2.86204E-05-2.85633E-05-2.43654E-08 1.72738E-18 7.71086E-19
 -1       281 9.52941E-05-2.85705E-05-2.85938E-05 1.24232E-07 1.23995E-18 2.90279E-18
 -1       282 9.52640E-05-2.83661E-05-2.86682E-05 3.91787E-07 1.72542E-18-2.18774E-18
 -1       283 9.51523E-05-2.79514E-05-2.87984E-05 7.29014E-07 2.25827E-18-2.42142E-18
 -1       284 9.49392E-05-2.72895E-05-2.89916E-05 1.06541E-06 3.47022E-18 3.78053E-18
 -1       285 9.46327E-05-2.64262E-05-2.92318E-05 1.28847E-06 3.59501E-18 1.85544E-18
 -1       286 9.42715E-05-2.54772E-05-2.94854E-05 1.28785E-06 6.25550E-18 1.17843E-18
 -1       287 9.39245E-05-2.46230E-05-2.97044E-05 9.87715E-07 5.79351E-18-6.30652E-19
 -1       288 9.36816E-05-2.40739E-05-2.98364E-05 3.85841E-07 4.34349E-18-3.00675E-18
 -1       289 9.36279E-05-2.40056E-05-2.98425E-05-4.00336E-07 4.27520E-18-3.93462E-18
 -1       290 9.38133E-05-2.44942E-05-2.97116E-05-1.19146E-06 3.70071E-18 1.37732E-18
 -1       291 9.42297E-05-2.54712E-05-2.94698E-05-1.70222E-06 1.38723E-18-2.26026E-18
 -1       292 9.47787E-05-2.66941E-05-2.91783E-05-1.68457E-06-1.05948E-18-6.66368E-19
 -1       293 1.35049E-05-4.85386E-05 1.21442E-05 1.84998E-05-2.00514E-18 2.74555E-18
 -1       294 2.99816E-05-4.39217E-05 3.39487E-06 2.89974E-05-1.18267E-18-4.50357E-19
 -1       295 5.98763E-05-3.54173E-05-1.17721E-05 4.40007E-05 3.61048E-19-4.43422E-19
 -1       296 1.11996E-04-3.92991E-05-3.11556E-05 4.93415E-05-5.79371E-19 5.80218E-20
 -1       297 1.49395E-04-2.75044E-05-5.07555E-05 5.50670E-05-1.41275E-18-2.17793E-18
 -1       298 1.89858E-04-3.19735E-05-6.51533E-05 4.20098E-05-1.34419E-18-1.29871E-18
 -1       299 2.20498E-04-3.73664E-05-7.50064E-05 2.42067E-05-4.37598E-19-1.08325E-18
 -1       300 2.20340E-04-3.40153E-05-7.67255E-05-3.59330E-06 1.52847E-18-4.71056E-19
 -1       301 2.10047E-04-3.45343E-05-7.22036E-05-2.96284E-05 2.15549E-18-2.51950E-18
 -1       302 1.76170E-04-3.04923E-05-6.02641E-05-4.81829E-05 3.15708E-18-2.84328E-18
 -1       303 1.28793E-04-2.56613E-05-4.32061E-05-5.69743E-05 2.86636E-18-3.52768E-18
 -1       304 8.22000E-05-2.77960E-05-2.38486E-05-5.04280E-05 2.17327E-18-4.23368E-18
 -1       305 4.61661E-05-3.65554E-05-6.04047E-06-3.74073E-05 2.20821E-18-2.86535E-18
 -1       306 2.34241E-05-4.63339E-05 7.13045E-06-2.61928E-05 2.90490E-18-2.51622E-19
 -1       307 1.11409E-05-5.23085E-05 1.43660E-05-1.33153E-05-6.94355E-19-5.30349E-19
 -1       308 1.29598E-05-5.65354E-05 1.48200E-05-1.54185E-06-1.26166E-18-3.45378E-18
 -1       309 2.71718E-05-5.11142E-05 6.76408E-06 1.30783E-05-2.17010E-18-4.02579E-18
 -1       310 5.70031E-05-4.84794E-05-6.97318E-06 2.47573E-05-3.59671E-18-4.08635E-18
 -1       311 1.07592E-04-4.93159E-05-2.68178E-05 3.49969E-05-3.54166E-18-7.35627E-18
 -1       312 1.77333E-04-5.91782E-05-4.98529E-05 2.54435E-05-3.46055E-18-9.03361E-18
 -1       313 2.25619E-04-5.67163E-05-6.88885E-05 3.49676E-06-2.49097E-18-1.08717E-17
 -1       314 2.50862E-04-4.80755E-05-8.04018E-05 1.08495E-06-2.12817E-18-1.21414E-17
 -1       315 2.56955E-04-5.01445E-05-8.14421E-05-1.87122E-06 2.76980E-19-1.04099E-17
 -1       316 2.27530E-04-5.47056E-05-7.00707E-05-3.59311E-06-9.08443E-20-9.19624E-18
 -1       317 1.87415E-04-5.54826E-05-5.46486E-05-3.23942E-05 2.00154E-18-7.11338E-18
 -1       318 1.36292E-04-5.71442E-05-3.50026E-05-3.17528E-05 2.14850E-18-3.73965E-18
 -1       319 8.52103E-05-4.76538E-05-1.84099E-05-3.22009E-05 8.70326E-19-4.86875E-18
 -1       320 3.97988E-05-4.98186E-05 6.51781E-07-1.83615E-05-6.84826E-19-3.33518E-18
 -1       321 1.91414E-05-5.46315E-05 1.12993E-05-5.57682E-06-8.69373E-19 9.06219E-19
 -1       322 1.14115E-05-5.69729E-05 1.57261E-05 5.51901E-06-1.76417E-18-1.17505E-18
 -1       323 9.53008E-05-2.78197E-05-2.89109E-05-1.08847E-06-1.67736E-18-1.69194E-18
 -1       324 9.16417E-05-1.44544E-05-3.31581E-05-1.29851E-05-7.44553E-19-1.56878E-18
 -1       325 9.57001E-05-1.91111E-05-3.28873E-05-1.46405E-05-9.82045E-19-1.22435E-18
 -1       326 8.80050E-05-1.03764E-05-3.33246E-05-8.15346E-06-1.98013E-19-1.52220E-18
 -1       327 8.71899E-05-9.45431E-06-3.33638E-05-5.71763E-06-2.93556E-20-1.48189E-18
 -1       328 8.67286E-05-8.92311E-06-3.33902E-05-3.36691E-06 3.25769E-19-1.35604E-18
 -1       329 8.65226E-05-8.68254E-06-3.34035E-05-1.07369E-06 5.51021E-19-1.29150E-18
 -1       330 8.65312E-05-8.69206E-06-3.34032E-05 1.20131E-06 7.36456E-19-1.19868E-18
 -1       331 8.67553E-05-8.95310E-06-3.33889E-05 3.49709E-06 8.39660E-19-1.15670E-18
 -1       332 8.72278E-05-9.49752E-06-3.33617E-05 5.81138E-06 1.02212E-18-1.01045E-18
 -1       333 8.80677E-05-1.04499E-05-3.33203E-05 8.25077E-06 1.16056E-18-6.23939E-19
 -1       334 8.94819E-05-1.20329E-05-3.32599E-05 1.07618E-05 1.32437E-18-2.06034E-19
 -1       335 9.18856E-05-1.47323E-05-3.31485E-05 1.31478E-05 1.39198E-18 2.85179E-19
 -1       336 9.58911E-05-1.95870E-05-3.28058E-05 1.42764E-05 1.22391E-18 1.36699E-18
 -1       337 9.87864E-05-2.44515E-05-3.19425E-05 1.18497E-05 9.78058E-19 2.25845E-18
 -1       338 9.63234E-05-2.67815E-05-2.97740E-05 5.68560E-06 8.92310E-19 1.84070E-18
 -1       339 9.00302E-05-5.67598E-05-1.47953E-05-3.70697E-05-1.03211E-18-5.47259E-18
 -1       340 9.65020E-05-2.59323E-05-3.02022E-05-6.56495E-06-8.68910E-19-1.08402E-18
 -1       341 9.49828E-05-2.69972E-05-2.91110E-05-2.95779E-06-6.74162E-19-1.10767E-18
 -1       342 9.39850E-05-2.74125E-05-2.85161E-05-9.87704E-07-5.51167E-19-9.99880E-19
 -1       343 9.34493E-05-2.76316E-05-2.82007E-05 1.05155E-07-3.54262E-19-1.01422E-18
 -1       344 9.32463E-05-2.77872E-05-2.80510E-05 6.89733E-07-4.07557E-19-1.16137E-18
 -1       345 9.32577E-05-2.79182E-05-2.80016E-05 9.70194E-07-3.10557E-19-7.98360E-19
 -1       346 9.33953E-05-2.80343E-05-2.80118E-05 1.06658E-06-4.77946E-19-9.30239E-19
 -1       347 9.35986E-05-2.81368E-05-2.80555E-05 1.05349E-06-1.69926E-19-1.14382E-18
 -1       348 9.38282E-05-2.82256E-05-2.81160E-05 9.79131E-07-2.30327E-19-1.05672E-18
 -1       349 9.40598E-05-2.83008E-05-2.81831E-05 8.75321E-07-3.72218E-19-9.97644E-19
 -1       350 9.42797E-05-2.83633E-05-2.82506E-05 7.63261E-07-5.43147E-20-1.40650E-18
 -1       351 9.44815E-05-2.84140E-05-2.83153E-05 6.57246E-07-4.46692E-19-9.40831E-19
 -1       352 9.46563E-05-2.84531E-05-2.83733E-05 5.70964E-07 2.25249E-19-5.37505E-19
 -1       353 9.48249E-05-2.84862E-05-2.84312E-05 5.02661E-07 5.67925E-19-7.47486E-19
 -1       354 9.49833E-05-2.85125E-05-2.84876E-05 4.63823E-07 5.42242E-19-1.25830E-18
 -1       355 9.51396E-05-2.85332E-05-2.85454E-05 4.61808E-07 2.21903E-19-1.43241E-18
 -1       356 9.53045E-05-2.85492E-05-2.86089E-05 5.06507E-07-2.00981E-19-6.03718E-19
 -1       357 9.54911E-05-2.85599E-05-2.86837E-05 6.12627E-07 4.51219E-19-2.88975E-19
 -1       358 9.57152E-05-2.85632E-05-2.87777E-05 8.02794E-07-3.78204E-19-6.74944E-19
 -1       359 9.59963E-05-2.85539E-05-2.89010E-05 1.11195E-06-3.06764E-19-7.85324E-19
 -1       360 9.63569E-05-2.85218E-05-2.90676E-05 1.59360E-06-2.56239E-19-6.08807E-19
 -1       361 9.68220E-05-2.84487E-05-2.92957E-05 2.32844E-06-8.39120E-19-1.89833E-19
 -1       362 9.74152E-05-2.83046E-05-2.96079E-05 3.43517E-06-7.41242E-19-8.36766E-19
 -1       363 9.81517E-05-2.80440E-05-3.00301E-05 5.08168E-06-1.65999E-20-1.45225E-18
 -1       364 9.90266E-05-2.76106E-05-3.05846E-05 7.48932E-06-6.44026E-20-2.52281E-18
 -1       365 1.00005E-04-2.69691E-05-3.12729E-05 1.09113E-05-8.50054E-19-2.33772E-18
 -1       366 1.01050E-04-2.62277E-05-3.20336E-05 1.55452E-05-2.95904E-19-1.36134E-18
 -1       367 1.02235E-04-2.59253E-05-3.26671E-05 2.10060E-05 4.75662E-20-1.59360E-18
 -1       368 1.04559E-04-2.76879E-05-3.28718E-05 2.70337E-05-1.37669E-19-1.46083E-18
 -1       369 1.10726E-04-3.52902E-05-3.21699E-05 3.10231E-05-3.97311E-20-1.67304E-18
 -1       370 1.26038E-04-5.27796E-05-3.09005E-05 2.80210E-05 1.03603E-19-2.05053E-18
 -1       371 1.73320E-04-7.38261E-05-4.33110E-05 7.71145E-06-1.23916E-18-4.32929E-18
 -1       372 1.40840E-04-6.37687E-05-3.29037E-05-1.89430E-05 2.76556E-19-1.99834E-18
 -1       373 1.19818E-04-4.34931E-05-3.24717E-05-2.95027E-05 9.57650E-19-2.53723E-18
 -1       374 1.09094E-04-3.13454E-05-3.32172E-05-2.91657E-05 1.66910E-18-2.69504E-18
 -1       375 1.04619E-04-2.71724E-05-3.31548E-05-2.40733E-05 1.29752E-18-1.19677E-18
 -1       376 1.02324E-04-2.65386E-05-3.24502E-05-1.81923E-05 2.15431E-18-3.53473E-18
 -1       377 1.00645E-04-2.69486E-05-3.15558E-05-1.31240E-05 4.11885E-19-2.30708E-18
 -1       378 9.91961E-05-2.74445E-05-3.07260E-05-9.24638E-06 4.90119E-19-2.14659E-18
 -1       379 9.79361E-05-2.77590E-05-3.00560E-05-6.42263E-06 9.64823E-20-2.76606E-18
 -1       380 9.68665E-05-2.78490E-05-2.95625E-05-4.36856E-06-2.80614E-19-7.87893E-19
 -1       381 9.59628E-05-2.77573E-05-2.92207E-05-2.75433E-06-1.10279E-18-7.63662E-19
 -1       382 9.43135E-05-2.72879E-05-2.86861E-05 2.46857E-06 7.73723E-19 1.39934E-18
 -1       383 6.50209E-05-4.22088E-05-9.63561E-06 5.26212E-05-1.76882E-18 4.17825E-19
 -1       384 9.31533E-05-2.74382E-05-2.81410E-05 7.48186E-07 5.17920E-19 1.22342E-18
 -1       385 9.26219E-05-2.75415E-05-2.78822E-05-1.81611E-07 9.56225E-20 1.11787E-18
 -1       386 9.24823E-05-2.76344E-05-2.77880E-05-6.59627E-07-9.94904E-20 9.22009E-19
 -1       387 9.25879E-05-2.77447E-05-2.77884E-05-8.79271E-07-4.75779E-20 5.39555E-19
 -1       388 9.28269E-05-2.78618E-05-2.78418E-05-9.46205E-07 3.49232E-19 5.25690E-19
 -1       389 9.31277E-05-2.79770E-05-2.79220E-05-9.24003E-07 8.01729E-19 5.56758E-19
 -1       390 9.34459E-05-2.80840E-05-2.80128E-05-8.52918E-07 4.97396E-20 7.44644E-19
 -1       391 9.37548E-05-2.81797E-05-2.81043E-05-7.59117E-07 3.43491E-19 2.82768E-19
 -1       392 9.40403E-05-2.82628E-05-2.81911E-05-6.59721E-07 9.50478E-19 1.70447E-19
 -1       393 9.42967E-05-2.83337E-05-2.82706E-05-5.65779E-07 9.04714E-19 7.51356E-20
 -1       394 9.45236E-05-2.83937E-05-2.83420E-05-4.84146E-07 3.34364E-19-2.50704E-19
 -1       395 9.47243E-05-2.84449E-05-2.84059E-05-4.18683E-07 2.34840E-19-6.77781E-19
 -1       396 9.49039E-05-2.84898E-05-2.84635E-05-3.70954E-07 4.38486E-19-9.25628E-19
 -1       397 9.50686E-05-2.85309E-05-2.85164E-05-3.40502E-07 5.26017E-19-6.90419E-19
 -1       398 9.52242E-05-2.85712E-05-2.85658E-05-3.24706E-07 1.08525E-20-3.87585E-20
 -1       399 9.53755E-05-2.86134E-05-2.86125E-05-3.18238E-07-7.81767E-19-1.09415E-18
 -1       400 9.55245E-05-2.86603E-05-2.86564E-05-3.12135E-07 1.46704E-19-1.37174E-18
 -1       401 9.56690E-05-2.87137E-05-2.86956E-05-2.92562E-07 5.14919E-20-1.19367E-18
 -1       402 9.58003E-05-2.87745E-05-2.87263E-05-2.39540E-07 1.20600E-18-1.15989E-18
 -1       403 9.59011E-05-2.88411E-05-2.87415E-05-1.26108E-07 3.93706E-20-9.32701E-19
 -1       404 9.59419E-05-2.89076E-05-2.87314E-05 8.11714E-08-1.83541E-18 5.29575E-19
 -1       405 9.58797E-05-2.89617E-05-2.86825E-05 4.19049E-07-1.48160E-18 1.03573E-18
 -1       406 9.56560E-05-2.89814E-05-2.85793E-05 9.20128E-07-8.89063E-19 1.83643E-18
 -1       407 9.52002E-05-2.89329E-05-2.84055E-05 1.59969E-06-4.99055E-19 2.03081E-18
 -1       408 9.44372E-05-2.87707E-05-2.81483E-05 2.43692E-06 1.95299E-19 1.76069E-18
 -1       409 9.33049E-05-2.84429E-05-2.78030E-05 3.35382E-06 3.15620E-19 1.95329E-18
 -1       410 9.17812E-05-2.79060E-05-2.73785E-05 4.20101E-06-4.62112E-19 2.65697E-18
 -1       411 8.99186E-05-2.71506E-05-2.69014E-05 4.76492E-06-7.54615E-19 2.48575E-18
 -1       412 8.78736E-05-2.62298E-05-2.64161E-05 4.81037E-06 1.22788E-18 1.92177E-18
 -1       413 8.59117E-05-2.52763E-05-2.59802E-05 4.16073E-06-2.27314E-19 1.90821E-18
 -1       414 8.43666E-05-2.44855E-05-2.56538E-05 2.79205E-06 6.78798E-19 2.83170E-18
 -1       415 8.35482E-05-2.40550E-05-2.54856E-05 8.89958E-07 1.54124E-18 2.69578E-18
 -1       416 8.36328E-05-2.41026E-05-2.55012E-05-1.18051E-06 1.06807E-18 2.71123E-18
 -1       417 8.45943E-05-2.46132E-05-2.56961E-05-2.99365E-06-4.19158E-19 1.88111E-18
 -1       418 8.62131E-05-2.54444E-05-2.60367E-05-4.21321E-06-7.39225E-19 2.23294E-19
 -1       419 8.81605E-05-2.63907E-05-2.64697E-05-4.69751E-06-8.04169E-19 6.27555E-19
 -1       420 9.01100E-05-2.72643E-05-2.69346E-05-4.51056E-06 1.00448E-18 1.69736E-18
 -1       421 9.18197E-05-2.79483E-05-2.73771E-05-3.85298E-06 9.42083E-19 2.06187E-18
 -1       422 9.31616E-05-2.84049E-05-2.77582E-05-2.96732E-06-3.64690E-19 3.20005E-18
 -1       423 9.41097E-05-2.86544E-05-2.80580E-05-2.06415E-06 9.40154E-19 3.29175E-18
 -1       424 9.47072E-05-2.87469E-05-2.82739E-05-1.28593E-06 4.05697E-19 3.12120E-18
 -1       425 9.50327E-05-2.87388E-05-2.84157E-05-7.03640E-07-6.35182E-19 3.21829E-18
 -1       426 9.51725E-05-2.86797E-05-2.84996E-05-3.31382E-07 7.78702E-19 4.14760E-18
 -1       427 9.52155E-05-2.86206E-05-2.85421E-05-1.39291E-07-7.81461E-19 4.34015E-18
 -1       428 9.52312E-05-2.86045E-05-2.85543E-05-8.23304E-08-3.68880E-20 4.63640E-18
 -1       429 9.55860E-05-2.87391E-05-2.86465E-05 4.39450E-07 2.58924E-19 4.05176E-19
 -1       430 9.54519E-05-2.87428E-05-2.85890E-05 7.55024E-08 1.09421E-18 2.24274E-18
 -1       431 9.53181E-05-2.86698E-05-2.85635E-05-6.30808E-08-3.15321E-19 1.48888E-18
 -1       432 9.56209E-05-2.85698E-05-2.87335E-05 9.65666E-07 5.52485E-19-2.80453E-18
 -1       433 9.54974E-05-2.81693E-05-2.88526E-05 1.56731E-06 1.63641E-18 2.49753E-18
 -1       434 9.51794E-05-2.75200E-05-2.89958E-05 2.07798E-06 2.53117E-18 2.82070E-18
 -1       435 9.46768E-05-2.66651E-05-2.91487E-05 2.31065E-06 1.00105E-18 2.66190E-18
 -1       436 9.40600E-05-2.57219E-05-2.92907E-05 2.09912E-06 1.85259E-18-3.37759E-21
 -1       437 9.34666E-05-2.48776E-05-2.94001E-05 1.36186E-06 1.07672E-18-2.89005E-18
 -1       438 9.30816E-05-2.43567E-05-2.94592E-05 1.90957E-07 1.25126E-18-3.51810E-18
 -1       439 9.30659E-05-2.43304E-05-2.94636E-05-1.21089E-06 3.59437E-18 3.46802E-19
 -1       440 9.35365E-05-2.49031E-05-2.94184E-05-2.43267E-06 1.32612E-18-3.69141E-18
 -1       441 9.44387E-05-2.59943E-05-2.93337E-05-3.04035E-06-5.73121E-19-3.35990E-18
 -1       442 1.04249E-04-5.36182E-05-2.16537E-05 4.88910E-05-3.74812E-19-1.06962E-18
 -1       443 9.28969E-06-2.23351E-05 5.38716E-06 1.23036E-05 5.06049E-19 2.82062E-19
 -1       444 1.24970E-04-6.72018E-05-2.54530E-05-2.91239E-05-6.03511E-20-2.41272E-18
 -1       445 1.55940E-05-2.79223E-05 4.87488E-06-1.23447E-05-1.36213E-19-1.48093E-18
 -1       446 8.93677E-05-1.19011E-05-3.32662E-05-1.06461E-05-5.82451E-19-1.61196E-18
 -1       447 1.45834E-04-5.06473E-05-4.07570E-05 2.81646E-05-1.28876E-18-2.13516E-18
 -1       448 1.61465E-04-3.94123E-05-5.22473E-05 1.53569E-05-1.19833E-18-1.66876E-18
 -1       449 1.70827E-04-2.26786E-05-6.32640E-05 4.10074E-06-1.29702E-18-1.61264E-18
 -1       450 1.69305E-04-1.21043E-05-6.72669E-05-5.81350E-08 5.34901E-19-1.88679E-18
 -1       451 1.66277E-04-1.30200E-05-6.56890E-05 4.72760E-07 2.46148E-18-8.97061E-19
 -1       452 1.69547E-04-2.82312E-05-6.03205E-05-8.18453E-06 2.78875E-18-1.00056E-18
 -1       453 1.55873E-04-4.44171E-05-4.76633E-05-2.21211E-05 2.16181E-18-2.71093E-18
 -1       454 1.30826E-04-5.37886E-05-3.29877E-05-3.88043E-05 8.50209E-19-2.30732E-18
 -1       455 8.93965E-05-4.84189E-05-1.76721E-05-5.15667E-05 7.30354E-19-2.95794E-18
 -1       456 4.95715E-05-3.82206E-05-5.06403E-06-4.88776E-05 1.48284E-18-5.94405E-19
 -1       457 1.93641E-05-2.39408E-05 2.03586E-06-3.19837E-05-6.32628E-20-2.26264E-18
 -1       458 1.00399E-05-1.90889E-05 3.97778E-06-2.28150E-06-2.01600E-18-3.22105E-18
 -1       459 2.38194E-05-3.07906E-05 2.60903E-06 2.08809E-05-1.93822E-18-3.12153E-18
 -1       460 6.85093E-05-4.56555E-05-9.90853E-06 3.88857E-05-1.37696E-18-3.45166E-18
 -1       461 1.15379E-04-6.48407E-05-2.21514E-05 3.26760E-05-1.23095E-18-4.75048E-18
 -1       462 1.63686E-04-7.50324E-05-3.82407E-05 6.10848E-06-3.35531E-19-4.10207E-18
 -1       463 1.87423E-04-6.37306E-05-5.31015E-05-2.34256E-05 5.69577E-19-5.60164E-18
 -1       464 4.32585E-05-3.86512E-05-2.42091E-06-3.20481E-05 1.56511E-18-3.49645E-18
 -1       465 3.17113E-05-2.89863E-05-1.05398E-06 4.20084E-05-1.95898E-18 1.67289E-20
 -1       466 1.31465E-04-5.96376E-05-3.07726E-05 3.35374E-05-4.62374E-19-2.36973E-18
 -1       467 8.95388E-05-1.33999E-05-3.26501E-05-3.92295E-06 1.90094E-19-1.13945E-18
 -1       468 9.02480E-05-1.43654E-05-3.25424E-05-5.88426E-06-9.72125E-20-1.31125E-18
 -1       469 8.90387E-05-1.27181E-05-3.27266E-05 5.28997E-08 5.85968E-19-1.10104E-18
 -1       470 8.91740E-05-1.29014E-05-3.27063E-05 2.04309E-06 7.49456E-19-1.10325E-18
 -1       471 8.95691E-05-1.34390E-05-3.26464E-05 3.99472E-06 8.95701E-19-9.86483E-19
 -1       472 9.02938E-05-1.44263E-05-3.25358E-05 5.94699E-06 1.13757E-18-7.31645E-19
 -1       473 9.14462E-05-1.60100E-05-3.23536E-05 7.77409E-06 1.12062E-18-3.49800E-19
 -1       474 9.31515E-05-1.84302E-05-3.20472E-05 9.20678E-06 1.21679E-18 2.88272E-20
 -1       475 9.53471E-05-2.19476E-05-3.14696E-05 9.48928E-06 1.11250E-18 5.52876E-19
 -1       476 9.63707E-05-2.46458E-05-3.07247E-05 8.00100E-06 1.04165E-18 1.05802E-18
 -1       477 3.98940E-05-1.96951E-05-8.01698E-06-2.80914E-05 1.83097E-18-3.67485E-18
 -1       478 9.54658E-05-2.43059E-05-3.04876E-05-5.97403E-06-7.43963E-19-1.26937E-18
 -1       479 9.52836E-05-2.61489E-05-2.96207E-05-3.00732E-06-5.54132E-19-1.16304E-18
 -1       480 9.49382E-05-2.71267E-05-2.90585E-05-1.09583E-06-4.38612E-19-1.11152E-18
 -1       481 9.46580E-05-2.76723E-05-2.87066E-05 5.85152E-08-4.47515E-19-1.15545E-18
 -1       482 9.44973E-05-2.80060E-05-2.84957E-05 7.15087E-07-2.80261E-19-1.14308E-18
 -1       483 9.44396E-05-2.82219E-05-2.83789E-05 1.04827E-06-4.20471E-19-6.99812E-19
 -1       484 9.44549E-05-2.83654E-05-2.83242E-05 1.17543E-06-3.28362E-19-3.20889E-19
 -1       485 9.45156E-05-2.84610E-05-2.83094E-05 1.17614E-06-2.41340E-19-2.45382E-19
 -1       486 9.46013E-05-2.85233E-05-2.83195E-05 1.10466E-06-4.52214E-19-7.57751E-19
 -1       487 9.46978E-05-2.85616E-05-2.83444E-05 9.98058E-07-4.63321E-19-8.53421E-19
 -1       488 9.47962E-05-2.85820E-05-2.83778E-05 8.81818E-07-1.45136E-19-1.14889E-18
 -1       489 9.48875E-05-2.85891E-05-2.84138E-05 7.78306E-07 2.71371E-19-1.23135E-18
 -1       490 9.49796E-05-2.85862E-05-2.84545E-05 6.88955E-07 3.71514E-20-3.70191E-19
 -1       491 9.50675E-05-2.85736E-05-2.84975E-05 6.29485E-07 2.31380E-19-2.27863E-19
 -1       492 9.51526E-05-2.85508E-05-2.85436E-05 6.09092E-07-5.10108E-20-6.05237E-19
 -1       493 9.52368E-05-2.85152E-05-2.85948E-05 6.38174E-07 5.82585E-19-7.97169E-19
 -1       494 9.53210E-05-2.84607E-05-2.86541E-05 7.30391E-07 2.92371E-19-5.24085E-19
 -1       495 9.54043E-05-2.83769E-05-2.87254E-05 9.05159E-07-5.11902E-19-1.02474E-18
 -1       496 9.54808E-05-2.82461E-05-2.88139E-05 1.19078E-06-1.33421E-19-9.07817E-19
 -1       497 9.55361E-05-2.80397E-05-2.89255E-05 1.62840E-06-1.43394E-19-1.51015E-18
 -1       498 9.55393E-05-2.77126E-05-2.90662E-05 2.27677E-06-1.14789E-19-1.37020E-18
 -1       499 9.54316E-05-2.71964E-05-2.92399E-05 3.21739E-06-6.14749E-19-1.27090E-18
 -1       500 9.51081E-05-2.63916E-05-2.94443E-05 4.55834E-06-7.29593E-19-1.21853E-19
 -1       501 9.43928E-05-2.51666E-05-2.96603E-05 6.43375E-06-6.32098E-19-2.65823E-19
 -1       502 9.30131E-05-2.33789E-05-2.98322E-05 8.99446E-06-1.13386E-18-1.01978E-18
 -1       503 9.05945E-05-2.09624E-05-2.98258E-05 1.23823E-05-3.06860E-19-2.21790E-18
 -1       504 8.70073E-05-1.83000E-05-2.94199E-05 1.64991E-05 2.07487E-19-2.37871E-18
 -1       505 8.19144E-05-1.61981E-05-2.80856E-05 2.18744E-05 5.31859E-19-1.07966E-18
 -1       506 7.65768E-05-1.77209E-05-2.49795E-05 2.86054E-05-6.71049E-19-8.15441E-19
 -1       507 7.47441E-05-2.78686E-05-1.96153E-05 3.58706E-05-1.09754E-18-2.32807E-18
 -1       508 2.19738E-05-9.93709E-06-4.43058E-06-6.69155E-06 2.03662E-18-2.25035E-18
 -1       509 9.53075E-05-2.64148E-05-2.95016E-05 3.98979E-06 8.88500E-19 9.10177E-19
 -1       510 8.56069E-05-2.60554E-05-2.51511E-05-3.35037E-05 1.93551E-18-2.84513E-18
 -1       511 8.45673E-05-1.88565E-05-2.80437E-05-2.66066E-05 1.44211E-18-1.62940E-18
 -1       512 8.81988E-05-1.89968E-05-2.96204E-05-2.05248E-05-9.61461E-20-2.05892E-18
 -1       513 9.13728E-05-2.11089E-05-3.00921E-05-1.54081E-05 1.43910E-18-3.94234E-18
 -1       514 9.34603E-05-2.33085E-05-3.00497E-05-1.13507E-05 4.04066E-19-4.02025E-18
 -1       515 9.45992E-05-2.49848E-05-2.98228E-05-8.24412E-06-4.36859E-20-2.17988E-18
 -1       516 9.50625E-05-2.60298E-05-2.95756E-05-5.90578E-06 6.70761E-19-2.84393E-18
 -1       517 9.46361E-05-2.60588E-05-2.93848E-05-4.35127E-06 3.46738E-19-2.81509E-18
 -1       518 9.45284E-05-2.72976E-05-2.88080E-05 9.86830E-07 4.50822E-19 5.36225E-19
 -1       519 9.47869E-05-2.69206E-05-2.90721E-05 2.23083E-06 7.27042E-19 6.98959E-19
 -1       520 9.39757E-05-2.79330E-05-2.83028E-05-7.41364E-07 1.96895E-19 6.39734E-20
 -1       521 9.39484E-05-2.81046E-05-2.82185E-05-1.04236E-06 9.47405E-20-2.73686E-19
 -1       522 9.40150E-05-2.82305E-05-2.81935E-05-1.14964E-06 4.24391E-19-2.33285E-19
 -1       523 9.41352E-05-2.83249E-05-2.82048E-05-1.14001E-06 4.00040E-19 2.30116E-19
 -1       524 9.42807E-05-2.83958E-05-2.82369E-05-1.06454E-06 6.11421E-19 4.16669E-21
 -1       525 9.44331E-05-2.84484E-05-2.82797E-05-9.57520E-07 7.70137E-19-5.55397E-19
 -1       526 9.45816E-05-2.84864E-05-2.83270E-05-8.41795E-07 5.00807E-19-2.21295E-19
 -1       527 9.47207E-05-2.85135E-05-2.83750E-05-7.32275E-07 5.02132E-19 2.63276E-19
 -1       528 9.48488E-05-2.85326E-05-2.84216E-05-6.38236E-07 3.26778E-19 2.06233E-19
 -1       529 9.49668E-05-2.85467E-05-2.84660E-05-5.64801E-07 4.84029E-19 3.94186E-19
 -1       530 9.50774E-05-2.85590E-05-2.85081E-05-5.13763E-07 4.32065E-19 4.33930E-20
 -1       531 9.51844E-05-2.85733E-05-2.85477E-05-4.83818E-07 9.24391E-20 4.34159E-19
 -1       532 9.52919E-05-2.85940E-05-2.85849E-05-4.70239E-07-4.67253E-19 2.65916E-19
 -1       533 9.54045E-05-2.86268E-05-2.86191E-05-4.64001E-07-3.79227E-19 9.00708E-19
 -1       534 9.55259E-05-2.86786E-05-2.86490E-05-4.50431E-07 1.26171E-19 9.95657E-19
 -1       535 9.56588E-05-2.87575E-05-2.86723E-05-4.07570E-07 6.59451E-19 1.90067E-19
 -1       536 9.58030E-05-2.88721E-05-2.86854E-05-3.04655E-07 2.28685E-19 1.34123E-18
 -1       537 9.59537E-05-2.90290E-05-2.86832E-05-1.01550E-07-1.31757E-18 1.43362E-18
 -1       538 9.60981E-05-2.92289E-05-2.86600E-05 2.49542E-07-1.40940E-18 2.99448E-19
 -1       539 9.62106E-05-2.94601E-05-2.86098E-05 7.98134E-07-1.45393E-18 2.91526E-19
 -1       540 9.62478E-05-2.96897E-05-2.85280E-05 1.58295E-06-1.06348E-18-2.40764E-19
 -1       541 9.61447E-05-2.98557E-05-2.84132E-05 2.61115E-06-3.67678E-19 9.98064E-20
 -1       542 9.58150E-05-2.98627E-05-2.82688E-05 3.82994E-06-1.76330E-19 5.67191E-19
 -1       543 9.51652E-05-2.95942E-05-2.81046E-05 5.09646E-06-7.54618E-19 1.77261E-18
 -1       544 9.41281E-05-2.89469E-05-2.79360E-05 6.16201E-06-2.25627E-19 1.81676E-18
 -1       545 9.27159E-05-2.78924E-05-2.77805E-05 6.69548E-06 6.04468E-19 8.44261E-19
 -1       546 9.10740E-05-2.65418E-05-2.76531E-05 6.36616E-06-1.88333E-19 1.63076E-18
 -1       547 8.94991E-05-2.51741E-05-2.75620E-05 4.98325E-06 3.50367E-19 2.73043E-18
 -1       548 8.83732E-05-2.41709E-05-2.75080E-05 2.63823E-06 9.45750E-19 3.20570E-18
 -1       549 8.80161E-05-2.38590E-05-2.74881E-05-2.50859E-07 6.26445E-19 3.94669E-18
 -1       550 8.85303E-05-2.43443E-05-2.75014E-05-3.06130E-06 1.37852E-18 3.92136E-18
 -1       551 8.97533E-05-2.54602E-05-2.75489E-05-5.19960E-06 1.37388E-18 3.47294E-18
 -1       552 9.13347E-05-2.68496E-05-2.76335E-05-6.31781E-06-1.27729E-18 3.30977E-18
 -1       553 9.28985E-05-2.81401E-05-2.77534E-05-6.40119E-06-1.01118E-18 3.02135E-18
 -1       554 9.41792E-05-2.90874E-05-2.78986E-05-5.69060E-06 1.12604E-18 3.45855E-18
 -1       555 9.50641E-05-2.96140E-05-2.80535E-05-4.53398E-06 6.27992E-19 3.23166E-18
 -1       556 9.55646E-05-2.97696E-05-2.82019E-05-3.25791E-06 1.03169E-18 2.26637E-18
 -1       557 9.57612E-05-2.96658E-05-2.83303E-05-2.09767E-06 4.31759E-19 3.34043E-18
 -1       558 9.57512E-05-2.94183E-05-2.84315E-05-1.18319E-06-5.06243E-19 4.06348E-18
 -1       559 9.56261E-05-2.91251E-05-2.85031E-05-5.62780E-07-2.13413E-22 4.00624E-18
 -1       560 9.54602E-05-2.88547E-05-2.85466E-05-2.09323E-07-1.05834E-19 4.93729E-18
 -1       561 9.62595E-05-2.91458E-05-2.87614E-05 1.64439E-06 2.61928E-18 6.13608E-19
 -1       562 9.60127E-05-2.87153E-05-2.88409E-05 2.49221E-06 1.29437E-18 3.59012E-18
 -1       563 9.59116E-05-2.91455E-05-2.86128E-05 1.97263E-07 4.95995E-19 1.13904E-18
 -1       564 9.61894E-05-2.92581E-05-2.86832E-05 8.23404E-07 9.90802E-20-9.51609E-19
 -1       565 9.53976E-05-2.79317E-05-2.89139E-05 3.12560E-06-2.36727E-20 1.65120E-18
 -1       566 9.44517E-05-2.68445E-05-2.89754E-05 3.28553E-06-3.16029E-19 9.18684E-19
 -1       567 9.33394E-05-2.56161E-05-2.90260E-05 2.75856E-06-8.81579E-19-7.79023E-19
 -1       568 9.23671E-05-2.45363E-05-2.90728E-05 1.51380E-06 3.04455E-19-3.75818E-18
 -1       569 9.18476E-05-2.38842E-05-2.91292E-05-3.22373E-07 1.79125E-18-2.72890E-19
 -1       570 9.21242E-05-2.39733E-05-2.92105E-05-2.33131E-06 7.77968E-20-4.31873E-18
 -1       571 9.31239E-05-2.47556E-05-2.93028E-05-3.73068E-06-8.01745E-19-5.12087E-18
 -1       572 9.48171E-05-4.87147E-05-1.93831E-05 4.84746E-05-7.12355E-19-8.21410E-19
 -1       573 1.39494E-04-3.79347E-06-5.88259E-05 1.09278E-06 1.12846E-18-3.57696E-19
 -1       574 6.49415E-05-3.40309E-05-1.26535E-05 4.99150E-05-8.12093E-20-1.07520E-19
 -1       575 9.41499E-05-2.76862E-05-2.84813E-05-1.28133E-07 1.58215E-19 3.42640E-19
 -1       576 9.99994E-05-4.63165E-05-2.25114E-05-3.65942E-05 8.01876E-19-4.48186E-18
 -1       577 9.45562E-05-2.06373E-05-3.16982E-05-9.52672E-06-8.12202E-19-1.35865E-18
 -1       578 7.96136E-05-4.13355E-05-1.58762E-05-3.94414E-05 9.02196E-19-1.83451E-18
 -1       579 8.91534E-05-1.28761E-05-3.27084E-05-1.93696E-06 4.80520E-19-1.09403E-18
 -1       580 1.50379E-04-4.97188E-05-4.34738E-05 6.86917E-06-1.06647E-18-5.95729E-19
 -1       581 1.52509E-04-3.02752E-05-5.28242E-05-5.06022E-06-3.18273E-19-9.29672E-19
 -1       582 1.44947E-04-1.78628E-05-5.50837E-05 9.32370E-06 2.36428E-18-1.19066E-18
 -1       583 1.51139E-04-3.86565E-05-4.86467E-05 3.16584E-06 2.62771E-18-5.06155E-19
 -1       584 1.45719E-04-5.68201E-05-3.82636E-05-1.45528E-05 2.06233E-19-1.42826E-18
 -1       585 1.19028E-04-5.85894E-05-2.58329E-05-4.11411E-05 1.69301E-19-1.80782E-18
 -1       586 8.61079E-05-4.63988E-05-1.66365E-05-5.19104E-05-4.16634E-20-2.93889E-18
 -1       587 4.54840E-05-2.57960E-05-7.88293E-06-4.55524E-05-8.69215E-19-1.10739E-18
 -1       588 2.30836E-05-8.17469E-06-5.60582E-06-1.71728E-05-2.19207E-18-3.00231E-18
 -1       589 2.75511E-05-1.34805E-05-5.31891E-06 1.64956E-05-1.75153E-18-3.95183E-18
 -1       590 1.08341E-04-5.27652E-05-2.33805E-05 3.50442E-05-7.09284E-19-3.06020E-18
 -1       591 1.45848E-04-1.17557E-05-5.80763E-05-7.25310E-06-5.98958E-19-5.02979E-19
 -1       592 2.66483E-05-1.21503E-05-5.53123E-06 2.73418E-05 8.59394E-19 2.97097E-19
 -1       593 9.13620E-05-1.59026E-05-3.23627E-05-7.70254E-06-3.34903E-19-1.42950E-18
 -1       594 1.41615E-04-5.93614E-05-3.53032E-05 1.67835E-05-5.16770E-19-7.42768E-19
 -1       595 1.17696E-04-5.74844E-05-2.57485E-05 3.73224E-05-5.11211E-19-3.44431E-18
 -1       596 9.27562E-05-1.78892E-05-3.21070E-05-8.92678E-06-5.69141E-19-1.45264E-18
 -1       597 5.32581E-05-2.43252E-05-1.18058E-05 3.38145E-05-2.37725E-18-3.06197E-18
 -1       598 9.15489E-05-1.68453E-05-3.20215E-05 2.43678E-06 8.20585E-19-9.55824E-19
 -1       599 9.12899E-05-1.64429E-05-3.20826E-05 8.38854E-07 6.11349E-19-1.08615E-18
 -1       600 9.28870E-05-1.89942E-05-3.16745E-05 5.25920E-06 1.04326E-18-5.78451E-19
 -1       601 9.39792E-05-2.08975E-05-3.13246E-05 6.16989E-06 1.05258E-18-1.53428E-19
 -1       602 9.51174E-05-2.33490E-05-3.07574E-05 6.24286E-06 9.59218E-19 1.47180E-19
 -1       603 9.55186E-05-2.50579E-05-3.01768E-05 5.29821E-06 9.69050E-19 5.33597E-19
 -1       604 9.20365E-05-1.76182E-05-3.18995E-05-3.89738E-06 1.43985E-19-1.02109E-18
 -1       605 9.54004E-05-2.56111E-05-2.99079E-05-2.52680E-06-3.96715E-19-9.85039E-19
 -1       606 9.54774E-05-2.68956E-05-2.93916E-05-9.21960E-07-4.25645E-19-9.22125E-19
 -1       607 9.54249E-05-2.76734E-05-2.90362E-05 1.06900E-07-2.25412E-19-7.23287E-19
 -1       608 9.53491E-05-2.81557E-05-2.87972E-05 7.14789E-07-1.51942E-19-3.26980E-19
 -1       609 9.52844E-05-2.84526E-05-2.86422E-05 1.03190E-06-1.43718E-19-3.32198E-19
 -1       610 9.52391E-05-2.86293E-05-2.85471E-05 1.15665E-06-1.84192E-19-8.51379E-20
 -1       611 9.52121E-05-2.87262E-05-2.84940E-05 1.16081E-06-7.33502E-19-3.44359E-20
 -1       612 9.51993E-05-2.87696E-05-2.84700E-05 1.09573E-06-6.36082E-19 1.74736E-19
 -1       613 9.51965E-05-2.87765E-05-2.84658E-05 9.97736E-07-5.36995E-19-3.52201E-19
 -1       614 9.52003E-05-2.87601E-05-2.84745E-05 8.97224E-07-2.09465E-19-2.06764E-19
 -1       615 9.52084E-05-2.87251E-05-2.84929E-05 8.01097E-07 3.12965E-19-4.59010E-19
 -1       616 9.52179E-05-2.86752E-05-2.85183E-05 7.27999E-07 4.09738E-19-7.11676E-19
 -1       617 9.52263E-05-2.86105E-05-2.85496E-05 6.88528E-07 9.50052E-20-3.23157E-19
 -1       618 9.52296E-05-2.85274E-05-2.85866E-05 6.92518E-07-4.85314E-19-7.30312E-19
 -1       619 9.52212E-05-2.84176E-05-2.86300E-05 7.50654E-07 2.26052E-20-1.23994E-18
 -1       620 9.51897E-05-2.82670E-05-2.86810E-05 8.76068E-07-5.62716E-19-1.75780E-18
 -1       621 9.51158E-05-2.80527E-05-2.87411E-05 1.08586E-06-1.07098E-19-2.03181E-18
 -1       622 9.49661E-05-2.77391E-05-2.88113E-05 1.40240E-06 9.63166E-20-9.92562E-19
 -1       623 9.46852E-05-2.72726E-05-2.88906E-05 1.85409E-06 2.11480E-20-1.42052E-18
 -1       624 9.41822E-05-2.65747E-05-2.89738E-05 2.47462E-06-4.54603E-19-1.64526E-18
 -1       625 9.33116E-05-2.55344E-05-2.90462E-05 3.29922E-06 7.24919E-20-9.02096E-19
 -1       626 9.18478E-05-2.40047E-05-2.90740E-05 4.35590E-06-7.47187E-19-6.63191E-19
 -1       627 8.94527E-05-2.18120E-05-2.89868E-05 5.65119E-06-8.01341E-19-7.29673E-19
 -1       628 8.56426E-05-1.87990E-05-2.86426E-05 7.14678E-06-8.82929E-19-3.16953E-19
 -1       629 8.01424E-05-1.51442E-05-2.78457E-05 8.71316E-06-1.37784E-19 7.46667E-20
 -1       630 7.17170E-05-1.08285E-05-2.60470E-05 1.05130E-05 5.62800E-19-3.58832E-19
 -1       631 5.98306E-05-7.38285E-06-2.23178E-05 1.27503E-05-7.99748E-19-2.14009E-18
 -1       632 9.49254E-05-2.83642E-05-2.85262E-05-1.06471E-06 3.19906E-19-5.40987E-19
 -1       633 7.84915E-05-1.41226E-05-2.75625E-05-1.22512E-05-1.31620E-18-2.18124E-18
 -1       634 8.48756E-05-1.80154E-05-2.86485E-05-9.81646E-06 3.27442E-19-2.37608E-18
 -1       635 8.90757E-05-2.11719E-05-2.90989E-05-7.73519E-06 1.73570E-19-3.69637E-18
 -1       636 9.16705E-05-2.33958E-05-2.92579E-05-5.98128E-06 8.07868E-19-4.54208E-18
 -1       637 9.24986E-05-2.42036E-05-2.92647E-05-4.74760E-06-4.51851E-19-4.55926E-18
 -1       638 9.49056E-05-2.85203E-05-2.84509E-05-1.18339E-06 1.50363E-19-4.56660E-19
 -1       639 9.49866E-05-2.81112E-05-2.86606E-05-7.51836E-07 3.11871E-19-5.10277E-19
 -1       640 9.49151E-05-2.86123E-05-2.84156E-05-1.18144E-06 5.17980E-19-3.43966E-19
 -1       641 9.49428E-05-2.86610E-05-2.84066E-05-1.11062E-06 9.07344E-19 1.30897E-19
 -1       642 9.49805E-05-2.86803E-05-2.84146E-05-1.00674E-06 3.85387E-19 1.50509E-19
 -1       643 9.50228E-05-2.86798E-05-2.84329E-05-8.94067E-07 4.07637E-19 3.71320E-19
 -1       644 9.50666E-05-2.86667E-05-2.84572E-05-7.88640E-07 2.20781E-19 3.34640E-19
 -1       645 9.51108E-05-2.86467E-05-2.84847E-05-7.00479E-07 1.85737E-19 7.03234E-19
 -1       646 9.51558E-05-2.86247E-05-2.85134E-05-6.35052E-07 4.50561E-19 9.47627E-19
 -1       647 9.52038E-05-2.86056E-05-2.85421E-05-5.94062E-07 1.78534E-20 1.10707E-18
 -1       648 9.52585E-05-2.85958E-05-2.85698E-05-5.75594E-07-2.65217E-20 9.95024E-19
 -1       649 9.53256E-05-2.86033E-05-2.85953E-05-5.73619E-07-4.00316E-19 2.59724E-19
 -1       650 9.54130E-05-2.86391E-05-2.86174E-05-5.76897E-07-1.77922E-19 1.95776E-19
 -1       651 9.55313E-05-2.87176E-05-2.86346E-05-5.67327E-07 2.58054E-19-1.30344E-19
 -1       652 9.56939E-05-2.88566E-05-2.86447E-05-5.17941E-07-2.05920E-19 5.54843E-19
 -1       653 9.59153E-05-2.90755E-05-2.86460E-05-3.91001E-07-2.01866E-19 1.10383E-18
 -1       654 9.62092E-05-2.93909E-05-2.86369E-05-1.37120E-07-9.93464E-19 1.30325E-18
 -1       655 9.65817E-05-2.98083E-05-2.86179E-05 3.02949E-07-1.12632E-18 9.25707E-19
 -1       656 9.70218E-05-3.03090E-05-2.85923E-05 9.91226E-07-1.26462E-18 3.48053E-19
 -1       657 9.74871E-05-3.08321E-05-2.85677E-05 1.97660E-06-1.66693E-19-3.53623E-19
 -1       658 9.78894E-05-3.12585E-05-2.85575E-05 3.26696E-06-8.39609E-19 4.70758E-19
 -1       659 9.80871E-05-3.14049E-05-2.85792E-05 4.78864E-06-8.84891E-19 1.09311E-18
 -1       660 9.79019E-05-3.10501E-05-2.86511E-05 6.33905E-06-4.49293E-19 5.98346E-19
 -1       661 9.71804E-05-3.00150E-05-2.87847E-05 7.56056E-06 3.90367E-19 7.68498E-19
 -1       662 9.58950E-05-2.82864E-05-2.89740E-05 7.98217E-06 3.62233E-19 1.31614E-18
 -1       663 9.42493E-05-2.61397E-05-2.91879E-05 7.15806E-06-4.41140E-19 1.83437E-19
 -1       664 9.27007E-05-2.41577E-05-2.93733E-05 4.91422E-06-3.20425E-19 7.33561E-19
 -1       665 9.18063E-05-2.30296E-05-2.94735E-05 1.54698E-06 7.72454E-19 2.05839E-18
 -1       666 9.19197E-05-2.31876E-05-2.94555E-05-2.16980E-06 8.06940E-19 1.92970E-18
 -1       667 9.29900E-05-2.45705E-05-2.93211E-05-5.32388E-06 1.25647E-18 2.73311E-18
 -1       668 9.45944E-05-2.66599E-05-2.91129E-05-7.23306E-06-1.48910E-19 4.27531E-18
 -1       669 9.61692E-05-2.87527E-05-2.88918E-05-7.71573E-06-1.00751E-18 3.49037E-18
 -1       670 9.73084E-05-3.03282E-05-2.87059E-05-7.03808E-06 5.53950E-19 2.57721E-18
 -1       671 9.78638E-05-3.11786E-05-2.85803E-05-5.67374E-06 1.88860E-18 2.98153E-18
 -1       672 9.78992E-05-3.13622E-05-2.85172E-05-4.08566E-06 1.77507E-18 2.90260E-18
 -1       673 9.75785E-05-3.10731E-05-2.85036E-05-2.60914E-06-3.05427E-19 3.08467E-18
 -1       674 9.70794E-05-3.05348E-05-2.85203E-05-1.42408E-06-9.14479E-19 4.31508E-18
 -1       675 9.65325E-05-2.99168E-05-2.85507E-05-6.00907E-07 2.06247E-19 4.58861E-18
 -1       676 9.62398E-05-2.95373E-05-2.85870E-05-1.07904E-07-6.81368E-19 3.69468E-18
 -1       677 9.54177E-05-2.83252E-05-2.87542E-05 4.38038E-06-8.86722E-19 1.72189E-18
 -1       678 9.71269E-05-3.00367E-05-2.87528E-05 2.46320E-06 1.07578E-18-1.75344E-19
 -1       679 9.37515E-05-2.67387E-05-2.87204E-05 4.42607E-06-1.24451E-18-7.76899E-19
 -1       680 9.65828E-05-2.94540E-05-2.87693E-05 3.60604E-06-9.76088E-19 1.90218E-18
 -1       681 8.37851E-05-3.70884E-05-1.96697E-05 4.27451E-05-1.32408E-18-1.47134E-18
 -1       682 9.19617E-05-2.49984E-05-2.86983E-05 3.48391E-06-1.11013E-18-2.14859E-18
 -1       683 9.05224E-05-2.34938E-05-2.87281E-05 1.49878E-06 9.85873E-19-2.64724E-19
 -1       684 9.00167E-05-2.27302E-05-2.88424E-05-1.15940E-06-1.33079E-18-2.65851E-18
 -1       685 3.50309E-05-3.88989E-06-1.27679E-05 6.26747E-06 3.23618E-18-1.27346E-18
 -1       686 6.20053E-05-1.13538E-05-2.13773E-05-2.32385E-05 2.23221E-18-8.98887E-19
 -1       687 1.32005E-04-5.92061E-05-3.12350E-05-2.17508E-05-6.68547E-19-5.47805E-19
 -1       688 9.45238E-05-2.20471E-05-3.10572E-05-6.26605E-06-6.20304E-19-1.20708E-18
 -1       689 1.25443E-04-8.67308E-06-5.05842E-05 8.66854E-06 2.81713E-18-7.84816E-19
 -1       690 6.93597E-05-1.02867E-05-2.52284E-05-1.51554E-05-1.29441E-19-2.10101E-18
 -1       691 1.34965E-04-2.09202E-05-4.94088E-05-1.25385E-05-1.48231E-19 1.10474E-18
 -1       692 9.51600E-05-2.42032E-05-3.04138E-05-4.20631E-06-5.51217E-19-1.04905E-18
 -1       693 9.20735E-05-1.76722E-05-3.18923E-05 3.94543E-06 9.07345E-19-6.63755E-19
 -1       694 1.24833E-04-6.57862E-06-5.12649E-05-6.13234E-06 9.96428E-19-3.37735E-19
 -1       695 5.28142E-05-1.80238E-05-1.43937E-05 3.60193E-05 1.44361E-18-1.81715E-18
 -1       696 1.33811E-04-2.90428E-05-4.53436E-05 1.31139E-05 1.51614E-18-1.45240E-19
 -1       697 1.40360E-04-4.72245E-05-4.01274E-05 3.82771E-06-8.73503E-21-8.50024E-19
 -1       698 1.05756E-04-5.10380E-05-2.32573E-05-4.13722E-05-1.00389E-18-1.38988E-18
 -1       699 7.35102E-05-3.36152E-05-1.66898E-05-4.58856E-05-1.50002E-18-1.77723E-18
 -1       700 4.55399E-05-1.33643E-05-1.32592E-05-3.15176E-05-2.14450E-18-2.62400E-18
 -1       701 3.76958E-05-4.44269E-06-1.36373E-05 5.53746E-06-1.82126E-18-2.68277E-18
 -1       702 4.10408E-05-9.24591E-06-1.29978E-05-1.84684E-05 2.77914E-18-1.96252E-18
 -1       703 1.42387E-04-3.97414E-05-4.44058E-05-7.49804E-06-1.82562E-19 6.24687E-20
 -1       704 9.28672E-05-1.89475E-05-3.16820E-05-5.22486E-06-1.46245E-19-1.18369E-18
 -1       705 9.12850E-05-1.64360E-05-3.20835E-05-7.86019E-07 4.81935E-19-1.14573E-18
 -1       706 4.89959E-05-7.77784E-06-1.71212E-05 1.81888E-05-1.75255E-18-3.87613E-18
 -1       707 1.40545E-04-5.13281E-05-3.83923E-05 6.53632E-07-6.45942E-19 1.66754E-18
 -1       708 9.50967E-05-2.77055E-05-2.88812E-05-1.41494E-07 4.06361E-19-3.08605E-19
 -1       709 7.11253E-05-2.55980E-05-1.89177E-05-3.49351E-05 1.34604E-18-1.82721E-18
 -1       710 9.52482E-05-2.70586E-05-2.92226E-05 9.14427E-07 4.78832E-19 8.04624E-20
 -1       711 1.02957E-04-4.73003E-05-2.37504E-05 3.73583E-05-2.40342E-18-3.24573E-18
 -1       712 9.53112E-05-2.59597E-05-2.97146E-05 2.66373E-06 6.37725E-19 1.80474E-19
 -1       713 9.67841E-05-2.99076E-05-2.86603E-05 6.02744E-07 1.34560E-18 1.72675E-19
 -1       714 9.09365E-05-2.31591E-05-2.90459E-05-3.22405E-06-8.73223E-19-6.34887E-18
 -1       715 9.70977E-05-3.00926E-05-2.87157E-05 1.45584E-06 2.44952E-18-4.79570E-19
 -1       716 9.15267E-05-1.68149E-05-3.20250E-05-2.37496E-06 3.84767E-19-9.07892E-19
 -1       717 4.57641E-05-5.33271E-06-1.69169E-05-1.10775E-05-1.71115E-18-1.34586E-18
 -1       718 5.25766E-05-4.93531E-06-2.01467E-05 2.85203E-06-1.83108E-18-2.53207E-18
 -1       719 9.51924E-05-2.44334E-05-3.03228E-05 3.96196E-06 7.84935E-19-7.79333E-21
 -1       720 9.46571E-05-2.27441E-05-3.08194E-05 3.90459E-06 8.80165E-19-2.97693E-19
 -1       721 9.55599E-05-2.87571E-05-2.86298E-05-1.11452E-06 1.13602E-19-6.79414E-19
 -1       722 9.58563E-05-2.68244E-05-2.95850E-05-6.23154E-07-1.53595E-19-7.13292E-19
 -1       723 9.59569E-05-2.77324E-05-2.92391E-05 2.00291E-07-6.69287E-20-6.78408E-19
 -1       724 9.59487E-05-2.83052E-05-2.89901E-05 6.95009E-07-5.42585E-20-4.34007E-19
 -1       725 9.58891E-05-2.86526E-05-2.88157E-05 9.54227E-07-1.11880E-19-5.50605E-19
 -1       726 9.58082E-05-2.88476E-05-2.86974E-05 1.05400E-06-1.86229E-19-4.31275E-19
 -1       727 9.57219E-05-2.89396E-05-2.86210E-05 1.05302E-06-4.80115E-19 6.03600E-22
 -1       728 9.56381E-05-2.89622E-05-2.85754E-05 9.94852E-07-7.54111E-19 3.20554E-19
 -1       729 9.55641E-05-2.89405E-05-2.85530E-05 9.15278E-07-1.27595E-19 4.06782E-19
 -1       730 9.54929E-05-2.88864E-05-2.85457E-05 8.27589E-07-4.25660E-20 4.26558E-19
 -1       731 9.54266E-05-2.88084E-05-2.85507E-05 7.51757E-07 4.20897E-19 4.78416E-19
 -1       732 9.53617E-05-2.87101E-05-2.85650E-05 6.99484E-07 3.05745E-19-1.00904E-19
 -1       733 9.52920E-05-2.85895E-05-2.85868E-05 6.79802E-07-7.41106E-19-1.06509E-18
 -1       734 9.52075E-05-2.84395E-05-2.86149E-05 7.00286E-07-3.34405E-19-1.32963E-18
 -1       735 9.50928E-05-2.82465E-05-2.86484E-05 7.67845E-07-4.37213E-19-1.65883E-18
 -1       736 9.49239E-05-2.79884E-05-2.86866E-05 8.88935E-07 3.22180E-21-8.88718E-19
 -1       737 9.46633E-05-2.76321E-05-2.87276E-05 1.06891E-06 3.89269E-19-9.93061E-19
 -1       738 9.42528E-05-2.71288E-05-2.87674E-05 1.30988E-06-2.16511E-19-1.30339E-18
 -1       739 9.36036E-05-2.64100E-05-2.87972E-05 1.60612E-06-3.00070E-20-8.67441E-19
 -1       740 9.25815E-05-2.53825E-05-2.87995E-05 1.93536E-06 4.29651E-20-1.29985E-18
 -1       741 9.09890E-05-2.39276E-05-2.87406E-05 2.24403E-06-5.49365E-19-1.88085E-18
 -1       742 8.85427E-05-2.19079E-05-2.85580E-05 2.42520E-06 2.00236E-20-9.55956E-19
 -1       743 8.48458E-05-1.91936E-05-2.81362E-05 2.28237E-06-6.54516E-19-1.94715E-19
 -1       744 7.96931E-05-1.59069E-05-2.73338E-05 1.59211E-06-1.75831E-19-4.04252E-19
 -1       745 7.19217E-05-1.18308E-05-2.57257E-05-1.11242E-07 7.78112E-20-1.43901E-18
 -1       746 9.56266E-05-2.85768E-05-2.87356E-05-1.01139E-06 6.31212E-20-4.88407E-19
 -1       747 8.33856E-05-1.78990E-05-2.80640E-05-3.96892E-06-1.17740E-18-1.33248E-18
 -1       748 8.77938E-05-2.08766E-05-2.86785E-05-3.83364E-06-1.97688E-18-1.65758E-18
 -1       749 8.96473E-05-2.36630E-05-2.82815E-05 4.36789E-06 7.78852E-19-1.42305E-18
 -1       750 9.56894E-05-2.82614E-05-2.88977E-05-7.37648E-07 4.38305E-19-6.49586E-19
 -1       751 9.54421E-05-2.88755E-05-2.85286E-05-1.04595E-06 6.19439E-19-4.54933E-19
 -1       752 9.53948E-05-2.88649E-05-2.85129E-05-9.52918E-07 6.74052E-20-4.07242E-19
 -1       753 9.53550E-05-2.88293E-05-2.85110E-05-8.54038E-07-1.12890E-19-7.21520E-20
 -1       754 9.53223E-05-2.87793E-05-2.85184E-05-7.64373E-07-5.80707E-20 4.78713E-19
 -1       755 9.52968E-05-2.87230E-05-2.85316E-05-6.93508E-07 2.00052E-19 2.48202E-19
 -1       756 9.52798E-05-2.86676E-05-2.85481E-05-6.46789E-07 8.39361E-20 1.29856E-18
 -1       757 9.52741E-05-2.86206E-05-2.85658E-05-6.26105E-07 3.17644E-19 8.75928E-19
 -1       758 9.52852E-05-2.85918E-05-2.85829E-05-6.29914E-07-2.33854E-19 6.83590E-19
 -1       759 9.53226E-05-2.85944E-05-2.85978E-05-6.52677E-07-1.49672E-19 1.54787E-19
 -1       760 9.54009E-05-2.86466E-05-2.86090E-05-6.83606E-07 2.56005E-19-1.43679E-19
 -1       761 9.55413E-05-2.87728E-05-2.86151E-05-7.04671E-07-1.02370E-18 1.18653E-18
 -1       762 9.57721E-05-2.90028E-05-2.86155E-05-6.87917E-07-7.81610E-19 1.55810E-18
 -1       763 9.61280E-05-2.93695E-05-2.86109E-05-5.92356E-07-9.77746E-19 2.90015E-18
 -1       764 9.66452E-05-2.99009E-05-2.86049E-05-3.61207E-07-9.21485E-19 2.45598E-18
 -1       765 9.73515E-05-3.06063E-05-2.86054E-05 7.86957E-08-2.04436E-19 1.45669E-18
 -1       766 9.82477E-05-3.14529E-05-2.86268E-05 8.11500E-07-7.99158E-19 4.05386E-19
 -1       767 9.92802E-05-3.23358E-05-2.86911E-05 1.91437E-06-8.67200E-19 7.37866E-19
 -1       768 1.00313E-04-3.30502E-05-2.88274E-05 3.42082E-06-1.24271E-18 7.10225E-19
 -1       769 1.01104E-04-3.32796E-05-2.90674E-05 5.25855E-06-7.49234E-19 1.06923E-18
 -1       770 1.01335E-04-3.26482E-05-2.94355E-05 7.15998E-06-4.42476E-19 7.25163E-19
 -1       771 1.00731E-04-3.08893E-05-2.99306E-05 8.61196E-06-2.69238E-19 6.89078E-19
 -1       772 9.92461E-05-2.80648E-05-3.05057E-05 8.91409E-06 1.24387E-18 7.47560E-19
 -1       773 9.72646E-05-2.48003E-05-3.10557E-05 7.43267E-06 1.84858E-20-3.37706E-19
 -1       774 9.55776E-05-2.21908E-05-3.14467E-05 4.07492E-06-6.15493E-20-1.05232E-18
 -1       775 9.50169E-05-2.13602E-05-3.15689E-05-4.20554E-07-4.82133E-19-9.57615E-19
 -1       776 9.58956E-05-2.26870E-05-3.13765E-05-4.75416E-06-7.71064E-19 1.19919E-18
 -1       777 9.77358E-05-2.55712E-05-3.09265E-05-7.71084E-06 2.48208E-20 2.51732E-18
 -1       778 9.96675E-05-2.88378E-05-3.03549E-05-8.71654E-06-2.68398E-19 1.67769E-18
 -1       779 1.00972E-04-3.14603E-05-2.97901E-05-8.05880E-06 1.84745E-19-6.13189E-21
 -1       780 1.01364E-04-3.29471E-05-2.93218E-05-6.40923E-06 9.74496E-19 6.78977E-19
 -1       781 1.00955E-04-3.33213E-05-2.89864E-05-4.45214E-06 2.99254E-19 2.00886E-18
 -1       782 1.00045E-04-3.28950E-05-2.87796E-05-2.65026E-06 3.58321E-19 4.44971E-18
 -1       783 9.89326E-05-3.20302E-05-2.86732E-05-1.25142E-06-1.01587E-18 4.40577E-18
 -1       784 9.78434E-05-3.10282E-05-2.86356E-05-2.85508E-07 3.29755E-19 2.27435E-18
 -1       785 9.73077E-05-3.04677E-05-2.86455E-05 2.49867E-07 5.04850E-19 1.71704E-18
 -1       786 5.12897E-05-4.88803E-06-1.95563E-05-6.60061E-06 1.65847E-18-1.47912E-18
 -1       787 1.19388E-04-1.85335E-05-4.34892E-05 1.27758E-05 1.97331E-18 4.62996E-19
 -1       788 1.29785E-04-5.75196E-05-3.09436E-05 1.85982E-05-1.84503E-18-2.21175E-19
 -1       789 9.50884E-05-2.85706E-05-2.85080E-05 6.06011E-06-3.37992E-19-3.46649E-19
 -1       790 1.28128E-04-3.08708E-05-4.19488E-05-1.29863E-05-3.54324E-19 1.04206E-18
 -1       791 8.78667E-05-2.17222E-05-2.83333E-05 1.28524E-06-1.37565E-18-3.67125E-18
 -1       792 9.24013E-05-2.62180E-05-2.83696E-05 5.91681E-06 1.15356E-18-5.09695E-20
 -1       793 5.16968E-05-8.50097E-06-1.82287E-05 1.76524E-05 2.08543E-18-9.14954E-19
 -1       794 9.54974E-05-2.88465E-05-2.85647E-05-1.11068E-06 3.76185E-19-8.14897E-19
 -1       795 7.25805E-05-2.39095E-05-2.06191E-05 3.22812E-05-8.97531E-19-5.38949E-18
 -1       796 9.36799E-05-2.03580E-05-3.14216E-05-5.94449E-06-3.85012E-19-1.19252E-18
 -1       797 7.69171E-05-1.41324E-05-2.69072E-05-3.40840E-06-3.58699E-19-9.24747E-20
 -1       798 6.71380E-05-9.26894E-06-2.47278E-05-2.31053E-06-1.41127E-18-8.55553E-20
 -1       799 9.55471E-05-2.54141E-05-3.00572E-05-1.87577E-06-4.00878E-19-7.97546E-19
 -1       800 1.16846E-04-5.22892E-05-2.76472E-05-2.66398E-05-1.22370E-18-9.55348E-19
 -1       801 1.31980E-04-5.26752E-05-3.40466E-05-4.33975E-06-9.66322E-19-1.49795E-18
 -1       802 6.70518E-05-2.28285E-05-1.86734E-05-3.51775E-05-2.12206E-18-2.28792E-18
 -1       803 1.28434E-04-3.74739E-05-3.91321E-05 1.11139E-05 7.46448E-19 2.08873E-19
 -1       804 1.19465E-04-1.61837E-05-4.45628E-05-1.17048E-05 1.23958E-18-2.07788E-19
 -1       805 9.17243E-05-3.88327E-05-2.24896E-05-3.76377E-05-2.01309E-18-1.40369E-18
 -1       806 9.31978E-05-1.97707E-05-3.14700E-05 1.23081E-06 7.11122E-19-8.50897E-19
 -1       807 1.14952E-04-7.10860E-06-4.65286E-05 1.47968E-06 2.13754E-18-1.63924E-19
 -1       808 9.30864E-05-1.95701E-05-3.15078E-05 1.99460E-08 4.34418E-19-9.97717E-19
 -1       809 9.40224E-05-2.13485E-05-3.11467E-05 3.30256E-06 7.90244E-19-5.25225E-19
 -1       810 9.57291E-05-2.77437E-05-2.91365E-05-2.10430E-07 6.04937E-19-3.18199E-19
 -1       811 6.07407E-05-7.43659E-06-2.27253E-05-2.00918E-06-1.10147E-18-2.66310E-18
 -1       812 9.57152E-05-2.69432E-05-2.94743E-05 6.76558E-07 5.47735E-19-2.36719E-19
 -1       813 9.35108E-05-2.03549E-05-3.13544E-05 2.35322E-06 7.34737E-19-7.35866E-19
 -1       814 1.30546E-04-4.12278E-05-3.84072E-05-8.83878E-06-2.53078E-19-2.52707E-19
 -1       815 9.39815E-05-2.12913E-05-3.11570E-05-3.26888E-06-6.67059E-21-8.34656E-19
 -1       816 9.82090E-05-3.12058E-05-2.87154E-05 3.52747E-06-2.18496E-19-9.86884E-19
 -1       817 9.71267E-05-3.03016E-05-2.86396E-05 5.09407E-06-1.06471E-18 2.79225E-18
 -1       818 8.73435E-05-3.38741E-05-2.28184E-05 3.35084E-05-2.87799E-18-4.67880E-18
 -1       819 9.83679E-05-3.13320E-05-2.87293E-05 2.14792E-06 1.23945E-19-8.57381E-19
 -1       820 9.51120E-05-2.39518E-05-3.04980E-05-3.14892E-06-2.64456E-19-7.92711E-19
 -1       821 1.10457E-04-1.19110E-05-4.23733E-05-5.74045E-06 9.18197E-19-1.33596E-18
 -1       822 5.84293E-05-1.19073E-05-1.97581E-05-2.11788E-05-1.56048E-18-2.94409E-18
 -1       823 9.35056E-05-2.03237E-05-3.13608E-05-2.34942E-06 2.75532E-19-8.66937E-19
 -1       824 9.54569E-05-2.54781E-05-2.99892E-05 2.21420E-06 6.89055E-19-3.32539E-19
 -1       825 1.21016E-04-5.01861E-05-3.03514E-05-1.15216E-05-1.67365E-18-5.62703E-19
 -1       826 9.61782E-05-2.69290E-05-2.96783E-05-3.15726E-07 1.57829E-20-2.63768E-19
 -1       827 9.63534E-05-2.78765E-05-2.93472E-05 2.81817E-07 5.53871E-20-2.53029E-19
 -1       828 9.63772E-05-2.84791E-05-2.90992E-05 6.40583E-07-5.37080E-20-2.09773E-19
 -1       829 9.63136E-05-2.88386E-05-2.89179E-05 8.24862E-07-1.56557E-19-2.16486E-19
 -1       830 9.62033E-05-2.90292E-05-2.87889E-05 8.90167E-07-3.38074E-19-8.71208E-19
 -1       831 9.60716E-05-2.91038E-05-2.87005E-05 8.80818E-07-5.96505E-19-5.22758E-19
 -1       832 9.59408E-05-2.91018E-05-2.86453E-05 8.33431E-07-2.59834E-19-6.81781E-19
 -1       833 9.58050E-05-2.90479E-05-2.86102E-05 7.66529E-07 2.26177E-19-2.73612E-19
 -1       834 9.56735E-05-2.89565E-05-2.85930E-05 6.99460E-07 2.82978E-19 1.32850E-19
 -1       835 9.55451E-05-2.88370E-05-2.85892E-05 6.44411E-07-1.28696E-19-2.81995E-20
 -1       836 9.54144E-05-2.86917E-05-2.85954E-05 6.09533E-07-8.85662E-19-6.40000E-19
 -1       837 9.52716E-05-2.85170E-05-2.86091E-05 5.99929E-07-9.09985E-19-9.97694E-19
 -1       838 9.51018E-05-2.83030E-05-2.86280E-05 6.17831E-07-3.97761E-19-6.92369E-19
 -1       839 9.48824E-05-2.80327E-05-2.86499E-05 6.61998E-07 3.02291E-19-3.98828E-19
 -1       840 9.45801E-05-2.76802E-05-2.86714E-05 7.25993E-07-1.57035E-19 1.17216E-19
 -1       841 9.41467E-05-2.72091E-05-2.86876E-05 7.94707E-07-7.46891E-21 9.73067E-20
 -1       842 9.35122E-05-2.65703E-05-2.86894E-05 8.38204E-07-8.78156E-20-4.05718E-19
 -1       843 9.25779E-05-2.57016E-05-2.86613E-05 8.01566E-07 3.61629E-19 1.19615E-19
 -1       844 9.12075E-05-2.45303E-05-2.85761E-05 5.89117E-07-5.34717E-19 3.71830E-19
 -1       845 8.92207E-05-2.29846E-05-2.83872E-05 4.14157E-08 4.04175E-20 1.18752E-19
 -1       846 8.63884E-05-2.10200E-05-2.80154E-05-1.10203E-06 3.40747E-19-3.49627E-19
 -1       847 8.26667E-05-1.87873E-05-2.73774E-05-3.08330E-06-6.91326E-19-6.56924E-19
 -1       848 7.73918E-05-1.62306E-05-2.62032E-05-6.63282E-06-1.08001E-18-1.76417E-18
 -1       849 9.61909E-05-2.84260E-05-2.90421E-05-6.94814E-07 3.24752E-19-3.60026E-19
 -1       850 8.39266E-05-1.95715E-05-2.75796E-05 3.44573E-06-8.68039E-19-5.82655E-18
 -1       851 1.14479E-04-4.91011E-05-2.79416E-05 2.28136E-05-2.59424E-18 4.85964E-19
 -1       852 9.61260E-05-2.87693E-05-2.88672E-05-9.00959E-07 1.94366E-19-4.29312E-19
 -1       853 7.32365E-05-1.40335E-05-2.53506E-05 6.56822E-06-1.17805E-18-3.82245E-18
 -1       854 9.56835E-05-2.89972E-05-2.85798E-05-8.27650E-07-6.68755E-20 2.68460E-19
 -1       855 9.57951E-05-2.90376E-05-2.86104E-05-9.05179E-07 2.06963E-19 4.68959E-20
 -1       856 9.54868E-05-2.88443E-05-2.85611E-05-6.82072E-07-7.40462E-20-9.04676E-20
 -1       857 9.54047E-05-2.87548E-05-2.85642E-05-6.35693E-07-5.52017E-19 1.41149E-19
 -1       858 9.53359E-05-2.86691E-05-2.85715E-05-6.15265E-07 1.75188E-20 4.33040E-19
 -1       859 9.52848E-05-2.85974E-05-2.85803E-05-6.23841E-07 2.69915E-19 4.54652E-19
 -1       860 9.52598E-05-2.85535E-05-2.85884E-05-6.62046E-07 6.82716E-20-4.87863E-19
 -1       861 9.52755E-05-2.85564E-05-2.85939E-05-7.27609E-07-1.84559E-19-3.13767E-19
 -1       862 9.53550E-05-2.86328E-05-2.85952E-05-8.13945E-07-7.78939E-19 8.87854E-20
 -1       863 9.55327E-05-2.88184E-05-2.85918E-05-9.07673E-07-1.33954E-18-5.23233E-19
 -1       864 9.58555E-05-2.91579E-05-2.85847E-05-9.84656E-07-1.53856E-18-3.65381E-19
 -1       865 9.63826E-05-2.97008E-05-2.85779E-05-1.00432E-06-1.03939E-18 2.63596E-19
 -1       866 9.71793E-05-3.04907E-05-2.85809E-05-9.02510E-07-3.94145E-19 4.29167E-20
 -1       867 9.83021E-05-3.15445E-05-2.86106E-05-5.84514E-07-7.64011E-19 3.73158E-19
 -1       868 9.97687E-05-3.28149E-05-2.86950E-05 7.59420E-08-1.26668E-18 1.17167E-18
 -1       869 1.01508E-04-3.41388E-05-2.88736E-05 1.21734E-06-1.48004E-18 2.28775E-18
 -1       870 1.03326E-04-3.52034E-05-2.91969E-05 2.94048E-06-8.45996E-19 1.79976E-18
 -1       871 1.04809E-04-3.54692E-05-2.97162E-05 5.21469E-06 2.44829E-19 1.13487E-18
 -1       872 1.05466E-04-3.43765E-05-3.04637E-05 7.67045E-06-5.59819E-20-1.69296E-19
 -1       873 1.04744E-04-3.14282E-05-3.14204E-05 9.54459E-06 1.34105E-19-2.12985E-19
 -1       874 1.02685E-04-2.70083E-05-3.24193E-05 9.64086E-06 1.36310E-18 1.39222E-18
 -1       875 1.00226E-04-2.24160E-05-3.33322E-05 7.34238E-06 4.25922E-19 7.38128E-19
 -1       876 9.82778E-05-1.93098E-05-3.38478E-05 2.24815E-06-5.09229E-20-4.34932E-21
 -1       877 9.85204E-05-1.97997E-05-3.37401E-05-3.37083E-06-1.47861E-18-7.48609E-19
 -1       878 1.00767E-04-2.34163E-05-3.31280E-05-7.81024E-06-9.51890E-19-1.57595E-18
 -1       879 1.03334E-04-2.81577E-05-3.22199E-05-9.62931E-06-1.13904E-19-1.84237E-18
 -1       880 1.05131E-04-3.23568E-05-3.11893E-05-8.96215E-06-1.16670E-19-1.36535E-18
 -1       881 1.05534E-04-3.48828E-05-3.02793E-05-6.82247E-06-2.45716E-19 1.22873E-19
 -1       882 1.04665E-04-3.56226E-05-2.95898E-05-4.30002E-06-8.24663E-19 1.06962E-18
 -1       883 1.03041E-04-3.50725E-05-2.91310E-05-2.09672E-06-5.99846E-19 1.92683E-18
 -1       884 1.01215E-04-3.38590E-05-2.88652E-05-4.70727E-07 8.29399E-19-2.73610E-19
 -1       885 9.94142E-05-3.23711E-05-2.87371E-05 5.49098E-07-4.09450E-19-1.84475E-18
 -1       886 1.16385E-04-2.77443E-05-3.80687E-05 1.27195E-05 1.60418E-18 3.06501E-19
 -1       887 9.59114E-05-2.90317E-05-2.86627E-05-9.62793E-07 2.23516E-19-3.26177E-19
 -1       888 9.53199E-05-2.43796E-05-3.04025E-05 2.20153E-06 6.89429E-19-2.46715E-19
 -1       889 6.76146E-05-1.51551E-05-2.24011E-05 1.89952E-05-2.35969E-18-4.72478E-18
 -1       890 1.29389E-04-5.14757E-05-3.34592E-05 3.90028E-06-1.54353E-18 1.55021E-18
 -1       891 9.57604E-05-2.54979E-05-3.01123E-05-1.21980E-06-1.95805E-19-3.36362E-19
 -1       892 1.23849E-04-4.36371E-05-3.44047E-05 5.96451E-06-2.15868E-19-1.08085E-18
 -1       893 9.32004E-05-1.97679E-05-3.14721E-05-1.20915E-06 3.67731E-19-1.11183E-18
 -1       894 9.79286E-05-3.09623E-05-2.86990E-05 1.06386E-06 7.93450E-19 6.85184E-20
 -1       895 9.60258E-05-2.89543E-05-2.87449E-05-9.73750E-07 3.81554E-19-2.61397E-19
 -1       896 1.17044E-04-2.45869E-05-3.97423E-05-1.26417E-05 5.22328E-19-2.82032E-19
 -1       897 5.77784E-05-8.35654E-06-2.10541E-05-1.11587E-05-1.53651E-18-2.88728E-18
 -1       898 1.02946E-04-4.21043E-05-2.60354E-05-2.73177E-05-1.37413E-18-1.15529E-18
 -1       899 8.17725E-05-2.78696E-05-2.29845E-05-3.00344E-05-8.64347E-19-1.91689E-18
 -1       900 9.55802E-05-2.89285E-05-2.85650E-05-7.48934E-07-3.63720E-19 3.12404E-19
 -1       901 7.00199E-05-1.35399E-05-2.41484E-05-1.16600E-05-1.39103E-18-2.79515E-18
 -1       902 1.09252E-04-1.29618E-05-4.14138E-05 6.42578E-06 2.30503E-18-2.30471E-19
 -1       903 7.93069E-05-1.69562E-05-2.66985E-05 4.82493E-06-2.23068E-18-4.63680E-18
 -1       904 9.60693E-05-2.69746E-05-2.96111E-05 3.76665E-07 7.01110E-19-3.42860E-19
 -1       905 9.45366E-05-2.22647E-05-3.09738E-05 4.28484E-07 5.11448E-19-7.96079E-19
 -1       906 9.61864E-05-2.78547E-05-2.92853E-05-2.93104E-07 5.12433E-19-3.77688E-19
 -1       907 1.20426E-04-3.28374E-05-3.76234E-05-1.19929E-05-7.83697E-19-3.14858E-19
 -1       908 1.19500E-04-4.91565E-05-3.01501E-05 1.11930E-05-2.64838E-18 1.75783E-18
 -1       909 9.95343E-05-3.26624E-05-2.86569E-05 5.03567E-06 1.52483E-18 1.67282E-18
 -1       910 9.42585E-05-2.86076E-05-2.81348E-05 8.45212E-06-4.75509E-19 1.97677E-18
 -1       911 9.49717E-05-2.33867E-05-3.06797E-05-2.25960E-06-2.15051E-19-5.74196E-19
 -1       912 9.46806E-05-2.26037E-05-3.08902E-05 1.21329E-06 7.38049E-19-7.96272E-19
 -1       913 9.75873E-05-3.12394E-05-2.84367E-05 7.17503E-06-8.17434E-19 3.64110E-19
 -1       914 1.00033E-04-3.29579E-05-2.87436E-05 3.10491E-06 1.49802E-18-1.71190E-18
 -1       915 8.81285E-05-2.37223E-05-2.75876E-05 8.21354E-06 8.86259E-19-1.88629E-18
 -1       916 7.70875E-05-2.26611E-05-2.32210E-05 2.47872E-05-2.53194E-18-6.92406E-18
 -1       917 1.08817E-04-1.85530E-05-3.87737E-05-9.42072E-06 8.51149E-19-2.54062E-18
 -1       918 1.07478E-04-2.05972E-05-3.72925E-05 1.01587E-05 1.57541E-18 3.43032E-19
 -1       919 1.04542E-04-1.39583E-05-3.89036E-05-2.48254E-07 9.33358E-19-1.21239E-18
 -1       920 9.60213E-05-2.57979E-05-3.00954E-05-6.63894E-07-9.89716E-20-1.90901E-19
 -1       921 9.57915E-05-2.53219E-05-3.02031E-05 1.04783E-06 6.21375E-19-4.76261E-19
 -1       922 9.45324E-05-2.22565E-05-3.09770E-05-4.12619E-07 4.01791E-19-1.14555E-18
 -1       923 9.64654E-05-2.71787E-05-2.96945E-05-7.61305E-08-1.22083E-20-1.91303E-19
 -1       924 9.66528E-05-2.80952E-05-2.93819E-05 3.09921E-07-1.61175E-20-3.75873E-19
 -1       925 9.66736E-05-2.86743E-05-2.91426E-05 5.36139E-07-6.11502E-20-4.84740E-19
 -1       926 9.65913E-05-2.90097E-05-2.89636E-05 6.46828E-07-3.32178E-19-5.43296E-19
 -1       927 9.64508E-05-2.91731E-05-2.88333E-05 6.79224E-07-9.62732E-20-1.66388E-19
 -1       928 9.62904E-05-2.92183E-05-2.87452E-05 6.65246E-07-2.37240E-19 3.91786E-19
 -1       929 9.61114E-05-2.91869E-05-2.86819E-05 6.25312E-07 1.92145E-19 6.64641E-19
 -1       930 9.59312E-05-2.90996E-05-2.86421E-05 5.75872E-07 2.04136E-19 5.76562E-19
 -1       931 9.57534E-05-2.89734E-05-2.86200E-05 5.28400E-07-4.54199E-20 2.07616E-19
 -1       932 9.55760E-05-2.88169E-05-2.86110E-05 4.89744E-07-2.63158E-19 3.24173E-19
 -1       933 9.53917E-05-2.86315E-05-2.86115E-05 4.63105E-07-6.79349E-19 6.93980E-19
 -1       934 9.51885E-05-2.84128E-05-2.86182E-05 4.47865E-07-5.58450E-19 1.07046E-18
 -1       935 9.49488E-05-2.81505E-05-2.86278E-05 4.38399E-07-6.79264E-20 1.03293E-18
 -1       936 9.46474E-05-2.78283E-05-2.86368E-05 4.22124E-07 6.93350E-19 5.82910E-19
 -1       937 9.42501E-05-2.74237E-05-2.86399E-05 3.75857E-07 2.82158E-19 6.73686E-19
 -1       938 9.37108E-05-2.69088E-05-2.86295E-05 2.59880E-07 7.25315E-20 1.22640E-18
 -1       939 9.29700E-05-2.62523E-05-2.85934E-05 8.91959E-09 2.08479E-19 1.54536E-18
 -1       940 9.19540E-05-2.54258E-05-2.85121E-05-4.80860E-07-2.41334E-19 5.63603E-19
 -1       941 9.05803E-05-2.44180E-05-2.83552E-05-1.36949E-06-2.92730E-19-9.66470E-20
 -1       942 8.87715E-05-2.32630E-05-2.80751E-05-2.89926E-06-7.24199E-20-2.55203E-19
 -1       943 8.66088E-05-2.21371E-05-2.76319E-05-5.24840E-06-6.21077E-19-1.54211E-18
 -1       944 8.39553E-05-2.12260E-05-2.68851E-05-9.10228E-06-1.44901E-18-1.43489E-18
 -1       945 7.24556E-05-1.78241E-05-2.33250E-05-2.02917E-05-8.52102E-19-2.07784E-18
 -1       946 9.65454E-05-2.86132E-05-2.91138E-05-6.05323E-07 2.68499E-19-3.00507E-19
 -1       947 9.63355E-05-2.91152E-05-2.88087E-05-7.79117E-07 1.79870E-19-9.54566E-20
 -1       948 1.17673E-04-4.43436E-05-3.14157E-05-3.71438E-07-1.20218E-18-2.35553E-18
 -1       949 8.04672E-05-2.05420E-05-2.56389E-05-1.46641E-05-1.68303E-18-7.20228E-19
 -1       950 9.48938E-05-2.31433E-05-3.07501E-05 1.75959E-06 6.27450E-19-8.08559E-19
 -1       951 9.54373E-05-2.87391E-05-2.85849E-05-5.42063E-07 1.06597E-19 3.81514E-19
 -1       952 9.55654E-05-2.88595E-05-2.85882E-05-5.59905E-07-2.49487E-19 5.88736E-19
 -1       953 9.52336E-05-2.85293E-05-2.85875E-05-5.99002E-07 2.98750E-19-4.01121E-19
 -1       954 9.51745E-05-2.84691E-05-2.85880E-05-6.84764E-07-1.71210E-19 2.04401E-19
 -1       955 9.51674E-05-2.84693E-05-2.85849E-05-8.15022E-07-2.30060E-19-1.62766E-19
 -1       956 9.52444E-05-2.85651E-05-2.85768E-05-9.92109E-07-1.16405E-18-7.38640E-19
 -1       957 9.54539E-05-2.88051E-05-2.85638E-05-1.21303E-06-1.30292E-18-2.90743E-19
 -1       958 9.58643E-05-2.92513E-05-2.85484E-05-1.46358E-06-1.57230E-18-1.39272E-18
 -1       959 9.65650E-05-2.99760E-05-2.85382E-05-1.70848E-06-1.14125E-18-7.99503E-19
 -1       960 9.76616E-05-3.10484E-05-2.85485E-05-1.87669E-06-7.75158E-19 1.33522E-19
 -1       961 9.92573E-05-3.25072E-05-2.86075E-05-1.84163E-06-1.32378E-18 1.70009E-21
 -1       962 1.01409E-04-3.43037E-05-2.87609E-05-1.40536E-06-1.05555E-18-1.05758E-18
 -1       963 1.04048E-04-3.62076E-05-2.90748E-05-2.97866E-07-1.64059E-18-1.36943E-18
 -1       964 1.06882E-04-3.77102E-05-2.96571E-05 1.78908E-06-1.09271E-18 2.13383E-19
 -1       965 1.09460E-04-3.81438E-05-3.05652E-05 4.82697E-06 2.77127E-19 6.81036E-19
 -1       966 1.10364E-04-3.61912E-05-3.17996E-05 8.22386E-06 9.93642E-19 9.45584E-19
 -1       967 1.09362E-04-3.16818E-05-3.33137E-05 1.06623E-05-2.82606E-19 3.93219E-19
 -1       968 1.09957E-04-3.30002E-05-3.29709E-05-9.96517E-06-7.79934E-19-2.88621E-18
 -1       969 1.10535E-04-3.70855E-05-3.14808E-05-7.00791E-06-2.01421E-18-1.85080E-18
 -1       970 1.09077E-04-3.83723E-05-3.03024E-05-3.54538E-06-1.37998E-18-1.28987E-18
 -1       971 1.06514E-04-3.76501E-05-2.95149E-05-7.62599E-07-3.65948E-19-6.05470E-19
 -1       972 1.03655E-04-3.58801E-05-2.90452E-05 1.08129E-06 6.18402E-19-2.06299E-18
 -1       973 1.24604E-04-4.40668E-05-3.45896E-05-5.18073E-06-8.44145E-19-7.81565E-19
 -1       974 8.51340E-05-2.26101E-05-2.67988E-05 1.12895E-05-1.71136E-18-2.53095E-18
 -1       975 9.61800E-05-2.91686E-05-2.87191E-05-7.61386E-07 1.55974E-19 1.06011E-19
 -1       976 9.96599E-05-3.81450E-05-2.63287E-05 2.36794E-05-8.99007E-19-1.70745E-19
 -1       977 9.52780E-05-2.38988E-05-3.05915E-05-1.31351E-06 9.83915E-20-4.05931E-19
 -1       978 9.64662E-05-2.89474E-05-2.89366E-05-7.39086E-07 9.87311E-20-1.27808E-19
 -1       979 1.08885E-04-4.28876E-05-2.82733E-05-1.58819E-05-1.58152E-18-2.06270E-19
 -1       980 9.53249E-05-2.86250E-05-2.85857E-05-5.53217E-07 5.14077E-19-1.67420E-19
 -1       981 9.60173E-05-2.91463E-05-2.86590E-05-7.13396E-07-1.07895E-19-2.78233E-19
 -1       982 9.25984E-05-3.22564E-05-2.58221E-05-2.28169E-05-1.44972E-18-7.54572E-19
 -1       983 1.13694E-04-3.38896E-05-3.42272E-05 1.00823E-05 7.09489E-19 5.36979E-19
 -1       984 9.24974E-05-2.84105E-05-2.74648E-05 1.22446E-05-2.21128E-18 1.71306E-18
 -1       985 9.65349E-05-2.80514E-05-2.93511E-05-3.29422E-07 4.45827E-19-3.78409E-19
 -1       986 1.19926E-04-4.63371E-05-3.15147E-05 1.94949E-06-2.22224E-18-7.94044E-19
 -1       987 1.02181E-04-3.49707E-05-2.88087E-05 3.97632E-06 1.08377E-18-1.31904E-18
 -1       988 1.11993E-04-4.29020E-05-2.95797E-05-6.30952E-06-6.84406E-19-3.23046E-18
 -1       989 9.57059E-05-2.89751E-05-2.85989E-05-5.99863E-07-7.82597E-20 5.63341E-19
 -1       990 1.06949E-04-2.62388E-05-3.46200E-05-1.06189E-05-7.95251E-20-3.99546E-18
 -1       991 9.63462E-05-2.71195E-05-2.96661E-05 1.25820E-07 6.23701E-19-3.83574E-19
 -1       992 7.97908E-05-2.07628E-05-2.53023E-05 1.62752E-05-1.82578E-18-5.83324E-18
 -1       993 9.80836E-05-3.25516E-05-2.80824E-05 1.05362E-05-9.07428E-19 3.74657E-19
 -1       994 1.08161E-04-4.26045E-05-2.80951E-05 1.67430E-05-1.86620E-18 7.32385E-19
 -1       995 1.01239E-04-3.46185E-05-2.85546E-05 7.34874E-06-9.17840E-20 2.07170E-19
 -1       996 9.55539E-05-2.43302E-05-3.05249E-05 7.87572E-09 4.38294E-19-9.38877E-19
 -1       997 9.55962E-05-2.44759E-05-3.04804E-05 4.89953E-07 5.57360E-19-5.14751E-19
 -1       998 9.58577E-05-2.90756E-05-2.86209E-05-6.54884E-07-3.88220E-19 4.15500E-19
 -1       999 9.63083E-05-2.62654E-05-3.00183E-05-2.56186E-07 1.85016E-19-5.62399E-19
 -1      1000 9.67076E-05-2.75241E-05-2.96499E-05 5.82199E-08 3.50369E-21-4.75602E-19
 -1      1001 9.68637E-05-2.83607E-05-2.93586E-05 2.58755E-07-1.06459E-19-2.45861E-19
 -1      1002 9.68526E-05-2.88735E-05-2.91340E-05 3.74344E-07-8.14735E-20-2.11146E-19
 -1      1003 9.67396E-05-2.91554E-05-2.89647E-05 4.25139E-07-9.01563E-20-4.54547E-19
 -1      1004 9.65781E-05-2.92720E-05-2.88455E-05 4.34450E-07 2.13869E-19-2.34492E-19
 -1      1005 9.63796E-05-2.92839E-05-2.87553E-05 4.19580E-07 1.59622E-19 3.56171E-20
 -1      1006 9.61701E-05-2.92182E-05-2.86937E-05 3.91492E-07 2.53146E-20 1.02517E-19
 -1      1007 9.59597E-05-2.91003E-05-2.86540E-05 3.59369E-07 4.18061E-20 1.23865E-19
 -1      1008 9.57506E-05-2.89455E-05-2.86308E-05 3.28110E-07-1.96929E-19 1.19705E-19
 -1      1009 9.55398E-05-2.87614E-05-2.86194E-05 2.98295E-07-3.90177E-19 2.13218E-19
 -1      1010 9.53194E-05-2.85491E-05-2.86159E-05 2.68400E-07-3.45025E-19 7.71412E-19
 -1      1011 9.50777E-05-2.83057E-05-2.86166E-05 2.30829E-07-3.49609E-19 9.21540E-19
 -1      1012 9.47983E-05-2.80239E-05-2.86177E-05 1.71265E-07-3.30935E-19 7.82523E-19
 -1      1013 9.44604E-05-2.76940E-05-2.86143E-05 6.53985E-08 7.87629E-19 2.05246E-19
 -1      1014 9.40394E-05-2.73056E-05-2.86003E-05-1.25934E-07 7.68467E-19 3.14813E-19
 -1      1015 9.35079E-05-2.68520E-05-2.85669E-05-4.63460E-07 4.68111E-19 4.81097E-19
 -1      1016 9.28410E-05-2.63375E-05-2.85014E-05-1.03826E-06-8.55123E-20 2.33784E-19
 -1      1017 9.20260E-05-2.57915E-05-2.83858E-05-1.98248E-06-1.24018E-18 2.27813E-19
 -1      1018 9.10839E-05-2.52938E-05-2.81949E-05-3.48035E-06-3.03286E-19-1.01765E-18
 -1      1019 9.01486E-05-2.50115E-05-2.79147E-05-5.62902E-06-6.98946E-19-8.60977E-19
 -1      1020 8.93562E-05-2.52187E-05-2.74835E-05-8.92193E-06-8.28392E-19-4.41442E-19
 -1      1021 8.96315E-05-2.79989E-05-2.64278E-05 1.71897E-05-6.60641E-19-5.24947E-19
 -1      1022 9.66719E-05-2.91056E-05-2.89570E-05-5.31357E-07 1.45122E-19-4.22742E-19
 -1      1023 9.56838E-05-2.48082E-05-3.03745E-05 8.17835E-07 5.15750E-19-9.00374E-19
 -1      1024 1.10424E-04-4.07304E-05-2.98700E-05 1.66281E-06-1.53406E-18-1.55920E-18
 -1      1025 9.55663E-05-2.88251E-05-2.86034E-05-4.12129E-07-8.95199E-20-9.56452E-19
 -1      1026 9.50165E-05-2.83214E-05-2.85836E-05-7.03088E-07 5.65379E-21-4.77701E-19
 -1      1027 9.51171E-05-2.84075E-05-2.85898E-05-5.57851E-07-2.05899E-19 4.47457E-19
 -1      1028 9.50190E-05-2.83941E-05-2.85534E-05-1.22597E-06-8.25264E-19-7.95035E-19
 -1      1029 9.52228E-05-2.86577E-05-2.85277E-05-1.63523E-06-1.07958E-18-1.53309E-18
 -1      1030 9.56737E-05-2.91766E-05-2.84983E-05-2.15242E-06-1.81364E-18-1.04345E-18
 -1      1031 9.64980E-05-3.00546E-05-2.84750E-05-2.75641E-06-1.86729E-18-9.28808E-19
 -1      1032 9.78580E-05-3.14046E-05-2.84791E-05-3.37638E-06-7.68355E-19-6.74337E-19
 -1      1033 9.99422E-05-3.33213E-05-2.85508E-05-3.84613E-06-1.16289E-18-1.59310E-18
 -1      1034 1.02875E-04-3.57704E-05-2.87612E-05-3.85975E-06-1.44176E-18-4.86345E-19
 -1      1035 1.06746E-04-3.85875E-05-2.92108E-05-3.06817E-06-1.83582E-18-1.16068E-18
 -1      1036 1.16583E-04-3.96835E-05-3.29557E-05-6.92553E-06-1.72462E-18-2.63607E-18
 -1      1037 1.06093E-04-3.80880E-05-2.91494E-05 3.71754E-06 2.62641E-19-6.43656E-19
 -1      1038 9.63216E-05-2.92559E-05-2.87424E-05-5.24886E-07 4.79978E-20 6.04122E-20
 -1      1039 9.54011E-05-2.86756E-05-2.85966E-05-4.23867E-07 3.66879E-19-5.50556E-19
 -1      1040 1.14405E-04-4.18085E-05-3.11087E-05-2.03082E-06-2.58103E-18-1.97169E-18
 -1      1041 9.49708E-05-2.83026E-05-2.85720E-05-9.20163E-07-5.01973E-19-5.47614E-19
 -1      1042 8.84683E-05-2.59441E-05-2.67974E-05-1.36809E-05-1.29102E-18-1.31103E-18
 -1      1043 9.52494E-05-2.85320E-05-2.85931E-05-4.69039E-07 3.14679E-19 9.96495E-20
 -1      1044 9.98883E-05-3.57165E-05-2.75190E-05-1.55082E-05-5.09463E-19-8.58285E-19
 -1      1045 9.58077E-05-2.49501E-05-3.03674E-05-4.70571E-07 2.57549E-19-7.27797E-19
 -1      1046 9.64711E-05-2.68962E-05-2.98172E-05 1.34993E-07 4.47018E-19-6.12251E-19
 -1      1047 9.67771E-05-2.88114E-05-2.91282E-05-4.63452E-07 1.35918E-19-1.33674E-20
 -1      1048 9.65104E-05-2.92366E-05-2.88316E-05-5.44695E-07-1.00263E-19-4.66947E-19
 -1      1049 9.67852E-05-2.82972E-05-2.93524E-05-3.10598E-07 2.70340E-19-2.71979E-19
 -1      1050 9.57441E-05-2.89713E-05-2.86171E-05-4.26436E-07-9.09756E-20-9.60489E-19
 -1      1051 9.85650E-05-3.42048E-05-2.75809E-05 1.49341E-05 4.36960E-19-9.66010E-20
 -1      1052 9.62638E-05-2.59876E-05-3.01170E-05 1.12871E-07 4.18404E-19-4.38514E-19
 -1      1053 9.61245E-05-2.92007E-05-2.86815E-05-4.90230E-07-1.17706E-19 7.13675E-20
 -1      1054 1.13131E-04-4.44159E-05-2.94621E-05 9.39930E-06-2.56600E-18-6.12715E-19
 -1      1055 9.62963E-05-2.60454E-05-3.01070E-05-8.90156E-08 3.74883E-19-9.23568E-19
 -1      1056 9.04125E-05-3.02165E-05-2.57817E-05 2.13929E-05 4.95461E-19-1.98721E-18
 -1      1057 9.53046E-05-2.85653E-05-2.86026E-05-2.89203E-07 2.47530E-20-5.27772E-19
 -1      1058 9.68931E-05-2.79296E-05-2.95566E-05 6.18443E-08 2.67420E-19-5.19026E-19
 -1      1059 9.69793E-05-2.86281E-05-2.92927E-05 1.27333E-07 8.28692E-20-4.72416E-19
 -1      1060 9.69213E-05-2.90489E-05-2.90879E-05 1.58521E-07-1.26823E-19-1.06345E-19
 -1      1061 9.67819E-05-2.92540E-05-2.89402E-05 1.70082E-07-3.66126E-20-1.72331E-19
 -1      1062 9.65862E-05-2.93267E-05-2.88252E-05 1.69999E-07 2.02696E-19-2.80047E-19
 -1      1063 9.63637E-05-2.92959E-05-2.87433E-05 1.62017E-07 3.00791E-19 3.65888E-20
 -1      1064 9.61361E-05-2.91994E-05-2.86871E-05 1.49792E-07-2.08926E-19 2.89951E-19
 -1      1065 9.59125E-05-2.90601E-05-2.86509E-05 1.31323E-07 1.09544E-19 4.66235E-20
 -1      1066 9.56882E-05-2.88857E-05-2.86296E-05 1.10375E-07 2.43925E-19 1.96927E-19
 -1      1067 9.54618E-05-2.86864E-05-2.86179E-05 8.31703E-08 4.64636E-20 4.81154E-19
 -1      1068 9.52275E-05-2.84659E-05-2.86120E-05 3.96450E-08 2.34781E-19 7.94741E-19
 -1      1069 9.49761E-05-2.82240E-05-2.86080E-05-3.31484E-08-7.99653E-20 1.62755E-18
 -1      1070 9.46977E-05-2.79606E-05-2.86017E-05-1.56878E-07-5.70681E-19 2.19458E-18
 -1      1071 9.43834E-05-2.76784E-05-2.85880E-05-3.65025E-07 4.32898E-20 7.51442E-19
 -1      1072 9.40288E-05-2.73874E-05-2.85609E-05-7.07308E-07-2.30864E-19-8.28898E-19
 -1      1073 9.36403E-05-2.71122E-05-2.85127E-05-1.25473E-06-1.25386E-19-1.34867E-18
 -1      1074 9.32469E-05-2.69041E-05-2.84338E-05-2.10406E-06-1.54040E-19-1.00929E-18
 -1      1075 9.29199E-05-2.68604E-05-2.83129E-05-3.38045E-06-1.13967E-18 1.17429E-20
 -1      1076 9.27959E-05-2.71208E-05-2.81493E-05-5.11900E-06-6.05561E-19-8.49586E-19
 -1      1077 9.31207E-05-2.79740E-05-2.79232E-05-7.62536E-06-4.87367E-19-1.64520E-18
 -1      1078 9.39340E-05-2.95156E-05-2.76012E-05-1.10024E-05-1.53610E-18-1.79525E-18
 -1      1079 9.63963E-05-2.64344E-05-2.99833E-05 1.65703E-07 4.42995E-19-6.60900E-19
 -1      1080 9.59311E-05-2.91007E-05-2.86418E-05-4.55553E-07-2.69087E-20-9.10479E-19
 -1      1081 9.47247E-05-2.82828E-05-2.84751E-05-2.17467E-06-9.67187E-19-1.29403E-18
 -1      1082 9.46068E-05-2.80568E-05-2.85215E-05-1.51050E-06-7.99749E-19-6.94244E-19
 -1      1083 9.59390E-05-2.97684E-05-2.83584E-05-4.20092E-06-1.56159E-18-2.28474E-18
 -1      1084 9.74439E-05-3.13578E-05-2.83217E-05-5.52160E-06-9.95907E-19-1.00758E-18
 -1      1085 9.99685E-05-3.38060E-05-2.83602E-05-6.86411E-06-1.00621E-18-6.82993E-19
 -1      1086 1.03761E-04-3.70691E-05-2.85747E-05-7.68970E-06-8.50580E-19-1.42098E-18
 -1      1087 1.05164E-04-3.82996E-05-2.86497E-05 9.26419E-06-3.85433E-19-1.37749E-19
 -1      1088 9.55033E-05-2.87456E-05-2.86105E-05-2.49615E-07 8.52571E-21-8.33637E-19
 -1      1089 9.51120E-05-2.83865E-05-2.85967E-05-3.67351E-07 9.15711E-20-9.91867E-19
 -1      1090 9.66618E-05-2.71069E-05-2.98090E-05-1.11936E-08 2.38458E-19-7.10154E-19
 -1      1091 9.68982E-05-2.89966E-05-2.91008E-05-2.58801E-07 4.35554E-19-5.96897E-19
 -1      1092 9.51119E-05-2.88040E-05-2.84176E-05-3.06801E-06-1.71647E-18-2.46533E-18
 -1      1093 9.49288E-05-2.82210E-05-2.85891E-05-5.01252E-07 3.99611E-20-1.42687E-18
 -1      1094 9.67332E-05-2.72954E-05-2.97584E-05 7.87183E-09 2.52694E-19-4.75156E-19
 -1      1095 9.67603E-05-2.92292E-05-2.89419E-05-2.84935E-07 9.98579E-20-3.91690E-19
 -1      1096 9.57071E-05-2.89181E-05-2.86237E-05-2.35898E-07-1.66515E-19-8.11953E-19
 -1      1097 9.46441E-05-2.80166E-05-2.85547E-05-1.03799E-06-5.51413E-19-1.28213E-18
 -1      1098 9.63599E-05-2.92950E-05-2.87421E-05-2.73661E-07-1.88722E-19-5.44114E-19
 -1      1099 9.69481E-05-2.85650E-05-2.93076E-05-1.97649E-07 1.06421E-19-4.10715E-19
 -1      1100 9.47653E-05-2.80876E-05-2.85763E-05-7.14431E-07-4.62798E-19-7.93419E-19
 -1      1101 9.65712E-05-2.93129E-05-2.88251E-05-2.86171E-07-1.48838E-19-3.61675E-19
 -1      1102 9.60336E-05-2.91431E-05-2.86673E-05-9.07881E-08 1.80045E-19-3.16659E-19
 -1      1103 9.67357E-05-2.75808E-05-2.96386E-05-6.48130E-08 3.40932E-19-4.77037E-19
 -1      1104 9.62043E-05-2.92381E-05-2.87000E-05-1.77573E-07 6.94192E-19-8.62581E-19
 -1      1105 1.16700E-04 2.57143E-10-4.17890E-05-4.15673E-05-1.49501E-19 2.19869E-18
 -1      1106 8.86235E-05 7.14841E-11-3.72467E-05-2.41229E-05-6.80803E-20-1.00678E-18
 -1      1107 8.40787E-05 4.13844E-11-3.57688E-05-1.78742E-05-3.77459E-20-2.11525E-18
 -1      1108 8.23358E-05 3.20326E-11-3.50736E-05-1.38389E-05-2.14141E-20-2.43771E-18
 -1      1109 8.15343E-05 2.73422E-11-3.47388E-05-1.05342E-05-9.50265E-21-2.44622E-18
 -1      1110 8.11297E-05 2.46078E-11-3.45733E-05-7.64107E-06 3.37490E-22-2.34362E-18
 -1      1111 8.09202E-05 2.29497E-11-3.44899E-05-4.98036E-06 4.38406E-21-2.21960E-18
 -1      1112 8.08179E-05 2.20527E-11-3.44505E-05-2.43320E-06 1.34781E-20-2.04637E-18
 -1      1113 8.07887E-05 2.17811E-11-3.44394E-05 5.07763E-08 1.30000E-20-1.92370E-18
 -1      1114 8.08220E-05 2.20958E-11-3.44518E-05 2.53722E-06 1.88878E-20-1.83867E-18
 -1      1115 8.09286E-05 2.30464E-11-3.44926E-05 5.09245E-06 2.30155E-20-1.68323E-18
 -1      1116 8.11445E-05 2.47627E-11-3.45773E-05 7.76887E-06 3.24189E-20-1.39214E-18
 -1      1117 8.15537E-05 2.76364E-11-3.47447E-05 1.06889E-05 4.02870E-20-9.75550E-19
 -1      1118 8.23599E-05 3.25122E-11-3.50824E-05 1.40388E-05 4.66927E-20-3.73052E-19
 -1      1119 8.40745E-05 4.19137E-11-3.57861E-05 1.81272E-05 5.90276E-20 7.17569E-19
 -1      1120 8.83460E-05 6.67480E-11-3.73214E-05 2.40070E-05 5.26219E-20 2.60007E-18
 -1      1121 1.06618E-04 1.63930E-10-4.06341E-05 3.61889E-05 8.15269E-20 5.86454E-18
 -1      1122 1.31349E-04-2.57141E-05-4.04273E-05-2.70439E-05-5.95888E-19 4.26439E-18
 -1      1123 9.82427E-05-2.90532E-05-3.18604E-05-9.22136E-07-2.33411E-19 3.02073E-18
 -1      1124 9.03351E-05-2.70613E-05-2.80021E-05 3.89017E-07-7.88932E-20 1.28475E-18
 -1      1125 8.83035E-05-2.65873E-05-2.66765E-05 2.56140E-07-7.68881E-20-1.02067E-19
 -1      1126 8.78936E-05-2.64478E-05-2.63919E-05 1.68831E-07-4.84033E-20-1.10480E-18
 -1      1127 8.82295E-05-2.65174E-05-2.64669E-05 1.19876E-07-9.70994E-20-1.84767E-18
 -1      1128 8.89068E-05-2.66988E-05-2.66664E-05 8.87204E-08-2.62965E-20-2.23087E-18
 -1      1129 8.97203E-05-2.69299E-05-2.69085E-05 6.71727E-08-3.25264E-20-2.71448E-18
 -1      1130 9.05566E-05-2.71734E-05-2.71578E-05 5.12659E-08-4.65129E-21-3.40798E-18
 -1      1131 9.13520E-05-2.74077E-05-2.73956E-05 3.90351E-08-8.42294E-20-3.37652E-18
 -1      1132 9.20725E-05-2.76214E-05-2.76117E-05 2.94347E-08-5.47935E-21-3.72646E-18
 -1      1133 9.27029E-05-2.78092E-05-2.78014E-05 2.18401E-08-7.36818E-20-3.54321E-18
 -1      1134 9.32407E-05-2.79699E-05-2.79637E-05 1.58289E-08 2.82189E-20-3.59127E-18
 -1      1135 9.36909E-05-2.81049E-05-2.80999E-05 1.10846E-08-9.65473E-20-3.76504E-18
 -1      1136 9.40636E-05-2.82171E-05-2.82131E-05 7.33758E-09-4.95498E-20-4.21984E-18
 -1      1137 9.43654E-05-2.83079E-05-2.83050E-05 4.15292E-09-3.10007E-21-4.21922E-18
 -1      1138 9.46207E-05-2.83855E-05-2.83831E-05 2.26547E-09-1.01995E-19-3.45518E-18
 -1      1139 9.48525E-05-2.84561E-05-2.84544E-05 4.56437E-10 5.14817E-20-3.23025E-18
 -1      1140 9.50747E-05-2.85241E-05-2.85231E-05-9.22195E-10-2.24895E-21-3.45287E-18
 -1      1141 9.53134E-05-2.85976E-05-2.85973E-05-1.89395E-09-1.48487E-20-3.10998E-18
 -1      1142 9.56032E-05-2.86871E-05-2.86880E-05-2.35431E-09 6.74417E-20-1.87308E-18
 -1      1143 9.59924E-05-2.88075E-05-2.88104E-05-1.96978E-09-5.03029E-20-1.70343E-18
 -1      1144 9.65521E-05-2.89805E-05-2.89871E-05 3.38179E-11 2.52877E-20-2.42355E-18
 -1      1145 9.73913E-05-2.92394E-05-2.92532E-05 5.29228E-09-9.86090E-20-3.40230E-18
 -1      1146 9.86801E-05-2.96358E-05-2.96635E-05 1.71280E-08-1.48380E-20-3.84681E-18
 -1      1147 1.00687E-04-3.02506E-05-3.03052E-05 4.21354E-08-1.36637E-19-3.70271E-18
 -1      1148 1.03834E-04-3.12098E-05-3.13150E-05 9.30919E-08 3.44769E-20-3.30864E-18
 -1      1149 1.08774E-04-3.27063E-05-3.29008E-05 1.93757E-07-2.85070E-19-2.76241E-18
 -1      1150 1.16467E-04-3.50236E-05-3.53515E-05 3.84969E-07 2.49147E-19-2.83867E-18
 -1      1151 1.28158E-04-3.85227E-05-3.89887E-05 7.22635E-07-2.28083E-19-2.69716E-18
 -1      1152 1.44517E-04-4.34685E-05-4.38064E-05 1.20578E-06-1.23362E-19-3.21809E-18
 -1      1153 1.65448E-04-4.97977E-05-4.93969E-05 1.66554E-06 1.08878E-19-2.53475E-18
 -1      1154 1.86357E-04-5.62005E-05-5.39154E-05 1.21285E-06 4.09540E-19-2.82935E-18
 -1      1155 1.91844E-04-5.74496E-05-5.41145E-05-1.79803E-06 4.56074E-20-1.79973E-18
 -1      1156 1.63454E-04-4.79533E-05-4.83544E-05-7.36488E-06 2.10964E-19 2.13198E-18
 -1      1157 1.08361E-04-3.01570E-05-3.97568E-05-8.59118E-06-2.62368E-19 4.23516E-18
 -1      1158 7.73698E-05-2.06316E-05-3.51823E-05-3.10048E-07-3.64859E-19 4.32823E-18
 -1      1159 9.50443E-05-2.70937E-05-3.72963E-05 7.60269E-06-5.48454E-20 1.24387E-18
 -1      1160 1.41395E-04-4.13657E-05-4.43391E-05 9.01527E-06 7.89858E-20-1.93801E-18
 -1      1161 1.82904E-04-5.44043E-05-5.20020E-05 4.35541E-06-1.38410E-19-4.67647E-18
 -1      1162 1.91477E-04-5.75366E-05-5.46355E-05-4.04012E-07-3.70233E-19-6.14628E-18
 -1      1163 1.76023E-04-5.29568E-05-5.18344E-05-1.68718E-06 2.86913E-19-4.26291E-18
 -1      1164 1.54118E-04-4.63620E-05-4.64259E-05-1.48257E-06 1.99863E-19 9.31313E-19
 -1      1165 1.34558E-04-4.04564E-05-4.09036E-05-9.49872E-07 4.08892E-20-7.78635E-19
 -1      1166 1.20236E-04-3.61541E-05-3.65447E-05-5.37579E-07-2.45097E-19 2.71898E-19
 -1      1167 1.10467E-04-3.32183E-05-3.34664E-05-2.90245E-07-1.80107E-19 1.13026E-18
 -1      1168 1.03973E-04-3.12592E-05-3.13997E-05-1.58223E-07 4.83927E-19 4.62446E-18
 -1      1169 9.96932E-05-2.99622E-05-3.00465E-05-8.97494E-08-1.50871E-19 5.08324E-18
 -1      1170 9.69501E-05-2.91270E-05-2.91953E-05-4.54054E-08-4.29439E-19 3.06777E-18
 -1      1171 9.54691E-05-2.86964E-05-2.87192E-05 2.52391E-08-2.81093E-19 3.13900E-18
 -1      1172 9.50990E-05-2.85286E-05-2.84786E-05 5.40663E-08 4.41804E-19 3.90116E-18
 -1      1173 1.31053E-04-3.77377E-05-3.86595E-05 1.21737E-05-9.06325E-20 8.40257E-18
 -1      1174 9.65597E-05-2.81909E-05-3.13304E-05 8.01417E-07 1.94553E-20 7.38507E-18
 -1      1175 9.03760E-05-2.69321E-05-2.78734E-05 1.19259E-07 1.42010E-20 6.27939E-18
 -1      1176 8.83374E-05-2.65003E-05-2.66791E-05 8.93365E-09-3.58401E-20 5.33940E-18
 -1      1177 8.79365E-05-2.64101E-05-2.64148E-05-2.52163E-08-2.03056E-20 4.56368E-18
 -1      1178 8.82793E-05-2.65073E-05-2.64903E-05-3.42077E-08 3.91711E-20 3.72454E-18
 -1      1179 8.89592E-05-2.67029E-05-2.66885E-05-3.54135E-08 1.83138E-21 3.58767E-18
 -1      1180 8.97718E-05-2.69411E-05-2.69289E-05-3.36745E-08-5.45610E-20 4.40337E-18
 -1      1181 9.06055E-05-2.71878E-05-2.71765E-05-3.06077E-08-5.59920E-20 4.40576E-18
 -1      1182 9.13977E-05-2.74233E-05-2.74126E-05-2.69041E-08 1.13405E-19 3.64106E-18
 -1      1183 9.21153E-05-2.76372E-05-2.76272E-05-2.29887E-08 7.61473E-20 2.64740E-18
 -1      1184 9.27441E-05-2.78249E-05-2.78160E-05-1.91330E-08-3.14567E-20 2.44413E-18
 -1      1185 9.32823E-05-2.79858E-05-2.79780E-05-1.55075E-08 4.85436E-21 2.09885E-18
 -1      1186 9.37354E-05-2.81214E-05-2.81148E-05-1.22169E-08-1.48697E-20 1.22195E-18
 -1      1187 9.41140E-05-2.82348E-05-2.82295E-05-9.32590E-09 9.11484E-20 3.03655E-19
 -1      1188 9.44313E-05-2.83299E-05-2.83259E-05-6.87989E-09-1.40783E-19 2.65547E-19
 -1      1189 9.47018E-05-2.84111E-05-2.84083E-05-4.92508E-09 3.42005E-20-2.94360E-20
 -1      1190 9.49402E-05-2.84826E-05-2.84810E-05-3.52661E-09 2.39720E-20-6.26960E-19
 -1      1191 9.51600E-05-2.85484E-05-2.85480E-05-2.78421E-09 2.70896E-19-2.34910E-18
 -1      1192 9.53724E-05-2.86119E-05-2.86126E-05-2.84198E-09-1.43083E-19-1.43333E-18
 -1      1193 9.55844E-05-2.86749E-05-2.86765E-05-3.88614E-09 5.25599E-20-3.28233E-19
 -1      1194 9.57959E-05-2.87373E-05-2.87393E-05-6.12058E-09-4.21052E-20 1.08303E-18
 -1      1195 9.59960E-05-2.87956E-05-2.87974E-05-9.70528E-09 1.41469E-19-5.66321E-19
 -1      1196 9.61578E-05-2.88417E-05-2.88419E-05-1.46399E-08 1.60081E-19-2.37207E-18
 -1      1197 9.62330E-05-2.88611E-05-2.88579E-05-2.05792E-08-7.50278E-20-1.46915E-18
 -1      1198 9.61465E-05-2.88314E-05-2.88221E-05-2.65863E-08 2.58260E-19-9.59568E-19
 -1      1199 9.57939E-05-2.87220E-05-2.87035E-05-3.08777E-08-2.02162E-19-1.36344E-19
 -1      1200 9.50458E-05-2.84947E-05-2.84642E-05-3.06928E-08-3.78478E-19 1.39680E-18
 -1      1201 9.37633E-05-2.81094E-05-2.80655E-05-2.25202E-08-1.94190E-19 2.69759E-18
 -1      1202 9.18295E-05-2.75321E-05-2.74768E-05-2.97341E-09-1.23817E-19 2.38056E-19
 -1      1203 8.91976E-05-2.67496E-05-2.66901E-05 2.95453E-08-4.61740E-20 9.94311E-19
 -1      1204 8.59476E-05-2.57853E-05-2.57346E-05 7.27168E-08 4.90452E-20 8.99020E-19
 -1      1205 8.23318E-05-2.47125E-05-2.46876E-05 1.18760E-07-1.06823E-19 2.01350E-18
 -1      1206 7.87791E-05-2.36565E-05-2.36730E-05 1.55039E-07-1.46318E-19 3.14024E-18
 -1      1207 7.58331E-05-2.27770E-05-2.28420E-05 1.67899E-07 1.28110E-19 2.10280E-18
 -1      1208 7.40211E-05-2.22309E-05-2.23372E-05 1.48770E-07-7.15164E-20 2.41894E-19
 -1      1209 7.36955E-05-2.21256E-05-2.22517E-05 9.92164E-08 1.92837E-19-2.40060E-18
 -1      1210 7.49135E-05-2.24819E-05-2.25990E-05 3.13633E-08 4.34369E-20-1.75317E-18
 -1      1211 7.74168E-05-2.32255E-05-2.33088E-05-3.68840E-08 4.50578E-19-7.09072E-19
 -1      1212 8.07193E-05-2.42125E-05-2.42493E-05-8.93808E-08-3.25566E-19-1.85680E-18
 -1      1213 8.42616E-05-2.52746E-05-2.52669E-05-1.17471E-07-1.95053E-20-2.03796E-18
 -1      1214 8.75601E-05-2.62653E-05-2.62258E-05-1.21228E-07 1.02767E-19-3.29186E-18
 -1      1215 9.02972E-05-2.70881E-05-2.70330E-05-1.06851E-07 4.84397E-20-4.35989E-18
 -1      1216 9.23410E-05-2.77026E-05-2.76464E-05-8.27281E-08 8.60880E-20-4.56276E-18
 -1      1217 9.37121E-05-2.81148E-05-2.80671E-05-5.63571E-08-5.66387E-20-5.27831E-18
 -1      1218 9.45279E-05-2.83600E-05-2.83257E-05-3.29964E-08 1.80279E-19-3.72503E-18
 -1      1219 9.49491E-05-2.84863E-05-2.84660E-05-1.58693E-08 2.79421E-19-4.95838E-18
 -1      1220 9.51365E-05-2.85415E-05-2.85327E-05-6.41091E-09 2.26701E-19-5.29224E-18
 -1      1221 9.52131E-05-2.85631E-05-2.85605E-05-3.52714E-09 3.78478E-19-5.75802E-18
 -1      1222 9.52381E-05-2.85712E-05-2.85713E-05 9.72055E-10-3.15187E-19-4.02118E-18
 -1      1223 9.52358E-05-2.85704E-05-2.85709E-05-5.66465E-10-3.62955E-18-5.35811E-19
 -1      1224 9.52472E-05-2.86084E-05-2.85579E-05-7.57639E-09 2.84975E-19 1.21445E-19
 -1      1225 9.52624E-05-2.86727E-05-2.85465E-05-1.38691E-08 4.35674E-18 1.93978E-20
 -1      1226 9.52550E-05-2.86631E-05-2.85619E-05-1.09878E-08 7.66377E-18 1.51933E-19
 -1      1227 9.51875E-05-2.84492E-05-2.86370E-05 8.67884E-10 8.47078E-18-4.55823E-19
 -1      1228 9.50300E-05-2.79286E-05-2.87980E-05 1.96909E-08 7.82235E-19-9.20699E-19
 -1      1229 9.47716E-05-2.70570E-05-2.90548E-05 3.98602E-08 4.62277E-18-2.24643E-19
 -1      1230 9.44254E-05-2.58795E-05-2.93919E-05 5.66108E-08 9.98350E-18 6.93538E-19
 -1      1231 9.40441E-05-2.45736E-05-2.97575E-05 6.20029E-08 1.08372E-17-3.41184E-19
 -1      1232 9.37077E-05-2.34123E-05-3.00748E-05 4.98081E-08 1.25250E-17 3.57995E-19
 -1      1233 9.35078E-05-2.27146E-05-3.02576E-05 1.76815E-08 1.10237E-17-2.05644E-18
 -1      1234 9.35227E-05-2.27463E-05-3.02379E-05-3.01592E-08 2.74894E-18-1.07489E-19
 -1      1235 9.37764E-05-2.36072E-05-2.99955E-05-7.82145E-08 1.43285E-18 1.12322E-18
 -1      1236 9.42304E-05-2.51614E-05-2.95758E-05-1.10194E-07 3.38497E-18 2.00759E-19
 -1      1237 9.47482E-05-2.69565E-05-2.91011E-05-9.74183E-08 3.81993E-18 3.53429E-19
 -1      1238 9.51306E-05-2.82962E-05-2.87160E-05 1.22271E-08 2.32914E-18-1.06890E-18
 -1      1239 9.52881E-05-2.87067E-05-2.84779E-05 3.66216E-08-3.81872E-18 1.52606E-18
 -1      1240 3.58056E-05-1.13263E-04 2.01063E-05-1.33482E-05-3.62276E-18-1.66707E-19
 -1      1241 1.71353E-05-6.11076E-05 8.68832E-06-2.22251E-05-1.35525E-20 4.46810E-19
 -1      1242 8.95815E-06-1.48278E-06-8.55015E-06 7.01812E-06-1.15196E-18-1.45944E-18
 -1      1243 4.37874E-05 3.01998E-05-3.12836E-05 6.69879E-05-1.48739E-18-1.40607E-19
 -1      1244 1.27424E-04 1.31970E-05-5.38205E-05 1.17838E-04-4.42151E-19-1.07743E-18
 -1      1245 2.26851E-04-3.57122E-05-7.07868E-05 1.19466E-04-1.82112E-19 4.26905E-19
 -1      1246 3.08283E-04-8.45439E-05-8.16127E-05 7.13560E-05 2.71686E-19 1.46367E-18
 -1      1247 3.32075E-04-9.92797E-05-8.46758E-05-1.30170E-05 1.78777E-19-6.78368E-19
 -1      1248 2.86407E-04-7.05923E-05-7.88554E-05-9.14801E-05 1.04884E-18-4.92041E-18
 -1      1249 1.89335E-04-1.54372E-05-6.49554E-05-1.24543E-04 3.95395E-18-7.86385E-18
 -1      1250 8.68642E-05 2.77768E-05-4.50146E-05-1.01539E-04 6.52215E-18-9.13779E-18
 -1      1251 2.24351E-05 2.66598E-05-2.27879E-05-4.40048E-05 4.30293E-18-4.48335E-18
 -1      1252 8.07848E-06-1.93560E-05-2.30787E-06 6.61257E-06 2.58853E-18-2.11758E-18
 -1      1253 2.39835E-05-8.17587E-05 1.34689E-05 2.25984E-05 2.08370E-18-1.22608E-19
 -1      1254 4.01781E-05-1.24316E-04 2.22736E-05 3.51606E-06 5.90594E-18-2.28646E-19
 -1      1255 3.74574E-05-1.24394E-04 2.26326E-05-2.82315E-05 1.82938E-18-2.36269E-19
 -1      1256 1.77352E-05-8.36376E-05 1.44498E-05-4.24303E-05-4.81115E-18-2.45258E-18
 -1      1257 4.88429E-06-2.77652E-05-1.62277E-06-2.12760E-05-7.11338E-18-4.60278E-18
 -1      1258 3.20793E-05 1.14469E-05-2.44491E-05 3.58539E-05-7.01174E-18-8.19420E-18
 -1      1259 1.32301E-04-1.64620E-07-5.22461E-05 1.01280E-04-7.55892E-18-1.32086E-17
 -1      1260 2.84900E-04-6.20409E-05-7.79358E-05 1.14192E-04-5.44685E-18-1.70694E-17
 -1      1261 3.97701E-04-1.19342E-04-9.21210E-05 4.87804E-05-1.44101E-18-1.51433E-17
 -1      1262 3.98794E-04-1.20216E-04-9.20946E-05-5.01345E-05 1.93907E-18-1.63969E-17
 -1      1263 2.95581E-04-6.68333E-05-7.93933E-05-1.13346E-04 2.63766E-18-1.09775E-17
 -1      1264 1.59632E-04-8.35782E-06-5.80911E-05-1.12547E-04 2.51145E-18-4.45370E-18
 -1      1265 5.76992E-05 1.46632E-05-3.39112E-05-6.14554E-05 2.63935E-18-4.66546E-18
 -1      1266 7.83487E-06-4.92712E-06-1.10298E-05-9.83104E-07 9.21572E-19-1.98883E-18
 -1      1267 8.05292E-06-5.44845E-05 7.07052E-06 3.66310E-05-6.37816E-18 1.86771E-18
 -1      1268 2.70213E-05-1.04493E-04 1.89295E-05 4.02156E-05-6.01224E-18 2.77064E-18
 -1      1269 4.13418E-05-1.30337E-04 2.35673E-05 1.66486E-05-6.85472E-18 8.58838E-19
 -1      1270 1.04684E-04-2.18753E-05-3.80281E-05-1.76550E-05-2.14511E-19 1.40120E-18
 -1      1271 9.03113E-05-6.65409E-06-3.60204E-05-2.04941E-05-4.63962E-19-1.53027E-18
 -1      1272 9.25293E-05-6.54836E-06-3.71967E-05-2.57970E-05-6.42051E-19-9.35389E-19
 -1      1273 8.59009E-05-4.08913E-06-3.51309E-05-1.64368E-05-4.10361E-19-2.28747E-18
 -1      1274 8.71573E-05-4.07937E-06-3.56014E-05-1.88504E-05-4.89426E-19-2.00339E-18
 -1      1275 9.21407E-05-1.04608E-05-3.50936E-05-1.90588E-05-7.91791E-19-1.35218E-18
 -1      1276 8.41012E-05-3.19235E-06-3.46871E-05-1.28222E-05-2.70984E-19-2.47013E-18
 -1      1277 8.47081E-05-3.16038E-06-3.49116E-05-1.46378E-05-3.51598E-19-2.41391E-18
 -1      1278 8.78683E-05-7.39137E-06-3.45743E-05-1.54240E-05-6.40251E-19-1.94725E-18
 -1      1279 8.31864E-05-2.72822E-06-3.44698E-05-9.68710E-06-1.32395E-19-2.45187E-18
 -1      1280 8.35028E-05-2.71154E-06-3.45795E-05-1.12348E-05-1.72054E-19-2.48011E-18
 -1      1281 8.58705E-05-5.98706E-06-3.43047E-05-1.19592E-05-3.87332E-19-2.10864E-18
 -1      1282 8.26925E-05-2.45718E-06-3.43634E-05-6.91623E-06-1.79002E-21-2.33657E-18
 -1      1283 8.28625E-05-2.44867E-06-3.44179E-05-8.28718E-06-4.76853E-20-2.38838E-18
 -1      1284 8.48206E-05-5.21725E-06-3.41725E-05-8.94516E-06-1.59431E-19-2.06253E-18
 -1      1285 8.24164E-05-2.29152E-06-3.43103E-05-4.29611E-06 8.60797E-20-2.17055E-18
 -1      1286 8.25078E-05-2.28757E-06-3.43376E-05-5.59737E-06 6.80505E-20-2.25815E-18
 -1      1287 8.42335E-05-4.76134E-06-3.41090E-05-6.21799E-06 2.53498E-20-1.95871E-18
 -1      1288 8.22832E-05-2.20186E-06-3.42878E-05-1.79138E-06 2.21541E-19-2.01472E-18
 -1      1289 8.23224E-05-2.20029E-06-3.42989E-05-3.04230E-06 1.57250E-19-2.07980E-18
 -1      1290 8.39101E-05-4.49717E-06-3.40798E-05-3.64588E-06 1.86902E-19-1.76160E-18
 -1      1291 8.22569E-05-2.17424E-06-3.42850E-05 6.68022E-07 3.25879E-19-1.90970E-18
 -1      1292 8.22556E-05-2.17428E-06-3.42847E-05-5.67675E-07 2.54882E-19-1.97825E-18
 -1      1293 8.37680E-05-4.37713E-06-3.40688E-05-1.17206E-06 4.09087E-19-1.67604E-18
 -1      1294 8.23307E-05-2.20451E-06-3.43003E-05 3.14622E-06 3.78999E-19-1.82033E-18
 -1      1295 8.22887E-05-2.20614E-06-3.42885E-05 1.89276E-06 3.63446E-19-1.89416E-18
 -1      1296 8.37728E-05-4.38125E-06-3.40691E-05 1.27182E-06 5.69205E-19-1.60705E-18
 -1      1297 8.25242E-05-2.29758E-06-3.43401E-05 5.71018E-06 4.39312E-19-1.65084E-18
 -1      1298 8.24295E-05-2.30096E-06-3.43120E-05 4.40318E-06 4.20087E-19-1.76252E-18
 -1      1299 8.39250E-05-4.51027E-06-3.40808E-05 3.74987E-06 6.61880E-19-1.45821E-18
 -1      1300 8.28842E-05-2.46327E-06-3.44205E-05 8.39159E-06 5.01635E-19-1.33332E-18
 -1      1301 8.27112E-05-2.47199E-06-3.43654E-05 7.01200E-06 4.87368E-19-1.52946E-18
 -1      1302 8.42579E-05-4.78348E-06-3.41100E-05 6.30809E-06 7.71080E-19-1.29008E-18
 -1      1303 8.35433E-05-2.74057E-06-3.45840E-05 1.13912E-05 6.46021E-19-9.03334E-19
 -1      1304 8.32213E-05-2.75766E-06-3.44733E-05 9.82648E-06 5.84413E-19-1.13988E-18
 -1      1305 8.48610E-05-5.25659E-06-3.41733E-05 9.05082E-06 8.96657E-19-9.46850E-19
 -1      1306 8.47688E-05-3.20592E-06-3.49185E-05 1.48397E-05 7.18284E-19-2.42807E-19
 -1      1307 8.41540E-05-3.24075E-06-3.46918E-05 1.29988E-05 6.77468E-19-6.44989E-19
 -1      1308 8.59457E-05-6.06242E-06-3.43061E-05 1.21174E-05 1.06177E-18-5.16055E-19
 -1      1309 8.72519E-05-4.08892E-06-3.56198E-05 1.90899E-05 7.10396E-19 9.52330E-19
 -1      1310 8.59730E-05-4.15422E-06-3.51367E-05 1.66931E-05 6.63015E-19 2.39843E-19
 -1      1311 8.79899E-05-7.51916E-06-3.45748E-05 1.56486E-05 1.10654E-18 2.66709E-19
 -1      1312 9.34686E-05-6.79396E-06-3.71179E-05 2.50919E-05 6.22675E-19 2.86636E-18
 -1      1313 9.01328E-05-6.43708E-06-3.60396E-05 2.11440E-05 5.94564E-19 1.72811E-18
 -1      1314 9.23563E-05-1.06955E-05-3.50783E-05 1.96749E-05 1.04685E-18 1.48421E-18
 -1      1315 1.23628E-04-2.49242E-05-3.90160E-05 2.83644E-05 2.40028E-19 6.00716E-18
 -1      1316 1.00085E-04-1.44247E-05-3.73555E-05 2.40475E-05 3.10014E-19 3.85464E-18
 -1      1317 1.01687E-04-1.93458E-05-3.54042E-05 2.13966E-05 9.49901E-19 3.20729E-18
 -1      1318 1.02609E-04-2.78063E-05-3.47594E-05 7.32698E-06 4.73041E-19 5.93325E-18
 -1      1319 1.05667E-04-3.01057E-05-3.38054E-05-8.47440E-06-5.41148E-19 1.72519E-18
 -1      1320 9.85617E-05-2.78122E-05-3.09530E-05-5.24609E-06-4.82915E-19 1.02533E-18
 -1      1321 9.58100E-05-2.78959E-05-2.93904E-05-2.60514E-06-4.46598E-19 7.98315E-19
 -1      1322 9.34646E-05-2.75972E-05-2.82949E-05-2.14202E-06-4.47286E-19 1.58819E-19
 -1      1323 9.97171E-05-2.79221E-05-3.11329E-05-8.26280E-06-8.72867E-19-9.66676E-20
 -1      1324 9.17093E-05-2.72233E-05-2.76322E-05-8.85230E-07-3.65376E-19-9.74088E-21
 -1      1325 9.09476E-05-2.71224E-05-2.73087E-05-7.71207E-07-3.67573E-19-5.55336E-19
 -1      1326 9.48885E-05-2.77854E-05-2.88889E-05-3.27922E-06-7.32869E-19-3.92931E-19
 -1      1327 9.01646E-05-2.69323E-05-2.70531E-05-1.96005E-07-2.68367E-19-7.27072E-19
 -1      1328 9.00721E-05-2.69552E-05-2.70105E-05-1.35931E-07-2.72096E-19-1.19583E-18
 -1      1329 9.26027E-05-2.75130E-05-2.79280E-05-1.12174E-06-6.21391E-19-6.16375E-19
 -1      1330 8.97961E-05-2.68836E-05-2.69308E-05 1.44178E-07-2.49527E-19-1.36364E-18
 -1      1331 9.00022E-05-2.69719E-05-2.69897E-05 1.74036E-07-1.83988E-19-1.63596E-18
 -1      1332 9.15993E-05-2.73627E-05-2.75430E-05-1.02021E-07-4.29241E-19-1.10316E-18
 -1      1333 8.99980E-05-2.69729E-05-2.69938E-05 3.10458E-07-1.06852E-19-1.63385E-18
 -1      1334 9.03378E-05-2.70921E-05-2.70921E-05 3.22887E-07-1.28359E-19-1.83289E-18
 -1      1335 9.13229E-05-2.73461E-05-2.74268E-05 4.03350E-07-2.60203E-19-1.36428E-18
 -1      1336 9.04766E-05-2.71330E-05-2.71384E-05 3.80549E-07-2.85759E-19-1.85471E-18
 -1      1337 9.08650E-05-2.72616E-05-2.72506E-05 3.82668E-07-3.15819E-19-2.28315E-18
 -1      1338 9.14449E-05-2.74175E-05-2.74452E-05 6.41719E-07-4.33466E-19-1.34485E-18
 -1      1339 9.10729E-05-2.73219E-05-2.73170E-05 3.95146E-07-4.51582E-20-2.32948E-18
 -1      1340 9.14629E-05-2.74475E-05-2.74299E-05 3.91234E-07-8.52083E-20-2.33803E-18
 -1      1341 9.17741E-05-2.75359E-05-2.75328E-05 7.30236E-07-3.73903E-19-1.46802E-18
 -1      1342 9.16960E-05-2.75148E-05-2.75035E-05 3.77905E-07-1.45103E-19-2.38306E-18
 -1      1343 9.20616E-05-2.76304E-05-2.76098E-05 3.70707E-07-1.91768E-19-2.51488E-18
 -1      1344 9.21973E-05-2.76738E-05-2.76531E-05 7.32423E-07-1.84421E-19-1.67576E-18
 -1      1345 9.22941E-05-2.76973E-05-2.76828E-05 3.43559E-07-1.74174E-19-2.50684E-18
 -1      1346 9.26218E-05-2.77997E-05-2.77785E-05 3.34882E-07-1.06227E-19-2.68150E-18
 -1      1347 9.26465E-05-2.78139E-05-2.77843E-05 6.86127E-07-2.38359E-19-1.63665E-18
 -1      1348 9.28392E-05-2.78620E-05-2.78465E-05 3.01607E-07-5.04065E-20-2.71322E-18
 -1      1349 9.31238E-05-2.79501E-05-2.79300E-05 2.92640E-07-2.48892E-20-2.74924E-18
 -1      1350 9.30820E-05-2.79463E-05-2.79134E-05 6.15195E-07-1.38791E-19-1.83383E-18
 -1      1351 9.33190E-05-2.80060E-05-2.79909E-05 2.58234E-07-6.60959E-20-2.68785E-18
 -1      1352 9.35607E-05-2.80800E-05-2.80620E-05 2.49749E-07-1.02935E-19-2.84884E-18
 -1      1353 9.34822E-05-2.80660E-05-2.80334E-05 5.35052E-07-1.00889E-19-2.06456E-18
 -1      1354 9.37315E-05-2.81289E-05-2.81153E-05 2.17467E-07-2.36577E-19-2.77578E-18
 -1      1355 9.39335E-05-2.81903E-05-2.81749E-05 2.09961E-07-1.58317E-19-2.91210E-18
 -1      1356 9.38379E-05-2.81708E-05-2.81410E-05 4.55752E-07-1.41727E-19-2.24494E-18
 -1      1357 9.40810E-05-2.82323E-05-2.82209E-05 1.81945E-07-1.03603E-19-2.98421E-18
 -1      1358 9.42487E-05-2.82828E-05-2.82705E-05 1.75714E-07-1.59983E-19-3.41435E-18
 -1      1359 9.41478E-05-2.82610E-05-2.82354E-05 3.83864E-07-3.13634E-19-2.34553E-18
 -1      1360 9.43702E-05-2.83175E-05-2.83084E-05 1.54403E-07 7.94500E-20-3.13802E-18
 -1      1361 9.45049E-05-2.83576E-05-2.83483E-05 1.49923E-07 1.75431E-19-3.06616E-18
 -1      1362 9.44100E-05-2.83361E-05-2.83158E-05 3.24869E-07 7.91064E-20-2.22893E-18
 -1      1363 9.46188E-05-2.83899E-05-2.83838E-05 1.34285E-07 2.97621E-19-2.71678E-18
 -1      1364 9.47417E-05-2.84261E-05-2.84204E-05 1.31235E-07 1.78158E-19-2.50735E-18
 -1      1365 9.46401E-05-2.84014E-05-2.83870E-05 2.80878E-07 4.67463E-19-1.85734E-18
 -1      1366 9.48472E-05-2.84559E-05-2.84532E-05 1.23842E-07-2.26386E-20-1.95375E-18
 -1      1367 9.49606E-05-2.84888E-05-2.84871E-05 1.22833E-07 3.45031E-20-1.95988E-18
 -1      1368 9.48541E-05-2.84611E-05-2.84537E-05 2.53433E-07 2.93663E-19-1.14028E-18
 -1      1369 9.50661E-05-2.85185E-05-2.85200E-05 1.25543E-07-1.51407E-19-1.76294E-18
 -1      1370 9.51818E-05-2.85516E-05-2.85547E-05 1.27003E-07-2.62750E-19-2.08673E-18
 -1      1371 9.50601E-05-2.85174E-05-2.85185E-05 2.47943E-07-1.29677E-19-5.98195E-19
 -1      1372 9.52982E-05-2.85840E-05-2.85911E-05 1.42686E-07-1.83227E-19-1.91982E-18
 -1      1373 9.54312E-05-2.86217E-05-2.86310E-05 1.47356E-07 3.82848E-20-1.62852E-18
 -1      1374 9.52765E-05-2.85753E-05-2.85873E-05 2.70046E-07-2.03256E-19-1.09733E-18
 -1      1375 9.55726E-05-2.86607E-05-2.86754E-05 1.80661E-07 2.95968E-19-1.67246E-18
 -1      1376 9.57434E-05-2.87088E-05-2.87268E-05 1.89776E-07 3.74393E-19-1.31606E-18
 -1      1377 9.55271E-05-2.86410E-05-2.86677E-05 3.28664E-07 2.47745E-19-9.62629E-19
 -1      1378 9.59294E-05-2.87595E-05-2.87856E-05 2.48250E-07-1.39893E-19-1.25341E-18
 -1      1379 9.61675E-05-2.88264E-05-2.88571E-05 2.63852E-07-3.20467E-19-1.78061E-18
 -1      1380 9.58442E-05-2.87224E-05-2.87703E-05 4.38214E-07 8.00099E-20-9.52093E-19
 -1      1381 9.64260E-05-2.88960E-05-2.89394E-05 3.59666E-07-2.64395E-19-1.61384E-18
 -1      1382 9.67759E-05-2.89943E-05-2.90445E-05 3.85097E-07-2.40297E-19-2.06199E-18
 -1      1383 9.62724E-05-2.88302E-05-2.89098E-05 6.21939E-07-3.24127E-19-7.97218E-19
 -1      1384 9.71472E-05-2.90929E-05-2.91638E-05 5.37686E-07-2.59860E-19-2.31604E-18
 -1      1385 9.76771E-05-2.92420E-05-2.93230E-05 5.78379E-07-1.82139E-19-2.81287E-18
 -1      1386 9.68758E-05-2.89792E-05-2.91077E-05 9.16984E-07-5.27228E-19-1.57901E-18
 -1      1387 9.82205E-05-2.93842E-05-2.94992E-05 8.18356E-07-1.38715E-19-3.02563E-18
 -1      1388 9.90372E-05-2.96145E-05-2.97448E-05 8.83065E-07-2.27681E-19-3.02017E-18
 -1      1389 9.77471E-05-2.91902E-05-2.93955E-05 1.38201E-06-2.60244E-19-2.24563E-18
 -1      1390 9.98394E-05-2.98211E-05-3.00078E-05 1.25760E-06-2.27336E-19-3.05039E-18
 -1      1391 1.01110E-04-3.01808E-05-3.03903E-05 1.36022E-06-1.93980E-19-3.03974E-18
 -1      1392 9.90214E-05-2.94928E-05-2.98192E-05 2.10796E-06-2.82787E-19-2.70379E-18
 -1      1393 1.02295E-04-3.04811E-05-3.07836E-05 1.93909E-06 2.51198E-19-3.25436E-18
 -1      1394 1.04276E-04-3.10457E-05-3.13812E-05 2.10096E-06 1.51546E-19-2.58706E-18
 -1      1395 1.00893E-04-2.99297E-05-3.04454E-05 3.23132E-06-8.32475E-20-2.67180E-18
 -1      1396 1.06016E-04-3.14804E-05-3.19657E-05 2.97904E-06-3.79180E-19-2.47375E-18
 -1      1397 1.09088E-04-3.23663E-05-3.28922E-05 3.23075E-06-3.65912E-19-3.16192E-18
 -1      1398 1.03634E-04-3.05632E-05-3.13661E-05 4.94435E-06 2.22326E-19-2.33618E-18
 -1      1399 1.11601E-04-3.29905E-05-3.37439E-05 4.51231E-06 2.17052E-21-3.41103E-18
 -1      1400 1.16282E-04-3.43689E-05-3.51453E-05 4.88903E-06-8.61856E-20-3.37220E-18
 -1      1401 1.07606E-04-3.14900E-05-3.26974E-05 7.48168E-06-6.96486E-19-2.93747E-18
 -1      1402 1.19808E-04-3.52729E-05-3.63349E-05 6.61583E-06-9.21545E-20-2.91099E-18
 -1      1403 1.26627E-04-3.73420E-05-3.83358E-05 7.13478E-06-4.22722E-19-3.15213E-18
 -1      1404 1.13245E-04-3.28727E-05-3.45530E-05 1.10262E-05-3.68208E-19-3.51102E-18
 -1      1405 1.31068E-04-3.85664E-05-3.97839E-05 9.00188E-06-2.90135E-19-2.84391E-18
 -1      1406 1.39776E-04-4.14066E-05-4.22081E-05 9.52678E-06 7.06015E-20-2.98685E-18
 -1      1407 1.20787E-04-3.49850E-05-3.68920E-05 1.52715E-05 4.45619E-20-2.71600E-18
 -1      1408 1.45578E-04-4.32770E-05-4.38978E-05 1.07280E-05 3.93976E-19-3.05461E-18
 -1      1409 1.55891E-04-4.70830E-05-4.64722E-05 1.09592E-05 3.18630E-20-2.68065E-18
 -1      1410 1.30633E-04-3.84421E-05-3.95837E-05 1.90846E-05 2.58335E-19-2.24540E-18
 -1      1411 1.62357E-04-4.98380E-05-4.78865E-05 9.08501E-06 1.97729E-20-2.73740E-18
 -1      1412 1.69564E-04-5.32541E-05-4.92103E-05 7.83457E-06 2.39499E-19-2.60021E-18
 -1      1413 1.43064E-04-4.44409E-05-4.21491E-05 1.89232E-05-5.64600E-20-3.00109E-18
 -1      1414 1.75204E-04-5.65429E-05-4.98932E-05 1.99240E-07 4.37281E-19-2.85688E-18
 -1      1415 1.71518E-04-5.59017E-05-4.87941E-05-3.26657E-06 5.36701E-19-2.50065E-18
 -1      1416 1.56383E-04-5.29992E-05-4.39591E-05 8.70047E-06 1.54372E-19-2.91966E-18
 -1      1417 1.74680E-04-5.75721E-05-4.95188E-05-1.57652E-05 1.30716E-18-2.00472E-18
 -1      1418 1.54730E-04-4.87878E-05-4.64194E-05-2.00667E-05 9.18395E-19-4.05305E-19
 -1      1419 1.67783E-04-5.95861E-05-4.59777E-05-1.52786E-05 1.40631E-18-4.03475E-18
 -1      1420 1.53024E-04-4.48920E-05-4.78914E-05-2.35184E-05 6.35275E-21-2.33781E-19
 -1      1421 1.31265E-04-3.35257E-05-4.53455E-05-2.11306E-05-6.32310E-19-9.65618E-20
 -1      1422 1.70911E-04-5.38121E-05-5.05873E-05-3.46991E-05 6.58568E-19-4.25041E-18
 -1      1423 1.30225E-04-3.01884E-05-4.65216E-05-7.91045E-06-8.18234E-19 3.45801E-19
 -1      1424 1.26574E-04-2.77980E-05-4.61427E-05-1.51024E-06-6.75085E-19 1.90794E-19
 -1      1425 1.68030E-04-3.76720E-05-5.61138E-05-2.35486E-05-6.21722E-19-3.09792E-18
 -1      1426 1.27068E-04-2.99072E-05-4.56469E-05 1.52436E-05-1.27902E-18-3.23672E-19
 -1      1427 1.41710E-04-3.70296E-05-4.72999E-05 1.86468E-05-1.22650E-18-1.76860E-18
 -1      1428 1.66413E-04-3.27576E-05-5.77483E-05 1.01950E-05-1.61021E-18-4.17513E-18
 -1      1429 1.43912E-04-4.23182E-05-4.57114E-05 2.34727E-05-1.27415E-18-1.91345E-18
 -1      1430 1.65396E-04-5.23667E-05-4.86174E-05 2.19224E-05-1.11925E-18-3.36272E-18
 -1      1431 1.69951E-04-4.68349E-05-5.34749E-05 3.52444E-05-2.24633E-18-3.57183E-18
 -1      1432 1.65662E-04-5.41024E-05-4.75854E-05 1.15567E-05-6.17169E-19-3.73923E-18
 -1      1433 1.77018E-04-5.83134E-05-4.99223E-05 6.86857E-06-8.43248E-19-5.47215E-18
 -1      1434 1.69997E-04-5.84424E-05-4.79081E-05 2.70809E-05-1.10411E-18-3.04545E-18
 -1      1435 1.72055E-04-5.51332E-05-4.93523E-05-3.66168E-06-3.46595E-19-4.70262E-18
 -1      1436 1.69094E-04-5.32106E-05-4.90641E-05-5.82163E-06 2.94873E-19-4.14173E-18
 -1      1437 1.62223E-04-5.67935E-05-4.46896E-05 1.08448E-06-6.17487E-19-3.96677E-18
 -1      1438 1.62982E-04-5.00718E-05-4.80158E-05-1.03032E-05 8.71385E-19-3.93097E-18
 -1      1439 1.53861E-04-4.64157E-05-4.59377E-05-1.05880E-05 7.31082E-19-2.90363E-18
 -1      1440 1.49511E-04-4.84004E-05-4.30370E-05-1.54941E-05 1.10331E-18-2.76829E-18
 -1      1441 1.47518E-04-4.40548E-05-4.43114E-05-1.06472E-05 5.79021E-19-2.50383E-18
 -1      1442 1.37427E-04-4.05649E-05-4.16231E-05-1.01802E-05-1.12492E-19-2.23818E-18
 -1      1443 1.36428E-04-4.11065E-05-4.08382E-05-1.99608E-05 1.29480E-18-2.43114E-18
 -1      1444 1.32058E-04-3.90101E-05-3.99554E-05-8.46040E-06 2.59933E-20-1.70381E-18
 -1      1445 1.23968E-04-3.64477E-05-3.76287E-05-7.90459E-06 2.55103E-19-1.90715E-18
 -1      1446 1.24924E-04-3.63689E-05-3.80628E-05-1.75801E-05 1.72259E-19-2.24464E-18
 -1      1447 1.19773E-04-3.53619E-05-3.62381E-05-6.03934E-06 2.61614E-19-5.52795E-19
 -1      1448 1.13996E-04-3.36232E-05-3.45172E-05-5.60563E-06 4.72512E-19 4.16634E-19
 -1      1449 1.15855E-04-3.35573E-05-3.53881E-05-1.32706E-05 1.22399E-18-1.87177E-18
 -1      1450 1.10901E-04-3.28499E-05-3.34762E-05-4.12203E-06 4.25376E-19-2.08952E-19
 -1      1451 1.06975E-04-3.16985E-05-3.22929E-05-3.82532E-06 5.15598E-19 1.04118E-18
 -1      1452 1.09050E-04-3.17846E-05-3.32007E-05-9.34029E-06 4.55505E-19-4.19387E-19
 -1      1453 1.04767E-04-3.11449E-05-3.15552E-05-2.76890E-06 6.85554E-19 1.65864E-18
 -1      1454 1.02150E-04-3.03834E-05-3.07669E-05-2.57400E-06 7.69344E-19 2.72682E-18
 -1      1455 1.04115E-04-3.05908E-05-3.15677E-05-6.37791E-06 1.55474E-18 8.79549E-20
 -1      1456 1.00609E-04-2.99870E-05-3.02611E-05-1.83852E-06-5.45916E-19 1.35940E-18
 -1      1457 9.88920E-05-2.94839E-05-2.97492E-05-1.70493E-06-1.61520E-18 3.12264E-19
 -1      1458 1.00613E-04-2.97474E-05-3.04094E-05-4.29089E-06-8.00565E-19-8.84160E-19
 -1      1459 9.78512E-05-2.92041E-05-2.94170E-05-1.16073E-06-2.31280E-19 1.76382E-18
 -1      1460 9.67969E-05-2.88892E-05-2.91072E-05-1.05176E-06-3.44736E-19 6.85804E-19
 -1      1461 9.81811E-05-2.91360E-05-2.96206E-05-2.79833E-06-7.59444E-19-8.37962E-19
 -1      1462 9.61202E-05-2.86741E-05-2.89058E-05-5.84331E-07 1.14871E-19 1.48945E-18
 -1      1463 9.56311E-05-2.85506E-05-2.87478E-05-4.63328E-07 2.14428E-19 2.12309E-18
 -1      1464 9.65537E-05-2.86797E-05-2.91128E-05-1.62598E-06 1.91178E-20-2.92594E-19
 -1      1465 9.52411E-05-2.85263E-05-2.85831E-05 6.11173E-09-2.24407E-18 2.79948E-18
 -1      1466 9.65822E-05-2.83634E-05-2.97737E-05 2.99346E-06 3.27696E-19 5.08297E-18
 -1      1467 1.02543E-04-2.94004E-05-3.21576E-05 4.46356E-06 3.40825E-19 5.63679E-18
 -1      1468 1.02332E-04-2.67179E-05-3.27076E-05 1.27836E-05 6.93032E-19 3.99175E-18
 -1      1469 9.20341E-05-2.74291E-05-2.77629E-05 1.15346E-06 3.37357E-19 4.28059E-18
 -1      1470 9.39854E-05-2.75879E-05-2.86770E-05 1.47530E-06 2.50920E-19 4.73288E-18
 -1      1471 9.64949E-05-2.80308E-05-2.95352E-05 4.86998E-06 5.73997E-19 3.35826E-18
 -1      1472 9.02063E-05-2.70081E-05-2.70644E-05 3.30146E-07 2.44951E-19 3.57946E-18
 -1      1473 9.08211E-05-2.70245E-05-2.73367E-05 4.92128E-07 2.91889E-19 3.97759E-18
 -1      1474 9.30462E-05-2.75730E-05-2.81002E-05 1.85221E-06 5.70371E-19 2.79342E-18
 -1      1475 8.96933E-05-2.68905E-05-2.68907E-05-5.67117E-08 2.48763E-19 2.98467E-18
 -1      1476 8.97290E-05-2.68273E-05-2.69178E-05 3.18327E-08 1.68962E-19 3.31897E-18
 -1      1477 9.14975E-05-2.73081E-05-2.75177E-05 5.15276E-07 4.68098E-19 2.19916E-18
 -1      1478 8.98282E-05-2.69433E-05-2.69340E-05-2.44052E-07 2.10021E-20 2.65927E-18
 -1      1479 8.95981E-05-2.68353E-05-2.68681E-05-1.93655E-07 1.12195E-19 2.85458E-18
 -1      1480 9.09704E-05-2.72305E-05-2.73229E-05-1.35307E-07 2.96763E-19 1.92339E-18
 -1      1481 9.02840E-05-2.70866E-05-2.70731E-05-3.27459E-07-5.83336E-20 2.83403E-18
 -1      1482 8.99352E-05-2.69588E-05-2.69711E-05-2.99637E-07-7.57441E-20 2.73842E-18
 -1      1483 9.09906E-05-2.72743E-05-2.73129E-05-4.54059E-07-1.09006E-19 2.07928E-18
 -1      1484 9.08820E-05-2.72700E-05-2.72535E-05-3.52453E-07-6.18950E-20 3.12952E-18
 -1      1485 9.04923E-05-2.71389E-05-2.71394E-05-3.38588E-07-2.20270E-19 2.85621E-18
 -1      1486 9.12979E-05-2.73871E-05-2.73953E-05-5.95088E-07-2.02461E-19 1.94098E-18
 -1      1487 9.15201E-05-2.74636E-05-2.74456E-05-3.43884E-07 1.58846E-19 2.79127E-18
 -1      1488 9.11326E-05-2.73391E-05-2.73319E-05-3.38755E-07 1.28969E-19 2.97683E-18
 -1      1489 9.17422E-05-2.75319E-05-2.75223E-05-6.34582E-07 6.08841E-20 1.81488E-18
 -1      1490 9.21396E-05-2.76503E-05-2.76323E-05-3.16922E-07 4.04492E-19 2.03985E-18
 -1      1491 9.17784E-05-2.75376E-05-2.75259E-05-3.17143E-07 3.49931E-19 2.53119E-18
 -1      1492 9.22346E-05-2.76857E-05-2.76662E-05-6.15977E-07 4.74788E-19 1.39836E-18
 -1      1493 9.27089E-05-2.78211E-05-2.78041E-05-2.81203E-07 5.80680E-20 1.78307E-18
 -1      1494 9.23859E-05-2.77223E-05-2.77087E-05-2.84504E-07 9.09001E-20 1.91751E-18
 -1      1495 9.27229E-05-2.78347E-05-2.78107E-05-5.65895E-07 3.47986E-19 1.07630E-18
 -1      1496 9.32134E-05-2.79718E-05-2.79567E-05-2.42946E-07 2.21666E-19 1.71196E-18
 -1      1497 9.29329E-05-2.78874E-05-2.78736E-05-2.47781E-07 5.74307E-20 1.82333E-18
 -1      1498 9.31783E-05-2.79715E-05-2.79466E-05-5.01296E-07-5.44905E-22 1.33397E-18
 -1      1499 9.36498E-05-2.81018E-05-2.80888E-05-2.06151E-07 3.08121E-19 1.13441E-18
 -1      1500 9.34110E-05-2.80308E-05-2.80179E-05-2.11462E-07 3.58119E-19 1.40404E-18
 -1      1501 9.35867E-05-2.80929E-05-2.80692E-05-4.33141E-07 4.51890E-19 9.06842E-19
 -1      1502 9.40216E-05-2.82121E-05-2.82015E-05-1.73323E-07 2.61002E-19 3.39490E-19
 -1      1503 9.38209E-05-2.81531E-05-2.81418E-05-1.78385E-07 1.62789E-19 7.56247E-19
 -1      1504 9.39442E-05-2.81981E-05-2.81771E-05-3.68463E-07 5.90689E-19 3.87318E-19
 -1      1505 9.43369E-05-2.83055E-05-2.82973E-05-1.45938E-07 5.70211E-20-7.64141E-20
 -1      1506 9.41686E-05-2.82563E-05-2.82470E-05-1.50263E-07 2.92621E-19 1.69514E-19
 -1      1507 9.42528E-05-2.82881E-05-2.82707E-05-3.11633E-07 3.91147E-19-1.37366E-19
 -1      1508 9.46065E-05-2.83851E-05-2.83793E-05-1.24739E-07-9.41111E-20-1.40284E-19
 -1      1509 9.44638E-05-2.83435E-05-2.83365E-05-1.28010E-07-4.04969E-20-1.17249E-19
 -1      1510 9.45189E-05-2.83652E-05-2.83517E-05-2.65163E-07 5.10863E-20-3.09616E-19
 -1      1511 9.48419E-05-2.84545E-05-2.84509E-05-1.09897E-07 2.78445E-19-5.70262E-19
 -1      1512 9.47179E-05-2.84182E-05-2.84137E-05-1.11935E-07 1.85221E-19-4.35762E-19
 -1      1513 9.47508E-05-2.84320E-05-2.84226E-05-2.30203E-07 3.07949E-19-7.61811E-19
 -1      1514 9.50548E-05-2.85174E-05-2.85156E-05-1.01052E-07 4.44101E-19-1.43519E-18
 -1      1515 9.49427E-05-2.84842E-05-2.84819E-05-1.01811E-07 4.48491E-19-5.68204E-19
 -1      1516 9.49577E-05-2.84915E-05-2.84859E-05-2.06770E-07 5.36736E-19-1.10232E-18
 -1      1517 9.52556E-05-2.85768E-05-2.85765E-05-9.72267E-08-3.44106E-19-1.56625E-18
 -1      1518 9.51494E-05-2.85450E-05-2.85447E-05-9.68191E-08 1.30396E-19-1.41561E-18
 -1      1519 9.51486E-05-2.85466E-05-2.85443E-05-1.93735E-07 4.77211E-19-1.27715E-18
 -1      1520 9.54516E-05-2.86353E-05-2.86357E-05-9.65987E-08-1.74398E-19-5.32105E-19
 -1      1521 9.53472E-05-2.86035E-05-2.86045E-05-9.53663E-08-5.17162E-19-1.44949E-18
 -1      1522 9.53308E-05-2.85997E-05-2.85997E-05-1.88565E-07-6.22651E-19-3.26009E-19
 -1      1523 9.56455E-05-2.86938E-05-2.86938E-05-9.61496E-08-3.71787E-19-2.84848E-19
 -1      1524 9.55412E-05-2.86617E-05-2.86629E-05-9.47714E-08-2.13872E-19-5.04236E-19
 -1      1525 9.55084E-05-2.86525E-05-2.86532E-05-1.86806E-07-4.56594E-19-5.14337E-19
 -1      1526 9.58317E-05-2.87511E-05-2.87489E-05-9.11986E-08 2.88542E-19 5.71416E-20
 -1      1527 9.57307E-05-2.87198E-05-2.87194E-05-9.08407E-08-1.09889E-20-2.13395E-19
 -1      1528 9.56800E-05-2.87053E-05-2.87039E-05-1.81335E-07-2.32907E-19-1.02686E-18
 -1      1529 9.59935E-05-2.88026E-05-2.87958E-05-7.49144E-08 4.49868E-19-1.33758E-18
 -1      1530 9.59053E-05-2.87753E-05-2.87706E-05-7.74012E-08 5.13755E-19-2.02394E-19
 -1      1531 9.58363E-05-2.87559E-05-2.87486E-05-1.61495E-07 6.21616E-19-8.12535E-19
 -1      1532 9.60976E-05-2.88386E-05-2.88241E-05-3.79817E-08 2.66304E-19-1.91202E-18
 -1      1533 9.60413E-05-2.88219E-05-2.88091E-05-4.59437E-08 2.39231E-19-1.55692E-18
 -1      1534 9.59564E-05-2.87992E-05-2.87803E-05-1.12325E-07 6.18366E-19-9.17261E-19
 -1      1535 9.60905E-05-2.88437E-05-2.88175E-05 3.12501E-08-2.57474E-19-1.01474E-18
 -1      1536 9.60969E-05-2.88478E-05-2.88219E-05 1.43445E-08-3.59958E-19-1.38768E-18
 -1      1537 9.60046E-05-2.88253E-05-2.87878E-05-1.43625E-08-4.05670E-19-1.36311E-18
 -1      1538 9.58949E-05-2.87944E-05-2.87526E-05 1.45640E-07-1.15998E-19 1.18376E-19
 -1      1539 9.60086E-05-2.88343E-05-2.87898E-05 1.15717E-07-3.52462E-20 7.52441E-20
 -1      1540 9.59268E-05-2.88187E-05-2.87543E-05 1.55239E-07-6.07893E-19 8.03747E-20
 -1      1541 9.54108E-05-2.86602E-05-2.85999E-05 3.16533E-07-8.63125E-19 1.24470E-18
 -1      1542 9.56896E-05-2.87552E-05-2.86867E-05 2.69608E-07-6.34995E-19 2.20346E-19
 -1      1543 9.56501E-05-2.87571E-05-2.86581E-05 4.19273E-07-6.80028E-19 1.31648E-18
 -1      1544 9.45239E-05-2.84049E-05-2.83264E-05 5.48939E-07-5.22087E-19 2.31138E-18
 -1      1545 9.50339E-05-2.85768E-05-2.84817E-05 4.82456E-07-5.16842E-19 1.50783E-18
 -1      1546 9.50861E-05-2.86119E-05-2.84739E-05 7.93653E-07-8.53392E-19 2.09987E-18
 -1      1547 9.31259E-05-2.79926E-05-2.79019E-05 8.34680E-07 1.56607E-19 2.00102E-18
 -1      1548 9.39293E-05-2.82618E-05-2.81426E-05 7.49532E-07-8.50606E-20 2.57052E-18
 -1      1549 9.41420E-05-2.83504E-05-2.81765E-05 1.27675E-06-2.53501E-19 2.37968E-18
 -1      1550 9.11476E-05-2.73980E-05-2.73090E-05 1.14495E-06 1.03745E-20 1.46361E-18
 -1      1551 9.22830E-05-2.77766E-05-2.76447E-05 1.04781E-06 8.94976E-20 1.92603E-18
 -1      1552 9.27415E-05-2.79417E-05-2.77477E-05 1.83613E-06 1.35204E-19 2.09181E-18
 -1      1553 8.86032E-05-2.66208E-05-2.65554E-05 1.42584E-06-3.91113E-19 1.53294E-18
 -1      1554 9.00598E-05-2.71032E-05-2.69810E-05 1.33081E-06-3.26594E-19 1.13492E-18
 -1      1555 9.08563E-05-2.73675E-05-2.71850E-05 2.39701E-06-1.95357E-19 1.29605E-18
 -1      1556 8.56344E-05-2.57009E-05-2.56858E-05 1.60212E-06-6.49820E-19 2.15612E-18
 -1      1557 8.73267E-05-2.62558E-05-2.61746E-05 1.53007E-06-2.17008E-19 1.71882E-18
 -1      1558 8.85428E-05-2.66355E-05-2.65109E-05 2.84059E-06-6.27733E-19 1.99282E-18
 -1      1559 8.25323E-05-2.47281E-05-2.47860E-05 1.59396E-06 2.11039E-19 2.72692E-18
 -1      1560 8.42884E-05-2.52945E-05-2.52879E-05 1.56817E-06-1.28431E-19 2.33373E-18
 -1      1561 8.59723E-05-2.57939E-05-2.57787E-05 3.02162E-06-3.47286E-19 2.87447E-18
 -1      1562 7.97148E-05-2.38365E-05-2.39749E-05 1.34598E-06 6.40223E-19 2.42153E-18
 -1      1563 8.12917E-05-2.43303E-05-2.44213E-05 1.38410E-06 1.96454E-19 2.33117E-18
 -1      1564 8.34353E-05-2.49380E-05-2.50711E-05 2.80981E-06 2.39743E-19 1.33924E-18
 -1      1565 7.76449E-05-2.31784E-05-2.33811E-05 8.58767E-07-2.68327E-19 1.63216E-18
 -1      1566 7.87782E-05-2.35111E-05-2.36993E-05 9.63880E-07 2.22363E-19 2.49532E-18
 -1      1567 8.13030E-05-2.42006E-05-2.44872E-05 2.14658E-06 3.47853E-19 1.85406E-18
 -1      1568 7.67051E-05-2.28814E-05-2.31093E-05 2.04588E-07 4.40616E-19 5.58909E-20
 -1      1569 7.71821E-05-2.29862E-05-2.32419E-05 3.60506E-07 5.83440E-19 1.21592E-18
 -1      1570 7.99424E-05-2.37209E-05-2.41210E-05 1.09173E-06 8.60453E-19 1.91229E-18
 -1      1571 7.70751E-05-2.30051E-05-2.32090E-05-4.87550E-07 4.14484E-19-1.24809E-18
 -1      1572 7.68038E-05-2.28607E-05-2.31315E-05-3.12677E-07 5.31890E-19-8.54214E-19
 -1      1573 7.96089E-05-2.36003E-05-2.40352E-05-1.72154E-07 1.03307E-18 6.19913E-19
 -1      1574 7.86696E-05-2.35196E-05-2.36578E-05-1.07477E-06-4.27232E-19-7.38705E-19
 -1      1575 7.77107E-05-2.31578E-05-2.33870E-05-9.17523E-07-4.63284E-19-1.36294E-18
 -1      1576 8.03614E-05-2.38647E-05-2.42431E-05-1.39103E-06-3.64572E-19 1.53118E-19
 -1      1577 8.11673E-05-2.43164E-05-2.43691E-05-1.45050E-06 1.68569E-19-6.07720E-19
 -1      1578 7.97135E-05-2.38112E-05-2.39576E-05-1.33921E-06-4.50549E-20-2.83981E-19
 -1      1579 8.20410E-05-2.44535E-05-2.47041E-05-2.32607E-06-5.71258E-19-7.86126E-19
 -1      1580 8.41167E-05-2.52461E-05-2.52188E-05-1.57642E-06-4.24473E-19-3.42916E-19
 -1      1581 8.24295E-05-2.46884E-05-2.47383E-05-1.52295E-06 3.25713E-19-3.71186E-19
 -1      1582 8.43255E-05-2.52427E-05-2.53362E-05-2.83303E-06 1.86954E-19 1.17521E-18
 -1      1583 8.70691E-05-2.61637E-05-2.60804E-05-1.48237E-06 7.27163E-19-1.32693E-18
 -1      1584 8.54028E-05-2.56355E-05-2.56018E-05-1.48190E-06 3.63262E-19-6.35500E-19
 -1      1585 8.68311E-05-2.60877E-05-2.60394E-05-2.89554E-06 6.37192E-19 7.36985E-19
 -1      1586 8.96802E-05-2.69627E-05-2.68531E-05-1.24088E-06 1.10170E-18-1.89804E-18
 -1      1587 8.82250E-05-2.65196E-05-2.64308E-05-1.27788E-06 2.36006E-19-1.43565E-18
 -1      1588 8.92148E-05-2.68666E-05-2.67208E-05-2.60375E-06 8.50646E-19 2.70237E-19
 -1      1589 9.17568E-05-2.75868E-05-2.74771E-05-9.34849E-07-6.12299E-19-2.37422E-18
 -1      1590 9.06151E-05-2.72537E-05-2.71418E-05-9.90695E-07 8.76663E-20-1.81650E-18
 -1      1591 9.12407E-05-2.75031E-05-2.73126E-05-2.10118E-06 4.62156E-19 3.60360E-19
 -1      1592 9.32494E-05-2.80259E-05-2.79334E-05-6.33486E-07 3.94810E-19-2.15365E-18
 -1      1593 9.24417E-05-2.78017E-05-2.76928E-05-6.92113E-07 1.57934E-19-1.56683E-18
 -1      1594 9.27975E-05-2.79690E-05-2.77787E-05-1.53153E-06-1.26711E-19 1.41044E-19
 -1      1595 9.42144E-05-2.83020E-05-2.82347E-05-3.81589E-07-1.64076E-19-2.55158E-18
 -1      1596 9.37027E-05-2.81688E-05-2.80795E-05-4.32099E-07-1.12629E-20-2.89364E-18
 -1      1597 9.38809E-05-2.82733E-05-2.81130E-05-1.00468E-06 1.50421E-19 5.12056E-20
 -1      1598 9.47678E-05-2.84537E-05-2.84128E-05-1.99793E-07-8.44221E-20-1.93076E-18
 -1      1599 9.44823E-05-2.83862E-05-2.83237E-05-2.36483E-07-8.17263E-20-1.89261E-18
 -1      1600 9.45585E-05-2.84468E-05-2.83304E-05-5.85458E-07-1.65559E-19-7.89230E-19
 -1      1601 9.50449E-05-2.85246E-05-2.85056E-05-8.97711E-08 6.21707E-19-2.62791E-18
 -1      1602 9.49067E-05-2.84965E-05-2.84609E-05-1.11293E-07 3.12333E-19-2.34910E-18
 -1      1603 9.49331E-05-2.85285E-05-2.84576E-05-2.98029E-07 3.72193E-19 5.69863E-19
 -1      1604 9.51680E-05-2.85546E-05-2.85480E-05-3.69312E-08-6.59082E-19-2.55421E-18
 -1      1605 9.51083E-05-2.85438E-05-2.85283E-05-4.66896E-08-1.88487E-19-2.54349E-18
 -1      1606 9.51137E-05-2.85574E-05-2.85237E-05-1.33966E-07-1.51154E-19-1.06789E-19
 -1      1607 9.52199E-05-2.85691E-05-2.85645E-05-1.64300E-08-2.14078E-20-2.62232E-18
 -1      1608 9.51955E-05-2.85637E-05-2.85571E-05-1.91610E-08 3.81582E-19-2.21930E-18
 -1      1609 9.51932E-05-2.85669E-05-2.85532E-05-5.65850E-08 5.68120E-19 6.34537E-19
 -1      1610 9.52336E-05-2.85755E-05-2.85670E-05-4.71606E-09-1.35445E-18-1.46612E-18
 -1      1611 9.52493E-05-2.86162E-05-2.85550E-05-3.14216E-08 2.04258E-18 1.65218E-18
 -1      1612 9.52377E-05-2.85914E-05-2.85616E-05-2.62897E-08 9.15044E-20 2.59778E-18
 -1      1613 9.52718E-05-2.86392E-05-2.85553E-05-1.24382E-08 3.21608E-18 1.44104E-18
 -1      1614 9.52598E-05-2.86270E-05-2.85557E-05-1.92187E-08 2.60139E-18 2.28141E-19
 -1      1615 9.52539E-05-2.86175E-05-2.85601E-05-4.48118E-08 1.36761E-18 1.34211E-18
 -1      1616 9.52643E-05-2.85557E-05-2.85892E-05 6.99009E-08 4.59253E-18 5.57189E-19
 -1      1617 9.52733E-05-2.86128E-05-2.85687E-05 4.90735E-08 3.42050E-18 2.82010E-18
 -1      1618 9.52847E-05-2.86146E-05-2.85774E-05 4.39826E-08 2.09236E-18 1.90922E-18
 -1      1619 9.51914E-05-2.82682E-05-2.86825E-05 2.14031E-07 3.61873E-18-1.36345E-18
 -1      1620 9.52415E-05-2.84513E-05-2.86259E-05 1.80930E-07 5.23124E-18-7.73672E-19
 -1      1621 9.52780E-05-2.84979E-05-2.86291E-05 2.52767E-07 1.33058E-18 1.70218E-19
 -1      1622 9.50292E-05-2.77181E-05-2.88498E-05 3.92035E-07 1.42844E-18-1.26610E-18
 -1      1623 9.51327E-05-2.80561E-05-2.87499E-05 3.54615E-07 3.25131E-18-1.72337E-18
 -1      1624 9.52056E-05-2.81940E-05-2.87312E-05 5.58645E-07 1.93308E-18-2.93752E-18
 -1      1625 9.47659E-05-2.68788E-05-2.90972E-05 5.65347E-07 5.40490E-18 2.91844E-18
 -1      1626 9.49268E-05-2.73803E-05-2.89520E-05 5.31806E-07 2.50333E-18 1.66272E-18
 -1      1627 9.50430E-05-2.76544E-05-2.88929E-05 9.00079E-07 2.67861E-18 9.70679E-19
 -1      1628 9.44251E-05-2.58334E-05-2.93986E-05 6.73733E-07 6.87013E-18 5.32821E-19
 -1      1629 9.46255E-05-2.64385E-05-2.92260E-05 6.57580E-07 5.51155E-18 2.05300E-18
 -1      1630 9.47828E-05-2.68788E-05-2.91105E-05 1.18568E-06 3.70487E-18 2.93533E-18
 -1      1631 9.40603E-05-2.47495E-05-2.97052E-05 6.60113E-07 8.57496E-18 6.91214E-19
 -1      1632 9.42645E-05-2.53504E-05-2.95358E-05 6.72559E-07 8.13858E-18-2.23810E-20
 -1      1633 9.44498E-05-2.59492E-05-2.93588E-05 1.30192E-06 5.15780E-18 1.24809E-18
 -1      1634 9.37510E-05-2.38628E-05-2.99502E-05 4.87243E-07 8.69361E-18-9.28070E-19
 -1      1635 9.39100E-05-2.43163E-05-2.98242E-05 5.34111E-07 8.50968E-18 1.10750E-19
 -1      1636 9.40976E-05-2.50174E-05-2.95969E-05 1.15383E-06 6.38707E-18 4.63423E-19
 -1      1637 9.35859E-05-2.34235E-05-3.00652E-05 1.58710E-07 5.75797E-18-3.19863E-18
 -1      1638 9.36493E-05-2.35870E-05-3.00216E-05 2.36061E-07 8.52897E-18-1.49843E-18
 -1      1639 9.38052E-05-2.42862E-05-2.97743E-05 7.00571E-07 5.26806E-18-1.79145E-18
 -1      1640 9.36334E-05-2.36055E-05-3.00064E-05-2.58478E-07 2.40212E-18-3.80271E-20
 -1      1641 9.35668E-05-2.33949E-05-3.00664E-05-1.69579E-07 5.28430E-18-3.24860E-18
 -1      1642 9.36607E-05-2.39605E-05-2.98441E-05-2.05844E-09 4.13827E-18-4.59795E-18
 -1      1643 9.39154E-05-2.44437E-05-2.97698E-05-6.65106E-07 2.81778E-18 5.01811E-19
 -1      1644 9.37151E-05-2.38600E-05-2.99310E-05-5.87004E-07 2.17372E-18 2.07513E-18
 -1      1645 9.37270E-05-2.41702E-05-2.97819E-05-8.02841E-07 3.94799E-18-4.79500E-20
 -1      1646 9.43785E-05-2.57577E-05-2.94113E-05-9.07817E-07 1.42818E-18-7.77790E-19
 -1      1647 9.40904E-05-2.49442E-05-2.96322E-05-8.75705E-07 2.37313E-18-1.06978E-18
 -1      1648 9.40270E-05-2.49289E-05-2.95940E-05-1.46897E-06 2.28992E-18-8.82254E-19
 -1      1649 9.48937E-05-2.71635E-05-2.90365E-05-8.44787E-07 9.00151E-19-4.93999E-19
 -1      1650 9.46108E-05-2.63815E-05-2.92489E-05-8.96472E-07 5.79205E-19 1.34933E-19
 -1      1651 9.45118E-05-2.60780E-05-2.93261E-05-1.73040E-06 2.34777E-19-1.30460E-18
 -1      1652 2.14921E-05-6.71396E-05 1.41674E-05 3.73777E-07-1.40607E-18 8.86420E-19
 -1      1653 2.59147E-05-8.29337E-05 1.78878E-05 7.95664E-06-4.17968E-18 1.14604E-18
 -1      1654 2.09295E-05-3.57557E-05 2.50865E-06 8.04978E-06-3.59989E-19-8.80067E-19
 -1      1655 2.56313E-05-6.16274E-05 9.49372E-06 2.97409E-06-9.82558E-19 2.87779E-19
 -1      1656 3.87027E-05-7.33262E-06-1.49549E-05 3.69724E-05-5.10761E-19-9.33430E-19
 -1      1657 3.13826E-05-2.86618E-05-5.47640E-06 1.71033E-05-5.83606E-19-1.38405E-18
 -1      1658 9.54732E-05-5.53362E-06-3.71088E-05 7.00891E-05-5.53960E-19 1.43996E-19
 -1      1659 6.46897E-05-9.34848E-06-2.53476E-05 4.55388E-05-1.15874E-18-3.99800E-19
 -1      1660 1.58224E-04-1.57667E-05-5.69372E-05 8.89948E-05-6.66615E-19-1.44165E-18
 -1      1661 1.14225E-04-3.59490E-07-4.75472E-05 7.86267E-05-1.77708E-18-1.39422E-18
 -1      1662 2.24720E-04-4.51939E-05-7.12965E-05 7.18175E-05-9.19560E-19-7.62330E-20
 -1      1663 1.83097E-04-2.41394E-05-6.45029E-05 8.29076E-05-8.99549E-19-1.03846E-18
 -1      1664 2.68676E-04-6.67575E-05-7.99645E-05 3.03051E-05-4.11446E-19 5.14149E-19
 -1      1665 2.43698E-04-5.21958E-05-7.64902E-05 6.11417E-05-2.08158E-19-1.69407E-19
 -1      1666 2.64807E-04-6.35610E-05-8.02595E-05-2.67183E-05 9.26019E-19-1.17949E-18
 -1      1667 2.69858E-04-6.64659E-05-8.09147E-05 1.12558E-05 5.40619E-19 3.73330E-19
 -1      1668 2.24111E-04-4.23680E-05-7.30470E-05-7.08053E-05 1.64674E-18-4.35629E-18
 -1      1669 2.56947E-04-6.09374E-05-7.78253E-05-4.47935E-05 1.65606E-18-2.44538E-18
 -1      1670 1.55450E-04-1.31285E-05-5.83349E-05-8.43727E-05 4.20171E-18-5.41169E-18
 -1      1671 2.02793E-04-3.52173E-05-6.67385E-05-8.11441E-05 2.69251E-18-4.54433E-18
 -1      1672 8.67117E-05 3.83976E-06-3.88499E-05-6.80462E-05 4.41050E-18-5.52435E-18
 -1      1673 1.27649E-04-5.33381E-06-4.93290E-05-8.65962E-05 4.57482E-18-6.97108E-18
 -1      1674 4.31992E-05-7.46419E-06-1.80093E-05-3.51580E-05 3.00951E-18-3.68205E-18
 -1      1675 6.34046E-05 4.49696E-06-2.86398E-05-6.03325E-05 4.00562E-18-5.01359E-18
 -1      1676 2.71600E-05-3.89339E-05 1.93763E-07-9.85814E-06 1.79995E-18-1.90709E-18
 -1      1677 2.85685E-05-1.37137E-05-8.64549E-06-2.52261E-05 3.00951E-18-2.93328E-18
 -1      1678 2.61638E-05-7.14988E-05 1.32552E-05-3.90560E-06 3.05355E-18 2.00217E-19
 -1      1679 2.04548E-05-4.74821E-05 7.17042E-06-4.01204E-06 2.05405E-18-3.90588E-19
 -1      1680 2.56707E-05-8.68355E-05 1.93295E-05-1.06477E-05 1.69407E-18-6.34851E-19
 -1      1681 2.31534E-05-7.71910E-05 1.71351E-05-2.32953E-07 2.26793E-18-1.75336E-19
 -1      1682 2.16623E-05-7.93501E-05 1.76961E-05-1.83337E-05-1.50137E-18-1.79762E-18
 -1      1683 2.60909E-05-8.85467E-05 1.95869E-05-8.61367E-06 1.26777E-18-1.52741E-18
 -1      1684 2.03318E-05-5.21704E-05 7.54333E-06-1.01868E-05-4.28768E-18-4.03516E-18
 -1      1685 2.54288E-05-7.39447E-05 1.35154E-05-1.26117E-05-2.04558E-18-2.44920E-18
 -1      1686 3.49810E-05-2.47991E-05-9.02265E-06 1.35060E-05-4.98055E-18-4.86959E-18
 -1      1687 2.96693E-05-4.67843E-05 3.10158E-07-3.94398E-06-5.02375E-18-3.77014E-18
 -1      1688 8.64642E-05-1.52299E-05-3.19208E-05 5.11930E-05-5.87502E-18-9.13779E-18
 -1      1689 5.58303E-05-2.31655E-05-1.94266E-05 2.29463E-05-4.98225E-18-6.93551E-18
 -1      1690 1.84511E-04-4.02943E-05-5.78396E-05 7.01170E-05-5.19909E-18-1.22244E-17
 -1      1691 1.23533E-04-2.39012E-05-4.42286E-05 5.21868E-05-5.98175E-18-9.48169E-18
 -1      1692 2.78531E-04-7.22803E-05-7.83680E-05 4.86408E-05-3.32942E-18-1.37236E-17
 -1      1693 2.16351E-04-4.60933E-05-6.84431E-05 6.11596E-05-4.37154E-18-1.33696E-17
 -1      1694 3.23499E-04-8.75469E-05-8.79167E-05 4.38635E-06-9.33854E-19-1.34077E-17
 -1      1695 2.98066E-04-7.54311E-05-8.47133E-05 4.09709E-05-2.73422E-18-1.35915E-17
 -1      1696 3.02239E-04-7.70098E-05-8.51619E-05-4.28463E-05 1.74531E-18-1.21676E-17
 -1      1697 3.25761E-04-8.84007E-05-8.82406E-05-6.78042E-06 6.58145E-19-1.22106E-17
 -1      1698 2.27581E-04-5.03237E-05-7.05606E-05-6.17527E-05 1.27648E-18-8.68378E-18
 -1      1699 2.83487E-04-7.41390E-05-7.92868E-05-4.93269E-05 1.26663E-18-1.15484E-17
 -1      1700 1.43723E-04-2.41633E-05-5.09431E-05-6.40108E-05 3.01290E-18-5.25330E-18
 -1      1701 1.98520E-04-4.11311E-05-6.19686E-05-7.49078E-05 2.21245E-18-6.78304E-18
 -1      1702 8.26159E-05-2.37279E-05-2.86941E-05-3.59506E-05 2.41743E-18-3.77099E-18
 -1      1703 1.17963E-04-2.34780E-05-4.02837E-05-5.92937E-05 2.75032E-18-4.35206E-18
 -1      1704 4.21163E-05-3.30204E-05-9.83146E-06-9.25326E-06-7.10661E-19-2.54025E-18
 -1      1705 5.66802E-05-1.73606E-05-1.99610E-05-3.13091E-05 2.13113E-18-4.37577E-18
 -1      1706 1.10232E-04-5.22915E-05-2.68187E-05-3.32494E-05 1.94055E-18-4.83317E-18
 -1      1707 2.59619E-05-6.02666E-05 7.40869E-06 1.06506E-05-3.64055E-18-2.41404E-19
 -1      1708 2.38988E-05-3.76487E-05 1.79802E-07 8.35131E-07-1.71778E-18-2.01255E-18
 -1      1709 2.56580E-05-8.29507E-05 1.70791E-05 1.30013E-05-3.07727E-18 1.01877E-18
 -1      1710 1.96569E-05-6.57788E-05 1.29978E-05 1.66313E-05-3.50333E-18 1.64309E-18
 -1      1711 2.57817E-05-8.80305E-05 1.97733E-05 4.63026E-06-4.55153E-18-4.32834E-19
 -1      1712 2.39339E-05-8.57793E-05 1.93612E-05 1.59640E-05-3.52196E-18 2.32934E-20
 -1      1713 9.54568E-05-2.83974E-05-2.87500E-05-4.68187E-07-7.47744E-19 1.97484E-19
 -1      1714 4.40716E-05-4.06626E-05-4.06786E-06 3.60565E-05-8.64821E-19-1.23519E-18
 -1      1715 9.52313E-05-2.85794E-05-2.85634E-05-1.95590E-08-1.16971E-18 1.19047E-18
 -1      1716 9.52245E-05-2.85869E-05-2.85596E-05-4.54171E-08 6.03252E-19 3.51473E-18
 -1      1717 1.19019E-05-5.59136E-05 1.41327E-05 1.19314E-05-1.83425E-18 1.01856E-18
 -1      1718 2.15080E-05-4.96947E-05 8.03980E-06 2.29650E-05-1.50645E-18 1.19876E-18
 -1      1719 9.52438E-05-2.81831E-05-2.87411E-05-4.56656E-07-7.06367E-19-1.32387E-18
 -1      1720 9.51071E-05-2.77354E-05-2.88905E-05-5.99173E-07 1.05092E-18-1.58263E-18
 -1      1721 9.50074E-05-2.72790E-05-2.90419E-05-1.40213E-06-1.42006E-18-1.32433E-18
 -1      1722 8.60661E-05-3.62855E-05-2.16316E-05 4.89320E-05 4.74338E-19 4.14199E-19
 -1      1723 1.29917E-04-3.27608E-05-4.07645E-05 5.08683E-05-1.33789E-18-1.01220E-18
 -1      1724 1.72631E-04-2.89914E-05-5.81641E-05 5.02367E-05-8.67362E-19-2.29885E-18
 -1      1725 2.08952E-04-3.38597E-05-7.02285E-05 3.41798E-05-1.14921E-18-8.21198E-19
 -1      1726 2.25672E-04-3.53230E-05-7.61212E-05 1.02983E-05 8.22045E-19-7.16908E-19
 -1      1727 2.19981E-04-3.35311E-05-7.47040E-05-1.68712E-05 1.81900E-18-1.07743E-18
 -1      1728 1.96915E-04-3.18304E-05-6.64117E-05-4.01321E-05 2.86424E-18-3.57109E-18
 -1      1729 1.54914E-04-2.73043E-05-5.19078E-05-5.41252E-05 3.13275E-18-2.73930E-18
 -1      1730 1.06023E-04-2.62336E-05-3.35282E-05-5.41327E-05 2.14808E-18-4.02934E-18
 -1      1731 6.37526E-05-3.26684E-05-1.48536E-05-4.36884E-05 1.90159E-18-3.64478E-18
 -1      1732 3.44106E-05-4.37325E-05 7.35647E-07-3.10338E-05 3.00188E-18-1.82342E-18
 -1      1733 1.67659E-05-5.24275E-05 1.09560E-05-1.95229E-05 1.02279E-18 3.09167E-19
 -1      1734 1.14092E-05-5.78510E-05 1.48131E-05-7.60737E-06-9.13102E-19-2.09471E-18
 -1      1735 1.94165E-05-5.70380E-05 1.10111E-05 4.73853E-06-1.48146E-18-3.73245E-18
 -1      1736 4.09107E-05-5.19682E-05 1.08582E-07 1.76899E-05-2.85958E-18-3.99752E-18
 -1      1737 8.09288E-05-4.94571E-05-1.67263E-05 2.94172E-05-3.83706E-18-5.60439E-18
 -1      1738 1.44270E-04-5.43289E-05-3.84218E-05 3.21861E-05-3.67273E-18-7.96465E-18
 -1      1739 2.07571E-04-5.81493E-05-5.97775E-05 1.56071E-05-2.80156E-18-1.05727E-17
 -1      1740 2.43934E-04-5.03042E-05-7.48536E-05 2.81266E-06-2.62453E-18-1.16628E-17
 -1      1741 2.63524E-04-4.80607E-05-8.13976E-05 9.18262E-07-8.47880E-19-1.16568E-17
 -1      1742 2.49327E-04-5.12143E-05-7.62815E-05-3.55637E-06-1.26208E-19-9.83913E-18
 -1      1743 2.10960E-04-5.34100E-05-6.25765E-05-2.11614E-05 1.08198E-18-8.57621E-18
 -1      1744 1.62995E-04-5.72879E-05-4.47940E-05-3.08598E-05 1.73303E-18-5.10083E-18
 -1      1745 2.85987E-05-5.46263E-05 6.13297E-06-1.09115E-05-5.37866E-19-1.03116E-18
 -1      1746 1.47688E-05-5.91582E-05 1.37105E-05 6.86240E-07-1.59369E-18-2.06253E-19
 -1      1747 1.06326E-04-2.31480E-05-3.57423E-05-1.72078E-05-6.40727E-19 9.78958E-19
 -1      1748 6.06247E-05-4.98287E-05-8.63482E-06-2.43611E-05-7.38613E-19-4.18053E-18
 -1      1749 8.91353E-05-1.05668E-05-3.37957E-05-1.33448E-05-6.14503E-19-1.69608E-18
 -1      1750 9.04633E-05-1.16307E-05-3.39358E-05-1.51233E-05-7.64487E-19-1.51722E-18
 -1      1751 9.25069E-05-1.38887E-05-3.38529E-05-1.60103E-05-8.44565E-19-1.30403E-18
 -1      1752 9.41944E-05-1.57969E-05-3.40909E-05-1.77333E-05-9.60721E-19-1.03052E-18
 -1      1753 9.34626E-05-1.63924E-05-3.30432E-05-1.37531E-05-8.54501E-19-1.33199E-18
 -1      1754 8.62112E-05-7.67412E-06-3.37302E-05-7.86510E-06-1.40713E-19-1.60574E-18
 -1      1755 8.66135E-05-7.97278E-06-3.37639E-05-9.25466E-06-2.40134E-19-1.65433E-18
 -1      1756 8.55940E-05-7.03651E-06-3.37270E-05-5.32172E-06 4.24757E-20-1.51221E-18
 -1      1757 8.58286E-05-7.21540E-06-3.37422E-05-6.62661E-06-4.76406E-20-1.59340E-18
 -1      1758 8.75934E-05-9.86823E-06-3.33437E-05-6.93020E-06-1.24268E-19-1.52135E-18
 -1      1759 8.52581E-05-6.67703E-06-3.37300E-05-2.89008E-06 3.12680E-19-1.41677E-18
 -1      1760 8.53794E-05-6.77196E-06-3.37360E-05-4.12978E-06 2.22528E-19-1.46983E-18
 -1      1761 8.69577E-05-9.15538E-06-3.33765E-05-4.53852E-06 1.59027E-19-1.42542E-18
 -1      1762 8.51269E-05-6.52848E-06-3.37334E-05-5.19106E-07 5.44934E-19-1.32884E-18
 -1      1763 8.51626E-05-6.55709E-06-3.37349E-05-1.72860E-06 4.68433E-19-1.37058E-18
 -1      1764 8.66247E-05-8.77547E-06-3.33964E-05-2.21850E-06 4.12416E-19-1.33733E-18
 -1      1765 8.51723E-05-6.56596E-06-3.37350E-05 1.84324E-06 6.96834E-19-1.26199E-18
 -1      1766 8.51305E-05-6.53301E-06-3.37333E-05 6.32709E-07 6.60490E-19-1.32123E-18
 -1      1767 8.65261E-05-8.66161E-06-3.34029E-05 6.37068E-08 6.45571E-19-1.25381E-18
 -1      1768 8.54036E-05-6.79628E-06-3.37360E-05 4.24897E-06 8.14450E-19-1.13719E-18
 -1      1769 8.52755E-05-6.69554E-06-3.37299E-05 3.00622E-06 7.43405E-19-1.22952E-18
 -1      1770 8.66420E-05-8.79472E-06-3.33956E-05 2.34737E-06 7.51627E-19-1.19568E-18
 -1      1771 8.58609E-05-7.24965E-06-3.37415E-05 6.71008E-06 9.52297E-19-9.62918E-19
 -1      1772 8.56227E-05-7.06742E-06-3.37266E-05 5.42290E-06 8.86959E-19-1.09650E-18
 -1      1773 8.69905E-05-9.19189E-06-3.33748E-05 4.65047E-06 9.30199E-19-1.07630E-18
 -1      1774 8.66745E-05-8.03942E-06-3.37624E-05 9.37181E-06 1.12113E-18-5.83606E-19
 -1      1775 8.62537E-05-7.72312E-06-3.37285E-05 7.95109E-06 1.00398E-18-7.84088E-19
 -1      1776 8.76433E-05-9.92505E-06-3.33406E-05 7.02560E-06 1.07402E-18-8.31005E-19
 -1      1777 8.80855E-05-9.38630E-06-3.38177E-05 1.22507E-05 1.25561E-18-1.31343E-19
 -1      1778 8.73471E-05-8.82875E-06-3.37459E-05 1.06576E-05 1.17542E-18-3.96835E-19
 -1      1779 8.87647E-05-1.11606E-05-3.32903E-05 9.50006E-06 1.20265E-18-4.17733E-19
 -1      1780 9.06436E-05-1.18455E-05-3.39273E-05 1.53244E-05 1.28852E-18 5.45701E-19
 -1      1781 8.92735E-05-1.07477E-05-3.37880E-05 1.35006E-05 1.24200E-18 1.00188E-19
 -1      1782 9.06565E-05-1.32261E-05-3.32079E-05 1.19566E-05 1.33457E-18 5.27807E-20
 -1      1783 9.58909E-05-1.70849E-05-3.39937E-05 1.76712E-05 1.15469E-18 1.86765E-18
 -1      1784 9.28457E-05-1.43271E-05-3.38265E-05 1.61723E-05 1.18636E-18 1.13164E-18
 -1      1785 9.38816E-05-1.68587E-05-3.30134E-05 1.38536E-05 1.30020E-18 8.39277E-19
 -1      1786 1.01922E-04-2.50983E-05-3.33605E-05 1.44131E-05 9.01243E-19 3.25970E-18
 -1      1787 9.80710E-05-1.95801E-05-3.36268E-05 1.69683E-05 1.04198E-18 2.34925E-18
 -1      1788 9.74139E-05-2.18807E-05-3.24195E-05 1.32781E-05 1.14270E-18 1.80759E-18
 -1      1789 9.87839E-05-2.61477E-05-3.13436E-05 9.42920E-06 8.07408E-19 2.96354E-18
 -1      1790 1.00227E-04-1.94471E-05-3.42952E-05-1.91053E-05-8.05039E-19-3.52789E-19
 -1      1791 9.53361E-05-2.73020E-05-2.91862E-05 4.07363E-06 8.23554E-19 2.41735E-18
 -1      1792 9.77250E-05-2.73917E-05-3.01950E-05 6.39825E-06 7.15584E-19 2.72538E-18
 -1      1793 9.75846E-05-2.56026E-05-3.08247E-05 8.71911E-06 8.57224E-19 2.09747E-18
 -1      1794 6.38863E-05-5.21105E-05-7.37605E-06-2.82188E-05-6.45439E-19-4.32930E-18
 -1      1795 8.85419E-05-5.29217E-05-1.63487E-05-3.44648E-05-2.76133E-19-5.31683E-18
 -1      1796 9.70809E-05-2.69094E-05-2.99641E-05-5.94252E-06-8.18763E-19-7.07904E-19
 -1      1797 9.52489E-05-2.70025E-05-2.92243E-05-4.05163E-06-7.09072E-19-8.78413E-19
 -1      1798 9.44265E-05-2.72257E-05-2.87022E-05-2.53631E-06-6.53274E-19-8.56046E-19
 -1      1799 9.36244E-05-2.73086E-05-2.83840E-05-1.65103E-06-5.44364E-19-9.76007E-19
 -1      1800 9.55726E-05-2.64881E-05-2.96293E-05-4.64136E-06-7.66406E-19-1.12021E-18
 -1      1801 9.30870E-05-2.73635E-05-2.81068E-05-8.00033E-07-5.37598E-19-9.71064E-19
 -1      1802 9.27685E-05-2.74267E-05-2.79785E-05-3.46934E-07-4.09848E-19-1.12981E-18
 -1      1803 9.43466E-05-2.71998E-05-2.87980E-05-1.92359E-06-6.57681E-19-1.05255E-18
 -1      1804 9.24831E-05-2.74547E-05-2.78376E-05 1.22306E-07-3.30343E-19-1.09113E-18
 -1      1805 9.24425E-05-2.75304E-05-2.78046E-05 3.54254E-07-2.52128E-19-1.15830E-18
 -1      1806 9.36256E-05-2.75173E-05-2.83488E-05-4.13740E-07-4.34541E-19-9.91943E-19
 -1      1807 9.23327E-05-2.75616E-05-2.77435E-05 6.02151E-07-3.46330E-19-1.19500E-18
 -1      1808 9.24430E-05-2.76466E-05-2.77610E-05 7.10570E-07-4.14115E-19-1.19366E-18
 -1      1809 9.32898E-05-2.77058E-05-2.81199E-05 4.13619E-07-4.16284E-19-1.16786E-18
 -1      1810 9.24445E-05-2.76844E-05-2.77475E-05 8.26499E-07-3.86167E-19-9.76953E-19
 -1      1811 9.26303E-05-2.77713E-05-2.77914E-05 8.62787E-07-2.55564E-19-1.05469E-18
 -1      1812 9.32169E-05-2.78503E-05-2.80227E-05 8.39795E-07-3.28566E-19-9.90543E-19
 -1      1813 9.26971E-05-2.78128E-05-2.78054E-05 8.99217E-07-3.77559E-19-1.20488E-18
 -1      1814 9.29133E-05-2.78958E-05-2.78615E-05 8.93325E-07-3.01701E-19-1.31890E-18
 -1      1815 9.33064E-05-2.79746E-05-2.80046E-05 1.02437E-06-4.78195E-19-9.15296E-19
 -1      1816 9.30141E-05-2.79375E-05-2.78905E-05 8.82792E-07-2.21131E-19-1.41809E-18
 -1      1817 9.32337E-05-2.80132E-05-2.79500E-05 8.53383E-07-1.29441E-19-1.26734E-18
 -1      1818 9.34867E-05-2.80844E-05-2.80325E-05 1.06354E-06-2.99453E-19-1.07443E-18
 -1      1819 9.33483E-05-2.80525E-05-2.79858E-05 8.16866E-07-2.26626E-19-1.28786E-18
 -1      1820 9.35559E-05-2.81192E-05-2.80436E-05 7.76002E-07-2.01086E-19-1.34252E-18
 -1      1821 9.37093E-05-2.81804E-05-2.80852E-05 1.01818E-06-1.63113E-19-1.21530E-18
 -1      1822 9.36719E-05-2.81547E-05-2.80813E-05 7.27313E-07-2.75632E-19-1.39555E-18
 -1      1823 9.38598E-05-2.82117E-05-2.81346E-05 6.82908E-07-1.11269E-19-1.65933E-18
 -1      1824 9.39437E-05-2.82627E-05-2.81494E-05 9.28002E-07-2.83170E-19-9.55438E-19
 -1      1825 9.39702E-05-2.82429E-05-2.81716E-05 6.31226E-07-7.76973E-20-1.85696E-18
 -1      1826 9.41358E-05-2.82908E-05-2.82192E-05 5.88498E-07-2.13270E-19-1.90170E-18
 -1      1827 9.41714E-05-2.83317E-05-2.82169E-05 8.19329E-07-2.33930E-19-1.41020E-18
 -1      1828 9.42374E-05-2.83175E-05-2.82540E-05 5.39986E-07-4.05360E-19-1.71511E-18
 -1      1829 9.43809E-05-2.83571E-05-2.82960E-05 5.02394E-07-4.27271E-19-1.68911E-18
 -1      1830 9.43832E-05-2.83884E-05-2.82831E-05 7.09754E-07-1.71221E-19-1.32048E-18
 -1      1831 9.44686E-05-2.83789E-05-2.83265E-05 4.63311E-07 3.43684E-20-1.83451E-18
 -1      1832 9.45883E-05-2.84101E-05-2.83619E-05 4.34471E-07 3.87342E-19-1.27429E-18
 -1      1833 9.45715E-05-2.84332E-05-2.83444E-05 6.13229E-07-2.25914E-19-7.24473E-19
 -1      1834 9.46736E-05-2.84298E-05-2.83921E-05 4.03242E-07 4.96746E-19-1.21329E-18
 -1      1835 9.47857E-05-2.84576E-05-2.84257E-05 3.82433E-07 6.20778E-19-1.16097E-18
 -1      1836 9.47425E-05-2.84696E-05-2.84024E-05 5.35727E-07 4.18935E-19-6.31541E-19
 -1      1837 9.48658E-05-2.84746E-05-2.84547E-05 3.64505E-07 4.97730E-19-1.32289E-18
 -1      1838 9.49703E-05-2.84989E-05-2.84866E-05 3.55328E-07 3.33763E-19-9.75504E-19
 -1      1839 9.49047E-05-2.84992E-05-2.84594E-05 4.81858E-07 5.29632E-19-9.19391E-19
 -1      1840 9.50495E-05-2.85141E-05-2.85160E-05 3.53872E-07 1.16902E-19-1.03811E-18
 -1      1841 9.51547E-05-2.85367E-05-2.85484E-05 3.59101E-07 1.54856E-20-8.43436E-19
 -1      1842 9.50603E-05-2.85227E-05-2.85164E-05 4.61083E-07 3.49002E-19-1.53256E-18
 -1      1843 9.52385E-05-2.85510E-05-2.85805E-05 3.78491E-07-2.83668E-19-8.55708E-19
 -1      1844 9.53546E-05-2.85739E-05-2.86168E-05 4.02278E-07-2.19673E-19-9.22067E-19
 -1      1845 9.52186E-05-2.85410E-05-2.85768E-05 4.81927E-07 4.06547E-20-8.99614E-19
 -1      1846 9.54497E-05-2.85880E-05-2.86546E-05 4.49087E-07 1.48993E-19-8.01058E-19
 -1      1847 9.55908E-05-2.86138E-05-2.86989E-05 4.97986E-07 4.79627E-19-8.47543E-19
 -1      1848 9.53913E-05-2.85542E-05-2.86457E-05 5.56576E-07 1.19242E-19-4.50925E-19
 -1      1849 9.57055E-05-2.86276E-05-2.87464E-05 5.82401E-07-1.07935E-19-8.39415E-19
 -1      1850 9.58904E-05-2.86593E-05-2.88047E-05 6.66855E-07-4.34244E-19-8.67565E-19
 -1      1851 9.55927E-05-2.85612E-05-2.87297E-05 7.03538E-07 1.10734E-19-5.24398E-19
 -1      1852 9.60349E-05-2.86724E-05-2.88675E-05 8.04715E-07-4.92142E-19-9.37998E-19
 -1      1853 9.62903E-05-2.87137E-05-2.89482E-05 9.41269E-07-1.86324E-19-7.89426E-19
 -1      1854 9.58403E-05-2.85581E-05-2.88378E-05 9.51363E-07-3.76154E-19-7.89688E-19
 -1      1855 9.64766E-05-2.87241E-05-2.90337E-05 1.15700E-06-2.44909E-19-9.61549E-19
 -1      1856 9.68409E-05-2.87798E-05-2.91490E-05 1.37161E-06-4.32074E-19-1.26115E-18
 -1      1857 9.61547E-05-2.85373E-05-2.89821E-05 1.34394E-06-2.96780E-19-8.87264E-19
 -1      1858 9.70825E-05-2.87830E-05-2.92671E-05 1.70235E-06-7.33244E-19-1.20806E-18
 -1      1859 9.76110E-05-2.88600E-05-2.94347E-05 2.03510E-06-4.75085E-19-1.30253E-18
 -1      1860 9.65598E-05-2.84848E-05-2.91786E-05 1.94792E-06-3.67845E-19-5.02592E-19
 -1      1861 9.79216E-05-2.88473E-05-2.95986E-05 2.53601E-06-3.78690E-19-1.98500E-18
 -1      1862 9.86939E-05-2.89555E-05-2.98437E-05 3.04725E-06-4.43915E-19-2.05013E-18
 -1      1863 9.70803E-05-2.83767E-05-2.94479E-05 2.86240E-06-1.02396E-18-4.64265E-19
 -1      1864 9.90830E-05-2.89123E-05-3.00690E-05 3.79741E-06-1.82694E-19-2.35268E-18
 -1      1865 1.00211E-04-2.90679E-05-3.04269E-05 4.57382E-06 5.49387E-19-2.12422E-18
 -1      1866 9.77375E-05-2.81756E-05-2.98143E-05 4.23013E-06-2.75527E-19-1.27431E-18
 -1      1867 1.00679E-04-2.89737E-05-3.07301E-05 5.67959E-06 2.92941E-19-2.40774E-18
 -1      1868 1.02316E-04-2.92071E-05-3.12465E-05 6.83431E-06-2.22035E-19-2.29984E-18
 -1      1869 9.85404E-05-2.78310E-05-3.03025E-05 6.24563E-06-6.33951E-21-1.98417E-18
 -1      1870 1.02845E-04-2.90443E-05-3.16372E-05 8.42175E-06-7.75167E-19-2.35201E-18
 -1      1871 1.05184E-04-2.94219E-05-3.23619E-05 1.00706E-05-1.13637E-18-2.75368E-18
 -1      1872 9.94758E-05-2.72972E-05-3.09256E-05 9.14798E-06-4.91491E-19-2.80975E-18
 -1      1873 1.05756E-04-2.92208E-05-3.28259E-05 1.22454E-05-6.32171E-19-2.43472E-18
 -1      1874 1.09001E-04-2.98910E-05-3.37848E-05 1.44174E-05-7.96343E-20-2.27950E-18
 -1      1875 1.00516E-04-2.66064E-05-3.16575E-05 1.31699E-05-5.62615E-19-1.79028E-18
 -1      1876 1.09615E-04-2.98375E-05-3.42304E-05 1.70275E-05 2.84173E-19-2.62267E-18
 -1      1877 1.13809E-04-3.11147E-05-3.53259E-05 1.92784E-05 2.35422E-19-2.02113E-18
 -1      1878 1.01679E-04-2.60793E-05-3.23617E-05 1.82223E-05 9.25648E-20-1.72643E-18
 -1      1879 1.14975E-04-3.17840E-05-3.56465E-05 2.21743E-05 1.81014E-19-2.02197E-18
 -1      1880 1.20689E-04-3.45846E-05-3.67878E-05 2.37109E-05-3.16976E-20-2.27252E-18
 -1      1881 1.03396E-04-2.67552E-05-3.28003E-05 2.40307E-05-2.11599E-19-1.69749E-18
 -1      1882 1.23723E-04-3.74776E-05-3.67651E-05 2.54827E-05-2.51092E-19-2.47426E-18
 -1      1883 1.30900E-04-4.29356E-05-3.75817E-05 2.36921E-05-1.71418E-19-2.54612E-18
 -1      1884 1.07343E-04-3.12726E-05-3.25536E-05 2.92075E-05 4.87044E-20-1.29257E-18
 -1      1885 1.38219E-04-4.95458E-05-3.74782E-05 2.14655E-05-3.06414E-19-2.17788E-18
 -1      1886 1.45490E-04-5.68414E-05-3.77493E-05 1.41195E-05 1.60195E-19-2.62826E-18
 -1      1887 1.17243E-04-4.35760E-05-3.16253E-05 3.01016E-05-1.91218E-19-1.73986E-18
 -1      1888 2.04719E-04-3.80085E-05-7.00459E-05-2.52920E-06-3.54907E-19-7.77640E-18
 -1      1889 2.06604E-04-4.15331E-05-6.88177E-05 1.16429E-05-8.84302E-19-7.13117E-18
 -1      1890 1.73249E-04-6.27063E-05-4.77003E-05 2.14944E-05-1.14238E-18-3.37670E-18
 -1      1891 1.73230E-04-6.98243E-05-4.42895E-05 9.99197E-06-9.75570E-19-3.81122E-18
 -1      1892 1.55847E-04-6.34757E-05-3.95354E-05-3.20031E-06-2.96779E-19-3.31350E-18
 -1      1893 1.49215E-04-5.78380E-05-3.86116E-05-1.39634E-05 5.67936E-19-2.02311E-18
 -1      1894 1.38747E-04-4.96031E-05-3.81122E-05-1.97923E-05 8.20246E-19-1.80034E-18
 -1      1895 1.31487E-04-4.31123E-05-3.74938E-05-2.42824E-05 1.19283E-18-2.23467E-18
 -1      1896 1.29000E-04-5.31219E-05-3.25544E-05-2.51828E-05 8.05634E-19-2.12478E-18
 -1      1897 1.26148E-04-3.84184E-05-3.75244E-05-2.44685E-05 1.76765E-18-2.11629E-18
 -1      1898 1.19702E-04-3.43351E-05-3.64844E-05-2.42464E-05 1.34130E-18-2.58829E-18
 -1      1899 1.13922E-04-3.72104E-05-3.28611E-05-2.97598E-05 1.23857E-18-2.85471E-18
 -1      1900 1.17485E-04-3.28229E-05-3.62022E-05-2.18346E-05 8.62399E-19-2.21212E-18
 -1      1901 1.12365E-04-3.07763E-05-3.49845E-05-1.97085E-05 1.05463E-18-1.36060E-18
 -1      1902 1.06763E-04-2.92171E-05-3.32192E-05-2.67283E-05 1.37282E-18-1.69360E-18
 -1      1903 1.11210E-04-3.05463E-05-3.44719E-05-1.69013E-05 2.28221E-18-3.06527E-18
 -1      1904 1.07316E-04-2.95236E-05-3.33681E-05-1.45925E-05 1.28144E-18-2.83494E-18
 -1      1905 1.03470E-04-2.68506E-05-3.28193E-05-2.11219E-05 1.44111E-18-1.86917E-18
 -1      1906 1.06453E-04-2.96325E-05-3.28229E-05-1.22051E-05 2.75815E-20-1.43062E-18
 -1      1907 1.03588E-04-2.90668E-05-3.19511E-05-1.03311E-05 2.62534E-19-1.04013E-18
 -1      1908 1.01470E-04-2.67540E-05-3.20073E-05-1.56138E-05 1.48452E-18-3.48874E-18
 -1      1909 1.02836E-04-2.91857E-05-3.14778E-05-8.52819E-06 1.01472E-18-1.17700E-18
 -1      1910 1.00777E-04-2.88253E-05-3.08374E-05-7.16367E-06 1.28850E-18-1.12430E-18
 -1      1911 9.98825E-05-2.72059E-05-3.11386E-05-1.11408E-05 6.51097E-19-1.68511E-18
 -1      1912 1.00123E-04-2.88760E-05-3.04673E-05-5.86470E-06-3.11099E-19-1.46711E-18
 -1      1913 9.86697E-05-2.86122E-05-3.00180E-05-4.89608E-06-9.38327E-19-1.15713E-18
 -1      1914 9.85159E-05-2.76072E-05-3.03860E-05-7.80019E-06-1.27796E-19-2.29380E-18
 -1      1915 9.81133E-05-2.85856E-05-2.97490E-05-3.94872E-06-2.03566E-19-2.48697E-19
 -1      1916 9.71091E-05-2.83752E-05-2.94491E-05-3.21754E-06-5.01123E-19 6.35927E-19
 -1      1917 9.73461E-05-2.78108E-05-2.98032E-05-5.37245E-06 2.95118E-19-2.10580E-18
 -1      1918 9.66619E-05-2.83028E-05-2.92665E-05-2.48186E-06-7.43543E-19 1.66645E-19
 -1      1919 9.59903E-05-2.81280E-05-2.90789E-05-1.88047E-06-7.90752E-19-9.22642E-19
 -1      1920 9.63701E-05-2.78212E-05-2.93896E-05-3.54073E-06-8.80547E-19-2.71319E-19
 -1      1921 9.32269E-05-2.73799E-05-2.81941E-05 1.59686E-06 7.05062E-19 1.92992E-18
 -1      1922 9.43839E-05-2.74537E-05-2.86308E-05 2.66762E-06 6.73656E-19 2.16903E-18
 -1      1923 9.52303E-05-2.70015E-05-2.92194E-05 4.06211E-06 8.23898E-19 1.62562E-18
 -1      1924 6.30756E-05-3.92590E-05-1.04086E-05 4.89124E-05-6.38239E-19-3.42519E-19
 -1      1925 4.71888E-05-4.20775E-05-3.43355E-06 4.11673E-05-1.60005E-18-3.18008E-19
 -1      1926 9.21710E-05-2.73568E-05-2.77541E-05 3.40352E-07 5.14897E-19 1.53277E-18
 -1      1927 9.26490E-05-2.73760E-05-2.79260E-05 8.91068E-07 5.43110E-19 1.82715E-18
 -1      1928 9.36361E-05-2.73525E-05-2.84035E-05 1.60547E-06 6.67773E-19 1.34406E-18
 -1      1929 9.17958E-05-2.73903E-05-2.75870E-05-3.07664E-07 1.79879E-20 1.59616E-18
 -1      1930 9.19086E-05-2.73624E-05-2.76335E-05-1.48193E-08 3.14095E-19 1.52581E-18
 -1      1931 9.28102E-05-2.74888E-05-2.80037E-05 2.73192E-07 3.16818E-19 1.17212E-18
 -1      1932 9.18206E-05-2.74806E-05-2.75643E-05-6.34292E-07-2.55347E-19 1.46509E-18
 -1      1933 9.17318E-05-2.74183E-05-2.75476E-05-4.81205E-07-9.61655E-20 1.59375E-18
 -1      1934 9.24908E-05-2.75787E-05-2.78299E-05-4.24658E-07-1.04812E-20 1.06351E-18
 -1      1935 9.20672E-05-2.76033E-05-2.76204E-05-7.72819E-07-1.80032E-20 1.23925E-18
 -1      1936 9.18750E-05-2.75241E-05-2.75714E-05-7.01228E-07-1.70223E-19 1.32546E-18
 -1      1937 9.24962E-05-2.76844E-05-2.77848E-05-7.70966E-07-1.05341E-19 7.38068E-19
 -1      1938 9.24230E-05-2.77382E-05-2.77169E-05-8.01067E-07 2.27249E-19 1.07384E-18
 -1      1939 9.21860E-05-2.76544E-05-2.76530E-05-7.78338E-07 1.11610E-19 1.22803E-18
 -1      1940 9.26831E-05-2.78003E-05-2.78129E-05-9.12932E-07 1.04580E-19 5.17992E-19
 -1      1941 9.28187E-05-2.78722E-05-2.78304E-05-7.65992E-07 7.72122E-19 8.74546E-19
 -1      1942 9.25717E-05-2.77910E-05-2.77621E-05-7.72135E-07 4.51171E-19 9.38694E-19
 -1      1943 9.29627E-05-2.79177E-05-2.78806E-05-9.34610E-07 5.78183E-19 5.15013E-19
 -1      1944 9.32127E-05-2.79974E-05-2.79466E-05-6.97345E-07-1.39900E-19 8.98375E-19
 -1      1945 9.29755E-05-2.79229E-05-2.78800E-05-7.19503E-07 3.81130E-19 9.46562E-19
 -1      1946 9.32786E-05-2.80296E-05-2.79667E-05-8.87614E-07 5.10153E-19 7.20880E-19
 -1      1947 9.35815E-05-2.81096E-05-2.80573E-05-6.14428E-07 2.97198E-19 7.51591E-19
 -1      1948 9.33647E-05-2.80436E-05-2.79958E-05-6.44121E-07 3.74092E-21 7.79999E-19
 -1      1949 9.35963E-05-2.81314E-05-2.80582E-05-8.04999E-07 1.22916E-19 6.07960E-19
 -1      1950 9.39140E-05-2.82074E-05-2.81584E-05-5.29815E-07 8.81357E-19 4.21638E-19
 -1      1951 9.37220E-05-2.81504E-05-2.81034E-05-5.61410E-07 6.46586E-19 7.16960E-19
 -1      1952 9.38961E-05-2.82211E-05-2.81476E-05-7.08330E-07 6.15396E-19 1.97040E-19
 -1      1953 9.42069E-05-2.82911E-05-2.82484E-05-4.51551E-07 7.85995E-19 4.66462E-20
 -1      1954 9.40401E-05-2.82427E-05-2.82003E-05-4.81353E-07 7.30603E-19 3.56546E-19
 -1      1955 9.41685E-05-2.82982E-05-2.82308E-05-6.11646E-07 9.49524E-19 1.53084E-19
 -1      1956 9.44623E-05-2.83624E-05-2.83276E-05-3.84557E-07 2.34266E-19-3.21623E-19
 -1      1957 9.43185E-05-2.83214E-05-2.82858E-05-4.10216E-07 4.51680E-19-1.57988E-19
 -1      1958 9.44108E-05-2.83638E-05-2.83063E-05-5.23871E-07 5.99309E-19-4.70262E-20
 -1      1959 9.46856E-05-2.84234E-05-2.83973E-05-3.31519E-07 8.70793E-20-5.72068E-19
 -1      1960 9.45611E-05-2.83884E-05-2.83608E-05-3.51658E-07 3.59067E-20-5.18032E-19
 -1      1961 9.46248E-05-2.84195E-05-2.83740E-05-4.50351E-07 2.40758E-19-5.61418E-19
 -1      1962 9.48838E-05-2.84769E-05-2.84594E-05-2.93397E-07 4.47499E-19-1.01013E-18
 -1      1963 9.47741E-05-2.84463E-05-2.84271E-05-3.07405E-07 3.68458E-19-7.85571E-19
 -1      1964 9.48148E-05-2.84676E-05-2.84348E-05-3.93800E-07 3.92235E-19-8.21195E-19
 -1      1965 9.50646E-05-2.85258E-05-2.85161E-05-2.69598E-07 5.68674E-19-9.97953E-19
 -1      1966 9.49651E-05-2.84979E-05-2.84866E-05-2.77567E-07 4.30584E-19-8.45855E-19
 -1      1967 9.49866E-05-2.85106E-05-2.84900E-05-3.54785E-07 5.41629E-19-8.50035E-19
 -1      1968 9.52350E-05-2.85728E-05-2.85691E-05-2.57826E-07-1.24469E-19-4.07073E-19
 -1      1969 9.51416E-05-2.85461E-05-2.85414E-05-2.60642E-07 3.80368E-19-6.06599E-19
 -1      1970 9.51465E-05-2.85513E-05-2.85411E-05-3.31801E-07 2.08510E-19-3.13738E-19
 -1      1971 9.54001E-05-2.86204E-05-2.86196E-05-2.53593E-07-9.02004E-19-8.14345E-19
 -1      1972 9.53100E-05-2.85937E-05-2.85931E-05-2.53184E-07-6.40395E-19-6.69080E-19
 -1      1973 9.52998E-05-2.85926E-05-2.85891E-05-3.20929E-07-3.80891E-19-4.65913E-19
 -1      1974 9.55616E-05-2.86706E-05-2.86678E-05-2.49411E-07-2.03919E-19-1.12613E-18
 -1      1975 9.54742E-05-2.86430E-05-2.86424E-05-2.49151E-07-3.89807E-19-8.21521E-19
 -1      1976 9.54502E-05-2.86372E-05-2.86345E-05-3.15101E-07-2.89738E-19-1.29629E-18
 -1      1977 9.57159E-05-2.87240E-05-2.87117E-05-2.33749E-07 1.89820E-19-1.26945E-18
 -1      1978 9.56338E-05-2.86957E-05-2.86884E-05-2.38991E-07-2.16874E-19-1.24351E-18
 -1      1979 9.55979E-05-2.86875E-05-2.86761E-05-3.03019E-07 1.15835E-19-1.29590E-18
 -1      1980 9.58508E-05-2.87793E-05-2.87469E-05-1.89943E-07 9.04597E-19-1.35283E-18
 -1      1981 9.57817E-05-2.87518E-05-2.87283E-05-2.08575E-07 7.61661E-19-9.31758E-19
 -1      1982 9.57378E-05-2.87448E-05-2.87113E-05-2.67890E-07 5.87030E-19-9.67499E-19
 -1      1983 9.59435E-05-2.88319E-05-2.87656E-05-9.55021E-08-5.46684E-20-1.34084E-18
 -1      1984 9.59016E-05-2.88088E-05-2.87561E-05-1.38340E-07 5.18079E-19-1.36536E-18
 -1      1985 9.58571E-05-2.88087E-05-2.87346E-05-1.86340E-07 7.30016E-19-1.37443E-18
 -1      1986 9.59566E-05-2.88725E-05-2.87558E-05 7.74338E-08-1.23845E-18-2.53109E-19
 -1      1987 9.59646E-05-2.88603E-05-2.87622E-05-3.19827E-09-1.01988E-18-9.24555E-19
 -1      1988 9.59328E-05-2.88754E-05-2.87376E-05-2.82027E-08-1.06877E-18-1.05949E-19
 -1      1989 9.58367E-05-2.88852E-05-2.87012E-05 3.59354E-07-1.19433E-18 1.05266E-18
 -1      1990 9.59264E-05-2.88941E-05-2.87329E-05 2.25824E-07-1.21724E-18 3.39792E-19
 -1      1991 9.59288E-05-2.89357E-05-2.87088E-05 2.41739E-07-1.55806E-18 1.13554E-18
 -1      1992 9.55137E-05-2.88459E-05-2.85819E-05 7.76953E-07-8.00671E-19 1.72523E-18
 -1      1993 9.57259E-05-2.88903E-05-2.86504E-05 5.76959E-07-5.91755E-19 1.47827E-18
 -1      1994 9.57940E-05-2.89724E-05-2.86335E-05 6.58541E-07-1.06661E-18 1.03654E-18
 -1      1995 9.49067E-05-2.87213E-05-2.83769E-05 1.34189E-06-6.32198E-19 1.97103E-18
 -1      1996 9.52870E-05-2.88197E-05-2.84943E-05 1.06884E-06-9.88152E-19 2.07204E-18
 -1      1997 9.54633E-05-2.89575E-05-2.84959E-05 1.24688E-06-8.83651E-19 2.37269E-18
 -1      1998 9.39353E-05-2.84716E-05-2.80682E-05 2.03491E-06 1.40207E-19 1.89964E-18
 -1      1999 9.45264E-05-2.86440E-05-2.82449E-05 1.69692E-06-2.01465E-19 1.95874E-18
 -1      2000 9.48621E-05-2.88513E-05-2.82811E-05 2.00510E-06-1.50120E-19 1.71151E-18
 -1      2001 9.25414E-05-2.80569E-05-2.76473E-05 2.78838E-06-8.78979E-20 1.87078E-18
 -1      2002 9.33702E-05-2.83207E-05-2.78882E-05 2.41683E-06 5.02264E-21 1.86227E-18
 -1      2003 9.39195E-05-2.86051E-05-2.79803E-05 2.88507E-06 1.97650E-19 1.86760E-18
 -1      2004 9.07204E-05-2.74521E-05-2.71230E-05 3.47541E-06-8.41770E-19 1.87961E-18
 -1      2005 9.17803E-05-2.78137E-05-2.74227E-05 3.13023E-06-3.82621E-19 1.40287E-18
 -1      2006 9.25904E-05-2.81716E-05-2.75951E-05 3.77399E-06 1.81017E-19 2.05008E-18
 -1      2007 8.85547E-05-2.66665E-05-2.65269E-05 3.91757E-06-5.90104E-19 2.38587E-18
 -1      2008 8.97894E-05-2.71119E-05-2.68666E-05 3.68345E-06-8.36834E-19 1.95974E-18
 -1      2009 9.08873E-05-2.75251E-05-2.71433E-05 4.48997E-06-8.12501E-19 2.80096E-18
 -1      2010 8.62385E-05-2.57649E-05-2.59159E-05 3.92258E-06 8.84936E-19 1.58844E-18
 -1      2011 8.75322E-05-2.62517E-05-2.62621E-05 3.89071E-06 3.47139E-20 2.36003E-18
 -1      2012 8.89135E-05-2.66881E-05-2.66602E-05 4.80627E-06 1.75293E-19 2.16749E-18
 -1      2013 8.40729E-05-2.48753E-05-2.53656E-05 3.35202E-06 2.12269E-19 1.57372E-18
 -1      2014 8.52582E-05-2.53326E-05-2.56738E-05 3.58764E-06 4.92080E-19 1.28393E-18
 -1      2015 8.68822E-05-2.57536E-05-2.61971E-05 4.51266E-06 8.89709E-19 1.73941E-18
 -1      2016 8.24148E-05-2.41687E-05-2.49567E-05 2.19746E-06 4.65587E-19 2.31321E-18
 -1      2017 8.33031E-05-2.45108E-05-2.51801E-05 2.70441E-06 5.37313E-19 2.67645E-18
 -1      2018 8.50985E-05-2.48850E-05-2.58133E-05 3.50431E-06-6.60520E-20 2.58378E-18
 -1      2019 8.15814E-05-2.38078E-05-2.47549E-05 6.22244E-07 1.65975E-18 2.06465E-18
 -1      2020 8.20122E-05-2.39605E-05-2.48564E-05 1.32496E-06 6.90961E-19 2.24956E-18
 -1      2021 8.38921E-05-2.42769E-05-2.55639E-05 1.86033E-06 1.03459E-18 2.43118E-18
 -1      2022 8.17440E-05-2.38830E-05-2.47935E-05-1.06895E-06 5.39606E-19 1.19627E-18
 -1      2023 8.16350E-05-2.38115E-05-2.47558E-05-3.09240E-07 1.23735E-18 1.76073E-18
 -1      2024 8.35129E-05-2.40851E-05-2.54865E-05-1.40967E-07 1.54096E-18 3.04651E-18
 -1      2025 8.28632E-05-2.43735E-05-2.50632E-05-2.52967E-06-7.80809E-19 3.34217E-19
 -1      2026 8.22392E-05-2.40967E-05-2.48945E-05-1.86850E-06-4.52739E-19 6.83390E-19
 -1      2027 8.40388E-05-2.43609E-05-2.55919E-05-2.09801E-06 1.97640E-19 2.21121E-18
 -1      2028 8.47018E-05-2.51553E-05-2.55151E-05-3.49313E-06-3.71027E-19-1.57383E-19
 -1      2029 8.36869E-05-2.47381E-05-2.52464E-05-3.04837E-06-9.79441E-19-3.60154E-19
 -1      2030 8.53444E-05-2.50269E-05-2.58608E-05-3.62376E-06-4.85204E-19 1.08124E-18
 -1      2031 8.69088E-05-2.60529E-05-2.60746E-05-3.85348E-06-3.50722E-19 1.29013E-18
 -1      2032 8.56857E-05-2.55808E-05-2.57506E-05-3.67094E-06-2.13594E-19 2.28381E-19
 -1      2033 8.71496E-05-2.59116E-05-2.62495E-05-4.47668E-06-9.30716E-19 3.36403E-19
 -1      2034 8.91310E-05-2.69036E-05-2.66612E-05-3.67082E-06 1.40342E-18 1.06532E-18
 -1      2035 8.78870E-05-2.64545E-05-2.63285E-05-3.72422E-06 5.70028E-19 1.70111E-18
 -1      2036 8.91205E-05-2.68201E-05-2.67005E-05-4.61973E-06-4.24854E-20 1.13325E-18
 -1      2037 9.10992E-05-2.75999E-05-2.72061E-05-3.11334E-06 1.06830E-18 8.12394E-19
 -1      2038 8.99821E-05-2.72258E-05-2.69029E-05-3.33041E-06 1.13479E-18 9.41550E-19
 -1      2039 9.09681E-05-2.75999E-05-2.71558E-05-4.18910E-06 1.21664E-18 1.61235E-18
 -1      2040 9.26640E-05-2.80992E-05-2.76635E-05-2.38016E-06-5.29672E-19 1.81513E-18
 -1      2041 9.17608E-05-2.78222E-05-2.74138E-05-2.67581E-06 3.23524E-19 1.60622E-18
 -1      2042 9.25055E-05-2.81725E-05-2.75688E-05-3.40973E-06 8.18330E-20 2.68467E-18
 -1      2043 9.37874E-05-2.84096E-05-2.80133E-05-1.64190E-06 3.35341E-19 1.28196E-18
 -1      2044 9.31256E-05-2.82277E-05-2.78262E-05-1.94323E-06 9.42688E-20 1.96912E-18
 -1      2045 9.36559E-05-2.85281E-05-2.79098E-05-2.50998E-06 5.74475E-19 3.35017E-18
 -1      2046 9.45117E-05-2.85681E-05-2.82574E-05-1.01246E-06 7.08935E-19 1.65961E-18
 -1      2047 9.40733E-05-2.84648E-05-2.81299E-05-1.27044E-06 2.59017E-19 1.83665E-18
 -1      2048 9.44290E-05-2.87012E-05-2.81677E-05-1.66664E-06 4.95134E-19 3.03669E-18
 -1      2049 9.49226E-05-2.86216E-05-2.84120E-05-5.46976E-07-1.57015E-20 1.25656E-18
 -1      2050 9.46630E-05-2.85747E-05-2.83334E-05-7.37282E-07-4.65706E-19 1.26680E-18
 -1      2051 9.48876E-05-2.87448E-05-2.83463E-05-9.85877E-07-3.00359E-19 3.24115E-18
 -1      2052 9.51184E-05-2.86153E-05-2.84997E-05-2.55009E-07 2.35975E-19 2.43999E-18
 -1      2053 9.49836E-05-2.86017E-05-2.84565E-05-3.72218E-07 7.91648E-19 2.58181E-18
 -1      2054 9.51158E-05-2.87115E-05-2.84589E-05-5.08940E-07 2.99369E-19 3.52829E-18
 -1      2055 9.51921E-05-2.85917E-05-2.85426E-05-1.07796E-07-7.43787E-19 1.85895E-18
 -1      2056 9.51334E-05-2.85912E-05-2.85223E-05-1.63977E-07-3.52125E-19 2.42201E-18
 -1      2057 9.52026E-05-2.86533E-05-2.85217E-05-2.29194E-07-1.48346E-19 4.20673E-18
 -1      2058 9.52196E-05-2.85846E-05-2.85576E-05-5.56746E-08 1.79531E-19 3.35938E-18
 -1      2059 9.51950E-05-2.85860E-05-2.85490E-05-8.27129E-08-2.60606E-19 2.20997E-18
 -1      2060 9.52295E-05-2.86187E-05-2.85482E-05-1.11799E-07-2.86656E-19 4.31985E-18
 -1      2061 9.52345E-05-2.85973E-05-2.85565E-05-6.69895E-08 4.17437E-19 4.84406E-18
 -1      2062 9.54342E-05-2.85399E-05-2.86587E-05 4.30909E-07 1.23047E-18-6.82735E-19
 -1      2063 9.54289E-05-2.86424E-05-2.86209E-05 2.73407E-07 4.96628E-19 2.46070E-18
 -1      2064 9.53838E-05-2.86474E-05-2.85931E-05 1.10869E-07 1.55388E-18 2.04114E-18
 -1      2065 9.53508E-05-2.86721E-05-2.85761E-05 2.53536E-08 1.44600E-18 1.76384E-18
 -1      2066 9.55177E-05-2.87597E-05-2.86163E-05 2.45283E-07 5.62612E-19 1.12925E-18
 -1      2067 9.53016E-05-2.86389E-05-2.85644E-05-4.01250E-08 4.28218E-19 8.77243E-19
 -1      2068 9.52663E-05-2.86253E-05-2.85599E-05-5.99004E-08-1.49099E-21 1.77629E-18
 -1      2069 9.52699E-05-2.86364E-05-2.85579E-05-7.64012E-08-6.07258E-20 2.30010E-18
 -1      2070 9.53935E-05-2.87166E-05-2.85761E-05 2.96104E-09 6.29226E-19 2.84816E-18
 -1      2071 9.53883E-05-2.82455E-05-2.87660E-05 8.63389E-07 1.63224E-18-2.37263E-18
 -1      2072 9.54368E-05-2.84524E-05-2.87031E-05 6.66406E-07 9.65860E-19-2.17731E-18
 -1      2073 9.56021E-05-2.86802E-05-2.86887E-05 6.96281E-07 2.53646E-19-1.54534E-18
 -1      2074 9.52098E-05-2.77156E-05-2.89203E-05 1.32911E-06 2.88558E-18 2.48716E-18
 -1      2075 9.53282E-05-2.80455E-05-2.88291E-05 1.13239E-06 1.53743E-18 2.88607E-19
 -1      2076 9.55575E-05-2.83983E-05-2.87917E-05 1.26630E-06 9.19132E-19-2.38766E-20
 -1      2077 9.48864E-05-2.69652E-05-2.91099E-05 1.68746E-06 3.00769E-18 2.12738E-18
 -1      2078 9.50744E-05-2.73949E-05-2.89984E-05 1.55664E-06 2.76866E-18 3.17696E-18
 -1      2079 9.53360E-05-2.78692E-05-2.89234E-05 1.83109E-06 2.39846E-18 2.81713E-18
 -1      2080 9.44455E-05-2.60733E-05-2.93115E-05 1.79097E-06 3.51571E-18 1.94054E-18
 -1      2081 9.46807E-05-2.65454E-05-2.91950E-05 1.78963E-06 2.30969E-18 2.35739E-18
 -1      2082 9.49258E-05-2.71053E-05-2.90721E-05 2.21170E-06 2.08052E-18 2.09865E-18
 -1      2083 9.39611E-05-2.51872E-05-2.94915E-05 1.52114E-06 4.33865E-18 1.29876E-20
 -1      2084 9.41980E-05-2.56118E-05-2.93915E-05 1.69348E-06 3.92246E-18 6.94565E-19
 -1      2085 9.43671E-05-2.61870E-05-2.92205E-05 2.22904E-06 1.02209E-18 1.17112E-18
 -1      2086 9.35502E-05-2.45023E-05-2.96136E-05 8.40723E-07 2.77846E-18-2.85551E-18
 -1      2087 9.37257E-05-2.47750E-05-2.95531E-05 1.18848E-06 3.44539E-18-1.27945E-18
 -1      2088 9.37638E-05-2.52700E-05-2.93472E-05 1.75590E-06 1.81086E-18-1.25164E-18
 -1      2089 9.33489E-05-2.42157E-05-2.96493E-05-1.41261E-07 2.96205E-18-4.23299E-18
 -1      2090 9.33979E-05-2.42485E-05-2.96447E-05 3.13856E-07 2.17829E-18-2.99523E-18
 -1      2091 9.32768E-05-2.45673E-05-2.94319E-05 7.93753E-07 7.75846E-19-3.39759E-18
 -1      2092 9.34596E-05-2.44471E-05-2.95906E-05-1.23108E-06 4.20791E-18 1.35154E-18
 -1      2093 9.33407E-05-2.42016E-05-2.96461E-05-7.68837E-07 4.03327E-18-1.47843E-18
 -1      2094 9.30781E-05-2.42806E-05-2.94640E-05-5.07275E-07 2.56513E-18-1.78031E-18
 -1      2095 9.39306E-05-2.52155E-05-2.94507E-05-2.08038E-06 1.99567E-18-2.43909E-18
 -1      2096 9.36394E-05-2.47222E-05-2.95546E-05-1.77439E-06 2.64000E-18-8.84886E-19
 -1      2097 9.33003E-05-2.45535E-05-2.94427E-05-1.83970E-06 2.14145E-18-1.31663E-18
 -1      2098 9.46680E-05-2.63560E-05-2.92626E-05-2.36486E-06-6.82209E-19-2.27679E-18
 -1      2099 9.42667E-05-2.57328E-05-2.93906E-05-2.33495E-06 6.48306E-19-3.96847E-18
 -1      2100 9.39899E-05-2.53998E-05-2.93779E-05-2.76438E-06 9.92822E-19-4.24840E-18
 -1      2101 1.06342E-04-4.61583E-05-2.60403E-05 4.84442E-05-2.90956E-19-7.84776E-19
 -1      2102 8.27195E-05-4.51930E-05-1.69984E-05 4.62340E-05 3.57024E-19-3.10438E-19
 -1      2103 8.50341E-05-4.83884E-05-1.55318E-05 5.12583E-05-1.04651E-18-2.69476E-19
 -1      2104 9.56271E-05-2.81176E-05-2.89215E-05-1.08183E-06-1.38790E-18-9.04072E-19
 -1      2105 9.99085E-05-2.24517E-05-3.29183E-05-1.46672E-05-8.71703E-19-5.91970E-19
 -1      2106 1.12190E-05-3.42548E-05 8.75132E-06 1.65291E-05-5.40407E-19 1.84018E-18
 -1      2107 1.07559E-05-3.88685E-05 1.03710E-05 7.32458E-06-6.26632E-19-1.07065E-18
 -1      2108 1.05275E-04-5.80344E-05-2.21083E-05-2.87716E-05 1.17738E-18-3.73711E-18
 -1      2109 1.28926E-04-6.14665E-05-3.00195E-05-3.00561E-05 1.28834E-18-2.69060E-18
 -1      2110 1.07542E-04-6.19227E-05-2.00584E-05-3.33464E-05-5.80218E-19-4.42792E-18
 -1      2111 1.29344E-05-4.09238E-05 1.01920E-05-2.36647E-06-8.85996E-19-1.41455E-18
 -1      2112 1.81275E-05-4.07610E-05 8.06572E-06-1.03883E-05-7.37766E-19-5.08220E-21
 -1      2113 8.72687E-05-8.73264E-06-3.37492E-05-1.05297E-05-4.03750E-19-1.74247E-18
 -1      2114 8.79838E-05-9.26780E-06-3.38214E-05-1.21107E-05-5.80409E-19-1.71175E-18
 -1      2115 9.04813E-05-1.30389E-05-3.32186E-05-1.18184E-05-6.72577E-19-1.62395E-18
 -1      2116 8.86769E-05-1.10616E-05-3.32966E-05-9.39359E-06-3.54190E-19-1.57375E-18
 -1      2117 1.47627E-04-3.90200E-05-4.55014E-05 4.17119E-05-1.32095E-18-2.25141E-18
 -1      2118 1.28787E-04-4.41095E-05-3.63040E-05 3.93935E-05-1.15578E-18-1.64579E-18
 -1      2119 1.73392E-04-3.46501E-05-5.84267E-05 2.89319E-05-7.78476E-19-2.17052E-18
 -1      2120 1.56332E-04-3.54460E-05-5.16505E-05 3.39278E-05-1.00903E-18-1.84526E-18
 -1      2121 1.54633E-04-4.50103E-05-4.65425E-05 2.19764E-05-1.42460E-18-1.44334E-18
 -1      2122 1.93046E-04-2.91778E-05-6.88828E-05 1.51208E-05-8.16963E-19-1.64960E-18
 -1      2123 1.79656E-04-2.81806E-05-6.42839E-05 2.11910E-05-1.01517E-18-1.48697E-18
 -1      2124 1.92371E-04-2.27186E-05-7.18762E-05 3.21619E-08 1.10284E-18-1.17303E-18
 -1      2125 1.93653E-04-2.50717E-05-7.10430E-05 9.53254E-06 4.14199E-19-1.45414E-18
 -1      2126 1.87338E-04-2.44918E-05-6.88857E-05-1.18104E-05 2.36195E-18-1.63096E-18
 -1      2127 1.90789E-04-2.29633E-05-7.10082E-05-3.50633E-06 2.26793E-18-7.66882E-19
 -1      2128 1.72693E-04-3.05019E-05-6.03941E-05-2.64736E-05 3.00697E-18-2.28784E-18
 -1      2129 1.87363E-04-3.05960E-05-6.60396E-05-1.98806E-05 2.53051E-18-1.97825E-18
 -1      2130 1.42992E-04-3.66675E-05-4.56396E-05-3.85219E-05 2.62368E-18-2.34078E-18
 -1      2131 1.63961E-04-3.64789E-05-5.36815E-05-3.54522E-05 2.45004E-18-2.72660E-18
 -1      2132 1.07522E-04-4.20272E-05-2.87524E-05-4.47370E-05 1.17907E-18-3.28268E-18
 -1      2133 1.29336E-04-3.99882E-05-3.77306E-05-4.72904E-05 1.66484E-18-2.87906E-18
 -1      2134 6.72817E-05-4.19562E-05-1.21089E-05-4.43597E-05 1.56743E-18-2.87621E-18
 -1      2135 8.59730E-05-3.82056E-05-2.05321E-05-5.10183E-05 1.41370E-18-3.38856E-18
 -1      2136 3.58394E-05-4.08488E-05 7.97000E-07-3.70553E-05 2.61437E-18-1.12211E-18
 -1      2137 4.87388E-05-3.74705E-05-5.43323E-06-4.41361E-05 2.13113E-18-1.86416E-18
 -1      2138 1.48851E-05-3.62962E-05 7.93098E-06-2.16344E-05-3.23355E-19-1.35356E-18
 -1      2139 2.18195E-05-3.43937E-05 4.59792E-06-3.07526E-05 1.64536E-18-1.29088E-18
 -1      2140 1.18850E-05-3.65260E-05 9.21478E-06-1.97756E-07-1.67088E-18-3.60751E-18
 -1      2141 1.00967E-05-3.37557E-05 9.07437E-06-9.15302E-06-1.51344E-18-1.91938E-18
 -1      2142 2.59659E-05-4.02751E-05 4.71607E-06 1.81282E-05-1.99942E-18-3.26489E-18
 -1      2143 1.75266E-05-4.19426E-05 8.58257E-06 8.82215E-06-1.55833E-18-3.33943E-18
 -1      2144 6.51731E-05-4.81105E-05-8.35725E-06 3.29615E-05-2.41658E-18-3.69889E-18
 -1      2145 4.74043E-05-4.67104E-05-1.93027E-06 2.65347E-05-1.91726E-18-3.56876E-18
 -1      2146 1.11820E-04-5.72350E-05-2.42456E-05 3.38122E-05-2.19043E-18-5.91398E-18
 -1      2147 8.54522E-05-5.57041E-05-1.49035E-05 2.95483E-05-2.28106E-18-4.55344E-18
 -1      2148 1.68497E-04-6.72382E-05-4.35136E-05 1.57524E-05-1.88084E-18-6.74408E-18
 -1      2149 1.37469E-04-6.38421E-05-3.30065E-05 2.02283E-05-1.83340E-18-5.74034E-18
 -1      2150 2.01918E-04-5.93598E-05-6.03657E-05-1.07428E-05-8.52115E-19-7.65040E-18
 -1      2151 1.82422E-04-6.21878E-05-5.18655E-05-3.00637E-06-1.02877E-18-7.27093E-18
 -1      2152 2.02209E-04-4.53917E-05-6.61131E-05-1.78659E-05-9.80864E-19-6.92407E-18
 -1      2153 1.92166E-04-5.06553E-05-6.11404E-05-2.18352E-05-1.17738E-18-6.52978E-18
 -1      2154 2.01139E-04-3.73131E-05-6.91995E-05-6.91569E-06-9.82558E-19-7.91510E-18
 -1      2155 1.93813E-04-4.29475E-05-6.41883E-05 1.52861E-05-9.08866E-19-6.21765E-18
 -1      2156 1.56736E-04-6.57557E-05-3.96732E-05-1.04535E-05 4.53163E-19-3.62869E-18
 -1      2157 1.80618E-04-6.85539E-05-4.82869E-05-8.48612E-06 2.55804E-19-5.78354E-18
 -1      2158 3.03374E-05-4.49794E-05 4.21340E-06-1.84683E-05 6.21722E-19-1.51344E-18
 -1      2159 4.30249E-05-4.43088E-05-8.54020E-07-2.63602E-05 2.96462E-19-3.12047E-18
 -1      2160 3.19773E-05-3.63478E-05 1.15790E-06 3.72552E-05-1.54414E-18-2.05405E-20
 -1      2161 2.21064E-05-3.70625E-05 5.31573E-06 2.95615E-05-1.97316E-18 1.96342E-18
 -1      2162 4.86102E-05-3.67554E-05-5.31760E-06 4.70843E-05-2.02271E-18-1.40184E-19
 -1      2163 1.96956E-04-5.73022E-05-5.91352E-05 2.06373E-05-8.67150E-19-5.64420E-18
 -1      2164 9.56375E-05-2.77996E-05-2.90646E-05-1.87435E-06-1.26755E-18-1.54047E-18
 -1      2165 1.19397E-05-2.64399E-05 5.29615E-06 2.36973E-07 8.18446E-20-1.16891E-18
 -1      2166 9.72434E-05-2.42734E-05-3.13582E-05-1.01250E-05-9.15510E-19-8.47774E-19
 -1      2167 9.63730E-05-2.30282E-05-3.14972E-05-1.05118E-05-9.59847E-19-1.11256E-18
 -1      2168 2.88747E-05-3.44883E-05 1.42406E-06-2.21804E-05 7.37766E-19-2.44157E-18
 -1      2169 1.94700E-04-6.28775E-05-5.54812E-05 4.61657E-06-3.92017E-19-6.59415E-18
 -1      2170 6.62545E-05-4.85595E-05-8.44448E-06-3.46456E-05 4.42151E-19-3.65463E-18
 -1      2171 1.41739E-04-6.41707E-05-3.34222E-05 1.74546E-05 4.34104E-20-2.82107E-18
 -1      2172 1.63721E-04-6.77466E-05-4.09160E-05 1.42332E-06 3.35849E-19-3.38739E-18
 -1      2173 1.69244E-04-6.75562E-05-4.38888E-05-1.22926E-05 6.93482E-19-4.32791E-18
 -1      2174 1.80195E-04-6.44648E-05-5.01235E-05-2.45598E-05 7.23790E-19-5.48920E-18
 -1      2175 1.79443E-04-5.18135E-05-5.38421E-05-2.92164E-05 5.92923E-20-4.55640E-18
 -1      2176 1.56135E-04-6.91603E-05-3.75889E-05-7.20467E-06-5.98429E-19-3.46373E-18
 -1      2177 9.52810E-05-2.72030E-05-2.91826E-05-2.22184E-06-8.82011E-19-9.47473E-19
 -1      2178 1.70312E-04-1.21419E-05-6.68085E-05 2.02725E-07 1.29088E-18-1.16385E-18
 -1      2179 9.51964E-05-2.68474E-05-2.92777E-05-2.97870E-06-1.27077E-18-1.47437E-18
 -1      2180 1.23632E-04-5.11533E-05-3.09682E-05 4.08331E-05-8.96161E-19-1.31481E-18
 -1      2181 1.19349E-04-5.64405E-05-2.64116E-05 4.20610E-05-7.12355E-19-1.86803E-18
 -1      2182 1.38050E-04-5.62197E-05-3.55426E-05 3.01210E-05-4.97208E-19-2.48265E-18
 -1      2183 1.97745E-05-2.68861E-05 2.55789E-06 2.77020E-05-6.35063E-19 1.40565E-18
 -1      2184 1.52154E-04-7.04634E-05-3.49324E-05-1.45637E-05-7.42424E-19-3.22952E-18
 -1      2185 1.79674E-04-7.04626E-05-4.61277E-05-9.56149E-06 2.49345E-19-5.48835E-18
 -1      2186 1.40327E-04-7.00871E-05-3.02292E-05 2.17549E-05-1.35144E-18-4.43252E-18
 -1      2187 9.19732E-05-5.62882E-05-1.58510E-05 3.52847E-05-1.03169E-18-3.93224E-18
 -1      2188 4.55189E-05-3.89879E-05-3.48230E-06 3.07835E-05-1.63223E-18-3.45716E-18
 -1      2189 1.62708E-05-2.62472E-05 3.50674E-06 8.79554E-06-1.97634E-18-3.43048E-18
 -1      2190 1.44223E-05-2.29886E-05 3.23953E-06-1.73417E-05-1.09733E-18-2.48223E-18
 -1      2191 3.41833E-05-3.25740E-05-1.20277E-06-4.03946E-05 8.62280E-19-1.27500E-18
 -1      2192 6.95010E-05-4.41174E-05-1.12312E-05-5.02924E-05 1.12486E-18-1.88033E-18
 -1      2193 1.11072E-04-5.14432E-05-2.53999E-05-4.63381E-05 5.25584E-19-2.61267E-18
 -1      2194 1.44659E-04-4.93370E-05-4.03001E-05-3.02303E-05 1.84187E-18-2.26158E-18
 -1      2195 1.64732E-04-3.60824E-05-5.41797E-05-1.55109E-05 2.52151E-18-2.35094E-18
 -1      2196 1.70313E-04-2.02438E-05-6.32354E-05-3.90716E-06 2.62474E-18-8.33480E-19
 -1      2197 1.68353E-04-3.09384E-05-5.79999E-05 1.01248E-05-1.18288E-18-1.76522E-18
 -1      2198 1.72039E-04-1.67241E-05-6.53817E-05 1.97039E-06-3.90482E-19-1.62376E-18
 -1      2199 8.81340E-05-1.11821E-05-3.30188E-05-3.66125E-06 2.66901E-19-1.23002E-18
 -1      2200 8.83688E-05-1.14528E-05-3.30012E-05-4.80248E-06 5.97191E-20-1.32596E-18
 -1      2201 8.87208E-05-1.19364E-05-3.29529E-05-5.82127E-06-5.48661E-20-1.39346E-18
 -1      2202 8.91263E-05-1.24077E-05-3.29251E-05-6.99260E-06-1.57619E-19-1.43829E-18
 -1      2203 8.98896E-05-1.38223E-05-3.25995E-05-4.90353E-06 3.97129E-20-1.24475E-18
 -1      2204 8.77872E-05-1.07225E-05-3.30618E-05 6.13846E-07 6.84377E-19-1.11147E-18
 -1      2205 8.77827E-05-1.07176E-05-3.30620E-05-4.97075E-07 5.44079E-19-1.19045E-18
 -1      2206 8.79682E-05-1.09474E-05-3.30433E-05 2.75577E-06 8.18822E-19-1.13563E-18
 -1      2207 8.78533E-05-1.08143E-05-3.30526E-05 1.63647E-06 7.35461E-19-1.13806E-18
 -1      2208 8.91047E-05-1.27684E-05-3.27187E-05 1.04799E-06 6.68480E-19-1.08744E-18
 -1      2209 8.84026E-05-1.14946E-05-3.29981E-05 4.88485E-06 9.73277E-19-1.00978E-18
 -1      2210 8.81630E-05-1.12177E-05-3.30162E-05 3.76172E-06 8.64462E-19-1.08936E-18
 -1      2211 8.93704E-05-1.31241E-05-3.26788E-05 3.01884E-06 8.23235E-19-1.04208E-18
 -1      2212 8.91825E-05-1.24777E-05-3.29194E-05 7.07174E-06 1.16123E-18-6.85230E-19
 -1      2213 8.87641E-05-1.19908E-05-3.29485E-05 5.90014E-06 1.05912E-18-8.77751E-19
 -1      2214 8.99277E-05-1.38721E-05-3.25944E-05 4.97244E-06 9.97808E-19-8.66190E-19
 -1      2215 9.04524E-05-1.40870E-05-3.27929E-05 9.21945E-06 1.24877E-18-2.43224E-19
 -1      2216 8.97724E-05-1.32768E-05-3.28380E-05 8.04156E-06 1.12689E-18-4.66742E-19
 -1      2217 9.08641E-05-1.51326E-05-3.24497E-05 6.86686E-06 1.11377E-18-5.71582E-19
 -1      2218 9.24578E-05-1.66859E-05-3.25729E-05 1.10748E-05 1.32078E-18 1.25043E-19
 -1      2219 9.13735E-05-1.53174E-05-3.26563E-05 1.00313E-05 1.28700E-18-1.24130E-19
 -1      2220 9.22903E-05-1.70924E-05-3.22097E-05 8.51402E-06 1.18119E-18-1.38970E-19
 -1      2221 9.55092E-05-2.08472E-05-3.20982E-05 1.16945E-05 1.15181E-18 9.36871E-19
 -1      2222 9.38008E-05-1.84747E-05-3.23217E-05 1.14540E-05 1.29126E-18 4.58549E-19
 -1      2223 9.42809E-05-2.00296E-05-3.17873E-05 9.45263E-06 1.17803E-18 2.94645E-19
 -1      2224 9.75122E-05-2.46058E-05-3.13121E-05 9.84870E-06 9.53283E-19 1.62522E-18
 -1      2225 9.62764E-05-2.22152E-05-3.17308E-05 1.10947E-05 1.09116E-18 1.22596E-18
 -1      2226 9.58441E-05-2.32217E-05-3.11136E-05 8.79534E-06 1.08505E-18 8.28829E-19
 -1      2227 9.63017E-05-2.56794E-05-3.02779E-05 6.85093E-06 9.63923E-19 1.43578E-18
 -1      2228 2.77137E-05-2.29658E-05-1.81022E-06-2.00112E-05 1.16245E-18-3.31783E-18
 -1      2229 4.14777E-05-2.88317E-05-5.22609E-06-3.06288E-05 1.91472E-18-4.34888E-18
 -1      2230 9.59366E-05-2.49908E-05-3.03633E-05-6.38542E-06-8.13208E-19-1.14788E-18
 -1      2231 9.52860E-05-2.57715E-05-2.98062E-05-4.42877E-06-7.18191E-19-1.19179E-18
 -1      2232 9.51707E-05-2.64856E-05-2.93807E-05-3.05696E-06-6.25289E-19-1.06658E-18
 -1      2233 9.46981E-05-2.68703E-05-2.90690E-05-1.96562E-06-5.33027E-19-1.05517E-18
 -1      2234 9.53446E-05-2.52669E-05-3.00374E-05-4.42533E-06-6.39143E-19-1.20835E-18
 -1      2235 9.45009E-05-2.72117E-05-2.87994E-05-1.09557E-06-4.36100E-19-9.70927E-19
 -1      2236 9.42350E-05-2.74304E-05-2.86282E-05-4.75943E-07-3.43380E-19-1.07634E-18
 -1      2237 9.50531E-05-2.66540E-05-2.93277E-05-2.00938E-06-5.03984E-19-1.12498E-18
 -1      2238 9.40836E-05-2.76160E-05-2.84630E-05 4.61975E-08-4.35597E-19-1.07670E-18
 -1      2239 9.39796E-05-2.77620E-05-2.83764E-05 3.87023E-07-4.40444E-19-1.17436E-18
 -1      2240 9.47427E-05-2.73991E-05-2.88747E-05-4.92415E-07-4.64384E-19-1.14192E-18
 -1      2241 9.38924E-05-2.78741E-05-2.82805E-05 6.79390E-07-3.37544E-19-1.10367E-18
 -1      2242 9.38950E-05-2.79826E-05-2.82460E-05 8.50727E-07-2.21986E-19-9.92072E-19
 -1      2243 9.45370E-05-2.78379E-05-2.85959E-05 4.03621E-07-3.66731E-19-1.14501E-18
 -1      2244 9.38620E-05-2.80560E-05-2.81958E-05 9.94841E-07-4.29073E-19-8.10420E-19
 -1      2245 9.39282E-05-2.81408E-05-2.81928E-05 1.06215E-06-4.57475E-19-7.59604E-19
 -1      2246 9.44405E-05-2.81127E-05-2.84338E-05 8.92481E-07-3.77722E-19-9.87516E-19
 -1      2247 9.39332E-05-2.81913E-05-2.81722E-05 1.11244E-06-3.49719E-19-5.66263E-19
 -1      2248 9.40329E-05-2.82588E-05-2.81875E-05 1.11693E-06-2.44852E-19-6.56317E-19
 -1      2249 9.44289E-05-2.82926E-05-2.83493E-05 1.11862E-06-3.21634E-19-4.60410E-19
 -1      2250 9.40618E-05-2.82940E-05-2.81856E-05 1.11014E-06-2.03832E-19-6.98320E-19
 -1      2251 9.41751E-05-2.83476E-05-2.82107E-05 1.07869E-06-1.48890E-19-6.85042E-19
 -1      2252 9.44739E-05-2.84125E-05-2.83154E-05 1.17982E-06-3.24243E-19-3.18353E-19
 -1      2253 9.42171E-05-2.83721E-05-2.82201E-05 1.03976E-06-2.22519E-19-8.67429E-19
 -1      2254 9.43318E-05-2.84141E-05-2.82496E-05 9.90211E-07-3.20329E-19-7.15081E-19
 -1      2255 9.45518E-05-2.84916E-05-2.83136E-05 1.14256E-06-3.06655E-19-5.26023E-19
 -1      2256 9.43797E-05-2.84305E-05-2.82655E-05 9.36130E-07-5.43555E-19-7.94376E-19
 -1      2257 9.44889E-05-2.84628E-05-2.82961E-05 8.80480E-07-2.36972E-19-9.52121E-19
 -1      2258 9.46460E-05-2.85420E-05-2.83315E-05 1.05224E-06-5.20977E-19-8.29784E-19
 -1      2259 9.45382E-05-2.84732E-05-2.83154E-05 8.22867E-07 9.15203E-21-1.11694E-18
 -1      2260 9.46384E-05-2.84974E-05-2.83455E-05 7.69197E-07-1.75386E-19-1.08106E-18
 -1      2261 9.47454E-05-2.85715E-05-2.83609E-05 9.39898E-07-3.11753E-19-1.01638E-18
 -1      2262 9.46839E-05-2.85028E-05-2.83653E-05 7.18719E-07-5.98074E-20-1.00598E-18
 -1      2263 9.47712E-05-2.85197E-05-2.83927E-05 6.74537E-07 2.58982E-19-4.86967E-19
 -1      2264 9.48414E-05-2.85853E-05-2.83957E-05 8.29436E-07-5.83540E-20-1.43036E-18
 -1      2265 9.48179E-05-2.85217E-05-2.84146E-05 6.30845E-07 8.33779E-20-3.41947E-19
 -1      2266 9.49020E-05-2.85341E-05-2.84423E-05 5.96076E-07 1.72848E-19-5.32339E-19
 -1      2267 9.49333E-05-2.85875E-05-2.84341E-05 7.32578E-07 3.15660E-19-7.65197E-19
 -1      2268 9.49464E-05-2.85325E-05-2.84648E-05 5.66818E-07 3.89721E-19-5.47858E-19
 -1      2269 9.50255E-05-2.85403E-05-2.84922E-05 5.47474E-07 4.53000E-19-6.34639E-19
 -1      2270 9.50231E-05-2.85798E-05-2.84759E-05 6.57778E-07 9.32118E-20-2.90749E-19
 -1      2271 9.50687E-05-2.85349E-05-2.85160E-05 5.36893E-07 2.36283E-19-1.02068E-18
 -1      2272 9.51468E-05-2.85386E-05-2.85443E-05 5.37038E-07 1.73355E-19-1.17208E-18
 -1      2273 9.51091E-05-2.85621E-05-2.85204E-05 6.17449E-07 5.65147E-20-3.12515E-19
 -1      2274 9.51898E-05-2.85284E-05-2.85706E-05 5.49991E-07 5.29688E-19-1.03163E-18
 -1      2275 9.52722E-05-2.85277E-05-2.86018E-05 5.74941E-07 2.12326E-19-6.88705E-19
 -1      2276 9.51930E-05-2.85329E-05-2.85689E-05 6.21307E-07 3.17236E-19-5.90145E-19
 -1      2277 9.53154E-05-2.85104E-05-2.86321E-05 6.17926E-07 1.20146E-19-4.32591E-19
 -1      2278 9.54085E-05-2.85043E-05-2.86690E-05 6.75423E-07 5.55530E-19-1.01865E-19
 -1      2279 9.52762E-05-2.84879E-05-2.86240E-05 6.81282E-07 3.38279E-19-8.56449E-19
 -1      2280 9.54516E-05-2.84758E-05-2.87055E-05 7.57808E-07 5.54211E-23-5.49257E-19
 -1      2281 9.55632E-05-2.84617E-05-2.87516E-05 8.59564E-07-2.79916E-19-6.84292E-19
 -1      2282 9.53590E-05-2.84189E-05-2.86891E-05 8.13794E-07-4.91845E-20-8.88212E-19
 -1      2283 9.56036E-05-2.84150E-05-2.87972E-05 9.95188E-07-2.38027E-19-9.15330E-19
 -1      2284 9.57430E-05-2.83881E-05-2.88574E-05 1.15903E-06-1.36467E-19-6.97516E-19
 -1      2285 9.54382E-05-2.83117E-05-2.87688E-05 1.04254E-06-2.96718E-19-1.12427E-18
 -1      2286 9.57735E-05-2.83114E-05-2.89155E-05 1.36828E-06-1.20886E-19-1.04604E-18
 -1      2287 9.59514E-05-2.82635E-05-2.89961E-05 1.62109E-06-1.95074E-19-8.32592E-19
 -1      2288 9.55042E-05-2.81434E-05-2.88686E-05 1.40206E-06-2.00935E-19-1.17780E-18
 -1      2289 9.59569E-05-2.81379E-05-2.90704E-05 1.93357E-06-1.81579E-19-7.59417E-19
 -1      2290 9.61848E-05-2.80557E-05-2.91796E-05 2.31521E-06-4.11852E-19-7.47116E-19
 -1      2291 9.55355E-05-2.78772E-05-2.89945E-05 1.94204E-06-2.11657E-20-1.40091E-18
 -1      2292 9.61362E-05-2.78515E-05-2.92733E-05 2.77284E-06-7.69445E-19-5.72465E-19
 -1      2293 9.64242E-05-2.77146E-05-2.94208E-05 3.34070E-06-7.57477E-19-6.47455E-19
 -1      2294 9.54893E-05-2.74567E-05-2.91517E-05 2.73238E-06-5.09459E-19-1.46953E-18
 -1      2295 9.62692E-05-2.73878E-05-2.95346E-05 4.00076E-06-8.09542E-19-3.26150E-19
 -1      2296 9.66223E-05-2.71672E-05-2.97306E-05 4.83379E-06-4.53407E-19-5.38478E-19
 -1      2297 9.52875E-05-2.67981E-05-2.93413E-05 3.86768E-06-6.52206E-19-8.53692E-19
 -1      2298 9.62726E-05-2.66574E-05-2.98582E-05 5.77059E-06-4.80440E-19-7.46227E-19
 -1      2299 9.66848E-05-2.63201E-05-3.01093E-05 6.96880E-06-3.45914E-19-9.01385E-19
 -1      2300 9.47952E-05-2.57862E-05-2.95532E-05 5.46922E-06-5.58850E-19-3.79086E-19
 -1      2301 9.60041E-05-2.55583E-05-3.02280E-05 8.27191E-06-5.65805E-19-1.77930E-18
 -1      2302 9.64550E-05-2.50879E-05-3.05274E-05 9.94247E-06-8.19064E-19-1.74493E-18
 -1      2303 9.37970E-05-2.42842E-05-2.97513E-05 7.68002E-06-9.86289E-19-3.96981E-19
 -1      2304 9.52603E-05-2.40343E-05-3.05804E-05 1.17079E-05-2.47691E-19-2.20371E-18
 -1      2305 9.57172E-05-2.34933E-05-3.08843E-05 1.39228E-05-1.95744E-19-1.55063E-18
 -1      2306 9.19830E-05-2.21885E-05-2.98447E-05 1.06498E-05-6.82758E-19-1.77534E-18
 -1      2307 9.39291E-05-2.23275E-05-3.07611E-05 1.61310E-05-7.21004E-20-1.65627E-18
 -1      2308 9.44995E-05-2.20412E-05-3.09683E-05 1.86513E-05 1.09453E-20-1.77317E-18
 -1      2309 8.90851E-05-1.96373E-05-2.96489E-05 1.43893E-05 3.81115E-20-2.18940E-18
 -1      2310 9.20093E-05-2.11062E-05-3.04391E-05 2.15790E-05-8.48820E-20-1.13535E-18
 -1      2311 9.31618E-05-2.19525E-05-3.03552E-05 2.43296E-05-5.43755E-20-1.25566E-18
 -1      2312 8.48614E-05-1.72468E-05-2.88117E-05 1.91361E-05 2.93040E-19-2.04671E-18
 -1      2313 9.06695E-05-2.26863E-05-2.90465E-05 2.79293E-05-4.13723E-19-7.08225E-19
 -1      2314 9.38308E-05-2.67436E-05-2.84072E-05 2.98702E-05-2.28275E-19-1.28098E-18
 -1      2315 7.96184E-05-1.68410E-05-2.66470E-05 2.51415E-05-9.67073E-20-5.76644E-19
 -1      2316 9.33857E-05-3.13216E-05-2.61558E-05 3.34007E-05-4.98161E-19-1.97602E-18
 -1      2317 1.00392E-04-4.09913E-05-2.50946E-05 3.33340E-05-4.42786E-19-2.05046E-18
 -1      2318 7.59906E-05-2.26325E-05-2.24955E-05 3.20575E-05-9.46030E-19-1.87724E-18
 -1      2319 1.34681E-04-6.64494E-05-2.91859E-05-2.33924E-05-1.93124E-19-2.25533E-18
 -1      2320 1.49242E-05-1.52282E-05 4.01414E-07 3.02379E-06 1.23108E-18-1.13799E-18
 -1      2321 1.93990E-05-1.86455E-05 3.67857E-08-1.02599E-05 7.65718E-19-2.27090E-18
 -1      2322 3.12173E-05-1.55367E-05-6.16469E-06-1.73478E-05 1.65320E-18-3.02412E-18
 -1      2323 9.48414E-05-2.68847E-05-2.91081E-05 3.19728E-06 8.33480E-19 1.15596E-18
 -1      2324 9.58033E-05-2.65542E-05-2.96481E-05 4.84869E-06 8.95804E-19 1.31598E-18
 -1      2325 9.58424E-05-2.55077E-05-3.01014E-05 5.97854E-06 9.57174E-19 9.67636E-19
 -1      2326 1.02880E-04-3.53686E-05-2.86628E-05-3.18968E-05 1.62059E-18-2.78234E-18
 -1      2327 9.75495E-05-2.82789E-05-2.93464E-05-3.10717E-05 1.99339E-18-3.01311E-18
 -1      2328 9.68972E-05-2.53553E-05-3.05030E-05-2.78876E-05 1.62850E-18-2.11005E-18
 -1      2329 9.45931E-05-2.29131E-05-3.06833E-05-2.53937E-05 1.41382E-18-1.36128E-18
 -1      2330 9.64214E-05-2.31367E-05-3.13107E-05-2.21483E-05 8.20801E-19-1.91540E-18
 -1      2331 9.52226E-05-2.27927E-05-3.10895E-05-1.93932E-05 5.79432E-19-2.13548E-18
 -1      2332 8.66539E-05-1.89314E-05-2.88920E-05-2.35304E-05 7.72838E-19-2.14739E-18
 -1      2333 9.68345E-05-2.37949E-05-3.12251E-05-1.67005E-05 1.95121E-18-3.84138E-18
 -1      2334 9.59808E-05-2.40858E-05-3.08607E-05-1.42818E-05 1.25941E-18-3.76256E-18
 -1      2335 9.00304E-05-2.00493E-05-2.98868E-05-1.79281E-05 3.31825E-19-2.61026E-18
 -1      2336 9.70449E-05-2.50767E-05-3.07764E-05-1.21893E-05 7.46329E-19-3.34234E-18
 -1      2337 9.63160E-05-2.54331E-05-3.04125E-05-1.02970E-05 4.79010E-19-2.72437E-18
 -1      2338 9.25756E-05-2.22167E-05-3.00844E-05-1.33426E-05 9.28365E-19-4.38631E-18
 -1      2339 9.68989E-05-2.61655E-05-3.02596E-05-8.72837E-06-2.84706E-19-2.58999E-18
 -1      2340 9.62681E-05-2.64158E-05-2.99560E-05-7.32101E-06 4.16545E-19-2.55970E-18
 -1      2341 9.41137E-05-2.41544E-05-2.99402E-05-9.76556E-06 8.21225E-21-2.98747E-18
 -1      2342 9.65180E-05-2.68647E-05-2.98071E-05-6.14350E-06 1.36516E-18-3.58341E-18
 -1      2343 9.59953E-05-2.69793E-05-2.95787E-05-5.10174E-06 3.35061E-19-2.77781E-18
 -1      2344 9.48646E-05-2.55226E-05-2.96983E-05-7.04837E-06 5.64542E-19-2.24218E-18
 -1      2345 9.57690E-05-2.69202E-05-2.94702E-05-4.40543E-06 7.03269E-21-2.25251E-18
 -1      2346 9.53724E-05-2.69379E-05-2.93193E-05-3.56574E-06-5.19785E-19-1.62645E-18
 -1      2347 9.44900E-05-2.60582E-05-2.93542E-05-3.67467E-06-5.15919E-19-2.10412E-18
 -1      2348 9.47710E-05-2.60435E-05-2.94705E-05-5.09083E-06 5.13204E-19-2.91256E-18
 -1      2349 9.36223E-05-2.74675E-05-2.83414E-05 3.64076E-07 2.78191E-19 7.38842E-19
 -1      2350 9.38850E-05-2.73284E-05-2.84903E-05 9.13990E-07 4.56164E-19 8.86652E-19
 -1      2351 9.40338E-05-2.72231E-05-2.86113E-05 1.45273E-06 6.11548E-19 9.58712E-19
 -1      2352 9.45722E-05-2.70455E-05-2.88980E-05 2.41072E-06 7.75952E-19 1.08476E-18
 -1      2353 9.49977E-05-2.66778E-05-2.92870E-05 3.09928E-06 8.21093E-19 8.17274E-19
 -1      2354 9.45996E-05-2.71197E-05-2.89392E-05 1.57982E-06 5.86772E-19 6.25185E-19
 -1      2355 9.32976E-05-2.78569E-05-2.80413E-05-8.24963E-07-3.06140E-21 1.79255E-19
 -1      2356 9.32510E-05-2.77654E-05-2.80524E-05-6.84465E-07 3.91823E-20 3.86214E-19
 -1      2357 9.33946E-05-2.79931E-05-2.80261E-05-1.00391E-06 2.78407E-19 7.59566E-20
 -1      2358 9.32797E-05-2.79119E-05-2.80084E-05-9.51494E-07 7.47515E-20 4.71813E-20
 -1      2359 9.39316E-05-2.80171E-05-2.82572E-05-9.01998E-07 1.54592E-19-7.21289E-20
 -1      2360 9.35729E-05-2.81085E-05-2.80541E-05-1.04290E-06 6.71641E-19 1.80449E-19
 -1      2361 9.34259E-05-2.80373E-05-2.80211E-05-1.04291E-06 4.81961E-19 1.84150E-19
 -1      2362 9.39628E-05-2.81663E-05-2.82039E-05-1.10228E-06 2.19930E-19-2.36906E-19
 -1      2363 9.37890E-05-2.82061E-05-2.81056E-05-1.00012E-06 3.13908E-19 3.80589E-19
 -1      2364 9.36323E-05-2.81448E-05-2.80658E-05-1.02976E-06 6.61554E-19 3.58610E-19
 -1      2365 9.40641E-05-2.82768E-05-2.81979E-05-1.14857E-06 4.67302E-19-2.22615E-20
 -1      2366 9.40146E-05-2.82875E-05-2.81680E-05-9.13894E-07 4.69345E-19-4.46959E-21
 -1      2367 9.38618E-05-2.82358E-05-2.81265E-05-9.58207E-07 3.38407E-19 3.67721E-19
 -1      2368 9.42023E-05-2.83597E-05-2.82202E-05-1.10430E-06 4.87533E-19 2.60156E-19
 -1      2369 9.42329E-05-2.83541E-05-2.82332E-05-8.09703E-07 7.51356E-19-2.46755E-19
 -1      2370 9.40913E-05-2.83114E-05-2.81931E-05-8.58814E-07 6.21103E-19-2.17175E-19
 -1      2371 9.43546E-05-2.84216E-05-2.82580E-05-1.01188E-06 7.62363E-19-4.27373E-19
 -1      2372 9.44353E-05-2.84080E-05-2.82970E-05-7.04329E-07 8.15146E-19-7.54168E-20
 -1      2373 9.43078E-05-2.83731E-05-2.82598E-05-7.51796E-07 6.94398E-19-1.18525E-19
 -1      2374 9.45071E-05-2.84671E-05-2.83033E-05-8.99731E-07 5.29572E-19-3.62907E-19
 -1      2375 9.46186E-05-2.84513E-05-2.83571E-05-6.08527E-07 4.62510E-19 6.67223E-20
 -1      2376 9.45057E-05-2.84229E-05-2.83232E-05-6.50288E-07 8.04429E-19 2.05871E-19
 -1      2377 9.46520E-05-2.84998E-05-2.83510E-05-7.86604E-07 5.90442E-19 5.95086E-20
 -1      2378 9.47835E-05-2.84864E-05-2.84127E-05-5.28762E-07 4.06919E-19-1.56792E-19
 -1      2379 9.46835E-05-2.84631E-05-2.83821E-05-5.62468E-07 4.09581E-19 1.15907E-19
 -1      2380 9.47860E-05-2.85229E-05-2.83984E-05-6.84518E-07 4.26556E-19 2.34895E-19
 -1      2381 9.49329E-05-2.85160E-05-2.84639E-05-4.68289E-07 3.38653E-19-1.45511E-19
 -1      2382 9.48434E-05-2.84961E-05-2.84362E-05-4.92908E-07 4.30855E-19-1.20747E-19
 -1      2383 9.49090E-05-2.85395E-05-2.84439E-05-6.00628E-07 3.53557E-19 1.62274E-19
 -1      2384 9.50711E-05-2.85431E-05-2.85115E-05-4.27685E-07 4.86071E-19-3.48644E-19
 -1      2385 9.49891E-05-2.85249E-05-2.84860E-05-4.43343E-07 4.58634E-19-3.29544E-19
 -1      2386 9.50231E-05-2.85528E-05-2.84872E-05-5.38370E-07 5.77171E-19 1.20828E-19
 -1      2387 9.52029E-05-2.85709E-05-2.85561E-05-4.04884E-07-6.98506E-20-3.90299E-20
 -1      2388 9.51253E-05-2.85526E-05-2.85322E-05-4.12932E-07 2.34443E-19 1.52838E-20
 -1      2389 9.51316E-05-2.85662E-05-2.85280E-05-4.97991E-07 1.72537E-19 3.02407E-19
 -1      2390 9.53325E-05-2.86032E-05-2.85980E-05-3.94733E-07-4.37317E-19-3.61631E-19
 -1      2391 9.52572E-05-2.85827E-05-2.85755E-05-3.98032E-07-4.72464E-20 1.36705E-20
 -1      2392 9.52386E-05-2.85838E-05-2.85664E-05-4.76501E-07-2.49340E-19 1.22179E-19
 -1      2393 9.54632E-05-2.86441E-05-2.86370E-05-3.88073E-07-1.84445E-19-2.43002E-19
 -1      2394 9.53890E-05-2.86194E-05-2.86160E-05-3.91487E-07-6.03172E-19-1.75126E-19
 -1      2395 9.53485E-05-2.86106E-05-2.86021E-05-4.67075E-07-4.54044E-19 5.05139E-19
 -1      2396 9.55955E-05-2.86982E-05-2.86714E-05-3.70449E-07 6.60498E-20-1.91028E-19
 -1      2397 9.55235E-05-2.86673E-05-2.86529E-05-3.81493E-07 2.74645E-19-1.46801E-19
 -1      2398 9.54657E-05-2.86529E-05-2.86343E-05-4.57930E-07-9.88436E-20 1.11383E-18
 -1      2399 9.57265E-05-2.87700E-05-2.86981E-05-3.20657E-07 8.35801E-19-6.51287E-19
 -1      2400 9.56609E-05-2.87315E-05-2.86840E-05-3.50169E-07 3.49888E-19-6.27564E-19
 -1      2401 9.55936E-05-2.87183E-05-2.86611E-05-4.30824E-07 4.82624E-19 5.30881E-19
 -1      2402 9.58472E-05-2.88630E-05-2.87121E-05-2.09600E-07 1.72823E-19 2.09751E-19
 -1      2403 9.57965E-05-2.88165E-05-2.87056E-05-2.72160E-07 7.42047E-19-1.12622E-19
 -1      2404 9.57335E-05-2.88152E-05-2.86794E-05-3.59455E-07 3.27074E-19 3.94355E-19
 -1      2405 9.59406E-05-2.89773E-05-2.87060E-05-3.18936E-10-1.73380E-18 7.58373E-19
 -1      2406 9.59190E-05-2.89249E-05-2.87117E-05-1.13949E-07-7.34220E-19 4.80757E-19
 -1      2407 9.58832E-05-2.89510E-05-2.86850E-05-2.08369E-07-4.73972E-19 1.57098E-18
 -1      2408 9.59785E-05-2.91066E-05-2.86703E-05 3.49466E-07-1.28377E-18 5.78167E-19
 -1      2409 9.60075E-05-2.90544E-05-2.86942E-05 1.65018E-07-1.55159E-18 7.34613E-19
 -1      2410 9.60340E-05-2.91294E-05-2.86726E-05 6.65419E-08-1.43023E-18 6.58332E-19
 -1      2411 9.59193E-05-2.92330E-05-2.85945E-05 8.80483E-07-1.40486E-18 7.34308E-19
 -1      2412 9.60278E-05-2.91938E-05-2.86436E-05 6.07758E-07-1.43267E-18 5.48992E-19
 -1      2413 9.61668E-05-2.93449E-05-2.86362E-05 5.14305E-07-1.30626E-18 3.85291E-19
 -1      2414 9.57066E-05-2.93219E-05-2.84685E-05 1.61889E-06-5.13354E-19 7.88786E-19
 -1      2415 9.59298E-05-2.93171E-05-2.85496E-05 1.24975E-06-1.07090E-18 9.22815E-19
 -1      2416 9.62470E-05-2.95751E-05-2.85703E-05 1.17976E-06-1.47123E-18 2.63804E-20
 -1      2417 9.52710E-05-2.93177E-05-2.82853E-05 2.55635E-06-3.86587E-19 7.79488E-19
 -1      2418 9.56466E-05-2.93781E-05-2.84035E-05 2.10199E-06-2.77193E-19 6.58653E-19
 -1      2419 9.62201E-05-2.97726E-05-2.84720E-05 2.08695E-06-4.02393E-19-2.04610E-19
 -1      2420 9.45400E-05-2.91456E-05-2.80443E-05 3.62528E-06 1.26393E-19 1.31797E-18
 -1      2421 9.50994E-05-2.93086E-05-2.82007E-05 3.12751E-06 5.43309E-20 1.10329E-18
 -1      2422 9.60094E-05-2.98585E-05-2.83422E-05 3.21449E-06-3.69830E-19 5.59646E-20
 -1      2423 9.34574E-05-2.87259E-05-2.77545E-05 4.67706E-06-3.09311E-19 2.66591E-18
 -1      2424 9.42125E-05-2.90256E-05-2.79442E-05 4.21613E-06-7.30500E-20 2.16309E-18
 -1      2425 9.55229E-05-2.97268E-05-2.81874E-05 4.46588E-06-5.74995E-19 1.37774E-18
 -1      2426 9.20177E-05-2.80056E-05-2.74359E-05 5.47877E-06-5.55289E-19 2.39819E-18
 -1      2427 9.29429E-05-2.84551E-05-2.76464E-05 5.16980E-06-3.51265E-19 2.77343E-18
 -1      2428 9.46775E-05-2.92678E-05-2.80204E-05 5.64555E-06-4.75748E-19 1.67592E-18
 -1      2429 9.03057E-05-2.70037E-05-2.71185E-05 5.74769E-06 9.04485E-19 1.36510E-18
 -1      2430 9.13236E-05-2.75739E-05-2.73300E-05 5.71808E-06-5.18479E-20 1.86129E-18
 -1      2431 9.34421E-05-2.84163E-05-2.78577E-05 6.46140E-06 8.48305E-20 1.50850E-18
 -1      2432 8.85252E-05-2.58508E-05-2.68372E-05 5.23410E-06-2.23044E-19 2.51203E-18
 -1      2433 8.95036E-05-2.64564E-05-2.70254E-05 5.58033E-06 8.07208E-19 1.95067E-18
 -1      2434 9.18937E-05-2.72144E-05-2.77156E-05 6.57732E-06 2.63976E-19 5.55531E-19
 -1      2435 8.69862E-05-2.47898E-05-2.66252E-05 3.83818E-06 2.77372E-19 2.56477E-18
 -1      2436 8.77590E-05-2.52993E-05-2.67655E-05 4.57390E-06-3.19846E-19 2.51108E-18
 -1      2437 9.02562E-05-2.58577E-05-2.76059E-05 5.72490E-06 8.56132E-22 2.52017E-18
 -1      2438 8.60278E-05-2.41078E-05-2.65075E-05 1.70647E-06 1.07637E-18 2.96513E-18
 -1      2439 8.64407E-05-2.43862E-05-2.65805E-05 2.73053E-06 6.84829E-19 2.89971E-18
 -1      2440 8.88773E-05-2.46762E-05-2.75330E-05 3.84891E-06 6.70690E-19 3.03992E-18
 -1      2441 8.58922E-05-2.40154E-05-2.64968E-05-7.66330E-07 9.36362E-19 3.67388E-18
 -1      2442 8.58568E-05-2.39819E-05-2.64922E-05 3.46684E-07 9.41778E-19 3.44932E-18
 -1      2443 8.81190E-05-2.40211E-05-2.74959E-05 1.20540E-06 7.54175E-19 3.17858E-18
 -1      2444 8.66164E-05-2.45436E-05-2.65922E-05-3.05990E-06 4.84974E-19 3.17415E-18
 -1      2445 8.61447E-05-2.42100E-05-2.65116E-05-2.08896E-06 9.36316E-19 3.44141E-18
 -1      2446 8.82000E-05-2.41077E-05-2.74927E-05-1.67524E-06 1.07984E-18 4.00138E-18
 -1      2447 8.80135E-05-2.55273E-05-2.67795E-05-4.71746E-06 2.31470E-19 1.94501E-18
 -1      2448 8.72132E-05-2.49922E-05-2.66357E-05-4.06868E-06 4.48545E-19 3.06985E-18
 -1      2449 8.90889E-05-2.49053E-05-2.75232E-05-4.17320E-06 1.46916E-18 3.62193E-18
 -1      2450 8.97513E-05-2.66844E-05-2.70345E-05-5.50236E-06-1.01535E-18 2.26127E-18
 -1      2451 8.87849E-05-2.60879E-05-2.68487E-05-5.24820E-06-8.50939E-19 2.00740E-18
 -1      2452 9.05205E-05-2.61541E-05-2.75896E-05-5.80940E-06-1.36640E-19 3.20167E-18
 -1      2453 9.14855E-05-2.77430E-05-2.73261E-05-5.44226E-06-2.81513E-19 2.41975E-18
 -1      2454 9.05155E-05-2.72084E-05-2.71234E-05-5.54444E-06-1.03211E-18 2.10837E-18
 -1      2455 9.21206E-05-2.74920E-05-2.76924E-05-6.40313E-06-1.25083E-18 3.27837E-18
 -1      2456 9.29664E-05-2.85324E-05-2.76215E-05-4.75674E-06 6.52126E-19 3.06852E-18
 -1      2457 9.21139E-05-2.81320E-05-2.74253E-05-5.10605E-06 6.62537E-19 2.64983E-18
 -1      2458 9.35612E-05-2.86104E-05-2.78256E-05-6.07430E-06 3.36949E-19 3.05564E-18
 -1      2459 9.40742E-05-2.90026E-05-2.78925E-05-3.73814E-06 4.20919E-20 3.21772E-18
 -1      2460 9.34040E-05-2.87544E-05-2.77207E-05-4.20552E-06 5.93899E-19 3.09915E-18
 -1      2461 9.46522E-05-2.93481E-05-2.79763E-05-5.12441E-06 7.72207E-19 3.43420E-18
 -1      2462 9.47999E-05-2.91918E-05-2.81200E-05-2.65255E-06 9.71857E-19 2.97930E-18
 -1      2463 9.43259E-05-2.90760E-05-2.79824E-05-3.12738E-06 5.06048E-19 2.76001E-18
 -1      2464 9.53450E-05-2.96902E-05-2.81285E-05-3.89514E-06 9.66068E-19 2.25163E-18
 -1      2465 9.52028E-05-2.91806E-05-2.82954E-05-1.68714E-06 4.03264E-19 3.43010E-18
 -1      2466 9.49038E-05-2.91603E-05-2.81945E-05-2.09547E-06 7.75991E-19 3.76060E-18
 -1      2467 9.56890E-05-2.97171E-05-2.82672E-05-2.66915E-06 6.41960E-19 3.03602E-18
 -1      2468 9.53686E-05-2.90536E-05-2.84196E-05-9.41908E-07-3.42990E-19 3.78334E-18
 -1      2469 9.52058E-05-2.90902E-05-2.83519E-05-1.24711E-06-4.03267E-19 3.84970E-18
 -1      2470 9.57763E-05-2.95420E-05-2.83822E-05-1.62802E-06-2.14076E-19 3.84077E-18
 -1      2471 9.53863E-05-2.88821E-05-2.84993E-05-4.42549E-07 6.61840E-19 3.91368E-18
 -1      2472 9.53158E-05-2.89438E-05-2.84584E-05-6.40054E-07-3.24888E-20 3.90699E-18
 -1      2473 9.57045E-05-2.92722E-05-2.84687E-05-8.60258E-07-1.00869E-19 3.52763E-18
 -1      2474 9.53286E-05-2.87251E-05-2.85433E-05-1.74025E-07-3.92900E-19 4.14632E-18
 -1      2475 9.53077E-05-2.87770E-05-2.85222E-05-2.75650E-07 3.33307E-19 4.46473E-18
 -1      2476 9.55540E-05-2.89831E-05-2.85260E-05-3.73021E-07-1.85363E-19 5.17815E-18
 -1      2477 9.52659E-05-2.86503E-05-2.85524E-05-1.03215E-07-3.19797E-19 2.88783E-18
 -1      2478 9.58752E-05-2.86452E-05-2.88055E-05 1.61873E-06 2.16900E-18 1.71185E-18
 -1      2479 9.59369E-05-2.88448E-05-2.87492E-05 1.29521E-06 1.39190E-18-1.32413E-18
 -1      2480 9.55769E-05-2.81054E-05-2.89154E-05 2.29210E-06 2.07959E-18 3.94696E-18
 -1      2481 9.57669E-05-2.84305E-05-2.88498E-05 2.01450E-06 1.85792E-18 3.04953E-18
 -1      2482 9.61369E-05-2.89594E-05-2.88010E-05 2.07210E-06 2.60574E-18 2.00001E-18
 -1      2483 9.57704E-05-2.89383E-05-2.86309E-05 3.36074E-07 3.20453E-19 2.20231E-19
 -1      2484 9.56683E-05-2.89401E-05-2.86008E-05 1.29865E-07 8.00591E-19 1.66444E-18
 -1      2485 9.59162E-05-2.89053E-05-2.87083E-05 9.10764E-07 6.79297E-20-2.30362E-18
 -1      2486 9.58748E-05-2.89868E-05-2.86655E-05 6.26931E-07-1.66266E-19-5.58318E-19
 -1      2487 9.60472E-05-2.92233E-05-2.86474E-05 5.01335E-07 1.26224E-19-1.32113E-20
 -1      2488 9.62275E-05-2.92306E-05-2.87220E-05 1.22872E-06 9.84179E-19-6.97368E-19
 -1      2489 9.50018E-05-2.72907E-05-2.90270E-05 2.71622E-06 8.05553E-19 1.86096E-18
 -1      2490 9.53167E-05-2.77181E-05-2.89587E-05 2.58406E-06 1.43564E-18 1.52180E-18
 -1      2491 9.57032E-05-2.83491E-05-2.88775E-05 2.82426E-06 1.64705E-19 2.49771E-18
 -1      2492 9.42096E-05-2.62837E-05-2.91284E-05 2.67909E-06 2.23467E-19 4.80214E-19
 -1      2493 9.46062E-05-2.67543E-05-2.90659E-05 2.78249E-06-4.05699E-20 1.90764E-18
 -1      2494 9.49225E-05-2.74040E-05-2.89449E-05 3.23304E-06-1.18214E-20 1.49801E-18
 -1      2495 9.33581E-05-2.52580E-05-2.92095E-05 2.03638E-06-8.90485E-20-1.74314E-18
 -1      2496 9.37468E-05-2.56782E-05-2.91613E-05 2.42176E-06 1.60607E-19-4.50206E-19
 -1      2497 9.38942E-05-2.62289E-05-2.90010E-05 3.05772E-06-4.67197E-19-1.58157E-19
 -1      2498 9.26958E-05-2.44682E-05-2.92649E-05 8.22252E-07 8.98189E-19-3.38563E-18
 -1      2499 9.29542E-05-2.47255E-05-2.92371E-05 1.44180E-06 8.26060E-19-3.61969E-18
 -1      2500 9.28528E-05-2.50530E-05-2.90494E-05 2.16870E-06-1.51621E-19-2.66090E-18
 -1      2501 9.24582E-05-2.41366E-05-2.92989E-05-7.95887E-07 2.40641E-18-9.45393E-20
 -1      2502 9.24785E-05-2.41463E-05-2.92918E-05-4.48574E-08 1.78846E-18-1.73418E-18
 -1      2503 9.21091E-05-2.41645E-05-2.91009E-05 6.15572E-07 1.02188E-18-1.63636E-18
 -1      2504 9.28675E-05-2.44738E-05-2.93197E-05-2.38738E-06 2.37823E-19-4.58632E-18
 -1      2505 9.25721E-05-2.41771E-05-2.93298E-05-1.73294E-06 1.75982E-18-1.55566E-18
 -1      2506 9.19801E-05-2.38626E-05-2.91683E-05-1.33477E-06 1.05170E-18-1.61234E-18
 -1      2507 9.38505E-05-2.54115E-05-2.93273E-05-3.37432E-06-5.32364E-19-3.30487E-18
 -1      2508 9.32825E-05-2.48517E-05-2.93520E-05-3.04477E-06-1.20370E-19-4.94853E-18
 -1      2509 9.26178E-05-2.43049E-05-2.92550E-05-3.05580E-06-7.29147E-19-5.52813E-18
 -1      2510 9.39156E-05-2.53708E-05-2.93452E-05-4.07521E-06 1.12052E-19-3.50839E-18
 -1      2511 9.87040E-05-5.12703E-05-2.02840E-05 4.87988E-05-6.18758E-19-9.54858E-19
 -1      2512 8.04351E-05-4.53492E-05-1.47864E-05 5.00934E-05-1.35758E-18 1.24937E-20
 -1      2513 1.52204E-04-8.21261E-06-6.22161E-05 1.79885E-06 1.45944E-18-5.94299E-19
 -1      2514 1.53892E-04-8.10373E-06-6.29296E-05-5.75207E-07 7.17860E-19-1.33577E-18
 -1      2515 6.49009E-05-3.79811E-05-1.12264E-05 5.14730E-05-1.24704E-18 8.97961E-19
 -1      2516 4.90564E-05-3.12528E-05-7.13630E-06 4.56701E-05-1.42534E-18-3.77777E-19
 -1      2517 8.06121E-05-4.20426E-05-1.60702E-05 4.91299E-05-2.75074E-19-3.13932E-20
 -1      2518 9.33463E-05-2.76917E-05-2.81306E-05-4.15946E-07 7.23642E-20 5.01387E-19
 -1      2519 9.34230E-05-2.75868E-05-2.81918E-05-1.28249E-07 1.37704E-19 7.01884E-19
 -1      2520 9.42708E-05-2.74884E-05-2.86354E-05 3.95314E-07 2.78766E-19 4.71772E-19
 -1      2521 9.40162E-05-2.78073E-05-2.83867E-05-4.51211E-07 1.97031E-19 1.22256E-19
 -1      2522 1.21049E-04-5.58462E-05-2.75826E-05-2.89656E-05 3.71424E-19-3.23598E-18
 -1      2523 1.10344E-04-4.40964E-05-2.77393E-05-3.24382E-05 1.05932E-18-3.65548E-18
 -1      2524 9.50448E-05-1.99568E-05-3.22324E-05-1.18236E-05-8.61618E-19-1.30049E-18
 -1      2525 9.54776E-05-2.32361E-05-3.09818E-05-8.13508E-06-8.85738E-19-1.18824E-18
 -1      2526 9.50277E-05-2.24473E-05-3.10944E-05-7.75106E-06-8.07639E-19-1.28738E-18
 -1      2527 9.32161E-05-1.76400E-05-3.24164E-05-1.13602E-05-7.57056E-19-1.46535E-18
 -1      2528 6.16115E-05-3.97779E-05-9.35231E-06-3.53986E-05 1.08674E-18-2.53263E-18
 -1      2529 8.48734E-05-4.90568E-05-1.52654E-05-3.76448E-05-1.09267E-19-3.69073E-18
 -1      2530 8.78390E-05-1.07970E-05-3.30538E-05-1.51933E-06 5.20570E-19-1.21790E-18
 -1      2531 8.79448E-05-1.09193E-05-3.30451E-05-2.63759E-06 3.96014E-19-1.21504E-18
 -1      2532 8.93440E-05-1.30917E-05-3.26817E-05-2.92980E-06 3.40732E-19-1.08763E-18
 -1      2533 8.90945E-05-1.27562E-05-3.27197E-05-9.42223E-07 4.97006E-19-1.13759E-18
 -1      2534 1.55347E-04-4.46751E-05-4.76585E-05 1.19276E-05-9.02222E-19-1.26166E-18
 -1      2535 1.48331E-04-5.00534E-05-4.22816E-05 1.71861E-05-1.27267E-18-1.06303E-18
 -1      2536 1.60686E-04-2.65311E-05-5.78673E-05 2.72617E-07-6.84614E-19-1.58925E-18
 -1      2537 1.57190E-04-3.48258E-05-5.26908E-05 4.50680E-06-7.19554E-19-1.29384E-18
 -1      2538 1.57082E-04-2.32816E-05-5.76423E-05 2.01547E-06 2.16438E-18-4.35798E-19
 -1      2539 1.54255E-04-1.54308E-05-6.02089E-05 4.26704E-06 2.08455E-18-6.53168E-19
 -1      2540 1.53646E-04-4.15053E-05-4.83561E-05-8.47384E-06 2.22198E-18-1.85161E-18
 -1      2541 1.58820E-04-3.34164E-05-5.42133E-05-2.96801E-06 2.64645E-18-6.93720E-19
 -1      2542 1.39010E-04-5.52586E-05-3.58838E-05-2.56986E-05 8.98914E-19-1.61699E-18
 -1      2543 1.49680E-04-5.09988E-05-4.26303E-05-1.86904E-05 1.34223E-18-2.03711E-18
 -1      2544 1.05067E-04-5.35021E-05-2.20227E-05-4.58710E-05 3.93023E-19-2.59097E-18
 -1      2545 1.23606E-04-5.63407E-05-2.91314E-05-4.03948E-05 6.47345E-19-1.98079E-18
 -1      2546 6.82297E-05-4.17577E-05-1.11642E-05-5.02948E-05 4.55915E-19-1.88814E-18
 -1      2547 8.74388E-05-4.75843E-05-1.70338E-05-5.21661E-05 3.72271E-19-3.29444E-18
 -1      2548 1.03181E-04-5.28324E-05-2.12240E-05-4.68252E-05 1.57760E-19-2.81253E-18
 -1      2549 3.23265E-05-2.43174E-05-3.06790E-06-3.82650E-05-8.34539E-19-1.69258E-18
 -1      2550 4.75506E-05-3.21824E-05-6.44430E-06-4.79189E-05 4.70527E-19-3.93023E-19
 -1      2551 1.69293E-05-1.34036E-05-9.12925E-07-9.23305E-06-2.07106E-18-2.90448E-18
 -1      2552 2.09259E-05-1.57191E-05-1.78953E-06-2.51565E-05-1.07721E-18-2.94090E-18
 -1      2553 2.63079E-05-2.23377E-05-1.45771E-06 1.94736E-05-2.13516E-18-3.81504E-18
 -1      2554 1.81280E-05-1.58969E-05-6.39721E-07 7.00294E-06-1.61990E-18-3.75913E-18
 -1      2555 1.12585E-04-5.95506E-05-2.27834E-05 3.24612E-05-6.88638E-19-3.82036E-18
 -1      2556 8.90954E-05-4.91656E-05-1.69059E-05 3.59708E-05-1.04058E-18-3.27696E-18
 -1      2557 1.56419E-04-1.19524E-05-6.24966E-05-2.82838E-06-6.56451E-20-1.57178E-18
 -1      2558 1.58076E-04-1.73315E-05-6.06169E-05-2.68974E-06-1.05371E-18-1.36309E-18
 -1      2559 2.83399E-05-2.03912E-05-3.18340E-06 3.50559E-05-2.63215E-19-1.39760E-20
 -1      2560 1.84500E-05-1.67445E-05-2.81121E-07 1.92546E-05 5.88159E-19 8.63974E-19
 -1      2561 1.52622E-04-4.03787E-05-4.82586E-05 7.89730E-07-5.78735E-19-4.78785E-19
 -1      2562 9.07976E-05-1.50485E-05-3.24588E-05-6.80564E-06-2.15993E-19-1.39294E-18
 -1      2563 8.97040E-05-1.31834E-05-3.28464E-05-7.96299E-06-2.30544E-19-1.51577E-18
 -1      2564 9.03632E-05-1.39683E-05-3.28015E-05-9.13415E-06-4.46880E-19-1.51639E-18
 -1      2565 8.50138E-05-2.24050E-05-2.66965E-05-3.01081E-05 1.97491E-18-2.13635E-18
 -1      2566 5.96937E-05-3.12409E-05-1.16921E-05-3.41519E-05 1.35822E-18-2.40790E-18
 -1      2567 1.11337E-04-5.73561E-05-2.33271E-05-3.30286E-05-4.02341E-20-3.60937E-18
 -1      2568 1.43605E-04-7.47040E-06-5.86434E-05-3.21109E-06 2.62580E-19-3.52895E-19
 -1      2569 1.45516E-04-5.45473E-05-3.92592E-05 1.13965E-05-9.40832E-19-6.25428E-19
 -1      2570 1.44047E-04-5.61733E-05-3.78301E-05 2.17346E-05-8.45868E-19-1.34890E-18
 -1      2571 1.36793E-04-5.87526E-05-3.31524E-05 2.51053E-05-1.28114E-19-1.76500E-18
 -1      2572 2.35682E-05-1.10982E-05-4.69919E-06 1.05167E-05 1.24651E-18-6.54121E-19
 -1      2573 9.17016E-05-3.54615E-05-2.38716E-05-3.52968E-05 1.23963E-18-3.44308E-18
 -1      2574 9.53929E-05-2.87631E-05-2.85569E-05-1.25028E-07 3.02461E-19 3.37592E-18
 -1      2575 9.54796E-05-2.88056E-05-2.85697E-05-5.58222E-08 8.86503E-19 3.49163E-18
 -1      2576 1.12163E-04-5.58328E-05-2.38904E-05 4.30278E-05-5.67936E-19-2.29001E-18
 -1      2577 1.06783E-04-5.29729E-05-2.26378E-05 4.35475E-05-4.64280E-19-2.28291E-18
 -1      2578 1.23324E-04-5.88060E-05-2.80858E-05 3.55510E-05-6.69685E-19-2.77620E-18
 -1      2579 1.43337E-04-1.03887E-05-5.73084E-05 5.51894E-06 1.80905E-18-8.26281E-19
 -1      2580 4.52719E-05-2.34211E-05-8.75193E-06 3.97867E-05 6.60686E-19-2.06676E-19
 -1      2581 2.38085E-05-1.07906E-05-5.01254E-06-4.84400E-07-1.74546E-18-3.30131E-18
 -1      2582 6.59670E-05-3.66770E-05-1.21224E-05-4.94009E-05-1.71312E-19-1.63615E-18
 -1      2583 1.34014E-04-5.87518E-05-3.21261E-05-2.86259E-05 1.30231E-19-1.42164E-18
 -1      2584 1.49565E-04-4.80454E-05-4.34938E-05-5.16291E-06 1.30597E-18-9.62865E-19
 -1      2585 1.49343E-04-2.83169E-05-5.19645E-05 6.22041E-06 2.64994E-18-1.02195E-18
 -1      2586 9.11239E-05-1.49784E-05-3.26872E-05-9.83649E-06-5.58709E-19-1.50438E-18
 -1      2587 9.21548E-05-1.62581E-05-3.26063E-05-1.08657E-05-6.73710E-19-1.57810E-18
 -1      2588 9.36236E-05-1.91211E-05-3.19160E-05-9.26889E-06-7.25166E-19-1.44909E-18
 -1      2589 9.20621E-05-1.67931E-05-3.22444E-05-8.32800E-06-4.27254E-19-1.42627E-18
 -1      2590 1.50320E-04-2.09226E-05-5.56214E-05-6.20317E-06-5.60312E-19-7.89011E-19
 -1      2591 1.21803E-04-5.98058E-05-2.64816E-05 2.89922E-05-4.95938E-19-3.37577E-18
 -1      2592 3.33440E-05-1.72457E-05-6.34101E-06-3.16551E-05-1.71132E-18-2.35475E-18
 -1      2593 6.00722E-05-3.49355E-05-1.07128E-05 3.67056E-05-1.99879E-18-3.35594E-18
 -1      2594 3.93729E-05-2.70372E-05-4.97505E-06 2.68701E-05-2.28275E-18-3.13635E-18
 -1      2595 9.56828E-05-2.90183E-05-2.85776E-05-2.96762E-08 2.59235E-19 3.18696E-18
 -1      2596 8.05696E-05-3.95989E-05-1.71709E-05 3.59158E-05-1.74616E-18-3.00157E-18
 -1      2597 4.06707E-05-1.93576E-05-8.65421E-06 2.56325E-05-2.41066E-18-3.38284E-18
 -1      2598 9.05568E-05-1.51714E-05-3.23303E-05 3.19284E-06 8.61366E-19-9.66827E-19
 -1      2599 9.03663E-05-1.48996E-05-3.23630E-05 2.25928E-06 7.86570E-19-1.04464E-18
 -1      2600 9.02319E-05-1.46968E-05-3.23920E-05 1.42104E-06 6.77622E-19-1.09915E-18
 -1      2601 9.01669E-05-1.46045E-05-3.24031E-05 4.64283E-07 6.23911E-19-1.08474E-18
 -1      2602 9.14174E-05-1.65913E-05-3.20554E-05 1.63958E-06 7.30860E-19-1.03638E-18
 -1      2603 9.21412E-05-1.75518E-05-3.20056E-05 6.46867E-06 1.10683E-18-5.03012E-19
 -1      2604 9.16138E-05-1.67539E-05-3.21055E-05 5.63101E-06 1.09271E-18-6.34335E-19
 -1      2605 9.35040E-05-1.97255E-05-3.16729E-05 7.61241E-06 1.11777E-18-5.62020E-20
 -1      2606 9.27658E-05-1.85160E-05-3.18396E-05 7.00950E-06 1.05303E-18-2.46473E-19
 -1      2607 9.34313E-05-1.98516E-05-3.15079E-05 5.73874E-06 1.08635E-18-3.41255E-19
 -1      2608 9.51696E-05-2.26888E-05-3.10966E-05 7.76850E-06 1.04466E-18 3.20325E-19
 -1      2609 9.42541E-05-2.09727E-05-3.14040E-05 7.79682E-06 1.06474E-18 1.48529E-19
 -1      2610 9.45797E-05-2.20382E-05-3.10569E-05 6.27095E-06 1.00538E-18 1.59274E-21
 -1      2611 9.59167E-05-2.48739E-05-3.04491E-05 6.61091E-06 9.87184E-19 7.76534E-19
 -1      2612 9.54681E-05-2.35462E-05-3.08020E-05 7.34928E-06 9.92352E-19 5.65239E-19
 -1      2613 9.53130E-05-2.41784E-05-3.04745E-05 5.78162E-06 9.85731E-19 3.81689E-19
 -1      2614 9.54164E-05-2.57217E-05-2.98477E-05 4.65532E-06 9.12599E-19 7.43384E-19
 -1      2615 9.07981E-05-1.55412E-05-3.22746E-05-3.93227E-06 1.81948E-19-1.10237E-18
 -1      2616 9.11340E-05-1.60292E-05-3.22157E-05-4.85707E-06-2.25262E-21-1.17512E-18
 -1      2617 9.53524E-05-2.58255E-05-2.97723E-05-2.80806E-06-4.96355E-19-1.08599E-18
 -1      2618 9.51984E-05-2.64293E-05-2.94832E-05-1.79914E-06-4.62265E-19-1.07377E-18
 -1      2619 9.52277E-05-2.69638E-05-2.92327E-05-1.04386E-06-4.85120E-19-9.94798E-19
 -1      2620 9.50912E-05-2.73260E-05-2.90487E-05-4.22566E-07-4.29697E-19-1.06728E-18
 -1      2621 9.54152E-05-2.62695E-05-2.96405E-05-1.69149E-06-4.36348E-19-9.76185E-19
 -1      2622 9.50595E-05-2.76396E-05-2.88779E-05 5.64817E-08-3.60712E-19-9.55452E-19
 -1      2623 9.49793E-05-2.78689E-05-2.87647E-05 4.18130E-07-3.05396E-19-1.04049E-18
 -1      2624 9.54197E-05-2.72853E-05-2.92079E-05-3.85628E-07-3.26854E-19-7.91548E-19
 -1      2625 9.49373E-05-2.80586E-05-2.86518E-05 6.96284E-07-2.26696E-19-8.50131E-19
 -1      2626 9.49076E-05-2.82083E-05-2.85865E-05 8.86849E-07-1.97825E-19-6.09699E-19
 -1      2627 9.53606E-05-2.79144E-05-2.89123E-05 4.25769E-07-2.00572E-19-5.94623E-19
 -1      2628 9.48723E-05-2.83228E-05-2.85150E-05 1.02731E-06-2.51728E-19-5.22512E-19
 -1      2629 9.48787E-05-2.84216E-05-2.84816E-05 1.10746E-06-2.55916E-19-4.07826E-19
 -1      2630 9.52963E-05-2.83037E-05-2.87166E-05 8.83342E-07-1.30703E-19-2.78191E-19
 -1      2631 9.48542E-05-2.84883E-05-2.84391E-05 1.15761E-06-3.03550E-19-1.75667E-19
 -1      2632 9.48834E-05-2.85529E-05-2.84267E-05 1.16904E-06-2.66427E-19-1.85466E-19
 -1      2633 9.52467E-05-2.85405E-05-2.85925E-05 1.10069E-06-1.74410E-19-1.75870E-19
 -1      2634 9.48687E-05-2.85884E-05-2.84044E-05 1.16317E-06-5.64371E-19-1.78990E-19
 -1      2635 9.49106E-05-2.86291E-05-2.84054E-05 1.13457E-06-6.57582E-19-4.00545E-19
 -1      2636 9.52148E-05-2.86773E-05-2.85191E-05 1.16259E-06-5.03135E-19-2.07571E-19
 -1      2637 9.49035E-05-2.86439E-05-2.83968E-05 1.09706E-06-6.88794E-19-3.74436E-19
 -1      2638 9.49509E-05-2.86675E-05-2.84061E-05 1.04821E-06-5.28823E-19-4.22903E-19
 -1      2639 9.51982E-05-2.87476E-05-2.84810E-05 1.13033E-06-5.91414E-19 1.52489E-19
 -1      2640 9.49493E-05-2.86685E-05-2.84067E-05 9.96215E-07-3.78432E-19-6.46729E-19
 -1      2641 9.49977E-05-2.86795E-05-2.84209E-05 9.40684E-07-3.41885E-19-6.03023E-19
 -1      2642 9.51929E-05-2.87728E-05-2.84672E-05 1.04749E-06-6.03107E-19-1.57595E-19
 -1      2643 9.49991E-05-2.86716E-05-2.84272E-05 8.89007E-07-2.84623E-19-5.98686E-19
 -1      2644 9.50446E-05-2.86737E-05-2.84434E-05 8.38614E-07-1.20718E-19-9.22579E-19
 -1      2645 9.51952E-05-2.87681E-05-2.84697E-05 9.47397E-07-3.80402E-19-1.53335E-19
 -1      2646 9.50489E-05-2.86588E-05-2.84543E-05 7.89534E-07 3.61967E-19-9.36943E-19
 -1      2647 9.50945E-05-2.86539E-05-2.84731E-05 7.45970E-07 3.25374E-19-7.22705E-19
 -1      2648 9.52020E-05-2.87425E-05-2.84833E-05 8.48450E-07 3.93432E-20-3.02267E-19
 -1      2649 9.50995E-05-2.86331E-05-2.84871E-05 7.08646E-07 8.62831E-20-4.69945E-19
 -1      2650 9.51431E-05-2.86219E-05-2.85075E-05 6.79840E-07 2.13556E-19-6.48088E-19
 -1      2651 9.52114E-05-2.87001E-05-2.85053E-05 7.63352E-07 3.47455E-19-6.40369E-19
 -1      2652 9.51476E-05-2.85951E-05-2.85241E-05 6.59348E-07 5.62712E-20-4.02919E-19
 -1      2653 9.51899E-05-2.85774E-05-2.85463E-05 6.50176E-07-1.27243E-19-5.58981E-19
 -1      2654 9.52209E-05-2.86428E-05-2.85337E-05 7.06646E-07 3.94978E-19-5.61690E-19
 -1      2655 9.51919E-05-2.85430E-05-2.85657E-05 6.51251E-07-2.45725E-19-5.89606E-19
 -1      2656 9.52336E-05-2.85171E-05-2.85905E-05 6.67068E-07 1.32543E-19-7.59307E-19
 -1      2657 9.52270E-05-2.85690E-05-2.85679E-05 6.88488E-07-2.84634E-19-4.77765E-19
 -1      2658 9.52299E-05-2.84713E-05-2.86130E-05 6.94991E-07 3.71380E-19-9.22175E-19
 -1      2659 9.52714E-05-2.84337E-05-2.86418E-05 7.42646E-07 1.36521E-19-1.13061E-18
 -1      2660 9.52249E-05-2.84726E-05-2.86080E-05 7.19060E-07-2.13379E-19-7.36359E-19
 -1      2661 9.52563E-05-2.83701E-05-2.86683E-05 8.04098E-07-2.21380E-19-1.12171E-18
 -1      2662 9.52970E-05-2.83148E-05-2.87029E-05 8.93099E-07-5.00517E-19-1.43362E-18
 -1      2663 9.52058E-05-2.83426E-05-2.86552E-05 8.10204E-07-1.94499E-19-1.69226E-18
 -1      2664 9.52607E-05-2.82229E-05-2.87343E-05 9.97029E-07-3.83145E-19-1.21320E-18
 -1      2665 9.52973E-05-2.81399E-05-2.87769E-05 1.14095E-06-2.77544E-20-1.26824E-18
 -1      2666 9.51549E-05-2.81603E-05-2.87107E-05 9.76965E-07-3.56623E-19-2.02890E-18
 -1      2667 9.52231E-05-2.80033E-05-2.88141E-05 1.29946E-06 3.71826E-20-7.51035E-19
 -1      2668 9.52478E-05-2.78765E-05-2.88673E-05 1.51761E-06-1.77697E-19-1.28951E-18
 -1      2669 9.50466E-05-2.78967E-05-2.87758E-05 1.23903E-06 5.19736E-20-1.68411E-18
 -1      2670 9.51079E-05-2.76701E-05-2.89103E-05 1.74670E-06 5.07372E-21-1.25423E-18
 -1      2671 9.51043E-05-2.74752E-05-2.89763E-05 2.06598E-06 1.97783E-19-1.20968E-18
 -1      2672 9.48380E-05-2.75074E-05-2.88507E-05 1.62176E-06-1.16310E-19-1.15010E-18
 -1      2673 9.48529E-05-2.71617E-05-2.90232E-05 2.38592E-06-3.87550E-19-1.53511E-18
 -1      2674 9.47904E-05-2.68622E-05-2.91030E-05 2.84238E-06-5.75792E-19-1.44754E-18
 -1      2675 9.44581E-05-2.69263E-05-2.89325E-05 2.15625E-06-2.65010E-19-1.76784E-18
 -1      2676 9.43539E-05-2.63877E-05-2.91477E-05 3.27701E-06-1.48881E-19-1.45361E-18
 -1      2677 9.41781E-05-2.59325E-05-2.92383E-05 3.91625E-06-2.03240E-19-6.90366E-19
 -1      2678 9.37925E-05-2.60591E-05-2.90114E-05 2.87722E-06-2.06976E-19-1.28455E-18
 -1      2679 9.34424E-05-2.52241E-05-2.92656E-05 4.49053E-06-7.53208E-19-3.40244E-19
 -1      2680 9.30623E-05-2.45471E-05-2.93548E-05 5.36504E-06-6.90056E-19-6.71502E-19
 -1      2681 9.26614E-05-2.47770E-05-2.90638E-05 3.81680E-06-2.36323E-19-7.48537E-19
 -1      2682 9.18565E-05-2.35165E-05-2.93321E-05 6.10062E-06-9.52867E-19-7.17474E-19
 -1      2683 9.11320E-05-2.25489E-05-2.93883E-05 7.26204E-06-1.12799E-18-1.05352E-18
 -1      2684 9.07917E-05-2.29202E-05-2.90388E-05 4.99292E-06-7.91442E-19-6.20710E-19
 -1      2685 8.92144E-05-2.11113E-05-2.92496E-05 8.17241E-06-9.39397E-19-2.74918E-19
 -1      2686 8.79452E-05-1.98206E-05-2.91989E-05 9.65879E-06-8.71279E-19-1.21699E-18
 -1      2687 8.77887E-05-2.03263E-05-2.88334E-05 6.39327E-06-6.54946E-19-4.18633E-19
 -1      2688 8.51629E-05-1.80758E-05-2.88422E-05 1.07046E-05-5.80778E-19-1.11384E-18
 -1      2689 8.33138E-05-1.66468E-05-2.85766E-05 1.24207E-05-3.26571E-20-1.35592E-18
 -1      2690 8.32641E-05-1.69899E-05-2.82728E-05 7.91812E-06-6.38726E-19-2.47711E-19
 -1      2691 7.90634E-05-1.45761E-05-2.77437E-05 1.37827E-05 2.66700E-19-1.66263E-18
 -1      2692 7.64073E-05-1.33700E-05-2.69682E-05 1.59513E-05 6.88075E-19-1.02328E-18
 -1      2693 7.64992E-05-1.30149E-05-2.70068E-05 9.60701E-06 1.62622E-19 1.34539E-19
 -1      2694 7.04500E-05-1.17317E-05-2.52229E-05 1.78542E-05 2.22002E-19-1.19458E-18
 -1      2695 6.75398E-05-1.21537E-05-2.34735E-05 2.05323E-05-7.29295E-19-1.47786E-18
 -1      2696 6.65445E-05-9.10036E-06-2.43134E-05 1.16135E-05 3.02020E-20-1.16924E-18
 -1      2697 9.44796E-05-2.83095E-05-2.83578E-05-1.11118E-06 2.73224E-19-4.16341E-19
 -1      2698 9.44481E-05-2.82202E-05-2.83771E-05-1.04034E-06 1.91609E-19-3.27033E-19
 -1      2699 8.30769E-05-1.64816E-05-2.85136E-05-1.62206E-05-7.83856E-19-2.49121E-18
 -1      2700 8.47663E-05-1.76584E-05-2.88462E-05-1.40288E-05-2.70601E-19-2.69514E-18
 -1      2701 8.79375E-05-1.94948E-05-2.93235E-05-1.25122E-05 6.34534E-19-3.51750E-18
 -1      2702 8.90629E-05-2.06984E-05-2.93658E-05-1.07078E-05 1.53459E-19-3.35995E-18
 -1      2703 8.21172E-05-1.61027E-05-2.81459E-05-1.10139E-05-6.23485E-19-2.49451E-18
 -1      2704 9.11521E-05-2.21842E-05-2.95469E-05-9.49332E-06 4.07436E-19-4.13104E-18
 -1      2705 9.17808E-05-2.31107E-05-2.94749E-05-8.06368E-06 3.98650E-19-3.05859E-18
 -1      2706 8.72352E-05-1.96098E-05-2.88937E-05-8.76065E-06 1.77227E-19-2.82264E-18
 -1      2707 9.30878E-05-2.41617E-05-2.95256E-05-7.08120E-06 3.43892E-19-3.07492E-18
 -1      2708 9.33667E-05-2.47455E-05-2.94301E-05-5.99644E-06 3.26212E-19-2.96204E-18
 -1      2709 9.05310E-05-2.22992E-05-2.91884E-05-6.84877E-06 4.23301E-19-4.19846E-18
 -1      2710 9.37627E-05-2.50594E-05-2.94170E-05-5.37872E-06-2.46012E-19-3.27717E-18
 -1      2711 9.36141E-05-2.51661E-05-2.93359E-05-4.55896E-06-3.10244E-19-3.46657E-18
 -1      2712 9.27902E-05-2.45190E-05-2.92834E-05-4.22652E-06-3.89190E-19-4.75033E-18
 -1      2713 9.20979E-05-2.37926E-05-2.92577E-05-5.33547E-06 3.11042E-19-4.09974E-18
 -1      2714 9.45262E-05-2.84299E-05-2.83260E-05-1.16413E-06 2.15229E-19-3.72561E-20
 -1      2715 9.44676E-05-2.83665E-05-2.83259E-05-1.15825E-06 2.57089E-19-3.02148E-19
 -1      2716 9.48994E-05-2.84416E-05-2.84864E-05-1.13050E-06 2.21031E-19-4.96970E-19
 -1      2717 9.44820E-05-2.81273E-05-2.84375E-05-9.03307E-07 1.82213E-19-2.56626E-19
 -1      2718 9.44975E-05-2.80000E-05-2.84878E-05-7.26518E-07 3.27458E-19-3.23828E-20
 -1      2719 9.49330E-05-2.82370E-05-2.85902E-05-9.18391E-07 3.45193E-19-5.29864E-19
 -1      2720 9.46012E-05-2.85081E-05-2.83246E-05-1.12438E-06 6.08889E-19-6.49812E-21
 -1      2721 9.45296E-05-2.84635E-05-2.83130E-05-1.15588E-06 3.84138E-19 6.98531E-20
 -1      2722 9.48996E-05-2.85658E-05-2.84318E-05-1.18627E-06 2.52719E-19-4.54426E-19
 -1      2723 9.46896E-05-2.85564E-05-2.83418E-05-1.03480E-06 8.44043E-19-1.77545E-19
 -1      2724 9.46143E-05-2.85258E-05-2.83239E-05-1.08504E-06 8.51786E-19 5.79516E-20
 -1      2725 9.49221E-05-2.86363E-05-2.84102E-05-1.14807E-06 8.49130E-19-1.88383E-19
 -1      2726 9.47817E-05-2.85835E-05-2.83696E-05-9.24622E-07 3.31291E-19 1.18851E-19
 -1      2727 9.47081E-05-2.85634E-05-2.83488E-05-9.81084E-07 4.93206E-19-2.74496E-20
 -1      2728 9.49575E-05-2.86703E-05-2.84100E-05-1.05949E-06 6.07008E-19 1.37242E-19
 -1      2729 9.48718E-05-2.85958E-05-2.84030E-05-8.13352E-07 3.42440E-19 3.13594E-19
 -1      2730 9.48028E-05-2.85834E-05-2.83811E-05-8.67816E-07 4.39740E-19 6.27979E-20
 -1      2731 9.49993E-05-2.86798E-05-2.84234E-05-9.50380E-07 3.76022E-19 1.90270E-19
 -1      2732 9.49574E-05-2.85983E-05-2.84387E-05-7.13576E-07 2.05061E-19 1.65997E-19
 -1      2733 9.48938E-05-2.85911E-05-2.84170E-05-7.60867E-07 2.93234E-19 2.87127E-19
 -1      2734 9.50435E-05-2.86731E-05-2.84449E-05-8.40794E-07 3.40406E-19 4.94185E-19
 -1      2735 9.50384E-05-2.85950E-05-2.84747E-05-6.32810E-07 3.36144E-19 6.04375E-19
 -1      2736 9.49797E-05-2.85911E-05-2.84538E-05-6.70005E-07 1.48208E-19 4.21201E-19
 -1      2737 9.50881E-05-2.86566E-05-2.84709E-05-7.43679E-07 2.00667E-19 2.67556E-19
 -1      2738 9.51163E-05-2.85902E-05-2.85102E-05-5.74636E-07 4.22597E-19 4.92027E-19
 -1      2739 9.50612E-05-2.85872E-05-2.84902E-05-6.00615E-07 5.47151E-19 7.22272E-19
 -1      2740 9.51330E-05-2.86356E-05-2.84990E-05-6.66735E-07 3.44829E-19 9.07886E-19
 -1      2741 9.51939E-05-2.85880E-05-2.85444E-05-5.39206E-07 1.68828E-19 8.91077E-19
 -1      2742 9.51405E-05-2.85838E-05-2.85255E-05-5.54501E-07 1.30994E-19 7.66352E-19
 -1      2743 9.51796E-05-2.86151E-05-2.85278E-05-6.13526E-07 2.23128E-19 1.03210E-18
 -1      2744 9.52751E-05-2.85940E-05-2.85769E-05-5.23150E-07-4.01413E-19 7.37055E-19
 -1      2745 9.52214E-05-2.85856E-05-2.85591E-05-5.30088E-07 1.59256E-19 7.91074E-19
 -1      2746 9.52308E-05-2.86007E-05-2.85560E-05-5.83955E-07 2.40647E-20 9.58987E-19
 -1      2747 9.53651E-05-2.86151E-05-2.86067E-05-5.18887E-07-2.82362E-19 4.58344E-19
 -1      2748 9.53088E-05-2.85990E-05-2.85904E-05-5.22015E-07-4.93028E-19 4.74385E-19
 -1      2749 9.52914E-05-2.85995E-05-2.85826E-05-5.74084E-07-2.44778E-19 6.53828E-19
 -1      2750 9.54696E-05-2.86604E-05-2.86327E-05-5.13402E-07-1.74500E-19 5.39481E-19
 -1      2751 9.54087E-05-2.86320E-05-2.86186E-05-5.20150E-07-1.48906E-19 5.69411E-19
 -1      2752 9.53683E-05-2.86212E-05-2.86065E-05-5.75340E-07-2.51843E-19 1.44835E-19
 -1      2753 9.55953E-05-2.87413E-05-2.86528E-05-4.86603E-07 5.31616E-19 5.31322E-19
 -1      2754 9.55285E-05-2.86953E-05-2.86421E-05-5.08099E-07 2.40490E-19 3.46635E-19
 -1      2755 9.54707E-05-2.86783E-05-2.86262E-05-5.73133E-07 4.47605E-20-2.77139E-19
 -1      2756 9.57487E-05-2.88711E-05-2.86644E-05-4.09568E-07-1.12230E-19 1.13030E-18
 -1      2757 9.56759E-05-2.88018E-05-2.86587E-05-4.61393E-07 2.21006E-19 5.59025E-19
 -1      2758 9.56105E-05-2.87871E-05-2.86399E-05-5.45022E-07 7.89440E-20 1.04526E-19
 -1      2759 9.59346E-05-2.90626E-05-2.86641E-05-2.43315E-07-6.62400E-19 1.44507E-18
 -1      2760 9.58582E-05-2.89653E-05-2.86656E-05-3.45807E-07 4.86599E-21 1.46589E-18
 -1      2761 9.58018E-05-2.89660E-05-2.86457E-05-4.58729E-07-3.04300E-19 8.76381E-19
 -1      2762 9.61532E-05-2.93243E-05-2.86484E-05 6.07670E-08-1.27481E-18 8.20040E-19
 -1      2763 9.60798E-05-2.91976E-05-2.86596E-05-1.16676E-07-9.19396E-19 1.45892E-18
 -1      2764 9.60588E-05-2.92332E-05-2.86418E-05-2.70702E-07-4.97760E-19 1.02311E-18
 -1      2765 9.63946E-05-2.96523E-05-2.86145E-05 5.57023E-07-1.24346E-18 5.11403E-19
 -1      2766 9.63371E-05-2.95024E-05-2.86379E-05 2.79287E-07-1.42854E-18 7.10216E-19
 -1      2767 9.63917E-05-2.95997E-05-2.86277E-05 7.35258E-08-1.12182E-18 1.20742E-18
 -1      2768 9.66315E-05-3.00193E-05-2.85620E-05 1.29569E-06-1.30605E-18 2.25981E-21
 -1      2769 9.66118E-05-2.98654E-05-2.85989E-05 8.97396E-07-1.01242E-18 3.01414E-19
 -1      2770 9.67987E-05-3.00590E-05-2.86052E-05 6.35031E-07-1.10843E-18 6.39556E-19
 -1      2771 9.68097E-05-3.03617E-05-2.84942E-05 2.30443E-06 6.27297E-20 1.70724E-19
 -1      2772 9.68610E-05-3.02416E-05-2.85443E-05 1.78076E-06-4.16794E-19-8.72680E-20
 -1      2773 9.72540E-05-3.05711E-05-2.85797E-05 1.47019E-06-7.97953E-19 1.91839E-19
 -1      2774 9.68422E-05-3.05696E-05-2.84195E-05 3.56015E-06-6.23803E-19 5.35882E-19
 -1      2775 9.70080E-05-3.05428E-05-2.84799E-05 2.93607E-06-4.73851E-19 5.38509E-19
 -1      2776 9.76930E-05-3.10461E-05-2.85617E-05 2.60888E-06-4.44864E-19-4.05132E-19
 -1      2777 9.66122E-05-3.04905E-05-2.83514E-05 4.95338E-06-8.23016E-19 1.10324E-18
 -1      2778 9.69395E-05-3.06325E-05-2.84162E-05 4.29942E-06-4.51277E-19 1.15180E-18
 -1      2779 9.80013E-05-3.13324E-05-2.85668E-05 4.02034E-06-9.43858E-19 1.00752E-18
 -1      2780 9.59990E-05-2.99628E-05-2.83062E-05 6.25656E-06-1.67751E-19 9.64278E-19
 -1      2781 9.65211E-05-3.03431E-05-2.83675E-05 5.69865E-06-6.66491E-19 1.02506E-18
 -1      2782 9.80172E-05-3.12273E-05-2.86131E-05 5.56877E-06-6.90999E-19 7.83773E-19
 -1      2783 9.49345E-05-2.88877E-05-2.82976E-05 7.12396E-06 5.19409E-19 8.71912E-19
 -1      2784 9.56441E-05-2.95312E-05-2.83476E-05 6.83340E-06 2.57084E-19 1.21868E-18
 -1      2785 9.75708E-05-3.05307E-05-2.87159E-05 6.97437E-06 1.21845E-19 6.42171E-19
 -1      2786 9.34793E-05-2.73254E-05-2.83290E-05 7.15472E-06-7.57094E-20 9.43066E-19
 -1      2787 9.43024E-05-2.81681E-05-2.83630E-05 7.30746E-06 5.56417E-19 1.18114E-18
 -1      2788 9.65651E-05-2.91471E-05-2.88781E-05 7.81932E-06 5.19126E-19 8.82931E-19
 -1      2789 9.18833E-05-2.55681E-05-2.83880E-05 6.03527E-06-4.90419E-20 1.60805E-18
 -1      2790 9.26707E-05-2.64341E-05-2.84067E-05 6.73871E-06-4.66587E-19 8.04759E-19
 -1      2791 9.50836E-05-2.72100E-05-2.90812E-05 7.63632E-06-7.60932E-20 5.87786E-19
 -1      2792 9.05603E-05-2.41057E-05-2.84485E-05 3.73170E-06 3.59556E-19 2.40317E-18
 -1      2793 9.11225E-05-2.47467E-05-2.84570E-05 4.94468E-06 5.28742E-20 1.83028E-18
 -1      2794 9.34598E-05-2.51479E-05-2.92829E-05 6.10137E-06-5.32136E-19 1.33303E-19
 -1      2795 8.99428E-05-2.34388E-05-2.84817E-05 6.11341E-07 6.33413E-19 2.96306E-18
 -1      2796 9.01205E-05-2.36380E-05-2.84859E-05 2.11462E-06 9.66094E-19 2.67271E-18
 -1      2797 9.22115E-05-2.35978E-05-2.94268E-05 3.26891E-06 4.74453E-19 1.72973E-18
 -1      2798 9.02546E-05-2.38161E-05-2.84721E-05-2.63140E-06 1.12351E-18 2.62722E-18
 -1      2799 8.99987E-05-2.35040E-05-2.84740E-05-1.17029E-06 7.14462E-19 3.26941E-18
 -1      2800 9.18132E-05-2.31154E-05-2.94686E-05-3.16712E-07 8.62587E-19 2.36892E-18
 -1      2801 9.13909E-05-2.51022E-05-2.84234E-05-5.25235E-06 1.70725E-18 2.94788E-18
 -1      2802 9.07807E-05-2.43887E-05-2.84203E-05-4.14891E-06 1.68972E-18 3.34807E-18
 -1      2803 9.24185E-05-2.38827E-05-2.93917E-05-3.79369E-06 9.23997E-19 1.73780E-18
 -1      2804 9.29701E-05-2.68466E-05-2.83594E-05-6.74837E-06-7.17814E-19 3.22975E-18
 -1      2805 9.21789E-05-2.59677E-05-2.83446E-05-6.18409E-06 7.73211E-19 3.83090E-18
 -1      2806 9.37831E-05-2.56133E-05-2.92186E-05-6.34694E-06 5.55641E-19 3.54866E-18
 -1      2807 9.45281E-05-2.85186E-05-2.83089E-05-7.02660E-06-1.21249E-18 2.75944E-18
 -1      2808 9.37437E-05-2.77155E-05-2.82780E-05-7.00117E-06-1.09658E-18 3.24107E-18
 -1      2809 9.53984E-05-2.77029E-05-2.90022E-05-7.53754E-06-5.33602E-19 4.09284E-18
 -1      2810 9.57319E-05-2.97495E-05-2.82903E-05-6.33771E-06 1.16758E-18 2.82066E-18
 -1      2811 9.50878E-05-2.91741E-05-2.82439E-05-6.71861E-06-1.55611E-19 2.74261E-18
 -1      2812 9.67681E-05-2.95372E-05-2.87973E-05-7.41971E-06-4.15039E-19 2.93157E-18
 -1      2813 9.64506E-05-3.04091E-05-2.83076E-05-5.08682E-06 1.27691E-18 2.78237E-18
 -1      2814 9.60047E-05-3.01035E-05-2.82511E-05-5.69030E-06 1.72764E-18 2.99245E-18
 -1      2815 9.76151E-05-3.07519E-05-2.86409E-05-6.37521E-06 1.23852E-18 2.61258E-18
 -1      2816 9.67200E-05-3.05576E-05-2.83528E-05-3.66389E-06 1.38576E-18 2.26262E-18
 -1      2817 9.64676E-05-3.04842E-05-2.82938E-05-4.32194E-06 1.22547E-18 2.52560E-18
 -1      2818 9.79024E-05-3.12705E-05-2.85467E-05-4.88051E-06 1.77292E-18 2.35487E-18
 -1      2819 9.66608E-05-3.03500E-05-2.84125E-05-2.35230E-06 3.13852E-19 2.59184E-18
 -1      2820 9.65619E-05-3.04344E-05-2.83581E-05-2.94589E-06 7.09245E-19 2.64874E-18
 -1      2821 9.77501E-05-3.12184E-05-2.85089E-05-3.33657E-06 7.16068E-19 3.19339E-18
 -1      2822 9.64084E-05-2.99529E-05-2.84732E-05-1.30599E-06-6.56071E-19 3.86843E-18
 -1      2823 9.64147E-05-3.01212E-05-2.84283E-05-1.77196E-06-2.91152E-19 3.38784E-18
 -1      2824 9.73327E-05-3.08046E-05-2.85111E-05-2.00151E-06-3.94283E-19 3.57324E-18
 -1      2825 9.60683E-05-2.94988E-05-2.85253E-05-5.82184E-07-8.16522E-20 3.89172E-18
 -1      2826 9.61377E-05-2.96890E-05-2.84923E-05-8.93296E-07-5.26058E-20 4.15665E-18
 -1      2827 9.68088E-05-3.02276E-05-2.85352E-05-9.93830E-07-4.71387E-19 4.66206E-18
 -1      2828 9.58293E-05-2.91755E-05-2.85645E-05-1.69884E-07-5.06018E-19 4.22108E-18
 -1      2829 9.59265E-05-2.93509E-05-2.85445E-05-3.50197E-07-5.30211E-19 4.11604E-18
 -1      2830 9.64052E-05-2.97248E-05-2.85697E-05-3.38550E-07-2.44522E-19 4.28335E-18
 -1      2831 9.60840E-05-2.93241E-05-2.86006E-05 5.49873E-08-7.89577E-20 2.36312E-18
 -1      2832 9.48804E-05-2.75732E-05-2.88603E-05 3.82953E-06-4.15200E-19 1.10931E-18
 -1      2833 9.54513E-05-2.81170E-05-2.88379E-05 3.72671E-06-1.05266E-19 2.48531E-18
 -1      2834 9.65593E-05-2.93624E-05-2.87943E-05 2.49122E-06 1.36655E-18 1.40795E-18
 -1      2835 9.66947E-05-2.95767E-05-2.87586E-05 2.04353E-06 2.07065E-18 6.74449E-19
 -1      2836 9.34785E-05-2.61734E-05-2.88693E-05 3.57518E-06-8.01238E-19-5.51922E-19
 -1      2837 9.41620E-05-2.67864E-05-2.88523E-05 3.82942E-06-6.20675E-19 3.54050E-19
 -1      2838 9.45812E-05-2.75578E-05-2.87372E-05 4.44425E-06-1.37007E-18 5.28974E-20
 -1      2839 9.59570E-05-2.86770E-05-2.88377E-05 3.37219E-06-4.95439E-19 2.33190E-18
 -1      2840 9.63189E-05-2.90706E-05-2.88078E-05 3.02834E-06-1.77207E-19 2.23268E-18
 -1      2841 9.68582E-05-2.97823E-05-2.87620E-05 3.04246E-06-1.40917E-19 4.71954E-19
 -1      2842 9.59981E-05-2.89251E-05-2.87624E-05 4.01783E-06-4.14541E-19 2.61821E-18
 -1      2843 8.84547E-05-4.27458E-05-1.94365E-05 4.54969E-05-1.09670E-18-8.73026E-19
 -1      2844 7.54887E-05-3.57167E-05-1.63820E-05 4.55653E-05-4.58986E-19-8.96267E-19
 -1      2845 9.21055E-05-2.47778E-05-2.88838E-05 2.47229E-06-3.85152E-19-3.26915E-18
 -1      2846 9.27134E-05-2.53130E-05-2.88657E-05 3.10269E-06-9.58808E-19-7.06356E-19
 -1      2847 9.28534E-05-2.58725E-05-2.87078E-05 4.00374E-06-1.24211E-18-6.57840E-19
 -1      2848 9.11573E-05-2.37130E-05-2.89304E-05 5.57664E-07 1.60926E-18-7.08219E-19
 -1      2849 9.14922E-05-2.40334E-05-2.89018E-05 1.51337E-06 4.75682E-19-1.73502E-18
 -1      2850 9.12457E-05-2.42223E-05-2.87105E-05 2.53761E-06-2.21731E-21-1.73118E-18
 -1      2851 9.10903E-05-2.33727E-05-2.90349E-05-1.78920E-06-6.09116E-19-2.73056E-18
 -1      2852 9.09559E-05-2.33414E-05-2.89851E-05-7.13790E-07 4.94919E-19-1.14668E-18
 -1      2853 9.02833E-05-2.30722E-05-2.87829E-05 1.92147E-07 2.31103E-19-1.33687E-18
 -1      2854 2.99084E-05-7.58851E-06-9.18708E-06 1.66279E-05 1.62064E-18-4.79421E-19
 -1      2855 2.88990E-05-6.83636E-06-8.75606E-06-4.52470E-07 2.95371E-18-1.91324E-18
 -1      2856 7.35490E-05-1.89108E-05-2.30866E-05-2.85512E-05 1.69698E-18-1.96861E-18
 -1      2857 7.32213E-05-1.49130E-05-2.48018E-05-2.49089E-05 1.62820E-18-1.23714E-18
 -1      2858 9.59803E-05-5.19970E-05-1.87129E-05-3.57555E-05-4.31140E-19-4.49383E-18
 -1      2859 1.26419E-04-5.84049E-05-2.87630E-05-3.06557E-05-3.95088E-19-6.11293E-19
 -1      2860 1.37574E-04-5.85243E-05-3.45000E-05-1.88746E-05-5.31990E-19-1.09384E-18
 -1      2861 9.44814E-05-2.13693E-05-3.13653E-05-7.79736E-06-7.05122E-19-1.29362E-18
 -1      2862 9.49198E-05-2.30957E-05-3.07816E-05-6.13365E-06-7.41591E-19-1.29650E-18
 -1      2863 9.37102E-05-2.00381E-05-3.15768E-05-7.62640E-06-5.52787E-19-1.27883E-18
 -1      2864 1.34877E-04-1.26658E-05-5.28435E-05 9.53690E-06 2.86297E-18-1.05953E-18
 -1      2865 1.31869E-04-6.28387E-06-5.45850E-05 4.45832E-06 2.26264E-18-4.93132E-19
 -1      2866 7.66502E-05-1.45160E-05-2.64900E-05-2.08208E-05 9.32474E-19-2.04810E-18
 -1      2867 7.85355E-05-1.46547E-05-2.74333E-05-1.82473E-05 3.35306E-19-1.90560E-18
 -1      2868 7.45196E-05-1.22581E-05-2.64601E-05-1.36824E-05-6.92658E-19-2.23673E-18
 -1      2869 1.39678E-04-1.64135E-05-5.36000E-05-9.55922E-06-3.62530E-19 8.79008E-19
 -1      2870 1.43640E-04-2.53385E-05-5.11401E-05-9.44024E-06-5.04408E-19 2.54110E-20
 -1      2871 9.52880E-05-2.42144E-05-3.04486E-05-5.07397E-06-5.75552E-19-1.24444E-18
 -1      2872 9.51970E-05-2.51720E-05-3.00238E-05-3.60523E-06-5.31832E-19-1.16772E-18
 -1      2873 9.52318E-05-2.48532E-05-3.01583E-05-3.35066E-06-4.88748E-19-9.48001E-19
 -1      2874 9.48428E-05-2.31407E-05-3.07340E-05-5.22155E-06-5.99169E-19-1.20588E-18
 -1      2875 9.11745E-05-1.60864E-05-3.22086E-05 4.91436E-06 1.04572E-18-6.79532E-19
 -1      2876 9.08317E-05-1.55875E-05-3.22692E-05 3.99276E-06 9.29312E-19-8.08900E-19
 -1      2877 9.18092E-05-1.71983E-05-3.19609E-05 3.19599E-06 8.60617E-19-8.17514E-19
 -1      2878 9.24780E-05-1.82581E-05-3.17888E-05 4.61287E-06 9.30331E-19-6.07716E-19
 -1      2879 1.31512E-04-4.89780E-06-5.49749E-05-2.15432E-06 7.81388E-19-1.75984E-19
 -1      2880 1.35071E-04-9.02274E-06-5.46192E-05-7.33005E-06 1.50348E-19-6.83979E-20
 -1      2881 5.76419E-05-2.59630E-05-1.33665E-05 4.31564E-05 1.01697E-18-1.39760E-18
 -1      2882 4.04875E-05-1.49777E-05-1.01501E-05 3.15784E-05 1.23969E-18-4.12293E-19
 -1      2883 1.42212E-04-3.33652E-05-4.69977E-05 8.76334E-06 2.25872E-18-7.88058E-19
 -1      2884 1.38538E-04-2.39368E-05-4.99384E-05 1.07484E-05 2.37868E-18-1.43297E-18
 -1      2885 1.43307E-04-5.11979E-05-3.93699E-05-4.24412E-06-1.81000E-19-1.54372E-18
 -1      2886 1.44717E-04-4.33537E-05-4.41093E-05 2.85789E-06 1.31883E-18-1.02618E-18
 -1      2887 1.37643E-04-3.83065E-05-4.27727E-05 8.55932E-06 8.75726E-19-5.85670E-19
 -1      2888 9.66717E-05-4.84894E-05-2.01400E-05-4.57911E-05-5.19549E-19-2.24093E-18
 -1      2889 1.10984E-04-5.47151E-05-2.43831E-05-4.17056E-05-5.74712E-19-1.59555E-18
 -1      2890 6.00125E-05-2.94839E-05-1.25219E-05-4.54187E-05-1.08547E-18-1.38585E-18
 -1      2891 7.88237E-05-3.99911E-05-1.65248E-05-4.91708E-05-7.44542E-19-1.85214E-18
 -1      2892 9.00369E-05-4.26523E-05-1.99255E-05-4.42423E-05-1.15959E-18-1.82303E-18
 -1      2893 3.42241E-05-1.05752E-05-9.55502E-06-2.47961E-05-2.15861E-18-2.69632E-18
 -1      2894 4.50150E-05-1.92823E-05-1.05362E-05-3.87777E-05-1.68528E-18-2.15231E-18
 -1      2895 3.25719E-05-8.40947E-06-9.57777E-06 1.08024E-05-1.74743E-18-3.19649E-18
 -1      2896 2.96719E-05-5.87885E-06-9.61467E-06-5.01484E-06-2.13727E-18-2.74481E-18
 -1      2897 3.15479E-05-9.50202E-06-8.83110E-06-1.23056E-05 2.44920E-18-2.46762E-18
 -1      2898 4.05448E-05-1.47586E-05-1.05388E-05-2.35890E-05 2.02324E-18-2.41870E-18
 -1      2899 1.46916E-04-3.53462E-05-4.84388E-05-5.82469E-06-4.49986E-19-5.41889E-19
 -1      2900 1.46530E-04-4.43869E-05-4.41112E-05-6.30584E-07-9.96164E-19-2.56863E-19
 -1      2901 9.15633E-05-1.66795E-05-3.21146E-05-5.58001E-06-1.01907E-19-1.24486E-18
 -1      2902 9.20852E-05-1.74708E-05-3.20151E-05-6.40405E-06-2.87549E-19-1.29970E-18
 -1      2903 9.24294E-05-1.81788E-05-3.17983E-05-4.57850E-06-1.03615E-20-1.09799E-18
 -1      2904 9.12856E-05-1.63889E-05-3.20862E-05 2.73971E-08 5.58824E-19-1.08821E-18
 -1      2905 9.01628E-05-1.46000E-05-3.24035E-05-3.84614E-07 5.63393E-19-1.14135E-18
 -1      2906 9.02184E-05-1.46797E-05-3.23935E-05-1.34208E-06 4.78968E-19-1.12368E-18
 -1      2907 5.53963E-05-7.77678E-06-1.98515E-05 1.51243E-05-1.39396E-18-3.17097E-18
 -1      2908 6.21470E-05-1.27999E-05-2.09958E-05 2.40374E-05-1.29575E-18-2.23638E-18
 -1      2909 1.45511E-04-5.10284E-05-4.08256E-05 3.83508E-06-1.04876E-18 3.48448E-19
 -1      2910 1.40832E-04-5.44259E-05-3.70127E-05 8.56197E-06-7.68610E-19 5.71006E-19
 -1      2911 1.41529E-04-4.54904E-05-4.13853E-05-3.73675E-06-2.59510E-19 8.30304E-19
 -1      2912 9.50096E-05-2.79074E-05-2.87663E-05-4.61615E-07 3.83031E-19-3.98282E-19
 -1      2913 9.45570E-05-2.78486E-05-2.85902E-05-4.49853E-07 3.12348E-19 1.70049E-20
 -1      2914 9.46448E-05-2.76611E-05-2.86887E-05-1.05058E-07 2.62278E-19 1.36514E-20
 -1      2915 6.09944E-05-1.74347E-05-1.80827E-05 2.70470E-05-1.46198E-18-3.08362E-18
 -1      2916 5.58879E-05-2.25539E-05-1.36020E-05-3.15154E-05 1.35239E-18-2.25205E-18
 -1      2917 7.56297E-05-3.39977E-05-1.73838E-05-3.74231E-05 1.34255E-18-1.93886E-18
 -1      2918 9.47265E-05-2.74129E-05-2.88517E-05 3.83876E-07 2.74790E-19 3.78529E-19
 -1      2919 9.49143E-05-2.71275E-05-2.90229E-05 9.85905E-07 4.23945E-19 3.86056E-19
 -1      2920 9.51280E-05-2.73781E-05-2.90462E-05 3.65141E-07 4.47689E-19-1.58049E-19
 -1      2921 1.09131E-04-5.23603E-05-2.46602E-05 3.75700E-05-1.42058E-18-3.20665E-18
 -1      2922 9.93676E-05-4.77678E-05-2.16910E-05 4.22607E-05-1.39522E-18-1.93865E-18
 -1      2923 9.31459E-05-4.19482E-05-2.17197E-05 4.03106E-05-1.82139E-18-2.29782E-18
 -1      2924 9.49768E-05-2.66908E-05-2.92619E-05 1.83021E-06 5.44679E-19 3.88659E-19
 -1      2925 9.50682E-05-2.63900E-05-2.94044E-05 2.48615E-06 6.37782E-19 4.30063E-19
 -1      2926 9.63324E-05-2.95112E-05-2.86363E-05 3.94818E-07 7.54259E-19 5.60166E-19
 -1      2927 9.65064E-05-2.97443E-05-2.86237E-05 2.33749E-07 3.15408E-19 1.79170E-18
 -1      2928 9.64922E-05-2.95658E-05-2.86720E-05 7.23344E-07 8.50393E-19-2.23923E-19
 -1      2929 1.39639E-04-3.06357E-05-4.70347E-05-1.02198E-05-3.22190E-19 3.16790E-19
 -1      2930 8.99110E-05-4.03161E-05-2.11302E-05 3.65258E-05-1.15451E-18-2.37741E-18
 -1      2931 6.44196E-05-2.59028E-05-1.57442E-05 3.43018E-05-1.62927E-18-2.87885E-18
 -1      2932 1.30656E-04-5.93142E-05-3.04433E-05 2.72655E-05-5.55336E-19-2.23236E-18
 -1      2933 3.81183E-05-6.69615E-06-1.27821E-05-5.96596E-06 3.27560E-18-1.93896E-18
 -1      2934 4.30113E-05-1.04787E-05-1.32584E-05 2.16463E-05 1.73732E-18-6.70427E-19
 -1      2935 9.20571E-05-2.39747E-05-2.91848E-05-3.49452E-06-7.44344E-19-6.53362E-18
 -1      2936 9.15364E-05-2.36157E-05-2.91282E-05-2.77653E-06-3.71982E-19-5.50771E-18
 -1      2937 9.04834E-05-2.29054E-05-2.89442E-05-2.25412E-06-1.43185E-18-3.65488E-18
 -1      2938 9.16464E-05-2.36255E-05-2.91508E-05-3.98352E-06-4.27405E-19-6.35017E-18
 -1      2939 3.93184E-05-1.03075E-05-1.16537E-05 1.67188E-05-1.65733E-18-3.88852E-18
 -1      2940 4.37052E-05-6.88774E-06-1.54327E-05 1.22548E-05-1.84277E-18-3.69105E-18
 -1      2941 6.59268E-05-1.08158E-05-2.34119E-05-1.91721E-05 1.10032E-18-1.73332E-18
 -1      2942 9.01629E-05-4.34908E-05-1.93841E-05-3.79048E-05 1.12867E-18-3.34165E-18
 -1      2943 1.19810E-04-5.56974E-05-2.72619E-05-3.21628E-05-6.81809E-19-5.56130E-19
 -1      2944 5.92422E-05-2.35866E-05-1.47333E-05-3.91970E-05-1.88475E-18-1.97613E-18
 -1      2945 1.30499E-04-1.35386E-05-5.05381E-05-9.52247E-06 4.13352E-19 6.17381E-19
 -1      2946 1.37634E-04-5.42425E-05-3.57834E-05-8.81579E-06-6.11664E-19-1.09865E-18
 -1      2947 5.58332E-05-1.76369E-05-1.57695E-05-2.75355E-05 1.66876E-18-1.85066E-18
 -1      2948 9.52347E-05-2.65257E-05-2.94595E-05 1.75789E-06 5.43068E-19 1.33435E-19
 -1      2949 8.54701E-05-3.64298E-05-2.06725E-05-3.57357E-05 1.55134E-18-3.50703E-18
 -1      2950 9.66806E-05-2.96040E-05-2.87379E-05 1.56092E-06 2.27882E-18 1.23825E-19
 -1      2951 9.66381E-05-2.96630E-05-2.87003E-05 1.13227E-06 1.43416E-18-7.57434E-19
 -1      2952 9.69400E-05-3.00231E-05-2.86886E-05 1.02281E-06 1.97909E-18-3.82905E-19
 -1      2953 9.71087E-05-3.00888E-05-2.87350E-05 1.95460E-06 1.65306E-18-1.18168E-20
 -1      2954 1.30330E-04-1.89171E-05-4.81036E-05 1.15182E-05 2.32161E-18-3.95670E-19
 -1      2955 9.03443E-05-1.48714E-05-3.23659E-05-2.17607E-06 4.54262E-19-9.71907E-19
 -1      2956 9.05315E-05-1.51368E-05-3.23341E-05-3.12690E-06 2.96343E-19-9.89781E-19
 -1      2957 9.17819E-05-1.71591E-05-3.19663E-05-3.14047E-06 2.72260E-19-9.86036E-19
 -1      2958 9.14044E-05-1.65726E-05-3.20575E-05-1.58358E-06 4.11077E-19-1.06221E-18
 -1      2959 4.99887E-05-1.50257E-05-1.44996E-05 2.58492E-05-1.83806E-18-3.28437E-18
 -1      2960 6.88547E-05-2.81814E-05-1.69898E-05 4.01430E-05 5.06102E-19-1.50655E-18
 -1      2961 1.25316E-04-6.84286E-06-5.12571E-05 1.32605E-06 1.81763E-18-6.99557E-19
 -1      2962 3.59353E-05-6.75566E-06-1.17600E-05-1.39787E-05-1.98677E-18-2.15623E-18
 -1      2963 4.51915E-05-9.11407E-06-1.50723E-05-2.04289E-05-1.94561E-18-1.82567E-18
 -1      2964 4.13322E-05-4.69728E-06-1.52482E-05-3.59439E-06-1.39606E-18-2.10159E-18
 -1      2965 7.85522E-05-2.54183E-05-2.21212E-05-3.36500E-05 1.52895E-18-2.13018E-18
 -1      2966 6.54695E-05-1.78610E-05-2.00897E-05-2.92499E-05 1.57246E-18-1.27426E-18
 -1      2967 5.56179E-05-6.32465E-06-2.11954E-05 7.92757E-06-1.34040E-18-2.50902E-18
 -1      2968 5.07567E-05-6.33159E-06-1.86533E-05 9.86506E-06-1.80138E-18-3.48914E-18
 -1      2969 4.60950E-05-4.74979E-06-1.70452E-05 3.78766E-06-1.75191E-18-2.95255E-18
 -1      2970 9.50735E-05-2.38613E-05-3.05367E-05 5.06118E-06 8.61151E-19 7.12393E-20
 -1      2971 9.46611E-05-2.27201E-05-3.08218E-05 5.09711E-06 9.14089E-19-6.21643E-20
 -1      2972 9.42691E-05-2.18593E-05-3.10650E-05 4.98336E-06 9.91211E-19-2.59131E-19
 -1      2973 9.38097E-05-2.09103E-05-3.12461E-05 4.61017E-06 9.63585E-19-4.00324E-19
 -1      2974 9.49511E-05-2.35364E-05-3.05807E-05 3.96158E-06 8.28257E-19-2.08841E-19
 -1      2975 9.52068E-05-2.60578E-05-2.96125E-05 3.72384E-06 8.31224E-19 5.99952E-19
 -1      2976 9.52430E-05-2.86917E-05-2.85215E-05-1.15051E-06 2.17650E-19-5.41914E-19
 -1      2977 9.52390E-05-2.86303E-05-2.85434E-05-1.14131E-06 7.97520E-20-5.99090E-19
 -1      2978 9.56769E-05-2.68243E-05-2.94935E-05-7.93545E-07-2.63990E-19-7.72998E-19
 -1      2979 9.56537E-05-2.72815E-05-2.93107E-05-2.55231E-07-1.30502E-19-6.09356E-19
 -1      2980 9.57013E-05-2.76755E-05-2.91424E-05 1.35598E-07-9.78999E-20-6.30075E-19
 -1      2981 9.56645E-05-2.79678E-05-2.90176E-05 4.60853E-07-1.20659E-19-4.63116E-19
 -1      2982 9.58901E-05-2.72795E-05-2.94074E-05-1.94546E-07-1.57991E-19-6.84045E-19
 -1      2983 9.56582E-05-2.82113E-05-2.88978E-05 6.90884E-07-2.48676E-19-3.40838E-19
 -1      2984 9.56259E-05-2.83955E-05-2.88153E-05 8.66755E-07-9.86301E-20-3.37388E-19
 -1      2985 9.59363E-05-2.80191E-05-2.91109E-05 4.59585E-07-9.24828E-20-5.50734E-19
 -1      2986 9.55944E-05-2.85398E-05-2.87324E-05 9.82676E-07-1.33662E-19-3.88771E-19
 -1      2987 9.55714E-05-2.86519E-05-2.86804E-05 1.05843E-06-1.18198E-19-3.08861E-19
 -1      2988 9.59044E-05-2.84789E-05-2.89001E-05 8.32865E-07-3.59294E-20-5.01524E-19
 -1      2989 9.55296E-05-2.87304E-05-2.86251E-05 1.09790E-06-2.57405E-19-2.95777E-19
 -1      2990 9.55156E-05-2.87937E-05-2.85948E-05 1.11002E-06-5.27474E-19-1.94750E-19
 -1      2991 9.58366E-05-2.87500E-05-2.87544E-05 1.00948E-06-1.83573E-19-5.53929E-19
 -1      2992 9.54716E-05-2.88283E-05-2.85598E-05 1.10178E-06-5.42801E-19 1.17033E-19
 -1      2993 9.54646E-05-2.88583E-05-2.85447E-05 1.07664E-06-4.65387E-19 1.56859E-19
 -1      2994 9.57555E-05-2.88934E-05-2.86577E-05 1.05674E-06-2.92982E-19-2.40743E-19
 -1      2995 9.54222E-05-2.88639E-05-2.85244E-05 1.04188E-06-7.82368E-19 2.10823E-19
 -1      2996 9.54201E-05-2.88709E-05-2.85199E-05 9.98126E-07-7.03808E-19-1.49521E-19
 -1      2997 9.56726E-05-2.89507E-05-2.85971E-05 1.02559E-06-6.76142E-19 7.91364E-21
 -1      2998 9.53825E-05-2.88579E-05-2.85107E-05 9.54530E-07-3.83460E-19-1.30616E-19
 -1      2999 9.53842E-05-2.88502E-05-2.85131E-05 9.07868E-07-1.12784E-19 4.18428E-20
 -1      3000 9.55957E-05-2.89512E-05-2.85635E-05 9.55665E-07-3.98649E-19 4.05729E-19
 -1      3001 9.53486E-05-2.88241E-05-2.85111E-05 8.61112E-07-1.60166E-19 6.89768E-20
 -1      3002 9.53521E-05-2.88047E-05-2.85188E-05 8.15898E-07-1.63213E-20 7.47813E-20
 -1      3003 9.55242E-05-2.89133E-05-2.85487E-05 8.71240E-07-1.13808E-19 4.32626E-19
 -1      3004 9.53189E-05-2.87685E-05-2.85226E-05 7.75801E-07 3.24950E-19 5.62288E-20
 -1      3005 9.53232E-05-2.87399E-05-2.85341E-05 7.41299E-07 5.14484E-19-1.34197E-19
 -1      3006 9.54566E-05-2.88473E-05-2.85477E-05 7.88906E-07 2.18106E-19 4.04859E-19
 -1      3007 9.52908E-05-2.86951E-05-2.85423E-05 7.13633E-07 4.25812E-19-3.49934E-19
 -1      3008 9.52945E-05-2.86576E-05-2.85570E-05 6.95319E-07 3.78490E-19-2.46288E-19
 -1      3009 9.53921E-05-2.87592E-05-2.85575E-05 7.24423E-07 2.72487E-19 1.91451E-19
 -1      3010 9.52597E-05-2.86031E-05-2.85688E-05 6.84523E-07-3.60445E-19-5.64690E-19
 -1      3011 9.52608E-05-2.85551E-05-2.85864E-05 6.87343E-07-7.91067E-19-1.06046E-18
 -1      3012 9.53258E-05-2.86498E-05-2.85756E-05 6.88102E-07-1.54552E-19-4.92322E-19
 -1      3013 9.52187E-05-2.84872E-05-2.86013E-05 6.97280E-07-4.12825E-19-1.03165E-18
 -1      3014 9.52137E-05-2.84244E-05-2.86221E-05 7.26416E-07-1.51877E-19-1.13702E-18
 -1      3015 9.52500E-05-2.85146E-05-2.86006E-05 6.88197E-07-5.83567E-19-1.33811E-18
 -1      3016 9.51564E-05-2.83365E-05-2.86399E-05 7.60848E-07-3.61824E-19-1.40952E-18
 -1      3017 9.51395E-05-2.82517E-05-2.86643E-05 8.22412E-07-6.05168E-19-1.43471E-18
 -1      3018 9.51522E-05-2.83432E-05-2.86314E-05 7.31924E-07-3.17172E-19-1.48133E-18
 -1      3019 9.50550E-05-2.81330E-05-2.86846E-05 8.85232E-07-4.90777E-19-1.43033E-18
 -1      3020 9.50162E-05-2.80144E-05-2.87131E-05 9.86850E-07-6.62778E-20-1.59818E-18
 -1      3021 9.50133E-05-2.81179E-05-2.86674E-05 8.25969E-07-2.62701E-19-1.22968E-18
 -1      3022 9.48854E-05-2.78484E-05-2.87354E-05 1.08197E-06 8.17463E-20-1.63347E-18
 -1      3023 9.48078E-05-2.76782E-05-2.87682E-05 1.23315E-06 3.59761E-19-1.08141E-18
 -1      3024 9.48032E-05-2.78111E-05-2.87072E-05 9.76281E-07 1.87789E-19-8.52049E-19
 -1      3025 9.46014E-05-2.74406E-05-2.87907E-05 1.36383E-06 1.56944E-20-1.04315E-18
 -1      3026 9.44566E-05-2.71921E-05-2.88269E-05 1.57583E-06-1.65117E-19-1.35958E-18
 -1      3027 9.44752E-05-2.73818E-05-2.87479E-05 1.18672E-06 1.32629E-19-1.21294E-18
 -1      3028 9.41295E-05-2.68480E-05-2.88457E-05 1.74291E-06-2.47908E-19-1.18786E-18
 -1      3029 9.38712E-05-2.64828E-05-2.88821E-05 2.02762E-06-3.10316E-19-1.27933E-18
 -1      3030 9.39578E-05-2.67717E-05-2.87833E-05 1.45574E-06-1.83582E-19-1.01009E-18
 -1      3031 9.33554E-05-2.59839E-05-2.88889E-05 2.22615E-06-1.59082E-19-1.37016E-18
 -1      3032 9.29096E-05-2.54490E-05-2.89171E-05 2.59298E-06-2.25590E-19-9.38163E-19
 -1      3033 9.31423E-05-2.58999E-05-2.88005E-05 1.76982E-06 1.29546E-19-1.07611E-18
 -1      3034 9.21046E-05-2.47319E-05-2.88960E-05 2.80629E-06-2.25995E-19-1.01826E-18
 -1      3035 9.13568E-05-2.39590E-05-2.88979E-05 3.25607E-06-6.32617E-19-1.37521E-18
 -1      3036 9.18670E-05-2.46608E-05-2.87744E-05 2.09185E-06-2.09115E-19-1.29831E-18
 -1      3037 9.01183E-05-2.29479E-05-2.88185E-05 3.44673E-06-4.98950E-19-9.82153E-19
 -1      3038 8.88971E-05-2.18585E-05-2.87573E-05 3.96202E-06-3.67620E-19-6.88393E-19
 -1      3039 8.98979E-05-2.29266E-05-2.86576E-05 2.34266E-06-3.39357E-19-1.76653E-18
 -1      3040 8.70235E-05-2.04750E-05-2.85637E-05 4.06102E-06-6.23233E-19-3.69854E-19
 -1      3041 8.50814E-05-1.90005E-05-2.83660E-05 4.59299E-06-7.33964E-19-6.15882E-19
 -1      3042 8.69062E-05-2.05659E-05-2.83634E-05 2.37496E-06-2.87511E-19-2.80014E-19
 -1      3043 8.24559E-05-1.73089E-05-2.79818E-05 4.50155E-06-6.05476E-19-7.34797E-19
 -1      3044 7.96657E-05-1.55360E-05-2.75539E-05 4.95474E-06 7.77484E-20-3.79051E-19
 -1      3045 8.25851E-05-1.75671E-05-2.77587E-05 1.96264E-06-4.29218E-19-3.60659E-19
 -1      3046 7.57039E-05-1.34108E-05-2.67729E-05 4.55332E-06 2.34105E-19-6.22073E-19
 -1      3047 7.14755E-05-1.13147E-05-2.58289E-05 4.86712E-06 3.69786E-19-5.38349E-19
 -1      3048 7.62960E-05-1.38981E-05-2.65767E-05 8.11386E-07 8.03871E-20-9.71342E-19
 -1      3049 9.53305E-05-2.54897E-05-2.99364E-05 3.91944E-06 8.24818E-19 3.02674E-19
 -1      3050 5.19696E-05-1.01584E-05-1.73614E-05-2.06201E-05 2.82867E-18-1.01771E-18
 -1      3051 9.52739E-05-2.85600E-05-2.85920E-05-1.10060E-06 5.49769E-20-6.05907E-19
 -1      3052 9.52846E-05-2.84572E-05-2.86347E-05-1.02691E-06 2.05687E-19-6.96857E-19
 -1      3053 9.55803E-05-2.86667E-05-2.86806E-05-1.06866E-06 2.74492E-20-4.62481E-19
 -1      3054 8.39938E-05-1.79784E-05-2.83307E-05-6.74588E-06-1.44598E-19-1.00694E-18
 -1      3055 8.61045E-05-1.95309E-05-2.85917E-05-5.95396E-06-8.99178E-19-2.14383E-18
 -1      3056 8.83684E-05-2.10691E-05-2.88735E-05-5.65693E-06-1.19278E-18-2.46395E-18
 -1      3057 8.97312E-05-2.21878E-05-2.89798E-05-4.95465E-06-3.57628E-19-3.50064E-18
 -1      3058 8.58708E-05-1.93591E-05-2.83935E-05-3.96739E-06-1.62328E-18-1.22749E-18
 -1      3059 8.99842E-05-2.35627E-05-2.85026E-05 2.87924E-06 5.62014E-19-8.75158E-19
 -1      3060 9.08878E-05-2.43367E-05-2.84944E-05 3.90498E-06-3.81245E-20-2.35573E-18
 -1      3061 9.53182E-05-2.83303E-05-2.87108E-05-9.05283E-07 4.07065E-19-6.44819E-19
 -1      3062 9.53492E-05-2.81664E-05-2.87838E-05-7.29138E-07 3.70159E-19-6.38043E-19
 -1      3063 9.56414E-05-2.84189E-05-2.88138E-05-8.83428E-07 2.79392E-19-7.07143E-19
 -1      3064 9.52139E-05-2.87796E-05-2.84707E-05-1.02791E-06 5.54721E-19-1.75677E-19
 -1      3065 9.51956E-05-2.87660E-05-2.84695E-05-1.07512E-06 6.84983E-19-1.03739E-19
 -1      3066 9.52104E-05-2.87725E-05-2.84721E-05-9.24750E-07 1.94746E-19-1.26081E-19
 -1      3067 9.51898E-05-2.87720E-05-2.84651E-05-9.77988E-07 2.98114E-19-2.87714E-19
 -1      3068 9.54133E-05-2.88700E-05-2.85200E-05-1.00008E-06 3.98000E-19-4.64467E-19
 -1      3069 9.52118E-05-2.87473E-05-2.84835E-05-8.22384E-07 5.16366E-20 3.27871E-19
 -1      3070 9.51903E-05-2.87551E-05-2.84730E-05-8.73123E-07 1.86814E-19 1.96153E-19
 -1      3071 9.53712E-05-2.88470E-05-2.85114E-05-9.03355E-07-3.98508E-20-1.86608E-19
 -1      3072 9.52172E-05-2.87116E-05-2.85010E-05-7.33332E-07 8.36317E-20 5.52327E-19
 -1      3073 9.51954E-05-2.87243E-05-2.84886E-05-7.76171E-07 1.72308E-19 4.61265E-19
 -1      3074 9.53360E-05-2.88042E-05-2.85144E-05-8.08575E-07-8.51806E-20 1.30617E-19
 -1      3075 9.52267E-05-2.86722E-05-2.85221E-05-6.65095E-07 4.10072E-19 7.39819E-19
 -1      3076 9.52045E-05-2.86866E-05-2.85088E-05-6.97008E-07 2.72743E-19 6.84113E-19
 -1      3077 9.53077E-05-2.87511E-05-2.85248E-05-7.28004E-07 6.36914E-20 3.50600E-19
 -1      3078 9.52422E-05-2.86349E-05-2.85447E-05-6.21188E-07-9.06645E-20 1.30738E-18
 -1      3079 9.52183E-05-2.86479E-05-2.85312E-05-6.41096E-07 2.04277E-19 1.03286E-18
 -1      3080 9.52869E-05-2.86952E-05-2.85398E-05-6.69061E-07 8.57711E-20 5.29456E-19
 -1      3081 9.52667E-05-2.86068E-05-2.85674E-05-6.01584E-07 1.53518E-19 7.55276E-19
 -1      3082 9.52394E-05-2.86148E-05-2.85543E-05-6.10246E-07 2.34365E-19 8.60365E-19
 -1      3083 9.52757E-05-2.86440E-05-2.85569E-05-6.35347E-07 2.70238E-19 1.45877E-18
 -1      3084 9.53060E-05-2.85967E-05-2.85887E-05-6.02491E-07-4.83675E-19 5.86108E-19
 -1      3085 9.52724E-05-2.85950E-05-2.85767E-05-6.02722E-07-1.41123E-19 6.47641E-19
 -1      3086 9.52782E-05-2.86061E-05-2.85744E-05-6.27049E-07-2.72631E-20 4.28844E-19
 -1      3087 9.53689E-05-2.86170E-05-2.86072E-05-6.15518E-07-2.68416E-19 3.61710E-19
 -1      3088 9.53248E-05-2.85992E-05-2.85968E-05-6.12697E-07-3.00232E-19 3.59658E-19
 -1      3089 9.53019E-05-2.85930E-05-2.85904E-05-6.40662E-07-1.86306E-19 6.61346E-19
 -1      3090 9.54679E-05-2.86841E-05-2.86213E-05-6.26225E-07 1.99069E-19-1.50039E-19
 -1      3091 9.54081E-05-2.86419E-05-2.86135E-05-6.29090E-07 1.18210E-19 1.51934E-19
 -1      3092 9.53587E-05-2.86203E-05-2.86036E-05-6.68090E-07 3.81288E-20-2.32822E-19
 -1      3093 9.56202E-05-2.88191E-05-2.86295E-05-6.12117E-07-4.97810E-19 7.16581E-19
 -1      3094 9.55380E-05-2.87422E-05-2.86251E-05-6.33740E-07-2.17329E-19 5.13580E-19
 -1      3095 9.54663E-05-2.87094E-05-2.86122E-05-6.95026E-07-2.96141E-19 4.14088E-19
 -1      3096 9.58476E-05-2.90470E-05-2.86304E-05-5.40338E-07-2.95604E-19 1.29411E-18
 -1      3097 9.57355E-05-2.89239E-05-2.86302E-05-5.99090E-07-2.73385E-19 1.10637E-18
 -1      3098 9.56493E-05-2.88875E-05-2.86155E-05-6.98606E-07-9.93889E-19 1.50330E-18
 -1      3099 9.61739E-05-2.93924E-05-2.86239E-05-3.65655E-07-1.17556E-18 2.07053E-18
 -1      3100 9.60251E-05-2.92129E-05-2.86284E-05-4.85733E-07-4.64814E-19 1.90522E-18
 -1      3101 9.59392E-05-2.91858E-05-2.86132E-05-6.44500E-07-6.95326E-19 2.10065E-18
 -1      3102 9.66200E-05-2.98720E-05-2.86120E-05-2.99295E-08-8.66051E-19 1.73292E-18
 -1      3103 9.64317E-05-2.96316E-05-2.86206E-05-2.40685E-07-1.00734E-18 1.98742E-18
 -1      3104 9.63715E-05-2.96349E-05-2.86077E-05-4.83936E-07-1.10140E-18 2.65753E-18
 -1      3105 9.71938E-05-3.04799E-05-2.86005E-05 5.34667E-07-1.01676E-18 5.99896E-19
 -1      3106 9.69718E-05-3.01880E-05-2.86109E-05 2.01856E-07-5.70901E-19 1.33188E-18
 -1      3107 9.69790E-05-3.02536E-05-2.86044E-05-1.51914E-07-4.82262E-19 2.12837E-18
 -1      3108 9.78736E-05-3.11675E-05-2.86006E-05 1.39498E-06-5.72321E-19 7.58118E-20
 -1      3109 9.76397E-05-3.08573E-05-2.86081E-05 9.14058E-07-1.06416E-18 3.23298E-19
 -1      3110 9.77775E-05-3.10302E-05-2.86146E-05 4.30598E-07-5.25729E-19 7.02854E-19
 -1      3111 9.85874E-05-3.18200E-05-2.86299E-05 2.59364E-06-9.08001E-19 3.02428E-19
 -1      3112 9.83868E-05-3.15591E-05-2.86267E-05 1.95745E-06-5.09897E-19 1.47052E-19
 -1      3113 9.87426E-05-3.18958E-05-2.86564E-05 1.34539E-06-7.64513E-19 7.46033E-19
 -1      3114 9.91958E-05-3.22386E-05-2.87118E-05 4.11052E-06-1.26967E-18 7.74647E-19
 -1      3115 9.90998E-05-3.21349E-05-2.86880E-05 3.35067E-06-9.95142E-19 6.96143E-19
 -1      3116 9.97819E-05-3.26953E-05-2.87554E-05 2.64965E-06-1.09759E-18 5.01694E-19
 -1      3117 9.94899E-05-3.21506E-05-2.88712E-05 5.80697E-06-6.39829E-19 7.75830E-19
 -1      3118 9.95884E-05-3.23397E-05-2.88164E-05 5.01875E-06-8.06596E-19 1.10630E-18
 -1      3119 1.00709E-04-3.31681E-05-2.89427E-05 4.32780E-06-1.06882E-18 9.07289E-19
 -1      3120 9.92369E-05-3.12792E-05-2.91253E-05 7.36665E-06-1.52631E-19 8.66868E-19
 -1      3121 9.96053E-05-3.18780E-05-2.90331E-05 6.72730E-06-3.46097E-19 7.48505E-19
 -1      3122 1.01243E-04-3.29656E-05-2.92465E-05 6.21459E-06-4.99394E-19 9.89940E-19
 -1      3123 9.82906E-05-2.94921E-05-2.94692E-05 8.29435E-06 3.22776E-19 1.27176E-18
 -1      3124 9.89396E-05-3.05228E-05-2.93439E-05 8.04476E-06 1.52471E-19 1.23306E-18
 -1      3125 1.01076E-04-3.17653E-05-2.96794E-05 7.91972E-06-3.06937E-19 7.98262E-19
 -1      3126 9.67309E-05-2.69769E-05-2.98625E-05 8.01471E-06 4.73464E-19 9.04548E-19
 -1      3127 9.75569E-05-2.82838E-05-2.97231E-05 8.39598E-06 7.07244E-19 1.49277E-18
 -1      3128 1.00035E-04-2.94690E-05-3.02177E-05 8.83232E-06 4.58450E-19 2.79687E-19
 -1      3129 9.49870E-05-2.43709E-05-3.02249E-05 6.14154E-06-2.29385E-19-4.65476E-19
 -1      3130 9.57604E-05-2.55950E-05-3.01052E-05 7.25567E-06-2.87906E-20-1.73632E-19
 -1      3131 9.82900E-05-2.64328E-05-3.07853E-05 8.26835E-06 7.88580E-19 4.63074E-19
 -1      3132 9.37106E-05-2.25649E-05-3.04624E-05 2.77027E-06 2.36045E-19-9.36989E-20
 -1      3133 9.41502E-05-2.32649E-05-3.03972E-05 4.48966E-06-6.99952E-20-3.16465E-19
 -1      3134 9.64194E-05-2.34839E-05-3.12597E-05 5.84079E-06-1.05411E-19-8.98099E-19
 -1      3135 9.34981E-05-2.23204E-05-3.05049E-05-1.31567E-06 3.99919E-19 7.43365E-19
 -1      3136 9.34419E-05-2.22222E-05-3.05155E-05 5.87768E-07 2.03826E-19 3.67514E-19
 -1      3137 9.52857E-05-2.17892E-05-3.15187E-05 1.86288E-06-2.19394E-19-1.19554E-18
 -1      3138 9.44533E-05-2.37321E-05-3.03345E-05-5.02386E-06 1.30484E-19 2.39525E-18
 -1      3139 9.39246E-05-2.28742E-05-3.04198E-05-3.42194E-06 1.63434E-19 1.75695E-18
 -1      3140 9.54502E-05-2.20391E-05-3.14836E-05-2.63865E-06-6.54587E-19-3.72802E-20
 -1      3141 9.61629E-05-2.62404E-05-3.00029E-05-7.42684E-06 4.25568E-20 3.21757E-18
 -1      3142 9.53601E-05-2.49518E-05-3.01360E-05-6.48452E-06 4.42025E-19 3.14082E-18
 -1      3143 9.68204E-05-2.41192E-05-3.11593E-05-6.32595E-06-4.11604E-19 2.17779E-18
 -1      3144 9.79050E-05-2.88979E-05-2.96076E-05-8.16609E-06-8.30989E-19 2.76056E-18
 -1      3145 9.71136E-05-2.76291E-05-2.97499E-05-7.95925E-06-6.79870E-19 3.24912E-18
 -1      3146 9.87408E-05-2.71996E-05-3.06437E-05-8.30397E-06-1.65422E-19 1.99532E-18
 -1      3147 9.91238E-05-3.09549E-05-2.92353E-05-7.51087E-06 3.77765E-19 1.18135E-18
 -1      3148 9.85472E-05-3.00197E-05-2.93574E-05-7.88726E-06-1.20672E-19 1.72900E-18
 -1      3149 1.00369E-04-3.01438E-05-3.00712E-05-8.44995E-06 1.19988E-19 9.66021E-19
 -1      3150 9.96016E-05-3.20824E-05-2.89420E-05-6.02337E-06 1.38732E-18 2.15409E-18
 -1      3151 9.93167E-05-3.15947E-05-2.90280E-05-6.73130E-06 8.44424E-19 1.78035E-18
 -1      3152 1.01207E-04-3.22023E-05-2.95518E-05-7.26093E-06 4.07535E-19 1.70074E-19
 -1      3153 9.94210E-05-3.23329E-05-2.87459E-05-4.26758E-06 1.12688E-18 3.08666E-18
 -1      3154 9.93982E-05-3.22437E-05-2.87942E-05-5.07099E-06 1.30587E-18 2.78111E-18
 -1      3155 1.01177E-04-3.31360E-05-2.91489E-05-5.43034E-06 7.36168E-19 6.93410E-19
 -1      3156 9.88100E-05-3.19578E-05-2.86382E-05-2.63914E-06-2.42783E-19 4.35586E-18
 -1      3157 9.89687E-05-3.21441E-05-2.86558E-05-3.37511E-06 1.44407E-18 4.05635E-18
 -1      3158 1.00496E-04-3.31106E-05-2.88781E-05-3.53782E-06 4.43757E-19 3.08385E-18
 -1      3159 9.80099E-05-3.12551E-05-2.85948E-05-1.34907E-06-8.66681E-19 4.38583E-18
 -1      3160 9.82586E-05-3.15775E-05-2.85931E-05-1.93313E-06-1.10064E-18 3.97962E-18
 -1      3161 9.94706E-05-3.24636E-05-2.87229E-05-1.92923E-06-6.00283E-19 4.72310E-18
 -1      3162 9.71839E-05-3.04486E-05-2.85922E-05-4.59877E-07 4.97620E-19 3.53274E-18
 -1      3163 9.74619E-05-3.08042E-05-2.85801E-05-8.49704E-07-4.89701E-19 3.87372E-18
 -1      3164 9.83687E-05-3.15316E-05-2.86516E-05-7.44560E-07-2.47405E-19 3.23926E-18
 -1      3165 9.67629E-05-2.99895E-05-2.86156E-05 6.22323E-08 5.52707E-20 3.01219E-18
 -1      3166 9.69192E-05-3.02149E-05-2.85987E-05-1.91041E-07 3.55599E-19 3.15423E-18
 -1      3167 9.75784E-05-3.07569E-05-2.86404E-05-4.97314E-09 2.03690E-19 1.53592E-18
 -1      3168 9.70540E-05-3.01750E-05-2.86527E-05 4.31900E-07 1.08546E-18 1.26374E-18
 -1      3169 4.59790E-05-6.71958E-06-1.64065E-05-1.23935E-05 2.33117E-18-1.73472E-18
 -1      3170 5.68414E-05-8.32351E-06-2.03743E-05-1.49063E-05 2.17379E-18-1.26944E-18
 -1      3171 4.31983E-05-4.55002E-06-1.62657E-05-1.00138E-07 2.50575E-18-1.89280E-18
 -1      3172 1.26573E-04-2.28833E-05-4.45367E-05 1.32153E-05 1.45737E-18 6.47927E-19
 -1      3173 1.22274E-04-1.43242E-05-4.68945E-05 1.03935E-05 2.40282E-18-2.21526E-19
 -1      3174 1.34935E-04-5.87888E-05-3.29846E-05 1.82860E-05-1.12147E-18-5.66136E-19
 -1      3175 1.24504E-04-5.69489E-05-2.85749E-05 2.75432E-05-9.60165E-19-1.93179E-18
 -1      3176 9.43414E-05-2.76398E-05-2.86087E-05 5.24112E-06-7.93577E-19-9.07998E-19
 -1      3177 9.53192E-05-2.84303E-05-2.86361E-05 5.18114E-06-8.22540E-19 5.15587E-19
 -1      3178 1.31130E-04-2.61924E-05-4.55086E-05-1.25308E-05-1.19855E-19 1.10130E-18
 -1      3179 1.35109E-04-3.49388E-05-4.32206E-05-1.05703E-05-1.82112E-19 9.61329E-19
 -1      3180 8.88918E-05-2.22548E-05-2.85884E-05 7.67301E-08-1.36651E-18-3.89770E-18
 -1      3181 8.92559E-05-2.26439E-05-2.85361E-05 1.37999E-06-3.91081E-20-1.10165E-18
 -1      3182 8.87471E-05-2.26342E-05-2.83036E-05 2.81621E-06-2.74602E-19-2.02733E-18
 -1      3183 9.20782E-05-2.56005E-05-2.85278E-05 4.66358E-06-3.81310E-19-1.30609E-18
 -1      3184 9.31438E-05-2.64535E-05-2.85482E-05 5.13492E-06-3.63596E-20-4.93723E-19
 -1      3185 9.37160E-05-2.74179E-05-2.84343E-05 6.06406E-06 9.41911E-19 2.78278E-19
 -1      3186 9.11149E-05-2.49723E-05-2.83256E-05 5.19955E-06 8.34437E-19-1.31254E-18
 -1      3187 5.14306E-05-1.31786E-05-1.62519E-05 2.67523E-05 1.03068E-18-1.91969E-18
 -1      3188 4.34536E-05-6.13209E-06-1.55444E-05 1.21196E-05 2.73934E-18-9.71335E-19
 -1      3189 9.52239E-05-2.87577E-05-2.84846E-05-1.11263E-06 6.23500E-19-3.63726E-19
 -1      3190 9.52107E-05-2.87247E-05-2.84925E-05-1.14101E-06 4.95312E-19-5.09896E-19
 -1      3191 9.54626E-05-2.88608E-05-2.85456E-05-1.08010E-06 4.37733E-19-6.94050E-19
 -1      3192 6.01748E-05-7.47319E-06-2.24956E-05-1.08812E-05 5.06182E-19-1.62445E-18
 -1      3193 7.73540E-05-3.04029E-05-2.00633E-05 3.75178E-05-1.08346E-18-3.52196E-18
 -1      3194 6.38380E-05-2.10651E-05-1.77394E-05 3.38637E-05 7.26860E-19-3.57977E-18
 -1      3195 9.25531E-05-1.81896E-05-3.18898E-05-6.85423E-06-3.67037E-19-1.31557E-18
 -1      3196 9.31752E-05-1.91637E-05-3.17552E-05-7.37216E-06-4.59117E-19-1.37006E-18
 -1      3197 9.41086E-05-2.11190E-05-3.12493E-05-6.13499E-06-4.75380E-19-1.20133E-18
 -1      3198 9.33080E-05-1.96041E-05-3.15554E-05-5.60372E-06-3.21713E-19-1.19607E-18
 -1      3199 7.74179E-05-1.40994E-05-2.71886E-05-7.62806E-06-9.16271E-19-5.62666E-19
 -1      3200 8.06520E-05-1.60251E-05-2.77803E-05-6.83109E-06-7.98080E-20-1.07778E-18
 -1      3201 8.06222E-05-1.60359E-05-2.75224E-05-3.74725E-06-6.52981E-19-1.08342E-18
 -1      3202 6.83015E-05-1.00224E-05-2.49239E-05-8.17900E-06-8.07586E-19-7.98130E-19
 -1      3203 7.26110E-05-1.18593E-05-2.61152E-05-7.52489E-06-8.63272E-19-1.13738E-18
 -1      3204 7.28775E-05-1.19967E-05-2.58680E-05-2.83862E-06-9.22730E-19-7.69874E-20
 -1      3205 9.54788E-05-2.54805E-05-2.99858E-05-2.21801E-06-3.61245E-19-8.76196E-19
 -1      3206 9.55234E-05-2.61940E-05-2.97242E-05-1.39577E-06-3.68036E-19-8.03071E-19
 -1      3207 9.56902E-05-2.61265E-05-2.98138E-05-1.22532E-06-2.69675E-19-7.52646E-19
 -1      3208 1.12108E-04-5.12237E-05-2.56100E-05-3.32704E-05-1.46992E-18-8.57489E-19
 -1      3209 1.22980E-04-5.59488E-05-2.92641E-05-2.49261E-05-7.84802E-19-8.69029E-19
 -1      3210 1.32756E-04-5.52339E-05-3.28054E-05-1.21840E-05-8.74614E-19-1.19302E-18
 -1      3211 1.35288E-04-5.05544E-05-3.69096E-05-8.90548E-07-5.56342E-19-8.30410E-19
 -1      3212 5.62788E-05-1.80418E-05-1.60240E-05-3.34975E-05-2.15898E-18-2.08656E-18
 -1      3213 6.96263E-05-2.81272E-05-1.76282E-05-4.05544E-05-1.80651E-18-1.83213E-18
 -1      3214 1.34326E-04-4.13937E-05-3.96659E-05 8.03525E-06 6.17064E-19 3.65283E-21
 -1      3215 1.30653E-04-3.38427E-05-4.20894E-05 1.13947E-05 9.04975E-19 2.89632E-19
 -1      3216 1.21834E-04-1.14474E-05-4.78064E-05-9.06680E-06 1.04820E-18-4.81856E-19
 -1      3217 1.27057E-04-1.82557E-05-4.69873E-05-1.24143E-05 5.85194E-19 4.42469E-19
 -1      3218 1.24338E-04-2.35996E-05-4.33993E-05-1.25666E-05 5.10708E-19 3.59274E-19
 -1      3219 8.34400E-05-3.60710E-05-1.97775E-05-4.12283E-05-1.93235E-18-1.97475E-18
 -1      3220 9.75096E-05-4.48571E-05-2.27594E-05-3.97789E-05-1.27140E-18-1.56738E-18
 -1      3221 9.23681E-05-1.83367E-05-3.17431E-05 1.80930E-06 7.77456E-19-9.05763E-19
 -1      3222 9.22488E-05-1.81343E-05-3.17750E-05 1.05600E-06 6.35275E-19-9.89638E-19
 -1      3223 1.20053E-04-7.35882E-06-4.85801E-05 5.07757E-06 2.31727E-18-2.31703E-19
 -1      3224 1.19754E-04-6.89517E-06-4.88638E-05-2.25429E-06 1.87851E-18-2.94265E-19
 -1      3225 1.18907E-04-5.25787E-05-2.73659E-05 3.11721E-05-8.47033E-21-2.66593E-18
 -1      3226 9.21881E-05-1.80338E-05-3.17934E-05 4.07290E-07 5.08613E-19-1.03013E-18
 -1      3227 9.21874E-05-1.80313E-05-3.17939E-05-3.59443E-07 4.35878E-19-1.03836E-18
 -1      3228 9.31413E-05-1.96172E-05-3.14926E-05 6.26141E-07 5.39344E-19-9.08837E-19
 -1      3229 9.43412E-05-2.19740E-05-3.09896E-05 3.62481E-06 8.28702E-19-3.66269E-19
 -1      3230 9.34280E-05-2.02099E-05-3.14051E-05 4.23964E-06 8.85735E-19-5.94134E-19
 -1      3231 9.30679E-05-1.95461E-05-3.15186E-05 3.64755E-06 8.35622E-19-6.04834E-19
 -1      3232 1.25564E-04-5.33596E-05-3.08692E-05-1.57169E-05-7.76147E-19-1.65783E-18
 -1      3233 1.30836E-04-4.56570E-05-3.66449E-05 3.57340E-06-1.33001E-19-6.76065E-19
 -1      3234 9.55189E-05-2.88015E-05-2.85957E-05-1.11601E-06 2.83710E-19-8.04779E-19
 -1      3235 1.35618E-04-5.51886E-05-3.45474E-05 9.55771E-06-1.38172E-18 1.72318E-19
 -1      3236 9.53719E-05-2.79532E-05-2.88977E-05-4.86434E-07 4.69857E-19-4.69995E-19
 -1      3237 9.54279E-05-2.76959E-05-2.90144E-05-1.55400E-07 5.96915E-19-2.53621E-19
 -1      3238 9.56893E-05-2.80029E-05-2.90132E-05-4.87004E-07 4.96061E-19-5.14203E-19
 -1      3239 9.52757E-05-2.52354E-05-3.00177E-05 3.30132E-06 7.48795E-19 6.83441E-20
 -1      3240 9.52886E-05-2.46289E-05-3.02653E-05 4.66982E-06 8.91727E-19 2.67192E-19
 -1      3241 6.57597E-05-9.02555E-06-2.43775E-05 4.74434E-06-2.10091E-19-1.38542E-18
 -1      3242 5.99281E-05-7.30840E-06-2.24410E-05 5.01528E-06-1.13076E-18-2.11986E-18
 -1      3243 9.54096E-05-2.73393E-05-2.91796E-05 2.64986E-07 4.88448E-19-2.73077E-19
 -1      3244 9.54960E-05-2.69418E-05-2.93560E-05 8.34853E-07 5.63027E-19-1.22437E-19
 -1      3245 9.56823E-05-2.73212E-05-2.93023E-05 2.09398E-07 5.86993E-19-2.32989E-19
 -1      3246 9.25444E-05-1.86320E-05-3.16872E-05 2.41786E-06 7.71281E-19-7.95508E-19
 -1      3247 9.33535E-05-2.00063E-05-3.14165E-05 1.79762E-06 7.41183E-19-8.12343E-19
 -1      3248 9.27823E-05-1.90471E-05-3.16198E-05 3.12167E-06 8.30186E-19-7.09723E-19
 -1      3249 1.36126E-04-4.08121E-05-4.12197E-05-7.86906E-06 2.29228E-19-1.08261E-19
 -1      3250 1.35243E-04-4.55312E-05-3.85028E-05-4.39125E-06-2.13532E-19 7.30910E-19
 -1      3251 1.29513E-04-3.60282E-05-4.01727E-05-1.10641E-05-3.87676E-19 7.47427E-19
 -1      3252 9.30412E-05-1.95055E-05-3.15263E-05-3.61167E-06 7.87865E-20-8.87965E-19
 -1      3253 9.34150E-05-2.01716E-05-3.14135E-05-4.22877E-06-2.79434E-20-1.03568E-18
 -1      3254 1.17702E-04-5.32707E-05-2.73701E-05 2.86273E-05-1.89889E-18-1.80736E-18
 -1      3255 9.12084E-05-2.32498E-05-2.91350E-05-4.55292E-06 1.59777E-19-5.70997E-18
 -1      3256 6.24347E-05-1.64672E-05-1.93061E-05 2.56865E-05 2.71924E-19-2.85937E-18
 -1      3257 5.13265E-05-6.61365E-06-1.87434E-05 5.62133E-06 2.28285E-18-9.47195E-19
 -1      3258 9.73774E-05-3.03123E-05-2.87388E-05 3.58599E-06-7.97949E-19 1.30319E-18
 -1      3259 9.76723E-05-3.06039E-05-2.87353E-05 2.97991E-06 2.05258E-19-1.24113E-19
 -1      3260 1.24323E-04-2.79323E-05-4.14323E-05 1.25017E-05 1.11967E-18 3.80106E-19
 -1      3261 8.95942E-05-2.21455E-05-2.88755E-05-3.48894E-06-1.48977E-18-3.44545E-18
 -1      3262 9.61038E-05-2.94896E-05-2.85745E-05 5.61543E-06-9.33283E-19 1.53247E-18
 -1      3263 9.62202E-05-2.92899E-05-2.86918E-05 4.74543E-06-1.40891E-18 2.22416E-18
 -1      3264 9.68892E-05-2.98576E-05-2.87076E-05 4.31905E-06-1.05591E-18 2.36824E-18
 -1      3265 8.60539E-05-3.52665E-05-2.12943E-05 3.73315E-05-2.43583E-18-2.85408E-18
 -1      3266 7.95350E-05-2.87255E-05-2.16972E-05 3.29205E-05-2.69446E-18-5.10713E-18
 -1      3267 9.40368E-05-4.04813E-05-2.31790E-05 3.57778E-05-2.58202E-18-3.33792E-18
 -1      3268 1.17225E-04-1.25904E-05-4.52013E-05 7.43447E-06 2.28090E-18 4.35428E-20
 -1      3269 9.44564E-05-2.23427E-05-3.09209E-05-5.09411E-06-5.17324E-19-1.06629E-18
 -1      3270 9.77352E-05-3.06553E-05-2.87390E-05 2.31447E-06 8.95119E-19-8.62899E-19
 -1      3271 9.77204E-05-3.06985E-05-2.87223E-05 1.79642E-06 1.39840E-18-5.08083E-19
 -1      3272 9.82644E-05-3.12827E-05-2.87235E-05 2.82850E-06-5.66919E-20-1.40595E-18
 -1      3273 5.97685E-05-7.06972E-06-2.23545E-05-4.49047E-06 3.05627E-19-2.73089E-19
 -1      3274 9.52265E-05-2.47656E-05-3.02097E-05-2.83398E-06-2.77432E-19-8.35516E-19
 -1      3275 9.52889E-05-2.46385E-05-3.02774E-05-2.49260E-06-3.88769E-19-8.15366E-19
 -1      3276 9.51329E-05-2.40168E-05-3.04582E-05-3.68178E-06-3.85350E-19-8.42086E-19
 -1      3277 1.17491E-04-9.96612E-06-4.64323E-05-5.93227E-06 1.25218E-18-6.84072E-19
 -1      3278 1.14957E-04-1.40388E-05-4.34428E-05-8.36797E-06 1.14169E-18-4.68669E-19
 -1      3279 1.12631E-04-9.35710E-06-4.43810E-05-2.50167E-06 1.45044E-18-1.07876E-18
 -1      3280 4.86505E-05-5.34008E-06-1.84616E-05-3.60168E-06-1.73660E-18-2.37450E-18
 -1      3281 5.29102E-05-1.26889E-05-1.67224E-05-2.59348E-05-1.89256E-18-2.92332E-18
 -1      3282 6.19203E-05-1.71145E-05-1.91490E-05-2.79952E-05-1.90228E-18-2.89431E-18
 -1      3283 5.18987E-05-8.60890E-06-1.83029E-05-1.62581E-05-1.90870E-18-1.58316E-18
 -1      3284 1.04729E-04-4.58599E-05-2.50454E-05-3.27181E-05-1.61219E-18-9.83167E-19
 -1      3285 7.98539E-05-3.11282E-05-2.05412E-05-3.69154E-05-2.22481E-18-2.01700E-18
 -1      3286 8.89142E-05-2.18263E-05-2.87476E-05-2.39812E-06-2.02140E-18-3.21007E-18
 -1      3287 9.25316E-05-1.86092E-05-3.16920E-05-2.37773E-06 3.40321E-19-8.92108E-19
 -1      3288 9.27580E-05-1.90013E-05-3.16262E-05-3.09150E-06 2.31863E-19-9.14471E-19
 -1      3289 9.37356E-05-2.07444E-05-3.12641E-05-2.82530E-06 1.08026E-19-7.93202E-19
 -1      3290 8.75248E-05-2.11418E-05-2.84772E-05-1.24128E-06-2.01027E-18-3.69382E-18
 -1      3291 9.53770E-05-2.63261E-05-2.96049E-05 1.54617E-06 6.05812E-19-2.64284E-19
 -1      3292 9.53759E-05-2.56360E-05-2.98608E-05 2.47272E-06 6.71558E-19-8.43952E-20
 -1      3293 6.69684E-05-9.60886E-06-2.43247E-05-1.03595E-06-5.09600E-19-2.01739E-18
 -1      3294 9.52767E-05-2.49701E-05-3.01530E-05 3.04628E-06 7.52970E-19-1.55261E-19
 -1      3295 9.55739E-05-2.62675E-05-2.97232E-05 1.40126E-06 6.55755E-19-3.34938E-19
 -1      3296 1.19806E-04-5.08229E-05-2.91371E-05-1.83472E-05-9.40733E-19-7.85808E-19
 -1      3297 1.25536E-04-5.18037E-05-3.20520E-05-8.64132E-06-1.08206E-18-1.10099E-18
 -1      3298 9.60209E-05-2.68505E-05-2.96355E-05-4.81871E-07-1.03636E-19-5.26846E-19
 -1      3299 9.60743E-05-2.73544E-05-2.94591E-05-5.79427E-08-1.70423E-20-5.07510E-19
 -1      3300 5.73330E-05-6.26274E-06-2.14278E-05 2.35882E-07-1.55260E-18-2.14818E-18
 -1      3301 9.51007E-05-2.41489E-05-3.04015E-05 3.08781E-06 7.50865E-19-2.60134E-19
 -1      3302 9.61609E-05-2.77837E-05-2.92968E-05 2.29054E-07-3.18127E-20-4.66882E-19
 -1      3303 9.61581E-05-2.81089E-05-2.91686E-05 4.89714E-07 4.68066E-20-3.35205E-19
 -1      3304 9.62573E-05-2.74036E-05-2.95089E-05-4.91939E-09 6.27978E-20-2.49449E-19
 -1      3305 9.61691E-05-2.83772E-05-2.90479E-05 6.57673E-07-3.07635E-20-2.99764E-19
 -1      3306 9.61397E-05-2.85787E-05-2.89571E-05 7.99571E-07-7.97906E-20-3.57914E-19
 -1      3307 9.63549E-05-2.81782E-05-2.92201E-05 4.69998E-07 2.16282E-22-1.94023E-19
 -1      3308 9.61070E-05-2.87354E-05-2.88695E-05 8.81461E-07-1.68664E-19-3.43686E-19
 -1      3309 9.60666E-05-2.88517E-05-2.88072E-05 9.41959E-07-1.12570E-19-2.70992E-19
 -1      3310 9.63350E-05-2.86590E-05-2.90060E-05 7.38878E-07-1.33845E-19-2.04966E-19
 -1      3311 9.60107E-05-2.89320E-05-2.87454E-05 9.65873E-07-1.79891E-19-6.25048E-19
 -1      3312 9.59673E-05-2.89896E-05-2.87045E-05 9.74194E-07-3.87758E-19-4.19946E-19
 -1      3313 9.62488E-05-2.89339E-05-2.88514E-05 8.61524E-07-2.28543E-19-6.43749E-19
 -1      3314 9.59010E-05-2.90182E-05-2.86626E-05 9.62325E-07-6.45588E-19-4.21398E-19
 -1      3315 9.58586E-05-2.90357E-05-2.86375E-05 9.40206E-07-6.17734E-19-1.73753E-19
 -1      3316 9.61290E-05-2.90665E-05-2.87432E-05 8.87870E-07-4.32381E-19-6.98294E-19
 -1      3317 9.57926E-05-2.90303E-05-2.86118E-05 9.10925E-07-3.81876E-19-6.16261E-20
 -1      3318 9.57554E-05-2.90222E-05-2.85987E-05 8.76505E-07-1.98294E-19 3.11661E-20
 -1      3319 9.59992E-05-2.91027E-05-2.86718E-05 8.58359E-07-3.59822E-19-6.73203E-19
 -1      3320 9.56874E-05-2.89942E-05-2.85828E-05 8.38580E-07-1.08654E-19 1.68851E-19
 -1      3321 9.56512E-05-2.89669E-05-2.85776E-05 7.99117E-07 8.13049E-20 1.80499E-19
 -1      3322 9.58671E-05-2.90749E-05-2.86268E-05 8.00320E-07-1.76391E-19-4.48055E-19
 -1      3323 9.55852E-05-2.89223E-05-2.85702E-05 7.62032E-07 2.37218E-19 3.95214E-19
 -1      3324 9.55516E-05-2.88813E-05-2.85715E-05 7.27374E-07 4.11954E-19 4.45853E-19
 -1      3325 9.57347E-05-2.90022E-05-2.86009E-05 7.32708E-07 3.50667E-19-7.53427E-20
 -1      3326 9.54873E-05-2.88243E-05-2.85707E-05 6.97310E-07 1.59602E-19 2.70365E-19
 -1      3327 9.54543E-05-2.87717E-05-2.85768E-05 6.73369E-07 6.70033E-20 1.36725E-20
 -1      3328 9.56061E-05-2.88967E-05-2.85906E-05 6.71223E-07 9.89849E-20-7.26789E-20
 -1      3329 9.53888E-05-2.87030E-05-2.85808E-05 6.54409E-07-3.07081E-19-4.16884E-19
 -1      3330 9.53534E-05-2.86383E-05-2.85908E-05 6.45657E-07-7.09458E-19-8.83325E-19
 -1      3331 9.54779E-05-2.87644E-05-2.85919E-05 6.25983E-07-5.46564E-19-1.30648E-19
 -1      3332 9.52818E-05-2.85557E-05-2.85985E-05 6.40473E-07-9.14701E-19-1.13341E-18
 -1      3333 9.52388E-05-2.84756E-05-2.86116E-05 6.50488E-07-8.38761E-19-1.20304E-18
 -1      3334 9.53429E-05-2.86045E-05-2.86020E-05 6.03577E-07-8.61607E-19-8.77031E-19
 -1      3335 9.51536E-05-2.83739E-05-2.86220E-05 6.60532E-07-4.46637E-19-9.69259E-19
 -1      3336 9.50952E-05-2.82719E-05-2.86378E-05 6.92284E-07-2.74933E-19-1.30645E-18
 -1      3337 9.51887E-05-2.84103E-05-2.86184E-05 6.07683E-07-6.18766E-19-9.66841E-19
 -1      3338 9.49849E-05-2.81422E-05-2.86497E-05 7.17583E-07-7.46494E-20-1.20068E-18
 -1      3339 9.48990E-05-2.80077E-05-2.86676E-05 7.73403E-07 2.38802E-19-6.46598E-19
 -1      3340 9.49971E-05-2.81683E-05-2.86389E-05 6.38837E-07-9.06949E-20-4.87792E-19
 -1      3341 9.47469E-05-2.78365E-05-2.86797E-05 8.11871E-07-8.03334E-20-5.34086E-19
 -1      3342 9.46144E-05-2.76536E-05-2.86985E-05 8.92903E-07 7.13033E-20-6.10222E-19
 -1      3343 9.47407E-05-2.78571E-05-2.86608E-05 6.93298E-07 1.43272E-19-1.80876E-19
 -1      3344 9.43959E-05-2.74215E-05-2.87084E-05 9.38865E-07 1.46184E-19-7.69862E-19
 -1      3345 9.41876E-05-2.71676E-05-2.87258E-05 1.04366E-06 1.60254E-20-8.05552E-19
 -1      3346 9.43795E-05-2.74457E-05-2.86800E-05 7.60484E-07-2.50436E-19 7.13958E-20
 -1      3347 9.38672E-05-2.68479E-05-2.87293E-05 1.08516E-06-1.90166E-19-8.37760E-19
 -1      3348 9.35381E-05-2.64913E-05-2.87407E-05 1.20686E-06 1.45388E-19-8.31418E-19
 -1      3349 9.38556E-05-2.68913E-05-2.86896E-05 8.18203E-07-1.79013E-20-1.27851E-19
 -1      3350 9.30656E-05-2.60492E-05-2.87302E-05 1.22117E-06 1.19843E-19-4.49511E-19
 -1      3351 9.25481E-05-2.55482E-05-2.87263E-05 1.34247E-06 5.10887E-20-9.60870E-19
 -1      3352 9.30865E-05-2.61383E-05-2.86775E-05 8.24569E-07 2.38869E-19-7.03883E-20
 -1      3353 9.18541E-05-2.49409E-05-2.86884E-05 1.28897E-06-1.79319E-19-5.08518E-19
 -1      3354 9.10489E-05-2.42442E-05-2.86521E-05 1.37373E-06-5.68498E-19-7.93541E-19
 -1      3355 9.19568E-05-2.51194E-05-2.86225E-05 7.05123E-07-1.56383E-20 2.41002E-19
 -1      3356 9.00408E-05-2.34253E-05-2.85636E-05 1.18356E-06-3.16201E-19-1.14020E-18
 -1      3357 8.88059E-05-2.24767E-05-2.84633E-05 1.16443E-06 1.28677E-19-3.89859E-19
 -1      3358 9.03113E-05-2.37623E-05-2.84882E-05 3.33492E-07-3.54302E-19 1.54065E-19
 -1      3359 8.73655E-05-2.14065E-05-2.82845E-05 7.26965E-07 3.09295E-19-4.55009E-19
 -1      3360 8.55038E-05-2.01576E-05-2.80628E-05 4.86427E-07-1.74381E-19 4.42186E-20
 -1      3361 8.79493E-05-2.20090E-05-2.82131E-05-4.96226E-07 3.05329E-19-1.41072E-19
 -1      3362 8.36013E-05-1.89069E-05-2.77468E-05-3.19925E-07-6.80798E-19-3.22216E-19
 -1      3363 8.10095E-05-1.74260E-05-2.73374E-05-9.02868E-07-4.33592E-19-4.58950E-19
 -1      3364 8.47297E-05-1.99141E-05-2.77124E-05-2.04895E-06-2.80188E-19-3.12745E-19
 -1      3365 7.83061E-05-1.59353E-05-2.67492E-05-2.37266E-06-4.99187E-19-7.61277E-19
 -1      3366 7.44294E-05-1.41421E-05-2.59384E-05-3.63017E-06-4.25149E-19-1.46443E-18
 -1      3367 8.03276E-05-1.75202E-05-2.68196E-05-4.76878E-06-9.23976E-19-1.20448E-18
 -1      3368 9.59161E-05-2.85154E-05-2.88883E-05-8.55488E-07 1.98144E-19-3.01297E-19
 -1      3369 9.59470E-05-2.83269E-05-2.89735E-05-7.04598E-07 3.89170E-19-5.38663E-19
 -1      3370 8.56130E-05-2.00846E-05-2.81277E-05-4.40650E-07-1.46251E-18-3.59773E-18
 -1      3371 8.61223E-05-2.07473E-05-2.79839E-05 2.28440E-06-1.00820E-18-4.71182E-18
 -1      3372 8.33617E-05-1.86759E-05-2.77813E-05-1.36647E-07-1.22742E-18-3.94044E-18
 -1      3373 1.21005E-04-5.30998E-05-2.92996E-05 2.10172E-05-2.25135E-18 5.21137E-19
 -1      3374 1.09938E-04-4.82295E-05-2.60262E-05 2.97638E-05-2.64860E-18-1.72385E-18
 -1      3375 9.58491E-05-2.87726E-05-2.87478E-05-1.01037E-06 1.37620E-19-4.77265E-19
 -1      3376 9.58826E-05-2.86619E-05-2.88044E-05-9.47347E-07 9.85717E-20-2.81625E-19
 -1      3377 9.61463E-05-2.85975E-05-2.89520E-05-8.04713E-07 2.34314E-19-3.34559E-19
 -1      3378 6.97626E-05-1.16900E-05-2.49542E-05 2.45003E-06-1.88250E-18-2.02085E-18
 -1      3379 7.46460E-05-1.39017E-05-2.61125E-05 1.40207E-06-5.32522E-19-1.75415E-18
 -1      3380 9.76750E-05-3.08079E-05-2.86798E-05 4.32567E-06-2.42904E-19 9.41558E-19
 -1      3381 9.55213E-05-2.89132E-05-2.85449E-05-8.42621E-07-1.16825E-19 1.73100E-19
 -1      3382 9.55416E-05-2.89308E-05-2.85475E-05-8.88143E-07-6.31791E-20 6.37306E-20
 -1      3383 9.55977E-05-2.89524E-05-2.85610E-05-9.31086E-07 1.68616E-19-1.41353E-19
 -1      3384 9.56219E-05-2.89548E-05-2.85710E-05-9.72322E-07 5.10252E-19-2.05524E-19
 -1      3385 9.57337E-05-2.90173E-05-2.85943E-05-8.66803E-07 6.22868E-20 5.30339E-20
 -1      3386 9.53929E-05-2.87822E-05-2.85460E-05-6.89150E-07 7.27154E-21-1.89141E-20
 -1      3387 9.54060E-05-2.88132E-05-2.85404E-05-7.22504E-07-1.92834E-19 2.71802E-19
 -1      3388 9.53431E-05-2.87094E-05-2.85558E-05-6.42458E-07-2.65769E-19 4.83532E-19
 -1      3389 9.53519E-05-2.87407E-05-2.85485E-05-6.64285E-07-2.35735E-19 1.86762E-19
 -1      3390 9.54433E-05-2.87995E-05-2.85624E-05-6.57897E-07-1.01064E-19 1.85247E-19
 -1      3391 9.53058E-05-2.86430E-05-2.85683E-05-6.21838E-07 1.59684E-19 8.56849E-19
 -1      3392 9.53088E-05-2.86703E-05-2.85602E-05-6.30923E-07 1.76874E-19 1.00910E-18
 -1      3393 9.53683E-05-2.87118E-05-2.85677E-05-6.24303E-07-4.27152E-19 1.83082E-19
 -1      3394 9.52860E-05-2.85929E-05-2.85812E-05-6.28070E-07 1.77722E-20 5.46414E-19
 -1      3395 9.52803E-05-2.86109E-05-2.85734E-05-6.24879E-07 2.24474E-19 7.67823E-19
 -1      3396 9.53084E-05-2.86331E-05-2.85759E-05-6.18301E-07 1.47360E-19 4.59455E-19
 -1      3397 9.52926E-05-2.85727E-05-2.85927E-05-6.58743E-07 5.31330E-20-2.78462E-19
 -1      3398 9.52737E-05-2.85743E-05-2.85859E-05-6.45632E-07 1.22507E-19 1.13309E-19
 -1      3399 9.52700E-05-2.85753E-05-2.85844E-05-6.41714E-07 2.53305E-19-8.60349E-20
 -1      3400 9.53405E-05-2.86012E-05-2.86011E-05-7.07388E-07 4.92558E-20-1.10139E-19
 -1      3401 9.53008E-05-2.85764E-05-2.85961E-05-6.89175E-07 4.95300E-20-6.02189E-20
 -1      3402 9.52643E-05-2.85547E-05-2.85913E-05-6.93761E-07-1.03495E-19-3.24246E-19
 -1      3403 9.54519E-05-2.87041E-05-2.86048E-05-7.61766E-07-1.09483E-18 7.53165E-19
 -1      3404 9.53807E-05-2.86395E-05-2.86024E-05-7.46673E-07-3.90671E-19 2.08975E-19
 -1      3405 9.53098E-05-2.85942E-05-2.85947E-05-7.70088E-07-6.05255E-19-2.73703E-19
 -1      3406 9.56582E-05-2.89145E-05-2.86034E-05-8.01273E-07-1.23746E-18 5.41871E-19
 -1      3407 9.55413E-05-2.87935E-05-2.86037E-05-8.02224E-07-1.27688E-18 3.74952E-19
 -1      3408 9.54351E-05-2.87251E-05-2.85937E-05-8.60846E-07-8.89675E-19-3.07667E-21
 -1      3409 9.60004E-05-2.92713E-05-2.85977E-05-7.93363E-07-1.21219E-18 1.34464E-18
 -1      3410 9.58203E-05-2.90754E-05-2.86003E-05-8.29570E-07-1.21484E-18 5.42558E-19
 -1      3411 9.56803E-05-2.89875E-05-2.85882E-05-9.47477E-07-1.42174E-18-6.40612E-19
 -1      3412 9.65259E-05-2.98137E-05-2.85917E-05-6.89260E-07-1.20932E-18 1.32281E-18
 -1      3413 9.62645E-05-2.95259E-05-2.85947E-05-7.87777E-07-1.16726E-18 1.38125E-18
 -1      3414 9.60983E-05-2.94286E-05-2.85809E-05-9.97912E-07-1.30116E-18 4.42039E-20
 -1      3415 9.72809E-05-3.05682E-05-2.85942E-05-4.19972E-07-1.90461E-19 7.71944E-19
 -1      3416 9.69244E-05-3.01807E-05-2.85931E-05-6.16431E-07-7.15525E-19 1.33283E-18
 -1      3417 9.67516E-05-3.00952E-05-2.85784E-05-9.60138E-07-8.36573E-19 5.06101E-19
 -1      3418 9.82928E-05-3.15260E-05-2.86211E-05 1.04626E-07-9.08587E-19 5.76141E-19
 -1      3419 9.78416E-05-3.10530E-05-2.86082E-05-2.32158E-07-3.28029E-19 1.09038E-18
 -1      3420 9.77021E-05-3.10176E-05-2.85937E-05-7.55046E-07-3.10443E-19-5.55156E-20
 -1      3421 9.95420E-05-3.26085E-05-2.86973E-05 9.87376E-07-9.25472E-19 1.09473E-18
 -1      3422 9.90238E-05-3.21038E-05-2.86607E-05 4.68687E-07-1.01441E-18 1.01777E-18
 -1      3423 9.89896E-05-3.21808E-05-2.86493E-05-2.72086E-07-1.23450E-18 7.19286E-19
 -1      3424 1.00923E-04-3.36279E-05-2.88576E-05 2.31467E-06-1.50736E-18 1.49922E-18
 -1      3425 1.00408E-04-3.32029E-05-2.87812E-05 1.59128E-06-1.28002E-18 1.61502E-18
 -1      3426 1.00592E-04-3.34801E-05-2.87790E-05 6.22898E-07-1.27399E-18 1.53720E-18
 -1      3427 1.02213E-04-3.42583E-05-2.91429E-05 4.10050E-06-7.81835E-19 1.43818E-18
 -1      3428 1.01822E-04-3.40922E-05-2.90093E-05 3.19798E-06-8.19240E-19 1.67726E-18
 -1      3429 1.02376E-04-3.46721E-05-2.90279E-05 2.04908E-06-1.20672E-18 2.31742E-18
 -1      3430 1.03054E-04-3.40420E-05-2.95910E-05 6.19836E-06-7.63293E-20 8.85855E-19
 -1      3431 1.02954E-04-3.43667E-05-2.93855E-05 5.23466E-06-2.19766E-19 1.07271E-18
 -1      3432 1.04060E-04-3.53548E-05-2.94475E-05 4.05669E-06-3.80225E-19 1.09991E-18
 -1      3433 1.03056E-04-3.25474E-05-3.02168E-05 8.15865E-06-3.98524E-19-6.18495E-20
 -1      3434 1.03373E-04-3.35371E-05-2.99389E-05 7.38218E-06-2.79501E-19-5.55832E-20
 -1      3435 1.05159E-04-3.49229E-05-3.00821E-05 6.43097E-06 2.39692E-19 5.66691E-19
 -1      3436 1.01963E-04-2.96053E-05-3.09842E-05 9.23641E-06 7.43069E-19-2.16460E-19
 -1      3437 1.02707E-04-3.12595E-05-3.06581E-05 9.01398E-06-2.17254E-19-1.64222E-19
 -1      3438 1.05164E-04-3.28874E-05-3.09373E-05 8.66496E-06 4.61898E-21-3.89142E-19
 -1      3439 9.99567E-05-2.57065E-05-3.17754E-05 8.50602E-06 8.20970E-19 8.33735E-19
 -1      3440 1.00933E-04-2.76543E-05-3.14615E-05 9.21322E-06 1.54484E-18 8.06279E-19
 -1      3441 1.03778E-04-2.91513E-05-3.19447E-05 9.74029E-06 7.40452E-19 6.47648E-19
 -1      3442 9.78562E-05-2.21002E-05-3.24089E-05 5.70244E-06 1.65310E-19 3.71768E-20
 -1      3443 9.87261E-05-2.37536E-05-3.21791E-05 7.32052E-06 2.32577E-19 2.98741E-19
 -1      3444 1.01568E-04-2.48959E-05-3.28597E-05 8.52984E-06 9.68304E-19 1.08443E-18
 -1      3445 9.67590E-05-2.04193E-05-3.27079E-05 9.28298E-07-3.27021E-19-4.12913E-19
 -1      3446 9.69575E-05-2.09025E-05-3.26385E-05 3.11558E-06 4.13185E-20-8.98417E-20
 -1      3447 9.91565E-05-2.05700E-05-3.36395E-05 4.92412E-06 1.94637E-19 1.87952E-19
 -1      3448 9.72626E-05-2.13922E-05-3.25670E-05-4.01072E-06-1.28009E-18 1.00440E-20
 -1      3449 9.68660E-05-2.05827E-05-3.26779E-05-1.88103E-06-1.09084E-18-6.88360E-19
 -1      3450 9.86485E-05-1.97470E-05-3.38057E-05-5.24009E-07-7.77474E-19-1.89414E-19
 -1      3451 9.92329E-05-2.46272E-05-3.20286E-05-7.71136E-06-6.94704E-19 2.55615E-19
 -1      3452 9.83183E-05-2.28468E-05-3.22886E-05-6.28169E-06-1.13067E-18-1.00348E-19
 -1      3453 9.96779E-05-2.15645E-05-3.34565E-05-5.75278E-06-1.30897E-18-1.37252E-18
 -1      3454 1.01474E-04-2.86442E-05-3.12664E-05-9.09218E-06 2.54755E-20-1.81787E-19
 -1      3455 1.00502E-04-2.66932E-05-3.15918E-05-8.65355E-06-1.49303E-19 2.63974E-19
 -1      3456 1.02116E-04-2.57475E-05-3.27059E-05-8.86194E-06-4.13668E-19-1.46407E-18
 -1      3457 1.03024E-04-3.19953E-05-3.04737E-05-8.45115E-06 1.47635E-20-8.26647E-20
 -1      3458 1.02360E-04-3.04695E-05-3.07926E-05-8.84561E-06 3.51391E-19 2.79095E-19
 -1      3459 1.04313E-04-3.02420E-05-3.17055E-05-9.39031E-06-5.85226E-20-1.77006E-18
 -1      3460 1.03431E-04-3.39378E-05-2.97907E-05-6.59125E-06 3.00441E-19 4.63654E-19
 -1      3461 1.03222E-04-3.31099E-05-3.00528E-05-7.45518E-06-1.79491E-19 1.12918E-19
 -1      3462 1.05395E-04-3.36175E-05-3.07285E-05-7.93063E-06-2.54363E-19-4.68855E-19
 -1      3463 1.02806E-04-3.44546E-05-2.92831E-05-4.38098E-06-5.74107E-19 1.37693E-18
 -1      3464 1.03002E-04-3.42793E-05-2.94697E-05-5.36378E-06 2.83033E-19 7.87607E-19
 -1      3465 1.05120E-04-3.52572E-05-2.99255E-05-5.55474E-06-4.07229E-19 5.50068E-19
 -1      3466 1.01555E-04-3.39521E-05-2.89533E-05-2.39587E-06-1.58030E-19 2.99192E-18
 -1      3467 1.02003E-04-3.42234E-05-2.90683E-05-3.27496E-06-2.05595E-19 2.34248E-18
 -1      3468 1.03838E-04-3.53549E-05-2.93516E-05-3.17195E-06-7.84258E-19 1.55739E-18
 -1      3469 1.00081E-04-3.28872E-05-2.87689E-05-9.13076E-07 1.41414E-19 1.87377E-18
 -1      3470 1.00619E-04-3.33863E-05-2.88287E-05-1.56224E-06 1.87827E-19 1.95000E-18
 -1      3471 1.02058E-04-3.44510E-05-2.89911E-05-1.25035E-06-3.12920E-19 1.26497E-18
 -1      3472 9.86334E-05-3.16665E-05-2.86859E-05 1.09847E-07-2.26398E-19 4.39481E-19
 -1      3473 9.91976E-05-3.22445E-05-2.87072E-05-3.35169E-07-5.44337E-19 1.46363E-18
 -1      3474 1.00293E-04-3.31643E-05-2.87953E-05 6.36632E-08 8.79236E-19-1.68462E-18
 -1      3475 5.90335E-05-8.32489E-06-2.16502E-05 6.93205E-06 6.71022E-19-5.25002E-19
 -1      3476 1.22318E-04-3.16125E-05-3.87136E-05 1.24144E-05 1.07833E-18 4.39756E-19
 -1      3477 1.17552E-04-2.34202E-05-4.06549E-05 1.24296E-05 1.53834E-18 6.18956E-19
 -1      3478 9.45607E-05-2.25901E-05-3.08370E-05-3.25526E-06-1.73861E-19-8.96470E-19
 -1      3479 9.40698E-05-2.15672E-05-3.10798E-05-4.20964E-06-1.94843E-19-9.66144E-19
 -1      3480 8.69566E-05-2.17477E-05-2.79473E-05 4.01526E-06 2.69983E-19-2.97513E-18
 -1      3481 9.56805E-05-2.89567E-05-2.85950E-05-1.00666E-06 4.11747E-19-3.78929E-19
 -1      3482 9.57086E-05-2.89352E-05-2.86157E-05-1.03204E-06 2.57399E-19-5.35616E-19
 -1      3483 9.58462E-05-2.90345E-05-2.86354E-05-9.35310E-07 2.40984E-19-8.25753E-20
 -1      3484 9.54119E-05-2.48686E-05-3.02035E-05 2.24855E-06 6.73180E-19-2.74889E-19
 -1      3485 9.49406E-05-2.35811E-05-3.06081E-05 3.01561E-06 7.83515E-19-2.83298E-19
 -1      3486 9.46866E-05-2.28801E-05-3.07752E-05 2.78622E-06 7.50429E-19-3.40758E-19
 -1      3487 6.96975E-05-1.96705E-05-2.14432E-05 2.56863E-05-1.81775E-18-5.07023E-18
 -1      3488 6.00154E-05-1.19142E-05-2.04086E-05 1.83246E-05-2.36190E-19-2.54062E-18
 -1      3489 1.34662E-04-5.18569E-05-3.57576E-05 2.73676E-06-1.37230E-18 1.73472E-18
 -1      3490 1.29405E-04-5.39198E-05-3.23224E-05 1.08619E-05-1.87627E-18 3.95386E-19
 -1      3491 1.30742E-04-4.70174E-05-3.59465E-05-2.62408E-06-1.14928E-18 8.07222E-19
 -1      3492 9.44053E-05-2.22449E-05-3.09425E-05-4.48612E-06-2.86554E-19-9.34811E-19
 -1      3493 9.56526E-05-2.54352E-05-3.00873E-05-1.55337E-06-3.38789E-19-6.30680E-19
 -1      3494 9.58107E-05-2.61880E-05-2.98488E-05-9.19300E-07-1.97054E-19-6.29653E-19
 -1      3495 9.59679E-05-2.62187E-05-2.98898E-05-7.50364E-07-1.31489E-19-2.77142E-19
 -1      3496 1.28041E-04-4.72232E-05-3.43088E-05 1.46215E-06-7.70985E-19-1.14903E-18
 -1      3497 1.25737E-04-4.12510E-05-3.66410E-05 7.92928E-06 2.20632E-19-2.70918E-19
 -1      3498 9.22333E-05-1.81187E-05-3.17762E-05-1.00962E-06 3.97843E-19-1.13684E-18
 -1      3499 9.23468E-05-1.83156E-05-3.17457E-05-1.74845E-06 3.42347E-19-9.72900E-19
 -1      3500 9.33684E-05-2.00070E-05-3.14197E-05-1.78202E-06 3.11044E-19-1.02069E-18
 -1      3501 9.75162E-05-3.05095E-05-2.87067E-05 1.26030E-06 1.55247E-18-7.66102E-20
 -1      3502 9.73416E-05-3.04188E-05-2.86794E-05 8.32945E-07 1.09474E-18 3.57336E-19
 -1      3503 9.76297E-05-3.07202E-05-2.86738E-05 6.51522E-07 8.12807E-19 1.14166E-18
 -1      3504 9.81719E-05-3.11665E-05-2.87156E-05 1.58533E-06 2.30595E-19-5.46739E-19
 -1      3505 9.57665E-05-2.89062E-05-2.86541E-05-1.04472E-06 4.45441E-19-5.43542E-19
 -1      3506 9.57981E-05-2.88487E-05-2.86898E-05-1.03758E-06 4.07815E-19-4.94667E-19
 -1      3507 9.60655E-05-2.88618E-05-2.88041E-05-9.41835E-07 2.64679E-19-3.62477E-19
 -1      3508 9.55708E-05-2.57538E-05-2.99312E-05 1.44818E-06 6.10277E-19-2.33989E-19
 -1      3509 1.18164E-04-2.04998E-05-4.21155E-05-1.21431E-05 1.31137E-18-5.64574E-19
 -1      3510 1.22551E-04-2.74039E-05-4.09112E-05-1.29002E-05 3.42413E-19-8.92561E-20
 -1      3511 5.50551E-05-6.70966E-06-2.05087E-05-4.32719E-06-1.96297E-18-2.26793E-18
 -1      3512 5.25417E-05-7.03943E-06-1.90184E-05-1.10773E-05-2.03478E-18-1.84611E-18
 -1      3513 5.74046E-05-1.00751E-05-2.03925E-05-1.57923E-05-1.65887E-18-2.52540E-18
 -1      3514 5.87351E-05-7.96633E-06-2.18647E-05-6.41532E-06-1.29202E-18-3.04553E-18
 -1      3515 9.80610E-05-4.02120E-05-2.43630E-05-3.19321E-05-1.74317E-18-9.99903E-19
 -1      3516 1.08683E-04-4.72278E-05-2.67461E-05-2.74143E-05-1.12748E-18-1.07477E-18
 -1      3517 7.53005E-05-2.52347E-05-2.09332E-05-3.24621E-05-1.40281E-18-2.47357E-18
 -1      3518 8.56580E-05-3.31877E-05-2.26871E-05-3.37576E-05-1.63583E-18-1.44906E-18
 -1      3519 9.54528E-05-2.88530E-05-2.85413E-05-7.58200E-07-3.82424E-19 3.31241E-19
 -1      3520 9.54695E-05-2.88797E-05-2.85389E-05-8.00176E-07-2.62103E-19 6.95325E-20
 -1      3521 9.56276E-05-2.89628E-05-2.85718E-05-7.88026E-07-1.53079E-19 4.27809E-19
 -1      3522 9.55303E-05-2.88863E-05-2.85626E-05-7.14785E-07-3.59159E-19 5.70597E-21
 -1      3523 7.05671E-05-1.25404E-05-2.48971E-05-5.61385E-06-9.39412E-19-2.46125E-18
 -1      3524 6.53315E-05-1.06061E-05-2.34288E-05-7.33437E-06-1.15549E-18-3.22563E-18
 -1      3525 7.40583E-05-1.48308E-05-2.52212E-05-9.01372E-06-1.39139E-18-2.28777E-18
 -1      3526 1.14213E-04-1.53686E-05-4.24704E-05 9.33098E-06 2.23521E-18 1.68890E-19
 -1      3527 1.12130E-04-1.04329E-05-4.39149E-05 3.95610E-06 2.03971E-18-1.45504E-19
 -1      3528 7.78611E-05-1.55983E-05-2.67616E-05 9.20303E-07-9.41725E-19-1.97371E-18
 -1      3529 8.10143E-05-1.73680E-05-2.73727E-05 2.76745E-07-1.56523E-18-2.96459E-18
 -1      3530 8.19873E-05-1.81847E-05-2.71608E-05 4.02232E-06-1.69091E-18-5.54806E-18
 -1      3531 7.67180E-05-1.54667E-05-2.60520E-05 5.59426E-06-1.63659E-18-3.67440E-18
 -1      3532 6.65815E-05-1.16217E-05-2.33888E-05 8.28531E-06-1.63778E-18-2.58757E-18
 -1      3533 9.59053E-05-2.73858E-05-2.93766E-05 8.65526E-08 5.82448E-19-2.67836E-19
 -1      3534 9.59087E-05-2.69225E-05-2.95470E-05 5.31572E-07 5.65840E-19-2.60481E-19
 -1      3535 9.57167E-05-2.57538E-05-2.99884E-05 1.24070E-06 6.63230E-19-2.82851E-19
 -1      3536 1.09852E-04-1.21045E-05-4.20938E-05 5.61481E-07 1.42736E-18-1.29461E-18
 -1      3537 1.12781E-04-4.66792E-05-2.82253E-05-1.96617E-05-1.20701E-18-1.15889E-18
 -1      3538 9.38628E-05-2.10445E-05-3.12197E-05 8.06116E-07 6.10589E-19-7.81791E-19
 -1      3539 9.38137E-05-2.09447E-05-3.12390E-05 2.44543E-07 4.75264E-19-9.63474E-19
 -1      3540 9.59458E-05-2.80775E-05-2.90912E-05-5.16225E-07 4.50020E-19-3.79402E-19
 -1      3541 9.59640E-05-2.77743E-05-2.92149E-05-2.37776E-07 4.96623E-19-3.52108E-19
 -1      3542 9.61754E-05-2.81404E-05-2.91605E-05-5.02916E-07 4.60625E-19-4.24312E-19
 -1      3543 1.20593E-04-3.58893E-05-3.63485E-05 9.89938E-06 7.89201E-19-2.10514E-19
 -1      3544 7.04559E-05-1.44593E-05-2.39094E-05 1.25283E-05-1.65240E-18-4.74034E-18
 -1      3545 9.59600E-05-2.89929E-05-2.87023E-05-9.70928E-07 3.04831E-19-2.48430E-19
 -1      3546 9.37606E-05-2.07873E-05-3.12557E-05 2.83512E-06 7.82617E-19-6.48614E-19
 -1      3547 1.24152E-04-3.20874E-05-3.97389E-05-1.20690E-05-8.11061E-19 7.91049E-20
 -1      3548 1.25381E-04-3.64105E-05-3.81228E-05-1.05188E-05-8.21225E-19-4.23265E-19
 -1      3549 1.18853E-04-2.85874E-05-3.87327E-05-1.25832E-05-1.97584E-19 5.22884E-19
 -1      3550 1.24368E-04-5.30275E-05-3.05484E-05 1.44471E-05-2.56844E-18 1.13985E-18
 -1      3551 1.16848E-04-4.90496E-05-2.90942E-05 1.68752E-05-2.60349E-18 1.64551E-18
 -1      3552 1.24224E-04-5.01740E-05-3.17322E-05 7.48946E-06-1.89092E-18 1.48821E-18
 -1      3553 1.02128E-04-4.23911E-05-2.54155E-05 2.88262E-05-2.34326E-18-2.27853E-18
 -1      3554 9.82987E-05-3.14554E-05-2.86424E-05 5.09042E-06 4.39732E-19 2.23571E-18
 -1      3555 9.88868E-05-3.19144E-05-2.86873E-05 4.25574E-06 9.11483E-19-5.81888E-19
 -1      3556 9.32082E-05-2.74031E-05-2.82445E-05 7.21570E-06 7.09233E-19 1.18893E-18
 -1      3557 9.47868E-05-2.85597E-05-2.83287E-05 7.18384E-06-8.65963E-20 8.84191E-19
 -1      3558 9.44596E-05-2.23204E-05-3.09173E-05-2.74103E-06-1.26340E-19-6.67740E-19
 -1      3559 9.50242E-05-2.36150E-05-3.05998E-05-2.73250E-06-2.85509E-19-7.84522E-19
 -1      3560 9.52641E-05-2.44109E-05-3.03748E-05-2.09080E-06-3.20064E-19-7.69134E-19
 -1      3561 9.79132E-05-3.10269E-05-2.86690E-05 3.95948E-07 5.70312E-19 1.35769E-18
 -1      3562 9.40857E-05-2.15078E-05-3.11195E-05 1.75843E-06 7.31878E-19-8.07141E-19
 -1      3563 9.39499E-05-2.12145E-05-3.11790E-05 1.24448E-06 7.49776E-19-8.09730E-19
 -1      3564 9.46068E-05-2.23809E-05-3.09365E-05 8.26222E-07 6.31643E-19-6.83530E-19
 -1      3565 9.31365E-05-1.96003E-05-3.14934E-05-5.96783E-07 4.01501E-19-1.05386E-18
 -1      3566 9.62546E-05-2.98663E-05-2.84647E-05 6.63729E-06-8.80525E-19-4.06616E-19
 -1      3567 9.74060E-05-3.07376E-05-2.85425E-05 6.09151E-06-6.29029E-19 1.77168E-18
 -1      3568 9.85614E-05-3.20223E-05-2.85498E-05 6.12452E-06 3.45312E-19 1.54892E-18
 -1      3569 9.58971E-05-3.00007E-05-2.82852E-05 7.85243E-06-7.54168E-19 9.86551E-19
 -1      3570 9.97527E-05-3.28237E-05-2.87046E-05 4.03811E-06 1.38630E-18-1.12040E-18
 -1      3571 9.90847E-05-3.20242E-05-2.87277E-05 3.29072E-06 6.49763E-19-2.69710E-18
 -1      3572 9.91622E-05-3.21244E-05-2.87390E-05 2.59389E-06 6.45389E-19-1.46923E-18
 -1      3573 8.58973E-05-2.16380E-05-2.75591E-05 5.99301E-06-4.96627E-19-3.63248E-18
 -1      3574 8.88471E-05-2.37560E-05-2.79432E-05 6.22884E-06 8.00990E-19-2.04859E-18
 -1      3575 8.10561E-05-2.78750E-05-2.29495E-05 2.92118E-05-2.54094E-18-6.24099E-18
 -1      3576 7.53393E-05-2.32406E-05-2.19553E-05 2.78308E-05-1.96919E-18-6.15649E-18
 -1      3577 7.25657E-05-1.91523E-05-2.28050E-05 2.18579E-05-3.14306E-18-5.80983E-18
 -1      3578 9.04834E-05-2.50523E-05-2.80082E-05 6.96514E-06 1.24858E-18-1.87379E-18
 -1      3579 9.53688E-05-2.44358E-05-3.03916E-05-1.73681E-06-2.06140E-19-4.52926E-19
 -1      3580 1.22992E-04-4.74826E-05-3.24190E-05-2.87767E-06-1.29982E-18-9.07861E-19
 -1      3581 9.26809E-05-3.52214E-05-2.44759E-05-2.89057E-05-1.55464E-18-1.40392E-18
 -1      3582 1.09614E-04-1.51078E-05-4.06002E-05-7.66945E-06 9.43992E-19-1.41408E-18
 -1      3583 1.14254E-04-1.77161E-05-4.15592E-05-1.04717E-05 1.19524E-18-9.51959E-19
 -1      3584 1.13110E-04-2.16481E-05-3.92956E-05-1.08367E-05 5.25081E-19-1.32601E-18
 -1      3585 9.42338E-05-2.18773E-05-3.10207E-05-2.31432E-06 3.55497E-20-6.54763E-19
 -1      3586 6.98784E-05-1.99178E-05-2.12691E-05-2.63656E-05-8.85520E-19-2.75593E-18
 -1      3587 1.11831E-04-2.37983E-05-3.76931E-05 1.11720E-05 1.59074E-18 3.41976E-19
 -1      3588 1.13308E-04-1.99339E-05-4.01762E-05 1.13293E-05 1.57527E-18 4.66755E-19
 -1      3589 1.08286E-04-1.69925E-05-3.93004E-05 8.33172E-06 1.83899E-18 2.29354E-19
 -1      3590 9.86228E-05-3.16508E-05-2.87138E-05 8.29071E-07-1.73328E-19-1.32479E-18
 -1      3591 1.06950E-04-1.31103E-05-4.02196E-05 3.25235E-06 1.72983E-18-8.23947E-19
 -1      3592 1.07579E-04-1.30122E-05-4.06952E-05-3.11146E-06 8.90179E-19-1.30828E-18
 -1      3593 9.58848E-05-2.56356E-05-3.01059E-05-9.47676E-07-1.26121E-19-1.70582E-19
 -1      3594 9.61005E-05-2.63828E-05-2.98870E-05-4.89616E-07-1.00062E-19-2.08249E-19
 -1      3595 9.59381E-05-2.61833E-05-2.99050E-05 7.10835E-07 6.96599E-19-4.24272E-19
 -1      3596 9.55342E-05-2.48173E-05-3.03053E-05 1.61484E-06 6.53853E-19-3.35289E-19
 -1      3597 9.38159E-05-2.09481E-05-3.12393E-05-2.10528E-07 4.27498E-19-1.08525E-18
 -1      3598 9.38722E-05-2.10560E-05-3.12227E-05-7.93838E-07 4.06610E-19-1.15198E-18
 -1      3599 9.45352E-05-2.22114E-05-3.09780E-05 1.45833E-08 4.30345E-19-9.97254E-19
 -1      3600 9.63228E-05-2.70359E-05-2.96894E-05-2.03328E-07-1.86119E-20-2.39560E-19
 -1      3601 9.64128E-05-2.75438E-05-2.95214E-05 1.01746E-07 2.87507E-20-3.74208E-19
 -1      3602 9.62480E-05-2.64963E-05-2.98902E-05-3.57345E-07-8.45174E-20-1.51372E-19
 -1      3603 9.65063E-05-2.79713E-05-2.93674E-05 2.87972E-07 3.23428E-21-3.52286E-19
 -1      3604 9.65195E-05-2.82997E-05-2.92408E-05 4.75757E-07-7.82596E-21-3.69842E-19
 -1      3605 9.65548E-05-2.76378E-05-2.95349E-05 1.24805E-07-1.02742E-20-3.11585E-19
 -1      3606 9.65296E-05-2.85661E-05-2.91234E-05 5.81191E-07-5.20722E-20-2.77729E-19
 -1      3607 9.64984E-05-2.87655E-05-2.90303E-05 6.82315E-07-1.19992E-19-2.85977E-19
 -1      3608 9.66564E-05-2.83852E-05-2.92594E-05 4.28836E-07-2.77624E-20-4.01765E-19
 -1      3609 9.64569E-05-2.89170E-05-2.89429E-05 7.29663E-07-2.88107E-19-3.93803E-19
 -1      3610 9.64019E-05-2.90254E-05-2.88762E-05 7.70943E-07-4.27281E-19-6.76986E-19
 -1      3611 9.66244E-05-2.88423E-05-2.90508E-05 5.95553E-07-2.35419E-19-5.33156E-19
 -1      3612 9.63313E-05-2.90968E-05-2.88129E-05 7.79653E-07-2.05992E-19-4.93846E-19
 -1      3613 9.62653E-05-2.91420E-05-2.87667E-05 7.82574E-07-2.79206E-19-1.99890E-19
 -1      3614 9.65129E-05-2.90917E-05-2.88965E-05 6.65669E-07-2.03037E-19-4.31494E-19
 -1      3615 9.61846E-05-2.91583E-05-2.87243E-05 7.69002E-07-4.77257E-19-1.47158E-20
 -1      3616 9.61192E-05-2.91619E-05-2.86951E-05 7.51797E-07-3.22942E-19-1.61664E-19
 -1      3617 9.63630E-05-2.91956E-05-2.87879E-05 6.73853E-07-1.84571E-19 3.91933E-20
 -1      3618 9.60294E-05-2.91436E-05-2.86648E-05 7.26281E-07-1.24797E-19-1.18698E-19
 -1      3619 9.59611E-05-2.91180E-05-2.86459E-05 6.98355E-07 2.06760E-19 2.39229E-20
 -1      3620 9.61942E-05-2.92027E-05-2.87124E-05 6.46003E-07-1.55240E-20 5.50793E-19
 -1      3621 9.58707E-05-2.90738E-05-2.86271E-05 6.68924E-07 4.02469E-19 8.13465E-20
 -1      3622 9.58045E-05-2.90277E-05-2.86174E-05 6.39759E-07 3.41855E-19 2.63242E-19
 -1      3623 9.60157E-05-2.91432E-05-2.86611E-05 6.00710E-07 1.92633E-19 6.02654E-19
 -1      3624 9.57154E-05-2.89657E-05-2.86072E-05 6.12430E-07 4.63960E-20 1.34743E-21
 -1      3625 9.56507E-05-2.89043E-05-2.86044E-05 5.88046E-07-1.55425E-19-6.19149E-20
 -1      3626 9.58380E-05-2.90365E-05-2.86304E-05 5.51853E-07 1.12819E-19 3.39076E-19
 -1      3627 9.55617E-05-2.88281E-05-2.86007E-05 5.66339E-07-1.86586E-19 1.72038E-20
 -1      3628 9.54958E-05-2.87530E-05-2.86030E-05 5.50695E-07-5.25399E-19 2.57172E-20
 -1      3629 9.56619E-05-2.88952E-05-2.86150E-05 5.08596E-07-1.75647E-19 1.00464E-19
 -1      3630 9.54033E-05-2.86629E-05-2.86040E-05 5.36338E-07-7.71833E-19 7.16331E-20
 -1      3631 9.53313E-05-2.85729E-05-2.86100E-05 5.31805E-07-6.75395E-19-1.04317E-19
 -1      3632 9.54828E-05-2.87243E-05-2.86109E-05 4.75871E-07-4.93072E-19 7.51751E-19
 -1      3633 9.52293E-05-2.84661E-05-2.86141E-05 5.24764E-07-5.79937E-19 8.16386E-20
 -1      3634 9.51435E-05-2.83568E-05-2.86227E-05 5.32053E-07-3.44978E-19 7.36178E-20
 -1      3635 9.52911E-05-2.85224E-05-2.86146E-05 4.55039E-07-6.86984E-19 9.03587E-19
 -1      3636 9.50229E-05-2.82274E-05-2.86284E-05 5.30024E-07-2.29120E-19 1.86169E-19
 -1      3637 9.49121E-05-2.80911E-05-2.86383E-05 5.47816E-07 1.83429E-19 3.74526E-19
 -1      3638 9.50723E-05-2.82820E-05-2.86230E-05 4.43027E-07-2.67311E-19 9.79363E-19
 -1      3639 9.47604E-05-2.79299E-05-2.86438E-05 5.45339E-07 5.27621E-19 2.79967E-19
 -1      3640 9.46078E-05-2.77551E-05-2.86533E-05 5.69288E-07 4.65857E-19 6.26573E-19
 -1      3641 9.48054E-05-2.79898E-05-2.86325E-05 4.30843E-07 2.89674E-19 8.99027E-19
 -1      3642 9.44074E-05-2.75492E-05-2.86561E-05 5.56083E-07 4.97334E-20 9.29652E-19
 -1      3643 9.41887E-05-2.73197E-05-2.86625E-05 5.76883E-07-2.00560E-20 1.07935E-18
 -1      3644 9.44610E-05-2.76266E-05-2.86389E-05 4.00798E-07 5.44950E-19 4.40895E-19
 -1      3645 9.39164E-05-2.70524E-05-2.86589E-05 5.35084E-07-6.90989E-20 1.01916E-18
 -1      3646 9.35966E-05-2.67471E-05-2.86576E-05 5.35140E-07-5.89238E-20 6.08359E-19
 -1      3647 9.39997E-05-2.71672E-05-2.86357E-05 3.21754E-07 5.27035E-20 1.02678E-18
 -1      3648 9.32219E-05-2.63985E-05-2.86416E-05 4.35041E-07 1.16102E-19 5.78377E-19
 -1      3649 9.27516E-05-2.59915E-05-2.86247E-05 3.83102E-07 4.74280E-19 1.09504E-18
 -1      3650 9.33693E-05-2.65818E-05-2.86131E-05 1.41682E-07 2.77696E-19 1.07825E-18
 -1      3651 9.22368E-05-2.55408E-05-2.85864E-05 1.76935E-07 2.23006E-19 3.54890E-19
 -1      3652 9.15482E-05-2.50041E-05-2.85404E-05 1.99036E-08-2.95513E-19 4.80387E-19
 -1      3653 9.25040E-05-2.58406E-05-2.85555E-05-2.23295E-07-4.08806E-20 1.37526E-18
 -1      3654 9.08507E-05-2.44354E-05-2.84643E-05-3.66688E-07-5.09092E-19 3.47363E-19
 -1      3655 8.98542E-05-2.37450E-05-2.83662E-05-7.15535E-07-1.83393E-19 3.28328E-19
 -1      3656 9.13260E-05-2.49237E-05-2.84382E-05-9.04184E-07-1.57934E-19 2.28680E-20
 -1      3657 8.89332E-05-2.30599E-05-2.82279E-05-1.39380E-06 1.69386E-20-2.34948E-20
 -1      3658 8.75191E-05-2.22087E-05-2.80394E-05-2.07323E-06 2.10837E-19-4.47972E-19
 -1      3659 8.97546E-05-2.38409E-05-2.82226E-05-2.09925E-06-2.78858E-19 5.69969E-21
 -1      3660 8.64150E-05-2.14916E-05-2.78148E-05-3.14186E-06-2.08122E-19-1.08636E-18
 -1      3661 8.45561E-05-2.05638E-05-2.74982E-05-4.26464E-06-4.92420E-19-1.17498E-18
 -1      3662 8.77882E-05-2.27050E-05-2.78627E-05-4.03055E-06-4.01801E-19-1.01032E-18
 -1      3663 8.31794E-05-1.98604E-05-2.71143E-05-6.03664E-06-8.90852E-19-1.20374E-18
 -1      3664 8.05508E-05-1.88695E-05-2.65378E-05-8.01343E-06-1.30447E-18-1.87236E-18
 -1      3665 8.53921E-05-2.16676E-05-2.72725E-05-7.09320E-06-8.99474E-19-1.61531E-18
 -1      3666 6.64604E-05-1.49061E-05-2.16110E-05-2.06967E-05-8.12371E-19-2.86844E-18
 -1      3667 7.60070E-05-2.27056E-05-2.30699E-05-2.52978E-05-7.38851E-19-2.12216E-18
 -1      3668 9.12375E-05-2.62931E-05-2.78613E-05 8.49576E-06 3.89966E-19-2.65271E-19
 -1      3669 9.63410E-05-2.87017E-05-2.89903E-05-7.55271E-07 2.70814E-19-2.99229E-19
 -1      3670 9.63737E-05-2.85073E-05-2.90808E-05-6.42208E-07 2.60487E-19-3.16055E-19
 -1      3671 9.61277E-05-2.90776E-05-2.87354E-05-8.73511E-07 2.42420E-19-2.62217E-19
 -1      3672 9.61851E-05-2.90296E-05-2.87788E-05-8.71004E-07 3.16671E-19-2.07554E-19
 -1      3673 6.46258E-05-1.10165E-05-2.26749E-05-1.15307E-05-1.08294E-18-3.12144E-18
 -1      3674 1.19432E-04-4.69474E-05-3.09519E-05-5.63818E-06-1.94131E-18-1.20636E-18
 -1      3675 1.20523E-04-4.43159E-05-3.28076E-05 2.37662E-06-7.81844E-19-1.64582E-18
 -1      3676 7.87868E-05-1.83074E-05-2.58989E-05-1.05886E-05-1.48982E-18-1.88751E-18
 -1      3677 7.51986E-05-1.72457E-05-2.49136E-05-1.34698E-05-1.51136E-18-1.86018E-18
 -1      3678 8.24452E-05-2.09459E-05-2.62923E-05-1.17430E-05-1.59781E-18-1.05638E-18
 -1      3679 9.50862E-05-2.36865E-05-3.05887E-05 1.99818E-06 6.93712E-19-4.79696E-19
 -1      3680 9.44406E-05-2.22750E-05-3.09460E-05 2.50072E-06 7.09927E-19-6.63847E-19
 -1      3681 9.42241E-05-2.17833E-05-3.10493E-05 2.07236E-06 6.68429E-19-7.75930E-19
 -1      3682 9.53393E-05-2.42164E-05-3.04775E-05 1.44297E-06 6.21214E-19-6.03387E-19
 -1      3683 9.53877E-05-2.87020E-05-2.85780E-05-5.80104E-07 7.06085E-20 2.73463E-19
 -1      3684 9.54223E-05-2.87489E-05-2.85750E-05-5.88445E-07-2.75628E-19 1.83723E-19
 -1      3685 9.54863E-05-2.88054E-05-2.85760E-05-5.99343E-07-3.27465E-19 3.81684E-19
 -1      3686 9.55276E-05-2.88534E-05-2.85752E-05-6.20107E-07-3.96915E-20 2.66205E-19
 -1      3687 9.54986E-05-2.87992E-05-2.85863E-05-5.49836E-07-1.25676E-19 5.38124E-19
 -1      3688 9.52480E-05-2.85390E-05-2.85877E-05-6.32164E-07 1.09077E-19-2.25041E-19
 -1      3689 9.52604E-05-2.85658E-05-2.85842E-05-6.11290E-07 4.36452E-19 5.43025E-20
 -1      3690 9.52271E-05-2.85105E-05-2.85906E-05-7.08340E-07-3.43754E-19-1.66213E-19
 -1      3691 9.52188E-05-2.85139E-05-2.85884E-05-6.72976E-07-1.91050E-19-1.11862E-20
 -1      3692 9.52012E-05-2.84989E-05-2.85879E-05-6.40100E-07-3.81908E-20-1.28372E-19
 -1      3693 9.52648E-05-2.85492E-05-2.85898E-05-8.17587E-07-6.27437E-19-4.62620E-19
 -1      3694 9.52241E-05-2.85152E-05-2.85896E-05-7.70094E-07-3.28338E-19-4.15912E-19
 -1      3695 9.51665E-05-2.84688E-05-2.85866E-05-7.47931E-07-1.58362E-19 1.92572E-19
 -1      3696 9.53944E-05-2.86910E-05-2.85840E-05-9.54526E-07-1.12021E-18-4.88631E-19
 -1      3697 9.53041E-05-2.86008E-05-2.85863E-05-9.00275E-07-7.31576E-19-4.18812E-19
 -1      3698 9.51984E-05-2.85166E-05-2.85810E-05-9.01548E-07-7.58774E-19-6.90882E-19
 -1      3699 9.56640E-05-2.89830E-05-2.85740E-05-1.10572E-06-1.50450E-18-7.07697E-19
 -1      3700 9.55004E-05-2.88122E-05-2.85781E-05-1.05500E-06-1.32358E-18-3.41377E-19
 -1      3701 9.53365E-05-2.86842E-05-2.85704E-05-1.10079E-06-1.15976E-18-3.23871E-19
 -1      3702 9.61375E-05-2.94815E-05-2.85631E-05-1.24384E-06-1.28319E-18-6.16043E-19
 -1      3703 9.58708E-05-2.92025E-05-2.85671E-05-1.21470E-06-1.69083E-18-8.31869E-19
 -1      3704 9.56386E-05-2.90271E-05-2.85559E-05-1.33738E-06-1.37750E-18-8.60645E-19
 -1      3705 9.68923E-05-3.02453E-05-2.85599E-05-1.31903E-06-7.09512E-19-1.80677E-19
 -1      3706 9.64896E-05-2.98315E-05-2.85589E-05-1.34107E-06-8.50886E-19-1.88274E-19
 -1      3707 9.61831E-05-2.96124E-05-2.85425E-05-1.58708E-06-1.49388E-18-1.37044E-18
 -1      3708 9.80086E-05-3.13183E-05-2.85808E-05-1.24791E-06-7.23367E-19 1.82222E-20
 -1      3709 9.74419E-05-3.07549E-05-2.85660E-05-1.36632E-06-4.62891E-19 8.11478E-20
 -1      3710 9.70673E-05-3.05109E-05-2.85415E-05-1.79751E-06-8.60709E-19-7.11249E-20
 -1      3711 9.95451E-05-3.26956E-05-2.86539E-05-9.02720E-07-1.64243E-18 2.71476E-19
 -1      3712 9.88064E-05-3.19996E-05-2.86108E-05-1.18034E-06-1.25088E-18 1.37000E-19
 -1      3713 9.83968E-05-3.17773E-05-2.85745E-05-1.87097E-06-1.04250E-18 1.95985E-19
 -1      3714 1.01491E-04-3.42686E-05-2.88222E-05-1.12804E-07-1.28738E-18 3.82561E-19
 -1      3715 1.00617E-04-3.35182E-05-2.87298E-05-6.23102E-07-1.42095E-18 9.68856E-20
 -1      3716 1.00255E-04-3.34062E-05-2.86782E-05-1.64563E-06-1.25758E-18-6.46318E-19
 -1      3717 1.03711E-04-3.57544E-05-2.91439E-05 1.30415E-06-1.35269E-18 1.83582E-19
 -1      3718 1.02799E-04-3.51177E-05-2.89752E-05 5.02814E-07-1.26292E-18 4.33833E-19
 -1      3719 1.02647E-04-3.52669E-05-2.89085E-05-8.88371E-07-1.30807E-18-1.46506E-18
 -1      3720 1.05823E-04-3.66431E-05-2.96852E-05 3.38002E-06-5.13513E-19 7.40065E-19
 -1      3721 1.05076E-04-3.63896E-05-2.94122E-05 2.32221E-06-9.06565E-19 1.00122E-18
 -1      3722 1.05316E-04-3.69554E-05-2.93414E-05 6.98902E-07-1.38440E-18-3.06468E-19
 -1      3723 1.07309E-04-3.61890E-05-3.05102E-05 6.15018E-06 3.18613E-19 1.00190E-18
 -1      3724 1.07094E-04-3.67397E-05-3.01108E-05 4.96622E-06 3.19494E-19 1.43547E-18
 -1      3725 1.08165E-04-3.80457E-05-3.00944E-05 3.22161E-06-5.88427E-19 2.83169E-19
 -1      3726 1.07522E-04-3.36936E-05-3.16310E-05 8.79331E-06 5.22280E-19 5.62883E-19
 -1      3727 1.07904E-04-3.53333E-05-3.11119E-05 7.80531E-06 4.89413E-19 7.03070E-19
 -1      3728 1.09796E-04-3.71134E-05-3.11744E-05 6.48109E-06 7.35001E-19 1.03842E-18
 -1      3729 1.05937E-04-2.90226E-05-3.29120E-05 1.01995E-05 2.16060E-19 1.12507E-18
 -1      3730 1.07002E-04-3.16479E-05-3.23794E-05 9.98766E-06-4.09253E-19 3.32025E-19
 -1      3731 1.10013E-04-3.39951E-05-3.25632E-05 9.34203E-06 2.94838E-19 5.66496E-19
 -1      3732 1.03688E-04-2.15076E-05-3.52522E-05 8.40752E-06 1.02295E-18 6.16365E-19
 -1      3733 1.05157E-04-2.43593E-05-3.46936E-05 9.84748E-06 1.59670E-18 6.63083E-19
 -1      3734 1.02534E-04-1.92497E-05-3.56725E-05 5.95108E-06 7.12183E-19-1.42034E-19
 -1      3735 1.01320E-04-1.69629E-05-3.61953E-05-1.89209E-06-1.99016E-19-1.13145E-18
 -1      3736 1.01222E-04-1.68251E-05-3.62609E-05 1.02022E-06 4.65998E-19-6.30418E-19
 -1      3737 1.04662E-04-2.13176E-05-3.57849E-05-8.43792E-06-2.74988E-20-2.53279E-18
 -1      3738 1.03318E-04-1.88184E-05-3.62262E-05-6.20400E-06-2.92240E-19-1.79003E-18
 -1      3739 1.07484E-04-3.27639E-05-3.20788E-05-9.36860E-06-6.08431E-19-2.69342E-18
 -1      3740 1.06581E-04-3.03390E-05-3.26451E-05-9.81439E-06-2.32908E-19-2.87426E-18
 -1      3741 1.07996E-04-3.59978E-05-3.08680E-05-6.87600E-06-8.54676E-19-1.34894E-18
 -1      3742 1.07771E-04-3.46163E-05-3.13609E-05-8.01454E-06-1.04680E-18-2.00729E-18
 -1      3743 1.10324E-04-3.49922E-05-3.22407E-05-8.56633E-06-1.53338E-18-2.00906E-18
 -1      3744 1.06865E-04-3.69544E-05-2.99426E-05-3.93711E-06-1.17205E-18-5.41460E-19
 -1      3745 1.07284E-04-3.66236E-05-3.03096E-05-5.20047E-06-6.76986E-19-8.86257E-19
 -1      3746 1.09818E-04-3.77348E-05-3.08762E-05-5.25001E-06-1.30570E-18-1.60767E-18
 -1      3747 1.04791E-04-3.63006E-05-2.93236E-05-1.46252E-06-4.84144E-19 7.59943E-20
 -1      3748 1.05597E-04-3.66756E-05-2.95647E-05-2.52697E-06-6.85868E-19 8.51037E-20
 -1      3749 1.07747E-04-3.80260E-05-2.98937E-05-2.10667E-06-1.25534E-18-8.50329E-19
 -1      3750 1.02486E-04-3.48355E-05-2.89587E-05 2.88789E-07 8.92380E-19-5.10956E-19
 -1      3751 1.03394E-04-3.55475E-05-2.90984E-05-4.92558E-07 2.32063E-19 4.75368E-20
 -1      3752 1.05030E-04-3.67855E-05-2.92702E-05 1.90128E-07 8.07841E-20-1.01199E-18
 -1      3753 9.61077E-05-2.74036E-05-2.94468E-05 3.64452E-08 5.83114E-19-4.12352E-19
 -1      3754 1.27455E-04-4.30180E-05-3.64393E-05-6.75418E-06-6.95255E-19-6.91020E-19
 -1      3755 1.27007E-04-4.74104E-05-3.41227E-05-8.40283E-07-1.06573E-18 1.91056E-19
 -1      3756 1.23096E-04-3.89690E-05-3.61638E-05-8.71140E-06-7.80767E-19-6.08183E-19
 -1      3757 8.41986E-05-2.09739E-05-2.71632E-05 7.30709E-06-1.16622E-18-4.99071E-18
 -1      3758 8.68019E-05-2.30628E-05-2.72023E-05 9.66976E-06-3.85758E-19-1.32911E-18
 -1      3759 8.20757E-05-1.98793E-05-2.67203E-05 8.31193E-06-1.97356E-18-4.70363E-18
 -1      3760 9.59911E-05-2.91052E-05-2.86645E-05-8.35780E-07 9.34181E-20-7.17075E-21
 -1      3761 9.60496E-05-2.90974E-05-2.86925E-05-8.57926E-07 1.92788E-19-1.54390E-19
 -1      3762 9.62500E-05-2.91419E-05-2.87625E-05-7.72040E-07 1.05767E-19 7.69328E-20
 -1      3763 1.06214E-04-4.35677E-05-2.70119E-05 2.35247E-05-1.85662E-18 6.09864E-20
 -1      3764 9.44803E-05-3.60287E-05-2.47051E-05 2.85578E-05-1.67825E-18-3.01197E-18
 -1      3765 9.51204E-05-2.36301E-05-3.06339E-05-1.76836E-06-5.63446E-20-4.31742E-19
 -1      3766 9.55095E-05-2.46921E-05-3.03562E-05-1.26542E-06-3.02448E-20-2.62175E-19
 -1      3767 9.56501E-05-2.48388E-05-3.03400E-05-9.80302E-07-1.95049E-20-2.24551E-19
 -1      3768 9.62510E-05-2.89578E-05-2.88405E-05-8.58842E-07 1.02197E-19-2.17543E-19
 -1      3769 9.63010E-05-2.88501E-05-2.89043E-05-8.13188E-07 2.01984E-19-3.15813E-19
 -1      3770 9.64969E-05-2.87804E-05-2.90228E-05-6.77006E-07 2.30072E-19-1.74127E-19
 -1      3771 9.89409E-05-3.18611E-05-2.87346E-05 1.35343E-06-5.56091E-19-9.83969E-19
 -1      3772 1.06688E-04-4.24327E-05-2.72575E-05-2.12611E-05-1.28398E-18-6.26368E-19
 -1      3773 1.14223E-04-4.64145E-05-2.92173E-05-1.38766E-05-1.75134E-18-3.38416E-19
 -1      3774 9.53059E-05-2.86089E-05-2.85827E-05-5.89963E-07 2.41437E-19 3.20938E-20
 -1      3775 9.53315E-05-2.86493E-05-2.85789E-05-5.84078E-07 2.19937E-19 1.26434E-19
 -1      3776 9.52771E-05-2.85770E-05-2.85866E-05-5.74546E-07 4.68615E-19-4.26853E-19
 -1      3777 9.44183E-05-2.21749E-05-3.09664E-05-1.81409E-06 2.09061E-19-6.82418E-19
 -1      3778 9.58533E-05-2.90724E-05-2.86191E-05-7.72848E-07-1.06521E-19-5.15224E-20
 -1      3779 9.59094E-05-2.90908E-05-2.86359E-05-8.06200E-07-3.72934E-20-2.41123E-19
 -1      3780 9.60919E-05-2.91574E-05-2.86880E-05-7.38204E-07 8.50954E-20-2.89112E-19
 -1      3781 8.82737E-05-3.01480E-05-2.45035E-05-2.59754E-05-1.35399E-18-1.00529E-18
 -1      3782 9.67553E-05-3.70643E-05-2.58786E-05-2.51625E-05-1.43134E-18-1.01230E-18
 -1      3783 1.18817E-04-3.83654E-05-3.44119E-05 8.34714E-06 6.49694E-19-5.73939E-19
 -1      3784 1.15252E-04-3.15483E-05-3.60738E-05 1.14751E-05 1.30836E-18 5.12601E-19
 -1      3785 9.00541E-05-2.59572E-05-2.75023E-05 1.02764E-05-5.23305E-19 1.84383E-19
 -1      3786 9.35497E-05-2.84483E-05-2.78172E-05 1.02573E-05-1.64898E-18 1.60895E-18
 -1      3787 9.98272E-05-3.26975E-05-2.87537E-05 1.76956E-06 7.97485E-19-9.60715E-19
 -1      3788 7.07385E-05-1.56034E-05-2.37233E-05-1.56271E-05-1.10944E-18-2.08571E-18
 -1      3789 6.53184E-05-1.31693E-05-2.21890E-05-1.60026E-05-8.82238E-19-2.85270E-18
 -1      3790 9.47906E-05-2.28313E-05-3.08225E-05 1.49077E-06 6.89768E-19-8.37739E-19
 -1      3791 9.42754E-05-2.18803E-05-3.10309E-05-1.33091E-06 2.83034E-19-8.47341E-19
 -1      3792 9.48915E-05-2.30013E-05-3.07961E-05-9.00247E-07 2.74509E-19-8.79445E-19
 -1      3793 9.63639E-05-2.82455E-05-2.91975E-05-5.13474E-07 3.57030E-19-3.56817E-19
 -1      3794 9.63667E-05-2.79318E-05-2.93222E-05-2.97372E-07 5.05662E-19-3.74847E-19
 -1      3795 9.65259E-05-2.83222E-05-2.92304E-05-4.77879E-07 2.97858E-19-3.42064E-19
 -1      3796 1.22235E-04-4.51826E-05-3.29988E-05-1.59558E-06-1.51658E-18-4.62169E-19
 -1      3797 1.24512E-04-4.88900E-05-3.24364E-05 2.98256E-06-1.57066E-18 1.88260E-19
 -1      3798 1.19501E-04-4.75882E-05-3.08637E-05 6.66019E-06-2.06261E-18 2.05788E-19
 -1      3799 8.87887E-05-2.56723E-05-2.71285E-05 1.19324E-05-1.94826E-18 1.46970E-19
 -1      3800 1.00748E-04-3.35373E-05-2.88084E-05 1.37998E-06 1.35016E-18-2.86383E-19
 -1      3801 8.24482E-05-2.53076E-05-2.45278E-05-2.21664E-05-1.52682E-18-9.81314E-19
 -1      3802 7.69300E-05-1.91125E-05-2.45409E-05-1.73554E-05-1.43462E-18-9.18790E-19
 -1      3803 1.00870E-04-3.37572E-05-2.87323E-05 4.47194E-06 1.44341E-18 3.74051E-20
 -1      3804 1.01080E-04-3.38876E-05-2.87713E-05 3.54982E-06 1.39729E-18-1.88642E-18
 -1      3805 9.63923E-05-2.90314E-05-2.88708E-05-7.62266E-07 1.64296E-19-9.42238E-20
 -1      3806 1.16150E-04-4.63202E-05-2.99180E-05-8.96146E-06-1.60090E-18-1.33644E-18
 -1      3807 1.14651E-04-4.36073E-05-3.04510E-05-3.32698E-06-1.15927E-18-2.76813E-18
 -1      3808 1.10627E-04-4.28174E-05-2.89455E-05-1.10412E-05-1.35449E-18-1.16522E-18
 -1      3809 9.56321E-05-2.89173E-05-2.85931E-05-5.79207E-07-8.26061E-20 6.14493E-19
 -1      3810 9.55981E-05-2.89086E-05-2.85797E-05-6.42796E-07-8.38734E-20 1.68927E-19
 -1      3811 9.56452E-05-2.89528E-05-2.85827E-05-6.72997E-07-1.69394E-19 3.92163E-19
 -1      3812 1.08795E-04-2.65830E-05-3.52585E-05 1.08142E-05 1.18490E-18 4.18633E-19
 -1      3813 1.05206E-04-2.74533E-05-3.34188E-05-9.99184E-06-1.95645E-19-2.78039E-18
 -1      3814 1.03896E-04-2.47038E-05-3.38891E-05-9.03849E-06-4.85414E-19-2.49131E-18
 -1      3815 9.62745E-05-2.75118E-05-2.94772E-05-8.79390E-08 5.87719E-19-3.99269E-19
 -1      3816 9.62032E-05-2.70095E-05-2.96442E-05 2.74701E-07 7.09495E-19-3.75135E-19
 -1      3817 9.64433E-05-2.76092E-05-2.95057E-05-1.15056E-07 5.85643E-19-3.56665E-19
 -1      3818 1.06696E-04-1.59782E-05-3.89705E-05-5.06740E-06 9.96534E-19-1.77370E-18
 -1      3819 7.40390E-05-1.79840E-05-2.39714E-05 1.74654E-05-2.16281E-18-5.48103E-18
 -1      3820 7.64379E-05-1.73844E-05-2.52865E-05 1.15664E-05-1.33621E-18-5.49730E-18
 -1      3821 9.53789E-05-2.86819E-05-2.85852E-05-5.46320E-07 3.17365E-19 2.60299E-19
 -1      3822 9.59923E-05-3.04787E-05-2.80966E-05 9.46861E-06-6.44502E-19 1.37683E-18
 -1      3823 9.79152E-05-3.18511E-05-2.82709E-05 8.74896E-06-7.83280E-19 7.67121E-19
 -1      3824 9.52565E-05-3.05927E-05-2.77766E-05 1.15098E-05-1.25893E-18 8.49465E-19
 -1      3825 8.87382E-05-3.07322E-05-2.47507E-05 2.49049E-05-1.67853E-18-3.65696E-18
 -1      3826 1.01331E-04-3.80731E-05-2.70431E-05-1.96446E-05-1.41465E-18-8.29702E-19
 -1      3827 7.83336E-05-2.17606E-05-2.43312E-05 2.04255E-05-2.23098E-18-6.16157E-18
 -1      3828 1.11310E-04-4.56571E-05-2.80020E-05 1.95660E-05-2.13185E-18 5.77916E-19
 -1      3829 1.03519E-04-4.02458E-05-2.72090E-05 2.03132E-05-1.14789E-18 2.14273E-19
 -1      3830 1.13863E-04-4.59779E-05-2.90757E-05 1.40467E-05-2.52085E-18 1.39222E-18
 -1      3831 9.93235E-05-3.28233E-05-2.84892E-05 7.25045E-06-3.39281E-19 2.45397E-19
 -1      3832 1.00384E-04-3.36024E-05-2.86120E-05 6.14297E-06 6.89166E-19 1.50082E-18
 -1      3833 1.01828E-04-3.48810E-05-2.86951E-05 5.59873E-06 5.35026E-19-9.61544E-20
 -1      3834 9.96153E-05-3.36342E-05-2.83234E-05 8.91433E-06-7.66239E-19-1.96199E-19
 -1      3835 7.91061E-05-1.86384E-05-2.59672E-05 1.03180E-05-2.08979E-18-6.21795E-18
 -1      3836 1.14290E-04-4.04100E-05-3.17084E-05 4.11292E-06 1.23276E-19-1.12527E-18
 -1      3837 1.16764E-04-3.94979E-05-3.30705E-05 7.26192E-06 5.09418E-19-4.14563E-19
 -1      3838 9.50479E-05-2.33263E-05-3.07470E-05 1.99833E-07 4.75344E-19-8.73209E-19
 -1      3839 9.50369E-05-2.33253E-05-3.07477E-05-1.77751E-07 3.74050E-19-1.01556E-18
 -1      3840 9.60798E-05-2.62541E-05-2.99273E-05 5.68983E-07 5.98874E-19-4.58707E-19
 -1      3841 9.51330E-05-2.35644E-05-3.06839E-05 8.29246E-07 6.59761E-19-6.55548E-19
 -1      3842 9.50736E-05-2.33929E-05-3.07261E-05 4.79003E-07 5.35678E-19-5.97225E-19
 -1      3843 9.55735E-05-2.43549E-05-3.05071E-05 2.55368E-07 4.79624E-19-6.86184E-19
 -1      3844 1.05891E-04-1.66400E-05-3.82887E-05 5.30210E-06 1.01801E-18-1.83489E-19
 -1      3845 1.08011E-04-2.26035E-05-3.66325E-05-1.02498E-05 3.66520E-19-3.63587E-18
 -1      3846 1.11813E-04-2.56825E-05-3.70827E-05-1.14868E-05-1.10558E-19-2.08544E-18
 -1      3847 9.57212E-05-2.90017E-05-2.85927E-05-7.03947E-07-3.61556E-19 4.22566E-19
 -1      3848 9.57732E-05-2.90365E-05-2.86013E-05-7.39072E-07-2.04836E-19 3.84148E-19
 -1      3849 9.59318E-05-2.91109E-05-2.86391E-05-6.84242E-07-2.73654E-19 1.09944E-19
 -1      3850 9.57774E-05-2.90254E-05-2.86093E-05-6.26880E-07-2.41439E-19 4.04568E-19
 -1      3851 1.08692E-04-2.96574E-05-3.38210E-05-1.05299E-05-2.30932E-19-3.52848E-18
 -1      3852 9.61583E-05-2.60257E-05-3.00590E-05-4.63469E-07 7.81200E-20-3.98387E-19
 -1      3853 9.63879E-05-2.67336E-05-2.98568E-05-1.70063E-07 1.16998E-19-2.60121E-19
 -1      3854 9.65852E-05-2.73410E-05-2.96743E-05-1.47931E-08 8.47023E-21-3.01334E-19
 -1      3855 9.66825E-05-2.78202E-05-2.95164E-05 1.83217E-07 2.36448E-20-3.42408E-19
 -1      3856 9.65131E-05-2.69054E-05-2.98299E-05-9.33474E-08 8.27178E-20-5.31351E-19
 -1      3857 9.67601E-05-2.82188E-05-2.93724E-05 2.79611E-07-9.20280E-20-3.76291E-19
 -1      3858 9.67715E-05-2.85247E-05-2.92511E-05 3.98430E-07-5.19182E-20-4.58796E-19
 -1      3859 9.67844E-05-2.79459E-05-2.95010E-05 1.63633E-07-2.82297E-20-3.52532E-19
 -1      3860 9.67659E-05-2.87669E-05-2.91403E-05 4.50170E-07-1.09189E-19-5.30442E-19
 -1      3861 9.67256E-05-2.89467E-05-2.90492E-05 5.12417E-07-1.54433E-19-3.66812E-19
 -1      3862 9.68520E-05-2.86175E-05-2.92438E-05 3.19686E-07-9.23044E-20-2.30856E-19
 -1      3863 9.66689E-05-2.90780E-05-2.89658E-05 5.31298E-07-1.46588E-19-4.88429E-19
 -1      3864 9.65989E-05-2.91675E-05-2.88992E-05 5.54566E-07-1.30962E-19-2.48651E-19
 -1      3865 9.67888E-05-2.90151E-05-2.90472E-05 4.01735E-07-4.82273E-20-3.02325E-19
 -1      3866 9.65178E-05-2.92192E-05-2.88409E-05 5.52575E-07 6.37263E-20-1.32712E-19
 -1      3867 9.64379E-05-2.92470E-05-2.87955E-05 5.52316E-07 6.43082E-20 1.07960E-19
 -1      3868 9.66509E-05-2.92135E-05-2.89036E-05 4.31278E-07 9.20795E-20-3.48458E-19
 -1      3869 9.63385E-05-2.92498E-05-2.87514E-05 5.38872E-07 3.95913E-20 2.42997E-19
 -1      3870 9.62488E-05-2.92363E-05-2.87187E-05 5.25023E-07 2.54731E-19 5.30081E-19
 -1      3871 9.64716E-05-2.92783E-05-2.87990E-05 4.27568E-07 1.75832E-19-1.60259E-19
 -1      3872 9.61437E-05-2.92020E-05-2.86887E-05 5.05501E-07 1.31460E-19 4.50655E-19
 -1      3873 9.60533E-05-2.91591E-05-2.86679E-05 4.86041E-07 6.75217E-20 3.50413E-19
 -1      3874 9.62685E-05-2.92513E-05-2.87234E-05 4.05761E-07 6.49548E-20 7.99616E-20
 -1      3875 9.59478E-05-2.91000E-05-2.86488E-05 4.65506E-07 1.82668E-20 4.88955E-19
 -1      3876 9.58585E-05-2.90365E-05-2.86370E-05 4.45795E-07 3.75866E-20 3.82277E-19
 -1      3877 9.60595E-05-2.91592E-05-2.86730E-05 3.75514E-07 7.47963E-20-3.05271E-21
 -1      3878 9.57537E-05-2.89598E-05-2.86260E-05 4.26860E-07-1.60353E-19 1.93082E-19
 -1      3879 9.56646E-05-2.88808E-05-2.86208E-05 4.10161E-07-2.81037E-19 8.00909E-20
 -1      3880 9.58512E-05-2.90229E-05-2.86418E-05 3.43547E-07-1.64188E-19 1.00705E-19
 -1      3881 9.55587E-05-2.87896E-05-2.86157E-05 3.93327E-07-3.44824E-19 2.30221E-19
 -1      3882 9.54660E-05-2.86961E-05-2.86153E-05 3.81173E-07-4.75712E-19 3.45027E-19
 -1      3883 9.56431E-05-2.88536E-05-2.86246E-05 3.13088E-07-2.64986E-19 5.75106E-20
 -1      3884 9.53554E-05-2.85904E-05-2.86141E-05 3.65791E-07-5.05143E-19 6.00628E-19
 -1      3885 9.52531E-05-2.84811E-05-2.86168E-05 3.57552E-07-6.22878E-19 8.01837E-19
 -1      3886 9.54292E-05-2.86553E-05-2.86174E-05 2.83383E-07-2.87882E-19 6.47705E-19
 -1      3887 9.51317E-05-2.83587E-05-2.86177E-05 3.40198E-07-4.89298E-19 1.02325E-18
 -1      3888 9.50111E-05-2.82293E-05-2.86218E-05 3.32610E-07-2.42013E-19 9.43930E-19
 -1      3889 9.52005E-05-2.84276E-05-2.86162E-05 2.50083E-07-4.03549E-19 9.10904E-19
 -1      3890 9.48705E-05-2.80853E-05-2.86230E-05 3.06605E-07-1.08912E-19 8.74073E-19
 -1      3891 9.47189E-05-2.79291E-05-2.86266E-05 2.92710E-07 3.08948E-19 5.17649E-19
 -1      3892 9.49427E-05-2.81651E-05-2.86173E-05 2.02278E-07-3.13104E-19 6.79203E-19
 -1      3893 9.45488E-05-2.77569E-05-2.86258E-05 2.46620E-07 6.24475E-19-1.23062E-20
 -1      3894 9.43490E-05-2.75648E-05-2.86263E-05 2.13847E-07 6.85477E-19-8.32158E-20
 -1      3895 9.46376E-05-2.78594E-05-2.86163E-05 1.20843E-07 1.68979E-19 5.53703E-19
 -1      3896 9.41368E-05-2.73568E-05-2.86202E-05 1.29113E-07 4.69092E-19 2.05868E-19
 -1      3897 9.38659E-05-2.71179E-05-2.86137E-05 5.62515E-08 3.37981E-19 6.33203E-19
 -1      3898 9.42625E-05-2.75004E-05-2.86080E-05-2.57053E-08 8.56132E-19 2.63362E-19
 -1      3899 9.35977E-05-2.68668E-05-2.85981E-05-9.61278E-08 4.09083E-19 5.71546E-19
 -1      3900 9.32260E-05-2.65701E-05-2.85785E-05-2.43448E-07 4.09635E-19 6.20252E-19
 -1      3901 9.37917E-05-2.70795E-05-2.85848E-05-2.86952E-07 5.58412E-19 3.83607E-19
 -1      3902 9.28891E-05-2.62725E-05-2.85468E-05-5.07354E-07-1.11798E-19 1.12149E-18
 -1      3903 9.23803E-05-2.59106E-05-2.85048E-05-7.83053E-07-4.30133E-19 6.38366E-19
 -1      3904 9.31987E-05-2.65956E-05-2.85360E-05-7.38333E-07 3.11774E-19 4.06439E-19
 -1      3905 9.19678E-05-2.55735E-05-2.84475E-05-1.22275E-06-7.41234E-19 4.02082E-19
 -1      3906 9.12816E-05-2.51493E-05-2.83683E-05-1.70885E-06-4.96112E-19-3.15355E-19
 -1      3907 9.24641E-05-2.60652E-05-2.84465E-05-1.49079E-06-7.50863E-19 3.51905E-19
 -1      3908 9.08031E-05-2.48022E-05-2.82721E-05-2.41363E-06-3.73339E-19-8.06836E-19
 -1      3909 8.99058E-05-2.43425E-05-2.81332E-05-3.23210E-06-1.70106E-19-5.10096E-19
 -1      3910 9.15883E-05-2.55406E-05-2.82946E-05-2.70118E-06-7.90539E-19-4.97915E-19
 -1      3911 8.94324E-05-2.40695E-05-2.79886E-05-4.26301E-06-4.31223E-19-9.38223E-19
 -1      3912 8.83573E-05-2.36652E-05-2.77728E-05-5.48874E-06-7.16032E-19-1.27986E-18
 -1      3913 9.06486E-05-2.51566E-05-2.80595E-05-4.51925E-06-4.71305E-19-8.34699E-19
 -1      3914 8.79389E-05-2.35692E-05-2.75461E-05-7.08890E-06-8.01018E-19-1.26488E-18
 -1      3915 8.66365E-05-2.33471E-05-2.71867E-05-9.06072E-06-1.24626E-18-1.12390E-18
 -1      3916 8.97674E-05-2.51079E-05-2.77048E-05-7.21862E-06-6.96346E-19-7.60190E-19
 -1      3917 8.71161E-05-2.51355E-05-2.66017E-05 1.41848E-05-1.61035E-18-1.30077E-18
 -1      3918 9.13199E-05-2.81250E-05-2.69742E-05 1.46088E-05-1.53582E-18 8.75804E-19
 -1      3919 9.65074E-05-2.91144E-05-2.88829E-05-6.57593E-07 1.40247E-19-2.93209E-19
 -1      3920 9.65726E-05-2.90206E-05-2.89487E-05-6.30004E-07 1.83330E-19-2.71422E-19
 -1      3921 9.52766E-05-2.39976E-05-3.05606E-05 1.27386E-06 5.53346E-19-9.56148E-19
 -1      3922 9.51908E-05-2.37259E-05-3.06310E-05 1.03294E-06 6.23751E-19-8.95568E-19
 -1      3923 9.56369E-05-2.45960E-05-3.04313E-05 6.56667E-07 5.78584E-19-6.88527E-19
 -1      3924 9.57302E-05-2.50196E-05-3.02936E-05 9.42980E-07 5.22257E-19-7.17303E-19
 -1      3925 1.08449E-04-3.90186E-05-2.96925E-05 3.43232E-07-7.34602E-19-1.23821E-18
 -1      3926 1.09710E-04-3.95689E-05-3.00959E-05-8.81339E-07-1.63181E-18-1.02159E-18
 -1      3927 9.55031E-05-2.87801E-05-2.85940E-05-4.78640E-07 4.31330E-20-2.26993E-19
 -1      3928 9.55674E-05-2.88440E-05-2.85962E-05-4.85074E-07-2.55114E-19-1.89831E-19
 -1      3929 9.50946E-05-2.83913E-05-2.85840E-05-7.61889E-07-3.68626E-20-7.78200E-20
 -1      3930 9.50975E-05-2.83997E-05-2.85859E-05-6.93753E-07 7.26320E-21-4.27689E-21
 -1      3931 9.51474E-05-2.84348E-05-2.85887E-05-6.23259E-07-3.45009E-19 2.86892E-19
 -1      3932 9.51766E-05-2.84720E-05-2.85888E-05-5.78526E-07-9.42660E-20-9.99431E-20
 -1      3933 9.50646E-05-2.83640E-05-2.85868E-05-6.27588E-07-1.89325E-19 1.16196E-19
 -1      3934 9.52446E-05-2.85956E-05-2.85582E-05-1.22639E-06-1.34421E-18-8.15574E-19
 -1      3935 9.51377E-05-2.84855E-05-2.85653E-05-1.10616E-06-1.28503E-18-7.17069E-19
 -1      3936 9.55570E-05-2.89522E-05-2.85377E-05-1.55998E-06-1.17970E-18-1.48650E-18
 -1      3937 9.53483E-05-2.87373E-05-2.85462E-05-1.41795E-06-1.10784E-18-1.05279E-18
 -1      3938 9.51068E-05-2.85243E-05-2.85406E-05-1.42509E-06-9.34363E-19-1.35413E-18
 -1      3939 9.61404E-05-2.95782E-05-2.85179E-05-1.94606E-06-1.70563E-18-1.11974E-18
 -1      3940 9.57847E-05-2.92184E-05-2.85243E-05-1.79635E-06-1.64262E-18-1.27360E-18
 -1      3941 9.54238E-05-2.89149E-05-2.85127E-05-1.88802E-06-1.38689E-18-1.19627E-18
 -1      3942 9.71111E-05-3.05619E-05-2.85118E-05-2.33850E-06-1.24678E-18-5.21594E-19
 -1      3943 9.65552E-05-3.00151E-05-2.85083E-05-2.21237E-06-1.63202E-18-7.95523E-19
 -1      3944 9.60460E-05-2.96127E-05-2.84857E-05-2.44968E-06-2.10639E-18-9.06379E-19
 -1      3945 9.86015E-05-3.19816E-05-2.85440E-05-2.63836E-06-9.77555E-19-4.30083E-19
 -1      3946 9.77934E-05-3.12167E-05-2.85166E-05-2.59408E-06-8.72154E-19-2.57559E-19
 -1      3947 9.71163E-05-3.07259E-05-2.84746E-05-3.06529E-06-9.56898E-19-4.59095E-19
 -1      3948 1.00732E-04-3.38595E-05-2.86583E-05-2.66109E-06-9.45598E-19-1.12206E-18
 -1      3949 9.96425E-05-3.28863E-05-2.85835E-05-2.79550E-06-1.18314E-18-6.52715E-19
 -1      3950 9.88099E-05-3.23598E-05-2.85098E-05-3.62018E-06-1.16303E-18-1.46308E-18
 -1      3951 1.03533E-04-3.60669E-05-2.89232E-05-2.11884E-06-1.70516E-18-1.01251E-18
 -1      3952 1.02198E-04-3.49879E-05-2.87665E-05-2.57333E-06-1.08471E-18-7.84236E-19
 -1      3953 1.01292E-04-3.45473E-05-2.86467E-05-3.87826E-06-1.24766E-18-1.12718E-18
 -1      3954 1.07017E-04-3.82190E-05-2.94609E-05-4.94617E-07-1.51169E-18-6.14430E-19
 -1      3955 1.05497E-04-3.73423E-05-2.91510E-05-1.60003E-06-1.91440E-18-8.98388E-19
 -1      3956 1.04662E-04-3.71929E-05-2.89695E-05-3.53475E-06-1.77594E-18-5.60012E-19
 -1      3957 1.11119E-04-4.07313E-05-3.01830E-05-3.39266E-07-4.03295E-19-2.26072E-18
 -1      3958 1.09553E-04-4.01103E-05-2.97157E-05-1.74348E-06-8.48022E-19-2.06946E-18
 -1      3959 1.13746E-04-4.11747E-05-3.10317E-05 2.43176E-06-2.72225E-19-1.34745E-18
 -1      3960 1.13554E-04-3.83943E-05-3.22213E-05-6.92797E-06-2.15868E-18-1.85998E-18
 -1      3961 1.13159E-04-3.62446E-05-3.29797E-05-8.37622E-06-1.15484E-18-2.02383E-18
 -1      3962 1.04879E-04-3.68616E-05-2.91073E-05 2.28825E-06 4.66757E-19-1.64459E-18
 -1      3963 1.06376E-04-3.79729E-05-2.93414E-05 1.51449E-06 4.47137E-19-3.83220E-19
 -1      3964 1.08109E-04-3.95170E-05-2.94826E-05 2.77647E-06-5.15569E-19-1.04675E-18
 -1      3965 1.01774E-04-3.44389E-05-2.88731E-05 2.19930E-06 1.20052E-18-1.85775E-18
 -1      3966 9.61726E-05-2.92019E-05-2.87007E-05-6.21673E-07 8.98123E-20 8.60688E-20
 -1      3967 9.62542E-05-2.92104E-05-2.87320E-05-6.39560E-07 2.28037E-19 1.94468E-19
 -1      3968 8.57781E-05-2.60442E-05-2.56132E-05-1.89398E-05-1.68978E-18-4.11519E-19
 -1      3969 1.18570E-04-3.66888E-05-3.51361E-05-9.45676E-06-1.02461E-18-1.35301E-18
 -1      3970 1.20691E-04-4.17662E-05-3.37631E-05-6.15598E-06-1.22295E-18-1.62994E-18
 -1      3971 9.53641E-05-2.86479E-05-2.85910E-05-4.90005E-07 4.53200E-19-2.37775E-19
 -1      3972 9.54204E-05-2.87096E-05-2.85911E-05-4.82643E-07 1.93627E-19-6.26551E-20
 -1      3973 9.54814E-05-2.87503E-05-2.85998E-05-4.16742E-07 1.35955E-19-7.65602E-19
 -1      3974 1.11729E-04-3.99839E-05-3.06941E-05-2.86094E-06-1.20571E-18-1.28687E-18
 -1      3975 1.12379E-04-3.94136E-05-3.13115E-05-4.52008E-06-1.98556E-18-1.32311E-18
 -1      3976 1.15419E-04-4.07391E-05-3.20200E-05-4.41882E-06-2.47106E-18-2.27185E-18
 -1      3977 1.12284E-04-4.13596E-05-3.04666E-05-5.60663E-08-2.07355E-18-1.93586E-18
 -1      3978 8.28944E-05-2.17027E-05-2.60903E-05 1.34976E-05-1.81633E-18-4.29617E-18
 -1      3979 9.51123E-05-2.84295E-05-2.85741E-05-9.60534E-07-8.35413E-19-4.45044E-19
 -1      3980 9.50726E-05-2.83912E-05-2.85786E-05-8.66545E-07-4.36706E-20-3.94554E-19
 -1      3981 9.49896E-05-2.83113E-05-2.85780E-05-8.07903E-07-1.02513E-19-7.40121E-19
 -1      3982 9.49872E-05-2.83472E-05-2.85629E-05-1.06840E-06-7.15366E-19-4.17228E-19
 -1      3983 8.62242E-05-2.34666E-05-2.68352E-05-1.12898E-05-1.50050E-18-1.37768E-18
 -1      3984 8.42944E-05-2.32840E-05-2.62194E-05-1.40644E-05-1.32473E-18-9.78457E-19
 -1      3985 8.89595E-05-2.56206E-05-2.71618E-05-1.11929E-05-1.21426E-18-7.93873E-19
 -1      3986 9.52426E-05-2.85277E-05-2.85902E-05-5.35567E-07 3.18403E-19-2.27104E-19
 -1      3987 9.52882E-05-2.85814E-05-2.85896E-05-5.11127E-07 6.32773E-19-2.06965E-19
 -1      3988 9.53235E-05-2.86036E-05-2.85948E-05-4.44781E-07 4.79722E-19-2.23026E-19
 -1      3989 9.66707E-05-3.39271E-05-2.67442E-05-1.87814E-05-8.08870E-19-1.00418E-18
 -1      3990 1.03938E-04-3.95689E-05-2.78475E-05-1.59382E-05-9.65234E-19-4.93271E-19
 -1      3991 9.51886E-05-2.36136E-05-3.06703E-05-4.84214E-07 3.44010E-19-9.56202E-19
 -1      3992 9.55212E-05-2.44291E-05-3.04809E-05-8.64194E-07 1.25507E-19-6.02412E-19
 -1      3993 9.59004E-05-2.53501E-05-3.02359E-05-5.66806E-07 7.26185E-20-4.47133E-19
 -1      3994 9.56886E-05-2.46030E-05-3.04506E-05-2.45920E-07 3.55719E-19-8.61117E-19
 -1      3995 9.64012E-05-2.69745E-05-2.97451E-05 1.37148E-07 5.09948E-19-5.44309E-19
 -1      3996 9.61265E-05-2.61205E-05-3.00086E-05 5.44492E-07 5.72360E-19-5.79462E-19
 -1      3997 9.60872E-05-2.58789E-05-3.00901E-05 4.73109E-07 4.72629E-19-7.23312E-19
 -1      3998 1.12846E-04-3.01791E-05-3.55362E-05 1.15432E-05 1.09220E-18 1.98265E-19
 -1      3999 9.66249E-05-2.88856E-05-2.90326E-05-6.02477E-07 1.39988E-19-1.31481E-19
 -1      4000 9.66638E-05-2.87026E-05-2.91231E-05-5.28584E-07 2.48718E-19-2.29310E-19
 -1      4001 9.67164E-05-2.89586E-05-2.90404E-05-4.99824E-07 1.96303E-19-2.15237E-19
 -1      4002 9.63488E-05-2.92049E-05-2.87754E-05-6.55613E-07 5.08642E-20-1.28748E-19
 -1      4003 9.64266E-05-2.91723E-05-2.88217E-05-6.57460E-07-3.19917E-21-2.17563E-19
 -1      4004 9.65830E-05-2.91712E-05-2.88926E-05-5.39894E-07-4.06912E-21-4.10801E-19
 -1      4005 9.64085E-05-2.92463E-05-2.87856E-05-5.35786E-07-4.95370E-20-2.88296E-19
 -1      4006 8.47950E-05-2.46039E-05-2.58433E-05 1.69422E-05-1.36577E-18-2.65811E-18
 -1      4007 9.00826E-05-2.87845E-05-2.63011E-05-1.81575E-05-1.10517E-18-1.18438E-18
 -1      4008 9.66683E-05-2.84646E-05-2.92351E-05-4.56121E-07 2.43080E-19-3.81399E-19
 -1      4009 9.66665E-05-2.81580E-05-2.93543E-05-3.19348E-07 3.78118E-19-4.01888E-19
 -1      4010 9.67710E-05-2.85465E-05-2.92394E-05-3.88162E-07 1.28841E-19-7.02811E-20
 -1      4011 1.18521E-04-4.31985E-05-3.23205E-05-2.59919E-06-2.00023E-18-2.12861E-18
 -1      4012 1.13294E-04-2.89262E-05-3.61740E-05-1.13077E-05-3.29046E-19-1.94189E-18
 -1      4013 1.06374E-04-3.97249E-05-2.85176E-05-1.14171E-05-4.03796E-19-1.47905E-18
 -1      4014 9.56553E-05-2.89129E-05-2.86025E-05-4.93704E-07-2.19846E-19 1.52325E-20
 -1      4015 9.57266E-05-2.89735E-05-2.86085E-05-5.09730E-07-1.04423E-19 9.28936E-20
 -1      4016 9.56500E-05-2.88972E-05-2.86098E-05-4.18434E-07-9.94218E-20-7.92533E-19
 -1      4017 1.02928E-04-3.54843E-05-2.89249E-05 2.59697E-06 5.29097E-19-1.98902E-18
 -1      4018 1.03992E-04-3.65004E-05-2.89624E-05 3.90364E-06 4.16979E-19-9.22684E-19
 -1      4019 1.14921E-04-3.30971E-05-3.51352E-05-1.08208E-05-7.96302E-19-1.49576E-18
 -1      4020 9.65140E-05-2.75026E-05-2.95818E-05-8.10647E-08 5.02388E-19-5.05469E-19
 -1      4021 9.51816E-05-2.84695E-05-2.85915E-05-5.11244E-07-2.99144E-20 2.55440E-19
 -1      4022 1.11519E-04-3.26358E-05-3.37536E-05 1.02412E-05 7.20110E-20 5.89753E-19
 -1      4023 1.11908E-04-3.50820E-05-3.29624E-05 9.12906E-06 6.70291E-19 6.65391E-19
 -1      4024 9.60507E-05-2.55980E-05-3.01911E-05-3.71855E-07 2.06565E-19-6.47105E-19
 -1      4025 9.43612E-05-3.13525E-05-2.70172E-05 1.61871E-05 3.06507E-19-4.10372E-19
 -1      4026 9.52792E-05-3.11895E-05-2.74889E-05 1.35603E-05-1.03306E-18 6.84230E-19
 -1      4027 9.83726E-05-3.32565E-05-2.78330E-05 1.26773E-05-5.12531E-19-1.18530E-19
 -1      4028 9.41380E-05-3.06356E-05-2.71093E-05-1.48203E-05-1.09534E-18-1.32679E-18
 -1      4029 9.59319E-05-2.52614E-05-3.02966E-05 2.88381E-07 4.62469E-19-5.03176E-19
 -1      4030 9.59165E-05-2.51869E-05-3.03192E-05 7.93026E-08 4.68046E-19-7.00376E-19
 -1      4031 9.60733E-05-2.91730E-05-2.86711E-05-5.99372E-07-1.88016E-19 5.00473E-20
 -1      4032 9.62155E-05-2.92279E-05-2.87108E-05-5.07691E-07-3.57714E-20 2.05975E-19
 -1      4033 9.59939E-05-2.91384E-05-2.86510E-05-5.75432E-07-2.76902E-19 2.56944E-19
 -1      4034 1.02944E-04-3.81768E-05-2.77906E-05 1.58896E-05-6.01033E-19-5.07525E-20
 -1      4035 9.92506E-05-3.59997E-05-2.69999E-05 1.88902E-05 1.36481E-19 1.59137E-19
 -1      4036 1.16148E-04-4.66162E-05-2.97788E-05 1.04791E-05-2.57065E-18-6.90886E-20
 -1      4037 1.10632E-04-4.35749E-05-2.87830E-05 1.31817E-05-2.26394E-18 2.33353E-19
 -1      4038 1.16518E-04-4.54578E-05-3.04623E-05 5.79867E-06-2.68297E-18-8.50773E-19
 -1      4039 9.59290E-05-2.52004E-05-3.03137E-05-7.00716E-08 4.17874E-19-9.41943E-19
 -1      4040 9.60430E-05-2.55143E-05-3.02362E-05-2.64948E-07 3.12009E-19-8.29340E-19
 -1      4041 9.62934E-05-2.61256E-05-3.00657E-05-1.67026E-07 2.51053E-19-7.85235E-19
 -1      4042 9.62826E-05-2.59906E-05-3.01153E-05 1.35808E-08 4.29931E-19-6.79425E-19
 -1      4043 1.03828E-04-3.64169E-05-2.88421E-05 5.60843E-06-3.66257E-20-1.32913E-19
 -1      4044 8.41880E-05-2.65410E-05-2.45567E-05 2.32875E-05-1.04505E-18-4.58043E-18
 -1      4045 8.52481E-05-2.55815E-05-2.54859E-05 1.90925E-05-9.60403E-19-2.94385E-18
 -1      4046 9.00094E-05-2.91623E-05-2.61012E-05 1.92707E-05 2.39591E-19-1.03815E-18
 -1      4047 9.47867E-05-3.42808E-05-2.60255E-05 2.25941E-05-1.35396E-19-1.50798E-18
 -1      4048 9.52784E-05-2.85461E-05-2.85978E-05-3.78866E-07 8.44142E-20-1.51673E-20
 -1      4049 9.53538E-05-2.86237E-05-2.85997E-05-3.55637E-07 2.56703E-19-2.97332E-19
 -1      4050 9.67977E-05-2.77205E-05-2.96044E-05 5.97341E-08 9.31173E-20-4.62557E-19
 -1      4051 9.68783E-05-2.81481E-05-2.94574E-05 1.62089E-07 8.78263E-20-3.19909E-19
 -1      4052 9.69173E-05-2.84887E-05-2.93258E-05 1.85860E-07 1.78726E-20-3.09681E-19
 -1      4053 9.69164E-05-2.87532E-05-2.92126E-05 2.54495E-07 3.83438E-20-2.93810E-19
 -1      4054 9.69264E-05-2.82790E-05-2.94213E-05 8.80564E-08 1.65573E-19-5.90709E-19
 -1      4055 9.68848E-05-2.89569E-05-2.91110E-05 2.59749E-07-1.63762E-19-9.67036E-20
 -1      4056 9.68312E-05-2.91029E-05-2.90256E-05 2.96441E-07-2.10284E-19-3.19362E-19
 -1      4057 9.69389E-05-2.88440E-05-2.91868E-05 1.38317E-07 1.41555E-20-1.79924E-19
 -1      4058 9.67595E-05-2.92004E-05-2.89527E-05 2.91544E-07-5.28914E-20-3.51797E-19
 -1      4059 9.66810E-05-2.92629E-05-2.88923E-05 3.07006E-07 1.37624E-19-3.80580E-19
 -1      4060 9.68382E-05-2.91548E-05-2.90114E-05 1.60652E-07-1.18353E-19-1.33313E-19
 -1      4061 9.65821E-05-2.92971E-05-2.88355E-05 2.96993E-07 2.22635E-19-2.74619E-19
 -1      4062 9.64839E-05-2.93046E-05-2.87898E-05 2.98985E-07 2.37778E-19-1.04045E-19
 -1      4063 9.66713E-05-2.92936E-05-2.88802E-05 1.66939E-07 1.14631E-19-3.52516E-19
 -1      4064 9.63737E-05-2.92897E-05-2.87495E-05 2.85859E-07 1.32660E-19 4.95074E-20
 -1      4065 9.62684E-05-2.92572E-05-2.87181E-05 2.79013E-07 1.81902E-19 2.65960E-19
 -1      4066 9.64656E-05-2.93138E-05-2.87824E-05 1.64478E-07 2.11720E-19-1.55497E-19
 -1      4067 9.61556E-05-2.92087E-05-2.86908E-05 2.67070E-07-6.72734E-20 3.38785E-19
 -1      4068 9.60498E-05-2.91501E-05-2.86705E-05 2.56226E-07-4.44635E-20 8.90336E-20
 -1      4069 9.62420E-05-2.92483E-05-2.87138E-05 1.55760E-07 1.12591E-19 2.75326E-19
 -1      4070 9.59368E-05-2.90789E-05-2.86529E-05 2.44317E-07 8.68076E-21-1.75108E-20
 -1      4071 9.58330E-05-2.90022E-05-2.86409E-05 2.32927E-07-2.36248E-20 1.31771E-19
 -1      4072 9.60167E-05-2.91287E-05-2.86680E-05 1.40696E-07-9.94742E-20 1.09486E-19
 -1      4073 9.57203E-05-2.89156E-05-2.86304E-05 2.17964E-07 3.71959E-20 3.63232E-19
 -1      4074 9.56145E-05-2.88238E-05-2.86243E-05 2.05698E-07-1.50378E-19 3.38762E-19
 -1      4075 9.57973E-05-2.89739E-05-2.86397E-05 1.20299E-07 1.89696E-19 7.44630E-20
 -1      4076 9.55015E-05-2.87240E-05-2.86188E-05 1.90010E-07-2.44250E-19 6.94198E-19
 -1      4077 9.53906E-05-2.86191E-05-2.86167E-05 1.75662E-07-1.35653E-19 8.04414E-19
 -1      4078 9.55727E-05-2.87859E-05-2.86233E-05 9.73528E-08 1.33896E-19 4.30262E-19
 -1      4079 9.52742E-05-2.85076E-05-2.86142E-05 1.54257E-07-7.22426E-20 1.20123E-18
 -1      4080 9.51522E-05-2.83889E-05-2.86141E-05 1.33646E-07-1.43512E-19 1.26930E-18
 -1      4081 9.53458E-05-2.85758E-05-2.86148E-05 6.30671E-08 1.04072E-19 6.45262E-19
 -1      4082 9.50278E-05-2.82646E-05-2.86127E-05 1.00358E-07-2.68591E-19 1.54749E-18
 -1      4083 9.48863E-05-2.81297E-05-2.86126E-05 6.58177E-08-3.39256E-19 1.69176E-18
 -1      4084 9.51069E-05-2.83442E-05-2.86101E-05 6.63763E-09 4.27582E-20 1.03539E-18
 -1      4085 9.47492E-05-2.79912E-05-2.86101E-05 1.05619E-08-5.47262E-19 1.91742E-18
 -1      4086 9.45775E-05-2.78368E-05-2.86078E-05-5.07876E-08 1.90482E-19 1.50091E-18
 -1      4087 9.48464E-05-2.80909E-05-2.86053E-05-8.90410E-08-3.03862E-19 2.32123E-18
 -1      4088 9.44237E-05-2.76833E-05-2.86017E-05-1.43688E-07 3.50106E-19 8.97662E-19
 -1      4089 9.42088E-05-2.75067E-05-2.85940E-05-2.52357E-07 4.68629E-19 6.38775E-19
 -1      4090 9.45550E-05-2.78171E-05-2.85957E-05-2.51169E-07-2.26372E-19 1.46614E-18
 -1      4091 9.40368E-05-2.73402E-05-2.85812E-05-4.06372E-07 5.54435E-19-1.84218E-19
 -1      4092 9.37642E-05-2.71416E-05-2.85639E-05-5.93752E-07 2.65190E-19-4.60519E-20
 -1      4093 9.42256E-05-2.75290E-05-2.85758E-05-5.20902E-07-9.29959E-20-2.51757E-19
 -1      4094 9.35783E-05-2.69700E-05-2.85404E-05-8.42776E-07 1.01975E-19-3.41556E-19
 -1      4095 9.32345E-05-2.67559E-05-2.85073E-05-1.15523E-06 8.61641E-20-7.32363E-19
 -1      4096 9.38581E-05-2.72437E-05-2.85389E-05-9.58157E-07-2.22124E-19-1.24713E-18
 -1      4097 9.30500E-05-2.65994E-05-2.84680E-05-1.54621E-06 8.36063E-20-7.40610E-19
 -1      4098 9.26276E-05-2.63898E-05-2.84106E-05-2.04965E-06-7.65187E-19-3.01177E-19
 -1      4099 9.34681E-05-2.69989E-05-2.84761E-05-1.64654E-06-7.40488E-20-1.41118E-18
 -1      4100 9.24816E-05-2.62905E-05-2.83491E-05-2.64436E-06-1.50158E-18 1.13313E-19
 -1      4101 9.19920E-05-2.61282E-05-2.82560E-05-3.42974E-06-7.92126E-19-1.89424E-19
 -1      4102 9.31006E-05-2.68680E-05-2.83772E-05-2.69623E-06-8.48159E-19-5.76244E-19
 -1      4103 9.19579E-05-2.61588E-05-2.81705E-05-4.25152E-06-2.51722E-19-8.43753E-19
 -1      4104 9.14599E-05-2.61258E-05-2.80361E-05-5.35536E-06-4.99935E-19-3.81470E-19
 -1      4105 9.28564E-05-2.69725E-05-2.82354E-05-4.19380E-06-7.51265E-19-1.04999E-19
 -1      4106 9.16467E-05-2.64046E-05-2.79144E-05-6.56200E-06-6.54356E-19-8.73325E-19
 -1      4107 9.12192E-05-2.66584E-05-2.77104E-05-8.22171E-06-5.75976E-19-4.76463E-19
 -1      4108 9.29113E-05-2.75160E-05-2.80409E-05-6.30458E-06-6.61503E-19-1.17896E-18
 -1      4109 9.17157E-05-2.72603E-05-2.75412E-05-9.80895E-06-1.21643E-18-8.25557E-19
 -1      4110 9.13079E-05-2.78201E-05-2.72136E-05-1.22215E-05-1.61291E-18-1.15327E-18
 -1      4111 9.34134E-05-2.87183E-05-2.77731E-05-9.21652E-06-9.63923E-19-1.89423E-18
 -1      4112 9.60396E-05-2.56499E-05-3.01762E-05 4.72492E-07 4.58940E-19-7.53216E-19
 -1      4113 9.60085E-05-2.54856E-05-3.02273E-05 3.36759E-07 4.82158E-19-6.04372E-19
 -1      4114 9.63281E-05-2.61888E-05-3.00518E-05 1.38187E-07 4.25132E-19-5.53416E-19
 -1      4115 9.64279E-05-2.66379E-05-2.99039E-05 1.55431E-07 3.82099E-19-6.86950E-19
 -1      4116 9.58208E-05-2.90374E-05-2.86200E-05-5.29315E-07-1.94366E-19-1.19191E-19
 -1      4117 9.58960E-05-2.90885E-05-2.86318E-05-5.52479E-07-2.71955E-19-7.66042E-20
 -1      4118 9.60212E-05-2.91507E-05-2.86606E-05-4.72979E-07-8.50783E-20-2.56073E-19
 -1      4119 9.58341E-05-2.90370E-05-2.86289E-05-4.41272E-07-4.76785E-20-1.03592E-18
 -1      4120 9.52286E-05-2.87253E-05-2.84875E-05-2.15616E-06-1.41571E-18-1.31916E-18
 -1      4121 9.49872E-05-2.84906E-05-2.85035E-05-1.89335E-06-1.15719E-18-1.34800E-18
 -1      4122 9.49343E-05-2.83523E-05-2.85252E-05-1.56728E-06-9.23395E-19-1.23009E-18
 -1      4123 9.48222E-05-2.82431E-05-2.85387E-05-1.36278E-06-5.69993E-19-9.49979E-19
 -1      4124 9.46634E-05-2.81536E-05-2.84997E-05-1.82246E-06-7.22732E-19-7.85936E-19
 -1      4125 9.69570E-05-3.05903E-05-2.84203E-05-3.77589E-06-7.81455E-19-1.06135E-18
 -1      4126 9.62432E-05-2.99246E-05-2.84219E-05-3.43858E-06-1.55746E-18-1.37029E-18
 -1      4127 9.87717E-05-3.23587E-05-2.84383E-05-4.67257E-06-9.51130E-19-1.17028E-18
 -1      4128 9.76809E-05-3.13760E-05-2.84082E-05-4.38490E-06-7.81696E-19-7.64055E-19
 -1      4129 9.66087E-05-3.05182E-05-2.83389E-05-4.83037E-06-1.27926E-18-1.85214E-18
 -1      4130 1.01517E-04-3.48392E-05-2.85635E-05-5.35520E-06-1.25703E-18-7.21097E-19
 -1      4131 9.99838E-05-3.35119E-05-2.84662E-05-5.24917E-06-1.02811E-18-8.38098E-19
 -1      4132 9.85432E-05-3.25185E-05-2.83349E-05-6.16557E-06-9.50234E-19-3.02722E-19
 -1      4133 1.05146E-04-3.78221E-05-2.88788E-05-5.48219E-06-1.43128E-18-1.25677E-18
 -1      4134 1.03329E-04-3.62536E-05-2.86846E-05-5.59515E-06-1.39156E-18-6.16588E-19
 -1      4135 1.01680E-04-3.54715E-05-2.84566E-05-7.26055E-06-1.21672E-18-1.06104E-18
 -1      4136 1.09020E-04-4.04483E-05-2.93827E-05-4.49243E-06-1.00684E-18-2.55803E-18
 -1      4137 1.03030E-04-3.63980E-05-2.85885E-05 8.38389E-06-2.11077E-19-2.44586E-19
 -1      4138 1.05862E-04-3.82465E-05-2.89279E-05 6.41068E-06-3.32996E-19-5.83164E-19
 -1      4139 1.08129E-04-3.97666E-05-2.92582E-05 5.57718E-06-8.77612E-19-8.75624E-19
 -1      4140 1.06722E-04-4.02307E-05-2.84194E-05 1.25893E-05-1.04022E-18 5.48438E-19
 -1      4141 1.01952E-04-3.64693E-05-2.81217E-05 1.22227E-05-1.64496E-19 3.05061E-19
 -1      4142 9.66368E-05-2.76298E-05-2.95771E-05-9.72737E-08 4.27056E-19-4.08268E-19
 -1      4143 9.54530E-05-2.87082E-05-2.86034E-05-3.37145E-07 3.06794E-19-6.08496E-19
 -1      4144 9.55357E-05-2.87872E-05-2.86070E-05-3.29390E-07 1.15514E-20-8.61368E-19
 -1      4145 9.54021E-05-2.86547E-05-2.86063E-05-2.68091E-07 4.79652E-20-4.21794E-19
 -1      4146 9.63264E-05-3.24091E-05-2.75288E-05-1.33210E-05-1.20523E-18-1.51878E-18
 -1      4147 1.01553E-04-3.54122E-05-2.83372E-05 1.00326E-05-7.08094E-19 1.24838E-20
 -1      4148 9.51171E-05-2.83942E-05-2.85932E-05-4.61671E-07-5.31698E-20-2.60168E-20
 -1      4149 9.51822E-05-2.84644E-05-2.85951E-05-4.17841E-07-5.20177E-20 1.00574E-19
 -1      4150 9.52089E-05-2.84745E-05-2.85997E-05-3.25609E-07-1.80524E-20-5.83418E-19
 -1      4151 1.17299E-04-4.39389E-05-3.13533E-05-1.13929E-07-3.20387E-18-1.79724E-18
 -1      4152 9.64894E-05-2.66981E-05-2.99142E-05-1.21405E-07 2.11725E-19-6.53924E-19
 -1      4153 9.66831E-05-2.73118E-05-2.97313E-05 2.66097E-08 1.03017E-19-6.06296E-19
 -1      4154 9.67670E-05-2.75069E-05-2.96811E-05 2.82654E-08 2.39098E-19-5.13625E-19
 -1      4155 9.64803E-05-2.65867E-05-2.99559E-05-5.55602E-08 3.31123E-19-8.40365E-19
 -1      4156 9.67831E-05-2.90525E-05-2.90279E-05-4.01113E-07 2.94907E-19-4.07321E-19
 -1      4157 9.68387E-05-2.88980E-05-2.91147E-05-3.54807E-07 3.15984E-19-3.30610E-19
 -1      4158 9.58474E-05-2.94275E-05-2.84474E-05-2.90295E-06-2.04413E-18-1.62826E-18
 -1      4159 9.54113E-05-2.90101E-05-2.84613E-05-2.58804E-06-1.81759E-18-1.63178E-18
 -1      4160 9.54864E-05-2.92557E-05-2.83887E-05-3.60385E-06-1.69577E-18-2.54996E-18
 -1      4161 9.46443E-05-3.22768E-05-2.67514E-05 1.81416E-05 8.95492E-19-7.16357E-19
 -1      4162 9.49772E-05-2.82679E-05-2.85864E-05-6.00444E-07-8.84495E-20-7.57344E-19
 -1      4163 9.50254E-05-2.83218E-05-2.85897E-05-5.29390E-07 4.57443E-20-3.30895E-19
 -1      4164 9.50233E-05-2.83013E-05-2.85932E-05-4.29816E-07 1.15014E-19-1.30749E-18
 -1      4165 1.07379E-04-4.00026E-05-2.89923E-05-7.30932E-06-3.70972E-19-2.23247E-18
 -1      4166 1.14323E-04-4.35000E-05-3.03577E-05 3.47470E-06-3.09084E-18-1.37030E-18
 -1      4167 9.65566E-05-2.68679E-05-2.98714E-05 7.84187E-08 4.25303E-19-5.28879E-19
 -1      4168 9.64933E-05-2.66456E-05-2.99355E-05 5.64363E-08 3.31859E-19-4.48301E-19
 -1      4169 9.66342E-05-2.92330E-05-2.88858E-05-4.19881E-07 3.00067E-20-4.85095E-19
 -1      4170 9.67168E-05-2.91626E-05-2.89496E-05-4.02273E-07 7.84732E-20-4.72936E-19
 -1      4171 9.68142E-05-2.91149E-05-2.90184E-05-2.79530E-07 2.19371E-19-4.60723E-19
 -1      4172 9.56387E-05-2.88703E-05-2.86135E-05-3.25037E-07-1.29048E-19-9.64686E-19
 -1      4173 9.57294E-05-2.89468E-05-2.86206E-05-3.30085E-07-1.10207E-19-1.08786E-18
 -1      4174 9.56015E-05-2.88318E-05-2.86168E-05-2.42197E-07-7.72095E-20-9.71936E-19
 -1      4175 9.46290E-05-2.80259E-05-2.85393E-05-1.25948E-06-7.42072E-19-1.26197E-18
 -1      4176 9.48439E-05-2.82008E-05-2.85544E-05-1.12798E-06-4.45863E-19-1.06618E-18
 -1      4177 9.48136E-05-2.81736E-05-2.85641E-05-9.76937E-07-6.61806E-19-9.48779E-19
 -1      4178 9.49026E-05-2.85200E-05-2.84477E-05-2.59545E-06-1.42882E-18-1.97524E-18
 -1      4179 9.62425E-05-2.92454E-05-2.87113E-05-3.82197E-07-7.41854E-20-2.91896E-19
 -1      4180 9.63411E-05-2.92727E-05-2.87423E-05-3.93017E-07-1.81263E-19-3.72639E-19
 -1      4181 1.08612E-04-4.11069E-05-2.90146E-05 9.43984E-06-1.34342E-18-4.43885E-19
 -1      4182 9.68578E-05-2.86859E-05-2.92188E-05-3.36343E-07 1.02271E-19-3.10456E-19
 -1      4183 9.68596E-05-2.83995E-05-2.93326E-05-2.49400E-07 1.90024E-19-3.26240E-19
 -1      4184 9.69070E-05-2.87761E-05-2.92027E-05-2.36537E-07 2.87136E-19-5.76374E-19
 -1      4185 1.12056E-04-4.24812E-05-2.97307E-05 5.20731E-06-2.09502E-18-7.91752E-19
 -1      4186 9.65166E-05-2.66768E-05-2.99342E-05-1.39585E-08 2.93044E-19-6.78445E-19
 -1      4187 1.02287E-04-3.64776E-05-2.81047E-05-1.13986E-05-2.94920E-19-1.29863E-18
 -1      4188 9.91413E-05-3.34403E-05-2.80745E-05-9.68928E-06-1.03119E-18-1.75170E-18
 -1      4189 9.48757E-05-2.81911E-05-2.85744E-05-8.14569E-07-6.28723E-19-7.03514E-19
 -1      4190 9.48949E-05-2.82150E-05-2.85803E-05-7.08150E-07 6.68243E-21-7.52078E-19
 -1      4191 9.47100E-05-2.80452E-05-2.85664E-05-8.65859E-07-6.52581E-19-1.00391E-18
 -1      4192 9.48518E-05-2.81500E-05-2.85833E-05-6.00866E-07-1.04821E-19-1.01090E-18
 -1      4193 9.64520E-05-2.93047E-05-2.87816E-05-2.84488E-07-2.24049E-19-3.79870E-19
 -1      4194 9.64457E-05-2.92832E-05-2.87830E-05-4.09278E-07-1.98575E-19-4.32101E-19
 -1      4195 9.65416E-05-2.92709E-05-2.88285E-05-4.09487E-07-1.55900E-19-6.22534E-19
 -1      4196 9.69608E-05-2.88221E-05-2.92012E-05-5.66450E-08 2.49151E-19-5.81392E-19
 -1      4197 9.69258E-05-2.90166E-05-2.91002E-05-4.19717E-08 2.36728E-19-4.18517E-19
 -1      4198 9.68625E-05-2.91469E-05-2.90187E-05-5.83003E-08 5.28687E-20-1.99227E-19
 -1      4199 9.67878E-05-2.92385E-05-2.89460E-05-5.03148E-08-1.72397E-20-9.70716E-20
 -1      4200 9.66964E-05-2.92907E-05-2.88856E-05-5.61330E-08-7.24052E-20-1.31546E-19
 -1      4201 9.65941E-05-2.93189E-05-2.88291E-05-5.25276E-08 2.92620E-20-2.40984E-19
 -1      4202 9.64884E-05-2.93162E-05-2.87859E-05-5.35673E-08-1.94542E-20-4.84940E-19
 -1      4203 9.63737E-05-2.92960E-05-2.87458E-05-5.26028E-08 1.12296E-19-3.64605E-19
 -1      4204 9.60895E-05-2.91717E-05-2.86777E-05 3.01377E-08-1.52096E-19 7.57634E-20
 -1      4205 9.59775E-05-2.91032E-05-2.86590E-05 2.29576E-08 7.96148E-21 3.55607E-20
 -1      4206 9.58134E-05-2.89900E-05-2.86381E-05-5.65548E-08 4.71626E-20-2.71060E-19
 -1      4207 9.57023E-05-2.89027E-05-2.86279E-05-6.22745E-08 1.42682E-19-3.77135E-19
 -1      4208 9.55985E-05-2.88151E-05-2.86208E-05-7.19022E-08 1.22133E-19-5.80238E-19
 -1      4209 9.54844E-05-2.87173E-05-2.86148E-05-8.40093E-08 1.43223E-20-3.21296E-19
 -1      4210 9.53821E-05-2.86235E-05-2.86107E-05-1.05587E-07 1.10609E-19-4.59728E-19
 -1      4211 9.52641E-05-2.85169E-05-2.86074E-05-1.27487E-07 1.74085E-19-3.96125E-19
 -1      4212 9.51636E-05-2.84211E-05-2.86044E-05-1.67423E-07 3.00212E-19-8.31840E-19
 -1      4213 9.50379E-05-2.83071E-05-2.86019E-05-2.05580E-07 2.15124E-19-6.34514E-19
 -1      4214 9.49402E-05-2.82138E-05-2.85981E-05-2.73026E-07 3.76896E-20-4.44757E-19
 -1      4215 9.48028E-05-2.80940E-05-2.85942E-05-3.38193E-07-3.22787E-19 1.50107E-19
 -1      4216 9.47122E-05-2.80105E-05-2.85879E-05-4.45811E-07-6.62995E-19 3.30419E-19
 -1      4217 9.45599E-05-2.78892E-05-2.85803E-05-5.54373E-07-2.50405E-19-1.31504E-19
 -1      4218 9.44863E-05-2.78275E-05-2.85695E-05-7.19228E-07-2.63866E-19-3.72040E-19
 -1      4219 9.43193E-05-2.77138E-05-2.85552E-05-8.95156E-07-6.35940E-19-8.05665E-19
 -1      4220 9.42819E-05-2.76941E-05-2.85382E-05-1.13900E-06-8.41284E-19-4.90211E-19
 -1      4221 9.41071E-05-2.76058E-05-2.85138E-05-1.41592E-06-5.81264E-19-6.01916E-19
 -1      4222 9.41398E-05-2.76605E-05-2.84893E-05-1.76403E-06-3.32815E-19-8.95306E-19
 -1      4223 9.39772E-05-2.76299E-05-2.84507E-05-2.18667E-06-4.63051E-19-1.06702E-18
 -1      4224 9.41357E-05-2.78086E-05-2.84189E-05-2.66389E-06-8.82712E-19-1.43059E-18
 -1      4225 9.40279E-05-2.78907E-05-2.83619E-05-3.28728E-06-1.17377E-18-1.56032E-18
 -1      4226 9.43971E-05-2.82680E-05-2.83259E-05-3.91101E-06-1.29764E-18-1.29921E-18
 -1      4227 9.44181E-05-2.85340E-05-2.82519E-05-4.74315E-06-1.30746E-18-1.68572E-18
 -1      4228 9.51181E-05-2.91958E-05-2.82221E-05-5.49314E-06-1.08787E-18-1.72453E-18
 -1      4229 9.54151E-05-2.98031E-05-2.81255E-05-6.66335E-06-7.05202E-19-1.63868E-18
 -1      4230 9.66320E-05-3.08762E-05-2.81253E-05-7.47200E-06-6.04713E-19-1.83530E-18
 -1      4231 9.72559E-05-3.18594E-05-2.80025E-05-9.05584E-06-1.08043E-18-1.33332E-18
 -1      4232 9.65972E-05-2.72223E-05-2.97300E-05 3.57250E-08 4.03955E-19-5.82987E-19
 -1      4233 9.65556E-05-2.69867E-05-2.98111E-05 6.59890E-08 4.31945E-19-5.63137E-19
 -1      4234 9.66944E-05-2.71753E-05-2.97890E-05 1.05902E-11 2.27445E-19-6.10605E-19
 -1      4235 9.61668E-05-2.92182E-05-2.86918E-05-3.30753E-07 3.82414E-19-4.49316E-19
 -1      4236 9.62732E-05-2.92662E-05-2.87203E-05-2.27973E-07 2.58669E-19-5.83188E-19
 -1      4237 9.62930E-05-2.92687E-05-2.87229E-05-7.69002E-09 4.39911E-19-4.66852E-19
 -1      4238 9.60709E-05-2.91688E-05-2.86709E-05-3.18749E-07 5.16374E-19-1.03504E-18
 -1      4239 9.67637E-05-2.79630E-05-2.94932E-05-1.93941E-07 3.23862E-19-3.76866E-19
 -1      4240 9.69417E-05-2.82517E-05-2.94372E-05-5.47347E-08 1.83937E-19-5.00437E-19
 -1      4241 9.69734E-05-2.85785E-05-2.93090E-05-2.19705E-08 5.99171E-20-5.35831E-19
 -1      4242 9.68482E-05-2.81068E-05-2.94667E-05-1.49366E-07 2.18080E-19-2.91571E-19
 -1      4243 9.67317E-05-2.74206E-05-2.96985E-05-2.45039E-08 2.97184E-19-4.44357E-19
 -1      4244 9.58614E-05-2.90299E-05-2.86438E-05-1.63820E-07-8.08336E-20-4.97601E-19
 -1      4245 9.61754E-05-2.92192E-05-2.86947E-05-1.03393E-08 1.63971E-19-3.39658E-19
 -1      4246 9.68169E-05-2.76126E-05-2.96606E-05 2.38844E-08 2.97830E-19-5.13712E-19
 -1      4247 9.66511E-05-2.92729E-05-2.88811E-05-2.91591E-07 1.89854E-20-4.29372E-19
 -1      4248 9.68473E-05-2.79601E-05-2.95240E-05-9.55757E-08 1.47874E-19-3.62027E-19
 -1      4249 9.61133E-05-2.91906E-05-2.86831E-05-1.34414E-07 5.49760E-19-5.64574E-19
 -1      4250 9.58911E-05-2.90573E-05-2.86425E-05-2.64690E-07 1.08258E-19-1.15035E-18
 -1      4251 9.59880E-05-2.91224E-05-2.86564E-05-2.73151E-07 3.62473E-19-9.03431E-19
 -3
    1PSTEP                         4           1           1          
  100CL  101 1.000000000        4251                     0    1           1
 -4  ERROR       1    1
 -5  STR(%)      1    1    0    0
 -1         1 1.40105E+01
 -1         2 2.49993E+01
 -1         3 3.99965E-03
 -1         4 8.60034E-02
 -1         5 1.40390E+01
 -1         6 1.33802E+01
 -1         7 1.33802E+01
 -1         8 3.65752E+00
 -1         9 1.82623E+00
 -1        10 1.29091E+00
 -1        11 1.04402E+00
 -1        12 9.00085E-01
 -1        13 8.08925E-01
 -1        14 7.53855E-01
 -1        15 7.55747E-01
 -1        16 8.13040E-01
 -1        17 9.00711E-01
 -1        18 1.05279E+00
 -1        19 1.30637E+00
 -1        20 1.83087E+00
 -1        21 3.50837E+00
 -1        22 8.64129E+00
 -1        23 1.33802E+01
 -1        24 4.25975E+00
 -1        25 3.40192E+00
 -1        26 2.15694E+00
 -1        27 1.39137E+00
 -1        28 1.02852E+00
 -1        29 7.86212E-01
 -1        30 6.04319E-01
 -1        31 4.62681E-01
 -1        32 3.53163E-01
 -1        33 2.73758E-01
 -1        34 2.09985E-01
 -1        35 1.59792E-01
 -1        36 1.21211E-01
 -1        37 9.24529E-02
 -1        38 6.89575E-02
 -1        39 6.03861E-02
 -1        40 5.72769E-02
 -1        41 6.90928E-02
 -1        42 9.18224E-02
 -1        43 1.30229E-01
 -1        44 1.91820E-01
 -1        45 2.88085E-01
 -1        46 4.35832E-01
 -1        47 6.57760E-01
 -1        48 9.79889E-01
 -1        49 1.42111E+00
 -1        50 1.96867E+00
 -1        51 2.85574E+00
 -1        52 4.01630E+00
 -1        53 5.47383E+00
 -1        54 6.54769E+00
 -1        55 6.54769E+00
 -1        56 5.68055E+00
 -1        57 1.45649E+01
 -1        58 1.86401E+01
 -1        59 1.86401E+01
 -1        60 1.61154E+01
 -1        61 7.56563E+00
 -1        62 6.36479E+00
 -1        63 6.36479E+00
 -1        64 6.08277E+00
 -1        65 4.69993E+00
 -1        66 3.40481E+00
 -1        67 2.31964E+00
 -1        68 1.76415E+00
 -1        69 1.28117E+00
 -1        70 9.01469E-01
 -1        71 5.93598E-01
 -1        72 4.28467E-01
 -1        73 1.40390E+01
 -1        74 3.39572E+00
 -1        75 2.41475E+00
 -1        76 1.66639E+00
 -1        77 1.14464E+00
 -1        78 9.06824E-01
 -1        79 7.32505E-01
 -1        80 5.89406E-01
 -1        81 4.70310E-01
 -1        82 3.71341E-01
 -1        83 2.96889E-01
 -1        84 2.35599E-01
 -1        85 1.85097E-01
 -1        86 1.44511E-01
 -1        87 1.12713E-01
 -1        88 8.84555E-02
 -1        89 7.04188E-02
 -1        90 5.72138E-02
 -1        91 5.18125E-02
 -1        92 5.08873E-02
 -1        93 5.11804E-02
 -1        94 5.17985E-02
 -1        95 7.23337E-02
 -1        96 9.37436E-02
 -1        97 1.57190E-01
 -1        98 2.35108E-01
 -1        99 3.17112E-01
 -1       100 4.29483E-01
 -1       101 6.00731E-01
 -1       102 7.70490E-01
 -1       103 9.01138E-01
 -1       104 1.10783E+00
 -1       105 1.53683E+00
 -1       106 1.89751E+00
 -1       107 2.09480E+00
 -1       108 2.20462E+00
 -1       109 2.36138E+00
 -1       110 2.36138E+00
 -1       111 2.24368E+00
 -1       112 1.91594E+00
 -1       113 1.49849E+00
 -1       114 1.11912E+00
 -1       115 7.70472E-01
 -1       116 4.86913E-01
 -1       117 2.97688E-01
 -1       118 1.75166E-01
 -1       119 9.13657E-02
 -1       120 4.34061E-02
 -1       121 1.93793E-02
 -1       122 8.49289E-03
 -1       123 1.35190E-02
 -1       124 2.94217E-02
 -1       125 4.47446E-02
 -1       126 5.17810E-02
 -1       127 5.17810E-02
 -1       128 4.61649E-02
 -1       129 2.38869E-02
 -1       130 6.61475E-02
 -1       131 1.04771E-01
 -1       132 1.20392E-01
 -1       133 1.20392E-01
 -1       134 1.01344E-01
 -1       135 6.76282E-02
 -1       136 1.32762E-01
 -1       137 2.37732E-01
 -1       138 2.49993E+01
 -1       139 4.53268E+01
 -1       140 4.53268E+01
 -1       141 1.81074E+01
 -1       142 1.19658E+01
 -1       143 1.19658E+01
 -1       144 1.20976E+01
 -1       145 1.23166E+01
 -1       146 1.23166E+01
 -1       147 1.19998E+01
 -1       148 2.42804E+01
 -1       149 3.28050E+01
 -1       150 3.28050E+01
 -1       151 2.45535E+01
 -1       152 2.41829E+01
 -1       153 2.55211E+01
 -1       154 2.62887E+01
 -1       155 3.02221E+01
 -1       156 2.94214E+01
 -1       157 1.51547E+01
 -1       158 1.42012E+01
 -1       159 1.38966E+01
 -1       160 1.38966E+01
 -1       161 1.88482E+01
 -1       162 4.60455E+01
 -1       163 4.60455E+01
 -1       164 2.45706E+01
 -1       165 2.44736E+01
 -1       166 6.19554E+00
 -1       167 2.30020E+00
 -1       168 1.50583E+00
 -1       169 1.15850E+00
 -1       170 9.72222E-01
 -1       171 8.64494E-01
 -1       172 7.96072E-01
 -1       173 7.55747E-01
 -1       174 7.99357E-01
 -1       175 8.67093E-01
 -1       176 9.80991E-01
 -1       177 1.17163E+00
 -1       178 1.52695E+00
 -1       179 2.25886E+00
 -1       180 3.93311E+00
 -1       181 1.40390E+01
 -1       182 4.25975E+00
 -1       183 3.40192E+00
 -1       184 2.15694E+00
 -1       185 1.46954E+00
 -1       186 1.04272E+00
 -1       187 7.86212E-01
 -1       188 6.04319E-01
 -1       189 4.74318E-01
 -1       190 3.73504E-01
 -1       191 2.93529E-01
 -1       192 2.36456E-01
 -1       193 1.87970E-01
 -1       194 1.47915E-01
 -1       195 1.15656E-01
 -1       196 8.78638E-02
 -1       197 7.17348E-02
 -1       198 5.69827E-02
 -1       199 6.13439E-02
 -1       200 7.79698E-02
 -1       201 1.05877E-01
 -1       202 1.50000E-01
 -1       203 2.17738E-01
 -1       204 3.31070E-01
 -1       205 5.40067E-01
 -1       206 8.68812E-01
 -1       207 1.36972E+00
 -1       208 2.09372E+00
 -1       209 3.05209E+00
 -1       210 4.10902E+00
 -1       211 5.04133E+00
 -1       212 5.55464E+00
 -1       213 6.58663E+00
 -1       214 8.17606E+00
 -1       215 5.87338E+00
 -1       216 1.45649E+01
 -1       217 1.86401E+01
 -1       218 1.61154E+01
 -1       219 8.96460E+00
 -1       220 7.20496E+00
 -1       221 6.78997E+00
 -1       222 6.08277E+00
 -1       223 5.01943E+00
 -1       224 4.34948E+00
 -1       225 3.36117E+00
 -1       226 2.36952E+00
 -1       227 1.55567E+00
 -1       228 9.57067E-01
 -1       229 6.22250E-01
 -1       230 4.28467E-01
 -1       231 3.39572E+00
 -1       232 2.41475E+00
 -1       233 1.66639E+00
 -1       234 1.14464E+00
 -1       235 9.06824E-01
 -1       236 7.32505E-01
 -1       237 5.89406E-01
 -1       238 4.70310E-01
 -1       239 3.71341E-01
 -1       240 2.96889E-01
 -1       241 2.35599E-01
 -1       242 1.86576E-01
 -1       243 1.47559E-01
 -1       244 1.16043E-01
 -1       245 9.11752E-02
 -1       246 7.19526E-02
 -1       247 5.72748E-02
 -1       248 5.18125E-02
 -1       249 5.05448E-02
 -1       250 5.08873E-02
 -1       251 5.11804E-02
 -1       252 5.28653E-02
 -1       253 7.23337E-02
 -1       254 1.06604E-01
 -1       255 1.57190E-01
 -1       256 2.35108E-01
 -1       257 3.38076E-01
 -1       258 4.62664E-01
 -1       259 6.00731E-01
 -1       260 7.70490E-01
 -1       261 9.51091E-01
 -1       262 1.28053E+00
 -1       263 1.56846E+00
 -1       264 1.89751E+00
 -1       265 2.09480E+00
 -1       266 2.20462E+00
 -1       267 2.36138E+00
 -1       268 2.24368E+00
 -1       269 1.91594E+00
 -1       270 1.49849E+00
 -1       271 1.13045E+00
 -1       272 8.21263E-01
 -1       273 5.53052E-01
 -1       274 3.43393E-01
 -1       275 2.06658E-01
 -1       276 1.12709E-01
 -1       277 5.44841E-02
 -1       278 2.13105E-02
 -1       279 2.85129E-02
 -1       280 5.10343E-02
 -1       281 8.09925E-02
 -1       282 9.73714E-02
 -1       283 1.00081E-01
 -1       284 1.00081E-01
 -1       285 8.49065E-02
 -1       286 9.77527E-02
 -1       287 1.81383E-01
 -1       288 2.26957E-01
 -1       289 2.33855E-01
 -1       290 2.33855E-01
 -1       291 1.84425E-01
 -1       292 3.15217E-01
 -1       293 2.87602E+01
 -1       294 3.87737E+01
 -1       295 4.53268E+01
 -1       296 2.00952E+01
 -1       297 1.06987E+01
 -1       298 1.19658E+01
 -1       299 1.18610E+01
 -1       300 1.20976E+01
 -1       301 1.23166E+01
 -1       302 1.18523E+01
 -1       303 1.19998E+01
 -1       304 2.62706E+01
 -1       305 3.28050E+01
 -1       306 3.17914E+01
 -1       307 3.28399E+01
 -1       308 3.28399E+01
 -1       309 3.40276E+01
 -1       310 3.40276E+01
 -1       311 3.02221E+01
 -1       312 1.51547E+01
 -1       313 1.42012E+01
 -1       314 1.57823E+01
 -1       315 1.57823E+01
 -1       316 1.41392E+01
 -1       317 1.19797E+01
 -1       318 1.92584E+01
 -1       319 4.60455E+01
 -1       320 3.86949E+01
 -1       321 2.73065E+01
 -1       322 2.87602E+01
 -1       323 3.15217E-01
 -1       324 1.07208E+00
 -1       325 2.53998E+00
 -1       326 7.89103E-01
 -1       327 6.95155E-01
 -1       328 6.32007E-01
 -1       329 5.87624E-01
 -1       330 5.90772E-01
 -1       331 6.34451E-01
 -1       332 7.01170E-01
 -1       333 7.96460E-01
 -1       334 9.30588E-01
 -1       335 1.14401E+00
 -1       336 1.33018E+00
 -1       337 2.19709E+00
 -1       338 1.91291E+00
 -1       339 2.64454E+01
 -1       340 1.73889E+00
 -1       341 1.28596E+00
 -1       342 9.21434E-01
 -1       343 6.66352E-01
 -1       344 5.44180E-01
 -1       345 4.46651E-01
 -1       346 3.60626E-01
 -1       347 2.93683E-01
 -1       348 2.38071E-01
 -1       349 1.90215E-01
 -1       350 1.52968E-01
 -1       351 1.22985E-01
 -1       352 9.59012E-02
 -1       353 7.70871E-02
 -1       354 5.89357E-02
 -1       355 5.27679E-02
 -1       356 6.13439E-02
 -1       357 7.79698E-02
 -1       358 1.17772E-01
 -1       359 1.89371E-01
 -1       360 2.99347E-01
 -1       361 4.68575E-01
 -1       362 7.27685E-01
 -1       363 1.11983E+00
 -1       364 1.70152E+00
 -1       365 2.53764E+00
 -1       366 3.63483E+00
 -1       367 5.05606E+00
 -1       368 6.74191E+00
 -1       369 8.74766E+00
 -1       370 1.18664E+01
 -1       371 1.10596E+01
 -1       372 9.55822E+00
 -1       373 7.27511E+00
 -1       374 5.95942E+00
 -1       375 4.93572E+00
 -1       376 3.68828E+00
 -1       377 2.60393E+00
 -1       378 1.75333E+00
 -1       379 1.13237E+00
 -1       380 6.91652E-01
 -1       381 4.46890E-01
 -1       382 1.12621E+00
 -1       383 2.67274E+01
 -1       384 8.08698E-01
 -1       385 6.97716E-01
 -1       386 5.44100E-01
 -1       387 4.37812E-01
 -1       388 3.71381E-01
 -1       389 3.07511E-01
 -1       390 2.51209E-01
 -1       391 2.05410E-01
 -1       392 1.66306E-01
 -1       393 1.33844E-01
 -1       394 1.06868E-01
 -1       395 8.50212E-02
 -1       396 6.77037E-02
 -1       397 5.41577E-02
 -1       398 4.68828E-02
 -1       399 4.47305E-02
 -1       400 4.37290E-02
 -1       401 4.32655E-02
 -1       402 4.32655E-02
 -1       403 4.26883E-02
 -1       404 4.81078E-02
 -1       405 1.11238E-01
 -1       406 2.17817E-01
 -1       407 3.63959E-01
 -1       408 5.48885E-01
 -1       409 7.63831E-01
 -1       410 9.89976E-01
 -1       411 1.23440E+00
 -1       412 1.44643E+00
 -1       413 1.56862E+00
 -1       414 1.58029E+00
 -1       415 1.58029E+00
 -1       416 1.58087E+00
 -1       417 1.58087E+00
 -1       418 1.57973E+00
 -1       419 1.43876E+00
 -1       420 1.19664E+00
 -1       421 9.73882E-01
 -1       422 7.43370E-01
 -1       423 5.39035E-01
 -1       424 3.66349E-01
 -1       425 2.31884E-01
 -1       426 1.34777E-01
 -1       427 6.91374E-02
 -1       428 3.02516E-02
 -1       429 1.38158E-01
 -1       430 1.12840E-01
 -1       431 6.24439E-02
 -1       432 1.42867E-01
 -1       433 1.56195E-01
 -1       434 1.56195E-01
 -1       435 1.41999E-01
 -1       436 2.17419E-01
 -1       437 3.16511E-01
 -1       438 3.41437E-01
 -1       439 3.62976E-01
 -1       440 3.62976E-01
 -1       441 3.66694E-01
 -1       442 1.49222E+01
 -1       443 4.05397E+01
 -1       444 1.32254E+01
 -1       445 4.05397E+01
 -1       446 9.13500E-01
 -1       447 8.53297E+00
 -1       448 7.72354E+00
 -1       449 9.88272E+00
 -1       450 1.03952E+01
 -1       451 1.04514E+01
 -1       452 9.03870E+00
 -1       453 6.92579E+00
 -1       454 1.08577E+01
 -1       455 1.89232E+01
 -1       456 3.17914E+01
 -1       457 3.55416E+01
 -1       458 3.55416E+01
 -1       459 3.31160E+01
 -1       460 3.40276E+01
 -1       461 2.05944E+01
 -1       462 1.19601E+01
 -1       463 7.64148E+00
 -1       464 2.91826E+01
 -1       465 2.64315E+01
 -1       466 8.38273E+00
 -1       467 4.86758E-01
 -1       468 5.10692E-01
 -1       469 4.31563E-01
 -1       470 4.57449E-01
 -1       471 4.87041E-01
 -1       472 5.10975E-01
 -1       473 5.10975E-01
 -1       474 5.05729E-01
 -1       475 6.43320E-01
 -1       476 1.31473E+00
 -1       477 2.91826E+01
 -1       478 8.17039E-01
 -1       479 7.06321E-01
 -1       480 5.94338E-01
 -1       481 4.81430E-01
 -1       482 3.81879E-01
 -1       483 3.25685E-01
 -1       484 2.75585E-01
 -1       485 2.28009E-01
 -1       486 1.88048E-01
 -1       487 1.53820E-01
 -1       488 1.23698E-01
 -1       489 9.71011E-02
 -1       490 7.71217E-02
 -1       491 5.89357E-02
 -1       492 4.47979E-02
 -1       493 4.69780E-02
 -1       494 5.63715E-02
 -1       495 9.15263E-02
 -1       496 1.44275E-01
 -1       497 2.20191E-01
 -1       498 3.30425E-01
 -1       499 4.90850E-01
 -1       500 7.48235E-01
 -1       501 1.17406E+00
 -1       502 1.84973E+00
 -1       503 2.89757E+00
 -1       504 4.56090E+00
 -1       505 7.04177E+00
 -1       506 1.03289E+01
 -1       507 1.23383E+01
 -1       508 4.05397E+01
 -1       509 9.44024E-01
 -1       510 7.27511E+00
 -1       511 6.46126E+00
 -1       512 5.15489E+00
 -1       513 3.36255E+00
 -1       514 2.11942E+00
 -1       515 1.31415E+00
 -1       516 8.02587E-01
 -1       517 5.29382E-01
 -1       518 6.97716E-01
 -1       519 7.39391E-01
 -1       520 4.37812E-01
 -1       521 3.71381E-01
 -1       522 3.07511E-01
 -1       523 2.51209E-01
 -1       524 2.05935E-01
 -1       525 1.66069E-01
 -1       526 1.31641E-01
 -1       527 1.04263E-01
 -1       528 8.16425E-02
 -1       529 6.21012E-02
 -1       530 4.53764E-02
 -1       531 3.94945E-02
 -1       532 3.78230E-02
 -1       533 3.70186E-02
 -1       534 3.84456E-02
 -1       535 4.32655E-02
 -1       536 4.72615E-02
 -1       537 6.05351E-02
 -1       538 8.77349E-02
 -1       539 1.63193E-01
 -1       540 2.77346E-01
 -1       541 4.23978E-01
 -1       542 6.03020E-01
 -1       543 8.36146E-01
 -1       544 1.06914E+00
 -1       545 1.26055E+00
 -1       546 1.44643E+00
 -1       547 1.56862E+00
 -1       548 1.58029E+00
 -1       549 1.50910E+00
 -1       550 1.58087E+00
 -1       551 1.55058E+00
 -1       552 1.41245E+00
 -1       553 1.23497E+00
 -1       554 1.03533E+00
 -1       555 8.04573E-01
 -1       556 5.85189E-01
 -1       557 4.20205E-01
 -1       558 2.83124E-01
 -1       559 1.97438E-01
 -1       560 1.78260E-01
 -1       561 2.17648E-01
 -1       562 2.41423E-01
 -1       563 1.95210E-01
 -1       564 1.96101E-01
 -1       565 2.41423E-01
 -1       566 2.81592E-01
 -1       567 3.73347E-01
 -1       568 4.97455E-01
 -1       569 5.41715E-01
 -1       570 5.41715E-01
 -1       571 5.15392E-01
 -1       572 1.13201E+01
 -1       573 8.18107E+00
 -1       574 1.81877E+01
 -1       575 5.44100E-01
 -1       576 9.55822E+00
 -1       577 8.64335E-01
 -1       578 1.83259E+01
 -1       579 4.57579E-01
 -1       580 3.01510E+00
 -1       581 5.40904E+00
 -1       582 6.90026E+00
 -1       583 5.14944E+00
 -1       584 6.85816E+00
 -1       585 8.75046E+00
 -1       586 1.46585E+01
 -1       587 2.26454E+01
 -1       588 3.55416E+01
 -1       589 3.31160E+01
 -1       590 1.48556E+01
 -1       591 7.09262E+00
 -1       592 2.64315E+01
 -1       593 5.10692E-01
 -1       594 5.80397E+00
 -1       595 6.96634E+00
 -1       596 4.60975E-01
 -1       597 2.31682E+01
 -1       598 3.58408E-01
 -1       599 3.42717E-01
 -1       600 3.61597E-01
 -1       601 3.38230E-01
 -1       602 4.31378E-01
 -1       603 7.19580E-01
 -1       604 3.60958E-01
 -1       605 3.94802E-01
 -1       606 3.85316E-01
 -1       607 3.45054E-01
 -1       608 2.95428E-01
 -1       609 2.45353E-01
 -1       610 2.13086E-01
 -1       611 1.80100E-01
 -1       612 1.48318E-01
 -1       613 1.19548E-01
 -1       614 9.58660E-02
 -1       615 7.61934E-02
 -1       616 5.82117E-02
 -1       617 4.21618E-02
 -1       618 2.94415E-02
 -1       619 3.31434E-02
 -1       620 5.69688E-02
 -1       621 9.72076E-02
 -1       622 1.59474E-01
 -1       623 2.59013E-01
 -1       624 4.11556E-01
 -1       625 6.46158E-01
 -1       626 1.00836E+00
 -1       627 1.57078E+00
 -1       628 2.37458E+00
 -1       629 3.82808E+00
 -1       630 6.20013E+00
 -1       631 8.26054E+00
 -1       632 2.72300E-01
 -1       633 4.68452E+00
 -1       634 2.92570E+00
 -1       635 1.82917E+00
 -1       636 1.11637E+00
 -1       637 7.14730E-01
 -1       638 2.32856E-01
 -1       639 3.26803E-01
 -1       640 1.95233E-01
 -1       641 1.60172E-01
 -1       642 1.30871E-01
 -1       643 1.04738E-01
 -1       644 8.17253E-02
 -1       645 6.21012E-02
 -1       646 4.53764E-02
 -1       647 3.12435E-02
 -1       648 2.85229E-02
 -1       649 2.87172E-02
 -1       650 2.95733E-02
 -1       651 3.61951E-02
 -1       652 4.72615E-02
 -1       653 6.81918E-02
 -1       654 1.01553E-01
 -1       655 1.57640E-01
 -1       656 2.56968E-01
 -1       657 3.83387E-01
 -1       658 5.28878E-01
 -1       659 6.92397E-01
 -1       660 8.93139E-01
 -1       661 1.09056E+00
 -1       662 1.21328E+00
 -1       663 1.28341E+00
 -1       664 1.29467E+00
 -1       665 1.23082E+00
 -1       666 1.24556E+00
 -1       667 1.30073E+00
 -1       668 1.27354E+00
 -1       669 1.20715E+00
 -1       670 1.06845E+00
 -1       671 8.66934E-01
 -1       672 6.90923E-01
 -1       673 5.37863E-01
 -1       674 3.99838E-01
 -1       675 2.81643E-01
 -1       676 2.32864E-01
 -1       677 4.04760E-01
 -1       678 3.37327E-01
 -1       679 4.74696E-01
 -1       680 3.69974E-01
 -1       681 1.00332E+01
 -1       682 6.36451E-01
 -1       683 7.14692E-01
 -1       684 7.14692E-01
 -1       685 1.49404E+01
 -1       686 1.03923E+01
 -1       687 6.35455E+00
 -1       688 3.49319E-01
 -1       689 5.68490E+00
 -1       690 7.00800E+00
 -1       691 4.62859E+00
 -1       692 3.96076E-01
 -1       693 3.61597E-01
 -1       694 6.29006E+00
 -1       695 1.52940E+01
 -1       696 4.16589E+00
 -1       697 4.08691E+00
 -1       698 8.30979E+00
 -1       699 1.19658E+01
 -1       700 1.70397E+01
 -1       701 1.28652E+01
 -1       702 1.67933E+01
 -1       703 3.02530E+00
 -1       704 3.60958E-01
 -1       705 3.42029E-01
 -1       706 1.34259E+01
 -1       707 3.25721E+00
 -1       708 3.95036E-01
 -1       709 1.44691E+01
 -1       710 4.61856E-01
 -1       711 6.34150E+00
 -1       712 4.87128E-01
 -1       713 2.40105E-01
 -1       714 7.55716E-01
 -1       715 2.64839E-01
 -1       716 3.57581E-01
 -1       717 1.25097E+01
 -1       718 7.51144E+00
 -1       719 2.50999E-01
 -1       720 2.44053E-01
 -1       721 1.87198E-01
 -1       722 2.54603E-01
 -1       723 2.48669E-01
 -1       724 2.27147E-01
 -1       725 1.98614E-01
 -1       726 1.71370E-01
 -1       727 1.49727E-01
 -1       728 1.26667E-01
 -1       729 1.04442E-01
 -1       730 8.39115E-02
 -1       731 6.44442E-02
 -1       732 4.66300E-02
 -1       733 3.00804E-02
 -1       734 2.98661E-02
 -1       735 4.62790E-02
 -1       736 8.10998E-02
 -1       737 1.31374E-01
 -1       738 2.03369E-01
 -1       739 3.07374E-01
 -1       740 4.57994E-01
 -1       741 6.76400E-01
 -1       742 9.94085E-01
 -1       743 1.44680E+00
 -1       744 2.39874E+00
 -1       745 4.03860E+00
 -1       746 2.15772E-01
 -1       747 1.95591E+00
 -1       748 1.52406E+00
 -1       749 1.34709E+00
 -1       750 2.53029E-01
 -1       751 1.34233E-01
 -1       752 1.08968E-01
 -1       753 8.59080E-02
 -1       754 6.52659E-02
 -1       755 4.68889E-02
 -1       756 3.12435E-02
 -1       757 1.94073E-02
 -1       758 1.87897E-02
 -1       759 2.38648E-02
 -1       760 3.39407E-02
 -1       761 4.63374E-02
 -1       762 6.81918E-02
 -1       763 1.01553E-01
 -1       764 1.56835E-01
 -1       765 2.35190E-01
 -1       766 3.65793E-01
 -1       767 5.23096E-01
 -1       768 6.92397E-01
 -1       769 8.45138E-01
 -1       770 1.01215E+00
 -1       771 1.12814E+00
 -1       772 1.23365E+00
 -1       773 1.41949E+00
 -1       774 1.37644E+00
 -1       775 1.30716E+00
 -1       776 1.46363E+00
 -1       777 1.35188E+00
 -1       778 1.21882E+00
 -1       779 1.10965E+00
 -1       780 9.97933E-01
 -1       781 8.40657E-01
 -1       782 6.90923E-01
 -1       783 5.29393E-01
 -1       784 3.83477E-01
 -1       785 2.77751E-01
 -1       786 1.03939E+01
 -1       787 3.46888E+00
 -1       788 6.17925E+00
 -1       789 6.66561E-01
 -1       790 3.02530E+00
 -1       791 1.34709E+00
 -1       792 1.13608E+00
 -1       793 1.03939E+01
 -1       794 1.60887E-01
 -1       795 7.95548E+00
 -1       796 2.95908E-01
 -1       797 3.07987E+00
 -1       798 7.00800E+00
 -1       799 2.30535E-01
 -1       800 5.85169E+00
 -1       801 4.51689E+00
 -1       802 9.54062E+00
 -1       803 2.74465E+00
 -1       804 4.24435E+00
 -1       805 6.72291E+00
 -1       806 2.88626E-01
 -1       807 4.05968E+00
 -1       808 2.81509E-01
 -1       809 2.79426E-01
 -1       810 2.85974E-01
 -1       811 5.43066E+00
 -1       812 3.08885E-01
 -1       813 2.88626E-01
 -1       814 2.84141E+00
 -1       815 2.80393E-01
 -1       816 5.17513E-01
 -1       817 5.63306E-01
 -1       818 6.34150E+00
 -1       819 3.71961E-01
 -1       820 2.71812E-01
 -1       821 4.05968E+00
 -1       822 7.96608E+00
 -1       823 2.92292E-01
 -1       824 3.07608E-01
 -1       825 4.44804E+00
 -1       826 1.73516E-01
 -1       827 1.81901E-01
 -1       828 1.74875E-01
 -1       829 1.59013E-01
 -1       830 1.38878E-01
 -1       831 1.22116E-01
 -1       832 1.05276E-01
 -1       833 8.82063E-02
 -1       834 7.10876E-02
 -1       835 5.49978E-02
 -1       836 4.01557E-02
 -1       837 3.78968E-02
 -1       838 4.25004E-02
 -1       839 6.01653E-02
 -1       840 9.29716E-02
 -1       841 1.35993E-01
 -1       842 1.93607E-01
 -1       843 3.03697E-01
 -1       844 4.71813E-01
 -1       845 7.23407E-01
 -1       846 1.02867E+00
 -1       847 1.58886E+00
 -1       848 2.72172E+00
 -1       849 1.95477E-01
 -1       850 1.52406E+00
 -1       851 6.34150E+00
 -1       852 1.74279E-01
 -1       853 3.65589E+00
 -1       854 9.36468E-02
 -1       855 1.13358E-01
 -1       856 5.73863E-02
 -1       857 4.12522E-02
 -1       858 2.62123E-02
 -1       859 1.81852E-02
 -1       860 2.04109E-02
 -1       861 3.27754E-02
 -1       862 4.79461E-02
 -1       863 6.76616E-02
 -1       864 9.93834E-02
 -1       865 1.56835E-01
 -1       866 2.31358E-01
 -1       867 3.26132E-01
 -1       868 4.61387E-01
 -1       869 6.37119E-01
 -1       870 8.45138E-01
 -1       871 1.08639E+00
 -1       872 1.21197E+00
 -1       873 1.24216E+00
 -1       874 1.78980E+00
 -1       875 2.08033E+00
 -1       876 2.74780E+00
 -1       877 3.15542E+00
 -1       878 2.42001E+00
 -1       879 1.37101E+00
 -1       880 1.26887E+00
 -1       881 1.19141E+00
 -1       882 9.97933E-01
 -1       883 8.27616E-01
 -1       884 7.68810E-01
 -1       885 4.67132E-01
 -1       886 2.48619E+00
 -1       887 1.32987E-01
 -1       888 2.15272E-01
 -1       889 6.08568E+00
 -1       890 2.96456E+00
 -1       891 1.39416E-01
 -1       892 2.70680E+00
 -1       893 2.92292E-01
 -1       894 2.92102E-01
 -1       895 1.50735E-01
 -1       896 2.78485E+00
 -1       897 6.37201E+00
 -1       898 5.18711E+00
 -1       899 7.96608E+00
 -1       900 7.48579E-02
 -1       901 5.17351E+00
 -1       902 3.17995E+00
 -1       903 2.13433E+00
 -1       904 2.07857E-01
 -1       905 2.17191E-01
 -1       906 2.08474E-01
 -1       907 2.78485E+00
 -1       908 3.36599E+00
 -1       909 7.78142E-01
 -1       910 1.53337E+00
 -1       911 2.27321E-01
 -1       912 2.17191E-01
 -1       913 9.11122E-01
 -1       914 7.68810E-01
 -1       915 1.53337E+00
 -1       916 5.80188E+00
 -1       917 3.15542E+00
 -1       918 3.17995E+00
 -1       919 3.15542E+00
 -1       920 8.76439E-02
 -1       921 1.19232E-01
 -1       922 2.75378E-01
 -1       923 1.22196E-01
 -1       924 1.35099E-01
 -1       925 1.34644E-01
 -1       926 1.25714E-01
 -1       927 1.12071E-01
 -1       928 9.71763E-02
 -1       929 8.47104E-02
 -1       930 7.11428E-02
 -1       931 5.78292E-02
 -1       932 4.54681E-02
 -1       933 4.29267E-02
 -1       934 4.44155E-02
 -1       935 5.47403E-02
 -1       936 7.65968E-02
 -1       937 1.10532E-01
 -1       938 1.61352E-01
 -1       939 2.35016E-01
 -1       940 3.37746E-01
 -1       941 4.87455E-01
 -1       942 8.01285E-01
 -1       943 1.27345E+00
 -1       944 1.91624E+00
 -1       945 6.37201E+00
 -1       946 1.51307E-01
 -1       947 1.22843E-01
 -1       948 2.55456E+00
 -1       949 3.73027E+00
 -1       950 2.03435E-01
 -1       951 3.46909E-02
 -1       952 4.79810E-02
 -1       953 2.76489E-02
 -1       954 3.59687E-02
 -1       955 4.79829E-02
 -1       956 7.16663E-02
 -1       957 1.02179E-01
 -1       958 1.43029E-01
 -1       959 2.13811E-01
 -1       960 3.26132E-01
 -1       961 4.61387E-01
 -1       962 6.13653E-01
 -1       963 8.54671E-01
 -1       964 1.12823E+00
 -1       965 1.61645E+00
 -1       966 2.55456E+00
 -1       967 1.95971E+00
 -1       968 2.56117E+00
 -1       969 1.45405E+00
 -1       970 1.19141E+00
 -1       971 9.95522E-01
 -1       972 7.73518E-01
 -1       973 1.78625E+00
 -1       974 2.13433E+00
 -1       975 1.07578E-01
 -1       976 5.80188E+00
 -1       977 2.75378E-01
 -1       978 1.39280E-01
 -1       979 3.91004E+00
 -1       980 3.08956E-02
 -1       981 9.27967E-02
 -1       982 5.78725E+00
 -1       983 2.52827E+00
 -1       984 1.86898E+00
 -1       985 1.55830E-01
 -1       986 2.43776E+00
 -1       987 8.34976E-01
 -1       988 2.87415E+00
 -1       989 6.24438E-02
 -1       990 2.78485E+00
 -1       991 1.45071E-01
 -1       992 3.65589E+00
 -1       993 1.42219E+00
 -1       994 3.47974E+00
 -1       995 1.42219E+00
 -1       996 1.88787E-01
 -1       997 1.52983E-01
 -1       998 7.74087E-02
 -1       999 7.58181E-02
 -1      1000 8.85513E-02
 -1      1001 1.00966E-01
 -1      1002 1.02528E-01
 -1      1003 9.71441E-02
 -1      1004 8.79261E-02
 -1      1005 7.64896E-02
 -1      1006 6.46743E-02
 -1      1007 5.46216E-02
 -1      1008 4.94996E-02
 -1      1009 4.53580E-02
 -1      1010 4.54149E-02
 -1      1011 5.29484E-02
 -1      1012 6.75682E-02
 -1      1013 8.94245E-02
 -1      1014 1.20173E-01
 -1      1015 1.61352E-01
 -1      1016 2.55107E-01
 -1      1017 4.01079E-01
 -1      1018 6.00508E-01
 -1      1019 8.60595E-01
 -1      1020 1.27345E+00
 -1      1021 2.56634E+00
 -1      1022 1.09432E-01
 -1      1023 1.41478E-01
 -1      1024 1.56231E+00
 -1      1025 4.36474E-02
 -1      1026 5.41820E-02
 -1      1027 4.07928E-02
 -1      1028 1.04528E-01
 -1      1029 1.58811E-01
 -1      1030 2.31359E-01
 -1      1031 3.17916E-01
 -1      1032 4.17217E-01
 -1      1033 6.13653E-01
 -1      1034 8.54671E-01
 -1      1035 1.74214E+00
 -1      1036 2.56117E+00
 -1      1037 1.07400E+00
 -1      1038 8.45825E-02
 -1      1039 4.11253E-02
 -1      1040 1.61781E+00
 -1      1041 7.43487E-02
 -1      1042 3.03619E+00
 -1      1043 3.95619E-02
 -1      1044 2.87415E+00
 -1      1045 1.88787E-01
 -1      1046 1.16008E-01
 -1      1047 1.16208E-01
 -1      1048 9.80658E-02
 -1      1049 1.15995E-01
 -1      1050 7.19039E-02
 -1      1051 2.27968E+00
 -1      1052 1.07065E-01
 -1      1053 7.28322E-02
 -1      1054 2.39041E+00
 -1      1055 1.07065E-01
 -1      1056 3.74122E+00
 -1      1057 4.53991E-02
 -1      1058 6.47488E-02
 -1      1059 8.54098E-02
 -1      1060 9.04181E-02
 -1      1061 9.08406E-02
 -1      1062 8.29535E-02
 -1      1063 6.49895E-02
 -1      1064 5.81745E-02
 -1      1065 7.60582E-02
 -1      1066 4.95171E-02
 -1      1067 4.62101E-02
 -1      1068 4.69784E-02
 -1      1069 5.34268E-02
 -1      1070 6.75682E-02
 -1      1071 9.35119E-02
 -1      1072 1.61564E-01
 -1      1073 2.68864E-01
 -1      1074 4.29745E-01
 -1      1075 6.49463E-01
 -1      1076 9.84126E-01
 -1      1077 1.47669E+00
 -1      1078 2.32302E+00
 -1      1079 1.05673E-01
 -1      1080 7.19147E-02
 -1      1081 3.74327E-01
 -1      1082 2.28787E-01
 -1      1083 8.69642E-01
 -1      1084 1.20140E+00
 -1      1085 1.58649E+00
 -1      1086 2.32302E+00
 -1      1087 2.07022E+00
 -1      1088 4.62101E-02
 -1      1089 4.69784E-02
 -1      1090 5.13287E-02
 -1      1091 9.04181E-02
 -1      1092 5.84573E-01
 -1      1093 5.77984E-02
 -1      1094 7.52680E-02
 -1      1095 9.08406E-02
 -1      1096 7.60582E-02
 -1      1097 1.43383E-01
 -1      1098 8.29535E-02
 -1      1099 8.77812E-02
 -1      1100 9.30764E-02
 -1      1101 9.08406E-02
 -1      1102 7.60582E-02
 -1      1103 7.52680E-02
 -1      1104 7.19147E-02
 -1      1105 1.33802E+01
 -1      1106 8.51884E+00
 -1      1107 2.74188E+00
 -1      1108 1.55857E+00
 -1      1109 1.16746E+00
 -1      1110 9.72050E-01
 -1      1111 8.54505E-01
 -1      1112 7.81390E-01
 -1      1113 7.54801E-01
 -1      1114 7.84394E-01
 -1      1115 8.56876E-01
 -1      1116 9.76750E-01
 -1      1117 1.17958E+00
 -1      1118 1.56862E+00
 -1      1119 2.66962E+00
 -1      1120 6.07483E+00
 -1      1121 1.13402E+01
 -1      1122 1.33802E+01
 -1      1123 8.81996E+00
 -1      1124 3.83083E+00
 -1      1125 2.77943E+00
 -1      1126 1.77415E+00
 -1      1127 1.20995E+00
 -1      1128 9.07366E-01
 -1      1129 6.95266E-01
 -1      1130 5.33500E-01
 -1      1131 4.07922E-01
 -1      1132 3.13460E-01
 -1      1133 2.41871E-01
 -1      1134 1.84888E-01
 -1      1135 1.40501E-01
 -1      1136 1.06832E-01
 -1      1137 8.07052E-02
 -1      1138 6.46718E-02
 -1      1139 5.88315E-02
 -1      1140 6.31848E-02
 -1      1141 8.04576E-02
 -1      1142 1.11026E-01
 -1      1143 1.61025E-01
 -1      1144 2.39953E-01
 -1      1145 3.61958E-01
 -1      1146 5.46796E-01
 -1      1147 8.18824E-01
 -1      1148 1.20050E+00
 -1      1149 1.69489E+00
 -1      1150 2.41220E+00
 -1      1151 3.43602E+00
 -1      1152 4.74506E+00
 -1      1153 6.01076E+00
 -1      1154 6.54769E+00
 -1      1155 6.11412E+00
 -1      1156 1.01227E+01
 -1      1157 1.66025E+01
 -1      1158 1.86401E+01
 -1      1159 1.73778E+01
 -1      1160 1.18405E+01
 -1      1161 6.96521E+00
 -1      1162 6.36479E+00
 -1      1163 6.22378E+00
 -1      1164 5.39135E+00
 -1      1165 4.05237E+00
 -1      1166 2.86223E+00
 -1      1167 2.04190E+00
 -1      1168 1.52266E+00
 -1      1169 1.09132E+00
 -1      1170 7.47533E-01
 -1      1171 5.11032E-01
 -1      1172 2.57235E-01
 -1      1173 1.40390E+01
 -1      1174 8.71737E+00
 -1      1175 2.90524E+00
 -1      1176 2.04057E+00
 -1      1177 1.40552E+00
 -1      1178 1.02573E+00
 -1      1179 8.19664E-01
 -1      1180 6.60956E-01
 -1      1181 5.29858E-01
 -1      1182 4.20826E-01
 -1      1183 3.34115E-01
 -1      1184 2.66244E-01
 -1      1185 2.10348E-01
 -1      1186 1.64804E-01
 -1      1187 1.28612E-01
 -1      1188 1.00584E-01
 -1      1189 7.94371E-02
 -1      1190 6.38163E-02
 -1      1191 5.45132E-02
 -1      1192 5.13499E-02
 -1      1193 5.10339E-02
 -1      1194 5.14894E-02
 -1      1195 6.20661E-02
 -1      1196 8.30386E-02
 -1      1197 1.25467E-01
 -1      1198 1.96149E-01
 -1      1199 2.76110E-01
 -1      1200 3.73298E-01
 -1      1201 5.15107E-01
 -1      1202 6.85611E-01
 -1      1203 8.35814E-01
 -1      1204 1.00448E+00
 -1      1205 1.32233E+00
 -1      1206 1.71717E+00
 -1      1207 1.99616E+00
 -1      1208 2.14971E+00
 -1      1209 2.28300E+00
 -1      1210 2.36138E+00
 -1      1211 2.30253E+00
 -1      1212 2.07981E+00
 -1      1213 1.70721E+00
 -1      1214 1.30880E+00
 -1      1215 9.44796E-01
 -1      1216 6.28693E-01
 -1      1217 3.92300E-01
 -1      1218 2.36427E-01
 -1      1219 1.33266E-01
 -1      1220 6.73859E-02
 -1      1221 3.13927E-02
 -1      1222 1.16895E-02
 -1      1223 6.24627E-03
 -1      1224 1.10059E-02
 -1      1225 2.14703E-02
 -1      1226 3.70832E-02
 -1      1227 4.82628E-02
 -1      1228 5.17810E-02
 -1      1229 4.89729E-02
 -1      1230 3.50259E-02
 -1      1231 4.50172E-02
 -1      1232 8.54593E-02
 -1      1233 1.12581E-01
 -1      1234 1.20392E-01
 -1      1235 1.10868E-01
 -1      1236 8.44860E-02
 -1      1237 1.00195E-01
 -1      1238 1.85247E-01
 -1      1239 1.61868E-01
 -1      1240 2.49993E+01
 -1      1241 3.51631E+01
 -1      1242 4.53268E+01
 -1      1243 3.17171E+01
 -1      1244 1.50366E+01
 -1      1245 1.19658E+01
 -1      1246 1.20317E+01
 -1      1247 1.22071E+01
 -1      1248 1.23166E+01
 -1      1249 1.21582E+01
 -1      1250 1.81401E+01
 -1      1251 2.85427E+01
 -1      1252 3.28050E+01
 -1      1253 2.86792E+01
 -1      1254 2.43682E+01
 -1      1255 2.48520E+01
 -1      1256 2.59049E+01
 -1      1257 2.82554E+01
 -1      1258 2.98217E+01
 -1      1259 2.22880E+01
 -1      1260 1.46779E+01
 -1      1261 1.41059E+01
 -1      1262 1.39536E+01
 -1      1263 1.38966E+01
 -1      1264 1.63724E+01
 -1      1265 3.24468E+01
 -1      1266 4.60455E+01
 -1      1267 3.53081E+01
 -1      1268 2.45221E+01
 -1      1269 2.47365E+01
 -1      1270 1.33802E+01
 -1      1271 4.92653E+00
 -1      1272 9.78785E+00
 -1      1273 2.06322E+00
 -1      1274 2.97886E+00
 -1      1275 4.24787E+00
 -1      1276 1.39837E+00
 -1      1277 1.66603E+00
 -1      1278 1.90301E+00
 -1      1279 1.10126E+00
 -1      1280 1.22470E+00
 -1      1281 1.33216E+00
 -1      1282 9.36154E-01
 -1      1283 1.00812E+00
 -1      1284 1.06536E+00
 -1      1285 8.36709E-01
 -1      1286 8.82289E-01
 -1      1287 9.18358E-01
 -1      1288 7.74963E-01
 -1      1289 8.02498E-01
 -1      1290 8.30283E-01
 -1      1291 7.55747E-01
 -1      1292 7.54801E-01
 -1      1293 7.75909E-01
 -1      1294 8.06199E-01
 -1      1295 7.77552E-01
 -1      1296 7.77552E-01
 -1      1297 8.83902E-01
 -1      1298 8.40067E-01
 -1      1299 8.33225E-01
 -1      1300 1.01689E+00
 -1      1301 9.40851E-01
 -1      1302 9.24042E-01
 -1      1303 1.23900E+00
 -1      1304 1.11221E+00
 -1      1305 1.07631E+00
 -1      1306 1.67891E+00
 -1      1307 1.41666E+00
 -1      1308 1.34929E+00
 -1      1309 2.88361E+00
 -1      1310 2.04487E+00
 -1      1311 1.89290E+00
 -1      1312 6.28720E+00
 -1      1313 3.72074E+00
 -1      1314 3.09598E+00
 -1      1315 1.40390E+01
 -1      1316 1.13402E+01
 -1      1317 8.98607E+00
 -1      1318 1.40390E+01
 -1      1319 8.81996E+00
 -1      1320 4.25975E+00
 -1      1321 3.83083E+00
 -1      1322 3.40192E+00
 -1      1323 3.83083E+00
 -1      1324 2.77943E+00
 -1      1325 2.15694E+00
 -1      1326 2.77943E+00
 -1      1327 1.81324E+00
 -1      1328 1.43045E+00
 -1      1329 1.81324E+00
 -1      1330 1.21704E+00
 -1      1331 1.03562E+00
 -1      1332 1.25613E+00
 -1      1333 9.07366E-01
 -1      1334 7.86212E-01
 -1      1335 9.14463E-01
 -1      1336 6.95266E-01
 -1      1337 6.04319E-01
 -1      1338 6.95266E-01
 -1      1339 5.39319E-01
 -1      1340 4.68500E-01
 -1      1341 5.39319E-01
 -1      1342 4.18093E-01
 -1      1343 3.63334E-01
 -1      1344 4.23911E-01
 -1      1345 3.23346E-01
 -1      1346 2.83643E-01
 -1      1347 3.33516E-01
 -1      1348 2.55107E-01
 -1      1349 2.23221E-01
 -1      1350 2.64993E-01
 -1      1351 1.98977E-01
 -1      1352 1.73881E-01
 -1      1353 2.12213E-01
 -1      1354 1.53853E-01
 -1      1355 1.34563E-01
 -1      1356 1.67942E-01
 -1      1357 1.18434E-01
 -1      1358 1.04055E-01
 -1      1359 1.31785E-01
 -1      1360 9.01583E-02
 -1      1361 7.84107E-02
 -1      1362 1.01760E-01
 -1      1363 7.03461E-02
 -1      1364 6.60604E-02
 -1      1365 7.97993E-02
 -1      1366 5.86844E-02
 -1      1367 5.71298E-02
 -1      1368 6.43587E-02
 -1      1369 5.93104E-02
 -1      1370 6.52183E-02
 -1      1371 5.91633E-02
 -1      1372 7.35313E-02
 -1      1373 8.48961E-02
 -1      1374 6.96569E-02
 -1      1375 9.88496E-02
 -1      1376 1.18053E-01
 -1      1377 9.19233E-02
 -1      1378 1.40115E-01
 -1      1379 1.70910E-01
 -1      1380 1.27938E-01
 -1      1381 2.04779E-01
 -1      1382 2.52911E-01
 -1      1383 1.83869E-01
 -1      1384 3.09578E-01
 -1      1385 3.83451E-01
 -1      1386 2.74404E-01
 -1      1387 4.87949E-01
 -1      1388 5.98913E-01
 -1      1389 4.35568E-01
 -1      1390 7.63286E-01
 -1      1391 9.24351E-01
 -1      1392 7.04439E-01
 -1      1393 1.17481E+00
 -1      1394 1.39542E+00
 -1      1395 1.11927E+00
 -1      1396 1.75741E+00
 -1      1397 2.03119E+00
 -1      1398 1.73172E+00
 -1      1399 2.51038E+00
 -1      1400 2.95392E+00
 -1      1401 2.57291E+00
 -1      1402 3.48238E+00
 -1      1403 4.06266E+00
 -1      1404 3.58056E+00
 -1      1405 4.52882E+00
 -1      1406 5.25758E+00
 -1      1407 4.57517E+00
 -1      1408 5.51423E+00
 -1      1409 6.05116E+00
 -1      1410 5.29798E+00
 -1      1411 6.56716E+00
 -1      1412 6.56716E+00
 -1      1413 6.07063E+00
 -1      1414 7.36188E+00
 -1      1415 6.92831E+00
 -1      1416 7.38135E+00
 -1      1417 5.77696E+00
 -1      1418 1.02192E+01
 -1      1419 7.02472E+00
 -1      1420 1.45649E+01
 -1      1421 1.66025E+01
 -1      1422 1.02192E+01
 -1      1423 1.86401E+01
 -1      1424 1.86401E+01
 -1      1425 1.66025E+01
 -1      1426 1.73778E+01
 -1      1427 1.61154E+01
 -1      1428 1.73778E+01
 -1      1429 1.25400E+01
 -1      1430 8.26511E+00
 -1      1431 1.25400E+01
 -1      1432 7.38530E+00
 -1      1433 6.78487E+00
 -1      1434 8.08478E+00
 -1      1435 6.57738E+00
 -1      1436 6.57738E+00
 -1      1437 6.99747E+00
 -1      1438 6.22378E+00
 -1      1439 6.08277E+00
 -1      1440 6.43637E+00
 -1      1441 5.55110E+00
 -1      1442 4.85968E+00
 -1      1443 5.55110E+00
 -1      1444 4.52470E+00
 -1      1445 3.87715E+00
 -1      1446 4.68445E+00
 -1      1447 3.38299E+00
 -1      1448 2.84041E+00
 -1      1449 3.85532E+00
 -1      1450 2.34458E+00
 -1      1451 2.06684E+00
 -1      1452 2.86535E+00
 -1      1453 1.65991E+00
 -1      1454 1.41842E+00
 -1      1455 1.96260E+00
 -1      1456 1.11912E+00
 -1      1457 9.29268E-01
 -1      1458 1.25637E+00
 -1      1459 7.61859E-01
 -1      1460 6.07924E-01
 -1      1461 7.89658E-01
 -1      1462 5.11032E-01
 -1      1463 4.28467E-01
 -1      1464 5.25358E-01
 -1      1465 3.33099E-01
 -1      1466 3.39572E+00
 -1      1467 8.71737E+00
 -1      1468 8.71737E+00
 -1      1469 2.41475E+00
 -1      1470 2.90524E+00
 -1      1471 2.90524E+00
 -1      1472 1.66639E+00
 -1      1473 2.04057E+00
 -1      1474 2.04057E+00
 -1      1475 1.14464E+00
 -1      1476 1.40552E+00
 -1      1477 1.40552E+00
 -1      1478 9.06824E-01
 -1      1479 1.02573E+00
 -1      1480 1.02573E+00
 -1      1481 7.32505E-01
 -1      1482 8.19664E-01
 -1      1483 8.19664E-01
 -1      1484 5.89406E-01
 -1      1485 6.60956E-01
 -1      1486 6.60956E-01
 -1      1487 4.70310E-01
 -1      1488 5.29858E-01
 -1      1489 5.29858E-01
 -1      1490 3.71341E-01
 -1      1491 4.20826E-01
 -1      1492 4.20826E-01
 -1      1493 2.96889E-01
 -1      1494 3.34115E-01
 -1      1495 3.34115E-01
 -1      1496 2.35599E-01
 -1      1497 2.66244E-01
 -1      1498 2.66244E-01
 -1      1499 1.85837E-01
 -1      1500 2.11088E-01
 -1      1501 2.11088E-01
 -1      1502 1.46035E-01
 -1      1503 1.66328E-01
 -1      1504 1.67067E-01
 -1      1505 1.14378E-01
 -1      1506 1.30277E-01
 -1      1507 1.31801E-01
 -1      1508 8.98153E-02
 -1      1509 1.01944E-01
 -1      1510 1.03609E-01
 -1      1511 7.11857E-02
 -1      1512 8.02041E-02
 -1      1513 8.15639E-02
 -1      1514 5.72443E-02
 -1      1515 6.38468E-02
 -1      1516 6.46137E-02
 -1      1517 5.18125E-02
 -1      1518 5.45132E-02
 -1      1519 5.45437E-02
 -1      1520 5.07161E-02
 -1      1521 5.11787E-02
 -1      1522 5.11787E-02
 -1      1523 5.10339E-02
 -1      1524 5.08873E-02
 -1      1525 5.07161E-02
 -1      1526 5.14894E-02
 -1      1527 5.11804E-02
 -1      1528 5.10339E-02
 -1      1529 6.25995E-02
 -1      1530 5.23319E-02
 -1      1531 5.20229E-02
 -1      1532 8.30386E-02
 -1      1533 7.23337E-02
 -1      1534 6.25995E-02
 -1      1535 1.31897E-01
 -1      1536 1.00174E-01
 -1      1537 8.94690E-02
 -1      1538 1.96149E-01
 -1      1539 1.57190E-01
 -1      1540 1.31897E-01
 -1      1541 2.76110E-01
 -1      1542 2.35108E-01
 -1      1543 1.96149E-01
 -1      1544 3.83779E-01
 -1      1545 3.27594E-01
 -1      1546 2.86592E-01
 -1      1547 5.31697E-01
 -1      1548 4.46073E-01
 -1      1549 4.00370E-01
 -1      1550 6.85611E-01
 -1      1551 6.00731E-01
 -1      1552 5.31697E-01
 -1      1553 8.35814E-01
 -1      1554 7.70490E-01
 -1      1555 6.85611E-01
 -1      1556 1.02946E+00
 -1      1557 9.26114E-01
 -1      1558 8.60790E-01
 -1      1559 1.40868E+00
 -1      1560 1.19418E+00
 -1      1561 1.11581E+00
 -1      1562 1.73298E+00
 -1      1563 1.55264E+00
 -1      1564 1.42449E+00
 -1      1565 1.99616E+00
 -1      1566 1.89751E+00
 -1      1567 1.73298E+00
 -1      1568 2.14971E+00
 -1      1569 2.09480E+00
 -1      1570 1.99616E+00
 -1      1571 2.28300E+00
 -1      1572 2.20462E+00
 -1      1573 2.14971E+00
 -1      1574 2.36138E+00
 -1      1575 2.36138E+00
 -1      1576 2.28300E+00
 -1      1577 2.24368E+00
 -1      1578 2.30253E+00
 -1      1579 2.30253E+00
 -1      1580 1.91594E+00
 -1      1581 2.07981E+00
 -1      1582 2.07981E+00
 -1      1583 1.49849E+00
 -1      1584 1.70721E+00
 -1      1585 1.70721E+00
 -1      1586 1.12479E+00
 -1      1587 1.31447E+00
 -1      1588 1.31447E+00
 -1      1589 7.95867E-01
 -1      1590 9.70191E-01
 -1      1591 9.75857E-01
 -1      1592 5.19983E-01
 -1      1593 6.61762E-01
 -1      1594 6.87157E-01
 -1      1595 3.20541E-01
 -1      1596 4.15153E-01
 -1      1597 4.48223E-01
 -1      1598 1.90912E-01
 -1      1599 2.52173E-01
 -1      1600 2.75026E-01
 -1      1601 1.02037E-01
 -1      1602 1.43937E-01
 -1      1603 1.59684E-01
 -1      1604 4.89451E-02
 -1      1605 7.29249E-02
 -1      1606 8.35967E-02
 -1      1607 2.03449E-02
 -1      1608 3.23583E-02
 -1      1609 3.78973E-02
 -1      1610 1.39361E-02
 -1      1611 2.10159E-02
 -1      1612 1.85029E-02
 -1      1613 4.02280E-02
 -1      1614 3.22767E-02
 -1      1615 3.97736E-02
 -1      1616 6.28686E-02
 -1      1617 5.52071E-02
 -1      1618 6.60134E-02
 -1      1619 7.45762E-02
 -1      1620 7.10580E-02
 -1      1621 8.91819E-02
 -1      1622 7.59311E-02
 -1      1623 7.59311E-02
 -1      1624 9.87263E-02
 -1      1625 7.31231E-02
 -1      1626 7.59311E-02
 -1      1627 1.00081E-01
 -1      1628 5.43967E-02
 -1      1629 6.55357E-02
 -1      1630 9.24939E-02
 -1      1631 8.19501E-02
 -1      1632 6.08198E-02
 -1      1633 9.13296E-02
 -1      1634 1.43077E-01
 -1      1635 1.23765E-01
 -1      1636 1.39568E-01
 -1      1637 1.73674E-01
 -1      1638 1.65864E-01
 -1      1639 2.04170E-01
 -1      1640 1.77123E-01
 -1      1641 1.77123E-01
 -1      1642 2.30406E-01
 -1      1643 1.67599E-01
 -1      1644 1.77123E-01
 -1      1645 2.33855E-01
 -1      1646 1.26027E-01
 -1      1647 1.42884E-01
 -1      1648 2.09140E-01
 -1      1649 2.23989E-01
 -1      1650 1.91422E-01
 -1      1651 2.49821E-01
 -1      1652 2.68797E+01
 -1      1653 2.68797E+01
 -1      1654 4.20503E+01
 -1      1655 3.18865E+01
 -1      1656 4.53268E+01
 -1      1657 4.53268E+01
 -1      1658 1.91013E+01
 -1      1659 3.27110E+01
 -1      1660 1.13323E+01
 -1      1661 1.44030E+01
 -1      1662 1.19658E+01
 -1      1663 1.19658E+01
 -1      1664 1.19793E+01
 -1      1665 1.19134E+01
 -1      1666 1.22071E+01
 -1      1667 1.20976E+01
 -1      1668 1.23166E+01
 -1      1669 1.23166E+01
 -1      1670 1.19261E+01
 -1      1671 1.20845E+01
 -1      1672 1.81401E+01
 -1      1673 1.19998E+01
 -1      1674 2.95378E+01
 -1      1675 2.52755E+01
 -1      1676 3.28050E+01
 -1      1677 3.28050E+01
 -1      1678 2.81724E+01
 -1      1679 3.22982E+01
 -1      1680 2.85114E+01
 -1      1681 2.86967E+01
 -1      1682 2.91805E+01
 -1      1683 2.85114E+01
 -1      1684 3.01581E+01
 -1      1685 2.97743E+01
 -1      1686 3.21249E+01
 -1      1687 3.01581E+01
 -1      1688 2.98217E+01
 -1      1689 3.02221E+01
 -1      1690 1.51547E+01
 -1      1691 2.22880E+01
 -1      1692 1.42012E+01
 -1      1693 1.46779E+01
 -1      1694 1.48964E+01
 -1      1695 1.49917E+01
 -1      1696 1.48394E+01
 -1      1697 1.48964E+01
 -1      1698 1.40179E+01
 -1      1699 1.40179E+01
 -1      1700 1.54139E+01
 -1      1701 1.29382E+01
 -1      1702 3.26520E+01
 -1      1703 1.90533E+01
 -1      1704 4.60455E+01
 -1      1705 4.60455E+01
 -1      1706 3.26520E+01
 -1      1707 3.16328E+01
 -1      1708 4.23702E+01
 -1      1709 2.58900E+01
 -1      1710 2.59386E+01
 -1      1711 2.68797E+01
 -1      1712 2.66169E+01
 -1      1713 3.33099E-01
 -1      1714 4.20503E+01
 -1      1715 1.49017E-02
 -1      1716 2.49117E-02
 -1      1717 2.87602E+01
 -1      1718 3.37670E+01
 -1      1719 2.76474E-01
 -1      1720 2.23989E-01
 -1      1721 3.15217E-01
 -1      1722 3.27110E+01
 -1      1723 1.53970E+01
 -1      1724 1.13323E+01
 -1      1725 1.19134E+01
 -1      1726 1.19793E+01
 -1      1727 1.22071E+01
 -1      1728 1.20845E+01
 -1      1729 1.19261E+01
 -1      1730 1.91352E+01
 -1      1731 2.95378E+01
 -1      1732 3.22982E+01
 -1      1733 3.23157E+01
 -1      1734 3.28399E+01
 -1      1735 3.34338E+01
 -1      1736 3.40276E+01
 -1      1737 3.21249E+01
 -1      1738 2.26884E+01
 -1      1739 1.46779E+01
 -1      1740 1.49917E+01
 -1      1741 1.57823E+01
 -1      1742 1.49608E+01
 -1      1743 1.30595E+01
 -1      1744 1.56191E+01
 -1      1745 3.30007E+01
 -1      1746 2.80333E+01
 -1      1747 9.78785E+00
 -1      1748 4.23702E+01
 -1      1749 1.28895E+00
 -1      1750 1.68614E+00
 -1      1751 2.42009E+00
 -1      1752 4.36776E+00
 -1      1753 1.80603E+00
 -1      1754 8.80663E-01
 -1      1755 9.73801E-01
 -1      1756 7.79824E-01
 -1      1757 8.33688E-01
 -1      1758 7.42129E-01
 -1      1759 7.14039E-01
 -1      1760 7.48250E-01
 -1      1761 6.63581E-01
 -1      1762 6.71685E-01
 -1      1763 6.91848E-01
 -1      1764 6.09815E-01
 -1      1765 6.95065E-01
 -1      1766 6.73259E-01
 -1      1767 5.89198E-01
 -1      1768 7.50772E-01
 -1      1769 7.16904E-01
 -1      1770 6.12611E-01
 -1      1771 8.41080E-01
 -1      1772 7.84132E-01
 -1      1773 6.67811E-01
 -1      1774 9.84043E-01
 -1      1775 8.88725E-01
 -1      1776 7.48815E-01
 -1      1777 1.22877E+00
 -1      1778 1.05111E+00
 -1      1779 8.63524E-01
 -1      1780 1.70143E+00
 -1      1781 1.33548E+00
 -1      1782 1.03730E+00
 -1      1783 2.63164E+00
 -1      1784 1.79452E+00
 -1      1785 1.23709E+00
 -1      1786 8.11805E+00
 -1      1787 3.06510E+00
 -1      1788 1.76363E+00
 -1      1789 2.79641E+00
 -1      1790 5.22765E+00
 -1      1791 2.16383E+00
 -1      1792 2.65432E+00
 -1      1793 2.05500E+00
 -1      1794 3.25702E+01
 -1      1795 3.62455E+01
 -1      1796 2.57041E+00
 -1      1797 1.94791E+00
 -1      1798 1.72145E+00
 -1      1799 1.37775E+00
 -1      1800 1.51243E+00
 -1      1801 1.19549E+00
 -1      1802 9.82074E-01
 -1      1803 1.10370E+00
 -1      1804 8.54533E-01
 -1      1805 7.26282E-01
 -1      1806 7.93893E-01
 -1      1807 6.65196E-01
 -1      1808 5.74250E-01
 -1      1809 6.05266E-01
 -1      1810 5.25485E-01
 -1      1811 4.60485E-01
 -1      1812 4.95416E-01
 -1      1813 4.17472E-01
 -1      1814 3.67065E-01
 -1      1815 4.03639E-01
 -1      1816 3.33594E-01
 -1      1817 2.93606E-01
 -1      1818 3.27154E-01
 -1      1819 2.65800E-01
 -1      1820 2.37264E-01
 -1      1821 2.65877E-01
 -1      1822 2.13336E-01
 -1      1823 1.89093E-01
 -1      1824 2.14143E-01
 -1      1825 1.70469E-01
 -1      1826 1.50441E-01
 -1      1827 1.71591E-01
 -1      1828 1.35450E-01
 -1      1829 1.19320E-01
 -1      1830 1.37976E-01
 -1      1831 1.05779E-01
 -1      1832 9.18825E-02
 -1      1833 1.09443E-01
 -1      1834 8.24755E-02
 -1      1835 7.44110E-02
 -1      1836 8.64942E-02
 -1      1837 6.53352E-02
 -1      1838 5.79592E-02
 -1      1839 6.80114E-02
 -1      1840 5.48753E-02
 -1      1841 5.70559E-02
 -1      1842 5.58518E-02
 -1      1843 6.13439E-02
 -1      1844 6.96569E-02
 -1      1845 5.70559E-02
 -1      1846 7.79698E-02
 -1      1847 9.19233E-02
 -1      1848 6.96569E-02
 -1      1849 1.11825E-01
 -1      1850 1.33886E-01
 -1      1851 9.78710E-02
 -1      1852 1.69685E-01
 -1      1853 2.03554E-01
 -1      1854 1.53572E-01
 -1      1855 2.58542E-01
 -1      1856 3.15209E-01
 -1      1857 2.44359E-01
 -1      1858 3.99823E-01
 -1      1859 5.04321E-01
 -1      1860 3.83961E-01
 -1      1861 6.33876E-01
 -1      1862 7.98249E-01
 -1      1863 5.98130E-01
 -1      1864 9.94323E-01
 -1      1865 1.24478E+00
 -1      1866 9.23760E-01
 -1      1867 1.53562E+00
 -1      1868 1.89762E+00
 -1      1869 1.41068E+00
 -1      1870 2.31568E+00
 -1      1871 2.79487E+00
 -1      1872 2.11958E+00
 -1      1873 3.34346E+00
 -1      1874 3.87192E+00
 -1      1875 3.08623E+00
 -1      1876 4.58254E+00
 -1      1877 5.04869E+00
 -1      1878 4.34544E+00
 -1      1879 5.89162E+00
 -1      1880 6.14827E+00
 -1      1881 5.89898E+00
 -1      1882 7.15115E+00
 -1      1883 7.66715E+00
 -1      1884 7.74479E+00
 -1      1885 9.22652E+00
 -1      1886 1.00212E+01
 -1      1887 1.03070E+01
 -1      1888 1.72112E+01
 -1      1889 1.59489E+01
 -1      1890 1.00121E+01
 -1      1891 9.13230E+00
 -1      1892 8.38159E+00
 -1      1893 8.17409E+00
 -1      1894 7.03254E+00
 -1      1895 6.67894E+00
 -1      1896 8.41666E+00
 -1      1897 6.02110E+00
 -1      1898 5.48943E+00
 -1      1899 6.61727E+00
 -1      1900 4.97757E+00
 -1      1901 4.64260E+00
 -1      1902 5.44757E+00
 -1      1903 4.01888E+00
 -1      1904 3.52473E+00
 -1      1905 4.31200E+00
 -1      1906 2.98255E+00
 -1      1907 2.48673E+00
 -1      1908 3.14611E+00
 -1      1909 2.06143E+00
 -1      1910 1.65450E+00
 -1      1911 2.17863E+00
 -1      1912 1.34402E+00
 -1      1913 1.04472E+00
 -1      1914 1.44285E+00
 -1      1915 8.24359E-01
 -1      1916 6.56951E-01
 -1      1917 9.12011E-01
 -1      1918 5.34570E-01
 -1      1919 4.37679E-01
 -1      1920 5.69271E-01
 -1      1921 1.39630E+00
 -1      1922 1.77048E+00
 -1      1923 1.51956E+00
 -1      1924 3.60271E+01
 -1      1925 3.27506E+01
 -1      1926 9.76668E-01
 -1      1927 1.23755E+00
 -1      1928 9.67452E-01
 -1      1929 8.02270E-01
 -1      1930 9.21177E-01
 -1      1931 7.53207E-01
 -1      1932 6.38303E-01
 -1      1933 7.25462E-01
 -1      1934 6.20908E-01
 -1      1935 5.13609E-01
 -1      1936 5.85159E-01
 -1      1937 4.90956E-01
 -1      1938 4.20846E-01
 -1      1939 4.80394E-01
 -1      1940 4.04597E-01
 -1      1941 3.39426E-01
 -1      1942 3.88911E-01
 -1      1943 3.39446E-01
 -1      1944 2.74049E-01
 -1      1945 3.11275E-01
 -1      1946 2.79360E-01
 -1      1947 2.20505E-01
 -1      1948 2.51149E-01
 -1      1949 2.28309E-01
 -1      1950 1.76441E-01
 -1      1951 2.00953E-01
 -1      1952 1.85858E-01
 -1      1953 1.40702E-01
 -1      1954 1.60210E-01
 -1      1955 1.50075E-01
 -1      1956 1.11455E-01
 -1      1957 1.27214E-01
 -1      1958 1.20356E-01
 -1      1959 8.80982E-02
 -1      1960 1.00532E-01
 -1      1961 9.59446E-02
 -1      1962 6.98281E-02
 -1      1963 7.94394E-02
 -1      1964 7.63624E-02
 -1      1965 5.57163E-02
 -1      1966 6.30552E-02
 -1      1967 6.09307E-02
 -1      1968 4.93476E-02
 -1      1969 5.20788E-02
 -1      1970 5.05202E-02
 -1      1971 4.76377E-02
 -1      1972 4.82715E-02
 -1      1973 4.58067E-02
 -1      1974 4.73081E-02
 -1      1975 4.71369E-02
 -1      1976 4.42297E-02
 -1      1977 4.72229E-02
 -1      1978 4.70764E-02
 -1      1979 4.34972E-02
 -1      1980 4.80654E-02
 -1      1981 4.72229E-02
 -1      1982 4.32655E-02
 -1      1983 5.75110E-02
 -1      1984 4.77768E-02
 -1      1985 4.29769E-02
 -1      1986 7.73561E-02
 -1      1987 6.02207E-02
 -1      1988 4.53981E-02
 -1      1989 1.34214E-01
 -1      1990 1.08921E-01
 -1      1991 7.96729E-02
 -1      1992 2.26462E-01
 -1      1993 1.87504E-01
 -1      1994 1.64528E-01
 -1      1995 3.51017E-01
 -1      1996 2.99533E-01
 -1      1997 2.90888E-01
 -1      1998 5.05774E-01
 -1      1999 4.43480E-01
 -1      2000 4.56422E-01
 -1      2001 6.82281E-01
 -1      2002 6.13247E-01
 -1      2003 6.56358E-01
 -1      2004 8.80233E-01
 -1      2005 7.95354E-01
 -1      2006 8.76904E-01
 -1      2007 1.09274E+00
 -1      2008 1.00244E+00
 -1      2009 1.11219E+00
 -1      2010 1.36348E+00
 -1      2011 1.19876E+00
 -1      2012 1.34041E+00
 -1      2013 1.56854E+00
 -1      2014 1.42458E+00
 -1      2015 1.50752E+00
 -1      2016 1.73890E+00
 -1      2017 1.57437E+00
 -1      2018 1.57446E+00
 -1      2019 1.83755E+00
 -1      2020 1.73890E+00
 -1      2021 1.58029E+00
 -1      2022 1.89274E+00
 -1      2023 1.83783E+00
 -1      2024 1.58058E+00
 -1      2025 1.97112E+00
 -1      2026 1.89274E+00
 -1      2027 1.58087E+00
 -1      2028 1.91171E+00
 -1      2029 1.97056E+00
 -1      2030 1.58030E+00
 -1      2031 1.67735E+00
 -1      2032 1.84122E+00
 -1      2033 1.50925E+00
 -1      2034 1.34756E+00
 -1      2035 1.55629E+00
 -1      2036 1.31770E+00
 -1      2037 1.05217E+00
 -1      2038 1.23618E+00
 -1      2039 1.08526E+00
 -1      2040 7.82316E-01
 -1      2041 9.36910E-01
 -1      2042 8.58626E-01
 -1      2043 5.46044E-01
 -1      2044 6.80149E-01
 -1      2045 6.41202E-01
 -1      2046 3.54871E-01
 -1      2047 4.59700E-01
 -1      2048 4.52692E-01
 -1      2049 2.19271E-01
 -1      2050 2.87639E-01
 -1      2051 2.99116E-01
 -1      2052 1.23743E-01
 -1      2053 1.70718E-01
 -1      2054 1.83331E-01
 -1      2055 6.18108E-02
 -1      2056 9.09233E-02
 -1      2057 1.01957E-01
 -1      2058 2.57811E-02
 -1      2059 4.23679E-02
 -1      2060 4.96945E-02
 -1      2061 2.93823E-02
 -1      2062 1.17765E-01
 -1      2063 1.09575E-01
 -1      2064 9.69164E-02
 -1      2065 8.19374E-02
 -1      2066 1.25499E-01
 -1      2067 5.67391E-02
 -1      2068 4.54784E-02
 -1      2069 4.63478E-02
 -1      2070 8.76421E-02
 -1      2071 1.21474E-01
 -1      2072 1.20119E-01
 -1      2073 1.40512E-01
 -1      2074 1.28138E-01
 -1      2075 1.28138E-01
 -1      2076 1.49531E-01
 -1      2077 1.20551E-01
 -1      2078 1.28138E-01
 -1      2079 1.56195E-01
 -1      2080 1.19876E-01
 -1      2081 1.13453E-01
 -1      2082 1.49097E-01
 -1      2083 1.99401E-01
 -1      2084 1.57586E-01
 -1      2085 1.79709E-01
 -1      2086 2.71734E-01
 -1      2087 2.48947E-01
 -1      2088 2.66965E-01
 -1      2089 2.87646E-01
 -1      2090 2.84197E-01
 -1      2091 3.28974E-01
 -1      2092 2.98415E-01
 -1      2093 2.98415E-01
 -1      2094 3.52206E-01
 -1      2095 2.73700E-01
 -1      2096 2.98415E-01
 -1      2097 3.62976E-01
 -1      2098 3.40955E-01
 -1      2099 2.75560E-01
 -1      2100 3.64835E-01
 -1      2101 1.75087E+01
 -1      2102 3.01245E+01
 -1      2103 2.08248E+01
 -1      2104 3.71842E-01
 -1      2105 3.39987E+00
 -1      2106 3.46500E+01
 -1      2107 3.46500E+01
 -1      2108 2.96354E+01
 -1      2109 1.62419E+01
 -1      2110 1.98354E+01
 -1      2111 3.46500E+01
 -1      2112 3.39231E+01
 -1      2113 1.03600E+00
 -1      2114 1.20966E+00
 -1      2115 9.92787E-01
 -1      2116 8.51301E-01
 -1      2117 9.61585E+00
 -1      2118 1.43141E+01
 -1      2119 9.84468E+00
 -1      2120 9.21114E+00
 -1      2121 8.12826E+00
 -1      2122 1.08719E+01
 -1      2123 1.09243E+01
 -1      2124 1.12464E+01
 -1      2125 1.11281E+01
 -1      2126 1.13840E+01
 -1      2127 1.12745E+01
 -1      2128 1.04455E+01
 -1      2129 1.06777E+01
 -1      2130 9.46280E+00
 -1      2131 9.38904E+00
 -1      2132 1.85642E+01
 -1      2133 1.14288E+01
 -1      2134 2.58641E+01
 -1      2135 2.25969E+01
 -1      2136 3.17914E+01
 -1      2137 3.22982E+01
 -1      2138 3.41908E+01
 -1      2139 3.36665E+01
 -1      2140 3.41908E+01
 -1      2141 3.41908E+01
 -1      2142 3.35718E+01
 -1      2143 3.29780E+01
 -1      2144 3.40276E+01
 -1      2145 3.40276E+01
 -1      2146 2.54082E+01
 -1      2147 2.73110E+01
 -1      2148 1.35574E+01
 -1      2149 2.10911E+01
 -1      2150 1.09213E+01
 -1      2151 1.13981E+01
 -1      2152 1.51736E+01
 -1      2153 1.43831E+01
 -1      2154 1.72112E+01
 -1      2155 1.51273E+01
 -1      2156 1.51590E+01
 -1      2157 1.15197E+01
 -1      2158 2.82445E+01
 -1      2159 3.39387E+01
 -1      2160 3.26026E+01
 -1      2161 2.75958E+01
 -1      2162 2.65795E+01
 -1      2163 1.15519E+01
 -1      2164 3.81053E-01
 -1      2165 4.05397E+01
 -1      2166 2.97095E+00
 -1      2167 2.13944E+00
 -1      2168 3.48612E+01
 -1      2169 1.25994E+01
 -1      2170 2.78140E+01
 -1      2171 1.19132E+01
 -1      2172 1.00681E+01
 -1      2173 8.91673E+00
 -1      2174 6.75743E+00
 -1      2175 1.11032E+01
 -1      2176 1.03089E+01
 -1      2177 3.81053E-01
 -1      2178 1.04233E+01
 -1      2179 4.06792E-01
 -1      2180 1.42390E+01
 -1      2181 1.16525E+01
 -1      2182 8.45785E+00
 -1      2183 3.34856E+01
 -1      2184 1.21425E+01
 -1      2185 9.80079E+00
 -1      2186 1.62772E+01
 -1      2187 2.73110E+01
 -1      2188 3.35718E+01
 -1      2189 3.43288E+01
 -1      2190 3.55416E+01
 -1      2191 3.36665E+01
 -1      2192 2.53573E+01
 -1      2193 1.48905E+01
 -1      2194 8.89177E+00
 -1      2195 7.98225E+00
 -1      2196 9.74503E+00
 -1      2197 8.80313E+00
 -1      2198 1.01390E+01
 -1      2199 5.59382E-01
 -1      2200 5.90956E-01
 -1      2201 6.02924E-01
 -1      2202 6.49898E-01
 -1      2203 4.98725E-01
 -1      2204 5.11168E-01
 -1      2205 5.09594E-01
 -1      2206 5.45950E-01
 -1      2207 5.24110E-01
 -1      2208 4.44506E-01
 -1      2209 5.94105E-01
 -1      2210 5.60746E-01
 -1      2211 4.72245E-01
 -1      2212 6.53717E-01
 -1      2213 6.06072E-01
 -1      2214 4.99008E-01
 -1      2215 7.20781E-01
 -1      2216 6.53717E-01
 -1      2217 5.10975E-01
 -1      2218 8.24870E-01
 -1      2219 7.18158E-01
 -1      2220 5.08352E-01
 -1      2221 9.86749E-01
 -1      2222 8.93665E-01
 -1      2223 5.74525E-01
 -1      2224 1.75591E+00
 -1      2225 1.32245E+00
 -1      2226 9.79024E-01
 -1      2227 1.61382E+00
 -1      2228 3.48612E+01
 -1      2229 2.91826E+01
 -1      2230 1.27797E+00
 -1      2231 1.05150E+00
 -1      2232 9.96140E-01
 -1      2233 8.13877E-01
 -1      2234 7.61680E-01
 -1      2235 7.57886E-01
 -1      2236 6.30345E-01
 -1      2237 6.50330E-01
 -1      2238 5.73891E-01
 -1      2239 5.12805E-01
 -1      2240 5.37884E-01
 -1      2241 4.63029E-01
 -1      2242 4.14265E-01
 -1      2243 4.31654E-01
 -1      2244 3.86168E-01
 -1      2245 3.43156E-01
 -1      2246 3.53782E-01
 -1      2247 3.18106E-01
 -1      2248 2.84634E-01
 -1      2249 3.00635E-01
 -1      2250 2.60846E-01
 -1      2251 2.33040E-01
 -1      2252 2.51797E-01
 -1      2253 2.13059E-01
 -1      2254 1.89131E-01
 -1      2255 2.08029E-01
 -1      2256 1.72018E-01
 -1      2257 1.53394E-01
 -1      2258 1.70934E-01
 -1      2259 1.38333E-01
 -1      2260 1.23342E-01
 -1      2261 1.38759E-01
 -1      2262 1.10043E-01
 -1      2263 9.65011E-02
 -1      2264 1.10400E-01
 -1      2265 8.65114E-02
 -1      2266 7.71044E-02
 -1      2267 8.71114E-02
 -1      2268 6.80114E-02
 -1      2269 5.89357E-02
 -1      2270 6.80287E-02
 -1      2271 5.18668E-02
 -1      2272 4.87829E-02
 -1      2273 5.18668E-02
 -1      2274 4.98730E-02
 -1      2275 5.41610E-02
 -1      2276 4.58880E-02
 -1      2277 5.88577E-02
 -1      2278 6.71707E-02
 -1      2279 5.16748E-02
 -1      2280 8.47480E-02
 -1      2281 1.04649E-01
 -1      2282 7.39489E-02
 -1      2283 1.31024E-01
 -1      2284 1.66823E-01
 -1      2285 1.17901E-01
 -1      2286 2.04781E-01
 -1      2287 2.59769E-01
 -1      2288 1.82233E-01
 -1      2289 3.14886E-01
 -1      2290 3.99500E-01
 -1      2291 2.75308E-01
 -1      2292 4.79713E-01
 -1      2293 6.09268E-01
 -1      2294 4.10638E-01
 -1      2295 7.37960E-01
 -1      2296 9.34035E-01
 -1      2297 6.19543E-01
 -1      2298 1.14695E+00
 -1      2299 1.43779E+00
 -1      2300 9.61150E-01
 -1      2301 1.77563E+00
 -1      2302 2.19368E+00
 -1      2303 1.51190E+00
 -1      2304 2.71760E+00
 -1      2305 3.26620E+00
 -1      2306 2.37365E+00
 -1      2307 4.09787E+00
 -1      2308 4.80848E+00
 -1      2309 3.72923E+00
 -1      2310 6.04891E+00
 -1      2311 6.89184E+00
 -1      2312 5.80133E+00
 -1      2313 8.53541E+00
 -1      2314 9.53829E+00
 -1      2315 8.68534E+00
 -1      2316 1.05430E+01
 -1      2317 1.21024E+01
 -1      2318 1.13336E+01
 -1      2319 1.13918E+01
 -1      2320 4.05397E+01
 -1      2321 4.05397E+01
 -1      2322 3.48612E+01
 -1      2323 1.03512E+00
 -1      2324 1.42846E+00
 -1      2325 1.12938E+00
 -1      2326 7.27511E+00
 -1      2327 6.61727E+00
 -1      2328 6.21034E+00
 -1      2329 5.69849E+00
 -1      2330 5.04530E+00
 -1      2331 4.42158E+00
 -1      2332 5.80807E+00
 -1      2333 3.52542E+00
 -1      2334 2.98324E+00
 -1      2335 4.25872E+00
 -1      2336 2.36167E+00
 -1      2337 1.93637E+00
 -1      2338 2.74099E+00
 -1      2339 1.53374E+00
 -1      2340 1.22326E+00
 -1      2341 1.71678E+00
 -1      2342 9.67479E-01
 -1      2343 7.47119E-01
 -1      2344 1.05837E+00
 -1      2345 6.10517E-01
 -1      2346 4.88136E-01
 -1      2347 4.48038E-01
 -1      2348 6.65985E-01
 -1      2349 6.97716E-01
 -1      2350 7.53207E-01
 -1      2351 7.74044E-01
 -1      2352 9.32799E-01
 -1      2353 8.41707E-01
 -1      2354 7.18553E-01
 -1      2355 4.37812E-01
 -1      2356 4.90956E-01
 -1      2357 3.71381E-01
 -1      2358 4.04597E-01
 -1      2359 4.04597E-01
 -1      2360 3.07511E-01
 -1      2361 3.39446E-01
 -1      2362 3.39446E-01
 -1      2363 2.51209E-01
 -1      2364 2.79360E-01
 -1      2365 2.79360E-01
 -1      2366 2.05672E-01
 -1      2367 2.28572E-01
 -1      2368 2.28572E-01
 -1      2369 1.66188E-01
 -1      2370 1.85739E-01
 -1      2371 1.86002E-01
 -1      2372 1.32743E-01
 -1      2373 1.48974E-01
 -1      2374 1.48855E-01
 -1      2375 1.05566E-01
 -1      2376 1.19054E-01
 -1      2377 1.17952E-01
 -1      2378 8.33319E-02
 -1      2379 9.42553E-02
 -1      2380 9.29529E-02
 -1      2381 6.49024E-02
 -1      2382 7.35612E-02
 -1      2383 7.18718E-02
 -1      2384 4.97671E-02
 -1      2385 5.65400E-02
 -1      2386 5.37388E-02
 -1      2387 4.31886E-02
 -1      2388 4.68261E-02
 -1      2389 4.24354E-02
 -1      2390 4.12768E-02
 -1      2391 4.23529E-02
 -1      2392 3.86587E-02
 -1      2393 4.03738E-02
 -1      2394 4.08746E-02
 -1      2395 3.74208E-02
 -1      2396 4.08556E-02
 -1      2397 4.10873E-02
 -1      2398 3.77321E-02
 -1      2399 4.32655E-02
 -1      2400 4.32655E-02
 -1      2401 4.08556E-02
 -1      2402 4.49749E-02
 -1      2403 4.52635E-02
 -1      2404 4.52635E-02
 -1      2405 5.43215E-02
 -1      2406 5.16117E-02
 -1      2407 5.38983E-02
 -1      2408 9.94865E-02
 -1      2409 6.79213E-02
 -1      2410 7.41350E-02
 -1      2411 1.90505E-01
 -1      2412 1.37216E-01
 -1      2413 1.25464E-01
 -1      2414 3.20652E-01
 -1      2415 2.47581E-01
 -1      2416 2.20269E-01
 -1      2417 4.86431E-01
 -1      2418 3.93968E-01
 -1      2419 3.50662E-01
 -1      2420 6.83426E-01
 -1      2421 5.75952E-01
 -1      2422 5.13499E-01
 -1      2423 9.13061E-01
 -1      2424 7.99989E-01
 -1      2425 7.19583E-01
 -1      2426 1.15177E+00
 -1      2427 1.02956E+00
 -1      2428 9.52642E-01
 -1      2429 1.35349E+00
 -1      2430 1.24748E+00
 -1      2431 1.16485E+00
 -1      2432 1.50752E+00
 -1      2433 1.44643E+00
 -1      2434 1.35349E+00
 -1      2435 1.57446E+00
 -1      2436 1.56862E+00
 -1      2437 1.50752E+00
 -1      2438 1.58029E+00
 -1      2439 1.58029E+00
 -1      2440 1.57446E+00
 -1      2441 1.54498E+00
 -1      2442 1.54469E+00
 -1      2443 1.54469E+00
 -1      2444 1.58087E+00
 -1      2445 1.58087E+00
 -1      2446 1.54498E+00
 -1      2447 1.56515E+00
 -1      2448 1.56572E+00
 -1      2449 1.56572E+00
 -1      2450 1.42560E+00
 -1      2451 1.49609E+00
 -1      2452 1.48151E+00
 -1      2453 1.21581E+00
 -1      2454 1.33687E+00
 -1      2455 1.32371E+00
 -1      2456 1.00461E+00
 -1      2457 1.11599E+00
 -1      2458 1.13515E+00
 -1      2459 7.73971E-01
 -1      2460 8.89228E-01
 -1      2461 9.19952E-01
 -1      2462 5.62112E-01
 -1      2463 6.64279E-01
 -1      2464 6.94881E-01
 -1      2465 3.93277E-01
 -1      2466 4.79620E-01
 -1      2467 5.02697E-01
 -1      2468 2.57504E-01
 -1      2469 3.24736E-01
 -1      2470 3.51664E-01
 -1      2471 1.66108E-01
 -1      2472 2.14661E-01
 -1      2473 2.40281E-01
 -1      2474 1.23699E-01
 -1      2475 1.56519E-01
 -1      2476 1.87849E-01
 -1      2477 6.57907E-02
 -1      2478 1.86921E-01
 -1      2479 1.80257E-01
 -1      2480 1.98809E-01
 -1      2481 1.98809E-01
 -1      2482 2.29535E-01
 -1      2483 1.66684E-01
 -1      2484 1.54025E-01
 -1      2485 1.69484E-01
 -1      2486 1.67129E-01
 -1      2487 1.95655E-01
 -1      2488 2.06874E-01
 -1      2489 1.91711E-01
 -1      2490 1.98809E-01
 -1      2491 2.41423E-01
 -1      2492 2.49506E-01
 -1      2493 2.11796E-01
 -1      2494 2.61508E-01
 -1      2495 3.44929E-01
 -1      2496 2.95383E-01
 -1      2497 3.27470E-01
 -1      2498 4.19446E-01
 -1      2499 4.06983E-01
 -1      2500 4.35401E-01
 -1      2501 4.52345E-01
 -1      2502 4.41576E-01
 -1      2503 5.19585E-01
 -1      2504 4.52345E-01
 -1      2505 4.52345E-01
 -1      2506 5.41715E-01
 -1      2507 4.41043E-01
 -1      2508 4.39184E-01
 -1      2509 5.28553E-01
 -1      2510 5.22387E-01
 -1      2511 1.31212E+01
 -1      2512 1.90238E+01
 -1      2513 9.31621E+00
 -1      2514 9.28815E+00
 -1      2515 2.24576E+01
 -1      2516 2.23096E+01
 -1      2517 1.47539E+01
 -1      2518 5.44100E-01
 -1      2519 6.20908E-01
 -1      2520 6.20908E-01
 -1      2521 4.90956E-01
 -1      2522 9.55822E+00
 -1      2523 8.41666E+00
 -1      2524 1.70216E+00
 -1      2525 1.30161E+00
 -1      2526 8.40687E-01
 -1      2527 9.68205E-01
 -1      2528 2.37542E+01
 -1      2529 2.23857E+01
 -1      2530 5.22601E-01
 -1      2531 5.44793E-01
 -1      2532 4.72168E-01
 -1      2533 4.44571E-01
 -1      2534 5.36932E+00
 -1      2535 5.77403E+00
 -1      2536 7.64588E+00
 -1      2537 6.56629E+00
 -1      2538 7.96948E+00
 -1      2539 8.67581E+00
 -1      2540 6.03761E+00
 -1      2541 7.09407E+00
 -1      2542 8.85795E+00
 -1      2543 6.89197E+00
 -1      2544 1.38369E+01
 -1      2545 9.80411E+00
 -1      2546 2.32250E+01
 -1      2547 1.67909E+01
 -1      2548 1.17045E+01
 -1      2549 2.90935E+01
 -1      2550 2.72184E+01
 -1      2551 3.55416E+01
 -1      2552 3.55416E+01
 -1      2553 3.31160E+01
 -1      2554 3.43288E+01
 -1      2555 1.77250E+01
 -1      2556 2.44416E+01
 -1      2557 8.74393E+00
 -1      2558 8.48767E+00
 -1      2559 2.64315E+01
 -1      2560 3.34856E+01
 -1      2561 4.21207E+00
 -1      2562 5.10692E-01
 -1      2563 6.49898E-01
 -1      2564 7.12096E-01
 -1      2565 6.86818E+00
 -1      2566 2.37542E+01
 -1      2567 1.13918E+01
 -1      2568 7.63685E+00
 -1      2569 4.40953E+00
 -1      2570 7.16847E+00
 -1      2571 7.09335E+00
 -1      2572 3.34856E+01
 -1      2573 8.41666E+00
 -1      2574 1.20352E-01
 -1      2575 1.45550E-01
 -1      2576 1.09443E+01
 -1      2577 9.14322E+00
 -1      2578 7.67454E+00
 -1      2579 7.54066E+00
 -1      2580 2.23096E+01
 -1      2581 3.43288E+01
 -1      2582 1.86520E+01
 -1      2583 7.80431E+00
 -1      2584 6.00380E+00
 -1      2585 6.02485E+00
 -1      2586 6.87237E-01
 -1      2587 7.66525E-01
 -1      2588 6.62655E-01
 -1      2589 4.85833E-01
 -1      2590 6.25083E+00
 -1      2591 1.62304E+01
 -1      2592 2.90935E+01
 -1      2593 2.85979E+01
 -1      2594 2.81421E+01
 -1      2595 1.86735E-01
 -1      2596 1.90119E+01
 -1      2597 2.81421E+01
 -1      2598 4.22724E-01
 -1      2599 4.07929E-01
 -1      2600 4.00083E-01
 -1      2601 3.87140E-01
 -1      2602 3.50563E-01
 -1      2603 4.36286E-01
 -1      2604 4.36286E-01
 -1      2605 4.21979E-01
 -1      2606 4.24602E-01
 -1      2607 3.49914E-01
 -1      2608 5.37349E-01
 -1      2609 4.68553E-01
 -1      2610 3.84804E-01
 -1      2611 1.01715E+00
 -1      2612 6.81450E-01
 -1      2613 5.75479E-01
 -1      2614 8.31802E-01
 -1      2615 4.23858E-01
 -1      2616 4.35825E-01
 -1      2617 5.50561E-01
 -1      2618 4.94570E-01
 -1      2619 4.89827E-01
 -1      2620 4.33373E-01
 -1      2621 3.90059E-01
 -1      2622 4.13242E-01
 -1      2623 3.63466E-01
 -1      2624 3.65185E-01
 -1      2625 3.38653E-01
 -1      2626 3.10556E-01
 -1      2627 3.20241E-01
 -1      2628 2.85519E-01
 -1      2629 2.60469E-01
 -1      2630 2.70390E-01
 -1      2631 2.44336E-01
 -1      2632 2.20548E-01
 -1      2633 2.29219E-01
 -1      2634 2.04054E-01
 -1      2635 1.84074E-01
 -1      2636 1.96593E-01
 -1      2637 1.68183E-01
 -1      2638 1.51069E-01
 -1      2639 1.64209E-01
 -1      2640 1.36684E-01
 -1      2641 1.21623E-01
 -1      2642 1.33933E-01
 -1      2643 1.09782E-01
 -1      2644 9.64835E-02
 -1      2645 1.07707E-01
 -1      2646 8.66472E-02
 -1      2647 7.66575E-02
 -1      2648 8.60297E-02
 -1      2649 6.76667E-02
 -1      2650 5.85737E-02
 -1      2651 6.72025E-02
 -1      2652 5.05487E-02
 -1      2653 4.34798E-02
 -1      2654 5.01867E-02
 -1      2655 3.71197E-02
 -1      2656 3.82098E-02
 -1      2657 3.58016E-02
 -1      2658 4.00607E-02
 -1      2659 4.47575E-02
 -1      2660 3.12924E-02
 -1      2661 5.66702E-02
 -1      2662 7.42475E-02
 -1      2663 4.50561E-02
 -1      2664 9.43669E-02
 -1      2665 1.20741E-01
 -1      2666 7.70882E-02
 -1      2667 1.51875E-01
 -1      2668 1.89832E-01
 -1      2669 1.28341E-01
 -1      2670 2.39602E-01
 -1      2671 2.94719E-01
 -1      2672 2.09243E-01
 -1      2673 3.70990E-01
 -1      2674 4.51203E-01
 -1      2675 3.35284E-01
 -1      2676 5.68504E-01
 -1      2677 6.97196E-01
 -1      2678 5.28857E-01
 -1      2679 8.78299E-01
 -1      2680 1.09121E+00
 -1      2681 8.27261E-01
 -1      2682 1.37242E+00
 -1      2683 1.71025E+00
 -1      2684 1.28957E+00
 -1      2685 2.11216E+00
 -1      2686 2.63607E+00
 -1      2687 1.97268E+00
 -1      2688 3.36282E+00
 -1      2689 4.19449E+00
 -1      2690 3.10133E+00
 -1      2691 5.38051E+00
 -1      2692 6.62095E+00
 -1      2693 5.01410E+00
 -1      2694 7.65115E+00
 -1      2695 9.29473E+00
 -1      2696 7.23033E+00
 -1      2697 2.89906E-01
 -1      2698 3.21841E-01
 -1      2699 4.91971E+00
 -1      2700 4.02354E+00
 -1      2701 3.14413E+00
 -1      2702 2.52256E+00
 -1      2703 3.80511E+00
 -1      2704 1.97430E+00
 -1      2705 1.57166E+00
 -1      2706 2.37744E+00
 -1      2707 1.21526E+00
 -1      2708 9.59477E-01
 -1      2709 1.47277E+00
 -1      2710 7.58659E-01
 -1      2711 6.22056E-01
 -1      2712 6.15061E-01
 -1      2713 9.15548E-01
 -1      2714 2.42032E-01
 -1      2715 2.70184E-01
 -1      2716 2.52578E-01
 -1      2717 3.49092E-01
 -1      2718 3.82307E-01
 -1      2719 2.99552E-01
 -1      2720 2.00584E-01
 -1      2721 2.23221E-01
 -1      2722 2.14044E-01
 -1      2723 1.63120E-01
 -1      2724 1.83054E-01
 -1      2725 1.77702E-01
 -1      2726 1.31256E-01
 -1      2727 1.48470E-01
 -1      2728 1.45521E-01
 -1      2729 1.04501E-01
 -1      2730 1.18190E-01
 -1      2731 1.17805E-01
 -1      2732 8.16839E-02
 -1      2733 9.29942E-02
 -1      2734 9.32318E-02
 -1      2735 6.21012E-02
 -1      2736 7.18718E-02
 -1      2737 7.19132E-02
 -1      2738 4.53764E-02
 -1      2739 5.37388E-02
 -1      2740 5.37388E-02
 -1      2741 3.53690E-02
 -1      2742 3.83099E-02
 -1      2743 3.83099E-02
 -1      2744 3.31730E-02
 -1      2745 3.40087E-02
 -1      2746 2.98832E-02
 -1      2747 3.28679E-02
 -1      2748 3.32701E-02
 -1      2749 2.86201E-02
 -1      2750 3.40094E-02
 -1      2751 3.32959E-02
 -1      2752 2.91452E-02
 -1      2753 3.97303E-02
 -1      2754 3.73204E-02
 -1      2755 3.28842E-02
 -1      2756 4.72615E-02
 -1      2757 4.52635E-02
 -1      2758 4.17283E-02
 -1      2759 6.43635E-02
 -1      2760 5.77266E-02
 -1      2761 5.77266E-02
 -1      2762 9.46437E-02
 -1      2763 8.10438E-02
 -1      2764 8.48722E-02
 -1      2765 1.60416E-01
 -1      2766 1.22687E-01
 -1      2767 1.29596E-01
 -1      2768 2.67157E-01
 -1      2769 2.10081E-01
 -1      2770 2.07304E-01
 -1      2771 4.03682E-01
 -1      2772 3.30366E-01
 -1      2773 3.20178E-01
 -1      2774 5.65949E-01
 -1      2775 4.76428E-01
 -1      2776 4.56133E-01
 -1      2777 7.64272E-01
 -1      2778 6.47709E-01
 -1      2779 6.10638E-01
 -1      2780 9.81138E-01
 -1      2781 8.64643E-01
 -1      2782 7.92768E-01
 -1      2783 1.17556E+00
 -1      2784 1.07985E+00
 -1      2785 9.91849E-01
 -1      2786 1.32985E+00
 -1      2787 1.23691E+00
 -1      2788 1.15192E+00
 -1      2789 1.42601E+00
 -1      2790 1.36492E+00
 -1      2791 1.24834E+00
 -1      2792 1.43748E+00
 -1      2793 1.43164E+00
 -1      2794 1.28904E+00
 -1      2795 1.36996E+00
 -1      2796 1.40556E+00
 -1      2797 1.26274E+00
 -1      2798 1.41321E+00
 -1      2799 1.37733E+00
 -1      2800 1.23819E+00
 -1      2801 1.42565E+00
 -1      2802 1.44080E+00
 -1      2803 1.27314E+00
 -1      2804 1.34299E+00
 -1      2805 1.41206E+00
 -1      2806 1.28714E+00
 -1      2807 1.22106E+00
 -1      2808 1.30980E+00
 -1      2809 1.24034E+00
 -1      2810 1.05189E+00
 -1      2811 1.15171E+00
 -1      2812 1.13780E+00
 -1      2813 8.35754E-01
 -1      2814 9.51133E-01
 -1      2815 9.67693E-01
 -1      2816 6.38056E-01
 -1      2817 7.47748E-01
 -1      2818 7.78929E-01
 -1      2819 4.79034E-01
 -1      2820 5.61526E-01
 -1      2821 6.14393E-01
 -1      2822 3.41481E-01
 -1      2823 4.10021E-01
 -1      2824 4.68850E-01
 -1      2825 2.39541E-01
 -1      2826 2.82383E-01
 -1      2827 3.40740E-01
 -1      2828 2.05562E-01
 -1      2829 2.15151E-01
 -1      2830 2.57253E-01
 -1      2831 2.14037E-01
 -1      2832 3.43176E-01
 -1      2833 3.23091E-01
 -1      2834 2.89375E-01
 -1      2835 2.77487E-01
 -1      2836 4.24022E-01
 -1      2837 3.78144E-01
 -1      2838 4.39728E-01
 -1      2839 3.05698E-01
 -1      2840 3.05698E-01
 -1      2841 3.53650E-01
 -1      2842 3.87367E-01
 -1      2843 1.06766E+01
 -1      2844 1.41105E+01
 -1      2845 5.66953E-01
 -1      2846 5.04899E-01
 -1      2847 5.55573E-01
 -1      2848 6.28204E-01
 -1      2849 6.06074E-01
 -1      2850 6.75571E-01
 -1      2851 6.28204E-01
 -1      2852 6.28204E-01
 -1      2853 7.14692E-01
 -1      2854 2.06859E+01
 -1      2855 2.77401E+01
 -1      2856 8.83369E+00
 -1      2857 8.42676E+00
 -1      2858 1.80018E+01
 -1      2859 7.55251E+00
 -1      2860 6.60635E+00
 -1      2861 6.06827E-01
 -1      2862 5.83179E-01
 -1      2863 4.05147E-01
 -1      2864 6.29258E+00
 -1      2865 6.93298E+00
 -1      2866 6.73463E+00
 -1      2867 6.08144E+00
 -1      2868 5.84626E+00
 -1      2869 5.86061E+00
 -1      2870 5.01881E+00
 -1      2871 6.06557E-01
 -1      2872 5.51198E-01
 -1      2873 3.95439E-01
 -1      2874 3.72698E-01
 -1      2875 4.36286E-01
 -1      2876 4.24319E-01
 -1      2877 3.60002E-01
 -1      2878 3.61597E-01
 -1      2879 7.23556E+00
 -1      2880 6.69134E+00
 -1      2881 1.67408E+01
 -1      2882 2.08627E+01
 -1      2883 4.65767E+00
 -1      2884 5.53307E+00
 -1      2885 5.47253E+00
 -1      2886 4.61818E+00
 -1      2887 4.12640E+00
 -1      2888 1.14842E+01
 -1      2889 8.53013E+00
 -1      2890 1.73056E+01
 -1      2891 1.33122E+01
 -1      2892 1.01378E+01
 -1      2893 2.62907E+01
 -1      2894 1.98426E+01
 -1      2895 2.29906E+01
 -1      2896 2.42034E+01
 -1      2897 2.86665E+01
 -1      2898 2.29879E+01
 -1      2899 4.21717E+00
 -1      2900 3.02020E+00
 -1      2901 4.35825E-01
 -1      2902 4.35825E-01
 -1      2903 3.60958E-01
 -1      2904 3.42373E-01
 -1      2905 3.86796E-01
 -1      2906 3.99804E-01
 -1      2907 1.08432E+01
 -1      2908 1.18774E+01
 -1      2909 3.13616E+00
 -1      2910 4.53059E+00
 -1      2911 3.14126E+00
 -1      2912 3.60920E-01
 -1      2913 4.16424E-01
 -1      2914 4.69568E-01
 -1      2915 1.28821E+01
 -1      2916 2.18258E+01
 -1      2917 1.63975E+01
 -1      2918 5.02979E-01
 -1      2919 5.79786E-01
 -1      2920 4.28446E-01
 -1      2921 6.65392E+00
 -1      2922 8.83079E+00
 -1      2923 8.18735E+00
 -1      2924 5.92422E-01
 -1      2925 6.13259E-01
 -1      2926 2.17657E-01
 -1      2927 2.36484E-01
 -1      2928 2.18103E-01
 -1      2929 3.82694E+00
 -1      2930 1.35970E+01
 -1      2931 1.77533E+01
 -1      2932 6.38516E+00
 -1      2933 1.58668E+01
 -1      2934 1.51172E+01
 -1      2935 6.35554E-01
 -1      2936 6.48716E-01
 -1      2937 7.35204E-01
 -1      2938 7.35223E-01
 -1      2939 2.32710E+01
 -1      2940 1.31455E+01
 -1      2941 8.70013E+00
 -1      2942 1.39420E+01
 -1      2943 7.33217E+00
 -1      2944 1.45028E+01
 -1      2945 5.45932E+00
 -1      2946 5.22073E+00
 -1      2947 1.56312E+01
 -1      2948 4.74492E-01
 -1      2949 1.20136E+01
 -1      2950 2.41243E-01
 -1      2951 2.30470E-01
 -1      2952 2.52472E-01
 -1      2953 3.01083E-01
 -1      2954 4.92540E+00
 -1      2955 4.07580E-01
 -1      2956 4.22169E-01
 -1      2957 3.59269E-01
 -1      2958 3.49805E-01
 -1      2959 1.82971E+01
 -1      2960 1.26636E+01
 -1      2961 5.98748E+00
 -1      2962 2.40256E+01
 -1      2963 1.47747E+01
 -1      2964 1.26874E+01
 -1      2965 1.08721E+01
 -1      2966 1.24307E+01
 -1      2967 7.88599E+00
 -1      2968 1.04687E+01
 -1      2969 1.01883E+01
 -1      2970 3.41188E-01
 -1      2971 2.94615E-01
 -1      2972 2.91142E-01
 -1      2973 3.02825E-01
 -1      2974 2.47526E-01
 -1      2975 7.29486E-01
 -1      2976 1.91215E-01
 -1      2977 2.10027E-01
 -1      2978 3.19960E-01
 -1      2979 2.99829E-01
 -1      2980 2.96862E-01
 -1      2981 2.72049E-01
 -1      2982 2.51636E-01
 -1      2983 2.61287E-01
 -1      2984 2.36250E-01
 -1      2985 2.37908E-01
 -1      2986 2.21983E-01
 -1      2987 2.05850E-01
 -1      2988 2.12881E-01
 -1      2989 1.92228E-01
 -1      2990 1.75735E-01
 -1      2991 1.84992E-01
 -1      2992 1.64913E-01
 -1      2993 1.49022E-01
 -1      2994 1.60549E-01
 -1      2995 1.37492E-01
 -1      2996 1.23108E-01
 -1      2997 1.38197E-01
 -1      2998 1.11995E-01
 -1      2999 1.00154E-01
 -1      3000 1.15555E-01
 -1      3001 8.98887E-02
 -1      3002 8.00524E-02
 -1      3003 9.41768E-02
 -1      3004 7.03188E-02
 -1      3005 6.13279E-02
 -1      3006 7.41778E-02
 -1      3007 5.24209E-02
 -1      3008 4.43959E-02
 -1      3009 5.55371E-02
 -1      3010 3.61211E-02
 -1      3011 2.97609E-02
 -1      3012 3.83552E-02
 -1      3013 2.96538E-02
 -1      3014 3.15047E-02
 -1      3015 2.99733E-02
 -1      3016 3.97112E-02
 -1      3017 5.16239E-02
 -1      3018 3.80726E-02
 -1      3019 6.90343E-02
 -1      3020 8.91537E-02
 -1      3021 6.36894E-02
 -1      3022 1.14291E-01
 -1      3023 1.45424E-01
 -1      3024 1.06237E-01
 -1      3025 1.81421E-01
 -1      3026 2.31191E-01
 -1      3027 1.67371E-01
 -1      3028 2.83193E-01
 -1      3029 3.59465E-01
 -1      3030 2.55372E-01
 -1      3031 4.34775E-01
 -1      3032 5.52076E-01
 -1      3033 3.82684E-01
 -1      3034 6.61279E-01
 -1      3035 8.42382E-01
 -1      3036 5.67197E-01
 -1      3037 1.00122E+00
 -1      3038 1.28243E+00
 -1      3039 8.35242E-01
 -1      3040 1.50879E+00
 -1      3041 1.91069E+00
 -1      3042 1.22044E+00
 -1      3043 2.38666E+00
 -1      3044 3.11341E+00
 -1      3045 1.92277E+00
 -1      3046 3.93334E+00
 -1      3047 5.11936E+00
 -1      3048 3.21867E+00
 -1      3049 6.03354E-01
 -1      3050 1.35928E+01
 -1      3051 2.24314E-01
 -1      3052 2.44036E-01
 -1      3053 2.01485E-01
 -1      3054 2.44080E+00
 -1      3055 1.89254E+00
 -1      3056 1.67661E+00
 -1      3057 1.32021E+00
 -1      3058 1.73998E+00
 -1      3059 1.03089E+00
 -1      3060 9.91772E-01
 -1      3061 2.62665E-01
 -1      3062 2.89916E-01
 -1      3063 2.34401E-01
 -1      3064 1.32552E-01
 -1      3065 1.47202E-01
 -1      3066 1.06853E-01
 -1      3067 1.19919E-01
 -1      3068 1.21600E-01
 -1      3069 8.38166E-02
 -1      3070 9.53232E-02
 -1      3071 9.74380E-02
 -1      3072 6.36835E-02
 -1      3073 7.34956E-02
 -1      3074 7.55870E-02
 -1      3075 4.61327E-02
 -1      3076 5.44950E-02
 -1      3077 5.60774E-02
 -1      3078 3.12435E-02
 -1      3079 3.83099E-02
 -1      3080 3.90662E-02
 -1      3081 2.39651E-02
 -1      3082 2.53254E-02
 -1      3083 2.53254E-02
 -1      3084 2.37534E-02
 -1      3085 2.36563E-02
 -1      3086 1.90985E-02
 -1      3087 2.67190E-02
 -1      3088 2.62910E-02
 -1      3089 2.13272E-02
 -1      3090 3.50679E-02
 -1      3091 3.17570E-02
 -1      3092 2.89028E-02
 -1      3093 4.67994E-02
 -1      3094 4.12662E-02
 -1      3095 4.01390E-02
 -1      3096 6.81918E-02
 -1      3097 5.77266E-02
 -1      3098 5.72646E-02
 -1      3099 1.01553E-01
 -1      3100 8.48722E-02
 -1      3101 8.48722E-02
 -1      3102 1.57237E-01
 -1      3103 1.29194E-01
 -1      3104 1.29194E-01
 -1      3105 2.46079E-01
 -1      3106 1.96415E-01
 -1      3107 1.96012E-01
 -1      3108 3.74590E-01
 -1      3109 3.11381E-01
 -1      3110 3.00491E-01
 -1      3111 5.25987E-01
 -1      3112 4.53241E-01
 -1      3113 4.44444E-01
 -1      3114 6.92397E-01
 -1      3115 6.10638E-01
 -1      3116 6.07746E-01
 -1      3117 8.69139E-01
 -1      3118 7.68768E-01
 -1      3119 7.68768E-01
 -1      3120 1.05135E+00
 -1      3121 9.52643E-01
 -1      3122 9.28643E-01
 -1      3123 1.17071E+00
 -1      3124 1.10935E+00
 -1      3125 1.07014E+00
 -1      3126 1.25853E+00
 -1      3127 1.22346E+00
 -1      3128 1.18090E+00
 -1      3129 1.35708E+00
 -1      3130 1.35145E+00
 -1      3131 1.32657E+00
 -1      3132 1.30363E+00
 -1      3133 1.33555E+00
 -1      3134 1.39797E+00
 -1      3135 1.27636E+00
 -1      3136 1.26899E+00
 -1      3137 1.34180E+00
 -1      3138 1.38218E+00
 -1      3139 1.35459E+00
 -1      3140 1.38539E+00
 -1      3141 1.31271E+00
 -1      3142 1.32631E+00
 -1      3143 1.40775E+00
 -1      3144 1.21298E+00
 -1      3145 1.24618E+00
 -1      3146 1.28535E+00
 -1      3147 1.08905E+00
 -1      3148 1.15840E+00
 -1      3149 1.16423E+00
 -1      3150 9.32434E-01
 -1      3151 1.03319E+00
 -1      3152 1.05379E+00
 -1      3153 7.65790E-01
 -1      3154 8.53796E-01
 -1      3155 9.19295E-01
 -1      3156 6.14393E-01
 -1      3157 6.90923E-01
 -1      3158 7.65790E-01
 -1      3159 4.64616E-01
 -1      3160 5.33628E-01
 -1      3161 6.10158E-01
 -1      3162 3.32560E-01
 -1      3163 3.91657E-01
 -1      3164 4.56435E-01
 -1      3165 2.55307E-01
 -1      3166 2.79697E-01
 -1      3167 3.30614E-01
 -1      3168 2.58928E-01
 -1      3169 1.35936E+01
 -1      3170 1.03931E+01
 -1      3171 1.26671E+01
 -1      3172 3.81739E+00
 -1      3173 4.57689E+00
 -1      3174 5.99161E+00
 -1      3175 6.57280E+00
 -1      3176 5.70628E-01
 -1      3177 5.35660E-01
 -1      3178 3.82694E+00
 -1      3179 3.02530E+00
 -1      3180 1.03089E+00
 -1      3181 1.03089E+00
 -1      3182 1.34709E+00
 -1      3183 8.86265E-01
 -1      3184 8.05388E-01
 -1      3185 9.01320E-01
 -1      3186 1.24159E+00
 -1      3187 1.28439E+01
 -1      3188 1.26671E+01
 -1      3189 1.60530E-01
 -1      3190 1.78060E-01
 -1      3191 1.47560E-01
 -1      3192 8.70093E+00
 -1      3193 8.99434E+00
 -1      3194 1.16247E+01
 -1      3195 4.03300E-01
 -1      3196 3.78441E-01
 -1      3197 3.22614E-01
 -1      3198 3.28433E-01
 -1      3199 3.88220E+00
 -1      3200 3.00279E+00
 -1      3201 2.51789E+00
 -1      3202 7.00800E+00
 -1      3203 5.84626E+00
 -1      3204 5.04394E+00
 -1      3205 3.12669E-01
 -1      3206 3.07926E-01
 -1      3207 2.42569E-01
 -1      3208 7.08074E+00
 -1      3209 6.10312E+00
 -1      3210 5.43572E+00
 -1      3211 4.30190E+00
 -1      3212 1.32902E+01
 -1      3213 1.07532E+01
 -1      3214 3.41578E+00
 -1      3215 3.45527E+00
 -1      3216 5.26720E+00
 -1      3217 4.43647E+00
 -1      3218 3.63482E+00
 -1      3219 9.34438E+00
 -1      3220 7.51635E+00
 -1      3221 3.23517E-01
 -1      3222 3.15671E-01
 -1      3223 4.87229E+00
 -1      3224 5.17487E+00
 -1      3225 1.33610E+01
 -1      3226 3.12113E-01
 -1      3227 3.11769E-01
 -1      3228 2.85067E-01
 -1      3229 2.61740E-01
 -1      3230 3.20512E-01
 -1      3231 3.20512E-01
 -1      3232 5.18429E+00
 -1      3233 3.63077E+00
 -1      3234 1.74043E-01
 -1      3235 4.71823E+00
 -1      3236 3.06388E-01
 -1      3237 3.40505E-01
 -1      3238 2.69501E-01
 -1      3239 3.69063E-01
 -1      3240 4.85290E-01
 -1      3241 5.81540E+00
 -1      3242 6.84560E+00
 -1      3243 3.51961E-01
 -1      3244 3.85371E-01
 -1      3245 2.97429E-01
 -1      3246 3.23517E-01
 -1      3247 2.88626E-01
 -1      3248 3.25111E-01
 -1      3249 2.93335E+00
 -1      3250 3.04931E+00
 -1      3251 2.93335E+00
 -1      3252 3.20675E-01
 -1      3253 3.20675E-01
 -1      3254 6.26038E+00
 -1      3255 9.36041E-01
 -1      3256 9.17467E+00
 -1      3257 1.03939E+01
 -1      3258 4.43744E-01
 -1      3259 4.27420E-01
 -1      3260 3.10677E+00
 -1      3261 1.13989E+00
 -1      3262 6.14933E-01
 -1      3263 4.84033E-01
 -1      3264 4.66640E-01
 -1      3265 8.18735E+00
 -1      3266 7.14849E+00
 -1      3267 6.34150E+00
 -1      3268 3.76428E+00
 -1      3269 3.45992E-01
 -1      3270 3.54644E-01
 -1      3271 3.18400E-01
 -1      3272 4.44737E-01
 -1      3273 8.70093E+00
 -1      3274 3.33307E-01
 -1      3275 2.51174E-01
 -1      3276 3.33944E-01
 -1      3277 5.17487E+00
 -1      3278 4.15201E+00
 -1      3279 4.05968E+00
 -1      3280 1.00106E+01
 -1      3281 1.25029E+01
 -1      3282 8.75335E+00
 -1      3283 1.02379E+01
 -1      3284 6.28730E+00
 -1      3285 8.13177E+00
 -1      3286 1.11937E+00
 -1      3287 3.24936E-01
 -1      3288 3.26625E-01
 -1      3289 2.86342E-01
 -1      3290 1.43557E+00
 -1      3291 3.84732E-01
 -1      3292 3.97368E-01
 -1      3293 4.73463E+00
 -1      3294 2.79303E-01
 -1      3295 3.08246E-01
 -1      3296 5.14986E+00
 -1      3297 4.48247E+00
 -1      3298 2.14059E-01
 -1      3299 2.11092E-01
 -1      3300 6.47105E+00
 -1      3301 2.75830E-01
 -1      3302 2.15285E-01
 -1      3303 2.04524E-01
 -1      3304 1.77708E-01
 -1      3305 2.01011E-01
 -1      3306 1.86744E-01
 -1      3307 1.78388E-01
 -1      3308 1.78814E-01
 -1      3309 1.65192E-01
 -1      3310 1.66944E-01
 -1      3311 1.55124E-01
 -1      3312 1.44303E-01
 -1      3313 1.48946E-01
 -1      3314 1.35922E-01
 -1      3315 1.24392E-01
 -1      3316 1.30497E-01
 -1      3317 1.15972E-01
 -1      3318 1.04859E-01
 -1      3319 1.13696E-01
 -1      3320 9.63242E-02
 -1      3321 8.60589E-02
 -1      3322 9.67412E-02
 -1      3323 7.74996E-02
 -1      3324 6.77659E-02
 -1      3325 7.96470E-02
 -1      3326 5.97210E-02
 -1      3327 5.08139E-02
 -1      3328 6.30427E-02
 -1      3329 4.33929E-02
 -1      3330 3.51181E-02
 -1      3331 4.75768E-02
 -1      3332 3.39886E-02
 -1      3333 3.38814E-02
 -1      3334 3.90262E-02
 -1      3335 3.61832E-02
 -1      3336 4.43897E-02
 -1      3337 4.01986E-02
 -1      3338 5.32221E-02
 -1      3339 7.06325E-02
 -1      3340 5.13328E-02
 -1      3341 8.70357E-02
 -1      3342 1.12173E-01
 -1      3343 7.65684E-02
 -1      3344 1.33683E-01
 -1      3345 1.69681E-01
 -1      3346 1.14482E-01
 -1      3347 1.98488E-01
 -1      3348 2.50490E-01
 -1      3349 1.64800E-01
 -1      3350 3.05536E-01
 -1      3351 3.80846E-01
 -1      3352 2.48652E-01
 -1      3353 4.64903E-01
 -1      3354 5.74106E-01
 -1      3355 3.87755E-01
 -1      3356 6.99903E-01
 -1      3357 8.58746E-01
 -1      3358 5.97610E-01
 -1      3359 1.01138E+00
 -1      3360 1.23773E+00
 -1      3361 8.76038E-01
 -1      3362 1.51783E+00
 -1      3363 1.99380E+00
 -1      3364 1.30876E+00
 -1      3365 2.56023E+00
 -1      3366 3.38016E+00
 -1      3367 2.15529E+00
 -1      3368 2.05624E-01
 -1      3369 2.24253E-01
 -1      3370 1.52406E+00
 -1      3371 1.43557E+00
 -1      3372 1.73998E+00
 -1      3373 6.26038E+00
 -1      3374 6.34150E+00
 -1      3375 1.80738E-01
 -1      3376 1.95025E-01
 -1      3377 1.84878E-01
 -1      3378 5.33194E+00
 -1      3379 3.36788E+00
 -1      3380 5.40410E-01
 -1      3381 8.97774E-02
 -1      3382 1.01307E-01
 -1      3383 1.11163E-01
 -1      3384 1.23796E-01
 -1      3385 1.03503E-01
 -1      3386 5.21376E-02
 -1      3387 6.13261E-02
 -1      3388 3.62478E-02
 -1      3389 4.40705E-02
 -1      3390 4.93192E-02
 -1      3391 2.28098E-02
 -1      3392 2.87279E-02
 -1      3393 3.37322E-02
 -1      3394 1.84875E-02
 -1      3395 1.87963E-02
 -1      3396 2.21988E-02
 -1      3397 2.21379E-02
 -1      3398 1.96003E-02
 -1      3399 1.92981E-02
 -1      3400 3.33580E-02
 -1      3401 2.83201E-02
 -1      3402 2.65931E-02
 -1      3403 4.71417E-02
 -1      3404 4.09434E-02
 -1      3405 4.03607E-02
 -1      3406 6.79267E-02
 -1      3407 5.69995E-02
 -1      3408 5.78038E-02
 -1      3409 1.00468E-01
 -1      3410 8.37876E-02
 -1      3411 8.35225E-02
 -1      3412 1.56835E-01
 -1      3413 1.29194E-01
 -1      3414 1.28109E-01
 -1      3415 2.33274E-01
 -1      3416 1.94096E-01
 -1      3417 1.94096E-01
 -1      3418 3.45962E-01
 -1      3419 2.80661E-01
 -1      3420 2.78745E-01
 -1      3421 4.92242E-01
 -1      3422 4.13590E-01
 -1      3423 3.93760E-01
 -1      3424 6.64758E-01
 -1      3425 5.80107E-01
 -1      3426 5.49253E-01
 -1      3427 8.45138E-01
 -1      3428 7.68768E-01
 -1      3429 7.41129E-01
 -1      3430 1.04927E+00
 -1      3431 9.65763E-01
 -1      3432 9.65763E-01
 -1      3433 1.17005E+00
 -1      3434 1.11206E+00
 -1      3435 1.14918E+00
 -1      3436 1.23791E+00
 -1      3437 1.18515E+00
 -1      3438 1.22707E+00
 -1      3439 1.60465E+00
 -1      3440 1.51172E+00
 -1      3441 1.51598E+00
 -1      3442 1.72839E+00
 -1      3443 1.74991E+00
 -1      3444 1.93507E+00
 -1      3445 2.02748E+00
 -1      3446 2.06212E+00
 -1      3447 2.41406E+00
 -1      3448 2.30952E+00
 -1      3449 2.23129E+00
 -1      3450 2.95161E+00
 -1      3451 1.88595E+00
 -1      3452 1.94182E+00
 -1      3453 2.78771E+00
 -1      3454 1.29491E+00
 -1      3455 1.36144E+00
 -1      3456 1.89551E+00
 -1      3457 1.18926E+00
 -1      3458 1.24384E+00
 -1      3459 1.31994E+00
 -1      3460 1.09467E+00
 -1      3461 1.15053E+00
 -1      3462 1.23014E+00
 -1      3463 9.19295E-01
 -1      3464 9.97933E-01
 -1      3465 1.09467E+00
 -1      3466 7.59270E-01
 -1      3467 8.34137E-01
 -1      3468 9.12775E-01
 -1      3469 6.49101E-01
 -1      3470 7.29866E-01
 -1      3471 7.98213E-01
 -1      3472 4.25304E-01
 -1      3473 4.98262E-01
 -1      3474 6.17971E-01
 -1      3475 8.70093E+00
 -1      3476 2.61542E+00
 -1      3477 2.97754E+00
 -1      3478 2.76102E-01
 -1      3479 3.16385E-01
 -1      3480 1.43557E+00
 -1      3481 1.33610E-01
 -1      3482 1.46937E-01
 -1      3483 1.23173E-01
 -1      3484 2.61440E-01
 -1      3485 2.29662E-01
 -1      3486 2.47349E-01
 -1      3487 7.02058E+00
 -1      3488 8.23977E+00
 -1      3489 3.11089E+00
 -1      3490 4.57191E+00
 -1      3491 2.90298E+00
 -1      3492 2.83860E-01
 -1      3493 1.84976E-01
 -1      3494 1.97010E-01
 -1      3495 1.56466E-01
 -1      3496 3.61185E+00
 -1      3497 2.72573E+00
 -1      3498 3.17160E-01
 -1      3499 3.24936E-01
 -1      3500 2.92292E-01
 -1      3501 2.78470E-01
 -1      3502 2.66103E-01
 -1      3503 2.84926E-01
 -1      3504 3.32031E-01
 -1      3505 1.55811E-01
 -1      3506 1.68967E-01
 -1      3507 1.62507E-01
 -1      3508 2.62078E-01
 -1      3509 3.51460E+00
 -1      3510 2.90507E+00
 -1      3511 6.94173E+00
 -1      3512 9.44084E+00
 -1      3513 7.16905E+00
 -1      3514 5.90134E+00
 -1      3515 5.95501E+00
 -1      3516 5.51940E+00
 -1      3517 8.75335E+00
 -1      3518 7.34450E+00
 -1      3519 7.00619E-02
 -1      3520 8.03830E-02
 -1      3521 8.42523E-02
 -1      3522 6.61221E-02
 -1      3523 4.60605E+00
 -1      3524 5.30209E+00
 -1      3525 3.94761E+00
 -1      3526 3.32441E+00
 -1      3527 3.61981E+00
 -1      3528 2.60710E+00
 -1      3529 2.04512E+00
 -1      3530 1.82919E+00
 -1      3531 2.89511E+00
 -1      3532 6.54684E+00
 -1      3533 2.46915E-01
 -1      3534 2.58371E-01
 -1      3535 2.11564E-01
 -1      3536 3.61981E+00
 -1      3537 4.81758E+00
 -1      3538 2.52908E-01
 -1      3539 2.49350E-01
 -1      3540 2.30751E-01
 -1      3541 2.47224E-01
 -1      3542 2.01975E-01
 -1      3543 2.59650E+00
 -1      3544 4.87079E+00
 -1      3545 1.41861E-01
 -1      3546 2.84026E-01
 -1      3547 2.90507E+00
 -1      3548 2.81313E+00
 -1      3549 2.78485E+00
 -1      3550 4.77262E+00
 -1      3551 4.85374E+00
 -1      3552 3.16528E+00
 -1      3553 6.34150E+00
 -1      3554 6.70724E-01
 -1      3555 6.47827E-01
 -1      3556 1.33473E+00
 -1      3557 1.09997E+00
 -1      3558 2.53857E-01
 -1      3559 2.49566E-01
 -1      3560 2.28928E-01
 -1      3561 3.37789E-01
 -1      3562 2.52908E-01
 -1      3563 2.52908E-01
 -1      3564 2.17191E-01
 -1      3565 2.86901E-01
 -1      3566 7.88841E-01
 -1      3567 7.37214E-01
 -1      3568 8.44632E-01
 -1      3569 1.22225E+00
 -1      3570 7.73476E-01
 -1      3571 6.43161E-01
 -1      3572 5.70386E-01
 -1      3573 1.52871E+00
 -1      3574 1.44023E+00
 -1      3575 6.07169E+00
 -1      3576 6.87868E+00
 -1      3577 5.94378E+00
 -1      3578 1.33473E+00
 -1      3579 1.83368E-01
 -1      3580 3.57742E+00
 -1      3581 6.57660E+00
 -1      3582 3.60755E+00
 -1      3583 3.69989E+00
 -1      3584 2.97014E+00
 -1      3585 2.59806E-01
 -1      3586 7.96608E+00
 -1      3587 2.83307E+00
 -1      3588 3.32441E+00
 -1      3589 3.17995E+00
 -1      3590 3.79617E-01
 -1      3591 3.16768E+00
 -1      3592 3.60755E+00
 -1      3593 1.13530E-01
 -1      3594 1.30580E-01
 -1      3595 1.63544E-01
 -1      3596 1.67252E-01
 -1      3597 2.78443E-01
 -1      3598 2.83835E-01
 -1      3599 2.46284E-01
 -1      3600 1.47856E-01
 -1      3601 1.52049E-01
 -1      3602 1.04920E-01
 -1      3603 1.58500E-01
 -1      3604 1.54987E-01
 -1      3605 1.28648E-01
 -1      3606 1.54759E-01
 -1      3607 1.46829E-01
 -1      3608 1.34872E-01
 -1      3609 1.42364E-01
 -1      3610 1.32296E-01
 -1      3611 1.30179E-01
 -1      3612 1.25475E-01
 -1      3613 1.17094E-01
 -1      3614 1.18893E-01
 -1      3615 1.09646E-01
 -1      3616 1.01226E-01
 -1      3617 1.04624E-01
 -1      3618 9.49932E-02
 -1      3619 8.64583E-02
 -1      3620 9.09433E-02
 -1      3621 7.96745E-02
 -1      3622 7.11152E-02
 -1      3623 7.79266E-02
 -1      3624 6.44584E-02
 -1      3625 5.64135E-02
 -1      3626 6.44860E-02
 -1      3627 5.02329E-02
 -1      3628 4.28119E-02
 -1      3629 5.16487E-02
 -1      3630 4.15412E-02
 -1      3631 4.04117E-02
 -1      3632 4.41974E-02
 -1      3633 4.11561E-02
 -1      3634 4.34579E-02
 -1      3635 4.36711E-02
 -1      3636 4.86203E-02
 -1      3637 5.74528E-02
 -1      3638 4.95779E-02
 -1      3639 6.83810E-02
 -1      3640 8.47842E-02
 -1      3641 6.56685E-02
 -1      3642 1.01752E-01
 -1      3643 1.23262E-01
 -1      3644 9.35642E-02
 -1      3645 1.48672E-01
 -1      3646 1.77479E-01
 -1      3647 1.35942E-01
 -1      3648 2.14311E-01
 -1      3649 2.69356E-01
 -1      3650 1.98184E-01
 -1      3651 3.20722E-01
 -1      3652 4.04779E-01
 -1      3653 2.86381E-01
 -1      3654 4.79634E-01
 -1      3655 6.05431E-01
 -1      3656 4.12600E-01
 -1      3657 7.62346E-01
 -1      3658 9.14977E-01
 -1      3659 6.44370E-01
 -1      3660 1.15106E+00
 -1      3661 1.43115E+00
 -1      3662 1.03737E+00
 -1      3663 1.75255E+00
 -1      3664 2.31898E+00
 -1      3665 1.59485E+00
 -1      3666 7.16905E+00
 -1      3667 7.16905E+00
 -1      3668 1.53337E+00
 -1      3669 1.62793E-01
 -1      3670 1.73392E-01
 -1      3671 1.27915E-01
 -1      3672 1.36789E-01
 -1      3673 5.77276E+00
 -1      3674 3.50130E+00
 -1      3675 2.63068E+00
 -1      3676 3.22600E+00
 -1      3677 4.45189E+00
 -1      3678 2.82326E+00
 -1      3679 2.09353E-01
 -1      3680 2.41431E-01
 -1      3681 2.46030E-01
 -1      3682 1.61334E-01
 -1      3683 3.04516E-02
 -1      3684 3.79715E-02
 -1      3685 4.46166E-02
 -1      3686 5.26837E-02
 -1      3687 4.13359E-02
 -1      3688 2.40299E-02
 -1      3689 2.29171E-02
 -1      3690 3.43720E-02
 -1      3691 2.81898E-02
 -1      3692 3.18088E-02
 -1      3693 4.79645E-02
 -1      3694 4.03791E-02
 -1      3695 4.19758E-02
 -1      3696 6.96640E-02
 -1      3697 5.98062E-02
 -1      3698 5.98246E-02
 -1      3699 1.00781E-01
 -1      3700 8.49203E-02
 -1      3701 8.69227E-02
 -1      3702 1.49932E-01
 -1      3703 1.21206E-01
 -1      3704 1.22604E-01
 -1      3705 2.22584E-01
 -1      3706 1.85323E-01
 -1      3707 1.78420E-01
 -1      3708 3.26132E-01
 -1      3709 2.78745E-01
 -1      3710 2.69972E-01
 -1      3711 4.61387E-01
 -1      3712 3.93760E-01
 -1      3713 3.93760E-01
 -1      3714 6.25386E-01
 -1      3715 5.37520E-01
 -1      3716 5.37520E-01
 -1      3717 8.49905E-01
 -1      3718 7.45895E-01
 -1      3719 7.34162E-01
 -1      3720 1.10731E+00
 -1      3721 9.86685E-01
 -1      3722 9.91451E-01
 -1      3723 1.41421E+00
 -1      3724 1.35142E+00
 -1      3725 1.37234E+00
 -1      3726 1.89836E+00
 -1      3727 1.88326E+00
 -1      3728 2.08551E+00
 -1      3729 1.87475E+00
 -1      3730 1.60093E+00
 -1      3731 2.25713E+00
 -1      3732 2.63014E+00
 -1      3733 2.48487E+00
 -1      3734 2.96387E+00
 -1      3735 3.15542E+00
 -1      3736 2.95161E+00
 -1      3737 2.78771E+00
 -1      3738 3.15542E+00
 -1      3739 1.91502E+00
 -1      3740 1.96609E+00
 -1      3741 1.32273E+00
 -1      3742 1.36146E+00
 -1      3743 2.00761E+00
 -1      3744 1.09467E+00
 -1      3745 1.19141E+00
 -1      3746 1.32273E+00
 -1      3747 9.11569E-01
 -1      3748 9.96728E-01
 -1      3749 1.09346E+00
 -1      3750 7.71164E-01
 -1      3751 8.00567E-01
 -1      3752 8.84520E-01
 -1      3753 2.08165E-01
 -1      3754 2.31383E+00
 -1      3755 2.37540E+00
 -1      3756 2.28555E+00
 -1      3757 1.82919E+00
 -1      3758 1.83385E+00
 -1      3759 2.13433E+00
 -1      3760 1.10468E-01
 -1      3761 1.20282E-01
 -1      3762 1.15210E-01
 -1      3763 6.07169E+00
 -1      3764 6.07169E+00
 -1      3765 2.51349E-01
 -1      3766 2.07397E-01
 -1      3767 1.81511E-01
 -1      3768 1.45008E-01
 -1      3769 1.56779E-01
 -1      3770 1.45293E-01
 -1      3771 4.19546E-01
 -1      3772 4.54858E+00
 -1      3773 4.17904E+00
 -1      3774 2.45404E-02
 -1      3775 2.85540E-02
 -1      3776 2.92723E-02
 -1      3777 2.83835E-01
 -1      3778 9.32217E-02
 -1      3779 1.03077E-01
 -1      3780 1.00187E-01
 -1      3781 6.87666E+00
 -1      3782 5.48718E+00
 -1      3783 2.61753E+00
 -1      3784 2.50723E+00
 -1      3785 1.70118E+00
 -1      3786 1.70118E+00
 -1      3787 6.17971E-01
 -1      3788 5.77276E+00
 -1      3789 6.37201E+00
 -1      3790 2.10313E-01
 -1      3791 2.83835E-01
 -1      3792 2.75378E-01
 -1      3793 1.75653E-01
 -1      3794 1.82152E-01
 -1      3795 1.53569E-01
 -1      3796 2.11200E+00
 -1      3797 2.70116E+00
 -1      3798 2.90188E+00
 -1      3799 2.00166E+00
 -1      3800 7.68810E-01
 -1      3801 6.07963E+00
 -1      3802 5.05114E+00
 -1      3803 8.06559E-01
 -1      3804 8.01893E-01
 -1      3805 1.31062E-01
 -1      3806 3.66109E+00
 -1      3807 2.71436E+00
 -1      3808 3.39209E+00
 -1      3809 5.52124E-02
 -1      3810 5.99150E-02
 -1      3811 6.86508E-02
 -1      3812 2.56983E+00
 -1      3813 2.07793E+00
 -1      3814 2.60243E+00
 -1      3815 1.76772E-01
 -1      3816 1.76464E-01
 -1      3817 1.50451E-01
 -1      3818 3.15542E+00
 -1      3819 4.87079E+00
 -1      3820 3.65589E+00
 -1      3821 3.27932E-02
 -1      3822 1.47778E+00
 -1      3823 1.16666E+00
 -1      3824 1.64559E+00
 -1      3825 5.80188E+00
 -1      3826 4.84864E+00
 -1      3827 4.72889E+00
 -1      3828 4.91062E+00
 -1      3829 4.64081E+00
 -1      3830 3.42286E+00
 -1      3831 1.16666E+00
 -1      3832 1.10017E+00
 -1      3833 1.12858E+00
 -1      3834 1.42219E+00
 -1      3835 2.89511E+00
 -1      3836 2.55456E+00
 -1      3837 2.63068E+00
 -1      3838 2.02989E-01
 -1      3839 2.32082E-01
 -1      3840 1.32152E-01
 -1      3841 1.85087E-01
 -1      3842 1.85087E-01
 -1      3843 1.70885E-01
 -1      3844 3.16768E+00
 -1      3845 2.97014E+00
 -1      3846 2.78485E+00
 -1      3847 7.61333E-02
 -1      3848 8.55277E-02
 -1      3849 8.51027E-02
 -1      3850 6.99262E-02
 -1      3851 2.67301E+00
 -1      3852 8.17310E-02
 -1      3853 9.90073E-02
 -1      3854 1.05374E-01
 -1      3855 1.11825E-01
 -1      3856 8.21847E-02
 -1      3857 1.18033E-01
 -1      3858 1.17805E-01
 -1      3859 9.47587E-02
 -1      3860 1.18586E-01
 -1      3861 1.14121E-01
 -1      3862 1.01747E-01
 -1      3863 1.11429E-01
 -1      3864 1.04608E-01
 -1      3865 9.98363E-02
 -1      3866 9.99987E-02
 -1      3867 9.25512E-02
 -1      3868 9.25351E-02
 -1      3869 8.68330E-02
 -1      3870 8.06000E-02
 -1      3871 8.22078E-02
 -1      3872 7.46923E-02
 -1      3873 6.79086E-02
 -1      3874 7.05820E-02
 -1      3875 6.28822E-02
 -1      3876 5.62254E-02
 -1      3877 5.96480E-02
 -1      3878 5.36644E-02
 -1      3879 4.74838E-02
 -1      3880 5.20606E-02
 -1      3881 4.54131E-02
 -1      3882 4.41424E-02
 -1      3883 4.74288E-02
 -1      3884 4.41708E-02
 -1      3885 4.49152E-02
 -1      3886 4.53865E-02
 -1      3887 4.86819E-02
 -1      3888 5.38444E-02
 -1      3889 4.91817E-02
 -1      3890 6.11542E-02
 -1      3891 7.20825E-02
 -1      3892 6.02583E-02
 -1      3893 8.30106E-02
 -1      3894 9.99780E-02
 -1      3895 7.84963E-02
 -1      3896 1.15352E-01
 -1      3897 1.40762E-01
 -1      3898 1.04799E-01
 -1      3899 1.61352E-01
 -1      3900 1.98184E-01
 -1      3901 1.40762E-01
 -1      3902 2.45061E-01
 -1      3903 2.96426E-01
 -1      3904 2.08230E-01
 -1      3905 3.69412E-01
 -1      3906 4.44267E-01
 -1      3907 3.28093E-01
 -1      3908 5.43981E-01
 -1      3909 7.00897E-01
 -1      3910 5.00793E-01
 -1      3911 8.30940E-01
 -1      3912 1.06702E+00
 -1      3913 7.30552E-01
 -1      3914 1.27345E+00
 -1      3915 1.59485E+00
 -1      3916 1.06702E+00
 -1      3917 2.35034E+00
 -1      3918 2.21766E+00
 -1      3919 1.16138E-01
 -1      3920 1.24356E-01
 -1      3921 1.72457E-01
 -1      3922 1.79335E-01
 -1      3923 1.47231E-01
 -1      3924 1.30355E-01
 -1      3925 1.27892E+00
 -1      3926 1.37686E+00
 -1      3927 3.91691E-02
 -1      3928 4.58142E-02
 -1      3929 5.10824E-02
 -1      3930 4.50753E-02
 -1      3931 3.83808E-02
 -1      3932 3.42209E-02
 -1      3933 4.74874E-02
 -1      3934 1.03354E-01
 -1      3935 8.80974E-02
 -1      3936 1.50920E-01
 -1      3937 1.30495E-01
 -1      3938 1.31670E-01
 -1      3939 2.22585E-01
 -1      3940 1.87194E-01
 -1      3941 1.95085E-01
 -1      3942 3.22024E-01
 -1      3943 2.65863E-01
 -1      3944 2.74637E-01
 -1      3945 4.39302E-01
 -1      3946 3.71675E-01
 -1      3947 3.67566E-01
 -1      3948 6.13653E-01
 -1      3949 5.37520E-01
 -1      3950 5.15435E-01
 -1      3951 8.54671E-01
 -1      3952 7.34162E-01
 -1      3953 7.34162E-01
 -1      3954 1.43519E+00
 -1      3955 1.29841E+00
 -1      3956 1.29841E+00
 -1      3957 2.24530E+00
 -1      3958 2.00119E+00
 -1      3959 2.08551E+00
 -1      3960 2.00761E+00
 -1      3961 2.56117E+00
 -1      3962 9.23759E-01
 -1      3963 1.03476E+00
 -1      3964 1.31815E+00
 -1      3965 7.71164E-01
 -1      3966 8.86896E-02
 -1      3967 9.60801E-02
 -1      3968 4.75876E+00
 -1      3969 2.67301E+00
 -1      3970 2.17371E+00
 -1      3971 3.60105E-02
 -1      3972 3.79081E-02
 -1      3973 4.23863E-02
 -1      3974 1.40461E+00
 -1      3975 1.53593E+00
 -1      3976 2.08949E+00
 -1      3977 1.59006E+00
 -1      3978 2.89511E+00
 -1      3979 7.30075E-02
 -1      3980 6.11658E-02
 -1      3981 6.42653E-02
 -1      3982 8.94385E-02
 -1      3983 2.47622E+00
 -1      3984 3.38323E+00
 -1      3985 2.15482E+00
 -1      3986 3.36054E-02
 -1      3987 3.52288E-02
 -1      3988 4.03436E-02
 -1      3989 4.33070E+00
 -1      3990 3.39209E+00
 -1      3991 2.32082E-01
 -1      3992 2.32082E-01
 -1      3993 1.38215E-01
 -1      3994 1.88787E-01
 -1      3995 1.30540E-01
 -1      3996 1.17620E-01
 -1      3997 1.28743E-01
 -1      3998 2.22295E+00
 -1      3999 1.27744E-01
 -1      4000 1.33758E-01
 -1      4001 1.12820E-01
 -1      4002 1.02822E-01
 -1      4003 1.10454E-01
 -1      4004 1.03749E-01
 -1      4005 9.13241E-02
 -1      4006 3.11112E+00
 -1      4007 4.41172E+00
 -1      4008 1.33651E-01
 -1      4009 1.35913E-01
 -1      4010 1.16102E-01
 -1      4011 2.49947E+00
 -1      4012 2.78485E+00
 -1      4013 2.87415E+00
 -1      4014 5.99425E-02
 -1      4015 6.71738E-02
 -1      4016 5.77756E-02
 -1      4017 8.04247E-01
 -1      4018 9.54488E-01
 -1      4019 2.67301E+00
 -1      4020 1.35919E-01
 -1      4021 4.01774E-02
 -1      4022 2.24399E+00
 -1      4023 2.54141E+00
 -1      4024 1.32303E-01
 -1      4025 2.42301E+00
 -1      4026 2.07433E+00
 -1      4027 1.85094E+00
 -1      4028 2.95517E+00
 -1      4029 1.30024E-01
 -1      4030 1.47926E-01
 -1      4031 8.28145E-02
 -1      4032 7.87073E-02
 -1      4033 7.51205E-02
 -1      4034 2.87971E+00
 -1      4035 4.04078E+00
 -1      4036 2.87820E+00
 -1      4037 2.93507E+00
 -1      4038 2.41409E+00
 -1      4039 1.47926E-01
 -1      4040 1.47926E-01
 -1      4041 9.14414E-02
 -1      4042 1.07065E-01
 -1      4043 1.24810E+00
 -1      4044 4.77155E+00
 -1      4045 3.69855E+00
 -1      4046 3.15378E+00
 -1      4047 4.77155E+00
 -1      4048 4.24805E-02
 -1      4049 4.32622E-02
 -1      4050 7.66500E-02
 -1      4051 8.28574E-02
 -1      4052 9.31880E-02
 -1      4053 9.39691E-02
 -1      4054 7.50793E-02
 -1      4055 9.64733E-02
 -1      4056 9.37811E-02
 -1      4057 8.79140E-02
 -1      4058 9.39923E-02
 -1      4059 8.93833E-02
 -1      4060 9.06293E-02
 -1      4061 8.54398E-02
 -1      4062 7.97216E-02
 -1      4063 8.68970E-02
 -1      4064 7.07396E-02
 -1      4065 6.48319E-02
 -1      4066 7.39715E-02
 -1      4067 6.14244E-02
 -1      4068 5.63980E-02
 -1      4069 6.15820E-02
 -1      4070 6.53399E-02
 -1      4071 6.27789E-02
 -1      4072 6.71164E-02
 -1      4073 4.95083E-02
 -1      4074 4.74376E-02
 -1      4075 6.27876E-02
 -1      4076 4.57841E-02
 -1      4077 4.58125E-02
 -1      4078 4.78636E-02
 -1      4079 4.61967E-02
 -1      4080 4.99634E-02
 -1      4081 4.65943E-02
 -1      4082 5.31876E-02
 -1      4083 6.04975E-02
 -1      4084 5.02026E-02
 -1      4085 6.75682E-02
 -1      4086 7.84963E-02
 -1      4087 6.04975E-02
 -1      4088 9.14682E-02
 -1      4089 1.06842E-01
 -1      4090 8.05400E-02
 -1      4091 1.40868E-01
 -1      4092 1.61458E-01
 -1      4093 1.27538E-01
 -1      4094 2.15108E-01
 -1      4095 2.61985E-01
 -1      4096 2.15214E-01
 -1      4097 3.42426E-01
 -1      4098 4.15412E-01
 -1      4099 3.49304E-01
 -1      4100 5.25271E-01
 -1      4101 6.24986E-01
 -1      4102 5.39604E-01
 -1      4103 7.92317E-01
 -1      4104 9.22361E-01
 -1      4105 8.16795E-01
 -1      4106 1.16864E+00
 -1      4107 1.37507E+00
 -1      4108 1.23041E+00
 -1      4109 1.79824E+00
 -1      4110 2.67961E+00
 -1      4111 1.89986E+00
 -1      4112 1.23576E-01
 -1      4113 1.29328E-01
 -1      4114 1.06369E-01
 -1      4115 1.10841E-01
 -1      4116 6.71792E-02
 -1      4117 7.46617E-02
 -1      4118 7.23735E-02
 -1      4119 7.19093E-02
 -1      4120 3.02843E-01
 -1      4121 2.66569E-01
 -1      4122 1.93799E-01
 -1      4123 1.66658E-01
 -1      4124 3.01557E-01
 -1      4125 6.43430E-01
 -1      4126 5.93779E-01
 -1      4127 9.07524E-01
 -1      4128 8.09306E-01
 -1      4129 1.03552E+00
 -1      4130 1.22058E+00
 -1      4131 1.10007E+00
 -1      4132 1.39394E+00
 -1      4133 2.03258E+00
 -1      4134 1.58885E+00
 -1      4135 1.95475E+00
 -1      4136 2.30815E+00
 -1      4137 1.74620E+00
 -1      4138 1.57211E+00
 -1      4139 1.81626E+00
 -1      4140 2.77498E+00
 -1      4141 2.17495E+00
 -1      4142 1.16002E-01
 -1      4143 4.36677E-02
 -1      4144 4.49287E-02
 -1      4145 4.58046E-02
 -1      4146 2.59859E+00
 -1      4147 1.74620E+00
 -1      4148 4.38856E-02
 -1      4149 4.32702E-02
 -1      4150 4.61887E-02
 -1      4151 2.02779E+00
 -1      4152 6.35734E-02
 -1      4153 6.99400E-02
 -1      4154 5.80388E-02
 -1      4155 7.91967E-02
 -1      4156 9.99252E-02
 -1      4157 1.03313E-01
 -1      4158 4.51245E-01
 -1      4159 4.07966E-01
 -1      4160 7.27108E-01
 -1      4161 3.01045E+00
 -1      4162 5.59902E-02
 -1      4163 4.92956E-02
 -1      4164 5.23884E-02
 -1      4165 2.59859E+00
 -1      4166 2.00411E+00
 -1      4167 9.04706E-02
 -1      4168 9.11664E-02
 -1      4169 9.44532E-02
 -1      4170 1.00136E-01
 -1      4171 9.06293E-02
 -1      4172 5.98528E-02
 -1      4173 7.39811E-02
 -1      4174 6.11342E-02
 -1      4175 1.86085E-01
 -1      4176 1.23956E-01
 -1      4177 1.08866E-01
 -1      4178 4.79450E-01
 -1      4179 7.78929E-02
 -1      4180 8.37680E-02
 -1      4181 2.23031E+00
 -1      4182 1.01995E-01
 -1      4183 1.01888E-01
 -1      4184 8.90997E-02
 -1      4185 1.97636E+00
 -1      4186 9.11664E-02
 -1      4187 2.59859E+00
 -1      4188 2.32302E+00
 -1      4189 8.37125E-02
 -1      4190 7.36292E-02
 -1      4191 1.18230E-01
 -1      4192 7.54374E-02
 -1      4193 8.68970E-02
 -1      4194 8.77115E-02
 -1      4195 9.44532E-02
 -1      4196 8.79140E-02
 -1      4197 9.04181E-02
 -1      4198 9.06293E-02
 -1      4199 9.08406E-02
 -1      4200 9.08406E-02
 -1      4201 8.68970E-02
 -1      4202 8.29535E-02
 -1      4203 7.39715E-02
 -1      4204 6.71164E-02
 -1      4205 7.60582E-02
 -1      4206 7.60582E-02
 -1      4207 6.27876E-02
 -1      4208 4.78636E-02
 -1      4209 4.62101E-02
 -1      4210 4.58046E-02
 -1      4211 4.61887E-02
 -1      4212 4.69784E-02
 -1      4213 5.02026E-02
 -1      4214 5.56126E-02
 -1      4215 6.26833E-02
 -1      4216 8.03223E-02
 -1      4217 9.32942E-02
 -1      4218 1.18447E-01
 -1      4219 1.52474E-01
 -1      4220 1.95175E-01
 -1      4221 2.48825E-01
 -1      4222 3.21595E-01
 -1      4223 4.02036E-01
 -1      4224 5.07159E-01
 -1      4225 6.17018E-01
 -1      4226 7.59553E-01
 -1      4227 9.26884E-01
 -1      4228 1.09276E+00
 -1      4229 1.33904E+00
 -1      4230 1.53159E+00
 -1      4231 1.95475E+00
 -1      4232 9.56380E-02
 -1      4233 9.04706E-02
 -1      4234 6.32984E-02
 -1      4235 7.23735E-02
 -1      4236 7.74341E-02
 -1      4237 6.84521E-02
 -1      4238 7.19147E-02
 -1      4239 9.56316E-02
 -1      4240 7.62650E-02
 -1      4241 8.65955E-02
 -1      4242 8.15246E-02
 -1      4243 7.52680E-02
 -1      4244 7.60582E-02
 -1      4245 6.50446E-02
 -1      4246 7.00084E-02
 -1      4247 9.08406E-02
 -1      4248 8.15246E-02
 -1      4249 7.39864E-02
 -1      4250 7.39811E-02
 -1      4251 7.39864E-02
 -3
 9999
